# vtk DataFile Version 3.0
Some data
ASCII
DATASET UNSTRUCTURED_GRID
POINTS 1029 float
0.0 0.0 0.0
0.8 0.0 0.0
1.6 0.0 0.0
2.4000000000000004 0.0 0.0
3.2 0.0 0.0
4.0 0.0 0.0
4.800000000000001 0.0 0.0
5.6000000000000005 0.0 0.0
6.4 0.0 0.0
7.2 0.0 0.0
8.0 0.0 0.0
8.8 0.0 0.0
9.600000000000001 0.0 0.0
10.4 0.0 0.0
11.200000000000001 0.0 0.0
12.0 0.0 0.0
12.8 0.0 0.0
13.600000000000001 0.0 0.0
14.4 0.0 0.0
15.200000000000001 0.0 0.0
16.0 0.0 0.0
0.0 0.3333333333333333 0.0
0.8 0.3333333333333333 0.0
1.6 0.3333333333333333 0.0
2.4000000000000004 0.3333333333333333 0.0
3.2 0.3333333333333333 0.0
4.0 0.3333333333333333 0.0
4.800000000000001 0.3333333333333333 0.0
5.6000000000000005 0.3333333333333333 0.0
6.4 0.3333333333333333 0.0
7.2 0.3333333333333333 0.0
8.0 0.3333333333333333 0.0
8.8 0.3333333333333333 0.0
9.600000000000001 0.3333333333333333 0.0
10.4 0.3333333333333333 0.0
11.200000000000001 0.3333333333333333 0.0
12.0 0.3333333333333333 0.0
12.8 0.3333333333333333 0.0
13.600000000000001 0.3333333333333333 0.0
14.4 0.3333333333333333 0.0
15.200000000000001 0.3333333333333333 0.0
16.0 0.3333333333333333 0.0
0.0 0.6666666666666666 0.0
0.8 0.6666666666666666 0.0
1.6 0.6666666666666666 0.0
2.4000000000000004 0.6666666666666666 0.0
3.2 0.6666666666666666 0.0
4.0 0.6666666666666666 0.0
4.800000000000001 0.6666666666666666 0.0
5.6000000000000005 0.6666666666666666 0.0
6.4 0.6666666666666666 0.0
7.2 0.6666666666666666 0.0
8.0 0.6666666666666666 0.0
8.8 0.6666666666666666 0.0
9.600000000000001 0.6666666666666666 0.0
10.4 0.6666666666666666 0.0
11.200000000000001 0.6666666666666666 0.0
12.0 0.6666666666666666 0.0
12.8 0.6666666666666666 0.0
13.600000000000001 0.6666666666666666 0.0
14.4 0.6666666666666666 0.0
15.200000000000001 0.6666666666666666 0.0
16.0 0.6666666666666666 0.0
0.0 1.0 0.0
0.8 1.0 0.0
1.6 1.0 0.0
2.4000000000000004 1.0 0.0
3.2 1.0 0.0
4.0 1.0 0.0
4.800000000000001 1.0 0.0
5.6000000000000005 1.0 0.0
6.4 1.0 0.0
7.2 1.0 0.0
8.0 1.0 0.0
8.8 1.0 0.0
9.600000000000001 1.0 0.0
10.4 1.0 0.0
11.200000000000001 1.0 0.0
12.0 1.0 0.0
12.8 1.0 0.0
13.600000000000001 1.0 0.0
14.4 1.0 0.0
15.200000000000001 1.0 0.0
16.0 1.0 0.0
0.0 1.3333333333333333 0.0
0.8 1.3333333333333333 0.0
1.6 1.3333333333333333 0.0
2.4000000000000004 1.3333333333333333 0.0
3.2 1.3333333333333333 0.0
4.0 1.3333333333333333 0.0
4.800000000000001 1.3333333333333333 0.0
5.6000000000000005 1.3333333333333333 0.0
6.4 1.3333333333333333 0.0
7.2 1.3333333333333333 0.0
8.0 1.3333333333333333 0.0
8.8 1.3333333333333333 0.0
9.600000000000001 1.3333333333333333 0.0
10.4 1.3333333333333333 0.0
11.200000000000001 1.3333333333333333 0.0
12.0 1.3333333333333333 0.0
12.8 1.3333333333333333 0.0
13.600000000000001 1.3333333333333333 0.0
14.4 1.3333333333333333 0.0
15.200000000000001 1.3333333333333333 0.0
16.0 1.3333333333333333 0.0
0.0 1.6666666666666665 0.0
0.8 1.6666666666666665 0.0
1.6 1.6666666666666665 0.0
2.4000000000000004 1.6666666666666665 0.0
3.2 1.6666666666666665 0.0
4.0 1.6666666666666665 0.0
4.800000000000001 1.6666666666666665 0.0
5.6000000000000005 1.6666666666666665 0.0
6.4 1.6666666666666665 0.0
7.2 1.6666666666666665 0.0
8.0 1.6666666666666665 0.0
8.8 1.6666666666666665 0.0
9.600000000000001 1.6666666666666665 0.0
10.4 1.6666666666666665 0.0
11.200000000000001 1.6666666666666665 0.0
12.0 1.6666666666666665 0.0
12.8 1.6666666666666665 0.0
13.600000000000001 1.6666666666666665 0.0
14.4 1.6666666666666665 0.0
15.200000000000001 1.6666666666666665 0.0
16.0 1.6666666666666665 0.0
0.0 2.0 0.0
0.8 2.0 0.0
1.6 2.0 0.0
2.4000000000000004 2.0 0.0
3.2 2.0 0.0
4.0 2.0 0.0
4.800000000000001 2.0 0.0
5.6000000000000005 2.0 0.0
6.4 2.0 0.0
7.2 2.0 0.0
8.0 2.0 0.0
8.8 2.0 0.0
9.600000000000001 2.0 0.0
10.4 2.0 0.0
11.200000000000001 2.0 0.0
12.0 2.0 0.0
12.8 2.0 0.0
13.600000000000001 2.0 0.0
14.4 2.0 0.0
15.200000000000001 2.0 0.0
16.0 2.0 0.0
0.0 0.0 1.6666666666666667
0.8 0.0 1.6666666666666667
1.6 0.0 1.6666666666666667
2.4000000000000004 0.0 1.6666666666666667
3.2 0.0 1.6666666666666667
4.0 0.0 1.6666666666666667
4.800000000000001 0.0 1.6666666666666667
5.6000000000000005 0.0 1.6666666666666667
6.4 0.0 1.6666666666666667
7.2 0.0 1.6666666666666667
8.0 0.0 1.6666666666666667
8.8 0.0 1.6666666666666667
9.600000000000001 0.0 1.6666666666666667
10.4 0.0 1.6666666666666667
11.200000000000001 0.0 1.6666666666666667
12.0 0.0 1.6666666666666667
12.8 0.0 1.6666666666666667
13.600000000000001 0.0 1.6666666666666667
14.4 0.0 1.6666666666666667
15.200000000000001 0.0 1.6666666666666667
16.0 0.0 1.6666666666666667
0.0 0.3333333333333333 1.6666666666666667
0.8 0.3333333333333333 1.6666666666666667
1.6 0.3333333333333333 1.6666666666666667
2.4000000000000004 0.3333333333333333 1.6666666666666667
3.2 0.3333333333333333 1.6666666666666667
4.0 0.3333333333333333 1.6666666666666667
4.800000000000001 0.3333333333333333 1.6666666666666667
5.6000000000000005 0.3333333333333333 1.6666666666666667
6.4 0.3333333333333333 1.6666666666666667
7.2 0.3333333333333333 1.6666666666666667
8.0 0.3333333333333333 1.6666666666666667
8.8 0.3333333333333333 1.6666666666666667
9.600000000000001 0.3333333333333333 1.6666666666666667
10.4 0.3333333333333333 1.6666666666666667
11.200000000000001 0.3333333333333333 1.6666666666666667
12.0 0.3333333333333333 1.6666666666666667
12.8 0.3333333333333333 1.6666666666666667
13.600000000000001 0.3333333333333333 1.6666666666666667
14.4 0.3333333333333333 1.6666666666666667
15.200000000000001 0.3333333333333333 1.6666666666666667
16.0 0.3333333333333333 1.6666666666666667
0.0 0.6666666666666666 1.6666666666666667
0.8 0.6666666666666666 1.6666666666666667
1.6 0.6666666666666666 1.6666666666666667
2.4000000000000004 0.6666666666666666 1.6666666666666667
3.2 0.6666666666666666 1.6666666666666667
4.0 0.6666666666666666 1.6666666666666667
4.800000000000001 0.6666666666666666 1.6666666666666667
5.6000000000000005 0.6666666666666666 1.6666666666666667
6.4 0.6666666666666666 1.6666666666666667
7.2 0.6666666666666666 1.6666666666666667
8.0 0.6666666666666666 1.6666666666666667
8.8 0.6666666666666666 1.6666666666666667
9.600000000000001 0.6666666666666666 1.6666666666666667
10.4 0.6666666666666666 1.6666666666666667
11.200000000000001 0.6666666666666666 1.6666666666666667
12.0 0.6666666666666666 1.6666666666666667
12.8 0.6666666666666666 1.6666666666666667
13.600000000000001 0.6666666666666666 1.6666666666666667
14.4 0.6666666666666666 1.6666666666666667
15.200000000000001 0.6666666666666666 1.6666666666666667
16.0 0.6666666666666666 1.6666666666666667
0.0 1.0 1.6666666666666667
0.8 1.0 1.6666666666666667
1.6 1.0 1.6666666666666667
2.4000000000000004 1.0 1.6666666666666667
3.2 1.0 1.6666666666666667
4.0 1.0 1.6666666666666667
4.800000000000001 1.0 1.6666666666666667
5.6000000000000005 1.0 1.6666666666666667
6.4 1.0 1.6666666666666667
7.2 1.0 1.6666666666666667
8.0 1.0 1.6666666666666667
8.8 1.0 1.6666666666666667
9.600000000000001 1.0 1.6666666666666667
10.4 1.0 1.6666666666666667
11.200000000000001 1.0 1.6666666666666667
12.0 1.0 1.6666666666666667
12.8 1.0 1.6666666666666667
13.600000000000001 1.0 1.6666666666666667
14.4 1.0 1.6666666666666667
15.200000000000001 1.0 1.6666666666666667
16.0 1.0 1.6666666666666667
0.0 1.3333333333333333 1.6666666666666667
0.8 1.3333333333333333 1.6666666666666667
1.6 1.3333333333333333 1.6666666666666667
2.4000000000000004 1.3333333333333333 1.6666666666666667
3.2 1.3333333333333333 1.6666666666666667
4.0 1.3333333333333333 1.6666666666666667
4.800000000000001 1.3333333333333333 1.6666666666666667
5.6000000000000005 1.3333333333333333 1.6666666666666667
6.4 1.3333333333333333 1.6666666666666667
7.2 1.3333333333333333 1.6666666666666667
8.0 1.3333333333333333 1.6666666666666667
8.8 1.3333333333333333 1.6666666666666667
9.600000000000001 1.3333333333333333 1.6666666666666667
10.4 1.3333333333333333 1.6666666666666667
11.200000000000001 1.3333333333333333 1.6666666666666667
12.0 1.3333333333333333 1.6666666666666667
12.8 1.3333333333333333 1.6666666666666667
13.600000000000001 1.3333333333333333 1.6666666666666667
14.4 1.3333333333333333 1.6666666666666667
15.200000000000001 1.3333333333333333 1.6666666666666667
16.0 1.3333333333333333 1.6666666666666667
0.0 1.6666666666666665 1.6666666666666667
0.8 1.6666666666666665 1.6666666666666667
1.6 1.6666666666666665 1.6666666666666667
2.4000000000000004 1.6666666666666665 1.6666666666666667
3.2 1.6666666666666665 1.6666666666666667
4.0 1.6666666666666665 1.6666666666666667
4.800000000000001 1.6666666666666665 1.6666666666666667
5.6000000000000005 1.6666666666666665 1.6666666666666667
6.4 1.6666666666666665 1.6666666666666667
7.2 1.6666666666666665 1.6666666666666667
8.0 1.6666666666666665 1.6666666666666667
8.8 1.6666666666666665 1.6666666666666667
9.600000000000001 1.6666666666666665 1.6666666666666667
10.4 1.6666666666666665 1.6666666666666667
11.200000000000001 1.6666666666666665 1.6666666666666667
12.0 1.6666666666666665 1.6666666666666667
12.8 1.6666666666666665 1.6666666666666667
13.600000000000001 1.6666666666666665 1.6666666666666667
14.4 1.6666666666666665 1.6666666666666667
15.200000000000001 1.6666666666666665 1.6666666666666667
16.0 1.6666666666666665 1.6666666666666667
0.0 2.0 1.6666666666666667
0.8 2.0 1.6666666666666667
1.6 2.0 1.6666666666666667
2.4000000000000004 2.0 1.6666666666666667
3.2 2.0 1.6666666666666667
4.0 2.0 1.6666666666666667
4.800000000000001 2.0 1.6666666666666667
5.6000000000000005 2.0 1.6666666666666667
6.4 2.0 1.6666666666666667
7.2 2.0 1.6666666666666667
8.0 2.0 1.6666666666666667
8.8 2.0 1.6666666666666667
9.600000000000001 2.0 1.6666666666666667
10.4 2.0 1.6666666666666667
11.200000000000001 2.0 1.6666666666666667
12.0 2.0 1.6666666666666667
12.8 2.0 1.6666666666666667
13.600000000000001 2.0 1.6666666666666667
14.4 2.0 1.6666666666666667
15.200000000000001 2.0 1.6666666666666667
16.0 2.0 1.6666666666666667
0.0 0.0 3.3333333333333335
0.8 0.0 3.3333333333333335
1.6 0.0 3.3333333333333335
2.4000000000000004 0.0 3.3333333333333335
3.2 0.0 3.3333333333333335
4.0 0.0 3.3333333333333335
4.800000000000001 0.0 3.3333333333333335
5.6000000000000005 0.0 3.3333333333333335
6.4 0.0 3.3333333333333335
7.2 0.0 3.3333333333333335
8.0 0.0 3.3333333333333335
8.8 0.0 3.3333333333333335
9.600000000000001 0.0 3.3333333333333335
10.4 0.0 3.3333333333333335
11.200000000000001 0.0 3.3333333333333335
12.0 0.0 3.3333333333333335
12.8 0.0 3.3333333333333335
13.600000000000001 0.0 3.3333333333333335
14.4 0.0 3.3333333333333335
15.200000000000001 0.0 3.3333333333333335
16.0 0.0 3.3333333333333335
0.0 0.3333333333333333 3.3333333333333335
0.8 0.3333333333333333 3.3333333333333335
1.6 0.3333333333333333 3.3333333333333335
2.4000000000000004 0.3333333333333333 3.3333333333333335
3.2 0.3333333333333333 3.3333333333333335
4.0 0.3333333333333333 3.3333333333333335
4.800000000000001 0.3333333333333333 3.3333333333333335
5.6000000000000005 0.3333333333333333 3.3333333333333335
6.4 0.3333333333333333 3.3333333333333335
7.2 0.3333333333333333 3.3333333333333335
8.0 0.3333333333333333 3.3333333333333335
8.8 0.3333333333333333 3.3333333333333335
9.600000000000001 0.3333333333333333 3.3333333333333335
10.4 0.3333333333333333 3.3333333333333335
11.200000000000001 0.3333333333333333 3.3333333333333335
12.0 0.3333333333333333 3.3333333333333335
12.8 0.3333333333333333 3.3333333333333335
13.600000000000001 0.3333333333333333 3.3333333333333335
14.4 0.3333333333333333 3.3333333333333335
15.200000000000001 0.3333333333333333 3.3333333333333335
16.0 0.3333333333333333 3.3333333333333335
0.0 0.6666666666666666 3.3333333333333335
0.8 0.6666666666666666 3.3333333333333335
1.6 0.6666666666666666 3.3333333333333335
2.4000000000000004 0.6666666666666666 3.3333333333333335
3.2 0.6666666666666666 3.3333333333333335
4.0 0.6666666666666666 3.3333333333333335
4.800000000000001 0.6666666666666666 3.3333333333333335
5.6000000000000005 0.6666666666666666 3.3333333333333335
6.4 0.6666666666666666 3.3333333333333335
7.2 0.6666666666666666 3.3333333333333335
8.0 0.6666666666666666 3.3333333333333335
8.8 0.6666666666666666 3.3333333333333335
9.600000000000001 0.6666666666666666 3.3333333333333335
10.4 0.6666666666666666 3.3333333333333335
11.200000000000001 0.6666666666666666 3.3333333333333335
12.0 0.6666666666666666 3.3333333333333335
12.8 0.6666666666666666 3.3333333333333335
13.600000000000001 0.6666666666666666 3.3333333333333335
14.4 0.6666666666666666 3.3333333333333335
15.200000000000001 0.6666666666666666 3.3333333333333335
16.0 0.6666666666666666 3.3333333333333335
0.0 1.0 3.3333333333333335
0.8 1.0 3.3333333333333335
1.6 1.0 3.3333333333333335
2.4000000000000004 1.0 3.3333333333333335
3.2 1.0 3.3333333333333335
4.0 1.0 3.3333333333333335
4.800000000000001 1.0 3.3333333333333335
5.6000000000000005 1.0 3.3333333333333335
6.4 1.0 3.3333333333333335
7.2 1.0 3.3333333333333335
8.0 1.0 3.3333333333333335
8.8 1.0 3.3333333333333335
9.600000000000001 1.0 3.3333333333333335
10.4 1.0 3.3333333333333335
11.200000000000001 1.0 3.3333333333333335
12.0 1.0 3.3333333333333335
12.8 1.0 3.3333333333333335
13.600000000000001 1.0 3.3333333333333335
14.4 1.0 3.3333333333333335
15.200000000000001 1.0 3.3333333333333335
16.0 1.0 3.3333333333333335
0.0 1.3333333333333333 3.3333333333333335
0.8 1.3333333333333333 3.3333333333333335
1.6 1.3333333333333333 3.3333333333333335
2.4000000000000004 1.3333333333333333 3.3333333333333335
3.2 1.3333333333333333 3.3333333333333335
4.0 1.3333333333333333 3.3333333333333335
4.800000000000001 1.3333333333333333 3.3333333333333335
5.6000000000000005 1.3333333333333333 3.3333333333333335
6.4 1.3333333333333333 3.3333333333333335
7.2 1.3333333333333333 3.3333333333333335
8.0 1.3333333333333333 3.3333333333333335
8.8 1.3333333333333333 3.3333333333333335
9.600000000000001 1.3333333333333333 3.3333333333333335
10.4 1.3333333333333333 3.3333333333333335
11.200000000000001 1.3333333333333333 3.3333333333333335
12.0 1.3333333333333333 3.3333333333333335
12.8 1.3333333333333333 3.3333333333333335
13.600000000000001 1.3333333333333333 3.3333333333333335
14.4 1.3333333333333333 3.3333333333333335
15.200000000000001 1.3333333333333333 3.3333333333333335
16.0 1.3333333333333333 3.3333333333333335
0.0 1.6666666666666665 3.3333333333333335
0.8 1.6666666666666665 3.3333333333333335
1.6 1.6666666666666665 3.3333333333333335
2.4000000000000004 1.6666666666666665 3.3333333333333335
3.2 1.6666666666666665 3.3333333333333335
4.0 1.6666666666666665 3.3333333333333335
4.800000000000001 1.6666666666666665 3.3333333333333335
5.6000000000000005 1.6666666666666665 3.3333333333333335
6.4 1.6666666666666665 3.3333333333333335
7.2 1.6666666666666665 3.3333333333333335
8.0 1.6666666666666665 3.3333333333333335
8.8 1.6666666666666665 3.3333333333333335
9.600000000000001 1.6666666666666665 3.3333333333333335
10.4 1.6666666666666665 3.3333333333333335
11.200000000000001 1.6666666666666665 3.3333333333333335
12.0 1.6666666666666665 3.3333333333333335
12.8 1.6666666666666665 3.3333333333333335
13.600000000000001 1.6666666666666665 3.3333333333333335
14.4 1.6666666666666665 3.3333333333333335
15.200000000000001 1.6666666666666665 3.3333333333333335
16.0 1.6666666666666665 3.3333333333333335
0.0 2.0 3.3333333333333335
0.8 2.0 3.3333333333333335
1.6 2.0 3.3333333333333335
2.4000000000000004 2.0 3.3333333333333335
3.2 2.0 3.3333333333333335
4.0 2.0 3.3333333333333335
4.800000000000001 2.0 3.3333333333333335
5.6000000000000005 2.0 3.3333333333333335
6.4 2.0 3.3333333333333335
7.2 2.0 3.3333333333333335
8.0 2.0 3.3333333333333335
8.8 2.0 3.3333333333333335
9.600000000000001 2.0 3.3333333333333335
10.4 2.0 3.3333333333333335
11.200000000000001 2.0 3.3333333333333335
12.0 2.0 3.3333333333333335
12.8 2.0 3.3333333333333335
13.600000000000001 2.0 3.3333333333333335
14.4 2.0 3.3333333333333335
15.200000000000001 2.0 3.3333333333333335
16.0 2.0 3.3333333333333335
0.0 0.0 5.0
0.8 0.0 5.0
1.6 0.0 5.0
2.4000000000000004 0.0 5.0
3.2 0.0 5.0
4.0 0.0 5.0
4.800000000000001 0.0 5.0
5.6000000000000005 0.0 5.0
6.4 0.0 5.0
7.2 0.0 5.0
8.0 0.0 5.0
8.8 0.0 5.0
9.600000000000001 0.0 5.0
10.4 0.0 5.0
11.200000000000001 0.0 5.0
12.0 0.0 5.0
12.8 0.0 5.0
13.600000000000001 0.0 5.0
14.4 0.0 5.0
15.200000000000001 0.0 5.0
16.0 0.0 5.0
0.0 0.3333333333333333 5.0
0.8 0.3333333333333333 5.0
1.6 0.3333333333333333 5.0
2.4000000000000004 0.3333333333333333 5.0
3.2 0.3333333333333333 5.0
4.0 0.3333333333333333 5.0
4.800000000000001 0.3333333333333333 5.0
5.6000000000000005 0.3333333333333333 5.0
6.4 0.3333333333333333 5.0
7.2 0.3333333333333333 5.0
8.0 0.3333333333333333 5.0
8.8 0.3333333333333333 5.0
9.600000000000001 0.3333333333333333 5.0
10.4 0.3333333333333333 5.0
11.200000000000001 0.3333333333333333 5.0
12.0 0.3333333333333333 5.0
12.8 0.3333333333333333 5.0
13.600000000000001 0.3333333333333333 5.0
14.4 0.3333333333333333 5.0
15.200000000000001 0.3333333333333333 5.0
16.0 0.3333333333333333 5.0
0.0 0.6666666666666666 5.0
0.8 0.6666666666666666 5.0
1.6 0.6666666666666666 5.0
2.4000000000000004 0.6666666666666666 5.0
3.2 0.6666666666666666 5.0
4.0 0.6666666666666666 5.0
4.800000000000001 0.6666666666666666 5.0
5.6000000000000005 0.6666666666666666 5.0
6.4 0.6666666666666666 5.0
7.2 0.6666666666666666 5.0
8.0 0.6666666666666666 5.0
8.8 0.6666666666666666 5.0
9.600000000000001 0.6666666666666666 5.0
10.4 0.6666666666666666 5.0
11.200000000000001 0.6666666666666666 5.0
12.0 0.6666666666666666 5.0
12.8 0.6666666666666666 5.0
13.600000000000001 0.6666666666666666 5.0
14.4 0.6666666666666666 5.0
15.200000000000001 0.6666666666666666 5.0
16.0 0.6666666666666666 5.0
0.0 1.0 5.0
0.8 1.0 5.0
1.6 1.0 5.0
2.4000000000000004 1.0 5.0
3.2 1.0 5.0
4.0 1.0 5.0
4.800000000000001 1.0 5.0
5.6000000000000005 1.0 5.0
6.4 1.0 5.0
7.2 1.0 5.0
8.0 1.0 5.0
8.8 1.0 5.0
9.600000000000001 1.0 5.0
10.4 1.0 5.0
11.200000000000001 1.0 5.0
12.0 1.0 5.0
12.8 1.0 5.0
13.600000000000001 1.0 5.0
14.4 1.0 5.0
15.200000000000001 1.0 5.0
16.0 1.0 5.0
0.0 1.3333333333333333 5.0
0.8 1.3333333333333333 5.0
1.6 1.3333333333333333 5.0
2.4000000000000004 1.3333333333333333 5.0
3.2 1.3333333333333333 5.0
4.0 1.3333333333333333 5.0
4.800000000000001 1.3333333333333333 5.0
5.6000000000000005 1.3333333333333333 5.0
6.4 1.3333333333333333 5.0
7.2 1.3333333333333333 5.0
8.0 1.3333333333333333 5.0
8.8 1.3333333333333333 5.0
9.600000000000001 1.3333333333333333 5.0
10.4 1.3333333333333333 5.0
11.200000000000001 1.3333333333333333 5.0
12.0 1.3333333333333333 5.0
12.8 1.3333333333333333 5.0
13.600000000000001 1.3333333333333333 5.0
14.4 1.3333333333333333 5.0
15.200000000000001 1.3333333333333333 5.0
16.0 1.3333333333333333 5.0
0.0 1.6666666666666665 5.0
0.8 1.6666666666666665 5.0
1.6 1.6666666666666665 5.0
2.4000000000000004 1.6666666666666665 5.0
3.2 1.6666666666666665 5.0
4.0 1.6666666666666665 5.0
4.800000000000001 1.6666666666666665 5.0
5.6000000000000005 1.6666666666666665 5.0
6.4 1.6666666666666665 5.0
7.2 1.6666666666666665 5.0
8.0 1.6666666666666665 5.0
8.8 1.6666666666666665 5.0
9.600000000000001 1.6666666666666665 5.0
10.4 1.6666666666666665 5.0
11.200000000000001 1.6666666666666665 5.0
12.0 1.6666666666666665 5.0
12.8 1.6666666666666665 5.0
13.600000000000001 1.6666666666666665 5.0
14.4 1.6666666666666665 5.0
15.200000000000001 1.6666666666666665 5.0
16.0 1.6666666666666665 5.0
0.0 2.0 5.0
0.8 2.0 5.0
1.6 2.0 5.0
2.4000000000000004 2.0 5.0
3.2 2.0 5.0
4.0 2.0 5.0
4.800000000000001 2.0 5.0
5.6000000000000005 2.0 5.0
6.4 2.0 5.0
7.2 2.0 5.0
8.0 2.0 5.0
8.8 2.0 5.0
9.600000000000001 2.0 5.0
10.4 2.0 5.0
11.200000000000001 2.0 5.0
12.0 2.0 5.0
12.8 2.0 5.0
13.600000000000001 2.0 5.0
14.4 2.0 5.0
15.200000000000001 2.0 5.0
16.0 2.0 5.0
0.0 0.0 6.666666666666667
0.8 0.0 6.666666666666667
1.6 0.0 6.666666666666667
2.4000000000000004 0.0 6.666666666666667
3.2 0.0 6.666666666666667
4.0 0.0 6.666666666666667
4.800000000000001 0.0 6.666666666666667
5.6000000000000005 0.0 6.666666666666667
6.4 0.0 6.666666666666667
7.2 0.0 6.666666666666667
8.0 0.0 6.666666666666667
8.8 0.0 6.666666666666667
9.600000000000001 0.0 6.666666666666667
10.4 0.0 6.666666666666667
11.200000000000001 0.0 6.666666666666667
12.0 0.0 6.666666666666667
12.8 0.0 6.666666666666667
13.600000000000001 0.0 6.666666666666667
14.4 0.0 6.666666666666667
15.200000000000001 0.0 6.666666666666667
16.0 0.0 6.666666666666667
0.0 0.3333333333333333 6.666666666666667
0.8 0.3333333333333333 6.666666666666667
1.6 0.3333333333333333 6.666666666666667
2.4000000000000004 0.3333333333333333 6.666666666666667
3.2 0.3333333333333333 6.666666666666667
4.0 0.3333333333333333 6.666666666666667
4.800000000000001 0.3333333333333333 6.666666666666667
5.6000000000000005 0.3333333333333333 6.666666666666667
6.4 0.3333333333333333 6.666666666666667
7.2 0.3333333333333333 6.666666666666667
8.0 0.3333333333333333 6.666666666666667
8.8 0.3333333333333333 6.666666666666667
9.600000000000001 0.3333333333333333 6.666666666666667
10.4 0.3333333333333333 6.666666666666667
11.200000000000001 0.3333333333333333 6.666666666666667
12.0 0.3333333333333333 6.666666666666667
12.8 0.3333333333333333 6.666666666666667
13.600000000000001 0.3333333333333333 6.666666666666667
14.4 0.3333333333333333 6.666666666666667
15.200000000000001 0.3333333333333333 6.666666666666667
16.0 0.3333333333333333 6.666666666666667
0.0 0.6666666666666666 6.666666666666667
0.8 0.6666666666666666 6.666666666666667
1.6 0.6666666666666666 6.666666666666667
2.4000000000000004 0.6666666666666666 6.666666666666667
3.2 0.6666666666666666 6.666666666666667
4.0 0.6666666666666666 6.666666666666667
4.800000000000001 0.6666666666666666 6.666666666666667
5.6000000000000005 0.6666666666666666 6.666666666666667
6.4 0.6666666666666666 6.666666666666667
7.2 0.6666666666666666 6.666666666666667
8.0 0.6666666666666666 6.666666666666667
8.8 0.6666666666666666 6.666666666666667
9.600000000000001 0.6666666666666666 6.666666666666667
10.4 0.6666666666666666 6.666666666666667
11.200000000000001 0.6666666666666666 6.666666666666667
12.0 0.6666666666666666 6.666666666666667
12.8 0.6666666666666666 6.666666666666667
13.600000000000001 0.6666666666666666 6.666666666666667
14.4 0.6666666666666666 6.666666666666667
15.200000000000001 0.6666666666666666 6.666666666666667
16.0 0.6666666666666666 6.666666666666667
0.0 1.0 6.666666666666667
0.8 1.0 6.666666666666667
1.6 1.0 6.666666666666667
2.4000000000000004 1.0 6.666666666666667
3.2 1.0 6.666666666666667
4.0 1.0 6.666666666666667
4.800000000000001 1.0 6.666666666666667
5.6000000000000005 1.0 6.666666666666667
6.4 1.0 6.666666666666667
7.2 1.0 6.666666666666667
8.0 1.0 6.666666666666667
8.8 1.0 6.666666666666667
9.600000000000001 1.0 6.666666666666667
10.4 1.0 6.666666666666667
11.200000000000001 1.0 6.666666666666667
12.0 1.0 6.666666666666667
12.8 1.0 6.666666666666667
13.600000000000001 1.0 6.666666666666667
14.4 1.0 6.666666666666667
15.200000000000001 1.0 6.666666666666667
16.0 1.0 6.666666666666667
0.0 1.3333333333333333 6.666666666666667
0.8 1.3333333333333333 6.666666666666667
1.6 1.3333333333333333 6.666666666666667
2.4000000000000004 1.3333333333333333 6.666666666666667
3.2 1.3333333333333333 6.666666666666667
4.0 1.3333333333333333 6.666666666666667
4.800000000000001 1.3333333333333333 6.666666666666667
5.6000000000000005 1.3333333333333333 6.666666666666667
6.4 1.3333333333333333 6.666666666666667
7.2 1.3333333333333333 6.666666666666667
8.0 1.3333333333333333 6.666666666666667
8.8 1.3333333333333333 6.666666666666667
9.600000000000001 1.3333333333333333 6.666666666666667
10.4 1.3333333333333333 6.666666666666667
11.200000000000001 1.3333333333333333 6.666666666666667
12.0 1.3333333333333333 6.666666666666667
12.8 1.3333333333333333 6.666666666666667
13.600000000000001 1.3333333333333333 6.666666666666667
14.4 1.3333333333333333 6.666666666666667
15.200000000000001 1.3333333333333333 6.666666666666667
16.0 1.3333333333333333 6.666666666666667
0.0 1.6666666666666665 6.666666666666667
0.8 1.6666666666666665 6.666666666666667
1.6 1.6666666666666665 6.666666666666667
2.4000000000000004 1.6666666666666665 6.666666666666667
3.2 1.6666666666666665 6.666666666666667
4.0 1.6666666666666665 6.666666666666667
4.800000000000001 1.6666666666666665 6.666666666666667
5.6000000000000005 1.6666666666666665 6.666666666666667
6.4 1.6666666666666665 6.666666666666667
7.2 1.6666666666666665 6.666666666666667
8.0 1.6666666666666665 6.666666666666667
8.8 1.6666666666666665 6.666666666666667
9.600000000000001 1.6666666666666665 6.666666666666667
10.4 1.6666666666666665 6.666666666666667
11.200000000000001 1.6666666666666665 6.666666666666667
12.0 1.6666666666666665 6.666666666666667
12.8 1.6666666666666665 6.666666666666667
13.600000000000001 1.6666666666666665 6.666666666666667
14.4 1.6666666666666665 6.666666666666667
15.200000000000001 1.6666666666666665 6.666666666666667
16.0 1.6666666666666665 6.666666666666667
0.0 2.0 6.666666666666667
0.8 2.0 6.666666666666667
1.6 2.0 6.666666666666667
2.4000000000000004 2.0 6.666666666666667
3.2 2.0 6.666666666666667
4.0 2.0 6.666666666666667
4.800000000000001 2.0 6.666666666666667
5.6000000000000005 2.0 6.666666666666667
6.4 2.0 6.666666666666667
7.2 2.0 6.666666666666667
8.0 2.0 6.666666666666667
8.8 2.0 6.666666666666667
9.600000000000001 2.0 6.666666666666667
10.4 2.0 6.666666666666667
11.200000000000001 2.0 6.666666666666667
12.0 2.0 6.666666666666667
12.8 2.0 6.666666666666667
13.600000000000001 2.0 6.666666666666667
14.4 2.0 6.666666666666667
15.200000000000001 2.0 6.666666666666667
16.0 2.0 6.666666666666667
0.0 0.0 8.333333333333334
0.8 0.0 8.333333333333334
1.6 0.0 8.333333333333334
2.4000000000000004 0.0 8.333333333333334
3.2 0.0 8.333333333333334
4.0 0.0 8.333333333333334
4.800000000000001 0.0 8.333333333333334
5.6000000000000005 0.0 8.333333333333334
6.4 0.0 8.333333333333334
7.2 0.0 8.333333333333334
8.0 0.0 8.333333333333334
8.8 0.0 8.333333333333334
9.600000000000001 0.0 8.333333333333334
10.4 0.0 8.333333333333334
11.200000000000001 0.0 8.333333333333334
12.0 0.0 8.333333333333334
12.8 0.0 8.333333333333334
13.600000000000001 0.0 8.333333333333334
14.4 0.0 8.333333333333334
15.200000000000001 0.0 8.333333333333334
16.0 0.0 8.333333333333334
0.0 0.3333333333333333 8.333333333333334
0.8 0.3333333333333333 8.333333333333334
1.6 0.3333333333333333 8.333333333333334
2.4000000000000004 0.3333333333333333 8.333333333333334
3.2 0.3333333333333333 8.333333333333334
4.0 0.3333333333333333 8.333333333333334
4.800000000000001 0.3333333333333333 8.333333333333334
5.6000000000000005 0.3333333333333333 8.333333333333334
6.4 0.3333333333333333 8.333333333333334
7.2 0.3333333333333333 8.333333333333334
8.0 0.3333333333333333 8.333333333333334
8.8 0.3333333333333333 8.333333333333334
9.600000000000001 0.3333333333333333 8.333333333333334
10.4 0.3333333333333333 8.333333333333334
11.200000000000001 0.3333333333333333 8.333333333333334
12.0 0.3333333333333333 8.333333333333334
12.8 0.3333333333333333 8.333333333333334
13.600000000000001 0.3333333333333333 8.333333333333334
14.4 0.3333333333333333 8.333333333333334
15.200000000000001 0.3333333333333333 8.333333333333334
16.0 0.3333333333333333 8.333333333333334
0.0 0.6666666666666666 8.333333333333334
0.8 0.6666666666666666 8.333333333333334
1.6 0.6666666666666666 8.333333333333334
2.4000000000000004 0.6666666666666666 8.333333333333334
3.2 0.6666666666666666 8.333333333333334
4.0 0.6666666666666666 8.333333333333334
4.800000000000001 0.6666666666666666 8.333333333333334
5.6000000000000005 0.6666666666666666 8.333333333333334
6.4 0.6666666666666666 8.333333333333334
7.2 0.6666666666666666 8.333333333333334
8.0 0.6666666666666666 8.333333333333334
8.8 0.6666666666666666 8.333333333333334
9.600000000000001 0.6666666666666666 8.333333333333334
10.4 0.6666666666666666 8.333333333333334
11.200000000000001 0.6666666666666666 8.333333333333334
12.0 0.6666666666666666 8.333333333333334
12.8 0.6666666666666666 8.333333333333334
13.600000000000001 0.6666666666666666 8.333333333333334
14.4 0.6666666666666666 8.333333333333334
15.200000000000001 0.6666666666666666 8.333333333333334
16.0 0.6666666666666666 8.333333333333334
0.0 1.0 8.333333333333334
0.8 1.0 8.333333333333334
1.6 1.0 8.333333333333334
2.4000000000000004 1.0 8.333333333333334
3.2 1.0 8.333333333333334
4.0 1.0 8.333333333333334
4.800000000000001 1.0 8.333333333333334
5.6000000000000005 1.0 8.333333333333334
6.4 1.0 8.333333333333334
7.2 1.0 8.333333333333334
8.0 1.0 8.333333333333334
8.8 1.0 8.333333333333334
9.600000000000001 1.0 8.333333333333334
10.4 1.0 8.333333333333334
11.200000000000001 1.0 8.333333333333334
12.0 1.0 8.333333333333334
12.8 1.0 8.333333333333334
13.600000000000001 1.0 8.333333333333334
14.4 1.0 8.333333333333334
15.200000000000001 1.0 8.333333333333334
16.0 1.0 8.333333333333334
0.0 1.3333333333333333 8.333333333333334
0.8 1.3333333333333333 8.333333333333334
1.6 1.3333333333333333 8.333333333333334
2.4000000000000004 1.3333333333333333 8.333333333333334
3.2 1.3333333333333333 8.333333333333334
4.0 1.3333333333333333 8.333333333333334
4.800000000000001 1.3333333333333333 8.333333333333334
5.6000000000000005 1.3333333333333333 8.333333333333334
6.4 1.3333333333333333 8.333333333333334
7.2 1.3333333333333333 8.333333333333334
8.0 1.3333333333333333 8.333333333333334
8.8 1.3333333333333333 8.333333333333334
9.600000000000001 1.3333333333333333 8.333333333333334
10.4 1.3333333333333333 8.333333333333334
11.200000000000001 1.3333333333333333 8.333333333333334
12.0 1.3333333333333333 8.333333333333334
12.8 1.3333333333333333 8.333333333333334
13.600000000000001 1.3333333333333333 8.333333333333334
14.4 1.3333333333333333 8.333333333333334
15.200000000000001 1.3333333333333333 8.333333333333334
16.0 1.3333333333333333 8.333333333333334
0.0 1.6666666666666665 8.333333333333334
0.8 1.6666666666666665 8.333333333333334
1.6 1.6666666666666665 8.333333333333334
2.4000000000000004 1.6666666666666665 8.333333333333334
3.2 1.6666666666666665 8.333333333333334
4.0 1.6666666666666665 8.333333333333334
4.800000000000001 1.6666666666666665 8.333333333333334
5.6000000000000005 1.6666666666666665 8.333333333333334
6.4 1.6666666666666665 8.333333333333334
7.2 1.6666666666666665 8.333333333333334
8.0 1.6666666666666665 8.333333333333334
8.8 1.6666666666666665 8.333333333333334
9.600000000000001 1.6666666666666665 8.333333333333334
10.4 1.6666666666666665 8.333333333333334
11.200000000000001 1.6666666666666665 8.333333333333334
12.0 1.6666666666666665 8.333333333333334
12.8 1.6666666666666665 8.333333333333334
13.600000000000001 1.6666666666666665 8.333333333333334
14.4 1.6666666666666665 8.333333333333334
15.200000000000001 1.6666666666666665 8.333333333333334
16.0 1.6666666666666665 8.333333333333334
0.0 2.0 8.333333333333334
0.8 2.0 8.333333333333334
1.6 2.0 8.333333333333334
2.4000000000000004 2.0 8.333333333333334
3.2 2.0 8.333333333333334
4.0 2.0 8.333333333333334
4.800000000000001 2.0 8.333333333333334
5.6000000000000005 2.0 8.333333333333334
6.4 2.0 8.333333333333334
7.2 2.0 8.333333333333334
8.0 2.0 8.333333333333334
8.8 2.0 8.333333333333334
9.600000000000001 2.0 8.333333333333334
10.4 2.0 8.333333333333334
11.200000000000001 2.0 8.333333333333334
12.0 2.0 8.333333333333334
12.8 2.0 8.333333333333334
13.600000000000001 2.0 8.333333333333334
14.4 2.0 8.333333333333334
15.200000000000001 2.0 8.333333333333334
16.0 2.0 8.333333333333334
0.0 0.0 10.0
0.8 0.0 10.0
1.6 0.0 10.0
2.4000000000000004 0.0 10.0
3.2 0.0 10.0
4.0 0.0 10.0
4.800000000000001 0.0 10.0
5.6000000000000005 0.0 10.0
6.4 0.0 10.0
7.2 0.0 10.0
8.0 0.0 10.0
8.8 0.0 10.0
9.600000000000001 0.0 10.0
10.4 0.0 10.0
11.200000000000001 0.0 10.0
12.0 0.0 10.0
12.8 0.0 10.0
13.600000000000001 0.0 10.0
14.4 0.0 10.0
15.200000000000001 0.0 10.0
16.0 0.0 10.0
0.0 0.3333333333333333 10.0
0.8 0.3333333333333333 10.0
1.6 0.3333333333333333 10.0
2.4000000000000004 0.3333333333333333 10.0
3.2 0.3333333333333333 10.0
4.0 0.3333333333333333 10.0
4.800000000000001 0.3333333333333333 10.0
5.6000000000000005 0.3333333333333333 10.0
6.4 0.3333333333333333 10.0
7.2 0.3333333333333333 10.0
8.0 0.3333333333333333 10.0
8.8 0.3333333333333333 10.0
9.600000000000001 0.3333333333333333 10.0
10.4 0.3333333333333333 10.0
11.200000000000001 0.3333333333333333 10.0
12.0 0.3333333333333333 10.0
12.8 0.3333333333333333 10.0
13.600000000000001 0.3333333333333333 10.0
14.4 0.3333333333333333 10.0
15.200000000000001 0.3333333333333333 10.0
16.0 0.3333333333333333 10.0
0.0 0.6666666666666666 10.0
0.8 0.6666666666666666 10.0
1.6 0.6666666666666666 10.0
2.4000000000000004 0.6666666666666666 10.0
3.2 0.6666666666666666 10.0
4.0 0.6666666666666666 10.0
4.800000000000001 0.6666666666666666 10.0
5.6000000000000005 0.6666666666666666 10.0
6.4 0.6666666666666666 10.0
7.2 0.6666666666666666 10.0
8.0 0.6666666666666666 10.0
8.8 0.6666666666666666 10.0
9.600000000000001 0.6666666666666666 10.0
10.4 0.6666666666666666 10.0
11.200000000000001 0.6666666666666666 10.0
12.0 0.6666666666666666 10.0
12.8 0.6666666666666666 10.0
13.600000000000001 0.6666666666666666 10.0
14.4 0.6666666666666666 10.0
15.200000000000001 0.6666666666666666 10.0
16.0 0.6666666666666666 10.0
0.0 1.0 10.0
0.8 1.0 10.0
1.6 1.0 10.0
2.4000000000000004 1.0 10.0
3.2 1.0 10.0
4.0 1.0 10.0
4.800000000000001 1.0 10.0
5.6000000000000005 1.0 10.0
6.4 1.0 10.0
7.2 1.0 10.0
8.0 1.0 10.0
8.8 1.0 10.0
9.600000000000001 1.0 10.0
10.4 1.0 10.0
11.200000000000001 1.0 10.0
12.0 1.0 10.0
12.8 1.0 10.0
13.600000000000001 1.0 10.0
14.4 1.0 10.0
15.200000000000001 1.0 10.0
16.0 1.0 10.0
0.0 1.3333333333333333 10.0
0.8 1.3333333333333333 10.0
1.6 1.3333333333333333 10.0
2.4000000000000004 1.3333333333333333 10.0
3.2 1.3333333333333333 10.0
4.0 1.3333333333333333 10.0
4.800000000000001 1.3333333333333333 10.0
5.6000000000000005 1.3333333333333333 10.0
6.4 1.3333333333333333 10.0
7.2 1.3333333333333333 10.0
8.0 1.3333333333333333 10.0
8.8 1.3333333333333333 10.0
9.600000000000001 1.3333333333333333 10.0
10.4 1.3333333333333333 10.0
11.200000000000001 1.3333333333333333 10.0
12.0 1.3333333333333333 10.0
12.8 1.3333333333333333 10.0
13.600000000000001 1.3333333333333333 10.0
14.4 1.3333333333333333 10.0
15.200000000000001 1.3333333333333333 10.0
16.0 1.3333333333333333 10.0
0.0 1.6666666666666665 10.0
0.8 1.6666666666666665 10.0
1.6 1.6666666666666665 10.0
2.4000000000000004 1.6666666666666665 10.0
3.2 1.6666666666666665 10.0
4.0 1.6666666666666665 10.0
4.800000000000001 1.6666666666666665 10.0
5.6000000000000005 1.6666666666666665 10.0
6.4 1.6666666666666665 10.0
7.2 1.6666666666666665 10.0
8.0 1.6666666666666665 10.0
8.8 1.6666666666666665 10.0
9.600000000000001 1.6666666666666665 10.0
10.4 1.6666666666666665 10.0
11.200000000000001 1.6666666666666665 10.0
12.0 1.6666666666666665 10.0
12.8 1.6666666666666665 10.0
13.600000000000001 1.6666666666666665 10.0
14.4 1.6666666666666665 10.0
15.200000000000001 1.6666666666666665 10.0
16.0 1.6666666666666665 10.0
0.0 2.0 10.0
0.8 2.0 10.0
1.6 2.0 10.0
2.4000000000000004 2.0 10.0
3.2 2.0 10.0
4.0 2.0 10.0
4.800000000000001 2.0 10.0
5.6000000000000005 2.0 10.0
6.4 2.0 10.0
7.2 2.0 10.0
8.0 2.0 10.0
8.8 2.0 10.0
9.600000000000001 2.0 10.0
10.4 2.0 10.0
11.200000000000001 2.0 10.0
12.0 2.0 10.0
12.8 2.0 10.0
13.600000000000001 2.0 10.0
14.4 2.0 10.0
15.200000000000001 2.0 10.0
16.0 2.0 10.0
CELLS 720 6480
8 0 1 22 21 147 148 169 168
8 1 2 23 22 148 149 170 169
8 2 3 24 23 149 150 171 170
8 3 4 25 24 150 151 172 171
8 4 5 26 25 151 152 173 172
8 5 6 27 26 152 153 174 173
8 6 7 28 27 153 154 175 174
8 7 8 29 28 154 155 176 175
8 8 9 30 29 155 156 177 176
8 9 10 31 30 156 157 178 177
8 10 11 32 31 157 158 179 178
8 11 12 33 32 158 159 180 179
8 12 13 34 33 159 160 181 180
8 13 14 35 34 160 161 182 181
8 14 15 36 35 161 162 183 182
8 15 16 37 36 162 163 184 183
8 16 17 38 37 163 164 185 184
8 17 18 39 38 164 165 186 185
8 18 19 40 39 165 166 187 186
8 19 20 41 40 166 167 188 187
8 21 22 43 42 168 169 190 189
8 22 23 44 43 169 170 191 190
8 23 24 45 44 170 171 192 191
8 24 25 46 45 171 172 193 192
8 25 26 47 46 172 173 194 193
8 26 27 48 47 173 174 195 194
8 27 28 49 48 174 175 196 195
8 28 29 50 49 175 176 197 196
8 29 30 51 50 176 177 198 197
8 30 31 52 51 177 178 199 198
8 31 32 53 52 178 179 200 199
8 32 33 54 53 179 180 201 200
8 33 34 55 54 180 181 202 201
8 34 35 56 55 181 182 203 202
8 35 36 57 56 182 183 204 203
8 36 37 58 57 183 184 205 204
8 37 38 59 58 184 185 206 205
8 38 39 60 59 185 186 207 206
8 39 40 61 60 186 187 208 207
8 40 41 62 61 187 188 209 208
8 42 43 64 63 189 190 211 210
8 43 44 65 64 190 191 212 211
8 44 45 66 65 191 192 213 212
8 45 46 67 66 192 193 214 213
8 46 47 68 67 193 194 215 214
8 47 48 69 68 194 195 216 215
8 48 49 70 69 195 196 217 216
8 49 50 71 70 196 197 218 217
8 50 51 72 71 197 198 219 218
8 51 52 73 72 198 199 220 219
8 52 53 74 73 199 200 221 220
8 53 54 75 74 200 201 222 221
8 54 55 76 75 201 202 223 222
8 55 56 77 76 202 203 224 223
8 56 57 78 77 203 204 225 224
8 57 58 79 78 204 205 226 225
8 58 59 80 79 205 206 227 226
8 59 60 81 80 206 207 228 227
8 60 61 82 81 207 208 229 228
8 61 62 83 82 208 209 230 229
8 63 64 85 84 210 211 232 231
8 64 65 86 85 211 212 233 232
8 65 66 87 86 212 213 234 233
8 66 67 88 87 213 214 235 234
8 67 68 89 88 214 215 236 235
8 68 69 90 89 215 216 237 236
8 69 70 91 90 216 217 238 237
8 70 71 92 91 217 218 239 238
8 71 72 93 92 218 219 240 239
8 72 73 94 93 219 220 241 240
8 73 74 95 94 220 221 242 241
8 74 75 96 95 221 222 243 242
8 75 76 97 96 222 223 244 243
8 76 77 98 97 223 224 245 244
8 77 78 99 98 224 225 246 245
8 78 79 100 99 225 226 247 246
8 79 80 101 100 226 227 248 247
8 80 81 102 101 227 228 249 248
8 81 82 103 102 228 229 250 249
8 82 83 104 103 229 230 251 250
8 84 85 106 105 231 232 253 252
8 85 86 107 106 232 233 254 253
8 86 87 108 107 233 234 255 254
8 87 88 109 108 234 235 256 255
8 88 89 110 109 235 236 257 256
8 89 90 111 110 236 237 258 257
8 90 91 112 111 237 238 259 258
8 91 92 113 112 238 239 260 259
8 92 93 114 113 239 240 261 260
8 93 94 115 114 240 241 262 261
8 94 95 116 115 241 242 263 262
8 95 96 117 116 242 243 264 263
8 96 97 118 117 243 244 265 264
8 97 98 119 118 244 245 266 265
8 98 99 120 119 245 246 267 266
8 99 100 121 120 246 247 268 267
8 100 101 122 121 247 248 269 268
8 101 102 123 122 248 249 270 269
8 102 103 124 123 249 250 271 270
8 103 104 125 124 250 251 272 271
8 105 106 127 126 252 253 274 273
8 106 107 128 127 253 254 275 274
8 107 108 129 128 254 255 276 275
8 108 109 130 129 255 256 277 276
8 109 110 131 130 256 257 278 277
8 110 111 132 131 257 258 279 278
8 111 112 133 132 258 259 280 279
8 112 113 134 133 259 260 281 280
8 113 114 135 134 260 261 282 281
8 114 115 136 135 261 262 283 282
8 115 116 137 136 262 263 284 283
8 116 117 138 137 263 264 285 284
8 117 118 139 138 264 265 286 285
8 118 119 140 139 265 266 287 286
8 119 120 141 140 266 267 288 287
8 120 121 142 141 267 268 289 288
8 121 122 143 142 268 269 290 289
8 122 123 144 143 269 270 291 290
8 123 124 145 144 270 271 292 291
8 124 125 146 145 271 272 293 292
8 147 148 169 168 294 295 316 315
8 148 149 170 169 295 296 317 316
8 149 150 171 170 296 297 318 317
8 150 151 172 171 297 298 319 318
8 151 152 173 172 298 299 320 319
8 152 153 174 173 299 300 321 320
8 153 154 175 174 300 301 322 321
8 154 155 176 175 301 302 323 322
8 155 156 177 176 302 303 324 323
8 156 157 178 177 303 304 325 324
8 157 158 179 178 304 305 326 325
8 158 159 180 179 305 306 327 326
8 159 160 181 180 306 307 328 327
8 160 161 182 181 307 308 329 328
8 161 162 183 182 308 309 330 329
8 162 163 184 183 309 310 331 330
8 163 164 185 184 310 311 332 331
8 164 165 186 185 311 312 333 332
8 165 166 187 186 312 313 334 333
8 166 167 188 187 313 314 335 334
8 168 169 190 189 315 316 337 336
8 169 170 191 190 316 317 338 337
8 170 171 192 191 317 318 339 338
8 171 172 193 192 318 319 340 339
8 172 173 194 193 319 320 341 340
8 173 174 195 194 320 321 342 341
8 174 175 196 195 321 322 343 342
8 175 176 197 196 322 323 344 343
8 176 177 198 197 323 324 345 344
8 177 178 199 198 324 325 346 345
8 178 179 200 199 325 326 347 346
8 179 180 201 200 326 327 348 347
8 180 181 202 201 327 328 349 348
8 181 182 203 202 328 329 350 349
8 182 183 204 203 329 330 351 350
8 183 184 205 204 330 331 352 351
8 184 185 206 205 331 332 353 352
8 185 186 207 206 332 333 354 353
8 186 187 208 207 333 334 355 354
8 187 188 209 208 334 335 356 355
8 189 190 211 210 336 337 358 357
8 190 191 212 211 337 338 359 358
8 191 192 213 212 338 339 360 359
8 192 193 214 213 339 340 361 360
8 193 194 215 214 340 341 362 361
8 194 195 216 215 341 342 363 362
8 195 196 217 216 342 343 364 363
8 196 197 218 217 343 344 365 364
8 197 198 219 218 344 345 366 365
8 198 199 220 219 345 346 367 366
8 199 200 221 220 346 347 368 367
8 200 201 222 221 347 348 369 368
8 201 202 223 222 348 349 370 369
8 202 203 224 223 349 350 371 370
8 203 204 225 224 350 351 372 371
8 204 205 226 225 351 352 373 372
8 205 206 227 226 352 353 374 373
8 206 207 228 227 353 354 375 374
8 207 208 229 228 354 355 376 375
8 208 209 230 229 355 356 377 376
8 210 211 232 231 357 358 379 378
8 211 212 233 232 358 359 380 379
8 212 213 234 233 359 360 381 380
8 213 214 235 234 360 361 382 381
8 214 215 236 235 361 362 383 382
8 215 216 237 236 362 363 384 383
8 216 217 238 237 363 364 385 384
8 217 218 239 238 364 365 386 385
8 218 219 240 239 365 366 387 386
8 219 220 241 240 366 367 388 387
8 220 221 242 241 367 368 389 388
8 221 222 243 242 368 369 390 389
8 222 223 244 243 369 370 391 390
8 223 224 245 244 370 371 392 391
8 224 225 246 245 371 372 393 392
8 225 226 247 246 372 373 394 393
8 226 227 248 247 373 374 395 394
8 227 228 249 248 374 375 396 395
8 228 229 250 249 375 376 397 396
8 229 230 251 250 376 377 398 397
8 231 232 253 252 378 379 400 399
8 232 233 254 253 379 380 401 400
8 233 234 255 254 380 381 402 401
8 234 235 256 255 381 382 403 402
8 235 236 257 256 382 383 404 403
8 236 237 258 257 383 384 405 404
8 237 238 259 258 384 385 406 405
8 238 239 260 259 385 386 407 406
8 239 240 261 260 386 387 408 407
8 240 241 262 261 387 388 409 408
8 241 242 263 262 388 389 410 409
8 242 243 264 263 389 390 411 410
8 243 244 265 264 390 391 412 411
8 244 245 266 265 391 392 413 412
8 245 246 267 266 392 393 414 413
8 246 247 268 267 393 394 415 414
8 247 248 269 268 394 395 416 415
8 248 249 270 269 395 396 417 416
8 249 250 271 270 396 397 418 417
8 250 251 272 271 397 398 419 418
8 252 253 274 273 399 400 421 420
8 253 254 275 274 400 401 422 421
8 254 255 276 275 401 402 423 422
8 255 256 277 276 402 403 424 423
8 256 257 278 277 403 404 425 424
8 257 258 279 278 404 405 426 425
8 258 259 280 279 405 406 427 426
8 259 260 281 280 406 407 428 427
8 260 261 282 281 407 408 429 428
8 261 262 283 282 408 409 430 429
8 262 263 284 283 409 410 431 430
8 263 264 285 284 410 411 432 431
8 264 265 286 285 411 412 433 432
8 265 266 287 286 412 413 434 433
8 266 267 288 287 413 414 435 434
8 267 268 289 288 414 415 436 435
8 268 269 290 289 415 416 437 436
8 269 270 291 290 416 417 438 437
8 270 271 292 291 417 418 439 438
8 271 272 293 292 418 419 440 439
8 294 295 316 315 441 442 463 462
8 295 296 317 316 442 443 464 463
8 296 297 318 317 443 444 465 464
8 297 298 319 318 444 445 466 465
8 298 299 320 319 445 446 467 466
8 299 300 321 320 446 447 468 467
8 300 301 322 321 447 448 469 468
8 301 302 323 322 448 449 470 469
8 302 303 324 323 449 450 471 470
8 303 304 325 324 450 451 472 471
8 304 305 326 325 451 452 473 472
8 305 306 327 326 452 453 474 473
8 306 307 328 327 453 454 475 474
8 307 308 329 328 454 455 476 475
8 308 309 330 329 455 456 477 476
8 309 310 331 330 456 457 478 477
8 310 311 332 331 457 458 479 478
8 311 312 333 332 458 459 480 479
8 312 313 334 333 459 460 481 480
8 313 314 335 334 460 461 482 481
8 315 316 337 336 462 463 484 483
8 316 317 338 337 463 464 485 484
8 317 318 339 338 464 465 486 485
8 318 319 340 339 465 466 487 486
8 319 320 341 340 466 467 488 487
8 320 321 342 341 467 468 489 488
8 321 322 343 342 468 469 490 489
8 322 323 344 343 469 470 491 490
8 323 324 345 344 470 471 492 491
8 324 325 346 345 471 472 493 492
8 325 326 347 346 472 473 494 493
8 326 327 348 347 473 474 495 494
8 327 328 349 348 474 475 496 495
8 328 329 350 349 475 476 497 496
8 329 330 351 350 476 477 498 497
8 330 331 352 351 477 478 499 498
8 331 332 353 352 478 479 500 499
8 332 333 354 353 479 480 501 500
8 333 334 355 354 480 481 502 501
8 334 335 356 355 481 482 503 502
8 336 337 358 357 483 484 505 504
8 337 338 359 358 484 485 506 505
8 338 339 360 359 485 486 507 506
8 339 340 361 360 486 487 508 507
8 340 341 362 361 487 488 509 508
8 341 342 363 362 488 489 510 509
8 342 343 364 363 489 490 511 510
8 343 344 365 364 490 491 512 511
8 344 345 366 365 491 492 513 512
8 345 346 367 366 492 493 514 513
8 346 347 368 367 493 494 515 514
8 347 348 369 368 494 495 516 515
8 348 349 370 369 495 496 517 516
8 349 350 371 370 496 497 518 517
8 350 351 372 371 497 498 519 518
8 351 352 373 372 498 499 520 519
8 352 353 374 373 499 500 521 520
8 353 354 375 374 500 501 522 521
8 354 355 376 375 501 502 523 522
8 355 356 377 376 502 503 524 523
8 357 358 379 378 504 505 526 525
8 358 359 380 379 505 506 527 526
8 359 360 381 380 506 507 528 527
8 360 361 382 381 507 508 529 528
8 361 362 383 382 508 509 530 529
8 362 363 384 383 509 510 531 530
8 363 364 385 384 510 511 532 531
8 364 365 386 385 511 512 533 532
8 365 366 387 386 512 513 534 533
8 366 367 388 387 513 514 535 534
8 367 368 389 388 514 515 536 535
8 368 369 390 389 515 516 537 536
8 369 370 391 390 516 517 538 537
8 370 371 392 391 517 518 539 538
8 371 372 393 392 518 519 540 539
8 372 373 394 393 519 520 541 540
8 373 374 395 394 520 521 542 541
8 374 375 396 395 521 522 543 542
8 375 376 397 396 522 523 544 543
8 376 377 398 397 523 524 545 544
8 378 379 400 399 525 526 547 546
8 379 380 401 400 526 527 548 547
8 380 381 402 401 527 528 549 548
8 381 382 403 402 528 529 550 549
8 382 383 404 403 529 530 551 550
8 383 384 405 404 530 531 552 551
8 384 385 406 405 531 532 553 552
8 385 386 407 406 532 533 554 553
8 386 387 408 407 533 534 555 554
8 387 388 409 408 534 535 556 555
8 388 389 410 409 535 536 557 556
8 389 390 411 410 536 537 558 557
8 390 391 412 411 537 538 559 558
8 391 392 413 412 538 539 560 559
8 392 393 414 413 539 540 561 560
8 393 394 415 414 540 541 562 561
8 394 395 416 415 541 542 563 562
8 395 396 417 416 542 543 564 563
8 396 397 418 417 543 544 565 564
8 397 398 419 418 544 545 566 565
8 399 400 421 420 546 547 568 567
8 400 401 422 421 547 548 569 568
8 401 402 423 422 548 549 570 569
8 402 403 424 423 549 550 571 570
8 403 404 425 424 550 551 572 571
8 404 405 426 425 551 552 573 572
8 405 406 427 426 552 553 574 573
8 406 407 428 427 553 554 575 574
8 407 408 429 428 554 555 576 575
8 408 409 430 429 555 556 577 576
8 409 410 431 430 556 557 578 577
8 410 411 432 431 557 558 579 578
8 411 412 433 432 558 559 580 579
8 412 413 434 433 559 560 581 580
8 413 414 435 434 560 561 582 581
8 414 415 436 435 561 562 583 582
8 415 416 437 436 562 563 584 583
8 416 417 438 437 563 564 585 584
8 417 418 439 438 564 565 586 585
8 418 419 440 439 565 566 587 586
8 441 442 463 462 588 589 610 609
8 442 443 464 463 589 590 611 610
8 443 444 465 464 590 591 612 611
8 444 445 466 465 591 592 613 612
8 445 446 467 466 592 593 614 613
8 446 447 468 467 593 594 615 614
8 447 448 469 468 594 595 616 615
8 448 449 470 469 595 596 617 616
8 449 450 471 470 596 597 618 617
8 450 451 472 471 597 598 619 618
8 451 452 473 472 598 599 620 619
8 452 453 474 473 599 600 621 620
8 453 454 475 474 600 601 622 621
8 454 455 476 475 601 602 623 622
8 455 456 477 476 602 603 624 623
8 456 457 478 477 603 604 625 624
8 457 458 479 478 604 605 626 625
8 458 459 480 479 605 606 627 626
8 459 460 481 480 606 607 628 627
8 460 461 482 481 607 608 629 628
8 462 463 484 483 609 610 631 630
8 463 464 485 484 610 611 632 631
8 464 465 486 485 611 612 633 632
8 465 466 487 486 612 613 634 633
8 466 467 488 487 613 614 635 634
8 467 468 489 488 614 615 636 635
8 468 469 490 489 615 616 637 636
8 469 470 491 490 616 617 638 637
8 470 471 492 491 617 618 639 638
8 471 472 493 492 618 619 640 639
8 472 473 494 493 619 620 641 640
8 473 474 495 494 620 621 642 641
8 474 475 496 495 621 622 643 642
8 475 476 497 496 622 623 644 643
8 476 477 498 497 623 624 645 644
8 477 478 499 498 624 625 646 645
8 478 479 500 499 625 626 647 646
8 479 480 501 500 626 627 648 647
8 480 481 502 501 627 628 649 648
8 481 482 503 502 628 629 650 649
8 483 484 505 504 630 631 652 651
8 484 485 506 505 631 632 653 652
8 485 486 507 506 632 633 654 653
8 486 487 508 507 633 634 655 654
8 487 488 509 508 634 635 656 655
8 488 489 510 509 635 636 657 656
8 489 490 511 510 636 637 658 657
8 490 491 512 511 637 638 659 658
8 491 492 513 512 638 639 660 659
8 492 493 514 513 639 640 661 660
8 493 494 515 514 640 641 662 661
8 494 495 516 515 641 642 663 662
8 495 496 517 516 642 643 664 663
8 496 497 518 517 643 644 665 664
8 497 498 519 518 644 645 666 665
8 498 499 520 519 645 646 667 666
8 499 500 521 520 646 647 668 667
8 500 501 522 521 647 648 669 668
8 501 502 523 522 648 649 670 669
8 502 503 524 523 649 650 671 670
8 504 505 526 525 651 652 673 672
8 505 506 527 526 652 653 674 673
8 506 507 528 527 653 654 675 674
8 507 508 529 528 654 655 676 675
8 508 509 530 529 655 656 677 676
8 509 510 531 530 656 657 678 677
8 510 511 532 531 657 658 679 678
8 511 512 533 532 658 659 680 679
8 512 513 534 533 659 660 681 680
8 513 514 535 534 660 661 682 681
8 514 515 536 535 661 662 683 682
8 515 516 537 536 662 663 684 683
8 516 517 538 537 663 664 685 684
8 517 518 539 538 664 665 686 685
8 518 519 540 539 665 666 687 686
8 519 520 541 540 666 667 688 687
8 520 521 542 541 667 668 689 688
8 521 522 543 542 668 669 690 689
8 522 523 544 543 669 670 691 690
8 523 524 545 544 670 671 692 691
8 525 526 547 546 672 673 694 693
8 526 527 548 547 673 674 695 694
8 527 528 549 548 674 675 696 695
8 528 529 550 549 675 676 697 696
8 529 530 551 550 676 677 698 697
8 530 531 552 551 677 678 699 698
8 531 532 553 552 678 679 700 699
8 532 533 554 553 679 680 701 700
8 533 534 555 554 680 681 702 701
8 534 535 556 555 681 682 703 702
8 535 536 557 556 682 683 704 703
8 536 537 558 557 683 684 705 704
8 537 538 559 558 684 685 706 705
8 538 539 560 559 685 686 707 706
8 539 540 561 560 686 687 708 707
8 540 541 562 561 687 688 709 708
8 541 542 563 562 688 689 710 709
8 542 543 564 563 689 690 711 710
8 543 544 565 564 690 691 712 711
8 544 545 566 565 691 692 713 712
8 546 547 568 567 693 694 715 714
8 547 548 569 568 694 695 716 715
8 548 549 570 569 695 696 717 716
8 549 550 571 570 696 697 718 717
8 550 551 572 571 697 698 719 718
8 551 552 573 572 698 699 720 719
8 552 553 574 573 699 700 721 720
8 553 554 575 574 700 701 722 721
8 554 555 576 575 701 702 723 722
8 555 556 577 576 702 703 724 723
8 556 557 578 577 703 704 725 724
8 557 558 579 578 704 705 726 725
8 558 559 580 579 705 706 727 726
8 559 560 581 580 706 707 728 727
8 560 561 582 581 707 708 729 728
8 561 562 583 582 708 709 730 729
8 562 563 584 583 709 710 731 730
8 563 564 585 584 710 711 732 731
8 564 565 586 585 711 712 733 732
8 565 566 587 586 712 713 734 733
8 588 589 610 609 735 736 757 756
8 589 590 611 610 736 737 758 757
8 590 591 612 611 737 738 759 758
8 591 592 613 612 738 739 760 759
8 592 593 614 613 739 740 761 760
8 593 594 615 614 740 741 762 761
8 594 595 616 615 741 742 763 762
8 595 596 617 616 742 743 764 763
8 596 597 618 617 743 744 765 764
8 597 598 619 618 744 745 766 765
8 598 599 620 619 745 746 767 766
8 599 600 621 620 746 747 768 767
8 600 601 622 621 747 748 769 768
8 601 602 623 622 748 749 770 769
8 602 603 624 623 749 750 771 770
8 603 604 625 624 750 751 772 771
8 604 605 626 625 751 752 773 772
8 605 606 627 626 752 753 774 773
8 606 607 628 627 753 754 775 774
8 607 608 629 628 754 755 776 775
8 609 610 631 630 756 757 778 777
8 610 611 632 631 757 758 779 778
8 611 612 633 632 758 759 780 779
8 612 613 634 633 759 760 781 780
8 613 614 635 634 760 761 782 781
8 614 615 636 635 761 762 783 782
8 615 616 637 636 762 763 784 783
8 616 617 638 637 763 764 785 784
8 617 618 639 638 764 765 786 785
8 618 619 640 639 765 766 787 786
8 619 620 641 640 766 767 788 787
8 620 621 642 641 767 768 789 788
8 621 622 643 642 768 769 790 789
8 622 623 644 643 769 770 791 790
8 623 624 645 644 770 771 792 791
8 624 625 646 645 771 772 793 792
8 625 626 647 646 772 773 794 793
8 626 627 648 647 773 774 795 794
8 627 628 649 648 774 775 796 795
8 628 629 650 649 775 776 797 796
8 630 631 652 651 777 778 799 798
8 631 632 653 652 778 779 800 799
8 632 633 654 653 779 780 801 800
8 633 634 655 654 780 781 802 801
8 634 635 656 655 781 782 803 802
8 635 636 657 656 782 783 804 803
8 636 637 658 657 783 784 805 804
8 637 638 659 658 784 785 806 805
8 638 639 660 659 785 786 807 806
8 639 640 661 660 786 787 808 807
8 640 641 662 661 787 788 809 808
8 641 642 663 662 788 789 810 809
8 642 643 664 663 789 790 811 810
8 643 644 665 664 790 791 812 811
8 644 645 666 665 791 792 813 812
8 645 646 667 666 792 793 814 813
8 646 647 668 667 793 794 815 814
8 647 648 669 668 794 795 816 815
8 648 649 670 669 795 796 817 816
8 649 650 671 670 796 797 818 817
8 651 652 673 672 798 799 820 819
8 652 653 674 673 799 800 821 820
8 653 654 675 674 800 801 822 821
8 654 655 676 675 801 802 823 822
8 655 656 677 676 802 803 824 823
8 656 657 678 677 803 804 825 824
8 657 658 679 678 804 805 826 825
8 658 659 680 679 805 806 827 826
8 659 660 681 680 806 807 828 827
8 660 661 682 681 807 808 829 828
8 661 662 683 682 808 809 830 829
8 662 663 684 683 809 810 831 830
8 663 664 685 684 810 811 832 831
8 664 665 686 685 811 812 833 832
8 665 666 687 686 812 813 834 833
8 666 667 688 687 813 814 835 834
8 667 668 689 688 814 815 836 835
8 668 669 690 689 815 816 837 836
8 669 670 691 690 816 817 838 837
8 670 671 692 691 817 818 839 838
8 672 673 694 693 819 820 841 840
8 673 674 695 694 820 821 842 841
8 674 675 696 695 821 822 843 842
8 675 676 697 696 822 823 844 843
8 676 677 698 697 823 824 845 844
8 677 678 699 698 824 825 846 845
8 678 679 700 699 825 826 847 846
8 679 680 701 700 826 827 848 847
8 680 681 702 701 827 828 849 848
8 681 682 703 702 828 829 850 849
8 682 683 704 703 829 830 851 850
8 683 684 705 704 830 831 852 851
8 684 685 706 705 831 832 853 852
8 685 686 707 706 832 833 854 853
8 686 687 708 707 833 834 855 854
8 687 688 709 708 834 835 856 855
8 688 689 710 709 835 836 857 856
8 689 690 711 710 836 837 858 857
8 690 691 712 711 837 838 859 858
8 691 692 713 712 838 839 860 859
8 693 694 715 714 840 841 862 861
8 694 695 716 715 841 842 863 862
8 695 696 717 716 842 843 864 863
8 696 697 718 717 843 844 865 864
8 697 698 719 718 844 845 866 865
8 698 699 720 719 845 846 867 866
8 699 700 721 720 846 847 868 867
8 700 701 722 721 847 848 869 868
8 701 702 723 722 848 849 870 869
8 702 703 724 723 849 850 871 870
8 703 704 725 724 850 851 872 871
8 704 705 726 725 851 852 873 872
8 705 706 727 726 852 853 874 873
8 706 707 728 727 853 854 875 874
8 707 708 729 728 854 855 876 875
8 708 709 730 729 855 856 877 876
8 709 710 731 730 856 857 878 877
8 710 711 732 731 857 858 879 878
8 711 712 733 732 858 859 880 879
8 712 713 734 733 859 860 881 880
8 735 736 757 756 882 883 904 903
8 736 737 758 757 883 884 905 904
8 737 738 759 758 884 885 906 905
8 738 739 760 759 885 886 907 906
8 739 740 761 760 886 887 908 907
8 740 741 762 761 887 888 909 908
8 741 742 763 762 888 889 910 909
8 742 743 764 763 889 890 911 910
8 743 744 765 764 890 891 912 911
8 744 745 766 765 891 892 913 912
8 745 746 767 766 892 893 914 913
8 746 747 768 767 893 894 915 914
8 747 748 769 768 894 895 916 915
8 748 749 770 769 895 896 917 916
8 749 750 771 770 896 897 918 917
8 750 751 772 771 897 898 919 918
8 751 752 773 772 898 899 920 919
8 752 753 774 773 899 900 921 920
8 753 754 775 774 900 901 922 921
8 754 755 776 775 901 902 923 922
8 756 757 778 777 903 904 925 924
8 757 758 779 778 904 905 926 925
8 758 759 780 779 905 906 927 926
8 759 760 781 780 906 907 928 927
8 760 761 782 781 907 908 929 928
8 761 762 783 782 908 909 930 929
8 762 763 784 783 909 910 931 930
8 763 764 785 784 910 911 932 931
8 764 765 786 785 911 912 933 932
8 765 766 787 786 912 913 934 933
8 766 767 788 787 913 914 935 934
8 767 768 789 788 914 915 936 935
8 768 769 790 789 915 916 937 936
8 769 770 791 790 916 917 938 937
8 770 771 792 791 917 918 939 938
8 771 772 793 792 918 919 940 939
8 772 773 794 793 919 920 941 940
8 773 774 795 794 920 921 942 941
8 774 775 796 795 921 922 943 942
8 775 776 797 796 922 923 944 943
8 777 778 799 798 924 925 946 945
8 778 779 800 799 925 926 947 946
8 779 780 801 800 926 927 948 947
8 780 781 802 801 927 928 949 948
8 781 782 803 802 928 929 950 949
8 782 783 804 803 929 930 951 950
8 783 784 805 804 930 931 952 951
8 784 785 806 805 931 932 953 952
8 785 786 807 806 932 933 954 953
8 786 787 808 807 933 934 955 954
8 787 788 809 808 934 935 956 955
8 788 789 810 809 935 936 957 956
8 789 790 811 810 936 937 958 957
8 790 791 812 811 937 938 959 958
8 791 792 813 812 938 939 960 959
8 792 793 814 813 939 940 961 960
8 793 794 815 814 940 941 962 961
8 794 795 816 815 941 942 963 962
8 795 796 817 816 942 943 964 963
8 796 797 818 817 943 944 965 964
8 798 799 820 819 945 946 967 966
8 799 800 821 820 946 947 968 967
8 800 801 822 821 947 948 969 968
8 801 802 823 822 948 949 970 969
8 802 803 824 823 949 950 971 970
8 803 804 825 824 950 951 972 971
8 804 805 826 825 951 952 973 972
8 805 806 827 826 952 953 974 973
8 806 807 828 827 953 954 975 974
8 807 808 829 828 954 955 976 975
8 808 809 830 829 955 956 977 976
8 809 810 831 830 956 957 978 977
8 810 811 832 831 957 958 979 978
8 811 812 833 832 958 959 980 979
8 812 813 834 833 959 960 981 980
8 813 814 835 834 960 961 982 981
8 814 815 836 835 961 962 983 982
8 815 816 837 836 962 963 984 983
8 816 817 838 837 963 964 985 984
8 817 818 839 838 964 965 986 985
8 819 820 841 840 966 967 988 987
8 820 821 842 841 967 968 989 988
8 821 822 843 842 968 969 990 989
8 822 823 844 843 969 970 991 990
8 823 824 845 844 970 971 992 991
8 824 825 846 845 971 972 993 992
8 825 826 847 846 972 973 994 993
8 826 827 848 847 973 974 995 994
8 827 828 849 848 974 975 996 995
8 828 829 850 849 975 976 997 996
8 829 830 851 850 976 977 998 997
8 830 831 852 851 977 978 999 998
8 831 832 853 852 978 979 1000 999
8 832 833 854 853 979 980 1001 1000
8 833 834 855 854 980 981 1002 1001
8 834 835 856 855 981 982 1003 1002
8 835 836 857 856 982 983 1004 1003
8 836 837 858 857 983 984 1005 1004
8 837 838 859 858 984 985 1006 1005
8 838 839 860 859 985 986 1007 1006
8 840 841 862 861 987 988 1009 1008
8 841 842 863 862 988 989 1010 1009
8 842 843 864 863 989 990 1011 1010
8 843 844 865 864 990 991 1012 1011
8 844 845 866 865 991 992 1013 1012
8 845 846 867 866 992 993 1014 1013
8 846 847 868 867 993 994 1015 1014
8 847 848 869 868 994 995 1016 1015
8 848 849 870 869 995 996 1017 1016
8 849 850 871 870 996 997 1018 1017
8 850 851 872 871 997 998 1019 1018
8 851 852 873 872 998 999 1020 1019
8 852 853 874 873 999 1000 1021 1020
8 853 854 875 874 1000 1001 1022 1021
8 854 855 876 875 1001 1002 1023 1022
8 855 856 877 876 1002 1003 1024 1023
8 856 857 878 877 1003 1004 1025 1024
8 857 858 879 878 1004 1005 1026 1025
8 858 859 880 879 1005 1006 1027 1026
8 859 860 881 880 1006 1007 1028 1027
CELL_TYPES 720
12
12
12
12
12
12
12
12
12
12
12
12
12
12
12
12
12
12
12
12
12
12
12
12
12
12
12
12
12
12
12
12
12
12
12
12
12
12
12
12
12
12
12
12
12
12
12
12
12
12
12
12
12
12
12
12
12
12
12
12
12
12
12
12
12
12
12
12
12
12
12
12
12
12
12
12
12
12
12
12
12
12
12
12
12
12
12
12
12
12
12
12
12
12
12
12
12
12
12
12
12
12
12
12
12
12
12
12
12
12
12
12
12
12
12
12
12
12
12
12
12
12
12
12
12
12
12
12
12
12
12
12
12
12
12
12
12
12
12
12
12
12
12
12
12
12
12
12
12
12
12
12
12
12
12
12
12
12
12
12
12
12
12
12
12
12
12
12
12
12
12
12
12
12
12
12
12
12
12
12
12
12
12
12
12
12
12
12
12
12
12
12
12
12
12
12
12
12
12
12
12
12
12
12
12
12
12
12
12
12
12
12
12
12
12
12
12
12
12
12
12
12
12
12
12
12
12
12
12
12
12
12
12
12
12
12
12
12
12
12
12
12
12
12
12
12
12
12
12
12
12
12
12
12
12
12
12
12
12
12
12
12
12
12
12
12
12
12
12
12
12
12
12
12
12
12
12
12
12
12
12
12
12
12
12
12
12
12
12
12
12
12
12
12
12
12
12
12
12
12
12
12
12
12
12
12
12
12
12
12
12
12
12
12
12
12
12
12
12
12
12
12
12
12
12
12
12
12
12
12
12
12
12
12
12
12
12
12
12
12
12
12
12
12
12
12
12
12
12
12
12
12
12
12
12
12
12
12
12
12
12
12
12
12
12
12
12
12
12
12
12
12
12
12
12
12
12
12
12
12
12
12
12
12
12
12
12
12
12
12
12
12
12
12
12
12
12
12
12
12
12
12
12
12
12
12
12
12
12
12
12
12
12
12
12
12
12
12
12
12
12
12
12
12
12
12
12
12
12
12
12
12
12
12
12
12
12
12
12
12
12
12
12
12
12
12
12
12
12
12
12
12
12
12
12
12
12
12
12
12
12
12
12
12
12
12
12
12
12
12
12
12
12
12
12
12
12
12
12
12
12
12
12
12
12
12
12
12
12
12
12
12
12
12
12
12
12
12
12
12
12
12
12
12
12
12
12
12
12
12
12
12
12
12
12
12
12
12
12
12
12
12
12
12
12
12
12
12
12
12
12
12
12
12
12
12
12
12
12
12
12
12
12
12
12
12
12
12
12
12
12
12
12
12
12
12
12
12
12
12
12
12
12
12
12
12
12
12
12
12
12
12
12
12
12
12
12
12
12
12
12
12
12
12
12
12
12
12
12
12
12
12
12
12
12
12
12
12
12
12
12
12
12
12
12
12
12
12
12
12
12
12
12
12
12
12
12
12
12
12
12
12
12
12
12
12
12
12
12
12
12
12
12
12
12
12
12
12
12
12
12
12
12
12
12
12
12
12
12
12
12
12
12
12
12
12
12
12
12
12
12
12
12
12
12
12
12
12
12
12
12
12
12
12
12
12
12
12
12
12
12
12
12
12
12
12
12
12
12
12
12
12
12
12
12
12
12
12
12
12
12
12
12
12
12
12
12
12
12
12
12
12
12
12
12
12
12
12
12
12
POINT_DATA 1029
VECTORS Disp float
0.0 0.0 0.0
0.01646363271360407 -0.5969958680507319 0.014289809129781577
0.03964554387752685 -1.124978935179663 0.030768952425627844
0.07170788565874324 -1.6335574166915279 0.04392839344982679
0.11733459312579574 -2.108942866462328 0.05585272822271476
0.17716559345455446 -2.5399271442263327 0.0657117126686826
0.250953927127023 -2.914667616476159 0.07309524809162532
0.3382532311421109 -3.2217119698578682 0.07747880801487364
0.43787046640507177 -3.4498960512929493 0.07849524243503435
0.5468419150829632 -3.589688161232645 0.07674520461009353
0.6602548092891023 -3.6362688018056235 0.07516134414676431
0.7737080101358573 -3.590370223386347 0.0768083119194631
0.8828082423393898 -3.4512760835365377 0.07864359548274365
0.982667389042225 -3.2238190225176595 0.07776137285967408
1.0703664252263851 -2.9175364957387964 0.0735963218588729
1.1447830497703446 -2.5435804236428665 0.06656656898447925
1.2055701407370316 -2.113359347046675 0.057253094491580656
1.2526217150249643 -1.6386176645769468 0.04620483864608453
1.2867593618903277 -1.1304495116942785 0.034128055316278876
1.313520951411711 -0.6024365161734808 0.02028938085580249
1.3385762021580454 0.0 -0.00011584237897637847
0.2343059549507379 -0.025493317506688772 -0.00750285486299484
0.24441868239223136 -0.5943457874480239 0.007485853946180495
0.25257139678758606 -1.1285733087993468 0.01949167095891278
0.2735814730841201 -1.637779847023773 0.029666900659239295
0.3032221433324406 -2.115016319926334 0.03818310920766596
0.34235787047849087 -2.5476239907050533 0.04519039647151127
0.3907646210926181 -2.924003610393585 0.050383101119652524
0.4481352052252967 -3.2326205434795936 0.053521862851499416
0.5136869519419245 -3.4621702418965143 0.054442056459287
0.5855125247857553 -3.602756638882941 0.053520927167884265
0.6603776701090589 -3.649382391052941 0.05254116551847688
0.7352854375049073 -3.6034499241026188 0.05349920656111246
0.80724616525505 -3.4635748171261973 0.05441744140469703
0.8730480651314219 -3.234769881942027 0.05353702325281591
0.9308233704873996 -2.926939558160409 0.05051528622422104
0.9798490496353937 -2.5513798436153228 0.04556519458826296
1.0199021944302327 -2.119583204986945 0.03900427696610797
1.0508636533741664 -1.6430561494784857 0.031206249038096576
1.0737867374874732 -1.134353964453312 0.022282528065944142
1.0846672559226254 -0.6002172238863903 0.011566237315769803
1.0962421309526988 -0.026903275996337763 -0.0030258787543913966
0.45550387469849984 -0.04426295134651773 -0.012261024709753777
0.460718418935864 -0.5934564061682515 -0.0006635110361982899
0.4616282728855314 -1.1293883383204586 0.007907651179199239
0.46978044997974333 -1.6403306447730417 0.014226040296962757
0.483782155502489 -2.118499832626133 0.01906048509546114
0.5026205899030287 -2.5521352111582467 0.022750363242039374
0.5262702119490248 -2.9294906001782115 0.02531835043688612
0.5546134806872061 -3.239087586111714 0.026712032241397142
0.5874416009850055 -3.4694826513409294 0.026904775279812703
0.6236225140283653 -3.6102389865576523 0.025962918652002454
0.6604750858346975 -3.6560715876841536 0.024901088306568894
0.6973710980510385 -3.6109444027769535 0.025856512693582252
0.7336889197357395 -3.470913343170976 0.02670716667079138
0.7667673265038446 -3.2412807599702282 0.026459322904765024
0.7955078386971739 -2.9324939025725607 0.025079057506060445
0.8197500870708276 -2.555990237539767 0.022644434080142235
0.8394401656284015 -2.1232088341895308 0.019282799320392837
0.8546283865393914 -1.6457970177633996 0.015085162281371935
0.864366333012586 -1.1354206322707252 0.009836413804769918
0.8665726314628649 -0.5991207655593166 0.002588365381954501
0.8724162737184352 -0.04643486784538661 -0.007705359771408465
0.6702002295469993 -0.05629189796507358 -0.016510577635123903
0.671601530582793 -0.593607195995384 -0.00858954678784558
0.6670043697031995 -1.1287109973662284 -0.0037977091213386655
0.6635757653801375 -1.6408346353969436 -0.001565503617179456
0.6617570014442037 -2.1195466643565712 -0.0006325102020533491
0.6605324989106859 -2.5535391005843264 -0.0004217564348147258
0.6597033956437126 -2.9312596796084245 -0.0006745156334247724
0.6593963683878893 -3.2412829704890846 -0.0012513771091491183
0.660084339295027 -3.4720916929376795 -0.0020228480772578198
0.6614775264500354 -3.6122349134978347 -0.0031409546239210395
0.6605619822421346 -3.6556602684549544 -0.00449080466613124
0.6596900625563755 -3.6129530039891904 -0.003332671234356635
0.661219935922655 -3.473549369426203 -0.0023949152149999454
0.6621547657360627 -3.2435206142719415 -0.0017748250283571997
0.6622320154163122 -2.934329485551548 -0.0012895925071129764
0.6619601286637389 -2.557489453385266 -0.001016771559177221
0.661505859330071 -2.124386154672999 -0.0010130812521741686
0.6607088367092028 -1.6464744909741227 -0.0014168977853308712
0.658401756732083 -1.1348163667935987 -0.002694222651235298
0.6544968864265064 -0.5990459342382295 -0.0061551825509462066
0.6562452348604152 -0.05902774420901645 -0.012670048576129748
0.8831376884999759 -0.06273110817091859 -0.020877459255687632
0.8811715050859174 -0.5938479360613426 -0.016116028239386626
0.8714789530605976 -1.1270533091585921 -0.015310417724055437
0.857335549934062 -1.6394312768269432 -0.017267932453448234
0.8398224012982498 -2.118117835436822 -0.02029030847064578
0.8184607894178825 -2.5518667055708777 -0.023570228569646794
0.7931884356233772 -2.9293317109443344 -0.026656647473131432
0.7641590309261675 -3.2391998432977025 -0.029225712027771383
0.7324873971237603 -3.4701199166580206 -0.030920396633758652
0.6995198021374105 -3.6090802060762477 -0.03166323370401469
0.6606512218914053 -3.6471378729538984 -0.032874428696273335
0.6218266506012718 -3.6098114049649226 -0.03194167182948064
0.5889960898066542 -3.47160525334736 -0.03147006928604003
0.5575687837869924 -3.2414823308457823 -0.030025351050939154
0.5289118300657192 -2.932467045747648 -0.027656281952149368
0.5041613582732333 -2.555907062624718 -0.02466701135394649
0.4834851950998308 -2.1230775837901974 -0.021292728947476053
0.4667919389213354 -1.6452017111581099 -0.017854637618189843
0.45341131199341306 -1.133171897801867 -0.01502620302141647
0.44411452996016587 -0.5991432234524667 -0.014520603658357044
0.4423378359933404 -0.06582518158348447 -0.017876356328673938
1.0974994884828104 -0.06514041326472536 -0.02558099235015968
1.0928779530465313 -0.5935992011468673 -0.023217749133357928
1.0782856211539051 -1.1245648640623915 -0.026369359204522796
1.0537985392079803 -1.6362579401239346 -0.032452473202215185
1.0205346728383295 -2.1141911364773116 -0.039310242229786144
0.9788128625021674 -2.547078013081919 -0.045928866977979044
0.9287716233298652 -2.9237173493570485 -0.05169241288667025
0.8708255396370962 -3.232710221540603 -0.056061997611276754
0.8053665776905444 -3.4634264077595462 -0.05850912203780185
0.7375060174650266 -3.6016679616508678 -0.057676339625066214
0.6607558743409981 -3.628959111002017 -0.05653362466276754
0.5840512430084952 -3.602412862164298 -0.05804365270061254
0.5163314334938983 -3.46494038376849 -0.05924111327346892
0.4511199796506444 -3.2350384338585787 -0.057145936762469055
0.3935427085353751 -2.9269176448910126 -0.0530893218001231
0.343999447412383 -2.5512038619880193 -0.047546436838249634
0.30288481520030136 -2.1192544451304323 -0.04096219283260673
0.2702477044426057 -1.642122720830324 -0.033806980711208176
0.24622353444305053 -1.1306906102443235 -0.02692483400050564
0.2317946954395535 -0.598823634049644 -0.022454890846350068
0.22722099469864027 -0.0684068138694889 -0.023391587278891974
1.3150498859421627 -0.06563174822465535 -0.030459668519228288
1.3098130024397197 -0.592764301918276 -0.02990865685607666
1.2912743533754958 -1.121293359561029 -0.036596974315446104
1.2560606839973798 -1.6312700095677632 -0.046440382657600754
1.2066528053020167 -2.107689241394051 -0.05674744496749077
1.1441402014868027 -2.5390850960205347 -0.06631172527821676
1.0687391684888532 -2.9142228059913706 -0.07434118319821548
0.9809217760743113 -3.2219435947058135 -0.08008742309929248
0.8815105631222313 -3.4507582672757597 -0.08284272117020555
0.7708855690737779 -3.5913855682703164 -0.07990703628630977
0.66089151141612 -3.5999999999999996 -0.06790547407743858
0.5509467206005396 -3.5921453136709927 -0.08036599819318557
0.4404730141341753 -3.4523029399678844 -0.08376303438148028
0.3413239845781996 -3.224319892129825 -0.08146580756622777
0.25388845484528383 -2.9174894611560975 -0.07615100632722824
0.1789842941409005 -2.5432933139507465 -0.0684729094795221
0.11703114889314128 -2.1128388842506536 -0.059079892297337025
0.06808779998990473 -1.637192679869577 -0.048597629845939905
0.03300906428287461 -1.1274069152790434 -0.03801544355266812
0.014278353476470723 -0.597943818293563 -0.029951777291539586
0.008905604600634356 -0.06893464708076974 -0.02898662932149668
0.0 0.0 0.0
0.015400136274194513 -0.5642518465378519 0.009511520010642425
0.03904465023896654 -1.0791158676794599 0.01816653158650338
0.0725149864522669 -1.5736681764437301 0.02621050326441727
0.11871469484461011 -2.0362769242983454 0.032418289780326376
0.17811106821035166 -2.456658644190153 0.03677582338405815
0.2504886969719954 -2.8242015928866655 0.03898418132363589
0.33550242679705106 -3.128713326327059 0.038839122349418644
0.4328157219669875 -3.360221508285014 0.03643637257859404
0.5420301872527254 -3.5082468188470814 0.03280064460944484
0.6603882179522099 -3.5606367583520435 0.030697581037244955
0.7787599965500487 -3.5085144156797394 0.03282225722054838
0.8880176232620215 -3.360755876511924 0.03649519580923683
0.9854099784118349 -3.1295125273791773 0.038969589523223463
1.0705522331904593 -2.8252612507531563 0.039245979009923077
1.1431343690484372 -2.4579669920409835 0.03725931194996739
1.2028586068865428 -2.0378027134955814 0.033260397158690676
1.249601948661169 -1.5753352423875853 0.027556087741624914
1.283956006531094 -1.080774603559321 0.02041006222496055
1.3093462089387795 -0.5658388277582881 0.012099596384657149
1.328895436699435 0.0 0.010620622834880128
0.22767627964504006 -0.016405496341453565 0.0014019292180398003
0.23689503181159344 -0.5634307129814609 0.004360894727164598
0.24815294876174668 -1.0827588271636868 0.011341628780030907
0.2706335584127722 -1.578227808667797 0.017066046166092644
0.3013898932045061 -2.042543427914789 0.02150420551298264
0.34094815514175403 -2.4645186644103765 0.024471488704143955
0.3891557947983486 -2.8336772377598995 0.025924046170994367
0.44575738665270703 -3.1397918787775847 0.025803353123747957
0.5103975220303328 -3.372942479890213 0.024245196917463806
0.5825854955134807 -3.522649668000829 0.021835629364329694
0.6604479995379668 -3.5760875697234673 0.020295299849291754
0.7383240165959613 -3.5229201852276684 0.021779899302635294
0.810554280165326 -3.3734828845968665 0.024145892114472264
0.8752712519091285 -3.140600731726977 0.02568871656365428
0.9319959629420813 -2.8347512464086595 0.02584557943773304
0.9803946534273434 -2.465848434300636 0.024515877348222796
1.0202530917591408 -2.0441024056704795 0.02179936703833044
1.0514863522976647 -1.5799480017171719 0.01782354580894966
1.0747851511616413 -1.0845221298102885 0.01275290877708625
1.0874778971250738 -0.5652423809437676 0.007179208133461882
1.0975186881701455 -0.016688336078129164 0.008037856160610937
0.44632000860100673 -0.028885869887282138 -0.002524008287576691
0.4514309355660994 -0.5633203636535443 -0.00019690187958298414
0.45535528872607206 -1.0841105058431117 0.004388791051056662
0.46565374360844025 -1.5810030545044353 0.008119092674825199
0.4810290864644482 -2.046210623776088 0.01071021955971584
0.5007383062948183 -2.4691536483924263 0.012274327815118021
0.5247803410868321 -2.839251837722493 0.01287644314291853
0.5529353114346113 -3.146264746374387 0.012571831617458866
0.5848118215304734 -3.3803259956128935 0.011431134427362422
0.6204972546290987 -3.53136962020343 0.00950579984207364
0.6605126075108827 -3.586426512245871 0.007805946752687182
0.7005410871602193 -3.531644389398508 0.009373770935562062
0.7362672800019476 -3.380875048872363 0.01117621811341098
0.76821662188041 -3.1470869537021873 0.012216934607568425
0.7964850478616476 -2.840344485106316 0.01246784470708939
0.8206970272530378 -2.47050879411119 0.011895696442899697
0.8406619267390132 -2.047804843887808 0.010503008586595725
0.8564353200670438 -1.5827727064133932 0.008299869692359333
0.8673947624516548 -1.0859729739950315 0.0052772237965074045
0.8720098036714916 -0.5650240357756839 0.0021454632317594825
0.8774264644645805 -0.029150615070794222 0.0024881239379423974
0.6604546339282127 -0.037269475217847556 -0.007814708638994191
0.6621870489174317 -0.56370587353982 -0.005207432455500321
0.660291478970021 -1.084050911858763 -0.0025452511308181654
0.6592750111611807 -1.5818195862421098 -0.000851575329009987
0.6590864589483252 -2.047439642519244 -0.00011698690402641884
0.6589674534505428 -2.4706854418528565 -2.2251808045629175e-05
0.6588411422518534 -2.8410956601673982 -0.0003526733329885137
0.6586254677406714 -3.1483218078865747 -0.0009802311930043604
0.6578412478742882 -3.3825664614595734 -0.0018761104838833096
0.6572022356388407 -3.5349092185608266 -0.0034992201326116707
0.6605796103748136 -3.5930410998634503 -0.005807056601687954
0.6639696355334814 -3.535189506623329 -0.0037076929269589916
0.6633694836236429 -3.38312660477171 -0.00228686552441077
0.6626530913863612 -3.1491607059007554 -0.001575327716260582
0.6625391113926246 -2.8422105392519184 -0.0010906990605410586
0.6625568820558264 -2.472068738063206 -0.0008193265771849887
0.6626408851518775 -2.0490684826036576 -0.0008206548338154652
0.6627555477485901 -1.583638584156465 -0.0012119713870432426
0.6621486377377529 -1.085931499180189 -0.0021661757109251376
0.6605693525913413 -0.5652480176115234 -0.0034335984609159503
0.6624510941376103 -0.03754790451256655 -0.003932517361096643
0.8731188503776337 -0.04204380638017654 -0.013274812127868456
0.8717860513865001 -0.5640511518712201 -0.010420866538453782
0.8645425260385579 -1.0829986428367029 -0.009445420592925465
0.8528716778126368 -1.5807919749328583 -0.009783298826637574
0.8371978404568803 -2.0462310572200613 -0.010910366753022895
0.8172047652018979 -2.4691531529769573 -0.012298725093782851
0.7928718999993535 -2.8392596131343035 -0.013574971930747156
0.7643894600209233 -3.1460916390109377 -0.014526385150748332
0.7312781937727741 -3.3797017466212433 -0.015106528698279956
0.6938935194962211 -3.533062753231897 -0.016000958178137546
0.6606480140301092 -3.5970201811391647 -0.019145228476213808
0.6274147129753791 -3.5333498281047175 -0.016287308481641376
0.5900670628059616 -3.3802754058249462 -0.015676217207182947
0.5570186818455187 -3.1469504966533397 -0.015366938889935138
0.528626166776053 -2.840400174921629 -0.01465045082936502
0.5044110372158996 -2.470566456443883 -0.01352616566492573
0.48456709801827286 -2.0478943015830553 -0.012125486687316233
0.46908085938686056 -1.5826445427368356 -0.010699045913940847
0.4576078920088321 -1.0848621368410876 -0.009613957076606117
0.4504795165314894 -0.5654679934816669 -0.009253281057381347
0.44922158093246145 -0.042346477707081775 -0.010342529157168127
1.0864521855597304 -0.04409921397531474 -0.018284796937112824
1.0825302038770706 -0.5639802917649593 -0.015508858245090459
1.0700935809273817 -1.0810712200282064 -0.01625720157438954
1.0480404343791578 -1.5779976708684873 -0.01861799134429505
1.0169159037220246 -2.042539732059084 -0.021598015239648567
0.9770103605886367 -2.464517576418439 -0.024433603915202173
0.9284835954946414 -2.8336556838450404 -0.02660585944396969
0.8715053620144748 -3.139634988790243 -0.027742890368894484
0.8069813088524048 -3.3718140452843794 -0.027808805931124392
0.7324565838859405 -3.5247003658807285 -0.026942426414459836
0.6607167580222045 -3.5993809164245736 -0.030279974058977335
0.5889888238387052 -3.524995578068556 -0.027309317734640636
0.5144997454030119 -3.3724038157943306 -0.028543315142923138
0.4500346374457826 -3.1405173805097824 -0.028839233663366978
0.3931365484787574 -2.834825741259272 -0.028035755878800618
0.3447054409262758 -2.465963634181362 -0.026118447788254704
0.3048991257997509 -2.0442349741664017 -0.02336568329694856
0.2738537334797921 -1.5798700989165964 -0.020148635660403504
0.2518250020913824 -1.0829120243623482 -0.017051716831340186
0.2393578474078167 -0.565321432771893 -0.014981411789510745
0.23544366487528554 -0.04441192791471134 -0.01617640950585018
1.3016420457080062 -0.044755734664678345 -0.02213077166419838
1.2963727149351207 -0.5633766910919519 -0.020270355729484848
1.2790658249374478 -1.0782296604367505 -0.02301737662478489
1.2463255743954786 -1.573347353273016 -0.027487355999864856
1.1996569361129668 -2.036258417166551 -0.03235941989677418
1.139856891943532 -2.456624968582851 -0.036630233909218574
1.0671264604996304 -2.8241848926415263 -0.039611532776294034
0.9817085235248934 -3.12845362774711 -0.040829843003182265
0.8845903222784787 -3.3597905522904954 -0.03997033819510469
0.7790528982319621 -3.5078030595085052 -0.03683266813110772
0.6607831786401999 -3.5999999999999996 -0.035422673915208244
0.5425251742447468 -3.508107869334254 -0.03728377611346793
0.4370225817669888 -3.3603992889436554 -0.040877900722644814
0.33996085556098854 -3.129363592601713 -0.042196756430530544
0.25461681252575435 -2.8253892037782764 -0.04142080432180395
0.18196767065319985 -2.4581079123906164 -0.03881388927436602
0.12223284853589117 -2.0379850357466833 -0.03474795107261508
0.07556335233111675 -1.5752306867245311 -0.029739559213051176
0.04269583956127582 -1.0800447710841719 -0.024572291732602242
0.02518217964254525 -0.5646727050016511 -0.020445994221285697
0.019824297673126177 -0.045054867079369176 -0.020678700044595287
0.0 0.0 0.0
0.02137951612241558 -0.5498837013336346 0.004109677033848903
0.04496627505050978 -1.0556320631122218 0.00771202724995498
0.07765837846590984 -1.5428637402900514 0.01112739128349508
0.12252652307722219 -1.9998790839603988 0.013547692320788072
0.17975754627453247 -2.4168313762974565 0.014775171622125025
0.2491852335879882 -2.7838202710410407 0.01471282311775524
0.33091352555762626 -3.0913347844040264 0.013382124239871913
0.4259936499008311 -3.329580663497289 0.011063843727964082
0.5364507081188584 -3.4861701314027673 0.00856816025600106
0.6604213473226267 -3.5431284247224992 0.007372751388703111
0.7843760007791742 -3.4861066811146877 0.008570460601752424
0.8947826687352989 -3.3294342570271134 0.01107800119732397
0.9897702888407337 -3.091067249736952 0.013428907908130928
1.0713495959238792 -2.7833774571158494 0.01482672992759717
1.1405474289775843 -2.4161508819441373 0.015005224184799666
1.1974306679075526 -1.9989065230175826 0.013956737993602803
1.241767647286677 -1.5415834766959755 0.011781398163603301
1.273668376913248 -1.0540947622765313 0.008773996361899652
1.295647358040742 -0.5480491335872575 0.0059064847590314445
1.3124090488485307 0.0 0.006026450432652313
0.22865140005608892 -0.014186963240950538 0.0001485899734369487
0.2380909131260926 -0.5497971185021497 0.0021090223559127605
0.2505662218662756 -1.059422414619511 0.004866311955768541
0.27292426610905013 -1.5476759275621785 0.007352822935822568
0.3030813394814168 -2.0064204588892425 0.009145431553059115
0.3414807727037546 -2.4250484638996905 0.010057845210294123
0.3880062981095467 -2.793799514889038 0.010076277062097924
0.4427178145704862 -3.10320526490753 0.009265182403431885
0.5061226336979922 -3.343666038356424 0.007832675339147858
0.5791518927992005 -3.502842731246168 0.006261907747426792
0.6604122651981668 -3.5614821262049383 0.005469614708137268
0.7416528406820305 -3.502773818001492 0.006215937557756644
0.8146204748895214 -3.343507282678002 0.007747599138855866
0.877914992289495 -3.102915376348843 0.009156701095122882
0.9324553969390544 -2.7933189760788335 0.009972234956458803
0.978730351080415 -2.4243061692312238 0.01000217958638484
1.0167701429660747 -2.00534897416281 0.009199085980492662
1.046419367721549 -1.5462409555412182 0.007608273210532788
1.0680032856486064 -1.0576298447040429 0.005461046745356637
1.0791831331089785 -0.5475391915490946 0.0037472966711497562
1.0880867558227 -0.013486177724120724 0.004782735692660082
0.4447492618398677 -0.02445624486685225 -0.001425058790576045
0.4496038378123059 -0.5495638638897165 -8.223319841102686e-05
0.45417506196156 -1.0611580521802761 0.001803256591098638
0.4649953216857531 -1.5507258324288231 0.0034572371603587854
0.48043938567722355 -2.010406921741564 0.004571973409153335
0.49990061847853406 -2.430065648203436 0.005084292837378072
0.523373947306052 -2.7998635585662566 0.0050358092407420275
0.5507266935770146 -3.110324221303398 0.004509360719222243
0.5818679690120055 -3.3520120034409393 0.003616251083479776
0.6178817738914123 -3.5132969775039165 0.0025535261031932404
0.6604086797502496 -3.574486517123156 0.0019156533456707997
0.7029123484746459 -3.5132247696944225 0.0024605129048564153
0.7388544959161446 -3.3518454610625215 0.003435039329534585
0.7698699583138303 -3.1100194623453006 0.004252072187588416
0.7970335471122616 -2.7993566277567554 0.0047267629109184
0.8202414458599286 -2.429278118216124 0.0047664851059834226
0.83934360877322 -2.009259811985194 0.00431582906419327
0.8543079031774681 -1.5491705581877495 0.003370669797748096
0.8644596565241709 -1.0591509869055122 0.0020978030096121597
0.8685127803698439 -0.5473051696373884 0.001263004352585344
0.8733537572774316 -0.02340524547181558 0.002057024924046166
0.6559196494407254 -0.03134739630016153 -0.003915667472903435
0.6573604312754575 -0.5495710838533507 -0.002489081634545912
0.6558881991737756 -1.0613272255029242 -0.0013191554320184052
0.6556630536598698 -1.5517648134024253 -0.0004695667236260607
0.6561958280572895 -2.0118226044135397 -3.1613003347789836e-05
0.6566730637901441 -2.431796883394636 4.524139056349548e-05
0.656992271946826 -2.8019270466698623 -0.00013344990760798112
0.6569483061755393 -3.112572612625408 -0.0004778905027034087
0.6558057144639374 -3.3544626328837284 -0.000971300026709218
0.6549413242158029 -3.5178489552925924 -0.0016764641844143025
0.6604080701590855 -3.583722610225928 -0.0022495371901685548
0.6658482468625437 -3.517775750011749 -0.0018163779077996474
0.6649025094837153 -3.354293141274789 -0.0012481176991223487
0.6636192683798954 -3.112260910859774 -0.000882424250381012
0.6633691365929522 -2.801405731965316 -0.000643817757837206
0.6634104114841639 -2.4309814696946352 -0.0005262025813872456
0.6635332226336828 -2.0106254616650823 -0.0005828878720968238
0.6636239631098063 -1.5501172780235861 -0.0008634913279671516
0.6629327471185094 -1.0592338669611552 -0.0012909952058650946
0.6612609713544931 -0.5473783640470551 -0.001488589527198191
0.6627965151058829 -0.029987945284060884 -0.0012897851278981561
0.8654820317947012 -0.035297486790173346 -0.006665210558630396
0.8638869151646599 -0.54956437849161 -0.0049581273269590845
0.8569982119437507 -1.060349356661289 -0.0044356983981962035
0.846332062285521 -1.5508265839281647 -0.004384822077321971
0.8319804882988943 -2.0106306106630423 -0.004621357784056383
0.8134367176956092 -2.4302188741642667 -0.004983503506429533
0.7905427804428533 -2.7999751551224454 -0.005296810767515172
0.7632880124201155 -3.110046794732068 -0.005458480404731418
0.7304869817766616 -3.350988664174546 -0.005529216787631244
0.6922613081671518 -3.5160920516641427 -0.005814241477659683
0.6604075191984434 -3.5904755674584665 -0.0062651792723897445
0.6285236560482523 -3.5160201915936224 -0.006001980420782481
0.5902064041199975 -3.35082115546615 -0.005903605005343061
0.5572488595195276 -3.1097362336456973 -0.006013530150490204
0.5297691937993101 -2.7994516110578993 -0.006013451239582803
0.5065825562381151 -2.42939388656612 -0.005815984021846182
0.48768607899172334 -2.0094078942002738 -0.005477413532611819
0.4729483141346146 -1.5491329930320141 -0.005096109334655747
0.4619631320215731 -1.0582377062819617 -0.004703485002450234
0.4549975495834333 -0.5474184590598943 -0.004319870554378168
0.4535104811419099 -0.033703192087145 -0.004713429286358366
1.0756029772432438 -0.03703498569636044 -0.00909322345295813
1.0714342503396073 -0.5492679223816631 -0.007246457606780777
1.059334416652181 -1.0583996161307745 -0.007477236699037865
1.038534990720919 -1.5480056732314387 -0.008245099211073952
1.0093644243123328 -2.006822020352168 -0.009153167791267262
0.971818523302818 -2.425350794674095 -0.009926931188062479
0.9258233017700795 -2.7939730379780108 -0.010318550042275281
0.871216032424392 -3.1029683188677377 -0.010199330301939652
0.808437436448066 -3.341891953347564 -0.00967905318667149
0.7327641883234882 -3.5065640196100953 -0.009300154588972868
0.6604041079907359 -3.595937075273039 -0.009377162918986376
0.5880099980771731 -3.5064958064806175 -0.009537717725764158
0.512233513841334 -3.3417312830355277 -0.01015549288751099
0.4492798702637555 -3.102666825098805 -0.010912955174602059
0.3944245733723261 -2.7934593161245296 -0.011255144217288982
0.34811434532835794 -2.4245339212680332 -0.011043206090401003
0.31021009998580973 -2.0056015220357617 -0.010350368142627915
0.28069831044668014 -1.5463098822459662 -0.009329810653119615
0.2596821945725676 -1.0563039789074402 -0.008117130912157001
0.2475729714230252 -0.5471454495497221 -0.006997461846291947
0.2435158600470912 -0.03529291119087417 -0.007692489648647309
1.2875488270436848 -0.037654530562169664 -0.010453833114553097
1.2819993059456074 -0.5485670504455625 -0.009125645550623732
1.2650316528233156 -1.0555309832566588 -0.010319851661589552
1.2339044223262279 -1.543338332105747 -0.01194159121215883
1.1899171701088997 -2.000454323169809 -0.013492873417671525
1.133486542817205 -2.4172417420569374 -0.014594496341031708
1.0645271840830974 -2.7840961110443243 -0.014921730425986794
0.9828659197747767 -3.0910388605130317 -0.01429735745489485
0.8889554700026525 -3.3288855636162897 -0.012870580564079163
0.7849411300074398 -3.486908329356127 -0.011385351897982916
0.6603953295696809 -3.5999999999999996 -0.010690456270240446
0.5358108396176671 -3.4868459315804285 -0.011675874125643637
0.43167935949942454 -3.328736310162939 -0.01345618905181707
0.33757115879878263 -3.0907539590916198 -0.0151826115922918
0.2556317051439411 -2.7836035477472767 -0.016100918909553803
0.18632342977055638 -2.416449913662348 -0.016033171779031664
0.1295092064968895 -1.9992632900713956 -0.01509648559075912
0.0851955701802242 -1.5416810993974395 -0.013504214860593916
0.0539397393585092 -1.053485568459636 -0.011465859369655395
0.037073818829972856 -0.5464693831926735 -0.009333348170007642
0.03167580517635137 -0.03584179067656899 -0.00946405184805221
0.0 0.0 0.0
0.022679293414790115 -0.5460268511453253 -3.90019248867207e-14
0.04639626432264435 -1.0489378160526444 -7.337976147272149e-14
0.07872415260177558 -1.533936754808718 -1.0622353634056122e-13
0.12292562095598578 -1.9895140462410237 -1.3771591094133586e-13
0.17928322385158887 -2.4059647172151575 -1.717782925143302e-13
0.24770998427740487 -2.7735844582592395 -2.1372668728992452e-13
0.32855787329284325 -3.082963386636455 -2.63270653411636e-13
0.4233425953226009 -3.3240510551478777 -3.0585366840389494e-13
0.5345828300998818 -3.4835131019526977 -3.4361282680049487e-13
0.6604029769640715 -3.5417889033676175 -3.8427252356887584e-13
0.7861944748086086 -3.4833217201561957 -4.278788677673877e-13
0.8973447518722782 -3.3236402566892336 -4.660261020086252e-13
0.9919651036916515 -3.0822781575773126 -4.859679127215469e-13
1.072548249195947 -2.772546835811059 -5.211314711025052e-13
1.1405630226664178 -2.4044868710478084 -5.523376323376307e-13
1.1962838546281676 -1.9875273775720321 -6.156357836910943e-13
1.239499793756715 -1.5314473067226646 -6.836495013472762e-13
1.270315260493841 -1.046064151137597 -7.573990867010095e-13
1.2915121248552581 -0.5429744604893534 -8.327406153655791e-13
1.3075711792635356 0.0 -8.875806821462258e-13
0.22857375488568968 -0.013718008126436405 -8.056546308063745e-15
0.23805659597926843 -0.5462044764036866 -3.5343635748104236e-14
0.2509857894408582 -1.0528019591954352 -6.855497747083022e-14
0.27322080540883276 -1.5388334064916076 -1.0268579654853774e-13
0.3030405073806646 -1.9961401765232234 -1.3751235809465104e-13
0.3409568392440635 -2.4143021188782434 -1.7441408706809522e-13
0.38692773174436634 -2.783756037828491 -2.1475233379067942e-13
0.44117178553164904 -3.0951516258069205 -2.5993814949302e-13
0.5044665839356095 -3.3386333712265737 -3.035892690293421e-13
0.5780032999431084 -3.500867665866013 -3.487573610836687e-13
0.660368229757234 -3.5609206784848917 -3.893350631331039e-13
0.7426991432928153 -3.500667249070751 -4.3546320035676195e-13
0.8161301137172756 -3.3382023423378437 -4.810867477175468e-13
0.8792357313683927 -3.09443015719367 -5.150051495873377e-13
0.9331851974420053 -2.7826577863142443 -5.570914908924447e-13
0.9787189946168872 -2.4127251286648757 -6.004284204980336e-13
1.0159947842294814 -1.993996222580784 -6.550008250487643e-13
1.0448773356831502 -1.5360942886596785 -7.169560724701361e-13
1.0657178076240537 -1.0495501520823927 -7.82135147485929e-13
1.0765893156830082 -0.5424862863605298 -8.475572415240368e-13
1.0851598878893058 -0.0129290910390481 -8.949477429249753e-13
0.443905573602226 -0.023864519200717412 -8.921785284970698e-15
0.448706730083544 -0.5459726573309989 -3.4501761426850935e-14
0.4535797369168181 -1.0546212095321366 -6.548004820782999e-14
0.46450720940064316 -1.5419116957865284 -1.0086974762006246e-13
0.4798877816456197 -2.000150027812866 -1.370542508221802e-13
0.4992072122510657 -2.4193472815875063 -1.766401065624684e-13
0.5224964320487444 -2.789876082954848 -2.18729936956313e-13
0.5496947306613534 -3.1023782301179326 -2.591554154842508e-13
0.5808282917634857 -3.347161780048861 -3.092919021422928e-13
0.6171202857852519 -3.5115806974123926 -3.5469864081439156e-13
0.660339306612041 -3.57427322165232 -3.9714569603724196e-13
0.7035196073580046 -3.511373832182363 -4.488130321959188e-13
0.7396922867258711 -3.346716091288359 -4.973733085029442e-13
0.7706163729347072 -3.101630077992442 -5.430083746218552e-13
0.7974984994181775 -2.788732384073571 -5.906933313868624e-13
0.8203390561979931 -2.417695219614955 -6.395237218252014e-13
0.8390363462817051 -1.9978820242920907 -6.911186856224124e-13
0.8535609320254987 -1.5389827780835326 -7.467765677994171e-13
0.8633152199845111 -1.0510480001687634 -8.060947180519885e-13
0.8672761817886615 -0.5422578286000852 -8.637610974155481e-13
0.8719469815086773 -0.022453267492795147 -9.12729600385969e-13
0.6541318149948372 -0.030686577519190402 -7.6713888695619e-15
0.6555603560629285 -0.5459542055854277 -3.316877946191629e-14
0.6543415129359055 -1.0548404472985244 -6.350886768874801e-14
0.6543561239576825 -1.5429939750053174 -1.002266578895606e-13
0.6550808901779234 -2.001591823456588 -1.3716923685393281e-13
0.655731481015238 -2.421102098674164 -1.7864181199320995e-13
0.6562063993132367 -2.7919664829994764 -2.2152110551218724e-13
0.6562862876247922 -3.1046597831772726 -2.633659934887391e-13
0.655219588736157 -3.3496581919348944 -3.14695138241634e-13
0.6544294716446442 -3.516200507383382 -3.62427833678832e-13
0.6603130313717387 -3.583694499927577 -4.0754755246862225e-13
0.6661533845137296 -3.5159899142467874 -4.630973024041831e-13
0.6652311302099199 -3.349203709235786 -5.115652140962935e-13
0.6639362165056137 -3.103894897930925 -5.68264128364305e-13
0.6636812213333032 -2.790793299851967 -6.213477173647576e-13
0.663701198559925 -2.419398829441439 -6.733189313684417e-13
0.6637600122788736 -1.9992379016668742 -7.241172874103914e-13
0.6637282634133426 -1.53991850936052 -7.751642673781868e-13
0.6629265056958571 -1.0511399241535546 -8.294108897972341e-13
0.6613062401616482 -0.5423379226548694 -8.818614841544604e-13
0.6627972186328371 -0.02875348812023224 -9.33740026974647e-13
0.8626307620470293 -0.03459124205929114 -5.8247857311976886e-15
0.8611154245180392 -0.5459240591769785 -3.1583892911354383e-14
0.8545184526661892 -1.0538997278500386 -6.25649988347192e-14
0.8442192401546971 -1.5421070391307221 -9.8243330552168e-14
0.8302988304825714 -2.0004398571151776 -1.3685378262631737e-13
0.8122436039606594 -2.4195526518418067 -1.7848418120137828e-13
0.7898447283786058 -2.7900270769083897 -2.2485602192391146e-13
0.7630025958332528 -3.102116442300967 -2.6882912291735973e-13
0.7303843087440622 -3.3461287855459396 -3.2016142568059686e-13
0.6920013443596773 -3.5143660746205363 -3.701869136305167e-13
0.660286328903209 -3.5905343833328587 -4.192515477550473e-13
0.6285233920059129 -3.5141545212099485 -4.753813790714178e-13
0.5899947462110487 -3.345671450452129 -5.30481536083074e-13
0.557128153629955 -3.1013449205751917 -5.913986775916195e-13
0.5299300264546494 -2.788840271892518 -6.495404766723515e-13
0.5070671412130938 -2.4178235016337495 -7.084387769880637e-13
0.4884474209224212 -1.9980359989845704 -7.561637454450328e-13
0.47389605625407716 -1.5389544740774526 -8.041024848301475e-13
0.4630544561683684 -1.050173558285178 -8.518285750654936e-13
0.4562847709498275 -0.5423830688124107 -9.001917424864269e-13
0.45488352077606753 -0.03228395320080713 -9.548375374652602e-13
1.071599889011273 -0.03630560319440617 -4.04147321249472e-15
1.0676340262402662 -0.5456048599692934 -3.001542493806756e-14
1.0559267753341302 -1.0519816430817879 -6.107451534162086e-14
1.0356497900718646 -1.5393382060149525 -9.635119480358251e-14
1.0071654782653376 -1.9966769755439735 -1.3716825763193243e-13
0.9704447379167646 -2.4147093921498386 -1.8314686473030207e-13
0.9253181881568773 -2.784007917322054 -2.251704735827653e-13
0.871448163940389 -3.0949592008240656 -2.702856917919484e-13
0.8090322243431289 -3.336851367225244 -3.2695092287345725e-13
0.7329042687400303 -3.504573653619352 -3.7336051567293647e-13
0.6602561117367601 -3.5959998099390758 -4.278439729963111e-13
0.5875546395749097 -3.5043638544495535 -4.833440394365552e-13
0.5112652742552118 -3.336397016916323 -5.458832808776812e-13
0.4485766943551605 -3.0941908718449143 -6.132337130632718e-13
0.3943222660264965 -2.782823142471814 -6.775379712176467e-13
0.3487099176073483 -2.4129788306352937 -7.408220322564809e-13
0.3114383829703745 -1.994264331638623 -7.910683781918092e-13
0.2824292476650224 -1.5361754625863986 -8.343788375766483e-13
0.26181575473417723 -1.0482823178493843 -8.754584127186301e-13
0.250084746348085 -0.5421081034765906 -9.164904266357045e-13
0.24626951162409452 -0.03377361743976571 -9.730653635676868e-13
1.2823170943700282 -0.0368722516801594 -2.1225669441606952e-15
1.2770900699615086 -0.5448457266285444 -2.8297742730938117e-14
1.260645811168536 -1.0491089245856753 -5.799902724438868e-14
1.230251681624872 -1.5346783061389824 -9.309150228142907e-14
1.1872605174204716 -1.9902950397864747 -1.383299445839101e-13
1.1320481179503838 -2.406535230367756 -1.8931743841686595e-13
1.0644029399842336 -2.773980235707356 -2.2230901184361232e-13
0.9839038895692874 -3.082738916461226 -2.7093609343411013e-13
0.8905521060999609 -3.3233995031775345 -3.200744089995267e-13
0.7859985197663854 -3.4841818398835827 -3.7319121970659363e-13
0.6602191546904251 -3.5999999999999996 -4.307426093925827e-13
0.5343799467186392 -3.4839763767953578 -4.874326647008323e-13
0.42964553678527434 -3.32295367981657 -5.512245904278684e-13
0.3359896957719365 -3.081983154812246 -6.338833103502381e-13
0.25506542427385087 -2.7728122458705977 -7.064139189895992e-13
0.18689151182663646 -2.404826855896372 -7.818197552473902e-13
0.13110647546616264 -1.9879148154197306 -8.307571191047221e-13
0.0876455199875765 -1.5315708210948582 -8.704846541286557e-13
0.057102159714685526 -1.0454946428956962 -9.00592061589343e-13
0.040860133521936515 -0.5413997396529276 -9.303755542251002e-13
0.035876705097127946 -0.03423882779856198 -9.837762517537499e-13
0.0 0.0 0.0
0.02137951612248649 -0.5498837013336693 -0.004109677033927756
0.04496627505061875 -1.055632063112277 -0.007712027250096377
0.07765837846604803 -1.5428637402900807 -0.011127391283702635
0.12252652307737211 -1.9998790839603846 -0.013547692321063122
0.179757546274683 -2.4168313762974414 -0.01477517162247499
0.24918523358814548 -2.7838202710410256 -0.014712823118167195
0.33091352555779857 -3.091334784404019 -0.01338212424033683
0.4259936499010172 -3.3295806634972926 -0.011063843728515585
0.5364507081190598 -3.486170131402709 -0.008568160256656502
0.6604213473228493 -3.543128424722447 -0.007372751389443525
0.7843760007794288 -3.486106681114628 -0.008570460602575923
0.894782668735588 -3.3294342570269366 -0.011078001198217996
0.989770288841037 -3.0910672497366596 -0.013428907909100157
1.0713495959241788 -2.783377457115487 -0.01482672992864537
1.1405474289778337 -2.416150881943663 -0.015005224185943399
1.197430667907735 -1.9989065230171812 -0.013956737994851106
1.2417676472868318 -1.541583476695637 -0.011781398164975043
1.2736683769133763 -1.0540947622762737 -0.008773996363415736
1.2956473580408505 -0.5480491335871092 -0.005906484760691668
1.3124090488486129 0.0 -0.006026450434417955
0.228651400056153 -0.014186963240954762 -0.00014858997345411275
0.23809091312617273 -0.5497971185021924 -0.002109022355984758
0.2505662218663814 -1.0594224146195703 -0.0048663119559080375
0.27292426610917747 -1.5476759275622054 -0.007352822936029142
0.30308133948156013 -2.006420458889239 -0.009145431553336858
0.34148077270390553 -2.4250484638996697 -0.01005784521064724
0.38800629810970383 -2.7937995148890287 -0.010076277062521403
0.44271781457065573 -3.1032052649075337 -0.009265182403925312
0.5061226336981666 -3.343666038356431 -0.007832675339730017
0.5791518927993907 -3.502842731246142 -0.006261907748101172
0.660412265198386 -3.561482126204894 -0.005469614708902298
0.7416528406822633 -3.502773818001435 -0.0062159375586096355
0.8146204748897717 -3.3435072826778636 -0.007747599139787835
0.8779149922897704 -3.1029153763485553 -0.009156701096146453
0.9324553969393141 -2.793318976078482 -0.00997223495756812
0.9787303510806536 -2.4243061692307153 -0.01000217958759846
1.016770142966283 -2.005348974162403 -0.009199085981810478
1.0464193677217306 -1.5462409555408712 -0.007608273211967189
1.0680032856487718 -1.0576298447037835 -0.005461046746923851
1.079183133109134 -0.5475391915489453 -0.00374729667284077
1.0880867558228473 -0.013486177724103755 -0.004782735694443732
0.44474926183995606 -0.024456244866860242 0.0014250587905565498
0.4496038378124033 -0.5495638638897606 8.223319834128255e-05
0.45417506196166557 -1.0611580521803317 -0.0018032565912342222
0.4649953216858756 -1.5507258324288609 -0.0034572371605653255
0.48043938567735756 -2.0104069217415597 -0.0045719734094327134
0.4999006184786759 -2.4300656482034073 -0.005084292837733943
0.5233739473062051 -2.799863558566252 -0.005035809241176508
0.5507266935771714 -3.110324221303404 -0.0045093607197408524
0.5818679690121689 -3.352012003440947 -0.0036162510840851525
0.6178817738915987 -3.5132969775038916 -0.0025535261038934776
0.6604086797504524 -3.57448651712312 -0.0019156533464642612
0.7029123484748568 -3.513224769694354 -0.002460512905739843
0.73885449591637 -3.35184546106241 -0.0034350393305081933
0.7698699583140719 -3.110019462345018 -0.004252072188663151
0.7970335471125041 -2.7993566277564113 -0.004726762912089106
0.8202414458601663 -2.4292781182156356 -0.004766485107261948
0.8393436087734414 -2.0092598119847738 -0.004315829065574116
0.8543079031776768 -1.5491705581874053 -0.00337066979924426
0.864459656524363 -1.0591509869052487 -0.0020978030112263303
0.8685127803700404 -0.5473051696372411 -0.001263004354311015
0.8733537572776209 -0.023405245471784148 -0.0020570249258660927
0.6559196494408284 -0.03134739630017428 0.003915667472886469
0.6573604312755631 -0.5495710838533924 0.002489081634477407
0.6558881991738823 -1.0613272255029738 0.0013191554318865433
0.6556630536599874 -1.5517648134024589 0.0004695667234221671
0.6561958280574155 -2.0118226044135374 3.161300306740853e-05
0.6566730637902762 -2.431796883394615 -4.5241390926773126e-05
0.656992271946968 -2.80192704666985 0.00013344990716172505
0.6569483061756863 -3.1125726126254003 0.00047789050216970883
0.6558057144640943 -3.3544626328837674 0.0009713000260783652
0.6549413242159772 -3.517848955292582 0.0016764641836931008
0.6604080701592727 -3.5837226102258763 0.0022495371893436963
0.6658482468627321 -3.5177757500116975 0.0018163779068845695
0.6649025094839203 -3.354293141274705 0.0012481176981064138
0.6636192683801042 -3.112260910859515 0.000882424249255541
0.6633691365931681 -2.801405731964997 0.0006438177566058284
0.6634104114843905 -2.4309814696941534 0.000526202580045683
0.6635332226339175 -2.0106254616646697 0.0005828878706515979
0.6636239631100348 -1.5501172780232255 0.0008634913264132198
0.6629327471187345 -1.059233866960898 0.0012909952042046869
0.6612609713547214 -0.547378364046908 0.0014885895254361044
0.6627965151061136 -0.029987945284020864 0.001289785126034212
0.8654820317948113 -0.03529748679019144 0.006665210558617931
0.8638869151647677 -0.5495643784916432 0.0049581273268930965
0.8569982119438562 -1.0603493566613333 0.0044356983980668755
0.8463320622856328 -1.5508265839281985 0.00438482207711987
0.8319804882990137 -2.010630610663041 0.004621357783775539
0.8134367176957276 -2.430218874164233 0.004983503506059046
0.7905427804429841 -2.799975155122439 0.00529681076705994
0.7632880124202579 -3.1100467947320682 0.0054584804041799264
0.730486981776818 -3.350988664174586 0.005529216786985169
0.6922613081673117 -3.5160920516641507 0.00581424147691728
0.6604075191986152 -3.590475567458421 0.006265179271533895
0.6285236560484325 -3.516020191593583 0.006001980419832715
0.5902064041201746 -3.350821155466051 0.005903605004283371
0.5572488595197125 -3.109736233645453 0.006013530149313204
0.5297691937995035 -2.799451611057584 0.0060134512382906
0.5065825562383331 -2.42939388656565 0.005815984020442298
0.4876860789919637 -2.009407894199859 0.005477413531101903
0.4729483141348604 -1.5491329930316449 0.005096109333042753
0.46196313202182887 -1.0582377062817057 0.004703485000744464
0.4549975495836964 -0.5474184590597495 0.004319870552578831
0.4535104811421758 -0.03370319208709961 0.004713429284449842
1.075602977243354 -0.0370349856963821 0.009093223452951155
1.0714342503397163 -0.5492679223816891 0.007246457606718085
1.059334416652286 -1.0583996161308153 0.007477236698912493
1.0385349907210215 -1.548005673231476 0.008245099210874114
1.009364424312443 -2.0068220203521525 0.009153167790986752
0.9718185233029342 -2.425350794674046 0.009926931187692844
0.9258233017702082 -2.7939730379780228 0.010318550041812601
0.8712160324245363 -3.102968318867725 0.010199330301369344
0.808437436448221 -3.341891953347612 0.009679053186010176
0.7327641883236373 -3.506564019610092 0.009300154588209375
0.6604041079908969 -3.5959370752730164 0.00937716291810527
0.5880099980773354 -3.5064958064805696 0.009537717724781559
0.5122335138414887 -3.341731283035458 0.010155492886408697
0.44927987026391275 -3.102666825098562 0.010912955173372542
0.39442457337249504 -2.7934593161242214 0.011255144215935847
0.34811434532856284 -2.424533921267591 0.011043206088928188
0.3102100999860551 -2.005601522035341 0.010350368141051893
0.2806983104469487 -1.546309882245599 0.009329810651448134
0.2596821945728569 -1.056303978907185 0.008117130910404238
0.24757297142332443 -0.5471454495495816 0.00699746184445719
0.24351586004739395 -0.035292911190826164 0.007692489646699974
1.2875488270437958 -0.037654530562193575 0.01045383311455021
1.2819993059457193 -0.5485670504455832 0.009125645550566133
1.2650316528234218 -1.0555309832567001 0.010319851661469084
1.2339044223263211 -1.5433383321057796 0.01194159121196202
1.1899171701089977 -2.0004543231697935 0.013492873417391948
1.1334865428173215 -2.4172417420569015 0.014594496340667269
1.064527184083226 -2.7840961110443203 0.014921730425512963
0.9828659197749223 -3.091038860513019 0.014297357454310211
0.8889554700028068 -3.3288855636163297 0.012870580563397757
0.784941130007576 -3.4869083293561167 0.011385351897202214
0.6603953295698298 -3.5999999999999996 0.010690456269349252
0.5358108396178144 -3.4868459315803726 0.011675874124628727
0.4316793594995456 -3.3287363101628658 0.013456189050664435
0.3375711587988949 -3.090753959091395 0.015182611591009408
0.25563170514407757 -2.783603547746967 0.016100918908138348
0.1863234297707405 -2.4164499136619266 0.016033171777490182
0.129509206497143 -1.999263290070983 0.015096485589112751
0.08519557018052576 -1.5416810993970789 0.013504214858863372
0.05393973935883944 -1.0534855684593818 0.011465859367855075
0.037073818830311835 -0.546469383192532 0.00933334816813886
0.03167580517669089 -0.035841790676521164 0.009464051846081593
0.0 0.0 0.0
0.015400136274344842 -0.5642518465379256 -0.00951152001073442
0.03904465023918944 -1.0791158676795067 -0.018166531586669445
0.07251498645253038 -1.573668176443747 -0.02621050326465174
0.11871469484491552 -2.036276924298344 -0.032418289780621994
0.1781110682107009 -2.4566586441901066 -0.03677582338440769
0.2504886969723925 -2.824201592886555 -0.038984181324032544
0.3355024267974346 -3.1287133263268023 -0.03883912234987899
0.4328157219673326 -3.3602215082847193 -0.036436372579122904
0.5420301872531088 -3.5082468188468985 -0.03280064461006518
0.6603882179526598 -3.5606367583517815 -0.030697581037943268
0.778759996550542 -3.5085144156794725 -0.0328222572213377
0.8880176232625651 -3.3607558765115115 -0.03649519581010521
0.9854099784123824 -3.129512527378646 -0.03896958952418298
1.070552233190973 -2.825261250752483 -0.039245979010977775
1.1431343690488995 -2.457966992040269 -0.037259311951125695
1.2028586068869345 -2.037802713494818 -0.033260397159945054
1.2496019486614776 -1.575335242386936 -0.02755608774300293
1.2839560065313353 -1.080774603558804 -0.0204100622264764
1.3093462089389807 -0.5658388277579622 -0.012099596386317553
1.3288954366995829 0.0 -0.010620622836643764
0.22767627964516698 -0.016405496341465296 -0.0014019292180594705
0.23689503181175264 -0.563430712981542 -0.004360894727247872
0.24815294876196 -1.08275882716374 -0.011341628780188677
0.27063355841302844 -1.578227808667816 -0.01706604616631956
0.30138989320479714 -2.042543427914797 -0.021504205513273703
0.3409481551420789 -2.4645186644103476 -0.024471488704498345
0.38915579479869994 -2.8336772377598014 -0.02592404617141241
0.4457573866530599 -3.139791878777296 -0.02580335312423511
0.5103975220306942 -3.37294247988991 -0.02424519691802684
0.5825854955138662 -3.5226496680006614 -0.02183562936498272
0.6604479995383964 -3.576087569723226 -0.020295299850037578
0.7383240165964278 -3.5229201852273966 -0.02177989930346699
0.8105542801658163 -3.3734828845964655 -0.024145892115392486
0.875271251909627 -3.140600731726421 -0.025688716564665894
0.9319959629425595 -2.834751246407981 -0.025845579438844506
0.980394653427785 -2.4658484342999136 -0.024515877349436804
1.020253091759545 -2.044102405669724 -0.021799367039650824
1.0514863522980182 -1.5799480017164966 -0.017823545810390407
1.0747851511619482 -1.0845221298097674 -0.01275290877865097
1.0874778971253742 -0.5652423809434466 -0.007179208135154822
1.0975186881704222 -0.016688336078083364 -0.008037856162392061
0.4463200086011834 -0.028885869887300245 0.0025240082875540026
0.4514309355662862 -0.563320363653625 0.0001969018795034621
0.4553552887262828 -1.0841105058431737 -0.004388791051207165
0.4656537436086866 -1.5810030545044595 -0.008119092675044976
0.4810290864647228 -2.0462106237761004 -0.010710219560005478
0.5007383062951228 -2.4691536483924015 -0.012274327815479226
0.5247803410871507 -2.8392518377223843 -0.012876443143353579
0.5529353114349445 -3.146264746374116 -0.012571831617967712
0.5848118215308298 -3.3803259956126053 -0.011431134427953451
0.6204972546294717 -3.5313696202032605 -0.00950579984275569
0.6605126075112899 -3.5864265122456347 -0.007805946753477473
0.7005410871606589 -3.5316443893982514 -0.00937377093643568
0.7362672800023954 -3.380875048871935 -0.0111762181143795
0.7682166218808577 -3.1470869537016566 -0.012216934608632542
0.7964850478620935 -2.840344485105619 -0.012467844708257248
0.8206970272534704 -2.4705087941104598 -0.011895696444173168
0.8406619267394313 -2.047804843887058 -0.010503008587982246
0.8564353200674332 -1.5827727064126966 -0.008299869693856739
0.8673947624520312 -1.085972973994521 -0.005277223798119498
0.8720098036718668 -0.5650240357753606 -0.002145463233486019
0.8774264644649413 -0.029150615070715556 -0.0024881239397616917
0.6604546339284159 -0.03726947521787299 0.007814708638977683
0.6621870489176357 -0.563705873539891 0.0052074324554245285
0.6602914789702362 -1.0840509118588304 0.0025452511306761046
0.6592750111614128 -1.5818195862421427 0.0008515753287957758
0.6590864589485829 -2.0474396425192625 0.0001169869037380585
0.6589674534508227 -2.470685441852831 2.225180767897311e-05
0.6588411422521543 -2.8410956601672988 0.00035267333254195276
0.6586254677409843 -3.148321807886341 0.0009802311924709069
0.6578412478746276 -3.382566461459303 0.0018761104832667156
0.6572022356392008 -3.5349092185606894 0.003499220131897297
0.6605796103752013 -3.593041099863269 0.005807056600862971
0.6639696355338949 -3.535189506623064 0.0037076929260435403
0.6633694836240488 -3.3831266047712703 0.0022868655233963145
0.6626530913867674 -3.149160705900217 0.0015753277151431715
0.6625391113930443 -2.842210539251235 0.0010906990593124513
0.6625568820562551 -2.4720687380624637 0.0008193265758468712
0.6626408851523024 -2.0490684826028884 0.0008206548323674407
0.6627555477490221 -1.583638584155775 0.0012119713854870688
0.662148637738193 -1.0859314991796813 0.002166175709265382
0.6605693525917897 -0.5652480176112011 0.0034335984591514182
0.6624510941380526 -0.03754790451246455 0.0039325173592324415
0.8731188503778499 -0.042043806380209235 0.013274812127861036
0.8717860513867146 -0.5640511518712827 0.01042086653838437
0.8645425260387772 -1.0829986428367726 0.009445420592791727
0.8528716778128655 -1.5807919749328903 0.009783298826431855
0.8371978404571152 -2.0462310572200813 0.010910366752734933
0.8172047652021568 -2.4691531529769692 0.012298725093409443
0.7928718999996268 -2.839259613134219 0.013574971930284622
0.7643894600212231 -3.1460916390106894 0.014526385150195642
0.731278193773105 -3.379701746620995 0.01510652869763563
0.6938935194965634 -3.533062753231751 0.01600095817739196
0.6606480140304666 -3.5970201811390172 0.01914522847535714
0.6274147129757565 -3.533349828104443 0.016287308480687226
0.5900670628063219 -3.3802754058244755 0.015676217206120925
0.5570186818458863 -3.1469504966528143 0.015366938888760005
0.528626166776448 -2.840400174920955 0.014650450828070549
0.5044110372163203 -2.4705664564431444 0.013526165663523059
0.48456709801871406 -2.0478943015822866 0.012125486685805032
0.46908085938733135 -1.5826445427361633 0.010699045912327803
0.45760789200933705 -1.0848621368405875 0.009613957074897688
0.45047951653200435 -0.5654679934813374 0.009253281055576714
0.4492215809329743 -0.042346477706969365 0.010342529155259055
1.0864521855599634 -0.04409921397534876 0.01828479693711492
1.082530203877296 -0.5639802917650208 0.015508858245029716
1.0700935809275973 -1.0810712200282726 0.01625720157426464
1.0480404343793828 -1.5779976708685228 0.018617991344096772
1.0169159037222493 -2.042539732059103 0.02159801523936711
0.9770103605888676 -2.464517576418475 0.024433603914822646
0.9284835954948867 -2.833655683844938 0.026605859443491222
0.8715053620147529 -3.139634988790042 0.027742890368315645
0.8069813088527342 -3.37181404528414 0.027808805930446365
0.732456583886265 -3.52470036588059 0.026942426413689144
0.6607167580225358 -3.5993809164244874 0.030279974058091935
0.58898882383904 -3.5249955780682707 0.027309317733650963
0.5144997454033251 -3.372403815793838 0.028543315141808336
0.45003463744611427 -3.140517380509264 0.028839233662129052
0.39313654847912194 -2.834825741258602 0.0280357558774402
0.3447054409266843 -2.4659636341806186 0.026118447786785504
0.3048991258002116 -2.044234974165636 0.023365683295372502
0.27385373348031194 -1.5798700989159484 0.020148635658731213
0.25182500209194536 -1.0829120243618486 0.017051716829583057
0.23935784740839924 -0.5653214327715648 0.014981411787666835
0.23544366487587412 -0.044411927914594404 0.016176409503900688
1.3016420457082423 -0.04475573466471361 0.022130771664208685
1.2963727149353588 -0.5633766910920139 0.020270355729434857
1.2790658249376634 -1.0782296604368091 0.02301737662466998
1.2463255743956863 -1.5733473532730586 0.027487355999676766
1.1996569361131886 -2.0362584171665676 0.0323594198965009
1.1398568919437362 -2.456624968582862 0.03663023390883408
1.0671264604998303 -2.8241848926414295 0.03961153277579717
0.9817085235251533 -3.1284536277469277 0.040829843002567014
0.8845903222788054 -3.359790552290293 0.039970338194388666
0.7790528982323202 -3.5078030595083622 0.036832668130305585
0.6607831786405006 -3.5999999999999996 0.03542267391430604
0.5425251742449938 -3.5081078693339567 0.03728377611244139
0.43702258176725556 -3.360399288943179 0.0408779007214703
0.3399608555612825 -3.1293635926012073 0.04219675642922586
0.25461681252607543 -2.825389203777608 0.04142080432037424
0.18196767065359482 -2.458107912389888 0.03881388927282898
0.12223284853637492 -2.0379850357459373 0.034747951070974205
0.07556335233168839 -1.575230686723901 0.02973955921131916
0.042695839561900664 -1.0800447710836862 0.024572291730794647
0.025182179643203892 -0.5646727050013262 0.020445994219406155
0.019824297673798646 -0.04505486707925186 0.020678700042616967
0.0 0.0 0.0
0.01646363271385383 -0.5969958680508742 -0.014289809129930232
0.039645543877874376 -1.1249789351798272 -0.03076895242584719
0.07170788565917012 -1.6335574166916467 -0.04392839345011024
0.1173345931262925 -2.108942866462373 -0.05585272822303696
0.17716559345510124 -2.539927144226239 -0.06571171266903837
0.2509539271275848 -2.9146676164759193 -0.0730952480920338
0.33825323114267036 -3.221711969857574 -0.07747880801538039
0.4378704664056211 -3.4498960512926318 -0.0784952424356266
0.546841915083544 -3.589688161232261 -0.07674520461071133
0.6602548092897402 -3.6362688018052394 -0.07516134414748271
0.7737080101365872 -3.5903702233858454 -0.07680831192026352
0.8828082423401644 -3.451276083535888 -0.07864359548363009
0.9826673890429964 -3.2238190225168393 -0.07776137286064427
1.0703664252271343 -2.917536495737825 -0.07359632185992077
1.1447830497710296 -2.5435804236417776 -0.06656656898560454
1.2055701407376225 -2.1133593470455896 -0.05725309449281045
1.2526217150254606 -1.6386176645759187 -0.04620483864742915
1.2867593618907351 -1.1304495116935247 -0.034128055317775956
1.3135209514120523 -0.6024365161729859 -0.02028938085745519
1.3385762021583198 0.0 0.00011584237716169735
0.2343059549509624 -0.02549331750671304 0.007502854862962702
0.24441868239250594 -0.59434578744818 -0.007485853946300192
0.2525713967879322 -1.1285733087995198 -0.01949167095910994
0.27358147308452496 -1.6377798470239184 -0.029666900659499305
0.303222143332902 -2.115016319926376 -0.03818310920797808
0.34235787047898647 -2.547623990704976 -0.04519039647187637
0.3907646210931425 -2.924003610393352 -0.05038310112007596
0.4481352052258334 -3.232620543479295 -0.05352186285200593
0.5136869519424544 -3.4621702418961746 -0.05444205645987896
0.5855125247863151 -3.6027566388825685 -0.05352092716854007
0.6603776701096795 -3.649382391052532 -0.05254116551920988
0.7352854375055946 -3.6034499241021334 -0.05349920656195297
0.8072461652557745 -3.4635748171255267 -0.05441744140563518
0.8730480651321352 -3.2347698819412285 -0.05353702325384352
0.9308233704881053 -2.9269395581594426 -0.050515286225331746
0.9798490496360599 -2.5513798436142237 -0.045565194589467894
1.019902194430841 -2.119583204985843 -0.03900427696740895
1.0508636533747224 -1.6430561494774651 -0.03120624903951611
1.0737867374879886 -1.1343539644525447 -0.02228252806749228
1.084667255923107 -0.6002172238859027 -0.011566237317459985
1.0962421309531487 -0.02690327599624515 0.0030258787525628992
0.4555038746988017 -0.04426295134656443 0.012261024709731063
0.46071841893618737 -0.5934564061683981 0.0006635110360953075
0.4616282728858808 -1.1293883383206331 -0.007907651179374456
0.4697804499801347 -1.6403306447731922 -0.014226040297205719
0.4837821555029218 -2.1184998326261866 -0.019060485095765856
0.502620589903491 -2.5521352111581694 -0.022750363242408277
0.5262702119495197 -2.929490600177989 -0.025318350437325478
0.5546134806877194 -3.239087586111406 -0.02671203224191771
0.5874416009855189 -3.469482651340591 -0.0269047752804139
0.623622514028899 -3.6102389865572944 -0.02596291865268143
0.6604750858352941 -3.6560715876838206 -0.024901088307323495
0.6973710980516967 -3.610944402776485 -0.025856512694458093
0.7336889197364242 -3.4709133431703174 -0.02670716667178325
0.7667673265045276 -3.2412807599694116 -0.026459322905842794
0.7955078386978399 -2.9324939025715784 -0.025079057507237625
0.8197500870714737 -2.555990237538652 -0.022644434081419352
0.8394401656290268 -2.1232088341884183 -0.01928279932177098
0.8546283865400031 -1.6457970177623964 -0.015085162282860264
0.8643663330131786 -1.1354206322699478 -0.009836413806374263
0.8665726314634541 -0.5991207655588291 -0.002588365383685595
0.8724162737189998 -0.04643486784522785 0.007705359769551352
0.6702002295473412 -0.05629189796513903 0.01651057763511459
0.6716015305831403 -0.5936071959955249 0.008589546787758718
0.667004369703557 -1.128710997366396 0.0037977091211806985
0.6635757653805217 -1.6408346353970964 0.0015655036169528608
0.6617570014446168 -2.1195466643566343 0.0006325102017531432
0.6605324989111254 -2.5535391005842576 0.0004217564344439132
0.6597033956441779 -2.9312596796082024 0.0006745156329702059
0.6593963683883838 -3.2412829704887627 0.0012513771086078546
0.6600843392955239 -3.4720916929373375 0.002022848076637988
0.6614775264505419 -3.6122349134974616 0.003140954623219637
0.6605619822427048 -3.655660268454681 0.004490804665352575
0.6596900625570015 -3.612953003988716 0.003332671233445463
0.6612199359233031 -3.473549369425551 0.002394915213959205
0.6621547657367073 -3.243520614271114 0.0017748250272183169
0.662232015416948 -2.934329485550546 0.0012895925058653771
0.6619601286643798 -2.55748945338415 0.0010167715578255985
0.6615058593307159 -2.1243861546719027 0.001013081250719397
0.6607088367098585 -1.646474490973117 0.0014168977837764603
0.6584017567327486 -1.1348163667928233 0.0026942226495741397
0.654496886427178 -0.5990459342377358 0.006155182549171984
0.6562452348610789 -0.05902774420881641 0.012670048574239333
0.8831376885003392 -0.06273110817099493 0.020877459255690796
0.8811715050862806 -0.593847936061482 0.016116028239316287
0.8714789530609645 -1.1270533091587578 0.015310417723914636
0.8573355499344404 -1.6394312768270958 0.01726793245323616
0.83982240129864 -2.11811783543689 0.02029030847035485
0.8184607894182949 -2.5518667055708004 0.023570228569271347
0.793188435623824 -2.929331710944132 0.02665664747265662
0.7641590309266403 -3.239199843297383 0.029225712027208094
0.7324873971242455 -3.47011991665767 0.030920396633112357
0.6995198021378992 -3.6090802060759253 0.031663233703290536
0.6606512218919521 -3.6471378729537123 0.032874428695476576
0.6218266506018713 -3.6098114049644754 0.03194167182853909
0.5889960898072595 -3.4716052533467225 0.031470069284956124
0.5575687837875902 -3.241482330844911 0.030025351049739465
0.5289118300663305 -2.932467045746647 0.02765628195083499
0.5041613582738674 -2.55590706262359 0.024667011352515242
0.48348519510049315 -2.1230775837891076 0.02129272894594716
0.46679193892203663 -1.6452017111571058 0.017854637616569562
0.45341131199414136 -1.1331718978010894 0.015026203019698686
0.44411452996091527 -0.599143223451975 0.014520603656540829
0.44233783599409354 -0.06582518158325947 0.01787635632674848
1.0974994884831915 -0.06514041326480755 0.0255809923501758
1.0928779530469057 -0.5935992011470068 0.0232177491333042
1.0782856211542782 -1.1245648640625514 0.02636935920440072
1.0537985392083435 -1.6362579401240946 0.03245247320202328
1.0205346728386933 -2.114191136477387 0.03931024222950181
0.9788128625025525 -2.5470780130818618 0.045928866977596905
0.9287716233302812 -2.9237173493568487 0.051692412886178436
0.8708255396375406 -3.232710221540262 0.0560619976106882
0.8053665776910346 -3.4634264077591865 0.05850912203712907
0.7375060174655172 -3.6016679616505383 0.05767633962431224
0.6607558743415175 -3.628959111001921 0.056533624661966146
0.5840512430090421 -3.602412862163867 0.05804365269964542
0.5163314334944328 -3.464940383767861 0.05924111327234547
0.4511199796511913 -3.2350384338576665 0.057145936761206294
0.3935427085359558 -2.926917644890001 0.05308932179873374
0.34399944741301086 -2.5512038619868735 0.047546436836742444
0.3028848152009888 -2.119254445129349 0.0409621928310045
0.27024770444335594 -1.6421227208293052 0.0338069807095173
0.24622353444384987 -1.1306906102435588 0.02692483399873088
0.2317946954403879 -0.5988236340491546 0.02245489084449517
0.22722099469948526 -0.06840681386925396 0.02339158727693264
1.3150498859425646 -0.06563174822473872 0.030459668519257133
1.3098130024401098 -0.592764301918415 0.029908656856039488
1.2912743533758684 -1.1212933595611914 0.0365969743153468
1.256060683997725 -1.6312700095679196 0.04644038265743106
1.2066528053023455 -2.1076892413941124 0.05674744496721759
1.144140201487145 -2.539085096020496 0.0663117252778197
1.0687391684892107 -2.914222805991169 0.07434118319770691
0.9809217760747322 -3.221943594705489 0.08008742309867757
0.8815105631227127 -3.4507582672754307 0.08284272116950342
0.7708855690743225 -3.591385568269968 0.07990703628552093
0.6608915114166202 -3.5999999999999996 0.06790547407664335
0.5509467206009749 -3.592145313670546 0.08036599819219507
0.4404730141346251 -3.452302939967234 0.08376303438032698
0.34132398457867813 -3.2243198921289027 0.08146580756488972
0.253888454845821 -2.9174894611550983 0.07615100632577136
0.17898429414151498 -2.5432933139495915 0.06847290947793078
0.1170311488938531 -2.1128388842495758 0.05907989229566226
0.06808779999071249 -1.6371926798685708 0.04859762984417205
0.033009064283772815 -1.1274069152782795 0.03801544355083557
0.014278353477402382 -0.5979438182930775 0.029951777289650434
0.008905604601575363 -0.06893464708053179 0.028986629319508034
SCALARS Stress float 6
LOOKUP_TABLE default
-3648.849201546861 -20240.215596772574 -7166.719439495834 -3703.1598471120365 1526.689009591788 -1923.8089392296529
8064.0623706876595 5187.443034734112 3338.3464057414344 -1645.0158505476948 1589.102342082985 -65.42330282690021
7976.918228521774 231.4859294170499 782.1984688318079 -775.5050572922775 1552.4426510164092 -539.6584529934801
11538.269877659537 1072.8088901547892 1420.9382722897851 -799.7175021825328 1381.3350725892847 -585.5499335969537
15578.393215142129 1196.952571655282 1908.0119437207993 -753.7118879759689 1234.413294280034 -804.2129698082281
19796.084069852935 1573.413439608098 2552.730681555001 -683.8579219517918 969.5606642350982 -991.6964589578413
23903.18587366929 1905.2789835840413 3194.3972214440078 -571.2336857200036 604.7261964405978 -1184.3441677113356
27779.11378410751 2215.257730439622 3846.353365636712 -416.39739409690316 147.39434680295537 -1373.645245438975
31042.812438782967 2463.239913359259 4443.9663914508055 -216.72333322024008 -298.40587955888395 -1568.7890702975317
33171.580908707794 2710.7865064165644 4905.435557784185 -40.268372824153786 -424.8481306248611 -1778.4638372042048
33952.2260270672 2989.4777962959542 5154.009399073077 -4.932169760333615 10.212586856364503 -1921.4794711720847
33195.68652523519 2711.071515792427 4907.220119119857 30.147950882564494 445.0939259403921 -1778.9599530843577
31095.793204961512 2464.0303698391303 4448.160449305996 205.83498204356587 318.0591146335768 -1569.7724802882587
27871.11561135519 2217.022863068592 3854.2037641336815 404.211165912727 -128.97370881645958 -1375.141174144124
24051.189605253494 1909.0570890285248 3208.0282950911997 557.2615452809893 -588.4844139786136 -1186.1504198779687
20024.29115149068 1579.7472008019286 2573.5772344191264 667.4117545060915 -957.5833792907188 -994.535404061363
15922.75999262246 1209.8130516049453 1940.7456022159745 734.8620081882682 -1226.752288187351 -804.4848244242351
12037.979777940956 1087.7715855591928 1451.2252884552045 773.0309523807778 -1390.1717352857536 -600.539787209111
8829.13234172515 320.5202017557343 915.8300175350266 743.1918413336848 -1528.1345585016707 -489.8834931649277
9911.568149873594 5513.679550547986 3535.603047307046 1706.825499287822 -2043.3573968630062 -359.8989376908398
-152.5813056271191 -19302.8191555319 -4405.091443166611 2225.9343248561404 -2676.494728089139 -746.1631731834372
-4045.654042752396 -17555.967943888365 -5293.182051854192 -2376.903878540565 1261.374429747879 -1105.8841338026202
3855.297432185528 2811.415667346389 1583.352700657526 -1969.4713867113448 1056.1870333597756 -331.7038947890777
3977.5563769848704 -268.742579189966 25.97184882096028 -1638.6490361398774 958.2978957400329 -581.4754605339045
7198.117593130906 49.987898634397794 494.3177151100662 -1659.6611515271945 847.2991540737174 -754.0433090352079
9737.964282599063 -60.445566493210976 679.4017888739767 -1622.3287380993459 735.2850261461905 -1000.3956823892217
12425.983120765079 -57.11927205255343 948.1381189647972 -1490.1334931044682 579.4158754658945 -1246.0537062529295
15044.705724378951 -57.05662943792237 1235.08740199453 -1294.73660265691 362.553052216405 -1493.1216155467193
17508.61567578867 -79.39819798649334 1532.9639463071278 -1009.723963391996 94.88512339472058 -1748.1166529067395
19595.37289255557 -103.89630355677316 1821.1950377899284 -596.4408339479055 -168.7386965140951 -2038.379788807766
21036.736836421103 95.20917112734773 2114.8774284572605 -156.98246193679537 -251.64738473259723 -2402.4996929801555
21713.734978135002 634.7180093737163 2405.0871403611636 -8.79388409449681 2.44634855658335 -2684.913757487598
21062.86777524405 96.35862103028751 2118.5269510854096 138.83466469949542 256.05298149748575 -2402.5517533206325
19651.924734556564 -101.49949078231026 1828.921001102314 576.5848243498397 171.66704089585593 -2038.417410284586
17604.508645918388 -75.55279836781915 1545.5791957103283 986.9182090636592 -94.43888215150498 -1747.9987011396713
15194.038642618134 -51.555471165527145 1253.4507132372587 1267.5977914847156 -365.71260192609554 -1492.5563656555662
12649.01372571718 -49.95820755252805 973.1410234438583 1457.11766531112 -586.9246590726801 -1244.8168177515834
10059.71629676484 -52.82354101659729 708.0798363539791 1581.824459194764 -749.0429548299039 -997.1763390515885
7664.4837916214265 66.72837444903647 535.0032192680682 1604.9814192446393 -861.3225391884279 -753.386828229231
4631.08563399843 -255.05666642197338 42.192785091785936 1554.2551434572322 -997.9452240986955 -558.8343146538701
4498.571437861459 2949.6834046100857 1649.5392284337256 1857.6239625933492 -1207.8093624993494 -475.77926882044034
-3750.513929235006 -18130.15419516348 -5089.035781985678 1487.3967695003685 -1493.52228694323 -449.17197758323965
-3223.9196763196487 -12235.210442863838 -3339.4701794647053 -2790.6330455364646 768.0831139699641 -366.2679728762454
1322.9829097029253 858.0492878337146 716.5242134764261 -3199.0679122113424 601.1053340800889 -515.5107343773713
1397.1298733055296 393.65940275063247 68.0554323978885 -2790.336731160123 473.6905203034279 -663.8778319632476
3084.794147438976 -65.35272356203693 91.57274421144275 -2837.884230514705 384.14507477625216 -961.7138678175928
4626.435224955586 -43.75350964446132 261.43577649397645 -2741.5014378728333 314.1761040895999 -1269.2225473977492
6000.4439627526635 -55.573148015067694 386.65652083178065 -2530.5373565605814 237.76031397132476 -1592.247153845831
7368.42532413958 -46.901267717872315 537.5362443975257 -2216.8438050662457 135.22398352852068 -1918.219457793637
8683.399331906528 -73.14061026871471 697.7175332995745 -1760.9647207527953 -1.3150448484538733 -2262.0646238099043
9804.078531961954 -112.6432458113916 844.2784721851281 -1057.5678845346024 -174.8772364180532 -2666.9541340166356
10566.087461217268 333.03789653376924 1075.4550993347325 -228.2549331700172 -267.3042733194882 -3219.760929501887
11266.168888596862 1777.3345095935474 1633.6988122726048 -14.052729696598636 -3.7598904531686355 -3740.2487191403407
10593.065327479972 334.38737568378696 1080.5369098797114 199.21712802840892 259.04208915789235 -3219.470826165449
9861.850714859766 -109.85376941597983 854.8059426490859 1025.6780132998101 164.42500356537172 -2666.287038493928
8779.622907551788 -68.73997206714434 714.279774352515 1724.1197676040288 -12.648803591177986 -2260.8109966612556
7514.731674455948 -40.67284538702929 560.722608857816 2172.6105908037093 -153.6735057012301 -1916.0399672869698
6212.092248391116 -48.0990314266108 416.0329467902799 2476.0501095650475 -261.06814159966405 -1588.3831764112103
4922.036891747719 -35.802714565925676 295.23148864817784 2673.1845905973546 -341.15283827905256 -1263.5592432812605
3481.0221758642842 -58.527714490052034 122.0426598772098 2746.615487334247 -411.9513530489992 -950.4387542852539
1793.5349997453004 398.8757540013171 49.8312250222737 2657.7082473906617 -512.2598631363752 -666.3701803720654
1696.2423134387363 1136.5365922566914 790.7800516826388 3022.269104415658 -658.2312102509761 -523.426660674821
-3208.5455788031372 -12694.230217860737 -3411.701577752196 2637.7801712813116 -842.8241020527713 -350.06009126948436
-2358.6648484435104 -7393.5129734595685 -1766.204147086926 -2580.632635527769 346.4898451133392 -129.16223680042165
-412.64809988516623 -171.60236266494542 275.6734388810422 -3383.103239371206 196.31229246999132 -447.69079755934206
-955.1567158241605 501.0222575877421 30.754061265192913 -3396.6777233654457 30.96517450933083 -686.4147051627107
-753.2055323490923 38.017900303547236 -119.36585119106472 -3242.7044391015197 -51.47035955730793 -1011.2760369844256
-455.870150235313 -32.78684641083168 -77.86065925689844 -3109.395046878234 -75.85329132902785 -1347.1775424585032
-301.58726093177575 -13.33734531429795 -41.2100983045821 -2868.4047230880115 -82.50262142675867 -1689.6318357819382
-157.104843760849 5.017451549526882 -2.7139109385551627 -2518.1695024740498 -88.53546637389196 -2039.6654017444696
70.4928968631178 1.0098949727815913 57.60362637005355 -2025.784869430842 -111.5596722842492 -2404.266567713331
277.8418915830508 -107.9054185851162 70.54595434926318 -1220.1940318233728 -215.96929907487527 -2822.4460669650653
284.58641642169124 530.6793873905108 196.8110066514814 -75.59209698467033 -351.080970492565 -3422.5479975912954
1282.5772763840387 3764.2417257745324 1338.5454425729502 -15.777989063002984 -9.337265120944297 -4195.878149518076
312.05121622776085 532.2692790869094 203.29325624729756 42.96074515462297 331.42518745464866 -3422.1519970151094
336.06709660112745 -104.66875842123541 83.82612686587414 1184.2733914229177 193.45149567023563 -2821.5551403891213
165.806581475951 5.993590558412484 78.13969322328518 1984.1549868699483 84.60017800075997 -2402.6552060553213
-15.926208354126587 11.75471601633816 25.267678508315996 2467.9882570073914 56.24282085685945 -2036.8924279946525
-104.58311076870501 -5.675431028903144 -6.751564940288469 2806.1101369831085 45.373638426425906 -1685.02042375178
-193.9063226943773 -26.56733626945012 -40.4852419079658 3030.076556761542 36.832188182757555 -1339.5460820684216
-450.1154540802818 34.162158172345336 -97.46246900066006 3139.0124784225823 15.154978565772222 -1000.6970733972946
-688.3543967682313 551.9140869880223 29.474165773978864 3265.83901121186 -60.96575855618385 -680.598689849141
-198.16206605401342 26.477135666819 311.3723995545811 3306.045885582943 -221.48816274858473 -460.23107559356737
-2403.0259332342775 -7748.479975890216 -1880.4476107328035 2555.989824690445 -377.78350129599147 -202.44367675462422
-1852.036704759484 -3700.7621204696843 -652.1533638595121 -1961.294569172178 -5.0866754725673164 -101.98641009470795
-1740.1581054391565 -492.51675118504426 89.55243647047031 -2845.0206770675254 -183.92062071623712 -347.37034223891504
-3208.0217558152035 401.6657528452062 -59.90718340697368 -3125.44536773021 -417.2475510267166 -634.5876351832111
-4462.818149721271 92.80368976267735 -313.05318774613664 -2912.9203574470635 -494.9363238867246 -952.7242086413369
-5516.807979055568 9.690677611619456 -401.4762947501067 -2744.071442202771 -471.25398097835637 -1272.1821462857404
-6609.401701289908 29.54869194238978 -471.08877268907287 -2528.89972692086 -404.49370992691746 -1592.524295589229
-7695.84150828074 39.55924973416354 -552.6612719126989 -2220.5871410288532 -318.3417551916814 -1921.6741191324243
-8569.695931154962 113.59851072163053 -576.9189758602378 -1781.9548459182558 -215.9475015844794 -2252.2229214641384
-9202.473519887031 -74.70501387564744 -674.6378353983833 -1132.6383883172296 -192.21991950795802 -2605.0007622862627
-10194.012281350953 190.26759739729044 -912.820001736003 291.1550288522481 -392.9093695542302 -3093.3851106926672
-8335.0328647983 6811.9681419543795 1373.6406124876034 -14.201808301519094 -15.038337196107651 -4102.018368043998
-10165.927804814164 192.13549267563482 -904.8892472631313 -320.54205707221905 361.5865005006421 -3093.1218874582896
-9143.538380803973 -70.94944994975523 -658.499405378485 1100.2493744721014 157.28925522838776 -2604.39218583382
-8474.94370156682 119.23287247172193 -552.2582939278637 1744.3761215119737 175.51759989714847 -2251.074109889165
-7559.560155097656 46.83333839005035 -519.7072286409317 2175.2634458765606 271.58669545476073 -1919.612943923467
-6427.4719849541 37.49108334512182 -431.5481786131322 2472.4266535360775 352.7374353436851 -1588.9003598382233
-5294.764130543859 13.518161556465774 -362.07482267479855 2671.733202733072 419.3910543515788 -1266.1280381508197
-4235.478969053104 93.38122876084259 -288.5504281877043 2820.4577216080593 452.13085325665327 -944.5148150471647
-3030.1588475523713 450.5275498230611 -52.25659667734894 3035.8308873917404 393.30933625192756 -629.0649955075056
-1622.4327337577142 -382.369010180887 100.86915694856529 2823.795825304629 174.1577885263612 -362.7713214211057
-1888.5041356044594 -3913.758329139233 -736.1684498889155 1975.315563552787 -5.50802345496982 -170.52014771815558
-1724.7078446911312 -1480.9541327691175 11.127461834831358 -1085.9135631964648 -314.04510537141 -149.452506125147
-2790.9535180034886 -460.3350060093723 52.46556123180548 -1639.1483519520984 -572.7674175772096 -249.36729024703718
-5420.973445315982 231.0877590323557 -208.6780218673143 -1877.6590930189013 -913.41253666237 -498.60243304064556
-8163.787558550361 98.81818264726398 -574.8932317148744 -1746.0443730212749 -986.5739135114889 -752.35160281724
-10651.78007748794 33.50864136551474 -823.8511654850239 -1625.3794524010104 -905.470733302255 -999.5608627633738
-13045.069449144547 36.01093860121857 -1036.6824781261641 -1490.1508501244111 -753.8767357839901 -1245.8105183560951
-15354.643976473726 56.54136029870885 -1244.5569924924023 -1298.63512721908 -556.0703715339636 -1494.8550667026564
-17575.622349240923 33.35652467545322 -1486.7987817186424 -1040.5165623372195 -329.2777600880864 -1747.6433296636305
-18841.2358243851 366.8283518425111 -1448.9467608724842 -603.7468864277564 -3.429492436000274 -1958.6384033818774
-21270.295437969264 -1283.347352095562 -2668.237742272139 306.8983656420447 -153.41660581646065 -2238.0467018255986
-17606.309353330373 10875.06559815557 1481.1136206189058 -8.985344771185034 -21.627390042126887 -2974.3291731008453
-21240.927989086973 -1281.1993616800241 -2658.72687643405 -325.4863658248385 108.57847149006578 -2238.1298365908197
-18780.24916017 371.120013825088 -1429.6989931640499 583.2824087481987 -45.97781138414028 -1958.7612699714734
-17479.3859783488 39.692854645006705 -1457.6808572307314 1016.8387166865114 272.9627647796821 -1747.6968174063368
-15220.375180429672 64.53243260316631 -1206.2773681714548 1270.2174861918634 491.9650785184318 -1494.6106310747916
-12875.898889663024 44.06800698296625 -992.4840581377838 1455.0345001592505 684.0215139344974 -1244.8470516554335
-10466.496170968478 38.27112226755842 -782.2662431889901 1580.7387960278231 837.2432853907726 -997.3557646473923
-8002.882112100091 104.271290649356 -548.4705729944479 1691.9819151002612 934.7834779808941 -748.9671105460269
-5321.277014152041 265.15109031746374 -200.4221545948781 1834.0647583009297 893.6698080800816 -497.1546382643523
-2747.287430103573 -409.5617756397392 49.40911252230883 1638.7271802335151 576.5957591425314 -260.2939900105658
-1753.2118046711091 -1573.224167027727 -35.907088437347554 1100.228900524573 321.6009884880773 -193.8870013989924
-1506.5269635341742 -639.501408275215 466.71106912780976 -535.4273281171733 -628.7127830388378 -180.3778095059323
-3382.688884358375 -414.4144330864264 145.97582164547038 -767.808453475987 -1017.093044905615 -208.56039934717984
-7746.990462811485 -326.52678237561275 -611.442148134637 -863.2368047998688 -1509.1833922035576 -414.07058617115894
-12444.976488547352 -846.2996997543087 -1460.3126354590195 -829.9992972172545 -1575.650420399089 -616.2508195990648
-16548.57308150186 -1256.9514030584905 -2089.9206692725656 -771.7975762326517 -1420.265867633883 -807.9584338986516
-20427.744574398344 -1594.4498406565897 -2649.126141983507 -692.4325572152673 -1159.493343604097 -997.6494391541981
-24193.006415773103 -1886.1438551156612 -3193.125025010519 -588.3697607978349 -818.5842676674871 -1190.0481132246487
-27844.524050976943 -2320.120827299323 -3815.0494506681503 -431.2781188974092 -413.79596257664684 -1366.0082298142543
-31099.35264607181 -2163.1046415086935 -4262.419456260735 -211.04933185930912 167.57241468925014 -1574.3733680386244
-33980.040517517475 -5136.60676401908 -5991.745097100966 586.5446045818052 1216.7672587944603 -1413.8961304823579
-27484.2488359048 10864.317540477225 -654.9393669983513 -5.805952996281093 -30.072722850327033 -2915.858824274541
-33947.64912073862 -5133.254884648926 -5979.974924320937 -598.5388635726017 -1278.96606867581 -1414.0658013395296
-31032.87330369296 -2156.5414377477714 -4238.806601254314 197.91712684273102 -235.69575029636098 -1574.6643341449867
-27741.721337002917 -2310.7854836993024 -3779.8785614508915 416.27684102828505 336.72137808354853 -1366.310486701623
-24054.19352304333 -1875.2434840582957 -3148.13750140709 570.8419052692292 731.4167446556152 -1190.1623209079034
-20263.655762219245 -1585.457414883838 -2600.1979257762882 671.8932266202933 1064.9121518001252 -997.2800844221777
-16394.641871287575 -1256.6946091139735 -2051.142114157213 748.0254170300875 1328.4674834736743 -806.9050676760227
-12362.466854017803 -857.5222790327226 -1451.5873221964384 804.7236965088024 1508.599305140873 -614.9360271083797
-7763.478655241232 -330.6600284478461 -635.8213624311728 845.0536755968205 1492.7968387644191 -414.91813158669333
-3436.918152932476 -410.5746367537724 113.18990579471 768.9010029636675 1041.4790251391873 -216.0676376428931
-1572.9820028494632 -695.6424368744854 427.1365716697359 539.7686941859538 663.0470774401489 -210.02206213454645
-551.2083193969453 -12254.910775312492 -3841.8357284128306 -1904.7836954869792 1016.188035324881 359.4690302665706
7224.291791310252 3473.9489314502607 2530.796743766046 -851.5154433732166 1096.4826721544969 -112.66887481236328
8390.581261236472 420.3830024375235 1106.160934057401 -304.3000532336497 1028.4687081627399 28.14984622352484
11880.292871085301 1030.263033353646 1686.433293576316 -330.7644876314862 913.8886079735294 -19.253707224907124
15705.546702217904 1210.322437579165 2254.425015144029 -328.49976596811143 697.5131675389429 -1.975901833568635
19655.050871085507 1545.8522402669892 2964.5015303018754 -336.8937669652004 417.2023983388461 1.3441315316679683
23536.846473556336 1862.2253220364169 3727.5598737530577 -344.69084243637474 64.86784543947735 6.307536120661556
27362.681491489777 2201.989530217385 4596.289054845313 -363.03996213675475 -324.2984735893602 0.4998255677348733
31127.43370557297 2538.9268508055984 5604.481586442237 -381.4557807672859 -627.1020118594763 -40.93253373444189
34386.525112517236 2687.1477702949023 6576.965574570698 -307.14585552374524 -573.0005814166815 -157.23391336608893
35710.50768592731 2495.3683824932177 6942.523303322016 1.0339091333882635 5.424725811744939 -279.0367896515836
34393.70325269741 2686.748216386814 6574.945352877895 309.1975459668217 583.2398654266054 -157.94966429416317
31142.801838630872 2538.141510691478 5599.9100524354535 383.43170066379514 635.419710080811 -42.338729185161874
27388.71200215134 2200.8924724623457 4588.0503456146125 364.7830419754129 329.06918290446674 -1.4604311534093783
23578.70151271341 1861.1406384587783 3713.979849933259 345.91015737082245 -66.15147641345622 3.975459001252351
19722.315994179207 1545.2543977659052 2942.848130938044 336.96059168407817 -428.3482816110117 -0.12318765932204112
15817.594460831808 1212.2416774716035 2222.527074959005 327.2049701853032 -727.0390580392477 -4.037876269492204
12064.32448907763 1034.5547853830592 1634.7677501726578 324.425608517157 -964.7589448777657 -7.467472968740401
8753.621769099182 448.8796449259446 1070.4798272488385 292.5378662351704 -1161.333554806107 -5.558591307559404
8078.351360260995 3583.00034972186 2539.5457732101063 844.3753661077678 -981.237404281497 132.91025831462463
1127.7257150873513 -11607.580769564893 -2734.4703289012195 1125.494795725898 -828.9626435963385 -662.2478651973418
-1813.5056701984515 -11189.95781363735 -3390.9427227219157 -1222.3511024360157 171.14020666758387 -33.68428646529893
3800.767176655433 1851.930617428134 1337.3538988739313 -1061.93442957599 368.71636294037745 -102.39591039114188
4784.929873542548 -100.29001897269963 430.3680228280535 -836.0877840429226 627.2792455501636 6.722859041063293
7684.701312514024 116.25560861952737 852.6818947789783 -868.1401483058901 526.0212278268591 -9.054704778676422
10119.26509189355 59.9194214269387 1117.910177022357 -894.0339666115628 391.9795240150608 1.4233316419636943
12655.085659304938 74.53953972137627 1476.7174756267298 -898.9550449994806 213.61291272118552 1.7448451451781395
15151.202754162161 94.59814765126013 1886.6186667069833 -906.6916929272433 0.42037327624507226 -8.579369206137747
17590.604872807304 137.06477178503252 2367.8555301731244 -930.8931089833354 -228.5895709315549 -49.260899685462434
19923.262405226233 149.87795568807192 2914.6500335982873 -965.125548657837 -405.9079335740488 -167.23044143769138
21789.962201448772 -169.9951450111045 3335.388822234058 -791.8871864294032 -374.09190286963843 -424.6234923097996
22347.766730098647 -903.721563454603 3295.110162637116 1.4966727549016703 -2.089979643297821 -680.9719634561139
21798.083500308094 -169.6747852048543 3336.3046809739026 794.8345401177916 368.96077939109784 -424.7775724052567
19940.38550572098 150.50847813274447 2915.94537743338 967.8755169076994 397.8892032888341 -167.36805207523864
17618.809989437952 138.00807149101684 2368.35727443251 933.0973564522882 215.58826704790064 -48.94279448952584
15194.51200478632 95.88337596092781 1884.2485297066416 907.64170070483 -20.804835397316953 -6.925370066485767
12721.372468249323 76.34535440735742 1468.4476800050331 897.3942536976707 -244.8284030872614 6.55376535285872
10221.877089982769 61.96129813742526 1098.1387840616019 888.2692430230845 -437.8053548114489 11.46892214511345
7857.734766026104 124.61798563656343 821.50743699446 853.6520958488621 -597.2070178687258 13.69496643438172
5082.521729517114 -95.64428256799496 374.63114604549327 799.0723815572504 -716.9014187044203 27.17763094883262
4106.356485204031 1886.4808174416282 1276.5884811523624 973.6336052708252 -392.4910025121576 74.54786084120038
-1550.9868876860457 -11170.971744530027 -3296.0132931945973 725.5639085270706 -117.37628248409808 -698.5999028840165
-1684.3984902544796 -8126.215075033782 -2220.7863416412692 -1613.2979301769485 -27.136824580996333 -673.755969371933
1658.7298328442125 622.8681378520249 723.2312470613923 -1844.21981313142 84.2842093656643 -101.25881114849382
2175.9166208591514 325.08207913640086 343.3399707919957 -1525.118501657804 253.1225059242385 -30.874702924721394
3695.211247779651 31.31553018062901 400.0378242811681 -1568.4097936322562 214.98754954828962 0.42832996672471624
5060.783569024693 56.99321249999384 569.4322553702132 -1585.4079114756682 136.25564231655375 -0.3346461660525022
6314.605859725312 59.10153447535325 734.3741912827621 -1591.607799428993 45.97421471399453 -10.234348875344239
7552.3380160822 73.57531118995247 935.6045851053595 -1595.420090467201 -58.37089884003434 -45.03989507579401
8729.51459745829 128.73358194423028 1177.2963523423543 -1612.7544486796162 -176.86787010937348 -132.1681224473037
9885.295411839972 199.45150575582682 1472.8557955231288 -1668.7997758304205 -306.6973890184984 -336.81766940354845
10895.491788477371 -335.6735239579984 1607.3193094351009 -1443.3942485101882 -340.85165279994715 -762.3650879736244
10821.110693543475 -2077.6398264426775 1090.6789294035452 2.1953425934273962 -8.755546316602086 -1254.5310690745487
10904.202822994774 -335.2249377584741 1610.9600463224406 1447.7002576682125 322.1192074816766 -762.0084119344064
9903.36790627786 200.32697253623328 1479.6333075604482 1672.752350228483 284.3290725748821 -335.79246374253177
8758.389955501603 130.00257550516886 1186.0343781569113 1615.7573991133904 148.55180889273709 -129.71599422165505
7594.781648502786 75.26154204443937 944.1933174879981 1596.2455059991235 21.960570222919735 -39.5927609118349
6375.740345306363 61.03864578301126 739.1704323828395 1588.0870687428921 -92.36025116057493 0.9256332463165897
5151.171437239201 59.624700739255964 565.440824313528 1574.0807607030636 -194.5605791147772 21.766995989909937
3837.841539774991 35.46615869104364 381.0261439648355 1542.624945245565 -287.3726925113466 37.150605017620165
2343.2245251823283 317.9072076385271 282.4321335023679 1464.7990609176732 -326.36811832482124 42.92879295273952
1823.5259134708876 750.3175784771327 683.795645626479 1722.3211561582702 -99.24296918887366 -32.01120640931103
-1610.5183670740996 -8116.531810325614 -2267.28940685617 1473.5371651548635 60.647089780133996 -944.1601342301018
-1398.1480306137205 -5142.152043582325 -1122.4293447774307 -1525.4047211560853 -87.6135728645254 -738.7055778601818
63.59268018540557 -106.35782881363289 393.8681322982024 -2026.130270937809 -83.66827774279768 -181.63361929031447
-235.30270659712522 360.9055168677407 202.91775570256402 -1926.5140572823486 -52.345338014606945 -45.82785529765374
-142.55390250537695 40.310519875113386 42.389444781156556 -1819.748321068913 -73.17507472954492 -11.336808020405826
-38.320854832805324 -10.70146967223031 25.353115895528624 -1819.48963829635 -98.29271927108455 -9.714656940085602
-27.809108317108773 -1.4730299416385426 22.34854688090649 -1823.5318520919689 -111.54996190291948 -28.79608602090982
-44.62468720484537 -10.081447725396941 19.65920790870359 -1827.8111454948014 -120.69010467226715 -74.98570332732399
-123.90670173133357 27.30612410739999 22.585600475828922 -1815.2160622341555 -144.15101564225063 -173.86476865009803
-105.60370673501772 206.5148490118306 100.37654605286447 -1873.2968639276264 -244.26970398135344 -386.1347583142679
242.70421825869994 -483.9925519165267 25.24619586965976 -1833.5257864731414 -377.5813669999009 -849.944407584843
-685.7690065125745 -4125.107173022515 -1293.8450221299022 2.3871572453947865 -15.082830887363167 -1610.7235362944966
251.96090938379209 -483.39444785253033 31.656160229750682 1838.2049705187546 345.946556850356 -849.4395668865657
-86.72517803335745 207.68587548389695 112.74137696034798 1877.579030566406 208.3333611115099 -384.76790901416985
-94.68637139802556 29.01759743232691 39.79275300872769 1818.4299912420668 101.44913103150918 -170.7606173166795
-3.8599451127489672 -7.860610305879471 39.53548332615458 1828.5605359039407 69.54162947982323 -68.40318194965826
26.80734100921161 1.148862620140541 41.09145960814667 1819.2137050815945 51.61217844707648 -15.418637140976093
36.48618885889944 -7.676648892978896 37.322420661605264 1805.6925735555938 31.009058540346523 15.8517086758512
-46.10171284881199 39.351304016895 34.86864117468188 1788.796890546441 2.8707155544666194 34.939356898407375
-141.1509367258282 377.2469614274989 164.37730376851812 1864.427215927848 -2.4974192515129143 28.887063253249465
150.65687153105088 4.507844371141232 357.65561635388747 1961.0526459200032 79.0822176956476 -136.5679808854294
-1396.3207790612316 -5181.956828167205 -1214.7990522863488 1480.1552201299135 114.67824345422092 -900.3452961693455
-1265.1620407550606 -2731.5909975558493 -251.54266502278102 -1154.9448219255323 -147.80042947128337 -638.8928233294307
-1227.102144247916 -381.1918238695878 261.3718703932662 -1716.4137047753673 -238.6330997468334 -185.2197789287063
-2545.0651177297955 239.7248360310208 33.37920388099636 -1774.347134827599 -337.2429500144685 -47.584608219364625
-3882.0333717959984 19.385696406283227 -299.9202775418156 -1613.002065182394 -360.39637988238496 -5.830440452510873
-5123.550853988651 -56.59596989418768 -509.4473347255517 -1579.6212920523528 -335.44575357036643 2.1046947607081905
-6386.4334397397715 -69.25208288836225 -697.5906525739614 -1587.9048495093598 -271.1623720308071 -10.485362286510206
-7622.359559021796 -72.01251258692922 -884.3225077748435 -1591.6986245344344 -186.83624698813156 -48.95832648752796
-8931.250869532334 -123.33718814607394 -1131.8943091008614 -1577.4779503102875 -104.14773773709334 -119.49352086701835
-10135.974578875443 152.67278706089843 -1302.24521446927 -1551.0132411045472 -130.06262788446395 -270.057044941672
-10247.99599615423 -84.38208858010856 -1376.4472769967695 -1960.8973677818628 -401.85773951173 -621.2276153111244
-12625.026862060991 -7148.18425798391 -4158.01337442155 2.247835518755399 -21.54527757084053 -1684.6738920774978
-10238.173540228068 -83.64578856087067 -1367.2330380569151 1965.3219683089608 357.0285194220849 -620.9464273617548
-10116.250766765075 154.12580113780018 -1284.2065376417122 1555.1260535182962 80.19874263410524 -269.1833387525985
-8901.637481242395 -121.20190771178643 -1106.0637566562784 1580.712684077335 46.59202614497524 -117.26750090890985
-7583.260967793806 -69.24816736960004 -852.8973597111786 1592.8359624024872 120.31558852205116 -43.84229234736619
-6338.441613166966 -65.86489583685062 -664.5567972277116 1584.530695921614 196.96256224317523 0.4505129038291158
-5067.733169274483 -53.780383114423714 -482.0997047256611 1567.3980374968776 258.73632580628737 24.21916087839608
-3825.028515244456 21.506803679596032 -290.4879612337969 1584.8189367976406 292.01868125453444 35.52299382805077
-2500.1193202949858 261.4279466058467 16.57378915771693 1730.7598132415915 296.50846528189953 12.986818405917752
-1189.7358712480936 -312.5868657476208 229.352052499917 1688.4640327751665 240.13233646406323 -154.2128782154924
-1284.1199770539317 -2775.3363196921155 -340.30841953605506 1144.50861749976 170.1054204989551 -746.089005831656
-1353.9326921390818 -1211.2686448617753 329.6241920465063 -603.9789949997258 -264.87435955917954 -414.727438802171
-2314.515358371789 -393.8625268982323 252.23940285747648 -959.6161077032001 -441.5268128525878 -126.05556897311777
-4804.675662335301 102.94477119060492 -151.0444336444059 -1023.5823582367278 -652.0144903863892 -43.44954429949206
-7579.696739834212 10.556378646924868 -656.9171756134167 -917.6901833362816 -676.672913410787 -6.872281375446799
-10202.492546926032 -56.72225644010606 -1067.2928117752435 -887.7177337256574 -597.0796935570794 3.1756514457977034
-12739.862244034499 -79.61109304730712 -1445.7129484634452 -894.8102353651658 -446.85507585533503 1.786521298524749
-15235.540597629266 -98.32609369562945 -1841.9024844377677 -903.1232463215563 -252.3761112388552 -11.243406376833727
-17560.899692058218 -57.31917118013072 -2227.954505015673 -886.3573199684996 -54.247326349029834 -45.52273305906289
-20290.21230162144 -329.1391688939664 -2930.467517745949 -914.3305917091274 121.49979476736537 -71.39982236250887
-20628.214598050403 1475.1845222841018 -2520.8300203238164 -1238.480885385328 -253.59220704015164 -232.16942882250441
-25582.898269699584 -11019.202246061523 -7836.866038476688 1.5589143369575647 -28.61854531555028 -1240.1331145128402
-20617.74676344063 1476.0260643699328 -2508.7872113981307 1241.5709229015938 194.27678146461864 -232.44314039611572
-20269.443639139823 -327.4706788813893 -2906.6996030092055 917.2779415191293 -186.8011411302927 -71.77735498315658
-17530.480123172176 -54.86402828308164 -2193.4044729120533 888.8510391124838 -20.069083418069365 -45.576383159030264
-15197.226700992449 -95.14045488607086 -1798.764974574517 904.4495794714154 167.95304470344817 -10.088171684872574
-12697.537107175629 -75.96355943532046 -1398.5014834598944 893.5196229909495 354.97989217525134 5.931350584285855
-10163.841093748886 -53.37683586566998 -1024.3770662189768 880.9474629833768 506.7280355179803 13.86156841476036
-7555.875475063101 15.42560804658034 -630.3236228989502 901.7592345228034 605.2487899340977 15.648002277079996
-4799.761661507088 120.91824111866488 -149.80615355987968 1002.1228777013417 621.1207656550818 -10.385690848655663
-2315.293421380559 -361.2304333318209 227.5381102568823 950.13290139818 451.32904901485443 -109.88157229745687
-1380.6692934925084 -1238.7643178971234 260.77642526613164 601.7911267073544 290.14636402664974 -476.0756861160262
-1453.4221625136702 -664.1740602885835 698.4434934709826 -231.3346230139953 -506.39297018384553 -268.782810471017
-3189.480753812844 -467.95254857833487 288.3040963128428 -375.52738746969584 -760.5330810769552 -87.63393259564626
-7253.538168776114 -449.4113975547855 -559.0766929754911 -368.79759256114954 -1058.4132764651524 -47.163441014968946
-11731.287091750542 -862.6531940204591 -1478.2626560351657 -334.406231381083 -1067.150046695753 -19.537669068791388
-15826.475952976207 -1230.429592280577 -2233.4335602557776 -326.95832442916856 -917.5204488276672 -9.721239666964053
-19753.925395068676 -1547.195349752627 -2942.520960967415 -334.56864163887906 -660.5699274001975 -3.152460937703651
-23640.362542945928 -1887.3533340247716 -3697.0179116093313 -338.8305096319326 -332.3376927741185 1.793887789811361
-27297.106677324453 -2061.3512042277844 -4421.532988172449 -354.1925426795084 30.68288234029582 0.9027653821249668
-30574.01697290952 -2756.8811114161986 -5334.460051555931 -364.6456899699512 404.4193469379229 6.5995133248241915
-32709.87094521133 -133.56600664897235 -5284.918793003105 -883.9283572968764 603.3297824817136 142.94414737723557
-42260.12942719441 -17307.552202281382 -14055.969968363357 0.7483515292344265 -36.82026007753842 -1318.6409887772054
-32698.381241486615 -131.97111351005196 -5269.764101996447 885.4269767809262 -679.511200813062 142.43072569970823
-30551.367170456833 -2753.7125158621666 -5304.400883918312 366.1266709203948 -487.92385372578013 5.660871993173874
-27264.370635951545 -2056.683541937831 -4377.43652177108 355.55192939999495 -125.22756267530038 -0.23832393420538978
-23600.26786182571 -1881.4040993705173 -3641.1624271804912 339.79421136137256 225.4074412136387 0.9084353535651495
-19712.930872159697 -1540.7696985011949 -2880.1276578319607 334.5550598733433 544.6388008239865 -2.8465275053970736
-15798.477813920603 -1225.3984617038845 -2174.9357689152703 324.7379700619386 804.6900486707583 -6.3354763437391775
-11736.565429426015 -859.8359960352036 -1439.3594286151283 328.3352109438756 982.2323200517953 -10.196283444604571
-7295.62928394062 -442.639067719833 -551.5082266305241 359.9359817505565 1033.1350976535168 -32.933389569574686
-3233.669214491718 -457.447506659175 267.2269250902545 371.0843339477294 792.4901206031502 -81.31767222720771
-1499.8974353948533 -684.7632528648189 646.1069584184525 227.7090424253414 558.98956355379 -305.8986918782705
2537.9528590852124 -9305.685581235408 -2030.3198166450584 -119.69457254483021 439.06805917174285 38.09999318890168
8074.6295222113295 3314.941759456411 2782.7700504548643 -823.5767892400004 598.6123225128247 -45.68080479067323
8365.68293843047 409.2139663697175 1421.366965668224 -325.8704188429632 563.3808231737046 44.125607306398905
11642.177210669237 888.0375810827095 2011.6975532239564 -372.3696667256524 470.94363368582634 50.916363032985004
15326.283076953836 1063.7010826077358 2755.7759291707703 -390.19857196964915 302.8325252186327 70.2633430776997
19105.97559908982 1360.17100491367 3688.1224222522105 -409.7062083534031 92.29516585278014 90.27340658171445
22923.43810000382 1656.7340665120364 4775.106228364518 -436.0202138401541 -145.6639677165381 109.0172838680688
26997.74729582986 2020.5333289856626 6116.209364132199 -486.1007048355133 -372.98958716932543 117.44926477430921
31609.575412484683 2427.205552968454 7781.942784375593 -545.7385027974448 -500.0568789091539 98.94280125580285
36155.863140210306 2560.1177694724743 9428.084632251936 -458.44416450686026 -388.13161178566963 42.851072016377756
38113.76150055753 2213.8619518377604 10051.78163320968 1.0606886042303003 0.5013179191625496 -4.705431313677338
36144.722978646336 2558.870578077455 9422.927585618418 460.6303006994413 388.55765879989985 42.242694450875966
31585.34628985508 2424.5758640195195 7769.963592181922 548.1250490386005 498.68958543305286 97.73331379506271
26956.17676802083 2016.2264554504695 6093.748332127223 488.85558041211334 368.3327384928679 115.70004286629045
22857.048560789208 1650.1648899359166 4735.765434521126 439.327599661087 135.38482688573012 106.90936489014892
19003.15058074143 1350.7519737218647 3622.2166363043116 413.9401811887386 -112.40588661148449 88.45320535962641
15167.608433841393 1049.661446000608 2647.8211533321273 395.13277398863244 -340.796319723306 69.20040493451856
11402.657620712807 869.1525498938865 1844.4705350280856 381.411262203011 -535.8854693293115 55.29964446709464
7929.014388816243 359.7722514096074 1125.965177019894 338.77697854924673 -663.5935631654829 40.537339904983085
6973.943645871975 3096.491706544552 2214.4908466923075 804.8334724395428 -604.0548231485833 32.62785615686867
672.2493375590801 -9825.297103826271 -3453.95585226467 1033.7211885965853 -533.9589862176421 -318.90121538274656
-1227.311916006213 -9515.133905371253 -3316.19569428311 -204.17105270904943 232.4600897683011 -113.78989071448296
3991.1029343044975 1731.7854188360182 1426.1401907954787 -934.6730407491228 281.79875976574914 -95.72601496222548
5013.739427013214 -124.69291767611566 710.6053674611422 -842.8269483711872 352.75449283563233 10.590119845370609
7650.204418470314 23.69386844951454 1164.4330749962232 -928.9199007536325 294.9251151388993 26.759783602747284
9966.053904905364 -57.80477773398203 1538.86103727668 -981.9266077728417 186.82249353786875 39.09376495875975
12391.800452447762 -74.7819409796732 2063.6729731524147 -1016.8633926383787 49.947322550683566 45.18337457435224
14845.539433734633 -84.04731062959405 2700.1778921840723 -1073.925645538753 -99.47292055409201 39.387962726807935
17439.465142763256 -48.88786438806316 3496.949641911804 -1192.0363365838803 -237.4300353129269 7.088086344096393
20262.281422144995 -65.63461348224983 4442.647581414104 -1364.2681875970852 -312.50667422398305 -75.09883484050904
22790.353159395996 -649.1833943355534 5186.642305206006 -1195.5945509820708 -243.7240654268202 -212.5940674160368
23571.130825628396 -1830.6180680043037 5169.133837308311 2.0572153297360334 -4.501051518232848 -310.73330709202025
22778.957667440227 -649.6344567817816 5186.803676325956 1199.8973288496943 233.86993831259184 -212.73852121963247
20237.828727344826 -66.55602612104417 4441.655669370056 1369.1681029206777 300.06216037950514 -75.23761743384294
17398.41804792266 -50.3247201937017 3491.8468940405673 1198.0509259934904 220.49070288732904 7.343485399926589
14782.047236399303 -86.04767055577493 2685.761240533606 1081.7676265884268 75.6576416252655 40.86217976988555
12296.588078220007 -77.35562688622606 2031.3779121451762 1027.5450017975245 -84.26630368518775 49.47718568410096
9826.077654514595 -60.34437149032624 1476.4288489748735 996.5957140816782 -237.06698665017183 48.759960067851715
7434.270995487543 15.239129804530084 1046.616650276493 951.6957049501685 -369.14354754839553 46.155672518424836
4662.856617073318 -134.01352149362026 508.4590101493511 886.7967445695534 -438.7447349053198 40.795152986136266
3621.868908769169 1666.9590055203546 1108.0344986662362 1016.0619962484741 -315.42896073129685 -11.828396128043163
-1480.8109582677441 -9384.639436879599 -3795.4921959779217 767.8059764590635 -206.26848780895799 -412.5098077937407
-1387.7265619147502 -6825.140160951655 -2295.592797688742 -1323.2606582586084 81.55568295486758 -392.30606525994324
1813.3437240853639 864.2713988102564 816.4113288385811 -1626.8677219523975 102.60132211793265 -144.6875289679358
2342.571838673701 209.76948892571497 473.116328205012 -1516.5183227087218 143.54730183371979 -36.87283661433718
3811.933613995571 -42.51614372378158 589.5523960864516 -1638.6634315876533 118.50322640553667 -0.5279379317298181
5075.2914959494365 -39.072398398280086 796.8510919418013 -1702.1924782329327 57.65114123835679 4.496748235576624
6257.432665175566 -59.95712293301325 1040.9541416530626 -1762.5608022090532 -14.48126652840144 -6.580828044379338
7444.503705697509 -69.61503067615361 1354.037059630492 -1853.2177291926544 -89.27395600631176 -42.89436104812318
8651.437255433844 0.1919318381091859 1757.3666483336021 -2029.6615930849864 -158.92291284333186 -123.81662241577601
10039.776923833884 96.73128495326353 2278.87683412454 -2336.1838868720893 -206.62013377048902 -278.3502888525149
11433.00775267993 -805.8435774124416 2554.4292630848918 -2167.728540724936 -177.43284096450148 -510.33171456844667
11320.56553971803 -3466.5857672918282 1835.7974815221808 3.319429257214633 -9.412266548092354 -678.0120230251379
11421.169138342086 -806.4433606447548 2559.4996709083616 2174.681137492615 157.53609395311452 -510.02615670860246
10014.725771725429 95.53020853402371 2287.995586483834 2344.1341012383 183.5236383662262 -277.42632322770936
8610.39327079174 -1.60822732256102 1768.1732058332223 2039.4816198036356 130.53440638071064 -121.50643635295759
7383.06821744025 -72.02811521558795 1362.122383488644 1866.149535177674 53.46525991071202 -37.6451933007197
6169.296618895943 -62.62461755159816 1038.955170833958 1780.3932019528108 -31.130339377547287 4.401632240414384
4950.5918493787685 -41.93243726575834 772.3972511480779 1727.5080785596913 -116.2443337470444 25.973085455630464
3631.1698724773205 -46.097404086260156 522.1970943102217 1677.3426288194162 -192.18655526307043 36.69501634258725
2144.3904334215945 215.48759053207348 356.1484873651986 1586.3299187036228 -217.19261909150663 29.86574538873186
1611.30331817675 702.3166997614819 551.0551232066008 1748.5338260116632 -123.55323660926038 -87.51855938827083
-1458.9195565517573 -6724.538782944491 -2620.9124311058736 1447.8242847644262 -55.66830533718551 -606.8014493538616
-1245.5346079467222 -4333.199595706973 -1152.6396851636712 -1425.6798725843366 -9.710545475728564 -503.0220805542212
194.30677707237302 197.53489912420383 464.71466655679234 -1907.0749763415536 -31.212635110930407 -169.94365867562243
-63.93894081513446 324.7626469153628 247.9305205470505 -1891.9962388791548 -44.6831616162411 -50.879753493259855
70.89369292106716 12.193641432174275 81.69788889997372 -1885.0000785883403 -57.34633701973813 -9.863716707986429
150.3197601198118 -14.943438792572888 48.412023324129805 -1940.888018173137 -75.20645809851962 -3.0471000869824794
120.29708632763867 -4.081780715946186 36.34804554129674 -2009.4980841526203 -88.41365775678577 -19.37534718828044
43.56439883503726 -14.456340508167061 32.24397301583829 -2113.8103473527235 -95.50259101513748 -64.97238136812082
-130.7932197940656 67.11076034291014 46.244008347378276 -2264.338728120638 -104.7359281369978 -158.3892541142881
-106.28290341274163 370.5329298228163 204.34904016086216 -2595.657694017538 -131.24840106915656 -328.69409822746746
457.55429761865673 -750.8360527755453 145.2968156028191 -2710.9559337835567 -139.37841242918327 -593.0801724826421
-812.2473926610554 -6077.273402435596 -1679.71913177697 3.7617498131824165 -14.309382738305715 -809.1682860110826
445.32893729482385 -751.6210501741685 155.29189456921074 2718.835850843601 109.48819452810184 -592.6378013244303
-131.8045601029274 368.97662728361973 223.60932174746142 2604.669809894157 97.62521468118454 -327.44425996046664
-171.6317224254807 64.81291110094988 72.97620431541185 2275.468600595269 65.18162385286078 -155.44112103981576
-15.365154702887551 -17.40607639262845 62.88190133261207 2128.471859724891 48.31380558329304 -58.55977827035673
39.92789624256273 -7.286855971135084 64.4140838488408 2029.8576499936014 32.59625041172962 -6.216333778914483
43.01315145769911 -17.771991900599815 62.28267007320082 1970.4124036036426 10.678006109931037 22.163280839923367
-58.430039761915985 15.355418458265268 67.87570602676841 1929.9455662969574 -12.884819160649478 35.54305471602881
-182.85333266791793 303.77757030592414 180.6889852977883 1962.9944001228487 -13.446665563089788 20.131665803190966
84.80432297072825 70.31045530112006 275.44099748384616 1966.3123819291066 18.959194001848786 -128.3148609786014
-1254.9353128282812 -4223.542084150054 -1381.3753950826258 1450.6930983302018 30.114773307133376 -642.5090938383886
-1179.6620461828463 -2297.1814148576473 -158.0655631212917 -1137.4891387195883 -86.54465466600723 -472.69783536893243
-1127.0814248177514 -142.95670441172183 313.7129971259914 -1670.6572712156237 -154.5079453219891 -145.12274787008982
-2355.8701127344593 270.31742704107313 4.028900482865965 -1762.354887199902 -226.40224193913096 -43.371573036771736
-3578.2667193558573 58.44909850978572 -403.7253644845016 -1676.7417230361013 -231.7750780808013 -4.941708592383283
-4769.0245396194905 27.636393842397272 -695.0586602073488 -1698.058719230709 -208.87853722103722 4.703235007311386
-6034.774360833657 45.174441018691724 -976.9649697041293 -1762.5770100952357 -163.29115273797737 -6.675942512166074
-7324.362039721354 72.89502608403552 -1270.4419753896677 -1850.0774034181113 -102.99248270630669 -43.409344805558916
-8822.694470924594 56.16276033605322 -1661.533836477874 -1964.2610072035907 -47.97547169866912 -118.769289389868
-10281.106725034262 530.467542033901 -1918.089841702773 -2122.2822740472034 -41.924459760209544 -255.53345447441583
-10316.862215746443 63.83310649851509 -2009.178187589882 -2815.813537685754 -87.8315464904432 -497.99419003685045
-13529.342525810205 -9851.678422622197 -5737.957719476733 3.3307086793748635 -19.30276730958657 -747.4956625073665
-10329.55363013044 62.85871529325217 -1994.1879090400892 2822.789257875106 47.74253214226872 -497.72800500133104
-10307.2768055771 528.5411755077985 -1888.5395419106046 2130.254722553612 -2.4712444052974107 -254.69027100303856
-8863.639496933236 53.34940766235282 -1618.6244341583358 1974.0912889697763 -3.0608855614996924 -116.59175751158894
-7381.230761829242 69.37835134402178 -1216.8590012311806 1863.0018883586665 43.98497726335494 -38.37767354212663
-6107.953430157619 41.3233894407831 -918.244634600569 1780.617419000468 96.73972359104322 4.049673463273651
-4855.946275768482 25.645306909878677 -640.724511553568 1724.6473920519686 137.9503034819665 26.176955021183947
-3665.618404841773 58.8150178549351 -368.7712885535858 1717.3408935262617 164.80892235184962 34.83261624672381
-2422.971679552347 246.09839310789465 -12.131514216361865 1811.602984073843 181.12123807993063 14.305128832064778
-1179.6700602434298 -216.88740284342305 197.91816483937848 1692.4847414154303 148.32146564610156 -114.3445365695944
-1178.4580856154234 -2220.956087036993 -330.32230804815146 1130.1795835684532 103.13107163308128 -562.8461050635585
-1308.8350486070894 -1022.4516346667492 519.6004574917868 -614.6135028335366 -183.5240732321114 -285.884666633467
-2253.376237527039 -259.55701727296514 280.0439065640569 -955.9237478707546 -295.6291940035484 -63.132290324563435
-4599.149533933214 151.2089906182202 -250.5687247058942 -1039.3959796378203 -416.5976650136357 -8.492035142288005
-7186.555174195968 72.18379093796307 -893.1119920307741 -974.8258613087384 -407.2350619514976 22.451773829514842
-9686.027244405614 51.104956647824416 -1450.6090036931637 -977.4083920215045 -339.8523609081942 38.59431659062018
-12183.977483583873 68.82589246766862 -2005.6385496668036 -1016.6366097227989 -230.60262465329373 44.95436142542172
-14732.261783854416 87.41734711984023 -2619.7293681039296 -1071.311723133165 -95.71552542768447 39.05559565722814
-17224.737413092997 190.31680140465465 -3260.8001589313876 -1118.1590661519915 32.69453953210795 12.343659368251153
-20565.595730408546 -106.27036281042176 -4347.639432579101 -1243.1265491440415 100.6204673351333 -44.721559566707626
-21028.66999325039 2269.8622713397895 -3831.4805556340134 -1688.757986580402 27.605715686260897 -198.17538051896008
-27731.091970590034 -14708.062895093539 -10713.081522468381 2.081090835841959 -24.50178172039625 -480.64816676309636
-21042.042452286925 2268.7287209040514 -3811.3729371376476 1693.1107267149453 -78.35141106557809 -198.40371552061893
-20592.885542354452 -108.50984351525814 -4307.530939602354 1248.080891689827 -156.39869656967736 -45.02875267591971
-17266.60550265288 187.06964679162806 -3201.245179241377 1124.22463574832 -96.12521438452629 12.335934765725593
-14788.491726677737 83.39682897368428 -2542.4780774362716 1079.216402664707 23.445165978412255 40.134883015493656
-12251.44615343091 64.79405549844766 -1914.7657768787853 1027.5582567641434 151.01094452869341 48.6888400036865
-9754.9281649942 48.820210111516 -1354.1201667209343 993.565439875399 259.20079482812287 48.08415992414563
-7238.9868689637115 70.03558148775342 -807.4430089381401 998.4485917620993 339.1818397106889 42.41304360275639
-4623.597986351085 133.93083814038718 -210.11902243219438 1063.4770462016006 380.7644271032078 20.970119921537005
-2263.82912550151 -293.3038469964404 231.6208941569363 961.2240335611148 297.73251895515585 -47.539968790917364
-1306.1816084377824 -987.6360809537101 390.2819935077213 603.7315384806844 203.33070698285755 -336.27698291099233
-1462.2443975507508 -594.1646069234329 858.4620762708456 -239.581235291974 -353.61119200696703 -146.73368285720647
-3160.7465655001815 -395.644053357609 284.43986297313336 -382.7022321414564 -487.2696652975583 -6.690127564672489
-7003.49491476498 -394.0588661390838 -684.7743592893754 -396.61047215480244 -622.7324930883752 17.809903219454434
-11191.503048912908 -772.9432072742173 -1756.8434768712814 -381.9480880166245 -581.6501221141114 43.69556726110741
-15081.003004435051 -1087.1113394402826 -2693.139643386783 -387.2986179308321 -459.57190711936215 65.8031055392694
-18915.919008134515 -1361.0644581172498 -3641.0794459400977 -407.8682802061767 -276.55280582431425 87.54068424117905
-22838.568543119116 -1681.530901653447 -4715.260981693394 -428.3377859832339 -53.96105562275719 106.99623325771157
-26667.27629089583 -1791.9435790338619 -5815.776427451181 -473.8244278908371 165.8614082914513 121.39589118812019
-30465.390738260216 -2649.636413746179 -7269.818932616021 -501.2237062542211 308.4221042321048 114.76347022778354
-33756.41029020743 742.2492879988475 -7448.737091946761 -1103.9057852959702 294.5524909381218 71.00632140574969
-46779.09984934042 -22246.166975368997 -18346.068453094234 1.0823373202346431 -29.981502326672558 -336.7418849370497
-33770.431472392665 741.8943386288731 -7422.976065930303 1106.1821170635058 -356.59412361719995 70.51098820765915
-30493.749447838323 -2650.2077162868877 -7217.993767764434 503.84784442531077 -376.4807189036475 113.8114739493197
-26710.068929644203 -1792.3967939631273 -5737.6226217555895 477.08052263856064 -243.10291434203103 120.09932339921073
-22894.366462146754 -1681.180859684003 -4611.277241809223 432.60031693508216 -33.933042075444405 105.62079448784765
-18978.51977707192 -1358.248927248125 -3513.4379930570176 413.6678952155147 179.9079637845734 86.70255404975002
-15133.211199309038 -1078.5773297260437 -2547.006487258195 395.54089306048144 362.62274812881714 66.89861142664137
-11204.776487296345 -757.3806741216827 -1606.0098676133364 393.40642803262466 503.74287907093947 49.12368089565875
-6968.030152504196 -381.4787102270519 -566.6998767058886 408.54333212009465 592.1955322770755 27.25240034599133
-3116.1846168885186 -390.858474154266 310.9533540442312 387.17122523601813 508.932979899269 -2.202509959857834
-1434.260888939973 -562.3158274112566 779.6069880021053 236.26718230023408 397.63612219201775 -176.91237726268946
3204.3480445092664 -8676.530784175186 -1641.6548218997766 272.45305345468887 -4.380590112873506e-09 -2.165608581350398e-09
8290.068821595774 3242.1130990758 2911.6976383496117 -808.0536187579693 -2.2196511295646815e-09 5.28506127750461e-11
8399.030837945334 429.72033875897114 1620.355053007761 -314.11234486995124 -8.499267956096901e-10 -1.580930941713632e-10
11569.092556171223 881.7758135197838 2251.608339760639 -373.52012363809445 1.188076304003971e-10 1.7263168672343454e-10
15210.46658121738 1068.9605337411037 3077.4691583638987 -399.3860880331591 3.600096887268478e-10 4.3072567734725453e-10
18987.165198431674 1379.9118539622475 4140.100232744499 -429.3300285435056 -2.0983226267645705e-10 -3.204130294420793e-10
22865.354426063474 1701.0134673391042 5408.200618958867 -467.6005117456421 -9.013785273737085e-10 6.09547967655999e-11
27120.115263091393 2105.5683546066803 6983.421853295063 -529.9048152975635 -5.233444788643737e-10 1.2354348655208014e-09
32059.975325284802 2570.6511816122706 8914.008788303376 -595.8637806517903 4.962030786259675e-10 4.079385718114281e-10
36988.26521368371 2761.5249972974143 10782.515695783537 -497.84150492813325 1.0128564653655303e-09 1.737534560675158e-10
39117.265685678336 2424.51298571654 11479.500082875044 1.3138463505014144 1.2751295574986443e-09 1.00023989091369e-10
36969.38785933766 2759.9526351835902 10776.074068067473 500.59056637696904 2.2702546509378863e-09 -4.362004091262861e-10
32019.116597001095 2567.3388196110704 8898.869798613696 599.0010381875693 4.501117700783652e-09 6.773461791453883e-10
27050.225214030095 2100.1081753346502 6954.5789623269 533.7838529131432 5.0524382455563455e-09 1.1243006525774035e-10
22753.3857741586 1692.4369076988153 5356.8494808074 472.6836597533009 4.373020279224704e-09 8.5839779728758e-11
18811.519302509205 1367.1558415967215 4052.905985182059 436.3313889570143 1.386720294149768e-09 -1.1406875444208708e-10
14936.181198790517 1048.6569325175637 2934.553040162121 408.7620946287177 -2.4334090298339106e-09 1.4360068689711625e-10
11147.779766388736 855.3738728686781 2030.0930032053498 388.6446410963468 -3.744260013149869e-09 1.4519141444679917e-10
7708.835324794424 364.26955197741756 1252.0652813438865 342.1513065352083 -4.903355943497445e-09 3.140105953036709e-10
6698.997402097514 2969.0099072957423 2112.870891503111 771.0826448077393 -4.3792436343892405e-09 -3.2231994850917545e-11
568.6878607107768 -9493.037118348031 -3480.831501762515 981.5556828209395 -3.93126775577457e-09 -1.979891806058731e-09
-1054.8264438724411 -9200.182028154999 -3096.314538067662 21.391030494038148 -1.3420577982259374e-09 -1.3168874879454506e-09
4038.4736368647723 1657.9213504559903 1427.7155154030115 -887.719180768664 -1.2417200601078093e-09 -5.400628833029941e-10
5107.212994706616 -106.92736644169425 851.2440943676305 -822.0403772383879 -9.319632843229897e-10 -5.581872741799998e-10
7633.208346232983 26.950195959849108 1317.6711712009765 -932.6325326124535 -4.342973758397761e-10 3.078115540233739e-11
9915.44675897843 -48.48375466031142 1740.6980275355477 -1002.1114707004621 -1.616333872300757e-10 2.1130253102796814e-10
12336.792544306698 -56.94451310180928 2342.9083812985 -1057.6009159464872 -2.644448549027345e-10 -1.4735013209588033e-10
14828.665819050773 -55.39887721443966 3088.4764742426905 -1141.1342028555418 -5.650584444794049e-10 -3.737739007192431e-10
17529.41685228237 -6.317821519541761 4021.5720554048 -1290.0040445329355 -4.182251212014876e-10 5.070677211449492e-10
20535.931533534385 -8.646903839276977 5113.828676983108 -1482.3914850946917 -3.0589242250300686e-10 -6.032623289797812e-10
23268.978074999977 -584.0000152657491 5970.572384884862 -1292.5968810594309 3.129214110053624e-10 -8.684883923137932e-10
24124.76820078942 -1800.253939487365 5968.0723172544585 2.5431597428035424 1.0488140911313337e-09 -5.668212565979047e-10
23249.361136867996 -584.7150194179663 5970.602160810336 1298.005035555422 1.1118792553332923e-09 -1.2627636714057644e-09
20494.044388196882 -10.078594012442789 5112.1765196788 1488.8448464588269 2.2710293645644697e-09 -4.712079615387665e-10
17459.41399382375 -8.501895176120499 4014.3801501760563 1298.4830238745726 3.151401695156153e-09 1.1081757733677478e-10
14720.26865847183 -58.42568752427684 3068.9215636822714 1153.0784755419945 2.1954624090936292e-09 8.531486628271523e-11
12173.096170362589 -60.83794808019624 2300.0535217523693 1075.002361604579 9.177221760303667e-10 1.9903927395148457e-09
9670.447741819622 -52.7887105743675 1658.7529118866487 1027.6079045771862 -9.109599741208285e-10 7.530815970824278e-10
7262.124549021811 17.66358100243265 1169.500010840616 971.8377320230651 -2.2295694179774728e-09 8.730951517321728e-10
4550.54306478993 -115.39899446875474 602.4036549443388 897.8581771773909 -2.89887691629076e-09 4.698093025723438e-10
3484.564557803228 1591.1709967978497 1023.081110114303 985.8332095894598 -2.1363885521763493e-09 -1.6982859563086095e-10
-1481.0308188405697 -9069.597741416124 -3802.8866605505814 727.3673093646767 -1.347471800805522e-09 -2.9277238411395956e-09
-1358.2622749077912 -6735.065640853287 -2237.990535986169 -1222.0583332589185 -4.963097710586339e-10 -1.559712359266996e-10
1863.19243335854 893.7999813531815 838.0621508636483 -1535.6659257817523 -5.536382741144763e-10 -9.102050224640834e-10
2423.4204565945065 212.64580226587688 550.3856655025535 -1489.599469413223 -8.802860107515187e-10 -7.978413485432156e-10
3852.654294358294 -24.846684456873955 687.3773282421073 -1645.515692494089 -6.995136379861489e-10 -6.813065667188312e-10
5087.630304860499 -17.493144979518192 911.4446933918219 -1738.1766606599133 -6.376785488537706e-10 1.8781509680820818e-10
6267.57304805225 -28.217754655072685 1193.9008763449099 -1830.4975903395443 -7.686920544536235e-10 2.599898074606699e-10
7473.138168455255 -26.069825203521454 1562.6792708474725 -1963.7898699320353 -5.117044565849937e-10 -8.329115175342849e-10
8730.697811552758 60.67244792156563 2036.1629819113155 -2190.752781541902 -8.618238345192708e-10 -6.557705489740329e-10
10207.942672170739 177.48061833811144 2633.4601759815473 -2531.7978511297565 -9.455297655946993e-10 -1.668002624910514e-09
11720.79299777312 -705.4713708419275 2964.126340940137 -2333.7943119538977 9.962175528954731e-11 -1.1038459035717096e-09
11626.780314777196 -3443.3578300081176 2199.606299288272 3.973776967895098 1.5574930234407702e-10 -1.5021930366287961e-09
11700.357755398349 -706.4132420702598 2970.114966625194 2342.270795627928 6.021350085205768e-11 -1.924296277877602e-09
10164.919981337289 175.59881341347315 2644.150394422204 2541.9975305701605 7.843604099555535e-10 -1.0819580786858296e-09
8660.560567203944 57.82654351623947 2048.573174799129 2204.320061117211 1.2712814689841423e-09 4.2793946164465524e-10
7368.322868223593 -29.958729406080508 1571.2741867779564 1983.1899421258793 1.1256785781288414e-09 6.420699527609486e-10
6116.10057014883 -32.90890926147678 1189.4261507164351 1859.38297247679 7.440063461150448e-10 3.3421847511760916e-09
4871.352929108793 -22.01305744292798 879.3580861818965 1781.463079591812 -4.360020677829368e-11 1.991867559780758e-09
3544.609985414439 -29.85618817849958 605.0034993713095 1713.4749292623824 -8.383725935701136e-10 1.4530792125100334e-09
2097.187947643502 224.24962136653812 416.7242026471295 1603.9436354582149 -1.3750689475955369e-09 7.461720130663707e-10
1545.2216028843584 661.0668346597835 493.4859508035019 1704.8798837985034 -6.946319630607434e-10 -6.589058187955743e-10
-1454.8262470133297 -6510.398088346311 -2663.8372906020227 1385.6151708899001 -4.006510678777886e-10 -4.378151174933009e-09
-1227.4494472894144 -4283.135023866496 -1131.0863449607828 -1367.2437962044992 -9.226693020725207e-11 8.522071937022702e-11
240.0199627088002 230.07740165954044 472.9067605787276 -1836.1646974651205 -2.9790825362141504e-10 -7.356284470461105e-10
15.069738739394333 328.7223180427238 279.02500796163224 -1858.2719883225254 -8.850122856784992e-10 -9.536500478191101e-10
136.79275586750052 7.711423807312279 105.96015037232078 -1893.296065616102 -9.569850467627816e-10 -5.58802781824852e-10
203.84011419574887 -17.414948101650527 60.14261692256 -1982.991798085443 -1.0066755207205347e-09 1.215405553978144e-10
167.45734270499972 -5.4483993507050705 42.57049757358794 -2087.9978333256486 -1.1828985013728754e-09 2.7315083528378636e-10
84.95794697261826 -13.032661793577109 39.37090653832793 -2239.4109674909355 -9.10284625454949e-10 -4.854383561792019e-10
-97.39522196548485 75.15833976496201 57.047668998023084 -2444.061566391918 -1.2799407922425843e-09 -1.1905489927244162e-09
-73.79293173108468 389.45522928901676 224.20535945320822 -2810.1647143552123 -1.335830113191605e-09 -2.536864940339001e-09
545.608958347103 -712.7615475425027 173.38278111520063 -2901.803814853879 -5.111829293191761e-10 -1.7931034435036963e-09
-762.1342657525859 -6184.217695493703 -1783.9672964064075 4.457619412083708 -6.067140956300676e-10 -1.5704273437222582e-09
524.4898301763733 -713.9452664457735 185.34709009808427 2911.3180473701927 -7.453415939995267e-10 -2.117312547511574e-09
-117.63309465664312 387.1004539619075 247.2559009400905 2821.630292750823 -4.0311034024687054e-10 -2.209537885988766e-09
-167.06321828669698 71.64262338107844 89.03038817071084 2459.331359637501 -5.517245688091421e-10 4.15867784653301e-10
-15.163535668560492 -17.718324106718516 75.9778096969037 2261.3105436438796 -9.753112206745129e-11 6.728537726985451e-10
30.538715708367885 -10.771945689245022 76.09037510124196 2120.8761870367157 3.2692137885703687e-10 3.754044186621286e-09
20.287213077468387 -22.085021470683092 77.17904033192933 2033.4882061235419 5.982935813442225e-10 2.3252675340756923e-09
-83.97174719651726 12.335538872672561 93.64131446155251 1971.2754092901264 2.647410624057045e-10 1.99446725801522e-09
-185.36631969939614 297.6127158026928 205.80661283565857 1974.0787151128218 8.541706231213197e-11 7.800522450196468e-10
66.24996970908518 47.94981516187501 232.73853897026476 1923.4535267161084 2.8695618103924403e-10 -9.520708665888833e-10
-1233.77824079548 -4073.052027292075 -1420.0777301640871 1400.4574418275859 3.9175951371817064e-10 -4.5879353649525e-09
-1134.5059791285482 -2251.491722989561 -127.10456948552732 -1108.0265275603417 7.726108641747942e-11 3.798739101057436e-12
-1068.1482512863859 -111.87273210249452 307.07734857350766 -1620.2819105309393 -2.78835621259077e-10 -4.738409664639676e-10
-2268.0312178493696 270.1434064571398 -7.939890333429882 -1729.6127242523849 -8.745297819245934e-10 -8.637994763915913e-10
-3487.9148229780753 37.02831382746424 -450.62300911570367 -1679.237745251127 -1.1489453832780328e-09 -3.859197406086423e-10
-4677.698663722257 -1.2808021502565632 -787.5128019062453 -1733.0449413081226 -1.2835099649777248e-09 3.185318675491544e-11
-5950.820984365412 10.353990243448782 -1117.6729640706278 -1830.9510272191014 -1.7679303021544968e-09 3.390994152141502e-10
-7268.444684952571 33.004647655805265 -1464.390575550609 -1960.2295531203677 -1.5409916571951232e-09 -3.8128522561464706e-10
-8831.685922379469 8.251821449076637 -1919.232843018278 -2121.4319166728083 -1.5034524181167797e-09 -9.781340182257736e-10
-10386.631358389313 482.7736391244845 -2233.9284108049337 -2302.313400792794 -1.4752163934872442e-09 -2.743914873093445e-09
-10422.742957541619 47.60200768498876 -2337.310087985102 -2994.9831601491733 -1.2519227321483584e-09 -1.736595756085535e-09
-13752.675808116996 -10126.050986945818 -6328.260802257139 4.003540952741253 -1.2756329881291606e-09 -1.505276348012785e-09
-10444.65130060211 46.17414870609421 -2319.2790895277267 3003.5227044636817 -1.391641579751024e-09 -1.6748744613437339e-09
-10431.51980549416 479.94386359478654 -2198.3254485946704 2312.582603817437 -1.7382127959209015e-09 -2.0625767760407143e-09
-8901.310994759699 4.07173631128785 -1867.3677575475679 2135.060117442305 -1.7205637747874647e-09 6.010476560902589e-10
-7364.402089017222 27.626770942543974 -1399.2390968974717 1979.6969126655522 -1.376816577414175e-09 8.41512637350661e-10
-6073.830484520729 4.225355968647417 -1045.4170024130356 1860.3204391963975 -1.088520384939784e-10 3.5538190168438177e-09
-4824.063556035643 -4.869856589012581 -718.3582195397945 1778.692158968717 1.1268351807203203e-09 2.150102318410063e-09
-3635.791175833784 36.887992109258896 -400.1897106041111 1749.1881892855497 1.2550276373701763e-09 1.9807762097201476e-09
-2381.3620442075808 232.90509620474418 -17.405750854520477 1811.1967391567216 1.4927283853438666e-09 7.148888148122978e-10
-1151.1918394360503 -219.30066206750172 164.83499001275845 1653.7403809734087 1.3053306768817663e-09 -7.714988647933296e-10
-1126.8097540415508 -2114.6099697853374 -343.9686790941624 1096.7806838796043 1.0278879969405352e-09 -4.071360137913871e-09
-1222.1384754231926 -959.6061621827796 557.906402445535 -606.3737165906502 3.181033214616491e-11 -9.263034783657531e-11
-2165.544964846099 -214.57148264671008 252.15941331879512 -926.1159627700944 -2.525337716718923e-10 -2.532889453732423e-10
-4483.478311494536 162.05203069305352 -299.4629910436935 -1016.4361987193421 -9.140843637567286e-10 -5.027513960698116e-10
-7053.854599717526 60.48901662578139 -998.663113464251 -973.1556054360965 -1.5132364250547425e-09 -3.198437070750515e-10
-9536.099280999211 31.487657460960744 -1630.961114911085 -996.9624724319232 -1.878633026919374e-09 2.609263916042437e-10
-12035.684677483061 46.484301810052656 -2273.1692876514 -1057.6980877530139 -1.813045158449711e-09 -1.539266492045499e-10
-14629.309216509513 61.822499178941634 -2994.4393429264246 -1138.3600865766175 -1.4341784426719073e-09 -2.304911816963795e-11
-17230.488498432947 161.82195339605005 -3760.6892566236056 -1211.5568876444775 -1.8346986152550926e-09 1.1900658236640993e-10
-20787.41346616742 -157.69414089747076 -4992.99185727383 -1346.7809370262182 -1.605466426468638e-09 -1.2583643016483848e-09
-21295.989661414398 2338.4415325013792 -4447.243826861578 -1792.4797936823795 -1.6413517767155383e-09 -2.936690890464888e-10
-28274.40210881003 -15172.67677077835 -11783.835274736866 2.5951420466602437 -1.8328217832319638e-09 -9.480953799823055e-10
-21319.03300045385 2336.7772641364827 -4422.98102419199 1797.9980947273668 -2.258150111345003e-09 -3.334692522116711e-10
-20834.130567515043 -160.99010329566252 -4944.470482981699 1353.358973439228 -3.1124476329580375e-09 -9.367764342016471e-10
-17301.46990402524 156.99655535404813 -3688.2813147362044 1220.169635964978 -3.160005701552393e-09 8.238085769107784e-10
-14723.579982185836 55.69771016614555 -2899.678786057416 1150.4805542576673 -2.62552257712656e-09 7.118772238356996e-10
-12147.620153458789 39.968823660554946 -2159.8679203174497 1075.7104864149637 -8.413578722610282e-10 2.0230683794864035e-09
-9649.65565387161 26.78777539631062 -1506.8112779639118 1024.845029587117 1.379952596636258e-09 1.237168589796056e-09
-7140.123971691837 54.68322856756378 -881.6574692994217 1013.9277109849209 2.5015469695688353e-09 9.612082241261533e-10
-4523.129844813607 132.2011649829252 -234.99448244511026 1056.7226293254346 3.183618701996238e-09 3.3248559461185323e-10
-2179.2479088576024 -266.18881774185775 199.36389473679185 934.2719328356629 2.589066960823061e-09 -2.9916202848312423e-10
-1210.8443657694065 -896.8731677598546 393.35002629773305 590.4174382583527 1.804066229738055e-09 -2.603965043590506e-09
-1368.3504418859782 -542.053851562985 820.7231272389264 -240.6177443774368 6.473044322774513e-11 -1.488906775648502e-10
-3057.841963620498 -353.2347801706692 193.42971694203888 -365.7939660017507 -1.283488870740257e-10 -8.567191400743468e-11
-6858.450834060973 -381.1605436781954 -795.9031917844242 -383.6115120346741 -7.940883506307728e-10 -2.807389876124944e-10
-11009.687909502616 -779.6865042970484 -1944.600162531719 -379.11515739121603 -1.957101147809226e-09 1.1150191880915372e-11
-14868.20500456685 -1103.5837107118864 -2992.486825579199 -395.33847671637085 -2.769326989948695e-09 1.3532286402551108e-10
-18703.604779113703 -1385.9173869936978 -4080.923804385331 -426.76131193949226 -1.552831641049579e-09 -7.429292736560456e-10
-22693.279908917644 -1723.5042538288283 -5335.471192056893 -459.23489968795883 -1.1088996387798034e-09 9.842899828527152e-10
-26704.25622050519 -1863.636687824171 -6664.053545218091 -514.5184001851136 -1.5795658114825528e-09 1.426201379217673e-10
-30837.699634340097 -2795.5717249490767 -8373.903999287963 -542.066826365737 -1.5799228592072723e-09 7.512834798717449e-10
-34345.58569996258 719.9759817917659 -8569.635995771985 -1161.7570457245376 -2.518699915299294e-09 2.6279600717771245e-10
-47760.26266438323 -22929.316002491258 -19781.479430756106 1.4994265926067811 -2.400197374186064e-09 -8.347367241867687e-10
-34369.901966753234 719.148315863306 -8538.44287858185 1164.9462859687335 -2.76353695483067e-09 3.866560405185737e-10
-30886.588619734866 -2797.0299631619964 -8310.927034703198 545.8590880028532 -4.969585631897644e-09 5.138112157965224e-10
-26777.343507627113 -1865.2543764054474 -6568.431152989279 519.4359373128334 -5.702978533861369e-09 5.260325508515962e-10
-22787.38595358248 -1724.2996682046924 -5206.716498689693 465.9967149131769 -4.633906591777759e-09 6.185025824834156e-10
-18807.389708652867 -1383.4124058194384 -3919.484397240095 436.3826230474435 -2.023774925419275e-09 3.0175328902259935e-10
-14952.217703589227 -1092.8512837435849 -2800.6559508750365 409.34181524009335 1.8401280499347195e-09 3.5841019041527034e-10
-11026.475266724881 -758.6766651353861 -1734.983598260936 398.41237565666955 4.1980356968451815e-09 5.4072302191343624e-12
-6793.095911975999 -365.08028768699353 -618.6716107315384 403.08896091738427 5.530349511673194e-09 1.0187051202592556e-10
-2978.036873270069 -347.0965985754684 246.90638098945786 372.73897070644784 4.452706647839477e-09 6.373213068400219e-11
-1314.3845564752114 -488.11883773642046 721.1225613454548 236.98463564602164 3.1467806138607557e-09 -1.6002843494788976e-09
2537.9528591112407 -9305.68558122762 -2030.3198166349139 -119.69457253144404 -439.068059180598 -38.099993193528974
8074.62952222886 3314.9417594573347 2782.7700504594213 -823.5767892405803 -598.6123225167293 45.68080479050879
8365.682938441314 409.21396637087116 1421.3669656704815 -325.8704188434847 -563.3808231749247 -44.125607307136065
11642.177210677375 888.0375810875694 2011.6975532263223 -372.3696667246159 -470.9436336862331 -50.916363033194926
15326.283076951515 1063.7010825988286 2755.7759291659722 -390.1985719689168 -302.8325252184118 -70.26334307838331
19105.975599093355 1360.1710049194303 3688.122422254583 -409.70620835329765 -92.29516585108495 -90.27340658134187
22923.438100008017 1656.7340665121576 4775.106228367967 -436.02021384056707 145.66396772078062 -109.01728386814551
26997.747295833327 2020.5333289796633 6116.209364136077 -486.1007048371231 372.98958717181364 -117.44926477516071
31609.57541249263 2427.2055529715662 7781.942784384668 -545.7385027977093 500.0568789077498 -98.94280125594649
36155.863140206835 2560.1177694468515 9428.084632247886 -458.4441645068122 388.1316117854002 -42.85107201652792
38113.76150056809 2213.861951838738 10051.781633218066 1.0606886034966188 -0.5013179164644628 4.705431314000261
36144.722978661084 2558.8705780835767 9422.92758562932 460.63030070059614 -388.55765879519515 -42.24269445160012
31585.346289851357 2424.5758639893215 7769.963592176202 548.1250490414524 -498.6895854265706 -97.73331379426307
26956.176768021734 2016.2264554475523 6093.748332127543 488.85558041514844 -368.3327384867409 -115.70004286664792
22857.04856077444 1650.1648899223962 4735.76543451178 439.3275996606991 -135.38482688169253 -106.90936488840983
19003.150580729372 1350.7519737405453 3622.216636302562 413.9401811880406 112.40588661269405 -88.45320535923572
15167.608433824666 1049.6614459979626 2647.821153324713 395.1327739879743 340.79631972108 -69.2004049327632
11402.657620705068 869.1525498967522 1844.4705350258796 381.4112622019944 535.885469322599 -55.299644466412914
7929.014388807813 359.77225140729365 1125.9651770165758 338.77697854844416 663.5935631557867 -40.537339904834845
6973.943645863528 3096.4917065419118 2214.4908466893285 804.833472437653 604.0548231400426 -32.627856156392475
672.2493375558981 -9825.297103814373 -3453.9558522612474 1033.7211885976542 533.9589862097615 318.9012153778889
-1227.3119160016763 -9515.133905372471 -3316.1956942823654 -204.17105270148227 -232.4600897710452 113.78989071153346
3991.102934310163 1731.7854188343297 1426.1401907957884 -934.6730407486783 -281.798759768328 95.7260149612648
5013.7394270217455 -124.6929176727652 710.6053674632551 -842.8269483707841 -352.7544928374401 -10.590119845987386
7650.20441847504 23.693868447614857 1164.4330749955602 -928.9199007521693 -294.92511513976694 -26.759783603125
9966.05390490755 -57.80477773689083 1538.8610372753133 -981.9266077723481 -186.82249353826174 -39.09376495955575
12391.800452453355 -74.78194097154636 2063.672973156131 -1016.8633926391707 -49.9473225501295 -45.18337457436378
14845.539433737005 -84.0473106315952 2700.177892184964 -1073.9256455405714 99.47292055567262 -39.387962727192296
17439.465142765264 -48.88786439148017 3496.9496419136653 -1192.0363365869018 237.4300353135355 -7.088086343483507
20262.28142215013 -65.6346134804214 4442.647581419252 -1364.2681875984435 312.50667422357964 75.0988348413874
22790.353159399867 -649.1833943456431 5186.642305207252 -1195.5945509814321 243.7240654269322 212.59406741447702
23571.130825634857 -1830.6180680066832 5169.133837311838 2.0572153285743457 4.501051519752409 310.7333070913176
22778.957667449376 -649.6344567741688 5186.803676333733 1199.8973288490188 -233.86993830935293 212.73852121887307
20237.82872734166 -66.55602614670045 4441.655669364351 1369.1681029249955 -300.06216037584363 75.23761743396045
17398.418047923118 -50.32472019723983 3491.846894040965 1198.0509259971782 -220.49070288382202 -7.343485399210834
14782.047236388657 -86.0476705670154 2685.761240527242 1081.7676265930945 -75.65764162305436 -40.86217976808826
12296.58807821184 -77.35562688535073 2031.377912142106 1027.5450017990656 84.26630368540688 -49.4771856827895
9826.077654506851 -60.34437148647932 1476.4288489729854 996.5957140778643 237.06698664862841 -48.759960065401096
7434.270995479837 15.239129803041141 1046.6166502732583 951.6957049490828 369.1435475439201 -46.15567251694302
4662.856617069393 -134.01352149316153 508.45901014826836 886.7967445670844 438.7447348992157 -40.7951529852709
3621.86890876562 1666.9590055185151 1108.0344986647715 1016.0619962465903 315.4289607272327 11.828396127830953
-1480.8109582641855 -9384.639436865788 -3795.492195972099 767.8059764585116 206.26848780605664 412.509807787652
-1387.7265619130717 -6825.140160954299 -2295.5927976893736 -1323.2606582574908 -81.55568295573885 392.30606525948537
1813.3437240884928 864.2713988116926 816.4113288392107 -1626.8677219516123 -102.60132211941163 144.68752896623644
2342.5718386799385 209.7694889319303 473.1163282073708 -1516.518322708196 -143.54730183572713 36.87283661374141
3811.933613998863 -42.516143725718294 589.552396085579 -1638.6634315856006 -118.5032264069962 0.5279379314098325
5075.291495952175 -39.072398398144045 796.8510919415447 -1702.1924782314916 -57.651141239335395 -4.496748236265159
6257.432665179241 -59.95712293113743 1040.9541416541467 -1762.5608022116833 14.481266527897308 6.580828043655664
7444.5037057011905 -69.6150306732995 1354.0370596326295 -1853.2177291966061 89.27395600575154 42.894361048068426
8651.437255438264 0.19193184394287677 1757.3666483373227 -2029.6615930887465 158.92291284270686 123.81662241770812
10039.776923834177 96.73128494132847 2278.8768341229893 -2336.1838868727873 206.62013376990467 278.35028885373
11433.007752685831 -805.8435774143264 2554.429263087988 -2167.728540724674 177.4328409639915 510.33171456673176
11320.565539724723 -3466.585767285628 1835.7974815263167 3.3194292552475178 9.412266548756026 678.0120230234025
11421.169138346606 -806.4433606444909 2559.499670911476 2174.6811374909325 -157.5360939513726 510.02615670716114
10014.72577172159 95.53020851210698 2287.9955864779413 2344.1341012442635 -183.5236383649214 277.42632322792986
8610.39327078995 -1.6082273344299045 1768.1732058306545 2039.4816198077738 -130.53440637970232 121.50643635354196
7383.068217433612 -72.02811523003818 1362.1223834832747 1866.1495351833287 -53.46525991014735 37.64519330305658
6169.29661888645 -62.624617565954786 1038.9551708272172 1780.3932019555002 31.1303393774265 -4.401632238002186
4950.5918493739855 -41.93243726601229 772.3972511462813 1727.5080785550213 116.24433374609563 -25.973085452649457
3631.1698724740454 -46.09740408261831 522.1970943100678 1677.3426288170417 192.18655526045598 -36.69501633991065
2144.3904334186177 215.48759052975257 356.1484873636132 1586.329918700694 217.19261908875916 -29.865745387471364
1611.3033181757005 702.3166997601246 551.0551232059487 1748.5338260083856 123.55323660782454 87.51855938738002
-1458.9195565497125 -6724.538782934555 -2620.9124311018463 1447.8242847625136 55.668305336300655 606.8014493451652
-1245.5346079477895 -4333.199595711378 -1152.6396851653951 -1425.6798725846681 9.710545475404846 503.0220805544929
194.3067770750458 197.53489912946407 464.71466655850844 -1907.0749763422011 31.212635109988256 169.94365867421996
-63.93894081108705 324.76264692098147 247.9305205489006 -1891.9962388787067 44.68316161445598 50.87975349227729
70.89369292527432 12.193641435692182 81.69788890130577 -1885.000078586854 57.34633701764742 9.863716707671276
150.31976012117315 -14.943438793975435 48.412023323117424 -1940.8880181720165 75.20645809650429 3.0471000863367728
120.29708633151796 -4.081780712463625 36.34804554283236 -2009.4980841552874 88.41365775503087 19.375347186974125
43.56439883821157 -14.45634050606747 32.24397301718043 -2113.8103473564815 95.50259101367253 64.9723813680633
-130.79321979067527 67.11076034545631 46.244008348653956 -2264.338728125451 104.73592813508216 158.3892541162719
-106.2829034135917 370.532929810017 204.34904015766483 -2595.65769401822 131.24840106778703 328.6940982292726
457.55429761827247 -750.8360527881327 145.2968155996565 -2710.9559337818423 139.37841242799786 593.0801724806447
-812.2473926563628 -6077.273402429546 -1679.7191317744673 3.7617498113716854 14.309382737864611 809.1682860075848
445.328937293205 -751.6210501850857 155.291894566176 2718.835850841124 -109.48819452771156 592.6378013226899
-131.80456010122532 368.97662727960613 223.60932174734336 2604.6698098992283 -97.62521468202729 327.4442599606607
-171.6317224299901 64.81291108518543 72.97620431065917 2275.468600600962 -65.18162385400707 155.4411210405862
-15.365154704442816 -17.40607640367066 62.88190132983722 2128.471859730794 -48.31380558410263 58.55977827241512
39.92789624287097 -7.286855977732427 64.41408384757335 2029.8576499962016 -32.596250412160586 6.216333782075809
43.013151457015766 -17.77199190287375 62.28267007234359 1970.4124035993523 -10.67800611038276 -22.16328083664975
-58.43003975897283 15.355418468955126 67.87570603045937 1929.945566293304 12.884819160199063 -35.54305471320669
-182.85333266959103 303.77757030229134 180.6889852961313 1962.9944001194908 13.446665563256566 -20.131665801755418
84.8043229712065 70.3104553002776 275.4409974836783 1966.3123819258824 -18.95919400119828 128.31486097733037
-1254.9353128243097 -4223.542084142914 -1381.3753950790597 1450.6930983284756 -30.114773306629147 642.5090938292008
-1179.6620461854654 -2297.181414862104 -158.06556312312497 -1137.4891387202915 86.54465466585145 472.697835369396
-1127.0814248158 -142.95670440500788 313.71299712816057 -1670.6572712165628 154.5079453211978 145.1227478691812
-2355.87011273227 270.31742704526846 4.028900484181225 -1762.3548872001409 226.4022419374087 43.371573035773
-3578.266719354276 58.44909850900694 -403.725364484912 -1676.7417230356048 231.77507807845245 4.941708592075508
-4769.024539615962 27.636393849025122 -695.0586602053112 -1698.0587192289722 208.87853721792246 -4.7032350078683
-6034.774360826171 45.17444103262269 -976.964969698886 -1762.5770100971608 163.2911527351884 6.675942511063784
-7324.362039722044 72.89502607381633 -1270.441975393818 -1850.0774034217745 102.99248270352432 43.40934480562779
-8822.69447091888 56.162760340680066 -1661.533836475834 -1964.2610072064065 47.97547169604606 118.76928939157604
-10281.106725032743 530.4675420312145 -1918.0898417033957 -2122.282274047977 41.92445975839233 255.53345447704282
-10316.862215745241 63.833106495812395 -2009.1781875906859 -2815.813537684318 87.83154648787 497.99419003499725
-13529.342525812786 -9851.678422634708 -5737.957719482532 3.3307086785323543 19.3027673075644 747.495662503781
-10329.5536301306 62.8587152910094 -1994.187909041053 2822.7892578745805 -47.74253214356883 497.72800499974846
-10307.27680557901 528.5411755015269 -1888.5395419131576 2130.254722558453 2.4712444022537374 254.69027100410221
-8863.639496933118 53.34940765605506 -1618.6244341596653 1974.0912889749295 3.060885558374133 116.591757511713
-7381.230761824866 69.37835134144024 -1216.8590012303039 1863.0018883648586 -43.98497726545358 38.377673543896876
-6107.953430155908 41.323389426147784 -918.244634603421 1780.617419003221 -96.73972359193493 -4.049673461008016
-4855.9462757611855 25.645306916376047 -640.7245115493384 1724.6473920477538 -137.95030348181473 -26.176955018177487
-3665.618404837762 58.81501785890159 -368.77128855153137 1717.3408935227305 -164.80892235015864 -34.83261624438655
-2422.9716795495574 246.09839310821243 -12.131514215767808 1811.6029840699455 -181.12123807679097 -14.305128830980744
-1179.6700602429103 -216.88740284580925 197.91816483852202 1692.4847414131746 -148.32146564361838 114.34453656864308
-1178.4580856126777 -2220.956087032795 -330.3223080460226 1130.1795835670105 -103.13107163153013 562.8461050553642
-1308.8350486082165 -1022.4516346692391 519.6004574914114 -614.613502833983 183.5240732321059 285.8846666338474
-2253.376237525604 -259.55701726767404 280.04390656603175 -955.9237478712993 295.62919400299313 63.13229032404061
-4599.149533934012 151.20899061910558 -250.5687247060531 -1039.3959796383674 416.5976650117358 8.49203514169142
-7186.55517419512 72.18379093821412 -893.1119920308254 -974.8258613079627 407.23506194888495 -22.45177382972168
-9686.027244399946 51.10495665628609 -1450.6090036894445 -977.4083920195827 339.8523609046837 -38.594316590959664
-12183.977483580404 68.82589246950327 -2005.6385496661512 -1016.6366097245934 230.6026246492934 -44.95436142555506
-14732.261783850032 87.41734712098254 -2619.72936810425 -1071.3117231354847 95.71552542304009 -39.05559565692011
-17224.737413086663 190.31680141162815 -3260.800158930091 -1118.1590661535918 -32.69453953579513 -12.343659367372162
-20565.595730408382 -106.27036281072786 -4347.639432580798 -1243.1265491448512 -100.62046733712126 44.72155956836312
-21028.669993246724 2269.862271347508 -3831.4805556322367 -1688.7579865795965 -27.60571568985109 198.17538051753985
-27731.0919705979 -14708.062895115148 -10713.081522479284 2.0810908350997277 24.501781717028443 480.64816676064913
-21042.042452286136 2268.7287209094875 -3811.372937137394 1693.1107267130797 78.35141106221776 198.4037155195244
-20592.885542361815 -108.50984352929035 -4307.5309396103785 1248.0808916933213 156.39869656425307 45.028752676643975
-17266.605502655155 187.06964678154787 -3201.2451792458824 1124.224635751907 96.12521437939078 -12.335934765897587
-14788.491726669517 83.39682897525543 -2542.478077433694 1079.2164026682078 -23.445165982228783 -40.13488301408891
-12251.44615342542 64.79405548198646 -1914.765776881167 1027.5582567660322 -151.01094453021992 -48.68884000211961
-9754.928164981868 48.82021011617424 -1354.120166715405 993.5654398729704 -259.20079482686793 -48.084159921958864
-7238.986868956835 70.03558148748425 -807.4430089364201 998.4485917602586 -339.18183970659 -42.413043601136856
-4623.597986345624 133.93083814197055 -210.11902243052435 1063.477046198842 -380.76442709720993 -20.97011992076698
-2263.8291254999476 -293.30384699723356 231.6208941563995 961.2240335596908 -297.73251895038663 47.53996879038919
-1306.1816084360512 -987.6360809521003 390.2819935084914 603.7315384802233 -203.33070697962586 336.2769829057802
-1462.2443975510216 -594.1646069249713 858.4620762713369 -239.58123529146263 353.6111920072447 146.7336828573578
-3160.7465654988855 -395.64405335295567 284.4398629753895 -382.7022321418493 487.2696652973707 6.69012756435594
-7003.494914768743 -394.05886614112774 -684.7743592910174 -396.6104721552311 622.732493086366 -17.809903219664506
-11191.503048912673 -772.9432072704399 -1756.8434768701889 -381.9480880157365 581.6501221107767 -43.69556726148087
-15081.003004430308 -1087.111339438119 -2693.1396433844643 -387.2986179305886 459.5719071159679 -65.80310553951642
-18915.919008134188 -1361.0644581277154 -3641.0794459435383 -407.86828020654 276.5528058189605 -87.54068424000818
-22838.568543108075 -1681.530901635788 -4715.260981688467 -428.3377859845321 53.96105561575074 -106.9962332581926
-26667.276290894042 -1791.943579035545 -5815.776427456313 -473.8244278929818 -165.86140829607686 -121.39589118698615
-30465.390738261856 -2649.636413742416 -7269.81893262065 -501.22370625451293 -308.4221042342321 -114.76347022769335
-33756.41029020853 742.2492880015476 -7448.73709195016 -1103.9057852972521 -294.5524909403064 -71.00632140648938
-46779.09984934911 -22246.166975391407 -18346.06845310638 1.0823373195790165 29.981502321676665 336.7418849343951
-33770.43147239696 741.8943386321303 -7422.976065934219 1106.1821170635494 356.59412360919845 -70.5109882083961
-30493.74944784754 -2650.2077162909354 -7217.9937677735 503.8478444256619 376.4807188958004 -113.81147395000644
-26710.068929650362 -1792.3967939813283 -5737.622621765493 477.0805226395679 243.10291433520467 -120.09932339995513
-22894.36646213249 -1681.1808596769806 -4611.2772418040595 432.6003169372447 33.93304206955614 -105.62079448679785
-18978.519777056117 -1358.2489272563157 -3513.4379930528744 413.66789521563294 -179.90796378690249 -86.7025540484602
-15133.211199288524 -1078.577329722991 -2547.0064872496696 395.5408930592558 -362.6227481264115 -66.89861142558809
-11204.776487283261 -757.3806741204767 -1606.009867608415 393.4064280327008 -503.74287906419863 -49.123680894549125
-6968.0301524973265 -381.4787102246637 -566.6998767035668 408.54333211873364 -592.1955322680233 -27.252400345664853
-3116.184616887015 -390.858474153249 310.95335404367535 387.17122523510926 -508.9329798911043 2.202509959413039
-1434.2608889401818 -562.3158274116633 779.6069880011705 236.26718229966565 -397.63612218534684 176.91237725957393
-551.2083193427233 -12254.910775298289 -3841.8357283923033 -1904.7836954611091 -1016.1880353352121 -359.4690302718677
7224.2917913481915 3473.9489314591497 2530.7967437752072 -851.5154433734568 -1096.4826721589945 112.66887481178878
8390.581261253026 420.38300243791235 1106.1609340570346 -304.300053233039 -1028.4687081643212 -28.14984622418201
11880.292871097743 1030.263033355845 1686.433293575388 -330.7644876307006 -913.8886079730353 19.253707224523872
15705.54670222872 1210.3224375749605 2254.4250151427427 -328.4997659684205 -697.5131675360611 1.9759018332002665
19655.050871096682 1545.852240259033 2964.5015303024443 -336.89376696553506 -417.20239833383084 -1.344131530858637
23536.846473557955 1862.2253220272175 3727.559873751053 -344.69084243692834 -64.86784543479946 -6.307536120326391
27362.68149149079 2201.989530241569 4596.289054849957 -363.0399621346189 324.29847359236004 -0.49982556716875415
31127.433705573527 2538.9268508090945 5604.481586440596 -381.4557807669847 627.1020118602773 40.93253373381623
34386.525112532836 2687.1477702897455 6576.965574576483 -307.1458555249786 573.000581417409 157.23391336600693
35710.507685941164 2495.3683824826694 6942.523303324587 1.0339091322655278 -5.4247258100173505 279.0367896477562
34393.70325271903 2686.748216401205 6574.945352890318 309.1975459680615 -583.2398654233227 157.9496642947508
31142.801838636293 2538.141510683709 5599.910052435271 383.43170066410306 -635.4197100772707 42.338729183863876
27388.71200215621 2200.8924724851145 4588.050345622801 364.78304197665364 -329.06918290230317 1.4604311534930314
23578.701512698433 1861.1406384561442 3713.9798499279555 345.91015737131465 66.15147641437437 -3.9754590001411376
19722.31599415961 1545.2543977649102 2942.848130933122 336.96059168347983 428.34828161157424 0.12318766084383537
15817.594460799099 1212.241677451929 2222.5270749445335 327.2049701848902 727.0390580379093 4.037876270147381
12064.324489059782 1034.5547853963376 1634.7677501731594 324.42560851547745 964.7589448722874 7.4674729703775755
8753.621769080779 448.8796449219725 1070.4798272434768 292.5378662348958 1161.3335547977833 5.558591307830583
8078.351360240718 3583.000349709354 2539.5457732007912 844.3753661053194 981.2374042738272 -132.91025831411108
1127.7257150826447 -11607.5807695327 -2734.4703288964192 1125.4947957241702 828.9626435899934 662.2478651926389
-1813.5056701900446 -11189.95781364104 -3390.9427227215474 -1222.3511024199968 -171.14020667040492 33.68428646170585
3800.767176669022 1851.9306174300618 1337.3538988752484 -1061.9344295734256 -368.7163629428946 102.39591038976761
4784.929873556372 -100.2900189736909 430.368022827847 -836.087784041071 -627.2792455517559 -6.72285904203634
7684.701312525778 116.25560862075402 852.6818947791237 -868.1401483056719 -526.0212278268756 9.054704777458774
10119.265091902675 59.91942142446746 1117.9101770219613 -894.0339666130164 -391.9795240136433 -1.4233316424105418
12655.08565931223 74.53953971654532 1476.7174756266363 -898.9550449995403 -213.6129127190141 -1.7448451452144917
15151.202754167347 94.59814765296508 1886.618666709095 -906.6916929232508 -0.42037327381975553 8.579369206917182
17590.604872811862 137.06477179258863 2367.8555301758593 -930.8931089786515 228.58957093330477 49.26089968702102
19923.262405230576 149.87795568641056 2914.650033598429 -965.1255486633042 405.90793357432295 167.23044143855486
21789.96220146005 -169.9951450111237 3335.388822238714 -791.8871864343048 374.0919028693396 424.6234923108131
22347.766730110732 -903.7215634587241 3295.110162641771 1.496672755051911 2.089979644108152 680.9719634536046
21798.08350031872 -169.67478520345298 3336.304680978389 794.8345401195828 -368.96077938862624 424.77757240550363
19940.385505729882 150.5084781420477 2915.9453774384456 967.8755169106907 -397.8892032861569 167.3680520760247
17618.809989435544 138.00807149024547 2368.3572744312473 933.0973564543276 -215.58826704680416 48.94279448922722
15194.512004779726 95.8833759670789 1884.248529706407 907.6417007049739 20.804835397954765 6.925370067799417
12721.372468238416 76.34535440920338 1468.447680002905 897.3942536979774 244.82840308707165 -6.553765352400301
10221.87708996363 61.96129812467389 1098.1387840531843 888.269243023931 437.805354809512 -11.468922144276666
7857.734766017265 124.61798565130204 821.5074369972547 853.6520958466602 597.2070178651265 -13.69496643230008
5082.521729506062 -95.64428257469507 374.63114604152094 799.0723815555116 716.901418699701 -27.17763094804602
4106.356485197526 1886.4808174378536 1276.5884811493318 973.6336052676513 392.4910025088001 -74.54786084103846
-1550.9868876812363 -11170.971744498698 -3296.0132931869093 725.563908525069 117.37628248232315 698.5999028785659
-1684.3984902534914 -8126.215075038747 -2220.7863416426803 -1613.2979301736937 27.13682458037243 673.7559693713156
1658.7298328516242 622.8681378584112 723.2312470631964 -1844.219813127851 -84.2842093667535 101.25881114675312
2175.916620866379 325.0820791331087 343.3399707903839 -1525.1185016543934 -253.1225059255454 30.874702923627147
3695.2112477879746 31.31553017805459 400.03782428033264 -1568.409793632701 -214.98754954885916 -0.4283299680516448
5060.783569032947 56.993212498802166 569.4322553705634 -1585.4079114774559 -136.2556423164445 0.3346461649092065
6314.6058597327265 59.10153447701959 734.3741912846001 -1591.6077994282166 -45.97421471351268 10.234348874961675
7552.33801608783 73.57531119283863 935.6045851075829 -1595.4200904601187 58.37089884096179 45.03989507785692
8729.514597454157 128.73358192065075 1177.2963523339206 -1612.7544486749907 176.8678701102345 132.16812244943046
9885.295411841451 199.45150574422587 1472.8557955204062 -1668.799775839199 306.69738901816663 336.81766940576296
10895.4917884823 -335.67352396667553 1607.319309435456 -1443.3942485165992 340.8516527981023 762.3650879742945
10821.110693546332 -2077.639826462991 1090.6789294010377 2.1953425927190615 8.755546316490094 1254.5310690717783
10904.202823001562 -335.2249377579021 1610.9600463252052 1447.7002576717607 -322.11920747962944 762.0084119338774
9903.367906286678 200.32697255474508 1479.6333075674102 1672.7523502325619 -284.3290725731981 335.7924637446103
8758.389955497307 130.0025754957031 1186.0343781525903 1615.7573991161926 -148.55180889204354 129.715994221841
7594.781648500315 75.26154204450211 944.193317486853 1596.2455060024504 -21.96057022325794 39.592760913335674
6375.740345305107 61.038645790352696 739.1704323847969 1588.0870687442357 92.36025115931776 -0.92563324607785
5151.1714372336255 59.62470074226465 565.4408243129405 1574.0807607040242 194.56057911306576 -21.766995988512434
3837.8415397699673 35.46615869435586 381.0261439648737 1542.6249452427592 287.37269250956626 -37.150605015367056
2343.224525177324 317.90720763157975 282.4321334994829 1464.7990609146325 326.36811832274316 -42.92879295163602
1823.5259134679839 750.3175784764428 683.7956456250165 1722.3211561540593 99.24296918783439 32.01120640876101
-1610.5183670698436 -8116.531810303119 -2267.2894068507503 1473.5371651498135 -60.647089780469315 944.1601342223555
-1398.1480306159892 -5142.15204358875 -1122.4293447795044 -1525.4047211558 87.61357286428645 738.705577860822
63.59268019076718 -106.35782880472914 393.8681323011914 -2026.1302709364845 83.66827774226411 181.6336192890034
-235.30270659417522 360.9055168654878 202.91775570092906 -1926.5140572790647 52.345338013598976 45.82785529671881
-142.55390249960618 40.310519873955315 42.38944478094181 -1819.7483210685557 73.1750747285181 11.336808019145785
-38.32085482574154 -10.701469672466907 25.35311589619635 -1819.4896382985687 98.29271927027436 9.714656938554473
-27.809108316034163 -1.4730299549890464 22.348546876715446 -1823.531852091454 111.54996190233223 28.796086020521464
-44.624687204118835 -10.081447735613203 19.659207905281697 -1827.8111454891512 120.69010467161225 74.98570332921591
-123.90670172902537 27.30612409881566 22.58560047343756 -1815.2160622290571 144.15101564206304 173.86476865272653
-105.60370673285561 206.5148489984848 100.37654605028611 -1873.296863936551 244.2697039803597 386.13475831737975
242.7042182642553 -483.9925519228542 25.24619587079972 -1833.5257864823054 377.5813669971467 849.9444075860306
-685.7690065178483 -4125.107173057102 -1293.8450221386345 2.3871572458860477 15.082830886400622 1610.7235362915549
251.96090939089356 -483.3944478429182 31.656160235065535 1838.204970524987 -345.9465568491977 849.4395668870953
-86.72517802749836 207.68587550129638 112.7413769656014 1877.5790305698956 -208.33336111091734 384.7679090169248
-94.68637139707936 29.017597429875188 39.792753007340416 1818.4299912449055 -101.44913103174575 170.76061731702316
-3.8599451141484025 -7.860610316801434 39.53548332134709 1828.560535908651 -69.54162948091029 68.40318195102734
26.807341011485374 1.148862624260639 41.09145960938499 1819.2137050848978 -51.61217844824168 15.418637140683858
36.48618886296211 -7.67664888422809 37.322420664792986 1805.6925735558168 -31.009058541544004 -15.851708674250666
-46.10171285075284 39.35130400643016 34.868641170913996 1788.7968905427858 -2.870715554860332 -34.939356896543664
-141.15093672474217 377.24696142394026 164.37730376772862 1864.427215924572 2.4974192516873703 -28.887063252230792
150.6568715322006 4.50784437381909 357.6556163541875 1961.052645916098 -79.08221769515755 136.56798088422516
-1396.3207790580293 -5181.9568281535685 -1214.7990522831483 1480.1552201257366 -114.67824345376515 900.3452961615728
-1265.162040757004 -2731.590997559597 -251.54266502339448 -1154.9448219248936 147.80042947117474 638.8928233303667
-1227.1021442454748 -381.1918238648814 261.3718703951047 -1716.4137047745887 238.63309974662644 185.21977892787294
-2545.0651177271216 239.7248360323376 33.379203881392606 -1774.3471348259516 337.24295001386884 47.584608218414644
-3882.0333717938784 19.385696406113656 -299.92027754192895 -1613.0020651805876 360.3963798809125 5.830440451476453
-5123.550853983169 -56.59596989206785 -509.4473347239693 -1579.6212920557105 335.44575356828403 -2.104694761673276
-6386.433439744549 -69.25208291371499 -697.590652583337 -1587.9048495101313 271.16237202896025 10.4853622859652
-7622.359559013776 -72.0125125825713 -884.3225077725142 -1591.6986245273952 186.8362469865946 48.958326488495985
-8931.25086952814 -123.33718815721127 -1131.8943091037759 -1577.4779503057796 104.14773773576411 119.49352086942866
-10135.974578872956 152.67278705089814 -1302.2452144715287 -1551.013241111676 130.06262788250498 270.05704494393586
-10247.995996147534 -84.38208857541883 -1376.4472769920903 -1960.897367792193 401.85773950864626 621.227615312526
-12625.026862070717 -7148.184258023043 -4158.013374432072 2.247835518320059 21.545277569225373 1684.673892073069
-10238.173540223252 -83.64578855124964 -1367.2330380520175 1965.3219683163577 -357.02851942230797 620.9464273626305
-10116.250766757757 154.12580115967256 -1284.20653763466 1555.1260535198464 -80.19874263497405 269.18333875351345
-8901.637481240352 -121.2019077188951 -1106.0637566593864 1580.7126840786927 -46.59202614688842 117.26750090950404
-7583.260967786972 -69.24816737216828 -852.8973597114726 1592.8359624071686 -120.31558852355225 43.84229234815259
-6338.441613158826 -65.86489583357168 -664.5567972261869 1584.530695924258 -196.96256224412835 -0.4505129037588125
-5067.7331692662765 -53.780383112978825 -482.09970472408594 1567.3980374979524 -258.73632580674865 -24.219160877484313
-3825.028515240831 21.50680366458063 -290.4879612377356 1584.8189367944155 -292.01868125335164 -35.522993826564075
-2500.1193202884842 261.42794660501687 16.57378915857762 1730.7598132388316 -296.5084652799265 -12.986818404919662
-1189.7358712460727 -312.58686574488 229.35205250017086 1688.4640327714799 -240.1323364622225 154.21287821409476
-1284.1199770525764 -2775.3363196861947 -340.3084195350539 1144.5086174950961 -170.10542049754463 746.0890058250167
-1353.9326921414975 -1211.2686448632649 329.62419204695465 -603.9789950002374 264.8743595594005 414.72743880293564
-2314.515358374697 -393.8625268988476 252.23940285704933 -959.6161077017824 441.5268128525917 126.05556897267095
-4804.675662333217 102.94477119545408 -151.0444336420827 -1023.582358235882 652.0144903858941 43.449544298876525
-7579.696739834347 10.556378642647253 -656.9171756141875 -917.6901833365038 676.6729134090227 6.872281374493191
-10202.492546924663 -56.72225643872228 -1067.292811774669 -887.7177337275157 597.0796935537221 -3.175651446271022
-12739.862244030559 -79.61109304503213 -1445.712948462469 -894.8102353656561 446.85507585150856 -1.7865212998416684
-15235.540597618172 -98.32609368569776 -1841.9024844335243 -903.123246318045 252.37611123540754 11.24340637790193
-17560.89969205596 -57.319171205225 -2227.954505023791 -886.3573199660289 54.247326345941445 45.52273305939672
-20290.212301622003 -329.139168912009 -2930.4675177523336 -914.3305917131123 -121.49979476908719 71.39982236386096
-20628.21459804999 1475.184522284067 -2520.830020323029 -1238.480885391808 253.59220703769574 232.16942882363773
-25582.898269724305 -11019.20224612736 -7836.866038498215 1.558914337468142 28.618545312938494 1240.1331145087127
-20617.746763439118 1476.0260643792876 -2508.7872113938324 1241.5709229067804 -194.27678146717273 232.4431403968146
-20269.44363913987 -327.47067887904035 -2906.699603010023 917.2779415195887 186.80114112662682 71.77735498310199
-17530.480123166948 -54.86402828830249 -2193.404472914426 888.851039112594 20.069083414758776 45.57638315964963
-15197.2267009798 -95.1404548832973 -1798.764974572462 904.4495794741451 -167.95304470532736 10.088171685599724
-12697.537107159831 -75.96355943235376 -1398.5014834566748 893.5196229928405 -354.9798921759544 -5.931350583377014
-10163.841093733057 -53.37683586900137 -1024.3770662170637 880.9474629836556 -506.7280355174745 -13.861568414434524
-7555.875475052297 15.425608034511615 -630.3236229006994 901.7592345215464 -605.2487899312852 -15.648002275570953
-4799.761661498731 120.91824111590685 -149.80615355973734 1002.1228776996098 -621.1207656509822 10.385690849079774
-2315.293421377202 -361.2304333325102 227.53811025627283 950.1329013960683 -451.32904901123663 109.8815722967493
-1380.669293489639 -1238.7643178942762 260.77642526701067 601.7911267051607 -290.14636402389084 476.07568611173497
-1453.4221625120408 -664.1740602880657 698.4434934738576 -231.3346230163088 506.3929701849458 268.78281047164313
-3189.4807538161544 -467.9525485796867 288.30409631287654 -375.52738746756495 760.5330810774419 87.63393259537577
-7253.538168778279 -449.4113975494686 -559.0766929730624 -368.7975925600871 1058.413276464545 47.16344101441304
-11731.287091751636 -862.6531940267809 -1478.2626560354768 -334.40623138362884 1067.150046693674 19.537669068212526
-15826.475952975868 -1230.4295922792678 -2233.433560254808 -326.95832442815873 917.5204488228678 9.721239667200745
-19753.925395063543 -1547.1953497306404 -2942.520960961561 -334.568641639617 660.5699273936862 3.152460936376862
-23640.362542938492 -1887.3533340263637 -3697.017911610017 -338.830509633436 332.33769276727435 -1.793887789474013
-27297.106677308155 -2061.35120423565 -4421.532988172023 -354.1925426784136 -30.682882345139177 -0.9027653836181528
-30574.01697290603 -2756.881111443296 -5334.460051564464 -364.64568997294293 -404.4193469395743 -6.599513325137167
-32709.870945215353 -133.5660066481802 -5284.918793004611 -883.9283572991295 -603.3297824811326 -142.94414737649666
-42260.129427247215 -17307.5522023683 -14055.969968398504 0.7483515296800078 36.82026007438578 1318.6409887727712
-32698.381241487914 -131.97111350160895 -5269.764101992636 885.4269767840315 679.5112008054994 -142.43072569924684
-30551.367170453213 -2753.7125158713493 -5304.400883920033 366.1266709195337 487.9238537190362 -5.660871993638004
-27264.37063594761 -2056.6835419458343 -4377.436521776219 355.5519294004528 125.22756267084445 0.23832393492780213
-23600.26786180858 -1881.4040993659842 -3641.162427176911 339.79421136213534 -225.4074412159241 -0.9084353536853165
-19712.930872135075 -1540.7696985019293 -2880.1276578283164 334.55505987409595 -544.6388008242535 2.8465275069159155
-15798.477813895359 -1225.3984617094916 -2174.935768911383 324.7379700625673 -804.6900486693105 6.335476344232166
-11736.565429406886 -859.8359960413019 -1439.3594286138493 328.3352109431989 -982.2323200475266 10.196283445885634
-7295.629283930773 -442.63906772758367 -551.508226632163 359.93598175007486 -1033.1350976465221 32.93338956974817
-3233.6692144844124 -457.44750665881577 267.22692509113017 371.08433394757844 -792.4901205967827 81.31767222684168
-1499.897435389974 -684.7632528628535 646.1069584192489 227.70904242455774 -558.989563548701 305.89869187563596
-3648.849201458547 -20240.215596753533 -7166.719439463619 -3703.1598470675112 -1526.6890096084742 1923.8089392210004
8064.062370746111 5187.44303474657 3338.3464057547694 -1645.0158505501713 -1589.1023420899178 65.42330283100063
7976.91822854824 231.48592941848057 782.1984688327168 -775.5050572912835 -1552.4426510172696 539.6584529931298
11538.269877673969 1072.8088901380354 1420.938272282244 -799.7175021816577 -1381.3350725862629 585.5499335978338
15578.393215164611 1196.9525716656071 1908.0119437269686 -753.7118879735432 -1234.4132942738045 804.2129698085384
19796.084069858724 1573.4134395978647 2552.730681552806 -683.8579219495475 -969.5606642293062 991.6964589579283
23903.185873667542 1905.2789835766093 3194.397221439554 -571.2336857189521 -604.7261964401904 1184.3441677142507
27779.11378410291 2215.257730438673 3846.353365628573 -416.3973940988942 -147.39434680379034 1373.6452454412367
31042.812438791665 2463.239913378202 4443.966391450163 -216.72333322046404 298.4058795636506 1568.7890702987522
33171.58090872138 2710.78650641484 4905.435557788119 -40.26837282610853 424.84813062852874 1778.4638372047643
33952.2260271056 2989.477796332406 5154.009399092799 -4.932169758243816 -10.212586856528421 1921.4794711746806
33195.68652525465 2711.071515787769 4907.220119122711 30.147950885938286 -445.09392593718405 1778.95995308613
31095.79320497746 2464.0303698624502 4448.160449315241 205.83498204785522 -318.0591146306136 1569.772480287139
27871.115611340276 2217.0228630449215 3854.2037641205766 404.2111659150961 128.9737088194257 1375.1411741442196
24051.189605235584 1909.0570890185295 3208.0282950837473 557.2615452843775 588.4844139825364 1186.1504198771254
20024.29115146655 1579.7472008010077 2573.577234416227 667.4117545076272 957.5833792925338 994.5354040603726
15922.759992594061 1209.8130516066067 1940.7456022113438 734.8620081896739 1226.7522881857656 804.4848244223269
12037.979777904564 1087.7715855395827 1451.2252884430657 773.0309523783028 1390.1717352809462 600.5397872094499
8829.132341701397 320.5202017564341 915.8300175307912 743.1918413328552 1528.1345584933024 489.88349316400496
9911.568149845212 5513.679550530651 3535.6030472943953 1706.825499283525 2043.357396852676 359.8989376898256
-152.581305620188 -19302.819155460187 -4405.09144315016 2225.934324847688 2676.494728077845 746.1631731797031
-4045.654042743196 -17555.967943903004 -5293.182051857567 -2376.903878514672 -1261.3744297524454 1105.8841337988863
3855.2974322057157 2811.415667351903 1583.35270066014 -1969.471386709745 -1056.187033362825 331.7038947911973
3977.5563770048293 -268.7425791877416 25.971848822082258 -1638.649036139021 -958.2978957407454 581.475460533452
7198.1175931442185 49.987898626026464 494.3177151069292 -1659.6611515246038 -847.2991540721761 754.0433090338228
9737.964282613775 -60.44556649072499 679.4017888762105 -1622.3287380954375 -735.2850261429078 1000.3956823897627
12425.983120772982 -57.119272056494026 948.1381189645017 -1490.133493100413 -579.4158754629243 1246.0537062537626
15044.705724382635 -57.056629444050174 1235.0874019930484 -1294.7366026534314 -362.5530522150407 1493.121615549904
17508.615675790814 -79.39819798157512 1532.963946306534 -1009.723963392171 -94.88512339425291 1748.1166529053353
19595.372892562227 -103.89630354660807 1821.1950377909604 -596.440833948523 168.7386965147863 2038.3797888086349
21036.736836433945 95.20917112374131 2114.877428459644 -156.98246193920278 251.6473847340534 2402.499692983072
21713.734978150496 634.7180093603907 2405.087140363623 -8.793884093689584 -2.446348556626914 2684.913757491957
21062.86777525695 96.35862102246635 2118.526951085651 138.83466470423966 -256.05298149707835 2402.551753321962
19651.924734562923 -101.49949077513733 1828.9210011039313 576.5848243551828 -171.66704089369995 2038.4174102849518
17604.50864591247 -75.55279837290718 1545.5791957047538 986.9182090685483 94.43888215336085 1747.9987011383148
15194.038642611686 -51.55547116319788 1253.4507132361537 1267.5977914903142 365.71260192845284 1492.5563656536879
12649.013725704208 -49.9582075473173 973.1410234427979 1457.1176653133957 586.9246590741159 1244.8168177513808
10059.716296750123 -52.82354101158556 708.0798363537544 1581.8244591950272 749.0429548289061 997.1763390503182
7664.483791599999 66.72837443170567 535.0032192594282 1604.9814192415008 861.3225391854842 753.3868282284195
4631.085633989783 -255.0566664162754 42.192785093235976 1554.2551434523293 997.9452240947671 558.8343146527051
4498.571437847405 2949.683404601447 1649.5392284272993 1857.6239625888825 1207.8093624934022 475.7792688188176
-3750.513929219517 -18130.15419509803 -5089.035781968041 1487.3967694949747 1493.5222869369807 449.17197758004727
-3223.9196763195614 -12235.210442879603 -3339.47017946941 -2790.6330455318935 -768.0831139722396 366.2679728777757
1322.9829097133181 858.049287842696 716.5242134789477 -3199.0679122087167 -601.1053340812766 515.5107343782477
1397.12987331774 393.6594027564211 68.05543239982718 -2790.336731158872 -473.69052030380834 663.8778319624105
3084.794147451722 -65.35272356069763 91.57274421242262 -2837.88423051064 -384.14507477568173 961.7138678153163
4626.435224964419 -43.7535096487232 261.4357764932379 -2741.5014378664728 -314.17610408816375 1269.2225473970661
6000.443962761989 -55.57314801582146 386.6565208333203 -2530.5373565526156 -237.76031397039205 1592.2471538479417
7368.4253241467295 -46.90126771983877 537.5362443984562 -2216.8438050613368 -135.22398352754053 1918.2194577954801
8683.399331914065 -73.14061025680999 697.7175333037875 -1760.964720752008 1.3150448491114561 2262.0646238071286
9804.078531965832 -112.64324580876544 844.2784721856565 -1057.5678845360417 174.87723641761173 2666.954134015603
10566.08746123431 333.037896541944 1075.4550993427563 -228.25493317759947 267.3042733195128 3219.7609295059337
11266.168888595806 1777.3345095404857 1633.6988122613743 -14.052729697320032 3.759890452324207 3740.248719139401
10593.065327494953 334.3873756858997 1080.536909884524 199.2171280383127 -259.0420891593717 3219.4708261673413
9861.850714859424 -109.8537694233592 854.8059426435685 1025.6780133089046 -164.4250035639157 2666.2870384925545
8779.622907552483 -68.73997205694263 714.2797743538858 1724.119767612793 12.648803593437975 2260.8109966616144
7514.731674455442 -40.672845373505055 560.7226088604315 2172.6105908110812 153.6735057019257 1916.0399672838548
6212.092248385881 -48.09903142307837 416.0329467892952 2476.050109568883 261.06814159988926 1588.3831764122576
4922.036891740361 -35.80271457106966 295.2314886456252 2673.1845905961027 341.1528382783229 1263.5592432800377
3481.0221758558646 -58.527714498376696 122.0426598734761 2746.6154873288538 411.95135304827085 950.438754283713
1793.5349997429919 398.87575400366984 49.831225023388704 2657.708247381933 512.2598631343873 666.3701803712675
1696.242313434096 1136.5365922568637 790.7800516806552 3022.26910440651 658.2312102483462 523.4266606723186
-3208.54557879404 -12694.230217817176 -3411.7015777416946 2637.7801712731784 842.8241020496572 350.0600912654681
-2358.664848446786 -7393.512973472032 -1766.204147090649 -2580.6326355279834 -346.48984511457513 129.1622368017552
-412.64809988159266 -171.60236266125645 275.6734388816716 -3383.10323937162 -196.31229247062822 447.6907975599667
-955.1567158164512 501.0222575935725 30.754061267012133 -3396.6777233638013 -30.965174509532794 686.4147051619562
-753.2055323393602 38.017900306860106 -119.36585118888438 -3242.7044390973015 51.470359557526976 1011.2760369821017
-455.8701502283116 -32.78684641372118 -77.86065925732979 -3109.395046871553 75.85329132931098 1347.1775424580767
-301.5872609218442 -13.337345310106123 -41.21009830092943 -2868.4047230787573 82.50262142672368 1689.631835783328
-157.10484375511527 5.017451543164661 -2.7139109398684838 -2518.169502466317 88.53546637319289 2039.6654017462795
70.49289687166532 1.0098949814222777 57.603626374131615 -2025.784869429696 111.55967228477284 2404.266567712179
277.84189158761876 -107.90541857845356 70.54595435220413 -1220.1940318242646 215.96929907433716 2822.4460669630066
284.58641643013436 530.6793873817297 196.81100665315105 -75.59209699479034 351.08097049149865 3422.5479975977933
1282.5772763815476 3764.2417257190023 1338.5454425620364 -15.777989063951964 9.337265119019236 4195.878149517347
312.0512162389066 532.2692790833718 203.29325625017748 42.96074516814133 -331.42518745787294 3422.151997017442
336.06709659776135 -104.66875843303228 83.82612685766595 1184.273391432015 -193.45149566997443 2821.555140388236
165.80658148249057 5.993590580752091 78.13969322892358 1984.1549868780503 -84.60017799953297 2402.6552060542667
-15.926208351947992 11.754716024656155 25.267678508808167 2467.988257016224 -56.24282085712977 2036.892427993379
-104.5831107659329 -5.675431024490891 -6.751564939994502 2806.1101369866883 -45.373638426634 1685.020423751078
-193.90632269672773 -26.567336279619127 -40.48524191264015 3030.076556760478 -36.83218818225734 1339.5460820657195
-450.1154540757574 34.16215817472839 -97.46246899833993 3139.0124784167288 -15.154978565317098 1000.6970733965709
-688.3543967650403 551.9140869892947 29.474165775130984 3265.8390112013603 60.965758555993986 680.5986898483186
-198.16206605441675 26.477135667804532 311.3723995534029 3306.0458855721777 221.48816274774467 460.23107559129346
-2403.0259332262563 -7748.479975862347 -1880.447610725704 2555.9898246828407 377.783501294863 202.44367675070868
-1852.0367047622735 -3700.76212047685 -652.1533638610174 -1961.2945691739508 5.086675472270018 101.98641009579363
-1740.1581054384017 -492.5167511842593 89.55243647080093 -2845.020677068831 183.92062071620794 347.3703422392586
-3208.0217558109484 401.66575285018394 -59.90718340518861 -3125.445367728788 417.24755102671634 634.5876351828144
-4462.818149718503 92.80368976077013 -313.0531877467821 -2912.9203574443304 494.93632388633443 952.724208639559
-5516.807979051771 9.690677607885071 -401.4762947505164 -2744.0714421965768 471.25398097755544 1272.1821462853793
-6609.401701281165 29.54869194188418 -471.08877268687843 -2528.899726913105 404.4937099249057 1592.5242955924925
-7695.8415082746515 39.55924972754443 -552.6612719145991 -2220.587141021916 318.3417551904795 1921.6741191337674
-8569.695931144093 113.5985107340612 -576.918975854744 -1781.9548459166208 215.94750158416804 2252.2229214616145
-9202.473519880396 -74.70501386580405 -674.6378353936799 -1132.6383883179685 192.2199195072597 2605.0007622844837
-10194.012281346004 190.26759738380073 -912.8200017356077 291.15502884080286 392.90936955368034 3093.3851106953043
-8335.032864806866 6811.968141886546 1373.6406124730797 -14.201808301290583 15.038337194099924 4102.0183680428945
-10165.927804810843 192.13549266001542 -904.8892472651072 -320.5420570574122 -361.58650050481214 3093.121887459992
-9143.538380811113 -70.94944996364192 -658.4994053878479 1100.2493744805436 -157.28925522964707 2604.3921858317
-8474.943701550157 119.23287251107789 -552.2582939145208 1744.3761215192958 -175.51759989771386 2251.074109891134
-7559.560155089993 46.833338396411975 -519.7072286395562 2175.263445883639 -271.5866954561055 1919.612943922111
-6427.471984940082 37.49108336176348 -431.5481786079266 2472.4266535392203 -352.7374353441901 1588.900359838251
-5294.764130534583 13.518161555034773 -362.0748226749057 2671.733202731881 -419.3910543503181 1266.128038148111
-4235.478969038172 93.38122877171978 -288.5504281810045 2820.457721603298 -452.13085325487725 944.5148150466792
-3030.1588475457856 450.52754982127175 -52.25659667720022 3035.830887380915 -393.3093362509092 629.0649955072477
-1622.4327337546035 -382.3690101816469 100.86915694765904 2823.7958252955204 -174.1577885253924 362.77132141895
-1888.5041355972792 -3913.7583291234437 -736.1684498843149 1975.3155635473354 5.508023455643453 170.52014771494663
-1724.7078446942533 -1480.954132772564 11.127461834828438 -1085.913563197711 314.04510537157347 149.45250612603135
-2790.9535180044677 -460.3350060092492 52.465561232538676 -1639.1483519527255 572.7674175774944 249.36729024729314
-5420.973445317113 231.08775903382008 -208.67802186680913 -1877.6590930192583 913.4125366631181 498.60243304116165
-8163.787558552736 98.81818264475103 -574.8932317154632 -1746.0443730210811 986.5739135097873 752.3516028162159
-10651.780077482461 33.508641370098 -823.8511654823984 -1625.3794523970435 905.47073329906 999.5608627626679
-13045.06944914277 36.01093858588145 -1036.682478130645 -1490.1508501184712 753.8767357806388 1245.810518358313
-15354.643976463442 56.54136030211703 -1244.5569924901492 -1298.635127215235 556.0703715315506 1494.8550667033426
-17575.622349225618 33.356524684478636 -1486.7987817126843 -1040.5165623352866 329.27776008688176 1747.6433296642024
-18841.235824379266 366.82835183826256 -1448.9467608713016 -603.746886429036 3.429492435360565 1958.6384033809743
-21270.295437957197 -1283.3473520802409 -2668.237742261633 306.8983656347859 153.41660581822143 2238.0467018271493
-17606.30935334922 10875.0655980816 1481.113620602881 -8.985344771763465 21.62739004028419 2974.329173101649
-21240.927989082364 -1281.1993616772554 -2658.7268764287387 -325.4863658170676 -108.57847149677158 2238.1298365920243
-18780.24916016806 371.1200138303158 -1429.698993163131 583.2824087542783 45.97781137946655 1958.7612699695362
-17479.385978331386 39.692854671277104 -1457.6808572211712 1016.8387166919392 -272.96276478301206 1747.696817409047
-15220.375180416975 64.53243260569111 -1206.277368170941 1270.2174861951057 -491.96507852048757 1494.6106310739397
-12875.898889639255 44.068007002430605 -992.4840581301335 1455.0345001606186 -684.0215139346351 1244.8470516556513
-10466.496170948756 38.271122270612096 -782.2662431858348 1580.7387960274357 -837.2432853888565 997.3557646448322
-8002.882112079288 104.27129065822542 -548.470572988151 1691.981915096842 -934.7834779781724 748.9671105462204
-5321.277014139846 265.15109031642953 -200.42215459398815 1834.0647582940107 -893.6698080765467 497.15463826321997
-2747.287430096784 -409.56177563984886 49.40911252278214 1638.727180228308 -576.5957591393277 260.29399000941174
-1753.2118046650544 -1573.2241670206156 -35.907088434775744 1100.2289005212874 -321.60098848596533 193.88700139684428
-1506.5269635373093 -639.5014082766872 466.71106912902894 -535.4273281177258 628.7127830403574 180.37780950677993
-3382.6888843626703 -414.41443308703737 145.975821645784 -767.8084534761609 1017.0930449066043 208.56039934746536
-7746.990462820035 -326.52678238032325 -611.4421481364452 -863.2368048010013 1509.183392204567 414.07058617172345
-12444.976488552744 -846.2996997526329 -1460.3126354575616 -829.9992972164374 1575.6504203967509 616.2508195988725
-16548.573081496463 -1256.9514030445987 -2089.920669266798 -771.7975762309775 1420.2658676268866 807.9584338992687
-20427.744574402048 -1594.4498406745258 -2649.1261419917564 -692.4325572121751 1159.4933435983053 997.6494391527613
-24193.00641575836 -1886.1438551093634 -3193.125025005813 -588.3697607974347 818.5842676637773 1190.0481132259229
-27844.524050958797 -2320.1208273033544 -3815.0494506638397 -431.27811889648297 413.7959625744326 1366.008229814744
-31099.35264605796 -2163.1046415243204 -4262.41945625933 -211.04933186019616 -167.57241469066588 1574.3733680374594
-33980.040517505164 -5136.606763998914 -5991.745097089348 586.5446045778126 -1216.7672587896202 1413.896130484064
-27484.248835955605 10864.317540387963 -654.9393670253933 -5.8059529959600695 30.07272284975079 2915.858824276218
-33947.64912073883 -5133.2548846346 -5979.97492431168 -598.5388635660842 1278.966068665854 1414.065801341517
-31032.873303674234 -2156.541437722248 -4238.806601238031 197.91712684658535 235.69575028674225 1574.6643341462795
-27741.72133698532 -2310.7854836868996 -3779.878561446614 416.2768410294102 -336.72137809070074 1366.3104867038405
-24054.19352302421 -1875.243484061609 -3148.1375014061305 570.8419052705249 -731.416744658196 1190.1623209076076
-20263.655762185495 -1585.457414865093 -2600.197925768136 671.893226620837 -1064.9121518005513 997.2800844224575
-16394.64187125443 -1256.6946091053169 -2051.142114149471 748.0254170283333 -1328.4674834712546 806.9050676743179
-12362.466853989481 -857.5222790319517 -1451.5873221927282 804.7236965068951 -1508.599305136997 614.9360271079362
-7763.47865521968 -330.66002844104435 -635.8213624261706 845.0536755942485 -1492.7968387565338 414.91813158614485
-3436.9181529266125 -410.5746367550688 113.18990579474047 768.9010029604076 -1041.4790251332502 216.0676376422562
-1572.9820028454512 -695.6424368709356 427.1365716705627 539.768694184019 -663.047077436876 210.0220621331452
SCALARS Strain float 6
LOOKUP_TABLE default
0.020579540892005088 -0.0764799525200663 -4.194507154803295e-18 -0.04332697021120145 0.01786226141222697 -0.02250856458898453
0.02477846492345427 0.007950241808123737 -0.0028669734714834856 -0.01924668545140756 0.018592497402371653 -0.000765452643075218
0.03452765809071195 -0.010783120859050753 -0.007561452503474676 -0.009073409170319556 0.01816357901689206 -0.006314003900023317
0.04855565578016805 -0.012667290996735591 -0.010630734111245708 -0.009356694775534777 0.016161620349293512 -0.006850934223083991
0.065911067372382 -0.018220360392018277 -0.014060663065433023 -0.008818429089318309 0.014442635543073526 -0.00940929174675651
0.08351208375076699 -0.023090539436162905 -0.017361533570774666 -0.00800113768683498 0.011343859771547424 -0.011602848569806184
0.10067977355472273 -0.02800798175227652 -0.020466640060793656 -0.0066834341229239595 0.007075296498352844 -0.013856826762222607
0.11682283704878052 -0.03272572086517782 -0.02318381139927299 -0.0048718495109362665 0.001724513857594705 -0.016071649371636826
0.1303679274630327 -0.036822571810694406 -0.025235321913864166 -0.002535662998677279 -0.0034913487908381784 -0.01835483212248086
0.13899021430251904 -0.03920543295088982 -0.026366736000389208 -0.00047113996204527296 -0.004970723128311417 -0.020808026895289905
0.14179130940805887 -0.039340767741951756 -0.02667825786571161 -5.770638619462742e-05 0.00011948726622057575 -0.022481309812714637
0.1390958956564295 -0.03923910214881542 -0.026391632819348813 0.0003527310253286705 0.005207598933501974 -0.02081383145108741
0.1305996118164797 -0.03689620076898026 -0.025289039804104085 0.002408269289910769 0.003721291641210767 -0.018366338019372104
0.1172238643043721 -0.03285257827310242 -0.023275070001870374 0.004729270641179403 -0.0015089923931532944 -0.016089151737485367
0.1013222879550749 -0.02820918726483752 -0.020610205709369903 0.006519960079788685 -0.006885267643552389 -0.013877959912571302
0.08450232219415416 -0.02339825991736933 -0.017584354220707112 0.007808717527723434 -0.011203725537702219 -0.011636064227518509
0.06739916578413721 -0.018671573820811284 -0.014395618399733981 0.008597885495802593 -0.014353001771789916 -0.009412472445762593
0.05074326322080999 -0.01331545470461729 -0.011189250542675779 0.009044462142853442 -0.0162650093028408 -0.0070263155103468
0.03806202274171674 -0.011713358277100107 -0.008230795854791006 0.008695344543603612 -0.01787917433446659 -0.0057316368700292344
0.03238552516732377 0.006657876861271355 -0.004913870682687201 0.019969858341667784 -0.023907281543293604 -0.004210817570982608
0.03131906343291827 -0.08070982798901312 0.00644187912831388 0.02604343160081308 -0.031314988318639776 -0.008730109126245045
0.012640909301866848 -0.06639442701977662 0.005342870448620785 -0.027809775378919394 0.014758080828050458 -0.012938844365489564
0.011415901148030125 0.005309192823720647 -0.0018749755314095365 -0.023042815224521406 0.01235738829030955 -0.0038809355690319967
0.018226744182430497 -0.006614104711193342 -0.004890025307329124 -0.019172193722836357 0.01121208538015813 -0.006803262888246821
0.03165671659053409 -0.010159842122270578 -0.007560512695887985 -0.019418035472867322 0.00991340010266195 -0.008822306715710567
0.042985248371481724 -0.014335449245707751 -0.01000734221681 -0.01898124623576082 0.008602834805909312 -0.011704629483953162
0.054714048600110886 -0.018312100397870873 -0.012431344660420384 -0.017434561869320218 0.006779165742949494 -0.014578828363158838
0.06611083421675364 -0.022234475553077736 -0.014675432969194893 -0.015148418251085202 0.004241870710930852 -0.017469522901897357
0.07682645678081662 -0.026063424380769525 -0.016631105836650874 -0.011813770371688778 0.001110155943717754 -0.020452964839009335
0.08586082472528665 -0.029379900071969924 -0.018118115725093913 -0.0069783577571921355 -0.0019742427492144892 -0.0238490435290517
0.09168169885445904 -0.030826237987512006 -0.01901117868213276 -0.001836694804663088 -0.00294427440137115 -0.028109246407868854
0.09360807044946987 -0.029704178817794344 -0.019347519401511065 -0.00010288844390550066 2.8622278112354792e-05 -0.03141349096260884
0.0917928094662443 -0.03086126908590979 -0.019031584355086287 0.001624365576986614 0.0029958198835201015 -0.028109855513851558
0.08610164226657158 -0.02945588945165821 -0.01816292957413486 0.006746042444895036 0.0020085043784802605 -0.023849483700329546
0.07723575327021845 -0.026192606178853366 -0.016708984013496977 0.011546943046046785 -0.0011049349211735451 -0.020451584803333308
0.06675061531498236 -0.022436110250646863 -0.014801824071892799 0.014830894160373285 -0.004278837442536695 -0.01746290947816871
0.055674264964270734 -0.018614720845350936 -0.012629590344024097 0.017048276684140617 -0.0068670185111507865 -0.014564356767693503
0.044384127336733 -0.014774230714283907 -0.010322945956666506 0.018507346172577217 -0.008763802571509207 -0.011666963166902395
0.03367783941077529 -0.010769029779679298 -0.00802962193748815 0.01877828260516069 -0.010077473708503367 -0.008814625890280859
0.02112725159278682 -0.007456680864669742 -0.005717771573314739 0.018184785178447783 -0.011675959121953256 -0.006538361481449136
0.014034620915766008 0.0049736259212462275 -0.0026322175093847493 0.021734200362340955 -0.01413136954124063 -0.005566617445198587
0.014468593787591954 -0.06965230176807995 0.0066382409490014045 0.01740254220315207 -0.01747421075723372 -0.005255312137722998
0.006518180296705194 -0.04619787068757724 0.005842209853306253 -0.032650406632775054 0.00898657243344848 -0.0042853352826522475
0.003827748866894704 0.0011078871789600296 0.0002799654939691823 -0.037429094572870705 0.007032932408736899 -0.0060314755922148714
0.005663769402424611 -0.0002065328503224202 -0.0021113160768855463 -0.03264693975457346 0.005542179087550027 -0.007767370633969128
0.013846176635598567 -0.004582182559755586 -0.003664168573282538 -0.03320324549702029 0.004494497374881856 -0.011252052253464146
0.02052508745205336 -0.006795516645356208 -0.0050101593214471815 -0.032075566823109004 0.003675860417848372 -0.01484990380455221
0.026555035279084843 -0.00887266481890835 -0.006285621256152811 -0.029607287071756624 0.0027817956734643716 -0.018629291699996428
0.032495556740110856 -0.010884103822258955 -0.007465144376380557 -0.025937072519274955 0.0015821206072830333 -0.02244316765618518
0.038232118147487955 -0.012993640514237109 -0.008484120374362965 -0.020603287232810127 -1.5386024727714022e-05 -0.026466156098576464
0.04313064583822442 -0.014882176561748275 -0.009284184511470167 -0.012373544249057957 -0.0020460636660910077 -0.031203363367995743
0.045645928031057326 -0.014217411922341338 -0.009874271285957288 -0.002670582718094604 -0.0031274599978373635 -0.037671202875174746
0.0460928650141707 -0.009416816103019846 -0.010257084932329031 -0.00016441693744931185 -4.399071830146085e-05 -0.04376091001394254
0.04575864618815123 -0.014254619829857684 -0.009889645054812112 0.002330840397938458 0.00303079244314763 -0.037667808666136504
0.043372642783003824 -0.01496182845000855 -0.009318569134428247 0.012000432755611173 0.0019237725417141204 -0.031195558350377597
0.038636824350896576 -0.01312609849487247 -0.008545432978317958 0.020172201280970366 -0.0001479910020175927 -0.026451488660935704
0.03311422535436446 -0.01108489108670887 -0.007566727679382633 0.02541954391240681 -0.0017979800167049569 -0.02241766761725435
0.027457704332017316 -0.009164414654914183 -0.006449242582345526 0.02896978628191199 -0.003054497256716023 -0.01858408316401365
0.021798937167852382 -0.007204424529080573 -0.005267874440278262 0.031276259709985973 -0.003991488207864442 -0.014783643146389698
0.015578854615115429 -0.00512751224345534 -0.004071175553407567 0.0321354012018073 -0.004819830830672976 -0.011120133425136897
0.007465153077171005 -0.0006936035104297926 -0.002735514004957513 0.031095186494467398 -0.005993440398694706 -0.007796531110352511
0.005031212941155732 0.0017569344722411777 -0.00026574129011701006 0.03536054852165948 -0.007701305159935418 -0.006124091929894531
0.007304552819462849 -0.0481867023190181 0.006116090225610521 0.03086202800398807 -0.009861041994016497 -0.004095703067852117
0.0017516262947421498 -0.027702235236601355 0.005217521397677829 -0.030193401835674042 0.004053931187825986 -0.0015111981705651818
-0.001997412402374792 -0.0005872948396364314 0.002029268599407153 -0.03958230790064192 0.002296853821898997 -0.005237982331444122
-0.005016103251659702 0.0035025437427997413 0.0007514747943122986 -0.03974112936337512 0.0003622925417592381 -0.008031052050402773
-0.003279605161872481 0.001349051919147734 0.00042835697290167954 -0.03793964193748649 -0.0006022032068207052 -0.01183192963271622
-0.001902041543407214 0.0005729957839661656 0.0003093139788161578 -0.03637992204847329 -0.0008874835085491854 -0.01576197724676356
-0.0012835036253069337 0.00040275838105419684 0.00023970277606145653 -0.033560335260127416 -0.0009652806706929407 -0.019768692478647727
-0.0007100815767480499 0.0002383338508159056 0.0001931053802617546 -0.029462583178945127 -0.0010358649565744883 -0.023864085200410404
0.00023808978207134928 -0.00016838577898385928 0.00016268754968685214 -0.023701682972342125 -0.0013052481657263243 -0.028129918842247133
0.0013007237888414114 -0.0009558979756373411 8.804255602470423e-05 -0.014276270172336127 -0.0025268407991757683 -0.03302261898349309
0.0002985268419423219 0.0017381707221057138 -0.0002149593052143809 -0.000884427534728794 -0.004107647354762731 -0.040043811571821665
-0.0011171649335374992 0.013400572095381933 -0.0007897511613340311 -0.00018460247203550912 -0.0001092460019147416 -0.049091774349361024
0.00041122105032532277 0.0016994967180463554 -0.0002250130155614165 0.0005026407183192288 0.0038776746932206573 -0.040039178365077414
0.001540439487304623 -0.0010378652645753462 6.48298143535041e-05 0.01385599867965225 0.0022633824993423387 -0.033012195142551264
0.000632549683535905 -0.0003023563133312533 0.00011969838725796967 0.02321461334638111 0.0009898220826084845 -0.028111065910844956
-0.00012164817020225596 4.028523736858478e-05 0.00011933606794314911 0.028875462606990455 0.0006580410040249398 -0.023831641407536578
-0.00045384755390075605 0.00012476237257445018 0.0001184669891953402 0.032831488602702234 0.0005308715695891967 -0.019714738957896986
-0.0007820574715851473 0.0001968755990004596 0.00011545585101522059 0.035451895714107735 0.0004309366017378859 -0.015672689160198653
-0.0019400641237426366 0.0008929599079343085 0.00012295583897257666 0.03672644599754058 0.00017731324921935318 -0.011708155758748158
-0.003882468926685336 0.0033731017032874876 0.0003168281641860956 0.03821031643117444 -0.0007132993751076083 -0.00796300467123344
-0.0013478261697923853 -3.368683972529383e-05 0.001632950454018154 0.03868073686131633 -0.002591411504158077 -0.005384703584443955
0.002185435542386009 -0.029085470607146877 0.005242518729019868 0.029905080948875003 -0.004420066965162405 -0.002368591018028312
-0.0024577292675732093 -0.013272772949477693 0.004561588276691501 -0.022947146459313533 -5.9514103029110444e-05 -0.0011932409981084274
-0.007286709649611401 1.199227277517711e-05 0.0034170970205597063 -0.03328674192168843 -0.0021518712623801004 -0.004064233004195077
-0.014897471969909556 0.006219199955754762 0.0035189982786779793 -0.03656771080244162 -0.004881796347012411 -0.007424675331642589
-0.019785344851467438 0.006865042909513442 0.004490780176086396 -0.03408116818212946 -0.005790754989474065 -0.01114687324110252
-0.02429672532261224 0.008033291818889808 0.005627965030573728 -0.03210563587377018 -0.005513671577445865 -0.014884531111542606
-0.029146228546795362 0.009691631253611206 0.006762902085518365 -0.029588126804972317 -0.004732576406144227 -0.01863253425839442
-0.033938599057321744 0.01131349537706403 0.007849005325430555 -0.02598086955003621 -0.0037245985357420974 -0.022483587193849432
-0.037938149062260444 0.012859123422722163 0.008819596126213823 -0.020848871697244014 -0.0025265857685385124 -0.026351008181132663
-0.04039951799297302 0.012997927767199043 0.009488320761287215 -0.013251869143314833 -0.0022489730582436816 -0.03047850891875028
-0.044897609520221746 0.01585042777045045 0.009397365315526283 0.00340651383756292 -0.004597039623785221 -0.03619260579510686
-0.048558219710086566 0.040051736179405 0.008237520132035716 -0.00016616115712621976 -0.00017594854519396283 -0.04799361490611451
-0.04478445755296939 0.01581021273733925 0.009392618008703552 -0.0037503420677342156 0.004230562055860112 -0.036189526083260946
-0.04016116675892469 0.01291347848657067 0.009476311247314247 0.012872917681327187 0.0018402842861728983 -0.030471388574255336
-0.03755266233808436 0.01272327062004415 0.008795047296602406 0.0204092006216919 0.002053555918797402 -0.02633756708570224
-0.03337964094609943 0.011117760990802597 0.0078034986736706105 0.025450582316759174 0.003177564336820668 -0.022459471443904127
-0.028391646853680265 0.00942838709587021 0.006684507413412447 0.028927391846372982 0.00412702799352065 -0.018590134210107457
-0.023355887094936124 0.007697564313850594 0.005500345356095888 0.03125927847197426 0.004906875335913099 -0.014813698046363824
-0.01879617694151106 0.0065276552156980855 0.004293355022549396 0.03299935534281015 0.005289930983102276 -0.01105082333605117
-0.014173380600730987 0.00618863482391275 0.003247347566886212 0.03551922138247878 0.004601719234146883 -0.007360060447437295
-0.006920922500045413 0.00033345028287824335 0.003160393560585417 0.03303841115606055 0.0020376461257581454 -0.004244424460626102
-0.002220867458531798 -0.014068604490708738 0.00452029630290349 0.02311119209356619 -6.444387442350026e-05 -0.0019950857283017732
-0.005776919295348689 -0.004350960080605145 0.004377717247828114 -0.012705188689397847 -0.003674327732845661 -0.0017485943216645728
-0.01200866708056576 0.0016254512145999038 0.004625334532960482 -0.019178035717837875 -0.006701378785653428 -0.002917597295890253
-0.024424633649094446 0.008639924396344053 0.006067294578079955 -0.021968611388319903 -0.010686926678949809 -0.005833648466575062
-0.03609434269723481 0.012241900888769672 0.008300689114752078 -0.020428719164348453 -0.011542914788083147 -0.008802513752960558
-0.04686604794113317 0.015642891064156995 0.010627336194082551 -0.019016939593090084 -0.010594007579635467 -0.01169486209433097
-0.057351905942790146 0.019172414325515367 0.012897157837666115 -0.01743476494645489 -0.008820357808671136 -0.014575983064766648
-0.06749207679066942 0.02266335742944548 0.015051932065620338 -0.01519403098846257 -0.00650602334694546 -0.017489804280421125
-0.07712815352457557 0.025884372887834208 0.016991464345429374 -0.012174043779345218 -0.0038525497930301357 -0.020447426957065584
-0.08332470135754345 0.029042474073390372 0.01842018966400647 -0.00706383857120831 -4.012506150217626e-05 -0.02291606931956971
-0.09038168959346647 0.026541956708897595 0.018440347926363836 0.0035907108780073096 -0.0017949742880552517 -0.026185146411359293
-0.09590923403533215 0.0707068094308473 0.015752190362274116 -0.00010512853382183758 -0.00025304046349259614 -0.03479965132528205
-0.09026527552943729 0.02649913694089474 0.018440600979583138 -0.003808190480144334 0.0012703681164377486 -0.026186119088112823
-0.08308203959865683 0.02895347006921318 0.018418678878327467 0.00682440418235648 -0.000537940393192166 -0.02291750685866513
-0.07674295309907703 0.025743658073936096 0.016984021859461254 0.011897012985234162 0.0031936643479240565 -0.02044805276365506
-0.06695033264891341 0.02246637688732574 0.015032139552793483 0.014861544588446206 0.005755991418666569 -0.017486944383574086
-0.056661183334421245 0.018920623010957514 0.012856793429996965 0.017023903651863913 0.008003051713033407 -0.014564710504368769
-0.04609483935611078 0.015358049309315653 0.010557905721394893 0.018494643913524296 0.009795746439070729 -0.011669062446373363
-0.03541330047328169 0.01201354693279924 0.008195007030482811 0.019796188406671068 0.01093696669237503 -0.008762915193388397
-0.024033130626907664 0.008647473784235561 0.0059238703014992755 0.021458557672118163 0.010455936754535508 -0.005816709267692061
-0.011876587340256425 0.0017991077383556029 0.004484087434103594 0.019173108008729886 0.006746170381966529 -0.0030454396831234016
-0.005717125926141536 -0.004664198245927937 0.004329106663825082 0.012872678136135851 0.0037627315653098463 -0.00226847791636762
-0.006546104378053901 -0.0014740048797900226 0.004997338113017938 -0.006264499738969995 -0.0073559395615544945 -0.0021104203712196206
-0.014859707854166768 0.002504697685773988 0.005782980675955085 -0.00898335890566849 -0.011899988625395357 -0.0024401566723619072
-0.03359519902646238 0.009814513504087026 0.008147758614396728 -0.010099870616158059 -0.017657445688781477 -0.004844625858202497
-0.05288846754592442 0.014963791668513544 0.011371815994641541 -0.009710991777440985 -0.018435109918668615 -0.00721013458930847
-0.06995030156911056 0.01950568524978192 0.01463281504242994 -0.00903003164192126 -0.016617110651314947 -0.009453113676614165
-0.0861960230082271 0.02397875118415458 0.017808894821398906 -0.008101460919419056 -0.013566072120165333 -0.011672498438103005
-0.10201151588280702 0.028483630097033707 0.02083779025315286 -0.0068839262013349455 -0.009577435931706065 -0.013923562924728527
-0.11701787835413878 0.03229988050436939 0.02355454805766612 -0.005045953991098685 -0.0048414127621444715 -0.01598229628882561
-0.13127262937533346 0.03800442145135906 0.025723429785060516 -0.002469277182754562 0.0019605972518626407 -0.018420168406052748
-0.13788690731631953 0.03084718014165419 0.02584462089312121 0.0068625718736039 0.014236176927889818 -0.01654258472664453
-0.13746178029577388 0.08687733300605123 0.019489680097338202 -6.79296500567595e-05 -0.0003518508573493504 -0.03411554824401304
-0.13776156080121535 0.03080264547991493 0.02584933324783059 -0.007002904703794907 -0.014963903003501785 -0.016544569875675146
-0.1310142100139625 0.03791233140181528 0.02573108019530128 0.0023156303840604965 -0.002757640278463225 -0.018423572709496554
-0.11661534955555711 0.03215562518626201 0.02356143068141834 0.004870439040032252 0.0039396401235808525 -0.015985832694408873
-0.10146230652331202 0.028284551204744993 0.02083812120325458 0.006678850291650575 0.008557575912473376 -0.013924899154622458
-0.08553581622008918 0.023731644111819307 0.017795412123093643 0.007861150751456259 0.01245947217606166 -0.011668176987738785
-0.06931030884437228 0.01924668263933566 0.014599164734833173 0.008751897379250155 0.015543069556638797 -0.009440789291808877
-0.05251380288141657 0.01479012288224029 0.011314842379733231 0.009415267249152533 0.01765061187014522 -0.00719475151716751
-0.03363090407089629 0.009851084895840809 0.00806589109203953 0.00988712800448186 0.017465723013540897 -0.004854542139564138
-0.015064662301400184 0.0026394472682428074 0.005703469842152322 0.008996141734673762 0.012185304594126877 -0.002527991360421564
-0.006715936094795472 -0.0015834996338424867 0.004984757566140844 0.00631529372197508 0.007757650806048707 -0.0024572581269738346
0.019250170342743123 -0.0492164890243607 3.916680348103885e-18 -0.022285969237194617 0.011889400013303039 0.004205787654119384
0.024402906399354073 0.0024634006691731224 -0.003054039628779802 -0.009962730687465672 0.012828847264208057 -0.0013182258353042738
0.03569678136129523 -0.010928878452679971 -0.006917077552701854 -0.0035603106228334503 0.012033083885504139 0.00032935320081505664
0.049793777878527214 -0.013678896672201138 -0.00984030064989951 -0.0038699445052876604 0.010692496713289347 -0.0002252683745309846
0.06599755109880301 -0.01879951084933143 -0.012691510770578002 -0.003843447261826583 0.00816090406020347 -2.3118051452415196e-05
0.08235875132961573 -0.023580060660670324 -0.015280962313967257 -0.003941657073492611 0.004881268060561857 1.5726338920292735e-05
0.09836959911668704 -0.02842693461970331 -0.017514727492161018 -0.004032882856506238 0.0007589537916398617 7.379817261109786e-05
0.11395439062187007 -0.0332356573515752 -0.0192290051325005 -0.0042475675570000475 -0.003794292140996557 5.847959140605745e-06
0.12907985028479646 -0.038162914815595576 -0.020229419612121068 -0.004463032634977807 -0.007337093538755867 -0.0004789106446925768
0.14223280999076407 -0.04320854746124138 -0.020453113306227722 -0.0035936065096274453 -0.006704106802574556 -0.0018396367863825537
0.14795613081082698 -0.04635243411427226 -0.020336577827418347 1.2096736859976804e-05 6.346929199703798e-05 -0.003264730438922188
0.14226837831863198 -0.043217308643787644 -0.020471355395313185 0.0036176112878119125 0.006823906425490155 -0.0018480110722413293
0.1291562386636163 -0.038181024254826744 -0.020269678285625876 0.004486150897765206 0.007434410607944578 -0.000495363131466011
0.11408413120527361 -0.033264613043398734 -0.019299739485462916 0.004267961591111392 0.0038501094399815937 -1.7087044495536332e-05
0.09857774414787648 -0.02846998696650991 -0.017630877579382722 0.004047148841238002 -0.0007739722740368303 4.651287031412698e-05
0.08269148356005224 -0.023644326778957347 -0.015468403439903869 0.003942438922703015 -0.0050116748948482465 -1.441295614742214e-06
0.0665422372579572 -0.018899076524693945 -0.012988906949393338 0.0038282981511678993 -0.008506356979057854 -4.724315235335216e-05
0.05068587477784447 -0.013838277988759426 -0.01032703214474437 0.0037957796196503423 -0.011287679655067405 -8.736943373435266e-05
0.03734016267350666 -0.01124257875290236 -0.007606217686313767 0.003422693034952338 -0.013587602591228778 -6.503551829851244e-05
0.028087143855213246 0.0017893404435617886 -0.004314868829031313 0.00987919178346009 -0.011480477630091112 0.0015550500222809452
0.024436534700819485 -0.05006500823438746 0.00184268784348861 0.013168289109992657 -0.00969886293007571 -0.007748300022807611
0.011523440208191722 -0.04332880483092322 0.0022954334509295337 -0.014301507898498916 0.002002340418011309 -0.0003941061516435715
0.01279791819794163 0.0013972243264615126 -0.0016130494770803196 -0.012424632826038305 0.004313981446402826 -0.0011980321515758859
0.021086579125736714 -0.007491957245477764 -0.0043876077009432695 -0.009782227073301559 0.007339167172936888 7.865745078062557e-05
0.03327309027672466 -0.011002317091057897 -0.006694223317025015 -0.010157239735178562 0.00615444836557382 -0.00010594004590972802
0.04394662295561366 -0.014900549216613768 -0.008711303296382051 -0.010460197409355138 0.004586160430974937 1.6652980211633567e-05
0.054853688496151555 -0.01874250630341034 -0.01053976537836514 -0.010517774026494012 0.0024992710788364542 2.0414688198535402e-05
0.06550576969434561 -0.02257536725374136 -0.012092047217266373 -0.010608292807249835 4.918367331032131e-06 -0.00010037861971218673
0.07577607951999016 -0.02632713007099162 -0.013277004134420265 -0.010891449375105696 -0.002674497979899714 -0.0005763525263206916
0.0855175680379835 -0.030156730991818564 -0.013982814336041736 -0.01129196891929852 -0.004749122822816092 -0.0019565961648206746
0.09378154844227123 -0.03468420203452281 -0.014177705826137236 -0.009265080081224628 -0.004376875263573959 -0.0049680948600247755
0.09733657567655037 -0.038684630840741814 -0.014121465243101877 1.7511071234000458e-05 -2.4452761826598505e-05 -0.007967371972435843
0.0938164253920993 -0.03469496057815374 -0.014184980701006742 0.009299564119381076 0.004316841118874766 -0.004969897597141491
0.08559202207072951 -0.030178758540658563 -0.01400095267975235 0.011324143547821137 0.00465530367847829 -0.001958206209280541
0.07590105173547212 -0.02636163948451486 -0.013314096647307906 0.010917239070491991 0.002522382724460025 -0.0005726306955275666
0.06570212594888435 -0.02262485152973954 -0.012162915380328662 0.010619407898245562 -0.00024341657414828207 -8.102682977781774e-05
0.05516070551066221 -0.018812703105309046 -0.01066890450056344 0.010499512768263107 -0.002864492316120311 7.667905462843306e-05
0.044432311793950796 -0.015003195588339615 -0.008941557295684592 0.010392750143370776 -0.005122322651293047 0.0001341863890978483
0.034082537126562756 -0.011156196038711805 -0.007079392748269135 0.00998772952143134 -0.006987322109062779 0.00016023110728192308
0.022494715517130625 -0.0077975556535658155 -0.005046444396176256 0.009349146864219319 -0.008387746598839984 0.0003179782821013483
0.014208460630315105 0.001222187973906224 -0.002345682193386012 0.011391513181668355 -0.004592144729391106 0.0008722099718420341
0.012550988806339588 -0.0437259226061913 0.002342584334115441 0.008489097729766994 -0.0013733025050633935 -0.008173618863741511
0.0063886587063658904 -0.031295968314590986 0.0032507897757533145 -0.018875585783068676 -0.00031750084759751466 -0.007882944841651354
0.005647050078165867 -0.0004127408375387394 0.0001743833513361798 -0.021577371813635955 0.0009861252495784356 -0.0011847280904368784
0.00888925502646301 -0.0019381270426144263 -0.0018313183764301802 -0.01784388646939518 0.0029615333193136694 -0.0003612340242188693
0.016046123586485057 -0.00538766636146918 -0.0032306409409811917 -0.018350394585497386 0.0025153543297148913 5.011460611591471e-06
0.0219278516789863 -0.007344321906682049 -0.004346553505892343 -0.01854927256426567 0.001594191015103379 -3.91536014285764e-06
0.027344534138989973 -0.009250166163720873 -0.00529982112139839 -0.01862181125331982 0.0005378983121532866 -0.00011974188184129473
0.03262312821237062 -0.011127633611246837 -0.006084762358843229 -0.018666415058467868 -0.0006829395164288087 -0.000526966772387682
0.03751967527727584 -0.012794893663484946 -0.006660801456652471 -0.018869227049553836 -0.002069354080279967 -0.0015463670326339198
0.04222621449655466 -0.014435972354041265 -0.006986557258899877 -0.019524957377218877 -0.003588359451515843 -0.003940766732022922
0.04731299123775593 -0.01838932583999634 -0.007022817764642761 -0.016887712707570956 -0.003987964337757885 -0.00891967152929176
0.05002739533195048 -0.02543029520997452 -0.006895630488269428 2.568550834651596e-05 -0.00010243989190409131 -0.01467801350817052
0.04734667030691556 -0.018403982093491433 -0.007018799936617748 0.01693809301472287 0.0037687947275346187 -0.008915498419632354
0.042297209200119174 -0.014465580262265302 -0.006981638202377041 0.019571202497675556 0.0033266501491255275 -0.003928771825788153
0.03763610491231247 -0.012839961260667054 -0.00666217521515298 0.018904361569628342 0.001738056164044659 -0.0015176771323938338
0.0328002533578923 -0.011188939264887537 -0.006105688378542615 0.018676072420188563 0.00025693867160841885 -0.00046323530266943324
0.02761054929835346 -0.00933045564385502 -0.005363384692247644 0.01858061870429208 -0.0010806149385782524 1.0829908981473483e-05
0.022336433008753723 -0.007449115399767129 -0.004490091076859866 0.0184167449002276 -0.002276358775642139 0.0002546738530817591
0.016708022320400934 -0.0055358736589402715 -0.003514347745087151 0.018048711859372513 -0.003362260502382173 0.0004346620787058426
0.009734052252779861 -0.002114054054850778 -0.0023215832385473285 0.017138149012736567 -0.0038185069843994957 0.0005022668775470967
0.006269813758078632 -8.455001634133041e-06 -0.0003976083088107465 0.02015115752705023 -0.0011611427395094595 -0.00037453111498855345
0.0067708259913612035 -0.031289352651656 0.002928715408636386 0.017240384832310204 0.0007095709504275729 -0.011046673570490089
0.002165518736523854 -0.019736904739341626 0.0037784730486661367 -0.017847235237525176 -0.0010250788025148948 -0.008642855260964038
-0.00010197184886977356 -0.0010961823265137208 0.0018301395459899015 -0.023705724169970983 -0.0009789188495906605 -0.0021251133456962022
-0.001820023597656905 0.0016677945096130534 0.0007435661067960771 -0.022540214470202324 -0.0006124404547706641 -0.0005361859069820024
-0.0007531375135598936 0.0003166193573657261 0.00032878106806601766 -0.021291055356505745 -0.000856148374335492 -0.00013264065383856722
-0.0001922235691487186 -3.0650165960057545e-05 0.00018026915961166687 -0.021288028768068405 -0.0011500248154715672 -0.00011366148619839628
-0.00015332293529489506 7.431232026948684e-07 0.00014009934761346517 -0.02133532266947692 -0.001305134554263834 -0.0003369142064444352
-0.00021374106866955925 -1.1663117714916089e-05 0.0001623197177450368 -0.021385390402291576 -0.00141207422466516 -0.0008773327289301334
-0.0006249339859781717 0.0002596610451746553 0.0002320459819337121 -0.021238027928141494 -0.001686566883014275 -0.002034217793207557
-0.0008895200636442474 0.0009363734874742676 0.00031546441516458023 -0.021917573307956257 -0.002857955536581439 -0.004517776672278315
0.001711476562828287 -0.002539699542699606 0.0004393471318520192 -0.021452251701738763 -0.004417701993897619 -0.009944349568743916
0.004229624934150486 -0.015890503339940295 0.0006723802427888038 2.7929739775332724e-05 -0.00017646912138178964 -0.01884546537464352
0.0017436707805183202 -0.002558158059314105 0.0004548879979670947 0.02150699815507681 0.004047574715148735 -0.009938442932573139
-0.0008228400919502074 0.0008994645711261804 0.00034403925476327664 0.021967674657629287 0.0024375003250045563 -0.0045017845354667066
-0.0005189826443865798 0.00020468557327171886 0.0002677202333928545 0.021275630897532448 0.0011869548330684845 -0.0019978992226052585
-6.013083158432181e-05 -8.35347229684347e-05 0.0001937324247827301 0.02139415827007627 0.0008136370649141427 -0.0008003172288117549
6.360859953309898e-05 -8.649349904024697e-05 0.0001471706933369916 0.021284800349455686 0.0006038624878310002 -0.00018039805454851904
0.00012416605797730025 -0.0001341865428713621 0.00012905801402320278 0.021126603110601706 0.00036280598492211653 0.00018546499150683162
-0.00030765463382788783 0.00019224551483619837 0.0001660219372091155 0.02092892361939243 3.3587371987469245e-05 0.0004087904757110882
-0.0013663719732805494 0.0016662557309157018 0.0004209682336110597 0.021813798426354915 -2.9219805242588482e-05 0.000337978640062972
0.00018903524991086416 -0.0006659365589744807 0.0013999779071244046 0.02294431595726157 0.0009252619470388905 -0.0015978453763590547
0.0023521769328363356 -0.019793793954431288 0.0034140790344694763 0.017317816075518216 0.001341735448414384 -0.01053403996517917
-0.0016659987389169156 -0.010244608136200782 0.004263674609117166 -0.013512854416527657 -0.0017292650248139634 -0.007475046032954357
-0.005360202711922433 -0.0004116273377089881 0.003347370273728262 -0.020082040345870425 -0.002792007267037852 -0.002167071413465475
-0.011821483483664585 0.0044695377458348 0.003262415797757766 -0.0207598614774826 -0.003945742515168932 -0.0005567399161660643
-0.017090428488548453 0.005732873060433888 0.003864933112837879 -0.01887212416263302 -0.0042166376446231635 -6.821615329409133e-05
-0.022291820381711857 0.007349865690239937 0.004700685205976813 -0.018481569117012743 -0.0039247153167724005 2.4624928700516128e-05
-0.027703712785954238 0.009251798151625643 0.005576017518965171 -0.01857848673926025 -0.0031725997527596137 -0.00012267873875157956
-0.033009565738109106 0.011159964483536509 0.006407951011684871 -0.01862287390705521 -0.002185984089760578 -0.0005728124199046669
-0.03849606639161219 0.013030228644498187 0.0071301694869119825 -0.018456492018631858 -0.0012185285315235823 -0.0013980741941451173
-0.04405996282793887 0.016128624262790037 0.007617353953838216 -0.018146854920924597 -0.0015217327462478654 -0.003159667425819318
-0.04414386233916556 0.015313279020146868 0.007754697667906497 -0.022942499203050956 -0.004701735552286321 -0.007268363099140679
-0.04154925407552628 -0.009509724841684542 0.007982774827165072 2.6299675573343158e-05 -0.0002520797475784826 -0.019710684537304526
-0.04411309451509229 0.015290892832159909 0.007781907422609441 0.022994267029222026 0.004177233677238453 -0.007265073200132766
-0.04399751945616274 0.016084183466069938 0.0076699392842090874 0.01819497482616451 0.0009383252888193354 -0.0031494450634059787
-0.038400560018692846 0.012964988086459546 0.007203546270134679 0.018494338403705065 0.0005451267058967993 -0.0013720297606338047
-0.03287977789351191 0.01107719698896912 0.0064928492137699655 0.01863618076010941 0.0014076923857081517 -0.0005129548204646192
-0.02753691797361259 0.009157655822765667 0.00565530819963009 0.018539009142282792 0.002304461978245002 5.271000974780587e-06
-0.022081361143149403 0.007250262655883876 0.004744594624459266 0.018338557038714308 0.003027215011933323 0.0002833641822771254
-0.01684950375590047 0.005652727859802958 0.003827558485060227 0.018542381560532 0.0034166185706776078 0.0004156190277884492
-0.011625839284607056 0.004529212226761105 0.0030968154056898694 0.02024988981492514 0.003469149043797663 0.00015194577534937125
-0.005241444422731708 -0.0001101227405542549 0.0030602199311936607 0.01975502918346745 0.0028095483366289706 -0.0018042906751207042
-0.0015724194987849125 -0.01029603510321715 0.003948878112694672 0.01339075082474518 0.001990233419837371 -0.008729241368228518
-0.004902477103325011 -0.004067892426752688 0.004946330669160463 -0.0070665542414968165 -0.00309903000684223 -0.00485231103398543
-0.010224127895217983 0.0010116911689022551 0.004791387457973148 -0.01122750846012609 -0.005165863710375223 -0.0014748501569853223
-0.021556105936195377 0.007153473599928945 0.00566763675164548 -0.01197591359136952 -0.007628569537520232 -0.0005083596683038847
-0.03323604825334815 0.011166932489763517 0.007262212197342369 -0.010736975145035424 -0.007917073086905263 -8.040569209216796e-05
-0.044393796119075686 0.014958960080265454 0.009047122331555668 -0.010386297484590511 -0.006985832414615965 3.715512191615991e-05
-0.05527019264211438 0.01879227659115943 0.010800580736974971 -0.010469279753771857 -0.00522820438750554 2.0902299193576954e-05
-0.06594062410885106 0.02261208073916488 0.012412158853318497 -0.010566541981962451 -0.0029528005014934165 -0.00013154785460915417
-0.07593892915139791 0.026457016895742043 0.013758800192801119 -0.010370380643632493 -0.0006346937182829351 -0.0005326159767914633
-0.08690548633033393 0.029866791496121266 0.014649020655339108 -0.01069766792299659 0.0014215475987781462 -0.0008353779216425459
-0.09141534426887514 0.03788954058508698 0.014512855510828 -0.014490226359010094 -0.002967028822369708 -0.0027163823172234817
-0.08966735002952204 -0.004469728291251704 0.014146938523134346 1.8239297743769038e-05 -0.0003348369801916201 -0.014509557439798303
-0.09138563288699525 0.03786293815569615 0.014551780492454517 0.014526379797953586 0.0022730383431371942 -0.002719584742635238
-0.08684636649557652 0.029814175321935893 0.01472568611578738 0.010732151915774233 -0.0021855733512231774 -0.0008397950533038465
-0.07585199807765904 0.026380356077439937 0.013869894476360098 0.01039955715761607 -0.00023480827599015313 -0.0005332436829609123
-0.06583074782469171 0.02251645671502862 0.012550253274850228 0.010582060079815108 0.0019650506230305164 -0.00011803160871352045
-0.05514838917437901 0.018687816079899024 0.010950969224354594 0.010454179588994604 0.004153264738450059 6.939680183557507e-05
-0.04428231715405228 0.01486389875455813 0.009183547406993644 0.010307085316905601 0.005928718015559532 0.0001621803504525
-0.033171327317730294 0.01112078401845655 0.007343151017426569 0.010550583043917048 0.007081410842227596 0.0001830816266419964
-0.021559928794984626 0.007226048635374044 0.005642310926504593 0.011724837669105547 0.007267112958163125 -0.00012151258292906241
-0.010238335760060589 0.0011929327200235562 0.0046372287000174366 0.011116554946357651 0.005280549873472794 -0.0012856143958800772
-0.004892728165663996 -0.004062584058431113 0.004709729289073398 0.007040956182475195 0.0033947124591110316 -0.005570085527556362
-0.006586663466106693 -0.001969562068090863 0.006001750621402556 -0.002706615089264682 -0.005924797751151305 -0.003144758882510969
-0.014110137981599045 0.001810802019022439 0.006234903391635878 -0.004393670433394312 -0.008898237048600172 -0.0010253170113691645
-0.03127946283727636 0.008524678774367701 0.007883136796156966 -0.004314931832966076 -0.012383435334641646 -0.0005518122598749174
-0.04963055551530081 0.013950952786414447 0.010349637433632573 -0.003912552907162447 -0.01248565554633888 -0.00022859072810454728
-0.06654292653246688 0.018843944677598926 0.012976371464945773 -0.0038254123958205892 -0.010734989251281241 -0.0001137385041039478
-0.08283154725833511 0.023677823506764395 0.015515168681155513 -0.003914453107173764 -0.007728668150579133 -3.68837929702447e-05
-0.09884273026164894 0.028412373610541195 0.01782583583166861 -0.00396431696269491 -0.0038883510054542572 2.0988487141134448e-05
-0.11408508638821982 0.03354408312939892 0.019737019693319292 -0.004144052749350335 0.0003589897233830504 1.0562354971148434e-05
-0.12665976580808203 0.03607047898165203 0.020991642181837907 -0.0042663545726499465 0.004731706359173026 7.72143059000983e-05
-0.13987946477392443 0.050691919116669475 0.020556505316498056 -0.010341961780374977 0.007058958455033828 0.0016724465243133932
-0.1478298274920097 -0.0018572507262773234 0.017164505342159443 8.755712893049707e-06 -0.00043079704290693117 -0.015428099568692235
-0.1398503730457567 0.05066312620290742 0.020607037220262577 0.01035949562833938 -0.007950281049509643 0.001666439490686784
-0.1266026991773489 0.0360135805520245 0.02109205359889897 0.004283682049768842 -0.005708709088589355 6.623220231904417e-05
-0.11400360577577158 0.033461363724207396 0.01988495879218079 0.004159957573980049 -0.0014651624832995578 -2.7883900297321317e-06
-0.09874574056736794 0.028309612442988075 0.018015026225302336 0.0039755922729269024 0.002637267062199965 1.0628693636322093e-05
-0.08273997749366457 0.02356716537223552 0.01573192131014713 0.003914294200518172 0.006372273969639752 -3.330437181448182e-05
-0.06650269895130191 0.01874981525915476 0.01319502201197336 0.0037994342497240682 0.009414873569446269 -7.412507322213376e-05
-0.049710630609134575 0.013918236576195958 0.010528024495603801 0.0038415219680436744 0.011492118144603835 -0.00011929651630169537
-0.03148823293035721 0.00860175983452958 0.007964875254903822 0.0042112509864811526 0.012087680642543772 -0.00038532065796359743
-0.014294713680093548 0.0019461833107255796 0.006185528736459582 0.004341686707188478 0.009272134411054981 -0.0009514167650581715
-0.006697352461773853 -0.0019288174939736118 0.005856773242033345 0.0026641957963757295 0.006540177893578088 -0.0035790146949750963
0.026724395153019453 -0.042560889722851505 4.912791094074942e-19 -0.0014004264987766111 0.005137096292311128 0.0004457699203108581
0.028103921906568605 0.00025974849445446855 -0.002853456003204425 -0.009635848434107629 0.007003764173400548 -0.0005344654160505052
0.03517428896468391 -0.011371054521868082 -0.005449959475973023 -0.003812683900462946 0.006591555631132196 0.0005162696054851995
0.04847515501669526 -0.014436561816381208 -0.007863150979357046 -0.004356725100689877 0.00551004051412329 0.0005957214474860941
0.06381197988038916 -0.019624124786530712 -0.009725486934139218 -0.004565323292044618 0.0035431405450563995 0.0008220811140096853
0.07916169406922872 -0.024651262806702764 -0.011032747015268974 -0.00479356263773453 0.001079853440475649 0.0010561988570059481
0.09447248705193358 -0.02993773154399178 -0.01169525439715488 -0.00510143650193043 -0.0017042684222853875 0.0012755022212559354
0.11050526019552681 -0.035611441510512036 -0.011651736704904568 -0.005687378246575973 -0.004363978169881815 0.0013741563978607403
0.12846073910077013 -0.04225612457740378 -0.010930911773669965 -0.006385140482730085 -0.005850665483235264 0.0011576307746926895
0.14651731088862233 -0.05001779953020156 -0.009840193382936535 -0.005363796724729475 -0.004541139857891161 0.0005013575425922161
0.1549533079126973 -0.055061104447317856 -0.009209274311288762 1.2410056669436747e-05 5.86541965305989e-06 -5.5053546369746005e-05
0.14647582588291994 -0.05000141066041064 -0.009846677166292873 0.005389374518184641 0.004546124607955911 0.0004942395250752909
0.1283714300384747 -0.04221907695266707 -0.010948558742910848 0.006413063073752199 0.005834668149563537 0.001143479771402583
0.11035432949286272 -0.03554437983567403 -0.011690876857112818 0.005719610290823046 0.004309493040365783 0.001353690501535426
0.0942357125855317 -0.029824556888952435 -0.011773793703133252 0.005140132916034222 0.0015840024745642247 0.0012508395692139818
0.07880066998979589 -0.02446586186125995 -0.011177793585155908 0.004843100119909318 -0.0013151488733522624 0.0010349025027082232
0.06326263644318295 -0.019327353435681833 -0.009978119147791892 0.0046230534556666305 -0.003987316940760344 0.0008096447377339903
0.04764856812855963 -0.013972436535727497 -0.008266826322692567 0.004462511767773413 -0.006269859991150661 0.0006470058402649657
0.033674819221290515 -0.010605247282534732 -0.0061230186677153865 0.0039636906490242855 -0.007764044689033247 0.000474286876888425
0.024212919959551715 0.0015298261144889736 -0.003629878915646964 0.009416551627542662 -0.007067441430836061 0.00038174591703518576
0.02095211350973611 -0.040458533172362164 -0.003186186850730311 0.012094537906580634 -0.0062473201387437 -0.003731144219976727
0.011799391337504614 -0.036684367300278325 -0.0004205787654143566 -0.0023888013166972447 0.0027197830502896517 -0.0013313417213589335
0.013696763631366666 0.0004797561658771514 -0.001308268418159983 -0.010935674576764663 0.0032970454892597236 -0.0011199943750576035
0.021770845614348437 -0.008288983602081652 -0.003402488634029839 -0.009861075295942405 0.004127227566177085 0.0001239044021910495
0.03282194850946323 -0.011793138208157364 -0.005119813849858596 -0.01086836283881717 0.0034506238471247773 0.00031308946815242856
0.04284781662169029 -0.01579175667174792 -0.006451261653936043 -0.011488541310943047 0.0021858231743922783 0.0004573970500177141
0.05307809914258112 -0.019851407858969355 -0.007341446611295512 -0.011897301693869499 0.0005843836738420765 0.000528645482519511
0.0632731511667072 -0.02406493128782443 -0.007777213851362729 -0.012564930052803902 -0.0011638331704835556 0.0004608391639027207
0.07382270974277846 -0.028484155349058054 -0.00774100593720237 -0.013946825138033614 -0.0027779314131611364 8.293061022477979e-05
0.08527129889294648 -0.03364700991547486 -0.007273559075330215 -0.01596193779488693 -0.003656328088420205 -0.0008786563676345884
0.09643101968760917 -0.04069026915172437 -0.006550688809403537 -0.01398845624649 -0.002851571565493292 -0.002487350588767183
0.10156309242676882 -0.04703713860098534 -0.006088589954904325 2.4069419357380055e-05 -5.266230276372085e-05 -0.0036355796929759838
0.09638013105709654 -0.040677132869601285 -0.006533969790921227 0.014038798747542498 0.0027362782782554417 -0.002489040698268717
0.08516384475466525 -0.03361680605311249 -0.0072437676344860044 0.016019266804173923 0.0035107272764388214 -0.0008802801239770369
0.07364682628095814 -0.02842831891252295 -0.0077066149692507835 0.014017195834125602 0.0025797412237811316 8.591877917835363e-05
0.063009599244325 -0.023968755961358876 -0.007753673831487041 0.012656681231086264 0.0008851944070160456 0.0004780875033065919
0.05269671626688772 -0.01969085440798028 -0.007354763204646966 0.012022276521031413 -0.0009859157531156408 0.0005788830725038005
0.04230563540070869 -0.015529933451416499 -0.006539810111695631 0.011660169854754085 -0.0027736837438053336 0.0005704915327939405
0.032020714176582185 -0.011380622237660782 -0.005347063742899985 0.011134839747916217 -0.004318979506314391 0.000540021368465523
0.02047735336714351 -0.00758433694347127 -0.003825872633360517 0.010375521911461927 -0.005133313398390586 0.00047730328993780504
0.012552168858808605 0.0011159459248037287 -0.0021537624402928326 0.01188792535610543 -0.003690518840555086 -0.00013839223469805704
0.011129528392151858 -0.035107868207723374 -0.0024113568484517662 0.00898332992457006 -0.0024133413073639254 -0.004826364751184963
0.00606821996554778 -0.02574064958881649 0.0007572024862703303 -0.015482149701625378 0.0009542014905720814 -0.0045899809635411674
0.005891125076057707 0.0003390519731986588 5.907056386454435e-05 -0.01903435234684265 0.0012004354687800505 -0.0016928440889244034
0.009619677420904504 -0.0028572163251198105 -0.0013166373153366431 -0.01774326437569153 0.0016795034314549292 -0.00043141218838770756
0.016415202322289747 -0.006133328760370015 -0.0024357278024778202 -0.01917236214957551 0.0013864877489450393 -6.176873800906817e-06
0.021815810495488145 -0.00810321828644568 -0.0032130658679558684 -0.019915651995324656 0.0006745183524885428 5.2611954356297875e-05
0.026834101018017767 -0.010122629242417816 -0.0036822983445883996 -0.02062196138584827 -0.00016943081838286455 -7.699568812004475e-05
0.03176629693655034 -0.012191297671236782 -0.003862932942941179 -0.021682647431557133 -0.001044505285273748 -0.0005018640242650609
0.036558763566220974 -0.014051021576816853 -0.0037715494853154054 -0.02374704063909709 -0.001859398080266247 -0.0014486544822665947
0.04197192519649854 -0.016194891790956293 -0.0034293403283015135 -0.02733335147640579 -0.0024174555651144095 -0.003256698379575992
0.0490879442114026 -0.02250933606963758 -0.0028517399527285014 -0.02536242392648199 -0.0020759642392846407 -0.0059708810604501335
0.05314410911452101 -0.03336072603148462 -0.0023417840259252983 3.883732231176747e-05 -0.00011012351861304402 -0.007932740669393536
0.049028635103684264 -0.022502898015386023 -0.0028121312808032616 0.02544376930866626 0.0018431722992504596 -0.005967306033490996
0.04184850614949021 -0.016178787895179975 -0.0033528654341725053 0.027426368984491932 0.002147226568884516 -0.0032458879817660585
0.03636190699757315 -0.014018301766395382 -0.00366508038243343 0.023861934951704255 0.0015272525546540666 -0.0014216253053320426
0.03148217971631155 -0.012130133829723897 -0.0037403534123040243 0.021833949561581866 0.0006255435409557659 -0.00044044876162051814
0.026443788538099033 -0.010012950695116915 -0.0035687089330617666 0.020830600462849506 -0.0003642249707166259 5.149909721260008e-05
0.021291535823462094 -0.007914731253408159 -0.0031509025761860526 0.02021184451914606 -0.001360058704839562 0.0003038850998306071
0.015697529844344332 -0.005814483723551494 -0.0024899609079318337 0.019624908757186692 -0.002248582696576697 0.00042933169120846343
0.00887804824523499 -0.0024060333856685528 -0.0015831671391940512 0.01856006004883068 -0.0025411536433698314 0.00034942922104809655
0.005558812970788007 0.00024124125305935491 -0.0006436389697869733 0.02045784576433358 -0.0014455728683278003 -0.0010239671448424635
0.006051221134484648 -0.024752651339910243 -0.000746437181656539 0.01693954413174167 -0.0006513191724448943 -0.007099576957437696
0.001800977293414972 -0.016261862884981597 0.0023444125916959545 -0.016680454509236036 -0.00011361338206587587 -0.005885358342484368
-1.9656416843724464e-05 -7.719028403254363e-07 0.0015622297366401454 -0.022312777223195725 -0.00036518783079779796 -0.001988340806504361
-0.0010608610097423699 0.0012130432784808228 0.0007635753392263962 -0.022136355994885493 -0.0005227929909097042 -0.0005952931158707019
0.0001922680521961328 -0.00015112724901274527 0.00025547259867292777 -0.02205450091948281 -0.0006709521431303615 -0.00011540548548335215
0.0006312563314214269 -0.0003355333822169297 3.509607116677413e-05 -0.022708389812625813 -0.0008799155597521076 -3.565107101788779e-05
0.0004977774309603612 -0.0002298389412459754 6.6755423600955735e-06 -0.023511127584588565 -0.0010344397957540274 -0.00022669156210367004
0.00017202649087202853 -0.00016739483428340705 0.00010580199983009709 -0.024731581064030367 -0.0011173803148768523 -0.0007601768620092619
-0.0007415984268053844 0.0004161398569954921 0.00029406935782229707 -0.026492763119015238 -0.0012254103592019834 -0.0018531542731397752
-0.0012543637248352666 0.0015350088995906717 0.0005628331450705836 -0.03036919502000628 -0.0015356062925086387 -0.0038457209492630037
0.0028764723094675854 -0.004192611240339366 0.0010497660396747719 -0.03171818442526573 -0.0016307274254210356 -0.006939038018046339
0.006816826654213015 -0.02398357550296694 0.0017421169803841215 4.4012472817759566e-05 -0.00016741977803833624 -0.009467268946328577
0.002809024577893596 -0.004193132848800183 0.001112307877948768 0.03181037945487151 0.0012810118759782982 -0.006933862275495653
-0.0013931115516552205 0.0015364583945574608 0.0006860596571697606 0.030474636775763866 0.0011422150117698351 -0.0038310978415395393
-0.0009583580567269977 0.00042484304940501377 0.00047259831470769373 0.026622982626966784 0.0007626249990790059 -0.001818661116168594
-0.00013053555983209744 -0.0001424749517166712 0.00032720971797591236 0.024903120758784487 0.0005652715253247089 -0.0006851494057660636
0.00010255377545677412 -0.0001736525249949308 0.0002457979729535005 0.023749334504926 0.00038137612981738287 -7.27311052141951e-05
0.00013346976602662857 -0.00022212332261988492 0.00024619644992740367 0.02305382512216015 0.00012493267148640957 0.0002593103858270518
-0.0003752971969833372 5.6347733603461325e-05 0.00036359141588042273 0.022580363125673665 -0.0001507523841794468 0.0004158537401777083
-0.0014768698470707014 0.0013699209353256832 0.0006498527130287178 0.022967034481435458 -0.00015732598708816507 0.0002355404898970817
-8.514500789153493e-05 -0.0001699341337586657 0.0010300795380102255 0.023005854868568966 0.00022182256982140267 -0.0015012838734492588
0.0019194296892370791 -0.015446919922994127 0.0011797552080488707 0.01697310925046113 0.00035234284769321343 -0.007517356397906556
-0.00199389578755159 -0.008531384094298364 0.003982443638358786 -0.013308622923018203 -0.0010125724595920502 -0.005530564673816417
-0.0053023874068440025 0.000454742207531475 0.003126259961526658 -0.019546690073222298 -0.0018077429602668883 -0.0016979361500798025
-0.01097178304946179 0.004391414058224504 0.0028336261778588705 -0.020619552180238348 -0.002648906230687417 -0.0005074474045299128
-0.01563607727803526 0.0056387102564798754 0.002934989647961796 -0.0196178781595221 -0.002711768413544484 -5.7817990530970674e-05
-0.02055959036869483 0.0075008760920573046 0.0032731100258658117 -0.019867287014998677 -0.0024438788854848474 5.502784958589235e-05
-0.025898567410025553 0.009669133080811113 0.0036896175280813075 -0.02062215101811562 -0.0019105064870332258 -7.810852739357824e-05
-0.031342940797183534 0.011931013037777227 0.00407249157915669 -0.021645905619995152 -0.0012050120476630153 -0.0005078893342268508
-0.03753487416636975 0.014406440636505579 0.004357915545143848 -0.02298185378428424 -0.0005613130188736879 -0.0013896006858631247
-0.044391690158102216 0.018856019304247122 0.004531958609387937 -0.024830702606353904 -0.0004905161791937836 -0.0029897414173522823
-0.043799664111386374 0.01692740352374617 0.004800287453330205 -0.03294501839092244 -0.0010276290939372464 -0.005826532023429945
-0.03983603257431217 -0.018321697570668045 0.005743568542738368 3.8969291550676206e-05 -0.00022584237752177412 -0.008745699251334891
-0.04387569692402871 0.016919915296697608 0.0048861925443497945 0.03302663431714163 0.0005585876260643012 -0.0058234176585160256
-0.04454674783045291 0.018842787358891715 0.00470286516199574 0.024923980253881015 -2.8913559541159333e-05 -0.002979876170737893
-0.037773256450429615 0.0143911286414535 0.004610081666803122 0.023096868080947026 -3.581236106893431e-05 -0.0013641235628872922
-0.03166643955088286 0.011919623761179146 0.00439513524861464 0.02179712209379713 0.0005146242339814288 -0.0004490187804444922
-0.02630194675474178 0.009671322639902474 0.004057849699265186 0.02083322380230728 0.0011318547660150828 4.7381179519726097e-05
-0.021021401314687826 0.007535909443980637 0.003637646005968021 0.020178374487006254 0.0016140185507385503 0.0003062703737482839
-0.016076841856343876 0.005711093666429902 0.0032097137739410227 0.020092888454255498 0.0019282643915159608 0.0004075416100864761
-0.011219227844488316 0.004394832080572542 0.0028841871227262856 0.021195754913662185 0.00211911848553433 0.0001673700073352248
-0.005282906799789542 0.00034937174599946637 0.0027759843169443453 0.019802071474559133 0.0017353611480588212 -0.001337831077864018
-0.0018588355519043019 -0.00795744886021989 0.0031027587468639853 0.013223101127749737 0.0012066335381065493 -0.006585299429241335
-0.0052109086295456485 -0.00353556565799457 0.005485439081132634 -0.007190977983152833 -0.0021472316568156326 -0.0033448505996114806
-0.010167850369414281 0.0014959920690715753 0.004652657473518129 -0.011184307850087302 -0.0034588615698411605 -0.0007386477967972439
-0.02056203726168017 0.007227560106944839 0.00487716047229854 -0.012160932961762334 -0.0048741926806587415 -9.9356811164399e-05
-0.031231245212405154 0.01123237773362687 0.0055853974032596095 -0.01140546257731125 -0.004764650224831336 0.0002626857538051846
-0.04169779213631305 0.015264431239849567 0.006479404571853413 -0.01143567818665175 -0.003976272622623964 0.00045155350411052084
-0.05221320158890815 0.019465698160993385 0.0073300811745057055 -0.011894648333757883 -0.0026980507084416933 0.0005259660286769674
-0.0628765567990162 0.023818566117182048 0.007981757833123358 -0.012534347160660458 -0.0011198716475024377 0.0004569504691886349
-0.07336616582625843 0.028511901328554152 0.00832286711058726 -0.013082461073979215 0.0003825261125266027 0.0001444208146078548
-0.08653240256306487 0.03315465083738474 0.00834264177923923 -0.014544580624987013 0.0011772594678214285 -0.0005232422469311653
-0.09252083028583138 0.04377558346202471 0.00808272792422594 -0.019758468442990212 0.00032298687353015277 -0.002318651952071947
-0.09047136890394686 -0.01428664881230084 0.009083992217564842 2.4348762779767468e-05 -0.00028667084612789403 -0.005623583551126571
-0.09260662134337594 0.04376139001979154 0.008192795320247187 0.019809395502566343 -0.0009167115094665174 -0.002321323471591097
-0.08670632988338596 0.03312726795481652 0.008562994542713177 0.014602546432773516 -0.001829864749863721 -0.0005268364063087203
-0.07363058779312992 0.028473411831117075 0.00865177009882612 0.013153428238256368 -0.0011246650082978886 0.00014433043675836322
-0.06322845308462352 0.023772094965933924 0.008410726763436925 0.012626831911178589 0.00027430844194744697 0.0004695781312808635
-0.05263404586657277 0.01941595935565852 0.007835534336254165 0.01202243160414171 0.0017668280509849305 0.0005696594280426347
-0.04213502180104861 0.01521690619331705 0.007009704988847243 0.01162471564654073 0.0030326492994880113 0.0005625846711123179
-0.03157994088327632 0.011177840451861888 0.006044590697870737 0.011681848523615139 0.003968427524613469 0.0004962326101522461
-0.02070333688978432 0.007128206733488337 0.0051155150491394175 0.012442681440557261 0.004454943797105777 0.00024535040308178575
-0.010103959078422724 0.0014236138008311928 0.004494423536578275 0.0112463211926641 0.0034834704717740593 -0.0005562176348536255
-0.0050713892199175 -0.0032078978841359393 0.004852922851463137 0.0070636590002232 0.0023789692716985654 -0.003934440700057133
-0.006936901372596793 -0.0018586345974277204 0.006639231499258872 -0.0028031004529179924 -0.00413725094648145 -0.0017167840894292217
-0.014073233887730659 0.002102615808302066 0.006081106718836966 -0.0044776161160553635 -0.00570105508398141 -7.827449250661096e-05
-0.03005930226211215 0.008605898622346729 0.006905212987418068 -0.004640342524211356 -0.007285970169132917 0.00020837586766762618
-0.046946551696509874 0.014002023377075023 0.00824620679993153 -0.004468792629792952 -0.006805306428733159 0.0005112381369554368
-0.0627611746931393 0.019103091547076918 0.009707825968990757 -0.004531393829792729 -0.005376991313294007 0.0007698963348100319
-0.07836874126612646 0.0243271578514723 0.010989070172708778 -0.004772058878411355 -0.0032356678281414363 0.001024226005620934
-0.09413788940151765 0.02963078080105939 0.011883459832821523 -0.005011552096005366 -0.0006313443507834977 0.001251855929116327
-0.10973232130027812 0.035788375064117764 0.012248952900873397 -0.005543745806324687 0.0019405784770104599 0.0014203319269
-0.12370299360458556 0.03901916919382324 0.011991101458435386 -0.00586431736317502 0.0036085386195147504 0.0013427326016650155
-0.14285008777060726 0.058967070761906354 0.011049800439220363 -0.012915697687963908 0.003446264143976032 0.0008307739604470018
-0.15570643149360786 -0.01218877418088304 0.010626802174433252 1.2663346646408732e-05 -0.0003507835772204081 -0.003939880053761915
-0.1429474812939101 0.0589496247005676 0.011185132833894147 0.012942330769644086 -0.00417215124631765 0.000824978562029948
-0.1238998005118028 0.038984918617766595 0.01226337021662808 0.005895019779777335 -0.0044048244111694465 0.001331594245207303
-0.11002978397217719 0.03573859802155609 0.012659026928969001 0.005581842114870916 -0.0028443040978010673 0.0014051620837711375
-0.09452983064264145 0.029567305131758696 0.012426241296329254 0.005061423708140703 -0.00039701659228349946 0.0012357632955088444
-0.07882656165440734 0.024252022817055505 0.011644166782075268 0.004839914374022167 0.002104923176277598 0.001014419882381374
-0.06320491224395758 0.019014695893098215 0.010424385321535298 0.004627828448807042 0.004242686153105038 0.000782713753691919
-0.04723091696148766 0.013886348545579826 0.008921867763654211 0.004602855207981507 0.005893791685127709 0.0005747470664791015
-0.030076094593907126 0.008455231343412264 0.007371687519510498 0.0047799569858043445 0.006928687727639323 0.00031885308404793866
-0.013914958863848678 0.002028199071145897 0.0061337982661065936 0.004529903335260937 0.005954515864819363 -2.576936653030653e-05
-0.006747517067026873 -0.001646638457084398 0.00620361001308346 0.0027643260329121592 0.004652342629644814 -0.002069874813972587
0.02834911676848765 -0.04115402437930921 7.047314121155779e-19 0.0031877007254125568 -4.874785742171178e-14 -2.418404425287221e-14
0.02899766520165271 -0.0005328757750838921 -0.002465806220332995 -0.00945422733946751 -2.4591995649060616e-14 5.644898611045779e-16
0.03502803699186586 -0.011592429428372757 -0.004627216350015405 -0.0036751144349787463 -9.329986598843182e-15 -2.0170293929012983e-15
0.047830847895838365 -0.014689955048668768 -0.006676434770159312 -0.004370185446565787 1.2612557753841763e-15 1.8151780534388096e-15
0.06284941953113332 -0.01987839084660008 -0.008128615392555353 -0.004672817229988232 3.986123497251581e-15 4.91207281013567e-15
0.07799022707588686 -0.02501220498925816 -0.008865102973380001 -0.005023161333960529 -2.3532015230734796e-15 -3.5264556574356176e-15
0.09329665590078388 -0.030514738707754847 -0.00882769387077673 -0.005470925987425856 -1.0009977872635356e-14 1.2805782909769414e-15
0.10977038190324753 -0.03656471751139566 -0.008029274544062619 -0.006199886338981439 -5.889223570615387e-15 1.2709641282124262e-14
0.12876559800439902 -0.043746948236088705 -0.006638306236943898 -0.006971606233625616 5.559910713250071e-15 5.5485333667025516e-15
0.14816273852591907 -0.05206369173994607 -0.005140896153797266 -0.005824745607657716 1.1481494330582362e-14 2.0574972389893198e-15
0.1572572779429541 -0.05739532535182177 -0.0044236508334439895 1.537200230158518e-05 1.410410145879365e-14 6.935166958939309e-16
0.14808860931762896 -0.052036586743666534 -0.005142276361298502 0.005856909626610055 2.52763643891242e-14 -4.779434226859225e-15
0.12860664305190173 -0.043686256945829394 -0.006646800718662587 0.007008312146793992 5.040659187792451e-14 7.799926611713748e-15
0.10950218582729299 -0.03645599884907179 -0.008057344745169318 0.006245271079082881 5.652086193823e-14 7.765733585698986e-16
0.09287369935922893 -0.03033285150955639 -0.008896037956872757 0.005530398819115425 4.839543411741358e-14 1.1101891433072664e-15
0.07733475339513773 -0.024714772851200932 -0.009003134511222914 0.005105077250799407 1.563179652993435e-14 -1.6300234274325975e-15
0.06183548193143548 -0.019406535026255816 -0.00837404279653617 0.004782516507155888 -2.7388037855419906e-14 1.868242973518397e-15
0.04626962866604587 -0.01394094581104194 -0.007068838898573499 0.004547142300827242 -4.208321245733476e-14 1.669501939038226e-15
0.032507706936589456 -0.010458002834386729 -0.005264397817594616 0.004003170286458337 -5.4710969370382057e-14 3.4261940615350206e-15
0.02328494923105916 0.0014645223864703945 -0.0035438908559169307 0.009021666944249425 -4.8729522546535516e-14 -1.8541212402217733e-16
0.020073818010347022 -0.03878727311714418 -0.003615870260121078 0.011484201489003653 -4.3869801454737845e-14 -2.212862055053777e-14
0.01185355136697339 -0.035796778801076186 -8.915398406731828e-05 0.00025027505677633775 -1.4891156003052873e-14 -1.467558442391076e-14
0.014007521596980325 8.129072148987586e-05 -0.0012654134135692552 -0.010386314414993382 -1.3775054569773772e-14 -6.036237997072633e-15
0.021977630893477713 -0.008525090219238533 -0.0029197871735029734 -0.009617872413689763 -1.032385101343812e-14 -6.037420455067e-15
0.032534198712379024 -0.011962411466715537 -0.004411693761555512 -0.010911800631566177 -4.885215089444131e-15 -2.3930374825828493e-17
0.04233502114701922 -0.01595397235776359 -0.005487258931918792 -0.011724704207196693 -1.8486026088121747e-15 2.0906873779945323e-15
0.052429515227313546 -0.02007384655852409 -0.006034707126282408 -0.012373930716576671 -2.9999569180812896e-15 -1.3014220777429752e-15
0.06263434142974092 -0.02443743704341219 -0.006045766237385797 -0.01335127017341346 -6.317338586113181e-15 -4.339234592302954e-15
0.073461782619527 -0.029122265222215813 -0.005559109442207159 -0.015093047321036284 -4.645028732854807e-15 5.213840156056276e-15
0.08551969650716207 -0.03466608735147506 -0.004699605203663364 -0.01734398037560564 -3.1949930304501703e-15 -6.900940051606658e-15
0.09743852863851542 -0.04210139318954297 -0.00375714464865839 -0.015123383508393918 3.5466743338865778e-15 -9.058773425395933e-15
0.10293490209356695 -0.04872647742705263 -0.0032817688251118703 2.975496899301968e-05 1.1617016214011261e-14 -6.370561901353905e-15
0.09735117747502592 -0.042078168039251074 -0.0037295625349098856 0.015186658915998899 1.2471391242852362e-14 -1.4215462574435067e-14
0.08533536754723596 -0.03461375189868709 -0.004648559483593109 0.01741948470356561 2.5482789706501863e-14 -5.205031013404832e-15
0.07315942732795615 -0.029027880622694364 -0.005494020657380799 0.015192251379333565 3.513625479976967e-14 8.64095578943791e-16
0.062177039530308995 -0.02427832239376785 -0.0059833409742080755 0.013491018163842647 2.445455375369853e-14 8.817003117195243e-16
0.05175599174217258 -0.01981252285071889 -0.006001307752194988 0.012577527630776044 1.0369559452370804e-14 2.203119143281279e-14
0.04134896316641439 -0.01553197008008805 -0.005519451588690942 0.012023012483554156 -1.0322732929947745e-14 8.603981107224365e-15
0.031076889621607616 -0.011303207041302341 -0.004564963926749993 0.011370501464669594 -2.495055147189694e-14 9.603110678619436e-15
0.019819987499911283 -0.007475773546749677 -0.0032766280476841463 0.0105049406729737 -3.2090935879231126e-14 5.11602479130735e-15
0.012151300165782768 0.0010749478339021539 -0.002248378003197158 0.011534248552196136 -2.3877654648158438e-14 -1.901358573624251e-15
0.010713215257872248 -0.033679901239192685 -0.0028696414161311443 0.0085101975195657 -1.502408427159728e-14 -3.264687240163433e-14
0.006001445601647537 -0.025452854089131068 0.0008550352743397781 -0.014298082499130515 -5.46364541879462e-15 -1.809126850063625e-15
0.00604635207162003 0.0003754062273884763 4.933991902569252e-05 -0.01796729133164688 -6.127446504832976e-15 -1.0029117429111514e-14
0.009875299573186967 -0.003057732154633962 -0.0010819539546998579 -0.017428313792134928 -9.811164416838195e-15 -8.971708602813558e-15
0.01644252795550102 -0.0062408527705646475 -0.002074342296277233 -0.019252533602181123 -7.963332925645377e-15 -7.700539153814717e-15
0.021687501781514105 -0.00817747040004668 -0.002743184045575813 -0.020336666929723263 -7.135857439747586e-15 1.913914990034349e-15
0.026630406501952985 -0.010199969693881388 -0.0030505757025336045 -0.021416821806976752 -8.47793159324461e-15 2.5051507634814285e-15
0.03155469900642983 -0.01231566775647727 -0.003021485544575561 -0.022976341478210302 -5.674604056505987e-15 -9.005051207749276e-15
0.03645741232171337 -0.01426223605552791 -0.002705616431688929 -0.025631807544043185 -9.543904769672255e-15 -7.333245339094518e-15
0.04214097195243658 -0.01653723106248117 -0.0021697506502694783 -0.0296220348582159 -1.0693363207447178e-14 -1.8599840634694886e-14
0.04969438428034702 -0.022999262276053888 -0.001532115662126016 -0.02730539344985795 1.0231302499555221e-15 -1.3057541430484126e-14
0.05399957598297027 -0.03416073216402705 -0.0011493920076405186 4.649319052570987e-05 1.976905442189862e-15 -1.656915029442027e-14
0.049595612571143755 -0.022983997764054274 -0.0014763077431788783 0.02740456830884696 6.796998944583188e-16 -2.117623703343577e-14
0.04193547848543916 -0.0165020503469133 -0.002061023598012834 0.02974137110766692 8.715613273408904e-15 -1.2233601989503767e-14
0.03612888293269147 -0.014197111105883021 -0.0025512433128754702 0.025790544715073555 1.4198249170880965e-14 4.774534988292306e-15
0.03107667703955363 -0.012203270306583745 -0.0028360577469022518 0.02320332232287628 1.2440098669407236e-14 7.046907545341097e-15
0.025961154289704712 -0.010010551164844212 -0.0028598910639736114 0.02175478077798262 8.543967764120214e-15 3.719107880277746e-14
0.020763672392191 -0.007862518629135605 -0.0025894974389302165 0.020843118031226685 -5.367618140597347e-16 2.2156183002641425e-14
0.015174296064253795 -0.005736331051262987 -0.002022401879097706 0.020047656672368144 -9.375596781953984e-15 1.609627212875893e-14
0.008572031101976792 -0.0023846581067427687 -0.0012586818062515477 0.018766140534860067 -1.5406929611229067e-14 8.462740057335605e-15
0.005394850952603833 0.00022254555849061158 -0.0007578026120689081 0.019947094640440952 -7.710681949841614e-15 -7.421878866695208e-15
0.005838499650019681 -0.023736595621776196 -0.0012342149549736778 0.016211697499410597 -4.487923602896921e-15 -4.879419351205838e-14
0.0017856763351141985 -0.016090084287860584 0.0023494004837369717 -0.01599675241559182 -9.812670229660176e-16 8.3476113391448e-16
0.00013106121316773522 7.289723103044426e-05 0.0014934489807069953 -0.02148312696034102 -3.2510310361746203e-15 -8.132224413185188e-15
-0.0007526450657787463 0.001082222523146998 0.0007914932591714845 -0.02174178226337396 -9.940024809653412e-15 -1.056806755279048e-14
0.00046211077626116484 -0.0002930150162905381 0.00028174003411446765 -0.02215156396770878 -1.0775114592351427e-14 -6.05831167567808e-15
0.0008595981609722078 -0.00043474395346769913 1.896780192455907e-05 -0.023201004037601673 -1.1190946783081086e-14 1.1434877025297274e-15
0.0007034432095707744 -0.0003080553814506071 -2.7144834447081507e-05 -0.02442957464991457 -1.306871379505841e-14 3.147777719904321e-15
0.00034675413097138435 -0.00022649093031215452 8.006994443091101e-05 -0.02620110831965046 -1.0315440823304833e-14 -5.41667405373758e-15
-0.0006167566106747346 0.0003926817254481999 0.00028673430146193454 -0.028595520326787527 -1.4174705043079085e-14 -1.2462517725696926e-14
-0.0011605099875925903 0.0015494917543811511 0.0005827800158362746 -0.03287892715795354 -1.487046044705261e-14 -2.800877070422217e-14
0.003183401647238496 -0.004178065812214878 0.0010058785104322201 -0.03395110463378842 -5.669981374196347e-15 -2.0200631261051843e-14
0.007327445543178432 -0.02439174252080815 0.0013497223138536744 5.2154147123785176e-05 -6.8331640750573944e-15 -1.7828024213156768e-14
0.003073811773863278 -0.004171033541377777 0.0010898267444052648 0.034062421154231796 -8.413222722997355e-15 -2.4035799934575552e-14
-0.0013857300050724277 0.0015669612543436364 0.0007488706191686278 0.03301307442518068 -4.315322481625051e-15 -2.4630105355423482e-14
-0.0009686930478854623 0.0004277361258756156 0.0005294545498909654 0.028774176907758773 -5.980167804096187e-15 4.904205568121572e-15
-0.00014688621605546824 -0.00016183172842034688 0.0003862906543329098 0.0264573333606369 -8.96739805214498e-16 7.466615758837392e-15
4.924434098144397e-05 -0.00019242302819160034 0.00031572154842987804 0.02481425138833474 3.726171626838078e-15 4.145167824438911e-14
1.69155333858399e-05 -0.00023096203871996482 0.00034973272282452555 0.023791812011647807 6.7196089323243516e-15 2.591120880682772e-14
-0.0005209416143853647 4.245600911982036e-05 0.0005180947963141108 0.02306392228869241 2.8036341626655296e-15 2.2270407089644562e-14
-0.0015137645323089885 0.0013116628253780648 0.0007745971230209341 0.023096720966817804 8.562969465984206e-16 8.832517372657153e-15
-8.0804414387486e-05 -0.00018786031848849565 0.0008931537157902882 0.022504406262576493 3.21941976658309e-15 -1.0699672755871276e-14
0.0018637230889862134 -0.014746028562017928 0.0007738710761797098 0.01638535206938245 4.387068236900299e-15 -5.1183178789021566e-14
-0.001894171911237552 -0.008428538512823668 0.003999126335174496 -0.012963910372455187 9.028769824338291e-16 -2.6020852139652106e-18
-0.00507019336302505 0.0005240184242014864 0.002974876396155653 -0.01895729835321054 -3.098610845447998e-15 -5.233491320432576e-15
-0.010560115227088758 0.004288206325104918 0.0026614190388789235 -0.020236468873752255 -9.931679841057063e-15 -9.631432072243831e-15
-0.015137263864761028 0.0054836534855475004 0.0026308932463325516 -0.01964708161943842 -1.2850594340810956e-14 -4.335067190202463e-15
-0.019984772621273527 0.007372271868921697 0.0027728146703495755 -0.02027662581330654 -1.426466333020928e-14 4.4276106218876787e-16
-0.025283813814978556 0.00958905978648769 0.0029901021037465722 -0.02142212701846735 -1.9517115483166144e-14 3.4030802264703452e-15
-0.030775630079629142 0.011937848516133196 0.0031780864603725314 -0.02293468577151366 -1.7151957825344374e-14 -3.866102316757436e-15
-0.03716276227158975 0.014550873529809969 0.0032750882426734024 -0.024820753425073585 -1.6865160780914863e-14 -1.0734597618352465e-14
-0.04437578217098472 0.019210237064475416 0.0033175300723849227 -0.02693706678927254 -1.6383980421821008e-14 -3.042816785212357e-14
-0.04381123740053322 0.017440280646045643 0.003488544886373089 -0.035041302973744776 -1.4003006382472954e-14 -1.8911426786540064e-14
-0.039673720221102736 -0.01845796501724822 0.003759107563177091 4.6841429148870324e-05 -1.423713454766528e-14 -1.6808515029050758e-14
-0.04393223918260011 0.01743908969585161 0.003601188252184558 0.03514121564222566 -1.5468796050663574e-14 -1.8529042232831583e-14
-0.044622023984973634 0.019210038479194672 0.0035421630028879283 0.027057216464661027 -1.936056770088755e-14 -2.2112323636632597e-14
-0.03754044984774961 0.014556039129016103 0.003608118089941021 0.024980203374076658 -1.900770182187441e-14 6.032534769027237e-15
-0.03128813276053832 0.011955236070229528 0.003608070743362019 0.023162453878190978 -1.5114286927732758e-14 1.015851357026587e-14
-0.025926628457642625 0.009629998209217816 0.00348959041268654 0.021765749138602287 -1.2594507481735774e-15 3.97999097871346e-14
-0.02073192809938537 0.007460355042376435 0.003286448119114115 0.020810698259935905 1.2332540519940753e-14 2.3858211006854216e-14
-0.01587060297128301 0.005614570161182616 0.00305766560030955 0.020465501814639367 1.3911997774488163e-14 2.2050490231483033e-14
-0.011007053315156064 0.004286409456255258 0.002822091000958409 0.021191001848131497 1.6639719997387815e-14 7.9348149144981e-15
-0.005106834620188044 0.00034472876741811667 0.0025919223320870995 0.019348762457387515 1.4543765768527256e-14 -8.680319104562711e-15
-0.00175156271719995 -0.007530193979300225 0.0028280575712424628 0.012832334001390973 1.1453362672338152e-14 -4.540286332663235e-14
-0.0049573284637586135 -0.0034215144313024253 0.005455934071772784 -0.007094572484110572 4.271621034321327e-16 -9.299642490540744e-16
-0.009795696048214276 0.0016174988226512542 0.00434787456404966 -0.010835556764409626 -2.906671485534279e-15 -2.8609046013282347e-15
-0.01999014760525095 0.007186204896545133 0.0044863420193851054 -0.011892303525016532 -1.0089307590343405e-14 -5.505212713648178e-15
-0.03047581066799533 0.011143099487609618 0.00494705952658442 -0.011385920583603501 -1.692816351504811e-14 -3.524361791990005e-15
-0.040753157596937616 0.01521722599305447 0.005491900674676203 -0.01166446092745386 -2.1130939405482503e-14 2.6013093317855257e-15
-0.0511545563177878 0.019526132211076148 0.005956158712726594 -0.01237506762671333 -2.0089728813751364e-14 -1.6166199780752455e-15
-0.06187285873523474 0.02407026180154954 0.006191130025226364 -0.013318813012949269 -1.5996672065590137e-14 3.499601324875867e-17
-0.07267872738359275 0.02906628875961086 0.006119598180992698 -0.014175215585441495 -2.035981246876345e-14 9.711063333681103e-16
-0.08658993450022413 0.034093923552607125 0.005807431911804498 -0.01575733696320564 -1.786304055519626e-14 -1.4075078721888928e-14
-0.09298507037898046 0.04527635210543008 0.005580092753154673 -0.020972013586082236 -1.8375842771793487e-14 -3.318309169109135e-15
-0.09084351822820028 -0.014198425000711673 0.005626297751127492 3.0363161948270353e-05 -2.0435665963255967e-14 -1.0746378152582878e-14
-0.09311927342596746 0.045267216621886264 0.005722630635163711 0.021036577708309984 -2.5124637071348432e-14 -3.3333863555702614e-15
-0.08686121576234321 0.03407665595333954 0.006093295732175904 0.01583429998923744 -3.463001031225009e-14 -1.0369177440511593e-14
-0.07308938014294704 0.02904264864441784 0.006547773104392376 0.014275984740790474 -3.513574065077069e-14 9.328936277988586e-15
-0.06241673546738263 0.024042039032880328 0.006753086529967449 0.013460622484815546 -2.9060393871973905e-14 7.461767342247308e-15
-0.05180242691007628 0.01949496860606562 0.006625923653798755 0.012585812691058348 -9.47195609706658e-15 2.295672739361862e-14
-0.041425418713953624 0.015181775347260137 0.006210220885103941 0.011990686846170903 1.5229831962617138e-14 1.3843201758512169e-14
-0.031014142647623276 0.01107547947389156 0.005597886391370326 0.01186295421852287 2.7849193085091248e-14 1.0787401652284298e-14
-0.020215313323085918 0.007018373084223001 0.004870278546768373 0.01236365476310616 3.550947784512065e-14 3.696529708848914e-15
-0.009716401943801722 0.0014749937392246292 0.004198477107224741 0.010930981614176058 2.884116522808202e-14 -3.3241909658948687e-15
-0.004769043404988101 -0.0029323118966322922 0.004615493788604186 0.006907884027622472 2.0118807878347078e-14 -2.903967756366643e-14
-0.006533780510649115 -0.001699945457259733 0.006272299868730988 -0.002815227609215926 6.229012531472344e-16 -1.4317431788757329e-15
-0.013544552000932625 0.002277400022247115 0.00547538733035696 -0.00427978940222071 -1.2177487750814064e-15 -1.0633041756108463e-15
-0.02927399271039797 0.008618155488338051 0.006191910996917593 -0.0044882546908063675 -8.79057568924091e-15 -2.9679763421247563e-15
-0.04586580859254028 0.013979699627910168 0.007164954727236254 -0.004435647341477944 -2.199293264865121e-14 -1.691355389077387e-17
-0.06137722729655525 0.019145807272496422 0.00809572405051904 -0.004625460177582565 -3.07935101029333e-14 1.1183274358644857e-15
-0.07678598589764868 0.02452248534624845 0.008756697804509697 -0.004993107349693251 -1.737657259292917e-14 -7.664035421919846e-15
-0.09259014273818522 0.03008304484409343 0.008953038255449929 -0.005373048326349586 -1.2449032961176637e-14 1.0114820222714704e-14
-0.10865677117767046 0.03666085308851805 0.00857841447276152 -0.0060198652821672055 -1.742253260064719e-14 1.3227266504323154e-15
-0.12369085612681378 0.040355592143126714 0.007722348338243076 -0.006342181868477797 -1.7566053863229958e-14 8.636890031291089e-15
-0.14395809463095996 0.06117544120730698 0.006831211138555543 -0.013592557434975887 -2.8319848636298994e-14 3.1815641701044006e-15
-0.15726160815484144 -0.012000570182772586 0.006414273761876913 1.7543291135433e-05 -2.6719755965090575e-14 -8.98800890485052e-15
-0.1441085111907192 0.0611624329625867 0.007005524475081712 0.013629871545832086 -3.10952164624817e-14 4.4921748612591905e-15
-0.12399390684168923 0.04033001129925887 0.008073713430744454 0.006386551329632765 -5.528558296927222e-14 5.807176571212547e-15
-0.10911257031963971 0.036623151098003806 0.009109566954990368 0.0060774004665609845 -6.334989228074656e-14 5.587842471718729e-15
-0.09318636496581256 0.030032689803649114 0.009660551345307642 0.005452161564484265 -5.153121446265299e-14 6.341037720944409e-15
-0.07747434300480519 0.024455924216764003 0.00961990306695656 0.005105676689656735 -2.2530873109057048e-14 3.3286904049106836e-15
-0.06202874489941244 0.01904854865667841 0.009057891353961563 0.004789299238309994 2.0656409525574015e-14 4.281134908384887e-15
-0.046252697344673174 0.01381392447462077 0.008102528915837189 0.004661424795183622 4.6784407944922e-14 1.9521060115601507e-16
-0.02924086654102502 0.008363024861064532 0.006879515621253144 0.004716140842732368 6.161019502730347e-14 1.1555968855436749e-15
-0.013265909135973511 0.00212509147098872 0.005600008901443952 0.004361045957264829 4.9694758941579154e-14 6.243649260800899e-16
-0.006229285531010724 -0.0013956310763887578 0.005678431108240147 0.0027727202370583636 3.5092154876403825e-14 -1.7842715152593946e-14
0.0267243951531081 -0.042560889722864315 5.692061405548898e-19 -0.0014004264986275372 -0.005137096292409694 -0.00044576992036236384
0.02810392190663671 0.00025974849443052963 -0.0028534560032086233 -0.009635848434114339 -0.007003764173443816 0.0005344654160488982
0.03517428896472596 -0.011371054521879923 -0.005449959475978816 -0.00381268390046889 -0.0065915556311457665 -0.0005162696054936441
0.04847515501672084 -0.014436561816374404 -0.007863150979363652 -0.004356725100678734 -0.005510040514127765 -0.0005957214474882973
0.06381197988039683 -0.019624124786562534 -0.009725486934145272 -0.004565323292036527 -0.0035431405450538217 -0.0008220811140172696
0.07916169406923329 -0.024651262806685198 -0.011032747015270768 -0.004793562637732911 -0.001079853440456439 -0.0010561988570017577
0.09447248705194711 -0.029937731544007817 -0.011695254397145636 -0.005101436501935665 0.0017042684223326351 -0.00127550222125709
0.11050526019554475 -0.03561144151054656 -0.011651736704884712 -0.005687378246595357 0.004363978169909666 -0.0013741563978698665
0.12846073910078823 -0.04225612457741479 -0.01093091177364511 -0.0063851404827331955 0.005850665483219717 -0.0011576307746955527
0.14651731088864525 -0.05001779953029942 -0.009840193382916465 -0.005363796724728531 0.004541139857888155 -0.0005013575425941847
0.1549533079127307 -0.055061104447340095 -0.009209274311267696 1.2410056661431648e-05 -5.865419623219092e-06 5.5053546373925435e-05
0.1464758258829614 -0.05000141066041936 -0.009846677166272941 0.0053893745181970865 -0.004546124607903919 -0.0004942395250840405
0.12837143003850507 -0.042219076952781175 -0.010948558742891752 0.006413063073782511 -0.0058346681494916945 -0.0011434797713931087
0.1103543294928693 -0.0355443798356869 -0.0116908768571091 0.005719610290856424 -0.004309493040297827 -0.0013536905015392434
0.0942357125854979 -0.029824556888983892 -0.011773793703136984 0.005140132916029588 -0.0015840024745193892 -0.0012508395691948303
0.07880066998972263 -0.024465861861157037 -0.011177793585172001 0.00484310011990126 0.0013151488733658962 -0.00103490250270327
0.0632626364431238 -0.019327353435664052 -0.009978119147798819 0.004623053455660556 0.003987316940735366 -0.0008096447377141496
0.04764856812852582 -0.013972436535702794 -0.00826682632269578 0.00446251176776311 0.006269859991075986 -0.0006470058402575023
0.033674819221261795 -0.010605247282529432 -0.0061230186677157 0.003963690649016641 0.00776404468892538 -0.0004742868768862971
0.024212919959522912 0.0015298261144917917 -0.003629878915645443 0.009416551627521407 0.007067441430740498 -0.0003817459170301315
0.02095211350970285 -0.0404585331723112 -0.003186186850726854 0.012094537906591329 0.006247320138656203 0.0037311442199226353
0.011799391337524657 -0.03668436730029036 -0.00042057876541542414 -0.002388801316612718 -0.0027197830503201312 0.0013313417213261425
0.013696763631392744 0.00047975616586280826 -0.001308268418163759 -0.010935674576759523 -0.003297045489288418 0.001119994375046919
0.021770845614377955 -0.008288983602081768 -0.003402488634036035 -0.009861075295937952 -0.00412722756619722 -0.0001239044021982134
0.0328219485094867 -0.0117931382081705 -0.0051198138498650585 -0.010868362838801557 -0.0034506238471343027 -0.00031308946815651595
0.042847816621705066 -0.01579175667176229 -0.006451261653940858 -0.01148854131093698 -0.0021858231743965683 -0.000457397050026415
0.053078099142589805 -0.019851407858948296 -0.007341446611297178 -0.011897301693878818 -0.0005843836738357025 -0.0005286454825197059
0.06327315116671886 -0.02406493128783933 -0.007777213851359296 -0.01256493005282509 0.0011638331705012643 -0.0004608391639070824
0.07382270974278927 -0.028484155349078104 -0.00774100593719255 -0.01394682513806728 0.002777931413167857 -8.293061021870804e-05
0.0852712988929594 -0.03364700991548102 -0.007273559075316972 -0.015961937794902677 0.003656328088415506 0.000878656367644609
0.09643101968763715 -0.04069026915177423 -0.006550688809390186 -0.013988456246481191 0.0028515715654946847 0.0024873505887496954
0.10156309242679532 -0.04703713860100929 -0.006088589954894471 2.406941934608592e-05 5.266230278096255e-05 0.0036355796929689616
0.09638013105711597 -0.040677132869588524 -0.006533969790909458 0.014038798747535839 -0.002736278278219725 0.002489040698260236
0.0851638447546919 -0.03361680605321018 -0.00724376763447342 0.016019266804222828 -0.0035107272763982666 0.0008802801239783511
0.07364682628096397 -0.028428318912538 -0.007706614969245265 0.014017195834165885 -0.0025797412237423337 -8.591877916999603e-05
0.06300959924430208 -0.023968755961386177 -0.007753673831486221 0.012656681231138216 -0.0008851944069912975 -0.0004780875032865762
0.05269671626685558 -0.019690854407959098 -0.007354763204650912 0.012022276521048677 0.0009859157531178792 -0.0005788830724890605
0.04230563540067303 -0.015529933451388315 -0.006539810111698746 0.0116601698547116 0.00277368374378848 -0.0005704915327666717
0.03202071417655551 -0.011380622237652693 -0.005347063742902035 0.011134839747904485 0.004318979506264577 -0.0005400213684491327
0.020477353367127114 -0.007584336943462355 -0.0038258726333606475 0.010375521911434399 0.005133313398322449 -0.0004773032899280048
0.012552168858797178 0.0011159459248020658 -0.002153762440292178 0.011887925356085207 0.0036905188405098395 0.00013839223469569638
0.011129528392141727 -0.03510786820767619 -0.0024113568484491338 0.008983329924564718 0.0024133413073313785 0.004826364751117174
0.006068219965559103 -0.025740649588829295 0.0007572024862688762 -0.015482149701612343 -0.0009542014905818453 0.004589980963536004
0.005891125076068449 0.0003390519732000494 5.9070563861389345e-05 -0.019034352346833892 -0.0012004354687965685 0.0016928440889054307
0.009619677420920155 -0.002857216325105075 -0.0013166373153425052 -0.017743264375686133 -0.0016795034314772315 0.0004314121883807733
0.016415202322307476 -0.006133328760380233 -0.002435727802483232 -0.019172362149552574 -0.0013864877489610599 6.176873797601803e-06
0.021815810495500156 -0.008103218286447942 -0.003213065867960527 -0.019915651995308793 -0.0006745183524994063 -5.261195436399727e-05
0.02683410101802971 -0.01012262924241728 -0.0036822983445907744 -0.020621961385877005 0.00016943081837725117 7.699568811210055e-05
0.031766296936559746 -0.012191297671231536 -0.003862932942940454 -0.02168264743160157 0.0010445052852675327 0.0005018640242637119
0.03655876356622736 -0.014051021576799704 -0.0037715494853125657 -0.02374704063913884 0.001859398080259387 0.0014486544822875412
0.041971925196517046 -0.01619489179100443 -0.0034293403282932484 -0.027333351476413532 0.002417455565107838 0.0032566983795894386
0.049087944211427204 -0.022509336069659765 -0.002851739952720298 -0.02536242392647857 0.002075964239279016 0.005970881060431292
0.05314410911453635 -0.03336072603147396 -0.0023417840259240988 3.883732229068827e-05 0.00011012351862069263 0.007932740669374402
0.04902863510369847 -0.02250289801539387 -0.00281213128079606 0.025443769308647238 -0.0018431722992311465 0.005967306033474664
0.04184850614950945 -0.01617878789526202 -0.0033528654341646383 0.027426368984557775 -0.002147226568869842 0.0032458879817686163
0.03636190699758387 -0.014018301766439627 -0.003665080382426859 0.023861934951750506 -0.0015272525546429277 0.0014216253053386495
0.031482179716308935 -0.01213013382977261 -0.003740353412299967 0.021833949561644986 -0.0006255435409494994 0.0004404487616467517
0.026443788538085763 -0.010012950695158075 -0.003568708933060093 0.020830600462878907 0.0003642249707151248 -5.1499097185094204e-05
0.021291535823444018 -0.00791473125340014 -0.0031509025761873384 0.02021184451909505 0.0013600587048289159 -0.00030388509979760306
0.015697529844325934 -0.005814483723530978 -0.00248996090793299 0.019624908757159398 0.002248582696547713 -0.00042933169117840534
0.008878048245227302 -0.002406033385671824 -0.001583167139194021 0.018560060048797376 0.0025411536433392118 -0.00034942922103420337
0.005558812970786263 0.00024124125305583844 -0.0006436389697866774 0.020457845764297586 0.001445572868311804 0.001023967144832515
0.006051221134475586 -0.024752651339875628 -0.0007464371816546888 0.01693954413172139 0.0006513191724351716 0.007099576957340766
0.0018009772934184085 -0.016261862884996803 0.0023444125916956046 -0.016680454509239738 0.00011361338206224393 0.005885358342487291
-1.9656416841322015e-05 -7.719028238821161e-07 0.0015622297366373083 -0.02231277722320295 0.00036518783078717755 0.0019883408064887407
-0.0010608610097347655 0.001213043278497341 0.000763575339221883 -0.02213635599488061 0.0005227929908897105 0.0005952931158598956
0.0001922680522082258 -0.0001511272490063664 0.00025547259866879983 -0.022054500919466483 0.0006709521431071424 0.00011540548548014031
0.0006312563314304381 -0.00033553338222185074 3.509607116256767e-05 -0.022708389812613562 0.0008799155597297214 3.565107101045764e-05
0.0004977774309702664 -0.00022983894123865367 6.675542357283067e-06 -0.02351112758461748 0.00103443979573444 0.0002266915620892375
0.00017202649088127268 -0.00016739483428044788 0.00010580199982904094 -0.02473158106407185 0.0011173803148605238 0.0007601768620080508
-0.000741598426795988 0.0004161398570029051 0.0002940693578202807 -0.026492763119069 0.0012254103591805713 0.0018531542731609332
-0.0012543637248181704 0.0015350088995414258 0.0005628331450744219 -0.030369195020014686 0.0015356062924932656 0.0038457209492830124
0.0028764723094865004 -0.004192611240388558 0.0010497660396779167 -0.031718184425248375 0.0016307274254078515 0.0069390380180237386
0.006816826654221872 -0.023983575502951836 0.0017421169803811531 4.4012472796926506e-05 0.00016741977803343692 0.009467268946289511
0.0028090245779046957 -0.004193132848843294 0.0011123078779519907 0.03181037945484569 -0.001281011875973685 0.006933862275475758
-0.001393111551642495 0.0015364583945381566 0.0006860596571723629 0.030474636775821285 -0.001142215011779454 0.003831097841541698
-0.0009583580567200745 0.000424843049347057 0.0004725983147134296 0.026622982627028825 -0.0007626249990917299 0.0018186611161769674
-0.00013053555982104844 -0.00014247495175896197 0.00032720971798013885 0.02490312075885036 -0.000565271525333792 0.0006851494057889422
0.00010255377546834773 -0.00017365252502197153 0.00024579797295605624 0.02374933450495502 -0.00038137612982245455 7.273110524905342e-05
0.00013346976602771787 -0.00022212332262752296 0.0002461964499274671 0.023053825122112702 -0.000124932671491596 -0.0002593103857905091
-0.0003752971969893255 5.634773364105165e-05 0.00036359141587866936 0.022580363125632198 0.00015075238417451401 -0.00041585374014582293
-0.0014768698470709572 0.0013699209353144226 0.0006498527130284369 0.022967034481397784 0.00015732598709004622 -0.0002355404898814843
-8.514500788807062e-05 -0.0001699341337626526 0.0010300795380099835 0.02300585486853303 -0.0002218225698141246 0.0015012838734350944
0.0019194296892403677 -0.015446919922973208 0.0011797552080498545 0.01697310925044204 -0.0003523428476877397 0.007517356397804149
-0.0019938957875544555 -0.008531384094311766 0.003982443638360054 -0.013308622923026052 0.0010125724595901927 0.005530564673821585
-0.005302387406846987 0.0004547422075549186 0.003126259961524786 -0.019546690073233532 0.001807742960258161 0.0016979361500697246
-0.010971783049459432 0.00439141405823765 0.002833626177856286 -0.02061955218024126 0.002648906230668242 0.0005074474045187847
-0.015636077278026635 0.005638710256474118 0.0029349896479590287 -0.01961787815951601 0.002711768413518408 5.781799052738033e-05
-0.020559590368690765 0.0075008760920776225 0.003273110025861533 -0.019867287014980063 0.002443878885450167 -5.502784959198705e-05
-0.0258985674100184 0.009669133080853319 0.0036896175280763765 -0.020622151018136744 0.0019105064870019888 7.810852738069069e-05
-0.031342940797168435 0.011931013037740404 0.004072491579152841 -0.02164590562003598 0.0012050120476318762 0.000507889334227268
-0.037534874166353795 0.014406440636513489 0.0043579155451393395 -0.022981853784316653 0.0005613130188443944 0.0013896006858825543
-0.04439169015809134 0.01885601930423315 0.0045319586093867355 -0.02483070260636182 0.0004905161791736726 0.0029897414173812053
-0.04379966411137671 0.016927403523735122 0.00480028745332864 -0.032945018390906924 0.0010276290939087622 0.005826532023409864
-0.03983603257429943 -0.0183216975707107 0.005743568542732913 3.896929154090804e-05 0.00022584237749939407 0.008745699251294873
-0.043875696924025306 0.016919915296692227 0.00488619254434878 0.03302663431713598 -0.0005585876260785932 0.005823417658497517
-0.04454674783044998 0.01884278735887049 0.004702865161995419 0.02492398025393403 2.891355950728764e-05 0.0029798761707495406
-0.03777325645041937 0.014391128641428523 0.00461008166680542 0.023096868081004956 3.581236103391638e-05 0.001364123562888694
-0.03166643955086207 0.0119196237611634 0.004395135248616024 0.02179712209386786 -0.0005146242340048346 0.0004490187804642452
-0.026301946754712376 0.009671322639843636 0.004057849699269447 0.02083322380233694 -0.0011318547660249926 -4.7381179494700786e-05
-0.02102140131467046 0.007535909443992976 0.0036376460059683573 0.020178374486959142 -0.001614018550736872 -0.0003062703737144762
-0.016076841856334224 0.005711093666439438 0.0032097137739395694 0.02009288845421613 -0.0019282643914971373 -0.00040754161006051207
-0.011219227844477438 0.004394832080569536 0.002884187122724855 0.021195754913618355 -0.0021191184854993613 -0.00016737000732309918
-0.005282906799783181 0.0003493717459896815 0.0027759843169430694 0.019802071474534107 -0.0017353611480310966 0.0013378310778533924
-0.0018588355519008023 -0.007957448860207992 0.0031027587468641675 0.013223101127733563 -0.0012066335380892504 0.006585299429149946
-0.005210908629547108 -0.0035355656580032813 0.005485439081135685 -0.007190977983157202 0.0021472316568155914 0.003344850599615675
-0.010167850369417463 0.0014959920690901447 0.004652657473517914 -0.011184307850093249 0.0034588615698348327 0.0007386477967913659
-0.020562037261684228 0.007227560106949727 0.004877160472297712 -0.012160932961768187 0.0048741926806376125 9.935681115788532e-05
-0.031231245212401858 0.011232377733628087 0.0055853974032579355 -0.011405462577303235 0.004764650224801971 -0.00026268575380776406
-0.041697792136304535 0.015264431239870873 0.006479404571851281 -0.011435678186630395 0.003976272622585064 -0.00045155350411426736
-0.05221320158889668 0.019465698160997115 0.007330081174501734 -0.011894648333777715 0.0026980507083969106 -0.0005259660286786698
-0.06287655679899869 0.023818566117179044 0.007981757833114915 -0.012534347160686337 0.0011198716474506306 -0.0004569504691853911
-0.07336616582624199 0.02851190132857382 0.008322867110575774 -0.013082461073997055 -0.00038252611256743547 -0.00014442081459759937
-0.08653240256306174 0.03315465083738478 0.00834264177923199 -0.014544580624996112 -0.0011772594678434714 0.000523242246949771
-0.09252083028582761 0.04377558346205153 0.008082727924218748 -0.01975846844298155 -0.0003229868735702215 0.0023186519520559763
-0.09047136890393861 -0.014286648812368644 0.009083992217555925 2.4348762772974694e-05 0.0002866708460903467 0.0056235835510995555
-0.09260662134337998 0.043761390019816035 0.008192795320240288 0.01980939550254654 0.0009167115094287522 0.0023213234715785368
-0.08670632988338917 0.03312726795477818 0.008562994542706263 0.014602546432811616 0.001829864749803315 0.0005268364063171041
-0.07363058779312104 0.028473411831086735 0.00865177009882268 0.013153428238296683 0.0011246650082406212 -0.00014433043676024496
-0.06322845308459371 0.02377209496592519 0.00841072676343532 0.01262683191121812 -0.0002743084419900586 -0.0004695781312648875
-0.05263404586652501 0.019415959355584503 0.007835534336257896 0.01202243160416165 -0.0017668280510016617 -0.0005696594280255291
-0.042135021801008796 0.015216906193314145 0.00700970498884907 0.011624715646513883 -0.0030326492994738495 -0.0005625846710878957
-0.031579940883248815 0.011177840451848811 0.006044590697869677 0.011681848523595236 -0.003968427524567862 -0.0004962326101339141
-0.020703336889765167 0.007128206733485764 0.005115515049137551 0.012442681440526958 -0.00445494379703885 -0.0002453504030731242
-0.010103959078414352 0.001423613800826303 0.004494423536574995 0.011246321192648318 -0.003483470471720855 0.0005562176348476364
-0.005071389219913116 -0.0032078978841323337 0.0048529228514621265 0.007063659000217987 -0.0023789692716625517 0.003934440699999013
-0.006936901372595706 -0.0018586345974344368 0.006639231499263241 -0.002803100452911818 0.004137250946484422 0.0017167840894309117
-0.014073233887733842 0.0021026158083176727 0.006081106718838946 -0.004477616116057676 0.0057010550839792585 7.827449250320906e-05
-0.03005930226212382 0.008605898622345379 0.006905212987418394 -0.004640342524215582 0.007285970169110493 -0.0002083758676701969
-0.046946551696515036 0.014002023377089081 0.00824620679993096 -0.004468792629784525 0.006805306428696229 -0.0005112381369593271
-0.06276117469312492 0.019103091547076696 0.009707825968991769 -0.004531393829787853 0.005376991313255987 -0.0007698963348122575
-0.07836874126610738 0.024327157851433467 0.010989070172707017 -0.004772058878416936 0.003235667828081526 -0.0010242260056086954
-0.09413788940149931 0.029630780801108654 0.011883459832805846 -0.0050115520960198855 0.0006313443507057543 -0.0012518559291207678
-0.10973232130026195 0.035788375064116286 0.012248952900851389 -0.0055437458063477526 -0.0019405784770623069 -0.0014203319268877637
-0.12370299360459155 0.03901916919384772 0.011991101458412623 -0.005864317363178259 -0.0036085386195389493 -0.001342732601664735
-0.1428500877706108 0.05896707076192622 0.011049800439203629 -0.012915697687977689 -0.003446264143999933 -0.0008307739604555364
-0.15570643149360106 -0.012188774180950051 0.010626802174421038 1.2663346638540053e-05 0.00035078357716434336 0.003939880053732079
-0.14294748129392745 0.058949624700591126 0.01118513283387865 0.01294233076964475 0.0041721512462283 -0.0008249785620383011
-0.12389980051182473 0.03898491861777663 0.012263370216606452 0.00589501977978136 0.0044048244110822974 -0.0013315942452151329
-0.1100297839721676 0.03573859802150066 0.012659026928957927 0.005581842114882957 0.0028443040977249967 -0.0014051620837784275
-0.09452983064259654 0.029567305131762416 0.012426241296324195 0.005061423708165442 0.00039701659221783096 -0.0012357632954957285
-0.07882656165433416 0.02425202281699281 0.011644166782083241 0.004839914374023568 -0.0021049231763035094 -0.001014419882368122
-0.0632049122438842 0.019014695893075025 0.01042438532154149 0.004627828448793576 -0.004242686153078071 -0.0007827137536796956
-0.04723091696143973 0.013886348545560215 0.008921867763656893 0.004602855207981756 -0.005893791685052524 -0.0005747470664668327
-0.030076094593883742 0.00845523134340968 0.007371687519508572 0.0047799569857897494 -0.006928687727538305 -0.000318853084044288
-0.013914958863842869 0.002028199071148599 0.006133798266100961 0.004529903335251223 -0.005954515864728225 2.5769366525243617e-05
-0.006747517067026188 -0.0016466384570849796 0.006203610013080226 0.0027643260329058596 -0.004652342629570394 0.002069874813937866
0.019250170342931052 -0.049216489024395765 -1.782157321023048e-18 -0.02228596923690578 -0.01188940001341802 -0.004205787654178429
0.024402906399493392 0.002463400669150321 -0.0030540396288007373 -0.009962730687468384 -0.0128288472642582 0.0013182258352981244
0.035696781361365934 -0.010928878452698996 -0.006917077552725239 -0.0035603106228265795 -0.012033083885521625 -0.0003293532008226517
0.049793777878578784 -0.013678896672207603 -0.009840300649922277 -0.0038699445052791572 -0.010692496713283704 0.00022526837452670401
0.06599755109885659 -0.018799510849359755 -0.012691510770592147 -0.0038434472618299777 -0.008160904060171358 2.311805144855709e-05
0.08235875132967306 -0.023580060660722577 -0.015280962313969007 -0.003941657073497435 -0.004881268060506118 -1.5726338911523294e-05
0.0983695991167085 -0.028426934619739774 -0.017514727492159963 -0.004032882856511967 -0.0007589537915877943 -7.379817260750045e-05
0.11395439062183757 -0.033235657351481415 -0.01922900513251306 -0.004247567556976909 0.0037942921410300677 -5.847959134764978e-06
0.12907985028479632 -0.038162914815573004 -0.02022941961213329 -0.004463032634974767 0.007337093538764752 0.0004789106446863843
0.1422328099908294 -0.04320854746128942 -0.020453113306216436 -0.0035936065096413066 0.006704106802582579 0.0018396367863818754
0.14795613081089562 -0.04635243411433297 -0.020336577827411745 1.2096736850803695e-05 -6.346929197801156e-05 0.003264730438879285
0.14226837831869057 -0.04321730864377199 -0.02047135539530628 0.0036176112878262795 -0.00682390642545364 0.0018480110722472675
0.12915623866365017 -0.038181024254862465 -0.02026967828562362 0.004486150897770301 -0.007434410607905415 0.0004953631314523506
0.11408413120525478 -0.03326461304332277 -0.019299739485463232 0.00426796159112635 -0.0038501094399575036 1.7087044496917064e-05
0.09857774414782308 -0.028469986966494096 -0.017630877579382604 0.004047148841245955 0.0007739722740474599 -4.6512870301678236e-05
0.0826914835599759 -0.023644326778934997 -0.015468403439898335 0.003942438922697016 0.005011674894854263 1.4412956322228327e-06
0.06654223725786114 -0.01889907652471806 -0.012988906949387806 0.003828298151164209 0.008506356979042881 4.7243152360121625e-05
0.050685874777750425 -0.01383827798868267 -0.010327032144736228 0.0037957796196305222 0.01128767965500646 8.736943375298374e-05
0.03734016267343944 -0.011242578752890052 -0.0076062176863080574 0.0034226930349476044 0.013587602591136031 6.503551830126386e-05
0.028087143855154824 0.0017893404435467184 -0.0043148688290290576 0.009879191783434427 0.011480477630005858 -0.0015550500222750033
0.02443653470075284 -0.05006500823424995 0.0018426878434738853 0.013168289109972423 0.009698862930004548 0.00774830002275508
0.011523440208232046 -0.04332880483095031 0.002295433450925045 -0.014301507898320673 -0.0020023404180426942 0.0003941061516035264
0.012797918197995613 0.0013972243264506667 -0.0016130494770946293 -0.012424632826009531 -0.004313981446430802 0.0011980321515605505
0.021086579125797367 -0.007491957245500284 -0.00438760770096057 -0.009782227073280966 -0.0073391671729545645 -7.865745079138593e-05
0.033273090276773214 -0.011002317091068631 -0.00669422331704105 -0.010157239735175985 -0.0061544483655738905 0.00010594004589617985
0.04394662295565654 -0.014900549216635282 -0.008711303296392364 -0.010460197409371557 -0.004586160430959175 -1.665298021618383e-05
0.05485368849618923 -0.01874250630344212 -0.010539765378368739 -0.010517774026494738 -0.002499271078812407 -2.0414688199082206e-05
0.0655057696943631 -0.022575367253743907 -0.012092047217266364 -0.01060829280720543 -4.918367303908253e-06 0.00010037861972136765
0.07577607951999644 -0.026327130070970668 -0.013277004134424184 -0.010891449375053418 0.002674497979919282 0.000576352526338316
0.08551756803800392 -0.030156730991829056 -0.013982814336044671 -0.011291968919357862 0.004749122822819101 0.0019565961648312417
0.09378154844231391 -0.034684202034543525 -0.01417770582613166 -0.009265080081278866 0.004376875263570634 0.004968094860036239
0.09733657567660103 -0.03868463084077938 -0.014121465243092273 1.751107123556229e-05 2.4452761835363832e-05 0.007967371972407237
0.09381642539213729 -0.03469496057816849 -0.014184980701002993 0.009299564119401076 -0.004316841118847432 0.004969897597143588
0.08559202207074942 -0.030178758540635366 -0.014000952679754205 0.011324143547855086 -0.004655303678448527 0.0019582062092897514
0.07590105173546448 -0.026361639484515028 -0.013314096647309119 0.010917239070515374 -0.002522382724448028 0.0005726306955240049
0.06570212594884878 -0.02262485152970419 -0.012162915380329082 0.01061940789824773 0.0002434165741554916 8.102682979253325e-05
0.05516070551061594 -0.018812703105286363 -0.010668904500560829 0.010499512768266663 0.0028644923161180147 -7.66790546232584e-05
0.04443231179389577 -0.015003195588360227 -0.008941557295679541 0.01039275014338059 0.005122322651271393 -0.0001341863890882373
0.03408253712650201 -0.01115619603864132 -0.007079392748264676 0.009987729521406257 0.006987322109022463 -0.00016023110725865106
0.022494715517097464 -0.007797555653575656 -0.0050464443961705215 0.00934914686420038 0.008387746598787308 -0.0003179782820926351
0.014208460630296243 0.0012221879739022581 -0.002345682193385767 0.011391513181632801 0.004592144729353695 -0.0008722099718401312
0.012550988806309898 -0.043725922606073296 0.0023425843341019913 0.008489097729743336 0.0013733025050438363 0.008173618863680641
0.006388658706378513 -0.031295968314611566 0.003250789775752355 -0.018875585783032552 0.00031750084759054204 0.007882944841644458
0.005647050078187094 -0.0004127408375233777 0.0001743833513262066 -0.021577371813596438 -0.0009861252495905071 0.0011847280904173606
0.008889255026500238 -0.0019381270426359035 -0.0018313183764420702 -0.017843886469357306 -0.0029615333193282237 0.00036123402420677774
0.016046123586525022 -0.005387666361490048 -0.0032306409409921175 -0.01835039458550246 -0.0025153543297212278 -5.011460626292592e-06
0.021927851679022642 -0.007344321906698327 -0.00434655350589994 -0.018549272564285502 -0.0015941910151021197 3.915360129719806e-06
0.027344534139017385 -0.00925016616372468 -0.0052998211214023 -0.01862181125331125 -0.0005378983121480257 0.00011974188183719023
0.032623128212388434 -0.011127633611246066 -0.006084762358844691 -0.018666415058389767 0.0006829395164391133 0.0005269667724105574
0.037519675277299436 -0.01279489366356749 -0.006660801456653055 -0.01886922704950171 0.002069354080289487 0.001546367032658449
0.042226214496579546 -0.014435972354089215 -0.0069865572588986265 -0.019524957377315376 0.0035883594515125064 0.003940766732047205
0.047312991237787615 -0.018389325840041913 -0.007022817764636384 -0.01688771270764135 0.0039879643377375715 0.008919671529299164
0.05002739533199197 -0.025430295210064142 -0.006895630488257771 2.5685508337714894e-05 0.00010243989190252535 0.014678013508140447
0.04734667030694085 -0.01840398209350131 -0.007018799936615479 0.016938093014762717 -0.003768794727511817 0.008915498419626572
0.04229720920012427 -0.014465580262207298 -0.006981638202382515 0.019571202497720243 -0.003326650149106708 0.003928771825810783
0.037636104912311424 -0.012839961260694253 -0.006662175215153893 0.018904361569658287 -0.0017380561640369472 0.0015176771323954785
0.03280025335788307 -0.011188939264880283 -0.006105688378544554 0.01867607242022565 -0.0002569386716121674 0.0004632353026854449
0.027610549298336222 -0.009330455643824924 -0.00536338469224722 0.018580618704306266 0.0010806149385641033 -1.0829908979129041e-05
0.02233643300872672 -0.007449115399746511 -0.004490091076859061 0.01841674490023769 0.0022763587756233525 -0.00025467385306620694
0.0167080223203749 -0.005535873658917922 -0.0035143477450847987 0.018048711859341423 0.0033622605023621247 -0.0004346620786809777
0.00973405225277099 -0.0021140540548711837 -0.0023215832385443773 0.017138149012702535 0.003818506984376357 -0.0005022668775347906
0.006269813758068935 -8.455001631649446e-06 -0.00039760830881237593 0.020151157527002493 0.0011611427394977924 0.0003745311149826662
0.006770825991343388 -0.03128935265157187 0.0029287154086252345 0.01724038483225339 -0.0007095709504310701 0.01104667357040363
0.0021655187365248563 -0.019736904739363476 0.003778473048668436 -0.017847235237522456 0.0010250788025123426 0.00864285526097111
-0.00010197184886222761 -0.0010961823264866062 0.0018301395459843926 -0.023705724169955762 0.0009789188495846917 0.0021251133456816076
-0.0018200235976392326 0.0016677945096014927 0.0007435661067882462 -0.022540214470165493 0.0006124404547594375 0.0005361859069717001
-0.0007531375135332658 0.00031661935735336253 0.00032878106805920676 -0.02129105535650178 0.0008561483743239844 0.00013264065382400956
-0.00019222356911876597 -3.065016597127699e-05 0.00018026915960571907 -0.021288028768091723 0.0011500248154623382 0.00011366148618155673
-0.00015332293526781047 7.431231485138367e-07 0.00014009934761120436 -0.021335322669471687 0.0013051345542571993 0.000336914206439941
-0.00021374106864891445 -1.1663117753136357e-05 0.00016231971774254244 -0.02138539040222931 0.0014120742246579222 0.0008773327289516362
-0.0006249339859541122 0.000259661045140674 0.00023204598193144317 -0.021238027928084442 0.0016865668830122575 0.0020342177932362497
-0.0008895200636146951 0.0009363734874157021 0.00031546441516788445 -0.02191757330805534 0.0028579555365704033 0.004517776672312849
0.0017114765628585896 -0.0025396995427350607 0.0004393471318579598 -0.021452251701841125 0.0044177019938670785 0.009944349568757017
0.004229624934183791 -0.015890503340073494 0.0006723802428026621 2.7929739780902142e-05 0.00017646912137105118 0.018845465374611098
0.0017436707805296874 -0.0025581580592876872 0.00045488799796826685 0.02150699815514564 -0.0040475747151358064 0.009938442932578805
-0.0008228400919545802 0.0008994645711892902 0.0003440392547558352 0.021967674657668603 -0.0024375003249979396 0.004501784535497139
-0.0005189826443777492 0.00020468557326366502 0.0002677202333888322 0.0212756308975647 -0.0011869548330714012 0.0019978992226090896
-6.0130831570297304e-05 -8.35347230030998e-05 0.00019373242477786326 0.02139415827012802 -0.0008136370649262374 0.0008003172288271236
6.360859953618805e-05 -8.649349902745635e-05 0.0001471706933339736 0.02128480034949165 -0.0006038624878439051 0.0001803980545456819
0.0001241660579794979 -0.00013418654284253216 0.0001290580140203391 0.021126603110604207 -0.0003628059849353467 -0.0001854649914892744
-0.000307654633818305 0.00019224551479947859 0.00016602193720897203 0.020928923619351066 -3.3587371991673435e-05 -0.00040879047569061767
-0.0013663719732702622 0.0016662557309002918 0.00042096823361083616 0.02181379842631788 2.9219805244465575e-05 -0.00033797864005158233
0.00018903524991216884 -0.0006659365589649496 0.0013999779071207628 0.02294431595721777 -0.0009252619470336043 0.001597845376345621
0.002352176932828401 -0.019793793954380776 0.0034140790344615378 0.017317816075471126 -0.0013417354484091505 0.010534039965092425
-0.0016659987389191114 -0.010244608136213649 0.004263674609121859 -0.01351285441652048 0.0017292650248125598 0.007475046032964786
-0.005360202711920382 -0.0004116273376948073 0.003347370273726955 -0.020082040345861515 0.002792007267035592 0.002167071413456175
-0.011821483483655654 0.00446953774583666 0.0032624157977543277 -0.020759861477462872 0.003945742515162187 0.000556739916155515
-0.0170904284885388 0.005732873060429701 0.0038649331128348847 -0.018872124162612892 0.004216637644606787 6.821615328238654e-05
-0.02229182038169297 0.007349865690238958 0.0047006852059737906 -0.018481569117049925 0.003924715316749024 -2.4624928711288726e-05
-0.0277037127859302 0.009251798151534017 0.00557601751896369 -0.018578486739268485 0.0031725997527388534 0.00012267873874541516
-0.03300956573808348 0.011159964483541078 0.006407951011679002 -0.018622873906976124 0.0021859840897433327 0.0005728124199159398
-0.038496066391576045 0.013030228644449105 0.007130169486908448 -0.018456492018582096 0.0012185285315090952 0.0013980741941726027
-0.044059962827912275 0.016128624262744463 0.007617353953838152 -0.01814685492100337 0.0015217327462259194 0.00315966742584421
-0.044143862339148986 0.01531327902015012 0.007754697667911977 -0.02294249920316719 0.004701735552252211 0.007268363099155918
-0.041549254075504236 -0.00950972484182746 0.0079827748271828 2.6299675568844708e-05 0.00025207974756055144 0.01971068453725587
-0.04411309451509028 0.01529089283218957 0.0077819074226119075 0.022994267029305907 -0.0041772336772409775 0.007265073200142931
-0.043997519456168845 0.016084183466147955 0.007669939284201823 0.01819497482618221 -0.0009383252888290514 0.0031494450634163623
-0.038400560018671176 0.01296498808643037 0.0072035462701278774 0.018494338403720417 -0.0005451267059182026 0.0013720297606413753
-0.03287977789347877 0.011077196988949226 0.0064928492137633145 0.01863618076016017 -0.0014076923857249738 0.0005129548204729947
-0.027536917973583767 0.009157655822767704 0.005655308199621883 0.01853900914231169 -0.0023044619782556248 -5.271000973927947e-06
-0.022081361143118074 0.0072502626558784864 0.004744594624453576 0.018338557038726607 -0.003027215011938196 -0.00028336418226720917
-0.016849503755860647 0.005652727859739566 0.0038275584850580415 0.018542381560495935 -0.003416618570664224 -0.0004156190277717347
-0.011625839284579428 0.0045292122267493766 0.0030968154056862643 0.020249889814894843 -0.003469149043775682 -0.00015194577533823322
-0.005241444422726696 -0.00011012274054553253 0.003060219931188599 0.019755029183426268 -0.0028095483366085273 0.0018042906751052196
-0.0015724194987874675 -0.01029603510319473 0.0039488781126895914 0.013390750824693168 -0.00199023341982171 0.008729241368154426
-0.004902477103334187 -0.004067892426756624 0.004946330669167389 -0.007066554241501691 0.00309903000684468 0.004852311033993859
-0.010224127895228786 0.0010116911689034176 0.00479138745797583 -0.011227508460110865 0.005165863710375252 0.0014748501569803478
-0.02155610593619578 0.007153473599945482 0.005667636751646463 -0.011975913591359843 0.007628569537514635 0.0005083596682967171
-0.033236048253342435 0.011166932489747022 0.007262212197344745 -0.010736975145037625 0.007917073086885563 8.040569208174638e-05
-0.044393796119072036 0.014958960080270835 0.009047122331554509 -0.010386297484610627 0.006985832414578656 -3.7155121921378876e-05
-0.0552701926421017 0.018792276591161738 0.010800580736971209 -0.010469279753777575 0.005228204387463018 -2.0902299207871157e-05
-0.06594062410882164 0.022612080739184477 0.012412158853309738 -0.010566541981923722 0.0029528005014550166 0.00013154785462100404
-0.07593892915134523 0.026457016895641828 0.01375880019279565 -0.010370380643605924 0.0006346937182482906 0.0005326159767958304
-0.08690548633030493 0.029866791496052775 0.01464902065533566 -0.010697667923042328 -0.0014215475987974593 0.0008353779216573845
-0.09141534426887414 0.03788954058508305 0.014512855510830855 -0.014490226359082424 0.002967028822342416 0.0027163823172362475
-0.08966735002951566 -0.004469728291473862 0.014146938523158256 1.8239297750192746e-05 0.0003348369801624128 0.014509557439752055
-0.09138563288700655 0.03786293815572964 0.014551780492459148 0.014526379798011746 -0.002273038343165267 0.0027195847426421927
-0.08684636649557863 0.029814175321944785 0.01472568611578103 0.0107321519157797 0.0021855733511821113 0.0008397950533030084
-0.07585199807762694 0.026380356077411408 0.013869894476350116 0.01039955715761702 0.0002348082759534363 0.0005332436829677342
-0.06583074782464361 0.022516456715020505 0.012550253274839359 0.010582060079845053 -0.001965050623051454 0.0001180316087217432
-0.05514838917431897 0.018687816079884775 0.010950969224344267 0.010454179589015816 -0.0041532647384579175 -6.939680182577868e-05
-0.0442823171539827 0.01486389875452398 0.009183547406985782 0.010307085316909628 -0.0059287180155537435 -0.00016218035044901987
-0.03317132731766638 0.011120784018392905 0.0073431510174207446 0.01055058304390246 -0.007081410842196178 -0.00018308162662475605
-0.021559928794945407 0.007226048635352091 0.005642310926497987 0.011724837669085723 -0.007267112958117356 0.00012151258293364546
-0.01023833576004455 0.001192932720016852 0.004637228700011391 0.011116554946334204 -0.005280549873432374 0.0012856143958720567
-0.00489272816565646 -0.0040625840584236845 0.004709729289069798 0.007040956182450556 -0.003394712459080265 0.005570085527508489
-0.006586663466104491 -0.0019695620680946256 0.0060017506214120765 -0.002706615089289152 0.005924797751163452 0.00314475888251778
-0.014110137981611785 0.001810802019020982 0.006234903391642009 -0.004393670433370972 0.0088982370486055 0.0010253170113658217
-0.03127946283729532 0.008524678774390879 0.007883136796163315 -0.004314931832955096 0.012383435334634917 0.0005518122598686637
-0.04963055551529679 0.013950952786391817 0.010349637433640712 -0.0039125529071884265 0.012485655546315694 0.0002285907280978966
-0.06654292653246868 0.01884394467760709 0.012976371464947699 -0.0038254123958099046 0.010734989251227772 0.0001137385041057715
-0.08283154725834882 0.023677823506840202 0.015515168681145731 -0.003914453107183146 0.007728668150507153 3.688379295574949e-05
-0.09884273026161436 0.028412373610524636 0.017825835831658185 -0.00396431696271034 0.0038883510053784433 -2.0988487137092e-05
-0.11408508638814076 0.033544083129341894 0.01973701969331021 -0.004144052749339227 -0.0003589897234373081 -1.056235498715874e-05
-0.1266597658080207 0.03607047898154145 0.0209916421818317 -0.004266354572683391 -0.004731706359191592 -7.721430590328337e-05
-0.1398794647739405 0.05069191911668196 0.02055650531649562 -0.01034196178040042 -0.0070589584550277105 -0.0016724465243059274
-0.14782982749207887 -0.0018572507265372407 0.017164505342188226 8.75571289762336e-06 0.00043079704287192987 0.015428099568642044
-0.13985037304577808 0.05066312620294247 0.020607037220269908 0.01035949562837427 0.007950281049425812 -0.001666439490680966
-0.12660269917731962 0.036013580551978584 0.021092053598898753 0.004283682049759768 0.005708709088514094 -6.623220232439611e-05
-0.11400360577573762 0.03346136372417066 0.019884958792164103 0.004159957573986361 0.0014651624832499714 2.788390038035006e-06
-0.09874574056730487 0.028309612442982638 0.018015026225289905 0.0039755922729354035 -0.0026372670622250615 -1.0628693637161591e-05
-0.08273997749356292 0.023567165372191373 0.015731921310132176 0.003914294200526481 -0.006372273969642706 3.330437183122776e-05
-0.06650269895119151 0.018749815259096574 0.013195022011964859 0.0037994342497318966 -0.009414873569430555 7.41250732270079e-05
-0.049710630609046395 0.01391823657614153 0.0105280244955926 0.0038415219680359718 -0.011492118144556243 0.00011929651631637685
-0.03148823293030284 0.008601759834487126 0.007964875254894144 0.004211250986475902 -0.012087680642465645 0.000385320657965745
-0.014294713680063782 0.0019461833107159584 0.006185528736453472 0.00434168670718668 -0.009272134410983904 0.0009514167650541338
-0.006697352461756562 -0.0019288174939723019 0.00585677324202794 0.002664195796367607 -0.00654017789352117 0.0035790146949456585
0.02057954089231725 -0.07647995252013919 9.053088140253962e-18 -0.04332697021070538 -0.017862261412412747 0.022508564588888055
0.02477846492367146 0.00795024180808321 -0.002866973471517491 -0.019246685451435538 -0.01859249740244908 0.0007654526431209057
0.034527658090822665 -0.010783120859078241 -0.007561452503506644 -0.009073409170309032 -0.01816357901690155 0.006314003900019496
0.048555655780261296 -0.012667290996814955 -0.010630734111275087 -0.00935669477552593 -0.016161620349259765 0.006850934223093149
0.06591106737245693 -0.018220360392009253 -0.014060663065448974 -0.00881842908929157 -0.014442635543003905 0.009409291746759753
0.08351208375080754 -0.02309053943621196 -0.0173615335707784 -0.008001137686810652 -0.011343859771482823 0.011602848569806519
0.10067977355473054 -0.02800798175229846 -0.02046664006080074 -0.0066834341229112075 -0.0070752964983483825 0.013856826762254866
0.11682283704877261 -0.03272572086516408 -0.023183811399300817 -0.0048718495109563754 -0.0017245138576040121 0.01607164937166083
0.13036792746304593 -0.036822571810629076 -0.0252353219139022 -0.0025356629986798595 0.00349134879089123 0.018354832122495328
0.1389902143025745 -0.03920543295092065 -0.026366736000387667 -0.0004711399620663734 0.004970723128351017 0.020808026895296143
0.14179130940815196 -0.03934076774187609 -0.026678257865723646 -5.77063861716947e-05 -0.00011948726622187515 0.022481309812744116
0.13909589565651484 -0.03923910214886643 -0.026391632819355478 0.00035273102536642576 -0.005207598933464975 0.02081383145110777
0.13059961181650573 -0.03689620076891427 -0.025289039804114902 0.002408269289959183 -0.003721291641178201 0.01836633801935926
0.1172238643043563 -0.03285257827316898 -0.023275070001876758 0.004729270641205843 0.0015089923931868169 0.01608915173748641
0.10132228795502077 -0.028209187264851263 -0.02061020570936577 0.006519960079826444 0.006885267643596595 0.013877959912561995
0.08450232219405507 -0.023398259917337613 -0.017584354220687277 0.007808717527738511 0.011203725537722076 0.011636064227505365
0.06739916578401943 -0.018671573820759874 -0.014395618399719234 0.008597885495817366 0.014353001771772168 0.00941247244574107
0.0507432632206956 -0.013315454704639063 -0.011189250542655719 0.009044462142826204 0.016265009302786442 0.007026315510349647
0.038062022741619725 -0.011713358277060108 -0.008230795854779718 0.008695344543592914 0.017879174334373627 0.005731636870018858
0.03238552516724036 0.006657876861249611 -0.004913870682682586 0.019969858341618022 0.02390728154317898 0.00421081757097119
0.03131906343283451 -0.0807098279887355 0.006441879128283281 0.026043431600719518 0.03131498831851342 0.008730109126203558
0.012640909301929406 -0.06639442701984657 0.005342870448613296 -0.027809775378631014 -0.01475808082810134 0.012938844365447916
0.011415901148106148 0.0053091928237142426 -0.0018749755314313892 -0.02304281522450375 -0.012357388290343442 0.0038809355690556002
0.018226744182511866 -0.006614104711208937 -0.004890025307352755 -0.01917219372282682 -0.011212085380166104 0.006803262888241371
0.03165671659060605 -0.010159842122318694 -0.007560512695907843 -0.019418035472838442 -0.009913400102644668 0.008822306715695264
0.04298524837153843 -0.014335449245719884 -0.010007342216822618 -0.018981246235717467 -0.008602834805872735 0.011704629483959353
0.05471404860015029 -0.018312100397896405 -0.012431344660426816 -0.017434561869275566 -0.006779165742916614 0.014578828363168048
0.0661108342167793 -0.022234475553105218 -0.014675432969198128 -0.015148418251046658 -0.004241870710915495 0.017469522901932037
0.07682645678081994 -0.026063424380748063 -0.016631105836662483 -0.011813770371690296 -0.0011101559437127742 0.02045296483899411
0.08586082472530106 -0.02937990007193894 -0.018118115725111267 -0.006978357757199012 0.0019742427492222725 0.0238490435290605
0.09168169885451577 -0.030826237987549347 -0.0190111786821344 -0.0018366948046906343 0.0029442744013875527 0.028109246407901023
0.0936080704495497 -0.02970417881787197 -0.019347519401503373 -0.00010288844389706275 -2.862227811314876e-05 0.03141349096265518
0.09179280946630916 -0.030861269085960187 -0.019031584355091585 0.001624365577041844 -0.002995819883515703 0.028109855513866105
0.08610164226658773 -0.029455889451643003 -0.01816292957414561 0.006746042444955454 -0.0020085043784567077 0.023849483700333553
0.07723575327020672 -0.026192606178859122 -0.01670898401350657 0.011546943046099618 0.0011049349211945166 0.020451584803317675
0.06675061531495294 -0.022436110250629703 -0.014801824071892344 0.014830894160436281 0.004278837442562374 0.017462909478147715
0.05567426496420972 -0.018614720845311582 -0.012629590344018645 0.017048276684165923 0.006867018511166625 0.014564356767692061
0.04438412733666394 -0.014774230714243105 -0.010322945956654877 0.01850734617258037 0.008763802571497519 0.01166696316688766
0.03367783941071714 -0.010769029779716287 -0.008029621937475416 0.018778282605125388 0.010077473708470354 0.008814625890272411
0.021127251592740343 -0.0074566808646351936 -0.005717771573304779 0.01818478517839163 0.01167595912190948 0.006538361481436456
0.01403462091572518 0.004973625921235344 -0.0026322175093831026 0.02173420036229077 0.014131369541173975 0.005566617445180567
0.0144685937875523 -0.06965230176784175 0.00663824094897297 0.017402542203092064 0.017474210757164356 0.005255312137687379
0.006518180296731998 -0.046197870687638844 0.005842209853306228 -0.032650406632723866 -0.008986572433473713 0.00428533528266932
0.003827748866924405 0.0011078871789825739 0.00027996549395510893 -0.037429094572841146 -0.007032932408750224 0.0060314755922245104
0.0056637694024670605 -0.00020653285031431106 -0.0021113160769003726 -0.03264693975455903 -0.005542179087554297 0.007767370633960332
0.013846176635650586 -0.004582182559767435 -0.003664168573296445 -0.03320324549697584 -0.004494497374875738 0.011252052253438772
0.020525087452097697 -0.006795516645386541 -0.005010159321456226 -0.03207556682303869 -0.003675860417832233 0.014849903804545051
0.0265550352791237 -0.008872664818923277 -0.0062856212561574285 -0.029607287071667997 -0.0027817956734539208 0.018629291700019854
0.03249555674014274 -0.010884103822275807 -0.007465144376383136 -0.025937072519219492 -0.0015821206072720155 0.022443167656206315
0.03823211814749949 -0.012993640514201125 -0.008484120374369998 -0.020603287232800475 1.5386024734708197e-05 0.026466156098547054
0.04313064583823723 -0.014882176561744774 -0.009284184511476265 -0.01237354424907577 0.0020460636660861154 0.03120336336798415
0.045645928031109596 -0.014217411922339876 -0.009874271285955444 -0.0026705827181786315 0.0031274599978378154 0.03767120287521896
0.046092865014248544 -0.009416816103224254 -0.010257084932307607 -0.0001644169374560066 4.399071829218397e-05 0.04376091001393217
0.04575864618820623 -0.014254619829873676 -0.00988964505481345 0.002330840398049357 -0.003030792443164661 0.037667808666157536
0.043372642783019284 -0.014961828450036522 -0.009318569134442248 0.012000432755713863 -0.0019237725416982082 0.031195558350362
0.038636824350884724 -0.013126098494828306 -0.008545432978326151 0.02017220128107006 0.00014799100204307208 0.026451488660940128
0.03311422535434123 -0.011084891086655356 -0.007566727679388225 0.0254195439124893 0.0017979800167124496 0.02241766761722043
0.02745770433199183 -0.009164414654890604 -0.006449242582347705 0.028969786281954985 0.003054497256718604 0.018584083164024955
0.02179893716783087 -0.00720442452908998 -0.005267874440273243 0.031276259709972096 0.0039914882078566725 0.014783643146376107
0.015578854615094794 -0.005127512243477288 -0.004071175553402114 0.032135401201747765 0.0048198308306649125 0.01112013342511934
0.007465153077156806 -0.0006936035104181845 -0.002735514004952855 0.031095186494369962 0.005993440398672698 0.007796531110343625
0.0050312129411382266 0.0017569344722502885 -0.0002657412901197487 0.035360548521557504 0.007701305159905907 0.00612409192986674
0.00730455281943219 -0.048186702318856744 0.006116090225587819 0.03086202800389691 0.00986104199398138 0.0040957030678072165
0.0017516262947489126 -0.027702235236645705 0.0052175213976821365 -0.030193401835676086 -0.0040539311878397075 0.001511198170579947
-0.0019974124023650367 -0.0005872948396257318 0.0020292685994005148 -0.03958230790064564 -0.0022968538219058825 0.005237982331451123
-0.00501610325163666 0.0035025437428129053 0.0007514747943027559 -0.03974112936335646 -0.0003622925417612044 0.008031052050394366
-0.0032796051618377902 0.0013490519191451734 0.00042835697289425015 -0.03793964193743988 0.0006022032068230332 0.011831929632690507
-0.0019020415433728018 0.0005729957839449873 0.00030931397880905017 -0.03637992204839879 0.0008874835085522189 0.015761977246758135
-0.001283503625274346 0.0004027583810531402 0.00023970277605896167 -0.033560335260023985 0.0009652806706922053 0.019768692478663395
-0.0007100815767135528 0.00023833385078499494 0.00019310538025695028 -0.029462583178859077 0.0010358649565666645 0.023864085200431078
0.00023808978209130852 -0.00016838577896595425 0.00016268754968216763 -0.023701682972328546 0.0013052481657319696 0.028129918842235438
0.0013007237888489342 -0.0009558979756195525 8.804255602276026e-05 -0.01427627017234671 0.0025268407991700286 0.033022618983468574
0.000298526841987963 0.0017381707220545683 -0.00021495930520659857 -0.0008844275348394005 0.004107647354751352 0.040043811571894815
-0.0011171649334628826 0.013400572095162253 -0.0007897511613062394 -0.00018460247204668458 0.00010924600189321818 0.049091774349353245
0.0004112210503738776 0.0016994967180140044 -0.00022501301555884852 0.0005026407184680584 -0.003877674693256802 0.04003917836510386
0.0015404394873161226 -0.0010378652646085141 6.482981433773242e-05 0.013855998679754199 -0.0022633824993394027 0.033012195142541105
0.0006325496835281215 -0.00030235631324869265 0.00011969838724508491 0.023214613346471864 -0.0009898220825946648 0.028111065910834548
-0.00012164817020455057 4.0285237397618204e-05 0.00011933606793175218 0.028875462607088582 -0.0006580410040282196 0.023831641407522194
-0.00045384755389495525 0.00012476237259243582 0.00011846698918723423 0.03283148860274242 -0.0005308715695913981 0.01971473895788987
-0.000782057471575823 0.00019687559896579602 0.0001154558510111721 0.035451895714095134 -0.00043093660173242185 0.0156726891601686
-0.0019400641237295115 0.0008929599079363222 0.00012295583897363406 0.036726445997474905 -0.00017731324921403408 0.011708155758739765
-0.0038824689266752383 0.003373101703287711 0.00031682816418525524 0.03821031643105734 0.0007132993751055021 0.007963004671224641
-0.0013478261697935556 -3.368683971913548e-05 0.001632950454012335 0.03868073686119676 0.002591411504148618 0.005384703584418571
0.0021854355423761426 -0.02908547060704728 0.005242518729004132 0.02990508094879024 0.004420066965149928 0.002368591017984542
-0.0024577292675732705 -0.013272772949502779 0.004561588276697853 -0.02294714645933331 5.9514103025470736e-05 0.0011932409981203955
-0.00728670964960927 1.1992272777130314e-05 0.003417097020559151 -0.03328674192170318 0.0021518712623796077 0.00406423300419876
-0.014897471969900112 0.006219199955767023 0.003518998278673744 -0.036567710802426504 0.004881796347012277 0.007424675331638822
-0.01978534485145262 0.006865042909502972 0.004490780176082583 -0.03408116818209937 0.005790754989470017 0.011146873241082291
-0.024296725322590904 0.008033291818870499 0.005627965030571949 -0.03210563587370106 0.00551367157743684 0.014884531111537926
-0.029146228546760054 0.009691631253594069 0.006762902085517141 -0.02958812680488521 0.004732576406121598 0.018632534258431005
-0.03393859905728416 0.011313495377029598 0.007849005325423198 -0.025980869549958447 0.0037245985357287283 0.022483587193864566
-0.03793814906223664 0.0128591234227512 0.00881959612620747 -0.020848871697226146 0.0025265857685351878 0.02635100818110435
-0.04039951799296321 0.012997927767226598 0.009488320761286032 -0.013251869143322933 0.0022489730582357704 0.03047850891873132
-0.044897609520183394 0.015850427770385096 0.009397365315539138 0.003406513837436574 0.0045970396237791445 0.03619260579513471
-0.04855821971001746 0.0400517361791399 0.008237520132071657 -0.00016616115712435732 0.00017594854517167288 0.04799361490610352
-0.04478445755293278 0.015810212737272917 0.009392618008711117 -0.0037503420675705484 -0.0042305620559063735 0.036189526083280174
-0.04016116675892558 0.012913478486535153 0.009476311247301115 0.012872917681422177 -0.0018402842861872395 0.030471388574231036
-0.03755266233808064 0.012723270620171642 0.008795047296587673 0.02040920062177295 -0.0020535559188033766 0.026337567085724548
-0.03337964094607673 0.0111177609908177 0.007803498673658661 0.025450582316837455 -0.003177564336835684 0.02245947144388755
-0.028391646853648245 0.009428387095914566 0.006684507413395303 0.028927391846408343 -0.004127027993526652 0.01859013421010845
-0.0233558870948942 0.007697564313830463 0.005500345356085278 0.03125927847196126 -0.004906875335898592 0.014813698046334638
-0.018796176941469917 0.0065276552157179394 0.004293355022545052 0.032999355342757435 -0.005289930983082185 0.011050823336045786
-0.014173380600700891 0.006188634823896814 0.003247347566880596 0.035519221382358274 -0.004601719234135472 0.007360060447434286
-0.006920922500029904 0.00033345028287167893 0.0031603935605784682 0.03303841115595944 -0.0020376461257472526 0.004244424460602102
-0.002220867458527182 -0.014068604490656278 0.004520296302893651 0.023111192093504762 6.444387443100175e-05 0.001995085728265866
-0.005776919295357268 -0.0043509600806157095 0.004377717247836523 -0.012705188689410982 0.0036743277328473217 0.0017485943216742062
-0.012008667080570828 0.0016254512146004823 0.004625334532964686 -0.01917803571784604 0.006701378785656362 0.0029175972958932414
-0.024424633649101413 0.008639924396349342 0.006067294578081639 -0.02196861138832361 0.01068692667895783 0.005833648466581014
-0.03609434269724062 0.012241900888764614 0.0083006891147559 -0.020428719164345466 0.011542914788064568 0.00880251375294946
-0.046866047941119295 0.01564289106416634 0.010627336194080808 -0.01901693959304616 0.010594007579599916 0.011694862094323681
-0.05735190594275745 0.019172414325456792 0.012897157837664541 -0.017434764946388657 0.008820357808633711 0.01457598306479059
-0.06749207679063236 0.022663357429443268 0.01505193206561231 -0.015194030988419479 0.0065060233469185855 0.017489804280428914
-0.0771281535245291 0.025884372887842958 0.016991464345423517 -0.012174043779323882 0.0038525497930168287 0.020447426957071843
-0.08332470135751462 0.02904247407336011 0.018420189664009604 -0.007063838571221635 4.012506149525638e-05 0.02291606931955915
-0.09038168959344817 0.02654195670893433 0.018440347926373845 0.003590710877925747 0.0017949742880744772 0.026185146411376602
-0.09590923403529687 0.07070680943056987 0.01575219036232452 -0.00010512853382883694 0.0002530404634721585 0.03479965132529005
-0.09026527552942785 0.026499136940894147 0.018440600979596662 -0.003808190480057513 -0.0012703681165116944 0.026186119088126195
-0.08308203959865669 0.02895347006923337 0.018418678878322266 0.0068244041824239085 0.0005379403931401157 0.022917506858642748
-0.07674295309904813 0.025743658074012653 0.016984021859446332 0.011897012985294643 -0.0031936643479611115 0.02044805276368404
-0.0669503326488628 0.022466376887322094 0.01503213955277611 0.014861544588481568 -0.005755991418689571 0.017486944383564868
-0.056661183334354354 0.018920623010997287 0.01285679342997415 0.017023903651878516 -0.008003051713034828 0.014564710504370472
-0.04609483935603431 0.015358049309298275 0.010557905721379197 0.018494643913520264 -0.009795746439049319 0.011669062446344415
-0.035413300473211874 0.012013546932802923 0.008195007030471638 0.019796188406632963 -0.010936966692344636 0.008762915193389986
-0.02403313062685504 0.00864747378421509 0.005923870301488689 0.021458557672041238 -0.01045593675449606 0.005816709267679451
-0.01187658734022788 0.0017991077383461038 0.004484087434096998 0.01917310800867232 -0.006746170381930677 0.003045439683110335
-0.005717125926128261 -0.004664198245908487 0.004329106663819166 0.012872678136099653 -0.0037627315652863907 0.0022684779163436204
-0.006546104378068277 -0.0014740048797935606 0.0049973381130290675 -0.006264499738976157 0.0073559395615713456 0.002110420371228953
-0.014859707854185028 0.002504697685775448 0.005782980675962779 -0.00898335890567124 0.011899988625406616 0.002440156672365196
-0.03359519902649027 0.009814513504079421 0.008147758614406092 -0.010099870616169555 0.017657445688792614 0.00484462585820887
-0.05288846754595154 0.014963791668526086 0.011371815994652581 -0.009710991777431689 0.018435109918642688 0.007210134589306581
-0.06995030156911275 0.019505685249824253 0.014632815042430013 -0.009030031641903148 0.01661711065123721 0.009453113676620483
-0.08619602300820939 0.023978751184097466 0.017808894821391367 -0.008101460919383872 0.013566072120101155 0.011672498438087549
-0.10201151588275793 0.028483630097036992 0.020837790253145853 -0.0068839262013316305 0.009577435931664527 0.013923562924741895
-0.11701787835406119 0.03229988050432184 0.02355454805766633 -0.005045953991089319 0.004841412762120044 0.015982296288831653
-0.13127262937525597 0.038004421451268686 0.025723429785068863 -0.0024692771827650815 -0.001960597251878354 0.01842016840603973
-0.137886907316308 0.030847180141709403 0.025844620893129215 0.006862571873559399 -0.014236176927836124 0.01654258472666237
-0.13746178029584227 0.08687733300576514 0.019489680097402397 -6.792965005285659e-05 0.00035185085734290404 0.03411554824403204
-0.13776156080124663 0.030802645479963912 0.025849333247852217 -0.007002904703723127 0.014963903003390944 0.016544569875695383
-0.13101421001393557 0.03791233140188073 0.02573108019531401 0.0023156303841038632 0.0027576402783559546 0.01842357270951144
-0.11661534955550268 0.032155625186292044 0.023561430681398314 0.004870439040045338 -0.003939640123659933 0.015985832694433086
-0.1014623065232271 0.02828455120470664 0.020838121203238285 0.006678850291665213 -0.008557575912501978 0.013924899154618775
-0.08553581621998 0.023731644111846015 0.017795412123061086 0.007861150751463694 -0.012459472176066112 0.011668176987742921
-0.0693103088442516 0.019246682639320865 0.014599164734812839 0.008751897379231 -0.015543069556612325 0.009440789291789648
-0.05251380288130023 0.014790122882203705 0.011314842379711738 0.00941526724913051 -0.01765061187010225 0.007194751517162834
-0.03363090407081882 0.009851084895838073 0.008065891092024548 0.009887128004452624 -0.017465723013452766 0.004854542139558312
-0.01506466230137345 0.0026394472682311513 0.005703469842146574 0.008996141734637156 -0.012185304594060642 0.0025279913604147105
-0.0067159360947838045 -0.0015834996338335205 0.004984757566134649 0.0063152937219537915 -0.007757650806012005 0.002457258126958143
SCALARS Stress_vm float 1
LOOKUP_TABLE default
15840.967755526899
7265.659936317293
7857.928961908013
10875.741591108901
14510.365880163929
18178.083156838078
21791.063732361825
25223.106985876242
28135.343725904157
29945.88026534942
30420.284793736326
29969.04217407015
28184.6184811197
25306.80999994976
21923.90505313712
18382.22511978653
14814.150919161711
11321.21633765563
8515.001065425655
8554.318115596803
17117.51957445699
13448.326254740754
4230.396013265997
5596.410006159958
8016.319065521704
10447.309782500799
12909.01887117023
15355.97602102417
17712.419832786265
19749.785782342915
21010.0873000984
21245.981946773118
21031.26180372017
19794.844173700607
17788.402932031713
15474.149628466312
13084.53556094522
10697.36262077247
8352.878542638391
5983.275789546593
4472.275736146142
13988.934273999726
9914.478521561166
5235.004661377565
5159.678735613406
6082.79724765715
7066.477062383232
8121.454511011322
9249.094016090003
10452.372297050048
11594.12005976502
12179.566329395719
11968.84734214548
12193.81592463021
11622.512975961949
10498.531396020242
9317.799626267739
8215.465509015195
7179.163828813023
6170.840541594203
5119.1048207929825
4904.262291146819
10173.976980049674
6766.438210257187
5753.953090907448
6013.264184974717
5678.554088901453
5526.291645187537
5400.056877239328
5476.0263672390965
5936.383635942357
6913.065404007799
7685.2869535788295
7274.1240650544505
7674.902181675657
6897.794236207135
5904.4180467346605
5413.815538628572
5294.462609429986
5367.398931113042
5450.669190667717
5724.6664781473255
5577.000015090126
6932.962823938965
4207.677951059363
5182.673609037867
6552.203096094486
6984.572518172979
7669.2288580278855
8550.57557145497
9490.553351631368
10337.052331415993
11149.121739337683
12549.071002411214
14258.96771763072
12522.47684188127
11094.513907097313
10246.19229689526
9358.05669008166
8368.521151661655
7431.777154549618
6709.007938008033
6331.146965272384
5112.944492014523
4296.062893002425
2560.5462447007567
4086.362805544536
6847.054092159304
9085.856135406026
11245.075372167932
13456.297574770397
15655.343887669376
17737.782399690423
19344.76473873315
20892.479538101044
24590.560967448833
20867.958696042995
19293.012765646665
17651.63878108932
15531.141125499751
13292.521497144637
11052.910199060145
8906.38680905069
6747.7592063745615
4070.1935679760622
2587.023079176824
2210.360683473584
3937.5541785912196
8029.052138850051
11927.47013898249
15395.11969335317
18770.322401520767
22101.084056937518
25258.202909526855
28304.467641015046
29991.23033119279
32738.993734479798
29974.33435369059
28253.041213404227
25172.346339233358
21978.680528801393
18615.864339631975
15234.026047524734
11818.813167747809
8029.857655537359
3989.114886104228
2262.8791436451447
10327.676031060104
6100.056811272781
7801.627649921735
10865.241786200462
14294.162026921998
17747.90220086027
21139.601345885858
24436.81241625645
27634.814026863984
30491.93705657334
31891.95400280288
30500.733789520218
27653.051488874407
24466.959517817628
21187.420857423855
17824.574776237092
14421.14899820746
11076.75862475736
8209.496171630095
6608.865209993411
10827.998404542004
8748.526734652558
3321.635293841128
5279.214626164732
7724.763322270563
10108.668103562824
12494.648555232381
14841.000091462654
17101.941002363943
19283.774110383332
21353.059527713307
22590.11872948527
21360.339488625905
19299.38874894328
17128.31978717823
14882.878215627316
12560.853033981499
10214.50813715202
7899.63256619313
5538.9422411778105
3513.0204294099703
8909.883231484855
6680.846447418792
3085.3239504034677
3591.2780762036955
4788.68083398135
5997.570291994434
7199.170620525588
8377.464822802785
9468.834141002279
10595.03016810441
12226.126549472583
13894.614213453828
12231.3585366944
10607.236697970791
9489.413301479177
8408.29963690397
7244.068549926069
6063.4578512575545
4877.358072219639
3661.3564807260827
2919.5761901284736
6689.064917909461
4718.14475625569
3428.942823731327
3319.903507776597
3085.120969265081
3162.9694430266522
3393.1308867044395
3749.4142041615755
4139.087236353445
4532.013574531477
5810.0263124118455
9118.965347724587
5806.376767201241
4526.013934096292
4135.387986951761
3744.4584595209467
3380.632307481057
3130.738423487137
3015.8027448276994
3179.6037144862375
3271.5178140578328
4738.716738447824
3068.66059928005
3286.6434111903345
4328.703741084733
5080.9215318108945
6106.094011687305
7279.647326227445
8476.757699871072
9722.957260212106
10843.81915594032
10920.781135747853
11854.672096957753
10912.01081375825
10833.256748444264
9707.628065190196
8452.191675309683
7241.523003791671
6047.053179430815
4994.873274472117
4232.558204444063
3206.7074676922293
3096.7577439806146
2124.845430019294
3067.0824441143664
5539.061701438063
7903.8379690619
10240.89256984618
12601.582335004987
14945.243446981802
17209.408102997764
19439.692660952976
20595.073879238786
19428.284929168967
20588.271642295418
19431.67819469425
17195.169749610213
14923.594650686531
12571.659332787385
10204.0380958214
7868.756940499742
5522.55157726172
3052.771542763644
2136.42125185246
2175.2285149464665
3530.7367214886212
7185.55118020625
10949.484690049494
14450.881563682726
17872.136678253082
21252.646999937257
24515.872873873108
27184.386799769807
29847.618699460785
29846.133728804834
29847.75893427571
27180.71747594567
24505.827355938458
21236.257968257436
17850.454898776898
14430.887547314307
10948.875244574449
7224.006478350935
3581.28051172155
2219.0500798936373
9590.692063214765
6055.408666738753
7520.464715905193
10455.373533530732
13716.345598301852
16950.43147944254
20166.664550946032
23508.41189195449
27269.955545632354
31263.69268872192
33427.51725684262
31255.809569499987
27252.81203500272
23479.534141792505
20122.06731973949
16884.07999926713
13619.230136185086
10318.020811269702
7279.086052430852
5594.838212991555
8809.039773476252
7498.738376901931
3187.454268854046
5231.785435824633
7576.205630826228
9824.918804094697
12058.88489326088
14288.924255441823
16586.188311645492
19175.439754160583
22111.20510255827
24028.385384927005
22101.970613644105
19155.069239200664
16552.605347954737
14239.563531487975
11990.103829660915
9732.619875920313
7454.202058575332
5081.019168252875
3185.557391383454
7118.604996470157
5398.7139933963945
2754.0564053663106
3616.987561796142
4864.470922902443
5998.121179442742
7106.360692059408
8203.467622642214
9272.243305690381
10665.82484913107
13120.671335265311
15656.636809170608
13114.384083388251
10648.769134772845
9243.202250414917
8163.174104400224
7055.833513082011
5940.138244894107
4813.156684460055
3629.3838794976355
2980.2910896940257
5303.22285668869
3897.438518164954
3187.1694760047417
3210.7670590239663
3159.8172220689926
3264.4619928011734
3448.023525679837
3721.778216111839
4048.3164412642955
4606.284393499385
5996.266981885511
11933.700428810713
5996.432678920317
4614.882692720242
4060.899363078915
3741.061427968576
3478.9604979232145
3316.1192978285735
3246.520657118702
3358.6088103029942
3299.0244975339997
3807.603617426257
2687.105796905903
3161.7261699069695
4129.196321898208
4812.413399452563
5795.902303514758
6944.779086728661
8165.9969994289395
9568.889865037137
11025.990880343912
10999.182814768126
13341.352207988706
11018.240369681902
11060.482149768713
9621.905091667184
8238.461498223958
7036.282844665494
5905.4087984718535
4931.490063747341
4221.35125433012
3178.9050650545983
2587.6230700787023
2055.395613221284
2979.656681792727
5256.1903609934825
7407.288163305595
9605.336331571212
11887.053332182373
14220.303372211716
16601.90455638893
19235.613241176372
20917.809962916006
20517.520263181395
20937.226641980356
19275.30914960701
16661.95589139322
14300.406820779324
11982.956572214069
9706.77864405007
7491.544987872704
5292.429116415069
2962.0454926634366
1955.9572661854804
2152.495968417191
3373.5829380864843
6757.866812590369
10221.964711018878
13506.94768410063
16786.44688669345
20099.475310039634
23430.07064352345
26311.708151143175
30408.479906042005
32199.950042248085
30432.180900713403
26360.29108425614
23502.698627220918
20194.908812981903
16897.598302891067
13616.328156090156
10297.661669383548
6776.38893057823
3362.659016387692
2086.6033374293092
9601.851273677397
6051.114704930555
7395.109111669316
10244.49402911326
13450.207735813954
16634.542571115348
19834.132148402165
23252.176570976964
27232.541591295085
31538.622876399506
33883.254472478555
31523.88374873524
27200.660475106273
23198.52362746426
19750.37079385505
16506.16477806905
13253.975220219192
9946.507654780478
6912.330090975802
5253.914343478666
8374.939216221788
7390.647211432528
3150.6174052067636
5178.39694505427
7470.019758707616
9682.123447422671
11889.044261047471
14119.98842612483
16484.48425700423
19233.902100841144
22379.588918878828
24431.04173895124
22363.852971983546
19199.138978841096
16426.560416436736
14032.922430827904
11762.996584196972
9502.733915669107
7217.633248339781
4867.679077629793
3007.5861965617655
6765.189259704445
5245.307972919292
2589.693981540387
3574.887673518235
4829.806778569118
5955.844101778422
7054.842596396526
8161.36176066466
9282.57999495984
10788.81860403217
13376.518470018425
16022.361267617096
13366.189881683818
10761.029386910745
9234.843600225144
8093.802253436734
6966.867313469633
5847.764934529503
4721.824752319848
3550.8492310827096
2886.4880416863098
4965.619447254806
3713.4894611368136
3034.9019020218584
3133.311764253323
3159.2823283764674
3302.020927874524
3506.8451406472527
3808.1291063765575
4199.28149821337
4855.813478389158
5840.429882306868
12543.881370415145
5846.013345625493
4872.447180672479
4221.91182001526
3841.7013092271395
3561.5054393865526
3393.2381242375736
3308.677391636077
3374.6866346617735
3219.1103755179192
3474.710658407909
2511.4295262589067
3027.326233898677
3986.291431584972
4674.757749761918
5660.054221893832
6813.56809502611
8060.635709676273
9533.777914192722
11117.548269382374
11187.670347087991
13475.045194179142
11215.788667952425
11169.219740470151
9613.705474945906
8173.005760389292
6961.328354106748
5845.63074738054
4886.552347403895
4158.077650292745
3077.0918461772976
2286.7425951330633
1926.330174457743
2817.649567053036
5057.568308208284
7183.24477022555
9355.682761923974
11623.581213856718
13975.75728982233
16438.733057771908
19248.748603513504
21104.93506164871
20524.73315167864
21133.51081020836
19306.576562730374
16527.395401540773
14096.81544377205
11773.003514142918
9519.962552460038
7326.662953502501
5124.572492071777
2797.431887742093
1738.0771707937208
1953.1430151652633
3113.2905257208963
6470.596025391762
9897.204049134782
13131.894224577934
16373.32862566556
19687.34114104407
23110.434255414722
26203.6486195186
30628.606446171456
32346.490618319283
30660.810314729664
26271.053782839037
23213.75362833076
19826.530900973547
16539.745771571714
13299.907129061929
10015.283804532337
6491.154082636462
3068.629096992744
1800.7190166430219
9590.69206322957
6055.408666751022
7520.464715915047
10455.373533535023
13716.345598305641
16950.43147944174
20166.66455094856
23508.411891959557
27269.95554563639
31263.69268873456
33427.517256849686
31255.809569509096
27252.812035019684
23479.53414179395
20122.067319738082
16884.07999924202
13619.230136174036
10318.020811260081
7279.086052422115
5594.838212982506
8809.03977346295
7498.738376908134
3187.454268858752
5231.785435830735
7576.205630830548
9824.918804098526
12058.884893259738
14288.924255445078
16586.18831164907
19175.439754163894
22111.20510256765
24028.385384932997
22101.97061364737
19155.069239218934
16552.605347955265
14239.563531492448
11990.103829646858
9732.61987591256
7454.202058568268
5081.019168245857
3185.5573913787193
7118.604996458891
5398.713993398703
2754.0564053657677
3616.987561797244
4864.470922904662
5998.121179442801
7106.36069206023
8203.46762264592
9272.243305691527
10665.824849139797
13120.671335268193
15656.636809172265
13114.384083389876
10648.769134793138
9243.20225041717
8163.174104413113
7055.833513077812
5940.138244888621
4813.156684454007
3629.3838794914664
2980.291089688811
5303.222856678523
3897.4385181669913
3187.1694760048654
3210.767059022346
3159.817222065623
3264.4619927998283
3448.023525684754
3721.7782161111295
4048.3164412626606
4606.284393509261
5996.2669818824
11933.700428803939
5996.4326789208135
4614.8826927376695
4060.8993630794857
3741.0614279828624
3478.9604979247215
3316.1192978255617
3246.5206571126882
3358.608810297688
3299.024497528656
3807.6036174178107
2687.1057969076624
3161.7261699081587
4129.1963218984065
4812.413399450194
5795.902303514918
6944.779086729244
8165.9969994261355
9568.889865034733
11025.990880343865
10999.182814764757
13341.352207980142
11018.240369682477
11060.482149771273
9621.905091661867
8238.461498229335
7036.282844648395
5905.408798468757
4931.4900637421015
4221.351254323962
3178.9050650502095
2587.6230700710703
2055.39561322233
2979.6566817938897
5256.190360994618
7407.288163305492
9605.336331570474
11887.05333217767
14220.303372212134
16601.90455638424
19235.613241178915
20917.80996291563
20517.520263175757
20937.226641981353
19275.309149607787
16661.95589138432
14300.40682077763
11982.956572195233
9706.778644042222
7491.544987864431
5292.42911640867
2962.045492659142
1955.957266180927
2152.4959684176647
3373.582938087752
6757.866812592321
10221.964711021119
13506.947684097266
16786.446886684673
20099.47531004213
23430.070643517403
26311.708151147646
30408.479906042525
32199.950042245375
30432.180900716696
26360.291084261673
23502.698627210393
20194.908812975405
16897.598302870567
13616.328156075222
10297.66166937201
6776.388930571249
3362.659016382368
2086.6033374240187
10327.676031075769
6100.056811297781
7801.6276499385185
10865.241786211658
14294.162026935453
17747.90220087488
21139.601345895164
24436.812416241235
27634.81402686097
30491.937056593695
31891.954002818868
30500.733789531267
27653.05148888282
24466.95951780711
21187.4208574108
17824.5747762214
14421.148998189301
11076.758624731583
8209.496171613237
6608.865209976822
10827.998404509673
8748.526734656805
3321.635293850295
5279.214626176503
7724.763322280404
10108.668103574004
12494.648555242242
14841.000091469288
17101.94100235763
19283.77411038587
21353.059527730657
22590.118729495276
21360.339488636517
19299.38874894613
17128.319787175828
14882.878215616576
12560.853033971025
10214.508137142051
7899.632566173036
5538.942241169152
3513.020429402046
8909.883231457385
6680.846447420435
3085.323950398405
3591.2780762072553
4788.680833989339
5997.570292004113
7199.1706205311675
8377.464822806109
9468.834141005458
10595.030168111214
12226.126549494595
13894.614213464058
12231.358536709955
10607.23669796446
9489.41330148807
8408.299636898886
7244.068549921384
6063.45785125106
4877.3580722076085
3661.356480722535
2919.5761901215865
6689.06491788807
4718.144756258369
3428.9428237275856
3319.9035077707867
3085.1209692662
3162.969443029884
3393.1308866996114
3749.414204162928
4139.087236353208
4532.013574522037
5810.026312436103
9118.965347741112
5806.376767211353
4526.0139340949845
4135.3879869578195
3744.4584595232304
3380.6323074796596
3130.7384234856163
3015.8027448218445
3179.6037144804495
3271.517814051502
4738.716738431387
3068.6605992812283
3286.6434111885756
4328.703741082522
5080.921531806707
6106.094011685047
7279.64732621972
8476.757699867865
9722.957260191104
10843.819155932357
10920.781135753316
11854.67209696386
10912.010813765599
10833.256748446733
9707.62806519137
8452.191675302123
7241.523003787577
6047.053179422906
4994.873274456587
4232.5582044359935
3206.707467685454
3096.7577439677198
2124.8454300219264
3067.0824441149784
5539.061701439507
7903.837969059021
10240.892569844327
12601.582335007171
14945.243446975579
17209.40810297731
19439.69266093812
20595.07387923972
19428.284929170648
20588.27164230137
19431.678194690816
17195.16974960591
14923.594650675619
12571.659332774865
10204.038095802234
7868.756940481176
5522.551577249959
3052.7715427566754
2136.421251845106
2175.2285149499025
3530.736721491142
7185.551180211325
10949.484690047433
14450.881563682002
17872.13667826329
21252.646999928067
24515.8728738522
27184.386799747397
29847.618699461753
29846.13372882152
29847.758934280297
27180.717475933492
24505.82735593111
21236.257968242826
17850.45489875376
14430.887547286147
10948.875244551518
7224.0064783339885
3581.2805117114654
2219.050079885669
15840.967755538995
7265.659936348799
7857.928961932197
10875.741591132846
14510.365880176527
18178.083156848952
21791.06373236422
25223.106985875453
28135.34372590402
29945.880265360494
30420.284793748222
29969.04217409083
28184.61848111894
25306.809999953537
21923.905053128925
18382.22511976356
14814.150919135294
11321.21633763003
8515.001065402235
8554.318115568914
17117.519574395817
13448.326254747568
4230.396013272757
5596.4100061725685
8016.319065537483
10447.309782508715
12909.018871179363
15355.976021028078
17712.41983278431
19749.785782342402
21010.087300112915
21245.981946794436
21031.261803740614
19794.844173700505
17788.402932034005
15474.14962846064
13084.535560929446
10697.362620755297
8352.87854262454
5983.275789531174
4472.275736130943
13988.934273948697
9914.478521569257
5235.004661371671
5159.678735613811
6082.797247658078
7066.47706238452
8121.454511013254
9249.0940160906
10452.3722970438
11594.120059764513
12179.566329404097
11968.84734218064
12193.815924646371
11622.512975966842
10498.531396021086
9317.799626262797
8215.465509009136
7179.1638288068525
6170.840541584853
5119.104820776928
4904.26229113095
10173.976980013384
6766.438210263839
5753.953090907048
6013.264184970237
5678.554088891035
5526.291645175924
5400.056877230817
5476.026367229237
5936.383635930947
6913.065404005912
7685.286953566857
7274.124065071578
7674.902181674622
6897.7942362045715
5904.418046741142
5413.815538632163
5294.462609434079
5367.398931111003
5450.66919065774
5724.666478129469
5577.000015071661
6932.962823915395
4207.677951064551
5182.67360903955
6552.203096091721
6984.5725181665
7669.228858018598
8550.575571442283
9490.553351619319
10337.052331409235
11149.121739333345
12549.071002396191
14258.967717608006
12522.476841866313
11094.51390709527
10246.192296904757
9358.056690085192
8368.521151657127
7431.777154540491
6709.007937995867
6331.146965252613
5112.944491998295
4296.062892989044
2560.5462447044906
4086.362805546433
6847.054092161189
9085.856135407405
11245.075372164743
13456.297574756853
15655.343887661069
17737.782399678865
19344.764738724713
20892.479538094638
24590.560967419628
20867.958696036134
19293.012765652278
17651.63878108681
15531.141125493103
13292.521497131105
11052.91019904578
8906.386809031215
6747.759206357038
4070.193567963813
2587.0230791691706
2210.3606834782845
3937.5541785955766
8029.052138855851
11927.470138989565
15395.119693354927
18770.322401511123
22101.084056927295
25258.202909506446
28304.46764099562
29991.23033118429
32738.993734461546
29974.334353692037
28253.041213409524
25172.346339220923
21978.680528785124
18615.864339608
15234.02604750145
11818.813167718108
8029.857655517416
3989.1148860927465
2262.8791436386487
SCALARS Statev float 1
LOOKUP_TABLE default
0.0
0.0
0.0
0.0
0.0
0.0
0.0
0.0
0.0
0.0
0.0
0.0
0.0
0.0
0.0
0.0
0.0
0.0
0.0
0.0
0.0
0.0
0.0
0.0
0.0
0.0
0.0
0.0
0.0
0.0
0.0
0.0
0.0
0.0
0.0
0.0
0.0
0.0
0.0
0.0
0.0
0.0
0.0
0.0
0.0
0.0
0.0
0.0
0.0
0.0
0.0
0.0
0.0
0.0
0.0
0.0
0.0
0.0
0.0
0.0
0.0
0.0
0.0
0.0
0.0
0.0
0.0
0.0
0.0
0.0
0.0
0.0
0.0
0.0
0.0
0.0
0.0
0.0
0.0
0.0
0.0
0.0
0.0
0.0
0.0
0.0
0.0
0.0
0.0
0.0
0.0
0.0
0.0
0.0
0.0
0.0
0.0
0.0
0.0
0.0
0.0
0.0
0.0
0.0
0.0
0.0
0.0
0.0
0.0
0.0
0.0
0.0
0.0
0.0
0.0
0.0
0.0
0.0
0.0
0.0
0.0
0.0
0.0
0.0
0.0
0.0
0.0
0.0
0.0
0.0
0.0
0.0
0.0
0.0
0.0
0.0
0.0
0.0
0.0
0.0
0.0
0.0
0.0
0.0
0.0
0.0
0.0
0.0
0.0
0.0
0.0
0.0
0.0
0.0
0.0
0.0
0.0
0.0
0.0
0.0
0.0
0.0
0.0
0.0
0.0
0.0
0.0
0.0
0.0
0.0
0.0
0.0
0.0
0.0
0.0
0.0
0.0
0.0
0.0
0.0
0.0
0.0
0.0
0.0
0.0
0.0
0.0
0.0
0.0
0.0
0.0
0.0
0.0
0.0
0.0
0.0
0.0
0.0
0.0
0.0
0.0
0.0
0.0
0.0
0.0
0.0
0.0
0.0
0.0
0.0
0.0
0.0
0.0
0.0
0.0
0.0
0.0
0.0
0.0
0.0
0.0
0.0
0.0
0.0
0.0
0.0
0.0
0.0
0.0
0.0
0.0
0.0
0.0
0.0
0.0
0.0
0.0
0.0
0.0
0.0
0.0
0.0
0.0
0.0
0.0
0.0
0.0
0.0
0.0
0.0
0.0
0.0
0.0
0.0
0.0
0.0
0.0
0.0
0.0
0.0
0.0
0.0
0.0
0.0
0.0
0.0
0.0
0.0
0.0
0.0
0.0
0.0
0.0
0.0
0.0
0.0
0.0
0.0
0.0
0.0
0.0
0.0
0.0
0.0
0.0
0.0
0.0
0.0
0.0
0.0
0.0
0.0
0.0
0.0
0.0
0.0
0.0
0.0
0.0
0.0
0.0
0.0
0.0
0.0
0.0
0.0
0.0
0.0
0.0
0.0
0.0
0.0
0.0
0.0
0.0
0.0
0.0
0.0
0.0
0.0
0.0
0.0
0.0
0.0
0.0
0.0
0.0
0.0
0.0
0.0
0.0
0.0
0.0
0.0
0.0
0.0
0.0
0.0
0.0
0.0
0.0
0.0
0.0
0.0
0.0
0.0
0.0
0.0
0.0
0.0
0.0
0.0
0.0
0.0
0.0
0.0
0.0
0.0
0.0
0.0
0.0
0.0
0.0
0.0
0.0
0.0
0.0
0.0
0.0
0.0
0.0
0.0
0.0
0.0
0.0
0.0
0.0
0.0
0.0
0.0
0.0
0.0
0.0
0.0
0.0
0.0
0.0
0.0
0.0
0.0
0.0
0.0
0.0
0.0
0.0
0.0
0.0
0.0
0.0
0.0
0.0
0.0
0.0
0.0
0.0
0.0
0.0
0.0
0.0
0.0
0.0
0.0
0.0
0.0
0.0
0.0
0.0
0.0
0.0
0.0
0.0
0.0
0.0
0.0
0.0
0.0
0.0
0.0
0.0
0.0
0.0
0.0
0.0
0.0
0.0
0.0
0.0
0.0
0.0
0.0
0.0
0.0
0.0
0.0
0.0
0.0
0.0
0.0
0.0
0.0
0.0
0.0
0.0
0.0
0.0
0.0
0.0
0.0
0.0
0.0
0.0
0.0
0.0
0.0
0.0
0.0
0.0
0.0
0.0
0.0
0.0
0.0
0.0
0.0
0.0
0.0
0.0
0.0
0.0
0.0
0.0
0.0
0.0
0.0
0.0
0.0
0.0
0.0
0.0
0.0
0.0
0.0
0.0
0.0
0.0
0.0
0.0
0.0
0.0
0.0
0.0
0.0
0.0
0.0
0.0
0.0
0.0
0.0
0.0
0.0
0.0
0.0
0.0
0.0
0.0
0.0
0.0
0.0
0.0
0.0
0.0
0.0
0.0
0.0
0.0
0.0
0.0
0.0
0.0
0.0
0.0
0.0
0.0
0.0
0.0
0.0
0.0
0.0
0.0
0.0
0.0
0.0
0.0
0.0
0.0
0.0
0.0
0.0
0.0
0.0
0.0
0.0
0.0
0.0
0.0
0.0
0.0
0.0
0.0
0.0
0.0
0.0
0.0
0.0
0.0
0.0
0.0
0.0
0.0
0.0
0.0
0.0
0.0
0.0
0.0
0.0
0.0
0.0
0.0
0.0
0.0
0.0
0.0
0.0
0.0
0.0
0.0
0.0
0.0
0.0
0.0
0.0
0.0
0.0
0.0
0.0
0.0
0.0
0.0
0.0
0.0
0.0
0.0
0.0
0.0
0.0
0.0
0.0
0.0
0.0
0.0
0.0
0.0
0.0
0.0
0.0
0.0
0.0
0.0
0.0
0.0
0.0
0.0
0.0
0.0
0.0
0.0
0.0
0.0
0.0
0.0
0.0
0.0
0.0
0.0
0.0
0.0
0.0
0.0
0.0
0.0
0.0
0.0
0.0
0.0
0.0
0.0
0.0
0.0
0.0
0.0
0.0
0.0
0.0
0.0
0.0
0.0
0.0
0.0
0.0
0.0
0.0
0.0
0.0
0.0
0.0
0.0
0.0
0.0
0.0
0.0
0.0
0.0
0.0
0.0
0.0
0.0
0.0
0.0
0.0
0.0
0.0
0.0
0.0
0.0
0.0
0.0
0.0
0.0
0.0
0.0
0.0
0.0
0.0
0.0
0.0
0.0
0.0
0.0
0.0
0.0
0.0
0.0
0.0
0.0
0.0
0.0
0.0
0.0
0.0
0.0
0.0
0.0
0.0
0.0
0.0
0.0
0.0
0.0
0.0
0.0
0.0
0.0
0.0
0.0
0.0
0.0
0.0
0.0
0.0
0.0
0.0
0.0
0.0
0.0
0.0
0.0
0.0
0.0
0.0
0.0
0.0
0.0
0.0
0.0
0.0
0.0
0.0
0.0
0.0
0.0
0.0
0.0
0.0
0.0
0.0
0.0
0.0
0.0
0.0
0.0
0.0
0.0
0.0
0.0
0.0
0.0
0.0
0.0
0.0
0.0
0.0
0.0
0.0
0.0
0.0
0.0
0.0
0.0
0.0
0.0
0.0
0.0
0.0
0.0
0.0
0.0
0.0
0.0
0.0
0.0
0.0
0.0
0.0
0.0
0.0
0.0
0.0
0.0
0.0
0.0
0.0
0.0
0.0
0.0
0.0
0.0
0.0
0.0
0.0
0.0
0.0
0.0
0.0
0.0
0.0
0.0
0.0
0.0
0.0
0.0
0.0
0.0
0.0
0.0
0.0
0.0
0.0
0.0
0.0
0.0
0.0
0.0
0.0
0.0
0.0
0.0
0.0
0.0
0.0
0.0
0.0
0.0
0.0
0.0
0.0
0.0
0.0
0.0
0.0
0.0
0.0
0.0
0.0
0.0
0.0
0.0
0.0
0.0
0.0
0.0
0.0
0.0
0.0
0.0
0.0
0.0
0.0
0.0
0.0
0.0
0.0
0.0
0.0
0.0
0.0
0.0
0.0
0.0
0.0
0.0
0.0
0.0
0.0
0.0
0.0
0.0
0.0
0.0
0.0
0.0
0.0
0.0
0.0
0.0
0.0
0.0
0.0
0.0
0.0
0.0
0.0
0.0
0.0
0.0
0.0
0.0
0.0
0.0
0.0
0.0
0.0
0.0
0.0
0.0
0.0
0.0
0.0
0.0
0.0
0.0
0.0
0.0
0.0
0.0
0.0
0.0
0.0
0.0
0.0
0.0
0.0
0.0
0.0
0.0
0.0
0.0
0.0
0.0
0.0
0.0
0.0
0.0
0.0
0.0
0.0
0.0
0.0
0.0
0.0
0.0
0.0
0.0
0.0
0.0
0.0
0.0
0.0
0.0
0.0
0.0
0.0
0.0
0.0
0.0
0.0
0.0
0.0
0.0
0.0
0.0
0.0
0.0
0.0
0.0
0.0
0.0
0.0
0.0
0.0
0.0
0.0
0.0
0.0
0.0
0.0
0.0
0.0
0.0
0.0
0.0
0.0
0.0
0.0
0.0
0.0
0.0
0.0
0.0
0.0
0.0
0.0
0.0
0.0
0.0
0.0
0.0
0.0
0.0
0.0
0.0
0.0
0.0
0.0
0.0
0.0
0.0
0.0
0.0
0.0
0.0
0.0
0.0
0.0
0.0
0.0
0.0
0.0
0.0
SCALARS Wm float 4
LOOKUP_TABLE default
1412.998650437626 1412.998650437626 0.0 0.0
255.68454690823287 255.68454690823287 0.0 0.0
304.62326254618574 304.62326254618574 0.0 0.0
637.731508996029 637.731508996029 0.0 0.0
1124.9850056568446 1124.9850056568446 0.0 0.0
1772.9824641933694 1772.9824641933694 0.0 0.0
2553.010397079646 2553.010397079646 0.0 0.0
3425.6541570534673 3425.6541570534673 0.0 0.0
4264.893557238704 4264.893557238704 0.0 0.0
4844.861614264292 4844.861614264292 0.0 0.0
5031.443747875952 5031.443747875952 0.0 0.0
4852.190880158245 4852.190880158245 0.0 0.0
4279.547566500442 4279.547566500442 0.0 0.0
3448.005504802314 3448.005504802314 0.0 0.0
2583.7102123220384 2583.7102123220384 0.0 0.0
1812.279460177044 1812.279460177044 0.0 0.0
1171.7825209025384 1171.7825209025384 0.0 0.0
689.0131969862923 689.0131969862923 0.0 0.0
362.2270285184331 362.2270285184331 0.0 0.0
403.6344728384247 403.6344728384247 0.0 0.0
1353.7243262079776 1353.7243262079776 0.0 0.0
1048.9717926497246 1048.9717926497246 0.0 0.0
31.740043016231148 31.740043016231148 0.0 0.0
141.61143862682795 141.61143862682795 0.0 0.0
302.70082974060136 302.70082974060136 0.0 0.0
519.5929245658846 519.5929245658846 0.0 0.0
801.3581851268287 801.3581851268287 0.0 0.0
1142.1930300233234 1142.1930300233234 0.0 0.0
1526.605115191014 1526.605115191014 0.0 0.0
1903.9940693262815 1903.9940693262815 0.0 0.0
2171.9314554471225 2171.9314554471225 0.0 0.0
2259.091774777091 2259.091774777091 0.0 0.0
2176.684680490349 2176.684680490349 0.0 0.0
1913.4639339195296 1913.4639339195296 0.0 0.0
1540.8952784709845 1540.8952784709845 0.0 0.0
1161.3915276493392 1161.3915276493392 0.0 0.0
825.2263771021012 825.2263771021012 0.0 0.0
546.8927665847309 546.8927665847309 0.0 0.0
331.33376905863827 331.33376905863827 0.0 0.0
161.93541742821213 161.93541742821213 0.0 0.0
36.65487779752766 36.65487779752766 0.0 0.0
1101.7694909792485 1101.7694909792485 0.0 0.0
583.5489103062428 583.5489103062428 0.0 0.0
86.66217991832248 86.66217991832248 0.0 0.0
121.69621918883733 121.69621918883733 0.0 0.0
158.41112918379775 158.41112918379775 0.0 0.0
219.150662859517 219.150662859517 0.0 0.0
289.39648695814776 289.39648695814776 0.0 0.0
375.5786758413136 375.5786758413136 0.0 0.0
482.15501454665474 482.15501454665474 0.0 0.0
598.0737413771749 598.0737413771749 0.0 0.0
675.2321214417485 675.2321214417485 0.0 0.0
697.071110352189 697.071110352189 0.0 0.0
677.1837998854949 677.1837998854949 0.0 0.0
601.7860767518317 601.7860767518317 0.0 0.0
487.52219256403845 487.52219256403845 0.0 0.0
382.4048840547862 382.4048840547862 0.0 0.0
297.19168629414673 297.19168629414673 0.0 0.0
226.97423451983784 226.97423451983784 0.0 0.0
163.01001446040493 163.01001446040493 0.0 0.0
118.40230347036352 118.40230347036352 0.0 0.0
73.33744946177937 73.33744946177937 0.0 0.0
608.8861675789265 608.8861675789265 0.0 0.0
269.1746561530309 269.1746561530309 0.0 0.0
125.73257005429147 125.73257005429147 0.0 0.0
156.7426931372413 156.7426931372413 0.0 0.0
143.50431628710422 143.50431628710422 0.0 0.0
141.645599360512 141.645599360512 0.0 0.0
139.5386192682375 139.5386192682375 0.0 0.0
137.06859227684572 137.06859227684572 0.0 0.0
141.72309683550085 141.72309683550085 0.0 0.0
163.81156655603144 163.81156655603144 0.0 0.0
188.2058216173717 188.2058216173717 0.0 0.0
204.18029178280202 204.18029178280202 0.0 0.0
187.51565801704993 187.51565801704993 0.0 0.0
162.1591861646704 162.1591861646704 0.0 0.0
138.98007775895698 138.98007775895698 0.0 0.0
133.02653896816545 133.02653896816545 0.0 0.0
133.9084096829006 133.9084096829006 0.0 0.0
133.82970903026222 133.82970903026222 0.0 0.0
132.45336624296104 132.45336624296104 0.0 0.0
144.10335985397543 144.10335985397543 0.0 0.0
115.3096724140456 115.3096724140456 0.0 0.0
283.3240749382237 283.3240749382237 0.0 0.0
102.17798211376244 102.17798211376244 0.0 0.0
115.6250049117044 115.6250049117044 0.0 0.0
185.21723132781176 185.21723132781176 0.0 0.0
218.13412224973462 218.13412224973462 0.0 0.0
263.0194174742563 263.0194174742563 0.0 0.0
325.2181459073504 325.2181459073504 0.0 0.0
398.8436515633193 398.8436515633193 0.0 0.0
470.5457965484935 470.5457965484935 0.0 0.0
551.1172200967103 551.1172200967103 0.0 0.0
677.505469464023 677.505469464023 0.0 0.0
758.402706075321 758.402706075321 0.0 0.0
674.4085558931382 674.4085558931382 0.0 0.0
544.757999563353 544.757999563353 0.0 0.0
460.9304359120631 460.9304359120631 0.0 0.0
386.12103490743203 386.12103490743203 0.0 0.0
309.7983593790514 309.7983593790514 0.0 0.0
245.69932806211068 245.69932806211068 0.0 0.0
201.04830318273653 201.04830318273653 0.0 0.0
173.2114239953287 173.2114239953287 0.0 0.0
110.46856160336799 110.46856160336799 0.0 0.0
107.5006447393946 107.5006447393946 0.0 0.0
35.65229216206565 35.65229216206565 0.0 0.0
88.23715700304976 88.23715700304976 0.0 0.0
219.23891634390378 219.23891634390378 0.0 0.0
392.36871592913667 392.36871592913667 0.0 0.0
607.9474550101679 607.9474550101679 0.0 0.0
875.2268809681165 875.2268809681165 0.0 0.0
1188.107941223581 1188.107941223581 0.0 0.0
1529.2618453144532 1529.2618453144532 0.0 0.0
1792.3708761060905 1792.3708761060905 0.0 0.0
2186.045306276355 2186.045306276355 0.0 0.0
2378.0095650369017 2378.0095650369017 0.0 0.0
2180.5550577511244 2180.5550577511244 0.0 0.0
1781.6142055684516 1781.6142055684516 0.0 0.0
1513.1721224267064 1513.1721224267064 0.0 0.0
1167.8649612322984 1167.8649612322984 0.0 0.0
852.6021179551701 852.6021179551701 0.0 0.0
586.144977880241 586.144977880241 0.0 0.0
376.04306022214024 376.04306022214024 0.0 0.0
211.70230754842467 211.70230754842467 0.0 0.0
86.27095870220455 86.27095870220455 0.0 0.0
36.971815627957895 36.971815627957895 0.0 0.0
21.90659229569245 21.90659229569245 0.0 0.0
95.24406804812757 95.24406804812757 0.0 0.0
345.7954659459542 345.7954659459542 0.0 0.0
755.5847407172735 755.5847407172735 0.0 0.0
1265.8071351224978 1265.8071351224978 0.0 0.0
1887.4769265503428 1887.4769265503428 0.0 0.0
2618.859562186429 2618.859562186429 0.0 0.0
3437.090851845433 3437.090851845433 0.0 0.0
4272.755168378464 4272.755168378464 0.0 0.0
5072.32081237035 5072.32081237035 0.0 0.0
4361.307371689701 4361.307371689701 0.0 0.0
5065.2402762137135 5065.2402762137135 0.0 0.0
4255.982515101624 4255.982515101624 0.0 0.0
3412.4914290331717 3412.4914290331717 0.0 0.0
2588.8056049633037 2588.8056049633037 0.0 0.0
1855.9162305417376 1855.9162305417376 0.0 0.0
1239.393209295939 1239.393209295939 0.0 0.0
741.7325358719362 741.7325358719362 0.0 0.0
344.5127819354147 344.5127819354147 0.0 0.0
96.97750896213122 96.97750896213122 0.0 0.0
23.201362705202946 23.201362705202946 0.0 0.0
525.9215036531607 525.9215036531607 0.0 0.0
216.99545726924515 216.99545726924515 0.0 0.0
322.3091777838928 322.3091777838928 0.0 0.0
649.4011730602999 649.4011730602999 0.0 0.0
1113.4000882872865 1113.4000882872865 0.0 0.0
1718.8197608073624 1718.8197608073624 0.0 0.0
2444.388794855014 2444.388794855014 0.0 0.0
3282.5439282952652 3282.5439282952652 0.0 0.0
4225.156271099401 4225.156271099401 0.0 0.0
5152.180945854977 5152.180945854977 0.0 0.0
5597.25361432715 5597.25361432715 0.0 0.0
5154.736954397705 5154.736954397705 0.0 0.0
4229.929413359927 4229.929413359927 0.0 0.0
3289.4658857913914 3289.4658857913914 0.0 0.0
2453.845757664499 2453.845757664499 0.0 0.0
1731.5247600186813 1731.5247600186813 0.0 0.0
1130.403390391425 1130.403390391425 0.0 0.0
670.9850117762455 670.9850117762455 0.0 0.0
352.8509244192445 352.8509244192445 0.0 0.0
259.2018881442166 259.2018881442166 0.0 0.0
512.5801183914635 512.5801183914635 0.0 0.0
421.74437206492945 421.74437206492945 0.0 0.0
36.694552388414444 36.694552388414444 0.0 0.0
136.01201110045167 136.01201110045167 0.0 0.0
295.99959803340147 295.99959803340147 0.0 0.0
506.79020905945026 506.79020905945026 0.0 0.0
777.3327088722825 777.3327088722825 0.0 0.0
1101.4515991099697 1101.4515991099697 0.0 0.0
1470.4818512403276 1470.4818512403276 0.0 0.0
1878.234756846955 1878.234756846955 0.0 0.0
2287.307146866803 2287.307146866803 0.0 0.0
2503.7347817999625 2503.7347817999625 0.0 0.0
2288.9582806613166 2288.9582806613166 0.0 0.0
1881.3894208823008 1881.3894208823008 0.0 0.0
1475.0970129415648 1475.0970129415648 0.0 0.0
1107.6537413972167 1107.6537413972167 0.0 0.0
785.4152897887448 785.4152897887448 0.0 0.0
517.0503808334562 517.0503808334562 0.0 0.0
309.1007575860534 309.1007575860534 0.0 0.0
148.89489850609158 148.89489850609158 0.0 0.0
42.18403395624416 42.18403395624416 0.0 0.0
424.35617469788303 424.35617469788303 0.0 0.0
253.3966824178371 253.3966824178371 0.0 0.0
29.799000057043536 29.799000057043536 0.0 0.0
58.193739715416825 58.193739715416825 0.0 0.0
98.15651653840537 98.15651653840537 0.0 0.0
157.60005442809066 157.60005442809066 0.0 0.0
228.37341432451424 228.37341432451424 0.0 0.0
311.703602941507 311.703602941507 0.0 0.0
401.6675490113795 401.6675490113795 0.0 0.0
507.8903502228426 507.8903502228426 0.0 0.0
669.7188251201063 669.7188251201063 0.0 0.0
814.8959160799919 814.8959160799919 0.0 0.0
670.4982675284982 670.4982675284982 0.0 0.0
509.4245201486404 509.4245201486404 0.0 0.0
403.90271018759114 403.90271018759114 0.0 0.0
314.5673080147818 314.5673080147818 0.0 0.0
231.78980272485654 231.78980272485654 0.0 0.0
161.55902425480645 161.55902425480645 0.0 0.0
102.15980024039315 102.15980024039315 0.0 0.0
59.35504426960472 59.35504426960472 0.0 0.0
26.087432922777143 26.087432922777143 0.0 0.0
251.22368031516032 251.22368031516032 0.0 0.0
125.9980003383628 125.9980003383628 0.0 0.0
41.563665322684436 41.563665322684436 0.0 0.0
50.84612290291583 50.84612290291583 0.0 0.0
43.868604849304496 43.868604849304496 0.0 0.0
45.594850931419025 45.594850931419025 0.0 0.0
49.739885465531266 49.739885465531266 0.0 0.0
55.267318810512926 55.267318810512926 0.0 0.0
58.63199410394153 58.63199410394153 0.0 0.0
61.85599410013703 61.85599410013703 0.0 0.0
112.45133228444833 112.45133228444833 0.0 0.0
275.0790849191383 275.0790849191383 0.0 0.0
112.28671257115724 112.28671257115724 0.0 0.0
61.76778367190303 61.76778367190303 0.0 0.0
58.59964657073487 58.59964657073487 0.0 0.0
55.13284355569338 55.13284355569338 0.0 0.0
49.311555230640174 49.311555230640174 0.0 0.0
44.62407125278914 44.62407125278914 0.0 0.0
41.842949613113824 41.842949613113824 0.0 0.0
47.366602353982216 47.366602353982216 0.0 0.0
37.02289068866196 37.02289068866196 0.0 0.0
126.83808702936709 126.83808702936709 0.0 0.0
52.20283325074931 52.20283325074931 0.0 0.0
44.65545290228625 44.65545290228625 0.0 0.0
79.74817447950208 79.74817447950208 0.0 0.0
112.41825410099334 112.41825410099334 0.0 0.0
162.91610634606295 162.91610634606295 0.0 0.0
233.198150624295 233.198150624295 0.0 0.0
318.8190769678425 318.8190769678425 0.0 0.0
424.6922999532289 424.6922999532289 0.0 0.0
524.9134655420115 524.9134655420115 0.0 0.0
553.9646196657787 553.9646196657787 0.0 0.0
839.2728263639921 839.2728263639921 0.0 0.0
552.808940968039 552.808940968039 0.0 0.0
523.3067834430606 523.3067834430606 0.0 0.0
422.61783932121443 422.61783932121443 0.0 0.0
316.2108547519919 316.2108547519919 0.0 0.0
230.03565341197933 230.03565341197933 0.0 0.0
159.19033445871221 159.19033445871221 0.0 0.0
108.38874490440074 108.38874490440074 0.0 0.0
76.31605396285619 76.31605396285619 0.0 0.0
41.999924303809166 41.999924303809166 0.0 0.0
53.319706397011245 53.319706397011245 0.0 0.0
22.994350242148 22.994350242148 0.0 0.0
48.62877327300032 48.62877327300032 0.0 0.0
146.25447584686952 146.25447584686952 0.0 0.0
304.5935356707433 304.5935356707433 0.0 0.0
518.3487487833052 518.3487487833052 0.0 0.0
789.6578424910799 789.6578424910799 0.0 0.0
1115.2751437066745 1115.2751437066745 0.0 0.0
1481.6439507229802 1481.6439507229802 0.0 0.0
1926.0216988290035 1926.0216988290035 0.0 0.0
2045.463810064734 2045.463810064734 0.0 0.0
2638.953131374737 2638.953131374737 0.0 0.0
2043.442887847766 2043.442887847766 0.0 0.0
1923.156335923563 1923.156335923563 0.0 0.0
1477.7027553586151 1477.7027553586151 0.0 0.0
1110.540250717614 1110.540250717614 0.0 0.0
784.6510740615048 784.6510740615048 0.0 0.0
513.8095582885135 513.8095582885135 0.0 0.0
301.4990443469662 301.4990443469662 0.0 0.0
145.06964076432155 145.06964076432155 0.0 0.0
47.996799811889275 47.996799811889275 0.0 0.0
23.462156815673094 23.462156815673094 0.0 0.0
21.35107247853822 21.35107247853822 0.0 0.0
75.40772985815619 75.40772985815619 0.0 0.0
284.4521106038309 284.4521106038309 0.0 0.0
650.5038064607393 650.5038064607393 0.0 0.0
1135.0855735322468 1135.0855735322468 0.0 0.0
1739.6721173732865 1739.6721173732865 0.0 0.0
2468.34940529503 2468.34940529503 0.0 0.0
3280.689112791606 3280.689112791606 0.0 0.0
4093.7373166626367 4093.7373166626367 0.0 0.0
4645.142056810318 4645.142056810318 0.0 0.0
6969.572328213356 6969.572328213356 0.0 0.0
4643.697478667161 4643.697478667161 0.0 0.0
4089.9673958123867 4089.9673958123867 0.0 0.0
3274.932894955086 3274.932894955086 0.0 0.0
2461.447232303693 2461.447232303693 0.0 0.0
1732.8210790959533 1732.8210790959533 0.0 0.0
1130.0811996570274 1130.0811996570274 0.0 0.0
649.2455682143908 649.2455682143908 0.0 0.0
286.53546596690165 286.53546596690165 0.0 0.0
77.25376674057655 77.25376674057655 0.0 0.0
22.27037039599068 22.27037039599068 0.0 0.0
372.9511265156702 372.9511265156702 0.0 0.0
242.49956574073553 242.49956574073553 0.0 0.0
308.9843517384558 308.9843517384558 0.0 0.0
611.2327030910764 611.2327030910764 0.0 0.0
1043.3980114603733 1043.3980114603733 0.0 0.0
1600.778273300972 1600.778273300972 0.0 0.0
2283.4804639655417 2283.4804639655417 0.0 0.0
3140.856555634497 3140.856555634497 0.0 0.0
4280.229792706154 4280.229792706154 0.0 0.0
5622.17867766234 5622.17867766234 0.0 0.0
6334.930437012212 6334.930437012212 0.0 0.0
5619.071009682651 5619.071009682651 0.0 0.0
4274.224897278363 4274.224897278363 0.0 0.0
3132.0097659219973 3132.0097659219973 0.0 0.0
2271.6004924379354 2271.6004924379354 0.0 0.0
1585.7484548473174 1585.7484548473174 0.0 0.0
1025.4228215351648 1025.4228215351648 0.0 0.0
591.5147420733186 591.5147420733186 0.0 0.0
285.2335994198686 285.2335994198686 0.0 0.0
189.0528327140339 189.0528327140339 0.0 0.0
368.0276354247483 368.0276354247483 0.0 0.0
315.57155322986705 315.57155322986705 0.0 0.0
40.85158302954664 40.85158302954664 0.0 0.0
136.27070608208044 136.27070608208044 0.0 0.0
289.1813258308251 289.1813258308251 0.0 0.0
485.61989787352707 485.61989787352707 0.0 0.0
736.0035943519221 736.0035943519221 0.0 0.0
1041.506071297074 1041.506071297074 0.0 0.0
1417.8095646815545 1417.8095646815545 0.0 0.0
1908.5251251863308 1908.5251251863308 0.0 0.0
2499.6402777636354 2499.6402777636354 0.0 0.0
2848.0605508171584 2848.0605508171584 0.0 0.0
2497.5078546555387 2497.5078546555387 0.0 0.0
1904.3648133180136 1904.3648133180136 0.0 0.0
1411.7635800023404 1411.7635800023404 0.0 0.0
1033.6718905872717 1033.6718905872717 0.0 0.0
726.5249803032239 726.5249803032239 0.0 0.0
474.9439732983754 474.9439732983754 0.0 0.0
277.6609995311566 277.6609995311566 0.0 0.0
126.83135506553708 126.83135506553708 0.0 0.0
38.2013012183278 38.2013012183278 0.0 0.0
305.2755046972063 305.2755046972063 0.0 0.0
175.2605777075133 175.2605777075133 0.0 0.0
28.36242715168742 28.36242715168742 0.0 0.0
58.794448673583666 58.794448673583666 0.0 0.0
103.90219025152176 103.90219025152176 0.0 0.0
160.99602487875734 160.99602487875734 0.0 0.0
226.73850378490107 226.73850378490107 0.0 0.0
303.66072632340126 303.66072632340126 0.0 0.0
390.65393012168624 390.65393012168624 0.0 0.0
522.8440128341224 522.8440128341224 0.0 0.0
774.1023717768973 774.1023717768973 0.0 0.0
1019.3970158858158 1019.3970158858158 0.0 0.0
773.2617285245452 773.2617285245452 0.0 0.0
521.0718285579992 521.0718285579992 0.0 0.0
388.0428285172496 388.0428285172496 0.0 0.0
300.38719072054835 300.38719072054835 0.0 0.0
223.08087170776756 223.08087170776756 0.0 0.0
157.28889827023704 157.28889827023704 0.0 0.0
101.10064133194587 101.10064133194587 0.0 0.0
59.39224220711637 59.39224220711637 0.0 0.0
32.01583938355533 32.01583938355533 0.0 0.0
176.0557207538561 176.0557207538561 0.0 0.0
89.14379789624705 89.14379789624705 0.0 0.0
38.10475072034025 38.10475072034025 0.0 0.0
48.94804429869119 48.94804429869119 0.0 0.0
46.80988064861552 46.80988064861552 0.0 0.0
50.40865268265654 50.40865268265654 0.0 0.0
54.56217641872853 54.56217641872853 0.0 0.0
59.70148749025753 59.70148749025753 0.0 0.0
62.0822311529421 62.0822311529421 0.0 0.0
72.6642771481349 72.6642771481349 0.0 0.0
164.44947823047343 164.44947823047343 0.0 0.0
463.87415323251963 463.87415323251963 0.0 0.0
164.96042365280204 164.96042365280204 0.0 0.0
73.37723393876679 73.37723393876679 0.0 0.0
62.971461446265295 62.971461446265295 0.0 0.0
60.82048116280686 60.82048116280686 0.0 0.0
56.03657464217595 56.03657464217595 0.0 0.0
52.463236911093425 52.463236911093425 0.0 0.0
49.918976739911685 49.918976739911685 0.0 0.0
52.95004969259398 52.95004969259398 0.0 0.0
41.189950085605055 41.189950085605055 0.0 0.0
87.54028852856864 87.54028852856864 0.0 0.0
39.44314789554732 39.44314789554732 0.0 0.0
41.795548216588784 41.795548216588784 0.0 0.0
74.03805424811812 74.03805424811812 0.0 0.0
102.30094242858013 102.30094242858013 0.0 0.0
148.20645988341528 148.20645988341528 0.0 0.0
214.02966432175086 214.02966432175086 0.0 0.0
298.4827562483756 298.4827562483756 0.0 0.0
415.42835863938734 415.42835863938734 0.0 0.0
540.6442170708456 540.6442170708456 0.0 0.0
582.1055224812068 582.1055224812068 0.0 0.0
1158.348283507394 1158.348283507394 0.0 0.0
583.9533288779718 583.9533288779718 0.0 0.0
543.8463672370344 543.8463672370344 0.0 0.0
419.7680437926723 419.7680437926723 0.0 0.0
303.6470539704165 303.6470539704165 0.0 0.0
219.73087094732426 219.73087094732426 0.0 0.0
154.08881681149595 154.08881681149595 0.0 0.0
107.7229005446131 107.7229005446131 0.0 0.0
77.63210706525273 77.63210706525273 0.0 0.0
42.905593508856164 42.905593508856164 0.0 0.0
37.494316966782016 37.494316966782016 0.0 0.0
20.312472032968163 20.312472032968163 0.0 0.0
45.420234643511584 45.420234643511584 0.0 0.0
132.10275320455563 132.10275320455563 0.0 0.0
270.1214585583248 270.1214585583248 0.0 0.0
461.753377421776 461.753377421776 0.0 0.0
713.5214386249861 713.5214386249861 0.0 0.0
1028.4973072854289 1028.4973072854289 0.0 0.0
1408.081541502891 1408.081541502891 0.0 0.0
1940.5700666932944 1940.5700666932944 0.0 0.0
2094.863064004594 2094.863064004594 0.0 0.0
3371.0028765103684 3371.0028765103684 0.0 0.0
2098.091616302707 2098.091616302707 0.0 0.0
1946.5456952186253 1946.5456952186253 0.0 0.0
1416.0891107935663 1416.0891107935663 0.0 0.0
1037.7619367524342 1037.7619367524342 0.0 0.0
722.9030686716982 722.9030686716982 0.0 0.0
469.8362334992954 469.8362334992954 0.0 0.0
275.39860667148446 275.39860667148446 0.0 0.0
134.07625334677613 134.07625334677613 0.0 0.0
45.46694824223675 45.46694824223675 0.0 0.0
18.684094075006247 18.684094075006247 0.0 0.0
20.350029741413024 20.350029741413024 0.0 0.0
68.83251745106855 68.83251745106855 0.0 0.0
253.77853329069438 253.77853329069438 0.0 0.0
576.5825295371839 576.5825295371839 0.0 0.0
1011.5983096951794 1011.5983096951794 0.0 0.0
1569.9386860743305 1569.9386860743305 0.0 0.0
2267.7377564013223 2267.7377564013223 0.0 0.0
3084.6266131279413 3084.6266131279413 0.0 0.0
3987.099186769197 3987.099186769197 0.0 0.0
4860.827199545645 4860.827199545645 0.0 0.0
9069.987260276226 9069.987260276226 0.0 0.0
4865.797446659814 4865.797446659814 0.0 0.0
3996.6485087683177 3996.6485087683177 0.0 0.0
3097.381075574924 3097.381075574924 0.0 0.0
2282.1376110657648 2282.1376110657648 0.0 0.0
1583.7793164095347 1583.7793164095347 0.0 0.0
1021.9870447364121 1021.9870447364121 0.0 0.0
581.0815852175216 581.0815852175216 0.0 0.0
253.72805087609268 253.72805087609268 0.0 0.0
68.1600534438973 68.1600534438973 0.0 0.0
19.103231628510873 19.103231628510873 0.0 0.0
362.7235615862794 362.7235615862794 0.0 0.0
249.49552877884352 249.49552877884352 0.0 0.0
304.13694842444716 304.13694842444716 0.0 0.0
595.1782887452581 595.1782887452581 0.0 0.0
1017.4769454766716 1017.4769454766716 0.0 0.0
1566.2325446800946 1566.2325446800946 0.0 0.0
2250.0665832749964 2250.0665832749964 0.0 0.0
3138.6012053281665 3138.6012053281665 0.0 0.0
4365.034186204054 4365.034186204054 0.0 0.0
5843.249545872371 5843.249545872371 0.0 0.0
6633.714171172714 6633.714171172714 0.0 0.0
5837.66443338821 5837.66443338821 0.0 0.0
4354.451001390105 4354.451001390105 0.0 0.0
3123.250220617697 3123.250220617697 0.0 0.0
2229.4871734830504 2229.4871734830504 0.0 0.0
1539.7675115577551 1539.7675115577551 0.0 0.0
984.9679949182919 984.9679949182919 0.0 0.0
558.1251037350263 558.1251037350263 0.0 0.0
262.33791649266084 262.33791649266084 0.0 0.0
169.02143633062946 169.02143633062946 0.0 0.0
338.5085421557197 338.5085421557197 0.0 0.0
299.49328200447115 299.49328200447115 0.0 0.0
40.93985059204232 40.93985059204232 0.0 0.0
135.49494996851686 135.49494996851686 0.0 0.0
284.21487110850205 284.21487110850205 0.0 0.0
476.5138832662101 476.5138832662101 0.0 0.0
723.7290487828395 723.7290487828395 0.0 0.0
1030.7062756008386 1030.7062756008386 0.0 0.0
1421.5474229488077 1421.5474229488077 0.0 0.0
1949.4731900719173 1949.4731900719173 0.0 0.0
2595.9558564217627 2595.9558564217627 0.0 0.0
2976.318451721358 2976.318451721358 0.0 0.0
2592.2182638594286 2592.2182638594286 0.0 0.0
1942.2915822883258 1942.2915822883258 0.0 0.0
1411.2016375222106 1411.2016375222106 0.0 0.0
1017.2373331468266 1017.2373331468266 0.0 0.0
707.1011433379097 707.1011433379097 0.0 0.0
457.06570961270734 457.06570961270734 0.0 0.0
262.7126053776572 262.7126053776572 0.0 0.0
117.57855611992498 117.57855611992498 0.0 0.0
33.47382540326487 33.47382540326487 0.0 0.0
283.30475917919404 283.30475917919404 0.0 0.0
167.13898982978122 167.13898982978122 0.0 0.0
24.949220737437198 24.949220737437198 0.0 0.0
57.55140187636239 57.55140187636239 0.0 0.0
103.44036224697744 103.44036224697744 0.0 0.0
160.33009697870676 160.33009697870676 0.0 0.0
225.95971991772427 225.95971991772427 0.0 0.0
304.23345117268315 304.23345117268315 0.0 0.0
396.81296115511844 396.81296115511844 0.0 0.0
542.4534205208212 542.4534205208212 0.0 0.0
813.7971311626304 813.7971311626304 0.0 0.0
1071.7625350653464 1071.7625350653464 0.0 0.0
812.2914663772821 812.2914663772821 0.0 0.0
539.3962492924046 539.3962492924046 0.0 0.0
392.3668593733722 392.3668593733722 0.0 0.0
298.64242955516545 298.64242955516545 0.0 0.0
219.57665630634767 219.57665630634767 0.0 0.0
153.5835351460313 153.5835351460313 0.0 0.0
97.91703554672172 97.91703554672172 0.0 0.0
57.14414096927799 57.14414096927799 0.0 0.0
29.526795895910954 29.526795895910954 0.0 0.0
160.96739314385468 160.96739314385468 0.0 0.0
82.90621182107341 82.90621182107341 0.0 0.0
34.11739681754612 34.11739681754612 0.0 0.0
46.1622772401113 46.1622772401113 0.0 0.0
45.92398520335325 45.92398520335325 0.0 0.0
50.826671151052054 50.826671151052054 0.0 0.0
55.94415954457907 55.94415954457907 0.0 0.0
62.491755140601505 62.491755140601505 0.0 0.0
67.77620764072745 67.77620764072745 0.0 0.0
84.2259547753271 84.2259547753271 0.0 0.0
182.72793233146373 182.72793233146373 0.0 0.0
492.7164892399437 492.7164892399437 0.0 0.0
183.50367999083448 183.50367999083448 0.0 0.0
85.34557509567246 85.34557509567246 0.0 0.0
69.16600247060553 69.16600247060553 0.0 0.0
64.28423222664367 64.28423222664367 0.0 0.0
58.410525252727155 58.410525252727155 0.0 0.0
54.34270902346457 54.34270902346457 0.0 0.0
51.117181457070416 51.117181457070416 0.0 0.0
52.521227737875904 52.521227737875904 0.0 0.0
39.00166016930101 39.00166016930101 0.0 0.0
76.72741582983286 76.72741582983286 0.0 0.0
35.053434743954924 35.053434743954924 0.0 0.0
38.014367825139956 38.014367825139956 0.0 0.0
68.86238335461132 68.86238335461132 0.0 0.0
96.81876939743567 96.81876939743567 0.0 0.0
142.28543408364317 142.28543408364317 0.0 0.0
207.7301211857495 207.7301211857495 0.0 0.0
293.48092519420067 293.48092519420067 0.0 0.0
416.251733347346 416.251733347346 0.0 0.0
553.863830814066 553.863830814066 0.0 0.0
602.9985080371407 602.9985080371407 0.0 0.0
1209.3014148670698 1209.3014148670698 0.0 0.0
605.9950797855984 605.9950797855984 0.0 0.0
559.0205922685211 559.0205922685211 0.0 0.0
423.15470360201033 423.15470360201033 0.0 0.0
301.7828708377666 301.7828708377666 0.0 0.0
217.13225015422483 217.13225015422483 0.0 0.0
152.28651196261552 152.28651196261552 0.0 0.0
106.23341979772431 106.23341979772431 0.0 0.0
75.16671205439363 75.16671205439363 0.0 0.0
40.20800486478158 40.20800486478158 0.0 0.0
30.505588420089182 30.505588420089182 0.0 0.0
17.725771903213445 17.725771903213445 0.0 0.0
40.82111442754656 40.82111442754656 0.0 0.0
122.90940464959495 122.90940464959495 0.0 0.0
256.1994295485207 256.1994295485207 0.0 0.0
442.64216066133105 442.64216066133105 0.0 0.0
690.219698301748 690.219698301748 0.0 0.0
1006.2733038126125 1006.2733038126125 0.0 0.0
1399.5137460540266 1399.5137460540266 0.0 0.0
1971.9110908213095 1971.9110908213095 0.0 0.0
2147.414713772648 2147.414713772648 0.0 0.0
3501.459560253083 3501.459560253083 0.0 0.0
2152.5689541468737 2152.5689541468737 0.0 0.0
1981.250107848092 1981.250107848092 0.0 0.0
1411.9555272123973 1411.9555272123973 0.0 0.0
1020.8167122133342 1020.8167122133342 0.0 0.0
705.2380738093332 705.2380738093332 0.0 0.0
455.9690576147112 455.9690576147112 0.0 0.0
265.25622996866053 265.25622996866053 0.0 0.0
126.47168730510211 126.47168730510211 0.0 0.0
41.09807493764155 41.09807493764155 0.0 0.0
14.713301322388723 14.713301322388723 0.0 0.0
16.71140501554884 16.71140501554884 0.0 0.0
60.68853773109286 60.68853773109286 0.0 0.0
236.66219387117724 236.66219387117724 0.0 0.0
548.5291754741594 548.5291754741594 0.0 0.0
971.1725951948508 971.1725951948508 0.0 0.0
1519.0359705989777 1519.0359705989777 0.0 0.0
2217.087980977513 2217.087980977513 0.0 0.0
3063.355691097377 3063.355691097377 0.0 0.0
4046.859539817086 4046.859539817086 0.0 0.0
4998.579909566888 4998.579909566888 0.0 0.0
9455.494545471513 9455.494545471513 0.0 0.0
5005.892159200526 5005.892159200526 0.0 0.0
4061.131670874085 4061.131670874085 0.0 0.0
3082.610144203278 3082.610144203278 0.0 0.0
2239.1424708422655 2239.1424708422655 0.0 0.0
1540.6224951262043 1540.6224951262043 0.0 0.0
987.7433854892321 987.7433854892321 0.0 0.0
555.9155076792447 555.9155076792447 0.0 0.0
236.37623623810384 236.37623623810384 0.0 0.0
59.037214376843295 59.037214376843295 0.0 0.0
14.138007430391752 14.138007430391752 0.0 0.0
372.9511265149106 372.9511265149106 0.0 0.0
242.4995657395828 242.4995657395828 0.0 0.0
308.9843517375775 308.9843517375775 0.0 0.0
611.2327030903886 611.2327030903886 0.0 0.0
1043.3980114603103 1043.3980114603103 0.0 0.0
1600.7782733007055 1600.7782733007055 0.0 0.0
2283.4804639648173 2283.4804639648173 0.0 0.0
3140.8565556331537 3140.8565556331537 0.0 0.0
4280.229792704131 4280.229792704131 0.0 0.0
5622.178677660863 5622.178677660863 0.0 0.0
6334.930437008587 6334.930437008587 0.0 0.0
5619.071009677925 5619.071009677925 0.0 0.0
4274.224897276046 4274.224897276046 0.0 0.0
3132.0097659219423 3132.0097659219423 0.0 0.0
2271.600492439761 2271.600492439761 0.0 0.0
1585.748454850877 1585.748454850877 0.0 0.0
1025.4228215374133 1025.4228215374133 0.0 0.0
591.5147420743858 591.5147420743858 0.0 0.0
285.23359942062694 285.23359942062694 0.0 0.0
189.05283271465711 189.05283271465711 0.0 0.0
368.02763542586587 368.02763542586587 0.0 0.0
315.57155322956163 315.57155322956163 0.0 0.0
40.8515830294189 40.8515830294189 0.0 0.0
136.27070608167887 136.27070608167887 0.0 0.0
289.18132583052784 289.18132583052784 0.0 0.0
485.6198978731455 485.6198978731455 0.0 0.0
736.0035943517731 736.0035943517731 0.0 0.0
1041.506071296533 1041.506071296533 0.0 0.0
1417.8095646809097 1417.8095646809097 0.0 0.0
1908.5251251851896 1908.5251251851896 0.0 0.0
2499.6402777617345 2499.6402777617345 0.0 0.0
2848.0605508154126 2848.0605508154126 0.0 0.0
2497.507854653749 2497.507854653749 0.0 0.0
1904.3648133159986 1904.3648133159986 0.0 0.0
1411.7635800023345 1411.7635800023345 0.0 0.0
1033.6718905872956 1033.6718905872956 0.0 0.0
726.5249803051511 726.5249803051511 0.0 0.0
474.94397329908725 474.94397329908725 0.0 0.0
277.66099953180293 277.66099953180293 0.0 0.0
126.8313550658934 126.8313550658934 0.0 0.0
38.20130121842369 38.20130121842369 0.0 0.0
305.27550469823495 305.27550469823495 0.0 0.0
175.26057770740476 175.26057770740476 0.0 0.0
28.36242715169307 28.36242715169307 0.0 0.0
58.794448673479145 58.794448673479145 0.0 0.0
103.90219025139129 103.90219025139129 0.0 0.0
160.99602487875276 160.99602487875276 0.0 0.0
226.73850378480785 226.73850378480785 0.0 0.0
303.66072632299455 303.66072632299455 0.0 0.0
390.65393012118983 390.65393012118983 0.0 0.0
522.8440128337056 522.8440128337056 0.0 0.0
774.1023717764543 774.1023717764543 0.0 0.0
1019.397015885131 1019.397015885131 0.0 0.0
773.2617285246698 773.2617285246698 0.0 0.0
521.071828556374 521.071828556374 0.0 0.0
388.0428285175084 388.0428285175084 0.0 0.0
300.3871907198067 300.3871907198067 0.0 0.0
223.08087170837968 223.08087170837968 0.0 0.0
157.28889827060922 157.28889827060922 0.0 0.0
101.10064133216011 101.10064133216011 0.0 0.0
59.39224220738733 59.39224220738733 0.0 0.0
32.015839383651986 32.015839383651986 0.0 0.0
176.05572075450485 176.05572075450485 0.0 0.0
89.14379789613842 89.14379789613842 0.0 0.0
38.104750720336575 38.104750720336575 0.0 0.0
48.948044298694576 48.948044298694576 0.0 0.0
46.80988064871583 46.80988064871583 0.0 0.0
50.40865268275711 50.40865268275711 0.0 0.0
54.56217641864716 54.56217641864716 0.0 0.0
59.70148749008568 59.70148749008568 0.0 0.0
62.082231153204255 62.082231153204255 0.0 0.0
72.66427714744013 72.66427714744013 0.0 0.0
164.44947823044748 164.44947823044748 0.0 0.0
463.8741532332285 463.8741532332285 0.0 0.0
164.9604236525843 164.9604236525843 0.0 0.0
73.3772339373176 73.3772339373176 0.0 0.0
62.97146144662479 62.97146144662479 0.0 0.0
60.82048116157302 60.82048116157302 0.0 0.0
56.0365746427028 56.0365746427028 0.0 0.0
52.463236911093446 52.463236911093446 0.0 0.0
49.91897674018083 49.91897674018083 0.0 0.0
52.95004969275793 52.95004969275793 0.0 0.0
41.18995008574563 41.18995008574563 0.0 0.0
87.54028852897565 87.54028852897565 0.0 0.0
39.443147895483584 39.443147895483584 0.0 0.0
41.79554821656697 41.79554821656697 0.0 0.0
74.03805424812063 74.03805424812063 0.0 0.0
102.30094242866778 102.30094242866778 0.0 0.0
148.20645988356665 148.20645988356665 0.0 0.0
214.02966432190215 214.02966432190215 0.0 0.0
298.4827562484521 298.4827562484521 0.0 0.0
415.42835863968656 415.42835863968656 0.0 0.0
540.644217070892 540.644217070892 0.0 0.0
582.1055224813492 582.1055224813492 0.0 0.0
1158.3482835077568 1158.3482835077568 0.0 0.0
583.9533288776157 583.9533288776157 0.0 0.0
543.846367236876 543.846367236876 0.0 0.0
419.76804379280856 419.76804379280856 0.0 0.0
303.64705397007435 303.64705397007435 0.0 0.0
219.73087094835182 219.73087094835182 0.0 0.0
154.0888168117536 154.0888168117536 0.0 0.0
107.72290054496784 107.72290054496784 0.0 0.0
77.63210706550572 77.63210706550572 0.0 0.0
42.90559350898351 42.90559350898351 0.0 0.0
37.49431696700884 37.49431696700884 0.0 0.0
20.312472032941397 20.312472032941397 0.0 0.0
45.4202346434984 45.4202346434984 0.0 0.0
132.1027532045214 132.1027532045214 0.0 0.0
270.1214585583741 270.1214585583741 0.0 0.0
461.75337742208274 461.75337742208274 0.0 0.0
713.5214386256921 713.5214386256921 0.0 0.0
1028.4973072853968 1028.4973072853968 0.0 0.0
1408.0815415041527 1408.0815415041527 0.0 0.0
1940.5700666926177 1940.5700666926177 0.0 0.0
2094.863064005444 2094.863064005444 0.0 0.0
3371.002876508525 3371.002876508525 0.0 0.0
2098.0916163030442 2098.0916163030442 0.0 0.0
1946.5456952174145 1946.5456952174145 0.0 0.0
1416.0891107945192 1416.0891107945192 0.0 0.0
1037.7619367528455 1037.7619367528455 0.0 0.0
722.9030686735344 722.9030686735344 0.0 0.0
469.83623350029995 469.83623350029995 0.0 0.0
275.39860667212633 275.39860667212633 0.0 0.0
134.0762533471614 134.0762533471614 0.0 0.0
45.46694824237853 45.46694824237853 0.0 0.0
18.684094075103047 18.684094075103047 0.0 0.0
20.350029741415753 20.350029741415753 0.0 0.0
68.83251745104744 68.83251745104744 0.0 0.0
253.7785332904814 253.7785332904814 0.0 0.0
576.5825295371419 576.5825295371419 0.0 0.0
1011.5983096958249 1011.5983096958249 0.0 0.0
1569.938686075253 1569.938686075253 0.0 0.0
2267.7377564022117 2267.7377564022117 0.0 0.0
3084.6266131290467 3084.6266131290467 0.0 0.0
3987.0991867678144 3987.0991867678144 0.0 0.0
4860.827199545925 4860.827199545925 0.0 0.0
9069.987260272444 9069.987260272444 0.0 0.0
4865.797446658994 4865.797446658994 0.0 0.0
3996.648508765989 3996.648508765989 0.0 0.0
3097.3810755755217 3097.3810755755217 0.0 0.0
2282.137611067916 2282.137611067916 0.0 0.0
1583.7793164130767 1583.7793164130767 0.0 0.0
1021.9870447392786 1021.9870447392786 0.0 0.0
581.0815852189938 581.0815852189938 0.0 0.0
253.72805087672916 253.72805087672916 0.0 0.0
68.16005344410445 68.16005344410445 0.0 0.0
19.10323162860739 19.10323162860739 0.0 0.0
525.9215036536542 525.9215036536542 0.0 0.0
216.995457266916 216.995457266916 0.0 0.0
322.30917778250165 322.30917778250165 0.0 0.0
649.401173058876 649.401173058876 0.0 0.0
1113.4000882852467 1113.4000882852467 0.0 0.0
1718.8197608049222 1718.8197608049222 0.0 0.0
2444.3887948535858 2444.3887948535858 0.0 0.0
3282.5439282971975 3282.5439282971975 0.0 0.0
4225.156271099531 4225.156271099531 0.0 0.0
5152.180945848309 5152.180945848309 0.0 0.0
5597.253614321868 5597.253614321868 0.0 0.0
5154.736954391572 5154.736954391572 0.0 0.0
4229.929413357569 4229.929413357569 0.0 0.0
3289.46588579202 3289.46588579202 0.0 0.0
2453.845757667775 2453.845757667775 0.0 0.0
1731.5247600222633 1731.5247600222633 0.0 0.0
1130.4033903955842 1130.4033903955842 0.0 0.0
670.9850117790488 670.9850117790488 0.0 0.0
352.8509244209931 352.8509244209931 0.0 0.0
259.20188814560765 259.20188814560765 0.0 0.0
512.5801183946012 512.5801183946012 0.0 0.0
421.744372064749 421.744372064749 0.0 0.0
36.69455238807675 36.69455238807675 0.0 0.0
136.01201109980283 136.01201109980283 0.0 0.0
295.99959803252926 295.99959803252926 0.0 0.0
506.7902090582867 506.7902090582867 0.0 0.0
777.3327088709685 777.3327088709685 0.0 0.0
1101.451599108831 1101.451599108831 0.0 0.0
1470.4818512408747 1470.4818512408747 0.0 0.0
1878.2347568466337 1878.2347568466337 0.0 0.0
2287.3071468626613 2287.3071468626613 0.0 0.0
2503.7347817976433 2503.7347817976433 0.0 0.0
2288.9582806584926 2288.9582806584926 0.0 0.0
1881.389420881018 1881.389420881018 0.0 0.0
1475.097012942164 1475.097012942164 0.0 0.0
1107.653741398573 1107.653741398573 0.0 0.0
785.4152897901268 785.4152897901268 0.0 0.0
517.050380835031 517.050380835031 0.0 0.0
309.10075758744125 309.10075758744125 0.0 0.0
148.89489850670589 148.89489850670589 0.0 0.0
42.184033956393826 42.184033956393826 0.0 0.0
424.3561747005702 424.3561747005702 0.0 0.0
253.39668241775217 253.39668241775217 0.0 0.0
29.799000057138922 29.799000057138922 0.0 0.0
58.193739715337095 58.193739715337095 0.0 0.0
98.15651653809122 98.15651653809122 0.0 0.0
157.60005442746808 157.60005442746808 0.0 0.0
228.37341432397972 228.37341432397972 0.0 0.0
311.70360294112584 311.70360294112584 0.0 0.0
401.6675490116618 401.6675490116618 0.0 0.0
507.8903502225439 507.8903502225439 0.0 0.0
669.7188251177259 669.7188251177259 0.0 0.0
814.8959160791057 814.8959160791057 0.0 0.0
670.4982675264399 670.4982675264399 0.0 0.0
509.4245201489655 509.4245201489655 0.0 0.0
403.9027101868405 403.9027101868405 0.0 0.0
314.56730801533234 314.56730801533234 0.0 0.0
231.7898027249945 231.7898027249945 0.0 0.0
161.55902425507767 161.55902425507767 0.0 0.0
102.15980024100786 102.15980024100786 0.0 0.0
59.35504426972722 59.35504426972722 0.0 0.0
26.087432922912683 26.087432922912683 0.0 0.0
251.2236803168413 251.2236803168413 0.0 0.0
125.9980003382006 125.9980003382006 0.0 0.0
41.563665322841445 41.563665322841445 0.0 0.0
50.84612290309272 50.84612290309272 0.0 0.0
43.86860484936194 43.86860484936194 0.0 0.0
45.59485093122401 45.59485093122401 0.0 0.0
49.7398854657174 49.7398854657174 0.0 0.0
55.267318810428236 55.267318810428236 0.0 0.0
58.631994104313364 58.631994104313364 0.0 0.0
61.85599410065018 61.85599410065018 0.0 0.0
112.45133228241976 112.45133228241976 0.0 0.0
275.07908491757365 275.07908491757365 0.0 0.0
112.28671257034183 112.28671257034183 0.0 0.0
61.767783671924484 61.767783671924484 0.0 0.0
58.599646570328474 58.599646570328474 0.0 0.0
55.13284355567126 55.13284355567126 0.0 0.0
49.31155523054655 49.31155523054655 0.0 0.0
44.62407125296847 44.62407125296847 0.0 0.0
41.8429496134557 41.8429496134557 0.0 0.0
47.366602354075326 47.366602354075326 0.0 0.0
37.02289068881952 37.02289068881952 0.0 0.0
126.83808703029192 126.83808703029192 0.0 0.0
52.202833250677195 52.202833250677195 0.0 0.0
44.65545290239673 44.65545290239673 0.0 0.0
79.74817447958726 79.74817447958726 0.0 0.0
112.41825410127308 112.41825410127308 0.0 0.0
162.9161063462365 162.9161063462365 0.0 0.0
233.19815062427864 233.19815062427864 0.0 0.0
318.8190769681502 318.8190769681502 0.0 0.0
424.6922999553111 424.6922999553111 0.0 0.0
524.9134655426673 524.9134655426673 0.0 0.0
553.9646196654974 553.9646196654974 0.0 0.0
839.2728263613493 839.2728263613493 0.0 0.0
552.8089409673903 552.8089409673903 0.0 0.0
523.3067834436093 523.3067834436093 0.0 0.0
422.61783932080306 422.61783932080306 0.0 0.0
316.2108547527618 316.2108547527618 0.0 0.0
230.035653412245 230.035653412245 0.0 0.0
159.19033445923893 159.19033445923893 0.0 0.0
108.38874490503022 108.38874490503022 0.0 0.0
76.31605396311444 76.31605396311444 0.0 0.0
41.999924304010264 41.999924304010264 0.0 0.0
53.31970639745209 53.31970639745209 0.0 0.0
22.994350242094743 22.994350242094743 0.0 0.0
48.6287732729814 48.6287732729814 0.0 0.0
146.25447584689317 146.25447584689317 0.0 0.0
304.5935356708786 304.5935356708786 0.0 0.0
518.3487487836051 518.3487487836051 0.0 0.0
789.6578424908696 789.6578424908696 0.0 0.0
1115.2751437081356 1115.2751437081356 0.0 0.0
1481.6439507252883 1481.6439507252883 0.0 0.0
1926.0216988309473 1926.0216988309473 0.0 0.0
2045.463810064879 2045.463810064879 0.0 0.0
2638.9531313681196 2638.9531313681196 0.0 0.0
2043.442887847404 2043.442887847404 0.0 0.0
1923.156335924325 1923.156335924325 0.0 0.0
1477.7027553592889 1477.7027553592889 0.0 0.0
1110.5402507195447 1110.5402507195447 0.0 0.0
784.651074063497 784.651074063497 0.0 0.0
513.8095582905253 513.8095582905253 0.0 0.0
301.49904434830887 301.49904434830887 0.0 0.0
145.0696407649883 145.0696407649883 0.0 0.0
47.996799812098075 47.996799812098075 0.0 0.0
23.462156815855373 23.462156815855373 0.0 0.0
21.35107247847072 21.35107247847072 0.0 0.0
75.4077298579927 75.4077298579927 0.0 0.0
284.4521106036497 284.4521106036497 0.0 0.0
650.5038064608871 650.5038064608871 0.0 0.0
1135.0855735324235 1135.0855735324235 0.0 0.0
1739.6721173726733 1739.6721173726733 0.0 0.0
2468.34940529712 2468.34940529712 0.0 0.0
3280.6891127966937 3280.6891127966937 0.0 0.0
4093.73731666672 4093.73731666672 0.0 0.0
4645.142056810335 4645.142056810335 0.0 0.0
6969.572328190801 6969.572328190801 0.0 0.0
4643.697478667244 4643.697478667244 0.0 0.0
4089.967395814865 4089.967395814865 0.0 0.0
3274.9328949562005 3274.9328949562005 0.0 0.0
2461.447232307673 2461.447232307673 0.0 0.0
1732.8210791005033 1732.8210791005033 0.0 0.0
1130.0811996615785 1130.0811996615785 0.0 0.0
649.2455682171019 649.2455682171019 0.0 0.0
286.5354659681453 286.5354659681453 0.0 0.0
77.25376674100492 77.25376674100492 0.0 0.0
22.270370396173117 22.270370396173117 0.0 0.0
1412.998650441726 1412.998650441726 0.0 0.0
255.68454690427487 255.68454690427487 0.0 0.0
304.6232625440434 304.6232625440434 0.0 0.0
637.7315089937442 637.7315089937442 0.0 0.0
1124.985005654152 1124.985005654152 0.0 0.0
1772.9824641917985 1772.9824641917985 0.0 0.0
2553.0103970796094 2553.0103970796094 0.0 0.0
3425.6541570541885 3425.6541570541885 0.0 0.0
4264.893557237705 4264.893557237705 0.0 0.0
4844.8616142600695 4844.8616142600695 0.0 0.0
5031.443747866662 5031.443747866662 0.0 0.0
4852.190880151538 4852.190880151538 0.0 0.0
4279.547566498111 4279.547566498111 0.0 0.0
3448.005504803577 3448.005504803577 0.0 0.0
2583.710212325237 2583.710212325237 0.0 0.0
1812.2794601819621 1812.2794601819621 0.0 0.0
1171.7825209069788 1171.7825209069788 0.0 0.0
689.013196990326 689.013196990326 0.0 0.0
362.22702852058353 362.22702852058353 0.0 0.0
403.63447284119314 403.63447284119314 0.0 0.0
1353.7243262188822 1353.7243262188822 0.0 0.0
1048.97179264875 1048.97179264875 0.0 0.0
31.740043015988515 31.740043015988515 0.0 0.0
141.61143862608586 141.61143862608586 0.0 0.0
302.70082973939395 302.70082973939395 0.0 0.0
519.5929245648913 519.5929245648913 0.0 0.0
801.3581851255623 801.3581851255623 0.0 0.0
1142.19303002281 1142.19303002281 0.0 0.0
1526.6051151911074 1526.6051151911074 0.0 0.0
1903.994069325763 1903.994069325763 0.0 0.0
2171.9314554440725 2171.9314554440725 0.0 0.0
2259.0917747731246 2259.0917747731246 0.0 0.0
2176.684680486007 2176.684680486007 0.0 0.0
1913.4639339195057 1913.4639339195057 0.0 0.0
1540.8952784707135 1540.8952784707135 0.0 0.0
1161.3915276501984 1161.3915276501984 0.0 0.0
825.2263771041529 825.2263771041529 0.0 0.0
546.8927665865214 546.8927665865214 0.0 0.0
331.33376906023375 331.33376906023375 0.0 0.0
161.93541742906638 161.93541742906638 0.0 0.0
36.65487779769025 36.65487779769025 0.0 0.0
1101.7694909881454 1101.7694909881454 0.0 0.0
583.5489103052839 583.5489103052839 0.0 0.0
86.6621799186249 86.6621799186249 0.0 0.0
121.6962191887927 121.6962191887927 0.0 0.0
158.41112918363297 158.41112918363297 0.0 0.0
219.15066285942703 219.15066285942703 0.0 0.0
289.39648695800827 289.39648695800827 0.0 0.0
375.57867584111716 375.57867584111716 0.0 0.0
482.1550145469967 482.1550145469967 0.0 0.0
598.0737413771956 598.0737413771956 0.0 0.0
675.232121439942 675.232121439942 0.0 0.0
697.0711103493452 697.0711103493452 0.0 0.0
677.1837998832762 677.1837998832762 0.0 0.0
601.7860767512948 601.7860767512948 0.0 0.0
487.52219256385797 487.52219256385797 0.0 0.0
382.40488405490214 382.40488405490214 0.0 0.0
297.1916862946141 297.1916862946141 0.0 0.0
226.97423452040056 226.97423452040056 0.0 0.0
163.01001446110178 163.01001446110178 0.0 0.0
118.4023034711622 118.4023034711622 0.0 0.0
73.3374494622708 73.3374494622708 0.0 0.0
608.8861675835999 608.8861675835999 0.0 0.0
269.174656152389 269.174656152389 0.0 0.0
125.73257005442758 125.73257005442758 0.0 0.0
156.74269313746515 156.74269313746515 0.0 0.0
143.50431628749516 143.50431628749516 0.0 0.0
141.64559936105016 141.64559936105016 0.0 0.0
139.53861926877306 139.53861926877306 0.0 0.0
137.06859227763388 137.06859227763388 0.0 0.0
141.72309683626216 141.72309683626216 0.0 0.0
163.81156655607532 163.81156655607532 0.0 0.0
188.20582161829418 188.20582161829418 0.0 0.0
204.18029178254136 204.18029178254136 0.0 0.0
187.5156580170267 187.5156580170267 0.0 0.0
162.1591861645059 162.1591861645059 0.0 0.0
138.98007775830024 138.98007775830024 0.0 0.0
133.026538967845 133.026538967845 0.0 0.0
133.90840968292625 133.90840968292625 0.0 0.0
133.82970903044477 133.82970903044477 0.0 0.0
132.45336624372163 132.45336624372163 0.0 0.0
144.10335985494027 144.10335985494027 0.0 0.0
115.30967241486239 115.30967241486239 0.0 0.0
283.32407494037557 283.32407494037557 0.0 0.0
102.17798211349158 102.17798211349158 0.0 0.0
115.62500491167219 115.62500491167219 0.0 0.0
185.21723132799653 185.21723132799653 0.0 0.0
218.13412225008588 218.13412225008588 0.0 0.0
263.0194174749006 263.0194174749006 0.0 0.0
325.21814590852176 325.21814590852176 0.0 0.0
398.84365156444585 398.84365156444585 0.0 0.0
470.54579654946485 470.54579654946485 0.0 0.0
551.1172200974249 551.1172200974249 0.0 0.0
677.5054694653707 677.5054694653707 0.0 0.0
758.4027060779836 758.4027060779836 0.0 0.0
674.4085558945828 674.4085558945828 0.0 0.0
544.7579995629258 544.7579995629258 0.0 0.0
460.93043591223017 460.93043591223017 0.0 0.0
386.1210349070524 386.1210349070524 0.0 0.0
309.79835937982267 309.79835937982267 0.0 0.0
245.69932806277308 245.69932806277308 0.0 0.0
201.048303183816 201.048303183816 0.0 0.0
173.21142399652896 173.21142399652896 0.0 0.0
110.46856160409912 110.46856160409912 0.0 0.0
107.5006447402134 107.5006447402134 0.0 0.0
35.65229216194995 35.65229216194995 0.0 0.0
88.237157002994 88.237157002994 0.0 0.0
219.23891634384523 219.23891634384523 0.0 0.0
392.36871592903935 392.36871592903935 0.0 0.0
607.9474550106805 607.9474550106805 0.0 0.0
875.2268809694273 875.2268809694273 0.0 0.0
1188.1079412251433 1188.1079412251433 0.0 0.0
1529.2618453173454 1529.2618453173454 0.0 0.0
1792.3708761077712 1792.3708761077712 0.0 0.0
2186.0453062786373 2186.0453062786373 0.0 0.0
2378.009565042402 2378.009565042402 0.0 0.0
2180.5550577525773 2180.5550577525773 0.0 0.0
1781.6142055674231 1781.6142055674231 0.0 0.0
1513.1721224285488 1513.1721224285488 0.0 0.0
1167.8649612337088 1167.8649612337088 0.0 0.0
852.602117957707 852.602117957707 0.0 0.0
586.144977882074 586.144977882074 0.0 0.0
376.04306022425163 376.04306022425163 0.0 0.0
211.70230754959877 211.70230754959877 0.0 0.0
86.27095870275589 86.27095870275589 0.0 0.0
36.97181562821426 36.97181562821426 0.0 0.0
21.906592295575464 21.906592295575464 0.0 0.0
95.24406804793547 95.24406804793547 0.0 0.0
345.79546594537305 345.79546594537305 0.0 0.0
755.584740716607 755.584740716607 0.0 0.0
1265.807135122907 1265.807135122907 0.0 0.0
1887.4769265511754 1887.4769265511754 0.0 0.0
2618.859562189701 2618.859562189701 0.0 0.0
3437.0908518510632 3437.0908518510632 0.0 0.0
4272.755168383118 4272.755168383118 0.0 0.0
5072.320812374703 5072.320812374703 0.0 0.0
4361.307371690461 4361.307371690461 0.0 0.0
5065.240276214526 5065.240276214526 0.0 0.0
4255.982515103404 4255.982515103404 0.0 0.0
3412.491429037732 3412.491429037732 0.0 0.0
2588.805604967354 2588.805604967354 0.0 0.0
1855.9162305477278 1855.9162305477278 0.0 0.0
1239.3932093006576 1239.3932093006576 0.0 0.0
741.7325358759741 741.7325358759741 0.0 0.0
344.51278193754183 344.51278193754183 0.0 0.0
96.9775089627235 96.9775089627235 0.0 0.0
23.201362705360197 23.201362705360197 0.0 0.0