# vtk DataFile Version 3.0
Some data
ASCII
DATASET UNSTRUCTURED_GRID
POINTS 1029 float
0.0 0.0 0.0
0.8 0.0 0.0
1.6 0.0 0.0
2.4000000000000004 0.0 0.0
3.2 0.0 0.0
4.0 0.0 0.0
4.800000000000001 0.0 0.0
5.6000000000000005 0.0 0.0
6.4 0.0 0.0
7.2 0.0 0.0
8.0 0.0 0.0
8.8 0.0 0.0
9.600000000000001 0.0 0.0
10.4 0.0 0.0
11.200000000000001 0.0 0.0
12.0 0.0 0.0
12.8 0.0 0.0
13.600000000000001 0.0 0.0
14.4 0.0 0.0
15.200000000000001 0.0 0.0
16.0 0.0 0.0
0.0 0.3333333333333333 0.0
0.8 0.3333333333333333 0.0
1.6 0.3333333333333333 0.0
2.4000000000000004 0.3333333333333333 0.0
3.2 0.3333333333333333 0.0
4.0 0.3333333333333333 0.0
4.800000000000001 0.3333333333333333 0.0
5.6000000000000005 0.3333333333333333 0.0
6.4 0.3333333333333333 0.0
7.2 0.3333333333333333 0.0
8.0 0.3333333333333333 0.0
8.8 0.3333333333333333 0.0
9.600000000000001 0.3333333333333333 0.0
10.4 0.3333333333333333 0.0
11.200000000000001 0.3333333333333333 0.0
12.0 0.3333333333333333 0.0
12.8 0.3333333333333333 0.0
13.600000000000001 0.3333333333333333 0.0
14.4 0.3333333333333333 0.0
15.200000000000001 0.3333333333333333 0.0
16.0 0.3333333333333333 0.0
0.0 0.6666666666666666 0.0
0.8 0.6666666666666666 0.0
1.6 0.6666666666666666 0.0
2.4000000000000004 0.6666666666666666 0.0
3.2 0.6666666666666666 0.0
4.0 0.6666666666666666 0.0
4.800000000000001 0.6666666666666666 0.0
5.6000000000000005 0.6666666666666666 0.0
6.4 0.6666666666666666 0.0
7.2 0.6666666666666666 0.0
8.0 0.6666666666666666 0.0
8.8 0.6666666666666666 0.0
9.600000000000001 0.6666666666666666 0.0
10.4 0.6666666666666666 0.0
11.200000000000001 0.6666666666666666 0.0
12.0 0.6666666666666666 0.0
12.8 0.6666666666666666 0.0
13.600000000000001 0.6666666666666666 0.0
14.4 0.6666666666666666 0.0
15.200000000000001 0.6666666666666666 0.0
16.0 0.6666666666666666 0.0
0.0 1.0 0.0
0.8 1.0 0.0
1.6 1.0 0.0
2.4000000000000004 1.0 0.0
3.2 1.0 0.0
4.0 1.0 0.0
4.800000000000001 1.0 0.0
5.6000000000000005 1.0 0.0
6.4 1.0 0.0
7.2 1.0 0.0
8.0 1.0 0.0
8.8 1.0 0.0
9.600000000000001 1.0 0.0
10.4 1.0 0.0
11.200000000000001 1.0 0.0
12.0 1.0 0.0
12.8 1.0 0.0
13.600000000000001 1.0 0.0
14.4 1.0 0.0
15.200000000000001 1.0 0.0
16.0 1.0 0.0
0.0 1.3333333333333333 0.0
0.8 1.3333333333333333 0.0
1.6 1.3333333333333333 0.0
2.4000000000000004 1.3333333333333333 0.0
3.2 1.3333333333333333 0.0
4.0 1.3333333333333333 0.0
4.800000000000001 1.3333333333333333 0.0
5.6000000000000005 1.3333333333333333 0.0
6.4 1.3333333333333333 0.0
7.2 1.3333333333333333 0.0
8.0 1.3333333333333333 0.0
8.8 1.3333333333333333 0.0
9.600000000000001 1.3333333333333333 0.0
10.4 1.3333333333333333 0.0
11.200000000000001 1.3333333333333333 0.0
12.0 1.3333333333333333 0.0
12.8 1.3333333333333333 0.0
13.600000000000001 1.3333333333333333 0.0
14.4 1.3333333333333333 0.0
15.200000000000001 1.3333333333333333 0.0
16.0 1.3333333333333333 0.0
0.0 1.6666666666666665 0.0
0.8 1.6666666666666665 0.0
1.6 1.6666666666666665 0.0
2.4000000000000004 1.6666666666666665 0.0
3.2 1.6666666666666665 0.0
4.0 1.6666666666666665 0.0
4.800000000000001 1.6666666666666665 0.0
5.6000000000000005 1.6666666666666665 0.0
6.4 1.6666666666666665 0.0
7.2 1.6666666666666665 0.0
8.0 1.6666666666666665 0.0
8.8 1.6666666666666665 0.0
9.600000000000001 1.6666666666666665 0.0
10.4 1.6666666666666665 0.0
11.200000000000001 1.6666666666666665 0.0
12.0 1.6666666666666665 0.0
12.8 1.6666666666666665 0.0
13.600000000000001 1.6666666666666665 0.0
14.4 1.6666666666666665 0.0
15.200000000000001 1.6666666666666665 0.0
16.0 1.6666666666666665 0.0
0.0 2.0 0.0
0.8 2.0 0.0
1.6 2.0 0.0
2.4000000000000004 2.0 0.0
3.2 2.0 0.0
4.0 2.0 0.0
4.800000000000001 2.0 0.0
5.6000000000000005 2.0 0.0
6.4 2.0 0.0
7.2 2.0 0.0
8.0 2.0 0.0
8.8 2.0 0.0
9.600000000000001 2.0 0.0
10.4 2.0 0.0
11.200000000000001 2.0 0.0
12.0 2.0 0.0
12.8 2.0 0.0
13.600000000000001 2.0 0.0
14.4 2.0 0.0
15.200000000000001 2.0 0.0
16.0 2.0 0.0
0.0 0.0 1.6666666666666667
0.8 0.0 1.6666666666666667
1.6 0.0 1.6666666666666667
2.4000000000000004 0.0 1.6666666666666667
3.2 0.0 1.6666666666666667
4.0 0.0 1.6666666666666667
4.800000000000001 0.0 1.6666666666666667
5.6000000000000005 0.0 1.6666666666666667
6.4 0.0 1.6666666666666667
7.2 0.0 1.6666666666666667
8.0 0.0 1.6666666666666667
8.8 0.0 1.6666666666666667
9.600000000000001 0.0 1.6666666666666667
10.4 0.0 1.6666666666666667
11.200000000000001 0.0 1.6666666666666667
12.0 0.0 1.6666666666666667
12.8 0.0 1.6666666666666667
13.600000000000001 0.0 1.6666666666666667
14.4 0.0 1.6666666666666667
15.200000000000001 0.0 1.6666666666666667
16.0 0.0 1.6666666666666667
0.0 0.3333333333333333 1.6666666666666667
0.8 0.3333333333333333 1.6666666666666667
1.6 0.3333333333333333 1.6666666666666667
2.4000000000000004 0.3333333333333333 1.6666666666666667
3.2 0.3333333333333333 1.6666666666666667
4.0 0.3333333333333333 1.6666666666666667
4.800000000000001 0.3333333333333333 1.6666666666666667
5.6000000000000005 0.3333333333333333 1.6666666666666667
6.4 0.3333333333333333 1.6666666666666667
7.2 0.3333333333333333 1.6666666666666667
8.0 0.3333333333333333 1.6666666666666667
8.8 0.3333333333333333 1.6666666666666667
9.600000000000001 0.3333333333333333 1.6666666666666667
10.4 0.3333333333333333 1.6666666666666667
11.200000000000001 0.3333333333333333 1.6666666666666667
12.0 0.3333333333333333 1.6666666666666667
12.8 0.3333333333333333 1.6666666666666667
13.600000000000001 0.3333333333333333 1.6666666666666667
14.4 0.3333333333333333 1.6666666666666667
15.200000000000001 0.3333333333333333 1.6666666666666667
16.0 0.3333333333333333 1.6666666666666667
0.0 0.6666666666666666 1.6666666666666667
0.8 0.6666666666666666 1.6666666666666667
1.6 0.6666666666666666 1.6666666666666667
2.4000000000000004 0.6666666666666666 1.6666666666666667
3.2 0.6666666666666666 1.6666666666666667
4.0 0.6666666666666666 1.6666666666666667
4.800000000000001 0.6666666666666666 1.6666666666666667
5.6000000000000005 0.6666666666666666 1.6666666666666667
6.4 0.6666666666666666 1.6666666666666667
7.2 0.6666666666666666 1.6666666666666667
8.0 0.6666666666666666 1.6666666666666667
8.8 0.6666666666666666 1.6666666666666667
9.600000000000001 0.6666666666666666 1.6666666666666667
10.4 0.6666666666666666 1.6666666666666667
11.200000000000001 0.6666666666666666 1.6666666666666667
12.0 0.6666666666666666 1.6666666666666667
12.8 0.6666666666666666 1.6666666666666667
13.600000000000001 0.6666666666666666 1.6666666666666667
14.4 0.6666666666666666 1.6666666666666667
15.200000000000001 0.6666666666666666 1.6666666666666667
16.0 0.6666666666666666 1.6666666666666667
0.0 1.0 1.6666666666666667
0.8 1.0 1.6666666666666667
1.6 1.0 1.6666666666666667
2.4000000000000004 1.0 1.6666666666666667
3.2 1.0 1.6666666666666667
4.0 1.0 1.6666666666666667
4.800000000000001 1.0 1.6666666666666667
5.6000000000000005 1.0 1.6666666666666667
6.4 1.0 1.6666666666666667
7.2 1.0 1.6666666666666667
8.0 1.0 1.6666666666666667
8.8 1.0 1.6666666666666667
9.600000000000001 1.0 1.6666666666666667
10.4 1.0 1.6666666666666667
11.200000000000001 1.0 1.6666666666666667
12.0 1.0 1.6666666666666667
12.8 1.0 1.6666666666666667
13.600000000000001 1.0 1.6666666666666667
14.4 1.0 1.6666666666666667
15.200000000000001 1.0 1.6666666666666667
16.0 1.0 1.6666666666666667
0.0 1.3333333333333333 1.6666666666666667
0.8 1.3333333333333333 1.6666666666666667
1.6 1.3333333333333333 1.6666666666666667
2.4000000000000004 1.3333333333333333 1.6666666666666667
3.2 1.3333333333333333 1.6666666666666667
4.0 1.3333333333333333 1.6666666666666667
4.800000000000001 1.3333333333333333 1.6666666666666667
5.6000000000000005 1.3333333333333333 1.6666666666666667
6.4 1.3333333333333333 1.6666666666666667
7.2 1.3333333333333333 1.6666666666666667
8.0 1.3333333333333333 1.6666666666666667
8.8 1.3333333333333333 1.6666666666666667
9.600000000000001 1.3333333333333333 1.6666666666666667
10.4 1.3333333333333333 1.6666666666666667
11.200000000000001 1.3333333333333333 1.6666666666666667
12.0 1.3333333333333333 1.6666666666666667
12.8 1.3333333333333333 1.6666666666666667
13.600000000000001 1.3333333333333333 1.6666666666666667
14.4 1.3333333333333333 1.6666666666666667
15.200000000000001 1.3333333333333333 1.6666666666666667
16.0 1.3333333333333333 1.6666666666666667
0.0 1.6666666666666665 1.6666666666666667
0.8 1.6666666666666665 1.6666666666666667
1.6 1.6666666666666665 1.6666666666666667
2.4000000000000004 1.6666666666666665 1.6666666666666667
3.2 1.6666666666666665 1.6666666666666667
4.0 1.6666666666666665 1.6666666666666667
4.800000000000001 1.6666666666666665 1.6666666666666667
5.6000000000000005 1.6666666666666665 1.6666666666666667
6.4 1.6666666666666665 1.6666666666666667
7.2 1.6666666666666665 1.6666666666666667
8.0 1.6666666666666665 1.6666666666666667
8.8 1.6666666666666665 1.6666666666666667
9.600000000000001 1.6666666666666665 1.6666666666666667
10.4 1.6666666666666665 1.6666666666666667
11.200000000000001 1.6666666666666665 1.6666666666666667
12.0 1.6666666666666665 1.6666666666666667
12.8 1.6666666666666665 1.6666666666666667
13.600000000000001 1.6666666666666665 1.6666666666666667
14.4 1.6666666666666665 1.6666666666666667
15.200000000000001 1.6666666666666665 1.6666666666666667
16.0 1.6666666666666665 1.6666666666666667
0.0 2.0 1.6666666666666667
0.8 2.0 1.6666666666666667
1.6 2.0 1.6666666666666667
2.4000000000000004 2.0 1.6666666666666667
3.2 2.0 1.6666666666666667
4.0 2.0 1.6666666666666667
4.800000000000001 2.0 1.6666666666666667
5.6000000000000005 2.0 1.6666666666666667
6.4 2.0 1.6666666666666667
7.2 2.0 1.6666666666666667
8.0 2.0 1.6666666666666667
8.8 2.0 1.6666666666666667
9.600000000000001 2.0 1.6666666666666667
10.4 2.0 1.6666666666666667
11.200000000000001 2.0 1.6666666666666667
12.0 2.0 1.6666666666666667
12.8 2.0 1.6666666666666667
13.600000000000001 2.0 1.6666666666666667
14.4 2.0 1.6666666666666667
15.200000000000001 2.0 1.6666666666666667
16.0 2.0 1.6666666666666667
0.0 0.0 3.3333333333333335
0.8 0.0 3.3333333333333335
1.6 0.0 3.3333333333333335
2.4000000000000004 0.0 3.3333333333333335
3.2 0.0 3.3333333333333335
4.0 0.0 3.3333333333333335
4.800000000000001 0.0 3.3333333333333335
5.6000000000000005 0.0 3.3333333333333335
6.4 0.0 3.3333333333333335
7.2 0.0 3.3333333333333335
8.0 0.0 3.3333333333333335
8.8 0.0 3.3333333333333335
9.600000000000001 0.0 3.3333333333333335
10.4 0.0 3.3333333333333335
11.200000000000001 0.0 3.3333333333333335
12.0 0.0 3.3333333333333335
12.8 0.0 3.3333333333333335
13.600000000000001 0.0 3.3333333333333335
14.4 0.0 3.3333333333333335
15.200000000000001 0.0 3.3333333333333335
16.0 0.0 3.3333333333333335
0.0 0.3333333333333333 3.3333333333333335
0.8 0.3333333333333333 3.3333333333333335
1.6 0.3333333333333333 3.3333333333333335
2.4000000000000004 0.3333333333333333 3.3333333333333335
3.2 0.3333333333333333 3.3333333333333335
4.0 0.3333333333333333 3.3333333333333335
4.800000000000001 0.3333333333333333 3.3333333333333335
5.6000000000000005 0.3333333333333333 3.3333333333333335
6.4 0.3333333333333333 3.3333333333333335
7.2 0.3333333333333333 3.3333333333333335
8.0 0.3333333333333333 3.3333333333333335
8.8 0.3333333333333333 3.3333333333333335
9.600000000000001 0.3333333333333333 3.3333333333333335
10.4 0.3333333333333333 3.3333333333333335
11.200000000000001 0.3333333333333333 3.3333333333333335
12.0 0.3333333333333333 3.3333333333333335
12.8 0.3333333333333333 3.3333333333333335
13.600000000000001 0.3333333333333333 3.3333333333333335
14.4 0.3333333333333333 3.3333333333333335
15.200000000000001 0.3333333333333333 3.3333333333333335
16.0 0.3333333333333333 3.3333333333333335
0.0 0.6666666666666666 3.3333333333333335
0.8 0.6666666666666666 3.3333333333333335
1.6 0.6666666666666666 3.3333333333333335
2.4000000000000004 0.6666666666666666 3.3333333333333335
3.2 0.6666666666666666 3.3333333333333335
4.0 0.6666666666666666 3.3333333333333335
4.800000000000001 0.6666666666666666 3.3333333333333335
5.6000000000000005 0.6666666666666666 3.3333333333333335
6.4 0.6666666666666666 3.3333333333333335
7.2 0.6666666666666666 3.3333333333333335
8.0 0.6666666666666666 3.3333333333333335
8.8 0.6666666666666666 3.3333333333333335
9.600000000000001 0.6666666666666666 3.3333333333333335
10.4 0.6666666666666666 3.3333333333333335
11.200000000000001 0.6666666666666666 3.3333333333333335
12.0 0.6666666666666666 3.3333333333333335
12.8 0.6666666666666666 3.3333333333333335
13.600000000000001 0.6666666666666666 3.3333333333333335
14.4 0.6666666666666666 3.3333333333333335
15.200000000000001 0.6666666666666666 3.3333333333333335
16.0 0.6666666666666666 3.3333333333333335
0.0 1.0 3.3333333333333335
0.8 1.0 3.3333333333333335
1.6 1.0 3.3333333333333335
2.4000000000000004 1.0 3.3333333333333335
3.2 1.0 3.3333333333333335
4.0 1.0 3.3333333333333335
4.800000000000001 1.0 3.3333333333333335
5.6000000000000005 1.0 3.3333333333333335
6.4 1.0 3.3333333333333335
7.2 1.0 3.3333333333333335
8.0 1.0 3.3333333333333335
8.8 1.0 3.3333333333333335
9.600000000000001 1.0 3.3333333333333335
10.4 1.0 3.3333333333333335
11.200000000000001 1.0 3.3333333333333335
12.0 1.0 3.3333333333333335
12.8 1.0 3.3333333333333335
13.600000000000001 1.0 3.3333333333333335
14.4 1.0 3.3333333333333335
15.200000000000001 1.0 3.3333333333333335
16.0 1.0 3.3333333333333335
0.0 1.3333333333333333 3.3333333333333335
0.8 1.3333333333333333 3.3333333333333335
1.6 1.3333333333333333 3.3333333333333335
2.4000000000000004 1.3333333333333333 3.3333333333333335
3.2 1.3333333333333333 3.3333333333333335
4.0 1.3333333333333333 3.3333333333333335
4.800000000000001 1.3333333333333333 3.3333333333333335
5.6000000000000005 1.3333333333333333 3.3333333333333335
6.4 1.3333333333333333 3.3333333333333335
7.2 1.3333333333333333 3.3333333333333335
8.0 1.3333333333333333 3.3333333333333335
8.8 1.3333333333333333 3.3333333333333335
9.600000000000001 1.3333333333333333 3.3333333333333335
10.4 1.3333333333333333 3.3333333333333335
11.200000000000001 1.3333333333333333 3.3333333333333335
12.0 1.3333333333333333 3.3333333333333335
12.8 1.3333333333333333 3.3333333333333335
13.600000000000001 1.3333333333333333 3.3333333333333335
14.4 1.3333333333333333 3.3333333333333335
15.200000000000001 1.3333333333333333 3.3333333333333335
16.0 1.3333333333333333 3.3333333333333335
0.0 1.6666666666666665 3.3333333333333335
0.8 1.6666666666666665 3.3333333333333335
1.6 1.6666666666666665 3.3333333333333335
2.4000000000000004 1.6666666666666665 3.3333333333333335
3.2 1.6666666666666665 3.3333333333333335
4.0 1.6666666666666665 3.3333333333333335
4.800000000000001 1.6666666666666665 3.3333333333333335
5.6000000000000005 1.6666666666666665 3.3333333333333335
6.4 1.6666666666666665 3.3333333333333335
7.2 1.6666666666666665 3.3333333333333335
8.0 1.6666666666666665 3.3333333333333335
8.8 1.6666666666666665 3.3333333333333335
9.600000000000001 1.6666666666666665 3.3333333333333335
10.4 1.6666666666666665 3.3333333333333335
11.200000000000001 1.6666666666666665 3.3333333333333335
12.0 1.6666666666666665 3.3333333333333335
12.8 1.6666666666666665 3.3333333333333335
13.600000000000001 1.6666666666666665 3.3333333333333335
14.4 1.6666666666666665 3.3333333333333335
15.200000000000001 1.6666666666666665 3.3333333333333335
16.0 1.6666666666666665 3.3333333333333335
0.0 2.0 3.3333333333333335
0.8 2.0 3.3333333333333335
1.6 2.0 3.3333333333333335
2.4000000000000004 2.0 3.3333333333333335
3.2 2.0 3.3333333333333335
4.0 2.0 3.3333333333333335
4.800000000000001 2.0 3.3333333333333335
5.6000000000000005 2.0 3.3333333333333335
6.4 2.0 3.3333333333333335
7.2 2.0 3.3333333333333335
8.0 2.0 3.3333333333333335
8.8 2.0 3.3333333333333335
9.600000000000001 2.0 3.3333333333333335
10.4 2.0 3.3333333333333335
11.200000000000001 2.0 3.3333333333333335
12.0 2.0 3.3333333333333335
12.8 2.0 3.3333333333333335
13.600000000000001 2.0 3.3333333333333335
14.4 2.0 3.3333333333333335
15.200000000000001 2.0 3.3333333333333335
16.0 2.0 3.3333333333333335
0.0 0.0 5.0
0.8 0.0 5.0
1.6 0.0 5.0
2.4000000000000004 0.0 5.0
3.2 0.0 5.0
4.0 0.0 5.0
4.800000000000001 0.0 5.0
5.6000000000000005 0.0 5.0
6.4 0.0 5.0
7.2 0.0 5.0
8.0 0.0 5.0
8.8 0.0 5.0
9.600000000000001 0.0 5.0
10.4 0.0 5.0
11.200000000000001 0.0 5.0
12.0 0.0 5.0
12.8 0.0 5.0
13.600000000000001 0.0 5.0
14.4 0.0 5.0
15.200000000000001 0.0 5.0
16.0 0.0 5.0
0.0 0.3333333333333333 5.0
0.8 0.3333333333333333 5.0
1.6 0.3333333333333333 5.0
2.4000000000000004 0.3333333333333333 5.0
3.2 0.3333333333333333 5.0
4.0 0.3333333333333333 5.0
4.800000000000001 0.3333333333333333 5.0
5.6000000000000005 0.3333333333333333 5.0
6.4 0.3333333333333333 5.0
7.2 0.3333333333333333 5.0
8.0 0.3333333333333333 5.0
8.8 0.3333333333333333 5.0
9.600000000000001 0.3333333333333333 5.0
10.4 0.3333333333333333 5.0
11.200000000000001 0.3333333333333333 5.0
12.0 0.3333333333333333 5.0
12.8 0.3333333333333333 5.0
13.600000000000001 0.3333333333333333 5.0
14.4 0.3333333333333333 5.0
15.200000000000001 0.3333333333333333 5.0
16.0 0.3333333333333333 5.0
0.0 0.6666666666666666 5.0
0.8 0.6666666666666666 5.0
1.6 0.6666666666666666 5.0
2.4000000000000004 0.6666666666666666 5.0
3.2 0.6666666666666666 5.0
4.0 0.6666666666666666 5.0
4.800000000000001 0.6666666666666666 5.0
5.6000000000000005 0.6666666666666666 5.0
6.4 0.6666666666666666 5.0
7.2 0.6666666666666666 5.0
8.0 0.6666666666666666 5.0
8.8 0.6666666666666666 5.0
9.600000000000001 0.6666666666666666 5.0
10.4 0.6666666666666666 5.0
11.200000000000001 0.6666666666666666 5.0
12.0 0.6666666666666666 5.0
12.8 0.6666666666666666 5.0
13.600000000000001 0.6666666666666666 5.0
14.4 0.6666666666666666 5.0
15.200000000000001 0.6666666666666666 5.0
16.0 0.6666666666666666 5.0
0.0 1.0 5.0
0.8 1.0 5.0
1.6 1.0 5.0
2.4000000000000004 1.0 5.0
3.2 1.0 5.0
4.0 1.0 5.0
4.800000000000001 1.0 5.0
5.6000000000000005 1.0 5.0
6.4 1.0 5.0
7.2 1.0 5.0
8.0 1.0 5.0
8.8 1.0 5.0
9.600000000000001 1.0 5.0
10.4 1.0 5.0
11.200000000000001 1.0 5.0
12.0 1.0 5.0
12.8 1.0 5.0
13.600000000000001 1.0 5.0
14.4 1.0 5.0
15.200000000000001 1.0 5.0
16.0 1.0 5.0
0.0 1.3333333333333333 5.0
0.8 1.3333333333333333 5.0
1.6 1.3333333333333333 5.0
2.4000000000000004 1.3333333333333333 5.0
3.2 1.3333333333333333 5.0
4.0 1.3333333333333333 5.0
4.800000000000001 1.3333333333333333 5.0
5.6000000000000005 1.3333333333333333 5.0
6.4 1.3333333333333333 5.0
7.2 1.3333333333333333 5.0
8.0 1.3333333333333333 5.0
8.8 1.3333333333333333 5.0
9.600000000000001 1.3333333333333333 5.0
10.4 1.3333333333333333 5.0
11.200000000000001 1.3333333333333333 5.0
12.0 1.3333333333333333 5.0
12.8 1.3333333333333333 5.0
13.600000000000001 1.3333333333333333 5.0
14.4 1.3333333333333333 5.0
15.200000000000001 1.3333333333333333 5.0
16.0 1.3333333333333333 5.0
0.0 1.6666666666666665 5.0
0.8 1.6666666666666665 5.0
1.6 1.6666666666666665 5.0
2.4000000000000004 1.6666666666666665 5.0
3.2 1.6666666666666665 5.0
4.0 1.6666666666666665 5.0
4.800000000000001 1.6666666666666665 5.0
5.6000000000000005 1.6666666666666665 5.0
6.4 1.6666666666666665 5.0
7.2 1.6666666666666665 5.0
8.0 1.6666666666666665 5.0
8.8 1.6666666666666665 5.0
9.600000000000001 1.6666666666666665 5.0
10.4 1.6666666666666665 5.0
11.200000000000001 1.6666666666666665 5.0
12.0 1.6666666666666665 5.0
12.8 1.6666666666666665 5.0
13.600000000000001 1.6666666666666665 5.0
14.4 1.6666666666666665 5.0
15.200000000000001 1.6666666666666665 5.0
16.0 1.6666666666666665 5.0
0.0 2.0 5.0
0.8 2.0 5.0
1.6 2.0 5.0
2.4000000000000004 2.0 5.0
3.2 2.0 5.0
4.0 2.0 5.0
4.800000000000001 2.0 5.0
5.6000000000000005 2.0 5.0
6.4 2.0 5.0
7.2 2.0 5.0
8.0 2.0 5.0
8.8 2.0 5.0
9.600000000000001 2.0 5.0
10.4 2.0 5.0
11.200000000000001 2.0 5.0
12.0 2.0 5.0
12.8 2.0 5.0
13.600000000000001 2.0 5.0
14.4 2.0 5.0
15.200000000000001 2.0 5.0
16.0 2.0 5.0
0.0 0.0 6.666666666666667
0.8 0.0 6.666666666666667
1.6 0.0 6.666666666666667
2.4000000000000004 0.0 6.666666666666667
3.2 0.0 6.666666666666667
4.0 0.0 6.666666666666667
4.800000000000001 0.0 6.666666666666667
5.6000000000000005 0.0 6.666666666666667
6.4 0.0 6.666666666666667
7.2 0.0 6.666666666666667
8.0 0.0 6.666666666666667
8.8 0.0 6.666666666666667
9.600000000000001 0.0 6.666666666666667
10.4 0.0 6.666666666666667
11.200000000000001 0.0 6.666666666666667
12.0 0.0 6.666666666666667
12.8 0.0 6.666666666666667
13.600000000000001 0.0 6.666666666666667
14.4 0.0 6.666666666666667
15.200000000000001 0.0 6.666666666666667
16.0 0.0 6.666666666666667
0.0 0.3333333333333333 6.666666666666667
0.8 0.3333333333333333 6.666666666666667
1.6 0.3333333333333333 6.666666666666667
2.4000000000000004 0.3333333333333333 6.666666666666667
3.2 0.3333333333333333 6.666666666666667
4.0 0.3333333333333333 6.666666666666667
4.800000000000001 0.3333333333333333 6.666666666666667
5.6000000000000005 0.3333333333333333 6.666666666666667
6.4 0.3333333333333333 6.666666666666667
7.2 0.3333333333333333 6.666666666666667
8.0 0.3333333333333333 6.666666666666667
8.8 0.3333333333333333 6.666666666666667
9.600000000000001 0.3333333333333333 6.666666666666667
10.4 0.3333333333333333 6.666666666666667
11.200000000000001 0.3333333333333333 6.666666666666667
12.0 0.3333333333333333 6.666666666666667
12.8 0.3333333333333333 6.666666666666667
13.600000000000001 0.3333333333333333 6.666666666666667
14.4 0.3333333333333333 6.666666666666667
15.200000000000001 0.3333333333333333 6.666666666666667
16.0 0.3333333333333333 6.666666666666667
0.0 0.6666666666666666 6.666666666666667
0.8 0.6666666666666666 6.666666666666667
1.6 0.6666666666666666 6.666666666666667
2.4000000000000004 0.6666666666666666 6.666666666666667
3.2 0.6666666666666666 6.666666666666667
4.0 0.6666666666666666 6.666666666666667
4.800000000000001 0.6666666666666666 6.666666666666667
5.6000000000000005 0.6666666666666666 6.666666666666667
6.4 0.6666666666666666 6.666666666666667
7.2 0.6666666666666666 6.666666666666667
8.0 0.6666666666666666 6.666666666666667
8.8 0.6666666666666666 6.666666666666667
9.600000000000001 0.6666666666666666 6.666666666666667
10.4 0.6666666666666666 6.666666666666667
11.200000000000001 0.6666666666666666 6.666666666666667
12.0 0.6666666666666666 6.666666666666667
12.8 0.6666666666666666 6.666666666666667
13.600000000000001 0.6666666666666666 6.666666666666667
14.4 0.6666666666666666 6.666666666666667
15.200000000000001 0.6666666666666666 6.666666666666667
16.0 0.6666666666666666 6.666666666666667
0.0 1.0 6.666666666666667
0.8 1.0 6.666666666666667
1.6 1.0 6.666666666666667
2.4000000000000004 1.0 6.666666666666667
3.2 1.0 6.666666666666667
4.0 1.0 6.666666666666667
4.800000000000001 1.0 6.666666666666667
5.6000000000000005 1.0 6.666666666666667
6.4 1.0 6.666666666666667
7.2 1.0 6.666666666666667
8.0 1.0 6.666666666666667
8.8 1.0 6.666666666666667
9.600000000000001 1.0 6.666666666666667
10.4 1.0 6.666666666666667
11.200000000000001 1.0 6.666666666666667
12.0 1.0 6.666666666666667
12.8 1.0 6.666666666666667
13.600000000000001 1.0 6.666666666666667
14.4 1.0 6.666666666666667
15.200000000000001 1.0 6.666666666666667
16.0 1.0 6.666666666666667
0.0 1.3333333333333333 6.666666666666667
0.8 1.3333333333333333 6.666666666666667
1.6 1.3333333333333333 6.666666666666667
2.4000000000000004 1.3333333333333333 6.666666666666667
3.2 1.3333333333333333 6.666666666666667
4.0 1.3333333333333333 6.666666666666667
4.800000000000001 1.3333333333333333 6.666666666666667
5.6000000000000005 1.3333333333333333 6.666666666666667
6.4 1.3333333333333333 6.666666666666667
7.2 1.3333333333333333 6.666666666666667
8.0 1.3333333333333333 6.666666666666667
8.8 1.3333333333333333 6.666666666666667
9.600000000000001 1.3333333333333333 6.666666666666667
10.4 1.3333333333333333 6.666666666666667
11.200000000000001 1.3333333333333333 6.666666666666667
12.0 1.3333333333333333 6.666666666666667
12.8 1.3333333333333333 6.666666666666667
13.600000000000001 1.3333333333333333 6.666666666666667
14.4 1.3333333333333333 6.666666666666667
15.200000000000001 1.3333333333333333 6.666666666666667
16.0 1.3333333333333333 6.666666666666667
0.0 1.6666666666666665 6.666666666666667
0.8 1.6666666666666665 6.666666666666667
1.6 1.6666666666666665 6.666666666666667
2.4000000000000004 1.6666666666666665 6.666666666666667
3.2 1.6666666666666665 6.666666666666667
4.0 1.6666666666666665 6.666666666666667
4.800000000000001 1.6666666666666665 6.666666666666667
5.6000000000000005 1.6666666666666665 6.666666666666667
6.4 1.6666666666666665 6.666666666666667
7.2 1.6666666666666665 6.666666666666667
8.0 1.6666666666666665 6.666666666666667
8.8 1.6666666666666665 6.666666666666667
9.600000000000001 1.6666666666666665 6.666666666666667
10.4 1.6666666666666665 6.666666666666667
11.200000000000001 1.6666666666666665 6.666666666666667
12.0 1.6666666666666665 6.666666666666667
12.8 1.6666666666666665 6.666666666666667
13.600000000000001 1.6666666666666665 6.666666666666667
14.4 1.6666666666666665 6.666666666666667
15.200000000000001 1.6666666666666665 6.666666666666667
16.0 1.6666666666666665 6.666666666666667
0.0 2.0 6.666666666666667
0.8 2.0 6.666666666666667
1.6 2.0 6.666666666666667
2.4000000000000004 2.0 6.666666666666667
3.2 2.0 6.666666666666667
4.0 2.0 6.666666666666667
4.800000000000001 2.0 6.666666666666667
5.6000000000000005 2.0 6.666666666666667
6.4 2.0 6.666666666666667
7.2 2.0 6.666666666666667
8.0 2.0 6.666666666666667
8.8 2.0 6.666666666666667
9.600000000000001 2.0 6.666666666666667
10.4 2.0 6.666666666666667
11.200000000000001 2.0 6.666666666666667
12.0 2.0 6.666666666666667
12.8 2.0 6.666666666666667
13.600000000000001 2.0 6.666666666666667
14.4 2.0 6.666666666666667
15.200000000000001 2.0 6.666666666666667
16.0 2.0 6.666666666666667
0.0 0.0 8.333333333333334
0.8 0.0 8.333333333333334
1.6 0.0 8.333333333333334
2.4000000000000004 0.0 8.333333333333334
3.2 0.0 8.333333333333334
4.0 0.0 8.333333333333334
4.800000000000001 0.0 8.333333333333334
5.6000000000000005 0.0 8.333333333333334
6.4 0.0 8.333333333333334
7.2 0.0 8.333333333333334
8.0 0.0 8.333333333333334
8.8 0.0 8.333333333333334
9.600000000000001 0.0 8.333333333333334
10.4 0.0 8.333333333333334
11.200000000000001 0.0 8.333333333333334
12.0 0.0 8.333333333333334
12.8 0.0 8.333333333333334
13.600000000000001 0.0 8.333333333333334
14.4 0.0 8.333333333333334
15.200000000000001 0.0 8.333333333333334
16.0 0.0 8.333333333333334
0.0 0.3333333333333333 8.333333333333334
0.8 0.3333333333333333 8.333333333333334
1.6 0.3333333333333333 8.333333333333334
2.4000000000000004 0.3333333333333333 8.333333333333334
3.2 0.3333333333333333 8.333333333333334
4.0 0.3333333333333333 8.333333333333334
4.800000000000001 0.3333333333333333 8.333333333333334
5.6000000000000005 0.3333333333333333 8.333333333333334
6.4 0.3333333333333333 8.333333333333334
7.2 0.3333333333333333 8.333333333333334
8.0 0.3333333333333333 8.333333333333334
8.8 0.3333333333333333 8.333333333333334
9.600000000000001 0.3333333333333333 8.333333333333334
10.4 0.3333333333333333 8.333333333333334
11.200000000000001 0.3333333333333333 8.333333333333334
12.0 0.3333333333333333 8.333333333333334
12.8 0.3333333333333333 8.333333333333334
13.600000000000001 0.3333333333333333 8.333333333333334
14.4 0.3333333333333333 8.333333333333334
15.200000000000001 0.3333333333333333 8.333333333333334
16.0 0.3333333333333333 8.333333333333334
0.0 0.6666666666666666 8.333333333333334
0.8 0.6666666666666666 8.333333333333334
1.6 0.6666666666666666 8.333333333333334
2.4000000000000004 0.6666666666666666 8.333333333333334
3.2 0.6666666666666666 8.333333333333334
4.0 0.6666666666666666 8.333333333333334
4.800000000000001 0.6666666666666666 8.333333333333334
5.6000000000000005 0.6666666666666666 8.333333333333334
6.4 0.6666666666666666 8.333333333333334
7.2 0.6666666666666666 8.333333333333334
8.0 0.6666666666666666 8.333333333333334
8.8 0.6666666666666666 8.333333333333334
9.600000000000001 0.6666666666666666 8.333333333333334
10.4 0.6666666666666666 8.333333333333334
11.200000000000001 0.6666666666666666 8.333333333333334
12.0 0.6666666666666666 8.333333333333334
12.8 0.6666666666666666 8.333333333333334
13.600000000000001 0.6666666666666666 8.333333333333334
14.4 0.6666666666666666 8.333333333333334
15.200000000000001 0.6666666666666666 8.333333333333334
16.0 0.6666666666666666 8.333333333333334
0.0 1.0 8.333333333333334
0.8 1.0 8.333333333333334
1.6 1.0 8.333333333333334
2.4000000000000004 1.0 8.333333333333334
3.2 1.0 8.333333333333334
4.0 1.0 8.333333333333334
4.800000000000001 1.0 8.333333333333334
5.6000000000000005 1.0 8.333333333333334
6.4 1.0 8.333333333333334
7.2 1.0 8.333333333333334
8.0 1.0 8.333333333333334
8.8 1.0 8.333333333333334
9.600000000000001 1.0 8.333333333333334
10.4 1.0 8.333333333333334
11.200000000000001 1.0 8.333333333333334
12.0 1.0 8.333333333333334
12.8 1.0 8.333333333333334
13.600000000000001 1.0 8.333333333333334
14.4 1.0 8.333333333333334
15.200000000000001 1.0 8.333333333333334
16.0 1.0 8.333333333333334
0.0 1.3333333333333333 8.333333333333334
0.8 1.3333333333333333 8.333333333333334
1.6 1.3333333333333333 8.333333333333334
2.4000000000000004 1.3333333333333333 8.333333333333334
3.2 1.3333333333333333 8.333333333333334
4.0 1.3333333333333333 8.333333333333334
4.800000000000001 1.3333333333333333 8.333333333333334
5.6000000000000005 1.3333333333333333 8.333333333333334
6.4 1.3333333333333333 8.333333333333334
7.2 1.3333333333333333 8.333333333333334
8.0 1.3333333333333333 8.333333333333334
8.8 1.3333333333333333 8.333333333333334
9.600000000000001 1.3333333333333333 8.333333333333334
10.4 1.3333333333333333 8.333333333333334
11.200000000000001 1.3333333333333333 8.333333333333334
12.0 1.3333333333333333 8.333333333333334
12.8 1.3333333333333333 8.333333333333334
13.600000000000001 1.3333333333333333 8.333333333333334
14.4 1.3333333333333333 8.333333333333334
15.200000000000001 1.3333333333333333 8.333333333333334
16.0 1.3333333333333333 8.333333333333334
0.0 1.6666666666666665 8.333333333333334
0.8 1.6666666666666665 8.333333333333334
1.6 1.6666666666666665 8.333333333333334
2.4000000000000004 1.6666666666666665 8.333333333333334
3.2 1.6666666666666665 8.333333333333334
4.0 1.6666666666666665 8.333333333333334
4.800000000000001 1.6666666666666665 8.333333333333334
5.6000000000000005 1.6666666666666665 8.333333333333334
6.4 1.6666666666666665 8.333333333333334
7.2 1.6666666666666665 8.333333333333334
8.0 1.6666666666666665 8.333333333333334
8.8 1.6666666666666665 8.333333333333334
9.600000000000001 1.6666666666666665 8.333333333333334
10.4 1.6666666666666665 8.333333333333334
11.200000000000001 1.6666666666666665 8.333333333333334
12.0 1.6666666666666665 8.333333333333334
12.8 1.6666666666666665 8.333333333333334
13.600000000000001 1.6666666666666665 8.333333333333334
14.4 1.6666666666666665 8.333333333333334
15.200000000000001 1.6666666666666665 8.333333333333334
16.0 1.6666666666666665 8.333333333333334
0.0 2.0 8.333333333333334
0.8 2.0 8.333333333333334
1.6 2.0 8.333333333333334
2.4000000000000004 2.0 8.333333333333334
3.2 2.0 8.333333333333334
4.0 2.0 8.333333333333334
4.800000000000001 2.0 8.333333333333334
5.6000000000000005 2.0 8.333333333333334
6.4 2.0 8.333333333333334
7.2 2.0 8.333333333333334
8.0 2.0 8.333333333333334
8.8 2.0 8.333333333333334
9.600000000000001 2.0 8.333333333333334
10.4 2.0 8.333333333333334
11.200000000000001 2.0 8.333333333333334
12.0 2.0 8.333333333333334
12.8 2.0 8.333333333333334
13.600000000000001 2.0 8.333333333333334
14.4 2.0 8.333333333333334
15.200000000000001 2.0 8.333333333333334
16.0 2.0 8.333333333333334
0.0 0.0 10.0
0.8 0.0 10.0
1.6 0.0 10.0
2.4000000000000004 0.0 10.0
3.2 0.0 10.0
4.0 0.0 10.0
4.800000000000001 0.0 10.0
5.6000000000000005 0.0 10.0
6.4 0.0 10.0
7.2 0.0 10.0
8.0 0.0 10.0
8.8 0.0 10.0
9.600000000000001 0.0 10.0
10.4 0.0 10.0
11.200000000000001 0.0 10.0
12.0 0.0 10.0
12.8 0.0 10.0
13.600000000000001 0.0 10.0
14.4 0.0 10.0
15.200000000000001 0.0 10.0
16.0 0.0 10.0
0.0 0.3333333333333333 10.0
0.8 0.3333333333333333 10.0
1.6 0.3333333333333333 10.0
2.4000000000000004 0.3333333333333333 10.0
3.2 0.3333333333333333 10.0
4.0 0.3333333333333333 10.0
4.800000000000001 0.3333333333333333 10.0
5.6000000000000005 0.3333333333333333 10.0
6.4 0.3333333333333333 10.0
7.2 0.3333333333333333 10.0
8.0 0.3333333333333333 10.0
8.8 0.3333333333333333 10.0
9.600000000000001 0.3333333333333333 10.0
10.4 0.3333333333333333 10.0
11.200000000000001 0.3333333333333333 10.0
12.0 0.3333333333333333 10.0
12.8 0.3333333333333333 10.0
13.600000000000001 0.3333333333333333 10.0
14.4 0.3333333333333333 10.0
15.200000000000001 0.3333333333333333 10.0
16.0 0.3333333333333333 10.0
0.0 0.6666666666666666 10.0
0.8 0.6666666666666666 10.0
1.6 0.6666666666666666 10.0
2.4000000000000004 0.6666666666666666 10.0
3.2 0.6666666666666666 10.0
4.0 0.6666666666666666 10.0
4.800000000000001 0.6666666666666666 10.0
5.6000000000000005 0.6666666666666666 10.0
6.4 0.6666666666666666 10.0
7.2 0.6666666666666666 10.0
8.0 0.6666666666666666 10.0
8.8 0.6666666666666666 10.0
9.600000000000001 0.6666666666666666 10.0
10.4 0.6666666666666666 10.0
11.200000000000001 0.6666666666666666 10.0
12.0 0.6666666666666666 10.0
12.8 0.6666666666666666 10.0
13.600000000000001 0.6666666666666666 10.0
14.4 0.6666666666666666 10.0
15.200000000000001 0.6666666666666666 10.0
16.0 0.6666666666666666 10.0
0.0 1.0 10.0
0.8 1.0 10.0
1.6 1.0 10.0
2.4000000000000004 1.0 10.0
3.2 1.0 10.0
4.0 1.0 10.0
4.800000000000001 1.0 10.0
5.6000000000000005 1.0 10.0
6.4 1.0 10.0
7.2 1.0 10.0
8.0 1.0 10.0
8.8 1.0 10.0
9.600000000000001 1.0 10.0
10.4 1.0 10.0
11.200000000000001 1.0 10.0
12.0 1.0 10.0
12.8 1.0 10.0
13.600000000000001 1.0 10.0
14.4 1.0 10.0
15.200000000000001 1.0 10.0
16.0 1.0 10.0
0.0 1.3333333333333333 10.0
0.8 1.3333333333333333 10.0
1.6 1.3333333333333333 10.0
2.4000000000000004 1.3333333333333333 10.0
3.2 1.3333333333333333 10.0
4.0 1.3333333333333333 10.0
4.800000000000001 1.3333333333333333 10.0
5.6000000000000005 1.3333333333333333 10.0
6.4 1.3333333333333333 10.0
7.2 1.3333333333333333 10.0
8.0 1.3333333333333333 10.0
8.8 1.3333333333333333 10.0
9.600000000000001 1.3333333333333333 10.0
10.4 1.3333333333333333 10.0
11.200000000000001 1.3333333333333333 10.0
12.0 1.3333333333333333 10.0
12.8 1.3333333333333333 10.0
13.600000000000001 1.3333333333333333 10.0
14.4 1.3333333333333333 10.0
15.200000000000001 1.3333333333333333 10.0
16.0 1.3333333333333333 10.0
0.0 1.6666666666666665 10.0
0.8 1.6666666666666665 10.0
1.6 1.6666666666666665 10.0
2.4000000000000004 1.6666666666666665 10.0
3.2 1.6666666666666665 10.0
4.0 1.6666666666666665 10.0
4.800000000000001 1.6666666666666665 10.0
5.6000000000000005 1.6666666666666665 10.0
6.4 1.6666666666666665 10.0
7.2 1.6666666666666665 10.0
8.0 1.6666666666666665 10.0
8.8 1.6666666666666665 10.0
9.600000000000001 1.6666666666666665 10.0
10.4 1.6666666666666665 10.0
11.200000000000001 1.6666666666666665 10.0
12.0 1.6666666666666665 10.0
12.8 1.6666666666666665 10.0
13.600000000000001 1.6666666666666665 10.0
14.4 1.6666666666666665 10.0
15.200000000000001 1.6666666666666665 10.0
16.0 1.6666666666666665 10.0
0.0 2.0 10.0
0.8 2.0 10.0
1.6 2.0 10.0
2.4000000000000004 2.0 10.0
3.2 2.0 10.0
4.0 2.0 10.0
4.800000000000001 2.0 10.0
5.6000000000000005 2.0 10.0
6.4 2.0 10.0
7.2 2.0 10.0
8.0 2.0 10.0
8.8 2.0 10.0
9.600000000000001 2.0 10.0
10.4 2.0 10.0
11.200000000000001 2.0 10.0
12.0 2.0 10.0
12.8 2.0 10.0
13.600000000000001 2.0 10.0
14.4 2.0 10.0
15.200000000000001 2.0 10.0
16.0 2.0 10.0
CELLS 720 6480
8 0 1 22 21 147 148 169 168
8 1 2 23 22 148 149 170 169
8 2 3 24 23 149 150 171 170
8 3 4 25 24 150 151 172 171
8 4 5 26 25 151 152 173 172
8 5 6 27 26 152 153 174 173
8 6 7 28 27 153 154 175 174
8 7 8 29 28 154 155 176 175
8 8 9 30 29 155 156 177 176
8 9 10 31 30 156 157 178 177
8 10 11 32 31 157 158 179 178
8 11 12 33 32 158 159 180 179
8 12 13 34 33 159 160 181 180
8 13 14 35 34 160 161 182 181
8 14 15 36 35 161 162 183 182
8 15 16 37 36 162 163 184 183
8 16 17 38 37 163 164 185 184
8 17 18 39 38 164 165 186 185
8 18 19 40 39 165 166 187 186
8 19 20 41 40 166 167 188 187
8 21 22 43 42 168 169 190 189
8 22 23 44 43 169 170 191 190
8 23 24 45 44 170 171 192 191
8 24 25 46 45 171 172 193 192
8 25 26 47 46 172 173 194 193
8 26 27 48 47 173 174 195 194
8 27 28 49 48 174 175 196 195
8 28 29 50 49 175 176 197 196
8 29 30 51 50 176 177 198 197
8 30 31 52 51 177 178 199 198
8 31 32 53 52 178 179 200 199
8 32 33 54 53 179 180 201 200
8 33 34 55 54 180 181 202 201
8 34 35 56 55 181 182 203 202
8 35 36 57 56 182 183 204 203
8 36 37 58 57 183 184 205 204
8 37 38 59 58 184 185 206 205
8 38 39 60 59 185 186 207 206
8 39 40 61 60 186 187 208 207
8 40 41 62 61 187 188 209 208
8 42 43 64 63 189 190 211 210
8 43 44 65 64 190 191 212 211
8 44 45 66 65 191 192 213 212
8 45 46 67 66 192 193 214 213
8 46 47 68 67 193 194 215 214
8 47 48 69 68 194 195 216 215
8 48 49 70 69 195 196 217 216
8 49 50 71 70 196 197 218 217
8 50 51 72 71 197 198 219 218
8 51 52 73 72 198 199 220 219
8 52 53 74 73 199 200 221 220
8 53 54 75 74 200 201 222 221
8 54 55 76 75 201 202 223 222
8 55 56 77 76 202 203 224 223
8 56 57 78 77 203 204 225 224
8 57 58 79 78 204 205 226 225
8 58 59 80 79 205 206 227 226
8 59 60 81 80 206 207 228 227
8 60 61 82 81 207 208 229 228
8 61 62 83 82 208 209 230 229
8 63 64 85 84 210 211 232 231
8 64 65 86 85 211 212 233 232
8 65 66 87 86 212 213 234 233
8 66 67 88 87 213 214 235 234
8 67 68 89 88 214 215 236 235
8 68 69 90 89 215 216 237 236
8 69 70 91 90 216 217 238 237
8 70 71 92 91 217 218 239 238
8 71 72 93 92 218 219 240 239
8 72 73 94 93 219 220 241 240
8 73 74 95 94 220 221 242 241
8 74 75 96 95 221 222 243 242
8 75 76 97 96 222 223 244 243
8 76 77 98 97 223 224 245 244
8 77 78 99 98 224 225 246 245
8 78 79 100 99 225 226 247 246
8 79 80 101 100 226 227 248 247
8 80 81 102 101 227 228 249 248
8 81 82 103 102 228 229 250 249
8 82 83 104 103 229 230 251 250
8 84 85 106 105 231 232 253 252
8 85 86 107 106 232 233 254 253
8 86 87 108 107 233 234 255 254
8 87 88 109 108 234 235 256 255
8 88 89 110 109 235 236 257 256
8 89 90 111 110 236 237 258 257
8 90 91 112 111 237 238 259 258
8 91 92 113 112 238 239 260 259
8 92 93 114 113 239 240 261 260
8 93 94 115 114 240 241 262 261
8 94 95 116 115 241 242 263 262
8 95 96 117 116 242 243 264 263
8 96 97 118 117 243 244 265 264
8 97 98 119 118 244 245 266 265
8 98 99 120 119 245 246 267 266
8 99 100 121 120 246 247 268 267
8 100 101 122 121 247 248 269 268
8 101 102 123 122 248 249 270 269
8 102 103 124 123 249 250 271 270
8 103 104 125 124 250 251 272 271
8 105 106 127 126 252 253 274 273
8 106 107 128 127 253 254 275 274
8 107 108 129 128 254 255 276 275
8 108 109 130 129 255 256 277 276
8 109 110 131 130 256 257 278 277
8 110 111 132 131 257 258 279 278
8 111 112 133 132 258 259 280 279
8 112 113 134 133 259 260 281 280
8 113 114 135 134 260 261 282 281
8 114 115 136 135 261 262 283 282
8 115 116 137 136 262 263 284 283
8 116 117 138 137 263 264 285 284
8 117 118 139 138 264 265 286 285
8 118 119 140 139 265 266 287 286
8 119 120 141 140 266 267 288 287
8 120 121 142 141 267 268 289 288
8 121 122 143 142 268 269 290 289
8 122 123 144 143 269 270 291 290
8 123 124 145 144 270 271 292 291
8 124 125 146 145 271 272 293 292
8 147 148 169 168 294 295 316 315
8 148 149 170 169 295 296 317 316
8 149 150 171 170 296 297 318 317
8 150 151 172 171 297 298 319 318
8 151 152 173 172 298 299 320 319
8 152 153 174 173 299 300 321 320
8 153 154 175 174 300 301 322 321
8 154 155 176 175 301 302 323 322
8 155 156 177 176 302 303 324 323
8 156 157 178 177 303 304 325 324
8 157 158 179 178 304 305 326 325
8 158 159 180 179 305 306 327 326
8 159 160 181 180 306 307 328 327
8 160 161 182 181 307 308 329 328
8 161 162 183 182 308 309 330 329
8 162 163 184 183 309 310 331 330
8 163 164 185 184 310 311 332 331
8 164 165 186 185 311 312 333 332
8 165 166 187 186 312 313 334 333
8 166 167 188 187 313 314 335 334
8 168 169 190 189 315 316 337 336
8 169 170 191 190 316 317 338 337
8 170 171 192 191 317 318 339 338
8 171 172 193 192 318 319 340 339
8 172 173 194 193 319 320 341 340
8 173 174 195 194 320 321 342 341
8 174 175 196 195 321 322 343 342
8 175 176 197 196 322 323 344 343
8 176 177 198 197 323 324 345 344
8 177 178 199 198 324 325 346 345
8 178 179 200 199 325 326 347 346
8 179 180 201 200 326 327 348 347
8 180 181 202 201 327 328 349 348
8 181 182 203 202 328 329 350 349
8 182 183 204 203 329 330 351 350
8 183 184 205 204 330 331 352 351
8 184 185 206 205 331 332 353 352
8 185 186 207 206 332 333 354 353
8 186 187 208 207 333 334 355 354
8 187 188 209 208 334 335 356 355
8 189 190 211 210 336 337 358 357
8 190 191 212 211 337 338 359 358
8 191 192 213 212 338 339 360 359
8 192 193 214 213 339 340 361 360
8 193 194 215 214 340 341 362 361
8 194 195 216 215 341 342 363 362
8 195 196 217 216 342 343 364 363
8 196 197 218 217 343 344 365 364
8 197 198 219 218 344 345 366 365
8 198 199 220 219 345 346 367 366
8 199 200 221 220 346 347 368 367
8 200 201 222 221 347 348 369 368
8 201 202 223 222 348 349 370 369
8 202 203 224 223 349 350 371 370
8 203 204 225 224 350 351 372 371
8 204 205 226 225 351 352 373 372
8 205 206 227 226 352 353 374 373
8 206 207 228 227 353 354 375 374
8 207 208 229 228 354 355 376 375
8 208 209 230 229 355 356 377 376
8 210 211 232 231 357 358 379 378
8 211 212 233 232 358 359 380 379
8 212 213 234 233 359 360 381 380
8 213 214 235 234 360 361 382 381
8 214 215 236 235 361 362 383 382
8 215 216 237 236 362 363 384 383
8 216 217 238 237 363 364 385 384
8 217 218 239 238 364 365 386 385
8 218 219 240 239 365 366 387 386
8 219 220 241 240 366 367 388 387
8 220 221 242 241 367 368 389 388
8 221 222 243 242 368 369 390 389
8 222 223 244 243 369 370 391 390
8 223 224 245 244 370 371 392 391
8 224 225 246 245 371 372 393 392
8 225 226 247 246 372 373 394 393
8 226 227 248 247 373 374 395 394
8 227 228 249 248 374 375 396 395
8 228 229 250 249 375 376 397 396
8 229 230 251 250 376 377 398 397
8 231 232 253 252 378 379 400 399
8 232 233 254 253 379 380 401 400
8 233 234 255 254 380 381 402 401
8 234 235 256 255 381 382 403 402
8 235 236 257 256 382 383 404 403
8 236 237 258 257 383 384 405 404
8 237 238 259 258 384 385 406 405
8 238 239 260 259 385 386 407 406
8 239 240 261 260 386 387 408 407
8 240 241 262 261 387 388 409 408
8 241 242 263 262 388 389 410 409
8 242 243 264 263 389 390 411 410
8 243 244 265 264 390 391 412 411
8 244 245 266 265 391 392 413 412
8 245 246 267 266 392 393 414 413
8 246 247 268 267 393 394 415 414
8 247 248 269 268 394 395 416 415
8 248 249 270 269 395 396 417 416
8 249 250 271 270 396 397 418 417
8 250 251 272 271 397 398 419 418
8 252 253 274 273 399 400 421 420
8 253 254 275 274 400 401 422 421
8 254 255 276 275 401 402 423 422
8 255 256 277 276 402 403 424 423
8 256 257 278 277 403 404 425 424
8 257 258 279 278 404 405 426 425
8 258 259 280 279 405 406 427 426
8 259 260 281 280 406 407 428 427
8 260 261 282 281 407 408 429 428
8 261 262 283 282 408 409 430 429
8 262 263 284 283 409 410 431 430
8 263 264 285 284 410 411 432 431
8 264 265 286 285 411 412 433 432
8 265 266 287 286 412 413 434 433
8 266 267 288 287 413 414 435 434
8 267 268 289 288 414 415 436 435
8 268 269 290 289 415 416 437 436
8 269 270 291 290 416 417 438 437
8 270 271 292 291 417 418 439 438
8 271 272 293 292 418 419 440 439
8 294 295 316 315 441 442 463 462
8 295 296 317 316 442 443 464 463
8 296 297 318 317 443 444 465 464
8 297 298 319 318 444 445 466 465
8 298 299 320 319 445 446 467 466
8 299 300 321 320 446 447 468 467
8 300 301 322 321 447 448 469 468
8 301 302 323 322 448 449 470 469
8 302 303 324 323 449 450 471 470
8 303 304 325 324 450 451 472 471
8 304 305 326 325 451 452 473 472
8 305 306 327 326 452 453 474 473
8 306 307 328 327 453 454 475 474
8 307 308 329 328 454 455 476 475
8 308 309 330 329 455 456 477 476
8 309 310 331 330 456 457 478 477
8 310 311 332 331 457 458 479 478
8 311 312 333 332 458 459 480 479
8 312 313 334 333 459 460 481 480
8 313 314 335 334 460 461 482 481
8 315 316 337 336 462 463 484 483
8 316 317 338 337 463 464 485 484
8 317 318 339 338 464 465 486 485
8 318 319 340 339 465 466 487 486
8 319 320 341 340 466 467 488 487
8 320 321 342 341 467 468 489 488
8 321 322 343 342 468 469 490 489
8 322 323 344 343 469 470 491 490
8 323 324 345 344 470 471 492 491
8 324 325 346 345 471 472 493 492
8 325 326 347 346 472 473 494 493
8 326 327 348 347 473 474 495 494
8 327 328 349 348 474 475 496 495
8 328 329 350 349 475 476 497 496
8 329 330 351 350 476 477 498 497
8 330 331 352 351 477 478 499 498
8 331 332 353 352 478 479 500 499
8 332 333 354 353 479 480 501 500
8 333 334 355 354 480 481 502 501
8 334 335 356 355 481 482 503 502
8 336 337 358 357 483 484 505 504
8 337 338 359 358 484 485 506 505
8 338 339 360 359 485 486 507 506
8 339 340 361 360 486 487 508 507
8 340 341 362 361 487 488 509 508
8 341 342 363 362 488 489 510 509
8 342 343 364 363 489 490 511 510
8 343 344 365 364 490 491 512 511
8 344 345 366 365 491 492 513 512
8 345 346 367 366 492 493 514 513
8 346 347 368 367 493 494 515 514
8 347 348 369 368 494 495 516 515
8 348 349 370 369 495 496 517 516
8 349 350 371 370 496 497 518 517
8 350 351 372 371 497 498 519 518
8 351 352 373 372 498 499 520 519
8 352 353 374 373 499 500 521 520
8 353 354 375 374 500 501 522 521
8 354 355 376 375 501 502 523 522
8 355 356 377 376 502 503 524 523
8 357 358 379 378 504 505 526 525
8 358 359 380 379 505 506 527 526
8 359 360 381 380 506 507 528 527
8 360 361 382 381 507 508 529 528
8 361 362 383 382 508 509 530 529
8 362 363 384 383 509 510 531 530
8 363 364 385 384 510 511 532 531
8 364 365 386 385 511 512 533 532
8 365 366 387 386 512 513 534 533
8 366 367 388 387 513 514 535 534
8 367 368 389 388 514 515 536 535
8 368 369 390 389 515 516 537 536
8 369 370 391 390 516 517 538 537
8 370 371 392 391 517 518 539 538
8 371 372 393 392 518 519 540 539
8 372 373 394 393 519 520 541 540
8 373 374 395 394 520 521 542 541
8 374 375 396 395 521 522 543 542
8 375 376 397 396 522 523 544 543
8 376 377 398 397 523 524 545 544
8 378 379 400 399 525 526 547 546
8 379 380 401 400 526 527 548 547
8 380 381 402 401 527 528 549 548
8 381 382 403 402 528 529 550 549
8 382 383 404 403 529 530 551 550
8 383 384 405 404 530 531 552 551
8 384 385 406 405 531 532 553 552
8 385 386 407 406 532 533 554 553
8 386 387 408 407 533 534 555 554
8 387 388 409 408 534 535 556 555
8 388 389 410 409 535 536 557 556
8 389 390 411 410 536 537 558 557
8 390 391 412 411 537 538 559 558
8 391 392 413 412 538 539 560 559
8 392 393 414 413 539 540 561 560
8 393 394 415 414 540 541 562 561
8 394 395 416 415 541 542 563 562
8 395 396 417 416 542 543 564 563
8 396 397 418 417 543 544 565 564
8 397 398 419 418 544 545 566 565
8 399 400 421 420 546 547 568 567
8 400 401 422 421 547 548 569 568
8 401 402 423 422 548 549 570 569
8 402 403 424 423 549 550 571 570
8 403 404 425 424 550 551 572 571
8 404 405 426 425 551 552 573 572
8 405 406 427 426 552 553 574 573
8 406 407 428 427 553 554 575 574
8 407 408 429 428 554 555 576 575
8 408 409 430 429 555 556 577 576
8 409 410 431 430 556 557 578 577
8 410 411 432 431 557 558 579 578
8 411 412 433 432 558 559 580 579
8 412 413 434 433 559 560 581 580
8 413 414 435 434 560 561 582 581
8 414 415 436 435 561 562 583 582
8 415 416 437 436 562 563 584 583
8 416 417 438 437 563 564 585 584
8 417 418 439 438 564 565 586 585
8 418 419 440 439 565 566 587 586
8 441 442 463 462 588 589 610 609
8 442 443 464 463 589 590 611 610
8 443 444 465 464 590 591 612 611
8 444 445 466 465 591 592 613 612
8 445 446 467 466 592 593 614 613
8 446 447 468 467 593 594 615 614
8 447 448 469 468 594 595 616 615
8 448 449 470 469 595 596 617 616
8 449 450 471 470 596 597 618 617
8 450 451 472 471 597 598 619 618
8 451 452 473 472 598 599 620 619
8 452 453 474 473 599 600 621 620
8 453 454 475 474 600 601 622 621
8 454 455 476 475 601 602 623 622
8 455 456 477 476 602 603 624 623
8 456 457 478 477 603 604 625 624
8 457 458 479 478 604 605 626 625
8 458 459 480 479 605 606 627 626
8 459 460 481 480 606 607 628 627
8 460 461 482 481 607 608 629 628
8 462 463 484 483 609 610 631 630
8 463 464 485 484 610 611 632 631
8 464 465 486 485 611 612 633 632
8 465 466 487 486 612 613 634 633
8 466 467 488 487 613 614 635 634
8 467 468 489 488 614 615 636 635
8 468 469 490 489 615 616 637 636
8 469 470 491 490 616 617 638 637
8 470 471 492 491 617 618 639 638
8 471 472 493 492 618 619 640 639
8 472 473 494 493 619 620 641 640
8 473 474 495 494 620 621 642 641
8 474 475 496 495 621 622 643 642
8 475 476 497 496 622 623 644 643
8 476 477 498 497 623 624 645 644
8 477 478 499 498 624 625 646 645
8 478 479 500 499 625 626 647 646
8 479 480 501 500 626 627 648 647
8 480 481 502 501 627 628 649 648
8 481 482 503 502 628 629 650 649
8 483 484 505 504 630 631 652 651
8 484 485 506 505 631 632 653 652
8 485 486 507 506 632 633 654 653
8 486 487 508 507 633 634 655 654
8 487 488 509 508 634 635 656 655
8 488 489 510 509 635 636 657 656
8 489 490 511 510 636 637 658 657
8 490 491 512 511 637 638 659 658
8 491 492 513 512 638 639 660 659
8 492 493 514 513 639 640 661 660
8 493 494 515 514 640 641 662 661
8 494 495 516 515 641 642 663 662
8 495 496 517 516 642 643 664 663
8 496 497 518 517 643 644 665 664
8 497 498 519 518 644 645 666 665
8 498 499 520 519 645 646 667 666
8 499 500 521 520 646 647 668 667
8 500 501 522 521 647 648 669 668
8 501 502 523 522 648 649 670 669
8 502 503 524 523 649 650 671 670
8 504 505 526 525 651 652 673 672
8 505 506 527 526 652 653 674 673
8 506 507 528 527 653 654 675 674
8 507 508 529 528 654 655 676 675
8 508 509 530 529 655 656 677 676
8 509 510 531 530 656 657 678 677
8 510 511 532 531 657 658 679 678
8 511 512 533 532 658 659 680 679
8 512 513 534 533 659 660 681 680
8 513 514 535 534 660 661 682 681
8 514 515 536 535 661 662 683 682
8 515 516 537 536 662 663 684 683
8 516 517 538 537 663 664 685 684
8 517 518 539 538 664 665 686 685
8 518 519 540 539 665 666 687 686
8 519 520 541 540 666 667 688 687
8 520 521 542 541 667 668 689 688
8 521 522 543 542 668 669 690 689
8 522 523 544 543 669 670 691 690
8 523 524 545 544 670 671 692 691
8 525 526 547 546 672 673 694 693
8 526 527 548 547 673 674 695 694
8 527 528 549 548 674 675 696 695
8 528 529 550 549 675 676 697 696
8 529 530 551 550 676 677 698 697
8 530 531 552 551 677 678 699 698
8 531 532 553 552 678 679 700 699
8 532 533 554 553 679 680 701 700
8 533 534 555 554 680 681 702 701
8 534 535 556 555 681 682 703 702
8 535 536 557 556 682 683 704 703
8 536 537 558 557 683 684 705 704
8 537 538 559 558 684 685 706 705
8 538 539 560 559 685 686 707 706
8 539 540 561 560 686 687 708 707
8 540 541 562 561 687 688 709 708
8 541 542 563 562 688 689 710 709
8 542 543 564 563 689 690 711 710
8 543 544 565 564 690 691 712 711
8 544 545 566 565 691 692 713 712
8 546 547 568 567 693 694 715 714
8 547 548 569 568 694 695 716 715
8 548 549 570 569 695 696 717 716
8 549 550 571 570 696 697 718 717
8 550 551 572 571 697 698 719 718
8 551 552 573 572 698 699 720 719
8 552 553 574 573 699 700 721 720
8 553 554 575 574 700 701 722 721
8 554 555 576 575 701 702 723 722
8 555 556 577 576 702 703 724 723
8 556 557 578 577 703 704 725 724
8 557 558 579 578 704 705 726 725
8 558 559 580 579 705 706 727 726
8 559 560 581 580 706 707 728 727
8 560 561 582 581 707 708 729 728
8 561 562 583 582 708 709 730 729
8 562 563 584 583 709 710 731 730
8 563 564 585 584 710 711 732 731
8 564 565 586 585 711 712 733 732
8 565 566 587 586 712 713 734 733
8 588 589 610 609 735 736 757 756
8 589 590 611 610 736 737 758 757
8 590 591 612 611 737 738 759 758
8 591 592 613 612 738 739 760 759
8 592 593 614 613 739 740 761 760
8 593 594 615 614 740 741 762 761
8 594 595 616 615 741 742 763 762
8 595 596 617 616 742 743 764 763
8 596 597 618 617 743 744 765 764
8 597 598 619 618 744 745 766 765
8 598 599 620 619 745 746 767 766
8 599 600 621 620 746 747 768 767
8 600 601 622 621 747 748 769 768
8 601 602 623 622 748 749 770 769
8 602 603 624 623 749 750 771 770
8 603 604 625 624 750 751 772 771
8 604 605 626 625 751 752 773 772
8 605 606 627 626 752 753 774 773
8 606 607 628 627 753 754 775 774
8 607 608 629 628 754 755 776 775
8 609 610 631 630 756 757 778 777
8 610 611 632 631 757 758 779 778
8 611 612 633 632 758 759 780 779
8 612 613 634 633 759 760 781 780
8 613 614 635 634 760 761 782 781
8 614 615 636 635 761 762 783 782
8 615 616 637 636 762 763 784 783
8 616 617 638 637 763 764 785 784
8 617 618 639 638 764 765 786 785
8 618 619 640 639 765 766 787 786
8 619 620 641 640 766 767 788 787
8 620 621 642 641 767 768 789 788
8 621 622 643 642 768 769 790 789
8 622 623 644 643 769 770 791 790
8 623 624 645 644 770 771 792 791
8 624 625 646 645 771 772 793 792
8 625 626 647 646 772 773 794 793
8 626 627 648 647 773 774 795 794
8 627 628 649 648 774 775 796 795
8 628 629 650 649 775 776 797 796
8 630 631 652 651 777 778 799 798
8 631 632 653 652 778 779 800 799
8 632 633 654 653 779 780 801 800
8 633 634 655 654 780 781 802 801
8 634 635 656 655 781 782 803 802
8 635 636 657 656 782 783 804 803
8 636 637 658 657 783 784 805 804
8 637 638 659 658 784 785 806 805
8 638 639 660 659 785 786 807 806
8 639 640 661 660 786 787 808 807
8 640 641 662 661 787 788 809 808
8 641 642 663 662 788 789 810 809
8 642 643 664 663 789 790 811 810
8 643 644 665 664 790 791 812 811
8 644 645 666 665 791 792 813 812
8 645 646 667 666 792 793 814 813
8 646 647 668 667 793 794 815 814
8 647 648 669 668 794 795 816 815
8 648 649 670 669 795 796 817 816
8 649 650 671 670 796 797 818 817
8 651 652 673 672 798 799 820 819
8 652 653 674 673 799 800 821 820
8 653 654 675 674 800 801 822 821
8 654 655 676 675 801 802 823 822
8 655 656 677 676 802 803 824 823
8 656 657 678 677 803 804 825 824
8 657 658 679 678 804 805 826 825
8 658 659 680 679 805 806 827 826
8 659 660 681 680 806 807 828 827
8 660 661 682 681 807 808 829 828
8 661 662 683 682 808 809 830 829
8 662 663 684 683 809 810 831 830
8 663 664 685 684 810 811 832 831
8 664 665 686 685 811 812 833 832
8 665 666 687 686 812 813 834 833
8 666 667 688 687 813 814 835 834
8 667 668 689 688 814 815 836 835
8 668 669 690 689 815 816 837 836
8 669 670 691 690 816 817 838 837
8 670 671 692 691 817 818 839 838
8 672 673 694 693 819 820 841 840
8 673 674 695 694 820 821 842 841
8 674 675 696 695 821 822 843 842
8 675 676 697 696 822 823 844 843
8 676 677 698 697 823 824 845 844
8 677 678 699 698 824 825 846 845
8 678 679 700 699 825 826 847 846
8 679 680 701 700 826 827 848 847
8 680 681 702 701 827 828 849 848
8 681 682 703 702 828 829 850 849
8 682 683 704 703 829 830 851 850
8 683 684 705 704 830 831 852 851
8 684 685 706 705 831 832 853 852
8 685 686 707 706 832 833 854 853
8 686 687 708 707 833 834 855 854
8 687 688 709 708 834 835 856 855
8 688 689 710 709 835 836 857 856
8 689 690 711 710 836 837 858 857
8 690 691 712 711 837 838 859 858
8 691 692 713 712 838 839 860 859
8 693 694 715 714 840 841 862 861
8 694 695 716 715 841 842 863 862
8 695 696 717 716 842 843 864 863
8 696 697 718 717 843 844 865 864
8 697 698 719 718 844 845 866 865
8 698 699 720 719 845 846 867 866
8 699 700 721 720 846 847 868 867
8 700 701 722 721 847 848 869 868
8 701 702 723 722 848 849 870 869
8 702 703 724 723 849 850 871 870
8 703 704 725 724 850 851 872 871
8 704 705 726 725 851 852 873 872
8 705 706 727 726 852 853 874 873
8 706 707 728 727 853 854 875 874
8 707 708 729 728 854 855 876 875
8 708 709 730 729 855 856 877 876
8 709 710 731 730 856 857 878 877
8 710 711 732 731 857 858 879 878
8 711 712 733 732 858 859 880 879
8 712 713 734 733 859 860 881 880
8 735 736 757 756 882 883 904 903
8 736 737 758 757 883 884 905 904
8 737 738 759 758 884 885 906 905
8 738 739 760 759 885 886 907 906
8 739 740 761 760 886 887 908 907
8 740 741 762 761 887 888 909 908
8 741 742 763 762 888 889 910 909
8 742 743 764 763 889 890 911 910
8 743 744 765 764 890 891 912 911
8 744 745 766 765 891 892 913 912
8 745 746 767 766 892 893 914 913
8 746 747 768 767 893 894 915 914
8 747 748 769 768 894 895 916 915
8 748 749 770 769 895 896 917 916
8 749 750 771 770 896 897 918 917
8 750 751 772 771 897 898 919 918
8 751 752 773 772 898 899 920 919
8 752 753 774 773 899 900 921 920
8 753 754 775 774 900 901 922 921
8 754 755 776 775 901 902 923 922
8 756 757 778 777 903 904 925 924
8 757 758 779 778 904 905 926 925
8 758 759 780 779 905 906 927 926
8 759 760 781 780 906 907 928 927
8 760 761 782 781 907 908 929 928
8 761 762 783 782 908 909 930 929
8 762 763 784 783 909 910 931 930
8 763 764 785 784 910 911 932 931
8 764 765 786 785 911 912 933 932
8 765 766 787 786 912 913 934 933
8 766 767 788 787 913 914 935 934
8 767 768 789 788 914 915 936 935
8 768 769 790 789 915 916 937 936
8 769 770 791 790 916 917 938 937
8 770 771 792 791 917 918 939 938
8 771 772 793 792 918 919 940 939
8 772 773 794 793 919 920 941 940
8 773 774 795 794 920 921 942 941
8 774 775 796 795 921 922 943 942
8 775 776 797 796 922 923 944 943
8 777 778 799 798 924 925 946 945
8 778 779 800 799 925 926 947 946
8 779 780 801 800 926 927 948 947
8 780 781 802 801 927 928 949 948
8 781 782 803 802 928 929 950 949
8 782 783 804 803 929 930 951 950
8 783 784 805 804 930 931 952 951
8 784 785 806 805 931 932 953 952
8 785 786 807 806 932 933 954 953
8 786 787 808 807 933 934 955 954
8 787 788 809 808 934 935 956 955
8 788 789 810 809 935 936 957 956
8 789 790 811 810 936 937 958 957
8 790 791 812 811 937 938 959 958
8 791 792 813 812 938 939 960 959
8 792 793 814 813 939 940 961 960
8 793 794 815 814 940 941 962 961
8 794 795 816 815 941 942 963 962
8 795 796 817 816 942 943 964 963
8 796 797 818 817 943 944 965 964
8 798 799 820 819 945 946 967 966
8 799 800 821 820 946 947 968 967
8 800 801 822 821 947 948 969 968
8 801 802 823 822 948 949 970 969
8 802 803 824 823 949 950 971 970
8 803 804 825 824 950 951 972 971
8 804 805 826 825 951 952 973 972
8 805 806 827 826 952 953 974 973
8 806 807 828 827 953 954 975 974
8 807 808 829 828 954 955 976 975
8 808 809 830 829 955 956 977 976
8 809 810 831 830 956 957 978 977
8 810 811 832 831 957 958 979 978
8 811 812 833 832 958 959 980 979
8 812 813 834 833 959 960 981 980
8 813 814 835 834 960 961 982 981
8 814 815 836 835 961 962 983 982
8 815 816 837 836 962 963 984 983
8 816 817 838 837 963 964 985 984
8 817 818 839 838 964 965 986 985
8 819 820 841 840 966 967 988 987
8 820 821 842 841 967 968 989 988
8 821 822 843 842 968 969 990 989
8 822 823 844 843 969 970 991 990
8 823 824 845 844 970 971 992 991
8 824 825 846 845 971 972 993 992
8 825 826 847 846 972 973 994 993
8 826 827 848 847 973 974 995 994
8 827 828 849 848 974 975 996 995
8 828 829 850 849 975 976 997 996
8 829 830 851 850 976 977 998 997
8 830 831 852 851 977 978 999 998
8 831 832 853 852 978 979 1000 999
8 832 833 854 853 979 980 1001 1000
8 833 834 855 854 980 981 1002 1001
8 834 835 856 855 981 982 1003 1002
8 835 836 857 856 982 983 1004 1003
8 836 837 858 857 983 984 1005 1004
8 837 838 859 858 984 985 1006 1005
8 838 839 860 859 985 986 1007 1006
8 840 841 862 861 987 988 1009 1008
8 841 842 863 862 988 989 1010 1009
8 842 843 864 863 989 990 1011 1010
8 843 844 865 864 990 991 1012 1011
8 844 845 866 865 991 992 1013 1012
8 845 846 867 866 992 993 1014 1013
8 846 847 868 867 993 994 1015 1014
8 847 848 869 868 994 995 1016 1015
8 848 849 870 869 995 996 1017 1016
8 849 850 871 870 996 997 1018 1017
8 850 851 872 871 997 998 1019 1018
8 851 852 873 872 998 999 1020 1019
8 852 853 874 873 999 1000 1021 1020
8 853 854 875 874 1000 1001 1022 1021
8 854 855 876 875 1001 1002 1023 1022
8 855 856 877 876 1002 1003 1024 1023
8 856 857 878 877 1003 1004 1025 1024
8 857 858 879 878 1004 1005 1026 1025
8 858 859 880 879 1005 1006 1027 1026
8 859 860 881 880 1006 1007 1028 1027
CELL_TYPES 720
12
12
12
12
12
12
12
12
12
12
12
12
12
12
12
12
12
12
12
12
12
12
12
12
12
12
12
12
12
12
12
12
12
12
12
12
12
12
12
12
12
12
12
12
12
12
12
12
12
12
12
12
12
12
12
12
12
12
12
12
12
12
12
12
12
12
12
12
12
12
12
12
12
12
12
12
12
12
12
12
12
12
12
12
12
12
12
12
12
12
12
12
12
12
12
12
12
12
12
12
12
12
12
12
12
12
12
12
12
12
12
12
12
12
12
12
12
12
12
12
12
12
12
12
12
12
12
12
12
12
12
12
12
12
12
12
12
12
12
12
12
12
12
12
12
12
12
12
12
12
12
12
12
12
12
12
12
12
12
12
12
12
12
12
12
12
12
12
12
12
12
12
12
12
12
12
12
12
12
12
12
12
12
12
12
12
12
12
12
12
12
12
12
12
12
12
12
12
12
12
12
12
12
12
12
12
12
12
12
12
12
12
12
12
12
12
12
12
12
12
12
12
12
12
12
12
12
12
12
12
12
12
12
12
12
12
12
12
12
12
12
12
12
12
12
12
12
12
12
12
12
12
12
12
12
12
12
12
12
12
12
12
12
12
12
12
12
12
12
12
12
12
12
12
12
12
12
12
12
12
12
12
12
12
12
12
12
12
12
12
12
12
12
12
12
12
12
12
12
12
12
12
12
12
12
12
12
12
12
12
12
12
12
12
12
12
12
12
12
12
12
12
12
12
12
12
12
12
12
12
12
12
12
12
12
12
12
12
12
12
12
12
12
12
12
12
12
12
12
12
12
12
12
12
12
12
12
12
12
12
12
12
12
12
12
12
12
12
12
12
12
12
12
12
12
12
12
12
12
12
12
12
12
12
12
12
12
12
12
12
12
12
12
12
12
12
12
12
12
12
12
12
12
12
12
12
12
12
12
12
12
12
12
12
12
12
12
12
12
12
12
12
12
12
12
12
12
12
12
12
12
12
12
12
12
12
12
12
12
12
12
12
12
12
12
12
12
12
12
12
12
12
12
12
12
12
12
12
12
12
12
12
12
12
12
12
12
12
12
12
12
12
12
12
12
12
12
12
12
12
12
12
12
12
12
12
12
12
12
12
12
12
12
12
12
12
12
12
12
12
12
12
12
12
12
12
12
12
12
12
12
12
12
12
12
12
12
12
12
12
12
12
12
12
12
12
12
12
12
12
12
12
12
12
12
12
12
12
12
12
12
12
12
12
12
12
12
12
12
12
12
12
12
12
12
12
12
12
12
12
12
12
12
12
12
12
12
12
12
12
12
12
12
12
12
12
12
12
12
12
12
12
12
12
12
12
12
12
12
12
12
12
12
12
12
12
12
12
12
12
12
12
12
12
12
12
12
12
12
12
12
12
12
12
12
12
12
12
12
12
12
12
12
12
12
12
12
12
12
12
12
12
12
12
12
12
12
12
12
12
12
12
12
12
12
12
12
12
12
12
12
12
12
12
12
12
12
12
12
12
12
12
12
12
12
12
12
12
12
12
12
12
12
12
12
12
12
12
12
12
12
12
12
12
12
12
12
12
12
12
12
12
12
12
12
12
12
12
12
12
12
12
12
12
12
12
12
12
12
12
12
12
12
12
12
12
12
12
12
12
POINT_DATA 1029
VECTORS Disp float
0.0 0.0 0.0
0.012805047666141774 -0.46433011959500436 0.011114295989834594
0.030835423015859398 -0.8749836162508327 0.023931407442161955
0.05577279995680544 -1.2705446574267247 0.03416652823876391
0.09126023909784732 -1.6402888961373372 0.04344101083989961
0.13779546157576988 -1.975498889953779 0.051109109853430715
0.1951863877654652 -2.2669637017036375 0.056851859626831425
0.26308584644386557 -2.5057759765560794 0.06026129512269416
0.3405659183150581 -2.6832524843389303 0.06105185522726956
0.42532148950898147 -2.7919796809586908 0.05969071469676286
0.5135315183359858 -2.8282090680710024 0.05845882322528962
0.6017728967723573 -2.7925101737448816 0.05973979815961645
0.686628632930662 -2.68432584275057 0.06116724093105944
0.764296858143973 -2.5074147952914263 0.06048106777978664
0.8325072196205382 -2.2691950522411926 0.05724158366805629
0.8903868164880545 -1.9783403294999031 0.05177399809908515
0.9376656650176912 -1.6437239365917613 0.044530184604615525
0.9742613339082977 -1.2744804057819863 0.03593709672479292
1.0008128370257963 -0.8792385090954891 0.026544043023841467
1.0216274066535334 -0.4685617348015578 0.015780629554590295
1.0411148239006784 0.0 -9.009962800672664e-05
0.18223796496168668 -0.019828135838534017 -0.005835553782327813
0.19010341963840416 -0.46226894579289873 0.005822330847033177
0.1964444197236813 -0.8777792401772532 0.015160188523605629
0.21278559017654106 -1.2738287699073603 0.02307425606830628
0.23583944481412392 -1.6450126932760094 0.029697973828195695
0.26627834370549613 -1.9814853261038956 0.03514808614452182
0.30392803862759404 -2.2742250303060803 0.03918685642641132
0.34854960406412216 -2.5142604227063123 0.04162811555118415
0.3995342959548336 -2.6927990770305885 0.042343821690579174
0.45539863038892736 -2.802144052464478 0.04162738779726977
0.5136270767515035 -2.8384085263744674 0.04086535095884536
0.5718886736149472 -2.8026832743019825 0.041610493992012366
0.6278581285317254 -2.693891524431414 0.042324676648137674
0.6790373839911223 -2.5159321303992686 0.04163990697445685
0.7239737326013245 -2.2765085452357807 0.039289667063330626
0.7621048163830929 -1.9844065450340358 0.03543959579092324
0.7932572623346295 -1.64856471498975 0.03033665986258612
0.8173383970687949 -1.2779325607054044 0.0242715270296951
0.8351674624902519 -0.8822753056858481 0.01733085516247251
0.8436300879398128 -0.4668356185782656 0.008995962356788947
0.8526327685187562 -0.02092477021936827 -0.0023534612533287432
0.35428079143216695 -0.03442673993617771 -0.009536352552029255
0.35833654806122817 -0.4615772047975197 -0.0005160641392614666
0.3590442122443033 -0.8784131520270078 0.0061503953616060736
0.3653847944286905 -1.2758127237123462 0.011064698008758249
0.37627500983527057 -1.6477220920425186 0.014824821740926414
0.39092712548013503 -1.9849940531230443 0.017694726966045477
0.4093212759603549 -2.278492689027458 0.019692050339818173
0.4313660405344958 -2.519290344753517 0.020776025076662877
0.4568990229883404 -2.6984865065984684 0.020925936328767682
0.48503973313317583 -2.807963656211475 0.02019338117380801
0.5137028445381071 -2.8436112348654206 0.019367513127362818
0.5423997429286008 -2.80851231327091 0.020110620983935047
0.5706469375722567 -2.699599266910688 0.020772240743992497
0.596374587280782 -2.520996146643424 0.020579473370420837
0.618728318986702 -2.2808285908896737 0.019505933615876814
0.6375834010550966 -1.987992406975267 0.017612337617945752
0.6528979065998739 -1.651384648813981 0.014997732804812742
0.6647109673084205 -1.2800643471492263 0.011732903996691173
0.6722849256764586 -0.8831049362105009 0.007650544070451088
0.6740009355822305 -0.4659828176572087 0.0020131730749346436
0.6785459906698955 -0.03611600832417984 -0.0059930575998963734
0.5212668452032203 -0.04378258730616517 -0.012841560382872905
0.5223567460088376 -0.46169448577417793 -0.006680758612764905
0.5187811764358208 -0.8778863312848282 -0.0029537737610344514
0.5161144841845513 -1.276204716419824 -0.0012176139244633143
0.5146998900121583 -1.6485362944995279 -0.0004919523793616668
0.5137474991527564 -1.986085967121108 -0.00032803278261719123
0.5131026410562225 -2.279868639695403 -0.0005246232704214151
0.5128638420794718 -2.520997865935917 -0.0009732933070924775
0.5133989305628004 -2.7005157611737163 -0.0015733262822848343
0.5144825205722502 -2.8095160438316156 -0.0024429647074637076
0.5137704306327773 -2.843291319909387 -0.003492848073625283
0.5130922708771914 -2.8100745586582043 -0.0025920776266818465
0.514282172384298 -2.7016495095536404 -0.001862711833841955
0.51500926223917 -2.5227382555447586 -0.0013804194664471425
0.5150693453238078 -2.282256266539992 -0.0010030163943638404
0.514857877849584 -1.9891584637439905 -0.0007908223237418845
0.5145045572567315 -1.652300342523347 -0.0007879520849567442
0.5138846507738338 -1.2805912707575657 -0.0011020316107401332
0.512090255236075 -0.8826349519505141 -0.002095506506438591
0.5090531338872931 -0.46592461551858516 -0.004787364206208209
0.5104129604469989 -0.045910467718111664 -0.009854482225789387
0.686884868833311 -0.048790861910710914 -0.016238023865533774
0.6853556150668211 -0.46188172804770145 -0.012534688630630269
0.677816963491573 -0.876597018234444 -0.011908102674258538
0.6668165388376017 -1.2751132153098221 -0.013430614130449551
0.6531952010097484 -1.6474249831174996 -0.01578135103271044
0.6365806139916866 -1.9847852154439798 -0.018332399998596205
0.6169243388181844 -2.278369108512221 -0.020732948034635094
0.5943459129425768 -2.5193776558981726 -0.022731109354906676
0.5697124199851484 -2.6989821574006454 -0.02404919738178317
0.5440709572179844 -2.8070623825037195 -0.024626959547535018
0.5138398392488734 -2.8366627900752377 -0.025569000097068712
0.4836429504676619 -2.807631092750447 -0.0248435225339982
0.4581080698496265 -2.700137419270096 -0.02447672055575891
0.433664609612111 -2.5211529239910777 -0.02335305081734017
0.4113758678289007 -2.2808077022480706 -0.021510441518276035
0.39212550087919124 -1.9879277153746764 -0.019185453275223863
0.37604404063321345 -1.6512825651700551 -0.01656101140352017
0.36306039693883063 -1.279601330900669 -0.013886940369626401
0.35265324266156023 -0.8813559205125012 -0.011687046794354143
0.3454224121912584 -0.4660002849074367 -0.011293802845303463
0.34404053910595017 -0.05119736345380742 -0.01390383269998893
0.8536107132644026 -0.05066476587256062 -0.01989632738345676
0.8500161857028529 -0.46168826755866493 -0.018058249325941408
0.8386665942308108 -0.8746615609373987 -0.020509501603510755
0.8196210860506472 -1.272645064540816 -0.02524081249060099
0.7937491899853647 -1.6443708839267699 -0.03057463284537415
0.7612988930572406 -1.9810606768414596 -0.035722452093964616
0.7223779292565639 -2.274002382833222 -0.040205210022940654
0.6773087530510769 -2.514330172309316 -0.043603775919851956
0.6263962270926481 -2.6937760949240515 -0.04550709491825757
0.5736157913616864 -2.8012973035062037 -0.04485937526390642
0.513921235598553 -2.822523753001559 -0.04397059695989808
0.45426207789549566 -2.801876670572184 -0.04514506321154385
0.40159111493969807 -2.6949536318198644 -0.046076421434867676
0.35087109528383564 -2.516141004112138 -0.0444468397040818
0.3060887733052968 -2.2764915015817975 -0.0412916947333616
0.26755512576519697 -1.9842696704350185 -0.03698056198523177
0.23557707848913842 -1.648309012879127 -0.031859483314172224
0.21019265901093576 -1.2772065606457235 -0.026294318330859046
0.19150719345572972 -0.8794260301899682 -0.020941537555865104
0.18028476311967898 -0.46575171537190757 -0.01746491510262943
0.1767274403211917 -0.05320529967625491 -0.018193456772379237
1.0228165779550074 -0.051046915285839656 -0.02369085329273267
1.0187434463419973 -0.46103890149198234 -0.02326228866583383
1.0043244970698233 -0.8721170574363389 -0.028464313356451117
0.9769360875535116 -1.2687655629971282 -0.03612029762256726
0.9385077374571198 -1.6393138544175672 -0.044136901641366466
0.8898868233786212 -1.9748439635714972 -0.051575786327481915
0.8312415754913299 -2.2666177379932524 -0.057820920265252054
0.7629391591689104 -2.5059561292155927 -0.06229021796608231
0.6856193268728504 -2.683923096769996 -0.06443322757678942
0.599577664835166 -2.7932998864324383 -0.0621499171115381
0.5140267311014216 -2.8 -0.0528153687268652
0.4285141160226288 -2.7938907995218334 -0.06250688748354462
0.3425901221043501 -2.6851245088638374 -0.0651490267410965
0.26547421022748485 -2.5078043605453306 -0.0633622947736677
0.197468798213 -2.269158469787975 -0.05922856047666088
0.13921000655404442 -1.9781170219615825 -0.05325670737288073
0.09102422691690747 -1.6433191321948557 -0.04595102734229049
0.05295717776995327 -1.273372084342922 -0.037798156546757354
0.025673716664490538 -0.8768720452169732 -0.029567567207544464
0.011105386037289918 -0.4650674142282897 -0.023295826782219687
0.00692658135608503 -0.0536158366183621 -0.022545156138848214
0.0 0.0 0.0
0.011977883768818285 -0.4388625473072074 0.007397848897169167
0.03036806129697375 -0.8393123415284505 0.01412952456728614
0.05640054501842772 -1.2239641372339887 0.020385946983444113
0.09233365154580414 -1.58377094112091 0.02521422538470829
0.13853083083026804 -1.9107345010367596 0.028603418187612195
0.19482454208932276 -2.196601238911826 0.030321029918396258
0.2609463319532545 -2.4334436982543575 0.030208206271785717
0.3366344504187627 -2.6135056175549907 0.028339400894480393
0.4215790345298978 -2.7286364146588244 0.025511612474035578
0.5136352806295069 -2.7693841453848953 0.023875896362329663
0.6057022195389403 -2.7288445455286423 0.025528422282680215
0.6906803736482517 -2.613921237286997 0.02838515229610948
0.7664299832092156 -2.4340652990726266 0.03030968074032552
0.8326517369259154 -2.197425417252377 0.030524650341096842
0.8891045092598928 -1.911752104920693 0.02897946485002596
0.9355566942450801 -1.5849576660520435 0.025869197790149255
0.971912626736448 -1.225260744079169 0.021432512687994006
0.9986324495241616 -0.8406024694349772 0.015874492841706615
1.0183803847301347 -0.44009686603419396 0.009410797188144542
1.0335853396550847 0.0 0.008260484427211851
0.1770815508350285 -0.012759830487795795 0.0010903893918090511
0.1842516914090141 -0.43822388787445876 0.0033918070100198813
0.19300784903691126 -0.8421457544606277 0.008821266828918714
0.21049276765437522 -1.2275105178527075 0.01327359146252512
0.23441436138127816 -1.5886448883781434 0.016725493176775182
0.2651818984435811 -1.9168478500969317 0.01903338010323589
0.30267672928759815 -2.2039711849243417 0.020163147021899752
0.3467001896187655 -2.4420603501603213 0.020069274651821886
0.3969758504680324 -2.6233997065812553 0.01885737538027151
0.4531220520660396 -2.739838630667296 0.0169832672833939
0.5136817774184228 -2.7814014431182286 0.01578523321614731
0.5742520129079774 -2.740049032954811 0.016939921679862645
0.6304311067952612 -2.6238200213530622 0.01878013831129602
0.680766529262661 -2.442689458009801 0.019980112882886154
0.7248857489549538 -2.2048065249844355 0.020102117340508267
0.7625291748879308 -1.917882115567087 0.019067904604227748
0.7935301824793246 -1.5898574266325192 0.016955063252094955
0.8178227184537277 -1.228848445779956 0.013862757851471728
0.8359440064590389 -0.8435172120746179 0.009918929048917726
0.8458161422083738 -0.4396329629562339 0.005583828548327462
0.8536256463545387 -0.012979816949652476 0.006251665902781065
0.34713778446744475 -0.022466787690105502 -0.001963117557003483
0.3511129498847387 -0.4381380606194132 -0.00015314590633920457
0.3541652245647179 -0.8431970601001794 0.003413504150827846
0.36217513391767087 -1.2296690423923153 0.006314849858206301
0.374133733916788 -1.5914971518258194 0.008330170768679665
0.38946312711818687 -1.9204528376385266 0.009546699411773097
0.4081624875119742 -2.2083069848952457 0.01001501133339882
0.4300607977824687 -2.447094802735612 0.009778091258044356
0.4548536389681411 -2.6291424410322315 0.00889088233241768
0.4826089758226298 -2.746620815713765 0.007393399877197738
0.5137320280640204 -2.789442842857876 0.006071291918791966
0.5448652900135075 -2.746834525087687 0.007290710727697934
0.5726523288904061 -2.6295694824562235 0.008692614088251846
0.5975018170180986 -2.447734297323856 0.009502060250378745
0.6194883705590588 -2.2091568217492763 0.009697212550011226
0.6383199100856939 -1.9215068398641852 0.009252208344535691
0.6538481652414502 -1.5927371008015516 0.008169006678527147
0.6661163600521383 -1.2310454383214624 0.006455454205237582
0.6746403707957236 -0.8446456464405302 0.004104507397358662
0.6782298473000409 -0.43946313893661293 0.0016686936247827847
0.6824428056946641 -0.022672700610611725 0.0019352075073739857
0.513686937499714 -0.028987369613877843 -0.00607810671921695
0.5150343713802175 -0.43843790164207197 -0.004050225243163549
0.5135600391988985 -0.8431507092234639 -0.0019796397684080204
0.5127694531253558 -1.2303041226327283 -0.0006623363669981597
0.5126228014042469 -1.5924530552927183 -9.098981423005266e-05
0.5125302415726385 -1.921644232552194 -1.730696179717512e-05
0.5124319995292135 -2.209741069019061 -0.00027430148119328646
0.5122642526871822 -2.4486947394673177 -0.0007624020389796225
0.5116543039022192 -2.630885025579651 -0.0014591970429929696
0.5111572943857602 -2.7493738366584086 -0.002721615658666057
0.5137841414026301 -2.7945875221159975 -0.004516599579052923
0.5164208276371516 -2.74959183848477 -0.002883761165371021
0.515954042818388 -2.6313206926001573 -0.0017786731856062258
0.5153968488560566 -2.4493472157005183 -0.0012252548903735672
0.5153081977498173 -2.2106081971958584 -0.0008483214914752164
0.5153220193767527 -1.9227201296046394 -0.0006372540044151293
0.515387355118125 -1.5937199309138768 -0.0006382870929003995
0.5154765371377907 -1.231718898788297 -0.0009426444120724249
0.5150044960182514 -0.8446133882512072 -0.0016848033306420612
0.5137761631265981 -0.43963734703115515 -0.0026705765806296477
0.5152397398848069 -0.029203925731988427 -0.003058624614098744
0.6790924391825943 -0.03270073829568906 -0.010324853877230197
0.6780558177450459 -0.4387064514553825 -0.008105118418793794
0.6724219646966471 -0.8423322777618615 -0.007346438238935579
0.6633446382987096 -1.2295048693921997 -0.007609232420708288
0.6511538759108996 -1.5915130445044658 -0.008485840807892973
0.6356037062681363 -1.9204524523153828 -0.009565675072924017
0.6166781444439362 -2.2083130324377658 -0.010558311501669956
0.5945251355718245 -2.4469601636751563 -0.011298299561666864
0.5687719284899297 -2.6286569140387277 -0.011749522320854118
0.5396949596081652 -2.747937696958128 -0.01244518969407234
0.513837344245634 -2.7976823631082235 -0.014890733259237962
0.4879892212030682 -2.748160977414738 -0.012667906596787943
0.4589410488490746 -2.6291030934193422 -0.012192613383314756
0.43323675254650945 -2.447628164063639 -0.011952063581005451
0.41115368527026 -2.2092001360500793 -0.011394795089444881
0.39231969561236485 -1.9215516883451662 -0.010520351072653885
0.3768855206808802 -1.592806679008966 -0.009430934090064047
0.3648406684120061 -1.2309457554619176 -0.00832148015521201
0.35591724934020824 -0.8437816619874631 -0.007477522170613638
0.35037295730227613 -0.4398084393745997 -0.007196996377878709
0.34939456294747645 -0.03293614932772182 -0.00804418934437446
0.8450183665464452 -0.03429938864746286 -0.01422150872886469
0.841967936348821 -0.43865133803940215 -0.012062445301733381
0.8322950073879521 -0.840833171133032 -0.012644490113407326
0.8151425600726696 -1.227331521786578 -0.014480659934441378
0.7909345917837886 -1.5886420138237052 -0.01679845629748993
0.7598969471244887 -1.9168470038809808 -0.019003914156248098
0.7221539076069393 -2.2039544207683366 -0.020693446234173775
0.6778375037890315 -2.4419383246146125 -0.021577803620221575
0.6276521291074214 -2.622522035221168 -0.021629071279729958
0.5696884541335007 -2.7414336179072163 -0.020955220544542977
0.5138908117950379 -2.799518490552438 -0.023551090934718653
0.45810241854120537 -2.741663227386613 -0.021240580460229547
0.40016646864677546 -2.62298074561775 -0.02220035622222055
0.3500269402356003 -2.4426246292853184 -0.022430515071448328
0.305772871039029 -2.2048644654237997 -0.021805587905668392
0.2681042318315468 -1.917971715474318 -0.0203143482796835
0.2371437645109211 -1.58996053546268 -0.018173309230885306
0.21299734826206956 -1.2287878547128446 -0.01567116106912403
0.19586389051553196 -0.8422649078373317 -0.013262446424293329
0.18616721465053804 -0.4396944477114427 -0.011652209169533054
0.18312285045856994 -0.03454261060032203 -0.012581651837792016
1.0123882577728787 -0.0348100158503012 -0.017212822405486813
1.0082898893939696 -0.43818187084928517 -0.01576583223404023
0.9948289749513345 -0.8386230692285666 -0.017902404041492414
0.9693643356409152 -1.2237146081012134 -0.02137905466655086
0.9330665058656317 -1.5837565466850692 -0.025168437697475874
0.8865553604005183 -1.9107083088977443 -0.028490181929370622
0.8299872470552647 -2.196588249832268 -0.030808969937089873
0.7635510738526933 -2.4332417104699524 -0.03175654455799736
0.6880146951054794 -2.61317042955926 -0.031088040818377446
0.6059300319581866 -2.7282912685065988 -0.028647630768599545
0.5139424722756963 -2.8 -0.027550968600675137
0.4219640244125597 -2.7285283428154887 -0.02899849253264835
0.3399064524854188 -2.6136438914005606 -0.031793922784222425
0.2644139987696462 -2.433949460912375 -0.03281969944590481
0.19803529863113545 -2.197524936271915 -0.03221618113911082
0.1415304105080443 -1.9118617096370705 -0.03018858054665497
0.09506999330569922 -1.5850994722473475 -0.027026184167511128
0.058771496257549696 -1.2251794230079056 -0.023130768276735734
0.03320787521434505 -0.8400348219543069 -0.019111782458605696
0.019586139722001975 -0.439189881667921 -0.01590243994980091
0.01541889819023216 -0.03504267439505603 -0.01608343336792582
0.0 0.0 0.0
0.016628512539652678 -0.42768732325948333 0.0031964154707738537
0.034973769483723424 -0.8210471601983795 0.0059982434166368824
0.0604009610290313 -1.2000051313366864 0.008654637664948294
0.09529840683782648 -1.5554615097469568 0.010537094027289386
0.13981142488017584 -1.8797577371202236 0.01149180015055343
0.19381073723508443 -2.165193544143019 0.01144330686937917
0.2573771865448036 -2.4043714989809035 0.010408318853249297
0.33132839436730005 -2.5896738493867812 0.008605211788436682
0.4172394396479944 -2.711465657757706 0.006664124643583249
0.513661047917597 -2.7557665525619317 0.0057343621912442555
0.6100702228282472 -2.7114163075336264 0.006665913801397241
0.6959420756830115 -2.5895599776877156 0.008616223153509541
0.7698213357650122 -2.4041634164620254 0.010444706150807349
0.8332719079407925 -2.164849133312274 0.01153190105484232
0.8870924447603332 -1.8792284637342616 0.011670729921561667
0.931334963928079 -1.5547050734580603 0.01085524066174865
0.9658192812229487 -1.1990093707634837 0.009163309682866815
0.990630959821388 -0.8198514817705969 0.006824219392659815
1.0077257229205465 -0.42626043723451124 0.004593932590435368
1.0207625935488234 0.0 0.004687239225478766
0.17783997782139685 -0.011034304742960232 0.00011556997934027713
0.18518182132028738 -0.4276199810572173 0.0016403507212681833
0.19488483922931676 -0.8239952113707153 0.003784909298936559
0.21227442919591727 -1.2037479436594505 0.0057188622834258955
0.2357299307077556 -1.560549245802723 0.007113113430168123
0.26559615654735025 -1.886148805255296 0.007822768496909103
0.3017826763074104 -2.1729551782470162 0.007837104381648356
0.3443360779992525 -2.413604094928073 0.0072062529804671
0.3936509373206482 -2.600629140943886 0.00609208081936138
0.4504514721771473 -2.724433235413686 0.004870372692471951
0.5136539840430131 -2.77004165371494 0.00425414477302928
0.5768410983082417 -2.724379636223363 0.004834618100514018
0.633593702691845 -2.6005056643050772 0.006025910441372075
0.6828227717807132 -2.4133786260490515 0.007121878629583906
0.7252430865081468 -2.172581425839037 0.0077561827439613104
0.7612347175069789 -1.8855714649575495 0.007779473011687311
0.7908212223069322 -1.5597158687932375 0.007154844651555015
0.8138817304500745 -1.202631854309783 0.00591754583048136
0.8306692221711165 -0.8226009903253276 0.004247480802017547
0.8393646590847385 -0.4258638156492731 0.0029145640776399974
0.8462896989731865 -0.010489249340980649 0.0037199055388190076
0.3459160925421103 -0.019021523785327357 -0.0011083790593362655
0.3496918738540061 -0.4274385608031025 -6.395915431677479e-05
0.35324727041453613 -0.8253451516957542 0.0014025329041936017
0.3616630279777963 -1.2061200918890647 0.002688962235843688
0.37367507774893893 -1.5636498280211955 0.0035559793182426106
0.38881159214995764 -1.8900510597137632 0.003954449984642628
0.40706862568247165 -2.1776716566626337 0.003916740520595572
0.4283429838932201 -2.419141061013749 0.003507280559417957
0.4525639758982144 -2.607120447120731 0.0028126397316224757
0.4805747130266438 -2.7325643158363797 0.0019860758580704675
0.5136511953612957 -2.780156179984666 0.0014899526022241275
0.5467096043691609 -2.7325081542067506 0.0019137322593722125
0.5746646079347715 -2.6069909141597045 0.002671697256347784
0.5987877453551929 -2.4189040262685193 0.003307167257061324
0.619914981087306 -2.177277377144089 0.003676371152989354
0.6379655690021555 -1.8894385363902508 0.003707266193601297
0.6528228068236027 -1.5627576315439784 0.003356755938880829
0.6644617024713491 -1.204910434145974 0.0026216320649851714
0.6723575106298942 -0.8237841009264698 0.0016316245631072253
0.6755099402876393 -0.4256817986068355 0.0009823367187582082
0.6792751445490961 -0.018204079811408112 0.0015999082743432809
0.5101597273427746 -0.02438130823345614 -0.003045519145590832
0.5112803354364547 -0.4274441763303736 -0.001935952382421387
0.5101352660240355 -0.8254767309467027 -0.0010260097804526802
0.509960152846553 -1.206928188201867 -0.00036521856281075525
0.5103745329334342 -1.564750914543843 -2.4587891479840737e-05
0.5107457162812105 -1.8913975759735866 3.518774823284058e-05
0.5109939892919634 -2.1792765918543258 -0.000103794372563507
0.5109597936920728 -2.4208898098197587 -0.00037169261318910937
0.510071111249716 -2.609026492242903 -0.0007554555763000777
0.5093988077233893 -2.736104743005348 -0.0013039165878442791
0.5136507212348326 -2.787339807953485 -0.0017496400367592048
0.5178819697819673 -2.7360478055646698 -0.001412738372690863
0.5171463962651011 -2.608894665435913 -0.0009707582103820869
0.5161483198510185 -2.4206473751131092 -0.0006863299724666689
0.5159537729056176 -2.1788711248618573 -0.00050074714492765
0.5159858755987825 -1.8907633653179796 -0.00040926867434995474
0.516081395381742 -1.5638198035172277 -0.0004533572337857487
0.516151971307616 -1.2056467717960686 -0.0006716043661241977
0.515614358869941 -0.8238485631919715 -0.0010041073822619124
0.5143140888312612 -0.42573872759213094 -0.0011577918544050077
0.5155084006378978 -0.02332395744315359 -0.001003166210500283
0.6731526913958643 -0.027453600836798295 -0.005184052656711759
0.671912045128054 -0.4274389610490197 -0.0038563212542980937
0.6665541648451256 -0.8247161662920975 -0.0034499876430350634
0.6582582706665034 -1.2061984541663298 -0.003410417171240662
0.6470959353435715 -1.5638238082934566 -0.0035943893875856753
0.6326730026521282 -1.8901702354610772 -0.0038760582827604864
0.6148666070110966 -2.1777584539841115 -0.004119741708045096
0.5936684541045221 -2.418925284791605 -0.004245484759208859
0.568156541381835 -2.6063245165802043 -0.004300501945904365
0.5384254619077693 -2.734738262405445 -0.0045221878159218635
0.5136502927098856 -2.7925921080232405 -0.004872917211817179
0.4888517324819593 -2.734682371239463 -0.004668206993896763
0.4590494254266498 -2.606194232029191 -0.0045916927818835055
0.4334157796262851 -2.4186837372799372 -0.004677190116992238
0.41204270628833845 -2.177351253044979 -0.004677128741837089
0.39400865485185604 -1.8895285784402498 -0.00452354312803677
0.3793113947713315 -1.5628728066001536 -0.004260210525294129
0.3678486887713593 -1.204881216802625 -0.003963640593545828
0.3593046582389952 -0.8230737715525984 -0.003658266112937235
0.3538869830093318 -0.4257699126021173 -0.003359899319987718
0.3527303742214805 -0.02621359384555157 -0.003666000555967275
0.836580093411395 -0.028804988874943614 -0.007072507130077691
0.8333377502641222 -0.4272083840746163 -0.0056361336941593366
0.823926768507236 -0.8231997014350303 -0.005815628543689516
0.8077494372273674 -1.2040044125133205 -0.006412854941936215
0.7850612189095802 -1.5608615713849976 -0.007119130504304091
0.7558588514577362 -1.886383951413165 -0.00772094647958494
0.7200847902656072 -2.1730901406495535 -0.008025538921745415
0.6776124696634055 -2.413419803563793 -0.007932812457034838
0.6287846727929268 -2.599249297048108 -0.007528152478488933
0.5699277020293622 -2.7273275708078524 -0.007233453569163096
0.5136476395483316 -2.796839947434579 -0.007293348936945631
0.45734110961556096 -2.72727451615157 -0.007418224897768676
0.39840384409879664 -2.599124331249824 -0.007898716690232479
0.34943989909401485 -2.413185308410134 -0.00848785402463097
0.30677466817845933 -2.1726905792079134 -0.008754001057826546
0.27075560192204445 -1.8857486054306292 -0.008589160292464693
0.2412745222111776 -1.5599122949166433 -0.008050286333081164
0.21832090812519153 -1.2026854639690323 -0.007256519396792917
0.20197504022310725 -0.8215697613724164 -0.006313324042707053
0.19255675555124258 -0.42555757187198373 -0.00544247032480802
0.1894012244810724 -0.02745004203734074 -0.005983047504412448
1.001426865478401 -0.02928685710390645 -0.008130759089095947
0.9971105712910082 -0.42666326145764916 -0.007097724317148308
0.9839135077514499 -0.8209685425329413 -0.008026551292340851
0.9597034395870517 -1.200374258304449 -0.009287904276112847
0.9254911323069097 -1.5559089180209416 -0.010494457102617566
0.8816006444133727 -1.8800769104887096 -0.011351274931892866
0.827965587620179 -2.1654080863677962 -0.011605790331295648
0.7644512709359289 -2.4041413359545762 -0.011120166909330301
0.6914098100020498 -2.5891332161460068 -0.010010451549803467
0.6105097677835454 -2.7120398117214295 -0.008855273698391447
0.5136408118875068 -2.8 -0.00831479932125308
0.4167417641470508 -2.711991280118088 -0.009081235431005252
0.33575061294397374 -2.589017130126702 -0.010465924818020476
0.2625553457323646 -2.403919745960101 -0.011808697905050678
0.19882465955637962 -2.1650249815811637 -0.012522936929582859
0.14491822315486427 -1.8794610439595418 -0.012470244716951202
0.10072938283090807 -1.5549825589443595 -0.011741711014958033
0.06626322125128573 -1.1990852995312902 -0.010503278224826166
0.04195313061217859 -0.8193776643574574 -0.008917890620759462
0.028835192423319247 -0.42503174248316805 -0.007259270798807633
0.02463673735939242 -0.02787694830399217 -0.007360929215059675
0.0 0.0 0.0
0.017639450433717816 -0.42468755089079796 -2.6621581476314755e-14
0.03608598336204486 -0.8158405235964836 -5.00300264011952e-14
0.06122989646803079 -1.1930619204067625 -7.232934078746846e-14
0.09560881629907779 -1.547399813743002 -9.418668716507954e-14
0.13944250744009837 -1.8713058911673377 -1.1746583113867885e-13
0.19266332110462112 -2.1572323564238562 -1.46610730616463e-13
0.25554501256107565 -2.3978604118283706 -1.799102065029826e-13
0.32926646302867335 -2.585373042892811 -2.095929308058937e-13
0.41578664563322715 -2.7093990792965426 -2.349380644790652e-13
0.5136467598609328 -2.7547247026192587 -2.6290582056367573e-13
0.6114845915177932 -2.709250226788133 -2.9308150086573156e-13
0.6979348070117553 -2.5850535329805036 -3.191218993190278e-13
0.7715284139823821 -2.3973274558934494 -3.320771200269331e-13
0.8342041938190545 -2.156425316741906 -3.564394113287122e-13
0.8871045731849737 -1.8701564552593704 -3.7768319119080127e-13
0.9304429980441077 -1.5458546270004254 -4.210297767667083e-13
0.9640553951440813 -1.1911256830064798 -4.677749033840495e-13
0.9880229803840657 -0.8136054508847702 -5.18546903659228e-13
1.0045094304429427 -0.42231346926948254 -5.699641445766359e-13
1.0169998060938246 0.0 -6.073972320733696e-13
0.1777795871333052 -0.010669561876116049 -5.541152155209281e-15
0.18515513020608676 -0.4248257038695225 -2.4156935323340764e-14
0.19521116956509849 -0.8188459682630997 -4.6847286166580375e-14
0.2125050708735198 -1.1968704272712323 -7.010256762835623e-14
0.2356981724071634 -1.5525534706291577 -9.416033218742063e-14
0.2651886527453595 -1.8777905369052939 -1.19333082191057e-13
0.30094379135670596 -2.1651435849777183 -1.4724572418057207e-13
0.3431336109690389 -2.407340153405401 -1.7801272212672748e-13
0.39236289861656576 -2.5967148442873533 -2.0789701232674867e-13
0.4495581221779561 -2.7228970734513456 -2.385599978325157e-13
0.5136197342556112 -2.7696049721549154 -2.6641998103906115e-13
0.577654889227729 -2.7227411937216734 -2.9816639730505195e-13
0.6347678662245317 -2.5963795995960885 -3.2921272284521074e-13
0.6838500132865104 -2.406779011150612 -3.521421489268818e-13
0.7258107091215417 -2.164289389355494 -3.811242264176921e-13
0.7612258847020034 -1.8765639889615355 -4.104945086114536e-13
0.790218165511796 -1.5508859508961206 -4.4800109192996096e-13
0.8126823721979791 -1.194740002290823 -4.905004027274303e-13
0.8288916281520116 -0.8163167849529435 -5.354695388210613e-13
0.8373472455311975 -0.4219337782803976 -5.801121818596166e-13
0.8440132461360961 -0.010055959697036055 -6.125197923661185e-13
0.34525989057949563 -0.018561292711666462 -6.143646204776695e-15
0.3489941233982976 -0.4246454001463221 -2.3628339852900146e-14
0.3527842398241764 -0.8202609407472007 -4.4746804146223737e-14
0.3612833850893722 -1.1992646522783916 -6.910318764292202e-14
0.3732460523910185 -1.5556722438544328 -9.401966615818289e-14
0.38827227619525195 -1.881714552345831 -1.209938157282123e-13
0.40638611381566875 -2.1699036200759965 -1.4971591774025416e-13
0.42754034606992153 -2.412960845647296 -1.7754476415415846e-13
0.4517553380382463 -2.6033480511491303 -2.1168504994466112e-13
0.4799824444996199 -2.7312294313207537 -2.4281828547197557e-13
0.513597238476013 -2.77999028350736 -2.718601861037015e-13
0.547181916833986 -2.731068536141824 -3.073385969176092e-13
0.5753162230089927 -2.6030014043353757 -3.404170495890002e-13
0.5993682900603087 -2.4123789495496633 -3.7160587272150663e-13
0.6202766106585624 -2.1690140765016395 -4.042778768469675e-13
0.6380414881539738 -1.8804296152560422 -4.375235941909351e-13
0.6525838248857478 -1.5539082411160272 -4.728436419834444e-13
0.6638807249086973 -1.1969866051760423 -5.109919867762729e-13
0.6714673933212612 -0.8174817779090098 -5.517930343180048e-13
0.6745481413911558 -0.42175608891116245 -5.912334274756406e-13
0.6781809856178336 -0.017463652494393918 -6.247612849692491e-13
0.508769189440412 -0.023867338070478035 -5.3268638960962445e-15
0.509880276937816 -0.4246310487886554 -2.2707358626535912e-14
0.5089322878390201 -0.8204314590099462 -4.345319468689511e-14
0.5089436519670686 -1.2001064250041154 -6.877970682325628e-14
0.509507359027256 -1.5567936404662162 -9.409610332669812e-14
0.5100133741229438 -1.8830794100798973 -1.2243735429484686e-13
0.5103827550213859 -2.171529486777376 -1.516714193023555e-13
0.5104448903748193 -2.4147353869156722 -1.8063933746227778e-13
0.5096152356836572 -2.605289704838265 -2.1542183085785283e-13
0.5090007001680354 -2.7348226168537475 -2.4812139989492126e-13
0.5135768021779977 -2.7873179443881173 -2.791549922623714e-13
0.5181192990662127 -2.7346588221919315 -3.1739939271714115e-13
0.5174019901632503 -2.6049362182944864 -3.505204956183748e-13
0.5163948350599011 -2.4141404761684804 -3.891278514000143e-13
0.5161965054814359 -2.17061701099595 -4.2523317733507837e-13
0.5162120433243648 -1.8817546451210831 -4.607448671726143e-13
0.5162577873279908 -1.554962812407524 -4.955662460016284e-13
0.516233093765911 -1.197714396169255 -5.304505170751401e-13
0.5156095044300895 -0.8175532743416245 -5.677444791855514e-13
0.5143492979034822 -0.42181838428710583 -6.037096020812515e-13
0.5155089478255183 -0.02236382409351076 -6.391779696991492e-13
0.6709350371476708 -0.026904299379444982 -4.1271967033957404e-15
0.6697564412917891 -0.4246076015820833 -2.162714568241673e-14
0.664625463184794 -0.8196997883277899 -4.284700931597099e-14
0.6566149645647464 -1.1994165859905417 -6.734777257644329e-14
0.6457879792642058 -1.5558976666451203 -9.390711060536247e-14
0.6317450253027181 -1.8818742847658387 -1.224809536489252e-13
0.6143236776277853 -2.170021059817641 -1.538983101666262e-13
0.5934464634258444 -2.412757232900767 -1.841474719906299e-13
0.5680766845786944 -2.6025446109801873 -2.1904984473882745e-13
0.5382232678352814 -2.7333958358159762 -2.534074168638148e-13
0.5135560335913607 -2.7926378537033356 -2.8706738063899647e-13
0.4888515271156861 -2.7332312942743906 -3.2564827244540883e-13
0.45888480260857006 -2.6021889059072016 -3.633430010643023e-13
0.43332189726772 -2.412157160447352 -4.0511165656963616e-13
0.41216779835359285 -2.169097989249711 -4.446335154183875e-13
0.39438555427682787 -1.8805293901595466 -4.848552286559758e-13
0.37990354960630635 -1.5540279992101762 -5.176424591315089e-13
0.3685858215309294 -1.196964590949091 -5.505086870021435e-13
0.36015346590871267 -0.8168016564439986 -5.83146326206775e-13
0.35488815518318206 -0.4218534979651932 -6.162839690113923e-13
0.35379829393692397 -0.025109741378402013 -6.536944147259262e-13
0.833466580342079 -0.028237691373423208 -2.874213972756984e-15
0.8303820204090745 -0.4243593355316615 -2.0550146929196168e-14
0.821276380815414 -0.81820794461915 -4.180483632385495e-14
0.8055053922780988 -1.1972630491227232 -6.598673452410689e-14
0.783350927539691 -1.5529709809786283 -9.421558396681481e-14
0.7547903517130243 -1.8781073050054182 -1.2570642983651543e-13
0.7196919241219999 -2.1653394912504886 -1.5423248314279847e-13
0.677793016398062 -2.4071904895298424 -1.8518466706646104e-13
0.6292472856001903 -2.5953288411752005 -2.2356300801933027e-13
0.570036653464444 -2.72577950837061 -2.5542023063116633e-13
0.5135325313507868 -2.7968887410637246 -2.9291430029579004e-13
0.45698694189157074 -2.7256163312385278 -3.3102871041225335e-13
0.39765076886513795 -2.5949754576015733 -3.737712885980045e-13
0.3488929844984325 -2.4065929003238056 -4.1990074221499546e-13
0.3066950957983613 -2.1644179997002713 -4.636862592390236e-13
0.2712188248056911 -1.8767613127163052 -5.069385312427533e-13
0.2422298534213818 -1.551094480163329 -5.416688293710427e-13
0.21966719262833356 -1.1948031375671597 -5.714010193665022e-13
0.20363447590434552 -0.8153306916606032 -5.994942466535749e-13
0.19451035827071958 -0.42163963603733295 -6.274968629950192e-13
0.19154295348539402 -0.026268369119813926 -6.662256878605573e-13
0.997357740065552 -0.02867841797345344 -1.4265392265597066e-15
0.9932922766367042 -0.42376889848885707 -1.9408738030979738e-14
0.9805022975755054 -0.8159736080110628 -3.964597191246696e-14
0.9568624190415478 -1.1936386825525247 -6.372157861961388e-14
0.923424846882574 -1.548007253167238 -9.496085637919807e-14
0.880481869516953 -1.8717496236193558 -1.2961343574635939e-13
0.8278689533210596 -2.1575401833279413 -1.5242573305599034e-13
0.765258580776096 -2.3976858239143004 -1.8582620800081254e-13
0.6926516380777241 -2.584866280249205 -2.186298739414801e-13
0.6113321820404963 -2.7099192087983432 -2.555615528524067e-13
0.5135037869814137 -2.8 -2.9500599312597657e-13
0.4156288474478019 -2.7097594041741533 -3.3408868746754254e-13
0.334168750832964 -2.5845195287462115 -3.7792706006363185e-13
0.26132531893369887 -2.3970980092984 -4.3427695438150755e-13
0.19838421887963276 -2.1566317467882126 -4.841974676772047e-13
0.14536006475402433 -1.8704208879193691 -5.352945211264482e-13
0.10197170314032711 -1.5461559675486358 -5.688722072784055e-13
0.068168737768101 -1.1912217497404072 -5.960722583136803e-13
0.04441279088918962 -0.8131625000299563 -6.167732352146097e-13
0.031780103850386966 -0.42108868639670666 -6.370457600668842e-13
0.02790410396442461 -0.026630199398877643 -6.735616942008511e-13
0.0 0.0 0.0
0.016628512539701445 -0.4276873232595069 -0.0031964154708277828
0.034973769483798205 -0.8210471601984168 -0.005998243416733399
0.06040096102912611 -1.2000051313367062 -0.008654637665090354
0.09529840683792898 -1.555461509746946 -0.01053709402747732
0.13981142488027898 -1.8797577371202117 -0.01149180015079228
0.19381073723519152 -2.1651935441430075 -0.011443306869660013
0.2573771865449219 -2.4043714989808986 -0.010408318853567118
0.33132839436742806 -2.5896738493867826 -0.008605211788813193
0.41723943964813137 -2.7114656577576652 -0.0066641246440312185
0.5136610479177488 -2.755766552561895 -0.005734362191750192
0.6100702228284218 -2.711416307533584 -0.006665913801959946
0.6959420756832096 -2.5895599776875957 -0.008616223154120924
0.7698213357652206 -2.4041634164618237 -0.01044470615147087
0.8332719079409965 -2.1648491333120234 -0.011531901055559617
0.8870924447605041 -1.8792284637339394 -0.011670729922344407
0.9313349639282031 -1.554705073457784 -0.010855240662603233
0.9658192812230539 -1.1990093707632512 -0.00916330968380574
0.9906309598214755 -0.819851481770421 -0.006824219393697357
1.007725722920621 -0.42626043723440893 -0.004593932591571708
1.0207625935488793 0.0 -0.004687239226687444
0.17783997782144068 -0.011034304742963012 -0.00011556997935202575
0.18518182132034225 -0.4276199810572462 -0.001640350721317404
0.19488483922938926 -0.8239952113707552 -0.003784909299032092
0.21227442919600442 -1.2037479436594682 -0.005718862283567331
0.2357299307078535 -1.5605492458027206 -0.007113113430357875
0.2655961565474536 -1.8861488052552797 -0.007822768497150585
0.3017826763075176 -2.1729551782470113 -0.007837104381937184
0.34433607799936855 -2.413604094928077 -0.007206252980804317
0.393650937320768 -2.600629140943891 -0.006092080819759267
0.4504514721772773 -2.724433235413666 -0.004870372692933268
0.5136539840431634 -2.7700416537149106 -0.0042541447735521
0.5768410983084016 -2.724379636223325 -0.004834618101097353
0.6335937026920168 -2.600505664304981 -0.00602591044200964
0.6828227717809012 -2.413378626048854 -0.0071218786302847115
0.7252430865083243 -2.1725814258387954 -0.007756182744720711
0.7612347175071422 -1.8855714649572006 -0.007779473012518251
0.7908212223070743 -1.5597158687929578 -0.0071548446524571825
0.8138817304501991 -1.2026318543095456 -0.005917545831463393
0.8306692221712302 -0.8226009903251504 -0.00424748080309005
0.8393646590848439 -0.4258638156491706 -0.002914564078797513
0.8462896989732873 -0.010489249340968813 -0.003719905540039963
0.34591609254217087 -0.019021523785332818 0.0011083790593229051
0.34969187385407274 -0.4274385608031322 6.39591542689844e-05
0.3532472704146083 -0.8253451516957918 -0.0014025329042865297
0.36166302797787997 -1.20612009188909 -0.002688962235985025
0.3736750777490308 -1.5636498280211928 -0.003555979318433544
0.3888115921500546 -1.890051059713744 -0.003954449984885865
0.4070686256825764 -2.1776716566626293 -0.0039167405208926104
0.42834298389332737 -2.4191410610137556 -0.003507280559772639
0.4525639758983254 -2.6071204471207357 -0.0028126397320363014
0.4805747130267712 -2.7325643158363624 -0.0019860758585496254
0.5136511953614361 -2.7801561799846417 -0.0014899526027667398
0.5467096043693053 -2.7325081542067013 -0.001913732259976405
0.5746646079349252 -2.606990914159626 -0.002671697257014108
0.5987877453553581 -2.418904026268325 -0.003307167257796738
0.6199149810874712 -2.177277377143851 -0.00367637115379053
0.6379655690023189 -1.8894385363899144 -0.0037072661944763208
0.6528228068237539 -1.5627576315436906 -0.003356755939826137
0.6644617024714923 -1.2049104341457375 -0.0026216320660093586
0.6723575106300255 -0.8237841009262896 -0.0016316245642120672
0.6755099402877738 -0.4256817986067341 -0.0009823367199394526
0.6792751445492256 -0.01820407981138654 -0.0015999082755890678
0.510159727342845 -0.02438130823346493 0.0030455191455791256
0.5112803354365273 -0.42744417633040177 0.001935952382374395
0.5101352660241083 -0.825476730946736 0.001026009780362257
0.5099601528466334 -1.206928188201889 0.00036521856267128234
0.510374532933521 -1.564750914543842 2.458789128799003e-05
0.5107457162813009 -1.8913975759735717 -3.5187748481252875e-05
0.5109939892920603 -2.1792765918543173 0.00010379437225817822
0.5109597936921735 -2.420889809819751 0.0003716926128239669
0.5100711112498226 -2.6090264922429287 0.0007554555758681904
0.5093988077235089 -2.736104743005343 0.0013039165873506707
0.513650721234961 -2.7873398079534515 0.0017496400361947575
0.5178819697820964 -2.736047805564634 0.001412738372064883
0.5171463962652415 -2.6088946654358534 0.000970758209686748
0.5161483198511615 -2.4206473751129303 0.0006863299716962445
0.5159537729057655 -2.1788711248616397 0.0005007471440848449
0.5159858755989378 -1.8907633653176503 0.0004092686734317021
0.516081395381903 -1.563819803516944 0.0004533572327963508
0.5161519713077721 -1.2056467717958212 0.0006716043650601628
0.5156143588700949 -0.8238485631917947 0.001004107381125208
0.5143140888314174 -0.4257387275920301 0.0011577918531987918
0.5155084006380558 -0.02332395744312613 0.0010031662092242902
0.6731526913959394 -0.027453600836810775 0.005184052656703093
0.6719120451281277 -0.4274389610490421 0.0038563212542528256
0.6665541648451975 -0.8247161662921277 0.003449987642946396
0.6582582706665798 -1.2061984541663542 0.0034104171711023855
0.6470959353436535 -1.5638238082934546 0.003594389387393504
0.6326730026522097 -1.890170235461055 0.0038760582825068655
0.6148666070111859 -2.177758453984106 0.004119741707733253
0.5936684541046188 -2.418925284791604 0.0042454847588309945
0.5681565413819423 -2.606324516580232 0.00430050194546154
0.5384254619078783 -2.7347382624054495 0.004522187815413428
0.5136502927100032 -2.7925921080232095 0.004872917211231237
0.4888517324820832 -2.7346823712394355 0.004668206993246646
0.4590494254267713 -2.6061942320291225 0.004591692781158025
0.43341577962641165 -2.418683737279771 0.004677190116186554
0.41204270628847117 -2.17735125304476 0.004677128740952238
0.3940086548520052 -1.889528578439927 0.0045235431270756465
0.3793113947714954 -1.5628728065998678 0.004260210524260389
0.3678486887715273 -1.2048812168023717 0.003963640592441529
0.3593046582391702 -0.8230737715524223 0.003658266111769272
0.3538869830095122 -0.4257699126020182 0.0033598993187559396
0.3527303742216627 -0.02621359384552037 0.003666000554660687
0.8365800934114703 -0.028804988874958533 0.007072507130072754
0.8333377502641962 -0.42720838407463385 0.005636133694116223
0.823926768507308 -0.8231997014350585 0.005815628543603583
0.8077494372274377 -1.2040044125133462 0.006412854941799309
0.7850612189096557 -1.5608615713849892 0.007119130504112288
0.7558588514578161 -1.8863839514131326 0.007720946479331815
0.7200847902656949 -2.17309014064956 0.008025538921427995
0.6776124696635041 -2.413419803563784 0.007932812456644376
0.6287846727930327 -2.599249297048142 0.007528152478035984
0.5699277020294642 -2.7273275708078497 0.0072334535686404125
0.5136476395484424 -2.7968399474345653 0.007293348936342598
0.4573411096156722 -2.727274516151533 0.007418224897095522
0.398403844098903 -2.5991243312497723 0.007898716689477173
0.34943989909412265 -2.413185308409967 0.008487854023788795
0.30677466817857546 -2.1726905792077003 0.008754001056899462
0.2707556019221845 -1.8857486054303234 0.008589160291456014
0.2412745222113458 -1.5599122949163549 0.008050286332002235
0.21832090812537563 -1.2026854639687803 0.0072565193956483885
0.2019750402233056 -0.8215697613722405 0.006313324041506913
0.19255675555144752 -0.42555757187188725 0.005442470323551866
0.18940122448127975 -0.027450042037307776 0.005983047503079218
1.0014268654784761 -0.0292868571039228 0.008130759089093767
0.9971105712910856 -0.42666326145766303 0.007097724317108645
0.9839135077515228 -0.8209685425329691 0.008026551292258138
0.9597034395871158 -1.2003742583044723 0.00928790427597783
0.9254911323069774 -1.5559089180209331 0.010494457102426467
0.8816006444134519 -1.8800769104886854 0.011351274931643025
0.8279655876202668 -2.1654080863677954 0.011605790330971125
0.7644512709360285 -2.4041413359545665 0.011120166908929877
0.6914098100021548 -2.5891332161460348 0.010010451549336254
0.6105097677836383 -2.712039811721421 0.008855273697856863
0.5136408118876082 -2.8 0.008314799320643242
0.41674176414715114 -2.711991280118047 0.00908123543030945
0.3357506129440572 -2.5890171301266474 0.0104659248172309
0.26255534573244216 -2.4039197459599446 0.01180869790417238
0.1988246595564736 -2.1650249815809497 0.012522936928613627
0.14491822315498998 -1.8794610439592514 0.0124702447158953
0.10072938283108258 -1.5549825589440747 0.01174171101383072
0.0662632212514925 -1.199085299531043 0.01050327822364094
0.041953130612404986 -0.8193776643572827 0.008917890619526586
0.028835192423551773 -0.42503174248307124 0.0072592707975280765
0.02463673735962503 -0.027876948303959495 0.00736092921371046
0.0 0.0 0.0
0.011977883768921584 -0.43886254730725693 -0.0073978488972320875
0.03036806129712634 -0.8393123415284817 -0.014129524567399573
0.05640054501860822 -1.2239641372339982 -0.020385946983604172
0.09233365154601315 -1.5837709411209084 -0.025214225384910343
0.1385308308305075 -1.9107345010367245 -0.02860341818785127
0.19482454208959413 -2.19660123891175 -0.03032102991866754
0.26094633195351774 -2.43344369825418 -0.030208206272099934
0.33663445041899964 -2.6135056175547886 -0.02833940089484209
0.42157903453016093 -2.7286364146586974 -0.025511612474459943
0.5136352806298132 -2.769384145384715 -0.02387589636280738
0.6057022195392763 -2.728844545528458 -0.025528422283220227
0.6906803736486234 -2.6139212372867138 -0.028385152296703298
0.7664299832095888 -2.434065299072261 -0.03030968074098201
0.832651736926267 -2.1974254172519156 -0.030524650341818043
0.8891045092602087 -1.9117521049201989 -0.02897946485081818
0.9355566942453475 -1.5849576660515197 -0.025869197791007353
0.9719126267366596 -1.2252607440787229 -0.021432512688936693
0.9986324495243262 -0.8406024694346216 -0.015874492842743837
1.0183803847302715 -0.4400968660339706 -0.00941079718928106
1.0335853396551864 0.0 -0.008260484428418908
0.1770815508351155 -0.012759830487803644 -0.0010903893918225425
0.18425169140912318 -0.43822388787451383 -0.0033918070100767833
0.19300784903705723 -0.8421457544606631 -0.008821266829026451
0.2104927676545506 -1.2275105178527195 -0.013273591462680081
0.23441436138147734 -1.588644888378147 -0.016725493176974054
0.2651818984438036 -1.9168478500969122 -0.01903338010347839
0.30267672928783873 -2.2039711849242716 -0.020163147022185742
0.34670018961900745 -2.4420603501601255 -0.02006927465215511
0.39697585046827977 -2.6233997065810453 -0.018857375380656505
0.45312205206630385 -2.7398386306671774 -0.016983267283840385
0.5136817774187175 -2.7814014431180576 -0.015785233216657684
0.5742520129082961 -2.7400490329546248 -0.016939921680432003
0.630431106795597 -2.6238200213527847 -0.018780138311925536
0.6807665292630015 -2.4426894580094203 -0.019980112883578368
0.7248857489552816 -2.2048065249839706 -0.020102117341268697
0.7625291748882331 -1.9178821155665908 -0.019067904605058632
0.7935301824796019 -1.589857426632001 -0.016955063252998368
0.817822718453969 -1.228848445779493 -0.01386275785245756
0.8359440064592486 -0.8435172120742606 -0.009918929049988708
0.8458161422085799 -0.43963296295601373 -0.00558382854948626
0.8536256463547282 -0.012979816949621156 -0.0062516659040001595
0.34713778446756544 -0.022466787690117784 0.001963117556987931
0.3511129498848667 -0.4381380606194675 0.00015314590628482855
0.35416522456486194 -0.8431970601002222 -0.003413504150930607
0.3621751339178395 -1.2296690423923304 -0.006314849858356475
0.3741337339169757 -1.591497151825827 -0.008330170768877676
0.38946312711839515 -1.9204528376385088 -0.00954669941202004
0.4081624875121926 -2.208306984895172 -0.010015011333696873
0.4300607977826972 -2.447094802735429 -0.009778091258392529
0.45485363896838543 -2.629142441032032 -0.008890882332822453
0.4826089758228857 -2.7466208157136465 -0.0073933998776642045
0.5137320280642992 -2.789442842857711 -0.0060712919193327995
0.5448652900138086 -2.7468345250875106 -0.007290710728296036
0.5726523288907133 -2.6295694824559286 -0.008692614088914457
0.5975018170184052 -2.4477342973234912 -0.009502060251107
0.6194883705593636 -2.2091568217488 -0.009697212550810722
0.6383199100859898 -1.9215068398636843 -0.009252208345407503
0.6538481652417366 -1.5927371008010378 -0.008169006679476041
0.666116360052405 -1.2310454383209843 -0.006455454206262477
0.6746403707959809 -0.8446456464401798 -0.004104507398462173
0.6782298473002977 -0.43946313893639133 -0.0016686936259646468
0.6824428056949114 -0.02267270061055788 -0.001935207508619247
0.5136869374998528 -0.02898736961389496 0.006078106719205529
0.5150343713803566 -0.43843790164211993 0.004050225243111718
0.513560039199045 -0.8431507092235095 0.0019796397683108083
0.5127694531255144 -1.2303041226327498 0.0006623363668517927
0.5126228014044231 -1.59245305529273 9.098981403262518e-05
0.5125302415728307 -1.9216442325521743 1.730696154599048e-05
0.5124319995294193 -2.209741069018993 0.0002743014808872921
0.5122642526873971 -2.448694739467155 0.0007624020386143535
0.5116543039024515 -2.6308850255794627 0.0014591970425707004
0.5111572943860069 -2.7493738366583123 0.0027216156581767945
0.5137841414028953 -2.7945875221158705 0.004516599578488353
0.5164208276374348 -2.7495918384845868 0.0028837611647443795
0.5159540428186655 -2.631320692599855 0.001778673184911977
0.5153968488563345 -2.4493472157001475 0.0012252548896085585
0.5153081977501047 -2.210608197195387 0.0008483214906339603
0.5153220193770455 -1.922720129604131 0.0006372540034988622
0.5153873551184163 -1.5937199309133496 0.0006382870919090518
0.5154765371380866 -1.231718898787822 0.0009426444110072281
0.5150044960185522 -0.8446133882508603 0.0016848033295058526
0.5137761631269052 -0.43963734703093366 0.0026705765794217476
0.5152397398851097 -0.029203925731918552 0.0030586246128226336
0.6790924391827421 -0.032700738295711226 0.01032485387722499
0.6780558177451931 -0.4387064514554248 0.008105118418746192
0.6724219646967972 -0.8423322777619091 0.007346438238843977
0.6633446382988658 -1.2295048693922213 0.007609232420567241
0.6511538759110606 -1.5915130445044796 0.008485840807695655
0.6356037062683133 -1.9204524523153912 0.009565675072668537
0.6166781444441232 -2.2083130324377054 0.010558311501352896
0.5945251355720294 -2.446960163674984 0.011298299561288248
0.5687719284901565 -2.6286569140385563 0.01174952232041282
0.5396949596083993 -2.747937696958026 0.01244518969356149
0.5138373442458788 -2.7976823631081222 0.014890733258651138
0.4879892212033267 -2.748160977414548 0.012667906596134608
0.45894104884932213 -2.6291030934190163 0.012192613382587893
0.43323675254676075 -2.4476281640632775 0.011952063580200708
0.4111536852705302 -2.2092001360496125 0.011394795088558625
0.392319695612653 -1.9215516883446595 0.010520351071693225
0.37688552068118225 -1.5928066790084392 0.009430934089029272
0.36484066841232854 -1.2309457554614553 0.008321480154107523
0.3559172493405538 -0.8437816619871199 0.007477522169444178
0.3503729573026284 -0.43980843937437375 0.007196996376643227
0.3493945629478279 -0.03293614932764464 0.00804418934306755
0.8450183665466044 -0.034299388647486065 0.014221508728865958
0.841967936348975 -0.43865133803944406 0.012062445301691637
0.8322950073881 -0.8408331711330764 0.01264449011332158
0.8151425600728226 -1.2273315217866023 0.014480659934305373
0.7909345917839425 -1.5886420138237183 0.016798456297296892
0.7598969471246466 -1.9168470038810046 0.019003914155988132
0.7221539076071064 -2.203954420768267 0.020693446233846387
0.6778375037892214 -2.441938324614474 0.02157780361982542
0.6276521291076468 -2.6225220352210012 0.021629071279265284
0.5696884541337227 -2.741433617907121 0.02095522054401465
0.5138908117952651 -2.799518490552378 0.023551090934112
0.4581024185414345 -2.7416632273864163 0.02124058045955165
0.4001664686469897 -2.6229807456174092 0.02220035622145733
0.35002694023582676 -2.44262462928496 0.022430515070600697
0.3057728710392781 -2.204864465423339 0.02180558790473712
0.26810423183182686 -1.9179717154738078 0.0203143482786772
0.2371437645112368 -1.589960535462154 0.018173309229805923
0.21299734826242545 -1.2287878547123978 0.015671161067979153
0.1958638905159177 -0.8422649078369884 0.013262446423090359
0.1861672146509371 -0.43969444771121724 0.011652209168270691
0.18312285045897325 -0.03454261060024194 0.012581651836457331
1.0123882577730408 -0.03481001585032538 0.017212822405493565
1.0082898893941317 -0.4381818708493273 0.015765832234005656
0.9948289749514816 -0.8386230692286054 0.01790240404141326
0.9693643356410575 -1.2237146081012418 0.021379054666421524
0.9330665058657831 -1.583756546685078 0.02516843769728796
0.8865553604006581 -1.9107083088977532 0.02849018192910689
0.8299872470554014 -2.1965882498322027 0.030808969936750034
0.7635510738528697 -2.4332417104698276 0.03175654455757635
0.688014695105702 -2.613170429559119 0.031088040817886856
0.6059300319584316 -2.7282912685064993 0.028647630768049593
0.5139424722759021 -2.8 0.027550968600056486
0.42196402441272884 -2.728528342815282 0.02899849253194496
0.33990645248560164 -2.613643891400232 0.031793922783418214
0.26441399876984706 -2.433949460912027 0.03281969944501141
0.1980352986313557 -2.1975249362714555 0.03221618113813218
0.14153041050831464 -1.9118617096365735 0.030188580545602726
0.09506999330603064 -1.585099472246832 0.027026184166387256
0.05877149625794127 -1.225179423007473 0.023130768275549746
0.03320787521477319 -0.8400348219539725 0.0191117824573681
0.01958613972245349 -0.4391898816676983 0.01590243994851404
0.01541889819069306 -0.03504267439497544 0.01608343336657135
0.0 0.0 0.0
0.012805047666312425 -0.46433011959510084 -0.011114295989936336
0.03083542301609718 -0.8749836162509453 -0.023931407442311987
0.05577279995709837 -1.2705446574268056 -0.03416652823895755
0.09126023909818742 -1.6402888961373674 -0.04344101084012042
0.13779546157614425 -1.9754988899537143 -0.05110910985367422
0.19518638776584996 -2.2669637017034714 -0.05685185962711037
0.2630858464442485 -2.5057759765558782 -0.06026129512304085
0.34056591831543426 -2.683252484338705 -0.06105185522767359
0.4253214895093775 -2.791979680958425 -0.059690714697184996
0.513531518336422 -2.8282090680707386 -0.058458823225781865
0.6017728967728577 -2.792510173744536 -0.05973979816016379
0.6866286329311913 -2.6843258427501206 -0.06116724093166591
0.7642968581445014 -2.5074147952908623 -0.060481067780449954
0.8325072196210517 -2.269195052240523 -0.05724158366877258
0.8903868164885231 -1.978340329499154 -0.05177399809985464
0.9376656650180952 -1.643723936591016 -0.0445301846054563
0.9742613339086369 -1.2744804057812797 -0.03593709672571254
1.0008128370260763 -0.8792385090949724 -0.026544043024866414
1.021627406653767 -0.46856173480121743 -0.015780629555721185
1.0411148239008663 0.0 9.009962676459706e-05
0.18223796496184022 -0.019828135838550406 0.0058355537823057795
0.19010341963859187 -0.4622689457930053 -0.005822330847115095
0.19644441972391793 -0.8777792401773716 -0.015160188523740136
0.2127855901768184 -1.2738287699074577 -0.023074256068484074
0.23583944481443986 -1.6450126932760372 -0.02969797382840933
0.2662783437058349 -1.9814853261038416 -0.03514808614477171
0.30392803862795326 -2.274225030305919 -0.03918685642670117
0.3485496040644896 -2.5142604227061054 -0.04162811555153077
0.3995342959551959 -2.6927990770303536 -0.042343821690984225
0.45539863038931094 -2.8021440524642194 -0.04162738779771798
0.5136270767519278 -2.83840852637419 -0.04086535095934691
0.5718886736154167 -2.8026832743016508 -0.04161049399258725
0.6278581285322207 -2.6938915244309496 -0.042324676648780146
0.67903738399161 -2.5159321303987214 -0.04163990697515978
0.7239737326018072 -2.2765085452351155 -0.039289667064090816
0.7621048163835483 -1.984406545033279 -0.035439595791747665
0.7932572623350448 -1.6485647149889917 -0.03033665986347618
0.8173383970691757 -1.2779325607047036 -0.02427152703066657
0.8351674624906045 -0.8822753056853213 -0.01733085516353225
0.8436300879401417 -0.4668356185779304 -0.008995962357945808
0.8526327685190644 -0.020924770219304632 0.00235346125207729
0.35428079143237334 -0.03442673993620948 0.009536352552013627
0.35833654806144916 -0.4615772047976197 0.0005160641391910503
0.35904421224454186 -0.8784131520271252 -0.006150395361725757
0.36538479442895827 -1.2758127237124484 -0.011064698008924316
0.3762750098355669 -1.6477220920425546 -0.014824821741134711
0.39092712548045133 -1.98499405312299 -0.01769472696629813
0.4093212759606936 -2.278492689027304 -0.01969205034011895
0.4313660405348472 -2.5192903447533013 -0.020776025077019665
0.45689902298869206 -2.6984865065982326 -0.020925936329179374
0.48503973313354143 -2.807963656211229 -0.02019338117427302
0.5137028445385159 -2.8436112348651896 -0.01936751312787889
0.5423997429290506 -2.8085123132705876 -0.020110620984534765
0.5706469375727248 -2.6995992669102367 -0.020772240744671787
0.5963745872812495 -2.5209961466428616 -0.02057947337115847
0.6187283189871574 -2.280828590888999 -0.019505933616683124
0.6375834010555387 -1.9879924069745007 -0.01761233761882012
0.6528979066003023 -1.651384648813217 -0.014997732805756111
0.6647109673088389 -1.280064347148538 -0.011732903997709885
0.672284925676864 -0.8831049362099681 -0.0076505440715494534
0.6740009355826333 -0.46598281765687344 -0.002013173076119602
0.6785459906702815 -0.0361160083240708 0.005993057598625148
0.5212668452034538 -0.043782587306209785 0.012841560382866515
0.5223567460090752 -0.46169448577427347 0.006680758612705433
0.5187811764360655 -0.8778863312849414 0.002953773760926351
0.5161144841848139 -1.2762047164199268 0.0012176139243084197
0.5146998900124409 -1.6485362944995694 0.0004919523791563168
0.513747499153057 -1.9860859671210587 0.0003280327823632424
0.513102641056541 -2.2798686396952488 0.0005246232701099823
0.5128638420798102 -2.5209978659356937 0.0009732933067214367
0.5133989305631403 -2.7005157611734814 0.0015733262818601412
0.5144825205725976 -2.809516043831358 0.002442964706983502
0.5137704306331677 -2.843291319909193 0.0034928480730925604
0.5130922708776201 -2.8100745586578784 0.002592077626058233
0.5142821723847412 -2.701649509553194 0.0018627118331296386
0.5150092622396121 -2.522738255544187 0.0013804194656679952
0.5150693453242431 -2.282256266539305 0.0010030163935092643
0.5148578778500226 -1.9891584637432236 0.0007908223228164008
0.5145045572571726 -1.652300342522593 0.0007879520839606268
0.5138846507742831 -1.280591270756876 0.0011020316096761584
0.5120902552365304 -0.8826349519499825 0.002095506505301324
0.5090531338877524 -0.46592461551824593 0.004787364204993624
0.5104129604474537 -0.04591046771797444 0.009854482224495208
0.6868848688335588 -0.04879086191076294 0.0162380238655359
0.6853556150670698 -0.4618817280477959 0.012534688630581938
0.6778169634918236 -0.8765970182345555 0.01190810267416197
0.6668165388378607 -1.275113215309926 0.013430614130304467
0.6531952010100149 -1.6474249831175451 0.01578135103251117
0.6365806139919687 -1.9847852154439278 0.018332399998339
0.6169243388184895 -2.2783691085120807 0.02073294803431011
0.5943459129429012 -2.5193776558979524 0.02273110935452092
0.5697124199854803 -2.6989821574004034 0.02404919738133973
0.5440709572183196 -2.8070623825034966 0.024626959547039355
0.513839839249248 -2.8366627900751045 0.02556900009652298
0.4836429504680724 -2.807631092750137 0.0248435225333541
0.45810806985004027 -2.7001374192696574 0.024476720555016936
0.4336646096125206 -2.521152923990475 0.02335305081651904
0.4113758678293193 -2.2808077022473854 0.02151044151737652
0.39212550087962506 -1.9879277153738995 0.01918545327424363
0.3760440406336674 -1.6512825651693064 0.016561011402473035
0.3630603969393113 -1.2796013308999785 0.013886940368517347
0.35265324266205855 -0.8813559205119675 0.011687046793177988
0.34542241219177133 -0.46600028490709877 0.011293802844059961
0.34404053910646587 -0.05119736345365313 0.01390383269867068
0.8536107132646629 -0.05066476587261661 0.019896327383467614
0.8500161857031082 -0.46168826755875936 0.01805824932590435
0.8386665942310654 -0.8746615609375069 0.02050950160342687
0.8196210860508961 -1.272645064540923 0.02524081249046951
0.7937491899856138 -1.6443708839268196 0.030574632845179146
0.7612988930575039 -1.9810606768414192 0.0357224520937032
0.722377929256848 -2.274002382833085 0.04020521002260394
0.6773087530513815 -2.5143301723090827 0.04360377591944873
0.6263962270929837 -2.6937760949238063 0.04550709491779683
0.5736157913620223 -2.8012973035059763 0.04485937526338998
0.5139212355989085 -2.822523753001491 0.043970596959348296
0.45426207789587103 -2.801876670571886 0.04514506321088196
0.40159111494006394 -2.69495363181943 0.04607642143409833
0.35087109528421045 -2.5161410041115126 0.04444683970321743
0.30608877330569506 -2.276491501581103 0.04129169473241042
0.2675551257656269 -1.9842696704342349 0.03698056198419939
0.23557707848960938 -1.648309012878384 0.0318594833130752
0.2101926590114497 -1.2772065606450234 0.026294318329701354
0.1915071934562775 -0.879426030189444 0.020941537554649812
0.18028476312025077 -0.46575171537157195 0.01746491510135945
0.17672744032177046 -0.05320529967609362 0.018193456771037706
1.0228165779552816 -0.05104691528589622 0.023690853292752022
1.0187434463422629 -0.46103890149207705 0.02326228866580816
1.004324497070078 -0.8721170574364498 0.028464313356382963
0.9769360875537485 -1.2687655629972319 0.03612029762245064
0.9385077374573454 -1.6393138544176098 0.04413690164117914
0.8898868233788557 -1.9748439635714679 0.05157578632720962
0.8312415754915745 -2.2666177379931143 0.05782092026490379
0.7629391591691987 -2.505956129215371 0.06229021796566167
0.6856193268731798 -2.6839230967697736 0.06443322757630915
0.5995776648355379 -2.7932998864321994 0.06214991711099761
0.5140267311017634 -2.8 0.05281536872631965
0.4285141160229264 -2.7938907995215243 0.06250688748286626
0.3425901221046584 -2.6851245088633875 0.06514902674030632
0.2654742102278132 -2.5078043605446965 0.06336229477275142
0.19746879821336905 -2.2691584697872877 0.05922856047566306
0.13921000655446578 -1.9781170219607933 0.05325670737179127
0.09102422691739409 -1.6433191321941163 0.045951027341144104
0.052957177770506285 -1.2733720843422287 0.03779815654554661
0.02567371666510635 -0.8768720452164478 0.029567567206289728
0.011105386037928693 -0.4650674142279559 0.0232958267809261
0.0069265813567303165 -0.05361583661819883 0.02254515613748657
SCALARS Stress float 6
LOOKUP_TABLE default
-2919.079361234482 -16192.1724774154 -5733.375551594964 -2962.527877687934 1221.3512076739805 -1539.0471513832842
6451.249896550929 4149.954427787216 2670.677124593115 -1316.0126804380923 1271.281873666523 -52.33864226161126
6381.534582817156 185.18874353327544 625.7587750650653 -620.40404583381 1241.954120813137 -431.7267623947257
9230.61590212754 858.247112123395 1136.7506178314777 -639.7740017458792 1105.068058071212 -468.439946877491
12462.714572113282 957.5620573231853 1526.409554976148 -602.9695103806549 987.530635423514 -643.3703758465974
15836.867255881725 1258.730751686227 2042.1845452438215 -547.0863375612781 775.6485313875377 -793.3571671661592
19122.54869893444 1524.223186866253 2555.5177771547405 -456.98694857595245 483.78095715208224 -947.4753341690284
22223.291027285486 1772.206184350631 3077.0826925091137 -333.1179152779523 117.91547744235166 -1098.91619635136
24834.249951029244 1970.5919306909034 3555.1731131622146 -173.37866657632424 -238.72470364698228 -1255.0312562380286
26537.26472696943 2168.6292051346404 3924.3484462286697 -32.21469825984724 -339.87850449999513 -1422.77106976341
27161.78082165795 2391.5822370410256 4123.207519260926 -3.9457358079471447 8.170069485335137 -1537.1835769378738
26556.549220189147 2168.857212633277 3925.776095295567 24.118360706659402 356.075140752207 -1423.167962467597
24876.634563969576 1971.224295873709 3558.5283594455445 164.66798563504275 254.44729170649077 -1255.817984230522
22296.89248908199 1773.6182904536415 3083.363011305989 323.36893273030535 -103.1789670532491 -1100.1129393150727
19240.95168420021 1527.2456712216365 2566.42263607207 445.8092362251417 -470.78753118335294 -948.920335902185
16019.43292118955 1263.7977606405736 2058.8617875349737 533.9294036052261 -766.0667034327245 -795.6283232492681
12738.207994094439 967.8504412821512 1552.5964817717338 587.8896065505687 -981.4018305495048 -643.5878595392578
9630.383822350364 870.2172684473269 1160.9802307638959 618.4247619043512 -1112.1373882281205 -480.4318297673123
7063.305873377888 256.4161614039166 732.6640140274085 594.5534730669239 -1222.5076468008335 -391.9067945318583
7929.254519896811 4410.943640437307 2828.4824378447956 1365.4603994302665 -1634.6859174897743 -287.919150152616
-122.06504450122183 -15442.255324420836 -3524.073154532226 1780.747459884167 -2141.1957824707324 -596.9305385465195
-3236.5232342013246 -14044.774355109368 -4234.54564148296 -1901.523102831477 1009.0995437983456 -884.7073070418974
3084.2379457486622 2249.1325338771576 1266.682160525961 -1575.5771093688354 844.9496266878461 -265.36311583122665
3182.0451015878493 -214.9940633524501 20.777479056458375 -1310.9192289118555 766.6383165919865 -465.1803684271289
5758.494074504659 39.990318907371396 395.45417208792145 -1327.728921221562 677.83932325886 -603.2346472279391
7790.371426079401 -48.35645319416211 543.5214310993429 -1297.862990479164 588.2280209167425 -800.3165459112873
9940.786496611861 -45.695417641938974 758.5104951717748 -1192.1067944832341 463.53270037245517 -996.8429650022221
12035.764579502225 -45.645303552322325 988.0699215947931 -1035.7892821254136 290.0424417729331 -1194.4972924375456
14006.892540630748 -63.51855839017555 1226.3711570453336 -807.7791707140701 75.90809871570082 -1398.4933223254122
15676.298314045864 -83.11704284372857 1456.956030232783 -477.15266715856797 -134.99095721121276 -1630.7038310463745
16829.389469139034 76.16733690292574 1691.9019427667706 -125.58596954997464 -201.31790778604798 -1921.9997543843624
17370.987982509247 507.77440749635474 1924.0697122887675 -7.035107275560904 1.957078845319261 -2147.9310059907657
16850.294220196418 77.08689682435593 1694.8215608686107 111.06773176007323 204.8423851979045 -1922.0414026566302
15721.539787644839 -81.1995926257 1463.1368008817453 461.26785948018465 137.33363271648003 -1630.733928227607
14083.606916733605 -60.44223869426468 1236.4633565678419 789.534567251306 -75.5511057214023 -1398.398960911558
12155.23091409373 -41.24437693144944 1002.760570590149 1014.0782331881151 -292.5700815410952 -1194.0450925242278
10119.210980572903 -39.9665660404314 778.5128187556842 1165.6941322489456 -469.53972725824406 -995.8534542011947
8047.773037410188 -42.25883281332229 566.4638690830254 1265.459567355541 -599.2343638638075 -797.7410712410352
6131.58703329563 53.38269955915119 428.00257541428726 1283.985135395412 -689.0580313505175 -602.7094625832157
3704.8685071980167 -204.0453331372171 33.75422807352769 1243.4041147655184 -798.3561792786727 -447.06745172286696
3598.8571502880945 2359.746723687327 1319.6313827464714 1486.099170074475 -966.2474899991607 -380.6234150562613
-3000.411143387375 -14504.123356126585 -4071.22862558757 1189.9174155998687 -1194.8178295542307 -359.3375820664247
-2579.13574105543 -9788.16835429038 -2671.5761435716045 -2232.5064364288532 614.4664911759586 -293.01437830102776
1058.3863277625458 686.43943026731 573.219370781181 -2559.254329768745 480.88426726403645 -412.4085875018452
1117.7038986443135 314.92752220008936 54.444345918054985 -2232.2693849281154 378.95241624273666 -531.1022655704227
2467.835317951469 -52.28217884882907 73.25819536939903 -2270.30738441143 307.31605982098097 -769.3710942537605
3701.1481799646795 -35.00280771517609 209.14862119530179 -2193.201150297732 251.3408832716557 -1015.3780379179818
4800.355170201967 -44.4585184129465 309.32521666507773 -2024.4298852481463 190.20825117701605 -1273.7977230766874
5894.740259310836 -37.52101417648964 430.0289955170958 -1773.4750440529942 108.1791868226673 -1534.5755662348197
6946.719465525066 -58.5124882155519 558.1740266394487 -1408.7717766026515 -1.0520358788864488 -1809.6516990480775
7843.262825570178 -90.11459664797962 675.4227777486349 -846.0543076282767 -139.90178913439973 -2133.56330721349
8452.869968975703 266.43031722859996 860.3640794689669 -182.60394653705004 -213.84341865549024 -2575.8087436019564
9012.935110876078 1421.86760766586 1306.959049815579 -11.242183757108247 -3.0079123624538813 -2992.1989753124208
8474.452261985494 267.5099005479954 864.4295279046418 159.3737024238245 207.23367132635985 -2575.576660932454
7889.480571887389 -87.88301553320963 683.8447541190062 820.5424106405073 131.5400028521897 -2133.02963079488
7023.698326040745 -54.99197765372611 571.4238194817681 1379.29581408387 -10.119042873151361 -1808.6487973288456
6011.785339565164 -32.53827630645597 448.57808708746506 1738.0884726435838 -122.93880456109535 -1532.8319738289986
4969.673798712381 -38.479225140435474 332.8263574324679 1980.8400876522678 -208.85451327970833 -1270.706541129452
3937.6295133975136 -28.64217165290635 236.18519091847512 2138.547672477315 -272.9222706231724 -1010.8473946248445
2784.81774069097 -46.82217159168629 97.63412790183642 2197.292389866775 -329.56108243916526 -760.3510034280955
1434.8279997958864 319.1006032013267 39.864980017896784 2126.166597911977 -409.8078905089436 -533.0961442975483
1356.9938507506454 909.229273805125 632.6240413459084 2417.815283531812 -526.5849682005866 -418.74132853969195
-2566.836463041569 -10155.384174285462 -2729.361262200925 2110.2241370244815 -674.2592816420553 -280.0480730154482
-1886.9318787546003 -5914.8103787672835 -1412.9633176694472 -2064.506108421998 277.1918760906537 -103.32978944036685
-330.1184799079713 -137.28189013173636 220.5387511048612 -2706.482591496732 157.04983397600455 -358.1526380474458
-764.1253726590104 400.8178060704973 24.603249012240056 -2717.342178692248 24.772139607479506 -549.1317641300166
-602.5644258783839 30.4143202445211 -95.49268095208981 -2594.163551281 -41.17628764585659 -809.020829587251
-364.69612018808175 -26.229477128627263 -62.28852740551591 -2487.516037502171 -60.68263306317703 -1077.742033966601
-241.26980874527192 -10.669876251573262 -32.96807864371328 -2294.723778469941 -66.00209714138848 -1351.705468625461
-125.68387500839769 4.013961239646989 -2.1711287507283394 -2014.5356019790026 -70.82837309909654 -1631.732321395592
56.39431749120084 0.8079159795979844 46.0829010967076 -1620.6278955449045 -89.2477378275103 -1923.4132541708746
222.2735132672396 -86.32433486543752 56.43676348052942 -976.1552254591716 -172.7754392598206 -2257.956853572443
227.66913313769263 424.5435099114684 157.448805321168 -60.47367758915546 -280.8647763940038 -2738.0383980736397
1026.0618211065798 3011.393380613411 1070.8363540571045 -12.622391250053365 -7.469812096703916 -3356.702519614402
249.64097298208418 425.81542326709393 162.63460499730581 34.368596125613564 265.1401499639568 -2737.721597612215
268.85367728103165 -83.7350067365685 67.06090149282971 947.418713139055 154.76119653630414 -2257.244112311059
132.64526518022944 4.79487244632621 62.51175457811312 1587.323989496482 67.68014240051309 -1922.1241648438383
-12.740966682765638 9.403772814929958 20.214142807270083 1974.3906056066178 44.994256685416396 -1629.513942395582
-83.66648861567144 -4.540344824835528 -5.401251953017464 2244.8881095863862 36.298910741168626 -1348.0163390016041
-155.12505815544603 -21.253869015473068 -32.38819352638325 2424.06124540883 29.465750546134764 -1071.636865654355
-360.0923632642011 27.32972653757316 -77.96997520068145 2511.209982737355 12.123982852598461 -800.5576587178235
-550.683517414585 441.5312695899247 23.579332619000425 2612.671208968623 -48.77260684498103 -544.4789518790437
-158.52965284355594 21.181708533228413 249.09791964340997 2644.83670846562 -177.19053019879604 -368.184860474709
-1922.4207465871812 -6198.783980710395 -1504.3580885859078 2044.7918597517853 -302.22680103666255 -161.9549414035625
-1481.6293638074576 -2960.6096963755876 -521.7226910875623 -1569.0356553375382 -4.069340378073446 -81.58912807583151
-1392.126484351198 -394.0134009479124 71.64194917641923 -2276.016541653727 -147.13649657302054 -277.89627379109095
-2566.4174046515914 321.3326022769596 -47.925746725230454 -2500.3562941838363 -333.7980408213455 -507.67010814640645
-3570.254519776506 74.24295181062196 -250.44255019666954 -2330.336285957524 -395.94905910928287 -762.1793669128823
-4413.446383244001 7.75254208938725 -321.18103579997603 -2195.257153761739 -377.0031847825393 -1017.7457170284403
-5287.521361031526 23.63895355329349 -376.8710181512788 -2023.119781536282 -323.5949679414113 -1274.0194364714662
-6156.673206624384 31.64739978715229 -442.12901753020395 -1776.4697128228038 -254.67340415326157 -1537.3392953060443
-6855.756744923045 90.8788085798243 -461.5351806872108 -1425.5638767347232 -172.7580012675804 -1801.7783371717085
-7361.978815909163 -59.76401109800647 -539.7102683176527 -906.1107106543641 -153.77593560647773 -2084.0006098291647
-8155.209825081708 152.21407791505914 -730.2560013895526 232.92402308034752 -314.3274956434785 -2474.7080885545997
-6668.026291839054 5449.574513558862 1098.9124899895753 -11.36144664106002 -12.030669756780984 -3281.614694435177
-8132.742243851937 153.70839413736184 -723.9113978113323 -256.4336456559011 289.26920040097923 -2474.4975099664093
-7314.830704643598 -56.75955996076699 -526.799524303246 880.199499578461 125.83140418283354 -2083.513748666907
-6779.954961252264 95.3862979797759 -441.8066351414899 1395.5008972099952 140.41407991784064 -1800.859287911141
-6047.6481240774265 37.46667071222312 -415.76578291267595 1740.2107567017788 217.26935636379864 -1535.6903551386722
-5141.9775879621175 29.992866677461727 -345.23854289001275 1977.941322828909 282.1899482748751 -1271.120287870574
-4235.811304433951 10.814529246272485 -289.6598581394149 2137.3865621860264 335.5128434812228 -1012.9024305205317
-3388.383175241832 74.70498300833427 -230.84034255030733 2256.3661772857363 361.7046826052129 -755.6118520376143
-2424.127078041394 360.422039858036 -41.80527734198632 2428.664709912576 314.6474690014063 -503.2519964058944
-1297.946187005848 -305.8952081446707 80.69532555884163 2259.036660243079 139.32623082102268 -290.2170571367351
-1510.8033084830004 -3131.006663310318 -588.9347599108212 1580.2524508419642 -4.40641876402151 -136.41611817440167
-1379.7662757527137 -1184.7633062152915 8.90196946793613 -868.7308505570762 -251.2360842971809 -119.56200490018034
-2232.762814402477 -368.2680048071532 41.97244898564215 -1311.3186815613603 -458.2139340617903 -199.49383219760387
-4336.778756252445 184.87020722638144 -166.94241749362675 -1502.1272744148985 -730.7300293298761 -398.8819464324346
-6531.030046840203 79.05454611731285 -459.91458537210417 -1396.835498416928 -789.2591308089596 -601.8812822535298
-8521.424061989956 26.80691309194078 -659.0809323881002 -1300.303561920466 -724.3765866416284 -799.6486902106379
-10436.055559316188 28.808750877691253 -829.3459825019005 -1192.1206800994407 -603.1013886268942 -996.6484146849474
-12283.715181179317 45.23308823717613 -995.6455939946172 -1038.9081017751653 -444.85629722685115 -1195.8840533620764
-14060.497879392597 26.685219740457715 -1189.4390253748873 -832.413249869737 -263.4222080704113 -1398.1146637311085
-15072.988659508239 293.4626814747626 -1159.157408697721 -482.9975091428771 -2.743593948979695 -1566.9107227057966
-17016.236350375584 -1026.6778816757837 -2134.5901938171282 245.51869251278654 -122.73328465367727 -1790.4373614603815
-14085.047482666841 8700.052478517246 1184.890896493669 -7.188275816746582 -17.30191203364292 -2379.4633384810436
-16992.742391268937 -1024.9594893431324 -2126.981501146341 -260.3890926587805 86.86277719277703 -1790.5038692727871
-15024.199328135637 296.896011060137 -1143.759194531058 466.62592699896624 -36.78224910690031 -1567.00901597698
-13983.508782677636 31.754283717200433 -1166.1446857840683 813.4709733496135 218.3702118241145 -1398.157453925227
-12176.300144342098 51.62594608285962 -965.0218945369065 1016.1739889537283 393.57206281493757 -1195.6885048596705
-10300.71911172731 35.25440558982885 -793.9872465087772 1164.0276001274578 547.2172111475688 -995.8776413244404
-8373.196936773149 30.61689781398656 -625.812994551162 1264.59103682203 669.7946283123831 -797.8846117176486
-6402.305689678533 83.41703251976425 -438.77645839532744 1353.5855320798523 747.8267823844403 -599.1736884367907
-4257.021611320786 212.12087225360636 -160.33772367595773 1467.2518066402333 714.9358464637949 -397.72371061135743
-2197.8299440823125 -327.64942051178497 39.527290017879295 1310.9817441863938 461.2766073138335 -208.23519200840565
-1402.5694437364587 -1258.5793336217898 -28.725670749763893 880.183120419352 257.2807907903272 -155.10960111908594
-1205.2215708268564 -511.6011266200583 373.3688553024858 -428.34186249366246 -502.97022643107914 -144.30224760479442
-2706.1511074862015 -331.53154646857024 116.78065731669452 -614.2467627805986 -813.6744359244399 -166.8483194777253
-6197.592370248981 -261.221425900377 -489.1537185076333 -690.589443839853 -1207.3467137628343 -331.2564689369513
-9955.981190837541 -677.0397598035408 -1168.2501083671766 -663.9994377736776 -1260.5203363191536 -493.00065567919614
-13238.858465201007 -1005.5611224467948 -1671.936535417893 -617.4380609859468 -1136.2126941068468 -646.366747118863
-16342.195659519193 -1275.5598725283362 -2119.300913587632 -553.9460457723266 -927.594674882733 -798.1195513231286
-19354.405132618245 -1508.915084094289 -2554.5000200087607 -470.6958086383675 -654.8674141333208 -952.0384905797068
-22275.61924078169 -1856.096661841464 -3052.0395605352637 -345.0224951177529 -331.03677006091954 -1092.8065838511873
-24879.4821168569 -1730.4837132069565 -3409.9355650083817 -168.839465487697 134.0579317510537 -1259.498694431125
-27184.032414014197 -4109.285411212515 -4793.396077679416 469.23568366482107 973.4138070345489 -1131.1169043860903
-21987.399068730767 8691.454032371566 -523.9514936020917 -4.644762397085387 -24.058178280349345 -2332.687059419826
-27158.119296590135 -4106.6039077168625 -4783.979939455039 -478.83109085723146 -1023.1728549396724 -1131.2526410720868
-24826.298642951784 -1725.2331501960368 -3391.045281001673 158.33370147434698 -188.55660023629363 -1259.7314673160715
-22193.377069601585 -1848.6283869612937 -3023.9028491613303 333.02147282294146 269.3771024674748 -1093.048389361316
-19243.35481843191 -1500.1947872459857 -2518.510001124985 456.6735242154967 585.1333957250104 -952.1298567263225
-16210.924609771158 -1268.3659319041326 -2080.158340619934 537.5145812960479 851.9297214401245 -797.8240675375719
-13115.713497027395 -1005.3556872912493 -1640.9136913257003 598.4203336236799 1062.7739867783355 -645.5240541407551
-9889.973483212381 -686.017823226537 -1161.2698577571548 643.778957206918 1206.8794441121538 -491.94882168664424
-6210.7829241919535 -264.52802275879804 -508.6570899450058 676.0429404772583 1194.237471011027 -331.9345052692488
-2749.534522345584 -328.45970940345813 90.55192463561556 615.1208023706984 833.1832201110569 -172.85411011428477
-1258.3856022791283 -556.513949499368 341.7092573358411 431.81495534861136 530.4376619519429 -168.0176497075652
-440.9666555168216 -9803.928620248467 -3073.4685827295857 -1523.8269563890635 812.9504282602533 287.5752242133454
5779.433433048078 2779.1591451601257 2024.6373950126244 -681.2123546984119 877.1861377236812 -90.13509984982021
6712.465008988061 336.30640194844636 884.9287472449756 -243.44004258688994 822.7749665302018 22.519876978793242
9504.234296867538 824.2104266828546 1349.1466348606596 -264.6115901050707 731.1108863786451 -15.40296577983986
12564.43736177374 968.2579500633856 1803.5400121150278 -262.79981277444347 558.0105340307678 -1.5807214668283347
15724.040696868378 1236.681792214874 2371.601224241938 -269.5150135721188 333.7619186706111 1.075305225313409
18829.477178844525 1489.7802576287645 2982.047899002351 -275.75267394921764 51.89427635122975 5.046028896413662
21890.145193192177 1761.5916241739033 3677.031243876443 -290.43196970946116 -259.4387788716837 0.39986045379634616
24901.946964460134 2031.1414806454309 4483.58526915458 -305.16462461390984 -501.6816094875852 -32.74602698742669
27509.220090017283 2149.7182162375098 5261.572459658341 -245.71668441895417 -458.4004651332326 -125.78713069275662
28568.406148743696 1996.2947059930757 5554.01864265787 0.8271273064820974 4.339780649346033 -223.22943172101918
27514.962602157662 2149.3985731077933 5259.956282301751 247.35803677343327 466.5918923410582 -126.35973143526188
24914.241470904493 2030.5132085542186 4479.928041948493 306.74536053075855 508.3357680644918 -33.87098334816857
21910.96960171985 1760.713977971487 3670.440276491691 291.82643358017083 263.25534632346637 -1.168344922853307
18862.961210167516 1488.9125107650289 2971.183879945072 276.7281258965945 -52.921181130655995 3.180367200908627
15777.85279534262 1236.203518215259 2354.278504751348 269.56847334716434 -342.6786252887295 -0.09855012761737658
12654.075568663015 969.7933419769375 1778.0216599667178 261.76397614822014 -581.6312464311775 -3.230301015611986
9651.459591260513 827.6438283081533 1307.814200138434 259.54048681368073 -771.8071559017643 -5.973978375006093
7002.897415277251 359.10371594013804 856.3838617984359 234.03029298828218 -929.0668438443827 -4.446873046053954
6462.681088206711 2866.40027977624 2031.636618567113 675.5002928860482 -784.9899234247863 106.32820665165964
902.1805720695565 -9286.064615649133 -2187.5762631205107 900.3958365806557 -663.1701148768029 -529.7982921576379
-1450.8045361583306 -8951.966250908505 -2712.754178177075 -977.8808819483769 136.91216533417665 -26.947429172165364
3040.6137413241313 1481.544493942125 1069.883119098871 -849.5475436606674 294.9730903523777 -81.91672831282722
3827.94389883394 -80.23201517824894 344.2944182622784 -668.870227234232 501.8233964401206 5.378287232882333
6147.761050010799 93.0044868953384 682.145515822914 -694.5121186446875 420.81698226139974 -7.243763822818748
8095.4120735147935 47.935537142327775 894.3281416181042 -715.2271732891929 313.58361921182166 1.1386653136811222
10124.068527444027 59.631631778080795 1181.3739805017422 -719.1640359995699 170.89033017668683 1.3958761161424207
12120.962203329827 75.67851812173483 1509.2949333659762 -725.353354341989 0.3362986208156302 -6.8634953649761155
14072.483898246464 109.65181742848509 1894.2844241389766 -744.7144871867349 -182.87165674534998 -39.408719748546474
15938.609924181806 119.90236454992055 2331.7200268788365 -772.1004389266097 -324.7263468591814 -133.7843531501787
17431.969761160482 -135.9961160090188 2668.3110577878147 -633.5097491436538 -299.2735222955499 -339.69879384786987
17878.21338408016 -722.9772507646084 2636.08813011007 1.1973382041481289 -1.671983714651391 -544.7775707647224
17438.466800246813 -135.73982816450456 2669.043744779086 635.8676320948389 295.1686235126801 -339.8220579241879
15952.308404576912 120.40678250757345 2332.7563019471363 774.3004135264252 318.3113626308616 -133.8944416602261
14095.04799154917 110.40645719247742 1894.6858195454954 746.4778851617416 172.47061363824957 -39.1542355916617
12155.609603827861 76.70670076928936 1507.3988237652243 726.1133605636529 -16.643868317799406 -5.540296053157336
10177.097974597915 61.07628352587389 1174.7581440037502 717.9154029581948 -195.86272246969705 5.243012282269861
8177.501671984949 49.569038510379535 878.5110272492516 710.6153944185281 -350.2442838489962 9.175137716058494
6286.187812819618 99.69438850951313 657.2059495954546 682.9216766790108 -477.76561429475237 10.955973147449521
4066.0173836125705 -76.51542605502407 299.7049168360284 639.2579052457138 -573.5211349632169 21.742104759064418
3285.0851881624803 1509.1846539529743 1021.2707849215687 778.9068842166363 -313.9928020095221 59.63828867295465
-1240.7895101485924 -8936.777395621473 -2636.8106345551073 580.4511268217167 -93.90102598718099 -558.8799223069383
-1347.51879220332 -6500.972060026 -1776.6290733126891 -1290.6383441412677 -21.70945966477029 -539.0047754975019
1326.9838662752243 498.29451028133457 578.5849976489055 -1475.3758505048022 67.42736749256176 -81.00704891870902
1740.7332966876638 260.0656633098 274.67197663382774 -1220.0948013260336 202.4980047394086 -24.699762339718376
2956.16899822367 25.052424144399417 320.0302594248607 -1254.7278349058258 171.9900396386133 0.342663973559743
4048.6268552200318 45.59457000074083 455.5458042964751 -1268.3263291805708 109.00451385318452 -0.26771693283391884
5051.684687780136 47.28122758058565 587.4993530262991 -1273.2862395433078 36.77937177112255 -8.187479100251265
6041.8704128656755 58.86024895249195 748.4836680844656 -1276.3360723740348 -46.69671907211057 -36.031916060764274
6983.611677966229 102.9868655537985 941.8370818734568 -1290.2035589442069 -141.49429608753255 -105.73449795795345
7908.236329472323 159.56120460364508 1178.2846364184845 -1335.0398206649782 -245.35791121469217 -269.45413552304586
8716.393430782236 -268.53881916790925 1285.8554475479339 -1154.7153988084915 -272.68132223969053 -609.892070379002
8656.888554834975 -1662.1118611563618 872.5431435225631 1.7562740754160706 -7.004437053267736 -1003.6248552593257
8723.36225839628 -268.17995020638307 1288.7680370583412 1158.1602061355113 257.69536598515015 -609.6067295475542
7922.694325022568 160.26157803040425 1183.706646048845 1338.2018801832164 227.46325805980635 -268.63397099414846
7006.7119644004 104.00206040306563 948.8275025249475 1292.6059192909386 118.8414471141168 -103.77279537739811
6075.825318801422 60.209233635149324 755.3546539901095 1276.996404799092 17.568456178382487 -31.674208729630045
5100.59227624463 48.83091662689843 591.3363459063905 1270.4696549943121 -73.88820092836295 0.7405065969649167
4120.937149791074 47.69976059255369 452.35265945117027 1259.2646085628048 -155.64846329169515 17.413596791867423
3070.2732318190565 28.37292695190938 304.820915171424 1234.0999561963406 -229.89815400897388 29.72048401404196
1874.5796201456671 254.32576611089638 225.94570680194244 1171.839248734061 -261.0944946597066 34.343034362198026
1458.8207307763535 600.2540627816506 547.0365165010234 1377.8569249263624 -79.39437535102697 -25.60896512737772
-1288.4146936590612 -6493.225448258731 -1813.8315254845593 1178.8297321235798 48.51767182410802 -755.3281073836976
-1118.5184244908887 -4113.7216348653865 -897.9434758218176 -1220.3237769247285 -70.09085829160354 -590.9644622881248
50.8741441484363 -85.08626305064045 315.09450583861997 -1620.9042167499983 -66.93462219422857 -145.30689543215868
-188.2421652774801 288.72441349461275 162.33420456219156 -1541.2112458256836 -41.87627041163812 -36.662284238058305
-114.0431220042895 32.24841589991396 33.911555824860066 -1455.7986568550073 -58.54005978359386 -9.069446416268514
-30.65668386620594 -8.561175738105625 20.28249271632283 -1455.5917106372447 -78.63417541685473 -7.7717255519918895
-22.24728665332773 -1.1784239527554292 17.878837505045137 -1458.825481673776 -89.23996952228076 -23.03686881665719
-35.699749764480806 -8.06515818138816 15.727366326508825 -1462.2489163962998 -96.55208373774897 -59.98856266195239
-99.12536138586523 21.84489928364241 18.068480379834014 -1452.1728497876056 -115.32081251379984 -139.0918149203266
-84.48296538748178 165.21187920959713 80.30123684267853 -1498.6374911425926 -195.4157631850263 -308.9078066516499
194.16337460734795 -387.19404153348466 20.19695669598847 -1466.820629179146 -302.06509359969414 -679.955526068107
-548.6152052106135 -3300.085738421211 -1035.0760177045797 1.9097257970752817 -12.066264709824981 -1288.5788290351927
201.56872750782762 -386.715558280961 25.324928184543765 1470.563976416411 276.7572454802246 -679.5516535093116
-69.3801424270861 166.1487003867299 90.19310156800098 1502.0632244535168 166.66668888918056 -307.8143272115103
-75.74909711831984 23.214077946221128 31.83420240704355 1454.743992993696 81.15930482517318 -136.60849385339003
-3.087956090962603 -6.2884882469811165 31.628386659978723 1462.8484287231784 55.63330358389545 -54.722545559861814
21.445872807816034 0.9190900973545562 32.8731676870177 1455.370964065407 41.289742757694725 -12.334909712639904
29.188951086973372 -6.141319114608053 29.857936529165677 1444.5540588447004 24.807246832283486 12.681366940584326
-36.881370278790584 31.481043213646153 27.894912939849146 1431.0375124369837 2.296572443609436 27.951485518662476
-112.92074938060163 301.79756914179126 131.5018430147653 1491.5417727421257 -1.9979354011849935 23.109650602611776
120.52549722475042 3.6062754968893866 286.12449308301257 1568.8421167355323 63.26577415648776 -109.25438470826343
-1117.0566232488202 -4145.565462532757 -971.8392418288878 1184.1241761036338 91.74259476336539 -720.2762369350824
-1012.1296326040468 -2185.2727980444142 -201.23413201817007 -923.9558575402468 -118.24034357701365 -511.1142586635445
-981.6817153981387 -304.95345909544073 209.09749631471323 -1373.1309638200155 -190.90647979745177 -148.17582314290323
-2036.0520941835575 191.7798688246638 26.70336310480861 -1419.4777078620239 -269.7943600115208 -38.06768657540798
-3105.6266974365917 15.50855712486918 -239.9362220334712 -1290.401652145682 -288.3171039057751 -4.664352361943993
-4098.840683190776 -45.276775915527665 -407.55786778047127 -1263.6970336419565 -268.35660285611385 1.6837558086065487
-5109.146751791446 -55.40166631058656 -558.0725220590124 -1270.3238796076564 -216.92989762451046 -8.388289829095408
-6097.887647216563 -57.610010068176315 -707.4580062192384 -1273.3588996279836 -149.4689975904076 -39.16666119012577
-7145.000695625555 -98.66975051608527 -905.5154472803619 -1261.9823602484785 -83.31819018960827 -95.5948166938101
-8108.7796631008 122.13822964839297 -1041.7961715754946 -1240.8105928838042 -104.05010230750773 -216.04563595359716
-8198.396796922316 -67.5056708615134 -1101.1578215960312 -1568.7178942260557 -321.48619160922567 -496.98209224900654
-10100.021489650106 -5718.547406391784 -3326.4106995383536 1.7982684157354876 -17.236222056579646 -1347.73911366158
-8190.538832182355 -66.91663084861612 -1093.7864304452512 1572.2575746485224 285.6228155376859 -496.75714188937354
-8093.000613412186 123.30064091012395 -1027.365230113456 1244.1008428146654 64.1589941073346 -215.3466710021784
-7121.309984993473 -96.96152616967125 -884.8510053250748 1264.570147261906 37.273620916088895 -93.81400072703171
-6066.608774234187 -55.39853389495719 -682.3178877685992 1274.2687699220398 96.25247081765427 -35.07383387801096
-5070.753290532983 -52.69191666994684 -531.6454377822834 1267.62455673733 157.57004979451537 0.3604103231184874
-4054.186535419007 -43.02430649210344 -385.67976378065447 1253.91842999767 206.98906064499147 19.37532870268329
-3060.022812195008 17.205442943390374 -232.39036898707013 1267.855149438051 233.61494500355408 28.418395062490163
-2000.0954562354646 209.14235728451257 13.259031326189113 1384.6078505930159 237.20677222541323 10.389454724756721
-951.7886969982901 -250.06949259801615 183.4816419999248 1350.7712262197695 192.10586917115123 -123.37030257229277
-1027.2959816431137 -2220.269055753235 -272.2467356288146 915.6068939994813 136.08433639909072 -596.871204664984
-1083.14615371106 -969.0149158891585 263.6993536373524 -483.18319599979 -211.89948764732088 -331.7819510417427
-1851.6122866973874 -315.09002151860267 201.79152228598014 -767.6928861622939 -353.22145028205625 -100.84445517846507
-3843.740529867975 82.35581695198374 -120.83554691561628 -818.8658865893734 -521.611592309052 -34.75963543956341
-6063.757391867292 8.445102916546274 -525.533740491051 -734.1521466692107 -541.3383307284511 -5.497825100264031
-8161.994037540562 -45.37780515228771 -853.8342494201773 -710.1741869806276 -477.66375484532307 2.540521156723659
-10191.88979522658 -63.68887443718382 -1156.5703587702512 -715.8481882920493 -357.4840606839391 1.4292170389951644
-12188.432478101684 -78.66087495311673 -1473.521987548754 -722.4985970572498 -201.9008889908569 -8.994725101486875
-14048.719753645926 -45.85533694228995 -1782.363604011846 -709.0858559750131 -43.39786107908578 -36.4181864474087
-16232.169841298459 -263.31133511660465 -2344.3740141975245 -731.4644733672716 97.19983581385912 -57.1198578902113
-16502.571678440603 1180.1476178287487 -2016.664016258361 -990.7847083085476 -202.87376563210984 -185.73554305805246
-20466.318615763113 -8815.361796857373 -6269.492830783906 1.2471314698050087 -22.894836252363532 -992.1064916098883
-16494.19741075287 1180.8208514954435 -2007.0297691184467 993.2567383221101 155.4214251718985 -185.95451231702083
-16215.554911311474 -261.97654310485575 -2325.359682407084 733.8223532154093 -149.44091290399544 -57.4218839866834
-14024.384098536375 -43.891222626013054 -1754.723578329216 711.0808312899618 -16.055266734204796 -36.46110652725445
-12157.781360792502 -76.11236390823395 -1439.0119796591955 723.5596635769903 134.36243576278744 -8.070537347981885
-10158.029685738817 -60.770847547356624 -1118.8011867674534 714.8156983928258 283.98391374012726 4.745080467284673
-8131.072874997954 -42.70146869376911 -819.501652975491 704.7579703866638 405.38242841424704 11.08925473180335
-6044.700380049209 12.340486436796354 -504.25889831913594 721.4073876182783 484.1990319470352 12.518401821708478
-3839.8093292048598 96.73459289493998 -119.84492284780684 801.6983021610605 496.89661252381995 -8.308552678891006
-1852.234737104068 -288.98434666539475 182.0304882055168 760.1063211183406 361.06323921169553 -87.90525783793169
-1104.5354347937066 -991.011454317411 208.62114021298515 481.4329013657217 232.117091221182 -380.8605488926127
-1162.737730010264 -531.3392482305256 558.75479477713 -185.0676984113456 -405.1143761470978 -215.02624837683064
-2551.5846030501384 -374.3620388626506 230.64327705031988 -300.4219099755646 -608.4264648615623 -70.10714607652754
-5802.83053502077 -359.5291180438751 -447.26135438039563 -295.0380740490797 -846.7306211719871 -37.73075281197341
-9385.029673400531 -690.1225552186297 -1182.6101248288485 -267.5249851056378 -853.7200373563613 -15.630135254921514
-12661.180762379938 -984.3436738248068 -1786.7468482043448 -261.5666595431919 -734.0163590616697 -7.77699173364179
-15803.140316053012 -1237.7562798000001 -2354.0167687726794 -267.6549133108274 -528.4559419195718 -2.521968750086012
-18912.290034354734 -1509.8826672169084 -2957.6143292859515 -271.0644077057466 -265.87015421877413 1.4351102318602376
-21837.6853418591 -1649.0809633807692 -3537.2263905375007 -283.35403414363674 24.54630587251952 0.7222123058007277
-24459.21357832934 -2205.5048891350534 -4267.5680412459515 -291.716551976196 323.5354775502449 5.279610659694101
-26167.89675617137 -106.85280532035517 -4227.935034403228 -707.142685837832 482.66382598497046 114.35531790182047
-33808.103541762044 -13846.041761835051 -11244.775974694538 0.59868122349814 -29.456208061972095 -1054.9127910216305
-26158.704993189367 -105.57689080773625 -4215.811281596552 708.3415814251854 -543.6089606498654 113.94458055985473
-24441.09373636393 -2202.9700126902358 -4243.5207071339755 292.9013367363363 -390.33908298019685 4.52869759432312
-21811.496508758635 -1645.3468335482753 -3501.9492174154843 284.44154352001476 -100.18205013995444 -0.1906591472576551
-18880.214289459098 -1505.123279497554 -2912.92994174446 271.835369088868 180.3259529709962 0.7267482827801661
-15770.344697724751 -1232.6157587987084 -2304.1021262645822 267.6440478986846 435.7110406590197 -2.277222004493929
-12638.782251135348 -980.3187693660711 -1739.9486151332314 259.79037604947575 643.7520389363015 -5.068381075079097
-9389.252343538394 -687.8687968277853 -1151.4875428916152 262.66816875518793 785.7858560410438 -8.15702675564302
-5836.503427151584 -354.1112541767532 -441.20658130461834 287.94878540044715 826.5080781223813 -26.346711655601293
-2586.935371592702 -365.9580053270747 213.7815400723581 296.86746715818447 633.9920964821847 -65.05413778174457
-1199.9179483156836 -547.81060229184 516.8855667347036 182.16723394016674 447.19165084279734 -244.7189535024981
2030.3622872670505 -7444.5484649877535 -1624.2558533162103 -95.75565803623252 351.2544473377036 30.479994551244854
6459.703617767707 2651.9534075645765 2226.2160403633834 -658.8614313919222 478.8898580103422 -36.54464383246635
6692.546350743416 327.37117309589536 1137.0935725344257 -260.6963350744299 450.7046585389416 35.30048584517149
9313.74176853476 710.4300648673218 1609.3580425794587 -297.8957333804984 376.7549069485054 40.733090426442544
12261.026461562737 850.9608660878332 2204.6207433372265 -312.1588575757084 242.26602017460502 56.21067446225615
15284.780479270383 1088.1368039291144 2950.4979378011335 -327.7649666826567 73.83613268186367 72.21872526535257
18338.750480003237 1325.387253210035 3820.084982692318 -348.81617107220444 -116.53117417358072 87.2138270943939
21598.197836665684 1616.4266631903365 4892.967491307544 -388.88056386847654 -298.39166973557803 93.95941181966184
25287.66032999031 1941.7644423759157 6225.554227502343 -436.5908022379693 -400.0455031269622 79.15424100463935
28924.690512169986 2048.0942155767393 7542.467705802405 -366.7553316053682 -310.5052894282873 34.28085761318688
30491.009200447494 1771.0895614702495 8041.425306568779 0.8485508833082349 0.4010543351374031 -3.764345050864035
28915.778382917524 2047.0964624615533 7538.342068495379 368.5042405597321 310.84612703938535 33.79415556067096
25268.27703188224 1939.6606912123457 6215.970873744556 438.50003923101804 398.9516683458375 78.18665103613571
21564.94141441606 1612.9811643600929 4874.998665701939 391.0844643298971 294.66619079412794 92.56003429295181
18285.638848631017 1320.1319119511631 3788.612347617771 351.4620797288614 108.30786150878397 85.52749191196817
15202.520464590694 1080.6015789779196 2897.7733090428924 331.1521449512701 -89.92470928879524 70.76256428781224
12134.086747070416 839.7291567989691 2118.256922664534 316.1062191908148 -272.6370557782052 55.36032394763539
9122.126096568369 695.3220399148004 1475.5764280218384 305.1290097620288 -428.70837546302573 44.23971557367643
6343.2115110514615 287.8178011275067 900.7721416153946 271.0215828389953 -530.874850531853 32.42987192396982
5579.1549166960785 2477.1933652351513 1771.5926773532312 643.866777951629 -483.2438585184167 26.1022849254767
537.7994700465525 -7860.2376830594785 -2763.1646818114896 826.9769508774668 -427.1671889736769 -255.12097230594387
-981.8495328050382 -7612.107124296141 -2652.9565554262185 -163.33684216748793 185.96807181473022 -91.03191257149331
3192.882347442945 1385.4283350685844 1140.9121526361448 -747.7384325992895 225.43900781268115 -76.58081196970626
4010.991541610102 -99.75433414052954 568.4842939689318 -674.2615586968598 282.20359426854384 8.472095876345925
6120.163534775327 18.955094759094585 931.5464599966333 -743.135920602864 235.94009211106288 21.40782688222856
7972.843123923912 -46.243822186629586 1231.0888298215273 -785.5412862184141 149.45799483014804 31.27501196707091
9913.44036195787 -59.825552783998354 1650.9383785220166 -813.4907141107784 39.95785804036821 36.14669965938926
11876.431546987456 -67.23784850440902 2160.1423137473057 -859.1405164310958 -79.57833644339192 31.510370181248764
13951.572114211232 -39.11029151028126 2797.5597135301614 -953.6290692675473 -189.94402825032017 5.670469075120815
16209.82513771758 -52.507690784860976 3554.118065132523 -1091.4145500779337 -250.00533937910836 -60.079067872539426
18232.282527518004 -519.3467154687694 4149.313844165548 -956.4756407855347 -194.97925234134607 -170.07525393271064
18856.904660503573 -1464.4944544034238 4135.307069847255 1.645772263757709 -3.600841214657512 -248.58664567356084
18223.166133952884 -519.7075654243798 4149.442941061685 959.9178630799184 187.0959506497231 -170.19081697554495
16190.262981875165 -53.244820898422596 3553.32453549576 1095.3344823369093 240.04972830334142 -60.19009394729286
13918.734438337782 -40.25977615531633 2793.477515232594 958.4407407951969 176.39256230975138 5.87478831986421
11825.637789118719 -68.83813644434673 2148.6089924269704 865.4141012710639 60.52611330027095 32.68974381577222
9837.270462574397 -61.88450150947365 1625.1023297156776 822.0360014380789 -67.41304294794477 39.58174854723288
7860.862123610063 -48.275497192513264 1181.1430791794369 797.2765712651587 -189.65358931982348 39.00796805432483
5947.416796388695 12.191303843296717 837.2933202207412 761.356563959972 -295.3148380383705 36.92453801472082
3730.285293658139 -107.21081719469989 406.7672081193805 709.4373956553 -350.995787923961 32.6361223889133
2897.495127014748 1333.567204415962 886.4275989326977 812.8495969984563 -252.34316858482293 -9.462716902432831
-1184.648766614057 -7507.711549501954 -3036.3937567817925 614.2447811671547 -165.01479024699196 -330.00784623466325
-1110.1812495317135 -5460.112128760661 -1836.474238150753 -1058.6085266068103 65.24454636391603 -313.84485220791646
1450.674979267967 691.4171190480167 653.1290630707191 -1301.4941775618483 82.08105769439294 -115.75002317426815
1874.0574709387497 167.81559114083888 378.49306256403634 -1213.2146581668649 114.8378414670399 -29.498269291459227
3049.5468911953944 -34.01291498063495 471.64191686839075 -1310.9307452700823 94.8025811244786 -0.4223503453070929
4060.233196759239 -31.257918718726955 637.4808735533624 -1361.7539825862236 46.1209129906448 3.597398588491697
5005.946132140205 -47.96569834687996 832.7633133223566 -1410.0486417677062 -11.585013222817535 -5.264662435628953
5955.602964557801 -55.69202454147574 1083.229647704367 -1482.5741833546924 -71.41916480502393 -34.315488838884974
6921.149804346749 0.1535454689530935 1405.8933186665781 -1623.7292744684385 -127.13833027453232 -99.05329793302573
8031.821539067454 77.38502796187103 1823.101467299841 -1868.9471094980945 -165.29610701634454 -222.68023108228124
9146.406202144664 -644.6748619293174 2043.5434104685983 -1734.1828325799816 -141.9462727715946 -408.2653716546237
9056.452431776062 -2773.2686138306753 1468.6379852191926 2.6555434061887833 -7.529813238536746 -542.4096184200075
9136.935310675311 -645.1546885131563 2047.599736728211 1739.7449099945197 126.02887516231237 -408.020925366909
8011.780617380452 76.42416682745296 1830.396469187409 1875.307280991244 146.81891069292644 -221.94105858249415
6888.314616633109 -1.2865818584745181 1414.5385646665868 1631.5852958432804 104.42752510453629 -97.20514908284231
5906.454573951765 -57.62249217253811 1089.6979067909365 1492.9196281426164 42.77220792865204 -30.116154640923362
4935.437295116138 -50.09969404102651 831.164136667197 1424.314561562629 -24.90427150192569 3.5213057923055238
3960.473479501973 -33.54594981348792 617.9178009179587 1382.0064628473824 -92.99546699746962 20.778468364491157
2904.935897981069 -36.87792326935379 417.7576754478859 1341.874103055401 -153.74924421023618 29.356013074096374
1715.5123467365986 172.390072424996 284.918789891759 1269.0639349626356 -173.75409527305897 23.8925963109577
1289.0426545411788 561.853359809185 440.84409856518664 1398.827060808761 -98.84258928733182 -70.01484751056738
-1167.1356452410234 -5379.631026354302 -2096.7299448842205 1158.2594278112203 -44.534644269722854 -485.4411594826361
-996.427686357267 -3466.5596765651258 -922.1117481307758 -1140.5438980673036 -7.768436380562417 -402.4176644433717
155.4454216578884 158.0279192993604 371.7717332454139 -1525.6599810731566 -24.970108088719368 -135.95492694041255
-51.15115265216474 259.81011753213625 198.34441643756668 -1513.596991103201 -35.74652929292928 -40.70380279453451
56.71495433686261 9.754913146162966 65.35831112007145 -1508.0000628705218 -45.87706961569127 -7.890973366388997
120.25580809562851 -11.954751034384794 38.72961865912191 -1552.7104145386077 -60.16516647869941 -2.4376800696122283
96.23766906189881 -3.26542457345199 29.078436432783093 -1607.5984673225946 -70.73092620535527 -15.500277750756277
34.851519068488535 -11.565072405172199 25.795178413264118 -1691.048277882897 -76.40207281205537 -51.977905094895554
-104.63457583567262 53.688608273497195 36.99520667755777 -1811.4709824972203 -83.78874250943677 -126.71140329191084
-85.02632273052521 296.4263438572794 163.4792321284498 -2076.526155214241 -104.99872085525017 -262.95527858229065
366.04343809505076 -600.6688422207092 116.23745248235514 -2168.764747026451 -111.50272994327608 -474.4641379859395
-649.7979141279747 -4861.818721947421 -1343.7753054209902 3.0093998511613216 -11.447506190664736 -647.3346288086545
356.2631498360948 -601.2968401391906 124.23351565556936 2175.0686806750514 87.59055562236831 -474.11024105952356
-105.44364808189854 295.18130182800286 178.88745739848753 2083.735847915701 78.10017174493979 -261.9554079687303
-137.3053779400365 51.85032888179675 58.38096345285486 1820.3748804766683 52.14529908239468 -124.35289683230594
-12.292123762335958 -13.924861114051623 50.3055210662011 1702.777487780444 38.651044466669745 -46.84782261682186
31.942316993853904 -5.829484777526143 51.531267078898196 1623.88611999504 26.077000329406427 -4.973067023299195
34.41052116597045 -14.217593520907174 49.826136058416374 1576.329922882484 8.542404887981185 17.73062467190286
-46.74403180967521 12.28433476608274 54.30056482122763 1543.9564530374548 -10.307855328492517 28.434443772858902
-146.28266613458246 243.02205624417272 144.55118823797613 1570.3955200979112 -10.757332450478897 16.10533264250189
67.84345837648526 56.24836424088791 220.35279798700512 1573.049905542969 15.167355201429856 -102.65188878280105
-1003.9482502621687 -3378.83366731913 -1105.100316065724 1160.554478663777 24.091818645667953 -514.0072750702471
-943.7296369463809 -1837.7451318859128 -126.45245049703576 -909.9913109754882 -69.2357237327722 -378.15826829513685
-901.6651398541637 -114.36536352928883 250.97039770079 -1336.5258169724152 -123.60635625751078 -116.09819829602178
-1884.6960901872055 216.2539416330959 3.2231203864311357 -1409.883909759809 -181.121793551226 -34.697258429365284
-2862.61337548422 46.75927880866559 -322.98029158727246 -1341.3933784287947 -185.42006246448324 -3.953366873902364
-3815.219631695368 22.10911507427979 -556.0469281657955 -1358.446975384436 -167.10282977659844 3.7625880059096293
-4827.819488666382 36.139552815589596 -781.5719757631074 -1410.0616080764178 -130.63292219018808 -5.340754009936994
-5859.489631777511 58.31602086623006 -1016.3535803122528 -1480.0619227351585 -82.39398616490713 -34.72747584471671
-7058.15557674005 44.93020826869893 -1329.227069182568 -1571.4088057633207 -38.38037735879762 -95.01543151218624
-8224.885380028196 424.37403362660507 -1534.4718733626316 -1697.8258192380836 -33.539567808046016 -204.4267635797992
-8253.489772597888 51.06648519798262 -1607.3425500723718 -2252.65083014853 -70.26523719218638 -398.39535202930335
-10823.474020649792 -7881.342738101675 -4590.366175583076 2.664566943865207 -15.442213847598921 -597.9965300056464
-8263.64290410497 50.28697223316358 -1595.350327232703 2258.2314063007293 38.19402571375393 -398.1824040011494
-8245.821444462263 422.83294040457383 -1510.831633529211 1704.2037780435153 -1.9769955240843196 -203.75221680284164
-7090.911597546463 42.6795261297572 -1294.8995473267016 1579.273031175882 -2.4487084490713595 -93.2734060095755
-5904.984609463004 55.502681074879 -973.4872009849734 1490.401510687149 35.18798181072134 -30.70213883400149
-4886.362744126377 33.058711549685924 -734.595707681407 1424.4939352006854 77.3917788728127 3.239738770480715
-3884.7570206134733 20.516245529316905 -512.5796092420536 1379.7179136411908 110.36024278548868 20.941564017035475
-2932.4947238731434 47.05201428348188 -295.01703084295826 1373.872714820712 131.84713788135696 27.86609299736683
-1938.3773436416823 196.87871448590116 -9.70521137319819 1449.282387258722 144.8969904637889 11.444103065668033
-943.7360481946581 -173.50992227500336 158.3345318713977 1353.9877931321064 118.65717251677574 -91.47562925563051
-942.7664684920119 -1776.7648696291042 -264.25784643832424 904.1436668545145 82.50485730638839 -450.27688405043233
-1047.0680388855715 -817.9613077332832 415.6803659934528 -491.69080226691244 -146.81925858565927 -228.70773330676562
-1802.7009900214236 -207.64561381831882 224.03512525126695 -764.7389982965644 -236.50335520277173 -50.5058322596218
-3679.319627145998 120.96719249480623 -200.4549797645509 -831.5167837101723 -333.27813201077316 -6.793628113771825
-5749.244139355829 57.747032750888756 -714.4895936242737 -779.8606890467805 -325.78804956097275 17.961419063575512
-7748.821795523806 40.88396531885046 -1160.487202954309 -781.926713617205 -271.8818887262114 30.87545327254752
-9747.181986866854 55.06071397429328 -1604.5108397335912 -813.3092877784738 -184.48209972231155 35.963489140252506
-11785.80942708406 69.93387769455768 -2095.7834944839997 -857.0493785069901 -76.57242034189186 31.244476525625434
-13779.789930474999 152.25344112391457 -2608.6401271455966 -894.527252921751 26.15563162584891 9.874927494465712
-16452.47658432907 -85.0162902506452 -3478.1115460648452 -994.5012393155054 80.49637386817605 -35.777247653467725
-16822.935994600884 1815.889817072597 -3065.18444450729 -1351.0063892642822 22.084572549187282 -158.5403044151333
-22184.873576474296 -11766.450316079809 -8570.465217977002 1.6648726687220359 -19.60142537620943 -384.51853341018017
-16833.633961829608 1814.982976723357 -3049.0983497102193 1354.4885813722458 -62.68112885232636 -158.72297241651762
-16474.308433885417 -86.80787481679528 -3446.0247516839754 998.4647133523334 -125.11895725547856 -36.02300214087823
-13813.28440212237 149.655717432308 -2560.9961433935873 899.3797085989346 -76.90017150744022 9.868747812442473
-11830.793381341568 66.71746317824082 -2033.9824619492001 863.3731221320566 18.75613278273932 32.10790641230838
-9801.15692274378 51.835244397427246 -1531.8126215031957 822.0466054115326 120.80875562281943 38.95107200287448
-7803.942531993827 39.0561680897589 -1083.2961333761996 794.8523519000688 207.36063586231353 38.46732793926124
-5791.189495169769 56.028465190221155 -645.9544071502327 798.758873409408 271.34547176825316 33.93043488220364
-3698.8783890800783 107.14467051220902 -168.09521794561869 850.7816369610199 304.61154168225255 16.776095937209238
-1811.063300400796 -234.6430775970381 185.29671532562583 768.9792268487563 238.1860151638993 -38.03197503271527
-1044.9452867499554 -790.1088647628062 312.225594806244 482.9852307844007 162.6645655861254 -269.02158632853167
-1169.7955180403455 -475.3316855387143 686.769661016727 -191.66498823392612 -282.88895360557405 -117.38694628575679
-2528.5972523995647 -316.51524268587457 227.55189037867746 -306.1617857132814 -389.8157322380482 -5.352102051728522
-5602.795931811199 -315.2470929114986 -547.8194874314357 -317.2883777237451 -498.1859944705046 14.247922575590483
-8953.202439128994 -618.3545658183618 -1405.4747814964599 -305.5584704130898 -465.32009769092423 34.956453808929886
-12064.802403547343 -869.6890715527256 -2154.5117147095507 -309.8388943450542 -367.6575256950341 52.642484431527144
-15132.735206506984 -1088.8515664937804 -2912.8635567522024 -326.29462416486285 -221.24224465892354 70.03254739282691
-18270.854834494785 -1345.2247213213907 -3772.208785354699 -342.67022878685964 -43.16884449769771 85.59698660636332
-21333.82103271747 -1433.5548632263149 -4652.621141961609 -379.05954231300933 132.68912663326918 97.11671295033334
-24372.312590611684 -2119.7091310002343 -5815.855146095395 -400.9789650034187 246.73768338554575 91.81077618223907
-27005.128232167208 593.7994304005523 -5958.989673557724 -883.1246282368501 235.6419927504956 56.80505712446285
-37423.279879475645 -17796.933580301087 -14676.854762478324 0.8658698561674001 -23.985201861029687 -269.39350794934853
-27016.345177913783 593.515470904184 -5938.380852744093 884.9456936511139 -285.2752988931094 56.40879056623434
-24394.99955827232 -2120.166173033642 -5774.395014213745 403.0782755404083 -301.18457512233135 91.0491791595882
-21368.055143714373 -1433.917435169691 -4590.098097404276 381.6644181107666 -194.48233147349916 96.07945871941493
-18315.4931697169 -1344.944687749514 -3689.0217934482903 346.080253548074 -27.146433660504652 84.49663559048632
-15182.81582165537 -1086.599141798632 -2810.7503944451137 330.9343161725303 143.92637102730603 69.36204323964867
-12106.568959444778 -862.8618637802955 -2037.6051898057372 316.43271444827354 290.0981985026576 53.51888914132944
-8963.821189835144 -605.9045392972529 -1284.8078940901212 314.7251424260778 402.994303256333 39.29894471651998
-5574.424122001745 -305.1829681806529 -453.35990136402006 326.8346656959567 473.75642582121196 21.801920276757816
-2492.947693510117 -312.68677932304996 248.76268323560276 309.73698018871795 407.1463839190377 -1.762007967879878
-1147.4087111515723 -449.85266192877856 623.6855904017909 189.01374584006692 318.10889775328945 -141.52990180999672
2563.4784356045825 -6941.224627340358 -1313.323857520732 217.962442762407 -3.051598085335172e-09 -1.5215464443940618e-09
6632.05505727456 2593.6904792605083 2329.3581106792144 -646.4428950062368 -1.5299437272631167e-09 3.5143443710694555e-11
6719.224670354042 343.7762710055327 1296.2840424052818 -251.2898758959879 -5.649125611739692e-10 -1.4385070912226183e-10
9255.274044934906 705.4206508150688 1801.2866718079708 -298.81609891047896 7.748846009292265e-11 7.225864351312339e-11
12168.373264972082 855.1684269921187 2461.975326690831 -319.5088704265845 2.246706154451772e-10 3.4311442576040463e-10
15189.73215874447 1103.9294831691338 3312.0801861958944 -343.4640228350761 -1.7665402474165148e-10 -2.1032420249866846e-10
18292.28354085158 1360.8107738717588 4326.560495168362 -374.0804093968666 -6.194862400832335e-10 1.7391510453990122e-10
21696.09221047467 1684.454683683914 5586.7374826370515 -423.92385223796936 -3.445581597816272e-10 6.695559662261985e-10
25647.98026023033 2056.5209452906793 7131.207030644637 -476.69102452137764 3.589395447534116e-10 3.7573721911599023e-10
29590.612170947195 2209.219997836014 8626.01255662695 -398.2732039422575 6.970525268101824e-10 1.6627410559522104e-10
31293.8125485433 1939.61038857389 9183.60006630108 1.0510770805585636 8.487781588684129e-10 3.97317734268654e-11
29575.510287470617 2207.9621081494747 8620.859254455596 400.4724531014736 1.586528686203792e-09 -2.481677086052514e-10
25615.293277602046 2053.8710556906663 7119.095838892875 479.2008305499534 3.2109221947962396e-09 5.091465027362574e-10
21640.180171226013 1680.086540270883 5563.663169864002 427.02708233032257 3.5776215323579663e-09 7.097700205349611e-11
18202.708619327153 1353.9495261609406 4285.479584647261 378.14692780304387 2.9873153117865314e-09 8.659295502866371e-11
15049.215442005325 1093.7246732751457 3242.324788144761 349.06511116605895 1.0179965759249399e-09 -1.9374502002733607e-10
11948.944959030121 838.9255460136707 2347.6424321289824 327.00967570292795 -1.753886813560257e-09 1.6257173385270107e-10
8918.223813109054 684.2990982944914 1624.0744025635238 310.9157128770973 -2.661309395080025e-09 1.4613066312563205e-10
6167.068259834821 291.415641582423 1001.6522250749745 273.7210452273922 -3.4332461318342666e-09 2.1410828665580084e-10
5359.197921677165 2375.2079258363733 1690.296713202149 616.866115845935 -3.0449734955695362e-09 5.969447158804542e-12
454.9502885687028 -7594.429694677287 -2784.6652014096753 785.2445462565925 -2.72183431349049e-09 -1.3970709034083484e-09
-843.8611550981113 -7360.1456225229 -2477.0516304537923 17.11282439452194 -9.31242749580008e-10 -9.197123063131585e-10
3230.778909490802 1326.3370803641571 1142.1724123220204 -710.1753446149461 -8.545424368122667e-10 -3.7956171539121897e-10
4085.7703957638705 -85.54189315431414 680.9952754935493 -657.632301790851 -6.396272400621683e-10 -3.6504732570108445e-10
6106.5666769853315 21.56015676807757 1054.1369369607162 -746.106026090023 -3.1367569652829275e-10 -4.4145576083565174e-11
7932.357407182032 -38.78700372753238 1392.5584220287649 -801.6891765606202 -1.3063319870276757e-10 1.0515677217881603e-10
9869.434035445165 -45.555610480906935 1874.3267050393558 -846.0807327576747 -2.0287460600343366e-10 -5.446265660680183e-11
11862.932655241011 -44.319101771831065 2470.781179394735 -912.9073622851047 -4.1297509856264014e-10 -2.845825797237467e-10
14023.533481827037 -5.054257215068434 3217.257644324842 -1032.0032356265265 -2.7925073364798436e-10 2.62628585545599e-10
16428.74522682871 -6.917523070828226 4091.0629415875296 -1185.913188075343 -1.792502812847374e-10 -4.139564246941063e-10
18615.18246000024 -467.20001221394 4776.457907908007 -1034.0775048473292 1.930838822161718e-10 -5.605937936081773e-10
19299.81456063155 -1440.2031515903032 4774.4578538038295 2.0345277946693505 7.232918708410807e-10 -4.284634869122783e-10
18599.48890949331 -467.77201553689594 4776.4817286477 1038.4040284444834 8.069512835717774e-10 -9.146972068663217e-10
16395.235510558032 -8.062875208652168 4089.741215744191 1191.0758771666647 1.613897127050734e-09 -2.353814920752484e-10
13967.531195058033 -6.801516142587138 3211.504120140627 1038.7864190997518 2.214117167387286e-09 -3.288791461386609e-11
11776.214926776984 -46.74055001972173 2455.1372509460075 922.4627804338268 1.5516254739389446e-09 5.134559444286424e-11
9738.476936288542 -48.67035846608955 1840.0428174011365 860.0018892841491 6.486061687738243e-10 1.376113889506314e-09
7736.358193454254 -42.230968460218 1327.002329508774 822.086323661898 -6.687970177665647e-10 5.491054277939611e-10
5809.69963921611 14.130864801874983 935.6000086720433 777.4701856183904 -1.5738838010648237e-09 5.791067625438018e-10
3640.4344518312714 -92.31919557488713 481.9229239552593 718.2865417415458 -2.0073128714770405e-09 3.159759121018624e-10
2787.6516462425393 1272.9367974384675 818.4648880914497 788.6665676714584 -1.5157416294320214e-09 -1.0907141856364433e-10
-1184.824655072053 -7255.678193131782 -3042.3093284400375 581.8938474915498 -9.54333168046162e-10 -2.058534676052659e-09
-1086.6098199261419 -5388.052512681587 -1790.3924287885582 -977.6466666073649 -3.325594244429908e-10 -1.212736577826945e-10
1490.5539466861924 715.0399850818537 670.449720690568 -1228.5327406254885 -3.7989020262862994e-10 -6.21797946465108e-10
1938.736365275219 170.11664181282643 440.3085324020469 -1191.6795755306186 -6.243302125286121e-10 -5.775289135812045e-10
3082.123435486409 -19.877347564593606 549.9018625939747 -1316.4125539952995 -5.146434389757815e-10 -4.878673021124769e-10
4070.1042438880804 -13.994515982654914 729.1557547137985 -1390.541328528365 -4.4430911727566524e-10 7.48312523057848e-11
5014.058438442092 -22.57420372256933 955.1207010766997 -1464.3980722724089 -5.283929960242517e-10 8.653833205585215e-11
5978.510534764021 -20.855860164007048 1250.1434166778683 -1571.0318959465874 -3.4363301093520704e-10 -5.049058948713991e-10
6984.558249242902 48.537958338375276 1628.9303855298106 -1752.6022252339897 -6.004997610276064e-10 -5.428582028343953e-10
8166.354137737356 141.98449467234866 2106.768140786255 -2025.4382809034048 -6.902928784136009e-10 -1.1852252512767336e-09
9376.634398218372 -564.3770966747404 2371.301072751942 -1867.0354495627014 5.656958235178422e-11 -8.149445562821711e-10
9301.4242518217 -2754.686264008099 1759.6850394303592 3.1790215745728925 1.6065571095680298e-10 -1.0108300863009845e-09
9360.286204317408 -565.130593659709 2376.091973299035 1873.816636502498 4.088757110665142e-11 -1.3028125245284627e-09
8131.935985070013 140.4790507316261 2115.3203155384394 2033.5980244554485 5.537959535395487e-10 -7.375229316153309e-10
6928.448453762563 46.2612348120346 1638.8585398391624 1763.4560488941036 8.739365064958093e-10 2.7992097528795057e-10
5894.658294577438 -23.96698352783175 1257.0193494213272 1586.5519537013934 7.704275828412932e-10 3.9752023894834565e-10
4892.880456118763 -26.32712740888944 951.5409205733096 1487.5063779821369 5.580542694616497e-10 2.3406618865351447e-09
3897.0823432864895 -17.610445954484224 703.4864689453876 1425.170463673897 -4.681779963711108e-11 1.3675658383505152e-09
2835.6879883312363 -23.884950542540935 484.0027994969843 1370.7799434096128 -5.809814851431838e-10 1.0110814407937596e-09
1677.7503581145015 179.39969709317091 333.37936211756085 1283.1549083663651 -9.793912625344348e-10 5.40551825523039e-10
1236.1772823072622 528.8534677278384 394.7887606427013 1363.9039070385268 -4.730638381023056e-10 -4.735825065438348e-10
-1163.8609976106782 -5208.318470676301 -2131.0698324814443 1108.4921367116401 -2.765320750164335e-10 -3.0599203171277622e-09
-981.9595578314389 -3426.5080190926965 -904.8690759684448 -1093.7950369634723 -5.194661367724507e-11 3.775024737251442e-11
192.01597016705378 184.0619213279547 378.3254084630735 -1468.9317579719504 -1.9105822479659196e-10 -5.044475948068339e-10
12.055790991753668 262.9778544349499 223.22000636960576 -1486.617590658109 -6.346186909311768e-10 -6.442715250187803e-10
109.4342046939998 6.169139045929118 84.76812029789123 -1514.636852492932 -6.822519216242995e-10 -3.7512815076468087e-10
163.07209135624282 -13.931958481648067 48.11409353788122 -1586.3934384687 -6.937610486090762e-10 4.1036063436195036e-11
133.9658741644911 -4.358719478414243 34.056398059695944 -1670.3982666613656 -8.009259921948342e-10 2.1507773340090353e-10
67.96635757793472 -10.426129435259917 31.49672523054576 -1791.5287739938933 -6.364725413376959e-10 -3.350373312116517e-10
-77.91617757235046 60.12667181212713 45.63813519852167 -1955.2492531138535 -8.923688177286948e-10 -7.140878999223332e-10
-59.03434538406971 311.5641834338478 179.36428756360954 -2248.1317714837314 -9.382327692541992e-10 -1.7135004526380726e-09
436.487166677751 -570.2092380336215 138.70622489230726 -2321.4430518827253 -3.5950167842635494e-10 -1.3015952760042637e-09
-609.7074126026514 -4947.374156396172 -1427.1738371256572 3.5660955301289254 -4.43427156104903e-10 -1.213059430682506e-09
419.59186414102817 -571.1562131571379 148.2776720783894 2329.0544378962263 -5.297422916994421e-10 -1.5038690293067702e-09
-94.10647572586342 309.6803631679039 197.80472075158522 2257.304234199982 -2.3785172616197503e-10 -1.581466957389921e-09
-133.65057462828207 57.31409870796705 71.22431053790507 1967.4650877099477 -3.640367521318133e-10 3.1829605617872403e-10
-12.130828535415045 -14.174659286585644 60.78224775708524 1809.0484349157612 -4.636613315511795e-11 4.398472697175748e-10
24.430972567507496 -8.617556549646231 60.87230008180415 1696.7009496302805 2.4593527214733513e-10 2.563929513144103e-09
16.229770462276402 -17.668017175679207 61.743232265890555 1626.7905648992378 4.3545422823143554e-10 1.6004777503297873e-09
-67.17739775707226 9.868431098312646 74.91305156930159 1577.0203274317275 1.668105098495687e-10 1.3731382697557137e-09
-148.29305575950914 238.09017264213574 164.64529026848433 1579.2629720898 3.722705477215982e-11 5.986611206765247e-10
52.99997576728937 38.35985212961445 186.19083117620372 1538.7628213725307 1.9643162096905087e-10 -6.839377952871928e-10
-987.0225926360878 -3258.4416218330325 -1136.0621841310417 1120.3659534620074 2.8815727581843475e-10 -3.2188189891257935e-09
-907.6047833029924 -1801.1933783915322 -101.68365558847043 -886.4212220481202 6.176353872788809e-11 -8.22852896931181e-12
-854.5186010292847 -89.4981856818931 245.66187885872307 -1296.225528424497 -1.982800590383249e-10 -3.0998958955308353e-10
-1814.4249742790093 216.11472516649016 -6.351912266438328 -1383.6901794018231 -6.468408031423678e-10 -5.986675599700675e-10
-2790.331858382495 29.622651060594706 -360.4984072930305 -1343.3901962009224 -8.311794585935672e-10 -2.880282679029733e-10
-3742.1589309778346 -1.0246417206541967 -630.0102415252287 -1386.4359530467657 -8.836996689964849e-10 2.97699642715088e-11
-4760.656787491828 8.28319219706759 -894.1383712557697 -1464.7608217760132 -1.1855060266796613e-09 1.996443010909843e-10
-5814.755747961863 26.40371812587592 -1171.512460440236 -1568.1836424972596 -1.067563995538201e-09 -2.1823742812898672e-10
-7065.348737903258 6.601457160766581 -1535.3862744142486 -1697.1455333385961 -1.0774193204277083e-09 -6.052487400154405e-10
-8309.305086711829 386.2189113006675 -1787.1427286439316 -1841.8507206336487 -1.0126310345803802e-09 -1.922977777013557e-09
-8338.1943660335 38.0816061490237 -1869.8480703880273 -2395.9865281190905 -9.126730204922495e-10 -1.1587206749652523e-09
-11002.140646493212 -8100.840789555221 -5062.608641805431 3.202832762562747 -8.981525523310552e-10 -1.0143135220630484e-09
-8355.721040481985 36.9393189639964 -1855.423271622669 2402.818163571019 -9.649288590374283e-10 -1.1475589367648809e-09
-8345.215844395803 383.9550908743639 -1758.6603588764133 1850.0660830534307 -1.2057161935530303e-09 -1.3401320053674226e-09
-7121.048795807649 3.2573890493168056 -1493.8942060380512 1708.048093954141 -1.1693166157566992e-09 3.204982945703705e-10
-5891.521671212858 22.101416756226705 -1119.3912775171389 1583.7575301331626 -9.135524281500551e-10 7.501914645047236e-10
-4859.064387616683 3.380284773872189 -836.3336019308259 1488.256351357937 -8.327549760878128e-11 2.509040974985055e-09
-3859.2508448278377 -3.895885270969825 -574.686575631608 1422.953727175376 7.430994708457206e-10 1.4948353666000003e-09
-2908.632940666403 29.51039368772541 -320.1517684830389 1399.3505514281578 8.637044413006834e-10 1.3620757854937438e-09
-1905.089635365548 186.32407696405272 -13.924600683421392 1448.9573913249958 1.0456499000000008e-09 4.978277790002039e-10
-920.9534715485844 -175.4405296537054 131.86799201032179 1322.9923047784948 9.25239607152406e-10 -5.53486145804527e-10
-901.4478032332286 -1691.6879758279624 -275.17494327528567 877.4245471036149 7.042681993141287e-10 -2.8572095800427633e-09
-977.7107803382411 -767.6849297460057 446.3251219564985 -485.0989732726022 3.651146052163767e-11 -3.367706113976965e-11
-1732.4359718766855 -171.6571861175026 201.7275306549465 -740.8927702159745 -1.9855161959014822e-10 -1.800153359710066e-10
-3586.78264919503 129.6416245545584 -239.57039283486637 -813.1489589755384 -6.187659273848567e-10 -3.467193199213625e-10
-5643.083679773635 48.391213299768154 -798.930490771682 -778.5244843490685 -1.0616509893424109e-09 -1.8994050776655058e-10
-7628.879424798512 25.190125969598274 -1304.7688919286195 -797.5699779456316 -1.3536213261389207e-09 1.0756884272211664e-10
-9628.547741986817 37.18744144727973 -1818.5354301217594 -846.1584702029553 -1.2443708286014044e-09 -8.856115840671919e-11
-11703.447373206991 49.457999346224426 -2395.551474340506 -910.6880692617993 -1.0176268716577397e-09 5.3718363091093124e-11
-13784.39079874718 129.45756271733003 -3008.5514052994004 -969.2455101158481 -1.252473791346631e-09 2.0426105251658555e-11
-16629.93077293528 -126.1553127184498 -3994.393485820032 -1077.4247496206758 -1.1063041593928347e-09 -8.541540807982528e-10
-17036.791729132627 1870.753226001114 -3557.7950614899864 -1433.983834945563 -1.1571659741527185e-09 -2.4613777682702676e-10
-22619.521687048156 -12138.141416621815 -9427.068219789697 2.07611363771625 -1.2711934838094407e-09 -6.637781435614443e-10
-17055.226400363328 1869.4218113090428 -3538.3848193540757 1438.398475781817 -1.568198015888811e-09 -1.1571543723221112e-10
-16667.304454012487 -128.7920826373179 -3955.576386386158 1082.687178751102 -2.1688708606859564e-09 -6.071112501615517e-10
-13841.175923221048 125.59724428079417 -2950.625051790325 976.1357087720697 -2.1851163101160864e-09 5.642788458715131e-10
-11778.86398574752 44.55816813541535 -2319.7430288451833 920.38444340635 -1.8025375081442974e-09 4.265685582538481e-10
-9718.096122767418 31.975058925823795 -1727.894336255011 860.568389132551 -6.09891470659818e-10 1.4642100865103203e-09
-7719.7245230962535 21.430220316630102 -1205.4490223710077 819.8760236700002 9.33888744114597e-10 8.628069370075764e-10
-5712.099177352356 43.74658285424428 -705.3259754391678 811.1421687878191 1.7469883317744461e-09 6.971385690945908e-10
-3618.503875849832 105.76093198713161 -187.99558595556056 845.3781034600638 2.2364854412870727e-09 2.334168414108717e-10
-1743.3983270857595 -212.95105419345452 159.49111578949584 747.4175462682891 1.8077738195287907e-09 -2.1114976433977972e-10
-968.6754926152679 -717.4985342076302 314.6800210382863 472.3339506066597 1.2674874483309395e-09 -1.8223058617650167e-09
-1094.6803535085576 -433.6430812502698 656.5785017911155 -192.49419550204783 2.284572531152662e-11 -5.5004889532028756e-11
-2446.273570896058 -282.5878241368573 154.74377355349202 -292.63517280139547 -4.121858410144341e-11 -7.214850938908057e-11
-5486.760667247949 -304.92843494287075 -636.7225534275599 -306.8892096280075 -5.386464607681773e-10 -1.6892798271328502e-10
-8807.750327600448 -623.7492034369243 -1555.6801300249235 -303.29212591312603 -1.4049490459910885e-09 -1.91473503718953e-11
-11894.564003651427 -882.8669685673552 -2393.989460462501 -316.27078137319114 -1.9153016950212987e-09 2.8263613671697385e-11
-14962.883823291852 -1108.7339095980353 -3264.7390435100515 -341.40904955179866 -1.1329581717234305e-09 -4.6283865628993226e-10
-18154.62392713336 -1378.803403058871 -4268.376953644865 -367.3879197503599 -8.019851449603266e-10 5.154543458729677e-10
-21363.404976407248 -1490.9093502608353 -5331.242836176662 -411.6147201483899 -1.0738778755126077e-09 6.66275923322246e-11
-24670.15970747461 -2236.4573799607074 -6699.123199432265 -433.65346109232297 -1.1158753920881281e-09 6.10036465786834e-10
-27476.46855997079 575.9807854339416 -6855.708796618176 -929.4056365794772 -1.8153021308364714e-09 2.18363993553794e-10
-38208.21013150774 -18343.452801994143 -15825.183544606107 1.1995412745266805 -1.6843832995050434e-09 -5.837748062731407e-10
-27495.921573402808 575.3186526903787 -6830.754302866263 931.9570287746255 -1.978397001778376e-09 2.7545787872895744e-10
-24709.27089578958 -2237.623970532468 -6648.741627764857 436.6872704021203 -3.445006946378726e-09 3.427125250254903e-10
-21421.874806103948 -1492.2035011281775 -5254.744922394108 415.54874985049946 -3.972422391029795e-09 3.1941915779043484e-10
-18229.90876286488 -1379.4397345620307 -4165.373198951559 372.79737193056195 -3.210697152589148e-09 2.873452586982239e-10
-15045.911766921969 -1106.7299246575456 -3135.5875177928656 349.1060984382213 -1.4067538245399192e-09 2.0538948319881456e-10
-11961.774162869398 -874.2810269951522 -2240.5247606995513 327.4734521921949 1.3143264254722453e-09 2.878408622564166e-10
-8821.180213377786 -606.9413321079998 -1387.9868786079946 318.729900525424 2.9362663411802714e-09 2.169464607959526e-11
-5434.476729579297 -292.0642301485044 -494.937288584443 322.47116873369686 3.8660736834117415e-09 9.387157717810624e-11
-2382.4294986157993 -277.67727886057605 197.52510479154492 298.1911765650643 3.127293979332535e-09 3.772093748466432e-11
-1051.5076451802724 -390.4950701892194 576.8980490762608 189.58770851682038 2.206661520176567e-09 -1.11468523300573e-09
2030.3622872854107 -7444.548464982056 -1624.2558533089934 -95.75565802691288 -351.2544473438772 -30.47999455448054
6459.703617780066 2651.953407565438 2226.2160403666644 -658.8614313923903 -478.8898580130381 36.544643832408184
6692.546350751052 327.37117309682475 1137.0935725360484 -260.696335074801 -450.7046585397927 -35.30048584574328
9313.741768540178 710.4300648702113 1609.358042580852 -297.89573337979095 -376.7549069487793 -40.733090426541075
12261.026461560095 850.9608660793418 2204.6207433329087 -312.15885757513655 -242.2660201744225 -56.21067446270613
15284.780479272762 1088.1368039330498 2950.497937802753 -327.7649666825339 -73.83613268061862 -72.21872526511473
18338.750480004845 1325.387253206694 3820.084982693382 -348.8161710725886 116.53117417651221 -87.21382709452766
21598.19783666822 1616.4266631858727 4892.967491310215 -388.8805638698713 298.3916697373337 -93.95941182014268
25287.660329995048 1941.7644423767424 6225.554227508112 -436.5908022381553 400.045503126023 -79.15424100493406
28924.690512168203 2048.0942155609832 7542.467705800412 -366.7553316051155 310.50528942813565 -34.280857613426726
30491.00920045437 1771.0895614694034 8041.425306574069 0.8485508829220585 -0.4010543332971692 3.7643450512278456
28915.778382927514 2047.0964624646788 7538.342068502611 368.504240560512 -310.8461270362207 -33.79415556131231
25268.277031880956 1939.6606911941112 6215.970873741853 438.50003923275216 -398.9516683413809 -78.18665103546611
21564.94141441618 1612.9811643576181 4874.998665701785 391.08446433197423 -294.6661907899299 -92.56003429321377
18285.638848619423 1320.1319119386255 3788.612347609948 351.4620797283971 -108.30786150596005 -85.52749191083225
15202.520464584102 1080.6015789952771 2897.7733090434917 331.1521449505409 89.92470928965373 -70.76256428744212
12134.08674705789 839.7291567959267 2118.256922658728 316.1062191906706 272.63705577664643 -55.3603239463791
9122.126096562637 695.3220399158006 1475.5764280199155 305.1290097614894 428.70837545836986 -44.23971557322305
6343.211511045835 287.8178011260385 900.7721416132429 271.0215828387175 530.8748505250859 -32.42987192380277
5579.154916690181 2477.193365233106 1771.5926773510985 643.8667779501409 483.24385851241817 -26.102284925161896
537.7994700444099 -7860.237683050998 -2763.1646818090244 826.9769508779686 427.16718896815246 255.12097230255495
-981.8495328018389 -7612.107124296949 -2652.956555425675 -163.33684216217284 -185.96807181663524 91.0319125694393
3192.8823474470596 1385.4283350677308 1140.9121526365113 -747.7384325989491 -225.43900781447476 76.58081196902529
4010.9915416158606 -99.75433413859292 568.4842939702362 -674.2615586965887 -282.2035942698089 -8.47209587680581
6120.1635347785905 18.95509475786153 931.5464599961825 -743.1359206019436 -235.9400921116383 -21.407826882486482
7972.84312392506 -46.24382218949653 1231.0888298202547 -785.5412862179753 -149.4579948304086 -31.275011967578088
9913.440361961213 -59.82555277954714 1650.9383785240796 -813.4907141114572 -39.95785803994466 -36.146699659402884
11876.431546988757 -67.2378485067811 2160.142313747596 -859.1405164325516 79.57833644450956 -31.51037018157666
13951.57211421247 -39.11029151348261 2797.559713531199 -953.6290692696286 189.9440282507216 -5.670469074794213
16209.825137720944 -52.50769078398096 3554.1180651359855 -1091.414550078909 250.0053393788042 60.07906787320665
18232.282527520787 -519.3467154756712 4149.313844166516 -956.4756407849122 194.97925234147007 170.07525393164104
18856.904660508033 -1464.494454405733 4135.307069849557 1.6457722631121197 3.6008412157675216 248.58664567312167
18223.16613395981 -519.7075654178035 4149.44294106768 959.9178630796114 -187.09595064753768 170.19081697499075
16190.26298187312 -53.244820915688805 3553.3245354920155 1095.3344823400191 -240.04972830085072 60.19009394730132
13918.734438338273 -40.2597761573028 2793.477515233013 958.4407407975586 -176.3925623073759 -5.874788319256232
11825.63778911123 -68.83813645248208 2148.6089924224193 865.4141012743387 -60.526113298712126 -32.68974381446637
9837.27046256979 -61.884501506251695 1625.1023297145546 822.0360014392057 67.41304294807193 -39.58174854628899
7860.862123604633 -48.27549719010692 1181.1430791780037 797.2765712624366 189.65358931881448 -39.00796805258452
5947.416796383417 12.191303842162327 837.2933202184772 761.3565639593155 295.31483803526146 -36.92453801369605
3730.2852936551963 -107.21081719421898 406.7672081186359 709.4373956536112 350.99578791967997 -32.63612238829172
2897.49512701198 1333.5672044144517 886.4275989315184 812.8495969972446 252.34316858200523 9.462716902270678
-1184.648766611382 -7507.7115494921945 -3036.3937567776316 614.2447811668306 165.01479024494068 330.0078462304208
-1110.1812495306217 -5460.112128762593 -1836.474238151242 -1058.6085266059542 -65.24454636454034 313.84485220758756
1450.6749792701403 691.4171190490723 653.129063071175 -1301.494177561281 -82.0810576954311 115.75002317307613
1874.0574709429065 167.815591144823 378.4930625655304 -1213.2146581665816 -114.83784146844444 29.49826929099124
3049.5468911980784 -34.01291498118167 471.6419168681688 -1310.9307452686892 -94.80258112545579 0.42235034515608705
4060.233196761169 -31.257918718719466 637.4808735532253 -1361.7539825852712 -46.1209129913223 -3.597398588945562
5005.946132142589 -47.965698345920046 832.76331332301 -1410.0486417694158 11.585013222462745 5.264662435142426
5955.602964560475 -55.69202453917312 1083.2296477059745 -1482.574183357576 71.41916480463578 34.31548883866055
6921.149804350275 0.15354547434087262 1405.893318669731 -1623.7292744710978 127.138330274128 99.05329793427492
8031.821539068115 77.38502795464541 1823.1014672992058 -1868.9471094985377 165.29610701593634 222.6802310831053
9146.406202148726 -644.674861931931 2043.5434104704045 -1734.182832579677 141.94627277126094 408.265371653448
9056.452431780013 -2773.2686138280505 1468.6379852213918 2.655543404991352 7.529813239028437 542.4096184188847
9136.93531067807 -645.1546885127907 2047.599736730342 1739.7449099933779 -126.02887516111028 408.0209253658754
8011.780617377309 76.42416681105048 1830.3964691828269 1875.3072809953921 -146.8189106919887 221.94105858271016
6888.314616632234 -1.2865818656878654 1414.5385646652317 1631.5852958461005 -104.42752510384436 97.2051490832468
5906.45457394672 -57.622492183818665 1089.6979067866916 1492.9196281466207 -42.772207928250985 30.116154642608997
4935.437295109463 -50.0996940514628 831.1641366622946 1424.314561564308 24.90427150179833 -3.521305790501078
3960.473479498804 -33.545949813189075 617.9178009168676 1382.006462844181 92.99546699680178 -20.778468362392044
2904.935897978827 -36.87792326674467 417.7576754477954 1341.8741030536032 153.74924420842828 -29.356013072214242
1715.5123467347698 172.3900724240434 284.91878989092663 1269.0639349603969 173.75409527114292 -23.89259631010827
1289.042654540543 561.8533598082932 440.8440985647669 1398.8270608066343 98.84258928630636 70.01484750993576
-1167.135645239643 -5379.63102634746 -2096.729944881447 1158.2594278099923 44.53464426912358 485.44115947654865
-996.4276863579067 -3466.5596765681744 -922.1117481319383 -1140.5438980675453 7.768436380325506 402.4176644435466
155.4454216596151 158.027919302848 371.7717332465122 -1525.6599810735881 24.970108088047038 135.95492693943902
-51.15115264944408 259.8101175360523 198.34441643882172 -1513.5969911028776 35.74652929166247 40.7038027938798
56.71495433957156 9.75491314770232 65.35831112070707 -1508.0000628695714 45.87706961424231 7.890973366216346
120.25580809683045 -11.95475103501624 38.72961865863342 -1552.7104145377994 60.16516647731451 2.437680069125128
96.23766906443669 -3.265424571304872 29.078436433751513 -1607.5984673242872 70.73092620413794 15.500277749885708
34.85151907065169 -11.565072403796247 25.79517841414236 -1691.0482778853952 76.4020728110248 51.97790509477309
-104.63457583284257 53.68860827667256 36.99520667905591 -1811.4709825005807 83.78874250809454 126.71140329316515
-85.0263227308368 296.4263438488246 163.47923212643823 -2076.5261552148277 104.99872085428913 262.9552785834688
366.0434380951469 -600.6688422291035 116.23745248037463 -2168.7647470256 111.50272994245933 474.464137984636
-649.7979141250462 -4861.818721943825 -1343.7753054194723 3.009399849849423 11.447506190373764 647.3346288061566
356.2631498341433 -601.2968401488358 124.23351565267757 2175.0686806737426 -87.59055562208066 474.1102410582572
-105.44364808075613 295.1813018249469 178.88745739838095 2083.7358479194413 -78.10017174559842 261.9554079688517
-137.30537794389105 51.850328869309685 58.380963448902676 1820.374880480391 -52.14529908316559 124.35289683284745
-12.29212376354538 -13.924861122071107 50.305521064092886 1702.7774877846407 -38.65104446722866 46.84782261828135
31.942316994080066 -5.829484782297996 51.53126707791351 1623.8861199968467 -26.077000329761503 4.973067025460857
34.41052116549531 -14.217593522390214 49.826136057814395 1576.3299228795322 -8.542404888316556 -17.730624669629346
-46.744031807810224 12.284334773384368 54.300564823681334 1543.9564530347511 10.30785532818954 -28.434443770794278
-146.2826661355667 243.0220562420006 144.5511882369764 1570.3955200955502 10.757332450594895 -16.10533264159254
67.84345837691382 56.24836424034256 220.35279798692713 1573.0499055407724 -15.16735520097113 102.65188878192589
-1003.948250259374 -3378.833667314146 -1105.100316063229 1160.5544786625483 -24.091818645331035 514.0072750638107
-943.7296369480955 -1837.7451318890148 -126.45245049826734 -909.9913109759916 69.23572373263376 378.1582682954531
-901.6651398526537 -114.36536352447249 250.97039770236995 -1336.5258169731833 123.60635625697859 116.09819829539742
-1884.6960901857465 216.25394163568805 3.2231203872173086 -1409.8839097600244 181.12179355004125 34.69725842864866
-2862.6133754831944 46.75927880750716 -322.9802915877611 -1341.3933784283518 185.42006246286013 3.953366873697656
-3815.2196316930613 22.109115078312303 -556.046928164573 -1358.4469753833598 167.10282977443322 -3.762588006317614
-4827.8194886616075 36.13955282462823 -781.5719757597157 -1410.0616080777243 130.6329221881899 5.340754009037788
-5859.489631777762 58.31602086030019 -1016.3535803147663 -1480.0619227375823 82.39398616294133 34.72747584474927
-7058.155576736505 44.93020827072668 -1329.2270691816284 -1571.4088057654646 38.380377356949964 95.01543151344714
-8224.885380027396 424.37403362410055 -1534.4718733633665 -1697.8258192384674 33.53956780679048 204.42676358165198
-8253.489772597013 51.0664851963713 -1607.3425500728765 -2252.650830147523 70.26523719042906 398.39535202805763
-10823.474020651049 -7881.342738109577 -4590.366175586728 2.6645669431191137 15.442213846208457 597.9965300031377
-8263.642904104334 50.28697223323869 -1595.350327232624 2258.23140630031 -38.19402571464226 398.18240399986826
-8245.821444463281 422.8329404011329 -1510.831633530557 1704.203778046786 1.9769955219833053 203.75221680355153
-7090.911597546515 42.67952612507045 -1294.8995473277284 1579.273031179642 2.4487084468554112 93.27340600968932
-5904.9846094594295 55.50268107446164 -973.4872009838189 1490.4015106917284 -35.187981812196995 30.702138835241747
-4886.362744124639 33.05871154145136 -734.5957076827144 1424.4939352024471 -77.39177887341835 -3.2397387689613177
-3884.757020608747 20.516245533175454 -512.5796092394397 1379.7179136382983 -110.36024278539524 -20.941564014895985
-2932.4947238700975 47.05201428653539 -295.0170308413682 1373.8727148182597 -131.84713788018558 -27.86609299569908
-1938.3773436394918 196.8787144864538 -9.70521137260859 1449.2823872559532 -144.8969904615939 -11.444103064914652
-943.7360481942752 -173.5099222766585 158.33453187080408 1353.987793130526 -118.6571725150291 91.47562925496797
-942.7664684901699 -1776.764869626118 -264.2578464368439 904.1436668534985 -82.50485730529256 450.27688404468665
-1047.068038886672 -817.9613077351421 415.6803659930581 -491.69080226715573 146.81925858568462 228.70773330702184
-1802.7009900204378 -207.6456138145538 224.03512525264006 -764.7389982968509 236.50335520235794 50.50583225923148
-3679.319627146455 120.96719249531664 -200.4549797646892 -831.5167837105786 333.27813200945275 6.793628113374867
-5749.2441393552135 57.74703275128661 -714.4895936242677 -779.8606890463635 325.78804955911465 -17.961419063802452
-7748.821795520527 40.88396532319426 -1160.487202952353 -781.9267136158619 271.8818887238004 -30.875453272741236
-9747.181986864103 55.0607139765663 -1604.5108397327115 -813.3092877796693 184.48209971945528 -35.96348914038756
-11785.809427081635 69.93387769417699 -2095.783494484745 -857.0493785085823 76.57242033861499 -31.244476525424325
-13779.789930470653 152.25344112852667 -2608.6401271447544 -894.527252922913 -26.155631628403885 -9.874927493771844
-16452.476584329015 -85.01629025077682 -3478.1115460660967 -994.5012393161937 -80.4963738695518 35.77724765467181
-16822.935994598116 1815.889817078351 -3065.1844445059583 -1351.0063892636754 -22.084572551693483 158.54030441422015
-22184.873576480033 -11766.450316095454 -8570.465217984902 1.6648726685205353 19.601425373828057 384.5185334085576
-16833.633961828364 1814.9829767287854 -3049.098349709357 1354.488581371037 62.68112884991174 158.7229724156099
-16474.308433889768 -86.80787482485412 -3446.0247516888285 998.4647133545302 125.11895725169595 36.02300214137719
-13813.284402122954 149.65571742770703 -2560.9961433957087 899.3797086014022 76.90017150383899 -9.868747812573119
-11830.793381336383 66.71746317824602 -2033.982461947924 863.3731221345936 -18.756132785403757 -32.10790641126236
-9801.15692273973 51.83524438656525 -1531.8126215047023 822.0466054125976 -120.8087556238266 -38.95107200183274
-7803.942531985085 39.05616809317977 -1083.2961333722728 794.8523518984309 -207.36063586140534 -38.46732793772288
-5791.1894951651475 56.028465189645445 -645.9544071491698 798.7588734082404 -271.3454717654081 -33.930434881033136
-3698.8783890763243 107.14467051322815 -168.0952179444813 850.7816369591644 -304.6115416780447 -16.776095936641532
-1811.0633003997218 -234.64307759760177 185.29671532524807 768.9792268477461 -238.18601516054937 38.031975032323416
-1044.9452867487548 -790.1088647617335 312.2255948067641 482.985230784059 -162.66456558386523 269.02158632487294
-1169.795518039757 -475.33168553940624 686.7696610173774 -191.66498823353498 282.88895360572917 117.3869462858599
-2528.5972523983887 -316.5152426825019 227.55189038034393 -306.1617857131515 389.8157322379268 5.352102051524712
-5602.795931813824 -315.2470929127385 -547.8194874325861 -317.2883777240578 498.1859944690949 -14.247922575733273
-8953.202439129225 -618.3545658166363 -1405.474781496162 -305.558470412616 465.3200976886265 -34.956453809175656
-12064.802403544429 -869.6890715517505 -2154.511714708252 -309.8388943444213 367.6575256926305 -52.64248443158233
-15132.735206506335 -1088.8515664999609 -2912.8635567541555 -326.2946241654439 221.2422446551268 -70.03254739214287
-18270.854834488837 -1345.2247213133346 -3772.2087853530093 -342.6702287877537 43.16884449284027 -85.59698660655022
-21333.82103271606 -1433.5548632268813 -4652.621141964885 -379.0595423143674 -132.68912663654496 -97.11671294963466
-24372.3125906125 -2119.7091309969373 -5815.855146098429 -400.97896500382234 -246.7376833871157 -91.81077618218727
-27005.128232167048 593.7994304042625 -5958.989673559324 -883.1246282377867 -235.64199275193766 -56.805057125172944
-37423.279879481976 -17796.93358031705 -14676.854762487064 0.8658698554988113 23.98520185746666 269.3935079474182
-27016.345177917123 593.5154709053603 -5938.38085274728 884.9456936510949 285.2752988874615 -56.40879056671494
-24394.999558277683 -2120.1661730345854 -5774.395014219126 403.0782755407939 301.1845751169083 -91.04917916002523
-21368.05514371801 -1433.9174351807633 -4590.0980974104905 381.6644181116701 194.4823314687611 -96.07945871979149
-18315.49316970744 -1344.9446877452597 -3689.021793444927 346.08025354971886 27.14643365639694 -84.49663558950994
-15182.8158216448 -1086.5991418057044 -2810.7503944427576 330.9343161725783 -143.92637102892846 -69.36204323892996
-12106.568959429744 -862.8618637768964 -2037.6051897992186 316.43271444751235 -290.0981985009604 -53.51888914052434
-8963.821189826549 -605.904539297309 -1284.8078940871223 314.7251424260296 -402.994303251622 -39.29894471575709
-5574.424121997283 -305.182968179794 -453.35990136272477 326.83466569506044 -473.75642581486363 -21.801920276570964
-2492.9476935091034 -312.6867793223978 248.7626832351862 309.7369801881406 -407.14638391329817 1.7620079675527123
-1147.4087111519086 -449.8526619293447 623.6855904009901 189.01374583966475 -318.108897748607 141.52990180780952
-440.9666554787445 -9803.928620238377 -3073.4685827151366 -1523.8269563708125 -812.9504282674559 -287.5752242170559
5779.433433074388 2779.1591451659465 2024.637395018848 -681.212354698586 -877.1861377268208 90.13509984946407
6712.465008999607 336.3064019488899 884.9287472447627 -243.44004258645248 -822.7749665312901 -22.519876979294967
9504.234296875838 824.2104266835255 1349.1466348596718 -264.61159010458687 -731.1108863782886 15.402965779584989
12564.437361781898 968.2579500618323 1803.5400121146797 -262.79981277461854 -558.010534028754 1.5807214665572191
15724.040696874485 1236.6817922055204 2371.6012242406655 -269.51501357249947 -333.7619186671104 -1.0753052247908865
18829.47717884687 1489.7802576250008 2982.0478990020706 -275.7526739495157 -51.89427634792173 -5.046028896200555
21890.145193192413 1761.5916241893153 3677.031243879087 -290.4319697079764 259.438778873781 -0.3998604535332966
24901.946964461837 2031.1414806509529 4483.585269154765 -305.1646246138091 501.6816094880866 32.7460269872116
27509.220090028128 2149.718216234717 5261.572459662591 -245.7166844198399 458.4004651337492 125.78713069282638
28568.406148754264 1996.2947059890755 5554.018642660834 0.8271273064773119 -4.339780648158572 223.22943171825267
27514.962602172967 2149.3985731176945 5259.956282310423 247.35803677449596 -466.5918923387851 126.35973143551281
24914.241470909412 2030.5132085510083 4479.928041949379 306.74536053123416 -508.335768062068 33.870983347258644
21910.96960172252 1760.7139779854306 3670.440276496697 291.8264335812726 -263.2553463219539 1.1683449229559102
18862.961210157595 1488.912510763896 2971.1838799418147 276.7281258974324 52.92118113135461 -3.1803672001431202
15777.852795327346 1236.2035182109455 2354.278504746444 269.5684733468591 342.6786252890416 0.09855012872311253
12654.075568640324 969.7933419630787 1778.0216599567327 261.76397614815613 581.6312464302256 3.230301016044052
9651.45959124755 827.6438283161233 1307.8142001383098 259.54048681232774 771.8071558979718 5.9739783761998195
7002.897415263887 359.103715936752 856.3838617943209 234.03029298780686 929.0668438385792 4.44687304618637
6462.681088192819 2866.4002797677745 2031.6366185607853 675.5002928847606 784.9899234194022 -106.32820665127979
902.1805720667584 -9286.06461562654 -2187.5762631169687 900.3958365792789 663.1701148723265 529.7982921543272
-1450.804536152435 -8951.966250911062 -2712.7541781768036 -977.8808819372197 -136.91216533613704 26.94742916965226
3040.61374133358 1481.54449394344 1069.8831190997685 -849.5475436588152 -294.97309035412013 81.91672831185828
3827.9438988433576 -80.23201517946548 344.29441826195136 -668.8702272329383 -501.82339644123084 -5.378287233554034
6147.761050018811 93.00448689573084 682.1455158228466 -694.5121186444453 -420.81698226139645 7.243763821973416
8095.412073521195 47.93553714068775 894.3281416178404 -715.2271732903109 -313.58361921083866 -1.138665313928434
10124.068527448355 59.63163177286934 1181.3739805008893 -719.1640359996791 -170.8903301751951 -1.3958761162126159
12120.962203333418 75.67851812273328 1509.2949333673103 -725.3533543392039 -0.3362986190789206 6.863495365625893
14072.483898248925 109.65181743211498 1894.2844241401565 -744.7144871834839 182.8716567465787 39.408719749646906
15938.60992418531 119.90236454987955 2331.7200268793786 -772.1004389301331 324.7263468593687 133.78435315085488
17431.969761168613 -135.99611600871296 2668.311057791281 -633.5097491469223 299.2735222953604 339.6987938485871
17878.213384088653 -722.9772507664678 2636.08813011357 1.1973382042779956 1.6719837151562873 544.7775707629198
17438.466800254006 -135.73982816385663 2669.0437447820414 635.8676320960343 -295.1686235109988 339.82205792427595
15952.308404583611 120.40678251492145 2332.756301951016 774.3004135285654 -318.31136262900094 133.89444166082598
14095.04799154733 110.40645719135095 1894.685819544451 746.4778851633986 -172.4706136375168 39.15423559141937
12155.609603823492 76.70670077369945 1507.3988237651815 726.1133605638806 16.643868318230354 5.540296054167045
10177.097974589864 61.07628352585299 1174.7581440017937 717.9154029584106 195.86272246955156 -5.243012281946227
8177.501671971111 49.56903850061204 878.5110272430306 710.6153944192715 350.2442838476292 -9.17513771548272
6286.187812813115 99.6943885194835 657.2059495972464 682.9216766773771 477.76561429217764 -10.955973145990889
4066.0173836049903 -76.51542605982573 299.7049168332259 639.2579052445047 573.5211349599113 -21.742104758514717
3285.0851881580697 1509.1846539503736 1021.2707849195053 778.906884214402 313.99280200718727 -59.6382886728288
-1240.7895101452882 -8936.777395599633 -2636.810634549743 580.4511268200638 93.90102598597807 558.87992230311
-1347.5187922024254 -6500.972060029334 -1776.62907331358 -1290.6383441390064 21.709459664333565 539.0047754970561
1326.983866280412 498.2945102857892 578.5849976501851 -1475.3758505023625 -67.42736749331091 81.00704891747343
1740.7332966925796 260.06566330722075 274.67197663261163 -1220.094801323691 -202.49800474032136 24.699762338982364
2956.168998229483 25.05242414266663 320.0302594243138 -1254.727834906156 -171.99003963900856 -0.3426639744811224
4048.6268552256984 45.59456999973752 455.5458042966389 -1268.3263291818419 -109.0045138530992 0.267716931959594
5051.684687785781 47.28122758252509 587.4993530279054 -1273.286239542782 -36.77937177080931 8.187479100040049
6041.870412869362 58.86024895355776 748.4836680856349 -1276.3360723693002 46.69671907275023 36.03191606222325
6983.6116779640415 102.98686553885479 941.8370818681888 -1290.203558940759 141.49429608813213 105.73449795962199
7908.236329473456 159.56120459564454 1178.284636416601 -1335.0398206707434 245.357911214523 269.4541355245866
8716.393430785218 -268.53881917502076 1285.8554475477354 -1154.7153988127295 272.6813222384486 609.8920703794141
8656.888554836349 -1662.1118611718816 872.5431435201992 1.756274074712362 7.0044370531107285 1003.6248552574978
8723.362258401212 -268.1799502060103 1288.768037060266 1158.160206138096 -257.69536598371303 609.6067295470947
7922.694325028606 160.2615780430982 1183.7066460535425 1338.2018801859203 -227.46325805863748 268.63397099546887
7006.7119643976475 104.00206039763398 948.8275025223462 1292.6059192927876 -118.84144711363095 103.77279537754357
6075.825318800309 60.20923363698103 755.3546539899636 1276.9964048014317 -17.568456178639796 31.674208730520224
5100.592276243786 48.8309166320358 591.336345907724 1270.469654995184 73.88820092747717 -0.740506596854396
4120.937149787202 47.69976059465264 452.3526594507643 1259.2646085633708 155.64846329054046 -17.413596790931233
3070.273231815806 28.37292695518626 304.8209151718224 1234.0999561944377 229.89815400769191 -29.72048401252008
1874.5796201418893 254.32576610538308 225.94570679961555 1171.8392487319409 261.0944946582473 -34.34303436141203
1458.820730774413 600.2540627811345 547.036516500021 1377.8569249232496 79.39437535028793 25.608965127036754
-1288.4146936560255 -6493.225448242862 -1813.8315254807026 1178.8297321199254 -48.517671824329106 755.3281073782596
-1118.5184244925827 -4113.721634869939 -897.9434758233136 -1220.3237769244954 70.09085829144948 590.964462288558
50.87414415204747 -85.08626304455052 315.09450584064246 -1620.904216749016 66.9346221938544 145.30689543125138
-188.2421652754735 288.7244134928941 162.33420456100882 -1541.2112458233244 41.8762704109407 36.66228423737566
-114.04312200006365 32.24841589927007 33.91155582482631 -1455.7986568547701 58.54005978286783 9.06944641532276
-30.65668386114073 -8.561175738252505 20.28249271682024 -1455.591710638597 78.63417541623875 7.771725550945679
-22.24728665294365 -1.178423962604826 17.8788375017932 -1458.82548167346 89.23996952184888 23.036868816382487
-35.69974976301167 -8.065158186314868 15.727366325030367 -1462.2489163924708 96.55208373731286 59.98856266331074
-99.125361383122 21.844899280286995 18.06848037923948 -1452.1728497840174 115.32081251368427 139.09181492209754
-84.48296538653597 165.21187919931728 80.30123684039114 -1498.637491148791 195.41576318431854 308.90780665377974
194.1633746109534 -387.19404153842714 20.19695669655747 -1466.8206291855695 302.06509359781074 679.9555260688886
-548.6152052152307 -3300.0857384476303 -1035.0760177116251 1.9097257973819755 12.06626470915346 1288.5788290332523
201.56872751296078 -386.71555827386925 25.32492818837304 1470.5639764206264 -276.75724547940985 679.5516535096025
-69.38014242227774 166.14870040085418 90.19310157247169 1502.0632244560275 -166.66668888876697 307.8143272133894
-75.74909711718331 23.214077945693983 31.834202406609712 1454.743992995777 -81.15930482539022 136.60849385358694
-3.087956090829966 -6.2884882517137095 31.628386657754483 1462.848428726267 -55.63330358466943 54.72254556083757
21.44587280961498 0.9190901004771974 32.87316768796587 1455.3709640676227 -41.28974275849886 12.334909712484324
29.18895109022299 -6.141319107864858 29.857936531676735 1444.5540588448835 -24.80724683311382 -12.681366939498677
-36.88137028014418 31.48104320677535 27.89491293737081 1431.0375124343152 -2.2965724438530453 -27.951485517425436
-112.92074937975444 301.79756913949404 131.5018430142885 1491.5417727397316 1.9979354012947705 -23.109650601879963
120.52549722570865 3.6062754987440115 286.12449308325813 1568.8421167327647 -63.26577415615491 109.25438470741577
-1117.056623246435 -4145.565462522997 -971.8392418265391 1184.1241761006067 -91.74259476304134 720.2762369296253
-1012.1296326051383 -2185.272798047017 -201.23413201850687 -923.9558575397243 118.24034357691265 511.11425866419955
-981.6817153965411 -304.95345909243485 209.09749631587906 -1373.1309638194834 190.906479797318 148.17582314230668
-2036.0520941818186 191.7798688256222 26.703363105050325 -1419.477707860617 269.7943600110867 38.06768657475595
-3105.6266974351834 15.508557124298454 -239.93622203370643 -1290.4016521445058 288.31710390475166 4.664352361216987
-4098.840683187129 -45.27677591466375 -407.5578677796316 -1263.6970336442164 268.3566028546405 -1.683755809296966
-5109.146751795197 -55.401666329104835 -558.0725220659655 -1270.3238796080814 216.9298976231699 8.38828982870755
-6097.887647211005 -57.61001006515057 -707.4580062176075 -1273.3588996229378 149.4689975893 39.16666119085903
-7145.0006956225725 -98.66975052386731 -905.5154472823695 -1261.982360245449 83.3181901887279 95.59481669554529
-8108.779663099377 122.13822964053819 -1041.7961715774663 -1240.8105928888035 104.05010230609628 216.0456359552585
-8198.396796918278 -67.5056708595337 -1101.1578215933255 -1568.7178942334615 321.48619160710894 496.98209224992786
-10100.021489657427 -5718.547406420163 -3326.4106995461852 1.798268415526362 17.236222055500225 1347.7391136586496
-8190.538832178728 -66.91663084153134 -1093.786430441623 1572.2575746539007 -285.62281553783106 496.7571418901424
-8093.000613406293 123.30064092758533 -1027.3652301076222 1244.1008428157886 -64.15899410797415 215.3466710028448
-7121.30998499221 -96.9615261744655 -884.8510053272339 1264.5701472629046 -37.27362091743405 93.81400072765695
-6066.6087742294385 -55.398533897123464 -682.3178877688814 1274.268769925112 -96.25247081873962 35.07383387845562
-5070.753290527267 -52.691916667659875 -531.6454377812518 1267.6245567390272 -157.57004979518524 -0.360410323020389
-4054.1865354130487 -43.02430649047636 -385.6797637793264 1253.918429998476 -206.98906064524778 -19.375328702062976
-3060.022812192321 17.205442933308788 -232.39036898963107 1267.8551494357505 -233.61494500268225 -28.418395061444734
-2000.0954562305396 209.14235728504718 13.2590313272389 1384.6078505911617 -237.20677222403654 -10.389454724042057
-951.7886969968754 -250.06949259620794 183.4816420000577 1350.7712262171449 -192.10586916988413 123.37030257132793
-1027.2959816418863 -2220.2690557489364 -272.2467356279867 915.6068939961679 -136.0843363981021 596.8712046603233
-1083.1461537129405 -969.0149158903358 263.6993536375632 -483.1831960000945 211.89948764748027 331.7819510422553
-1851.6122866994142 -315.0900215192786 201.7915222856038 -767.6928861613851 353.22145028205347 100.84445517816597
-3843.7405298663407 82.35581695603544 -120.835546913767 -818.8658865887654 521.6115923086643 34.759635439077485
-6063.757391867364 8.445102913863211 -525.5337404914909 -734.1521466693305 541.3383307272112 5.49782509963371
-8161.99403753892 -45.377805150074266 -853.8342494192527 -710.1741869817905 477.6637548429937 -2.540521157019117
-10191.889795224222 -63.6888744364378 -1156.5703587699115 -715.8481882923785 357.4840606812732 -1.4292170398443549
-12188.432478094897 -78.6608749485678 -1473.5219875467396 -722.4985970549508 201.90088898846847 8.994725102251428
-14048.719753644546 -45.85533696050013 -1782.3636040178105 -709.0858559734455 43.39786107687759 36.41818644767035
-16232.169841298684 -263.31133512894917 -2344.374014201862 -731.4644733702978 -97.19983581511181 57.11985789115045
-16502.571678440505 1180.1476178279659 -2016.6640162581357 -990.7847083131776 202.87376563039822 185.73554305880626
-20466.31861578013 -8815.361796902684 -6269.492830798783 1.247131470280518 22.894836250536372 992.1064916069893
-16494.197410751745 1180.8208515023507 -2007.0297691152355 993.2567383259219 -155.42142517360884 185.95451231734708
-16215.55491131197 -261.9765431042105 -2325.359682408053 733.8223532157548 149.44091290140966 57.42188398661347
-14024.384098533155 -43.89122263064918 -1754.7235783312292 711.0808312900224 16.05526673192938 36.46110652770313
-12157.781360783638 -76.11236390668364 -1439.011979657804 723.5596635788744 -134.36243576410664 8.07053734851471
-10158.029685728536 -60.77084754747921 -1118.8011867661028 714.815698394164 -283.9839137406253 -4.7450804667164554
-8131.07287498613 -42.70146869414038 -819.5016529733373 704.7579703870836 -405.3824284138482 -11.089254731607177
-6044.700380041839 12.340486428047914 -504.25889832048165 721.4073876173302 -484.1990319450472 -12.518401820572397
-3839.8093291986957 96.73459289372305 -119.84492284740334 801.698302159727 -496.8966125209387 8.308552679133994
-1852.2347371018534 -288.9843466661282 182.03048820497847 760.106321116876 -361.0632392091521 87.90525783741751
-1104.535434791664 -991.0114543153942 208.62114021361418 481.4329013641786 -232.1170912192523 380.8605488896021
-1162.7377300093758 -531.3392482303627 558.7547947789841 -185.06769841285399 405.11437614786786 215.02624837723678
-2551.584603052512 -374.36203886349153 230.6432770503552 -300.4219099740545 608.426464861847 70.10714607628455
-5802.830535022072 -359.52911803990867 -447.2613543785574 -295.0380740485935 846.7306211715593 37.73075281149605
-9385.029673400526 -690.1225552213339 -1182.610124828351 -267.52498510692385 853.7200373548906 15.630135254545428
-12661.180762378799 -984.3436738213046 -1786.7468482026916 -261.56665954268226 734.0163590583406 7.776991733681026
-15803.140316050476 -1237.7562797870548 -2354.016768769625 -267.65491331155573 528.4559419151348 2.5219687491424025
-18912.290034350233 -1509.8826672194516 -2957.614329287041 -271.064407706655 265.8701542140602 -1.435110231587121
-21837.68534184821 -1649.0809633871104 -3537.226390537595 -283.3540341430024 -24.546305875962638 -0.7222123066734127
-24459.213578326762 -2205.5048891543106 -4267.568041251931 -291.7165519782367 -323.5354775514144 -5.279610660050384
-26167.896756173388 -106.85280531828886 -4227.9350344036475 -707.1426858393966 -482.6638259846398 -114.35531790130288
-33808.10354179893 -13846.041761895556 -11244.775974719154 0.5986812237421475 29.456208059804815 1054.9127910182392
-26158.704993189865 -105.57689080089334 -4215.81128159342 708.3415814273804 543.6089606446592 -113.94458055941342
-24441.093736362487 -2202.970012699176 -4243.520707136269 292.9013367357848 390.3390829754753 -4.528697594691497
-21811.496508756612 -1645.3468335559135 -3501.94921741987 284.4415435205489 100.18205013687323 0.19065914782537519
-18880.214289446412 -1505.12327949281 -2912.9299417412817 271.83536908948156 -180.3259529725275 -0.7267482827092451
-15770.344697709012 -1232.6157588025476 -2304.1021262634135 267.644047899255 -435.7110406591972 2.277222005547703
-12638.78225111658 -980.3187693674789 -1739.9486151293863 259.7903760500393 -643.7520389353791 5.068381075283444
-9389.252343525706 -687.8687968336233 -1151.4875428913865 262.6681687546741 -785.785856038048 8.157026756646584
-5836.503427144283 -354.11125418132474 -441.20658130536043 287.94878540008233 -826.5080781174636 26.346711655759677
-2586.935371587765 -365.9580053272968 213.78154007277703 296.8674671580755 -633.9920964777161 65.05413778149376
-1199.917948312301 -547.810602290402 516.8855667352672 182.16723393969846 -447.191650839212 244.71895350063858
-2919.0793611728677 -16192.172477401875 -5733.37555157242 -2962.527877656838 -1221.3512076856243 1539.0471513772281
6451.249896591223 4149.954427794825 2670.677124601936 -1316.0126804398703 -1271.2818736713941 52.33864226446087
6381.534582836175 185.18874353514065 625.7587750661124 -620.4040458331561 -1241.954120813716 431.7267623944901
9230.615902138123 858.2471121127375 1136.750617826685 -639.7740017453602 -1105.0680580690878 468.43994687796726
12462.714572129142 957.5620573310978 1526.40955498064 -602.9695103789807 -987.5306354191481 643.3703758468383
15836.867255886042 1258.7307516797853 2042.1845452425882 -547.0863375598412 -775.6485313834531 793.3571671660568
19122.54869893302 1524.223186860607 2555.5177771515177 -456.98694857515886 -483.78095715180694 947.4753341711053
22223.291027282954 1772.2061843516763 3077.0826925040087 -333.11791527901744 -117.91547744293604 1098.9161963525428
24834.2499510338 1970.5919307009146 3555.173113160485 -173.37866657648368 238.7247036503238 1255.031256239024
26537.264726978417 2168.629205132339 3924.348446230951 -32.21469826110399 339.8785045022959 1422.7710697638145
27161.780821684293 2391.582237064511 4123.207519273798 -3.9457358067207053 -8.1700694853523 1537.1835769397633
26556.549220201596 2168.857212627536 3925.7760952965036 24.11836070885451 -356.07514074972346 1423.1679624688654
24876.634563980366 1971.2242958895984 3558.528359451785 164.6679856381819 -254.447291704487 1255.8179842296706
22296.892489071408 1773.6182904358557 3083.3630112964706 323.3689327318296 103.1789670554737 1100.112939315305
19240.951684186737 1527.2456712122869 2566.4226360659027 445.8092362272275 470.7875311861961 948.9203359016307
16019.43292117254 1263.7977606401735 2058.8617875330315 533.9294036058973 766.06670343399 795.6283232482725
12738.207994075025 967.8504412843068 1552.5964817690142 587.8896065512602 981.4018305483784 643.5878595377771
9630.383822325377 870.2172684337726 1160.9802307556254 618.424761902566 1112.137388224638 480.43182976737415
7063.305873361711 256.4161614051058 732.6640140247083 594.5534730660358 1222.5076467950694 391.9067945311775
7929.25451987679 4410.943640425005 2828.4824378358826 1365.4603994269585 1634.6859174826254 287.91915015187817
-122.06504449624765 -15442.255324370524 -3524.0731545206504 1780.7474598783858 2141.195782462818 596.930538543965
-3236.5232341948404 -14044.774355119442 -4234.545641485254 -1901.5231028134447 -1009.0995438015424 884.7073070392827
3084.2379457625348 2249.1325338805223 1266.6821605275634 -1575.577109367759 -844.9496266899697 265.36311583269645
3182.045101602502 -214.994063349472 20.77747905791687 -1310.9192289112373 -766.6383165924809 465.18036842675235
5758.494074514346 39.99031890223081 395.4541720860514 -1327.7289212198052 -677.8393232577907 603.2346472269702
7790.371426089256 -48.35645319307687 543.5214311005444 -1297.8629904764812 -588.2280209144552 800.3165459116688
9940.786496618004 -45.69541764333071 758.5104951721546 -1192.1067944804358 -463.5327003704109 996.8429650028003
12035.764579505196 -45.645303555878655 988.0699215940832 -1035.789282122945 -290.04244177194784 1194.4972924395402
14006.892540633042 -63.518558384547426 1226.3711570458015 -807.779170714031 -75.908098715401 1398.4933223246753
15676.298314049764 -83.11704283850644 1456.956030232641 -477.1526671590437 134.99095721169292 1630.70383104675
16829.389469147438 76.16733689908197 1691.901942767846 -125.58596955168842 201.31790778708364 1921.999754386309
17370.987982520528 507.7744074887296 1924.0697122910838 -7.035107275048929 -1.9570788454363957 2147.93100599343
16850.294220205185 77.08689681830934 1694.8215608685741 111.06773176376258 -204.84238519763167 1922.041402657482
15721.539787648093 -81.19959262343687 1463.1368008815962 461.26785948417603 -137.33363271503396 1630.7339282279224
14083.606916729843 -60.442238697193694 1236.4633565642728 789.5345672544997 75.55110572274234 1398.3989609105022
12155.230914088503 -41.24437693137397 1002.7605705886273 1014.07823319214 292.5700815426909 1194.0450925227813
10119.210980563337 -39.966566037663526 778.5128187545647 1165.6941322506298 469.5397272591919 995.8534542012324
8047.773037400217 -42.25883280962532 566.4638690830398 1265.4595673557199 599.2343638629906 797.7410712401004
6131.5870332805835 53.38269954641909 428.0025754080136 1283.9851353931872 689.0580313484494 602.709462582693
3704.868507191895 -204.04533313295855 33.7542280745841 1243.404114761821 798.3561792759489 447.0674517221369
3598.8571502782625 2359.746723681193 1319.631382741948 1486.0991700712807 966.247489994949 380.62341505512853
-3000.4111433759294 -14504.123356080458 -4071.2286255749214 1189.9174155960304 1194.8178295498622 359.33758206420475
-2579.1357410553605 -9788.168354301379 -2671.5761435748936 -2232.506436425651 -614.4664911775088 293.01437830209835
1058.3863277699518 686.4394302739948 573.2193707831217 -2559.254329766841 -480.88426726489143 412.4085875024228
1117.70389865327 314.92752220505326 54.44434591980671 -2232.269384927115 -378.9524162430082 531.1022655699504
2467.8353179607307 -52.282178847440676 73.25819537033195 -2270.3073844087344 -307.31605982060194 769.3710942521806
3701.1481799704725 -35.002807719052164 209.14862119441915 -2193.2011502932723 -251.34088327064558 1015.3780379175599
4800.355170208958 -44.45851841200812 309.3252166666562 -2024.429885242529 -190.20825117636386 1273.7977230782092
5894.740259316361 -37.52101417662393 430.02899551829626 -1773.47504404944 -108.1791868220304 1534.5755662363135
6946.71946553059 -58.512488206707786 558.1740266425329 -1408.7717766020073 1.052035879313066 1809.6516990463854
7843.262825572247 -90.1145966477789 675.4227777483372 -846.0543076295384 139.90178913412407 2133.563307212759
8452.869968987534 266.43031723439736 860.3640794745063 -182.60394654225513 213.8434186555151 2575.808743604666
9012.935110876784 1421.8676076328773 1306.9590498093758 -11.242183757420662 3.0079123618611625 2992.198975311683
8474.452261995842 267.5099005496637 864.4295279080162 159.37370243071933 -207.23367132749794 2575.5766609338234
7889.480571886428 -87.8830155404641 683.8447541141867 820.5424106470837 -131.54000285122692 2133.0296307938474
7023.6983260420075 -54.991977644989106 571.4238194834262 1379.295814090313 10.11904287468622 1808.6487973291746
6011.785339564501 -32.538276297682856 448.57808708893316 1738.0884726487711 122.9388045615481 1532.831973826944
4969.673798708612 -38.47922513861922 332.82635743151235 1980.840087655015 208.8545132798802 1270.7065411301332
3937.6295133924386 -28.64217165638985 236.18519091668168 2138.5476724764058 272.92227062269654 1010.8473946240093
2784.8177406846203 -46.82217159858544 97.63412789874319 2197.292389863103 329.56108243864713 760.3510034269676
1434.827999794187 319.1006032027935 39.86498001856611 2126.1665979057852 409.8078905075489 533.0961442969528
1356.9938507473944 909.2292738052143 632.624041344517 2417.8152835254705 526.584968198732 418.7413285379638
-2566.8364630351834 -10155.384174255081 -2729.3612621936013 2110.224137018643 674.2592816397955 280.0480730126071
-1886.931878756821 -5914.810378775915 -1412.9633176719892 -2064.506108422163 -277.1918760915414 103.32978944130168
-330.1184799053392 -137.28189012895479 220.53875110540542 -2706.4825914969115 -157.0498339764177 358.1526380478734
-764.1253726536355 400.8178060745955 24.603249013522884 -2717.3421786910226 -24.772139607568395 549.1317641294773
-602.5644258718614 30.41432024615487 -95.49268095085985 -2594.1635512780495 41.17628764601822 809.0208295856685
-364.69612018323903 -26.229477130861675 -62.288527405888495 -2487.5160374975944 60.682633063335764 1077.7420339662478
-241.26980873874365 -10.66987624996682 -32.96807864167371 -2294.723778463528 66.00209714127186 1351.7054686263975
-125.68387500404472 4.013961235734882 -2.1711287514160666 -2014.5356019736626 70.82837309861613 1631.7323213969778
56.39431749636668 0.807915984239564 46.08290109883838 -1620.6278955440137 89.24773782784649 1923.413254170218
222.27351327005442 -86.32433486185553 56.43676348209522 -976.1552254598805 172.77543925951014 2257.95685357076
227.66913314404405 424.54350990589074 157.44880532272632 -60.47367759586234 280.86477639333157 2738.038398078297
1026.0618211054589 3011.3933805760826 1070.8363540501048 -12.622391250880582 7.469812095343306 3356.7025196139957
249.6409729900668 425.8154232652092 162.6346049995664 34.36859613470764 -265.14014996621665 2737.72159761391
268.85367727956475 -83.73500674285881 67.0609014879197 947.4187131455766 -154.76119653610874 2257.2441123104345
132.64526518532531 4.794872463013988 62.51175458260544 1587.3239895022045 -67.68014239964498 1922.1241648433117
-12.740966682341991 9.403772818606065 20.21414280659725 1974.3906056128078 -44.994256685666926 1629.513942394617
-83.6664886133556 -4.540344820563899 -5.401251952366916 2244.8881095890033 -36.29891074123278 1348.016339001275
-155.12505815696346 -21.253869022471946 -32.38819352961012 2424.0612454079674 -29.465750545826435 1071.636865652507
-360.09236326095095 27.32972653955399 -77.96997519894819 2511.2099827332345 -12.123982852221758 800.5576587172683
-550.6835174125268 441.5312695909984 23.579332619794883 2612.671208961327 48.77260684485501 544.478951878522
-158.52965284374704 21.18170853387406 249.09791964259298 2644.8367084581514 177.19053019817883 368.18486047312496
-1922.420746581297 -6198.7839806909615 -1504.358088580885 2044.7918597464693 302.2268010359068 161.9549414007957
-1481.6293638089483 -2960.6096963803575 -521.7226910883893 -1569.0356553387583 4.069340377814813 81.58912807655854
-1392.1264843504928 -394.0134009472635 71.64194917672458 -2276.016541654669 147.13649657294712 277.8962737912969
-2566.417404648905 321.33260227995066 -47.925746724235495 -2500.3562941829987 333.79804082134314 507.67010814622444
-3570.2545197746535 74.24295180951313 -250.44255019702695 -2330.336285955599 395.949059109042 762.1793669115444
-4413.446383241149 7.752542087470507 -321.1810357999878 -2195.2571537574927 377.00318478192867 1017.7457170281134
-5287.521361025602 23.63895355258055 -376.8710181499522 -2023.1197815307326 323.5949679399939 1274.0194364737251
-6156.673206620045 31.647399782169124 -442.12901753156905 -1776.4697128177913 254.67340415241222 1537.3392953069463
-6855.756744916189 90.87880858655006 -461.5351806841453 -1425.5638767335624 172.75800126739296 1801.778337169912
-7361.978815904932 -59.764011091920395 -539.7102683148288 -906.1107106548403 153.775935605945 2084.0006098280273
-8155.2098250781555 152.21407790531373 -730.2560013892224 232.92402307245533 314.32749564316447 2474.708088556286
-6668.026291845883 5449.574513509442 1098.9124899785927 -11.361446640979182 12.030669755409363 3281.6146944344964
-8132.742243849251 153.7083941275372 -723.9113978121944 -256.4336456457072 -289.2692004038563 2474.4975099677004
-7314.830704647815 -56.759559968612024 -526.7995243090141 880.1994995844656 -125.83140418381693 2083.5137486653102
-6779.9549612412475 95.38629800553726 -441.80663513282127 1395.5008972148478 -140.41407991816186 1800.8592879126877
-6047.648124072176 37.46667071662515 -415.7657829116588 1740.2107567066344 -217.26935636474244 1535.690355137457
-5141.977587953005 29.99286668736925 -345.2385428870858 1977.9413228312862 -282.18994827532225 1271.1202878707397
-4235.811304427739 10.814529244288696 -289.65985813988783 2137.3865621851787 -335.51284348025774 1012.9024305187684
-3388.3831752311366 74.70498301680779 -230.84034254521382 2256.3661772823953 -361.70468260391027 755.6118520372518
-2424.1270780369896 360.42203985664025 -41.80527734202872 2428.6647099050588 -314.6474690007064 503.25199640570145
-1297.9461870037312 -305.8952081455003 80.69532555808877 2259.036660236782 -139.3262308203355 290.21705713525125
-1510.8033084778992 -3131.006663299258 -588.9347599075843 1580.2524508380504 4.406418764507805 136.41611817213195
-1379.7662757548921 -1184.7633062176185 8.901969467958082 -868.7308505576855 251.23608429717677 119.5620049007514
-2232.762814403167 -368.2680048071972 41.972448986093056 -1311.3186815620397 458.2139340619502 199.4938321978283
-4336.778756253266 184.87020722673614 -166.94241749350792 -1502.1272744150658 730.7300293303313 398.8819464328539
-6531.030046841169 79.05454611673964 -459.91458537191227 -1396.835498416633 789.2591308078534 601.8812822529195
-8521.424061986347 26.806913094985504 -659.0809323864124 -1300.3035619178154 724.3765866394128 799.6486902102363
-10436.05555931377 28.808750869974443 -829.3459825037057 -1192.1206800952823 603.1013886245748 996.648414686384
-12283.715181172229 45.23308823907345 -995.6455939932445 -1038.9081017724386 444.8562972251668 1195.884053362665
-14060.49787938281 26.685219744471105 -1189.4390253717347 -832.4132498684268 263.422208069557 1398.1146637315017
-15072.98865950523 293.46268146931266 -1159.1574086978947 -482.9975091435539 2.743593948561415 1566.9107227050854
-17016.236350367217 -1026.6778816650078 -2134.590193809703 245.5186925076333 122.73328465482129 1790.437361461534
-14085.047482681382 8700.05247846214 1184.8908964809007 -7.188275817258926 17.30191203235553 2379.4633384814792
-16992.74239126559 -1024.9594893409605 -2126.981501142429 -260.3890926534201 -86.86277719732293 1790.5038692734986
-15024.19932813408 296.8960110646641 -1143.759194530112 466.62592700320147 36.782249103644304 1567.0090159755225
-13983.508782665636 31.7542837347709 -1166.1446857775807 813.4709733533867 -218.37021182636323 1398.1574539268352
-12176.300144332417 51.62594608657724 -965.0218945357166 1016.1739889559569 -393.57206281637343 1195.6885048590439
-10300.719111712122 35.25440560031387 -793.9872465047863 1164.02760012841 -547.2172111476558 995.8776413244432
-8373.196936759543 30.616897815774564 -625.8129945490535 1264.5910368217797 -669.7946283110202 797.8846117158764
-6402.305689663679 83.41703252661486 -438.7764583906296 1353.5855320773928 -747.8267823825316 599.1736884368295
-4257.02161131204 212.1208722533235 -160.33772367517366 1467.251806635435 -714.9358464613306 397.72371061052576
-2197.829944077553 -327.6494205116501 39.527290018267564 1310.9817441828782 -461.27660731155885 208.23519200755277
-1402.569443732405 -1258.579333616889 -28.72567074804634 880.1831204171456 -257.28079078887356 155.10960111757652
-1205.2215708295087 -511.6011266211435 373.3688553031742 -428.34186249392747 502.9702264321396 144.30224760535887
-2706.151107489458 -331.53154646969995 116.78065731664131 -614.2467627809197 813.6744359251454 166.84831947794737
-6197.592370254737 -261.22142590398363 -489.15371850885884 -690.5894438403882 1207.3467137635662 331.25646893731175
-9955.981190841403 -677.0397598026098 -1168.2501083662537 -663.9994377730351 1260.5203363175508 493.00065567907484
-13238.858465198206 -1005.5611224392828 -1671.9365354147396 -617.4380609848683 1136.2126941019837 646.3667471192225
-16342.195659520741 -1275.5598725382165 -2119.300913592294 -553.9460457700139 927.5946748787726 798.1195513222624
-19354.405132608 -1508.9150840897007 -2554.500020005468 -470.69580863824365 654.8674141307191 952.0384905804101
-22275.619240769593 -1856.0966618457087 -3052.0395605328686 -345.0224951173674 331.0367700594524 1092.8065838516177
-24879.482116848525 -1730.4837132208272 -3409.935565008586 -168.83946548826907 -134.05793175208368 1259.4986944302282
-27184.032414005662 -4109.285411198378 -4793.396077671323 469.2356836620703 -973.4138070312805 1131.1169043871041
-21987.399068767372 8691.454032306647 -523.9514936220955 -4.644762396812666 24.058178279949914 2332.687059421048
-27158.119296590197 -4106.60390770678 -4783.979939448525 -478.8310908528705 1023.1728549327275 1131.252641073271
-24826.298642937818 -1725.2331501768394 -3391.0452809897397 158.333701477109 188.55660022959077 1259.7314673169765
-22193.37706958748 -1848.6283869491247 -3023.9028491566814 333.02147282376734 -269.3771024723591 1093.0483893627174
-19243.3548184184 -1500.1947872477144 -2518.510001124182 456.6735242164344 -585.1333957267423 952.1298567260816
-16210.924609748476 -1268.3659318919304 -2080.1583406147492 537.5145812965999 -851.9297214403437 797.8240675379395
-13115.713497004173 -1005.3556872847394 -1640.913691320002 598.4203336225811 -1062.7739867767739 645.524054139454
-9889.973483191725 -686.0178232248753 -1161.2698577539875 643.778957205516 -1206.8794441095029 491.94882168636207
-6210.782924175801 -264.5280227518998 -508.6570899405279 676.0429404753884 -1194.2374710054637 331.93450526900426
-2749.534522341072 -328.4597094033928 90.55192463603916 615.1208023683653 -833.1832201069016 172.85411011385673
-1258.3856022762907 -556.5139494969226 341.70925733641366 431.81495534732267 -530.4376619496119 168.0176497065806
SCALARS Strain float 6
LOOKUP_TABLE default
0.016006309582677233 -0.05948440751560206 -3.781155076543197e-18 -0.03369875460869534 0.013892869987293254 -0.017506661346983463
0.01927213938491212 0.0061835214063167485 -0.002229868255599252 -0.01496964423998322 0.014460831312957138 -0.0005953520557261298
0.026854845181664772 -0.00838687177926133 -0.005881129724925486 -0.007057096021359364 0.01412722812424942 -0.004910891922239622
0.037765510051242464 -0.009852337441907107 -0.008268348753191875 -0.007277429269858672 0.01257014916055941 -0.005328504395731212
0.05126416351185279 -0.014171391416016409 -0.010936071273114793 -0.006858778180579518 0.011233160977940845 -0.007318338025255342
0.06495384291726113 -0.017959308450349976 -0.013503414999491111 -0.006223107089758666 0.00882300204453126 -0.00902443777651479
0.07830649054255978 -0.021783985807328193 -0.015918497825061106 -0.005198226540050888 0.00550300838760419 -0.010777531926173376
0.09086220659349568 -0.02545333845069842 -0.018031853310545045 -0.0037892162862880243 0.0013412885559072048 -0.012500171733497293
0.10139727691569743 -0.028639778074975256 -0.01962747259967349 -0.0019721823323058272 -0.002715493503984308 -0.01427598053970727
0.10810350001307971 -0.03049311451736132 -0.020507461333636345 -0.0003664421927071247 -0.003866117988687617 -0.01618402091855981
0.11028212953960985 -0.0305983749103967 -0.020749756117775978 -4.4882744815700755e-05 9.293454039618116e-05 -0.017485463187668537
0.10818569662167248 -0.030519301671303276 -0.020526825526161734 0.00027434635303941326 0.004050354726055965 -0.01618853557306891
0.1015774758572598 -0.02869704504253229 -0.01966925318096998 0.0018730983365996994 0.0028943379431601614 -0.014284929570621524
0.09117411668117265 -0.025552005323526934 -0.018102832223676653 0.0036783216098090037 -0.0011736607502312092 -0.012513784684709314
0.07880622396505088 -0.021940478983764163 -0.016030159996175675 0.0050710800620614215 -0.005355208167212157 -0.010793968820887524
0.06572402837322061 -0.018198646602397093 -0.01367671994943552 0.006073446966009777 -0.008714008751547542 -0.00905027217695959
0.05242157338765195 -0.014522335193965737 -0.011196592088679751 0.0066872442745123176 -0.01116344582249923 -0.007320811902257984
0.03946698250506556 -0.010356464770254896 -0.00870275042207935 0.007034581666660922 -0.012650562791093542 -0.005464912063603061
0.02960379546577232 -0.0091103897710766 -0.006401730109280921 0.0067630457561353415 -0.01390602448235759 -0.004457939787799553
0.025188741796801396 0.005178348669876698 -0.0038218994198674504 0.015532112043519496 -0.018594552311444346 -0.003275080332985815
0.024359271558931368 -0.06277431065810465 0.005010350433131129 0.02025600235618122 -0.024356102025602497 -0.006790084875966046
0.009831818345896822 -0.051640109904266596 0.0041555659044821185 -0.02162982529470541 0.011478507310706328 -0.010063545617600967
0.008879034226246635 0.004129372196227062 -0.0014583143022079755 -0.01792218961906981 0.009611302003574363 -0.0030185054425800883
0.01417635658633556 -0.005144303664262487 -0.0038033530168121495 -0.01491170622887243 0.008720510851233694 -0.00529142669085845
0.024621890681526634 -0.007902099428432677 -0.00588039876346869 -0.015102916478894956 0.0077104223020692635 -0.006861794112216909
0.03343297095559693 -0.011149793857772011 -0.007783488390852309 -0.014763191516699737 0.006691093737927282 -0.009103600709740343
0.0425553711334188 -0.014242744753897934 -0.009668823624771545 -0.013560214787246396 0.005272684466735717 -0.011339088726899628
0.051419537724141276 -0.01729348098573116 -0.01141422564270694 -0.011782103084175823 0.0032992327751664072 -0.013587406701476953
0.05975391082952479 -0.020271552296156792 -0.012935304539617363 -0.009188488066872768 0.0008634546228909595 -0.015907861541452108
0.06678064145300326 -0.022851033389306673 -0.014091867786184596 -0.005427611588929878 -0.001535522138277208 -0.0185492560781531
0.07130798799791871 -0.02397596287917633 -0.014786472308325522 -0.0014285404036322395 -0.002289991201066203 -0.02186274720612286
0.07280627701626241 -0.023103250191627893 -0.015048070645618831 -8.002434525855004e-05 2.226177186569821e-05 -0.02443271519314668
0.07139440736263862 -0.02400320928904239 -0.014802343387289831 0.0012633954487728965 0.002330082131625862 -0.021863220955219077
0.0669679439851095 -0.02291013624017731 -0.014126723002104987 0.005246921901588165 0.001562170072149279 -0.018549598433588842
0.06007225254349947 -0.020372027027996318 -0.012995876454942415 0.008980955702484491 -0.0008593938275811632 -0.015906788180368482
0.05191714524498165 -0.017450307972722286 -0.011512529833693417 0.01153513990251624 -0.003327984677530886 -0.013582262927462023
0.04330220608331568 -0.014478116213045162 -0.009823014712017294 0.013259770754332368 -0.00534101439756268 -0.011327833041539682
0.03452098792856369 -0.011491068333329413 -0.008028957966294692 0.014394602578667913 -0.006816290888950407 -0.009074304685365814
0.026193875097264004 -0.008375912050860183 -0.0062452615069340245 0.014605330915121924 -0.007838035106611255 -0.006855820136883507
0.016432306794386238 -0.005799640672517668 -0.0044471556681328715 0.014143721805456044 -0.009081301539294123 -0.005085392263347114
0.010915816267815192 0.003868375716523723 -0.002047280285076889 0.016904378059596208 -0.01099106519873927 -0.004329591346264621
0.011253350723679256 -0.05417401248626977 0.005163076293665888 0.013535310602447908 -0.013591052811177898 -0.004087464996005045
0.005069695786326451 -0.03593167720144673 0.004543940997015466 -0.025394760714377115 0.0069895563371264215 -0.0033330385531743275
0.0029771380075851606 0.0008616900280813191 0.00021775093975335603 -0.029111518001118452 0.005470058540128382 -0.004691147682833296
0.004405153979663959 -0.00016063666136256793 -0.0016421347264669382 -0.025392064253557275 0.004310583734761124 -0.006041288270862941
0.010769248494354547 -0.0035639197686959706 -0.0028499088903311673 -0.02582474649767895 0.003495720180463472 -0.00875159619713587
0.01596395690715282 -0.005285401835277402 -0.00389679058334805 -0.024947663084634832 0.002859002547214961 -0.011549925181316478
0.020653916328177736 -0.006900961525818743 -0.004888816532563429 -0.023027889944696386 0.002163618857138509 -0.014489449099998048
0.025274321908975522 -0.008465414083984333 -0.005806223403851611 -0.02017327862610245 0.001230538250107386 -0.017455797065921614
0.02973609189249097 -0.010106164844407867 -0.006598760291171114 -0.016024778958857105 -1.1966908122837932e-05 -0.020584788076672123
0.03354605787417504 -0.011575026214691033 -0.0072210323978100024 -0.009623867749273428 -0.001591382851403916 -0.024269282619553967
0.03550238846860423 -0.011057987050706252 -0.0076799887779661615 -0.002077119891861102 -0.002432468887205724 -0.02929982445847446
0.03585000612214068 -0.007324190302378845 -0.007977732725142508 -0.00012787984023655418 -3.421500312261165e-05 -0.03403626334417924
0.03559005814634355 -0.011086926534332258 -0.00769194615374227 0.0018128758650742863 0.002357283011337565 -0.02929718451810715
0.0337342777201132 -0.011636977683340455 -0.007247775993444389 0.009333669921037851 0.0014962675324432875 -0.024263212050291035
0.03005086338402823 -0.010209187718233802 -0.006646447872025251 0.015689489885205517 -0.00011510411268234775 -0.020573380069615135
0.025755508608946584 -0.008621581956319247 -0.005885232639519352 0.019770756376322987 -0.0013984289018828182 -0.017435963702303325
0.021355992258232485 -0.007127878064931563 -0.005016077564046039 0.022532055997045462 -0.0023757200885566434 -0.01445428690534847
0.016954728908327426 -0.005603441300395265 -0.004097235675771354 0.024325979774427783 -0.003104490828338398 -0.011498389113857126
0.0121168869228653 -0.003988065078241671 -0.003166469874872157 0.024994200934732806 -0.003748757312745429 -0.008648992663994213
0.005806230171131197 -0.0005394693969991209 -0.0021276220038554585 0.024185145051246554 -0.004661564754538833 -0.006063968641384208
0.003913165620898093 0.0013665045895206382 -0.00020668767009111464 0.027502648850171913 -0.005989904013280897 -0.004763182612138437
0.005681318859581317 -0.0374785462481151 0.0047569590643622185 0.02400379955865135 -0.007669699328677745 -0.0031855468305501174
0.0013623760070218065 -0.021546182961799797 0.004058072198193576 -0.02348375698329963 0.0031530575905311543 -0.0011753763548843588
-0.001553542979624617 -0.000456784875272448 0.001578320021760812 -0.03078623947827481 0.0017864418614770017 -0.004073986257789623
-0.003901413640178987 0.002724200688845396 0.0005844803955758578 -0.030909767282623905 0.00028178308803509876 -0.0062463738169784904
-0.00255080401478908 0.0010492626037861775 0.00033316653447909106 -0.02950861039582053 -0.000468380271971724 -0.00920261193655414
-0.0014793656448718216 0.0004456633875287555 0.00024057753907896797 -0.028295494926585972 -0.000690264951093065 -0.012259315636369282
-0.0009982805974599405 0.0003132565185964437 0.00018643549249200853 -0.02610248298009416 -0.0007507738549830046 -0.015375649705614386
-0.0005522856708029382 0.00018537077285525947 0.00015019307353687555 -0.022915342472510855 -0.0008056727440024736 -0.01856095515587473
0.0001851809416111775 -0.00013096671698391825 0.00012653476086771197 -0.018434642311824446 -0.0010151930177883935 -0.021878825766194772
0.0010116740579864784 -0.0007434762032654744 6.847754357511823e-05 -0.011103765689599143 -0.0019653206215806776 -0.02568425920938722
0.000232187543735518 0.0013519105616335235 -0.00016719057072141176 -0.0006878880825809111 -0.0031948368314817627 -0.031145186778090615
-0.0008689060594117279 0.010422667185274738 -0.0006142509032565839 -0.00014357970046832773 -8.496911259972138e-05 -0.03818249116061377
0.0003198385947004576 0.0013218307806944142 -0.00017501012321350601 0.0003909427809338922 0.0030159692058407306 -0.03114158317283943
0.0011981196012366658 -0.0008072285391127195 5.042318894143703e-05 0.010776887861958575 0.001760408610600721 -0.025676151777537428
0.0004919830871936526 -0.0002351660214796363 9.30987456441439e-05 0.018055810380523625 0.0007698616198058356 -0.02186416237509739
-9.461524349123834e-05 3.133296240354127e-05 9.281694173317496e-05 0.022458693138777984 0.0005118096697964411 -0.018535721094748853
-0.0003529925419226827 9.703740088649697e-05 9.214099159605308e-05 0.02553560224654598 0.0004129001096806985 -0.015333685856143621
-0.000608266922343873 0.00015312546588869974 8.979899523380702e-05 0.02757369666652435 0.00033517291246217034 -0.012189869346817563
-0.0015089387629103038 0.0006945243728363543 9.563231920062505e-05 0.028565013553635096 0.0001379103049480263 -0.009106343367915092
-0.003019698054087902 0.002623523546999664 0.0002464219054779165 0.029719135002015833 -0.0005547884028617491 -0.006193448077623529
-0.0010483092431725351 -2.6200875342065e-05 0.0012700725753471366 0.030085017558794117 -0.002015542281011237 -0.00418810278789925
0.0016997831996321915 -0.022622032694441373 0.004077514567014391 0.023259507404674806 -0.0034378298617916982 -0.0018422374584649514
-0.001911567208112422 -0.010323267849593185 0.003547901992982144 -0.017847780579464415 -4.628874680067229e-05 -0.0009280763318627113
-0.005667440838586295 9.327323269684534e-06 0.002657742127101884 -0.025889688161310417 -0.001673677648518071 -0.003161070114373409
-0.011586922643262072 0.004837155521144088 0.002736998661193772 -0.028441552846339938 -0.0037969527143426806 -0.00577474748016483
-0.01538860155114034 0.005339477818512189 0.003492829025844754 -0.026507575252766008 -0.004503920547367775 -0.008669790298633278
-0.018897453028696935 0.006248115859136616 0.0043773061348904765 -0.024971050124039013 -0.004288411226900931 -0.011576857531198265
-0.022669288869727394 0.007537935419472569 0.005260034955403307 -0.023012987514974274 -0.003680892760333081 -0.014491971089862866
-0.02639668815569362 0.008799385293271542 0.006104781919779078 -0.02020734298335821 -0.002896909972243043 -0.017487234484105916
-0.029507449270647523 0.010001540439901811 0.006859685875943885 -0.01621578909785752 -0.001965122264418754 -0.020495228585329442
-0.03142184732787023 0.010109499374496901 0.0073798050365574235 -0.010307009333694994 -0.0017492012675238919 -0.023705506936808018
-0.034920362960171925 0.012328110488117843 0.007309061912077603 0.002649510762534464 -0.003575475262944922 -0.028149804507309285
-0.037767504218951614 0.03115135036174161 0.006406960102698448 -0.00012923645554145717 -0.00013684886848317073 -0.037328367149200466
-0.034832355874529305 0.012296832129030436 0.007305369562326148 -0.002916932719330366 0.0032904371545624048 -0.028147409175867538
-0.031236463034719327 0.010043816600664598 0.007370464303466492 0.01001226930770656 0.0014313322225801093 -0.023699968891086276
-0.029207626262953645 0.009895877148930664 0.0068405923418008345 0.015873822705764585 0.0015972101590658468 -0.020484774399988703
-0.02596194295807488 0.008647147437291974 0.006069387857298688 0.019794897357484596 0.002471438928638278 -0.017468477789701595
-0.022082391997304586 0.007333189963457836 0.0051990613215419845 0.022499082547179583 0.0032099106616265334 -0.01445899327452849
-0.01816568996272538 0.0059869944663299484 0.004278046388073671 0.024312772144864304 0.003816458594598487 -0.011521765147170258
-0.014619248732283256 0.005077065167763833 0.003339276128648635 0.02566616526662338 0.004114390764633997 -0.008595084816927324
-0.011023740467232687 0.004813382640818814 0.002525714774244303 0.02762606107525298 0.003579114959890637 -0.005724491459116681
-0.005382939722256264 0.0002593502200163959 0.002458083880454851 0.025696542010262988 0.0015848358755888579 -0.003301219024929788
-0.0017273413566351958 -0.010942247937214862 0.0035157860133686837 0.01797537162832644 -5.012301344102418e-05 -0.0015517333442334543
-0.0044931594519372195 -0.0033840800626930945 0.003404891192755244 -0.009881813425086428 -0.0028578104588803154 -0.0013600178057396823
-0.009340074395994949 0.0012642398335786214 0.0035974824145248185 -0.014916250002759725 -0.0052121834999528825 -0.0022692423412476533
-0.01899693728262852 0.006719941197157329 0.004719006894062057 -0.017086697746468836 -0.008312054083627346 -0.004537282140668852
-0.028073377653403817 0.00952147846904099 0.0064560915336957635 -0.015889003794492387 -0.008977822612951257 -0.006846399585633489
-0.03645137062087919 0.012166693049898612 0.008265705928730532 -0.014790953016845243 -0.00823978367304794 -0.00909600385114536
-0.04460703795550047 0.014911877808723854 0.010031122762629916 -0.013560372736130456 -0.006860278295630195 -0.011336875717041396
-0.05249383750385227 0.017627055778453 0.011707058273260127 -0.011817579657691894 -0.0050602403809543225 -0.013603181106994147
-0.05998856385244738 0.020132290023870254 0.013215583379778234 -0.009468700717268113 -0.0029964276168003828 -0.01590355429994158
-0.064808101055869 0.022588590945972885 0.014326814183116567 -0.005494096666501807 -3.1208381170041795e-05 -0.01782360947077918
-0.07029686968380941 0.020643744106921623 0.014342492831618066 0.002792775127330256 -0.0013960911129368662 -0.02036622498661185
-0.0745960709163692 0.05499418511285647 0.012251703615107652 -8.176663741507937e-05 -0.00019680924938241158 -0.027066395475222483
-0.07020632541178423 0.02061043984292018 0.014342689650788585 -0.0029619259289904165 0.0009880640905698794 -0.020366981512977323
-0.06461936413228747 0.02251936560938828 0.014325639127588276 0.005307869919614223 -0.00041839808358980706 -0.017824727556737523
-0.0596889635215007 0.02002284516862017 0.013209794779580083 0.009253232321852807 0.0024839611595000926 -0.015904041038399538
-0.05207248094914915 0.017473848690142756 0.011691664096615923 0.01155897912434909 0.004476882214520568 -0.013600956742778458
-0.04406980926009902 0.014716040119640637 0.009999728223328971 0.013240813951449682 0.006224595776803285 -0.011328108170065283
-0.03585154172141321 0.011945149462799147 0.008211704449972148 0.01438472304384998 0.007618913897052612 -0.009075937458287553
-0.02754367814588039 0.00934386983662108 0.006373894357041014 0.015397035427407297 0.008506529649622252 -0.006815600705968874
-0.0186924349320355 0.006725812943291984 0.004607454678943072 0.016689989300531054 0.008132395253524884 -0.004524107208203495
-0.009237345709086279 0.0013993060187206033 0.003487623559857829 0.014912417340118899 0.00524702140819416 -0.002368675309095566
-0.004446653498109115 -0.0036277097468319884 0.0033670829607523366 0.010012082994768738 0.0029265689952396997 -0.0017643717127292435
-0.0050914145162626444 -0.0011464482398370606 0.003886818532347511 -0.0048723886858651234 -0.0057212863256537 -0.001641438066504619
-0.011557550553240035 0.001948098200047631 0.004497873859076154 -0.006987056926628951 -0.00925554670864039 -0.0018978996340590078
-0.026129599242803635 0.007633510503178787 0.006337145588975221 -0.007855454923678423 -0.013733568869051754 -0.003768042334157689
-0.04113547475793983 0.01163850463106367 0.008844745773609842 -0.007552993604674656 -0.014338418825629754 -0.005607882458350122
-0.054405790109306434 0.015171088527608704 0.011381078366334353 -0.007023357943715376 -0.012924419395464432 -0.0073524217484778375
-0.06704135122861854 0.01865013980988707 0.013851362638866778 -0.0063011362706612215 -0.01055138942679011 -0.00907860989630002
-0.07934229013106905 0.02215393451990802 0.016207170196897318 -0.005354164823261544 -0.0074491168357644 -0.010829437830343774
-0.09101390538654956 0.025122129281169643 0.018320204044850977 -0.003924630881964633 -0.003765543259441101 -0.012430674891306837
-0.1021009339585903 0.029558994462165006 0.020007112055047172 -0.0019205489199221066 0.0015249089736674866 -0.014326797649154028
-0.10724537235714308 0.023992251221295793 0.02010137180576314 0.005337555901686469 0.011072582055015105 -0.012866454787391764
-0.10691471800783571 0.06757125900467785 0.015158640075714028 -5.283417226580609e-05 -0.0002736617779391792 -0.02653431530090084
-0.1071478806231696 0.023957613151051327 0.02010503697053776 -0.0054467036584991725 -0.011638591224935994 -0.012867998792195428
-0.10189994112196496 0.029487368868080514 0.02001306237412446 0.00180104585427086 -0.002144831327685694 -0.014329445440720383
-0.09070082743209379 0.025009930700421627 0.01832555719665772 0.0037881192533618414 0.0030641645405690655 -0.012433425428984634
-0.07891512729590029 0.021999095381466716 0.01620742760253003 0.0051946613379521885 0.006655892376373114 -0.010830477120261781
-0.06652785706005794 0.018457945420308493 0.013840876095735455 0.006114228362242448 0.00969070058138139 -0.009075248768239617
-0.053908017990056935 0.014969642052813236 0.011354905904867601 0.006807031294968907 0.012089054099602163 -0.007342836115850261
-0.04084406890776051 0.011503428908405066 0.008800432962012973 0.007322985638228602 0.013728253676774082 -0.005595917846685166
-0.026157369832914647 0.007661954918985177 0.0062734708493632566 0.007689988447928372 0.013584451232748715 -0.0037757549974378724
-0.011716959567753465 0.0020529034308537026 0.00443603209945126 0.006996999126965869 0.009477459128762387 -0.001966215502549765
-0.00522350585150611 -0.0012316108263215413 0.0038770336625534385 0.004911895117090453 0.0060337284047026225 -0.001911200765423333
0.01497235471102286 -0.03827949146338735 3.279711571768651e-18 -0.01733353162892351 0.009247311121461458 0.0032711681754271265
0.018980038310608596 0.0019159782982458603 -0.0023753641557182235 -0.0077487905346940965 0.009977992316607107 -0.0010252867607915476
0.02776416328100589 -0.008500238796531553 -0.005379949207657518 -0.002769130484425588 0.00935906524428105 0.0002561636006336925
0.038728493905518975 -0.010639141856157016 -0.00765356717214468 -0.003009956837444606 0.0083163863325566 -0.00017520873574546203
0.0513314286324002 -0.014621841771700247 -0.009871175043783062 -0.0029893478703097204 0.006347369824598785 -1.7980706685188883e-05
0.0640568065896991 -0.01834004718051656 -0.011885192910863174 -0.0030657332793831635 0.0037965418248767733 1.223159693771444e-05
0.07650968820186645 -0.022109838037546296 -0.013622565827235665 -0.0031366866661724107 0.0005902973934942273 5.739857869618508e-05
0.08863119270589996 -0.025849955717892198 -0.01495589288083345 -0.0033036636554450204 -0.002951116109665971 4.5484126612067985e-06
0.10039543911040202 -0.029682267078794348 -0.015733993031649848 -0.0034712476049832876 -0.005706628307921277 -0.0003724860569819433
0.11062551888171508 -0.033606648025413 -0.01590797701595387 -0.0027950272852652566 -0.005214305290890287 -0.001430828611629779
0.11507699063065152 -0.03605189319999866 -0.0158173383102136 9.408573111200399e-06 4.936500488626954e-05 -0.0025392347858260024
0.11065318313671532 -0.03361346227850479 -0.015922165307465753 0.0028136976682976806 0.0053074827753793385 -0.0014373419450761807
0.100454852293922 -0.02969635219819612 -0.015765305333264965 0.003489228476037795 0.005782319361733154 -0.0003852824355844563
0.08873210204853973 -0.02587247681152343 -0.015010908488693778 0.003319525681973905 0.0029945295644289065 -1.3289923498051788e-05
0.07667157878167329 -0.022143323196175506 -0.013712904783964185 0.00314778243207426 -0.0006019784353609517 3.6176676910212155e-05
0.06431559832447803 -0.018390031939182403 -0.012030980453257038 0.0030663413843230363 -0.0038979693626586456 -1.121007702110554e-06
0.05175507342284691 -0.014699281741427374 -0.010102483182860058 0.00297756522868544 -0.006616055428153758 -3.6744674052725066e-05
0.03942234704942593 -0.010763105102361158 -0.008032136112577828 0.0029522730375052485 -0.008779306398381294 -6.795400401587203e-05
0.029042348746054197 -0.008744227918922407 -0.005915947089354496 0.0026620945827415757 -0.010568135348728296 -5.058318089882092e-05
0.02184555633182695 0.0013917092338802336 -0.003356009089246475 0.007683815831578622 -0.008929260378955438 0.0012094833506625716
0.01900619365618765 -0.03893945084895742 0.001433201656045649 0.010242002641105318 -0.007543560056722427 -0.006026455573292386
0.008962675717481995 -0.03370018153515822 0.0017853371285004242 -0.011123395032161485 0.001557375880676585 -0.0003065270068330938
0.009953936376176715 0.0010867300316912706 -0.0012545940377294972 -0.009663603309139384 0.0033553189027585076 -0.0009318027845581484
0.016400672653350684 -0.005827077857593415 -0.00341258376740072 -0.007608398834789103 0.005708241134506414 6.117801727398883e-05
0.025879070215229286 -0.008557357737490381 -0.0052066181354641135 -0.007900075349582664 0.004786793173223144 -8.239781348384339e-05
0.034180706743253665 -0.011589316057363989 -0.0067754581194082696 -0.008135709096164487 0.0035670136685337483 1.2952317943038017e-05
0.042663979941450006 -0.01457750490265061 -0.00819759529428381 -0.008180490909495408 0.0019438775057590758 1.5878090821190062e-05
0.050948931984490235 -0.017558618975129173 -0.009404925613428887 -0.008250894405641033 3.825396811153517e-06 -7.807225977690492e-05
0.05893695073777145 -0.020476656721882307 -0.010326558771215109 -0.008471127291749566 -0.002080165095478612 -0.0004482741871402138
0.06651366402954634 -0.023455235215861604 -0.010875522261365336 -0.008782642492791495 -0.0036937621955230914 -0.0015217970170832203
0.07294120434399405 -0.026976601582410508 -0.011027104531439345 -0.007206173396510095 -0.0034042363161115637 -0.0038640737800193273
0.07570622552621113 -0.030088046209470802 -0.010983361855744823 1.3619722073453987e-05 -1.9018814754146938e-05 -0.006196844867448146
0.07296833086052386 -0.026984969338566495 -0.011032762767449503 0.007232994315079655 0.0033575430924563296 -0.0038654759088877556
0.06657157272167723 -0.023472367753840574 -0.010889629862029683 0.00880766720386295 0.0036207917499255183 -0.0015230492738853574
0.059034151349807905 -0.020503497376843725 -0.010355408503461882 0.008491185943715977 0.0019618532301349232 -0.0004453794298549884
0.05110165351579359 -0.01759710674534888 -0.009460045295810791 0.008259539476411271 -0.00018932400211484144 -6.302086760512766e-05
0.04290277095273176 -0.0146321024152387 -0.008298036833770776 0.008166287708649361 -0.0022279384680924733 5.963926471071471e-05
0.03455846472862305 -0.011669152124262101 -0.00695454456330933 0.008083250111511425 -0.003984028728781726 0.00010436719152026056
0.026508639987321416 -0.00867704136344011 -0.005506194359764123 0.007768234072223431 -0.005434583862601928 0.0001246241945519414
0.017495889846653925 -0.006064765508329559 -0.003925012308136492 0.007271558672169644 -0.006523802910205732 0.00024731644163436935
0.011051024934687497 0.0009505906463714892 -0.0018244194837446824 0.008860065807963525 -0.0035716681228577132 0.0006783855336549351
0.009761880182706142 -0.034009050915917584 0.0018220100376443234 0.006602631567596652 -0.0010681241706038645 -0.006357259116240528
0.004968956771617477 -0.024341308689123015 0.0025283920478078948 -0.014681011164606286 -0.00024694510368666043 -0.006131179321283913
0.004392150060795735 -0.000321020651419875 0.00013563149548340814 -0.016782400299491098 0.0007669863052279653 -0.0009214551814500032
0.006913865020582609 -0.0015074321442542624 -0.0014243587372237418 -0.013878578365082961 0.002303414803910812 -0.00028095979661400854
0.012480318345043852 -0.0041904071700313026 -0.0025127207318743684 -0.014272529122054093 0.0019563867008891627 3.897802699624085e-06
0.01705499575032252 -0.005712250371862454 -0.0033806527268051404 -0.014427211994429156 0.0012399263450797499 -3.0452801108144352e-06
0.021267970996991323 -0.007194573682893298 -0.004122083094420855 -0.01448363097480536 0.00041836535389628123 -9.31325747653471e-05
0.025373544165176076 -0.008654826142078475 -0.004732592945766779 -0.014518322823255258 -0.0005311751794454466 -0.0004098630451920215
0.029181969660104317 -0.009951583960494143 -0.0051806233551734745 -0.014676065482991286 -0.0016094976179958764 -0.0012027299142719835
0.03284261127510067 -0.011227978497592992 -0.005433988979143562 -0.015186077960065566 -0.0027909462400669462 -0.003065040791575205
0.03679899318492457 -0.014302808986669677 -0.005462191594721261 -0.013134887661447029 -0.0031017500404757056 -0.006937522300561325
0.038910196369298544 -0.019779118496654258 -0.005363268157541607 1.9977617609477668e-05 -7.96754714807929e-05 -0.011416232728573977
0.036825188016490984 -0.014314208294938282 -0.005459066617368851 0.01317407234479403 0.0029312847880804812 -0.0069342765486028225
0.03289782937786946 -0.011251006870643832 -0.005430163046293412 0.015222046387084848 0.002587394560429935 -0.003055711420058384
0.029272526042907993 -0.009986636536075823 -0.0051816918340078545 0.014703392331935074 0.0013518214609229248 -0.0011804155474181568
0.025511308167247095 -0.008702508317134015 -0.004748868738866239 0.014525834104589267 0.00019984118902933472 -0.0003602941242997583
0.02147487167649463 -0.007257021056328914 -0.004171521427303339 0.01445159232556041 -0.0008404782855598674 8.42326254064315e-06
0.017372781229027683 -0.005793756422035981 -0.0034922930597795746 0.014324134922402068 -0.0017705012699426417 0.00019807966350745377
0.012995128471420854 -0.004305679512511129 -0.0027333815795117997 0.014037887001732927 -0.002615091501851701 0.0003380705056596228
0.0075709295299390775 -0.001644264264883914 -0.0018056758522031603 0.013329671454349865 -0.0029699498767536046 0.00039065201586984733
0.0048765218118377515 -6.5761123818974885e-06 -0.00030925090685293005 0.015673122521036326 -0.0009031110196177288 -0.0002913019783238282
0.005266197993279035 -0.024336163173503903 0.002277889762271895 0.013409188202904317 0.0005518885169992141 -0.00859185722148823
0.0016842923506293456 -0.015350925908375284 0.0029388123711846193 -0.013881182962518288 -0.000797283513066958 -0.006722220758527371
-7.93114380097066e-05 -0.0008525862539540867 0.001423441869103056 -0.018437785465530557 -0.0007613813274593135 -0.0016528659355405464
-0.0014155739092884846 0.0012971735074771664 0.0005783291941745307 -0.017531277921266325 -0.00047634257593221835 -0.00041703348320759403
-0.0005857736216572115 0.00024625950017322296 0.0002557186084957675 -0.01655970972172571 -0.000665893180038254 -0.00010316495298477051
-0.0001495072204483468 -2.3839017969685706e-05 0.00014020934636454677 -0.016557355708498922 -0.0008944637453666566 -8.84033781534658e-05
-0.0001192511718958521 5.779847160978859e-07 0.00010896615925500888 -0.016594139854039607 -0.0010151046533157487 -0.0002620443827893526
-0.00016624305341013528 -9.071313779903368e-06 0.000126248669357371 -0.016633081424009096 -0.0010982799525167872 -0.0006823699002801172
-0.0004860597668713963 0.0002019585906844508 0.00018048020817100995 -0.016518466166334924 -0.0013117742423444643 -0.0015821693947192543
-0.0006918489383887462 0.00072829049025632 0.00024536121179542585 -0.017047001461748784 -0.002222854306229375 -0.00351382630066358
0.0013311484377567882 -0.0019753218665450184 0.00034171443588582647 -0.016685084656913735 -0.0034359904396956964 -0.007734494109024964
0.0032897082821196203 -0.012359280375521902 0.0005229624110598214 2.1723130944305036e-05 -0.00013725376107406412 -0.014657584180274243
0.0013561883848486904 -0.0019896784905757635 0.00035380177619729437 0.0167276652317409 0.003148113667337035 -0.007729900058668571
-0.0006399867381843683 0.0006995835553210576 0.00026758608703795876 0.017085969178160004 0.0018958335861143367 -0.003501387972031752
-0.000403653167856675 0.00015919989032518484 0.00020822684819414127 0.016547712920303177 0.0009231870923864411 -0.0015539216175818426
-4.6768424564928905e-05 -6.497145120400828e-05 0.00015068077483085566 0.016639900876726243 0.0006328288282669815 -0.0006224689557435075
4.9473355192320155e-05 -6.727272147186159e-05 0.00011446609481757839 0.01655484471624498 0.0004696708238687844 -0.00014030959798093812
9.657360064879525e-05 -0.0001043673111214564 0.00010037845535129769 0.01643180241935882 0.0002821824327173531 0.00014425054894879003
-0.0002392869374210142 0.00014952428931740467 0.00012912817338477998 0.016278051703969888 2.612351154614545e-05 0.0003179481477748736
-0.0010627337569953973 0.0012959766796005602 0.0003274197372530022 0.01696628766494108 -2.2726515188457893e-05 0.0002628722756046302
0.00014702741659718835 -0.0005179506569800614 0.0010888717055409604 0.01784557907786529 0.000719648181029978 -0.0012427686260561735
0.0018294709477609046 -0.01539517307566512 0.002655394804586729 0.013469412503177602 0.0010435720154332504 -0.008193142195135278
-0.0012957767969355065 -0.007968028550377506 0.003316191362646601 -0.01050999787951956 -0.0013449839081885054 -0.0058139246922978335
-0.004169046553716971 -0.00032015459599528195 0.0026035102128996496 -0.015619364713452051 -0.002171561207695973 -0.001685499988250248
-0.009194487153960195 0.0034763071356480593 0.002537434509367043 -0.016146558926930194 -0.003068910845130819 -0.0004330199347950001
-0.013292555491092222 0.004458901269225289 0.003006059087762665 -0.014678318793156786 -0.0032796070569278283 -5.305700811708925e-05
-0.017338082519108313 0.005716562203519628 0.003656088493537426 -0.014374553757677003 -0.0030525563574878003 1.9152722323065045e-05
-0.021547332166852125 0.0071958430068199825 0.004336902514750712 -0.0144499341305368 -0.0024675775854782304 -9.541679680573975e-05
-0.025674106685194823 0.00867997237608685 0.0049839618979769925 -0.014484457483269592 -0.001700209847590585 -0.00044552077103777587
-0.02994138497125402 0.010134622279057724 0.005545687378709341 -0.014355049347827288 -0.0009477444134065278 -0.0010873910398927703
-0.034268859977287125 0.012544485537725053 0.005924608630763636 -0.014114220494053831 -0.0011835699137474553 -0.002457519108973048
-0.03433411515268482 0.01191032812678835 0.006031431519483938 -0.01784416604682378 -0.003656905429554477 -0.005653171299333164
-0.03231608650318551 -0.007396452654660856 0.006208824865575457 2.045530323084242e-05 -0.000196062025893539 -0.01533053241789938
-0.034310184622849516 0.011892916647235654 0.006052594662030425 0.01788442991163144 0.003248959526741186 -0.0056506124889923555
-0.03422029291034919 0.012509920473610514 0.005965508332162617 0.014151647087017808 0.0007298085579710357 -0.0024495683826499582
-0.02986710223675912 0.01008387962280012 0.005602758210104373 0.014384485425104631 0.0004239874379209033 -0.0010671342582699475
-0.02557316058384038 0.008615597658087887 0.005049993832931685 0.014494807257863264 0.00109487185555104 -0.0003989648603622965
-0.021417602868362366 0.00712262119548208 0.004398573044156128 0.014419229332887055 0.0017923593164124764 4.0996674254954175e-06
-0.017174392000224203 0.00563909317679525 0.0036902402634678114 0.014263322141224161 0.002354500564836572 0.00022039436399288196
-0.013105169587919964 0.004396566113178465 0.0029769899328241684 0.014421852324857248 0.0026573699994150908 0.00032325924383596466
-0.0090423194435812 0.0035227206208134194 0.002408634204425073 0.01574991430049479 0.0026982270340637497 0.00011818004749415489
-0.00407667899545741 -8.565102043131685e-05 0.0023801710575947215 0.015365022698248713 0.002185204261821513 -0.0014033371917594553
-0.0012229929434996972 -0.008008027302500411 0.0030713496432064947 0.010415028419242738 0.0015479593265393795 -0.00678940995306317
-0.0038130377470302376 -0.0031639163319182127 0.003847146076013719 -0.0054962088544974275 -0.0024103566719882335 -0.0037740196930998227
-0.007952099474058213 0.000786870909146039 0.003726634689534619 -0.008732506580095018 -0.004017893996958385 -0.0011471056776550437
-0.016765860172594706 0.005563812799942638 0.004408161917946373 -0.009314599459953658 -0.005933331862515041 -0.00039539085312471336
-0.025850259752602203 0.00868539193647929 0.005648387264599431 -0.008350980668362373 -0.006157723512035612 -6.253776051530934e-05
-0.03452850809261302 0.011634746729094692 0.007036650702321019 -0.008078231376903939 -0.0054334252113645625 2.8898428157538e-05
-0.04298792761053073 0.014616215126457534 0.008400451684313904 -0.008142773141821706 -0.0040663811902787415 1.625734381868036e-05
-0.05128715208466067 0.01758717390824719 0.00965390133035857 -0.008218421541526789 -0.0022966226122703433 -0.00010231499802939014
-0.059063611562198706 0.02057767980780545 0.010701289038845131 -0.008065851611716605 -0.000493650669774026 -0.0004142568708391517
-0.06759315603470682 0.02322972671920191 0.011393682731930584 -0.008320408384552797 0.0011056481323827752 -0.0006497383835018735
-0.07110082332023977 0.029469642677294055 0.011287776508423004 -0.011270176057011421 -0.0023076890840652677 -0.0021127418022855674
-0.06974127224518456 -0.0034764553376637197 0.011003174406885734 1.4186120470508904e-05 -0.0002604287623705342 -0.011285211342061653
-0.07107771446766392 0.02944895189887365 0.011318051494132552 0.011298295398417257 0.0017679187113309011 -0.002115232577606213
-0.06754717394100308 0.023188803028172323 0.011453311423390554 0.00834722926782534 -0.0016998903842821472 -0.0006531739303492586
-0.05899599850484154 0.020518054726896235 0.010787695703835242 0.008088544455923705 -0.00018262865910110526 -0.00041474508674754215
-0.05120169275253349 0.017512799667245584 0.009761308102660505 0.00823049117318828 0.0015283727068017906 -9.180236233370491e-05
-0.0428931915800675 0.014534968062143725 0.008517420507830125 0.008131028569219047 0.0032303170187936684 5.397529031517629e-05
-0.03444180223092324 0.011560810142428183 0.007142759094327312 0.008016621913149018 0.004611225123211487 0.0001261402725742249
-0.025799921247118173 0.008649498681017947 0.005711339680219841 0.008206009034157944 0.00550776398839674 0.00014239682072187938
-0.016768833507207207 0.005620260049734432 0.004388464053947414 0.009119318187081678 0.005652198967457641 -9.450978672234509e-05
-0.007963150035601267 0.000927836560017937 0.0036067334333464217 0.008646209402720472 0.0041070943460324305 -0.000999922307906309
-0.0038054552399601257 -0.0031597876010013137 0.0036631227803900364 0.0054762992530351185 0.0026403319126405583 -0.004332288743652808
-0.005122960473636361 -0.0015318816085150469 0.004668028261091012 -0.0021051450694295846 -0.004608176028673447 -0.0024459235752863945
-0.010974551763465134 0.0014084015703509103 0.004849369304605658 -0.0034172992259704615 -0.006920851037800211 -0.0007974687866205941
-0.024328471095658954 0.00663030571339674 0.006131328619233077 -0.003356058092307971 -0.009631560815831065 -0.0004291873132358647
-0.03860154317856423 0.010850741056093313 0.008049718003936323 -0.0030430967055777203 -0.00971106542492763 -0.00017779278852475785
-0.05175560952524808 0.014656401415907943 0.010092733361624667 -0.0029753207523028177 -0.00834943608432526 -8.846328097006291e-05
-0.06442453675647931 0.01841608494970926 0.012067353418676709 -0.003044574638910382 -0.006011186339333277 -2.868739453176699e-05
-0.0768776790923907 0.022098512808205805 0.013864538980186922 -0.0030833576376535603 -0.0030242730042369863 1.6324378888438136e-05
-0.08873284496861593 0.026089842433980256 0.0153510153170256 -0.0032231521383847533 0.00027921422930081115 8.215164977884098e-06
-0.09851315118406662 0.02805481698572351 0.016326832808095788 -0.0033182757787298682 0.003680216057133592 6.0055571254043926e-05
-0.10879513926861444 0.03942704820185275 0.01598839302394399 -0.00804374805140474 0.00549030102057776 0.0013007917411328492
-0.1149787547160169 -0.0014445283426839806 0.013350170821683641 6.809998918677412e-06 -0.0003350643667049143 -0.011999632997869618
-0.1087725123689234 0.03940465371337289 0.016027695615761808 0.00805738548871221 -0.0061835519273904455 0.0012961196038673805
-0.09846876602682093 0.02801056265156834 0.016404930576922803 0.003331752705376088 -0.004440107068898215 5.151393513493996e-05
-0.08866947115892715 0.026025505118830235 0.015466079060585117 0.0032355225575410977 -0.0011395708203413338 -2.1687478005337187e-06
-0.07680224266350125 0.022018587455653185 0.014011687064123405 0.0030921273233849114 0.002051207715045017 8.266761716377194e-06
-0.0643533158283977 0.018330017511742402 0.01223593879677886 0.0030444510448475897 0.004956213087495729 -2.5903400301954208e-05
-0.0517243214065591 0.014583189645998088 0.010262794898199736 0.0029551155275624043 0.007322679442899714 -5.765283472896078e-05
-0.03866382380709634 0.010825295114816976 0.00818846349657936 0.002987850419590565 0.008938314112465616 -9.2786179345457e-05
-0.02449084783471734 0.006690257649074269 0.006194902976035507 0.003275417433930054 0.009401529388640667 -0.0002996938450821542
-0.011118110640070579 0.0015136981305649264 0.004810966795023618 0.0033768674389244953 0.007211660097483719 -0.0007399908172672494
-0.005209051914712277 -0.0015001913842019466 0.0045552680771365674 0.002072152286068942 0.005086805028336045 -0.002783678096090487
0.020785640674565845 -0.03310291422888065 3.3542504711270293e-19 -0.001089220610163532 0.003995519338467319 0.0003467099380208198
0.021858605927327135 0.00020202660679783334 -0.0022193546691587343 -0.007494548782082977 0.005447372134867907 -0.00041569532359414854
0.02735778030586163 -0.008844153517007198 -0.004238857370200849 -0.0029654208114717495 0.0051267654908803495 0.00040154302648904785
0.03770289834631439 -0.011228436968291644 -0.006115784095054928 -0.0033885639672029144 0.004285587066538734 0.0004633389036007386
0.04963153990696535 -0.015263208167297896 -0.007564267615440738 -0.003550807004923565 0.002755775979485289 0.0006393964220086605
0.06157020649828618 -0.01917320440521697 -0.008581025456318897 -0.0037283264960153617 0.0008398860092552251 0.0008214879998934896
0.07347860104039235 -0.02328490231199262 -0.009096308975562857 -0.0039677839459467176 -0.0013255421062255824 0.000992057283198663
0.08594853570763479 -0.02769778784150825 -0.009062461881589677 -0.004423516414004902 -0.003394205243242703 0.0010687883094490122
0.09991390818949424 -0.0328658746713124 -0.008501820268406995 -0.004966220375457034 -0.004550517598068131 0.0009003794914280915
0.11395790846893565 -0.03890273296794144 -0.007653483742281151 -0.004171841897010127 -0.0035319976672463283 0.0003899447553506721
0.12051923948765797 -0.04282530345902514 -0.007162768908777767 9.652266297858461e-06 4.5619930615119245e-06 -4.281942495387388e-05
0.11392564235338384 -0.03888998606921164 -0.007658526684891985 0.004191735736368123 0.003535874695071648 0.00038440851950304587
0.09984444558547803 -0.03283705985208487 -0.008515545688928575 0.004987937946251955 0.004538075227432387 0.0008893731555357332
0.08583114516111318 -0.027645628761078057 -0.009092904222197275 0.004448585781754165 0.0033518279202829284 0.0010528703900825206
0.0732944431220756 -0.023196877580290348 -0.009157395102435979 0.003997881156915416 0.0012320019246631504 0.0009728752204982275
0.061289409992054115 -0.019029003669863098 -0.008693839455121088 0.003766855648820319 -0.0010228935681591677 0.0008049241687738031
0.04920427278913462 -0.01503238600553111 -0.007760759337171081 0.003595708243295727 -0.003101246509476022 0.0006297236849042937
0.03705999743331811 -0.01086745063889794 -0.0064297538065385285 0.003470842486042157 -0.0048765577708905355 0.0005032267646505382
0.026191526060998678 -0.00824852566419222 -0.004762347852667548 0.0030828705047931445 -0.006038701424798409 0.0003688897931354422
0.01883227107964712 0.0011898647557142842 -0.00282323915661435 0.007323984599199309 -0.005496898890645691 0.000296913491027198
0.016296088285346108 -0.03146774802294187 -0.0024781453283457744 0.009406862816229255 -0.004859026774573895 -0.0029020010599792984
0.009177304373613157 -0.02853228567799102 -0.00032711681754437705 -0.0018579565796558474 0.0021153868168928766 -0.0010354880055004766
0.010653038379949941 0.00037314368457116954 -0.0010175421030132112 -0.008505524670816762 0.0025643687138694874 -0.0008711067361550959
0.01693287992226869 -0.006446987246061851 -0.0026463800486896667 -0.0076697252301765155 0.003210065884804753 9.637009059350313e-05
0.02552818217402429 -0.009172440828567116 -0.003982077438778567 -0.008453171096857323 0.002683818547763118 0.00024351403078560287
0.033326079594645626 -0.012282477411357826 -0.005017647953060803 -0.008935532130734872 0.0017000846911925775 0.0003557532611256283
0.041282965999784205 -0.015439983890309416 -0.005710014031006568 -0.009253456873010414 0.00045452063520866104 0.00041116870862522155
0.04921245090743887 -0.018717168779421884 -0.006048944106614102 -0.009772723374404555 -0.0009052035770439124 0.0003584304608114912
0.057417663133273636 -0.022154343049268336 -0.006020782395599974 -0.010847530662919174 -0.002160613321347292 6.450158572903375e-05
0.06632212136118423 -0.026169896600924118 -0.005657212614143822 -0.012414840507136957 -0.0028438107354369926 -0.0006833993970506321
0.07500190420147809 -0.03164798711801117 -0.005094980185089737 -0.01087991041393474 -0.0022178889953826846 -0.0019346060134840767
0.07899351633193402 -0.036584441134101496 -0.004735569964924117 1.8720659499855765e-05 -4.095956881717603e-05 -0.0028276730945364765
0.07496232415551987 -0.03163777000968704 -0.005081976504048244 0.010919065692534728 0.0021282164386397626 -0.0019359205430964257
0.06623854592029466 -0.026146404707982386 -0.00563404149348757 0.012459429736584558 0.0027305656594498818 -0.0006846623186507727
0.05728086488518861 -0.022110914709741015 -0.005994033864971486 0.010902263426546006 0.002006465396273068 6.682571713786953e-05
0.04900746607891605 -0.01864236574772223 -0.006030635202266816 0.009844085401959154 0.0006884845387909767 0.0003718458359032623
0.04098633487424084 -0.015315108983983599 -0.005720371381391476 0.009350659516358396 -0.0007668233635321696 0.00045024238972483504
0.0329043830894347 -0.01207883712887691 -0.0050865189757628845 0.009069020998139605 -0.002157309578512301 0.0004437156366177684
0.024904999915115147 -0.00885159507373522 -0.004158827355588668 0.008660430915044202 -0.003359206282685454 0.0004200166199175671
0.01592683039666494 -0.0058989287338094215 -0.002975678714835961 0.008069850375578268 -0.003992577087634089 0.00037123589217374507
0.009762798001293808 0.0008679579415136068 -0.0016751485646722727 0.009246164165856701 -0.0028704035426518784 -0.00010763840476505306
0.008656299860560214 -0.027306119717112165 -0.0018754997710180752 0.006987034385775244 -0.0018770432390590112 -0.003753839250918323
0.0047197266398697 -0.020020505235743905 0.0005889352670992015 -0.012041671990152322 0.0007421567148896307 -0.0035699851938649574
0.004581986170266141 0.0002637070902655682 4.594377189467267e-05 -0.014804496269765889 0.0009336720312738791 -0.0013166565136070163
0.007481971327368935 -0.002222279363980919 -0.001024051245261778 -0.013800316736648097 0.0013062804466877844 -0.0003355428131902511
0.012767379584001773 -0.004770366813624909 -0.0018944549574826212 -0.014911837227447095 0.0010783793602910346 -4.804235177844469e-06
0.01696785260760083 -0.006302503111679929 -0.0024990512306321054 -0.015489951551918754 0.0005246253852684892 4.092040894415585e-05
0.020870967458457942 -0.00787315607743629 -0.0028640098235682273 -0.016039303300108564 -0.00013177952540986427 -5.988553520574708e-05
0.024707119839539052 -0.00948212041096427 -0.003004503400064561 -0.01686428133566123 -0.0008123929996570494 -0.0003903386855429448
0.02843459388483929 -0.010928572337528043 -0.0029334273774665708 -0.018469920497080274 -0.001446198506872341 -0.001126731263989651
0.032644830708389826 -0.012596026948526164 -0.002667264699788809 -0.021259273370542477 -0.001880243217310633 -0.0025329876285618345
0.03817951216442582 -0.01750726138749356 -0.0022180199632321684 -0.01972632972059684 -0.0016146388527769134 -0.0046440186025709885
0.04133430708907322 -0.02594723135781652 -0.001821387575719148 3.0206806247340065e-05 -8.565162558862753e-05 -0.006169909409527856
0.03813338285842236 -0.017502254011959813 -0.002187213218401581 0.019789598351189402 0.0014335784549708202 -0.004641238026048502
0.03254883811626995 -0.012583501696252443 -0.0026077842265776786 0.021331620321278034 0.0016700651091317075 -0.0025245795413768256
0.02828148322033408 -0.010903123596086913 -0.0028506180752251057 0.01855928274021771 0.00118786309806401 -0.0011057085708181319
0.02448613977935167 -0.009434548534229696 -0.0029091637651246513 0.016981960770124118 0.0004865338651886044 -0.00034257125904225917
0.020567391085185464 -0.00778785054064553 -0.0027756625034919638 0.016201578137775126 -0.0002832860883338924 4.005485338708793e-05
0.01656008341824595 -0.006155902085985229 -0.0024507020036999977 0.01572032351488755 -0.0010578234370957613 0.00023635507764595707
0.012209189878932184 -0.004522376229428091 -0.0019366362617245728 0.015263817922254744 -0.0017488976528907858 0.00033392464871788544
0.006905148635181447 -0.0018713592999656935 -0.001231352219373137 0.014435602260198735 -0.0019764528337305673 0.0002717782830371798
0.004323521199501199 0.0001876320857132166 -0.0005006080876122055 0.01591165781669836 -0.0011243344531430225 -0.0007964188904325302
0.004706505326820972 -0.01925206215325942 -0.0005805622523996246 0.013175200991351879 -0.0005065815785679034 -0.005521893189113629
0.0014007601171001636 -0.012648115577206449 0.0018234320157634856 -0.01297368684051558 -8.83659638287967e-05 -0.004577500933043303
-1.528832421190049e-05 -6.003688757168483e-07 0.0012150675729422525 -0.017354382284707186 -0.00028403497950909554 -0.0015464872939469935
-0.0008251141186885053 0.0009434781054849289 0.0005938919305093698 -0.01721716577379881 -0.000406616770706824 -0.00046300575678766346
0.00014954181837413907 -0.00011754341589790098 0.00019870091007881348 -0.017153500715152075 -0.0005218516668781913 -8.975982204264185e-05
0.000490977146660854 -0.0002609704083913485 2.7296944240786174e-05 -0.01766208096537609 -0.0006843787686950408 -2.7728610791797344e-05
0.00038716022408073747 -0.00017876362097139548 5.192088502420823e-06 -0.018286432565795683 -0.0008045642855857014 -0.0001763156594155814
0.0001337983817889148 -0.00013019598221696835 8.22904443124838e-05 -0.019235674160919862 -0.0008690735782369699 -0.0005912486704555058
-0.000576798776404587 0.0003236643332166189 0.00022872061163969437 -0.02060548242590803 -0.0009530969460442475 -0.0014413422124466614
-0.0009756162304271675 0.0011938958107900427 0.00043775911283326364 -0.023620485015562572 -0.0011943604497281107 -0.0029911162938744385
0.0022372562406978544 -0.0032609198535978406 0.0008164846975253793 -0.024669698997425504 -0.0012683435531043712 -0.005397029569589969
0.00530197628661126 -0.01865389205786146 0.0013549798736321296 3.423192330874112e-05 -0.00013021538291882237 -0.00736343140269797
0.0021847968939177776 -0.00326132554906826 0.0008651283495160857 0.02474140624267982 0.0009963425702040293 -0.0053930039920519045
-0.0010835312068430574 0.0011950231957699496 0.0005336019555767109 0.02370249527004287 0.000888389453598779 -0.002979742765645558
-0.000745389599677179 0.00033043348287317947 0.00036757646699533107 0.02070676426542304 0.0005931527770624021 -0.0014145142014689803
-0.00010152765764751334 -0.0001108138513353324 0.0002544964473149939 0.019369093923504443 0.00043965563080855844 -0.0005328939822674705
7.976404757774329e-05 -0.00013506307499849832 0.0001911762011863147 0.018471704614944514 0.0002966258787472318 -5.656863739012789e-05
0.00010380981802094229 -0.0001727625842625252 0.00019148612772144945 0.017930752872787392 9.716985560085413e-05 0.00020168585564303638
-0.0002918978198756453 4.3826015023628375e-05 0.000282793323462592 0.017562504653300233 -0.00011725185436150028 0.00032344179791626203
-0.0011486765477217579 0.0010654940608073363 0.0005054409990222946 0.017863249041112736 -0.0001223646566240767 0.0001831981588083649
-6.622389502700252e-05 -0.00013217099292275224 0.0008011729740077808 0.017893442675550493 0.00017252866541618583 -0.0011676652349041888
0.001492889758295759 -0.012014271051215178 0.000917587384037869 0.013201307194799079 0.00027404443709432886 -0.005846832753922586
-0.001550807834762936 -0.0066355209622312155 0.003097456163167819 -0.01035115116234578 -0.0007875563574600079 -0.004301550301857087
-0.004124079094211787 0.00035368838363596583 0.00243153552563165 -0.015202981168060863 -0.0014060223024290176 -0.001320617005617163
-0.008533609038469196 0.0034155442675085747 0.0022039314716678195 -0.0160374294735176 -0.002060260401645 -0.00039468131463382867
-0.012161393438471309 0.004385663532819687 0.002282769726192281 -0.01525834967962771 -0.002109153210532991 -4.496954819072987e-05
-0.015990792508984452 0.00583401473826793 0.0025457522423397196 -0.015452334344997945 -0.0019007946887080614 4.279943856725681e-05
-0.020143330207796736 0.007520436840632051 0.00286970252184046 -0.016039450791870215 -0.0014859494899126305 -6.075107686347766e-05
-0.02437784284225382 0.009279676807158022 0.0031674934504548166 -0.016835704371113952 -0.0009372315926254516 -0.0003950250377350627
-0.029193791018288513 0.011205009383948628 0.003389489868444814 -0.017874775165558944 -0.000436576792456101 -0.0010808005334519315
-0.03452687012297047 0.014665792792192645 0.0035248566961905183 -0.01931276869383393 -0.00038151258381625215 -0.002325354435721353
-0.034066405419968374 0.013165758296244237 0.0037335569081456774 -0.025623903192938877 -0.0007992670730606244 -0.004531747129332756
-0.03098358089113126 -0.014250209221641249 0.0044672199776852675 3.0309448987005355e-05 -0.0001756551825162467 -0.006802210528813291
-0.03412554205202235 0.013159934119650154 0.0038003719789386856 0.025687382246671636 0.0004344570424939015 -0.004529324845512552
-0.03464747053479638 0.014655501279133397 0.0036577840148854218 0.0193853179752469 -2.248832408601847e-05 -0.002317681466133437
-0.02937919946144455 0.01119310005446315 0.0035856190741801 0.017964230729626694 -2.7854058607826947e-05 -0.0010609849933600412
-0.024629452984018092 0.009270818480915776 0.0034184385267000735 0.01695331718406732 0.00040026329309698455 -0.00034923682923778315
-0.020457069698129295 0.007522139831025788 0.0031561053216507076 0.016203618512908764 0.0008803314846782589 3.6852028513892384e-05
-0.016349978800310416 0.0058612629008768695 0.002829280226863921 0.015694291267668026 0.001255347761684673 0.00023821029069362744
-0.012504210332710174 0.004441961740554432 0.0024964440463984498 0.015627802131084795 0.001499761193400045 0.0003169768078451
-0.008726066101267234 0.003418202729332585 0.0022432566510091462 0.016485587155066848 0.00164820326652511 0.00013017667237191294
-0.004108927510946698 0.00027173358022083456 0.002159098913178727 0.015401611146876841 0.001349725337378015 -0.0010405352827827425
-0.0014457609848140779 -0.006189126891280752 0.0024132568031162305 0.01028463421046939 0.0009384927518598405 -0.005121899556072314
-0.004052928934091075 -0.0027498844006622 0.004266452618658543 -0.005592982875785753 -0.0016700690664119527 -0.0026015504663643987
-0.0079083280650993 0.0011635493870557714 0.00361873359051385 -0.008698906105622925 -0.002690225665431355 -0.0005745038419531501
-0.01599269564797164 0.005621435638734505 0.003793347034009656 -0.009458503414703561 -0.0037910387516220867 -7.727751979404182e-05
-0.024290968498534828 0.008736293792821205 0.004344197980312615 -0.008870915337907239 -0.0037058390637553854 0.00020431114184820263
-0.03243161610601944 0.01187233540877248 0.005039536889218713 -0.008894416367395668 -0.0030926564842597213 0.0003512082809752713
-0.040610267902483066 0.015139987458551276 0.005701174246836716 -0.009251393148480598 -0.0020984838843402178 0.0004090846889701394
-0.04890398862145664 0.018525551424472726 0.006208033870205863 -0.009748936680518417 -0.0008710112813880856 0.00035540592047850536
-0.05706257342042515 0.02217592325554329 0.006473341086010916 -0.010175247501985932 0.00029752030974436743 0.00011232730024877812
-0.06730297977127696 0.02578695065129557 0.006488721383851916 -0.011312451597214912 0.0009156462527505379 -0.00040696619205858624
-0.07196064577787199 0.034047676026023196 0.006286566163286266 -0.01536769767788039 0.000251212012747549 -0.0018033959627222224
-0.07036662025862568 -0.011111837965138127 0.007065327280327717 1.893792660774271e-05 -0.00022296621365383584 -0.004373898317539768
-0.07202737215595918 0.0340366366820621 0.006372174137969554 0.015407307613109026 -0.0007129978406946451 -0.0018054738112372418
-0.0674382565759663 0.025765652853733098 0.006660106866554031 0.011357536114383568 -0.0014232281387801915 -0.00040976164935257895
-0.0572682349502108 0.022145986979754912 0.006729154521308531 0.010230444185313508 -0.0008747394508966549 0.00011225700636629639
-0.049177685732481484 0.01848940719572282 0.006541676371561408 0.009820869264252546 0.00021335101040364666 0.0003652274354398244
-0.040937591229551096 0.015101301721061944 0.006094304483752968 0.009350780136556462 0.0013741995952091632 0.0004430684440324517
-0.03277168362303304 0.011835371483691222 0.005451992769103091 0.009041445502862597 0.002358727232933137 0.00043756585530916535
-0.02456217624254394 0.008693875907002147 0.004701348320565789 0.009085882185031174 0.0030865547413630357 0.00038595869678508405
-0.01610259535871809 0.00554416079271136 0.00397873392710815 0.009677641120430843 0.0034649562866346595 0.00019082809128551776
-0.00785863483877179 0.0011072551784238685 0.003495662750671666 0.008747138705404205 0.0027093659224886224 -0.00043261371599705314
-0.003944413837712737 -0.002495031687660935 0.003774495551137736 0.005493957000172237 0.0018503094335417046 -0.0030601205444862074
-0.005395367734241114 -0.0014456046868884767 0.005163846721645608 -0.002180189241160763 -0.0032178618472633704 -0.001335276514000446
-0.010945848579344471 0.0016353678509015504 0.00472974967020625 -0.0034825903124885644 -0.004434153954207783 -6.0880160838437485e-05
-0.023379457314972853 0.006693476706267048 0.00537072121243583 -0.0036091552966082724 -0.005666865687101448 0.00016207011929717712
-0.03651398465283767 0.010890462626614474 0.006413716399946142 -0.003475727600947786 -0.005293016111233177 0.0003976296620767504
-0.04881424698354941 0.01485796009216852 0.007550531309214274 -0.0035244174231746934 -0.004182104354779786 0.0005988082604089422
-0.0609534654292067 0.018921122773366376 0.0085470545787723 -0.00371160134987505 -0.0025166305329934317 0.0007966202265928847
-0.07321835842340234 0.023046162845272857 0.00924269098108124 -0.0038978738524511614 -0.000491045606159933 0.0009736657226472865
-0.08534736101133084 0.027835402827650253 0.00952696336734346 -0.004311802293811748 0.0015093388154534904 0.0011047026098093187
-0.09621343947023984 0.030348242706302465 0.009326412245447646 -0.004561135726914441 0.002806641148510242 0.001044347579073026
-0.1111056238215895 0.045863277259268496 0.0085942892305032 -0.010045542646195494 0.0026804276675368686 0.0006461575247914133
-0.12110500227280914 -0.009480157696261475 0.008265290580114043 9.849269613810424e-06 -0.0002728316711683804 -0.0030643511529225126
-0.11118137433970801 0.045849708100444614 0.008699547759694278 0.01006625726528091 -0.003245006524906987 0.0006416499926911012
-0.09636651150917887 0.030321603369364312 0.009538176835153348 0.00458501538427321 -0.0034259745420148115 0.0010356844129406249
-0.0855787208672464 0.02779668735009975 0.009845909833641163 0.004341432756010676 -0.0022122365205107406 0.0010929038429335887
-0.07352320161093777 0.02299679288024873 0.009664854341587991 0.003936662884110312 -0.0003087906828886777 0.0009611492298419527
-0.06130954795341977 0.0188626844132623 0.009056574163835903 0.0037643778464623483 0.0016371624704345194 0.0007889932418508779
-0.04915937618973655 0.014789207916851397 0.008107855250082683 0.0035994221268487994 0.00329986700796651 0.0006087773639826884
-0.03673515763670591 0.010800493313226382 0.006939230482841899 0.0035799984950964136 0.004584060199539483 0.00044702549615016456
-0.02339251801747907 0.0065762910448769925 0.005733534737396682 0.0037177443222909485 0.005388979343714921 0.00024799684314808033
-0.010822745782991375 0.001577488166447058 0.004770731984749158 0.0035232581496465864 0.004631290117077854 -2.004284063466779e-05
-0.005248068829908539 -0.001280718799954311 0.004825030010175682 0.0021500313589305044 0.0036184887119426745 -0.0016099026330881818
0.022049313042147276 -0.03200868562834814 4.607859233063394e-19 0.002479322786418199 -3.3276353406715836e-14 -1.6637468583814014e-14
0.02255373960127803 -0.00041445893617369166 -0.0019178492824804894 -0.007353287930695452 -1.6638559562250077e-14 3.31694714012995e-16
0.027244028771445584 -0.009016333999848379 -0.0035989460500110817 -0.0028584223383168366 -6.126081087722002e-15 -1.6361966035521869e-15
0.037201770585645576 -0.011425520593409002 -0.00519278259901159 -0.003399033125106922 8.407140814677833e-16 6.784733907506946e-16
0.048882881857542235 -0.015460970658466869 -0.0063222564164300095 -0.003634413401102756 2.516613660356621e-15 3.45680922038058e-15
0.06065906550346451 -0.019453937213867966 -0.006895080090403709 -0.003906903259750151 -1.8073167406553424e-15 -2.2053078764169842e-15
0.07256406570061072 -0.023733685661586224 -0.006865984121711749 -0.004255164656890655 -6.886154244479387e-15 1.6140246691248583e-15
0.0853769637025326 -0.028439224731090552 -0.006244991312044921 -0.004822133819206825 -3.868518054723005e-15 7.1025881031618054e-15
0.10015102067009464 -0.03402540418362801 -0.005163127073174961 -0.005422360403930266 4.00695034335867e-15 4.597071421447163e-15
0.11523768552016216 -0.040493982464409266 -0.003998474786284337 -0.004530357694843225 7.788537406704966e-15 1.3680937350872557e-15
0.1223112161778538 -0.04464080860697128 -0.003440617314898332 1.1956001791412429e-05 9.14333272452033e-15 4.3591703597495313e-16
0.11518002946926392 -0.04047290080062114 -0.003999548281007156 0.0045553741540294195 1.7252282366380864e-14 -2.4127496333313514e-15
0.10002738904036804 -0.033978199846754716 -0.0051697338922891386 0.005450909447506248 3.5079984707017675e-14 5.461410945879763e-15
0.08516836675456206 -0.028354665771490373 -0.006266823690683466 0.004857433061507427 3.9219236514539783e-14 5.751285949220919e-16
0.07223509950161969 -0.023592217840762975 -0.0069191406331205844 0.004301421303761182 3.256284482744257e-14 1.104795237499151e-15
0.0601492526406582 -0.019222601106494486 -0.00700243795317182 0.003970615639515034 1.0939039184567657e-14 -1.856032146550779e-15
0.04809426372444219 -0.015093971687085806 -0.006513144397305563 0.0037197350611211104 -1.9119342881904894e-14 1.7806936480901925e-15
0.03598748896247378 -0.0108429578530293 -0.005497985810001766 0.003536666233977447 -2.9277192378340117e-14 1.6055611159158933e-15
0.025283772061788362 -0.008134002204519966 -0.00409453163590715 0.003113576889461316 -3.7628740726623755e-14 2.3135451345489277e-15
0.018110516068599248 0.0011390729672547783 -0.002756359554602122 0.007016852067746588 -3.325247724199863e-14 8.802027574687787e-17
0.015612969563602296 -0.0301678790911081 -0.002812343535649862 0.008932156713668397 -3.0019945405392046e-14 -1.5375504688885933e-14
0.00921942884097695 -0.027841939067499714 -6.934198760769076e-05 0.00019465837748544474 -1.0132382603843075e-14 -1.0050865847065216e-14
0.010894739019870793 6.322611671379235e-05 -0.0009842104327756765 -0.0080782445449951 -9.338678850947905e-15 -4.179724735807813e-15
0.01709371291714564 -0.006630625726075513 -0.0022709455793905957 -0.007480567432871178 -6.9794769464760764e-15 -4.005401967131089e-15
0.02530437677629055 -0.009304097807443837 -0.003431317370097967 -0.008486956046774132 -3.417478939540721e-15 -5.135289708659702e-16
0.03292723866989983 -0.012408645167146315 -0.004267868058157799 -0.009119214383377457 -1.4103083748707524e-15 1.0520318611487861e-15
0.04077851184346405 -0.015612991767739462 -0.004693661098217907 -0.00962416833511981 -2.164863747251486e-15 -4.4338786656973606e-16
0.04871559888979956 -0.019006895478210283 -0.004702262629075662 -0.010384321245995117 -4.532733339872568e-15 -3.230271952703312e-15
0.0571369420374124 -0.022650650728388788 -0.004323751788381426 -0.011739036805252864 -3.092688391080796e-15 2.4566733738441704e-15
0.06651531950557327 -0.026962512384479734 -0.003655248491736194 -0.01348976251435606 -1.9143063192559803e-15 -4.5382602298534025e-15
0.07578552227440345 -0.03274552803631628 -0.0029222236156215653 -0.011762631617637331 2.431438991796044e-15 -5.948895347683558e-15
0.08006047940610808 -0.037898371332152694 -0.0025524868639744142 2.3142753665077547e-05 7.840766305265614e-15 -4.805590604270438e-15
0.07571758248057522 -0.032727464030535613 -0.0029007708604834115 0.011811845823556016 8.691413542105848e-15 -9.919101401790337e-15
0.06637195253673833 -0.02692180703230867 -0.0036155462650145145 0.013548488102769476 1.77638318212491e-14 -2.9365548079134107e-15
0.05690177681063118 -0.022577240484321325 -0.0042731271779605845 0.011816195517260854 2.4059652382370234e-14 -1.309275767229917e-16
0.04835991963468311 -0.018883139639599138 -0.004653709646604607 0.010493014127435182 1.6817612374662506e-14 9.04102639108506e-16
0.04025466024390907 -0.015409739995007261 -0.004667683807261669 0.009782521490608842 7.140468263595965e-15 1.5007902554172933e-14
0.03216030468498486 -0.012080421173402602 -0.004292906791203659 0.009351231931655221 -7.371212743922245e-15 5.984897636073655e-15
0.024170914150134663 -0.008791383254343895 -0.0035505274985834254 0.008843723361409176 -1.7314564698992473e-14 6.415112446247692e-15
0.015415545833261554 -0.0058144905363595855 -0.0025484884815322796 0.008170509412309242 -2.192729437150258e-14 3.529621866592454e-15
0.009451011240052836 0.0008360705374800459 -0.001748738446931253 0.008971082207262539 -1.657015784011103e-14 -1.2735411412511527e-15
0.008332500756123094 -0.026195478741590866 -0.002231943323657692 0.006619042515216097 -1.034596704369093e-14 -2.2539153703149406e-14
0.004667791023502481 -0.019796664291542965 0.0006650274355977507 -0.011120730832659183 -3.682927206748957e-15 -1.3317390809911012e-15
0.004702718277925471 0.00029198262130073274 3.837549257572765e-05 -0.013974559924614967 -4.1369559247185755e-15 -6.7622502649550276e-15
0.007680788556921591 -0.002378236120269575 -0.0008415197425440396 -0.013555355171660953 -6.7878408243574745e-15 -6.1896390519521755e-15
0.012788632854276331 -0.00485399659932469 -0.001613377341548614 -0.014974192801696951 -5.670577394223638e-15 -5.577366368227088e-15
0.016868056941174908 -0.006360254755587967 -0.0021335875910028466 -0.015817407612010836 -4.834865968751678e-15 8.267143209155642e-16
0.02071253839040644 -0.007933309761904745 -0.002372669990858548 -0.0166575280721006 -5.7350932203682585e-15 1.0610951136844071e-15
0.02454254367166842 -0.009578852699486171 -0.002350044312446455 -0.01787048781639564 -3.895075078718269e-15 -5.33073070277737e-15
0.028355765139110936 -0.01109285026540794 -0.0021043683357571787 -0.019935850312037855 -6.54170999054432e-15 -5.956559301790315e-15
0.03277631151856147 -0.012862290826367938 -0.0016875838390976337 -0.02303936044527382 -7.519981375613254e-15 -1.2782452234270242e-14
0.03865118777360417 -0.017888315103601792 -0.001191645514986028 -0.021237528238774533 6.569549422421727e-16 -9.009537094237935e-15
0.04199967020897876 -0.026569458349803555 -0.0008939715614972605 3.616137041067419e-05 1.8240854519121358e-15 -1.1526702173043218e-14
0.0385743653331122 -0.01787644270538612 -0.001148239355804586 0.021314664240215834 4.041211132009212e-16 -1.409496705549046e-14
0.03261648326645164 -0.012834928047597075 -0.0016030183540085678 0.023132177528178338 6.0009290051498635e-15 -8.3364440567682e-15
0.02810024228098115 -0.011042197526801321 -0.0019843003544574196 0.020059312556171383 9.606322204038951e-15 3.1104201787986174e-15
0.024170748808540723 -0.009491432460683537 -0.0022058226920339645 0.01804702847335497 8.370173755760813e-15 4.8807800249323074e-15
0.02019200889199086 -0.007785984239321464 -0.002224359716423286 0.01692038504954963 6.1878845290810566e-15 2.5676529858461444e-14
0.016149522971702183 -0.006115292267104913 -0.0020140535636120897 0.016211314024291764 -5.764038030241832e-16 1.4765891688615224e-14
0.011802230272195891 -0.004461590817648333 -0.001572979239298359 0.015592621856283408 -6.399815454736753e-15 1.111900488673899e-14
0.006667135301536593 -0.001854734083021714 -0.0009789747381957876 0.014595887082666863 -1.0786696497355709e-14 5.875162823690966e-15
0.004195995185357788 0.00017309098993769674 -0.0005894020316092987 0.01551440694256273 -5.258857839620474e-15 -5.116085777679552e-15
0.0045410552833473035 -0.018461796594712077 -0.000959944964979705 0.012609098055094472 -3.0379039941182823e-15 -3.351491176598054e-14
0.001388859371754976 -0.012514510001667731 0.0018273114873509863 -0.012441918545458902 -6.034920225564942e-16 3.8246586887141776e-16
0.00010193649913002183 5.669784635812433e-05 0.0011615714294387343 -0.016709098746930245 -2.035446006756975e-15 -5.476498296736257e-15
-0.0005853906067171928 0.0008417286291161983 0.0006156058682444812 -0.016910275093736073 -6.9129569080293544e-15 -7.0685441549457606e-15
0.0003594194926474269 -0.0002279005682251572 0.00021913113764461092 -0.01722899419710723 -7.501667676260669e-15 -3.997033281612217e-15
0.0006685763474220332 -0.00033813418603129993 1.4752734830348941e-05 -0.01804522536258256 -7.481138138718067e-15 4.969677826812541e-16
0.0005471224963311736 -0.00023959863001137707 -2.1112649014228516e-05 -0.01900078028327529 -8.830825424345013e-15 2.210379909705143e-15
0.000269697657422216 -0.00017615961246670125 6.227662344650494e-05 -0.020378639804184293 -7.247346033847565e-15 -3.782429014095867e-15
-0.0004796995860803998 0.0003054191197934787 0.00022301556780392225 -0.02224096025417145 -9.655959817055711e-15 -7.614467053846524e-15
-0.000902618879239878 0.001205160253414356 0.0004532733456504803 -0.025572498900625074 -1.0224645244106276e-14 -1.8485111716055186e-14
0.002475979058962865 -0.0032496067428333542 0.0007823499525584845 -0.026406414715165232 -3.918766590252972e-15 -1.4506089743033385e-14
0.00569912431136076 -0.018971355293964254 0.0010497840218861886 4.056433665630007e-05 -4.795403974288521e-15 -1.2951343827689171e-14
0.002390742490782845 -0.0032441371988501354 0.0008476430234267227 0.026492994231069576 -5.866446854663719e-15 -1.6510427194253025e-14
-0.0010777900039447106 0.0012187476422611723 0.0005824549260206503 0.025676835664022915 -2.7340268479447434e-15 -1.6625786305405482e-14
-0.000753427926133983 0.0003326836534675063 0.0004117979832488737 0.02237991537270187 -3.810236258721279e-15 3.5297963553795886e-15
-0.00011424483471017587 -0.00012586912210725448 0.00030044828670374796 0.020577925947169146 -4.632969524784748e-16 4.782158284817595e-15
3.830115409684348e-05 -0.00014966235525703498 0.0002455612043344964 0.01929997330204742 2.68852704381488e-15 2.7978175874167344e-14
1.3156525966371999e-05 -0.00017963714122346954 0.00027201433997462945 0.018504742675729907 4.757132272874493e-15 1.7610872070535077e-14
-0.00040517681118833903 3.302134042695525e-05 0.0004029626193553078 0.017938606224534935 1.716901479250103e-15 1.4974485410337857e-14
-0.0011773724140179882 0.0010201821975165328 0.0006024644290161356 0.017964116307520508 3.340875820889884e-16 6.437477504186995e-15
-6.284787785699283e-05 -0.00014611358104604465 0.0006946751122811396 0.01750342709311119 2.172521772127612e-15 -7.470925462473021e-15
0.0014495624025450877 -0.011469133326012152 0.0006018997259173718 0.012744162720630147 3.1352653492074806e-15 -3.518786282317998e-14
-0.0014732448198519874 -0.006555529954417746 0.0031104315940244528 -0.010083041400797275 6.477718345445152e-16 -1.0410373734934253e-16
-0.003943483726797951 0.00040756988549076094 0.0023137927525652756 -0.01474456538582764 -2.1292256830287085e-15 -3.4228160941413704e-15
-0.008213422954401682 0.0033352715861942953 0.002069992585794437 -0.015739475790695647 -7.0483322547583785e-15 -6.536150066278543e-15
-0.011773427450367592 0.004265063822088328 0.002046250302702914 -0.015281063481785952 -9.024792157617985e-15 -3.153476557573448e-15
-0.015543712038767662 0.005733989231381987 0.002156633632493752 -0.015770708965908174 -9.795604845113607e-15 3.6654503759482593e-16
-0.019665188522762823 0.0074581576117189585 0.0023256349695802052 -0.016661654347704134 -1.3008696005031286e-14 1.888127918988139e-15
-0.023936601173046076 0.009284993290330295 0.0024718450247335033 -0.017838088933408734 -1.1746780788027893e-14 -2.202926019769305e-15
-0.02890437065568177 0.011317346078745778 0.002547290855411955 -0.019305030441727634 -1.1716854293438231e-14 -6.475722735821421e-15
-0.03451449724410187 0.014941295494597027 0.00258030116740977 -0.020951051947206097 -1.108888354810168e-14 -2.049667266424901e-14
-0.03407540686708361 0.013564662724705813 0.0027133126894005872 -0.027254346757354463 -9.86496710261484e-15 -1.2554864645738378e-14
-0.030857337949747054 -0.014356195013411278 0.0029237503269145234 3.6432222674960596e-05 -9.905480688482014e-15 -1.1118608475319675e-14
-0.03416951936424405 0.013563736430105607 0.0028009241961430217 0.027332056610620697 -1.0485336997799206e-14 -1.2298078137448765e-14
-0.03470601865497875 0.014941141039369747 0.0027550156689124575 0.021044501694730947 -1.3244518024359882e-14 -1.44337124717564e-14
-0.02919812765936076 0.01132136376701311 0.002806314069953638 0.019429047068728684 -1.2817565561582195e-14 3.761883382927267e-15
-0.02433521436930762 0.009298516943518005 0.002806277244836798 0.018015241905266502 -1.000416934419956e-14 8.229792444313516e-15
-0.02016515546705407 0.00748999860716651 0.002714125876533723 0.016928915996698858 -9.255554425636157e-16 2.7499090651068522e-14
-0.0161248329661865 0.005802498366292379 0.0025561263148663545 0.016186098646621096 8.138963407313543e-15 1.6412998076528046e-14
-0.012343802310996065 0.00436688790314254 0.0023781843557962056 0.01591761252249453 9.431677986358744e-15 1.4688249260538105e-14
-0.00856104146734213 0.0033338740215319075 0.002194959667411952 0.01648189032632048 1.1386872280044584e-14 5.4529914383840555e-15
-0.003971982482367915 0.00026812237465923076 0.0020159395916230973 0.015049037466854539 1.00600485312464e-14 -6.1059217035773494e-15
-0.0013623265578225489 -0.005856817539454726 0.0021996003331883887 0.00998070422330327 7.811100670353927e-15 -3.1241068759735313e-14
-0.0038556999162556284 -0.002661177891012706 0.004243504278045132 -0.0055180008209759586 3.8370761917209256e-16 -4.015952609522089e-16
-0.007618874704165672 0.001258054639839384 0.003381680216482667 -0.008427655261206559 -2.1437116404926515e-15 -1.9199492527505885e-15
-0.015547892581859856 0.005589270475090602 0.003489377126187929 -0.00924956940834624 -6.833109653190533e-15 -3.7277208500986064e-15
-0.023703408297326884 0.00866685515702618 0.0038477129651206562 -0.008855716009471706 -1.1641178675864637e-14 -2.2266734354785267e-15
-0.031696900353171506 0.01183562021682323 0.0042714783025249135 -0.009072358499132693 -1.4740245225038258e-14 9.976083002218028e-16
-0.03978687713605684 0.015186991719724667 0.004632567887675024 -0.009625052598560354 -1.3588952537416056e-14 -1.0454487210827257e-15
-0.0481233345718514 0.018721314734548286 0.004815323352952022 -0.010359076787853444 -1.0964356999361088e-14 4.674334378763911e-16
-0.05652789907613108 0.022607113479701055 0.004759687474103763 -0.011025167677567593 -1.3693786840682405e-14 -1.013390218095045e-17
-0.06734772683351123 0.026517496096473386 0.0045168914869574755 -0.012255706526935016 -1.210063983964147e-14 -9.476567344431433e-15
-0.07232172140587714 0.03521494052644838 0.004340072141341051 -0.016311566122505387 -1.2788263727321354e-14 -2.5279664429486703e-15
-0.07065606973304572 -0.011043219444995768 0.0043760093619864705 2.3615792630770775e-05 -1.3991478264060823e-14 -7.88272577637375e-15
-0.07242610155353041 0.0352078351503558 0.0044509349384592575 0.016361782662018237 -1.711872051719191e-14 -1.4510894113910211e-15
-0.06755872337071142 0.026504065741485748 0.004739230013912896 0.012315566658292504 -2.3624912722191964e-14 -6.489559866047767e-15
-0.056847295666735444 0.022588726723429205 0.00509271241452593 0.011103543687282254 -2.385235123292511e-14 6.3600451402807956e-15
-0.04854634980796341 0.018699363692247263 0.005252400634417803 0.010469373043748037 -1.9577808146693993e-14 4.659941594924166e-15
-0.040290776485612204 0.01516275336026631 0.0051534961751762125 0.009788965426384064 -6.705043353763367e-15 1.6179643887691275e-14
-0.03221977011084844 0.011808047492310486 0.00483017179952502 0.009326089769246865 1.0217695762290528e-14 9.396346548062873e-15
-0.024122110948147653 0.008614261813025197 0.004353911637732393 0.00922674216996078 1.911666964592336e-14 7.4404526051626e-15
-0.015723021473508746 0.005458734621063846 0.0037879944252641887 0.009616175926857559 2.4462850229658648e-14 2.6015888526581196e-15
-0.007557201511844708 0.0011472173527298127 0.003265482194507966 0.008501874588801235 1.9802764639133448e-14 -2.3439824164755638e-15
-0.0037092559816569405 -0.0022806870307134487 0.0035898285022475016 0.005372798688150533 1.3852796947738666e-14 -1.9931579715685988e-14
-0.00508182928605974 -0.0013221798000907275 0.004878455453456909 -0.00218962147383558 1.779040239777152e-16 -5.50530758133827e-16
-0.010534651556279088 0.0017713111284133067 0.004258634590277087 -0.003328725090616765 -5.514794350347518e-16 -7.509184246634604e-16
-0.02276866099697277 0.006703009824261524 0.004815930775379697 -0.0034908647595178763 -5.88304361823222e-15 -1.7627772071898695e-15
-0.035673406683082165 0.010873099710596109 0.005572742565627203 -0.00344994793226265 -1.5409602847210602e-14 -2.986434884111322e-16
-0.047737843452871756 0.014891183434170072 0.0062966742615132125 -0.0035975801381210484 -2.0797003442291073e-14 2.979929671076409e-16
-0.059722433475946524 0.019073044158187204 0.006810764959060768 -0.003883527938653582 -1.2186832218288174e-14 -4.77062508420778e-15
-0.07201455546303558 0.023397923767640594 0.006963474198680033 -0.004179037587161111 -8.78726209635125e-15 5.5390533739568815e-15
-0.08451082202708471 0.028513996846626397 0.006672100145478057 -0.004682117441687973 -1.1529243271884981e-14 9.308417751874298e-16
-0.09620399920974984 0.03138768277798588 0.006006270929741918 -0.004932808119925739 -1.2140245406189187e-14 6.4854805553737904e-15
-0.11196740693519402 0.047580898716798756 0.005313164218874494 -0.010571989116090044 -1.996435989074473e-14 1.9976018452230737e-15
-0.12231458412043408 -0.00933377680882447 0.004988879592568898 1.364478199907405e-05 -1.8623056113713232e-14 -6.160409639008324e-15
-0.11208439759278103 0.04757078119312233 0.005448741258394413 0.010601011202310846 -2.1751616350110248e-14 3.2201888724991967e-15
-0.09643970532131438 0.031367786566085916 0.006279554890575414 0.004967317700824279 -3.756812027265466e-14 3.818451631276698e-15
-0.08486533247083206 0.02848467307621759 0.007085218742766922 0.0047268670295487775 -4.3195590333777734e-14 3.569708547854211e-15
-0.07247828386229659 0.023358758736175805 0.007513762157458946 0.004240570105709092 -3.4949707651598175e-14 2.8199556405261728e-15
-0.060257822337066086 0.019021274390808425 0.0074821468298539515 0.003971081869735532 -1.524565114994006e-14 2.248364255191815e-15
-0.048244579366202085 0.014815537844079737 0.007045026608636628 0.0037250105186869046 1.4370476380046182e-14 3.5130047742332193e-15
-0.03597432015696092 0.010744163480257416 0.006301966934540133 0.0036255526184769556 3.208327700732205e-14 2.050226308170089e-16
-0.022742896198571293 0.006504574891941163 0.005350734372085815 0.003668109544345615 4.228559234535634e-14 9.79536005259185e-16
-0.010317929327978153 0.0016528489218789932 0.004355562478900715 0.003391924633427218 3.425864735125128e-14 2.9201630263181455e-16
-0.004844999857452964 -0.0010854908371911891 0.004416557528631044 0.0021565601843790377 2.41253414814957e-14 -1.2224054234122317e-14
0.020785640674626786 -0.03310291422888898 3.8963515573697816e-19 -0.001089220610061585 -0.003995519338534735 -0.00034670993805608756
0.021858605927373875 0.0002020266067821203 -0.002219354669161639 -0.007494548782088072 -0.0054473721348972486 0.0004156953235934967
0.0273577803058904 -0.008844153517014845 -0.00423885737020486 -0.0029654208114761353 -0.005126765490889656 -0.00040154302649543684
0.037702898346331705 -0.011228436968286556 -0.00611578409505955 -0.003388563967195576 -0.004285587066541707 -0.0004633389036016914
0.04963153990697054 -0.01526320816732376 -0.007564267615444841 -0.003550807004917431 -0.002755775979483109 -0.0006393964220134841
0.06157020649828903 -0.01917320440520421 -0.00858102545632014 -0.0037283264960141452 -0.0008398860092414301 -0.0008214879998910561
0.07347860104040178 -0.02328490231201157 -0.009096308975556274 -0.003967783945950806 0.0013255421062576234 -0.0009920572831998158
0.08594853570764784 -0.027697787841533445 -0.009062461881576006 -0.004423516414019508 0.0033942052432618945 -0.0010687883094541162
0.09991390818950587 -0.03286587467132538 -0.008501820268389748 -0.004966220375459057 0.00455051759805783 -0.0009003794914313708
0.11395790846895044 -0.03890273296800272 -0.007653483742267501 -0.00417184189700761 0.0035319976672445034 -0.0003899447553529241
0.12051923948768145 -0.042825303459046844 -0.007162768908763336 9.65226629436153e-06 -4.56199304135396e-06 4.281942495757755e-05
0.11392564235341285 -0.038889986069221165 -0.007658526684878143 0.004191735736376373 -0.0035358746950368116 -0.0003844085195097198
0.09984444558549917 -0.032837059852155834 -0.00851554568891525 0.00498793794627194 -0.004538075227383821 -0.0008893731555291197
0.08583114516111667 -0.027645628761089707 -0.009092904222194973 0.004448585781775168 -0.003351827920237154 -0.001052870390085177
0.07329444312205208 -0.023196877580316428 -0.009157395102438478 0.003997881156911079 -0.001232001924632274 -0.0009728752204858918
0.06128940999200405 -0.019029003669784446 -0.008693839455132139 0.0037668556488134933 0.0010228935681682954 -0.000804924168769856
0.04920427278909354 -0.015032386005520645 -0.007760759337175897 0.003595708243293419 0.003101246509458599 -0.0006297236848903883
0.03705999743329515 -0.01086745063888353 -0.00642975380654067 0.0034708424860366207 0.004876557770839693 -0.0005032267646456901
0.026191526060979388 -0.008248525664188306 -0.004762347852667584 0.003082870504790636 0.006038701424724378 -0.00036888979313329885
0.01883227107962746 0.001189864755715313 -0.0028232391566133286 0.007323984599182819 0.005496898890579923 -0.0002969134910238957
0.016296088285323064 -0.031467748022906444 -0.0024781453283434524 0.00940686281623591 0.004859026774513806 0.002902001059942383
0.009177304373626984 -0.028532285677999196 -0.00032711681754510065 -0.001857956579597627 -0.0021153868169136265 0.0010354880054780713
0.010653038379967865 0.00037314368456212437 -0.0010175421030157875 -0.008505524670813067 -0.002564368713889106 0.0008711067361477376
0.016932879922288823 -0.006446987246062633 -0.002646380048693879 -0.007669725230173541 -0.003210065884818577 -9.637009059865437e-05
0.025528182174040147 -0.009172440828575745 -0.003982077438782993 -0.008453171096847616 -0.0026838185477693795 -0.00024351403078821504
0.033326079594655736 -0.012282477411369924 -0.005017647953063967 -0.008935532130729612 -0.001700084691195335 -0.0003557532611311045
0.04128296599979008 -0.01543998389029857 -0.0057100140310077175 -0.009253456873018057 -0.0004545206352038607 -0.000411168708625756
0.049212450907446824 -0.018717168779433194 -0.006048944106611547 -0.009772723374420747 0.0009052035770562451 -0.0003584304608148751
0.05741766313328152 -0.02215434304928501 -0.006020782395593127 -0.010847530662941966 0.002160613321351747 -6.450158572576045e-05
0.06632212136119296 -0.02616989660092985 -0.005657212614134582 -0.012414840507147773 0.002843810735433622 0.0006833993970579834
0.07500190420149716 -0.03164798711804516 -0.005094980185080546 -0.01087991041392783 0.002217888995383857 0.0019346060134727992
0.07899351633195267 -0.03658444113411982 -0.004735569964917378 1.872065949404318e-05 4.0959568829332384e-05 0.0028276730945324077
0.07496232415553325 -0.03163777000967601 -0.00508197650404015 0.01091906569253098 -0.0021282164386157874 0.0019359205430898373
0.0662385459203123 -0.02614640470804569 -0.005634041493478897 0.012459429736617863 -0.00273056565942257 0.000684662318651228
0.05728086488519221 -0.022110914709750854 -0.005994033864967867 0.010902263426572363 -0.0020064653962470775 -6.682571713136888e-05
0.04900746607890074 -0.01864236574774171 -0.006030635202266273 0.009844085401995384 -0.0006884845387739343 -0.0003718458358893023
0.04098633487421884 -0.015315108983962732 -0.00572037138139444 0.009350659516370999 0.0007668233635335796 -0.00045024238971424325
0.03290438308941055 -0.012078837128859607 -0.005086518975765111 0.009069020998110414 0.0021573095785010956 -0.00044371563659875544
0.024904999915097446 -0.008851595073730074 -0.004158827355590117 0.008660430915036878 0.003359206282651425 -0.00042001661990629047
0.015926830396652963 -0.0058989287338028365 -0.0029756787148359698 0.008069850375559764 0.003992577087587322 -0.0003712358921670259
0.009762798001285634 0.0008679579415123627 -0.0016751485646718442 0.009246164165843448 0.0028704035426210216 0.00010763840476338222
0.00865629986055419 -0.02730611971707982 -0.0018754997710162921 0.006987034385772281 0.0018770432390365361 0.0037538392508720143
0.004719726639877341 -0.020020505235752876 0.0005889352670982221 -0.012041671990142671 -0.0007421567148964451 0.003569985193861325
0.004581986170273396 0.00026370709026664904 4.5943771892537095e-05 -0.01480449626975938 -0.0009336720312852109 0.0013166565135940736
0.007481971327379523 -0.002222279363971419 -0.0010240512452657574 -0.013800316736644986 -0.001306280446703097 0.0003355428131850511
0.012767379584014072 -0.004770366813630795 -0.0018944549574862115 -0.014911837227432133 -0.0010783793603016904 4.804235176325913e-06
0.01696785260760913 -0.006302503111682022 -0.002499051230635097 -0.01548995155190781 -0.0005246253852758835 -4.092040894928461e-05
0.020870967458465953 -0.007873156077437812 -0.0028640098235697136 -0.01603930330012692 0.00013177952540603663 5.988553520048855e-05
0.024707119839545433 -0.009482120410959381 -0.003004503400064147 -0.016864281335693076 0.0008123929996529358 0.0003903386855405122
0.02843459388484318 -0.010928572337512097 -0.0029334273774644956 -0.018469920497109153 0.001446198506867925 0.001126731264002664
0.03264483070840242 -0.012596026948555968 -0.0026672646997832304 -0.021259273370547276 0.0018802432173061134 0.002532987628570676
0.03817951216444421 -0.017507261387515533 -0.002218019963226415 -0.019726329720594023 0.001614638852773195 0.004644018602557931
0.04133430708908379 -0.025947231357810505 -0.0018213875757182821 3.020680623407225e-05 8.565162559407213e-05 0.0061699094095151
0.03813338285843066 -0.017502254011964473 -0.0021872132183966097 0.019789598351176784 -0.0014335784549577744 0.004641238026037104
0.032548838116282994 -0.01258350169630887 -0.0026077842265722112 0.021331620321322478 -0.0016700651091215225 0.0025245795413789593
0.028281483220341203 -0.010903123596114426 -0.0028506180752206193 0.0185592827402494 -0.0011878630980563358 0.001105708570823097
0.024486139779350505 -0.009434548534266958 -0.002909163765121933 0.016981960770168298 -0.0004865338651843915 0.00034257125906024706
0.020567391085176703 -0.007787850540674256 -0.002775662503490992 0.01620157813779371 0.0002832860883325422 -4.0054853367532264e-05
0.016560083418233357 -0.006155902085979084 -0.0024507020037009596 0.01572032351485318 0.0010578234370884755 -0.00023635507762312022
0.012209189878919667 -0.004522376229414166 -0.0019366362617254447 0.015263817922235053 0.0017488976528710878 -0.0003339246486971687
0.006905148635175952 -0.0018713592999663232 -0.0012313522193731134 0.014435602260174528 0.001976452833709663 -0.00027177828302789016
0.0043235211995001285 0.00018763208571072223 -0.000500608087612024 0.015911657816675372 0.0011243344531319055 0.0007964188904256268
0.004706505326814773 -0.01925206215323594 -0.0005805622523983458 0.013175200991338072 0.0005065815785613736 0.0055218931890471555
0.0014007601171028832 -0.01264811557721696 0.001823432015763255 -0.012973686840518231 8.836596382625833e-05 0.0045775009330451975
-1.5288324210416407e-05 -6.003688647966624e-07 0.0012150675729403276 -0.01735438228471172 0.00028403497950164034 0.0015464872939363785
-0.0008251141186836438 0.000943478105496279 0.000593891930506278 -0.017217165773795402 0.00040661677069299553 0.00046300575678046707
0.00014954181838289617 -0.00011754341589588974 0.00019870091007617122 -0.017153500715141514 0.0005218516668623162 8.975982204074409e-05
0.0004909771466672226 -0.0002609704083930787 2.7296944238015865e-05 -0.017662080965367817 0.000684378768679749 2.7728610786480308e-05
0.0003871602240871638 -0.00017876362096645623 5.192088500527697e-06 -0.0182864325658141 0.0008045642855725061 0.00017631565940579296
0.00013379838179534737 -0.00013019598221529504 8.229044431168808e-05 -0.019235674160947562 0.0008690735782257757 0.0005912486704538934
-0.0005767987763985569 0.0003236643332261655 0.0002287206116384976 -0.020605482425944923 0.0009530969460295498 0.0014413422124603978
-0.0009756162304153581 0.001193895810757163 0.0004377591128358359 -0.023620485015570087 0.001194360449717539 0.0029911162938873657
0.002237256240711509 -0.0032609198536321412 0.0008164846975274743 -0.024669698997415966 0.0012683435530955872 0.005397029569575058
0.005301976286617214 -0.018653892057850403 0.0013549798736302518 3.4231923294131496e-05 0.00013021538291567918 0.007363431402670933
0.0021847968939252642 -0.003261325549101551 0.0008651283495185331 0.02474140624266566 -0.000996342570200885 0.005393003992038004
-0.0010835312068343662 0.0011950231957555165 0.0005336019555787483 0.023702495270083758 -0.0008883894536058519 0.0029797427656474327
-0.0007453895996725117 0.0003304334828301018 0.00036757646699930543 0.020706764265463855 -0.0005931527770710459 0.0014145142014746707
-0.00010152765763977053 -0.00011081385136347811 0.0002544964473177574 0.01936909392355009 -0.0004396556308147114 0.0005328939822834917
7.976404758594944e-05 -0.00013506307501837093 0.00019117620118788204 0.018471704614964155 -0.00029662587875110597 5.656863741371547e-05
0.0001038098180213965 -0.0001727625842654584 0.00019148612772138478 0.01793075287275512 -9.716985560455631e-05 -0.00020168585561805558
-0.0002918978198800659 4.3826015048586736e-05 0.0002827933234613034 0.017562504653270587 0.00011725185435821665 -0.00032344179789365777
-0.0011486765477217054 0.001065494060800902 0.0005054409990220787 0.01786324904108685 0.00012236465662550597 -0.00018319815879851026
-6.622389502446235e-05 -0.0001321709929261723 0.0008011729740076369 0.017893442675526318 -0.0001725286654111556 0.0011676652348945906
0.0014928897582979802 -0.012014271051200747 0.0009175873840385438 0.013201307194786155 -0.0002740444370907198 0.005846832753852265
-0.0015508078347644565 -0.006635520962240433 0.003097456163168733 -0.010351151162351057 0.0007875563574586283 0.004301550301860569
-0.0041240790942136405 0.00035368838365201115 0.0024315355256303447 -0.015202981168069474 0.0014060223024232512 0.0013206170056103265
-0.008533609038467418 0.003415544267516274 0.0022039314716660457 -0.0160374294735201 0.002060260401631982 0.00039468131462616363
-0.012161393438464953 0.004385663532814131 0.002282769726190375 -0.015258349679622663 0.0021091532105152514 4.496954818822165e-05
-0.015990792508981357 0.005834014738279487 0.002545752242336868 -0.01545233434498593 0.0019007946886842669 -4.2799438571496856e-05
-0.020143330207792295 0.0075204368406586635 0.0028697025218373043 -0.01603945079188423 0.0014859494898909209 6.0751076853656355e-05
-0.024377842842244347 0.009279676807135553 0.0031674934504520367 -0.01683570437114076 0.0009372315926039717 0.00039502503773519097
-0.02919379101827729 0.011205009383949914 0.003389489868441716 -0.017874775165582637 0.0004365767924357107 0.0010808005334655576
-0.0345268701229628 0.014665792792180256 0.00352485669618956 -0.01931276869383814 0.00038151258380256757 0.002325354435741048
-0.034066405419961976 0.01316575829623965 0.0037335569081444666 -0.025623903192927937 0.0007992670730414301 0.004531747129319696
-0.030983580891121982 -0.014250209221670569 0.004467219977681461 3.0309448980277934e-05 0.0001756551825011855 0.006802210528785783
-0.03412554205201985 0.013159934119650812 0.003800371978938076 0.025687382246667594 -0.00043445704250353223 0.00452932484549892
-0.03464747053479466 0.014655501279121777 0.003657784014885371 0.01938531797528241 2.2488324063055255e-05 0.002317681466141154
-0.029379199461437532 0.011193100054445192 0.003585619074181741 0.0179642307296682 2.7854058583556085e-05 0.0010609849933611371
-0.024629452984004017 0.00927081848090886 0.0034184385267009764 0.01695331718411771 -0.00040026329311316773 0.00034923682925136354
-0.02045706969810988 0.0075221398309905105 0.003156105321653424 0.016203618512927655 -0.000880331484684853 -3.685202849730311e-05
-0.016349978800298655 0.005861262900883646 0.0028292802268640727 0.015694291267635822 -0.0012553477616835899 -0.00023821029067028595
-0.012504210332703231 0.0044419617405614025 0.0024964440463974102 0.01562780213105821 -0.0014997611933872423 -0.00031697680782680947
-0.00872606610125948 0.0034182027293313956 0.002243256651008197 0.016485587155036962 -0.0016482032665011495 -0.00013017667236367078
-0.004108927510942218 0.0002717335802142154 0.002159098913177853 0.015401611146859489 -0.0013497253373589571 0.0010405352827753326
-0.0014457609848118908 -0.006189126891272474 0.0024132568031163737 0.010284634210458617 -0.0009384927518479102 0.005121899556009574
-0.004052928934092737 -0.0027498844006679903 0.004266452618660645 -0.005592982875788771 0.001670069066411993 0.0026015504663671474
-0.007908328065101515 0.0011635493870685415 0.0036187335905136547 -0.008698906105625884 0.002690225665426825 0.0005745038419489322
-0.015992695647974054 0.005621435638737612 0.0037933470340090134 -0.009458503414707504 0.00379103875160767 7.727751978971882e-05
-0.024290968498532687 0.008736293792822739 0.004344197980311407 -0.008870915337902885 0.003705839063734993 -0.0002043111418507075
-0.032431616106013576 0.011872335408782724 0.005039536889217328 -0.008894416367380906 0.003092656484233291 -0.000351208280977496
-0.040610267902475496 0.015139987458554558 0.005701174246834151 -0.009251393148493573 0.0020984838843089433 -0.00040908468897147285
-0.04890398862144501 0.018525551424466973 0.006208033870200181 -0.009748936680535511 0.0008710112813522391 -0.000355405920476523
-0.05706257342041385 0.022175923255556368 0.0064733410860031764 -0.010175247501998866 -0.00029752030977225907 -0.00011232730024125857
-0.06730297977127486 0.025786950651295354 0.00648872138384665 -0.011312451597221778 -0.0009156462527655071 0.00040696619207181736
-0.07196064577786893 0.03404767602604294 0.00628656616328102 -0.015367697677874523 -0.00025121201277482114 0.0018033959627119071
-0.07036662025861999 -0.011111837965185988 0.007065327280321471 1.893792660546142e-05 0.0002229662136279694 0.004373898317522393
-0.072027372155962 0.03403663668208269 0.0063721741379648 0.015407307613097249 0.0007129978406682072 0.0018054738112275486
-0.06743825657596841 0.025765652853712517 0.006660106866549328 0.011357536114407658 0.0014232281387388315 0.0004097616493586794
-0.057268234950204694 0.02214598697974007 0.0067291545213061755 0.010230444185340597 0.0008747394508572225 -0.00011225700636756361
-0.04917768573246133 0.01848940719571393 0.00654167637156024 0.009820869264280671 -0.00021335101043292647 -0.0003652274354282036
-0.04093759122951857 0.015101301721013132 0.006094304483755237 0.009350780136568091 -0.0013741995952200351 -0.00044306844402124015
-0.032771683623005525 0.011835371483689636 0.005451992769104276 0.009041445502844733 -0.0023587272329231874 -0.0004375658552921637
-0.024562176242525123 0.008693875906992814 0.004701348320565164 0.009085882185019017 -0.003086554741331972 -0.00038595869677213456
-0.01610259535870507 0.005544160792709418 0.003978733927106953 0.009677641120410752 -0.00346495628658865 -0.0001908280912793381
-0.00785863483876615 0.0011072551784205137 0.003495662750669455 0.008747138705393067 -0.0027093659224520167 0.0004326137159927751
-0.003944413837709724 -0.0024950316876586813 0.0037744955511370684 0.005493957000168567 -0.0018503094335169778 0.0030601205444462354
-0.005395367734238136 -0.001445604686892715 0.005163846721648493 -0.002180189241157794 0.0032178618472652664 0.001335276514001479
-0.010945848579345831 0.001635367850912291 0.004729749670207521 -0.0034825903124861544 0.0044341539542061695 6.088016083617015e-05
-0.023379457314981155 0.006693476706267661 0.005370721212435871 -0.0036091552966117427 0.005666865687086009 -0.00016207011929897377
-0.036513984652840864 0.010890462626622086 0.006413716399945575 -0.0034757276009433373 0.005293016111208241 -0.0003976296620796235
-0.048814246983539936 0.014857960092168294 0.007550531309214878 -0.0035244174231684484 0.004182104354753486 -0.0005988082604094899
-0.060953465429194074 0.018921122773341598 0.008547054578770953 -0.003711601349881317 0.002516630532951922 -0.0007966202265857489
-0.07321835842338963 0.023046162845296217 0.009242690981070738 -0.0038978738524600163 0.0004910456061068555 -0.0009736657226492222
-0.08534736101132005 0.027835402827652896 0.00952696336732865 -0.004311802293826371 -0.001509338815489713 -0.0011047026098018973
-0.09621343947024388 0.030348242706322155 0.009326412245431645 -0.004561135726917997 -0.0028066411485272533 -0.0010443475790731555
-0.11110562382159171 0.04586327725928579 0.008594289230491547 -0.01004554264620555 -0.0026804276675525193 -0.0006461575247979552
-0.12110500227280449 -0.009480157696303388 0.00826529058010545 9.849269606251502e-06 0.00027283167112933187 0.0030643511529018113
-0.11118137433971927 0.04584970810045879 0.008699547759683714 0.01006625726528174 0.0032450065248453637 -0.0006416499926964942
-0.09636651150919315 0.030321603369374703 0.009538176835138844 0.004585015384276728 0.0034259745419556362 -0.0010356844129447234
-0.0855787208672398 0.02779668735006685 0.009845909833633704 0.004341432756019817 0.0022122365204586573 -0.0010929038429374493
-0.07352320161090765 0.022996792880250132 0.009664854341584914 0.003936662884127817 0.0003087906828436634 -0.0009611492298306598
-0.061309547953369445 0.018862684413216018 0.009056574163841405 0.003764377846463805 -0.0016371624704522622 -0.000788993241843255
-0.0491593761896859 0.014789207916840687 0.008107855250086837 0.003599422126840404 -0.00329986700794789 -0.0006087773639737338
-0.03673515763667348 0.010800493313211722 0.006939230482843742 0.003579998495095525 -0.004584060199488039 -0.0004470254961418853
-0.023392518017462977 0.006576291044873133 0.005733534737395462 0.003717744322281139 -0.005388979343645498 -0.00024799684314582004
-0.01082274578298749 0.0015774881664482154 0.004770731984745325 0.003523258149640512 -0.004631290117015129 2.0042840630987924e-05
-0.005248068829908447 -0.001280718799955166 0.004825030010173477 0.002150031358926334 -0.0036184887118915045 0.0016099026330643454
0.01497235471115197 -0.03827949146341099 -1.7635225961834533e-18 -0.017333531628724346 -0.009247311121540112 -0.003271168175467641
0.018980038310703953 0.0019159782982292493 -0.0023753641557325606 -0.007748790534696202 -0.009977992316641437 0.0010252867607877063
0.02776416328105414 -0.008500238796544022 -0.0053799492076735695 -0.0027691304844207412 -0.009359065244292855 -0.00025616360063920787
0.03872849390555423 -0.010639141856163168 -0.007653567172160149 -0.003009956837439723 -0.008316386332552553 0.00017520873574244884
0.05133142863243705 -0.014621841771715613 -0.009871175043792922 -0.0029893478703114052 -0.0063473698245769174 1.7980706682469792e-05
0.06405680658973804 -0.01834004718056286 -0.011885192910864576 -0.003065733279387454 -0.0037965418248386675 -1.2231596932248056e-05
0.0765096882018813 -0.022109838037563497 -0.013622565827235101 -0.003136686666175547 -0.0005902973934578962 -5.739857869372237e-05
0.08863119270587842 -0.025849955717835587 -0.014955892880842108 -0.003303663655429873 0.0029511161096889204 -4.548412658975998e-06
0.10039543911040195 -0.029682267078771155 -0.015733993031658115 -0.0034712476049829195 0.005706628307926776 0.0003724860569798681
0.11062551888175857 -0.03360664802543965 -0.015907977015946134 -0.002795027285275576 0.005214305290895641 0.0014308286116306553
0.11507699063069711 -0.03605189320002788 -0.0158173383102095 9.408573112564759e-06 -4.9365004873295383e-05 0.00253923478579583
0.11065318313675616 -0.033613462278498686 -0.015922165307461142 0.002813697668310093 -0.005307482775354152 0.0014373419450787383
0.10045485229394528 -0.029696352198212934 -0.01576530533326349 0.0034892284760437266 -0.005782319361706668 0.00038528243557589895
0.08873210204852724 -0.025872476811478078 -0.015010908488693724 0.0033195256819870773 -0.0029945295644124175 1.328992349909206e-05
0.07667157878163741 -0.02214332319616377 -0.013712904783963885 0.0031477824320829888 0.0006019784353688757 -3.6176676901636604e-05
0.0643155983244253 -0.018390031939175724 -0.01203098045325306 0.003066341384321081 0.00389796936266233 1.1210077142111447e-06
0.05175507342278178 -0.014699281741443915 -0.01010248318285591 0.0029775652286854926 0.006616055428143547 3.674467405726359e-05
0.03942234704936165 -0.010763105102310233 -0.008032136112572042 0.0029522730374898338 0.008779306398339648 6.795400402898382e-05
0.029042348746007408 -0.00874422791891674 -0.00591594708935071 0.0026620945827372294 0.010568135348664949 5.058318090017352e-05
0.02184555633178762 0.0013917092338704034 -0.003356009089244845 0.007683815831564612 0.008929260378896828 -0.001209483350658321
0.019006193656143592 -0.03893945084886341 0.0014332016560356048 0.01024200264108937 0.0075435600566736765 0.006026455573256229
0.008962675717509581 -0.03370018153517667 0.0017853371284973424 -0.011123395032039532 -0.0015573758806979381 0.0003065270068056763
0.009953936376213581 0.0010867300316841075 -0.0012545940377393062 -0.009663603309119334 -0.0033553189027775393 0.0009318027845476235
0.016400672653392147 -0.005827077857610568 -0.003412583767412412 -0.007608398834774943 -0.0057082411345184695 -6.11780172814743e-05
0.025879070215262572 -0.00855735773749824 -0.0052066181354750215 -0.007900075349580394 -0.004786793173223049 8.239781347474338e-05
0.03418070674328311 -0.011589316057377657 -0.006775458119415435 -0.008135709096176797 -0.0035670136685230598 -1.2952317945926749e-05
0.042663979941475826 -0.014577504902676274 -0.008197595294286333 -0.008180490909496362 -0.001943877505742908 -1.5878090821816498e-05
0.0509489319845024 -0.017558618975131817 -0.00940492561342919 -0.008250894405610498 -3.825396792255792e-06 7.807225978386207e-05
0.05893695073777566 -0.02047665672187308 -0.010326558771217935 -0.008471127291714342 0.0020801650954920983 0.000448274187152428
0.06651366402956024 -0.02345523521586505 -0.010875522261367487 -0.008782642492828714 0.0036937621955250416 0.0015217970170906328
0.07294120434402354 -0.02697660158242395 -0.011027104531435407 -0.007206173396545663 0.003404236316109336 0.003864073780027566
0.07570622552624512 -0.03008804620949401 -0.01098336185573844 1.3619722074318042e-05 1.9018814759591893e-05 0.006196844867428203
0.0729683308605496 -0.02698496933857824 -0.011032762767446967 0.007232994315093754 -0.0033575430924378765 0.003865475908888573
0.06657157272169083 -0.02347236775382248 -0.01088962986203115 0.008807667203887419 -0.003620791749905252 0.001523049273892584
0.05903415134980287 -0.020503497376845453 -0.010355408503462516 0.008491185943733461 -0.001961853230126858 0.0004453794298524059
0.051101653515769785 -0.017597106745325452 -0.009460045295811029 0.008259539476413226 0.00018932400211964836 6.302086761530415e-05
0.04290277095270027 -0.014632102415228108 -0.008298036833768821 0.008166287708652353 0.0022279384680908634 -5.963926470722176e-05
0.03455846472858492 -0.011669152124277217 -0.006954544563305702 0.008083250111519544 0.003984028728766836 -0.00010436719151359217
0.026508639987279183 -0.008677041363391858 -0.005506194359760952 0.007768234072205652 0.005434583862573969 -0.00012462419453600725
0.017495889846631852 -0.006064765508337323 -0.003925012308132656 0.0072715586721568614 0.006523802910169364 -0.0002473164416284833
0.01105102493467476 0.0009505906463687713 -0.0018244194837444907 0.008860065807939582 0.0035716681228321998 -0.0006783855336534763
0.009761880182685362 -0.03400905091583682 0.0018220100376351773 0.006602631567578785 0.001068124170590758 0.006357259116198709
0.004968956771626577 -0.024341308689136986 0.0025283920478072174 -0.014681011164581243 0.00024694510368187183 0.006131179321279079
0.004392150060810285 -0.00032102065140913696 0.00013563149547661914 -0.016782400299464973 -0.0007669863052361412 0.0009214551814365203
0.006913865020607962 -0.001507432144269643 -0.0014243587372317677 -0.013878578365057506 -0.002303414803920757 0.00028095979660595037
0.01248031834507111 -0.004190407170045879 -0.002512720731881788 -0.014272529122057393 -0.001956386700893416 -3.8978027098116386e-06
0.017054995750347322 -0.005712250371874319 -0.0033806527268103507 -0.014427211994443103 -0.0012399263450788814 3.0452801014257594e-06
0.021267970997010596 -0.007194573682893027 -0.00412208309442368 -0.01448363097479974 -0.000418365353892992 9.313257476293067e-05
0.025373544165188798 -0.008654826142081936 -0.0047325929457679 -0.01451832282320412 0.0005311751794523692 0.0004098630452072625
0.029181969660120537 -0.00995158396054445 -0.005180623355174106 -0.014676065482953232 0.0016094976180024117 0.0012027299142905957
0.03284261127511782 -0.011227978497625557 -0.005433988979142923 -0.015186077960128441 0.002790946240065209 0.0030650407915919662
0.03679899318494614 -0.014302808986703159 -0.005462191594717015 -0.013134887661494725 0.003101750040462099 0.006937522300565815
0.038910196369326855 -0.019779118496719896 -0.005363268157533643 1.9977617601889296e-05 7.967547147901803e-05 0.011416232728554476
0.03682518801650877 -0.014314208294943478 -0.005459066617367509 0.013174072344822213 -0.0029312847880647985 0.006934276548598509
0.03289782937787289 -0.011251006870605226 -0.005430163046297304 0.01522204638711455 -0.002587394560417102 0.0030557114200729634
0.029272526042906463 -0.00998663653609093 -0.00518169183400852 0.014703392331955091 -0.0013518214609176433 0.0011804155474194615
0.0255113081672403 -0.008702508317124484 -0.004748868738867777 0.014525834104614482 -0.00019984118903200533 0.00036029412430944326
0.021474871676483133 -0.007257021056309911 -0.004171521427303138 0.014451592325570063 0.000840478285550067 -8.423262539537748e-06
0.017372781229009503 -0.00579375642202295 -0.003492293059778993 0.014324134922408792 0.0017705012699301566 -0.0001980796634969571
0.012995128471402644 -0.004305679512493438 -0.002733381579510157 0.014037887001712088 0.0026150915018376955 -0.00033807050564289213
0.00757092952993286 -0.0016442642648995314 -0.0018056758522012142 0.013329671454326456 0.002969949876737748 -0.0003906520158613794
0.00487652181183149 -6.576112379977068e-06 -0.00030925090685404645 0.0156731225210022 0.0009031110196096445 0.0002913019783200382
0.005266197993267133 -0.024336163173446067 0.0022778897622642673 0.013409188202864686 -0.0005518885170016013 0.00859185722142889
0.0016842923506296102 -0.01535092590839021 0.0029388123711862153 -0.01388118296251599 0.0007972835130652987 0.006722220758532129
-7.931143800486438e-05 -0.0008525862539359786 0.001423441869099311 -0.018437785465519475 0.0007613813274552167 0.0016528659355305399
-0.001415573909276353 0.0012971735074696327 0.0005783291941692279 -0.0175312779212407 0.000476342575924663 0.0004170334832002307
-0.0005857736216387115 0.00024625950016360777 0.00025571860849114044 -0.016559709721723128 0.0006658931800302861 0.00010316495297416875
-0.0001495072204273243 -2.383901797866194e-05 0.00014020934636049728 -0.01655735570851313 0.0008944637453598377 8.840337814204128e-05
-0.00011925117187742592 5.779846764466101e-07 0.00010896615925334743 -0.016594139854036544 0.0010151046533110068 0.00026204438278641684
-0.00016624305339602548 -9.071313800567018e-06 0.00012624866935553934 -0.016633081423967036 0.0010982799525119508 0.0006823699002952093
-0.00048605976685488336 0.00020195859066814495 0.0001804802081692395 -0.016518466166295424 0.0013117742423431485 0.00158216939473855
-0.0006918489383688389 0.0007282904902127608 0.00024536121179758314 -0.017047001461816605 0.0022228543062218237 0.00351382630068699
0.0013311484377774064 -0.001975321866569461 0.0003417144358898487 -0.016685084656984622 0.0034359904396752097 0.007734494109033813
0.0032897082821423933 -0.012359280375617432 0.0005229624110693403 2.1723130947593828e-05 0.00013725376106675123 0.014657584180253555
0.0013561883848563607 -0.001989678490555896 0.00035380177619800365 0.016727665231787096 -0.00314811366732816 0.007729900058672162
-0.0006399867381876477 0.000699583555368809 0.00026758608703286626 0.017085969178187742 -0.0018958335861099368 0.0035013879720515533
-0.00040365316785046136 0.00015919989032094496 0.00020822684819152434 0.01654771292032577 -0.0009231870923886199 0.0015539216175843701
-4.67684245556219e-05 -6.497145121950908e-05 0.00015068077482732512 0.01663990087676011 -0.0006328288282752839 0.0006224689557545551
4.947335519470276e-05 -6.727272146271681e-05 0.0001144660948154088 0.016554844716268377 -0.000469670823877659 0.00014030959797939883
9.657360065073484e-05 -0.00010436731110194931 0.00010037845534928194 0.016431802419361343 -0.000282182432726381 -0.0001442505489369495
-0.00023928693741499118 0.00014952428929306024 0.00012912817338479833 0.016278051703940637 -2.6123511548702985e-05 -0.0003179481477612644
-0.0010627337569883819 0.0012959766795900827 0.00032741973725283475 0.016966287664914717 2.2726515189698783e-05 -0.0002628722755966878
0.00014702741659844507 -0.0005179506569736583 0.001088871705538448 0.017845579077835225 -0.0007196481810264585 0.001242768626046932
0.0018294709477556792 -0.015395173075630094 0.0026553948045812763 0.013469412503144366 -0.0010435720154295663 0.008193142195075675
-0.001295776796936248 -0.007968028550386677 0.0033161913626498438 -0.01050999787951437 0.0013449839081873377 0.005813924692305012
-0.004169046553715561 -0.0003201545959862524 0.0026035102128987323 -0.01561936471344582 0.0021715612076945072 0.0016854999882437345
-0.00919448715395453 0.0034763071356497762 0.0025374345093646714 -0.01614655892691502 0.0030689108451260405 0.00043301993478783306
-0.013292555491085335 0.004458901269221202 0.003006059087760622 -0.014678318793143998 0.0032796070569165873 5.3057008108940904e-05
-0.01733808251909521 0.005716562203517569 0.003656088493535298 -0.014374553757701827 0.0030525563574717463 -1.9152722330703622e-05
-0.021547332166835815 0.007195843006754631 0.004336902514749641 -0.014449934130541716 0.0024675775854635074 9.54167968014963e-05
-0.025674106685177462 0.008679972376089558 0.004983961897973057 -0.014484457483214586 0.0017002098475783966 0.0004455207710461105
-0.029941384971229175 0.010134622279022018 0.005545687378706976 -0.01435504934779511 0.0009477444133971651 0.001087391039911894
-0.03426885997726874 0.012544485537692166 0.005924608630763455 -0.014114220494107974 0.0011835699137322149 0.002457519108990674
-0.03433411515267355 0.011910328126786301 0.006031431519487778 -0.017844166046904714 0.003656905429531333 0.005653171299342645
-0.03231608650317036 -0.0073964526547605144 0.006208824865587521 2.0455303228387122e-05 0.00019606202588162407 0.015330532417867247
-0.034310184622847836 0.011892916647256623 0.006052594662032234 0.01788442991169077 -0.0032489595267427645 0.005650612489000367
-0.03422029291035375 0.012509920473668461 0.005965508332157672 0.01415164708703005 -0.0007298085579780363 0.0024495683826573343
-0.02986710223674503 0.010083879622781157 0.005602758210099744 0.014384485425115457 -0.0004239874379356023 0.0010671342582771802
-0.0255731605838174 0.008615597658072445 0.005049993832927281 0.014494807257896312 -0.0010948718555627525 0.0003989648603672966
-0.02141760286834249 0.007122621195484385 0.004398573044150394 0.014419229332905426 -0.0017923593164198887 -4.099667424261097e-06
-0.017174392000202796 0.005639093176793417 0.0036902402634637933 0.014263322141233022 -0.002354500564839428 -0.00022039436398638916
-0.013105169587892793 0.004396566113136184 0.002976989932822744 0.014421852324832386 -0.0026573699994055094 -0.0003232592438240362
-0.00904231944356258 0.0035227206208080426 0.0024086342044226127 0.01574991430047442 -0.0026982270340487028 -0.00011818004748649954
-0.004076678995453714 -8.565102042549239e-05 0.002380171057591206 0.015365022698220399 -0.002185204261807688 0.0014033371917490658
-0.001222992943500656 -0.00800802730248506 0.0030713496432029992 0.010415028419207148 -0.0015479593265286516 0.00678940995301221
-0.003813037747036689 -0.0031639163319212215 0.003847146076018454 -0.005496208854499835 0.0024103566719898425 0.0037740196931054246
-0.007952099474065248 0.0007868709091462165 0.0037266346895364353 -0.008732506580085968 0.004017893996958308 0.001147105677651591
-0.016765860172595317 0.005563812799955492 0.004408161917946983 -0.009314599459947084 0.005933331862510841 0.00039539085311947407
-0.025850259752598477 0.00868539193646925 0.005648387264601057 -0.008350980668363537 0.006157723512022066 6.25377605083588e-05
-0.034528508092610044 0.011634746729101952 0.007036650702320046 -0.00807823137691756 0.005433425211339154 -2.889842816067442e-05
-0.04298792761052255 0.014616215126457232 0.00840045168431141 -0.008142773141825875 0.004066381190249709 -1.625734382840767e-05
-0.05128715208464063 0.017587173908253956 0.009653901330352785 -0.008218421541500886 0.0022966226122442283 0.00010231499803814198
-0.05906361156216225 0.020577679807734388 0.0107012890388413 -0.008065851611698744 0.0004936506697500123 0.0004142568708424519
-0.06759315603468674 0.02322972671915654 0.011393682731928244 -0.008320408384586211 -0.0011056481323964468 0.000649738383511945
-0.07110082332023862 0.02946964267728881 0.01128777650842487 -0.011270176057061987 0.0023076890840465765 0.0021127418022938646
-0.06974127224518008 -0.003476455337815389 0.0110031744069017 1.418612047523408e-05 0.0002604287623505073 0.011285211342030204
-0.07107771446767203 0.029448951898899026 0.011318051494135926 0.011298295398458648 -0.0017679187113495178 0.0021152325776096505
-0.06754717394100482 0.023188803028176653 0.011453311423386348 0.008347229267829577 0.00169989038425395 0.0006531739303481848
-0.05899599850481974 0.02051805472687535 0.010787695703828584 0.008088544455923432 0.00018262865907618593 0.0004147450867524643
-0.05120169275249992 0.017512799667237053 0.009761308102653283 0.0082304911732085 -0.0015283727068162345 9.18023623394549e-05
-0.04289319158002579 0.014534968062128874 0.008517420507822998 0.008131028569233175 -0.00323031701879927 -5.397529030892281e-05
-0.034441802230875854 0.011560810142410545 0.0071427590943218865 0.008016621913153476 -0.00461122512320717 -0.00012614027257207478
-0.025799921247074396 0.008649498680973842 0.005711339680215884 0.008206009034147177 -0.005507763988374976 -0.00014239682070947766
-0.01676883350718021 0.005620260049721297 0.004388464053942868 0.009119318187067106 -0.005652198967426173 9.450978672496848e-05
-0.007963150035590321 0.0009278365600130183 0.0036067334333422744 0.008646209402704785 -0.004107094346004626 0.000999922307900652
-0.0038054552399548755 -0.0031597876009962066 0.0036631227803875454 0.005476299253017603 -0.0026403319126194536 0.004332288743619917
-0.005122960473636374 -0.001531881608517919 0.004668028261097472 -0.002105145069443867 0.004608176028681734 0.002445923575290807
-0.010974551763474472 0.001408401570350201 0.004849369304609857 -0.003417299225955281 0.0069208510378031595 0.0007974687866178342
-0.024328471095671364 0.006630305713412884 0.006131328619237445 -0.0033560580923019155 0.00963156081582632 0.0004291873132308273
-0.03860154317856155 0.01085074105608175 0.008049718003941846 -0.0030430967055908014 0.009711065424911706 0.0001777927885203865
-0.05175560952524971 0.014656401415920395 0.010092733361625804 -0.0029753207522982576 0.008349436084288774 8.846328097045499e-05
-0.06442453675648857 0.018416084949754476 0.012067353418669978 -0.0030445746389189997 0.006011186339285 2.868739452138643e-05
-0.07687767909236767 0.022098512808191438 0.013864538980179798 -0.003083357637661524 0.003024273004185735 -1.632437888475166e-05
-0.08873284496856217 0.026089842433939348 0.01535101531701954 -0.003223152138377955 -0.0002792142293384067 -8.215164988386074e-06
-0.09851315118402382 0.028054816985646474 0.016326832808091874 -0.0033182757787535966 -0.0036802160571466967 -6.005557125712444e-05
-0.10879513926862508 0.03942704820186416 0.015988393023942227 -0.008043748051423206 -0.005490301020574186 -0.0013007917411286185
-0.11497875471606427 -0.0014445283428649255 0.01335017082170292 6.809998921461372e-06 0.0003350643666811839 0.011999632997833241
-0.1087725123689377 0.03940465371340217 0.01602769561576705 0.00805738548873761 0.006183551927333663 -0.0012961196038634693
-0.09846876602680114 0.028010562651532442 0.01640493057692262 0.0033317527053700305 0.00444010706884689 -5.151393513926983e-05
-0.08866947115890375 0.026025505118799308 0.015466079060573713 0.0032355225575462017 0.001139570820307521 2.1687478063742074e-06
-0.07680224266345781 0.022018587455652047 0.01401168706411483 0.0030921273233916738 -0.002051207715061834 -8.266761715764186e-06
-0.0643533158283282 0.01833001751170291 0.012235938796768795 0.0030444510448535004 -0.004956213087497853 2.5903400313768027e-05
-0.05172432140648334 0.014583189645965758 0.010262794898194018 0.002955115527569341 -0.007322679442889646 5.765283473117914e-05
-0.03866382380703589 0.010825295114774841 0.008188463496571699 0.00298785041958447 -0.00893831411243286 9.27861793564171e-05
-0.024490847834679884 0.006690257649047845 0.006194902976028941 0.0032754174339260996 -0.009401529388586944 0.00029969384508393254
-0.011118110640050088 0.00151369813055679 0.004810966795019408 0.0033768674389231448 -0.007211660097434911 0.0007399908172644991
-0.005209051914700526 -0.0015001913842005172 0.004555268077132837 0.002072152286064015 -0.005086805028296787 0.002783678096070206
0.016006309582890503 -0.059484407515651275 6.396792817664476e-18 -0.033698754608355266 -0.013892869987420401 0.017506661346917307
0.01927213938506072 0.006183521406286871 -0.0022298682556225508 -0.014969644240002428 -0.014460831313010465 0.0005953520557573249
0.0268548451817412 -0.00838687177927911 -0.0058811297249474455 -0.007057096021352954 -0.014127228124255757 0.004910891922237294
0.03776551005130637 -0.009852337441957258 -0.008268348753212019 -0.007277429269853633 -0.012570149160536172 0.005328504395736076
0.05126416351190367 -0.014171391416009219 -0.010936071273126034 -0.00685877818056091 -0.011233160977893333 0.007318338025257981
0.06495384291728903 -0.01795930845038102 -0.013503414999493755 -0.006223107089743041 -0.008823002044486647 0.009024437776513574
0.07830649054256503 -0.021783985807344308 -0.015918497825065686 -0.005198226540042249 -0.005503008387600677 0.010777531926195157
0.0908622065934901 -0.025453338450681654 -0.01803185331056453 -0.003789216286298283 -0.0013412885559135077 0.012500171733510396
0.10139727691570555 -0.02863977807494484 -0.0196274725996989 -0.0019721823323074995 0.002715493504020715 0.014275980539718482
0.10810350001311729 -0.030493114517382625 -0.020507461333635013 -0.0003664421927204397 0.003866117988712194 0.016184020918564232
0.11028212953967509 -0.03059837491035394 -0.02074975611778468 -4.48827448019393e-05 -9.293454039649657e-05 0.01748546318769054
0.10818569662173065 -0.0305193016713448 -0.020526825526166116 0.0002743463530630642 -0.00405035472602866 0.01618853557308278
0.10157747585727725 -0.02869704504248763 -0.01966925318097755 0.001873098336634107 -0.0028943379431381855 0.014284929570613331
0.09117411668116272 -0.025552005323575856 -0.01810283222368075 0.003678321609824323 0.001173660750255902 0.012513784684710049
0.07880622396501342 -0.021940478983779394 -0.016030159996172702 0.005071080062084282 0.005355208167242938 0.010793968820881295
0.06572402837315204 -0.018198646602374476 -0.013676719949421857 0.006073446966017367 0.008714008751561243 0.009050272176948688
0.05242157338757106 -0.014522335193927564 -0.011196592088669362 0.006687244274520325 0.011163445822487418 0.00732081190224225
0.03946698250498814 -0.0103564647702716 -0.008702750422065496 0.007034581666642829 0.012650562791055003 0.005464912063603975
0.029603795465706417 -0.00911038977104713 -0.006401730109273538 0.006763045756124232 0.013906024482294823 0.004457939787792265
0.02518874179674382 0.005178348669861124 -0.003821899419864076 0.01553211204348242 0.018594552311366537 0.003275080332977849
0.02435927155887397 -0.06277431065791395 0.005010350433110106 0.020256002356117422 0.02435610202551553 0.006790084875938025
0.009831818345939566 -0.05164010990431419 0.004155565904476987 -0.021629825294508312 -0.011478507310741251 0.010063545617572375
0.008879034226298571 0.004129372196221721 -0.0014583143022229843 -0.01792218961905802 -0.009611302003597487 0.003018505442596222
0.014176356586391563 -0.005144303664270008 -0.003803353016828208 -0.014911706228865642 -0.008720510851239188 0.0052914266908542975
0.024621890681576202 -0.007902099428464503 -0.005880398763482393 -0.01510291647887601 -0.007710422302057584 0.006861794112206844
0.03343297095563533 -0.011149793857781089 -0.007783488390861159 -0.014763191516670791 -0.006691093737902266 0.009103600709744598
0.04255537113344585 -0.014242744753913327 -0.009668823624775986 -0.013560214787215455 -0.005272684466713599 0.011339088726906383
0.051419537724159164 -0.017293480985749617 -0.01141422564270925 -0.011782103084149002 -0.003299232775155672 0.013587406701498713
0.05975391082952667 -0.020271552296135004 -0.012935304539625396 -0.009188488066873562 -0.0008634546228876146 0.01590786154144398
0.06678064145301336 -0.022851033389291325 -0.014091867786196626 -0.0054276115889345744 0.001535522138282622 0.018549256078156297
0.07130798799795753 -0.02397596287920549 -0.014786472308326554 -0.0014285404036514144 0.0022899912010776137 0.02186274720614323
0.07280627701631615 -0.02310325019167693 -0.015048070645613528 -8.002434525381137e-05 -2.2261771867096317e-05 0.024432715193174873
0.07139440736268295 -0.024003209289077728 -0.014802343387293141 0.0012633954488142367 -0.002330082131623396 0.02186322095522819
0.06696794398512076 -0.02291013624017448 -0.014126723002112762 0.00524692190163165 -0.0015621700721337015 0.018549598433592298
0.060072252543491605 -0.020372027027998164 -0.012995876454948839 0.008980955702518566 0.0008593938275959904 0.01590678818035651
0.051917145244961514 -0.01745030797271488 -0.01151252983369327 0.011535139902560458 0.003327984677547916 0.013582262927446851
0.04330220608327352 -0.014478116213019584 -0.009823014712013415 0.013259770754350765 0.005341014397573261 0.011327833041539203
0.03452098792851708 -0.011491068333301711 -0.008028957966286691 0.01439460257867043 0.006816290888941274 0.009074304685355791
0.026193875097224803 -0.008375912050887566 -0.006245261506925402 0.014605330915097147 0.007838035106588988 0.006855820136877773
0.01643230679435376 -0.005799640672493767 -0.004447155668126121 0.014143721805415116 0.009081301539264076 0.005085392263339275
0.010915816267787485 0.0038683757165160204 -0.002047280285075733 0.016904378059560823 0.010991065198693133 0.004329591346252197
0.01125335072365339 -0.054174012486106204 0.005163076293646464 0.013535310602405825 0.013591052811130523 0.004087464995980732
0.005069695786344754 -0.035931677201488946 0.004543940997015413 -0.0253947607143421 -0.006989556337143432 0.003333038553186064
0.002977138007605336 0.0008616900280975686 0.00021775093974373458 -0.029111518001097337 -0.00547005854013766 0.004691147682839503
0.004405153979693196 -0.00016063666135471437 -0.001642134726477089 -0.02539206425354659 -0.00431058373476411 0.006041288270857984
0.010769248494390616 -0.0035639197687036776 -0.0028499088903407026 -0.025824746497649972 -0.0034957201804593284 0.008751596197118088
0.01596395690718319 -0.005285401835298324 -0.0038967905833542193 -0.024947663084586832 -0.0028590025472039157 0.011549925181311939
0.020653916328204184 -0.006900961525825999 -0.004888816532566852 -0.023027889944635282 -0.0021636188571313845 0.014489449100013803
0.025274321908997366 -0.008465414083994226 -0.005806223403853244 -0.020173278626062923 -0.0012305382501004145 0.017455797065937653
0.02973609189249907 -0.010106164844382617 -0.006598760291176281 -0.01602477895884953 1.1966908127267111e-05 0.020584788076654696
0.03354605787418391 -0.011575026214691388 -0.007221032397814151 -0.009623867749288173 0.0015913828514006565 0.024269282619546056
0.03550238846863988 -0.011057987050707584 -0.007679988777965285 -0.002077119891918086 0.0024324688872062713 0.02929982445850307
0.035850006122193155 -0.007324190302505204 -0.007977732725127654 -0.00012787984023928333 3.4215003116442336e-05 0.03403626334417205
0.03559005814638047 -0.011086926534342022 -0.007691946153743233 0.00181287586515018 -0.002357283011350329 0.029297184518121917
0.03373427772012438 -0.011636977683366669 -0.007247775993454396 0.009333669921109762 -0.001496267532432893 0.024263212050279842
0.030050863384020524 -0.010209187718198124 -0.006646447872030884 0.015689489885276357 0.00011510411269937156 0.020573380069619125
0.025755508608930847 -0.008621581956284315 -0.005885232639523441 0.019770756376379553 0.001398428901887892 0.01743596370228082
0.02135599225821562 -0.007127878064916774 -0.0050160775640475655 0.022532055997075234 0.002375720088558736 0.014454286905356337
0.016954728908312674 -0.005603441300401974 -0.004097235675768044 0.02432597977441836 0.0031044908283333096 0.011498389113847624
0.012116886922851079 -0.003988065078258953 -0.0031664698748684436 0.024994200934692085 0.0037487573127395497 0.008648992663982006
0.005806230171121406 -0.000539469396991712 -0.0021276220038523646 0.024185145051179177 0.0046615647545236606 0.006063968641377592
0.003913165620885965 0.0013665045895267563 -0.00020668767009297587 0.027502648850102836 0.0059899040132606095 0.004763182612119732
0.005681318859560463 -0.037478546248004695 0.004756959064346632 0.024003799558587866 0.007669699328653018 0.0031855468305190724
0.0013623760070267416 -0.021546182961830106 0.004058072198196587 -0.023483756983301293 -0.003153057590540896 0.0011753763548945234
-0.0015535429796177033 -0.0004567848752644276 0.0015783200217562286 -0.030786239478276314 -0.0017864418614813489 0.004073986257794198
-0.0039014136401633315 0.002724200688854544 0.0005844803955693256 -0.03090976728261063 -0.00028178308803588953 0.006246373816972574
-0.0025508040147653767 0.001049262603783692 0.00033316653447397536 -0.029508610395788476 0.00046838027197349826 0.009202611936536851
-0.001479365644848064 0.00044566338751460776 0.00024057753907421385 -0.028295494926535585 0.0006902649510949015 0.012259315636365535
-0.0009982805974373117 0.0003132565185934974 0.00018643549249035025 -0.026102482980023708 0.0007507738549817015 0.015375649705624755
-0.0005522856707791532 0.00018537077283534026 0.00015019307353361219 -0.022915342472452718 0.000805672743996893 0.01856095515589019
0.0001851809416245824 -0.0001309667169764912 0.00012653476086424908 -0.01843464231181428 0.0010151930177917496 0.021878825766187503
0.001011674057992123 -0.0007434762032562978 6.847754357366292e-05 -0.01110376568960789 0.0019653206215770854 0.025684259209368173
0.00023218754376714895 0.001351910561599413 -0.000167190570715978 -0.000687888082652581 0.003194836831474662 0.031145186778140578
-0.00086890605936087 0.01042266718512789 -0.0006142509032374783 -0.00014357970047685015 8.496911258508248e-05 0.038182491160609656
0.00031983859473339667 0.0013218307806749318 -0.0001750101232116894 0.0003909427810321193 -0.003015969205865579 0.03114158317285814
0.0011981196012449422 -0.0008072285391305962 5.0423188930595576e-05 0.010776887862030737 -0.0017604086105985335 0.02567615177752989
0.000491983087188639 -0.0002351660214201891 9.309874563566024e-05 0.018055810380587282 -0.0007698616197961589 0.02186416237509237
-9.461524349351034e-05 3.1332962419982485e-05 9.281694172518044e-05 0.022458693138844976 -0.0005118096697992227 0.01853572109473853
-0.00035299254191911017 9.703740090144115e-05 9.2140991590521e-05 0.025535602246574408 -0.0004129001096816044 0.015333685856140184
-0.0006082669223371641 0.00015312546586596855 8.97989952309443e-05 0.02757369666651463 -0.00033517291245879495 0.01218986934679736
-0.001508938762901368 0.0006945243728390783 9.5632319201357e-05 0.028565013553590094 -0.00013791030494407028 0.009106343367908675
-0.003019698054081671 0.0026235235470009302 0.0002464219054772828 0.029719135001935525 0.0005547884028603403 0.006193448077617992
-0.001048309243172996 -2.620087533799164e-05 0.0012700725753431235 0.030085017558712675 0.002015542281004413 0.004188102787881849
0.0016997831996264545 -0.02262203269437349 0.004077514567003542 0.02325950740461661 0.0034378298617834097 0.0018422374584347488
-0.0019115672081112928 -0.010323267849610235 0.003547901992986541 -0.017847780579477324 4.6288746797668343e-05 0.000928076331870634
-0.005667440838584568 9.327323271219852e-06 0.0026577421271014477 -0.025889688161320618 0.0016736776485173073 0.0031610701143757218
-0.011586922643255783 0.004837155521151765 0.0027369986611907936 -0.028441552846331247 0.0037969527143425393 0.005774747480162984
-0.015388601551130515 0.005339477818505567 0.0034928290258423346 -0.026507575252745007 0.004503920547365245 0.008669790298618784
-0.018897453028682537 0.006248115859124883 0.004377306134889307 -0.02497105012399184 0.004288411226894211 0.011576857531194685
-0.02266928886970341 0.0075379354194596475 0.005260034955402277 -0.023012987514914072 0.0036808927603175843 0.014491971089888
-0.026396688155667206 0.008799385293245619 0.006104781919774326 -0.02020734298330415 0.002896909972233505 0.017487234484115814
-0.029507449270630755 0.01000154043991651 0.0068596858759396 -0.016215789097844623 0.001965122264416681 0.02049522858530974
-0.03142184732786353 0.010109499374512259 0.0073798050365561415 -0.010307009333700374 0.0017492012675182959 0.023705506936796135
-0.034920362960145127 0.01232811048807334 0.007309061912086719 0.0026495107624487668 0.003575475262941727 0.028149804507327434
-0.037767504218904464 0.03115135036155415 0.0064069601027231 -0.00012923645553947162 0.00013684886846822563 0.037328367149193784
-0.034832355874504756 0.012296832128988017 0.007305369562331694 -0.0029169327192191926 -0.0032904371545938553 0.02814740917588214
-0.031236463034719802 0.01004381660064578 0.0073704643034574234 0.010012269307773092 -0.0014313322225910346 0.023699968891068245
-0.02920762626295064 0.00989587714901187 0.0068405923417909995 0.01587382270581743 -0.0015972101590693152 0.020484774400005967
-0.0259619429580597 0.008647147437302041 0.006069387857290734 0.019794897357537422 -0.002471438928648668 0.017468477789688033
-0.02208239199728238 0.007333189963482983 0.005199061321530241 0.022499082547205472 -0.003209910661631471 0.014458993274530542
-0.018165689962696102 0.005986994466313949 0.004278046388066256 0.024312772144855686 -0.0038164585945878703 0.011521765147151341
-0.014619248732255558 0.005077065167779115 0.003339276128645894 0.02566616526658662 -0.0041143907646197094 0.008595084816924012
-0.011023740467212436 0.00481338264080763 0.0025257147742402835 0.02762606107517048 -0.00357911495988303 0.0057244914591144435
-0.005382939722245386 0.00025935022001097373 0.00245808388045004 0.02569654201019451 -0.0015848358755812932 0.0033012190249136577
-0.0017273413566318199 -0.010942247937178792 0.003515786013361873 0.01797537162828286 5.012301344608876e-05 0.001551733344208629
-0.004493159451943317 -0.003384080062699949 0.0034048911927609905 -0.009881813425093925 0.0028578104588807326 0.0013600178057458418
-0.009340074395998378 0.0012642398335783794 0.0035974824145276253 -0.014916250002767082 0.005212183499954483 0.002269242341250143
-0.018996937282632454 0.006719941197158798 0.004719006894063165 -0.017086697746470765 0.008312054083632253 0.004537282140673297
-0.02807337765340713 0.009521478469040733 0.006456091533698477 -0.015889003794488703 0.008977822612939288 0.006846399585626724
-0.036451370620870144 0.012166693049903515 0.008265705928729345 -0.014790953016814726 0.008239783673023828 0.00909600385114125
-0.04460703795547858 0.014911877808690134 0.010031122762629033 -0.013560372736085438 0.006860278295604774 0.011336875717057052
-0.05249383750382646 0.01762705577844983 0.011707058273254517 -0.01181757965766191 0.00506024038093599 0.013603181106999766
-0.059988563852415126 0.02013229002387194 0.013215583379773972 -0.009468700717254124 0.00299642761679148 0.015903554299945995
-0.0648081010558494 0.022588590945945213 0.014326814183118916 -0.005494096666509231 3.120838116553871e-05 0.017823609470771107
-0.07029686968379716 0.020643744106946048 0.01434249283162518 0.0027927751272744075 0.0013960911129494214 0.020366224986624326
-0.07459607091634458 0.05499418511265825 0.012251703615141772 -8.176663742052743e-05 0.00019680924936847568 0.027066395475227188
-0.0702063254117777 0.02061043984291928 0.014342689650798178 -0.002961925928931476 -0.0009880640906193318 0.02036698151298596
-0.06461936413228786 0.022519365609404113 0.014325639127584581 0.00530786991966074 0.0004183980835542057 0.017824727556721667
-0.05968896352148055 0.02002284516866838 0.013209794779570024 0.009253232321893486 -0.002483961159524764 0.015904041038417194
-0.052072480949114694 0.01747384869014456 0.01169166409660397 0.011558979124373404 -0.004476882214536079 0.013600956742771219
-0.0440698092600535 0.014716040119659797 0.009999728223313308 0.013240813951460298 -0.006224595776804464 0.011328108170065307
-0.03585154172136072 0.011945149462785581 0.008211704449961561 0.014384723043847482 -0.00761891389703766 0.00907593745826851
-0.027543678145832435 0.009343869836624698 0.00637389435703331 0.015397035427380228 -0.00850652964960128 0.006815600705968703
-0.01869243493199934 0.0067258129432792545 0.004607454678935664 0.016689989300478894 -0.00813239525349779 0.004524107208194599
-0.009237345709066902 0.0013993060187142347 0.003487623559853254 0.014912417340080796 -0.005247021408169335 0.002368675309086207
-0.0044466534981003345 -0.0036277097468185534 0.0033670829607482253 0.010012082994745321 -0.0029265689952237507 0.001764371712712809
-0.005091414516273407 -0.001146448239838876 0.003886818532355069 -0.004872388685869682 0.005721286325664791 0.0016414380665107425
-0.011557550553252256 0.00194809820004697 0.0044978738590815024 -0.006987056926632449 0.009255546708648133 0.0018978996340615804
-0.026129599242821534 0.007633510503171662 0.006337145588981821 -0.007855454923684176 0.013733568869059482 0.0037680423341616056
-0.04113547475795797 0.011638504631073342 0.008844745773617473 -0.007552993604667979 0.014338418825612294 0.005607882458349343
-0.054405790109308017 0.015171088527630184 0.011381078366334698 -0.007023357943703076 0.012924419395411712 0.007352421748480793
-0.06704135122860672 0.018650139809854353 0.013851362638861641 -0.006301136270634722 0.01055138942674665 0.009078609896290547
-0.07934229013103558 0.02215393451991264 0.016207170196892252 -0.005354164823259575 0.007449116835736357 0.010829437830352475
-0.09101390538649659 0.025122129281134775 0.0183202040448512 -0.003924630881960578 0.003765543259425898 0.012430674891312277
-0.102100933958538 0.02955899446209831 0.020007112055053372 -0.0019205489199297255 -0.0015249089736783829 0.014326797649144529
-0.10724537235713533 0.0239922512213311 0.020101371805768816 0.00533755590165513 -0.011072582054979695 0.01286645478740284
-0.10691471800788219 0.06757125900447455 0.015158640075757908 -5.283417226289826e-05 0.0002736617779347393 0.026534315300914376
-0.1071478806231905 0.023957613151085803 0.020105036970552784 -0.005446703658451357 0.011638591224860152 0.012867998792207964
-0.10189994112194573 0.02948736886812752 0.020013062374132858 0.0018010458543009106 0.0021448313276122375 0.014329445440730415
-0.09070082743205593 0.025009930700448463 0.01832555719664401 0.003788119253370517 -0.003064164540622381 0.012433425429000004
-0.0789151272958422 0.021999095381443307 0.01620742760251853 0.0051946613379616835 -0.0066558923763921 0.010830477120258775
-0.06652785705998436 0.018457945420325396 0.013840876095713129 0.006114228362248627 -0.009690700581383709 0.009075248768244086
-0.053908017989974674 0.014969642052803319 0.01135490590485412 0.006807031294957218 -0.01208905409958485 0.007342836115836039
-0.04084406890767988 0.011503428908383722 0.00880043296199812 0.007322985638213026 -0.013728253676745024 0.005595917846682553
-0.02615736983286102 0.007661954918988136 0.006273470849352976 0.007689988447907303 -0.013584451232687941 0.0037757549974349355
-0.011716959567735066 0.0020529034308479958 0.004436032099447241 0.006996999126940468 -0.009477459128716876 0.001966215502545182
-0.0052235058514980125 -0.0012316108263156487 0.0038770336625491373 0.004911895117076509 -0.0060337284046770925 0.0019112007654125598
SCALARS Stress_vm float 1
LOOKUP_TABLE default
12672.774204420284
5812.5279490541525
6286.34316952643
8700.59327288748
11608.292704131205
14542.466525470041
17432.850985889003
20178.485588701053
22508.274980723803
23956.704212281395
24336.227834990095
23975.233739257492
22547.694784894455
20245.447999958564
17539.124042508498
14705.780095826743
11851.320735327165
9056.97307012204
6812.000852338867
6843.454492475536
13694.01565956153
10758.661003791414
3384.3168106125886
4477.128004927932
6413.055252417458
8357.847826000232
10327.215096935839
12284.780816819486
14169.935866229542
15799.828625874581
16808.069840080112
16996.785557421223
16825.009442977327
15835.87533895988
14230.722345624396
12379.319702771927
10467.628448753943
8557.890096616364
6682.302834108932
4786.620631636235
3577.8205889157957
11191.147419196357
7931.582817248293
4188.003729101427
4127.742988490729
4866.237798125129
5653.18164990584
6497.163608808981
7399.275212872427
8361.897837640252
9275.296047812166
9743.65306351734
9575.077873721622
9755.052739704433
9298.01038076958
8398.825116815588
7454.239701013104
6572.372407210746
5743.331063049382
4936.672433274142
4095.2838566332193
3923.409832916282
8139.181584037307
5413.150568205318
4603.162472725529
4810.611347979526
4542.843271120676
4421.033316149304
4320.045501791039
4380.8210937911945
4749.1069087541855
5530.452323206697
6148.229562862075
5819.299252047428
6139.921745338789
5518.235388964383
4723.534437388235
4331.0524309024595
4235.570087544081
4293.919144889941
4360.535352532936
4579.7331825162655
4461.600012070855
5546.3702591495085
3366.142360847143
4146.138887229783
5241.762476875073
5587.658014538014
6135.383086421526
6840.460457162726
7592.442681304682
8269.64186513369
8919.29739147097
10039.256801928266
11407.174174103548
10017.981473503209
8875.61112567675
8196.95383751716
7486.44535206472
6694.8169213291185
5945.421723638795
5367.206350404951
5064.9175722162745
4090.3555936105126
3436.8503144011847
2048.4369957604526
3269.090244435179
5477.643273727123
7268.684908324341
8996.0602977334
10765.03805981465
12524.27511013444
14190.225919752049
15475.811790987013
16713.983630481416
19672.448773956807
16694.3669568339
15434.410212517045
14121.31102487089
12424.912900398602
10634.017197714847
8842.32815924634
7125.109447238898
5398.2073650981865
3256.1548543798717
2069.6184633408243
1768.2885467786716
3150.0433428727374
6423.2417110798315
9541.976111185653
12316.0957546819
15016.257921215125
17680.867245548594
20206.562327620046
22643.57411281157
23992.984264955547
26191.194987582545
23979.467482952543
22602.43297072279
20137.877071384675
17582.944423039196
14892.691471702974
12187.220838017121
9455.050534195992
6423.8861244282425
3191.2919088825006
1810.3033149156072
8262.14082484726
4880.045449018096
6241.302119937549
8692.193428959845
11435.329621537
14198.321760687248
16911.68107670828
19549.449933005537
22107.85122149194
24393.549645260726
25513.56320224496
24400.58703161693
22122.44119109876
19573.567614252046
16949.93668593734
14259.659820987412
11536.919198563633
8861.406899803198
6567.59693730244
5287.092167993329
8662.398723631
6998.821387721022
2657.3082350728214
4223.371700931824
6179.810657816192
8086.9344828498
9995.718844185074
11872.80007316975
13681.55280189138
15427.019288307562
17082.447622172367
18072.094983590105
17088.271590901437
15439.51099915385
13702.655829741603
11906.302572500306
10048.682427183881
8171.606509719955
6319.706052953002
4431.153792941447
2810.4163435274513
7127.906585185633
5344.677157934196
2468.259160322335
2873.0224609625384
3830.9446671852747
4798.056233595238
5759.336496420179
6701.97185824185
7575.067312802686
8476.024134484594
9780.901239580095
11115.69137076521
9785.086829355916
8485.7893583758
7591.53064118393
6726.639709521623
5795.254839940952
4850.766281004712
3901.8864577753106
2929.0851845805664
2335.6609521022924
5351.251934325905
3774.515805004144
2743.1542589845994
2655.9228062210477
2468.096775411936
2530.3755544216015
2714.50470936395
2999.531363329094
3311.2697890841146
3625.61085962469
4648.021049930933
7295.172278183347
4645.101413760721
3620.81114727602
3308.310389561825
2995.566767616733
2704.5058459841134
2504.590738789505
2412.6421958618453
2543.6829715886897
2617.2142512454884
3790.9733907571385
2454.9284794237087
2629.314728951789
3462.962992867453
4064.7372254482902
4884.8752093496805
5823.717860981635
6781.4061598971
7778.365808170532
8675.055324752295
8736.62490859946
9483.737677567933
8729.608651006385
8666.605398755175
7766.102452151843
6761.753340247279
5793.218403032788
4837.642543543544
3995.8986195769276
3386.046563554494
2565.3659741530946
2477.406195183647
1699.8763440153841
2453.6659552912047
4431.249361149852
6323.070375248763
8192.714055876504
10081.265868003718
11956.194757586021
13767.526482398971
15551.754128762728
16476.059103391814
15542.627943336463
16470.61731383615
15545.342555754885
13756.135799687632
11938.875720547772
10057.327466229293
8163.230476654713
6295.00555239842
4418.041261808429
2442.217234210341
1709.137001481489
1740.182811957075
2824.589377190744
5748.440944164734
8759.587752038291
11560.705250945075
14297.70934260222
17002.117599949936
19612.698299099065
21747.509439816095
23878.09495956933
23876.906983047
23878.20714742051
21744.57398075492
19604.661884750007
16989.006374603607
14280.36391902023
11544.710037848115
8759.100195657466
5779.2051826791285
2865.0244093766064
1775.2400639144566
7672.553650570611
4844.32693339014
6016.371772723234
8364.298826823082
10973.07647864005
13560.345183553742
16133.33164075662
18806.729513563594
21815.964436507133
25010.954150979847
26742.013805474933
25004.647655600846
21802.24962800262
18783.62731343346
16097.653855789786
13507.26399941093
10895.384108946822
8254.416649014096
5823.268841943351
4475.8705703921805
7047.231818779146
5998.990701520743
2549.9634150828033
4185.428348659144
6060.964504660287
7859.935043275053
9647.107914608558
11431.139404353682
13268.950649316686
15340.35180332937
17688.96408204797
19222.70830794207
17681.576490915333
15324.055391361091
13242.08427836364
11391.650825189765
9592.083063727165
7786.095900735219
5963.3616468590135
4064.815334601528
2548.4459131060535
5694.883997174554
4318.971194716594
2203.245124292897
2893.5900494364873
3891.57673832206
4798.496943553935
5685.088553647334
6562.774098114719
7417.794644553182
8532.659879305944
10496.537068212845
12525.309447335938
10491.507266710203
8519.015307818732
7394.5618003318195
6530.539283520913
5644.666810464491
4752.110595914838
3850.5253475674067
2903.507103597579
2384.2328717543023
4242.578285349854
3117.950814531523
2549.735580803642
2568.613647218911
2527.8537776550334
2611.5695942408647
2758.418820544941
2977.4225728904894
3238.6531530129714
3685.0275148007613
4797.013585508856
9546.960343047516
4797.146143136006
3691.906154176937
3248.7194904640783
2992.849142375942
2783.168398337862
2652.8954382627985
2597.2165256947815
2686.887048241773
2639.219598026694
3046.0828939400317
2149.684637524368
2529.3809359253714
3303.3570575182703
3849.9307195619376
4636.72184281172
5555.823269382769
6532.797599542992
7655.111892030475
8820.79270427568
8799.346251814633
10673.081766390818
8814.5922957456
8848.385719814374
7697.524073332986
6590.7691985797355
5629.026275730296
4724.327038777091
3945.1920509970364
3377.081003463295
2543.124052043235
2070.098456062263
1644.3164905769706
2383.725345433945
4204.952288794334
5925.830530643889
7684.269065256528
9509.64266574557
11376.242697769108
13281.523645111787
15388.490592941489
16734.247970333727
16414.016210544767
16749.78131358426
15420.2473196842
13329.564713113667
11440.325456622706
9586.365257769288
7765.422915238968
5993.235990296819
4233.943293131174
2369.6363941302834
1564.765812947951
1721.996774733732
2698.8663504688857
5406.293450071423
8177.571768814381
10805.558147279493
13429.157509353965
16079.58024803207
18744.056514819742
21049.36652091541
24326.78392483533
25759.960033799427
24345.744720570732
21088.232867403618
18802.15890177591
16155.927050383656
13518.078642310638
10893.062524870349
8238.129335505057
5421.111144461686
2690.1272131095307
1669.2826699429722
7681.481018939843
4840.891763942931
5916.087289334514
8195.59522328925
10760.166188649782
13307.63405689173
15867.305718721695
18601.74125678379
21786.033273037676
25230.898301120527
27106.603577983376
25219.106998985655
21760.528380084706
18558.81890197051
15800.296635082625
13204.931822455008
10603.180176173335
7957.206123823004
5529.864072779515
4203.131474782417
6699.951372976514
5912.5177691448525
2520.4939241649176
4142.717556042906
5976.015806965009
7745.698757936823
9511.235408837481
11295.990740900166
13187.587405604309
15387.121680673656
17903.671135103556
19544.83339116221
17891.082377586245
15359.31118307271
13141.248333149539
11226.337944661853
9410.397267357965
7602.187132534076
5774.1065986708
3894.1432621028393
2406.068957249464
5412.151407762699
4196.24637833487
2071.755185232505
2859.9101388142917
3863.8454228545
4764.675281421756
5643.874077117006
6529.089408532763
7426.063995968161
8631.054883225508
10701.214776014649
12817.889014095435
10692.951905347716
8608.82350952769
7387.8748801814
6475.04180275004
5573.49385077615
4678.21194762306
3777.4598018551374
2840.679384865712
2309.1904333485036
3972.495557803038
2970.7915689089573
2427.9215216172342
2506.6494114028646
2527.425862701163
2641.6167422999683
2805.4761125189025
3046.503285102761
3359.4251985716405
3884.6507827109726
4672.343905845397
10035.105096333747
4676.810676498847
3897.9577445365057
3377.529456011676
3073.361047382991
2849.2043515099117
2714.590499390652
2646.9419133083074
2699.7493077286913
2575.288300413727
2779.7685267259976
2009.1436210068564
2421.86098711858
3189.0331452677947
3739.8061998086914
4528.043377514929
5450.8544760219975
6448.508567742252
7627.0223313557935
8894.038615506732
8950.136277670439
10780.036155344855
8972.6309343607
8935.375792376082
7690.964379956595
6538.404608312937
5569.062683285167
4676.504597903873
3909.2418779225723
3326.462120233509
2461.6734769414215
1829.394076106218
1541.0641395661432
2254.119653642091
4046.054646565875
5746.595816179689
7484.54620953891
9298.864971084893
11180.605831859619
13150.986446218856
15398.998882811553
16883.948049319555
16419.786521343874
16906.808648166254
15445.261250184063
13221.916321231627
11277.452355018175
9418.40281131323
7615.970041966492
5861.330362801089
4099.65799365681
2237.9455101931903
1390.4617366348373
1562.514412132058
2490.632420576234
5176.476820312306
7917.763239307007
10505.515379661661
13098.662900531048
15749.872912836945
18488.347404333577
20962.918895615858
24502.885156937882
25877.19249465626
24528.648251783234
21016.843026270446
18571.00290266383
15861.224720778373
13231.796617255923
10639.925703247281
8012.227043624321
5192.923266108457
2454.9032775938686
1440.5752133144024
7672.55365058087
4844.326933398709
6016.371772730086
8364.298826826212
10973.07647864338
13560.34518355316
16133.331640759596
18806.729513567534
21815.964436510265
25010.954150987618
26742.013805480627
25004.64765560764
21802.249628013553
18783.627313434394
16097.653855789717
13507.263999392186
10895.384108939139
8254.416649007815
5823.268841937424
4475.870570385638
7047.2318187697665
5998.990701525001
2549.9634150860193
4185.428348663413
6060.964504663281
7859.935043278011
9647.10791460797
11431.139404356545
13268.95064931962
15340.351803331814
17688.964082054365
19222.708307946643
17681.576490917454
15324.05539137327
13242.084278363805
11391.650825193323
9592.083063716293
7786.09590073003
5963.361646854287
4064.8153345963497
2548.4459131027697
5694.8839971668485
4318.971194718191
2203.245124292427
2893.590049437468
3891.5767383234265
4798.496943554022
5685.088553648148
6562.774098116829
7417.794644554073
8532.659879311517
10496.537068215704
12525.309447337759
10491.507266710674
8519.015307833113
7394.561800333189
6530.5392835300445
5644.666810461736
4752.11059591092
3850.5253475630007
2903.5071035928977
2384.2328717509436
4242.578285342828
3117.9508145330183
2549.735580803725
2568.613647217772
2527.8537776525995
2611.5695942401535
2758.418820547541
2977.422572890251
3238.653153010667
3685.027514807529
4797.013585507015
9546.960343044098
4797.146143136534
3691.906154189549
3248.7194904631688
2992.849142387136
2783.1683983394264
2652.8954382606453
2597.2165256903786
2686.8870482380685
2639.219598023041
3046.082893934097
2149.684637525601
2529.380935926377
3303.357057518353
3849.9307195601004
4636.721842811432
5555.823269383444
6532.797599541397
7655.111892028271
8820.792704275773
8799.346251812027
10673.081766384841
8814.59229574673
8848.385719816304
7697.524073329959
6590.769198583428
5629.026275719228
4724.327038774855
3945.1920509933097
3377.0810034589517
2543.124052040155
2070.098456056876
1644.316490577744
2383.725345434713
4204.952288795
5925.830530643885
7684.269065255698
9509.642665742715
11376.242697768883
13281.523645108457
15388.490592943428
16734.2479703335
16414.01621054117
16749.78131358527
15420.247319685188
13329.564713108468
11440.325456621194
9586.36525775617
7765.4229152336575
5993.235990290983
4233.943293126706
2369.636394127257
1564.7658129447245
1721.9967747337232
2698.86635046945
5406.293450072769
8177.571768815686
10805.558147277134
13429.157509348111
16079.580248032506
18744.056514815693
21049.3665209188
24326.78392483617
25759.96003379752
24345.74472057257
21088.232867407918
18802.158901769242
16155.927050379098
13518.078642295837
10893.062524860054
8238.129335496942
5421.111144456558
2690.127213105819
1669.2826699392845
8262.140824858143
4880.045449035509
6241.302119949197
8692.193428967832
11435.329621546136
14198.321760698429
16911.681076714194
19549.4499329954
22107.851221488923
24393.54964527432
25513.56320225471
24400.587031624884
22122.441191104037
19573.567614245425
16949.936685928336
14259.659820977267
11536.919198551243
8861.40689978555
6567.596937290695
5287.092167981906
8662.398723608503
6998.8213877240505
2657.3082350791515
4223.371700940121
6179.810657823208
8086.934482857456
9995.718844192821
11872.800073174227
13681.552801887825
15427.019288308724
17082.4476221845
18072.094983596086
17088.271590909244
15439.510999155464
13702.655829740455
11906.302572492768
10048.682427177118
8171.606509713103
6319.70605293891
4431.153792935607
2810.416343521785
7127.906585166358
5344.677157935371
2468.2591603188625
2873.022460965237
3830.944667190701
4798.056233602216
5759.336496423928
6701.971858244655
7575.0673128048875
8476.024134489062
9780.901239595769
11115.691370772287
9785.086829367368
8485.789358371156
7591.530641189569
6726.639709517722
5795.2548399373245
4850.766281000359
3901.886457766595
2929.0851845780853
2335.6609520972697
5351.251934310842
3774.5158050059495
2743.154258981904
2655.9228062168086
2468.096775412714
2530.375554423438
2714.5047093600965
2999.5313633305336
3311.269789083294
3625.610859617693
4648.021049948414
7295.172278194617
4645.101413767905
3620.8111472757473
3308.3103895660834
2995.566767617701
2704.5058459834527
2504.590738788277
2412.642195857515
2543.6829715845333
2617.214251240992
3790.97339074547
2454.928479424506
2629.314728950567
3462.9629928656796
4064.7372254451143
4884.875209347905
5823.717860976187
6781.406159894567
7778.36580815582
8675.055324746523
8736.624908602771
9483.737677572788
8729.608651011516
8666.605398757478
7766.10245215319
6761.753340241367
5793.218403029804
4837.642543538385
3995.8986195660373
3386.0465635492487
2565.3659741482743
2477.4061951745575
1699.8763440172268
2453.665955291611
4431.249361151035
6323.070375246937
8192.714055875509
10081.265868004832
11956.19475758099
13767.52648238443
15551.754128752358
16476.059103392243
15542.627943337953
16470.61731384051
15545.342555752195
13756.135799684234
11938.875720540056
10057.327466219711
8163.23047664207
6295.005552385235
4418.041261800336
2442.21723420547
1709.137001476298
1740.1828119594832
2824.5893771925403
5748.440944168329
8759.587752037334
11560.705250945348
14297.7093426088
17002.11759994311
19612.698299084353
21747.509439800084
23878.09495957033
23876.90698305896
23878.20714742399
21744.573980745692
19604.661884744066
16989.006374593766
14280.363919003306
11544.710037828952
8759.100195641113
5779.205182667395
2865.024409369447
1775.2400639089271
12672.774204428611
5812.527949076144
6286.343169543309
8700.593272903876
11608.292704139763
14542.46652547737
17432.850985890756
20178.48558870011
22508.27498072426
23956.704212289456
24336.227834999467
23975.23373927259
22547.694784893934
20245.447999961885
17539.124042503445
14705.780095810223
11851.320735308434
9056.973070104215
6812.000852322444
6843.454492455876
13694.015659518871
10758.66100379613
3384.316810617443
4477.128004936564
6413.055252428312
8357.847826005811
10327.215096941949
12284.780816822005
14169.935866227515
15799.828625874685
16808.06984009066
16996.785557435436
16825.00944299217
15835.875338960093
14230.72234562624
12379.319702768476
10467.628448743018
8557.890096604486
6682.302834099557
4786.620631625123
3577.8205889052538
11191.147419160683
7931.58281725389
4188.003729097164
4127.74298849072
4866.237798125997
5653.181649906969
6497.163608809857
7399.275212872713
8361.897837635557
9275.296047812386
9743.653063523372
9575.077873744614
9755.052739715404
9298.010380774247
8398.825116815755
7454.239701009928
6572.372407206914
5743.331063045066
4936.672433267966
4095.2838566218647
3923.409832905252
8139.181584011895
5413.1505682100005
4603.162472725035
4810.611347976272
4542.843271113259
4421.033316141232
4320.045501784732
4380.82109378469
4749.106908746241
5530.4523232059455
6148.22956285354
5819.299252058593
6139.9217453384335
5518.235388963746
4723.534437392126
4331.052430904991
4235.57008754723
4293.919144888259
4360.535352525952
4579.733182503954
4461.600012058044
5546.3702591331785
3366.1423608507203
4146.138887231002
5241.762476873273
5587.658014533789
6135.383086415216
6840.460457154053
7592.442681295575
8269.64186512834
8919.297391467795
10039.256801917605
11407.174174086553
10017.981473493377
8875.611125676
8196.953837522375
7486.445352067953
6694.816921325245
5945.4217236321665
5367.206350396612
5064.917572202536
4090.355593599249
3436.850314391696
2048.4369957626777
3269.090244436735
5477.643273728104
7268.684908325331
8996.060297731265
10765.03805980612
12524.275110128468
14190.22591974325
15475.811790980324
16713.983630476978
19672.448773934993
16694.366956829243
15434.410212521183
14121.311024868975
12424.912900394334
10634.017197704767
8842.32815923636
7125.109447225242
5398.2073650861585
3256.1548543715185
2069.6184633355897
1768.2885467820645
3150.043342875781
6423.2417110836
9541.976111190288
12316.095754682785
15016.257921208973
17680.867245541744
20206.562327605287
22643.574112797367
23992.98426494941
26191.194987568895
23979.467482953478
22602.432970726535
20137.87707137694
17582.944423027857
14892.691471686732
12187.220838001122
9455.050534175103
6423.8861244147765
3191.291908874564
1810.3033149110242
SCALARS Statev float 1
LOOKUP_TABLE default
0.0
0.0
0.0
0.0
0.0
0.0
0.0
0.0
0.0
0.0
0.0
0.0
0.0
0.0
0.0
0.0
0.0
0.0
0.0
0.0
0.0
0.0
0.0
0.0
0.0
0.0
0.0
0.0
0.0
0.0
0.0
0.0
0.0
0.0
0.0
0.0
0.0
0.0
0.0
0.0
0.0
0.0
0.0
0.0
0.0
0.0
0.0
0.0
0.0
0.0
0.0
0.0
0.0
0.0
0.0
0.0
0.0
0.0
0.0
0.0
0.0
0.0
0.0
0.0
0.0
0.0
0.0
0.0
0.0
0.0
0.0
0.0
0.0
0.0
0.0
0.0
0.0
0.0
0.0
0.0
0.0
0.0
0.0
0.0
0.0
0.0
0.0
0.0
0.0
0.0
0.0
0.0
0.0
0.0
0.0
0.0
0.0
0.0
0.0
0.0
0.0
0.0
0.0
0.0
0.0
0.0
0.0
0.0
0.0
0.0
0.0
0.0
0.0
0.0
0.0
0.0
0.0
0.0
0.0
0.0
0.0
0.0
0.0
0.0
0.0
0.0
0.0
0.0
0.0
0.0
0.0
0.0
0.0
0.0
0.0
0.0
0.0
0.0
0.0
0.0
0.0
0.0
0.0
0.0
0.0
0.0
0.0
0.0
0.0
0.0
0.0
0.0
0.0
0.0
0.0
0.0
0.0
0.0
0.0
0.0
0.0
0.0
0.0
0.0
0.0
0.0
0.0
0.0
0.0
0.0
0.0
0.0
0.0
0.0
0.0
0.0
0.0
0.0
0.0
0.0
0.0
0.0
0.0
0.0
0.0
0.0
0.0
0.0
0.0
0.0
0.0
0.0
0.0
0.0
0.0
0.0
0.0
0.0
0.0
0.0
0.0
0.0
0.0
0.0
0.0
0.0
0.0
0.0
0.0
0.0
0.0
0.0
0.0
0.0
0.0
0.0
0.0
0.0
0.0
0.0
0.0
0.0
0.0
0.0
0.0
0.0
0.0
0.0
0.0
0.0
0.0
0.0
0.0
0.0
0.0
0.0
0.0
0.0
0.0
0.0
0.0
0.0
0.0
0.0
0.0
0.0
0.0
0.0
0.0
0.0
0.0
0.0
0.0
0.0
0.0
0.0
0.0
0.0
0.0
0.0
0.0
0.0
0.0
0.0
0.0
0.0
0.0
0.0
0.0
0.0
0.0
0.0
0.0
0.0
0.0
0.0
0.0
0.0
0.0
0.0
0.0
0.0
0.0
0.0
0.0
0.0
0.0
0.0
0.0
0.0
0.0
0.0
0.0
0.0
0.0
0.0
0.0
0.0
0.0
0.0
0.0
0.0
0.0
0.0
0.0
0.0
0.0
0.0
0.0
0.0
0.0
0.0
0.0
0.0
0.0
0.0
0.0
0.0
0.0
0.0
0.0
0.0
0.0
0.0
0.0
0.0
0.0
0.0
0.0
0.0
0.0
0.0
0.0
0.0
0.0
0.0
0.0
0.0
0.0
0.0
0.0
0.0
0.0
0.0
0.0
0.0
0.0
0.0
0.0
0.0
0.0
0.0
0.0
0.0
0.0
0.0
0.0
0.0
0.0
0.0
0.0
0.0
0.0
0.0
0.0
0.0
0.0
0.0
0.0
0.0
0.0
0.0
0.0
0.0
0.0
0.0
0.0
0.0
0.0
0.0
0.0
0.0
0.0
0.0
0.0
0.0
0.0
0.0
0.0
0.0
0.0
0.0
0.0
0.0
0.0
0.0
0.0
0.0
0.0
0.0
0.0
0.0
0.0
0.0
0.0
0.0
0.0
0.0
0.0
0.0
0.0
0.0
0.0
0.0
0.0
0.0
0.0
0.0
0.0
0.0
0.0
0.0
0.0
0.0
0.0
0.0
0.0
0.0
0.0
0.0
0.0
0.0
0.0
0.0
0.0
0.0
0.0
0.0
0.0
0.0
0.0
0.0
0.0
0.0
0.0
0.0
0.0
0.0
0.0
0.0
0.0
0.0
0.0
0.0
0.0
0.0
0.0
0.0
0.0
0.0
0.0
0.0
0.0
0.0
0.0
0.0
0.0
0.0
0.0
0.0
0.0
0.0
0.0
0.0
0.0
0.0
0.0
0.0
0.0
0.0
0.0
0.0
0.0
0.0
0.0
0.0
0.0
0.0
0.0
0.0
0.0
0.0
0.0
0.0
0.0
0.0
0.0
0.0
0.0
0.0
0.0
0.0
0.0
0.0
0.0
0.0
0.0
0.0
0.0
0.0
0.0
0.0
0.0
0.0
0.0
0.0
0.0
0.0
0.0
0.0
0.0
0.0
0.0
0.0
0.0
0.0
0.0
0.0
0.0
0.0
0.0
0.0
0.0
0.0
0.0
0.0
0.0
0.0
0.0
0.0
0.0
0.0
0.0
0.0
0.0
0.0
0.0
0.0
0.0
0.0
0.0
0.0
0.0
0.0
0.0
0.0
0.0
0.0
0.0
0.0
0.0
0.0
0.0
0.0
0.0
0.0
0.0
0.0
0.0
0.0
0.0
0.0
0.0
0.0
0.0
0.0
0.0
0.0
0.0
0.0
0.0
0.0
0.0
0.0
0.0
0.0
0.0
0.0
0.0
0.0
0.0
0.0
0.0
0.0
0.0
0.0
0.0
0.0
0.0
0.0
0.0
0.0
0.0
0.0
0.0
0.0
0.0
0.0
0.0
0.0
0.0
0.0
0.0
0.0
0.0
0.0
0.0
0.0
0.0
0.0
0.0
0.0
0.0
0.0
0.0
0.0
0.0
0.0
0.0
0.0
0.0
0.0
0.0
0.0
0.0
0.0
0.0
0.0
0.0
0.0
0.0
0.0
0.0
0.0
0.0
0.0
0.0
0.0
0.0
0.0
0.0
0.0
0.0
0.0
0.0
0.0
0.0
0.0
0.0
0.0
0.0
0.0
0.0
0.0
0.0
0.0
0.0
0.0
0.0
0.0
0.0
0.0
0.0
0.0
0.0
0.0
0.0
0.0
0.0
0.0
0.0
0.0
0.0
0.0
0.0
0.0
0.0
0.0
0.0
0.0
0.0
0.0
0.0
0.0
0.0
0.0
0.0
0.0
0.0
0.0
0.0
0.0
0.0
0.0
0.0
0.0
0.0
0.0
0.0
0.0
0.0
0.0
0.0
0.0
0.0
0.0
0.0
0.0
0.0
0.0
0.0
0.0
0.0
0.0
0.0
0.0
0.0
0.0
0.0
0.0
0.0
0.0
0.0
0.0
0.0
0.0
0.0
0.0
0.0
0.0
0.0
0.0
0.0
0.0
0.0
0.0
0.0
0.0
0.0
0.0
0.0
0.0
0.0
0.0
0.0
0.0
0.0
0.0
0.0
0.0
0.0
0.0
0.0
0.0
0.0
0.0
0.0
0.0
0.0
0.0
0.0
0.0
0.0
0.0
0.0
0.0
0.0
0.0
0.0
0.0
0.0
0.0
0.0
0.0
0.0
0.0
0.0
0.0
0.0
0.0
0.0
0.0
0.0
0.0
0.0
0.0
0.0
0.0
0.0
0.0
0.0
0.0
0.0
0.0
0.0
0.0
0.0
0.0
0.0
0.0
0.0
0.0
0.0
0.0
0.0
0.0
0.0
0.0
0.0
0.0
0.0
0.0
0.0
0.0
0.0
0.0
0.0
0.0
0.0
0.0
0.0
0.0
0.0
0.0
0.0
0.0
0.0
0.0
0.0
0.0
0.0
0.0
0.0
0.0
0.0
0.0
0.0
0.0
0.0
0.0
0.0
0.0
0.0
0.0
0.0
0.0
0.0
0.0
0.0
0.0
0.0
0.0
0.0
0.0
0.0
0.0
0.0
0.0
0.0
0.0
0.0
0.0
0.0
0.0
0.0
0.0
0.0
0.0
0.0
0.0
0.0
0.0
0.0
0.0
0.0
0.0
0.0
0.0
0.0
0.0
0.0
0.0
0.0
0.0
0.0
0.0
0.0
0.0
0.0
0.0
0.0
0.0
0.0
0.0
0.0
0.0
0.0
0.0
0.0
0.0
0.0
0.0
0.0
0.0
0.0
0.0
0.0
0.0
0.0
0.0
0.0
0.0
0.0
0.0
0.0
0.0
0.0
0.0
0.0
0.0
0.0
0.0
0.0
0.0
0.0
0.0
0.0
0.0
0.0
0.0
0.0
0.0
0.0
0.0
0.0
0.0
0.0
0.0
0.0
0.0
0.0
0.0
0.0
0.0
0.0
0.0
0.0
0.0
0.0
0.0
0.0
0.0
0.0
0.0
0.0
0.0
0.0
0.0
0.0
0.0
0.0
0.0
0.0
0.0
0.0
0.0
0.0
0.0
0.0
0.0
0.0
0.0
0.0
0.0
0.0
0.0
0.0
0.0
0.0
0.0
0.0
0.0
0.0
0.0
0.0
0.0
0.0
0.0
0.0
0.0
0.0
0.0
0.0
0.0
0.0
0.0
0.0
0.0
0.0
0.0
0.0
0.0
0.0
0.0
0.0
0.0
0.0
0.0
0.0
0.0
0.0
0.0
0.0
0.0
0.0
0.0
0.0
0.0
0.0
SCALARS Wm float 4
LOOKUP_TABLE default
885.1625612870391 885.1625612870391 0.0 0.0
160.17169468095355 160.17169468095355 0.0 0.0
190.8289913930571 190.8289913930571 0.0 0.0
399.50219042393996 399.50219042393996 0.0 0.0
704.7385421830284 704.7385421830284 0.0 0.0
1110.6717608225626 1110.6717608225626 0.0 0.0
1599.31449429922 1599.31449429922 0.0 0.0
2145.97572814347 2145.97572814347 0.0 0.0
2671.7110476849334 2671.7110476849334 0.0 0.0
3035.027750543145 3035.027750543145 0.0 0.0
3151.910749140782 3151.910749140782 0.0 0.0
3039.6191149933047 3039.6191149933047 0.0 0.0
2680.890943482071 2680.890943482071 0.0 0.0
2159.9775647455776 2159.9775647455776 0.0 0.0
1618.5461666600977 1618.5461666600977 0.0 0.0
1135.2890735185385 1135.2890735185385 0.0 0.0
734.0544997353351 734.0544997353351 0.0 0.0
431.62722484998676 431.62722484998676 0.0 0.0
226.9144448450661 226.9144448450661 0.0 0.0
252.85383230263173 252.85383230263173 0.0 0.0
848.0305989622611 848.0305989622611 0.0 0.0
657.1206266983078 657.1206266983078 0.0 0.0
19.883315361180934 19.883315361180934 0.0 0.0
88.71143909696299 88.71143909696299 0.0 0.0
189.6246975704284 189.6246975704284 0.0 0.0
325.49514735391494 325.49514735391494 0.0 0.0
502.00491234368207 502.00491234368207 0.0 0.0
715.5183818652848 715.5183818652848 0.0 0.0
956.3304914811678 956.3304914811678 0.0 0.0
1192.7430125687679 1192.7430125687679 0.0 0.0
1360.5904078149665 1360.5904078149665 0.0 0.0
1415.1913456692582 1415.1913456692582 0.0 0.0
1363.5680305130757 1363.5680305130757 0.0 0.0
1198.6753392531848 1198.6753392531848 0.0 0.0
965.2824586515331 965.2824586515331 0.0 0.0
727.5451388097595 727.5451388097595 0.0 0.0
516.9569648004384 516.9569648004384 0.0 0.0
342.59693161745366 342.59693161745366 0.0 0.0
207.5615907843271 207.5615907843271 0.0 0.0
101.443245405421 101.443245405421 0.0 0.0
22.962177285094363 22.962177285094363 0.0 0.0
690.1953545968457 690.1953545968457 0.0 0.0
365.5599019311153 365.5599019311153 0.0 0.0
54.28888210151746 54.28888210151746 0.0 0.0
76.23569707070462 76.23569707070462 0.0 0.0
99.23548108216235 99.23548108216235 0.0 0.0
137.28531303574712 137.28531303574712 0.0 0.0
181.2902903650005 181.2902903650005 0.0 0.0
235.27848563008857 235.27848563008857 0.0 0.0
302.0424453208004 302.0424453208004 0.0 0.0
374.65887500413857 374.65887500413857 0.0 0.0
422.99417192837575 422.99417192837575 0.0 0.0
436.67504512212696 436.67504512212696 0.0 0.0
424.216786464975 424.216786464975 0.0 0.0
376.98444006243005 376.98444006243005 0.0 0.0
305.40467432174734 305.40467432174734 0.0 0.0
239.55471331382773 239.55471331382773 0.0 0.0
186.17353537590694 186.17353537590694 0.0 0.0
142.18633167946567 142.18633167946567 0.0 0.0
102.11641877405638 102.11641877405638 0.0 0.0
74.17224791384042 74.17224791384042 0.0 0.0
45.941703188303784 45.941703188303784 0.0 0.0
381.4322394857062 381.4322394857062 0.0 0.0
168.62247391395937 168.62247391395937 0.0 0.0
78.76423923827313 78.76423923827313 0.0 0.0
98.19030165199987 98.19030165199987 0.0 0.0
89.897218317251 89.897218317251 0.0 0.0
88.73283883615188 88.73283883615188 0.0 0.0
87.41293672976816 87.41293672976816 0.0 0.0
85.86560657661782 85.86560657661782 0.0 0.0
88.78138655647331 88.78138655647331 0.0 0.0
102.61854516001783 102.61854516001783 0.0 0.0
117.90014594878457 117.90014594878457 0.0 0.0
127.90723471839047 127.90723471839047 0.0 0.0
117.4677980623342 117.4677980623342 0.0 0.0
101.58342367642153 101.58342367642153 0.0 0.0
87.06304252927374 87.06304252927374 0.0 0.0
83.33349215557355 83.33349215557355 0.0 0.0
83.8859335470714 83.8859335470714 0.0 0.0
83.83663210495652 83.83663210495652 0.0 0.0
82.9744323382594 82.9744323382594 0.0 0.0
90.27248473236105 90.27248473236105 0.0 0.0
72.23489204580841 72.23489204580841 0.0 0.0
177.48627273568678 177.48627273568678 0.0 0.0
64.00864171165814 64.00864171165814 0.0 0.0
72.43242975833505 72.43242975833505 0.0 0.0
116.02796565007345 116.02796565007345 0.0 0.0
136.6485086838403 136.6485086838403 0.0 0.0
164.76657013619095 164.76657013619095 0.0 0.0
203.73050386082247 203.73050386082247 0.0 0.0
249.85265772291476 249.85265772291476 0.0 0.0
294.7699365079837 294.7699365079837 0.0 0.0
345.2433092973056 345.2433092973056 0.0 0.0
424.4182939952392 424.4182939952392 0.0 0.0
475.09576997025886 475.09576997025886 0.0 0.0
422.4782553778367 422.4782553778367 0.0 0.0
341.25962259445396 341.25962259445396 0.0 0.0
288.74646490314274 288.74646490314274 0.0 0.0
241.88266854984622 241.88266854984622 0.0 0.0
194.07089255570975 194.07089255570975 0.0 0.0
153.9165281344091 153.9165281344091 0.0 0.0
125.94522360837985 125.94522360837985 0.0 0.0
108.50701638001514 108.50701638001514 0.0 0.0
69.20221395844504 69.20221395844504 0.0 0.0
67.3429843744793 67.3429843744793 0.0 0.0
22.33411492370586 22.33411492370586 0.0 0.0
55.27551485579713 55.27551485579713 0.0 0.0
137.3405987787514 137.3405987787514 0.0 0.0
245.79648215019927 245.79648215019927 0.0 0.0
380.8441899345002 380.8441899345002 0.0 0.0
548.2794109001821 548.2794109001821 0.0 0.0
744.281438635924 744.281438635924 0.0 0.0
957.9947804315829 957.9947804315829 0.0 0.0
1122.817488167888 1122.817488167888 0.0 0.0
1369.4319253539709 1369.4319253539709 0.0 0.0
1489.6865164737371 1489.6865164737371 0.0 0.0
1365.9925997433718 1365.9925997433718 0.0 0.0
1116.07905141085 1116.07905141085 0.0 0.0
947.9154924457608 947.9154924457608 0.0 0.0
731.6003734336556 731.6003734336556 0.0 0.0
534.1062953274167 534.1062953274167 0.0 0.0
367.18618927580104 367.18618927580104 0.0 0.0
235.5693957934552 235.5693957934552 0.0 0.0
132.61934590097488 132.61934590097488 0.0 0.0
54.04380446217393 54.04380446217393 0.0 0.0
23.160720646518108 23.160720646518108 0.0 0.0
13.723222835005302 13.723222835005302 0.0 0.0
59.66494249284702 59.66494249284702 0.0 0.0
216.6210139147596 216.6210139147596 0.0 0.0
473.33047639866425 473.33047639866425 0.0 0.0
792.9555243897994 792.9555243897994 0.0 0.0
1182.3959705531638 1182.3959705531638 0.0 0.0
1640.5652170981834 1640.5652170981834 0.0 0.0
2153.140161069162 2153.140161069162 0.0 0.0
2676.635895880077 2676.635895880077 0.0 0.0
3177.517884077839 3177.517884077839 0.0 0.0
2732.108769166689 2732.108769166689 0.0 0.0
3173.0823345343497 3173.0823345343497 0.0 0.0
2666.1287911999066 2666.1287911999066 0.0 0.0
2137.7300344599 2137.7300344599 0.0 0.0
1621.7381377209258 1621.7381377209258 0.0 0.0
1162.6250058000735 1162.6250058000735 0.0 0.0
776.4087157780058 776.4087157780058 0.0 0.0
464.6528650534849 464.6528650534849 0.0 0.0
215.81748599669749 215.81748599669749 0.0 0.0
60.7508437418521 60.7508437418521 0.0 0.0
14.534322188585257 14.534322188585257 0.0 0.0
329.4596389496273 329.4596389496273 0.0 0.0
135.93520042250137 135.93520042250137 0.0 0.0
201.90820227959966 201.90820227959966 0.0 0.0
406.8125652282486 406.8125652282486 0.0 0.0
697.4812563194957 697.4812563194957 0.0 0.0
1076.741935595576 1076.741935595576 0.0 0.0
1531.2692943927773 1531.2692943927773 0.0 0.0
2056.3253830458957 2056.3253830458957 0.0 0.0
2646.8179184756887 2646.8179184756887 0.0 0.0
3227.5456744627613 3227.5456744627613 0.0 0.0
3506.3581581560256 3506.3581581560256 0.0 0.0
3229.1468671243406 3229.1468671243406 0.0 0.0
2649.8080181681335 2649.8080181681335 0.0 0.0
2060.661592160923 2060.661592160923 0.0 0.0
1537.1935388504426 1537.1935388504426 0.0 0.0
1084.7008884509635 1084.7008884509635 0.0 0.0
708.13284925407 708.13284925407 0.0 0.0
420.3336014689628 420.3336014689628 0.0 0.0
221.04085372963132 221.04085372963132 0.0 0.0
162.37510710234284 162.37510710234284 0.0 0.0
321.10202675700435 321.10202675700435 0.0 0.0
264.19864482511707 264.19864482511707 0.0 0.0
22.98703113929237 22.98703113929237 0.0 0.0
85.2037191076623 85.2037191076623 0.0 0.0
185.42676049539392 185.42676049539392 0.0 0.0
317.47498084804374 317.47498084804374 0.0 0.0
486.95433031308113 486.95433031308113 0.0 0.0
689.9962135839338 689.9962135839338 0.0 0.0
921.1724875785462 921.1724875785462 0.0 0.0
1176.6062816496167 1176.6062816496167 0.0 0.0
1432.8666569788886 1432.8666569788886 0.0 0.0
1568.4461492956311 1568.4461492956311 0.0 0.0
1433.9009975416325 1433.9009975416325 0.0 0.0
1178.582497619139 1178.582497619139 0.0 0.0
924.063621516722 924.063621516722 0.0 0.0
693.8814997809831 693.8814997809831 0.0 0.0
492.01760339110194 492.01760339110194 0.0 0.0
323.90238962453265 323.90238962453265 0.0 0.0
193.63388506844802 193.63388506844802 0.0 0.0
93.27410870736252 93.27410870736252 0.0 0.0
26.425876295465446 26.425876295465446 0.0 0.0
265.8347892812385 265.8347892812385 0.0 0.0
158.73847888044568 158.73847888044568 0.0 0.0
18.667363345401085 18.667363345401085 0.0 0.0
36.45503814274902 36.45503814274902 0.0 0.0
61.48942432404241 61.48942432404241 0.0 0.0
98.72738929597338 98.72738929597338 0.0 0.0
143.06283752682435 143.06283752682435 0.0 0.0
195.2644183039257 195.2644183039257 0.0 0.0
251.62166740796482 251.62166740796482 0.0 0.0
318.1641561487276 318.1641561487276 0.0 0.0
419.54040819565506 419.54040819565506 0.0 0.0
510.48552384346334 510.48552384346334 0.0 0.0
420.0286841318015 420.0286841318015 0.0 0.0
319.1252255600762 319.1252255600762 0.0 0.0
253.0218676071391 253.0218676071391 0.0 0.0
197.0583651819737 197.0583651819737 0.0 0.0
145.2030087901793 145.2030087901793 0.0 0.0
101.20745668378099 101.20745668378099 0.0 0.0
63.99725181150217 63.99725181150217 0.0 0.0
37.182528797676284 37.182528797676284 0.0 0.0
16.342279545837073 16.342279545837073 0.0 0.0
157.37721777368895 157.37721777368895 0.0 0.0
78.93051607797756 78.93051607797756 0.0 0.0
26.037250950034345 26.037250950034345 0.0 0.0
31.852177895794895 31.852177895794895 0.0 0.0
27.481163280972616 27.481163280972616 0.0 0.0
28.56255738065461 28.56255738065461 0.0 0.0
31.15918362919419 31.15918362919419 0.0 0.0
34.62180339565222 34.62180339565222 0.0 0.0
36.72957936523346 36.72957936523346 0.0 0.0
38.74923033486485 38.74923033486485 0.0 0.0
70.44430599691471 70.44430599691471 0.0 0.0
172.32125967518368 172.32125967518368 0.0 0.0
70.34118119430778 70.34118119430778 0.0 0.0
38.69397156410433 38.69397156410433 0.0 0.0
36.70931549213473 36.70931549213473 0.0 0.0
34.53756236623234 34.53756236623234 0.0 0.0
30.89085931920219 30.89085931920219 0.0 0.0
27.95441962594451 27.95441962594451 0.0 0.0
26.21220652960917 26.21220652960917 0.0 0.0
29.67245796457732 29.67245796457732 0.0 0.0
23.192716240804074 23.192716240804074 0.0 0.0
79.45678217665404 79.45678217665404 0.0 0.0
32.70207906592966 32.70207906592966 0.0 0.0
27.974078428297076 27.974078428297076 0.0 0.0
49.957654494827196 49.957654494827196 0.0 0.0
70.42358441361336 70.42358441361336 0.0 0.0
102.05759072977695 102.05759072977695 0.0 0.0
146.0852579229115 146.0852579229115 0.0 0.0
199.7218544182243 199.7218544182243 0.0 0.0
266.0453524627699 266.0453524627699 0.0 0.0
328.8281609248987 328.8281609248987 0.0 0.0
347.02704171266635 347.02704171266635 0.0 0.0
525.7562591238734 525.7562591238734 0.0 0.0
346.303075333996 346.303075333996 0.0 0.0
327.8216667988236 327.8216667988236 0.0 0.0
264.7458219320202 264.7458219320202 0.0 0.0
198.0879528881981 198.0879528881981 0.0 0.0
144.10413491783956 144.10413491783956 0.0 0.0
99.72360846770556 99.72360846770556 0.0 0.0
67.89932815899519 67.89932815899519 0.0 0.0
47.80762796352126 47.80762796352126 0.0 0.0
26.310542164440516 26.310542164440516 0.0 0.0
33.40173599377771 33.40173599377771 0.0 0.0
14.404640761092436 14.404640761092436 0.0 0.0
30.463135608254813 30.463135608254813 0.0 0.0
91.62003544743578 91.62003544743578 0.0 0.0
190.81036921172088 190.81036921172088 0.0 0.0
324.715742630511 324.715742630511 0.0 0.0
494.67531917521455 494.67531917521455 0.0 0.0
698.6558709287203 698.6558709287203 0.0 0.0
928.1649023019701 928.1649023019701 0.0 0.0
1206.54205826751 1206.54205826751 0.0 0.0
1281.3656860708966 1281.3656860708966 0.0 0.0
1653.152685005415 1653.152685005415 0.0 0.0
1280.0996942846211 1280.0996942846211 0.0 0.0
1204.7470728533117 1204.7470728533117 0.0 0.0
925.6959695950671 925.6959695950671 0.0 0.0
695.6897322109418 695.6897322109418 0.0 0.0
491.53886609699026 491.53886609699026 0.0 0.0
321.8722002938078 321.8722002938078 0.0 0.0
188.87184799301926 188.87184799301926 0.0 0.0
90.8778042669764 90.8778042669764 0.0 0.0
30.06724050438835 30.06724050438835 0.0 0.0
14.697694731595641 14.697694731595641 0.0 0.0
13.375221551320731 13.375221551320731 0.0 0.0
47.23861504140959 47.23861504140959 0.0 0.0
178.1929223410726 178.1929223410726 0.0 0.0
407.5033017725614 407.5033017725614 0.0 0.0
711.0659682768727 711.0659682768727 0.0 0.0
1089.8047402494235 1089.8047402494235 0.0 0.0
1546.2792417136047 1546.2792417136047 0.0 0.0
2055.1634475824403 2055.1634475824403 0.0 0.0
2564.491485768653 2564.491485768653 0.0 0.0
2909.914909876881 2909.914909876881 0.0 0.0
4366.037073846006 4366.037073846006 0.0 0.0
2909.00996457653 2909.00996457653 0.0 0.0
2562.129846716246 2562.129846716246 0.0 0.0
2051.5575074629046 2051.5575074629046 0.0 0.0
1541.9554264566664 1541.9554264566664 0.0 0.0
1085.512957956052 1085.512957956052 0.0 0.0
707.9310152497605 707.9310152497605 0.0 0.0
406.71508772287206 406.71508772287206 0.0 0.0
179.49802491061132 179.49802491061132 0.0 0.0
48.39505120264118 48.39505120264118 0.0 0.0
13.951108937314524 13.951108937314524 0.0 0.0
233.63247677496992 233.63247677496992 0.0 0.0
151.9120606771908 151.9120606771908 0.0 0.0
193.5609634854738 193.5609634854738 0.0 0.0
382.90220931405133 382.90220931405133 0.0 0.0
653.6289726672218 653.6289726672218 0.0 0.0
1002.7957181757512 1002.7957181757512 0.0 0.0
1430.4694597584655 1430.4694597584655 0.0 0.0
1967.5663756342465 1967.5663756342465 0.0 0.0
2681.3183190451464 2681.3183190451464 0.0 0.0
3521.9722798645357 3521.9722798645357 0.0 0.0
3968.4703516585505 3968.4703516585505 0.0 0.0
3520.025504227864 3520.025504227864 0.0 0.0
2677.5565966869594 2677.5565966869594 0.0 0.0
1962.0243696051189 1962.0243696051189 0.0 0.0
1423.0273393986654 1423.0273393986654 0.0 0.0
993.3803994893087 993.3803994893087 0.0 0.0
642.3685477909919 642.3685477909919 0.0 0.0
370.5500383673724 370.5500383673724 0.0 0.0
178.68248023412568 178.68248023412568 0.0 0.0
118.43074979012239 118.43074979012239 0.0 0.0
230.54819217002694 230.54819217002694 0.0 0.0
197.68746717465842 197.68746717465842 0.0 0.0
25.59117226040015 25.59117226040015 0.0 0.0
85.36577666696711 85.36577666696711 0.0 0.0
181.15550426709876 181.15550426709876 0.0 0.0
304.2129958725058 304.2129958725058 0.0 0.0
461.0640119796709 461.0640119796709 0.0 0.0
652.443780734664 652.443780734664 0.0 0.0
888.176322957417 888.176322957417 0.0 0.0
1195.581459023686 1195.581459023686 0.0 0.0
1565.8811775040806 1565.8811775040806 0.0 0.0
1784.1464824320378 1784.1464824320378 0.0 0.0
1564.5453368087626 1564.5453368087626 0.0 0.0
1192.9752624024557 1192.9752624024557 0.0 0.0
884.388860540562 884.388860540562 0.0 0.0
647.5361161304772 647.5361161304772 0.0 0.0
455.1262042642819 455.1262042642819 0.0 0.0
297.5251418268295 297.5251418268295 0.0 0.0
173.9386810018766 173.9386810018766 0.0 0.0
79.45256498763285 79.45256498763285 0.0 0.0
23.930922807645842 23.930922807645842 0.0 0.0
191.2375836681503 191.2375836681503 0.0 0.0
109.79069357790091 109.79069357790091 0.0 0.0
17.767432866351363 17.767432866351363 0.0 0.0
36.8313478298303 36.8313478298303 0.0 0.0
65.08875915618032 65.08875915618032 0.0 0.0
100.85476988565014 100.85476988565014 0.0 0.0
142.0386599026874 142.0386599026874 0.0 0.0
190.22601769024172 190.22601769024172 0.0 0.0
244.72226725468602 244.72226725468602 0.0 0.0
327.5317675710048 327.5317675710048 0.0 0.0
484.93070951433515 484.93070951433515 0.0 0.0
638.5937263772286 638.5937263772286 0.0 0.0
484.40409476217934 484.40409476217934 0.0 0.0
326.42159582927206 326.42159582927206 0.0 0.0
243.0865619530399 243.0865619530399 0.0 0.0
188.17533550603872 188.17533550603872 0.0 0.0
139.7473633211821 139.7473633211821 0.0 0.0
98.53246782065784 98.53246782065784 0.0 0.0
63.333749541403996 63.333749541403996 0.0 0.0
37.205831170731216 37.205831170731216 0.0 0.0
20.056085957148806 20.056085957148806 0.0 0.0
110.28880506255858 110.28880506255858 0.0 0.0
55.84347334247908 55.84347334247908 0.0 0.0
23.870439461743217 23.870439461743217 0.0 0.0
30.663140582606268 30.663140582606268 0.0 0.0
29.323703766889082 29.323703766889082 0.0 0.0
31.57812790957368 31.57812790957368 0.0 0.0
34.18007215592824 34.18007215592824 0.0 0.0
37.399555592638585 37.399555592638585 0.0 0.0
38.89095486443004 38.89095486443004 0.0 0.0
45.51999936752442 45.51999936752442 0.0 0.0
103.01816021375797 103.01816021375797 0.0 0.0
290.590534862032 290.590534862032 0.0 0.0
103.33823819723334 103.33823819723334 0.0 0.0
45.96662587963724 45.96662587963724 0.0 0.0
39.44800660960662 39.44800660960662 0.0 0.0
38.100540908338104 38.100540908338104 0.0 0.0
35.103698026013504 35.103698026013504 0.0 0.0
32.86520701429946 32.86520701429946 0.0 0.0
31.271374034431794 31.271374034431794 0.0 0.0
33.17016728334833 33.17016728334833 0.0 0.0
25.803139801850065 25.803139801850065 0.0 0.0
54.838966750467556 54.838966750467556 0.0 0.0
24.708868480249766 24.708868480249766 0.0 0.0
26.182512275093856 26.182512275093856 0.0 0.0
46.380591878594785 46.380591878594785 0.0 0.0
64.08566929209589 64.08566929209589 0.0 0.0
92.84284142024669 92.84284142024669 0.0 0.0
134.07730135030224 134.07730135030224 0.0 0.0
186.98231660641457 186.98231660641457 0.0 0.0
260.24202489519064 260.24202489519064 0.0 0.0
338.682573956239 338.682573956239 0.0 0.0
364.6557022956943 364.6557022956943 0.0 0.0
725.6387210087718 725.6387210087718 0.0 0.0
365.8132469560723 365.8132469560723 0.0 0.0
340.6885372613869 340.6885372613869 0.0 0.0
262.96058858554704 262.96058858554704 0.0 0.0
190.21745274575267 190.21745274575267 0.0 0.0
137.64878010418815 137.64878010418815 0.0 0.0
96.52780044217138 96.52780044217138 0.0 0.0
67.48221488097505 67.48221488097505 0.0 0.0
48.6320597027644 48.6320597027644 0.0 0.0
26.87789194425568 26.87789194425568 0.0 0.0
23.48803774849564 23.48803774849564 0.0 0.0
12.7245979783464 12.7245979783464 0.0 0.0
28.45317029768851 28.45317029768851 0.0 0.0
82.7547933916044 82.7547933916044 0.0 0.0
169.21559128308343 169.21559128308343 0.0 0.0
289.26199052971896 289.26199052971896 0.0 0.0
446.980231687071 446.980231687071 0.0 0.0
644.2945366655683 644.2945366655683 0.0 0.0
882.0822747356697 882.0822747356697 0.0 0.0
1215.6557757907738 1215.6557757907738 0.0 0.0
1312.3114835982979 1312.3114835982979 0.0 0.0
2111.739837366251 2111.739837366251 0.0 0.0
1314.3339863240565 1314.3339863240565 0.0 0.0
1219.3991641158455 1219.3991641158455 0.0 0.0
887.0985573353083 887.0985573353083 0.0 0.0
650.098295321726 650.098295321726 0.0 0.0
452.85728449173837 452.85728449173837 0.0 0.0
294.32543598034005 294.32543598034005 0.0 0.0
172.52142171596785 172.52142171596785 0.0 0.0
83.99107796986702 83.99107796986702 0.0 0.0
28.482433686360142 28.482433686360142 0.0 0.0
11.704512641711762 11.704512641711762 0.0 0.0
12.748125727220957 12.748125727220957 0.0 0.0
43.119621825501554 43.119621825501554 0.0 0.0
158.97768653753042 158.97768653753042 0.0 0.0
361.19586418593093 361.19586418593093 0.0 0.0
633.7082845236063 633.7082845236063 0.0 0.0
983.4764866887339 983.4764866887339 0.0 0.0
1420.6075569571099 1420.6075569571099 0.0 0.0
1932.3415437389972 1932.3415437389972 0.0 0.0
2497.6888174442856 2497.6888174442856 0.0 0.0
3045.029273443834 3045.029273443834 0.0 0.0
5681.826484158155 5681.826484158155 0.0 0.0
3048.142848014999 3048.142848014999 0.0 0.0
2503.6709196338365 2503.6709196338365 0.0 0.0
1940.3314824731165 1940.3314824731165 0.0 0.0
1429.6282394846414 1429.6282394846414 0.0 0.0
992.146847268527 992.146847268527 0.0 0.0
640.2162308088416 640.2162308088416 0.0 0.0
364.0142643651023 364.0142643651023 0.0 0.0
158.94606220206177 158.94606220206177 0.0 0.0
42.69836171831454 42.69836171831454 0.0 0.0
11.967078264316147 11.967078264316147 0.0 0.0
227.2254943155596 227.2254943155596 0.0 0.0
156.29463001630492 156.29463001630492 0.0 0.0
190.524343505991 190.524343505991 0.0 0.0
372.84504010321444 372.84504010321444 0.0 0.0
637.3909124609089 637.3909124609089 0.0 0.0
981.1548018038688 981.1548018038688 0.0 0.0
1409.5375811572103 1409.5375811572103 0.0 0.0
1966.153528103497 1966.153528103497 0.0 0.0
2734.443404574074 2734.443404574074 0.0 0.0
3660.46049135084 3660.46049135084 0.0 0.0
4155.6412136538265 4155.6412136538265 0.0 0.0
3656.9617389150308 3656.9617389150308 0.0 0.0
2727.813646667274 2727.813646667274 0.0 0.0
1956.5370171891805 1956.5370171891805 0.0 0.0
1396.645761993004 1396.645761993004 0.0 0.0
964.5759774040323 964.5759774040323 0.0 0.0
617.0259206529895 617.0259206529895 0.0 0.0
349.63334620861764 349.63334620861764 0.0 0.0
164.33964888320747 164.33964888320747 0.0 0.0
105.88222957498874 105.88222957498874 0.0 0.0
212.05617436311599 212.05617436311599 0.0 0.0
187.61535299782645 187.61535299782645 0.0 0.0
25.646466822561372 25.646466822561372 0.0 0.0
84.87980998314899 84.87980998314899 0.0 0.0
178.04430541271375 178.04430541271375 0.0 0.0
298.5086003231825 298.5086003231825 0.0 0.0
453.3747136273708 453.3747136273708 0.0 0.0
645.6783285405635 645.6783285405635 0.0 0.0
890.5178766428279 890.5178766428279 0.0 0.0
1221.2330716297072 1221.2330716297072 0.0 0.0
1626.217359899564 1626.217359899564 0.0 0.0
1864.4926965166721 1864.4926965166721 0.0 0.0
1623.8759726635114 1623.8759726635114 0.0 0.0
1216.734206512216 1216.734206512216 0.0 0.0
884.0368358270215 884.0368358270215 0.0 0.0
637.2408090875502 637.2408090875502 0.0 0.0
442.95828515600186 442.95828515600186 0.0 0.0
286.32543567677016 286.32543567677016 0.0 0.0
164.57436996594814 164.57436996594814 0.0 0.0
73.65621747432819 73.65621747432819 0.0 0.0
20.969430523395545 20.969430523395545 0.0 0.0
177.47417252108826 177.47417252108826 0.0 0.0
104.70298487745104 104.70298487745104 0.0 0.0
15.629254934675707 15.629254934675707 0.0 0.0
36.052650350908635 36.052650350908635 0.0 0.0
64.79945041602839 64.79945041602839 0.0 0.0
100.43760427449838 100.43760427449838 0.0 0.0
141.5507965049557 141.5507965049557 0.0 0.0
190.5847969391137 190.5847969391137 0.0 0.0
248.58054672501277 248.58054672501277 0.0 0.0
339.8159360859923 339.8159360859923 0.0 0.0
509.7971981534187 509.7971981534187 0.0 0.0
671.3977188406838 671.3977188406838 0.0 0.0
508.8539855767299 508.8539855767299 0.0 0.0
337.9007937651551 337.9007937651551 0.0 0.0
245.7953191244472 245.7953191244472 0.0 0.0
187.08234276936554 187.08234276936554 0.0 0.0
137.5521734819676 137.5521734819676 0.0 0.0
96.21127047732843 96.21127047732843 0.0 0.0
61.33940322683175 61.33940322683175 0.0 0.0
35.79752476567984 35.79752476567984 0.0 0.0
18.4968430604866 18.4968430604866 0.0 0.0
100.83683374699355 100.83683374699355 0.0 0.0
51.93598364684201 51.93598364684201 0.0 0.0
21.372591079335823 21.372591079335823 0.0 0.0
28.918017397971525 28.918017397971525 0.0 0.0
28.768741112740056 28.768741112740056 0.0 0.0
31.83999248959242 31.83999248959242 0.0 0.0
35.04580527099475 35.04580527099475 0.0 0.0
39.14749813967737 39.14749813967737 0.0 0.0
42.45790435167471 42.45790435167471 0.0 0.0
52.762726866491455 52.762726866491455 0.0 0.0
114.46856269195828 114.46856269195828 0.0 0.0
308.6586030837364 308.6586030837364 0.0 0.0
114.95452407984357 114.95452407984357 0.0 0.0
53.46410474118921 53.46410474118921 0.0 0.0
43.328531051101976 43.328531051101976 0.0 0.0
40.27038216234788 40.27038216234788 0.0 0.0
36.590841840252075 36.590841840252075 0.0 0.0
34.042588428226004 34.042588428226004 0.0 0.0
32.02198052368004 32.02198052368004 0.0 0.0
32.90153493920699 32.90153493920699 0.0 0.0
24.432301757130446 24.432301757130446 0.0 0.0
48.06532256476364 48.06532256476364 0.0 0.0
21.958965120204134 21.958965120204134 0.0 0.0
23.813819765065652 23.813819765065652 0.0 0.0
43.13833110002337 43.13833110002337 0.0 0.0
60.65140251472766 60.65140251472766 0.0 0.0
89.1336585694393 89.1336585694393 0.0 0.0
130.13099911181274 130.13099911181274 0.0 0.0
183.84895651027662 183.84895651027662 0.0 0.0
260.75782189547294 260.75782189547294 0.0 0.0
346.96390328134737 346.96390328134737 0.0 0.0
377.743958680168 377.743958680168 0.0 0.0
757.557933561365 757.557933561365 0.0 0.0
379.62113890501183 379.62113890501183 0.0 0.0
350.1943183814977 350.1943183814977 0.0 0.0
265.08213659286326 265.08213659286326 0.0 0.0
189.0496490001887 189.0496490001887 0.0 0.0
136.02089331419597 136.02089331419597 0.0 0.0
95.39875989020885 95.39875989020885 0.0 0.0
66.54914067561978 66.54914067561978 0.0 0.0
47.0876312196043 47.0876312196043 0.0 0.0
25.188007475685986 25.188007475685986 0.0 0.0
19.1100004031321 19.1100004031321 0.0 0.0
11.104178800009919 11.104178800009919 0.0 0.0
25.572085429858166 25.572085429858166 0.0 0.0
76.99568813616342 76.99568813616342 0.0 0.0
160.4942391056983 160.4942391056983 0.0 0.0
277.2899100385384 277.2899100385384 0.0 0.0
432.3830286815115 432.3830286815115 0.0 0.0
630.3724739444643 630.3724739444643 0.0 0.0
876.7150425998882 876.7150425998882 0.0 0.0
1235.2891287187067 1235.2891287187067 0.0 0.0
1345.2320761934216 1345.2320761934216 0.0 0.0
2193.463462710096 2193.463462710096 0.0 0.0
1348.4609119818485 1348.4609119818485 0.0 0.0
1241.1394869119902 1241.1394869119902 0.0 0.0
884.5091044514639 884.5091044514639 0.0 0.0
639.4830846490137 639.4830846490137 0.0 0.0
441.7911790195323 441.7911790195323 0.0 0.0
285.6384461378277 285.6384461378277 0.0 0.0
166.16780479139058 166.16780479139058 0.0 0.0
79.22725377735587 79.22725377735587 0.0 0.0
25.745585294442826 25.745585294442826 0.0 0.0
9.217038869412391 9.217038869412391 0.0 0.0
10.468736160282097 10.468736160282097 0.0 0.0
38.01788592097423 38.01788592097423 0.0 0.0
148.2552822127064 148.2552822127064 0.0 0.0
343.62204787161994 343.62204787161994 0.0 0.0
608.383894455958 608.383894455958 0.0 0.0
951.5888567941992 951.5888567941992 0.0 0.0
1388.8783794881429 1388.8783794881429 0.0 0.0
1919.016531842777 1919.016531842777 0.0 0.0
2535.125248930629 2535.125248930629 0.0 0.0
3131.323440525321 3131.323440525321 0.0 0.0
5923.324673739241 5923.324673739241 0.0 0.0
3135.9041452650313 3135.9041452650313 0.0 0.0
2544.065919948667 2544.065919948667 0.0 0.0
1931.078341684716 1931.078341684716 0.0 0.0
1402.6942516627325 1402.6942516627325 0.0 0.0
965.1115755412852 965.1115755412852 0.0 0.0
618.7645435636094 618.7645435636094 0.0 0.0
348.24916109029675 348.24916109029675 0.0 0.0
148.07614616697026 148.07614616697026 0.0 0.0
36.98342661040098 36.98342661040098 0.0 0.0
8.856650262684248 8.856650262684248 0.0 0.0
233.6324767746192 233.6324767746192 0.0 0.0
151.912060676656 151.912060676656 0.0 0.0
193.5609634850684 193.5609634850684 0.0 0.0
382.90220931373193 382.90220931373193 0.0 0.0
653.6289726671682 653.6289726671682 0.0 0.0
1002.7957181756369 1002.7957181756369 0.0 0.0
1430.4694597581397 1430.4694597581397 0.0 0.0
1967.5663756336096 1967.5663756336096 0.0 0.0
2681.3183190442405 2681.3183190442405 0.0 0.0
3521.972279863849 3521.972279863849 0.0 0.0
3968.4703516568893 3968.4703516568893 0.0 0.0
3520.0255042256927 3520.0255042256927 0.0 0.0
2677.556596685833 2677.556596685833 0.0 0.0
1962.0243696051464 1962.0243696051464 0.0 0.0
1423.0273393995237 1423.0273393995237 0.0 0.0
993.3803994909588 993.3803994909588 0.0 0.0
642.3685477920175 642.3685477920175 0.0 0.0
370.5500383678733 370.5500383678733 0.0 0.0
178.682480234479 178.682480234479 0.0 0.0
118.43074979041558 118.43074979041558 0.0 0.0
230.54819217054143 230.54819217054143 0.0 0.0
197.6874671745196 197.6874671745196 0.0 0.0
25.591172260340915 25.591172260340915 0.0 0.0
85.36577666678023 85.36577666678023 0.0 0.0
181.15550426696498 181.15550426696498 0.0 0.0
304.2129958723291 304.2129958723291 0.0 0.0
461.06401197962276 461.06401197962276 0.0 0.0
652.4437807344127 652.4437807344127 0.0 0.0
888.1763229571003 888.1763229571003 0.0 0.0
1195.5814590231223 1195.5814590231223 0.0 0.0
1565.8811775032557 1565.8811775032557 0.0 0.0
1784.1464824311688 1784.1464824311688 0.0 0.0
1564.5453368079375 1564.5453368079375 0.0 0.0
1192.9752624015352 1192.9752624015352 0.0 0.0
884.388860540553 884.388860540553 0.0 0.0
647.5361161305177 647.5361161305177 0.0 0.0
455.1262042651451 455.1262042651451 0.0 0.0
297.525141827176 297.525141827176 0.0 0.0
173.93868100217352 173.93868100217352 0.0 0.0
79.45256498779447 79.45256498779447 0.0 0.0
23.930922807689342 23.930922807689342 0.0 0.0
191.23758366862694 191.23758366862694 0.0 0.0
109.79069357785063 109.79069357785063 0.0 0.0
17.767432866356778 17.767432866356778 0.0 0.0
36.83134782978324 36.83134782978324 0.0 0.0
65.0887591561179 65.0887591561179 0.0 0.0
100.85476988564177 100.85476988564177 0.0 0.0
142.03865990263355 142.03865990263355 0.0 0.0
190.22601769006556 190.22601769006556 0.0 0.0
244.722267254438 244.722267254438 0.0 0.0
327.53176757081997 327.53176757081997 0.0 0.0
484.93070951414273 484.93070951414273 0.0 0.0
638.5937263768908 638.5937263768908 0.0 0.0
484.4040947622799 484.4040947622799 0.0 0.0
326.42159582851735 326.42159582851735 0.0 0.0
243.08656195315794 243.08656195315794 0.0 0.0
188.17533550567646 188.17533550567646 0.0 0.0
139.74736332147478 139.74736332147478 0.0 0.0
98.53246782081483 98.53246782081483 0.0 0.0
63.33374954150285 63.33374954150285 0.0 0.0
37.20583117085131 37.20583117085131 0.0 0.0
20.056085957192636 20.056085957192636 0.0 0.0
110.28880506286043 110.28880506286043 0.0 0.0
55.843473342427224 55.843473342427224 0.0 0.0
23.87043946174226 23.87043946174226 0.0 0.0
30.663140582608342 30.663140582608342 0.0 0.0
29.323703766933868 29.323703766933868 0.0 0.0
31.57812790961863 31.57812790961863 0.0 0.0
34.180072155896696 34.180072155896696 0.0 0.0
37.39955559255277 37.39955559255277 0.0 0.0
38.89095486455966 38.89095486455966 0.0 0.0
45.51999936722707 45.51999936722707 0.0 0.0
103.01816021366422 103.01816021366422 0.0 0.0
290.59053486241635 290.59053486241635 0.0 0.0
103.33823819711165 103.33823819711165 0.0 0.0
45.96662587900622 45.96662587900622 0.0 0.0
39.44800660977124 39.44800660977124 0.0 0.0
38.100540907760426 38.100540907760426 0.0 0.0
35.103698026253134 35.103698026253134 0.0 0.0
32.865207014301085 32.865207014301085 0.0 0.0
31.27137403455293 31.27137403455293 0.0 0.0
33.17016728342719 33.17016728342719 0.0 0.0
25.803139801914984 25.803139801914984 0.0 0.0
54.83896675065246 54.83896675065246 0.0 0.0
24.708868480222474 24.708868480222474 0.0 0.0
26.182512275080803 26.182512275080803 0.0 0.0
46.38059187859552 46.38059187859552 0.0 0.0
64.08566929213215 64.08566929213215 0.0 0.0
92.84284142033346 92.84284142033346 0.0 0.0
134.07730135037218 134.07730135037218 0.0 0.0
186.98231660646604 186.98231660646604 0.0 0.0
260.24202489533343 260.24202489533343 0.0 0.0
338.68257395626205 338.68257395626205 0.0 0.0
364.65570229575616 364.65570229575616 0.0 0.0
725.6387210089039 725.6387210089039 0.0 0.0
365.81324695594515 365.81324695594515 0.0 0.0
340.6885372612687 340.6885372612687 0.0 0.0
262.96058858560843 262.96058858560843 0.0 0.0
190.2174527456068 190.2174527456068 0.0 0.0
137.6487801046631 137.6487801046631 0.0 0.0
96.52780044231352 96.52780044231352 0.0 0.0
67.48221488113177 67.48221488113177 0.0 0.0
48.63205970288118 48.63205970288118 0.0 0.0
26.877891944315458 26.877891944315458 0.0 0.0
23.48803774859814 23.48803774859814 0.0 0.0
12.724597978334554 12.724597978334554 0.0 0.0
28.453170297680696 28.453170297680696 0.0 0.0
82.7547933915876 82.7547933915876 0.0 0.0
169.21559128311605 169.21559128311605 0.0 0.0
289.2619905298513 289.2619905298513 0.0 0.0
446.9802316873813 446.9802316873813 0.0 0.0
644.2945366655533 644.2945366655533 0.0 0.0
882.0822747362624 882.0822747362624 0.0 0.0
1215.6557757904466 1215.6557757904466 0.0 0.0
1312.3114835987121 1312.3114835987121 0.0 0.0
2111.739837365367 2111.739837365367 0.0 0.0
1314.3339863241672 1314.3339863241672 0.0 0.0
1219.399164115312 1219.399164115312 0.0 0.0
887.0985573357249 887.0985573357249 0.0 0.0
650.098295321908 650.098295321908 0.0 0.0
452.85728449258926 452.85728449258926 0.0 0.0
294.32543598079167 294.32543598079167 0.0 0.0
172.52142171626355 172.52142171626355 0.0 0.0
83.99107797004653 83.99107797004653 0.0 0.0
28.48243368642591 28.48243368642591 0.0 0.0
11.704512641755846 11.704512641755846 0.0 0.0
12.748125727220817 12.748125727220817 0.0 0.0
43.11962182549371 43.11962182549371 0.0 0.0
158.97768653743273 158.97768653743273 0.0 0.0
361.1958641859186 361.1958641859186 0.0 0.0
633.7082845239153 633.7082845239153 0.0 0.0
983.4764866891438 983.4764866891438 0.0 0.0
1420.6075569575446 1420.6075569575446 0.0 0.0
1932.3415437394913 1932.3415437394913 0.0 0.0
2497.688817443597 2497.688817443597 0.0 0.0
3045.0292734439436 3045.0292734439436 0.0 0.0
5681.826484156679 5681.826484156679 0.0 0.0
3048.1428480146224 3048.1428480146224 0.0 0.0
2503.6709196327815 2503.6709196327815 0.0 0.0
1940.3314824734096 1940.3314824734096 0.0 0.0
1429.6282394856512 1429.6282394856512 0.0 0.0
992.1468472701583 992.1468472701583 0.0 0.0
640.2162308101706 640.2162308101706 0.0 0.0
364.0142643657869 364.0142643657869 0.0 0.0
158.9460622023597 158.9460622023597 0.0 0.0
42.698361718409245 42.698361718409245 0.0 0.0
11.967078264359646 11.967078264359646 0.0 0.0
329.45963894986284 329.45963894986284 0.0 0.0
135.93520042142114 135.93520042142114 0.0 0.0
201.9082022789549 201.9082022789549 0.0 0.0
406.8125652275925 406.8125652275925 0.0 0.0
697.4812563185313 697.4812563185313 0.0 0.0
1076.741935594456 1076.741935594456 0.0 0.0
1531.2692943921143 1531.2692943921143 0.0 0.0
2056.325383046798 2056.325383046798 0.0 0.0
2646.8179184757446 2646.8179184757446 0.0 0.0
3227.5456744596954 3227.5456744596954 0.0 0.0
3506.358158153489 3506.358158153489 0.0 0.0
3229.1468671215566 3229.1468671215566 0.0 0.0
2649.808018167029 2649.808018167029 0.0 0.0
2060.6615921612456 2060.6615921612456 0.0 0.0
1537.1935388519548 1537.1935388519548 0.0 0.0
1084.70088845264 1084.70088845264 0.0 0.0
708.1328492559927 708.1328492559927 0.0 0.0
420.3336014702549 420.3336014702549 0.0 0.0
221.0408537304492 221.0408537304492 0.0 0.0
162.37510710297497 162.37510710297497 0.0 0.0
321.10202675846585 321.10202675846585 0.0 0.0
264.198644825036 264.198644825036 0.0 0.0
22.987031139134782 22.987031139134782 0.0 0.0
85.20371910736436 85.20371910736436 0.0 0.0
185.42676049499096 185.42676049499096 0.0 0.0
317.47498084750055 317.47498084750055 0.0 0.0
486.95433031245534 486.95433031245534 0.0 0.0
689.9962135834453 689.9962135834453 0.0 0.0
921.1724875787612 921.1724875787612 0.0 0.0
1176.6062816494705 1176.6062816494705 0.0 0.0
1432.8666569770187 1432.8666569770187 0.0 0.0
1568.4461492945954 1568.4461492945954 0.0 0.0
1433.9009975402535 1433.9009975402535 0.0 0.0
1178.5824976186082 1178.5824976186082 0.0 0.0
924.0636215169847 924.0636215169847 0.0 0.0
693.8814997815883 693.8814997815883 0.0 0.0
492.0176033917614 492.0176033917614 0.0 0.0
323.9023896252583 323.9023896252583 0.0 0.0
193.63388506909442 193.63388506909442 0.0 0.0
93.27410870763696 93.27410870763696 0.0 0.0
26.425876295535193 26.425876295535193 0.0 0.0
265.8347892824779 265.8347892824779 0.0 0.0
158.73847888040947 158.73847888040947 0.0 0.0
18.6673633454434 18.6673633454434 0.0 0.0
36.45503814270657 36.45503814270657 0.0 0.0
61.48942432390136 61.48942432390136 0.0 0.0
98.72738929569032 98.72738929569032 0.0 0.0
143.06283752658422 143.06283752658422 0.0 0.0
195.26441830373116 195.26441830373116 0.0 0.0
251.62166740808658 251.62166740808658 0.0 0.0
318.1641561486253 318.1641561486253 0.0 0.0
419.54040819450563 419.54040819450563 0.0 0.0
510.4855238429731 510.4855238429731 0.0 0.0
420.0286841308959 420.0286841308959 0.0 0.0
319.12522556019695 319.12522556019695 0.0 0.0
253.0218676068063 253.0218676068063 0.0 0.0
197.05836518222017 197.05836518222017 0.0 0.0
145.20300879021897 145.20300879021897 0.0 0.0
101.2074566839218 101.2074566839218 0.0 0.0
63.997251811782505 63.997251811782505 0.0 0.0
37.18252879773653 37.18252879773653 0.0 0.0
16.342279545898712 16.342279545898712 0.0 0.0
157.37721777446728 157.37721777446728 0.0 0.0
78.93051607790233 78.93051607790233 0.0 0.0
26.037250950109275 26.037250950109275 0.0 0.0
31.852177895877265 31.852177895877265 0.0 0.0
27.481163280996412 27.481163280996412 0.0 0.0
28.56255738056554 28.56255738056554 0.0 0.0
31.159183629290155 31.159183629290155 0.0 0.0
34.62180339559353 34.62180339559353 0.0 0.0
36.72957936544485 36.72957936544485 0.0 0.0
38.7492303350949 38.7492303350949 0.0 0.0
70.44430599601019 70.44430599601019 0.0 0.0
172.32125967447575 172.32125967447575 0.0 0.0
70.3411811939329 70.3411811939329 0.0 0.0
38.69397156413163 38.69397156413163 0.0 0.0
36.709315491949724 36.709315491949724 0.0 0.0
34.53756236623119 34.53756236623119 0.0 0.0
30.890859319160676 30.890859319160676 0.0 0.0
27.95441962600958 27.95441962600958 0.0 0.0
26.212206529772352 26.212206529772352 0.0 0.0
29.672457964620175 29.672457964620175 0.0 0.0
23.192716240877566 23.192716240877566 0.0 0.0
79.45678217708368 79.45678217708368 0.0 0.0
32.70207906589394 32.70207906589394 0.0 0.0
27.97407842835127 27.97407842835127 0.0 0.0
49.95765449486577 49.95765449486577 0.0 0.0
70.42358441373764 70.42358441373764 0.0 0.0
102.05759072985823 102.05759072985823 0.0 0.0
146.08525792289382 146.08525792289382 0.0 0.0
199.72185441837684 199.72185441837684 0.0 0.0
266.0453524637114 266.0453524637114 0.0 0.0
328.82816092518607 328.82816092518607 0.0 0.0
347.0270417125257 347.0270417125257 0.0 0.0
525.7562591226867 525.7562591226867 0.0 0.0
346.30307533367363 346.30307533367363 0.0 0.0
327.8216667990824 327.8216667990824 0.0 0.0
264.74582193180476 264.74582193180476 0.0 0.0
198.08795288859756 198.08795288859756 0.0 0.0
144.10413491795256 144.10413491795256 0.0 0.0
99.72360846795513 99.72360846795513 0.0 0.0
67.89932815928307 67.89932815928307 0.0 0.0
47.80762796364604 47.80762796364604 0.0 0.0
26.310542164531387 26.310542164531387 0.0 0.0
33.40173599397928 33.40173599397928 0.0 0.0
14.404640761069736 14.404640761069736 0.0 0.0
30.463135608242382 30.463135608242382 0.0 0.0
91.62003544744502 91.62003544744502 0.0 0.0
190.8103692117876 190.8103692117876 0.0 0.0
324.7157426306514 324.7157426306514 0.0 0.0
494.675319175114 494.675319175114 0.0 0.0
698.655870929369 698.655870929369 0.0 0.0
928.1649023030487 928.1649023030487 0.0 0.0
1206.5420582684042 1206.5420582684042 0.0 0.0
1281.365686070967 1281.365686070967 0.0 0.0
1653.1526850023574 1653.1526850023574 0.0 0.0
1280.0996942844342 1280.0996942844342 0.0 0.0
1204.7470728536582 1204.7470728536582 0.0 0.0
925.6959695953838 925.6959695953838 0.0 0.0
695.6897322118433 695.6897322118433 0.0 0.0
491.5388660979214 491.5388660979214 0.0 0.0
321.87220029472775 321.87220029472775 0.0 0.0
188.87184799364735 188.87184799364735 0.0 0.0
90.87780426728268 90.87780426728268 0.0 0.0
30.067240504485834 30.067240504485834 0.0 0.0
14.697694731681104 14.697694731681104 0.0 0.0
13.375221551286806 13.375221551286806 0.0 0.0
47.23861504133642 47.23861504133642 0.0 0.0
178.1929223409981 178.1929223409981 0.0 0.0
407.5033017726262 407.5033017726262 0.0 0.0
711.0659682769631 711.0659682769631 0.0 0.0
1089.8047402491086 1089.8047402491086 0.0 0.0
1546.2792417145445 1546.2792417145445 0.0 0.0
2055.163447584794 2055.163447584794 0.0 0.0
2564.49148577058 2564.49148577058 0.0 0.0
2909.9149098768667 2909.9149098768667 0.0 0.0
4366.037073835468 4366.037073835468 0.0 0.0
2909.0099645766413 2909.0099645766413 0.0 0.0
2562.129846717411 2562.129846717411 0.0 0.0
2051.5575074633703 2051.5575074633703 0.0 0.0
1541.95542645852 1541.95542645852 0.0 0.0
1085.5129579581273 1085.5129579581273 0.0 0.0
707.9310152518885 707.9310152518885 0.0 0.0
406.7150877241276 406.7150877241276 0.0 0.0
179.4980249111959 179.4980249111959 0.0 0.0
48.39505120283958 48.39505120283958 0.0 0.0
13.951108937399379 13.951108937399379 0.0 0.0
885.1625612889462 885.1625612889462 0.0 0.0
160.1716946791165 160.1716946791165 0.0 0.0
190.82899139206262 190.82899139206262 0.0 0.0
399.5021904228768 399.5021904228768 0.0 0.0
704.7385421817894 704.7385421817894 0.0 0.0
1110.6717608218191 1110.6717608218191 0.0 0.0
1599.3144942991746 1599.3144942991746 0.0 0.0
2145.9757281437983 2145.9757281437983 0.0 0.0
2671.7110476846115 2671.7110476846115 0.0 0.0
3035.0277505411245 3035.0277505411245 0.0 0.0
3151.9107491365016 3151.9107491365016 0.0 0.0
3039.6191149902443 3039.6191149902443 0.0 0.0
2680.890943481019 2680.890943481019 0.0 0.0
2159.977564746117 2159.977564746117 0.0 0.0
1618.5461666616072 1618.5461666616072 0.0 0.0
1135.2890735207934 1135.2890735207934 0.0 0.0
734.0544997373933 734.0544997373933 0.0 0.0
431.6272248518629 431.6272248518629 0.0 0.0
226.9144448460555 226.9144448460555 0.0 0.0
252.85383230393123 252.85383230393123 0.0 0.0
848.0305989673146 848.0305989673146 0.0 0.0
657.120626697854 657.120626697854 0.0 0.0
19.883315361070398 19.883315361070398 0.0 0.0
88.7114390966141 88.7114390966141 0.0 0.0
189.62469756988548 189.62469756988548 0.0 0.0
325.4951473534392 325.4951473534392 0.0 0.0
502.0049123431109 502.0049123431109 0.0 0.0
715.5183818650596 715.5183818650596 0.0 0.0
956.3304914812169 956.3304914812169 0.0 0.0
1192.7430125684461 1192.7430125684461 0.0 0.0
1360.5904078136523 1360.5904078136523 0.0 0.0
1415.1913456673476 1415.1913456673476 0.0 0.0
1363.568030511063 1363.568030511063 0.0 0.0
1198.6753392531884 1198.6753392531884 0.0 0.0
965.2824586513944 965.2824586513944 0.0 0.0
727.5451388101785 727.5451388101785 0.0 0.0
516.9569648013838 516.9569648013838 0.0 0.0
342.59693161828636 342.59693161828636 0.0 0.0
207.5615907850618 207.5615907850618 0.0 0.0
101.44324540582573 101.44324540582573 0.0 0.0
22.962177285171233 22.962177285171233 0.0 0.0
690.1953546009601 690.1953546009601 0.0 0.0
365.55990193066714 365.55990193066714 0.0 0.0
54.288882101663056 54.288882101663056 0.0 0.0
76.23569707068332 76.23569707068332 0.0 0.0
99.23548108207471 99.23548108207471 0.0 0.0
137.28531303570378 137.28531303570378 0.0 0.0
181.29029036492142 181.29029036492142 0.0 0.0
235.27848562998986 235.27848562998986 0.0 0.0
302.0424453209681 302.0424453209681 0.0 0.0
374.6588750042066 374.6588750042066 0.0 0.0
422.9941719275046 422.9941719275046 0.0 0.0
436.67504512082166 436.67504512082166 0.0 0.0
424.21678646397015 424.21678646397015 0.0 0.0
376.9844400621474 376.9844400621474 0.0 0.0
305.4046743216732 305.4046743216732 0.0 0.0
239.5547133138549 239.5547133138549 0.0 0.0
186.17353537613278 186.17353537613278 0.0 0.0
142.1863316797124 142.1863316797124 0.0 0.0
102.11641877439499 102.11641877439499 0.0 0.0
74.1722479141996 74.1722479141996 0.0 0.0
45.94170318853121 45.94170318853121 0.0 0.0
381.4322394878686 381.4322394878686 0.0 0.0
168.62247391366526 168.62247391366526 0.0 0.0
78.7642392383404 78.7642392383404 0.0 0.0
98.19030165210143 98.19030165210143 0.0 0.0
89.89721831742987 89.89721831742987 0.0 0.0
88.73283883641167 88.73283883641167 0.0 0.0
87.41293673001458 87.41293673001458 0.0 0.0
85.86560657697257 85.86560657697257 0.0 0.0
88.7813865568294 88.7813865568294 0.0 0.0
102.61854516003795 102.61854516003795 0.0 0.0
117.90014594913578 117.90014594913578 0.0 0.0
127.90723471836574 127.90723471836574 0.0 0.0
117.46779806225331 117.46779806225331 0.0 0.0
101.58342367633261 101.58342367633261 0.0 0.0
87.0630425289834 87.0630425289834 0.0 0.0
83.33349215543026 83.33349215543026 0.0 0.0
83.88593354708547 83.88593354708547 0.0 0.0
83.8366321050363 83.8366321050363 0.0 0.0
82.97443233860992 82.97443233860992 0.0 0.0
90.27248473281331 90.27248473281331 0.0 0.0
72.23489204618144 72.23489204618144 0.0 0.0
177.48627273668697 177.48627273668697 0.0 0.0
64.00864171153866 64.00864171153866 0.0 0.0
72.43242975831636 72.43242975831636 0.0 0.0
116.0279656501544 116.0279656501544 0.0 0.0
136.6485086839998 136.6485086839998 0.0 0.0
164.76657013649938 164.76657013649938 0.0 0.0
203.7305038613529 203.7305038613529 0.0 0.0
249.85265772344587 249.85265772344587 0.0 0.0
294.7699365084201 294.7699365084201 0.0 0.0
345.24330929766234 345.24330929766234 0.0 0.0
424.4182939958743 424.4182939958743 0.0 0.0
475.0957699714543 475.0957699714543 0.0 0.0
422.47825537853447 422.47825537853447 0.0 0.0
341.25962259426 341.25962259426 0.0 0.0
288.7464649032306 288.7464649032306 0.0 0.0
241.8826685496837 241.8826685496837 0.0 0.0
194.07089255605877 194.07089255605877 0.0 0.0
153.9165281347227 153.9165281347227 0.0 0.0
125.94522360889178 125.94522360889178 0.0 0.0
108.5070163805661 108.5070163805661 0.0 0.0
69.20221395877957 69.20221395877957 0.0 0.0
67.34298437486285 67.34298437486285 0.0 0.0
22.334114923648922 22.334114923648922 0.0 0.0
55.275514855767085 55.275514855767085 0.0 0.0
137.34059877873005 137.34059877873005 0.0 0.0
245.79648215015538 245.79648215015538 0.0 0.0
380.8441899347504 380.8441899347504 0.0 0.0
548.2794109007668 548.2794109007668 0.0 0.0
744.2814386366476 744.2814386366476 0.0 0.0
957.9947804329298 957.9947804329298 0.0 0.0
1122.8174881686468 1122.8174881686468 0.0 0.0
1369.4319253550514 1369.4319253550514 0.0 0.0
1489.6865164763306 1489.6865164763306 0.0 0.0
1365.992599744013 1365.992599744013 0.0 0.0
1116.0790514104128 1116.0790514104128 0.0 0.0
947.9154924465894 947.9154924465894 0.0 0.0
731.6003734343075 731.6003734343075 0.0 0.0
534.1062953285732 534.1062953285732 0.0 0.0
367.1861892766605 367.1861892766605 0.0 0.0
235.56939579442846 235.56939579442846 0.0 0.0
132.61934590151648 132.61934590151648 0.0 0.0
54.04380446242648 54.04380446242648 0.0 0.0
23.160720646635497 23.160720646635497 0.0 0.0
13.723222834950793 13.723222834950793 0.0 0.0
59.66494249275695 59.66494249275695 0.0 0.0
216.6210139145043 216.6210139145043 0.0 0.0
473.3304763983787 473.3304763983787 0.0 0.0
792.9555243899665 792.9555243899665 0.0 0.0
1182.39597055354 1182.39597055354 0.0 0.0
1640.5652170996912 1640.5652170996912 0.0 0.0
2153.140161071776 2153.140161071776 0.0 0.0
2676.6358958822125 2676.6358958822125 0.0 0.0
3177.5178840797416 3177.5178840797416 0.0 0.0
2732.1087691671437 2732.1087691671437 0.0 0.0
3173.0823345348103 3173.0823345348103 0.0 0.0
2666.12879120069 2666.12879120069 0.0 0.0
2137.73003446194 2137.73003446194 0.0 0.0
1621.738137722822 1621.738137722822 0.0 0.0
1162.62500580287 1162.62500580287 0.0 0.0
776.4087157801914 776.4087157801914 0.0 0.0
464.6528650553548 464.6528650553548 0.0 0.0
215.81748599768372 215.81748599768372 0.0 0.0
60.75084374212814 60.75084374212814 0.0 0.0
14.534322188658091 14.534322188658091 0.0 0.0