# vtk DataFile Version 3.0
Some data
ASCII
DATASET UNSTRUCTURED_GRID
POINTS 1029 float
0.0 0.0 0.0
0.8 0.0 0.0
1.6 0.0 0.0
2.4000000000000004 0.0 0.0
3.2 0.0 0.0
4.0 0.0 0.0
4.800000000000001 0.0 0.0
5.6000000000000005 0.0 0.0
6.4 0.0 0.0
7.2 0.0 0.0
8.0 0.0 0.0
8.8 0.0 0.0
9.600000000000001 0.0 0.0
10.4 0.0 0.0
11.200000000000001 0.0 0.0
12.0 0.0 0.0
12.8 0.0 0.0
13.600000000000001 0.0 0.0
14.4 0.0 0.0
15.200000000000001 0.0 0.0
16.0 0.0 0.0
0.0 0.3333333333333333 0.0
0.8 0.3333333333333333 0.0
1.6 0.3333333333333333 0.0
2.4000000000000004 0.3333333333333333 0.0
3.2 0.3333333333333333 0.0
4.0 0.3333333333333333 0.0
4.800000000000001 0.3333333333333333 0.0
5.6000000000000005 0.3333333333333333 0.0
6.4 0.3333333333333333 0.0
7.2 0.3333333333333333 0.0
8.0 0.3333333333333333 0.0
8.8 0.3333333333333333 0.0
9.600000000000001 0.3333333333333333 0.0
10.4 0.3333333333333333 0.0
11.200000000000001 0.3333333333333333 0.0
12.0 0.3333333333333333 0.0
12.8 0.3333333333333333 0.0
13.600000000000001 0.3333333333333333 0.0
14.4 0.3333333333333333 0.0
15.200000000000001 0.3333333333333333 0.0
16.0 0.3333333333333333 0.0
0.0 0.6666666666666666 0.0
0.8 0.6666666666666666 0.0
1.6 0.6666666666666666 0.0
2.4000000000000004 0.6666666666666666 0.0
3.2 0.6666666666666666 0.0
4.0 0.6666666666666666 0.0
4.800000000000001 0.6666666666666666 0.0
5.6000000000000005 0.6666666666666666 0.0
6.4 0.6666666666666666 0.0
7.2 0.6666666666666666 0.0
8.0 0.6666666666666666 0.0
8.8 0.6666666666666666 0.0
9.600000000000001 0.6666666666666666 0.0
10.4 0.6666666666666666 0.0
11.200000000000001 0.6666666666666666 0.0
12.0 0.6666666666666666 0.0
12.8 0.6666666666666666 0.0
13.600000000000001 0.6666666666666666 0.0
14.4 0.6666666666666666 0.0
15.200000000000001 0.6666666666666666 0.0
16.0 0.6666666666666666 0.0
0.0 1.0 0.0
0.8 1.0 0.0
1.6 1.0 0.0
2.4000000000000004 1.0 0.0
3.2 1.0 0.0
4.0 1.0 0.0
4.800000000000001 1.0 0.0
5.6000000000000005 1.0 0.0
6.4 1.0 0.0
7.2 1.0 0.0
8.0 1.0 0.0
8.8 1.0 0.0
9.600000000000001 1.0 0.0
10.4 1.0 0.0
11.200000000000001 1.0 0.0
12.0 1.0 0.0
12.8 1.0 0.0
13.600000000000001 1.0 0.0
14.4 1.0 0.0
15.200000000000001 1.0 0.0
16.0 1.0 0.0
0.0 1.3333333333333333 0.0
0.8 1.3333333333333333 0.0
1.6 1.3333333333333333 0.0
2.4000000000000004 1.3333333333333333 0.0
3.2 1.3333333333333333 0.0
4.0 1.3333333333333333 0.0
4.800000000000001 1.3333333333333333 0.0
5.6000000000000005 1.3333333333333333 0.0
6.4 1.3333333333333333 0.0
7.2 1.3333333333333333 0.0
8.0 1.3333333333333333 0.0
8.8 1.3333333333333333 0.0
9.600000000000001 1.3333333333333333 0.0
10.4 1.3333333333333333 0.0
11.200000000000001 1.3333333333333333 0.0
12.0 1.3333333333333333 0.0
12.8 1.3333333333333333 0.0
13.600000000000001 1.3333333333333333 0.0
14.4 1.3333333333333333 0.0
15.200000000000001 1.3333333333333333 0.0
16.0 1.3333333333333333 0.0
0.0 1.6666666666666665 0.0
0.8 1.6666666666666665 0.0
1.6 1.6666666666666665 0.0
2.4000000000000004 1.6666666666666665 0.0
3.2 1.6666666666666665 0.0
4.0 1.6666666666666665 0.0
4.800000000000001 1.6666666666666665 0.0
5.6000000000000005 1.6666666666666665 0.0
6.4 1.6666666666666665 0.0
7.2 1.6666666666666665 0.0
8.0 1.6666666666666665 0.0
8.8 1.6666666666666665 0.0
9.600000000000001 1.6666666666666665 0.0
10.4 1.6666666666666665 0.0
11.200000000000001 1.6666666666666665 0.0
12.0 1.6666666666666665 0.0
12.8 1.6666666666666665 0.0
13.600000000000001 1.6666666666666665 0.0
14.4 1.6666666666666665 0.0
15.200000000000001 1.6666666666666665 0.0
16.0 1.6666666666666665 0.0
0.0 2.0 0.0
0.8 2.0 0.0
1.6 2.0 0.0
2.4000000000000004 2.0 0.0
3.2 2.0 0.0
4.0 2.0 0.0
4.800000000000001 2.0 0.0
5.6000000000000005 2.0 0.0
6.4 2.0 0.0
7.2 2.0 0.0
8.0 2.0 0.0
8.8 2.0 0.0
9.600000000000001 2.0 0.0
10.4 2.0 0.0
11.200000000000001 2.0 0.0
12.0 2.0 0.0
12.8 2.0 0.0
13.600000000000001 2.0 0.0
14.4 2.0 0.0
15.200000000000001 2.0 0.0
16.0 2.0 0.0
0.0 0.0 1.6666666666666667
0.8 0.0 1.6666666666666667
1.6 0.0 1.6666666666666667
2.4000000000000004 0.0 1.6666666666666667
3.2 0.0 1.6666666666666667
4.0 0.0 1.6666666666666667
4.800000000000001 0.0 1.6666666666666667
5.6000000000000005 0.0 1.6666666666666667
6.4 0.0 1.6666666666666667
7.2 0.0 1.6666666666666667
8.0 0.0 1.6666666666666667
8.8 0.0 1.6666666666666667
9.600000000000001 0.0 1.6666666666666667
10.4 0.0 1.6666666666666667
11.200000000000001 0.0 1.6666666666666667
12.0 0.0 1.6666666666666667
12.8 0.0 1.6666666666666667
13.600000000000001 0.0 1.6666666666666667
14.4 0.0 1.6666666666666667
15.200000000000001 0.0 1.6666666666666667
16.0 0.0 1.6666666666666667
0.0 0.3333333333333333 1.6666666666666667
0.8 0.3333333333333333 1.6666666666666667
1.6 0.3333333333333333 1.6666666666666667
2.4000000000000004 0.3333333333333333 1.6666666666666667
3.2 0.3333333333333333 1.6666666666666667
4.0 0.3333333333333333 1.6666666666666667
4.800000000000001 0.3333333333333333 1.6666666666666667
5.6000000000000005 0.3333333333333333 1.6666666666666667
6.4 0.3333333333333333 1.6666666666666667
7.2 0.3333333333333333 1.6666666666666667
8.0 0.3333333333333333 1.6666666666666667
8.8 0.3333333333333333 1.6666666666666667
9.600000000000001 0.3333333333333333 1.6666666666666667
10.4 0.3333333333333333 1.6666666666666667
11.200000000000001 0.3333333333333333 1.6666666666666667
12.0 0.3333333333333333 1.6666666666666667
12.8 0.3333333333333333 1.6666666666666667
13.600000000000001 0.3333333333333333 1.6666666666666667
14.4 0.3333333333333333 1.6666666666666667
15.200000000000001 0.3333333333333333 1.6666666666666667
16.0 0.3333333333333333 1.6666666666666667
0.0 0.6666666666666666 1.6666666666666667
0.8 0.6666666666666666 1.6666666666666667
1.6 0.6666666666666666 1.6666666666666667
2.4000000000000004 0.6666666666666666 1.6666666666666667
3.2 0.6666666666666666 1.6666666666666667
4.0 0.6666666666666666 1.6666666666666667
4.800000000000001 0.6666666666666666 1.6666666666666667
5.6000000000000005 0.6666666666666666 1.6666666666666667
6.4 0.6666666666666666 1.6666666666666667
7.2 0.6666666666666666 1.6666666666666667
8.0 0.6666666666666666 1.6666666666666667
8.8 0.6666666666666666 1.6666666666666667
9.600000000000001 0.6666666666666666 1.6666666666666667
10.4 0.6666666666666666 1.6666666666666667
11.200000000000001 0.6666666666666666 1.6666666666666667
12.0 0.6666666666666666 1.6666666666666667
12.8 0.6666666666666666 1.6666666666666667
13.600000000000001 0.6666666666666666 1.6666666666666667
14.4 0.6666666666666666 1.6666666666666667
15.200000000000001 0.6666666666666666 1.6666666666666667
16.0 0.6666666666666666 1.6666666666666667
0.0 1.0 1.6666666666666667
0.8 1.0 1.6666666666666667
1.6 1.0 1.6666666666666667
2.4000000000000004 1.0 1.6666666666666667
3.2 1.0 1.6666666666666667
4.0 1.0 1.6666666666666667
4.800000000000001 1.0 1.6666666666666667
5.6000000000000005 1.0 1.6666666666666667
6.4 1.0 1.6666666666666667
7.2 1.0 1.6666666666666667
8.0 1.0 1.6666666666666667
8.8 1.0 1.6666666666666667
9.600000000000001 1.0 1.6666666666666667
10.4 1.0 1.6666666666666667
11.200000000000001 1.0 1.6666666666666667
12.0 1.0 1.6666666666666667
12.8 1.0 1.6666666666666667
13.600000000000001 1.0 1.6666666666666667
14.4 1.0 1.6666666666666667
15.200000000000001 1.0 1.6666666666666667
16.0 1.0 1.6666666666666667
0.0 1.3333333333333333 1.6666666666666667
0.8 1.3333333333333333 1.6666666666666667
1.6 1.3333333333333333 1.6666666666666667
2.4000000000000004 1.3333333333333333 1.6666666666666667
3.2 1.3333333333333333 1.6666666666666667
4.0 1.3333333333333333 1.6666666666666667
4.800000000000001 1.3333333333333333 1.6666666666666667
5.6000000000000005 1.3333333333333333 1.6666666666666667
6.4 1.3333333333333333 1.6666666666666667
7.2 1.3333333333333333 1.6666666666666667
8.0 1.3333333333333333 1.6666666666666667
8.8 1.3333333333333333 1.6666666666666667
9.600000000000001 1.3333333333333333 1.6666666666666667
10.4 1.3333333333333333 1.6666666666666667
11.200000000000001 1.3333333333333333 1.6666666666666667
12.0 1.3333333333333333 1.6666666666666667
12.8 1.3333333333333333 1.6666666666666667
13.600000000000001 1.3333333333333333 1.6666666666666667
14.4 1.3333333333333333 1.6666666666666667
15.200000000000001 1.3333333333333333 1.6666666666666667
16.0 1.3333333333333333 1.6666666666666667
0.0 1.6666666666666665 1.6666666666666667
0.8 1.6666666666666665 1.6666666666666667
1.6 1.6666666666666665 1.6666666666666667
2.4000000000000004 1.6666666666666665 1.6666666666666667
3.2 1.6666666666666665 1.6666666666666667
4.0 1.6666666666666665 1.6666666666666667
4.800000000000001 1.6666666666666665 1.6666666666666667
5.6000000000000005 1.6666666666666665 1.6666666666666667
6.4 1.6666666666666665 1.6666666666666667
7.2 1.6666666666666665 1.6666666666666667
8.0 1.6666666666666665 1.6666666666666667
8.8 1.6666666666666665 1.6666666666666667
9.600000000000001 1.6666666666666665 1.6666666666666667
10.4 1.6666666666666665 1.6666666666666667
11.200000000000001 1.6666666666666665 1.6666666666666667
12.0 1.6666666666666665 1.6666666666666667
12.8 1.6666666666666665 1.6666666666666667
13.600000000000001 1.6666666666666665 1.6666666666666667
14.4 1.6666666666666665 1.6666666666666667
15.200000000000001 1.6666666666666665 1.6666666666666667
16.0 1.6666666666666665 1.6666666666666667
0.0 2.0 1.6666666666666667
0.8 2.0 1.6666666666666667
1.6 2.0 1.6666666666666667
2.4000000000000004 2.0 1.6666666666666667
3.2 2.0 1.6666666666666667
4.0 2.0 1.6666666666666667
4.800000000000001 2.0 1.6666666666666667
5.6000000000000005 2.0 1.6666666666666667
6.4 2.0 1.6666666666666667
7.2 2.0 1.6666666666666667
8.0 2.0 1.6666666666666667
8.8 2.0 1.6666666666666667
9.600000000000001 2.0 1.6666666666666667
10.4 2.0 1.6666666666666667
11.200000000000001 2.0 1.6666666666666667
12.0 2.0 1.6666666666666667
12.8 2.0 1.6666666666666667
13.600000000000001 2.0 1.6666666666666667
14.4 2.0 1.6666666666666667
15.200000000000001 2.0 1.6666666666666667
16.0 2.0 1.6666666666666667
0.0 0.0 3.3333333333333335
0.8 0.0 3.3333333333333335
1.6 0.0 3.3333333333333335
2.4000000000000004 0.0 3.3333333333333335
3.2 0.0 3.3333333333333335
4.0 0.0 3.3333333333333335
4.800000000000001 0.0 3.3333333333333335
5.6000000000000005 0.0 3.3333333333333335
6.4 0.0 3.3333333333333335
7.2 0.0 3.3333333333333335
8.0 0.0 3.3333333333333335
8.8 0.0 3.3333333333333335
9.600000000000001 0.0 3.3333333333333335
10.4 0.0 3.3333333333333335
11.200000000000001 0.0 3.3333333333333335
12.0 0.0 3.3333333333333335
12.8 0.0 3.3333333333333335
13.600000000000001 0.0 3.3333333333333335
14.4 0.0 3.3333333333333335
15.200000000000001 0.0 3.3333333333333335
16.0 0.0 3.3333333333333335
0.0 0.3333333333333333 3.3333333333333335
0.8 0.3333333333333333 3.3333333333333335
1.6 0.3333333333333333 3.3333333333333335
2.4000000000000004 0.3333333333333333 3.3333333333333335
3.2 0.3333333333333333 3.3333333333333335
4.0 0.3333333333333333 3.3333333333333335
4.800000000000001 0.3333333333333333 3.3333333333333335
5.6000000000000005 0.3333333333333333 3.3333333333333335
6.4 0.3333333333333333 3.3333333333333335
7.2 0.3333333333333333 3.3333333333333335
8.0 0.3333333333333333 3.3333333333333335
8.8 0.3333333333333333 3.3333333333333335
9.600000000000001 0.3333333333333333 3.3333333333333335
10.4 0.3333333333333333 3.3333333333333335
11.200000000000001 0.3333333333333333 3.3333333333333335
12.0 0.3333333333333333 3.3333333333333335
12.8 0.3333333333333333 3.3333333333333335
13.600000000000001 0.3333333333333333 3.3333333333333335
14.4 0.3333333333333333 3.3333333333333335
15.200000000000001 0.3333333333333333 3.3333333333333335
16.0 0.3333333333333333 3.3333333333333335
0.0 0.6666666666666666 3.3333333333333335
0.8 0.6666666666666666 3.3333333333333335
1.6 0.6666666666666666 3.3333333333333335
2.4000000000000004 0.6666666666666666 3.3333333333333335
3.2 0.6666666666666666 3.3333333333333335
4.0 0.6666666666666666 3.3333333333333335
4.800000000000001 0.6666666666666666 3.3333333333333335
5.6000000000000005 0.6666666666666666 3.3333333333333335
6.4 0.6666666666666666 3.3333333333333335
7.2 0.6666666666666666 3.3333333333333335
8.0 0.6666666666666666 3.3333333333333335
8.8 0.6666666666666666 3.3333333333333335
9.600000000000001 0.6666666666666666 3.3333333333333335
10.4 0.6666666666666666 3.3333333333333335
11.200000000000001 0.6666666666666666 3.3333333333333335
12.0 0.6666666666666666 3.3333333333333335
12.8 0.6666666666666666 3.3333333333333335
13.600000000000001 0.6666666666666666 3.3333333333333335
14.4 0.6666666666666666 3.3333333333333335
15.200000000000001 0.6666666666666666 3.3333333333333335
16.0 0.6666666666666666 3.3333333333333335
0.0 1.0 3.3333333333333335
0.8 1.0 3.3333333333333335
1.6 1.0 3.3333333333333335
2.4000000000000004 1.0 3.3333333333333335
3.2 1.0 3.3333333333333335
4.0 1.0 3.3333333333333335
4.800000000000001 1.0 3.3333333333333335
5.6000000000000005 1.0 3.3333333333333335
6.4 1.0 3.3333333333333335
7.2 1.0 3.3333333333333335
8.0 1.0 3.3333333333333335
8.8 1.0 3.3333333333333335
9.600000000000001 1.0 3.3333333333333335
10.4 1.0 3.3333333333333335
11.200000000000001 1.0 3.3333333333333335
12.0 1.0 3.3333333333333335
12.8 1.0 3.3333333333333335
13.600000000000001 1.0 3.3333333333333335
14.4 1.0 3.3333333333333335
15.200000000000001 1.0 3.3333333333333335
16.0 1.0 3.3333333333333335
0.0 1.3333333333333333 3.3333333333333335
0.8 1.3333333333333333 3.3333333333333335
1.6 1.3333333333333333 3.3333333333333335
2.4000000000000004 1.3333333333333333 3.3333333333333335
3.2 1.3333333333333333 3.3333333333333335
4.0 1.3333333333333333 3.3333333333333335
4.800000000000001 1.3333333333333333 3.3333333333333335
5.6000000000000005 1.3333333333333333 3.3333333333333335
6.4 1.3333333333333333 3.3333333333333335
7.2 1.3333333333333333 3.3333333333333335
8.0 1.3333333333333333 3.3333333333333335
8.8 1.3333333333333333 3.3333333333333335
9.600000000000001 1.3333333333333333 3.3333333333333335
10.4 1.3333333333333333 3.3333333333333335
11.200000000000001 1.3333333333333333 3.3333333333333335
12.0 1.3333333333333333 3.3333333333333335
12.8 1.3333333333333333 3.3333333333333335
13.600000000000001 1.3333333333333333 3.3333333333333335
14.4 1.3333333333333333 3.3333333333333335
15.200000000000001 1.3333333333333333 3.3333333333333335
16.0 1.3333333333333333 3.3333333333333335
0.0 1.6666666666666665 3.3333333333333335
0.8 1.6666666666666665 3.3333333333333335
1.6 1.6666666666666665 3.3333333333333335
2.4000000000000004 1.6666666666666665 3.3333333333333335
3.2 1.6666666666666665 3.3333333333333335
4.0 1.6666666666666665 3.3333333333333335
4.800000000000001 1.6666666666666665 3.3333333333333335
5.6000000000000005 1.6666666666666665 3.3333333333333335
6.4 1.6666666666666665 3.3333333333333335
7.2 1.6666666666666665 3.3333333333333335
8.0 1.6666666666666665 3.3333333333333335
8.8 1.6666666666666665 3.3333333333333335
9.600000000000001 1.6666666666666665 3.3333333333333335
10.4 1.6666666666666665 3.3333333333333335
11.200000000000001 1.6666666666666665 3.3333333333333335
12.0 1.6666666666666665 3.3333333333333335
12.8 1.6666666666666665 3.3333333333333335
13.600000000000001 1.6666666666666665 3.3333333333333335
14.4 1.6666666666666665 3.3333333333333335
15.200000000000001 1.6666666666666665 3.3333333333333335
16.0 1.6666666666666665 3.3333333333333335
0.0 2.0 3.3333333333333335
0.8 2.0 3.3333333333333335
1.6 2.0 3.3333333333333335
2.4000000000000004 2.0 3.3333333333333335
3.2 2.0 3.3333333333333335
4.0 2.0 3.3333333333333335
4.800000000000001 2.0 3.3333333333333335
5.6000000000000005 2.0 3.3333333333333335
6.4 2.0 3.3333333333333335
7.2 2.0 3.3333333333333335
8.0 2.0 3.3333333333333335
8.8 2.0 3.3333333333333335
9.600000000000001 2.0 3.3333333333333335
10.4 2.0 3.3333333333333335
11.200000000000001 2.0 3.3333333333333335
12.0 2.0 3.3333333333333335
12.8 2.0 3.3333333333333335
13.600000000000001 2.0 3.3333333333333335
14.4 2.0 3.3333333333333335
15.200000000000001 2.0 3.3333333333333335
16.0 2.0 3.3333333333333335
0.0 0.0 5.0
0.8 0.0 5.0
1.6 0.0 5.0
2.4000000000000004 0.0 5.0
3.2 0.0 5.0
4.0 0.0 5.0
4.800000000000001 0.0 5.0
5.6000000000000005 0.0 5.0
6.4 0.0 5.0
7.2 0.0 5.0
8.0 0.0 5.0
8.8 0.0 5.0
9.600000000000001 0.0 5.0
10.4 0.0 5.0
11.200000000000001 0.0 5.0
12.0 0.0 5.0
12.8 0.0 5.0
13.600000000000001 0.0 5.0
14.4 0.0 5.0
15.200000000000001 0.0 5.0
16.0 0.0 5.0
0.0 0.3333333333333333 5.0
0.8 0.3333333333333333 5.0
1.6 0.3333333333333333 5.0
2.4000000000000004 0.3333333333333333 5.0
3.2 0.3333333333333333 5.0
4.0 0.3333333333333333 5.0
4.800000000000001 0.3333333333333333 5.0
5.6000000000000005 0.3333333333333333 5.0
6.4 0.3333333333333333 5.0
7.2 0.3333333333333333 5.0
8.0 0.3333333333333333 5.0
8.8 0.3333333333333333 5.0
9.600000000000001 0.3333333333333333 5.0
10.4 0.3333333333333333 5.0
11.200000000000001 0.3333333333333333 5.0
12.0 0.3333333333333333 5.0
12.8 0.3333333333333333 5.0
13.600000000000001 0.3333333333333333 5.0
14.4 0.3333333333333333 5.0
15.200000000000001 0.3333333333333333 5.0
16.0 0.3333333333333333 5.0
0.0 0.6666666666666666 5.0
0.8 0.6666666666666666 5.0
1.6 0.6666666666666666 5.0
2.4000000000000004 0.6666666666666666 5.0
3.2 0.6666666666666666 5.0
4.0 0.6666666666666666 5.0
4.800000000000001 0.6666666666666666 5.0
5.6000000000000005 0.6666666666666666 5.0
6.4 0.6666666666666666 5.0
7.2 0.6666666666666666 5.0
8.0 0.6666666666666666 5.0
8.8 0.6666666666666666 5.0
9.600000000000001 0.6666666666666666 5.0
10.4 0.6666666666666666 5.0
11.200000000000001 0.6666666666666666 5.0
12.0 0.6666666666666666 5.0
12.8 0.6666666666666666 5.0
13.600000000000001 0.6666666666666666 5.0
14.4 0.6666666666666666 5.0
15.200000000000001 0.6666666666666666 5.0
16.0 0.6666666666666666 5.0
0.0 1.0 5.0
0.8 1.0 5.0
1.6 1.0 5.0
2.4000000000000004 1.0 5.0
3.2 1.0 5.0
4.0 1.0 5.0
4.800000000000001 1.0 5.0
5.6000000000000005 1.0 5.0
6.4 1.0 5.0
7.2 1.0 5.0
8.0 1.0 5.0
8.8 1.0 5.0
9.600000000000001 1.0 5.0
10.4 1.0 5.0
11.200000000000001 1.0 5.0
12.0 1.0 5.0
12.8 1.0 5.0
13.600000000000001 1.0 5.0
14.4 1.0 5.0
15.200000000000001 1.0 5.0
16.0 1.0 5.0
0.0 1.3333333333333333 5.0
0.8 1.3333333333333333 5.0
1.6 1.3333333333333333 5.0
2.4000000000000004 1.3333333333333333 5.0
3.2 1.3333333333333333 5.0
4.0 1.3333333333333333 5.0
4.800000000000001 1.3333333333333333 5.0
5.6000000000000005 1.3333333333333333 5.0
6.4 1.3333333333333333 5.0
7.2 1.3333333333333333 5.0
8.0 1.3333333333333333 5.0
8.8 1.3333333333333333 5.0
9.600000000000001 1.3333333333333333 5.0
10.4 1.3333333333333333 5.0
11.200000000000001 1.3333333333333333 5.0
12.0 1.3333333333333333 5.0
12.8 1.3333333333333333 5.0
13.600000000000001 1.3333333333333333 5.0
14.4 1.3333333333333333 5.0
15.200000000000001 1.3333333333333333 5.0
16.0 1.3333333333333333 5.0
0.0 1.6666666666666665 5.0
0.8 1.6666666666666665 5.0
1.6 1.6666666666666665 5.0
2.4000000000000004 1.6666666666666665 5.0
3.2 1.6666666666666665 5.0
4.0 1.6666666666666665 5.0
4.800000000000001 1.6666666666666665 5.0
5.6000000000000005 1.6666666666666665 5.0
6.4 1.6666666666666665 5.0
7.2 1.6666666666666665 5.0
8.0 1.6666666666666665 5.0
8.8 1.6666666666666665 5.0
9.600000000000001 1.6666666666666665 5.0
10.4 1.6666666666666665 5.0
11.200000000000001 1.6666666666666665 5.0
12.0 1.6666666666666665 5.0
12.8 1.6666666666666665 5.0
13.600000000000001 1.6666666666666665 5.0
14.4 1.6666666666666665 5.0
15.200000000000001 1.6666666666666665 5.0
16.0 1.6666666666666665 5.0
0.0 2.0 5.0
0.8 2.0 5.0
1.6 2.0 5.0
2.4000000000000004 2.0 5.0
3.2 2.0 5.0
4.0 2.0 5.0
4.800000000000001 2.0 5.0
5.6000000000000005 2.0 5.0
6.4 2.0 5.0
7.2 2.0 5.0
8.0 2.0 5.0
8.8 2.0 5.0
9.600000000000001 2.0 5.0
10.4 2.0 5.0
11.200000000000001 2.0 5.0
12.0 2.0 5.0
12.8 2.0 5.0
13.600000000000001 2.0 5.0
14.4 2.0 5.0
15.200000000000001 2.0 5.0
16.0 2.0 5.0
0.0 0.0 6.666666666666667
0.8 0.0 6.666666666666667
1.6 0.0 6.666666666666667
2.4000000000000004 0.0 6.666666666666667
3.2 0.0 6.666666666666667
4.0 0.0 6.666666666666667
4.800000000000001 0.0 6.666666666666667
5.6000000000000005 0.0 6.666666666666667
6.4 0.0 6.666666666666667
7.2 0.0 6.666666666666667
8.0 0.0 6.666666666666667
8.8 0.0 6.666666666666667
9.600000000000001 0.0 6.666666666666667
10.4 0.0 6.666666666666667
11.200000000000001 0.0 6.666666666666667
12.0 0.0 6.666666666666667
12.8 0.0 6.666666666666667
13.600000000000001 0.0 6.666666666666667
14.4 0.0 6.666666666666667
15.200000000000001 0.0 6.666666666666667
16.0 0.0 6.666666666666667
0.0 0.3333333333333333 6.666666666666667
0.8 0.3333333333333333 6.666666666666667
1.6 0.3333333333333333 6.666666666666667
2.4000000000000004 0.3333333333333333 6.666666666666667
3.2 0.3333333333333333 6.666666666666667
4.0 0.3333333333333333 6.666666666666667
4.800000000000001 0.3333333333333333 6.666666666666667
5.6000000000000005 0.3333333333333333 6.666666666666667
6.4 0.3333333333333333 6.666666666666667
7.2 0.3333333333333333 6.666666666666667
8.0 0.3333333333333333 6.666666666666667
8.8 0.3333333333333333 6.666666666666667
9.600000000000001 0.3333333333333333 6.666666666666667
10.4 0.3333333333333333 6.666666666666667
11.200000000000001 0.3333333333333333 6.666666666666667
12.0 0.3333333333333333 6.666666666666667
12.8 0.3333333333333333 6.666666666666667
13.600000000000001 0.3333333333333333 6.666666666666667
14.4 0.3333333333333333 6.666666666666667
15.200000000000001 0.3333333333333333 6.666666666666667
16.0 0.3333333333333333 6.666666666666667
0.0 0.6666666666666666 6.666666666666667
0.8 0.6666666666666666 6.666666666666667
1.6 0.6666666666666666 6.666666666666667
2.4000000000000004 0.6666666666666666 6.666666666666667
3.2 0.6666666666666666 6.666666666666667
4.0 0.6666666666666666 6.666666666666667
4.800000000000001 0.6666666666666666 6.666666666666667
5.6000000000000005 0.6666666666666666 6.666666666666667
6.4 0.6666666666666666 6.666666666666667
7.2 0.6666666666666666 6.666666666666667
8.0 0.6666666666666666 6.666666666666667
8.8 0.6666666666666666 6.666666666666667
9.600000000000001 0.6666666666666666 6.666666666666667
10.4 0.6666666666666666 6.666666666666667
11.200000000000001 0.6666666666666666 6.666666666666667
12.0 0.6666666666666666 6.666666666666667
12.8 0.6666666666666666 6.666666666666667
13.600000000000001 0.6666666666666666 6.666666666666667
14.4 0.6666666666666666 6.666666666666667
15.200000000000001 0.6666666666666666 6.666666666666667
16.0 0.6666666666666666 6.666666666666667
0.0 1.0 6.666666666666667
0.8 1.0 6.666666666666667
1.6 1.0 6.666666666666667
2.4000000000000004 1.0 6.666666666666667
3.2 1.0 6.666666666666667
4.0 1.0 6.666666666666667
4.800000000000001 1.0 6.666666666666667
5.6000000000000005 1.0 6.666666666666667
6.4 1.0 6.666666666666667
7.2 1.0 6.666666666666667
8.0 1.0 6.666666666666667
8.8 1.0 6.666666666666667
9.600000000000001 1.0 6.666666666666667
10.4 1.0 6.666666666666667
11.200000000000001 1.0 6.666666666666667
12.0 1.0 6.666666666666667
12.8 1.0 6.666666666666667
13.600000000000001 1.0 6.666666666666667
14.4 1.0 6.666666666666667
15.200000000000001 1.0 6.666666666666667
16.0 1.0 6.666666666666667
0.0 1.3333333333333333 6.666666666666667
0.8 1.3333333333333333 6.666666666666667
1.6 1.3333333333333333 6.666666666666667
2.4000000000000004 1.3333333333333333 6.666666666666667
3.2 1.3333333333333333 6.666666666666667
4.0 1.3333333333333333 6.666666666666667
4.800000000000001 1.3333333333333333 6.666666666666667
5.6000000000000005 1.3333333333333333 6.666666666666667
6.4 1.3333333333333333 6.666666666666667
7.2 1.3333333333333333 6.666666666666667
8.0 1.3333333333333333 6.666666666666667
8.8 1.3333333333333333 6.666666666666667
9.600000000000001 1.3333333333333333 6.666666666666667
10.4 1.3333333333333333 6.666666666666667
11.200000000000001 1.3333333333333333 6.666666666666667
12.0 1.3333333333333333 6.666666666666667
12.8 1.3333333333333333 6.666666666666667
13.600000000000001 1.3333333333333333 6.666666666666667
14.4 1.3333333333333333 6.666666666666667
15.200000000000001 1.3333333333333333 6.666666666666667
16.0 1.3333333333333333 6.666666666666667
0.0 1.6666666666666665 6.666666666666667
0.8 1.6666666666666665 6.666666666666667
1.6 1.6666666666666665 6.666666666666667
2.4000000000000004 1.6666666666666665 6.666666666666667
3.2 1.6666666666666665 6.666666666666667
4.0 1.6666666666666665 6.666666666666667
4.800000000000001 1.6666666666666665 6.666666666666667
5.6000000000000005 1.6666666666666665 6.666666666666667
6.4 1.6666666666666665 6.666666666666667
7.2 1.6666666666666665 6.666666666666667
8.0 1.6666666666666665 6.666666666666667
8.8 1.6666666666666665 6.666666666666667
9.600000000000001 1.6666666666666665 6.666666666666667
10.4 1.6666666666666665 6.666666666666667
11.200000000000001 1.6666666666666665 6.666666666666667
12.0 1.6666666666666665 6.666666666666667
12.8 1.6666666666666665 6.666666666666667
13.600000000000001 1.6666666666666665 6.666666666666667
14.4 1.6666666666666665 6.666666666666667
15.200000000000001 1.6666666666666665 6.666666666666667
16.0 1.6666666666666665 6.666666666666667
0.0 2.0 6.666666666666667
0.8 2.0 6.666666666666667
1.6 2.0 6.666666666666667
2.4000000000000004 2.0 6.666666666666667
3.2 2.0 6.666666666666667
4.0 2.0 6.666666666666667
4.800000000000001 2.0 6.666666666666667
5.6000000000000005 2.0 6.666666666666667
6.4 2.0 6.666666666666667
7.2 2.0 6.666666666666667
8.0 2.0 6.666666666666667
8.8 2.0 6.666666666666667
9.600000000000001 2.0 6.666666666666667
10.4 2.0 6.666666666666667
11.200000000000001 2.0 6.666666666666667
12.0 2.0 6.666666666666667
12.8 2.0 6.666666666666667
13.600000000000001 2.0 6.666666666666667
14.4 2.0 6.666666666666667
15.200000000000001 2.0 6.666666666666667
16.0 2.0 6.666666666666667
0.0 0.0 8.333333333333334
0.8 0.0 8.333333333333334
1.6 0.0 8.333333333333334
2.4000000000000004 0.0 8.333333333333334
3.2 0.0 8.333333333333334
4.0 0.0 8.333333333333334
4.800000000000001 0.0 8.333333333333334
5.6000000000000005 0.0 8.333333333333334
6.4 0.0 8.333333333333334
7.2 0.0 8.333333333333334
8.0 0.0 8.333333333333334
8.8 0.0 8.333333333333334
9.600000000000001 0.0 8.333333333333334
10.4 0.0 8.333333333333334
11.200000000000001 0.0 8.333333333333334
12.0 0.0 8.333333333333334
12.8 0.0 8.333333333333334
13.600000000000001 0.0 8.333333333333334
14.4 0.0 8.333333333333334
15.200000000000001 0.0 8.333333333333334
16.0 0.0 8.333333333333334
0.0 0.3333333333333333 8.333333333333334
0.8 0.3333333333333333 8.333333333333334
1.6 0.3333333333333333 8.333333333333334
2.4000000000000004 0.3333333333333333 8.333333333333334
3.2 0.3333333333333333 8.333333333333334
4.0 0.3333333333333333 8.333333333333334
4.800000000000001 0.3333333333333333 8.333333333333334
5.6000000000000005 0.3333333333333333 8.333333333333334
6.4 0.3333333333333333 8.333333333333334
7.2 0.3333333333333333 8.333333333333334
8.0 0.3333333333333333 8.333333333333334
8.8 0.3333333333333333 8.333333333333334
9.600000000000001 0.3333333333333333 8.333333333333334
10.4 0.3333333333333333 8.333333333333334
11.200000000000001 0.3333333333333333 8.333333333333334
12.0 0.3333333333333333 8.333333333333334
12.8 0.3333333333333333 8.333333333333334
13.600000000000001 0.3333333333333333 8.333333333333334
14.4 0.3333333333333333 8.333333333333334
15.200000000000001 0.3333333333333333 8.333333333333334
16.0 0.3333333333333333 8.333333333333334
0.0 0.6666666666666666 8.333333333333334
0.8 0.6666666666666666 8.333333333333334
1.6 0.6666666666666666 8.333333333333334
2.4000000000000004 0.6666666666666666 8.333333333333334
3.2 0.6666666666666666 8.333333333333334
4.0 0.6666666666666666 8.333333333333334
4.800000000000001 0.6666666666666666 8.333333333333334
5.6000000000000005 0.6666666666666666 8.333333333333334
6.4 0.6666666666666666 8.333333333333334
7.2 0.6666666666666666 8.333333333333334
8.0 0.6666666666666666 8.333333333333334
8.8 0.6666666666666666 8.333333333333334
9.600000000000001 0.6666666666666666 8.333333333333334
10.4 0.6666666666666666 8.333333333333334
11.200000000000001 0.6666666666666666 8.333333333333334
12.0 0.6666666666666666 8.333333333333334
12.8 0.6666666666666666 8.333333333333334
13.600000000000001 0.6666666666666666 8.333333333333334
14.4 0.6666666666666666 8.333333333333334
15.200000000000001 0.6666666666666666 8.333333333333334
16.0 0.6666666666666666 8.333333333333334
0.0 1.0 8.333333333333334
0.8 1.0 8.333333333333334
1.6 1.0 8.333333333333334
2.4000000000000004 1.0 8.333333333333334
3.2 1.0 8.333333333333334
4.0 1.0 8.333333333333334
4.800000000000001 1.0 8.333333333333334
5.6000000000000005 1.0 8.333333333333334
6.4 1.0 8.333333333333334
7.2 1.0 8.333333333333334
8.0 1.0 8.333333333333334
8.8 1.0 8.333333333333334
9.600000000000001 1.0 8.333333333333334
10.4 1.0 8.333333333333334
11.200000000000001 1.0 8.333333333333334
12.0 1.0 8.333333333333334
12.8 1.0 8.333333333333334
13.600000000000001 1.0 8.333333333333334
14.4 1.0 8.333333333333334
15.200000000000001 1.0 8.333333333333334
16.0 1.0 8.333333333333334
0.0 1.3333333333333333 8.333333333333334
0.8 1.3333333333333333 8.333333333333334
1.6 1.3333333333333333 8.333333333333334
2.4000000000000004 1.3333333333333333 8.333333333333334
3.2 1.3333333333333333 8.333333333333334
4.0 1.3333333333333333 8.333333333333334
4.800000000000001 1.3333333333333333 8.333333333333334
5.6000000000000005 1.3333333333333333 8.333333333333334
6.4 1.3333333333333333 8.333333333333334
7.2 1.3333333333333333 8.333333333333334
8.0 1.3333333333333333 8.333333333333334
8.8 1.3333333333333333 8.333333333333334
9.600000000000001 1.3333333333333333 8.333333333333334
10.4 1.3333333333333333 8.333333333333334
11.200000000000001 1.3333333333333333 8.333333333333334
12.0 1.3333333333333333 8.333333333333334
12.8 1.3333333333333333 8.333333333333334
13.600000000000001 1.3333333333333333 8.333333333333334
14.4 1.3333333333333333 8.333333333333334
15.200000000000001 1.3333333333333333 8.333333333333334
16.0 1.3333333333333333 8.333333333333334
0.0 1.6666666666666665 8.333333333333334
0.8 1.6666666666666665 8.333333333333334
1.6 1.6666666666666665 8.333333333333334
2.4000000000000004 1.6666666666666665 8.333333333333334
3.2 1.6666666666666665 8.333333333333334
4.0 1.6666666666666665 8.333333333333334
4.800000000000001 1.6666666666666665 8.333333333333334
5.6000000000000005 1.6666666666666665 8.333333333333334
6.4 1.6666666666666665 8.333333333333334
7.2 1.6666666666666665 8.333333333333334
8.0 1.6666666666666665 8.333333333333334
8.8 1.6666666666666665 8.333333333333334
9.600000000000001 1.6666666666666665 8.333333333333334
10.4 1.6666666666666665 8.333333333333334
11.200000000000001 1.6666666666666665 8.333333333333334
12.0 1.6666666666666665 8.333333333333334
12.8 1.6666666666666665 8.333333333333334
13.600000000000001 1.6666666666666665 8.333333333333334
14.4 1.6666666666666665 8.333333333333334
15.200000000000001 1.6666666666666665 8.333333333333334
16.0 1.6666666666666665 8.333333333333334
0.0 2.0 8.333333333333334
0.8 2.0 8.333333333333334
1.6 2.0 8.333333333333334
2.4000000000000004 2.0 8.333333333333334
3.2 2.0 8.333333333333334
4.0 2.0 8.333333333333334
4.800000000000001 2.0 8.333333333333334
5.6000000000000005 2.0 8.333333333333334
6.4 2.0 8.333333333333334
7.2 2.0 8.333333333333334
8.0 2.0 8.333333333333334
8.8 2.0 8.333333333333334
9.600000000000001 2.0 8.333333333333334
10.4 2.0 8.333333333333334
11.200000000000001 2.0 8.333333333333334
12.0 2.0 8.333333333333334
12.8 2.0 8.333333333333334
13.600000000000001 2.0 8.333333333333334
14.4 2.0 8.333333333333334
15.200000000000001 2.0 8.333333333333334
16.0 2.0 8.333333333333334
0.0 0.0 10.0
0.8 0.0 10.0
1.6 0.0 10.0
2.4000000000000004 0.0 10.0
3.2 0.0 10.0
4.0 0.0 10.0
4.800000000000001 0.0 10.0
5.6000000000000005 0.0 10.0
6.4 0.0 10.0
7.2 0.0 10.0
8.0 0.0 10.0
8.8 0.0 10.0
9.600000000000001 0.0 10.0
10.4 0.0 10.0
11.200000000000001 0.0 10.0
12.0 0.0 10.0
12.8 0.0 10.0
13.600000000000001 0.0 10.0
14.4 0.0 10.0
15.200000000000001 0.0 10.0
16.0 0.0 10.0
0.0 0.3333333333333333 10.0
0.8 0.3333333333333333 10.0
1.6 0.3333333333333333 10.0
2.4000000000000004 0.3333333333333333 10.0
3.2 0.3333333333333333 10.0
4.0 0.3333333333333333 10.0
4.800000000000001 0.3333333333333333 10.0
5.6000000000000005 0.3333333333333333 10.0
6.4 0.3333333333333333 10.0
7.2 0.3333333333333333 10.0
8.0 0.3333333333333333 10.0
8.8 0.3333333333333333 10.0
9.600000000000001 0.3333333333333333 10.0
10.4 0.3333333333333333 10.0
11.200000000000001 0.3333333333333333 10.0
12.0 0.3333333333333333 10.0
12.8 0.3333333333333333 10.0
13.600000000000001 0.3333333333333333 10.0
14.4 0.3333333333333333 10.0
15.200000000000001 0.3333333333333333 10.0
16.0 0.3333333333333333 10.0
0.0 0.6666666666666666 10.0
0.8 0.6666666666666666 10.0
1.6 0.6666666666666666 10.0
2.4000000000000004 0.6666666666666666 10.0
3.2 0.6666666666666666 10.0
4.0 0.6666666666666666 10.0
4.800000000000001 0.6666666666666666 10.0
5.6000000000000005 0.6666666666666666 10.0
6.4 0.6666666666666666 10.0
7.2 0.6666666666666666 10.0
8.0 0.6666666666666666 10.0
8.8 0.6666666666666666 10.0
9.600000000000001 0.6666666666666666 10.0
10.4 0.6666666666666666 10.0
11.200000000000001 0.6666666666666666 10.0
12.0 0.6666666666666666 10.0
12.8 0.6666666666666666 10.0
13.600000000000001 0.6666666666666666 10.0
14.4 0.6666666666666666 10.0
15.200000000000001 0.6666666666666666 10.0
16.0 0.6666666666666666 10.0
0.0 1.0 10.0
0.8 1.0 10.0
1.6 1.0 10.0
2.4000000000000004 1.0 10.0
3.2 1.0 10.0
4.0 1.0 10.0
4.800000000000001 1.0 10.0
5.6000000000000005 1.0 10.0
6.4 1.0 10.0
7.2 1.0 10.0
8.0 1.0 10.0
8.8 1.0 10.0
9.600000000000001 1.0 10.0
10.4 1.0 10.0
11.200000000000001 1.0 10.0
12.0 1.0 10.0
12.8 1.0 10.0
13.600000000000001 1.0 10.0
14.4 1.0 10.0
15.200000000000001 1.0 10.0
16.0 1.0 10.0
0.0 1.3333333333333333 10.0
0.8 1.3333333333333333 10.0
1.6 1.3333333333333333 10.0
2.4000000000000004 1.3333333333333333 10.0
3.2 1.3333333333333333 10.0
4.0 1.3333333333333333 10.0
4.800000000000001 1.3333333333333333 10.0
5.6000000000000005 1.3333333333333333 10.0
6.4 1.3333333333333333 10.0
7.2 1.3333333333333333 10.0
8.0 1.3333333333333333 10.0
8.8 1.3333333333333333 10.0
9.600000000000001 1.3333333333333333 10.0
10.4 1.3333333333333333 10.0
11.200000000000001 1.3333333333333333 10.0
12.0 1.3333333333333333 10.0
12.8 1.3333333333333333 10.0
13.600000000000001 1.3333333333333333 10.0
14.4 1.3333333333333333 10.0
15.200000000000001 1.3333333333333333 10.0
16.0 1.3333333333333333 10.0
0.0 1.6666666666666665 10.0
0.8 1.6666666666666665 10.0
1.6 1.6666666666666665 10.0
2.4000000000000004 1.6666666666666665 10.0
3.2 1.6666666666666665 10.0
4.0 1.6666666666666665 10.0
4.800000000000001 1.6666666666666665 10.0
5.6000000000000005 1.6666666666666665 10.0
6.4 1.6666666666666665 10.0
7.2 1.6666666666666665 10.0
8.0 1.6666666666666665 10.0
8.8 1.6666666666666665 10.0
9.600000000000001 1.6666666666666665 10.0
10.4 1.6666666666666665 10.0
11.200000000000001 1.6666666666666665 10.0
12.0 1.6666666666666665 10.0
12.8 1.6666666666666665 10.0
13.600000000000001 1.6666666666666665 10.0
14.4 1.6666666666666665 10.0
15.200000000000001 1.6666666666666665 10.0
16.0 1.6666666666666665 10.0
0.0 2.0 10.0
0.8 2.0 10.0
1.6 2.0 10.0
2.4000000000000004 2.0 10.0
3.2 2.0 10.0
4.0 2.0 10.0
4.800000000000001 2.0 10.0
5.6000000000000005 2.0 10.0
6.4 2.0 10.0
7.2 2.0 10.0
8.0 2.0 10.0
8.8 2.0 10.0
9.600000000000001 2.0 10.0
10.4 2.0 10.0
11.200000000000001 2.0 10.0
12.0 2.0 10.0
12.8 2.0 10.0
13.600000000000001 2.0 10.0
14.4 2.0 10.0
15.200000000000001 2.0 10.0
16.0 2.0 10.0
CELLS 720 6480
8 0 1 22 21 147 148 169 168
8 1 2 23 22 148 149 170 169
8 2 3 24 23 149 150 171 170
8 3 4 25 24 150 151 172 171
8 4 5 26 25 151 152 173 172
8 5 6 27 26 152 153 174 173
8 6 7 28 27 153 154 175 174
8 7 8 29 28 154 155 176 175
8 8 9 30 29 155 156 177 176
8 9 10 31 30 156 157 178 177
8 10 11 32 31 157 158 179 178
8 11 12 33 32 158 159 180 179
8 12 13 34 33 159 160 181 180
8 13 14 35 34 160 161 182 181
8 14 15 36 35 161 162 183 182
8 15 16 37 36 162 163 184 183
8 16 17 38 37 163 164 185 184
8 17 18 39 38 164 165 186 185
8 18 19 40 39 165 166 187 186
8 19 20 41 40 166 167 188 187
8 21 22 43 42 168 169 190 189
8 22 23 44 43 169 170 191 190
8 23 24 45 44 170 171 192 191
8 24 25 46 45 171 172 193 192
8 25 26 47 46 172 173 194 193
8 26 27 48 47 173 174 195 194
8 27 28 49 48 174 175 196 195
8 28 29 50 49 175 176 197 196
8 29 30 51 50 176 177 198 197
8 30 31 52 51 177 178 199 198
8 31 32 53 52 178 179 200 199
8 32 33 54 53 179 180 201 200
8 33 34 55 54 180 181 202 201
8 34 35 56 55 181 182 203 202
8 35 36 57 56 182 183 204 203
8 36 37 58 57 183 184 205 204
8 37 38 59 58 184 185 206 205
8 38 39 60 59 185 186 207 206
8 39 40 61 60 186 187 208 207
8 40 41 62 61 187 188 209 208
8 42 43 64 63 189 190 211 210
8 43 44 65 64 190 191 212 211
8 44 45 66 65 191 192 213 212
8 45 46 67 66 192 193 214 213
8 46 47 68 67 193 194 215 214
8 47 48 69 68 194 195 216 215
8 48 49 70 69 195 196 217 216
8 49 50 71 70 196 197 218 217
8 50 51 72 71 197 198 219 218
8 51 52 73 72 198 199 220 219
8 52 53 74 73 199 200 221 220
8 53 54 75 74 200 201 222 221
8 54 55 76 75 201 202 223 222
8 55 56 77 76 202 203 224 223
8 56 57 78 77 203 204 225 224
8 57 58 79 78 204 205 226 225
8 58 59 80 79 205 206 227 226
8 59 60 81 80 206 207 228 227
8 60 61 82 81 207 208 229 228
8 61 62 83 82 208 209 230 229
8 63 64 85 84 210 211 232 231
8 64 65 86 85 211 212 233 232
8 65 66 87 86 212 213 234 233
8 66 67 88 87 213 214 235 234
8 67 68 89 88 214 215 236 235
8 68 69 90 89 215 216 237 236
8 69 70 91 90 216 217 238 237
8 70 71 92 91 217 218 239 238
8 71 72 93 92 218 219 240 239
8 72 73 94 93 219 220 241 240
8 73 74 95 94 220 221 242 241
8 74 75 96 95 221 222 243 242
8 75 76 97 96 222 223 244 243
8 76 77 98 97 223 224 245 244
8 77 78 99 98 224 225 246 245
8 78 79 100 99 225 226 247 246
8 79 80 101 100 226 227 248 247
8 80 81 102 101 227 228 249 248
8 81 82 103 102 228 229 250 249
8 82 83 104 103 229 230 251 250
8 84 85 106 105 231 232 253 252
8 85 86 107 106 232 233 254 253
8 86 87 108 107 233 234 255 254
8 87 88 109 108 234 235 256 255
8 88 89 110 109 235 236 257 256
8 89 90 111 110 236 237 258 257
8 90 91 112 111 237 238 259 258
8 91 92 113 112 238 239 260 259
8 92 93 114 113 239 240 261 260
8 93 94 115 114 240 241 262 261
8 94 95 116 115 241 242 263 262
8 95 96 117 116 242 243 264 263
8 96 97 118 117 243 244 265 264
8 97 98 119 118 244 245 266 265
8 98 99 120 119 245 246 267 266
8 99 100 121 120 246 247 268 267
8 100 101 122 121 247 248 269 268
8 101 102 123 122 248 249 270 269
8 102 103 124 123 249 250 271 270
8 103 104 125 124 250 251 272 271
8 105 106 127 126 252 253 274 273
8 106 107 128 127 253 254 275 274
8 107 108 129 128 254 255 276 275
8 108 109 130 129 255 256 277 276
8 109 110 131 130 256 257 278 277
8 110 111 132 131 257 258 279 278
8 111 112 133 132 258 259 280 279
8 112 113 134 133 259 260 281 280
8 113 114 135 134 260 261 282 281
8 114 115 136 135 261 262 283 282
8 115 116 137 136 262 263 284 283
8 116 117 138 137 263 264 285 284
8 117 118 139 138 264 265 286 285
8 118 119 140 139 265 266 287 286
8 119 120 141 140 266 267 288 287
8 120 121 142 141 267 268 289 288
8 121 122 143 142 268 269 290 289
8 122 123 144 143 269 270 291 290
8 123 124 145 144 270 271 292 291
8 124 125 146 145 271 272 293 292
8 147 148 169 168 294 295 316 315
8 148 149 170 169 295 296 317 316
8 149 150 171 170 296 297 318 317
8 150 151 172 171 297 298 319 318
8 151 152 173 172 298 299 320 319
8 152 153 174 173 299 300 321 320
8 153 154 175 174 300 301 322 321
8 154 155 176 175 301 302 323 322
8 155 156 177 176 302 303 324 323
8 156 157 178 177 303 304 325 324
8 157 158 179 178 304 305 326 325
8 158 159 180 179 305 306 327 326
8 159 160 181 180 306 307 328 327
8 160 161 182 181 307 308 329 328
8 161 162 183 182 308 309 330 329
8 162 163 184 183 309 310 331 330
8 163 164 185 184 310 311 332 331
8 164 165 186 185 311 312 333 332
8 165 166 187 186 312 313 334 333
8 166 167 188 187 313 314 335 334
8 168 169 190 189 315 316 337 336
8 169 170 191 190 316 317 338 337
8 170 171 192 191 317 318 339 338
8 171 172 193 192 318 319 340 339
8 172 173 194 193 319 320 341 340
8 173 174 195 194 320 321 342 341
8 174 175 196 195 321 322 343 342
8 175 176 197 196 322 323 344 343
8 176 177 198 197 323 324 345 344
8 177 178 199 198 324 325 346 345
8 178 179 200 199 325 326 347 346
8 179 180 201 200 326 327 348 347
8 180 181 202 201 327 328 349 348
8 181 182 203 202 328 329 350 349
8 182 183 204 203 329 330 351 350
8 183 184 205 204 330 331 352 351
8 184 185 206 205 331 332 353 352
8 185 186 207 206 332 333 354 353
8 186 187 208 207 333 334 355 354
8 187 188 209 208 334 335 356 355
8 189 190 211 210 336 337 358 357
8 190 191 212 211 337 338 359 358
8 191 192 213 212 338 339 360 359
8 192 193 214 213 339 340 361 360
8 193 194 215 214 340 341 362 361
8 194 195 216 215 341 342 363 362
8 195 196 217 216 342 343 364 363
8 196 197 218 217 343 344 365 364
8 197 198 219 218 344 345 366 365
8 198 199 220 219 345 346 367 366
8 199 200 221 220 346 347 368 367
8 200 201 222 221 347 348 369 368
8 201 202 223 222 348 349 370 369
8 202 203 224 223 349 350 371 370
8 203 204 225 224 350 351 372 371
8 204 205 226 225 351 352 373 372
8 205 206 227 226 352 353 374 373
8 206 207 228 227 353 354 375 374
8 207 208 229 228 354 355 376 375
8 208 209 230 229 355 356 377 376
8 210 211 232 231 357 358 379 378
8 211 212 233 232 358 359 380 379
8 212 213 234 233 359 360 381 380
8 213 214 235 234 360 361 382 381
8 214 215 236 235 361 362 383 382
8 215 216 237 236 362 363 384 383
8 216 217 238 237 363 364 385 384
8 217 218 239 238 364 365 386 385
8 218 219 240 239 365 366 387 386
8 219 220 241 240 366 367 388 387
8 220 221 242 241 367 368 389 388
8 221 222 243 242 368 369 390 389
8 222 223 244 243 369 370 391 390
8 223 224 245 244 370 371 392 391
8 224 225 246 245 371 372 393 392
8 225 226 247 246 372 373 394 393
8 226 227 248 247 373 374 395 394
8 227 228 249 248 374 375 396 395
8 228 229 250 249 375 376 397 396
8 229 230 251 250 376 377 398 397
8 231 232 253 252 378 379 400 399
8 232 233 254 253 379 380 401 400
8 233 234 255 254 380 381 402 401
8 234 235 256 255 381 382 403 402
8 235 236 257 256 382 383 404 403
8 236 237 258 257 383 384 405 404
8 237 238 259 258 384 385 406 405
8 238 239 260 259 385 386 407 406
8 239 240 261 260 386 387 408 407
8 240 241 262 261 387 388 409 408
8 241 242 263 262 388 389 410 409
8 242 243 264 263 389 390 411 410
8 243 244 265 264 390 391 412 411
8 244 245 266 265 391 392 413 412
8 245 246 267 266 392 393 414 413
8 246 247 268 267 393 394 415 414
8 247 248 269 268 394 395 416 415
8 248 249 270 269 395 396 417 416
8 249 250 271 270 396 397 418 417
8 250 251 272 271 397 398 419 418
8 252 253 274 273 399 400 421 420
8 253 254 275 274 400 401 422 421
8 254 255 276 275 401 402 423 422
8 255 256 277 276 402 403 424 423
8 256 257 278 277 403 404 425 424
8 257 258 279 278 404 405 426 425
8 258 259 280 279 405 406 427 426
8 259 260 281 280 406 407 428 427
8 260 261 282 281 407 408 429 428
8 261 262 283 282 408 409 430 429
8 262 263 284 283 409 410 431 430
8 263 264 285 284 410 411 432 431
8 264 265 286 285 411 412 433 432
8 265 266 287 286 412 413 434 433
8 266 267 288 287 413 414 435 434
8 267 268 289 288 414 415 436 435
8 268 269 290 289 415 416 437 436
8 269 270 291 290 416 417 438 437
8 270 271 292 291 417 418 439 438
8 271 272 293 292 418 419 440 439
8 294 295 316 315 441 442 463 462
8 295 296 317 316 442 443 464 463
8 296 297 318 317 443 444 465 464
8 297 298 319 318 444 445 466 465
8 298 299 320 319 445 446 467 466
8 299 300 321 320 446 447 468 467
8 300 301 322 321 447 448 469 468
8 301 302 323 322 448 449 470 469
8 302 303 324 323 449 450 471 470
8 303 304 325 324 450 451 472 471
8 304 305 326 325 451 452 473 472
8 305 306 327 326 452 453 474 473
8 306 307 328 327 453 454 475 474
8 307 308 329 328 454 455 476 475
8 308 309 330 329 455 456 477 476
8 309 310 331 330 456 457 478 477
8 310 311 332 331 457 458 479 478
8 311 312 333 332 458 459 480 479
8 312 313 334 333 459 460 481 480
8 313 314 335 334 460 461 482 481
8 315 316 337 336 462 463 484 483
8 316 317 338 337 463 464 485 484
8 317 318 339 338 464 465 486 485
8 318 319 340 339 465 466 487 486
8 319 320 341 340 466 467 488 487
8 320 321 342 341 467 468 489 488
8 321 322 343 342 468 469 490 489
8 322 323 344 343 469 470 491 490
8 323 324 345 344 470 471 492 491
8 324 325 346 345 471 472 493 492
8 325 326 347 346 472 473 494 493
8 326 327 348 347 473 474 495 494
8 327 328 349 348 474 475 496 495
8 328 329 350 349 475 476 497 496
8 329 330 351 350 476 477 498 497
8 330 331 352 351 477 478 499 498
8 331 332 353 352 478 479 500 499
8 332 333 354 353 479 480 501 500
8 333 334 355 354 480 481 502 501
8 334 335 356 355 481 482 503 502
8 336 337 358 357 483 484 505 504
8 337 338 359 358 484 485 506 505
8 338 339 360 359 485 486 507 506
8 339 340 361 360 486 487 508 507
8 340 341 362 361 487 488 509 508
8 341 342 363 362 488 489 510 509
8 342 343 364 363 489 490 511 510
8 343 344 365 364 490 491 512 511
8 344 345 366 365 491 492 513 512
8 345 346 367 366 492 493 514 513
8 346 347 368 367 493 494 515 514
8 347 348 369 368 494 495 516 515
8 348 349 370 369 495 496 517 516
8 349 350 371 370 496 497 518 517
8 350 351 372 371 497 498 519 518
8 351 352 373 372 498 499 520 519
8 352 353 374 373 499 500 521 520
8 353 354 375 374 500 501 522 521
8 354 355 376 375 501 502 523 522
8 355 356 377 376 502 503 524 523
8 357 358 379 378 504 505 526 525
8 358 359 380 379 505 506 527 526
8 359 360 381 380 506 507 528 527
8 360 361 382 381 507 508 529 528
8 361 362 383 382 508 509 530 529
8 362 363 384 383 509 510 531 530
8 363 364 385 384 510 511 532 531
8 364 365 386 385 511 512 533 532
8 365 366 387 386 512 513 534 533
8 366 367 388 387 513 514 535 534
8 367 368 389 388 514 515 536 535
8 368 369 390 389 515 516 537 536
8 369 370 391 390 516 517 538 537
8 370 371 392 391 517 518 539 538
8 371 372 393 392 518 519 540 539
8 372 373 394 393 519 520 541 540
8 373 374 395 394 520 521 542 541
8 374 375 396 395 521 522 543 542
8 375 376 397 396 522 523 544 543
8 376 377 398 397 523 524 545 544
8 378 379 400 399 525 526 547 546
8 379 380 401 400 526 527 548 547
8 380 381 402 401 527 528 549 548
8 381 382 403 402 528 529 550 549
8 382 383 404 403 529 530 551 550
8 383 384 405 404 530 531 552 551
8 384 385 406 405 531 532 553 552
8 385 386 407 406 532 533 554 553
8 386 387 408 407 533 534 555 554
8 387 388 409 408 534 535 556 555
8 388 389 410 409 535 536 557 556
8 389 390 411 410 536 537 558 557
8 390 391 412 411 537 538 559 558
8 391 392 413 412 538 539 560 559
8 392 393 414 413 539 540 561 560
8 393 394 415 414 540 541 562 561
8 394 395 416 415 541 542 563 562
8 395 396 417 416 542 543 564 563
8 396 397 418 417 543 544 565 564
8 397 398 419 418 544 545 566 565
8 399 400 421 420 546 547 568 567
8 400 401 422 421 547 548 569 568
8 401 402 423 422 548 549 570 569
8 402 403 424 423 549 550 571 570
8 403 404 425 424 550 551 572 571
8 404 405 426 425 551 552 573 572
8 405 406 427 426 552 553 574 573
8 406 407 428 427 553 554 575 574
8 407 408 429 428 554 555 576 575
8 408 409 430 429 555 556 577 576
8 409 410 431 430 556 557 578 577
8 410 411 432 431 557 558 579 578
8 411 412 433 432 558 559 580 579
8 412 413 434 433 559 560 581 580
8 413 414 435 434 560 561 582 581
8 414 415 436 435 561 562 583 582
8 415 416 437 436 562 563 584 583
8 416 417 438 437 563 564 585 584
8 417 418 439 438 564 565 586 585
8 418 419 440 439 565 566 587 586
8 441 442 463 462 588 589 610 609
8 442 443 464 463 589 590 611 610
8 443 444 465 464 590 591 612 611
8 444 445 466 465 591 592 613 612
8 445 446 467 466 592 593 614 613
8 446 447 468 467 593 594 615 614
8 447 448 469 468 594 595 616 615
8 448 449 470 469 595 596 617 616
8 449 450 471 470 596 597 618 617
8 450 451 472 471 597 598 619 618
8 451 452 473 472 598 599 620 619
8 452 453 474 473 599 600 621 620
8 453 454 475 474 600 601 622 621
8 454 455 476 475 601 602 623 622
8 455 456 477 476 602 603 624 623
8 456 457 478 477 603 604 625 624
8 457 458 479 478 604 605 626 625
8 458 459 480 479 605 606 627 626
8 459 460 481 480 606 607 628 627
8 460 461 482 481 607 608 629 628
8 462 463 484 483 609 610 631 630
8 463 464 485 484 610 611 632 631
8 464 465 486 485 611 612 633 632
8 465 466 487 486 612 613 634 633
8 466 467 488 487 613 614 635 634
8 467 468 489 488 614 615 636 635
8 468 469 490 489 615 616 637 636
8 469 470 491 490 616 617 638 637
8 470 471 492 491 617 618 639 638
8 471 472 493 492 618 619 640 639
8 472 473 494 493 619 620 641 640
8 473 474 495 494 620 621 642 641
8 474 475 496 495 621 622 643 642
8 475 476 497 496 622 623 644 643
8 476 477 498 497 623 624 645 644
8 477 478 499 498 624 625 646 645
8 478 479 500 499 625 626 647 646
8 479 480 501 500 626 627 648 647
8 480 481 502 501 627 628 649 648
8 481 482 503 502 628 629 650 649
8 483 484 505 504 630 631 652 651
8 484 485 506 505 631 632 653 652
8 485 486 507 506 632 633 654 653
8 486 487 508 507 633 634 655 654
8 487 488 509 508 634 635 656 655
8 488 489 510 509 635 636 657 656
8 489 490 511 510 636 637 658 657
8 490 491 512 511 637 638 659 658
8 491 492 513 512 638 639 660 659
8 492 493 514 513 639 640 661 660
8 493 494 515 514 640 641 662 661
8 494 495 516 515 641 642 663 662
8 495 496 517 516 642 643 664 663
8 496 497 518 517 643 644 665 664
8 497 498 519 518 644 645 666 665
8 498 499 520 519 645 646 667 666
8 499 500 521 520 646 647 668 667
8 500 501 522 521 647 648 669 668
8 501 502 523 522 648 649 670 669
8 502 503 524 523 649 650 671 670
8 504 505 526 525 651 652 673 672
8 505 506 527 526 652 653 674 673
8 506 507 528 527 653 654 675 674
8 507 508 529 528 654 655 676 675
8 508 509 530 529 655 656 677 676
8 509 510 531 530 656 657 678 677
8 510 511 532 531 657 658 679 678
8 511 512 533 532 658 659 680 679
8 512 513 534 533 659 660 681 680
8 513 514 535 534 660 661 682 681
8 514 515 536 535 661 662 683 682
8 515 516 537 536 662 663 684 683
8 516 517 538 537 663 664 685 684
8 517 518 539 538 664 665 686 685
8 518 519 540 539 665 666 687 686
8 519 520 541 540 666 667 688 687
8 520 521 542 541 667 668 689 688
8 521 522 543 542 668 669 690 689
8 522 523 544 543 669 670 691 690
8 523 524 545 544 670 671 692 691
8 525 526 547 546 672 673 694 693
8 526 527 548 547 673 674 695 694
8 527 528 549 548 674 675 696 695
8 528 529 550 549 675 676 697 696
8 529 530 551 550 676 677 698 697
8 530 531 552 551 677 678 699 698
8 531 532 553 552 678 679 700 699
8 532 533 554 553 679 680 701 700
8 533 534 555 554 680 681 702 701
8 534 535 556 555 681 682 703 702
8 535 536 557 556 682 683 704 703
8 536 537 558 557 683 684 705 704
8 537 538 559 558 684 685 706 705
8 538 539 560 559 685 686 707 706
8 539 540 561 560 686 687 708 707
8 540 541 562 561 687 688 709 708
8 541 542 563 562 688 689 710 709
8 542 543 564 563 689 690 711 710
8 543 544 565 564 690 691 712 711
8 544 545 566 565 691 692 713 712
8 546 547 568 567 693 694 715 714
8 547 548 569 568 694 695 716 715
8 548 549 570 569 695 696 717 716
8 549 550 571 570 696 697 718 717
8 550 551 572 571 697 698 719 718
8 551 552 573 572 698 699 720 719
8 552 553 574 573 699 700 721 720
8 553 554 575 574 700 701 722 721
8 554 555 576 575 701 702 723 722
8 555 556 577 576 702 703 724 723
8 556 557 578 577 703 704 725 724
8 557 558 579 578 704 705 726 725
8 558 559 580 579 705 706 727 726
8 559 560 581 580 706 707 728 727
8 560 561 582 581 707 708 729 728
8 561 562 583 582 708 709 730 729
8 562 563 584 583 709 710 731 730
8 563 564 585 584 710 711 732 731
8 564 565 586 585 711 712 733 732
8 565 566 587 586 712 713 734 733
8 588 589 610 609 735 736 757 756
8 589 590 611 610 736 737 758 757
8 590 591 612 611 737 738 759 758
8 591 592 613 612 738 739 760 759
8 592 593 614 613 739 740 761 760
8 593 594 615 614 740 741 762 761
8 594 595 616 615 741 742 763 762
8 595 596 617 616 742 743 764 763
8 596 597 618 617 743 744 765 764
8 597 598 619 618 744 745 766 765
8 598 599 620 619 745 746 767 766
8 599 600 621 620 746 747 768 767
8 600 601 622 621 747 748 769 768
8 601 602 623 622 748 749 770 769
8 602 603 624 623 749 750 771 770
8 603 604 625 624 750 751 772 771
8 604 605 626 625 751 752 773 772
8 605 606 627 626 752 753 774 773
8 606 607 628 627 753 754 775 774
8 607 608 629 628 754 755 776 775
8 609 610 631 630 756 757 778 777
8 610 611 632 631 757 758 779 778
8 611 612 633 632 758 759 780 779
8 612 613 634 633 759 760 781 780
8 613 614 635 634 760 761 782 781
8 614 615 636 635 761 762 783 782
8 615 616 637 636 762 763 784 783
8 616 617 638 637 763 764 785 784
8 617 618 639 638 764 765 786 785
8 618 619 640 639 765 766 787 786
8 619 620 641 640 766 767 788 787
8 620 621 642 641 767 768 789 788
8 621 622 643 642 768 769 790 789
8 622 623 644 643 769 770 791 790
8 623 624 645 644 770 771 792 791
8 624 625 646 645 771 772 793 792
8 625 626 647 646 772 773 794 793
8 626 627 648 647 773 774 795 794
8 627 628 649 648 774 775 796 795
8 628 629 650 649 775 776 797 796
8 630 631 652 651 777 778 799 798
8 631 632 653 652 778 779 800 799
8 632 633 654 653 779 780 801 800
8 633 634 655 654 780 781 802 801
8 634 635 656 655 781 782 803 802
8 635 636 657 656 782 783 804 803
8 636 637 658 657 783 784 805 804
8 637 638 659 658 784 785 806 805
8 638 639 660 659 785 786 807 806
8 639 640 661 660 786 787 808 807
8 640 641 662 661 787 788 809 808
8 641 642 663 662 788 789 810 809
8 642 643 664 663 789 790 811 810
8 643 644 665 664 790 791 812 811
8 644 645 666 665 791 792 813 812
8 645 646 667 666 792 793 814 813
8 646 647 668 667 793 794 815 814
8 647 648 669 668 794 795 816 815
8 648 649 670 669 795 796 817 816
8 649 650 671 670 796 797 818 817
8 651 652 673 672 798 799 820 819
8 652 653 674 673 799 800 821 820
8 653 654 675 674 800 801 822 821
8 654 655 676 675 801 802 823 822
8 655 656 677 676 802 803 824 823
8 656 657 678 677 803 804 825 824
8 657 658 679 678 804 805 826 825
8 658 659 680 679 805 806 827 826
8 659 660 681 680 806 807 828 827
8 660 661 682 681 807 808 829 828
8 661 662 683 682 808 809 830 829
8 662 663 684 683 809 810 831 830
8 663 664 685 684 810 811 832 831
8 664 665 686 685 811 812 833 832
8 665 666 687 686 812 813 834 833
8 666 667 688 687 813 814 835 834
8 667 668 689 688 814 815 836 835
8 668 669 690 689 815 816 837 836
8 669 670 691 690 816 817 838 837
8 670 671 692 691 817 818 839 838
8 672 673 694 693 819 820 841 840
8 673 674 695 694 820 821 842 841
8 674 675 696 695 821 822 843 842
8 675 676 697 696 822 823 844 843
8 676 677 698 697 823 824 845 844
8 677 678 699 698 824 825 846 845
8 678 679 700 699 825 826 847 846
8 679 680 701 700 826 827 848 847
8 680 681 702 701 827 828 849 848
8 681 682 703 702 828 829 850 849
8 682 683 704 703 829 830 851 850
8 683 684 705 704 830 831 852 851
8 684 685 706 705 831 832 853 852
8 685 686 707 706 832 833 854 853
8 686 687 708 707 833 834 855 854
8 687 688 709 708 834 835 856 855
8 688 689 710 709 835 836 857 856
8 689 690 711 710 836 837 858 857
8 690 691 712 711 837 838 859 858
8 691 692 713 712 838 839 860 859
8 693 694 715 714 840 841 862 861
8 694 695 716 715 841 842 863 862
8 695 696 717 716 842 843 864 863
8 696 697 718 717 843 844 865 864
8 697 698 719 718 844 845 866 865
8 698 699 720 719 845 846 867 866
8 699 700 721 720 846 847 868 867
8 700 701 722 721 847 848 869 868
8 701 702 723 722 848 849 870 869
8 702 703 724 723 849 850 871 870
8 703 704 725 724 850 851 872 871
8 704 705 726 725 851 852 873 872
8 705 706 727 726 852 853 874 873
8 706 707 728 727 853 854 875 874
8 707 708 729 728 854 855 876 875
8 708 709 730 729 855 856 877 876
8 709 710 731 730 856 857 878 877
8 710 711 732 731 857 858 879 878
8 711 712 733 732 858 859 880 879
8 712 713 734 733 859 860 881 880
8 735 736 757 756 882 883 904 903
8 736 737 758 757 883 884 905 904
8 737 738 759 758 884 885 906 905
8 738 739 760 759 885 886 907 906
8 739 740 761 760 886 887 908 907
8 740 741 762 761 887 888 909 908
8 741 742 763 762 888 889 910 909
8 742 743 764 763 889 890 911 910
8 743 744 765 764 890 891 912 911
8 744 745 766 765 891 892 913 912
8 745 746 767 766 892 893 914 913
8 746 747 768 767 893 894 915 914
8 747 748 769 768 894 895 916 915
8 748 749 770 769 895 896 917 916
8 749 750 771 770 896 897 918 917
8 750 751 772 771 897 898 919 918
8 751 752 773 772 898 899 920 919
8 752 753 774 773 899 900 921 920
8 753 754 775 774 900 901 922 921
8 754 755 776 775 901 902 923 922
8 756 757 778 777 903 904 925 924
8 757 758 779 778 904 905 926 925
8 758 759 780 779 905 906 927 926
8 759 760 781 780 906 907 928 927
8 760 761 782 781 907 908 929 928
8 761 762 783 782 908 909 930 929
8 762 763 784 783 909 910 931 930
8 763 764 785 784 910 911 932 931
8 764 765 786 785 911 912 933 932
8 765 766 787 786 912 913 934 933
8 766 767 788 787 913 914 935 934
8 767 768 789 788 914 915 936 935
8 768 769 790 789 915 916 937 936
8 769 770 791 790 916 917 938 937
8 770 771 792 791 917 918 939 938
8 771 772 793 792 918 919 940 939
8 772 773 794 793 919 920 941 940
8 773 774 795 794 920 921 942 941
8 774 775 796 795 921 922 943 942
8 775 776 797 796 922 923 944 943
8 777 778 799 798 924 925 946 945
8 778 779 800 799 925 926 947 946
8 779 780 801 800 926 927 948 947
8 780 781 802 801 927 928 949 948
8 781 782 803 802 928 929 950 949
8 782 783 804 803 929 930 951 950
8 783 784 805 804 930 931 952 951
8 784 785 806 805 931 932 953 952
8 785 786 807 806 932 933 954 953
8 786 787 808 807 933 934 955 954
8 787 788 809 808 934 935 956 955
8 788 789 810 809 935 936 957 956
8 789 790 811 810 936 937 958 957
8 790 791 812 811 937 938 959 958
8 791 792 813 812 938 939 960 959
8 792 793 814 813 939 940 961 960
8 793 794 815 814 940 941 962 961
8 794 795 816 815 941 942 963 962
8 795 796 817 816 942 943 964 963
8 796 797 818 817 943 944 965 964
8 798 799 820 819 945 946 967 966
8 799 800 821 820 946 947 968 967
8 800 801 822 821 947 948 969 968
8 801 802 823 822 948 949 970 969
8 802 803 824 823 949 950 971 970
8 803 804 825 824 950 951 972 971
8 804 805 826 825 951 952 973 972
8 805 806 827 826 952 953 974 973
8 806 807 828 827 953 954 975 974
8 807 808 829 828 954 955 976 975
8 808 809 830 829 955 956 977 976
8 809 810 831 830 956 957 978 977
8 810 811 832 831 957 958 979 978
8 811 812 833 832 958 959 980 979
8 812 813 834 833 959 960 981 980
8 813 814 835 834 960 961 982 981
8 814 815 836 835 961 962 983 982
8 815 816 837 836 962 963 984 983
8 816 817 838 837 963 964 985 984
8 817 818 839 838 964 965 986 985
8 819 820 841 840 966 967 988 987
8 820 821 842 841 967 968 989 988
8 821 822 843 842 968 969 990 989
8 822 823 844 843 969 970 991 990
8 823 824 845 844 970 971 992 991
8 824 825 846 845 971 972 993 992
8 825 826 847 846 972 973 994 993
8 826 827 848 847 973 974 995 994
8 827 828 849 848 974 975 996 995
8 828 829 850 849 975 976 997 996
8 829 830 851 850 976 977 998 997
8 830 831 852 851 977 978 999 998
8 831 832 853 852 978 979 1000 999
8 832 833 854 853 979 980 1001 1000
8 833 834 855 854 980 981 1002 1001
8 834 835 856 855 981 982 1003 1002
8 835 836 857 856 982 983 1004 1003
8 836 837 858 857 983 984 1005 1004
8 837 838 859 858 984 985 1006 1005
8 838 839 860 859 985 986 1007 1006
8 840 841 862 861 987 988 1009 1008
8 841 842 863 862 988 989 1010 1009
8 842 843 864 863 989 990 1011 1010
8 843 844 865 864 990 991 1012 1011
8 844 845 866 865 991 992 1013 1012
8 845 846 867 866 992 993 1014 1013
8 846 847 868 867 993 994 1015 1014
8 847 848 869 868 994 995 1016 1015
8 848 849 870 869 995 996 1017 1016
8 849 850 871 870 996 997 1018 1017
8 850 851 872 871 997 998 1019 1018
8 851 852 873 872 998 999 1020 1019
8 852 853 874 873 999 1000 1021 1020
8 853 854 875 874 1000 1001 1022 1021
8 854 855 876 875 1001 1002 1023 1022
8 855 856 877 876 1002 1003 1024 1023
8 856 857 878 877 1003 1004 1025 1024
8 857 858 879 878 1004 1005 1026 1025
8 858 859 880 879 1005 1006 1027 1026
8 859 860 881 880 1006 1007 1028 1027
CELL_TYPES 720
12
12
12
12
12
12
12
12
12
12
12
12
12
12
12
12
12
12
12
12
12
12
12
12
12
12
12
12
12
12
12
12
12
12
12
12
12
12
12
12
12
12
12
12
12
12
12
12
12
12
12
12
12
12
12
12
12
12
12
12
12
12
12
12
12
12
12
12
12
12
12
12
12
12
12
12
12
12
12
12
12
12
12
12
12
12
12
12
12
12
12
12
12
12
12
12
12
12
12
12
12
12
12
12
12
12
12
12
12
12
12
12
12
12
12
12
12
12
12
12
12
12
12
12
12
12
12
12
12
12
12
12
12
12
12
12
12
12
12
12
12
12
12
12
12
12
12
12
12
12
12
12
12
12
12
12
12
12
12
12
12
12
12
12
12
12
12
12
12
12
12
12
12
12
12
12
12
12
12
12
12
12
12
12
12
12
12
12
12
12
12
12
12
12
12
12
12
12
12
12
12
12
12
12
12
12
12
12
12
12
12
12
12
12
12
12
12
12
12
12
12
12
12
12
12
12
12
12
12
12
12
12
12
12
12
12
12
12
12
12
12
12
12
12
12
12
12
12
12
12
12
12
12
12
12
12
12
12
12
12
12
12
12
12
12
12
12
12
12
12
12
12
12
12
12
12
12
12
12
12
12
12
12
12
12
12
12
12
12
12
12
12
12
12
12
12
12
12
12
12
12
12
12
12
12
12
12
12
12
12
12
12
12
12
12
12
12
12
12
12
12
12
12
12
12
12
12
12
12
12
12
12
12
12
12
12
12
12
12
12
12
12
12
12
12
12
12
12
12
12
12
12
12
12
12
12
12
12
12
12
12
12
12
12
12
12
12
12
12
12
12
12
12
12
12
12
12
12
12
12
12
12
12
12
12
12
12
12
12
12
12
12
12
12
12
12
12
12
12
12
12
12
12
12
12
12
12
12
12
12
12
12
12
12
12
12
12
12
12
12
12
12
12
12
12
12
12
12
12
12
12
12
12
12
12
12
12
12
12
12
12
12
12
12
12
12
12
12
12
12
12
12
12
12
12
12
12
12
12
12
12
12
12
12
12
12
12
12
12
12
12
12
12
12
12
12
12
12
12
12
12
12
12
12
12
12
12
12
12
12
12
12
12
12
12
12
12
12
12
12
12
12
12
12
12
12
12
12
12
12
12
12
12
12
12
12
12
12
12
12
12
12
12
12
12
12
12
12
12
12
12
12
12
12
12
12
12
12
12
12
12
12
12
12
12
12
12
12
12
12
12
12
12
12
12
12
12
12
12
12
12
12
12
12
12
12
12
12
12
12
12
12
12
12
12
12
12
12
12
12
12
12
12
12
12
12
12
12
12
12
12
12
12
12
12
12
12
12
12
12
12
12
12
12
12
12
12
12
12
12
12
12
12
12
12
12
12
12
12
12
12
12
12
12
12
12
12
12
12
12
12
12
12
12
12
12
12
12
12
12
12
12
12
12
12
12
12
12
12
12
12
12
12
12
12
12
12
12
12
12
12
12
12
12
12
12
12
12
12
12
12
12
12
12
12
12
12
12
12
12
12
12
12
12
12
12
12
12
12
12
12
12
12
12
12
12
12
12
12
12
12
12
12
12
12
12
12
12
12
12
12
12
12
12
12
12
12
12
12
12
POINT_DATA 1029
VECTORS Disp float
0.0 0.0 0.0
0.003658585047474597 -0.13266574845570483 0.0031755131399574645
0.008810120861679867 -0.24999531892879112 0.006837544983482083
0.015935085701950378 -0.3630127592647552 0.009761865211085187
0.026074354027963154 -0.46865397032492195 0.012411717382839403
0.03937013187879705 -0.564428254272469 0.014602602815277244
0.05576753936156435 -0.6477039147724197 0.016243388464821096
0.07516738469824848 -0.7159359933016943 0.017217512892213904
0.09730454809001918 -0.7666435669539421 0.017443387207812695
0.12152042557400344 -0.7977084802738734 0.017054489913386043
0.14672329095315612 -0.8080597337345277 0.016702520921541324
0.17193511336355655 -0.7978600496413357 0.01706851375992658
0.19617960940878734 -0.7669502407857973 0.017476354551769737
0.21837053089830025 -0.7164042272260287 0.01728030507998182
0.23785920560588647 -0.6483414434973773 0.016354738190919246
0.25439623328231065 -0.5652400941427158 0.014792570885501437
0.26790447571933934 -0.4696354104546835 0.012722909887088973
0.2783603811166478 -0.36413725879476183 0.010267741921433605
0.2859465248644985 -0.2512110025986461 0.0075840122926002
0.29189354475813195 -0.13387478137183217 0.004508751301394064
0.29746137825731145 0.0 -2.574275076684492e-05
0.052067989989054896 -0.005665181668150666 -0.0016673010806634082
0.0543152627538317 -0.132076841655104 0.0016635230991564162
0.056126977063912176 -0.2507940686220538 0.004331482435322937
0.060795882907586404 -0.36395107711636665 0.006592644590954238
0.06738269851832482 -0.4700036266502563 0.008485135379496177
0.07607952677300193 -0.5661386646010741 0.010042310327019837
0.0868365824650293 -0.6497785800874051 0.011196244693276002
0.0995856011611802 -0.7183601207731877 0.011893747300357197
0.1141526559870982 -0.7693711648658442 0.012098234768761113
0.13011389439684276 -0.8006125864183851 0.01189353937067674
0.14675059335758597 -0.8109738646783746 0.011675814559701965
0.16339676389000463 -0.800766649800508 0.011888712569184409
0.17938803672337073 -0.7696832926946086 0.012092764756653674
0.19401068114033793 -0.7188377515425551 0.011897116278463127
0.20684963788610733 -0.6504310129244044 0.011225619161002601
0.21774423325232184 -0.5669732985810374 0.010125598797462027
0.22664493209561218 -0.47101848999696483 0.008667617103657436
0.2335252563053683 -0.3651235887728816 0.0069347220085530644
0.23861927499721 -0.25207865876731883 0.0049516729036401105
0.24103716798279592 -0.1333816053080348 0.0025702749591672304
0.2436093624339203 -0.005978505776956353 -0.0006724175008581516
0.1012230832663337 -0.009836211410333504 -0.0027246721577210194
0.10238187087463693 -0.1318792013707092 -0.00014744689692775155
0.10258406064123042 -0.2509751862934126 0.0017572558176087644
0.10439565555105576 -0.3645179210606475 0.0031613422882266623
0.10750714566722154 -0.47077774058354505 0.004235663354563154
0.11169346442289708 -0.5671411580351156 0.005055636276028834
0.116948935988675 -0.650997911150656 0.005626300097109843
0.1232474401527153 -0.7197972413581022 0.005936007164783239
0.13054257799667152 -0.7709961447423817 0.005978838951102621
0.13858278089519635 -0.8022753303461 0.005769537478261194
0.14677224129661154 -0.8124603528186549 0.005533575179279927
0.154971355122473 -0.8024320895059167 0.00574589170973597
0.16304198216351734 -0.771314076260118 0.0059349259269022
0.17039273922309522 -0.7202846133265989 0.00587984953445689
0.17677951971049807 -0.6516653116826576 0.005573123890306726
0.1821666860157508 -0.5679978305642447 0.005032096462331637
0.1865422590285424 -0.471824185375316 0.00428506651572804
0.18991741923098207 -0.3657326706139733 0.0033522582848421706
0.19208140733613366 -0.25231569606007553 0.0021858697344943777
0.19257169588063971 -0.13313794790201883 0.0005751923072110919
0.19387028304854254 -0.010318859521183808 -0.0017123021713046256
0.1489333843437757 -0.012509310658900602 -0.0036690172522481222
0.14924478457395163 -0.13191271022118295 -0.0019087881750714801
0.14822319326737612 -0.25082466608136067 -0.0008439353602882911
0.14746128119558574 -0.3646299189770694 -0.00034788969269348156
0.1470571114320449 -0.47101036985697653 -0.00014055782266077934
0.14678499975793058 -0.5674531334631346 -9.372365215852167e-05
0.14660075458749386 -0.6513910399129278 -0.0001498923629557033
0.14653252630842295 -0.7202851045530759 -0.0002780838020005745
0.14668540873223015 -0.7715759317638793 -0.0004495217949097388
0.14699500587778658 -0.8027188696661383 -0.0006979899163860196
0.14679155160937107 -0.8123689485455118 -0.0009979565924300578
0.1465977916792086 -0.802878445330857 -0.0007405936075808348
0.1469377635383823 -0.7718998598723907 -0.0005322033810473938
0.14714550349691632 -0.7207823587269776 -0.0003944055617860997
0.14716267009252632 -0.6520732190113182 -0.00028657611261341526
0.14710225081417663 -0.5683309896410252 -0.000225949235287588
0.14700130207336198 -0.4720858121494207 -0.00022512916705776364
0.14682418593539162 -0.3658832202163554 -0.0003148661744193959
0.14631150149603211 -0.2521814148429362 -0.0005987161446134713
0.1454437525392377 -0.133121318719555 -0.0013678183445416364
0.14583227441343924 -0.01311727649087583 -0.002815566350129679
0.1962528196666561 -0.013940246260199003 -0.004639435390151393
0.19581589001908783 -0.1319662080136182 -0.003581339608747307
0.19366198956901773 -0.250456290924108 -0.00340231504978066
0.19051901109645547 -0.3643180615170676 -0.0038373183229745383
0.18662720028849789 -0.4706928523192538 -0.004508957437902223
0.18188017542619608 -0.5670814901268127 -0.00523782857100829
0.17626409680519733 -0.6509626024320203 -0.005923699438442695
0.16981311798359633 -0.7198221873994336 -0.006494602672801747
0.16277497713861522 -0.771137759257285 -0.006871199251906145
0.15544884491942296 -0.802017823572461 -0.00703627415640429
0.14681138264253843 -0.810475082878619 -0.007305428599127248
0.13818370013362458 -0.8021803122143586 -0.007098149295383358
0.13088801995704313 -0.771467834077091 -0.006993348730163208
0.12390417417489545 -0.7203294068544973 -0.006672300233465025
0.11753596223683754 -0.6516593434993413 -0.006145840433726096
0.11203585739406552 -0.567979347249792 -0.005481558078562158
0.10744115446664534 -0.47179501861990936 -0.004731717543785098
0.10373154198253892 -0.3656003802572424 -0.00396769724838244
0.10075806933189232 -0.2518159772892177 -0.0033391562268716294
0.09869211776895057 -0.13314293854494133 -0.003226800812852218
0.09829729688743433 -0.014627818129644497 -0.003972523628470828
0.24388877521839442 -0.014475647392155944 -0.0056846649667010914
0.24286176734366619 -0.13191093358817907 -0.005159499807407704
0.23961902692308368 -0.24990330312495249 -0.005859857600995362
0.23417745315732322 -0.36361287558306543 -0.007211660711588656
0.22678548285295777 -0.46982025255047477 -0.008735609384376553
0.21751396944492443 -0.5660173362403798 -0.010206414883969707
0.20639369407330557 -0.6497149665237356 -0.011487202863670398
0.19351678658602406 -0.7183800492311874 -0.012458221691354018
0.17897035059790223 -0.7696503128354004 -0.013002027119466898
0.16389022610333787 -0.8003706581445993 -0.012816964361079644
0.14683463874244293 -0.8064353580004349 -0.012563027702793063
0.12978916511299926 -0.8005361915919985 -0.012898589488965861
0.11474031855419868 -0.7699867519484531 -0.013164691838477034
0.10024888436681224 -0.7188974297462274 -0.01269909705824409
0.08745393523009133 -0.6504261433089769 -0.011797627066602225
0.07644432164721028 -0.5669341915527472 -0.010565874852844047
0.06730773671119927 -0.4709454322510719 -0.009102709518251833
0.06005504543171774 -0.3649161601844 -0.0075126623801587905
0.05471634098737721 -0.2512645800542099 -0.005983296444442818
0.05150993231993681 -0.13307191867764684 -0.0049899757435147825
0.05049355437751256 -0.015201514193200445 -0.005198130506294983
0.2922333079871358 -0.014584832938807104 -0.006768815226494419
0.29106955609770524 -0.13172540042626968 -0.00664636819023421
0.2869498563056559 -0.24917630212465086 -0.008132660958978754
0.279124596443854 -0.3625044465705831 -0.010320085035007342
0.2681450678448859 -0.46837538697641606 -0.012610543326088346
0.25425337810817417 -0.5642411324489646 -0.014735938950687756
0.23749759299752254 -0.6476050679980307 -0.01652026293290033
0.21798261690540496 -0.7159874654901253 -0.01779720513312995
0.19589123624939023 -0.7668351705056734 -0.0184094935933288
0.17130790423862388 -0.7980856818378061 -0.01775711917468626
0.14686478031468703 -0.8 -0.015090105350498826
0.12243260457788029 -0.7982545141490394 -0.01785911070953613
0.09788289202980563 -0.7671784311038732 -0.018614007640253862
0.07584977435070679 -0.7165155315842837 -0.018103512792406923
0.05641965663228904 -0.6483309913678852 -0.016922445850397434
0.03977428758688117 -0.5651762919889081 -0.015216202106450983
0.026006921976280246 -0.4695197520555665 -0.013128864954851306
0.01513062222001597 -0.36382059552645724 -0.010799473298982058
0.0073353476184615215 -0.2505348700619256 -0.008447876344919853
0.003172967439264085 -0.13287640406518506 -0.006655950509110095
0.0019790232446351363 -0.01531881046237385 -0.006441473182427591
0.0 0.0 0.0
0.0034222525053774037 -0.12538929923061873 0.002113671113479862
0.008676588941992268 -0.23980352615096548 0.004037007019230362
0.016114441433834416 -0.3497040392096844 0.005824556280992567
0.02638104329879742 -0.45250598317737495 0.00720406439564133
0.03958023738007079 -0.545924143153329 0.008172405196472762
0.05566415488265615 -0.6276003539747802 0.008663151405269307
0.0745560948437792 -0.6952696280726487 0.008630916077669007
0.09618127154821274 -0.7467158907299749 0.008096971684156809
0.1204511527228291 -0.7796104041882148 0.007289032135463044
0.1467529373227258 -0.7912526129670819 0.006821684674980918
0.17305777701113917 -0.779669870150993 0.007293834937942458
0.19733724961379934 -0.7468346392247962 0.008110043513212508
0.21897999520264325 -0.6954472283063908 0.008659908782993261
0.23790049626455012 -0.6278358335005965 0.008721328668932637
0.25402985978853737 -0.5462148871201162 0.00827984710006163
0.2673019126414417 -0.4528450474433574 0.007391199368674006
0.2776893219246813 -0.3500744983082649 0.006123575053780035
0.2853235570068791 -0.2401721341242247 0.004535569383420104
0.2909658242085811 -0.1257419617240228 0.0026887991966960717
0.2953100970442768 0.0 0.002360138407863576
0.050594728810005436 -0.003645665853654264 0.00031153982623155144
0.05264334040257235 -0.1252068251069765 0.0009690877171516174
0.055145099724828714 -0.24061307270301605 0.0025203619511256223
0.06014079075838953 -0.3507172908150332 0.0037924547035874966
0.06697553182321772 -0.4538985395365834 0.004778712336232776
0.07576625669816023 -0.5476708143133795 0.005438108600938095
0.08647906551073535 -0.6297060528354979 0.005760899149130456
0.09905719703392585 -0.6977315286172101 0.005734078471968111
0.11342167156229041 -0.7495427733089053 0.005387821537243455
0.12946344344743926 -0.782811037333493 0.004852362080997628
0.14676622211955392 -0.7946861266051795 0.004510066633218694
0.1640720036880012 -0.782871152272756 0.00483997762285533
0.18012317337008282 -0.7496628632436699 0.005365753803269562
0.19450472264648044 -0.6979112737170107 0.005708603680871397
0.2071102139871313 -0.6299447214240392 0.005743462097340164
0.21786547853940524 -0.5479663187333729 0.005447972744123028
0.22672290927979977 -0.4542449790377804 0.004844303786376968
0.23366363384391015 -0.3510995559370589 0.003960787957634249
0.23884114470256565 -0.24100491773554994 0.002833979728340098
0.2416617549166603 -0.12560941798746333 0.0015953795853213574
0.24389304181556243 -0.003708519128468334 0.001786190258027089
0.09918222413355007 -0.006419082197169851 -0.0005608907305716868
0.10031798568134813 -0.1251823030341067 -4.3755973236446176e-05
0.10119006416134253 -0.240913445742888 0.0009752869002428696
0.10347860969075783 -0.35133401211206416 0.001804242816639713
0.10689535254764809 -0.45471347195020484 0.0023800487910638495
0.11127517917661911 -0.5487008107538354 0.0027276284033791037
0.11661785357484276 -0.6309448528271836 0.0028614318095616124
0.12287451365212702 -0.6991699436387249 0.002793740359463454
0.129958182562321 -0.7511835545806146 0.0025402520950030018
0.13788827880646304 -0.7847488044896289 0.002112399964944835
0.14678057944686349 -0.7969836693879353 0.001734654833978304
0.15567579714671975 -0.7848098643107224 0.0020830602079548225
0.1636149511115476 -0.751305566415999 0.002483604025260553
0.17071480486231577 -0.6993526563781701 0.002714874357301954
0.1769966773025877 -0.6311876633568503 0.0027706321572023634
0.18237711716733868 -0.5490019542468288 0.002643488098501109
0.1868137614975524 -0.45506774308607517 0.002334001908218809
0.1903189600148894 -0.35172726809177457 0.001844415487284827
0.19275439165591235 -0.2413273275543828 0.001172716399325703
0.19377995637143114 -0.12556089683899982 0.00047676960716746804
0.19498365876989351 -0.006477914460168282 0.0005529164307698515
0.14676769642848167 -0.008282105603960985 -0.0017366019197753754
0.14715267753719685 -0.1252679718977233 -0.0011572072123287886
0.1467314397711059 -0.24090020263525525 -0.000565611362395622
0.1465055580358083 -0.35151546360932534 -0.00018923896198932521
0.1464636575440642 -0.4549865872264616 -2.5997089766281937e-05
0.14643721187789033 -0.5490412093005947 -4.944846210475381e-06
0.14640914272262612 -0.6313545911482723 -7.837185174805384e-05
0.14636121505347427 -0.6996270684192121 -0.0002178291539687412
0.14618694397205695 -0.7516814358798789 -0.00041691344082567293
0.14604494125306902 -0.7855353819023874 -0.0007776044738699577
0.1467954689721769 -0.7984535777474037 -0.001290457022546159
0.1475488078963289 -0.7855976681384604 -0.0008239317614899713
0.1474154408052524 -0.7518059121714074 -0.0005081923386952404
0.1472562425302999 -0.6998134902000739 -0.00035007282576600786
0.14723091364280283 -0.6316023420558735 -0.00024237756893205343
0.14723486267907063 -0.5493486084583861 -0.00018207257262333295
0.14725353003374803 -0.45534855168959437 -0.00018236774075657824
0.14727901061079574 -0.35191968536801344 -0.00026932697480032864
0.14714414171949897 -0.2413181109288622 -0.00048137238010042573
0.14679318946474162 -0.12561067058029773 -0.0007630218800912656
0.1472113542528007 -0.008343978780559688 -0.0008738927467915017
0.19402641119501612 -0.009343068084478231 -0.0029499582506362382
0.19373023364143094 -0.1253447004158114 -0.0023157481196514336
0.1921205613418891 -0.24066636507479783 -0.0020989823539744935
0.18952703951390812 -0.3512871055406037 -0.002174066405905964
0.18604396454596314 -0.4547180127155329 -0.0024245259450973097
0.18160105893374606 -0.5487007006615068 -0.002733050020816149
0.17619375555540434 -0.6309465806964745 -0.003016660429024443
0.16986432444908756 -0.6991314753357358 -0.003228085589019437
0.16250626528283107 -0.7510448325824739 -0.003357006377354289
0.1541985598880396 -0.7851250562737342 -0.003555768483983032
0.1468106697844597 -0.7993378180309043 -0.004254495216882389
0.13942549177230065 -0.785188850689879 -0.00361940188474907
0.13112601395687198 -0.7511723124054595 -0.003483603823751379
0.123781929298997 -0.6993223325895344 -0.003414875308799404
0.11747248150578457 -0.6312000388713666 -0.0032556557397758093
0.11209134160353135 -0.5490147680985367 -0.0030058145921156893
0.10768157733739558 -0.45508762257390645 -0.002694552597085025
0.10424019097486263 -0.3516987872747625 -0.0023775657585511306
0.101690642668637 -0.24108047485350714 -0.002136434905803832
0.10010655922922886 -0.12565955410699575 -0.002056284679303243
0.09982701798500047 -0.009410328379339798 -0.0022983398125822727
0.24143381901325692 -0.00979982532784191 -0.00406328820824604
0.24056226752822163 -0.12532895372553154 -0.0034464129433483337
0.23779857353940242 -0.24023804889513234 -0.0036127114609660845
0.23289787430646663 -0.3506661490818547 -0.004137331409829072
0.2259813119382163 -0.45389771823531455 -0.004799558942124114
0.2171134134641326 -0.5476705725373933 -0.0054296897589065
0.20632968788769168 -0.6297012630766363 -0.00591241320973733
0.19366785822543298 -0.6976966641755815 -0.006165086748602964
0.17932917974497278 -0.7492920100631706 -0.0061797346513151625
0.16276812975241933 -0.7832667479734732 -0.005987205869829492
0.1468259462271429 -0.7998624258721159 -0.006728883124160578
0.13088640529747678 -0.7833323506818434 -0.006068737274301172
0.11433327675620929 -0.749423070176431 -0.00634295892057765
0.1000076972101621 -0.697892751224302 -0.00640871859177846
0.08736367743971737 -0.6299612758352856 -0.006230167972977989
0.07660120909472665 -0.5479919187068669 -0.0058040995084055235
0.06775536128883876 -0.45427443870353973 -0.005192374065886987
0.06085638521774394 -0.35108224420359996 -0.004477474591093895
0.05596111157587945 -0.24064711652489756 -0.003789270406852524
0.053190632757311763 -0.12562698506037992 -0.003329202619773889
0.05232081441675014 -0.009869317314368072 -0.0035947576678424477
0.2892537879350922 -0.009945718814367174 -0.004917949258709396
0.28808282554111936 -0.12519482024264103 -0.004504523495436048
0.284236849986081 -0.23960659120814193 -0.0051149725832757295
0.27696123875453404 -0.3496327451717517 -0.006108301333288556
0.26659043024731377 -0.4525018704814187 -0.007190982199261892
0.25330153154299806 -0.5459166596850394 -0.008140051979796652
0.2371392134443569 -0.6275966428091886 -0.008802562839139137
0.21815744967219577 -0.695211917277107 -0.009073298445106662
0.19657562717298982 -0.7466201227312002 -0.008882297376639196
0.17312286627376136 -0.7795117910018667 -0.008185037362414134
0.14684070636446886 -0.8 -0.0078717053144325
0.12056114983213681 -0.7795795265186638 -0.008285283580703833
0.09711612928153042 -0.7467553975429497 -0.009083977938288109
0.07554685679131452 -0.6954141316891755 -0.009377056984475933
0.056581513894602864 -0.6278642675061775 -0.009204623182527986
0.040437260145155474 -0.5462462027533675 -0.008625308727536196
0.027162855230206718 -0.45288556349916165 -0.007721766904918744
0.01679185607360117 -0.35005126371647644 -0.006608790936122281
0.009487964346976475 -0.24000994912974868 -0.005460509273796127
0.005596039920596236 -0.12548282333365957 -0.004543554271277267
0.004405399482948522 -0.010012192684292034 -0.004595266676450705
0.0 0.0 0.0
0.0047510035827539165 -0.12219637807412696 0.0009132615630809081
0.009992505566771464 -0.2345849029138063 0.001713783833330177
0.017257417436855896 -0.34285860895331793 0.002472753618564837
0.027228116239365274 -0.4444175742133929 0.00301059829352146
0.03994612139431859 -0.5370736391771841 0.0032833714715989086
0.05537449635286221 -0.6186267268979916 0.0032695162484078872
0.07353633901278382 -0.6869632854231106 0.00297380538665935
0.09466525553350108 -0.7399068141105083 0.0024586319395744644
0.11921126847084842 -0.7747044736450559 0.00190403561248019
0.14676029940502647 -0.7873618721605388 0.0016383891975302763
0.17430577795092878 -0.7746903735810112 0.0019045468004350097
0.19884059305229013 -0.7398742793393064 0.0024617780438973467
0.21994895307571555 -0.68690383327481 0.0029842017574148575
0.23807768798307966 -0.618528323803447 0.003294828872859482
0.25345498421722745 -0.5369224182097175 0.003334494263357627
0.26609570397943183 -0.44420144955938334 0.0031014973319897733
0.27594836606367507 -0.3425741059323676 0.0026180884808877317
0.2830374170917956 -0.23424328050584411 0.0019497769694072887
0.2879216351201231 -0.12178869635269328 0.0013125521687788605
0.29164645529962846 0.0 0.0013392112073679966
0.05081142223467891 -0.0031526584979870995 3.301999409769145e-05
0.052909091805789205 -0.12217713744490795 0.0004686716346508982
0.05568138263693865 -0.2354272032487589 0.0010814026568448814
0.060649836913107706 -0.34392798390267737 0.0016339606524162962
0.06735140877363058 -0.4458712130864697 0.0020323181229168377
0.07588461615637046 -0.5388996586443476 0.002235076713417102
0.08622362180210125 -0.620844336641992 0.002239172680487896
0.09838173657119942 -0.6896011699794444 0.0020589294230115673
0.11247169637731533 -0.7430368974125381 0.0017405945198431215
0.12870042062203269 -0.7784094958324799 0.0013915350550225847
0.1467582811551409 -0.7914404724899701 0.0012154699351863084
0.16481174237377932 -0.7783941817780811 0.0013813194573284687
0.18102677219766575 -0.7430016183728398 0.0017216886975770832
0.19509222050876968 -0.6895367502996752 0.0020348224656425292
0.20721231043089103 -0.6207375502396665 0.0022160522126127105
0.2174956335734114 -0.5387347042735116 0.002222706574826552
0.22594892065910752 -0.4456331053694318 0.002044241329080675
0.23253763727142993 -0.34360910123131017 0.00169072738020912
0.23733406347743885 -0.2350288543786236 0.0012135659435119684
0.23981847402418616 -0.121675375899768 0.0008327325936960852
0.24179705684945554 -0.0029969283831349906 0.0010628301540375753
0.0988331692977363 -0.005434721081519631 -0.0003166797312382333
0.09991196395827735 -0.12212530308658949 -1.8274044087362323e-05
0.10092779154699902 -0.23581290048448367 0.0004007236869187162
0.10333229370792933 -0.34460574053971094 0.0007682749245364327
0.1067643079282546 -0.4467570937203191 0.0010159940909392523
0.11108902632854482 -0.5400145884896254 0.0011298428527711448
0.11630532162354908 -0.6221919019035961 0.0011190687201895152
0.12238370968376264 -0.6911831602896384 0.0010020801598577044
0.12930399311376184 -0.7448915563202084 0.0008036113519208431
0.13730706086474426 -0.7807326616675359 0.0005674502451964555
0.14675748438893255 -0.7943303371384656 0.00042570074353050246
0.15620274410546603 -0.7807166154876186 0.0005467806455765551
0.1641898879813552 -0.7448545469027343 0.0007633420732882286
0.17108221295861753 -0.6911154360766667 0.0009449049306404303
0.17711856602493464 -0.6220792506125379 0.0010503917580536035
0.1822758768577471 -0.5398395818257115 0.0010592189125201328
0.18652080194958673 -0.4465021804410711 0.0009590731254627878
0.18984620070608405 -0.34426012404164946 0.0007490377329276094
0.19210214589423757 -0.2353668859789496 0.00046617844668283176
0.1930028400821648 -0.12162337103050008 0.00028066763401735903
0.19407861272829427 -0.005201165660398141 0.0004571166499035108
0.14575992209792296 -0.0069660880666986644 -0.0008701483273108313
0.14608009583897408 -0.12212690752295258 -0.0005531292521168708
0.14575293314971105 -0.2358504945561826 -0.0002931456515513693
0.14570290081328763 -0.3448366252005114 -0.00010434816079292322
0.14582129512382433 -0.44707168986964674 -7.02511183770468e-06
0.1459273475089036 -0.5403993074210034 1.0053642370056714e-05
0.14599828265483333 -0.6226504548155091 -2.965553499654136e-05
0.14598851248343536 -0.6916828028056395 -0.0001061978894564526
0.14573460321418996 -0.7454361406408315 -0.00021584445034002173
0.14554251649238295 -0.7817442122872417 -0.0003725475964912423
0.14675734892422607 -0.7963828022724095 -0.0004998971533186946
0.14796627708054993 -0.7817279444470242 -0.00040363953500960543
0.14775611321858856 -0.7453984758387953 -0.00027735948863093094
0.1474709485288499 -0.6916135357465496 -0.00019609427779212205
0.14741536368730673 -0.62253460710333 -0.0001430706127756051
0.14742453588535395 -0.5402181043764914 -0.00011693390689058284
0.1474518272519145 -0.44680565814771533 -0.00012953063815249899
0.14747199180216414 -0.34447050622738995 -0.00019188696167215735
0.1473183882485427 -0.2353853037690936 -0.00028688782342028914
0.14694688252320556 -0.12163963645486986 -0.0003307976725988266
0.14728811446795906 -0.006663987840895732 -0.00028661891719243933
0.19232934039880276 -0.007843885953367496 -0.0014811579019166567
0.19197487003657093 -0.1221254174425657 -0.001101806072652906
0.19044404709859225 -0.2356331903691528 -0.0009857107551459487
0.18807379161898674 -0.34462812976178603 -0.000974404906058245
0.18488455295529257 -0.44680680236953696 -0.001026968396438279
0.180763715043452 -0.5400486387031451 -0.0011074452236264712
0.17567617343172942 -0.6222167011383045 -0.0011770690594175303
0.16961955831556436 -0.6911215099404534 -0.0012129956454595284
0.1623304403947956 -0.744664147594345 -0.0012287148416535694
0.15383584625934568 -0.7813537892586989 -0.0012920536616539402
0.14675722648852313 -0.7978834594351994 -0.0013922620604749185
0.1396719235662589 -0.7813378203541081 -0.001333773426779384
0.13115697869331241 -0.7446269234368723 -0.0013119122233414334
0.1238330798932088 -0.6910524963656449 -0.0013363400333666967
0.11772648751093914 -0.6221003580127918 -0.001336322497602615
0.11257390138623226 -0.5398653081257133 -0.0012924408936541639
0.1083746842203705 -0.44653508759997973 -0.0012172030071512505
0.10509962536323703 -0.3442517762292645 -0.0011324687409323439
0.10265847378256365 -0.23516393472927202 -0.0010452188893252485
0.10111056657408929 -0.12164854645772327 -0.0009599712341920106
0.10078010692041764 -0.007489598241580063 -0.0010474287301807262
0.2390228838318085 -0.008229996821408946 -0.0020207163228782156
0.23809650007544497 -0.12205953830702135 -0.0016103239126131442
0.2354076481449076 -0.23519991469570536 -0.0016616081553327358
0.23078555349351826 -0.34400126071806947 -0.0018322442691135455
0.22430320540272386 -0.4459604489671205 -0.002034037286928128
0.21595967184505582 -0.5389668432608841 -0.002205984708432021
0.2057385115044478 -0.6208828973284314 -0.0022930111204723523
0.19360356276096125 -0.6895485153039362 -0.0022665178448356823
0.17965276365510768 -0.7426426562994616 -0.002150900708104243
0.16283648629408407 -0.7792364488022423 -0.002066701019720583
0.14675646844236087 -0.7990971278384448 -0.002083813981937836
0.13066888846156907 -0.7792212903289941 -0.00211949282788226
0.11382966974249367 -0.7426069517856289 -0.0022567761971511763
0.09983997116969973 -0.6894815166885576 -0.0024251011498302973
0.08764990519382812 -0.6207687369164888 -0.0025011431593089874
0.07735874340628543 -0.5387853158372519 -0.0024540457977722907
0.068935577774614 -0.4456892271189755 -0.0023000818093724257
0.062377402321479127 -0.34362441827680995 -0.002073291256142818
0.057707154349458424 -0.23473421753493545 -0.0018038068692571559
0.05501621587178445 -0.12158787767768535 -0.0015549915212817952
0.054114635566022265 -0.007842869153519599 -0.001709442144020223
0.28612196156523556 -0.008367673458255448 -0.0023230740254547807
0.2848887346545528 -0.12190378898788774 -0.0020279212334670988
0.28111814507182353 -0.23456244072368068 -0.00229330036923307
0.27420098273914195 -0.34296407380124944 -0.0026536869360204735
0.26442603780196167 -0.4445454051488186 -0.0029984163150166684
0.25188589840381037 -0.5371648315681825 -0.0032432214090896035
0.2365615964628994 -0.6186880246765003 -0.0033159400946261874
0.21841464883882716 -0.6868975245584432 -0.0031771905454883076
0.19754566000057133 -0.7397523474702886 -0.0028601290141912475
0.1744313622238496 -0.7748685176346912 -0.0025300781994977706
0.1467545176821199 -0.8 -0.002375656948881486
0.11906907547056032 -0.7748546514622838 -0.0025946386945178332
0.09592874655539638 -0.7397191800361679 -0.0029902642336561945
0.07501581306636702 -0.6868342131314069 -0.0033739136870871906
0.05680704558751683 -0.6185785661659909 -0.0035779819798053636
0.041405206615660765 -0.5369888697026581 -0.003562927061906778
0.028779823665967954 -0.4442807311268956 -0.0033547745756196063
0.018932348928939493 -0.3425957998660274 -0.0030009366355782585
0.01198660874634211 -0.23410790410209031 -0.0025479687486985475
0.008238626406670408 -0.1214376407094524 -0.0020740773709942628
0.007039067816977826 -0.00796484237256289 -0.0021031226327754417
0.0 0.0 0.0
0.005039842981053959 -0.12133930025450229 -3.715994390511399e-15
0.010310280960571403 -0.23309729245612015 -7.009446547134917e-15
0.017494256133705442 -0.3408748344019129 -1.0175707016745274e-14
0.027316804656855168 -0.44211423249798276 -1.3227497033199907e-14
0.039840716411428695 -0.534658826047804 -1.6428704242675093e-14
0.055046663172719806 -0.6163521018353904 -2.0583984626678283e-14
0.07301286073170961 -0.6851029748081217 -2.532733355728397e-14
0.09407613229388792 -0.7386780122551065 -2.9464908839819674e-14
0.11879618446662085 -0.774114022656158 -3.297047237925436e-14
0.1467562171031115 -0.7870642007483603 -3.680735904537091e-14
0.17470988329078413 -0.7740714933680184 -4.1049602089263526e-14
0.19940994486048355 -0.7385867237087023 -4.467556998112513e-14
0.22043668970923683 -0.6849507016838262 -4.650135809271335e-14
0.23834405537685655 -0.6161215190690865 -5.009281541212538e-14
0.2534584494814024 -0.5343304157883539 -5.300115428204832e-14
0.2658408565840063 -0.44167275057150307 -5.895732668352437e-14
0.2754443986125628 -0.3403216237160977 -6.537345395676859e-14
0.2822922801096967 -0.23245870025276152 -7.253102096125732e-14
0.2870026944122306 -0.12066099121983632 -7.968871583076297e-14
0.29057137316962467 0.0 -8.493516828394518e-14
0.050794167752363395 -0.003048446250317513 -7.674722655032618e-16
0.05290146577315599 -0.12137877253413736 -3.3721515049370673e-15
0.05577461987572779 -0.23395599093229652 -6.527121954576424e-15
0.060715734535273624 -0.34196297922033136 -9.849449506845e-15
0.06734233497345343 -0.4435867058940261 -1.319300318815962e-14
0.07576818649864926 -0.5365115819729332 -1.6720520609466345e-14
0.08598394038760529 -0.6186124528507796 -2.0601249393672974e-14
0.09803817456255925 -0.6878114724015607 -2.500448861588348e-14
0.1121036853189976 -0.7419185269392615 -2.910678388532398e-14
0.12844517776511175 -0.7779705924146758 -3.3451209329982286e-14
0.14674849550158642 -0.7913157063299769 -3.71953461981291e-14
0.16504425406504802 -0.7779260553490279 -4.170610742107596e-14
0.1813622474927063 -0.7418227427417264 -4.607607267138887e-14
0.19538571808184146 -0.687651146043014 -4.938358336124035e-14
0.20737448832042135 -0.618368396958683 -5.347416426138879e-14
0.21749310991483642 -0.5361611397032591 -5.753435842139081e-14
0.2257766187176314 -0.44311027168455874 -6.274684941112499e-14
0.2321949634851082 -0.34135428636876497 -6.86154765995418e-14
0.23682617947197124 -0.23323336712938184 -7.486778300412135e-14
0.23924207015173748 -0.1205525080800981 -8.112765419963347e-14
0.24114664175313688 -0.002873131342008773 -8.565071529642977e-14
0.09864568302269844 -0.005303226489044851 -8.449135629361285e-16
0.09971260668521247 -0.12132725718465219 -3.282489838959297e-15
0.10079549709260521 -0.23436026878489588 -6.258093571635402e-15
0.10322382431123081 -0.342647043508091 -9.693807974023737e-15
0.10664172925455633 -0.4444777839583895 -1.315981265136568e-14
0.11093493605576368 -0.5376327292416584 -1.6895822983499362e-14
0.11611031823302549 -0.6199724628788594 -2.0826125128584875e-14
0.12215438459138454 -0.6894173844706728 -2.487633127560444e-14
0.1290729537251916 -0.7438137288997676 -2.9500825646218695e-14
0.13713784128558434 -0.7803512660916481 -3.4110405545967706e-14
0.14674206813598287 -0.7942829381449601 -3.8096313524828685e-14
0.15633769052397609 -0.780305296040504 -4.292168437501411e-14
0.1643760637168356 -0.7437146869529505 -4.763812714489359e-14
0.17124808287435317 -0.6892511284427438 -5.201174051606163e-14
0.17722188875956743 -0.6197183075718683 -5.668845508495086e-14
0.18229756804396988 -0.537265604358831 -6.125185480130469e-14
0.1864525213959035 -0.44397378317596087 -6.614043050680212e-14
0.18968020711674471 -0.3419961729073993 -7.147304447343568e-14
0.19184782666319056 -0.2335662222596868 -7.715720348323473e-14
0.19272804039744532 -0.12050173968888779 -8.269380018030576e-14
0.19376599589078153 -0.004989614998395713 -8.734969314650225e-14
0.14536262555438575 -0.00681923944870445 -7.122136439123134e-16
0.1456800791250718 -0.12132315679674727 -3.1538801618121124e-15
0.1454092250968442 -0.23440898828853707 -6.052191350082328e-15
0.14541247199057164 -0.3428875500011539 -9.644421531842884e-15
0.1455735311506255 -0.4447981829903272 -1.3135405304776687e-14
0.14571810689224934 -0.5380226885942465 -1.7048333121973415e-14
0.145823644291803 -0.6204369962221121 -2.1093695192226753e-14
0.14584139724992784 -0.6899243962616378 -2.528998632097636e-14
0.14560435305245156 -0.7443684870966618 -3.0031048152930677e-14
0.14542877147655903 -0.781377890529647 -3.4623803772080816e-14
0.1467362291936901 -0.7963765555394631 -3.916444231840481e-14
0.14803408544746632 -0.7813310920548222 -4.440534359375919e-14
0.1478291400466207 -0.7442674909412694 -4.9135948863108023e-14
0.1475413814456636 -0.6897544217624053 -5.44703126946759e-14
0.14748471585181505 -0.6201762888559573 -5.95096016588136e-14
0.14748915523550937 -0.5376441843202724 -6.446850737350775e-14
0.147502224950831 -0.444275089259245 -6.930313882744149e-14
0.14749516964737958 -0.3422041131911746 -7.413348569020754e-14
0.14731700126571673 -0.23358664981186186 -7.937902011404875e-14
0.14695694225811468 -0.12051953836772857 -8.44303328774069e-14
0.14728827080726722 -0.0063896640267139815 -8.935769732850636e-14
0.19169572489931436 -0.0076869426798375174 -5.368359434266411e-16
0.19135898322620473 -0.12131645759486892 -3.008513726306863e-15
0.1898929894813483 -0.23419993952220627 -5.979101202632524e-15
0.1876042755899081 -0.3426904531401344 -9.393814970358944e-15
0.18451085121832658 -0.44454219047001564 -1.3119044183049328e-14
0.1804985786579012 -0.5376783670759409 -1.7058884705617306e-14
0.17552105075077573 -0.6200060170907585 -2.1482342379310035e-14
0.16955613240736409 -0.6893592094002357 -2.570774385659633e-14
0.16230762416531866 -0.74358417456578 -3.053898034340075e-14
0.1537780765243416 -0.7809702388045677 -3.5303676950376464e-14
0.14673029531179121 -0.7978965296295254 -4.019035658866457e-14
0.13967186489017083 -0.7809232269355252 -4.5451496646321483e-14
0.1311099436024233 -0.7434825445449055 -5.0871806335259225e-14
0.12380625636218083 -0.6891877601277948 -5.658452839092499e-14
0.11776222810100159 -0.6197422826427476 -6.21540030438611e-14
0.1126815869362123 -0.5372941114741205 -6.771524724332698e-14
0.10854387131606463 -0.4440079997742886 -7.239157123323064e-14
0.10531023472310211 -0.3419898831282703 -7.69506734768433e-14
0.10290099025961263 -0.23337190184111217 -8.155437851209381e-14
0.10139661576660502 -0.12052957084718184 -8.614849368631542e-14
0.10108522683910279 -0.007174211822396763 -9.137862262338666e-14
0.23813330866914145 -0.008067911820974223 -3.511917617260772e-16
0.2372520058311408 -0.12124552443760536 -2.8655904898280054e-15
0.234650394518667 -0.23377369846259435 -5.8776657050297045e-15
0.23014439779372267 -0.3420751568921869 -9.199848890092314e-15
0.2238145507256081 -0.4437059945653022 -1.3130550364908186e-14
0.21565438620370536 -0.5366020871443924 -1.750750253080983e-14
0.20562626403484086 -0.6186684260715716 -2.1571527896155085e-14
0.19365514754228397 -0.6877687112942557 -2.5870144796692108e-14
0.17978493874288815 -0.7415225260500689 -3.102113772596763e-14
0.1628676152755289 -0.7787941452487478 -3.557018297488915e-14
0.1467235803859111 -0.7991110688753501 -4.100930361948279e-14
0.1305676976832786 -0.7787475232109937 -4.6207391127012837e-14
0.11361450539001103 -0.7414215593147244 -5.2303259350025727e-14
0.09968370985666755 -0.6875979715210707 -5.866601892831276e-14
0.08762717022807676 -0.6184051427714773 -6.480752432514768e-14
0.07749109280160042 -0.5362175179189076 -7.078115290248282e-14
0.06920852954894388 -0.4431698514751903 -7.57354860336813e-14
0.06276205503664853 -0.34137232501914705 -7.989468843339969e-14
0.05818127882979743 -0.23295162618871318 -8.383782305240184e-14
0.055574388077334475 -0.12046846743922177 -8.769643680883416e-14
0.05472655813867027 -0.007505248319942679 -9.312022266099931e-14
0.2849593543044166 -0.008193833706696952 -1.4050169980694725e-16
0.28379779332474614 -0.12107682813966146 -2.687252638431179e-15
0.2801435135929783 -0.23313531657456993 -5.554241018731115e-15
0.27338926258327834 -0.34103962358641726 -8.899604267863483e-15
0.2638356705378619 -0.4422877866191898 -1.3289235616508263e-14
0.25156624843340253 -0.5347856067483763 -1.8101079756565234e-14
0.2365339866631485 -0.6164400523794121 -2.138785854336907e-14
0.21864530879315225 -0.6850530925469557 -2.597834860933975e-14
0.19790046802218153 -0.7385332229283554 -3.0315789748215823e-14
0.17466633772582812 -0.774262631085244 -3.5761682528746496e-14
0.1467153677089453 -0.8 -4.133659169502088e-14
0.11875109927076997 -0.7742169726211718 -4.658503301640972e-14
0.0954767859522466 -0.7384341510703325 -5.288797362260211e-14
0.07466437683816887 -0.6848851455138119 -6.069941501975754e-14
0.05668120539415039 -0.6161804990823159 -6.771059694258766e-14
0.04153144707255004 -0.5344059679769282 -7.471843687314418e-14
0.029134772325784833 -0.44175884787099307 -7.941515728146943e-14
0.01947678221944223 -0.3403490713543622 -8.324781605018929e-14
0.01268936882547179 -0.2323321428656709 -8.61954937591239e-14
0.00908002967153034 -0.120311053256186 -8.901646650509165e-14
0.007972601132684021 -0.007608628399675091 -9.41363171616315e-14
0.0 0.0 0.0
0.004751003582760613 -0.12219637807413034 -0.0009132615630884314
0.009992505566781804 -0.23458490291381176 -0.0017137838333437093
0.017257417436868983 -0.3428586089533209 -0.0024727536185847354
0.02722811623937966 -0.4444175742133921 -0.003010598293547901
0.0399461213943332 -0.5370736391771828 -0.0032833714716322335
0.05537449635287685 -0.6186267268979904 -0.0032695162484472776
0.07353633901280011 -0.6869632854231106 -0.0029738053867038837
0.09466525553351918 -0.7399068141105086 -0.0024586319396273262
0.1192112684708678 -0.7747044736450518 -0.0019040356125428865
0.14676029940504737 -0.7873618721605338 -0.0016383891976013455
0.17430577795095312 -0.7746903735810046 -0.0019045468005138761
0.1988405930523178 -0.7398742793392923 -0.002461778043983144
0.21994895307574466 -0.6869038332747823 -0.0029842017575078534
0.23807768798310835 -0.6185283238034128 -0.0032948288729599184
0.2534549842172511 -0.5369224182096725 -0.0033344942634672076
0.2660957039794492 -0.4442014495593444 -0.0031014973321095065
0.27594836606368994 -0.3425741059323342 -0.0026180884810191973
0.2830374170918077 -0.23424328050581938 -0.0019497769695525223
0.2879216351201333 -0.12178869635267907 -0.0013125521689378616
0.2916464552996363 0.0 -0.0013392112075371351
0.05081142223468494 -0.0031526584979874937 -3.301999409931752e-05
0.052909091805796823 -0.12217713744491196 -0.00046867163465778427
0.05568138263694875 -0.23542720324876448 -0.0010814026568582958
0.06064983691311987 -0.34392798390268003 -0.0016339606524361037
0.06735140877364416 -0.4458712130864697 -0.0020323181229434193
0.07588461615638491 -0.5388996586443452 -0.002235076713450866
0.08622362180211612 -0.6208443366419912 -0.0022391726805284402
0.09838173657121571 -0.6896011699794461 -0.002058929423058771
0.11247169637733208 -0.7430368974125395 -0.0017405945198988716
0.12870042062205111 -0.7784094958324767 -0.0013915350550872153
0.14675828115516198 -0.791440472489967 -0.0012154699352597022
0.16481174237380164 -0.7783941817780757 -0.001381319457410109
0.1810267721976895 -0.7430016183728272 -0.0017216886976665173
0.19509222050879568 -0.6895367502996482 -0.002034822465740657
0.2072123104309159 -0.6207375502396326 -0.0022160522127189575
0.21749563357343432 -0.5387347042734633 -0.002222706574942855
0.2259489206591273 -0.44563310536939305 -0.002044241329206868
0.23253763727144705 -0.34360910123127625 -0.0016907273803465589
0.23733406347745495 -0.23502885437859872 -0.0012135659436620537
0.23981847402420084 -0.12167537589975358 -0.000832732593857995
0.24179705684946928 -0.0029969283831333795 -0.0010628301542084018
0.09883316929774477 -0.00543472108152039 0.00031667973123637597
0.0999119639582865 -0.12212530308659357 1.8274044080679456e-05
0.10092779154700912 -0.23581290048448902 -0.00040072368693176247
0.10333229370794092 -0.3446057405397142 -0.0007682749245561888
0.10676430792826727 -0.4467570937203193 -0.0010159940909659987
0.11108902632855847 -0.5400145884896234 -0.0011298428528052438
0.11630532162356377 -0.6221919019035957 -0.0011190687202312704
0.12238370968377761 -0.6911831602896399 -0.001002080159907149
0.1293039931137774 -0.7448915563202101 -0.0008036113519789663
0.13730706086476227 -0.7807326616675335 -0.0005674502452634563
0.14675748438895214 -0.7943303371384625 -0.0004257007436065703
0.15620274410548596 -0.7807166154876112 -0.000546780645661175
0.1641898879813765 -0.7448545469027242 -0.0007633420733814867
0.17108221295864026 -0.69111543607664 -0.0009449049307433212
0.17711856602495746 -0.622079250612505 -0.0010503917581655797
0.18227587685776986 -0.5398395818256648 -0.0010592189126424748
0.186520801949608 -0.44650218044103174 -0.0009590731255951137
0.189846200706104 -0.3442601240416167 -0.0007490377330708485
0.19210214589425623 -0.23536688597892425 -0.0004661784468373538
0.19300284008218363 -0.12162337103048591 -0.00028066763418253544
0.19407861272831245 -0.005201165660395168 -0.00045711665007775495
0.1457599220979328 -0.006966088066699913 0.0008701483273092212
0.1460800958389843 -0.12212690752295652 0.0005531292521103114
0.14575293314972143 -0.23585049455618723 0.00029314565153869195
0.1457029008132987 -0.3448366252005147 0.00010434816077348591
0.14582129512383657 -0.447071689869647 7.025111810851359e-06
0.14592734750891617 -0.5403993074210015 -1.0053642404973818e-05
0.14599828265484693 -0.6226504548155075 2.9655534953770026e-05
0.14598851248344957 -0.6916828028056384 0.00010619788940539551
0.1457346032142049 -0.745436140640835 0.00021584445027946072
0.14554251649239994 -0.7817442122872418 0.00037254759642212646
0.14675734892424375 -0.7963828022724045 0.0004998971532397801
0.14796627708056784 -0.7817279444470187 0.0004036395349218665
0.14775611321860802 -0.7453984758387864 0.0002773594885337486
0.14747094852886986 -0.6916135357465245 0.0001960942776844111
0.14741536368732733 -0.6225346071033002 0.0001430706126578401
0.14742453588537577 -0.5402181043764462 0.00011693390676217376
0.14745182725193698 -0.44680565814767564 0.0001295306380141054
0.1474719918021859 -0.34447050622735575 0.0001918869615233055
0.14731838824856439 -0.2353853037690688 0.0002868878232613645
0.14694688252322755 -0.1216396364548559 0.0003307976724302091
0.1472881144679811 -0.006663987840891928 0.0002866189170139965
0.19232934039881308 -0.007843885953369214 0.0014811579019155042
0.19197487003658126 -0.12212541744256886 0.001101806072646587
0.1904440470986024 -0.23563319036915703 0.0009857107551335328
0.18807379161899748 -0.3446281297617895 0.0009744049060390284
0.18488455295530404 -0.44680680236953657 0.0010269683964114376
0.18076371504346367 -0.540048638703142 0.0011074452235908462
0.1756761734317417 -0.622216701138303 0.001177069059374008
0.16961955831557793 -0.691121509940453 0.0012129956454066753
0.1623304403948107 -0.7446641475943497 0.0012287148415914431
0.1538358462593612 -0.7813537892587005 0.0012920536615827769
0.14675722648853923 -0.7978834594351947 0.0013922620603932078
0.1396719235662761 -0.7813378203541049 0.0013337734266883551
0.13115697869332943 -0.744626923436863 0.0013119122232402164
0.12383307989322673 -0.6910524963656224 0.0013363400332541027
0.11772648751095777 -0.6221003580127616 0.0013363224974789621
0.11257390138625303 -0.5398653081256682 0.0012924408935197217
0.10837468422039326 -0.44653508759993926 0.0012172030070067253
0.10509962536326063 -0.3442517762292293 0.001132468740778002
0.10265847378258806 -0.2351639347292475 0.0010452188891619668
0.10111056657411438 -0.12164854645770977 0.00095997123401982
0.10078010692044315 -0.007489598241575715 0.0010474287299980566
0.2390228838318192 -0.0082299968214109 0.002020716322877589
0.23809650007545524 -0.12205953830702398 0.0016103239126071727
0.23540764814491746 -0.2351999146957094 0.0016616081553207688
0.2307855534935281 -0.34400126071807313 0.0018322442690944171
0.2243032054027345 -0.44596044896711956 0.002034037286901388
0.21595967184506693 -0.5389668432608796 0.0022059847083965895
0.20573851150446013 -0.6208828973284324 0.0022930111204281377
0.19360356276097504 -0.6895485153039345 0.002266517844781148
0.17965276365512248 -0.7426426562994675 0.0021509007080409088
0.16283648629409825 -0.7792364488022425 0.0020667010196475425
0.14675646844237644 -0.7990971278384431 0.002083813981853755
0.13066888846158495 -0.7792212903289897 0.0021194928277881993
0.11382966974250847 -0.7426069517856211 0.002256776197045705
0.09983997116971503 -0.6894815166885359 0.0024251011497125915
0.08764990519384441 -0.6207687369164594 0.0025011431591793576
0.07735874340630504 -0.53878531583721 0.0024540457976312607
0.06893557777463764 -0.4456892271189361 0.0023000818092216995
0.062377402321504856 -0.34362441827677564 0.002073291255982949
0.05770715434948619 -0.23473421753491078 0.0018038068690894192
0.0550162158718131 -0.12158787767767214 0.0015549915211061959
0.054114635566051165 -0.007842869153515052 0.0017094421438338758
0.2861219615652462 -0.00836767345825756 0.0023230740254545426
0.2848887346545634 -0.12190378898788998 0.002027921233461645
0.2811181450718338 -0.23456244072368437 0.0022933003692215815
0.274200982739151 -0.3429640738012526 0.0026536869360015945
0.26442603780197116 -0.44454540514881735 0.002998416314990023
0.2518858984038217 -0.5371648315681793 0.0032432214090548353
0.2365615964629118 -0.6186880246764996 0.003315940094581094
0.21841464883884132 -0.6868975245584429 0.0031771905454324938
0.19754566000058615 -0.739752347470294 0.002860129014125922
0.1744313622238623 -0.7748685176346898 0.0025300781994233527
0.1467545176821342 -0.8 0.0023756569487965217
0.11906907547057456 -0.7748546514622785 0.0025946386944207347
0.09592874655540835 -0.7397191800361598 0.002990264233545993
0.07501581306637815 -0.6868342131313856 0.003373913686964528
0.056807045587530115 -0.6185785661659609 0.0035779819796699234
0.041405206615678716 -0.5369888697026184 0.0035629270617592544
0.028779823665992493 -0.44428073112685607 0.003354774575462205
0.018932348928968196 -0.3425957998659939 0.0030009366354126405
0.011986608746373683 -0.23410790410206603 0.0025479687485261714
0.008238626406702896 -0.12143764070943915 0.00207407737081542
0.007039067817010325 -0.007964842372558319 0.0021031226325868902
0.0 0.0 0.0
0.0034222525053918054 -0.12538929923062564 -0.00211367111348867
0.008676588942013565 -0.23980352615097 -0.004037007019246244
0.01611444143385968 -0.3497040392096859 -0.00582455628101499
0.026381043298826467 -0.4525059831773752 -0.007204064395669626
0.03958023738010456 -0.5459241431533247 -0.008172405196506133
0.05566415488269391 -0.6276003539747689 -0.008663151405307462
0.07455609484381598 -0.6952696280726243 -0.008630916077713076
0.09618127154824611 -0.7467158907299474 -0.008096971684207602
0.12045115272286573 -0.7796104041881976 -0.007289032135522681
0.14675293732276845 -0.7912526129670585 -0.006821684675048012
0.1730577770111865 -0.779669870150968 -0.0072938349380180624
0.19733724961385107 -0.7468346392247565 -0.008110043513295697
0.2189799952026954 -0.6954472283063405 -0.008659908783085375
0.23790049626459933 -0.6278358335005327 -0.00872132866903352
0.2540298597885817 -0.5462148871200486 -0.008279847100172748
0.26730191264147907 -0.452845047443286 -0.007391199368794362
0.2776893219247109 -0.35007449830820286 -0.00612357505391208
0.2853235570069022 -0.24017213412417504 -0.004535569383565215
0.2909658242086001 -0.12574196172399188 -0.002688799196855063
0.2953100970442913 0.0 -0.002360138408032397
0.05059472881001762 -0.003645665853655309 -0.0003115398262334146
0.05264334040258755 -0.12520682510698422 -0.0009690877171595555
0.055145099724849114 -0.24061307270302112 -0.002520361951140721
0.06014079075841394 -0.3507172908150351 -0.003792454703609217
0.06697553182324555 -0.4538985395365842 -0.004778712336260577
0.07576625669819127 -0.5476708143133765 -0.005438108600972078
0.08647906551076916 -0.6297060528354872 -0.00576089914917059
0.09905719703395977 -0.6977315286171837 -0.005734078472014936
0.11342167156232501 -0.7495427733088766 -0.005387821537297508
0.12946344344747607 -0.7828110373334763 -0.004852362081060335
0.14676622211959484 -0.7946861266051564 -0.004510066633290167
0.16407200368804606 -0.7828711522727309 -0.004839977622935226
0.18012317337012973 -0.7496628632436321 -0.005365753803357742
0.19450472264652807 -0.6979112737169587 -0.005708603680968382
0.20711021398717724 -0.6299447214239757 -0.005743462097446627
0.21786547853944763 -0.5479663187333044 -0.005447972744239349
0.22672290927983846 -0.45424497903770866 -0.004844303786503483
0.23366363384394362 -0.35109955593699443 -0.003960787957772216
0.23884114470259518 -0.24100491773550062 -0.0028339797284899068
0.24166175491668906 -0.12560941798743278 -0.001595379585483435
0.24389304181558888 -0.0037085191284639447 -0.0017861902581975265
0.09918222413356688 -0.006419082197171598 0.0005608907305695704
0.10031798568136611 -0.12518230303411418 4.375597322887577e-05
0.10119006416136267 -0.24091344574289408 -0.0009752869002572218
0.10347860969078139 -0.3513340121120673 -0.0018042428166607164
0.10689535254767445 -0.45471347195020584 -0.0023800487910914897
0.11127517917664817 -0.5487008107538323 -0.002727628403413635
0.11661785357487356 -0.6309448528271739 -0.0028614318096033785
0.12287451365215905 -0.6991699436386988 -0.002793740359512447
0.1299581825623552 -0.7511835545805869 -0.0025402520950596813
0.13788827880649868 -0.7847488044896133 -0.002112399965010166
0.14678057944690254 -0.796983669387915 -0.0017346548340539723
0.15567579714676208 -0.7848098643106973 -0.0020830602080387376
0.16361495111159047 -0.7513055664159586 -0.0024836040253533964
0.1707148048623584 -0.6993526563781204 -0.002714874357403998
0.17699667730263044 -0.6311876633567843 -0.0027706321573143433
0.18237711716738012 -0.5490019542467601 -0.002643488098623039
0.18681376149759243 -0.4550677430860032 -0.0023340019083515737
0.19031896001492687 -0.35172726809170834 -0.0018444154874282439
0.1927543916559486 -0.2413273275543344 -0.0011727163994800435
0.1937799563714673 -0.1255608968389692 -0.0004767696073327578
0.1949836587699284 -0.006477914460160772 -0.0005529164309439452
0.1467676964285012 -0.00828210560396341 0.0017366019197738417
0.14715267753721628 -0.12526797189773015 0.0011572072123216058
0.14673143977112654 -0.24090020263526174 0.0005656113623820634
0.14650555803583065 -0.3515154636093288 0.00018923896196890866
0.14646365754408874 -0.45498658722646357 2.5997089738694583e-05
0.14643721187791733 -0.5490412093005925 4.944846175421772e-06
0.14640914272265498 -0.6313545911482636 7.837185170517537e-05
0.14636121505350425 -0.6996270684191895 0.0002178291539175516
0.1461869439720893 -0.7516814358798529 0.0004169134407665812
0.14604494125310352 -0.7855353819023736 0.0007776044738016224
0.14679546897221407 -0.7984535777473872 0.0012904570224671595
0.1475488078963685 -0.785597668138435 0.0008239317614022541
0.1474154408052913 -0.7518059121713648 0.0005081923385979656
0.14725624253033875 -0.6998134902000225 0.0003500728256589776
0.14723091364284296 -0.6316023420558082 0.00024237756881442872
0.1472348626791115 -0.5493486084583158 0.00018207257249511856
0.1472535300337888 -0.4553485516895217 0.00018236774061794535
0.14727901061083715 -0.3519196853679477 0.00026932697465136663
0.1471441417195413 -0.24131811092881383 0.000481372379941581
0.1467931894647845 -0.12561067058026704 0.0007630218799223723
0.14721135425284293 -0.008343978780549976 0.000873892746613122
0.194026411195037 -0.009343068084481293 0.0029499582506355643
0.1937302336414518 -0.1253447004158175 0.002315748119644842
0.1921205613419101 -0.2406663650748044 0.002098982353961782
0.18952703951392988 -0.35128710554060677 0.002174066405886282
0.18604396454598576 -0.4547180127155353 0.002424525945069781
0.18160105893377104 -0.5487007006615087 0.0027330500207805018
0.17619375555543068 -0.6309465806964671 0.0030166604289801145
0.16986432444911606 -0.6991314753357131 0.0032280855889665503
0.1625062652828629 -0.751044832582451 0.0033570063772926898
0.15419855988807216 -0.7851250562737209 0.0035557684839117917
0.14681066978449417 -0.7993378180308903 0.004254495216800451
0.1394254917723368 -0.785188850689853 0.0036194018846576297
0.13112601395690673 -0.7511723124054147 0.0034836038236495726
0.1237819292990321 -0.699322332589484 0.0034148753086867996
0.11747248150582232 -0.6312000388713009 0.0032556557396518655
0.11209134160357162 -0.5490147680984665 0.0030058145919814824
0.10768157733743788 -0.4550876225738333 0.0026945525969403108
0.10424019097490773 -0.35169878727469833 0.0023775657583967116
0.10169064266868522 -0.24108047485345918 0.0021364349056403925
0.10010655922927808 -0.12565955410696467 0.002056284679130549
0.09982701798504953 -0.009410328379329001 0.0022983398123995946
0.24143381901327898 -0.009799825327845211 0.004063288208246271
0.24056226752824345 -0.12532895372553762 0.00344641294334256
0.2377985735394233 -0.24023804889513886 0.003612711460954118
0.23289787430648823 -0.3506661490818583 0.004137331409810132
0.22598131193823803 -0.45389771823531705 0.004799558942097151
0.21711341346415497 -0.5476705725373974 0.005429689758870216
0.2063296878877151 -0.6297012630766278 0.005912413209691603
0.19366785822545945 -0.697696664175563 0.006165086748547731
0.17932917974500404 -0.7492920100631489 0.006179734651250362
0.16276812975245014 -0.7832667479734605 0.0059872058697557256
0.1468259462271747 -0.7998624258721073 0.006728883124075866
0.13088640529750895 -0.7833323506818162 0.0060687372742064686
0.11433327675623928 -0.7494230701763837 0.0063429589204708715
0.10000769721019362 -0.6978927512242524 0.006408718591659949
0.08736367743975222 -0.6299612758352218 0.006230167972847712
0.07660120909476592 -0.5479919187067959 0.005804099508264912
0.06775536128888292 -0.4542744387034668 0.0051923740657361704
0.0608563852177936 -0.35108224420353756 0.004477474590933911
0.05596111157593336 -0.24064711652484994 0.003789270406684417
0.05319063275736752 -0.1256269850603486 0.0033292026195974635
0.052320814416806534 -0.009869317314356961 0.0035947576676559007
0.2892537879351151 -0.009945718814370657 0.0049179492587103635
0.28808282554114173 -0.12519482024264705 0.004504523495431217
0.2842368499861016 -0.23960659120814798 0.005114972583264693
0.2769612387545544 -0.34963274517175574 0.00610830133327054
0.2665904302473353 -0.4525018704814206 0.007190982199235707
0.2533015315430176 -0.5459166596850431 0.00814005197975991
0.23713921344437622 -0.6275966428091801 0.008802562839091865
0.21815744967222 -0.6952119172770903 0.009073298445048145
0.19657562717302088 -0.7466201227311793 0.008882297376570657
0.17312286627379495 -0.7795117910018537 0.00818503736233752
0.1468407063644973 -0.8 0.0078717053143462
0.1205611498321607 -0.7795795265186349 0.008285283580605568
0.09711612928155612 -0.7467553975429031 0.00908397793817571
0.07554685679134288 -0.6954141316891279 0.009377056984351017
0.056581513894633714 -0.6278642675061137 0.009204623182391182
0.040437260145193124 -0.5462462027532993 0.008625308727389137
0.027162855230252903 -0.4528855634990895 0.007721766904761756
0.01679185607365577 -0.3500512637164156 0.0066087909359565464
0.009487964347036375 -0.24000994912970153 0.005460509273623243
0.005596039920659294 -0.12548282333362862 0.004543554271097416
0.004405399483012794 -0.010012192684280802 0.0045952666762614
0.0 0.0 0.0
0.0036585850474984125 -0.13266574845571863 -0.0031755131399717534
0.008810120861713087 -0.24999531892880722 -0.006837544983503215
0.015935085701991328 -0.3630127592647673 -0.009761865211112357
0.02607435402801045 -0.4686539703249273 -0.012411717382870509
0.03937013187884933 -0.5644282542724608 -0.014602602815311623
0.05576753936161815 -0.6477039147723994 -0.016243388464860613
0.07516738469830236 -0.715935993301667 -0.017217512892262678
0.09730454809007183 -0.7666435669539106 -0.017443387207869504
0.12152042557405897 -0.797708480273838 -0.017054489913445617
0.14672329095321746 -0.8080597337344916 -0.01670252092161044
0.17193511336362596 -0.7978600496412872 -0.017068513760002832
0.1961796094088612 -0.7669502407857341 -0.01747635455185466
0.21837053089837402 -0.7164042272259512 -0.017280305080074432
0.23785920560595844 -0.6483414434972852 -0.016354738191019586
0.254396233282376 -0.5652400941426129 -0.014792570885609105
0.26790447571939624 -0.46963541045457957 -0.01272290988720669
0.2783603811166953 -0.364137258794664 -0.01026774192156233
0.2859465248645376 -0.25121100259857393 -0.007584012292743513
0.2918935447581653 -0.1338747813717845 -0.004508751301552134
0.2974613782573375 0.0 2.57427505932781e-05
0.05206798998907643 -0.005665181668152979 0.001667301080660365
0.05431526275385789 -0.132076841655119 -0.0016635230991678919
0.056126977063945274 -0.25079406862207076 -0.004331482435341749
0.060795882907625234 -0.36395107711638003 -0.006592644590979053
0.06738269851836888 -0.47000362665026135 -0.00848513537952622
0.07607952677304936 -0.5661386646010671 -0.010042310327054946
0.0868365824650797 -0.649778580087384 -0.011196244693316773
0.09958560116123166 -0.7183601207731606 -0.011893747300405906
0.11415265598714912 -0.769371164865813 -0.012098234768817927
0.13011389439689652 -0.80061258641835 -0.011893539370739437
0.14675059335764515 -0.8109738646783373 -0.011675814559772088
0.16339676389006982 -0.8007666498004619 -0.011888712569264943
0.17938803672343984 -0.7696832926945438 -0.01209276475674367
0.1940106811404065 -0.7188377515424791 -0.011897116278561475
0.20684963788617466 -0.650431012924312 -0.011225619161109016
0.2177442332523854 -0.5669732985809326 -0.010125598797577377
0.22664493209567016 -0.4710184899968601 -0.008667617103782041
0.2335252563054216 -0.36512358877278406 -0.006934722008689036
0.23861927499725902 -0.25207865876724544 -0.004951672903788359
0.24103716798284175 -0.13338160530798818 -0.002570274959328953
0.24360936243396314 -0.0059785057769474416 0.000672417500683197
0.10122308326636252 -0.009836211410337919 0.002724672157718885
0.10238187087466777 -0.13187920137072334 0.00014744689691792543
0.10258406064126381 -0.2509751862934294 -0.0017572558176254301
0.10439565555109323 -0.3645179210606623 -0.0031613422882498282
0.10750714566726302 -0.470777740583551 -0.004235663354592325
0.11169346442294138 -0.5671411580351096 -0.00505563627606424
0.11694893598872248 -0.6509979111506359 -0.005626300097151724
0.12324744015276451 -0.7197972413580741 -0.005936007164833046
0.13054257799672087 -0.7709961447423495 -0.005978838951160328
0.1385827808952474 -0.802275330346067 -0.005769537478326361
0.14677224129666866 -0.8124603528186224 -0.005533575179352133
0.154971355122536 -0.8024320895058721 -0.005745891709820087
0.16304198216358265 -0.7713140762600561 -0.005934925926997136
0.17039273922316056 -0.720284613326521 -0.0058798495345602966
0.17677951971056172 -0.6516653116825646 -0.005573123890419665
0.18216668601581268 -0.5679978305641383 -0.005032096462453965
0.1865422590286024 -0.4718241853752106 -0.004285066515859918
0.18991741923104027 -0.36573267061387715 -0.0033522582849846876
0.1920814073361905 -0.2523156960600014 -0.002185869734648056
0.19257169588069584 -0.13313794790197203 -0.0005751923073767814
0.1938702830485966 -0.01031885952116857 0.0017123021711269544
0.1489333843438083 -0.012509310658906796 0.0036690172522472714
0.1492447845739852 -0.1319127102211964 0.001908788175063207
0.1482231932674104 -0.25082466608137666 0.0008439353602732774
0.14746128119562257 -0.3646299189770842 0.0003478896926718116
0.14705711143208453 -0.47101036985698264 0.0001405578226322442
0.1467849997579726 -0.5674531334631289 9.372365212307048e-05
0.14660075458753835 -0.6513910399129078 0.00014989236291223758
0.14653252630847008 -0.7202851045530465 0.00027808380194891736
0.1466854087322779 -0.7715759317638476 0.00044952179485055217
0.14699500587783526 -0.8027188696661044 0.0006979899163187496
0.14679155160942595 -0.812368948545484 0.0009979565923552403
0.14659779167926862 -0.8028784453308134 0.0007405936074935792
0.1469377635384443 -0.7718998598723286 0.0005322033809479354
0.14714550349697839 -0.7207823587268984 0.0003944055616769297
0.14716267009258707 -0.6520732190112232 0.0002865761124938365
0.14710225081423783 -0.5683309896409188 0.00022594923515814963
0.14700130207342366 -0.47208581214931666 0.0002251291669185631
0.14682418593545432 -0.3658832202162594 0.00031486617427063993
0.14631150149609573 -0.25218141484286266 0.000598716144454355
0.1454437525393018 -0.13312131871950778 0.0013678183443718644
0.1458322744135029 -0.013117276490856646 0.0028155663499487577
0.19625281966669092 -0.013940246260206212 0.004639435390151743
0.1958158900191226 -0.13196620801363135 0.0035813396087405664
0.1936619895690529 -0.2504562909241236 0.003402315049767229
0.19051901109649158 -0.3643180615170827 0.0038373183229542694
0.18662720028853547 -0.47069285231926017 0.004508957437874427
0.18188017542623564 -0.5670814901268062 0.00523782857097242
0.17626409680523994 -0.6509626024320011 0.005923699438397436
0.1698131179836416 -0.7198221873994045 0.006494602672747957
0.16277497713866165 -0.771137759257253 0.006871199251844312
0.1554488449194701 -0.8020178235724291 0.007036274156334985
0.14681138264259116 -0.8104750828786011 0.007305428599050756
0.13818370013368184 -0.8021803122143156 0.007098149295293312
0.13088801995710092 -0.7714678340770302 0.006993348730059523
0.12390417417495289 -0.7203294068544137 0.006672300233350121
0.11753596223689582 -0.6516593434992456 0.006145840433600306
0.11203585739412607 -0.5679793472496848 0.005481558078425124
0.10744115446670886 -0.4717950186198047 0.004731717543638774
0.10373154198260597 -0.36560038025714614 0.003967697248227324
0.10075806933196178 -0.25181597728914407 0.0033391562267071503
0.09869211776902229 -0.13314293854489426 0.0032268008126784217
0.09829729688750644 -0.014627818129622945 0.003972523628286558
0.24388877521843105 -0.014475647392163657 0.0056846649667025625
0.2428617673437018 -0.1319109335881924 0.0051594998074025004
0.2396190269231192 -0.2499033031249675 0.005859857600983727
0.2341774531573582 -0.36361287558308075 0.00721166071157031
0.22678548285299302 -0.46982025255048104 0.008735609384349188
0.2175139694449612 -0.5660173362403742 0.010206414883933201
0.20639369407334515 -0.6497149665237175 0.0114872028636234
0.1935167865860669 -0.7183800492311563 0.012458221691297792
0.17897035059794913 -0.7696503128353672 0.013002027119402487
0.16389022610338536 -0.8003706581445681 0.012816964361007432
0.1468346387424926 -0.8064353580004255 0.012563027702715878
0.12978916511305152 -0.8005361915919575 0.012898589488873279
0.11474031855425001 -0.7699867519483927 0.013164691838369385
0.10024888436686497 -0.7188974297461416 0.012699097058123212
0.08745393523014695 -0.65042614330888 0.011797627066469344
0.07644432164727025 -0.5669341915526391 0.010565874852699792
0.06730773671126478 -0.47094543225096863 0.009102709518098415
0.0600550454317896 -0.36491616018430334 0.007512662379996944
0.05471634098745375 -0.2512645800541374 0.005983296444272976
0.05150993232001664 -0.13307191867760024 0.0049899757433372605
0.05049355437759335 -0.015201514193177917 0.005198130506107491
0.2922333079871743 -0.014584832938814851 0.0067688152264970495
0.2910695560977423 -0.13172540042628303 0.006646368190230571
0.2869498563056915 -0.24917630212466582 0.008132660958969163
0.27912459644388743 -0.3625044465705982 0.010320085034991116
0.26814506784491804 -0.4683753869764222 0.012610543326061862
0.2542533781082075 -0.5642411324489601 0.014735938950649218
0.23749759299755752 -0.6476050679980133 0.016520262932851797
0.21798261690544554 -0.7159874654900942 0.01779720513307115
0.19589123624943627 -0.7668351705056422 0.018409493593261637
0.1713079042386758 -0.7980856818377742 0.017757119174610553
0.14686478031473466 -0.8 0.015090105350422215
0.1224326045779222 -0.7982545141489963 0.01785911070944136
0.09788289202984912 -0.7671784311038123 0.018614007640143874
0.07584977435075284 -0.7165155315841979 0.018103512792279158
0.05641965663234058 -0.6483309913677896 0.016922445850257723
0.039774287586940044 -0.5651762919887982 0.01521620210629861
0.026006921976348258 -0.46951975205546403 0.013128864954691205
0.01513062222009336 -0.36382059552636137 0.010799473298813023
0.007335347618547257 -0.25053487006185304 0.008447876344744702
0.00317296743935311 -0.13287640406513873 0.00665595050892929
0.001979023244725195 -0.015318810462351031 0.0064414731822372865
SCALARS Stress float 6
LOOKUP_TABLE default
-866.6016853637449 -4807.051204230141 -1702.0958668781655 -879.5004636871089 362.58863977870453 -456.90462306648845
1915.2148130391754 1232.0177207489714 792.8572713634318 -390.6912645050079 377.41180624488095 -15.538034421513773
1894.5180792739463 54.97790823669747 185.77213634736896 -184.18245110687957 368.7051296163675 -128.16888258586178
2740.3390959437124 254.7921114104371 337.4728396680834 -189.932906768272 328.0670797396872 -139.06810922913442
3699.868388596201 284.27623576812846 453.15283663358485 -179.00657339419354 293.17315739089725 -191.00058032947126
4701.569966589112 373.6856919063552 606.2735368689919 -162.41625646326844 230.2706577551399 -235.52790900229328
5677.006644994548 452.50375859865466 758.669340091834 -135.66800035841027 143.6224716542359 -281.28173983165016
6597.5395237259445 526.1237109804252 913.5089243392507 -98.89438109842393 35.00615736576495 -326.24074579186816
7372.667954213536 585.0194794253515 1055.442017970731 -51.47179163997538 -70.87139639510879 -372.5874041957269
7878.250465821269 643.8117952744916 1165.0409449747276 -9.563738546111406 -100.90143102338736 -422.3851613361343
8063.653681433138 710.0009766236075 1224.077232282186 -1.171390317855451 2.4254893786455116 -456.3513744036087
7883.975549745041 643.8794850006507 1165.4647782910265 7.160138335062342 105.70980741062361 -422.5029888576338
7385.250886178357 585.2072128385901 1056.438106710687 48.88580823565878 75.53903972503278 -372.8209640683139
6619.38995769447 526.5429299772344 915.3733939806314 96.00015190447772 -30.631255844135712 -326.5960288591589
5712.157531244046 453.4010586414667 761.9067200825112 132.34961700447062 -139.76504832053783 -281.71072472093346
4755.769148475551 375.18996019027804 611.2245931744342 158.51029169535184 -227.4260525817056 -236.20215846447485
3781.655498244201 287.3305997554672 460.92708052567406 174.5297269447242 -291.35366844401676 -191.0651458004324
2859.0201972578516 258.34575156911916 344.66600600737274 183.59485119000072 -330.1657871297475 -142.62819946216874
2096.9189311574723 76.12354791710914 217.50962916417626 176.5080623165704 -362.93195764349787 -116.34732962654672
2353.997435592304 1309.4988932536694 839.7057237343071 405.3710560807262 -485.2973817542411 -85.47599770147372
-36.238060086008545 -4584.419549433124 -1046.2092177508268 528.6594021525883 -635.6674979203964 -177.2137536308255
-960.8428351529077 -4169.542386671815 -1257.1307373148563 -564.5146711522349 299.57642706517106 -262.6474817778716
915.633140144373 667.7112209948472 376.04626640610746 -467.74945434365276 250.84442042298227 -78.77967501238008
944.6696395340358 -63.8263625577682 6.168314094788523 -389.17914608320103 227.59575023821728 -138.1004218767414
1709.552928368548 11.872125925463601 117.40045733845967 -394.169523487535 201.23354909238702 -179.08528589553686
2312.7665171172853 -14.355822042022684 161.35792485755462 -385.30307529828656 174.63019370944485 -237.59397456733393
2951.1709911815988 -13.56582711208924 225.18280325420892 -353.9067046120148 137.61127042282834 -295.9377552349368
3573.11760953928 -13.550949492953285 293.33325797315433 -307.4999431307811 86.10634990114158 -354.61638369240654
4158.296223000435 -18.85707202068707 364.0789372484782 -239.80944130601426 22.53521680618556 -415.1777050654966
4653.901061983081 -24.675372093813078 432.53382147554146 -141.65469806305123 -40.07544042195658 -484.11519984197577
4996.224998652135 22.612178142811516 502.2833892592072 -37.28333471050461 -59.766253873933536 -570.593677083086
5157.01205730871 150.74552722354338 571.2081958357658 -2.0885474722850637 0.5810077822706926 -637.6670174039012
5002.431096621689 22.885172494359466 503.15015088292233 32.973232866858496 60.81258310559315 -570.6060414137564
4667.332124456353 -24.106129061385644 434.36873776127385 136.93889578352096 40.77092221253895 -484.1241349424311
4181.070803404199 -17.943789612776257 367.075058980608 234.39307465299515 -22.429234511177008 -415.1496915204579
3608.584177620291 -12.244424401938048 297.6945443935783 301.0544754780753 -86.85674295773056 -354.48213684281393
3004.140759856332 -11.865074292599065 231.12099306825678 346.0654455114892 -139.3946065299024 -295.6439942161438
2389.182620479664 -12.545590991262719 168.16896113399366 375.6833090583676 -177.89770177192605 -236.82938052447446
1820.3149005081777 15.84798893105387 127.06326457578551 381.1830870701152 -204.56410305690355 -178.9293717042294
1099.8828380739108 -60.57595827425837 10.020786459613177 369.13559657055345 -237.0119907231301 -132.72314973007252
1068.4107164907011 700.5498085939685 391.76556675235764 441.18569111559674 -286.85472359315105 -112.99757634473379
-890.7470581922445 -4305.911621346084 -1208.6459982202748 353.2567327558517 -354.7115431485479 -106.67834467581422
-765.6809231255282 -2905.8624801792125 -793.1241676226217 -662.7753483143888 182.41973956782633 -86.98864355815888
314.2084410547153 203.78670586094114 170.17450070072545 -759.778629149793 142.76251684398633 -122.43379941455979
331.818344910182 93.49410815325356 16.1631651944052 -662.7049736504763 112.50149857205277 -157.67098509107842
732.6386100171748 -15.521271845051682 21.748526750510862 -673.9975047468653 91.23445525931668 -228.4070436063401
1098.7783659268214 -10.39145854088292 62.090996917139314 -651.1065914942196 74.61682472122588 -301.4403550067312
1425.1054411538296 -13.198622653806787 91.83092369743028 -601.0026221826286 56.46807456815256 -378.1586990384422
1750.0010144826872 -11.139051084445127 127.6648580438437 -526.5004037030177 32.115696087852236 -455.5771212260398
2062.3073413277025 -17.37089493930453 165.70791415845113 -418.2291211793888 -0.31232315163184754 -537.2403481552227
2328.4686513416314 -26.75277087912706 200.5161371445604 -251.17237257785027 -41.53334364925839 -633.4016068291722
2509.4457720410983 79.09650042820762 255.42058609318943 -54.21054662892235 -63.484764913248995 -764.6932207572355
2675.715111040508 422.1169460191252 388.0034679123064 -3.3375233027010527 -0.8929739825369423 -888.309070795968
2515.853015278113 79.41700172576017 256.6275160973233 47.31406790813615 61.522496175118235 -764.6243212143966
2342.1895447783127 -26.090270237707603 203.0164113782727 243.5985281596437 39.0509383466658 -633.2431716419528
2085.160440543276 -16.325743364833173 169.6414464089585 409.4784448067563 -3.004090853127969 -536.9426117068435
1784.7487726832092 -9.65980077695037 133.1716196045067 515.995015316707 -36.497457604155294 -455.0594922301168
1475.371908991652 -11.42351996448658 98.80782486228134 588.0619010218567 -62.00368362990303 -377.24100439813253
1168.9837617893222 -8.50314470942358 70.11747855387972 634.8813402661399 -81.02379909121635 -300.09532027905425
826.7427667670497 -13.90033219122123 28.98513172080766 652.321178241167 -97.83844634908498 -225.72920414257484
425.96456243931385 94.73299157595314 11.83491594303143 631.2057087544274 -121.66171749469706 -158.2629178381562
402.8575494412196 269.9274406606158 187.81026227433998 717.7889122978548 -156.32991243436348 -124.31383191005824
-762.0295749648535 -3014.879676738266 -810.2791247152585 626.4727906785835 -200.1707242372744 -83.13927167628825
-560.1829015052801 -1755.9593311961503 -419.4734849330538 -612.9002509376345 82.29133821439521 -30.676031240156572
-98.00392372271527 -40.755561132951165 65.4724417341462 -803.4870193503525 46.624169461630025 -106.32656442028485
-226.84972000772788 118.99278617760578 7.304089550677904 -806.7109592991258 7.3542289459549 -163.02349247596564
-178.88631393212805 9.02925132351081 -28.349389657234575 -770.1423042863103 -12.22421039488541 -240.17805878347397
-108.26916068078094 -7.786876022500392 -18.491906573512882 -738.4813236330049 -18.01515669052197 -319.9546663336373
-71.62697447124555 -3.1676195128746367 -9.787398347630813 -681.2461217327616 -19.59437258877138 -401.2875609981127
-37.312400393451284 1.191644741457769 -0.6445538484995299 -598.0652568373769 -21.02717326378502 -484.4205329142951
16.74206300501561 0.2398500561617105 13.680861262888786 -481.12390649005704 -26.495422167625552 -571.0133098322748
65.98744925184657 -25.627536911134257 16.754664159186646 -289.79608255863945 -51.29270853030004 -670.3309409045243
67.58927390023668 126.0363545030376 46.74261407946596 -17.95312303550992 -83.38173049197907 -812.855149428781
304.6121031402343 894.0074098634697 317.90454260942977 -3.747272402051363 -2.217600466134704 -996.5210605104451
74.11216385466736 126.41395378178059 48.2821483588421 10.203176976332955 78.71348202081704 -812.7610992912339
79.8159354428504 -24.858830124488673 19.90870513071483 281.26493046408063 45.94473022177491 -670.1193458421443
39.37906310039489 1.4234777582049256 18.55817714046607 471.236809382316 20.092542275138833 -570.6306114378907
-3.7824744838174027 2.7917450550907197 6.001073646003205 586.1472110400506 13.357669953470424 -483.76195164844705
-24.83848880817061 -1.3479148708367643 -1.6034966740375456 666.4511575336556 10.776239126282709 -400.1923506412305
-46.052751640000906 -6.30974236441825 -9.6152449533935 719.6431822302826 8.74764469332876 -318.14219449094315
-106.90242034395216 8.113512565901514 -23.147336387694548 745.5154636244671 3.599307409307876 -237.6655549317473
-163.4841692322537 131.0795956598134 7.000114371384125 775.6367651618386 -14.479367657116502 -161.64218883891587
-47.06349068798916 6.288319720667585 73.95094489399571 785.1858978250356 -52.603438652707396 -109.30488045326192
-570.7186591424488 -1840.2639942716537 -446.60630754849336 607.0475833633158 -89.72358155768356 -48.08037322902974
-439.85871738012116 -878.9310036112358 -154.8864239164935 -465.80746017826897 -1.2080854247478767 -24.22177239755666
-413.2875500415574 -116.97272840630117 21.268703661810935 -675.6924108031833 -43.681147420126656 -82.50045628166306
-761.90516700568 95.39561630102683 -14.227956059009443 -742.2932748355697 -99.09629336882287 -150.7145633558565
-1059.9193105580966 22.04087631960449 -74.35013208926749 -691.8185848934754 -117.54737692301362 -226.27199955208084
-1310.2418950252513 2.3015359327960216 -95.35062000303255 -651.7169675226925 -111.92282048220503 -302.1432597427331
-1569.7329040558982 7.017814335682782 -111.88358351368726 -600.6136851432133 -96.0672561074727 -378.2245202025321
-1827.7623582164847 9.395321811112957 -131.2570520795024 -527.389445993971 -75.60616685789563 -456.3976032939818
-2035.302783648595 26.97964629834074 -137.01825676609178 -423.2142759056587 -51.28753162633749 -534.9029438481249
-2185.5874609730354 -17.742440793358767 -160.22648590628842 -269.00161722612165 -45.65223088325547 -618.6876810433819
-2421.0779168220397 45.188554377944655 -216.79475041326774 69.14931935056305 -93.31597526929562 -734.678963789786
-1979.5703053907393 1617.8424337067502 326.23964546452333 -3.372929471135943 -3.5716050840208915 -974.2293624105363
-2414.4078536435773 45.63217950780796 -214.91119622541345 -76.12873855235705 85.87679386942204 -734.6164482711977
-2171.5903654408326 -16.850494362571247 -156.39360877731585 261.3092264379407 37.356198116931104 -618.5431441353554
-2012.7991291212868 28.317807213390132 -131.16134480748664 414.2893288595909 41.685429975702725 -534.6301010984454
-1795.3955368347158 11.122917868104144 -123.43046680203206 516.6250683964364 64.50184017050994 -455.9080741816172
-1526.524596425638 8.90413229512981 -102.49269242047973 587.2013302149694 83.77514089404265 -377.3638354617472
-1257.5064810029953 3.2105633703606933 -85.99277038499199 634.5366356485602 99.60537540837244 -300.705409060606
-1005.9262551489636 22.17804183116837 -68.53072669434655 669.8587088811271 107.38107764828385 -224.3222685735867
-719.6627262931355 107.00029308257807 -12.41094171098217 721.0098357545127 93.41096735968495 -149.40293643288405
-385.32777426699903 -90.81263991771503 23.956424775335606 670.6515085090389 41.36247477492286 -86.15818883731116
-448.51973220546944 -929.5176031694035 -174.84000684831233 469.1374463433044 -1.308155570613069 -40.49853508289709
-409.6181131139294 -351.72660653255883 2.642772185899152 -257.90447125903415 -74.58571252571873 -35.49497020478537
-662.8514605254551 -109.32956392688236 12.460570792759945 -389.29773358831375 -136.03226167458607 -59.2247314336341
-1287.4811932624611 54.883342769834144 -49.561030193613746 -445.94403459177835 -216.93547745728674 -118.4180778470968
-1938.8995451553983 23.469318378735057 -136.53714253225294 -414.6855385924522 -234.31130445876386 -178.68350566892906
-2529.7977684027255 7.958302324351598 -195.6646518025384 -386.0276199449746 -215.04929915905856 -237.3957049061483
-3098.2039941717126 8.552597915486665 -246.2120885553887 -353.91082690432626 -179.04572474832375 -295.87999810970894
-3646.7279444122364 13.428573070101802 -295.58228571716893 -308.4258427143093 -132.06671323893198 -355.028078341866
-4174.210307944799 7.922174609849645 -353.11471065845427 -247.12268355514917 -78.20346802078463 -415.0652907954097
-4474.793508292426 87.12173356166119 -344.12485570762817 -143.38988552726522 -0.8145044537600186 -465.17662080346133
-5051.695166517601 -304.79499612124573 -633.7064637885817 72.88836183883265 -36.4364438819883 -531.5360916836213
-4181.498471419563 2582.8280795517044 351.76448489453986 -2.134019382862636 -5.136505134949804 -706.4031786117617
-5044.72039740749 -304.2848483979378 -631.4476331519952 -77.30301188203131 25.787386979688065 -531.5558361903243
-4460.309175539689 88.14100328427328 -339.55351087597035 138.52957207814575 -10.919730203233456 -465.20580161797017
-4151.354169856022 9.427052979381505 -346.19920359161273 241.4991952134248 64.82865663553896 -415.07799413410635
-3614.839105349873 15.32645274432251 -286.49087494015544 301.67665297082215 116.84170614835243 -354.9700248800872
-3058.0259862924568 10.466151659970947 -235.71496380717045 345.57069378783416 162.45510955936885 -295.651174768238
-2485.792840602719 9.089391539339518 -185.78823275695396 375.4254640563663 198.84528027998385 -236.8719941035006
-1900.6845016217908 24.764431529945302 -130.26176108575257 401.84570483577977 222.01107602014716 -177.87968875467064
-1263.803290860069 62.97338394995823 -47.600261716378576 435.5903800958331 212.24657941866676 -118.07422658758402
-652.4807646488914 -97.2709217142388 11.734664224160628 389.1977053049822 136.94149279609329 -61.81982262745749
-416.38780360898954 -373.6407396687166 -8.527933503804 261.3043638742281 76.38023476577798 -46.04816283212592
-357.8001538387973 -151.8815844651503 110.84387891817347 -127.16399042776861 -149.31928597171844 -42.83972975770402
-803.3886100346953 -98.42342785765973 34.66925764103182 -182.35450770035587 -241.55959816504392 -49.53309484493212
-1839.9102349177547 -77.55011081497227 -145.21751018215298 -205.0187411399373 -358.4310556482518 -98.34176421563126
-2955.681916029544 -200.9961786916837 -346.82425092143865 -197.12483308879462 -374.21697484460105 -146.35956965473775
-3930.286106855552 -298.5259582252306 -496.35615895147095 -183.30192435517026 -337.3131435626834 -191.8901280509888
-4851.589336419823 -378.6818371589838 -629.1674587217041 -164.45273233864296 -275.3796691053571 -236.94174179897595
-5745.839023745388 -447.9591655907643 -758.3671934398822 -139.73781818953333 -194.41376357023694 -282.63642689089056
-6613.074462107214 -551.0286964861066 -906.0742445346509 -102.42855323819757 -98.27654111145728 -324.42695458083136
-7386.096253442403 -513.737352360848 -1012.3246208627165 -50.1242163167597 39.798448488299535 -373.9136749093278
-8070.259622910743 -1219.9441064515388 -1423.0394605599963 139.30434358750534 288.98222396251646 -335.80033098971734
-6527.509098536083 2580.2754158503753 -155.54809966655077 -1.3789138364539468 -7.142271677047649 -692.5164707654724
-8062.566666174846 -1219.1480351016696 -1420.2440445244692 -142.15298009763228 -303.754441309355 -335.8406278183795
-7370.307409623873 -512.1785914627199 -1006.7165677959223 47.00531762529908 -55.97774069448334 -373.98277935936886
-6588.658817536207 -548.8115523791269 -897.7211583444112 98.86574974443512 79.97132729544971 -324.49874059155826
-5712.8709617195 -445.37032746270626 -747.6826565832154 135.57495250166073 173.71147685619871 -282.66355121568614
-4812.618243522897 -376.5461360326782 -617.5470073711554 159.57464132225238 252.9166360525799 -236.85402005016556
-3893.727444427267 -298.46496966404067 -487.14625211191014 177.65603654434008 315.511027324387 -191.63995357290577
-2936.085877826521 -203.66154127015898 -344.7519890214053 191.1218779206208 358.29233497031083 -146.0473064381999
-1843.826180617952 -78.53175675592279 -151.00757357699578 200.70024795397097 354.5392492058612 -98.54305625179384
-816.2680613209402 -97.51147622941166 26.882602626100123 182.61398820357275 247.35126847015965 -51.316063940118276
-373.58322567627806 -165.21507875747258 101.44493577159939 128.19506486906644 157.47368089178 -49.88023975686734
-130.91197585567983 -2910.541309134697 -912.4359854971126 -452.3861276774388 241.34465839007302 85.37389468843563
1715.769300435934 825.0628712191102 601.064226644085 -202.23491780099098 260.4146346367803 -26.75885776787454
1992.763049542764 99.84096307821818 262.71322183799947 -72.27126264292406 244.26131818863604 6.6855884780823835
2821.569556881557 244.68747042049202 400.5279072235624 -78.5565658123548 217.04854439349842 -4.57275546585073
3730.0673417762764 287.45157892573405 535.4259410967088 -78.01869441743631 165.65937729005 -0.4692766854464876
4668.074581881706 367.13990706246125 704.0691134461695 -80.01226965426207 99.08556960490795 0.3192312387016174
5590.001037469709 442.27851398462167 885.295470016848 -81.86407507883881 15.406113291425122 1.4980398284932832
6498.636854229411 522.9725134269469 1091.6186505261373 -86.22199100757257 -77.02088747766567 0.11870857202978446
7392.765505076659 602.9951270694932 1331.0643767818676 -90.59574793229322 -148.9367278165996 -9.721476761928653
8166.799714226338 638.197595445872 1562.029323962103 -72.94714068688326 -136.0876380863079 -37.34305442437032
8481.245575409634 592.6499908404697 1648.8492845392268 0.24555341924619611 1.288372380315745 -66.27123754192645
8168.504522515972 638.1027013911086 1561.549521308353 73.43441716717953 138.51946803859423 -37.51304526979871
7396.415436675004 602.8086087911619 1329.9786374539508 91.06502890770909 150.91218114399103 -10.05544818147461
6504.819100509296 522.7119622109418 1089.661957083189 86.63597246919016 78.15393093965491 -0.3468523990229495
5599.94160926698 442.02090163467045 882.0702143587197 82.15366237564676 -15.710975648145817 0.9441715126814849
4684.050048614772 366.9979194683625 698.9264310971229 80.02814052493108 -101.73271688245488 -0.0292570692567371
3756.6786844438375 287.9073983972755 527.8501803014494 77.71118041893781 -172.67177628401777 -0.9589956140275262
2865.277066153886 245.70676153015418 388.25734066626694 77.05108202280971 -229.13024940792306 -1.773524830106294
2078.985170158841 106.60891566971767 254.23895897104845 69.47774323083325 -275.8167192658394 -1.3201654355199217
1918.6084480595011 850.9625830573955 603.1421211362281 200.53914945047595 -233.04388351633852 31.56618634968314
267.8348573327964 -2756.800432768345 -649.4367031135126 267.30501398475417 -196.8786278537276 -157.28386798407672
-430.70759667160405 -2657.6149807371867 -805.3488966458953 -290.3083868280783 40.64579908367947 -8.000018035402537
902.6822044553645 439.83352163871757 317.62155098222195 -252.20942702410068 87.5701361984249 -24.319028717790317
1136.4208449662567 -23.81887950603874 102.21240542151826 -198.57084871006495 148.9788208181596 1.5966790222818767
1825.116561721502 27.610707046578533 202.5119500096054 -206.18328522257247 124.93004160876065 -2.150492384757757
2403.325459324462 14.23086258941687 265.50366704288876 -212.3330670702833 93.09513695330709 0.3380412650194194
3005.5828440842583 17.70314068327977 350.7204004610624 -213.501823187399 50.73306677100219 0.4144007219796014
3598.410654113783 22.46706006837051 448.07193334347863 -215.33927707048457 0.09983865287554322 -2.0376001865896733
4177.768657291881 32.55288329803912 562.3656884160813 -221.08711338363236 -54.290023096373154 -11.699463675549042
4731.7748212427905 35.596014476460766 692.2293829803556 -229.21731780656944 -96.4031342237497 -39.717229841520556
5175.116022845788 -40.373846940512855 792.1548452811943 -188.07320677730655 -88.8468269313324 -100.84807942359329
5307.594598400085 -214.63387132073424 782.5886636270286 0.35545977962996167 -0.49637016527575034 -161.7308413205573
5177.044831323517 -40.297761487093695 792.37236173118 188.7732032786465 87.62818510517359 -100.88467344624185
4735.841557609452 35.745763559089525 692.537027141358 229.87043526583096 94.49868578090393 -39.749912368005056
4184.467372490157 32.77691697898941 562.484852677272 221.61062215759128 51.20221342380407 -11.623913691282526
3608.696601135317 22.772301791636302 447.5090258052882 215.56490391719416 -4.941148406829115 -1.6447753908792055
3021.325961207159 18.13202167092129 348.75632400060937 213.1311352531892 -58.14674573308493 1.5565192712717617
2427.695808868853 14.715808306608286 260.8079612140022 210.9639452181494 -103.9787717674899 2.7238690094468083
1866.2120069296834 29.596771589336093 195.10801628616903 202.74237276402673 -141.83666674349064 3.252554528102319
1207.0989107589553 -22.715517110503768 88.97489718538446 189.77969061970882 -170.2640869419321 6.4546873503504685
975.2596652351206 448.03919414197725 303.18976427331006 231.237981251604 -93.21661309639067 17.705116949783566
-368.3593858250791 -2653.1057893227444 -782.8031571329842 172.32142827505874 -27.876867089856578 -165.91747693460985
-400.04464143502656 -1929.9760803192212 -527.4367561393653 -383.15825841675417 -6.444995837953874 -160.01704272577035
393.94833530042814 147.93118273969347 171.76742117692567 -438.0022056183439 20.017499724385136 -24.048967647656298
516.780197454167 77.20699379498825 81.54324306308918 -362.2156441435105 60.11659515701834 -7.332741944538388
877.6126713475553 7.437438417755235 95.00898326667016 -372.49732598775074 51.05954301768967 0.10172836727961926
1201.9360976433939 13.535887968989051 135.24016065051336 -376.53437897552465 32.36071505010396 -0.07947846436109701
1499.718891684987 14.036614439100223 174.413870430112 -378.00685236447646 10.918875994495515 -2.4306578578920206
1793.6802788197588 17.474136408785686 222.206088962979 -378.9122714863569 -13.863088474592844 -10.696975080716989
2073.2597168960083 30.57422570996768 279.60788368083377 -383.0291815617986 -42.006119151020066 -31.389929081498632
2347.757660312243 47.369732615415835 349.80325143657296 -396.3399467602195 -72.84062989180333 -79.9941964835271
2587.679299763669 -79.72246194211402 381.73833599056695 -342.80613402151585 -80.95226753968039 -181.06170839379956
2570.0137897170944 -493.4394587820359 259.0362457333187 0.5213938665742937 -2.079442250141098 -297.95112890494687
2589.748170461634 -79.61592271792821 382.60301100173376 343.8288111973684 76.50331177665501 -180.97699783434595
2352.049877741636 47.57765597963792 351.41291054639515 397.27868317971854 67.52815473642305 -79.75071013898223
2080.1176144305764 30.87561168159877 281.6831648117254 383.7423822896103 35.28105461196073 -30.80754862764926
1803.7606415184705 17.874616235356626 224.24591290311156 379.10830767458737 5.215635428015015 -9.403280716699477
1514.2383320097708 14.496678374171738 175.55297769109987 377.17067882651554 -21.93555965050112 0.2198378960056936
1223.4032163439135 14.160866426836174 134.292195774811 373.8441806672371 -46.20813753963504 5.169661547543126
911.4873656955637 8.4232126884633 90.49370919128016 366.3734244956176 -68.25101447128958 8.823268691647671
556.5158247302327 75.50296181355705 67.07763170655335 347.88977696780364 -77.51242810195632 10.195588326270542
433.08740444892686 178.2004248882387 162.40146583610226 409.05127458717465 -23.570205182261137 -7.602661522143931
-382.4981121797852 -1927.6763049500958 -538.4812341278476 349.9650767238285 14.403683822793695 -224.2380318791601
-332.0601572705589 -1221.2611103501797 -266.5769693844342 -362.2836212744088 -20.808223555310455 -175.44257474177434
15.103261544254138 -25.259984342729197 93.54368142098124 -481.2059393474406 -19.871215963885362 -43.13798458133351
-55.88439281687108 85.7150602558384 48.192966979202694 -457.54708860434226 -12.432017778419858 -10.884115633084114
-33.856551844899094 9.573748469989727 10.0674931354482 -432.19022625381575 -17.379080248206215 -2.6924919046982025
-9.10120302263936 -2.5415990473550356 6.021365025148699 -432.12878909542087 -23.344520826850243 -2.3072310231526156
-6.604663224741122 -0.3498446098514545 5.307779884778274 -433.0888148720202 -26.493115951868337 -6.83907042988442
-10.598363211133224 -2.394343834635487 4.669061878360079 -434.1051470555571 -28.66389985960168 -17.80910454044618
-29.42784166110245 6.48520447538289 5.3640801130464535 -431.1138147809839 -34.235866215027514 -41.292882554643846
-25.080880349717795 49.04727663916486 23.839429687397676 -444.90800518344116 -58.01405469547683 -91.70700510000566
57.64225183685457 -114.94823108060872 5.995971519333213 -435.4623742879962 -89.67557466220356 -201.86179680158827
-162.87013904814134 -979.7129535988532 -307.2881927574891 0.5669498466505325 -3.5821723356582593 -382.5468398695108
59.84071597946864 -114.80618136405913 7.518338055299466 436.5736804998459 82.16230725182217 -201.7418971356499
-20.597229782994983 49.325395428052396 26.77607702820003 445.9250197599624 49.47917326393712 -91.38237839106637
-22.48801320666804 6.891679391390023 9.450778839995477 431.8771229200783 24.094168619993166 -40.55564661273581
-0.9167369648340546 -1.8668949491617806 9.389677289259883 434.28312727722357 16.516137001517077 -16.245755713164638
6.366743490053962 0.2728548731769367 9.759221657261916 432.06325495701174 12.257892381218067 -3.6619263208569803
8.665469854224092 -1.8232041114144846 8.864074907351906 428.8519862196885 7.36465140334922 3.764780810387509
-10.949156801570073 9.345934703754988 8.281302278896788 424.8392615045054 0.6817949442023385 8.298097263364397
-33.523347472320395 89.59615333876003 39.03960964494858 442.80146378262464 -0.5931370722118889 6.860677522654622
35.78100698866013 1.0706130382391712 84.94320888400682 465.7500034054986 18.782026702693116 -32.43489546016529
-331.6261850267501 -1230.7147466883644 -288.5147749177276 351.53686478048905 27.236082820352305 -213.83200783972595
-300.4759846792295 -648.7528619192286 -59.741382942810084 -274.29939520707273 -35.10260199940197 -151.73704554074007
-291.43675925861163 -90.53305816870923 62.0758192185356 -407.64825488387885 -56.67536118984931 -43.9896974954818
-604.4529654605494 56.93464855715412 7.927560921710206 -421.4074445214632 -80.09520062836557 -11.301344452003265
-921.9829258012935 4.604102896274755 -71.23106591621315 -383.0879904806193 -85.59414022191753 -1.3847296073682955
-1216.8433278218743 -13.441542849564573 -120.99374199712227 -375.1600568624369 -79.66836647276156 0.4998650056989128
-1516.7779419380481 -16.44736968660392 -165.67777998644547 -377.1274017585195 -64.40106335712123 -2.4902735429565803
-1810.3103952669048 -17.102971738518523 -210.02659559607838 -378.02842332735224 -44.373608659543216 -11.627602540909605
-2121.172081513664 -29.29258218406348 -268.82489841118615 -374.6510131990811 -24.73508771250053 -28.379711206166363
-2407.2939624836395 36.25978692627537 -309.2832384367297 -368.3656447625981 -30.889874122436115 -64.13854817396079
-2433.8990490858937 -20.040746035766887 -326.9062282855813 -465.7131248490464 -95.44121313385425 -147.54155863652326
-2998.443879741935 -1697.693761278857 -987.5281764273592 0.5338609364714368 -5.117003423010236 -400.1100493679467
-2431.566215803806 -19.86587478283807 -324.71784653800046 466.76396747509466 84.79427336272049 -147.47477649850313
-2402.609557106413 36.604877771343276 -304.9990526894635 369.34243771085903 19.047201375651678 -63.93104295384598
-2114.1389017944934 -28.785453081414406 -262.69014220575144 375.41926246838307 11.065606209576293 -27.851031465842137
-1801.0244798501342 -16.44643974994278 -202.5631229312035 378.2985410705049 28.57495227402156 -10.4125444325671
-1505.3798831264207 -15.642912761785626 -157.8322393417386 376.32604028140736 46.778608532714095 0.1069968146925494
-1203.5866277019918 -12.772840990347925 -114.49867987251343 372.25703390574233 61.44987737891815 5.7520507085659265
-908.444272369819 5.107865873519944 -68.99089079305323 376.3944974892668 69.35443679782377 8.436711034174753
-593.7783385692933 62.08913731915746 3.9362749251546916 411.055455644632 70.42076050432057 3.0843693714203795
-282.56226942125323 -74.23938061507995 54.47111246865649 401.0102077836613 57.031429910095305 -36.62555857603916
-304.9784945501038 -659.1423759262541 -80.82324963971786 271.82079665576777 40.400037368412356 -177.19613888459938
-321.5590143828271 -287.67630315443665 78.28574561120098 -143.4450113123174 -62.9076603952869 -98.49776671551487
-549.697397613234 -93.54235013842116 59.906858178620844 -227.90882557911132 -104.86261805246349 -29.938197631078154
-1141.1104698041158 24.44938315778187 -35.87305299043288 -243.10081008111183 -154.85344146665466 -10.31926677104784
-1800.1779757101813 2.507139928120788 -156.01782920826184 -217.95141854240063 -160.70981693483606 -1.632166826584712
-2423.0919798940936 -13.471535903947553 -253.48204279620904 -210.83296175976847 -141.806427219418 0.7542172184038151
-3025.7172829573437 -18.90763459858516 -343.3568252597243 -212.51743089909314 -106.12808051523922 0.4242988085436047
-3618.440891935833 -23.352447251140187 -437.45184005322466 -214.49177100157948 -59.93932641895561 -2.6703090145751545
-4170.713676863678 -13.61330315496126 -529.1391949411502 -210.50986349278827 -12.883740007697101 -10.81164910168459
-4818.925421637023 -78.17055261461331 -695.986035465904 -217.15351553094786 28.85620125724386 -16.95745781137272
-4899.200967037613 350.3563240435463 -598.697129826428 -294.1392102795499 -60.22814917204862 -55.140239345419786
-6075.93833905756 -2617.060533449013 -1861.255684141171 0.37024215554028284 -6.796904512361373 -294.53161469637007
-4896.7148563171495 350.5561902882419 -595.8369627065235 294.8730941901976 46.140735598030034 -55.20524584414547
-4813.992864295235 -77.77428623383496 -690.3411557142667 217.85351111089776 -44.36527101812598 -17.047121808644448
-4163.489029252115 -13.030206717538034 -520.9335623163983 211.10212178918562 -4.766407311544643 -10.824391000286955
-3609.3413414838938 -22.595858034854185 -427.20668146095085 214.80677512434804 39.88884811708179 -2.3959407752435555
-3015.6650629523438 -18.04134536547477 -332.14410232143234 212.21091046043384 84.30772439152247 1.408695763660114
-2413.9122597638766 -12.676998519415259 -243.28955322728308 209.22502245869106 120.34790843531718 3.2921224984958224
-1794.5204253261727 3.6635819101208718 -149.7018604386424 214.16781819915798 143.74658760905277 3.716400540801648
-1139.943394606909 28.718082265765986 -35.578961470337326 238.00418345393155 147.5161818427714 -2.466601576523887
-549.8821875774569 -85.7922279164057 54.04030118596156 225.6565640818204 107.19064914078618 -26.09687342058441
-327.9089572041146 -294.20652550025255 61.93440100078248 142.9253925928351 68.90976145616477 -113.06797545229585
-345.18776359619284 -157.7413393181688 165.88032969976263 -54.94197296583329 -120.26833041869624 -63.83591748686252
-757.5016790301902 -111.13873028722338 68.47222287443714 -89.18775452357485 -180.62660675575012 -20.813058991459915
-1722.715315083991 -106.73520691905182 -132.7807145815326 -87.58942823324188 -251.3731531603288 -11.201317240966846
-2786.180684290372 -204.88013358124778 -351.08738080867215 -79.42147995340636 -253.44813608991473 -4.640196403801039
-3758.7880388305293 -292.2270281664781 -530.440470560246 -77.65260205168087 -217.9111065960014 -2.3087944209050706
-4691.55728132705 -367.45889556473094 -698.8487282286752 -79.46005238910078 -156.88535775688447 -0.7487094725379793
-5614.5861039481615 -448.24641682975664 -878.0417540063512 -80.47224603787025 -78.9302020332754 0.42604835010875863
-6483.06283586443 -489.5709110036287 -1050.1140846909313 -84.12072888657656 7.287184556169448 0.21440677826902332
-7261.3290310687125 -654.7592639655927 -1266.9342622467223 -86.60335136803732 96.04959489763168 1.5673844145560099
-7768.594349489835 -31.72192657905623 -1255.1682133385252 -209.93298485812596 143.29082333895323 33.94923500206886
-10036.780738966596 -4110.5436480534745 -3338.2928674909504 0.1777334884906434 -8.744811768378757 -313.1772348341785
-7765.865544852759 -31.343139457381604 -1251.568974223071 210.28890698592656 -161.38391019243224 33.82729735363044
-7255.949702981603 -654.0067225178633 -1259.7952099298136 86.9550843436487 -115.88191525933925 1.344457098204781
-6475.288026035615 -488.4623412084322 -1039.6411739191876 84.44358323249187 -29.741546135065708 -0.05660193441914263
-5605.063617181576 -446.8334736015548 -864.7760764552305 80.7011251980666 53.534267288259166 0.21575339639673707
-4681.821082134481 -365.9328033920499 -684.0303187341017 79.4568267199877 129.3517151954749 -0.676050282765253
-3752.13848080435 -291.03213465729465 -516.5472451181662 77.12526788966849 191.11388655898412 -1.5046756316847025
-2787.4342894863203 -204.2110490589856 -341.8478642960093 77.97961259923086 233.28017601182245 -2.4216173181004574
-1732.7119549346 -105.1267785842123 -130.98320382484312 85.48479566579073 245.3695856921623 -7.821680022714656
-767.9964384408556 -108.64378283118191 63.46639470916447 88.13252931259503 188.21640364281149 -19.31294715393036
-356.2256409059996 -162.63127255533755 153.45040262433355 54.08089757592042 132.76002134371453 -72.65093932092992
602.7638040315042 -2210.1003255425253 -482.20095645330633 -28.427460979843204 104.27866405365904 9.048748382519596
1917.7245115236633 787.2986678704018 660.9078869825053 -195.59948744442863 142.17042659687587 -10.849191137728317
1986.8496978759922 97.1883170127038 337.57465434592865 -77.39422447529341 133.80294550371786 10.479831735356186
2765.017087533172 210.908925508538 477.77816889104486 -88.43779584729135 111.84911300019903 12.09263622033723
3639.992230774881 252.6290071185412 654.496783177601 -92.67216084272853 71.92272473903998 16.687543981098703
4537.66920478253 323.0406136659466 875.9290752846335 -97.30522448391972 21.920101889564364 21.439934063128916
5444.316548750872 393.4743407960824 1134.0877292370858 -103.55480078726372 -34.59519233309329 25.891604918670545
6411.964982761574 479.87666563556564 1452.5997239833014 -115.44891739875843 -88.58502695284022 27.894200384023737
7507.274160468314 576.4613188319667 1848.2114112916863 -129.61289441437162 -118.76350874056317 23.49891529837496
8587.017495802758 608.027970249946 2239.1701001616125 -108.88048907024888 -92.18125779888592 10.177129604030561
9052.01835638459 525.7922135622634 2387.2981378889504 0.25191354351742223 0.11906300560548119 -1.117539936985154
8584.371707428616 607.7317622919177 2237.945301584731 109.39969641641756 92.2824439644228 10.032639932121288
7501.5197438388195 575.8367677015802 1845.366353142452 130.17969914686398 118.43877653968426 23.211662026338615
6402.091982403837 478.8537831687269 1447.2652288801248 116.10320034811325 87.47902539188834 27.478760180750903
5428.549033185543 391.9141613589528 1124.744290698283 104.34030491933726 32.153896385620065 25.39097416128007
4513.2482629234355 320.8035937599409 860.2764511218364 98.31079303241097 -26.69639806976937 21.007636272940246
3602.307003034872 249.29459342559267 628.8575239159028 93.84403382231562 -80.9391259337747 16.43509617188532
2708.131184916848 206.42373059879253 438.06175206820313 90.58517477307 -127.27279896518914 13.133665560938075
1883.140917342106 85.44590970972331 267.41672954169627 80.4595324052717 -157.60347125120134 9.627618227443351
1656.3116158931482 735.4167803038608 525.9415760888334 191.1479497043598 -143.4630204972501 7.749115837233534
159.65921767017326 -2333.5080621565753 -820.3145149122494 245.50878229142904 -126.81525922614915 -75.73903865308934
-291.48658005148155 -2259.8443025245024 -787.5964773918523 -48.490625018657916 55.209271320076965 -27.025099044582475
947.8869468965806 411.299036973275 338.70829531365877 -221.9848471778801 66.9272054444559 -22.734928553436532
1190.7631139149173 -29.614567947844403 168.7687747719477 -200.17140023810296 83.77919204849985 2.5151534633317234
1816.923549385674 5.627293756515143 276.5528553113306 -220.61847642894952 70.04471484541408 6.355448605722134
2366.93780241411 -13.72863471231013 365.47949635298545 -233.2075693461137 44.3703422150664 9.284769177800673
2943.0526074558297 -17.760710983184175 490.1223311237195 -241.5050557517922 11.862489105532063 10.731051461331862
3525.81561551193 -19.961236274864984 641.2922493940454 -255.0573408157828 -23.624818631746596 9.354641147453481
4141.872971407181 -11.610867791934009 830.5255399549845 -283.10862993906363 -56.38963338676299 1.6834205065319923
4812.29183776133 -15.588220700968922 1055.1288005873548 -324.01369455459513 -74.22033512808967 -17.83597327478811
5412.708875358147 -154.18105615467186 1231.8275474875024 -283.95370585805955 -57.88446553879255 -50.491091011220924
5598.143571087626 -434.7717911516881 1227.6692863612443 0.48858864088901766 -1.0689997357126213 -73.79916043432854
5410.002446017694 -154.2881834851477 1231.8658731282837 284.97561560204605 55.544110348877666 -50.52539878951523
4806.484322743467 -15.807056205730342 1054.8932214750118 325.1774244442664 71.264763089857 -17.868934140749534
4132.124286380731 -11.952121046918355 829.3136373344867 284.53709492374844 52.36654193562119 1.744077782291451
3510.7362186435694 -20.43632175751504 637.8682946264772 256.9198113151618 17.96868988611286 9.704767695050958
2920.4396685759734 -18.37196138479718 482.4522541344643 244.04193792712562 -20.01324712496682 11.750831599918104
2333.6934429458333 -14.331788228126106 350.65185163146725 236.69148209402346 -56.303409329089526 11.580490516081257
1765.6393614268309 3.6192933284375863 248.57145444024613 226.02772992549558 -87.67159254235305 10.961972223136419
1107.4284465540995 -31.828211354554025 120.75901491029593 210.6142268349474 -104.20187453962966 9.688848834196596
860.1938658318978 395.90276381074557 263.1581934328697 241.3147241087662 -74.91437817344406 -2.809244080393277
-351.69260258833447 -2228.8518662568035 -901.4293965440703 182.35391940875417 -48.988765854426504 -97.9710793506205
-329.5850584546308 -1620.9707882251982 -545.2032894507778 -314.27440633633694 19.369474701815548 -93.17269049919157
430.6691344698388 205.26445721723596 193.89769059898472 -386.38108396361116 24.36781400307028 -34.36328812977539
556.3608116847525 49.820253620327016 112.36512794877176 -360.17310164329695 34.09248418558972 -8.7572986958635
905.3342333230657 -10.097584135427395 140.01869407001274 -389.1825650020008 28.14451627134118 -0.12538525873852596
1205.3817302875611 -9.279694619720303 189.25213433609983 -404.2707135803376 13.69214604406497 1.0679777059721594
1486.1402579790117 -14.239816696867898 247.2266086426519 -418.60819052505286 -3.439300800609223 -1.5629466607110447
1768.0696301030662 -16.53356978595237 321.58380166235423 -440.1392106839913 -21.202564551469877 -10.187410749268862
2054.7163481658536 0.04558381168649506 417.3745789796778 -482.0446283583086 -37.74419180012935 -29.4064478241955
2384.4470194108126 22.973680175138778 541.2332481046689 -554.8436731326638 -49.072281770402384 -66.10819360278822
2715.339341262628 -191.38784963486933 606.676949983528 -514.8355284222248 -42.14029972905929 -121.20378220987712
2688.6343156843564 -823.3141197300421 436.00190186260363 0.7883644492012183 -2.2354133052974805 -161.02785546844592
2712.5276703574077 -191.53029815132052 607.8811718419456 516.4867701550928 37.41482231365331 -121.13121221821582
2378.497370784362 22.688424525785162 543.3989517897912 556.7318490448711 43.58686411190453 -65.88875176702162
2044.9684018125336 -0.3819539897844153 419.9411363853178 484.376884703669 31.001921515394915 -28.857778634345244
1753.478701641441 -17.10667736404125 323.5040660784812 443.2105146054265 12.697999228870751 -8.940733409412877
1465.2079469869325 -14.87334666861489 246.75185307290906 422.8433854640496 -7.393455602026267 1.0453876569829221
1175.7655642263494 -9.958953851414792 183.44434714716851 410.2831686574082 -27.608029264738356 6.168607795707549
862.4028447128235 -10.948133469957087 124.02180989871927 398.3688743443316 -45.644306874727405 8.715066381362586
509.2927279369518 51.17830275083353 84.5852657488806 376.7533556916984 -51.583247034030876 7.0931145298029525
382.68453806681134 166.80021619343512 130.87559176150467 415.27678367722933 -29.343893694601995 -20.785657854654595
-346.4933946807499 -1597.0779609478025 -622.4667023871363 343.85826763117876 -13.221222517519536 -144.11534422099555
-295.814469387275 -1029.1349039799031 -273.75192522620625 -338.5989697386494 -2.3062545504423615 -119.46774413160298
46.1478595545489 46.91453854199039 110.36973330716744 -452.93030688104125 -7.413000838800056 -40.36161893537026
-15.185498443588827 77.13112864250618 58.88349862993652 -449.3491067336871 -10.61225088375998 -12.083941454570452
16.837252068768812 2.8959898405331725 19.403248613843758 -447.6875186646627 -13.619755042077847 -2.3426327181320463
35.70094302821024 -3.5490667135972602 11.497855539294147 -460.960904316143 -17.861533798289962 -0.7236862706406616
28.57055800264827 -0.9694229207809484 8.632660815834988 -477.25579498676746 -20.998243717149137 -4.601644957414419
10.346544723267467 -3.433380870618858 7.657943591333673 -502.029957497075 -22.68186536602705 -15.430940575368261
-31.06338970122364 15.93880558157418 10.982951982565847 -537.7804479294778 -24.8747829323307 -37.617447852681714
-25.24218956073775 88.00157083221721 48.53289703811077 -616.4687023295572 -31.171495253810416 -78.06484832942469
108.66914568485775 -178.3235625344235 34.507993705879926 -643.8520342733442 -33.102372951827334 -140.85654096450162
-192.90875575605673 -1443.3524330771897 -398.9332937963578 0.8934155812388745 -3.398478400378359 -192.1774679274192
105.76562260757758 -178.50999941649235 36.8818249603008 645.7235145757147 26.00344620026333 -140.75147781446148
-31.303583024065084 87.63194898084437 53.107213915546055 618.6090798504564 23.185988486807723 -77.7680117410639
-40.7625340763236 15.393066386143351 17.33184852487122 540.423792641796 15.480635665152233 -36.9172662474893
-3.6492242418078327 -4.133943142969219 14.934451566722574 505.51206668533297 11.474528826077313 -13.907947339741751
9.482875357197791 -1.7306282944484643 15.298344913639436 482.0911918737379 7.74160947283042 -1.476379272673496
10.215623470941976 -4.220848077266246 14.792134142069255 467.972945855435 2.536026451157883 5.263779199468447
-13.87713444363528 3.6469118833912813 16.120480181171008 458.3620719951931 -3.060144550616426 8.441475495056585
-43.42766650870457 72.14717294753058 42.91363400814941 466.21117002875405 -3.19358307121641 4.781270628237431
20.1410267055851 16.698733134144646 65.41723690241226 466.99919070776485 4.502808575400041 -30.474779482333933
-298.04713679616265 -1003.0912449845147 -328.0766563316685 344.5396108529544 7.152258660392484 -152.59590978604191
-280.169735968514 -545.5805860285116 -37.54057124130859 -270.15367044578153 -20.554355483115728 -112.26573590009018
-267.6818383939897 -33.952217297465346 74.50683681752307 -396.78110191359843 -36.6956370138901 -34.466652619099285
-559.5191517741086 64.20038892222567 0.9568638647010987 -418.5592857098113 -53.77053246044872 -10.300748596154262
-849.8383458466299 13.881660896434772 -95.8847740649183 -398.2261592210982 -55.04658104399753 -1.1736557906847953
-1132.6433281595926 6.563643537332728 -165.0764317994158 -403.2889458172956 -49.608652589707155 1.117018314287097
-1433.2589106978323 10.728929741824484 -232.02918030485077 -418.61203989793825 -38.781648775005046 -1.585536346777158
-1739.5359844340162 17.312568694696758 -301.729969155316 -439.39338331252833 -24.46071464257302 -10.30971939167876
-2095.389936845387 13.33865557892724 -394.6142861641175 -466.511989211383 -11.394174528278107 -28.20770623049251
-2441.7628471964645 125.98604123278176 -455.5463374047802 -504.04204008653215 -9.957059192946717 -60.68919543804375
-2450.2547762401746 15.16036279319378 -477.17981955281437 -668.7557152003179 -20.859992291278836 -118.27362013360583
-3213.2188498816445 -2339.773625377384 -1362.7649583776936 0.7910433117672415 -4.58440723594524 -177.53021984515613
-2453.2689871559946 14.92894488229108 -473.61962839697856 670.4124487459741 11.338851383753772 -118.21040118776692
-2447.978241325119 125.528529181825 -448.5281412043284 505.9354966071189 -0.586920546085157 -60.48893936370653
-2105.114380521449 12.670484319651596 -384.4233031126105 468.8466811306193 -0.7269603207159164 -27.69054240942991
-1753.04230593376 16.477358444342283 -289.00401279221893 442.4629484856942 10.446432100104088 -9.114697466645616
-1450.6389396623108 9.814304990149273 -218.08310071822544 422.8966370128916 22.975684352848504 0.9617974473607085
-1153.2872404936356 6.090760392542962 -152.1720714931705 409.6037556119073 32.76319707686569 6.217026817571876
-870.5843711495273 13.968566739977051 -87.5831810315731 407.86846221221236 39.14211905842631 8.272746358622268
-575.4557738931892 58.44836836301587 -2.8812346263318522 430.25570871711597 43.016294043788776 3.397468097607067
-280.1716393077073 -51.51075817552798 47.00556414925629 401.965126085831 35.22634809081617 -27.156827435233012
-279.8837953333388 -527.4770706706662 -78.45154816121672 268.4176510971821 24.493629512758506 -133.6759499520714
-310.8483240441005 -242.83226323327722 123.4051086542998 -145.9707069228992 -43.5869673926087 -67.89760832543546
-535.1768564122366 -61.644791601938046 66.51042780912552 -227.0318901191625 -70.21193357576949 -14.993918952048547
-1092.298014308669 35.91213527159609 -59.51007211769196 -246.85654516397105 -98.94194544057237 -2.0168583462407588
-1706.8068538708344 17.14365034775874 -212.11409810723845 -231.52114206074415 -96.71832721319305 5.332296284530814
-2300.431470545556 12.13742720419688 -344.5196383769743 -232.13449310508463 -80.71493571531296 9.166150190315719
-2893.6946523507268 16.346149461463973 -476.33915554590027 -241.451194809364 -54.76812335473413 10.676660838492527
-3498.9121736656675 20.761619940614906 -622.1857249252216 -254.43653424466498 -22.732437288716298 9.275703968398188
-4090.8751356100747 45.200240334193786 -774.4400377465901 -265.56277821145386 7.7649531390260655 2.9316190997287315
-4884.328985974308 -25.23921116906061 -1032.5643652389713 -295.2425554219523 23.897360992108343 -10.621370397300403
-4994.309123397598 539.0922894443923 -909.9766319631152 -401.08002181280017 6.556357475695294 -47.066652873150126
-6586.134343018401 -3493.1649375919346 -2544.3568615895556 0.4942590736651873 -5.819173158398481 -114.15393960592708
-4997.485082417631 538.8230712161021 -905.2010725697696 402.11379759505024 -18.60846012785844 -47.12088243607317
-4890.810316310959 -25.771087839315516 -1023.0385981576229 296.4192117767795 -37.144690434962385 -10.694328760746384
-4100.818806880027 44.429041112225164 -760.2957300702725 267.0033509905856 -22.829738416102906 2.92978450667745
-3512.2667850854937 19.80674687977806 -603.8385433916204 256.31389563319476 5.568226919886897 9.532034716032115
-2909.718461438621 15.388588179516589 -454.75687200886125 244.04508598161962 35.86509932539689 11.56359950082162
-2316.79543918403 11.594799902472404 -321.60353959540305 235.9717919701116 61.560188771427 11.41998798194417
-1719.2593813773974 16.633450603453195 -191.767714622425 237.13154054326276 80.55568693093495 10.073097855643525
-1098.1045217575493 31.80857405800966 -49.90326782758196 252.5757984725906 90.43155143662577 4.9804034813172775
-537.6594173061532 -69.65966366164375 55.0099623623154 228.29070797059484 70.71147325156744 -11.290742587809062
-310.21813200358923 -234.56356922625187 92.69197345819795 143.3862403889861 48.29104290823539 -79.86578344102773
-347.2830444179393 -141.11409414419128 203.88474311440763 -56.900543381865376 -83.98265810164986 -34.84924967857726
-750.677309305701 -93.96546267215636 67.55446745628488 -90.89178013355452 -115.7265455081577 -1.588905296597203
-1663.3300422558632 -93.5889807085018 -162.63391033128562 -94.1949871368613 -147.89896710824453 4.229852014613619
-2657.9819741154633 -183.57401172731025 -417.2503257566312 -90.71267090370327 -138.14190400167334 10.377697224575396
-3581.7382135522553 -258.1889431168374 -639.6206653042287 -91.98342175856999 -109.14832794031817 15.628237565651183
-4492.530764431262 -323.25280880283094 -864.7563684109505 -96.86871654907048 -65.68129138258224 20.790912507202243
-5424.1600289905955 -399.3635891420291 -1119.8744831525687 -101.73022417114936 -12.815750709805052 25.41160539881513
-6333.478119088335 -425.5866000186542 -1381.2469015200052 -112.53330162439971 39.39208446929667 28.831524157042164
-7235.530300339719 -629.2886482659346 -1726.5819964982113 -119.04063023565712 73.25024975497584 27.25632417910575
-8017.147443926175 176.284205900505 -1769.0750593381772 -262.1776240081057 69.95621659776872 16.864001333903435
-11110.036214223082 -5283.464656658656 -4357.191257614113 0.2570551134697556 -7.120606802210077 -79.97619767211448
-8020.477474692811 176.19990542570685 -1762.9568156582552 262.71825280288766 -84.69110435823423 16.746359699387288
-7242.265493862708 -629.4243326214051 -1714.2735198459038 119.66386305104149 -89.41417073892873 27.030225063119282
-6343.641370790303 -425.6942385675843 -1362.6853726677223 113.3066241268397 -57.73694215604782 28.523589307346523
-5437.412034759207 -399.28045417708387 -1095.178344930541 102.74257527233256 -8.059097493073152 25.08493869094571
-4507.398447052249 -322.58412022248 -834.4415233507677 98.24612511370609 42.728141398397405 20.59185658671862
-3594.137659832817 -256.16211580967956 -604.9140407229286 93.94096210177166 86.1229026801011 15.88842021382199
-2661.1344157306116 -179.87791010380352 -381.42734355753066 93.43402665770887 119.63893377882621 11.666874212657454
-1654.90716121811 -90.6011936783038 -134.59122071707804 97.02904137839099 140.64643891525478 6.472445082147686
-740.0938465103286 -92.82888761142783 73.85142158565283 91.95316599348638 120.8715827256007 -0.5230961154480938
-340.6369611228704 -133.55000901003308 185.1566596505499 56.11345579614728 94.43857902019714 -42.016689599692455
761.0326605675469 -2060.676061241808 -389.8930202022786 64.70760019387203 -4.960072352844236e-10 -2.456768122272024e-10
1968.891345126325 770.0018610300526 691.528189107319 -191.9127344548853 -2.52665000033403e-10 2.58970622724064e-12
1994.7698240095826 102.0585804537375 384.8343250884424 -74.60168190665969 -9.93395365966876e-11 -2.2514989872490787e-11
2747.6594820886835 209.42175571127308 534.7569806930293 -88.71102936408765 3.3477109973034658e-12 9.124478950184312e-12
3612.485813037329 253.87812676363265 730.8989251115178 -94.85419590794488 4.347178172992017e-11 4.0320635719126585e-11
4509.451734627302 327.72906531713727 983.2738052779853 -101.96588177948968 -2.3817725569585946e-11 -5.073785835918443e-11
5430.5216761911925 403.99069849398785 1284.4476470044747 -111.05512153986966 -1.257161041934296e-10 3.9644953986339715e-11
6441.027374986475 500.07248421853404 1658.5626901592193 -125.85239363314462 -7.130229739971128e-11 1.2980772012838315e-10
7614.244139758351 610.5296556345317 2117.0770872245944 -141.5176479047404 7.188083461784345e-11 9.863021510625458e-11
8784.712988250432 655.862186855972 2560.847477748911 -118.23735742024745 1.342544964089143e-10 -3.084288380250655e-11
9290.350600349338 575.8218341080906 2726.3812696839896 0.31203850827818513 1.3114587193996385e-10 2.2531532195557702e-11
8780.229616593151 655.4887508590592 2559.317591167942 118.89025951436214 2.53439380593079e-10 5.645039991009071e-12
7604.540191788374 609.742969658505 2113.4815771724175 142.2627465696156 5.255897939093757e-10 -7.538414337204813e-12
6424.42848833448 498.77569164578017 1651.7125035556692 126.77366506686074 5.687907367324385e-10 -3.0792479677188567e-11
5403.929121362371 401.95376557897026 1272.251751692655 112.26236919197348 4.869493419601412e-10 7.897904552578439e-12
4467.735834343646 324.6995123772774 962.5651714799477 103.62870487760765 1.708945762679548e-10 -1.0302425579311603e-11
3547.3430347097515 249.05602147194304 696.956347037423 97.08099747437699 -2.700603074501373e-10 3.5360936401218623e-11
2647.5976945154393 203.15129480731503 482.14708826096 92.30310226031419 -4.314558710305505e-10 2.882083460775675e-11
1830.84838963744 86.51401859481648 297.36550431879806 81.26093530171602 -5.778676426260176e-10 4.598532665767152e-11
1591.011882997216 705.1398529821265 501.8068367314917 183.13212814153448 -4.990710622543304e-10 -9.359402142194995e-12
135.06336691914177 -2254.5963156060825 -826.6974816680682 233.11947466982627 -4.553291077513677e-10 -2.312843250251717e-10
-250.52128041999686 -2185.043231685606 -735.3747027907259 5.080369741392055 -1.53456913842831e-10 -1.4751300181359284e-10
959.1374887541807 393.7563207327218 339.0824349078098 -210.83330543260303 -1.402032656638852e-10 -5.73841529849517e-11
1212.96308624145 -25.395249530384632 202.17047241194348 -195.23458959417582 -1.0803563599282029e-10 -5.488820509214065e-11
1812.8869822291076 6.4006715407517 312.9469031601912 -221.50022649549953 -5.6371129986132473e-11 -1.3987921931857272e-11
2354.91860525641 -11.514891731089564 413.41578154000143 -238.0014742916116 -2.4164760470402058e-11 7.800649015621275e-12
2929.98822927257 -13.52432186120441 556.4407405589902 -251.18021753789913 -3.059251463266577e-11 6.961875520516969e-12
3521.8081320253154 -13.157233337974874 733.5131626336989 -271.0193731789523 -7.697131820805225e-11 -1.9076962232134065e-11
4163.236502418244 -1.500482610419811 955.1233631597507 -306.3759605768317 -4.710240530947374e-11 -9.413581025796702e-13
4877.283739216355 -2.0536396599194995 1214.5343107852343 -352.0679777096116 -2.5853624796567942e-11 -3.968714246127547e-11
5526.382292813364 -138.70000362604475 1418.0109414108024 -306.99175925138576 5.174952133479849e-11 -7.085043662868884e-11
5729.63244768815 -427.56031062758046 1417.4171753488217 0.6040004393987597 1.2684639449922486e-10 -1.1277578870760863e-10
5521.723270005569 -138.8698171134108 1418.0180131924376 308.2761959444517 1.2430306783883793e-10 -1.269810923076875e-10
4867.335542197281 -2.393666076677489 1214.1419234249759 353.6006510334473 2.5409366277706624e-10 -5.8025251270521494e-11
4146.6108235329475 -2.019200104306222 953.4152856674494 308.3897181704343 3.416489036123238e-10 -3.407130133581404e-11
3496.063806386357 -13.876100787695126 728.8688713746476 273.85613794154926 2.4859292402368283e-10 3.2346791911663786e-11
2891.1103404598475 -14.44901266974594 546.26271141592 255.31306088166002 1.1387145393282339e-10 2.3099089307976328e-10
2296.7313386804353 -12.537318762278437 393.95381657244405 244.05687733740385 -1.0677336792497272e-10 7.726008721675726e-11
1724.754580391291 4.19510048838194 277.7562525743052 230.81146135536721 -2.6370455818991445e-10 1.1297734969772932e-10
1080.7539778865957 -27.407261186507125 143.07086804888075 213.24131707933975 -3.1795580057725203e-10 6.533656948803923e-11
827.5840824780099 377.9031117394319 242.98176365201036 234.13538727732944 -2.4809248405643913e-10 -2.3898438783476195e-11
-351.7448194740396 -2154.0294635848845 -903.1855818801977 172.74973597403968 -1.6547069270345105e-10 -3.363354039720434e-10
-322.58729029043707 -1599.5780897014874 -531.5227522962674 -290.238854149195 -5.490814747322048e-11 -1.4698908756827223e-11
442.5082029220186 212.27749557082254 199.0397608298172 -364.7206573732131 -6.748517716870239e-11 -9.652389998393573e-11
575.5623584408477 50.50337803864747 130.71659555698903 -353.7798739856659 -1.052890344355184e-10 -9.428774427888698e-11
915.005394909608 -5.901087557972308 163.25211545762383 -390.8099769674916 -8.787784649272323e-11 -7.335809737440968e-11
1208.312197403909 -4.154621931844332 216.46811468084329 -412.81695690720693 -7.569415233499299e-11 -2.311706381874501e-12
1488.5485989124481 -6.701716729572805 283.55145813250664 -434.74317770651226 -7.237632715373365e-11 1.4307666162949317e-11
1774.8703150080974 -6.1915834867043085 371.13632682638746 -466.40009411000915 -6.243300321173706e-11 -7.023515102844158e-11
2073.5407302444974 14.409706382325757 483.5887082047554 -520.3037856166652 -1.0027691177416642e-10 -7.571310245424456e-11
2424.386384641654 42.15164685768511 625.446791796906 -601.3019896426099 -1.1645145958638636e-10 -2.1563062446716685e-10
2783.6883369714164 -167.54945057501251 703.980005973618 -554.2761490885836 7.645592492444564e-12 -1.099733637488498e-10
2761.360324760039 -817.7974846270299 522.406496081345 0.9437720301614195 3.815779636706651e-11 -2.1327251076286302e-10
2778.83496690586 -167.7731449953965 705.4023045723981 556.2893139616972 2.423367062576176e-12 -2.038320623398704e-10
2414.168495567674 41.70471818605561 627.985718675843 603.7244135095522 7.496825382702355e-11 -1.7110901584516114e-10
2056.883134710289 13.733804084266739 486.53612901472786 523.5260145157281 1.2357515705163635e-10 4.302613820783563e-11
1749.9766812022024 -7.115198235495945 373.1776193593547 471.0076112555993 1.1516135267619632e-10 9.727707528384144e-11
1452.573885409951 -7.815865949431549 282.488710795294 441.6034559641919 1.0032912434870811e-10 3.861612141164983e-10
1156.946320662679 -5.2281011427598925 208.84754546808585 423.09748140350297 -2.6105506645279775e-13 2.0714852055903066e-10
841.844871535258 -7.090844692767267 143.68833110035462 406.95029569950617 -9.56921764050378e-11 1.691858320107542e-10
498.0821375649653 53.259285074530915 98.97199812853965 380.93661342106975 -1.5028463196120612e-10 9.073464202202786e-11
366.99013068483964 157.00337323181665 117.20291331576054 404.908972401915 -7.616746816596631e-11 -7.965750281613282e-11
-345.521233665484 -1546.219545981291 -632.6613565176913 329.0836030861153 -3.943290138863631e-11 -4.981703938256032e-10
-291.5192437312858 -1017.2445681677525 -268.63300692803284 -324.7204015983901 -1.0893130147904273e-11 9.922951349494724e-12
57.00474114330671 54.64338289449415 112.31535563752908 -436.08911564776577 -3.076382204536543e-11 -8.260997441666973e-11
3.579062950696428 78.07155053571269 66.26843939108768 -441.3395972266681 -1.0098455405227469e-10 -1.0381884241184025e-10
32.48827951841307 1.8314631541273247 25.165535713364644 -449.6578155838881 -1.2034478968914186e-10 -5.814593251329825e-11
48.412027121036076 -4.13605017474201 14.283871518841561 -470.96055204571434 -1.0120561333426537e-10 7.678080393702658e-12
39.77111889310617 -1.2939948430452533 10.110493174793408 -495.8994854158658 -1.2811707250648396e-10 2.906308527172996e-11
20.17751240586398 -3.0952571762851764 9.350590302820763 -531.8601047805322 -1.1398792326700047e-10 -6.519007555993994e-11
-23.131365216714766 17.85010569446608 13.548821387220858 -580.4646220185064 -1.4121721847448754e-10 -9.32227628425153e-11
-17.525821285542733 92.49561695844552 53.24877287100945 -667.4141196586643 -1.4362987188487608e-10 -2.762388096044788e-10
129.58212760736302 -169.28086754090774 41.178410515009354 -689.1784060273802 -6.614023217998977e-11 -2.0941937073359895e-10
-181.0068881166202 -1468.7517026804073 -423.69223289681986 1.0586846108755372 -8.430181552832039e-11 -1.6667756064236983e-10
124.56633466680589 -169.56200078164272 44.01993389814751 691.4380362504753 -9.74317675150882e-11 -2.2815593858638294e-10
-27.937859981817425 91.9363578134768 58.72327647245611 670.1371945275323 -5.051680948553461e-11 -2.375946106525362e-10
-39.67751434247365 17.01512305502947 21.144717191453086 584.0911979142277 -4.891870936107878e-11 7.318345929263614e-11
-3.6013397218916374 -4.2081019764227126 18.044729802625636 537.0612541162578 -5.355722809685659e-12 8.396838779844984e-11
7.252944980576315 -2.5583371017497774 18.07146408639544 503.7080944223171 4.346700777091428e-11 4.3019632300911326e-10
4.81821310615481 -5.245192598588084 18.33002207913433 482.95344895486323 7.573210114575346e-11 2.598269377429574e-10
-19.943289959019722 2.9296904824513423 22.23981218470595 468.1779097060954 2.4367244333411975e-11 2.266397625128036e-10
-44.02450092850834 70.68302000320755 48.87907054848105 468.84369483879954 7.052247674721457e-12 9.78593317491061e-11
15.734367805888077 11.388081101129686 55.2754030054304 456.82021259469906 4.002405351588578e-11 -1.1224499107953534e-10
-293.0223321888189 -967.3498564812307 -337.26846091379883 332.60864243393337 4.577638268443707e-11 -5.240750056145771e-10
-269.44517004329833 -534.7292842100002 -30.187335252940052 -263.15630029547185 -1.41588130109227e-12 3.8127279111677126e-12
-253.6852096807222 -26.569773874134643 72.93087028614146 -384.8169537508104 -2.847255764493184e-11 -5.497013955135799e-11
-538.6574142387295 64.15905903419022 -1.885723953938629 -410.7830220099836 -1.0328071731180444e-10 -1.0584033649507774e-10
-828.3797704570474 8.79422453296263 -107.02296466528553 -398.818964497254 -1.310912489671523e-10 -4.427958000263743e-11
-1110.9534326339392 -0.30419051089014304 -187.03429045288965 -411.5981735609927 -1.4348949806120004e-10 9.32431909461684e-12
-1413.3199837867094 2.4590726842690147 -265.44732896647463 -434.8508689653681 -1.8416888847294643e-10 2.8355096048926498e-11
-1726.2556126762538 7.838603819232217 -347.79276169317944 -465.5545188672526 -1.8704293842930486e-10 -2.7094215759859708e-11
-2097.525406565138 1.959807595323968 -455.81780021670244 -503.84008021020554 -1.6959386672787957e-10 -7.13481496106283e-11
-2466.8249476179 114.65873929326978 -530.5579975661547 -546.7994326875728 -1.5817040038834662e-10 -3.127939018909842e-10
-2475.4014524163977 11.305476826358099 -555.1111458963699 -711.308500535277 -1.5054146124127143e-10 -2.076634419978518e-10
-3266.2605044276784 -2404.9371093988375 -1502.96194053607 0.9508409767479034 -1.6264132401966336e-10 -1.4703638306912126e-10
-2480.6046838931493 10.966360317080216 -550.8287837632283 713.3366423101513 -1.6077852937890214e-10 -1.8697543513468418e-10
-2477.48595380537 113.98666760240671 -522.1022940419306 549.2383684059679 -1.9854770605398642e-10 -2.0387047605652242e-10
-2114.061361255663 0.9670373733374813 -443.4998424179513 507.0767778928866 -1.8012529662270182e-10 4.9743320573725214e-11
-1749.0454961410867 6.561358099896022 -332.3192855127778 470.1780167587766 -1.4673181419899706e-10 1.2628931234104357e-10
-1442.534740073431 1.0035220422501148 -248.28653807320532 441.82610431018554 -1.5522888530128398e-11 4.3672132576944023e-10
-1145.7150945577648 -1.1565909398991097 -170.61007714054014 422.4393877556185 1.1076015105082604e-10 2.566468149112211e-10
-863.5004042596408 8.760898126498352 -95.04505626807601 415.43219495500773 1.4476109200245446e-10 2.1475365930001544e-10
-565.5734854987871 55.31496034876677 -4.1338658277878775 430.1592255492388 1.6886042564223658e-10 7.227379805740952e-11
-273.40806186572877 -52.083907240723946 39.14831012816377 392.7633404808662 1.4715423324318522e-10 -9.06853481197345e-11
-267.6173165847567 -502.21986782362904 -81.69256128476887 260.4854124213216 1.1929945920030605e-10 -4.652687124462318e-10
-290.257887912701 -227.90646351824122 132.50277058083452 -144.01375769026527 5.076161713191141e-12 1.0471623568264476e-12
-514.3169291507161 -50.960727128615154 59.88786066316324 -219.95254115776066 -4.3346382039288756e-11 -3.355077327071854e-11
-1064.8260989792047 38.487357289821574 -71.12246037273312 -241.40359719571114 -1.0508499626027401e-10 -6.057776502643719e-11
-1675.2904674324009 14.366141447713987 -237.18248944806462 -231.12445629132128 -1.7125978413190523e-10 -3.024458461453605e-11
-2264.823579235976 7.478318648512303 -387.35326479084455 -236.77858720278334 -2.1432422503409043e-10 1.2494449919131512e-11
-2858.4751109026524 11.040021678597816 -539.8777058181219 -251.2032958420355 -2.1011338502407995e-10 -3.243094681693037e-11
-3474.4609389210373 14.682843557040734 -711.1793439449629 -270.36052056241374 -1.6367154853647037e-10 -3.711808638229286e-12
-4092.2410183789193 38.43271393250939 -893.1636984486574 -287.74476081576773 -1.8977383553497873e-10 5.6591398234218104e-12
-4937.010698216498 -37.45235846367595 -1185.835566103651 -319.8604725433448 -1.7278797836972615e-10 -1.4632584033336116e-10
-5057.797544587256 555.379863968572 -1056.2204088805722 -425.7139509992984 -2.1572654773649447e-10 -8.562017761448715e-11
-6715.170500842636 -3603.5107330596097 -2798.6608777504616 0.6163462365913941 -2.1039378572673684e-10 -1.3619660954589108e-10
-5063.270337608076 554.9846002322272 -1050.4579932461813 427.02454749764206 -2.432210544078828e-10 -2.551525657423781e-11
-4948.106009784556 -38.23514953167418 -1174.3117397082767 321.422756191375 -3.558799921421496e-10 -8.004563678554177e-11
-4109.099102206719 37.28668189433863 -875.9668122512243 289.79028854186936 -3.4734096154842575e-10 4.1096015479524795e-11
-3496.850245767926 13.228206166803817 -688.6737116879885 273.2391316366126 -2.8656017836414804e-10 6.345590719547545e-11
-2885.0597864462256 9.492595618138855 -512.9686310758967 255.4812405241203 -1.0415501794369675e-10 2.2408308542054556e-10
-2291.793217793205 6.36209665627816 -357.8676785162335 243.40069452725695 1.4972884043729096e-10 1.3156076228426627e-10
-1695.779443275571 12.98726678461396 -209.39364895832153 240.80783135871621 2.848633551266744e-10 9.364925501742505e-11
-1074.243338142023 31.397776684316458 -55.81118958011548 250.97162446447373 3.69971886460263e-10 5.181566287149053e-11
-517.5713783533339 -63.21984421371745 47.34892500003547 221.88958404823163 2.9902691434102735e-10 -3.971212247932954e-11
-287.5755368700078 -213.0073773426889 93.42063124580412 140.22414158628402 2.0466317529610478e-10 -2.9754065877796165e-10
-324.9832299477333 -128.73778974602138 194.92174271918435 -57.146714289561345 1.6910917111090384e-12 9.121592370320286e-13
-726.2374663592628 -83.89326029060378 45.939557773734506 -86.87606692542515 -1.9313439736379223e-11 -1.439248720203068e-11
-1628.882073088484 -90.52562912371464 -189.02700804873996 -91.10773410811397 -8.55027160184818e-11 -8.262279749260415e-12
-2614.800878505795 -185.17554477116101 -461.8425386014722 -90.03984988064731 -2.2858515080770303e-10 -7.567724225054917e-12
-3531.198688582278 -262.1011312920336 -710.7156210742511 -93.89288822015033 -3.1040481296429334e-10 -1.1955769707583386e-11
-4442.10613503975 -329.15537941321844 -969.2194035429957 -101.35581158603213 -1.7579071531770296e-10 -8.737099932432102e-11
-5389.653978367979 -409.3322602812468 -1267.1744081136085 -109.06828867590166 -1.3737755377718486e-10 7.415579261760286e-11
-6342.260852373112 -442.6137133584191 -1582.7127169912224 -122.19812004427315 -1.4507928192131203e-10 -9.402256750945526e-12
-7323.9536631585715 -663.9482846767411 -1988.8021998328957 -128.74087126181644 -1.7398282814440336e-10 5.936318103749727e-11
-8157.076603742718 170.9942956745256 -2035.288548997245 -275.9172983592325 -3.2915969949698365e-10 -3.512212742862175e-11
-11343.062382792195 -5445.712550592632 -4698.101364805807 0.35611381631549044 -2.6599389357784275e-10 -8.306377807798526e-11
-8162.851717103727 170.79772501790805 -2027.880183663772 276.6747429173504 -3.187747843469424e-10 4.278266629853533e-11
-7335.564797187183 -664.294616250287 -1973.8451707429447 129.64153340058883 -5.586802132029334e-10 7.541256508147853e-11
-6359.619083062758 -442.9979143977099 -1560.0023988368184 123.36603511188102 -6.351041914598454e-10 3.3926639275705384e-11
-5412.004163974797 -409.5211711968406 -1236.5951684387703 110.67421979173974 -5.094226152024817e-10 2.7426949600339867e-11
-4466.755055804839 -328.56044638490556 -930.8775443456658 103.64087297394646 -2.089577399999598e-10 1.7704948618302296e-11
-3551.1517045997907 -259.5521798889588 -665.1557883320359 97.21868111971692 2.1676171968465496e-10 8.453415745179882e-11
-2618.787875844954 -180.1857079700679 -412.0586045864106 94.62293921847595 4.673994524750924e-10 2.893685291383008e-12
-1613.3602790924988 -86.70656832443004 -146.934507547819 95.73362821772686 6.262355078945347e-10 2.6367352745637618e-11
-707.2837574013122 -82.4354421619146 58.64026548497857 88.52550554265656 5.109670464520377e-10 -4.720668300706166e-12
-312.1663321628531 -115.9282239623484 171.2666083195137 56.28385096597222 3.5706193557416555e-10 -1.8001244939114258e-10
602.7638040344583 -2210.1003255416135 -482.20095645214656 -28.427460978345636 -104.27866405466453 -9.048748383040094
1917.724511525696 787.2986678706168 660.9078869830636 -195.59948744449378 -142.17042659731686 10.849191137713973
1986.8496978773612 97.18831701317471 337.5746543463251 -77.39422447535205 -133.80294550386245 -10.47983173545818
2765.0170875341532 210.90892550917664 477.77816889135795 -88.43779584717268 -111.84911300025007 -12.09263622035536
3639.99223077471 252.6290071176082 654.4967831771162 -92.67216084269248 -71.92272473900724 -16.687543981153716
4537.66920478311 323.04061366723334 875.9290752851482 -97.30522448392293 -21.920101889350313 -21.439934063127737
5444.3165487513 393.4743407960949 1134.087729237471 -103.554800787253 34.59519233355973 -25.891604918657933
6411.964982761935 479.8766656344291 1452.5997239836163 -115.44891739888011 88.58502695312161 -27.89420038411259
7507.274160468928 576.4613188315358 1848.2114112924191 -129.61289441450845 118.76350874041923 -23.498915298424002
8587.017495803166 608.0279702492489 2239.170100162048 -108.88048907016898 92.18125779884299 -10.177129604090242
9052.018356385259 525.7922135611606 2387.2981378893533 0.2519135437304403 -0.11906300531478342 1.1175399369763075
8584.371707429891 607.7317622914741 2237.9453015855215 109.3996964163602 -92.28244396388982 -10.032639932202901
7501.519743839532 575.8367677007452 1845.3663531429272 130.17969914699933 -118.4387765389716 -23.211662026251915
6402.091982403818 478.85378316816616 1447.265228880022 116.10320034846657 -87.47902539119936 -27.47876018077307
5428.549033184065 391.9141613579598 1124.7442906974745 104.34030491926384 -32.15389638514861 -25.390974161085126
4513.248262922103 320.803593762204 860.2764511216845 98.31079303249183 26.696398069900244 -21.007636272916944
3602.307003032532 249.2945934242567 628.8575239145931 93.8440338223091 80.93912593350856 -16.43509617167643
2708.1311849158224 206.42373059883312 438.06175206780074 90.58517477287195 127.27279896442977 -13.133665560852146
1883.140917341123 85.44590970941897 267.4167295413061 80.45953240530648 157.60347125010537 -9.62761822738859
1656.3116158922473 735.4167803036389 525.941576088529 191.14794970409716 143.46302049626306 -7.749115837182887
159.65921766984 -2333.5080621552047 -820.3145149118502 245.50878229146628 126.81525922526129 75.73903865254621
-291.4865800509401 -2259.844302524627 -787.5964773917551 -48.49062501776212 -55.209271320388254 27.025099044251917
947.8869468972998 411.2990369732134 338.70829531375665 -221.98484717783126 -66.92720544475642 22.734928553323098
1190.7631139159114 -29.614567947417655 168.76877477220336 -200.17140023805862 -83.779192048707 -2.5151534634104404
1816.9235493862968 5.627293756549132 276.552855311359 -220.61847642882023 -70.04471484551031 -6.355448605758237
2366.9378024142957 -13.728634712796625 365.47949635277934 -233.20756934604054 -44.37034221510624 -9.284769177870547
2943.0526074562817 -17.760710982663156 490.12233112396797 -241.50505575188853 -11.862489105470129 -10.731051461338414
3525.8156155121983 -19.961236275119738 641.2922493941389 -255.05734081605712 23.624818631931547 -9.354641147508813
4141.872971407444 -11.610867792344381 830.5255399552085 -283.10862993942675 56.38963338683727 -1.683420506461199
4812.2918377617325 -15.588220701251284 1055.1288005877386 -324.0136945546707 74.22033512803003 17.835973274870362
5412.708875358899 -154.18105615516728 1231.8275474879256 -283.953705857986 57.88446553879573 50.491091011053044
5598.143571088243 -434.77179115219053 1227.6692863615199 0.48858864079901565 1.0689997358906778 73.79916043426418
5410.002446018698 -154.28818348418682 1231.8658731291637 284.97561560194816 -55.54411034851122 50.52539878938402
4806.484322743543 -15.807056207386676 1054.89322147487 325.1774244446963 -71.26476308945644 17.868934140766207
4132.1242863808675 -11.952121047156446 829.3136373346 284.5370949241467 -52.36654193521101 -1.744077782199686
3510.7362186425285 -20.436321758625716 637.8682946258707 256.91981131563335 -17.968689885844984 -9.704767694858809
2920.439668575113 -18.371961384530067 482.45225413418115 244.04193792730013 20.013247124992215 -11.750831599760701
2333.6934429444955 -14.331788228610275 350.65185163083515 236.6914820937037 56.303409328918455 -11.580490515807616
1765.6393614257443 3.619293327635765 248.5714544396185 226.0277299253948 87.67159254183248 -10.961972222947631
1107.4284465536582 -31.828211354471218 120.75901491018216 210.614226834702 104.2018745389373 -9.68884883409732
860.1938658313484 395.9027638104906 263.1581934326438 241.31472410858828 74.91437817298512 2.809244080374403
-351.6926025880118 -2228.851866255272 -901.4293965434415 182.35391940870437 48.988765854080626 97.97107934994152
-329.5850584545538 -1620.9707882255718 -545.2032894509025 -314.2744063361595 -19.369474701923483 93.17269049913743
430.6691344701855 205.26445721738946 193.89769059905137 -386.3810839635102 -24.367814003240596 34.36328812959014
556.3608116854543 49.82025362100172 112.36512794903156 -360.1731016431938 -34.092484185817376 8.75729869578695
905.3342333234132 -10.097584135636364 140.01869406992083 -389.18256500183145 -28.144516271499224 0.12538525869781036
1205.3817302878763 -9.279694619798965 189.2521343360619 -404.2707135802027 -13.692146044177601 -1.0679777060486204
1486.1402579792916 -14.239816697085844 247.22660864260936 -418.60819052531235 3.439300800536688 1.5629466606234903
1768.0696301036212 -16.533569785273578 321.58380166271417 -440.139210684431 21.2025645514296 10.187410749237262
2054.7163481666776 0.04558381315513271 417.37457898043147 -482.04462835877297 37.74419180006395 29.406447824383118
2384.447019411169 22.97368017445399 541.2332481047664 -554.8436731327016 49.072281770322405 66.10819360292759
2715.3393412628693 -191.3878496363109 606.6769499834078 -514.8355284221312 42.140299729001136 121.20378220966124
2688.6343156852513 -823.3141197288124 436.00190186328325 0.7883644489822936 2.235413305374016 161.02785546820468
2712.5276703580257 -191.5302981507518 607.8811718424625 516.4867701548268 -37.41482231344281 121.13121221805703
2378.497370784202 22.68842452400425 543.3989517894125 556.7318490454973 -43.58686411175083 65.88875176707437
2044.9684018125656 -0.38195399051702683 419.94113638527256 484.3768847042044 -31.001921515274415 28.857778634409943
1753.4787016405048 -17.106677366332022 323.50406607763097 443.2105146060478 -12.697999228800443 8.940733409671667
1465.2079469858757 -14.873346670403556 246.7518530721019 422.8433854643199 7.393455601995481 -1.0453876567233735
1175.7655642258374 -9.958953851326303 183.4443471470008 410.2831686569149 27.608029264619475 -6.168607795361918
862.4028447122455 -10.948133470103304 124.02180989846363 398.36887434415326 45.644306874445185 -8.715066381063966
509.2927279366588 51.178302750665246 84.5852657487414 376.75335569135524 51.583247033729734 -7.0931145296529445
382.68453806659875 166.80021619315073 130.87559176136403 415.2767836769334 29.343893694436762 20.785657854553808
-346.49339468049936 -1597.077960946677 -622.4667023866726 343.85826763100295 13.221222517426328 144.11534422001424
-295.8144693873299 -1029.134903980369 -273.75192522637235 -338.59896973872077 2.3062545504026293 119.4677441316391
46.14785955486087 46.9145385425281 110.3697333073495 -452.93030688107814 7.413000838684353 40.36161893520894
-15.185498443189694 77.13112864314837 58.883498630128464 -449.3491067336321 10.612250883563107 12.083941454466387
16.83725206910469 2.8959898405603193 19.403248613858686 -447.6875186645007 13.619755041845549 2.342632718110956
35.700943028598104 -3.5490667132923557 11.4978555393944 -460.96090431601215 17.861533798041933 0.7236862705754248
28.570558003150598 -0.9694229201772921 8.632660816087636 -477.2557949869728 20.998243716950867 4.601644957236963
10.346544724024117 -3.433380869533406 7.657943591829706 -502.0299574975211 22.681865365875485 15.430940575361195
-31.063389700542835 15.938805582654053 10.98295198304682 -537.7804479300378 24.874782932102345 37.617447852848116
-25.242189560791793 88.00157083081399 48.53289703775555 -616.4687023297328 31.171495253643503 78.0648483296252
108.6691456845595 -178.323562536449 34.50799370525787 -643.8520342731711 33.102372951710706 140.8565409642852
-192.90875575549504 -1443.3524330762393 -398.9332937959587 0.8934155810804526 3.398478400329988 192.1774679270152
105.76562260708488 -178.50999941848005 36.88182495965167 645.723514575546 -26.003446200216537 140.7514778142506
-31.303583023752054 87.63194898055626 53.107213915642404 618.6090798510863 -23.185988486893248 77.76801174116397
-40.762534076942536 15.393066384059873 17.331848524223403 540.4237926424098 -15.480635665285133 36.917266247581225
-3.6492242419520267 -4.13394314419875 14.934451566426263 505.51206668601424 -11.47452882617831 13.90794733996747
9.482875357396445 -1.7306282948690561 15.29834491363162 482.0911918740967 -7.741609472899948 1.4763792729729224
10.215623471158459 -4.220848076749623 14.792134142287885 467.9729458549138 -2.5360264512144366 -5.263779199109695
-13.877134443216008 3.646911884776602 16.120480181654727 458.36207199478946 3.060144550573641 -8.441475494725786
-43.42766650888358 72.14717294705119 42.913634007945404 466.211170028336 3.1935830712530024 -4.78127062807684
20.141026705498778 16.698733133808197 65.41723690228267 466.99919070736536 -4.502808575329164 30.474779482186445
-298.0471367957932 -1003.0912449837317 -328.07665633129506 344.53961085277524 -7.152258660348053 152.59590978499966
-280.16973596863903 -545.5805860288816 -37.54057124142505 -270.1536704458418 20.554355483095797 112.26573590015069
-267.68183839373523 -33.95221729677131 74.50683681775962 -396.78110191375987 36.695637013810156 34.466652619000214
-559.5191517738783 64.20038892260878 0.9568638648224852 -418.55928570990574 53.770532460260746 10.30074859605097
-849.8383458464328 13.881660896392187 -95.88477406494488 -398.2261592209794 55.04658104373297 1.173655790638717
-1132.643328159209 6.563643537932598 -165.07643179922783 -403.2889458171205 49.60865258933821 -1.1170183143547123
-1433.2589106971186 10.728929743206832 -232.02918030434935 -418.61203989806523 38.78164877469437 1.5855363466390628
-1739.5359844342431 17.31256869341385 -301.72996915588186 -439.3933833128918 24.46071464226435 10.309719391675111
-2095.3899368446164 13.338655579567643 -394.61428616381596 -466.5119892118697 11.394174527951677 28.207706230671345
-2441.7628471965777 125.986041231708 -455.54633740517767 -504.0420400867028 9.957059192744241 60.68919543835569
-2450.254776240075 15.160362793030748 -477.1798195528852 -668.7557152001615 20.859992291019122 118.2736201333925
-3213.218849882168 -2339.773625379278 -1362.7649583785485 0.7910433117195301 4.584407235721919 177.53021984477942
-2453.2689871561265 14.92894488160735 -473.6196283972627 670.4124487459518 -11.338851383896506 118.21040118759011
-2447.9782413252374 125.52852918124738 -448.52814120453735 505.9354966076578 0.5869205457558668 60.488939363818766
-2105.1143805218276 12.670484318018687 -384.4233031131654 468.8466811312541 0.7269603203398713 27.690542409442497
-1753.042305933192 16.477358444353744 -289.0040127920138 442.46294848651803 -10.44643210035641 9.114697466834281
-1450.6389396620868 9.814304988745493 -218.0831007184777 422.8966370132139 -22.97568435295381 -0.9617974471049894
-1153.287240493037 6.090760392687333 -152.17207149294043 409.6037556114207 -32.76319707683692 -6.217026817210884
-870.5843711491277 13.96856674021153 -87.58318103142587 407.8684622117748 -39.14211905823163 -8.272746358315018
-575.4557738928744 58.4483683630782 -2.881234626247613 430.25570871665536 -43.016294043438954 -3.3974680974696785
-280.17163930764116 -51.51075817584443 47.00556414914826 401.96512608555605 -35.22634809052926 27.156827435101256
-279.8837953329856 -527.47707067018 -78.45154816095858 268.41765109705506 -24.49362951258572 133.67594995114794
-310.8483240443717 -242.8322632335495 123.40510865421362 -145.97070692293988 43.58696739260303 67.89760832547627
-535.1768564122093 -61.64479160150952 66.51042780925837 -227.03189011926696 70.21193357571295 14.993918951993178
-1092.2980143086047 35.91213527191066 -59.51007211759668 -246.856545164021 98.94194544035707 2.016858346181013
-1706.8068538706018 17.14365034798805 -212.11409810714392 -231.52114206070172 96.71832721289864 -5.332296284591416
-2300.431470545055 12.137427204832644 -344.5196383766926 -232.13449310483577 80.7149357149179 -9.166150190357985
-2893.6946523504052 16.346149461558998 -476.33915554588225 -241.45119480954025 54.76812335428321 -10.676660838473845
-3498.912173665426 20.761619940166973 -622.1857249254983 -254.43653424482537 22.732437288191772 -9.275703968384914
-4090.875135609701 45.200240334164654 -774.4400377467789 -265.5627782116781 -7.7649531394574 -2.931619099598292
-4884.328985974424 -25.23921116930547 -1032.5643652393085 -295.24255542214934 -23.897360992337585 10.621370397458485
-4994.309123396889 539.0922894458737 -909.9766319626722 -401.08002181278454 -6.556357476096535 47.066652873044426
-6586.134343019226 -3493.1649375944908 -2544.356861590796 0.49425907367252087 5.819173158010621 114.15393960567505
-4997.485082417525 538.8230712168353 -905.20107256971 402.11379759496845 18.60846012746067 47.120882435979354
-4890.810316311471 -25.77108784010041 -1023.0385981581943 296.4192117771186 37.144690434347375 10.694328760824884
-4100.818806880048 44.429041111566036 -760.2957300705767 267.00335099094207 22.829738415499055 -2.9297845066783843
-3512.2667850845683 19.806746880036307 -603.8385433913197 256.31389563368964 -5.568226920330582 -9.532034715880366
-2909.718461438176 15.388588177202823 -454.7568720093431 244.04508598183864 -35.86509932554503 -11.563599500639842
-2316.795439182793 11.594799902566905 -321.60353959494796 235.97179196989046 -61.56018877126466 -11.419987981676696
-1719.2593813768906 16.633450602800075 -191.76771462248473 237.13154054309504 -80.55568693048014 -10.07309785545181
-1098.1045217569435 31.80857405813788 -49.903267827399084 252.57579847232373 -90.43155143594672 -4.980403481233145
-537.6594173060008 -69.65966366172407 55.00996236225096 228.29070797044065 -70.71147325102137 11.290742587739675
-310.21813200343354 -234.5635692260933 92.6919734582665 143.38624038896356 -48.291042907863144 79.86578344043937
-347.28304441795774 -141.1140941443068 203.88474311446947 -56.90054338188722 83.98265810169045 34.84924967859019
-750.6773093055419 -93.96546267170342 67.55446745651393 -90.8917801335658 115.72654550811477 1.5889052965676553
-1663.3300422560483 -93.58898070825313 -162.6339103312624 -94.19498713679714 147.89896710800627 -4.229852014658479
-2657.981974115481 -183.5740117270015 -417.2503257565602 -90.71267090363648 138.1419040013168 -10.377697224615972
-3581.738213551472 -258.18894311609216 -639.6206653037374 -91.98342175847935 109.14832793995495 -15.628237565691188
-4492.530764431235 -323.2528088039933 -864.7563684113397 -96.86871654903966 65.68129138197833 -20.790912507115465
-5424.160028989381 -399.36358914016733 -1119.874483152019 -101.73022417130888 12.815750709019099 -25.41160539882557
-6333.478119088661 -425.58660002019167 -1381.246901521108 -112.53330162468018 -39.39208446986383 -28.831524156907193
-7235.530300340145 -629.2886482657793 -1726.5819964989546 -119.04063023557218 -73.25024975522156 -27.256324179079904
-8017.147443925785 176.28420590198508 -1769.0750593380403 -262.17762400820243 -69.95621659800483 -16.864001333915965
-11110.036214223597 -5283.464656660317 -4357.191257615072 0.257055113359129 7.120606801600841 79.97619767182626
-8020.477474693249 176.19990542603068 -1762.9568156587134 262.71825280288175 84.69110435732331 -16.746359699465923
-7242.265493863538 -629.4243326215337 -1714.2735198467462 119.66386305118324 89.4141707380436 -27.030225063126974
-6343.641370790444 -425.6942385682564 -1362.6853726682598 113.30662412696225 57.73694215526746 -28.523589307418273
-5437.41203475732 -399.28045417564357 -1095.1783449296588 102.74257527258447 8.0590974923963 -25.08493869074765
-4507.398447050537 -322.58412022366105 -834.4415233504158 98.24612511378889 -42.728141398658 -20.591856586625596
-3594.137659830202 -256.16211580848244 -604.9140407216328 93.94096210163391 -86.1229026798286 -15.888420213652239
-2661.1344157293615 -179.87791010405866 -381.42734355717005 93.43402665765544 -119.63893377807705 -11.666874212537353
-1654.9071612174541 -90.6011936784344 -134.59122071696223 97.02904137826539 -140.6464389142205 -6.472445082099485
-740.0938465101835 -92.82888761139003 73.85142158555529 91.9531659934031 -120.87158272466051 0.5230961153907838
-340.6369611229016 -133.55000901005573 185.1566596504474 56.113455796146035 -94.4385790194334 42.01668959934387
-130.91197584943598 -2910.5413091329747 -912.4359854947231 -452.38612767444886 -241.34465839124917 -85.37389468903247
1715.7693004401933 825.0628712200007 601.0642266450664 -202.23491780103546 -260.41463463729264 26.758857767816963
1992.763049544653 99.84096307829368 262.71322183795445 -72.2712626428508 -244.26131818881123 -6.685588478173725
2821.5695568828733 244.68747042057848 400.52790722337585 -78.55656581234317 -217.04854439343376 4.572755465783565
3730.0673417778053 287.4515789258074 535.4259410967998 -78.01869441744223 -165.6593772897278 0.46927668540934087
4668.074581883157 367.139907062042 704.0691134463924 -80.01226965435905 -99.08556960435399 -0.3192312386781029
5590.001037470028 442.2785139840341 885.2954700167544 -81.86407507875587 -15.406113290888065 -1.4980398285120802
6498.636854228941 522.9725134280632 1091.6186505259739 -86.221991007414 77.020887478023 -0.11870857204825569
7392.765505077035 602.995127070671 1331.064376782009 -90.59574793239766 148.93672781666228 9.721476761928912
8166.799714228522 638.1975954466453 1562.029323963248 -72.9471406870864 136.087638086379 37.34305442438308
8481.24557541212 592.6499908413489 1648.849284540398 0.24555341926559926 -1.2883723800837723 66.27123754150986
8168.504522518356 638.1027013924071 1561.5495213096674 73.43441716750041 -138.5194680382213 37.51304526977097
7396.415436675229 602.8086087894933 1329.978637453593 91.06502890785588 -150.91218114361308 10.055448181451073
6504.819100509595 522.7119622127157 1089.661957083847 86.63597246936853 -78.15393093940523 0.3468523990595127
5599.941609265068 442.02090163360054 882.0702143578317 82.15366237577551 15.710975648253187 -0.9441715125871943
4684.05004861248 366.99791946808773 698.9264310965117 80.02814052480868 101.73271688249523 0.02925706945559514
3756.678684440622 287.90739839621364 527.8501803003314 77.71118041898835 172.6717762838899 0.958995614130125
2865.2770661518525 245.7067615316296 388.2573406663296 77.05108202260647 229.1302494073135 1.773524830283382
2078.985170156297 106.60891566834906 254.23895897003462 69.4777432307928 275.8167192649044 1.3201654355427728
1918.6084480573486 850.9625830561789 603.1421211352947 200.53914945027165 233.0438835154981 -31.5661863496077
267.83485733252525 -2756.8004327645544 -649.4367031128266 267.3050139845072 196.87862785299953 157.28386798355413
-430.70759667068774 -2657.614980737636 -805.3488966458729 -290.30838682628 -40.64579908399321 8.000018035001988
902.6822044569309 439.8335216390126 317.62155098239805 -252.20942702378997 -87.5701361987143 24.319028717637465
1136.4208449677662 -23.81887950627699 102.21240542145055 -198.5708487098637 -148.97882081834254 -1.5966790224030745
1825.1165617226309 27.61070704622109 202.51195000941627 -206.18328522255635 -124.93004160875454 2.1504923846486452
2403.325459325699 14.2308625895822 265.50366704301905 -212.33306707039551 -93.09513695314989 -0.3380412650768627
3005.5828440852547 17.70314068304971 350.72040046117695 -213.50182318739323 -50.7330667707661 -0.41440072201800193
3598.4106541141578 22.467060067958165 448.07193334344646 -215.339277070044 -0.09983865259663116 2.037600186664717
4177.768657292287 32.55288329870579 562.3656884162759 -221.08711338319125 54.29002309657096 11.699463675692252
4731.7748212435245 35.596014476962004 692.2293829806339 -229.21731780708927 96.40313422377889 39.71722984161177
5175.116022847018 -40.37384694057438 792.1548452817082 -188.07320677786396 88.84682693130354 100.84807942370016
5307.594598401471 -214.63387132129898 782.5886636275446 0.35545977962188946 0.49637016535013107 161.73084132027574
5177.044831324972 -40.29776148645068 792.3723617319038 188.77320327881824 -87.62818510491289 100.88467344619866
4735.841557610235 35.74576355972374 692.5370271417403 229.8704352662016 -94.49868578058884 39.74991236813117
4184.467372489776 32.776916978553906 562.484852677011 221.61062215780277 -51.202213423661405 11.62391369124874
3608.6966011345867 22.772301792298645 447.50902580525565 215.56490391725 4.941148406902085 1.6447753909934637
3021.3259612057377 18.132021670804985 348.7563240002232 213.13113525326102 58.146745733047055 -1.5565192711976417
2427.6958088670126 14.715808306184364 260.80796121345486 210.96394521830217 103.97877176726776 -2.7238690093369877
1866.2120069286486 29.596771590876642 195.10801628644438 202.74237276378872 141.83666674309748 -3.2525545278812658
1207.0989107576552 -22.715517111571288 88.97489718482859 189.77969061953218 170.2640869413781 -6.454687350259155
975.2596652343466 448.03919414153285 303.18976427295866 231.2379812513448 93.21661309600456 -17.70511694976839
-368.3593858245536 -2653.1057893191987 -782.8031571321067 172.32142827485282 27.876867089675716 165.91747693399603
-400.044641434828 -1929.9760803197794 -527.436756139496 -383.15825841634455 6.444995837878414 160.01704272570504
393.9483353012412 147.93118274032852 171.76742117709836 -438.00220561795163 -20.017499724507 24.048967647456898
516.7801974549593 77.20699379458163 81.54324306290454 -362.21564414317623 -60.11659515716844 7.332741944410044
877.6126713484564 7.437438417292143 95.00898326651514 -372.49732598774597 -51.05954301774946 -0.1017283674417846
1201.9360976443327 13.535887968872935 135.24016065055534 -376.53437897565266 -32.36071505008131 0.07947846422273686
1499.718891685723 14.036614438906756 174.41387043016462 -378.0068523644096 -10.918875994454114 2.4306578578573443
1793.6802788200325 17.474136408132743 222.20608896285478 -378.91227148561364 13.86308847467528 10.696975080919433
2073.2597168958746 30.574225708183306 279.6078836802261 -383.02918156121274 42.006119151123116 31.389929081746857
2347.7576603124917 47.36973261434385 349.80325143635423 -396.3399467612679 72.8406298917967 79.99419648381901
2587.6792997642124 -79.72246194316598 381.73833599057 -342.8061340223741 80.95226753947003 181.0617083938644
2570.013789717291 -493.43945878481406 259.03624573286845 0.5213938666190523 2.0794422500991336 297.95112890467766
2589.7481704625648 -79.61592271746558 382.60301100219715 343.82881119785617 -76.50331177641651 180.97699783427825
2352.049877742761 47.577655982217536 351.412910547369 397.27868318007944 -67.52815473621912 79.75071013918397
2080.117614430364 30.875611681176274 281.6831648114954 383.74238228990794 -35.28105461187096 30.8075486276894
1803.760641518545 17.874616236158836 224.2459129032959 379.10830767493115 -5.2156354280326696 9.403280716838367
1514.238332009549 14.496678374883516 175.552977691249 377.17067882668164 21.935559650368393 -0.21983789597645775
1223.4032163432196 14.1608664269608 134.29219577467762 373.8441806674108 46.20813753944382 -5.169661547386447
911.48736569504 8.423212688891386 90.49370919131297 366.3734244953148 68.25101447107909 -8.823268691363435
556.5158247297541 75.5029618129473 67.077631706298 347.889776967476 77.5124281017172 -10.195588326138699
433.0874044486317 178.20042488819126 162.4014658359563 409.051274586689 23.570205182139798 7.6026615220879945
-382.4981121793007 -1927.6763049475474 -538.4812341272244 349.9650767232633 -14.403683822821847 224.23803187827707
-332.06015727087896 -1221.261110350898 -266.5769693846819 -362.2836212743429 20.808223555285608 175.44257474184698
15.103261544747783 -25.259984341972828 93.54368142121332 -481.20593934725457 19.87121596383438 43.13798458118481
-55.88439281640568 85.71506025578516 48.19296697913269 -457.5470886039551 12.43201777830154 10.884115632991142
-33.85655184414355 9.573748470177597 10.067493135545108 -432.19022625379426 17.37908024809889 2.692491904540508
-9.101203021947914 -2.541599047702773 6.021365025108125 -432.1287890956237 23.344520826743633 2.3072310229836326
-6.604663224950016 -0.3498446122224328 5.3077798839586 -433.0888148719718 26.493115951793392 6.8390704298395715
-10.598363211119288 -2.3943438359155134 4.669061877922385 -434.1051470549513 28.66389985951423 17.809104540620684
-29.427841661080308 6.485204473885105 5.364080112551834 -431.11381478038095 34.23586621500428 41.292882554940604
-25.08088034977724 49.047276636939515 23.839429686824346 -444.90800518442364 58.01405469537794 91.70700510034413
57.642251837640686 -114.94823108103685 5.995971519598836 -435.4623742891323 89.67557466189069 201.86179680171466
-162.870139048316 -979.7129536017869 -307.2881927580782 0.566949846697236 3.5821723355547026 382.54683986922385
59.84071598016593 -114.80618136322109 7.518338055800098 436.57368050056795 -82.16230725168835 201.7418971356491
-20.597229782234628 49.32539543032995 26.77607702891964 445.92501976037846 -49.47917326386538 91.38237839133552
-22.48801320636395 6.891679391666455 9.450778840048462 431.87712292039333 -24.094168620004762 40.555646612776066
-0.916736964480334 -1.8668949491513023 9.389677289219827 434.283127277674 -16.516137001646285 16.245755713343165
6.366743490547282 0.2728548740764174 9.759221657597323 432.0632549573165 -12.257892381353424 3.661926320869579
8.66546985456307 -1.8232041107966337 8.8640749075707 428.8519862197646 -7.364651403481707 -3.7647808102424074
-10.949156801712789 9.345934702722694 8.281302278553534 424.83926150409707 -0.6817949442436652 -8.298097263147183
-33.52334747209077 89.59615333863509 39.03960964496477 442.80146378220434 0.5931370722261593 -6.86067752254012
35.781006988704476 1.0706130384653703 84.94320888399174 465.7500034050157 -18.782026702650136 32.43489546003677
-331.62618502638554 -1230.714746686761 -288.5147749173448 351.53686477995404 -27.236082820284704 213.83200783883888
-300.47598467934756 -648.7528619196323 -59.741382942841376 -274.29939520707825 35.10260199939595 151.7370455408485
-291.43675925841615 -90.53305816829315 62.07581921868386 -407.64825488372793 56.67536118982803 43.98969749538802
-604.4529654603875 56.93464855720016 7.927560921689275 -421.4074445212125 80.09520062829152 11.301344451893726
-921.9829258010283 4.604102896202457 -71.23106591624294 -383.0879904804655 85.59414022174094 1.3847296072238242
-1216.8433278212628 -13.441542849557683 -120.99374199701633 -375.16005686280664 79.66836647253534 -0.4998650058093468
-1516.7779419386789 -16.44736968973192 -165.67777998759658 -377.1274017586207 64.4010633568969 2.4902735428558946
-1810.3103952662589 -17.10297173846928 -210.02659559601628 -378.02842332658383 44.37360865936365 11.627602541026322
-2121.1720815134113 -29.292582185841564 -268.82489841172 -374.651013198586 24.735087712367832 28.379711206432038
-2407.2939624836936 36.25978692431336 -309.2832384373124 -368.36564476339936 30.889874122221016 64.13854817422254
-2433.89904908539 -20.040746035896937 -326.9062282853117 -465.71312485023793 95.44121313350739 147.54155863671423
-2998.4438797427442 -1697.6937612826534 -987.5281764283022 0.5338609364614086 5.1170034228380485 400.11004936745707
-2431.5662158031446 -19.86587478148315 -324.7178465373116 466.76396747598596 -84.7942733627627 147.47477649865507
-2402.609557105604 36.604877773889356 -304.99905268866985 369.34243771104354 -19.047201375757393 63.93104295396139
-2114.138901794348 -28.785453082261576 -262.6901422061505 375.419262468599 -11.06560620979314 27.851031465975723
-1801.0244798493566 -16.446439750324604 -202.5631229312615 378.29854107098106 -28.574952274196253 10.412544432648499
-1505.3798831252122 -15.642912760835317 -157.83223934130524 376.3260402816635 -46.778608532826766 -0.10699681468324096
-1203.5866277008492 -12.772840989712805 -114.49867987213163 372.25703390587955 -61.44987737896489 -5.752050708468931
-908.4442723693367 5.107865872069053 -68.990890793408 376.39449748890837 -69.3544367976832 -8.436711033976415
-593.7783385685594 62.08913731912326 3.9362749252645166 411.05545564427683 -70.42076050409659 -3.0843693713158564
-282.5622694209806 -74.23938061471185 54.471112468714246 401.01020778323283 -57.03142990988525 36.62555857589719
-304.97849454992024 -659.1423759255841 -80.82324963959525 271.82079665532206 -40.400037368255305 177.19613888384094
-321.5590143829408 -287.67630315461474 78.28574561128792 -143.44501131239295 62.907660395315474 98.49776671559387
-549.6973976134564 -93.5423501384604 59.90685817860607 -227.9088255790877 104.86261805246328 29.93819763101664
-1141.110469804011 24.449383158114784 -35.873052990273045 -243.10081008100113 154.8534414666 10.319266770970833
-1800.1779757101806 2.507139927685004 -156.01782920832682 -217.95141854237676 160.70981693464 1.632166826475365
-2423.0919798938094 -13.47153590361541 -253.48204279607629 -210.8329617599445 141.80642721904246 -0.7542172184282352
-3025.717282957372 -18.90763459932453 -343.3568252600441 -212.51743089923482 106.12808051480343 -0.4242988086811468
-3618.44089193476 -23.35244725026873 -437.451840052875 -214.4917710011977 59.939326418566665 2.6703090147124984
-4170.713676863308 -13.613303157494478 -529.1391949419399 -210.50986349260424 12.883740007352866 10.811649101720937
-4818.925421636569 -78.17055261546672 -695.9860354661153 -217.15351553145794 -28.85620125745138 16.957457811498724
-4899.2009670376265 350.3563240432075 -598.6971298264674 -294.13921028022935 60.22814917178328 55.1402393455693
-6075.938339060318 -2617.060533456489 -1861.255684143663 0.3702421555477384 6.796904512058319 294.5316146959171
-4896.71485631679 350.5561902897777 -595.8369627058285 294.8730941908112 -46.140735598334985 55.205245844236515
-4813.992864295003 -77.77428623286889 -690.3411557140913 217.8535111109292 44.36527101770939 17.047121808634717
-4163.4890292517985 -13.030206718747216 -520.93356231693 211.10212178920506 4.766407311174531 10.824391000366624
-3609.3413414826505 -22.59585803519173 -427.2066814609527 214.80677512467858 -39.88884811729345 2.3959407753456827
-3015.6650629507526 -18.041345365688574 -332.14410232128614 212.21091046063603 -84.30772439160376 -1.4086957635861492
-2413.9122597618225 -12.676998519067755 -243.28955322678797 209.22502245872815 -120.34790843526592 -3.2921224984462807
-1794.5204253247862 3.6635819091376858 -149.70186043868844 214.16781819898415 -143.74658760872586 -3.7164005406174514
-1139.9433946057713 28.718082265836063 -35.57896147015081 238.00418345373706 -147.51618184230603 2.4666015765524874
-549.8821875769986 -85.7922279163199 54.040301185963166 225.6565640815937 -107.19064914037412 26.096873420500273
-327.90895720377625 -294.2065254999504 61.93440100087963 142.9253925925726 -68.90976145585077 113.06797545180657
-345.1877635964152 -157.74133931835433 165.88032969987992 -54.94197296593789 120.26833041881234 63.835917486916365
-757.5016790306269 -111.1387302872935 68.4722228744352 -89.18775452356138 180.62660675579312 20.81305899140581
-1722.7153150841136 -106.73520691853612 -132.7807145812561 -87.58942823315726 251.37315316025158 11.201317240913031
-2786.1806842902024 -204.88013358146983 -351.0873808084664 -79.42147995355941 253.44813608969577 4.640196403707873
-3758.7880388304156 -292.22702816588946 -530.4404705600208 -77.65260205167691 217.91110659547462 2.3087944209200373
-4691.557281327501 -367.4588955645378 -698.848728229065 -79.46005238930583 156.88535775618791 0.7487094724055883
-5614.586103947238 -448.24641682953285 -878.0417540062941 -80.47224603781126 78.93020203255175 -0.42604835005414365
-6483.06283586259 -489.570911004404 -1050.1140846908577 -84.12072888643104 -7.287184556743619 -0.21440677834765687
-7261.329031067138 -654.7592639659044 -1266.934262246502 -86.60335136832826 -96.04959489784737 -1.56738441456468
-7768.594349490487 -31.721926579286297 -1255.1682133388954 -209.93298485863014 -143.29082333888593 -33.94923500201415
-10036.780738972664 -4110.543648063875 -3338.292867495185 0.17773348846176162 8.744811768007565 313.1772348336896
-7765.865544852598 -31.343139455937735 -1251.568974222396 210.28890698641206 161.38391019157413 -33.82729735357562
-7255.9497029808435 -654.0067225180534 -1259.7952099296272 86.95508434353683 115.88191525856644 -1.3444570983216924
-6475.288026035695 -488.4623412105918 -1039.6411739202942 84.44358323262503 29.741546134560334 0.05660193442045447
-5605.063617179501 -446.83347360059423 -864.7760764546805 80.70112519817823 -53.53426728851397 -0.2157533963695668
-4681.821082132455 -365.9328033938391 -684.0303187344366 79.45682672002185 -129.35171519551562 0.6760502829618495
-3752.13848080091 -291.03213465665056 -516.5472451171677 77.12526788982808 -191.11388655883636 1.5046756316905263
-2787.4342894839965 -204.21104905945398 -341.8478642957412 77.97961259915972 -233.28017601132382 2.4216173182663887
-1732.711954932996 -105.12677858406173 -130.98320382455003 85.48479566571139 -245.36958569136848 7.821680022743818
-767.9964384400987 -108.64378283124134 63.46639470921031 88.13252931253366 -188.2164036420956 19.31294715388669
-356.22564090546575 -162.63127255504955 153.45040262443408 54.08089757583358 -132.76002134313202 72.6509393206273
-866.6016853537216 -4807.051204227956 -1702.0958668745025 -879.5004636820435 -362.5886397806121 456.9046230655144
1915.2148130458338 1232.0177207504048 792.8572713649456 -390.69126450532565 -377.4118062456898 15.538034421968032
1894.518079277027 54.97790823690883 185.77213634747918 -184.18245110681562 -368.7051296164632 128.16888258587468
2740.3390959459234 254.79211140995258 337.4728396678065 -189.93290676823244 -328.06707973934095 139.06810922919985
3699.868388598711 284.2762357693074 453.1528366342302 -179.00657339385822 -293.173157390208 191.00058032949033
4701.56996658992 373.68569190549306 606.2735368688107 -162.41625646312022 -230.27065775451888 235.52790900232694
5677.00664499517 452.50375859958143 758.6693400920594 -135.66800035823815 -143.6224716541737 281.28173983178925
6597.539523725133 526.1237109796791 913.5089243380033 -98.8943810984291 -35.00615736581287 326.2407457920885
7372.6679542130905 585.0194794243762 1055.4420179693147 -51.47179164002209 70.8713963956131 372.5874041959788
7878.250465823033 643.8117952746867 1165.0409449753272 -9.563738546415564 100.90143102376875 422.38516133630446
8063.653681436803 710.000976626223 1224.0772322837338 -1.171390317704244 -2.4254893785605756 456.3513744041208
7883.975549746808 643.8794849993258 1165.4647782910508 7.160138335519264 -105.70980741026803 422.502988857812
7385.2508861800725 585.2072128408794 1056.4381067115958 48.88580823613099 -75.53903972471022 372.82096406816436
6619.389957693279 526.5429299753549 915.3733939796292 96.0001519047332 30.631255844510452 326.5960288590268
5712.157531242019 453.40105864043414 761.9067200816952 132.3496170046912 139.7650483209941 281.71072472081437
4755.769148473347 375.1899601914789 611.2245931747212 158.51029169556122 227.42605258189235 236.20215846430858
3781.655498240604 287.33059975470974 460.9270805248015 174.52972694476026 291.3536684438467 191.06514580028153
2859.0201972538907 258.3457515674147 344.666006006229 183.5948511897327 330.1657871291961 142.62819946213935
2096.9189311549003 76.12354791724138 217.50962916374442 176.50806231642213 362.9319576425714 116.34732962643606
2353.997435588872 1309.4988932513131 839.7057237327218 405.37105607991066 485.2973817531309 85.47599770136989
-36.238060085594554 -4584.419549425069 -1046.2092177490772 528.6594021516254 635.6674979190702 177.2137536303777
-960.8428351519015 -4169.542386673461 -1257.1307373152438 -564.5146711492923 -299.5764270656979 262.6474817774475
915.6331401466425 667.7112209954573 376.046266406382 -467.74945434350275 -250.84442042333131 78.77967501262977
944.6696395364431 -63.826362557289144 6.168314095036882 -389.17914608306074 -227.59575023829285 138.1004218766831
1709.5529283701535 11.872125924744608 117.40045733820537 -394.1695234873006 -201.23354909221217 179.0852858954507
2312.766517118929 -14.355822041703554 161.35792485777122 -385.30307529786364 -174.6301937090931 237.5939745673764
2951.1709911824996 -13.565827112662369 225.18280325411268 -353.90670461155105 -137.61127042249896 295.93775523500415
3573.11760954006 -13.550949492860939 293.33325797330207 -307.4999431304463 -86.10634990098161 354.61638369271157
4158.296223000629 -18.857072020190408 364.07893724837163 -239.80944130608887 -22.53521680613376 415.17770506539915
4653.901061983443 -24.675372093623146 432.53382147524576 -141.6546980630332 40.07544042207103 484.11519984196354
4996.224998653461 22.612178142166705 502.28338925941944 -37.28333471080949 59.76625387413237 570.593677083356
5157.012057310638 150.74552722280313 571.2081958363443 -2.0885474722315998 -0.581007782279487 637.6670174043168
5002.43109662303 22.885172493171126 503.15015088287475 32.97323286768445 -60.81258310560932 570.6060414138125
4667.332124456714 -24.10612906183409 434.3687377609405 136.93889578417185 -40.77092221230264 484.1241349425527
4181.070803403778 -17.943789612859376 367.0750589802317 234.39307465346556 22.42923451142107 415.14969152028897
3608.5841776193347 -12.244424401998401 297.69454439328734 301.0544754786646 86.85674295795964 354.4821368426496
3004.140759855136 -11.86507429136003 231.12099306842904 346.0654455117615 139.39460653004826 295.6439942161179
2389.1826204777785 -12.545590991341367 168.16896113372113 375.6833090584289 177.897701771792 236.82938052431973
1820.3149005058733 15.847988929400467 127.06326457493158 381.1830870697603 204.56410305660413 178.92937170414496
1099.882838072788 -60.575958273745634 10.020786459691365 369.1355965699909 237.01199072266186 132.72314972996065
1068.4107164890634 700.5498085928908 391.76556675159867 441.18569111494196 286.85472359245995 112.997576344534
-890.7470581904229 -4305.911621338579 -1208.6459982182305 353.25673275531017 354.71154314781654 106.67834467544287
-765.6809231255248 -2905.8624801809924 -793.1241676231575 -662.7753483139101 -182.41973956808133 86.98864355834202
314.2084410559498 203.78670586207176 170.17450070105852 -759.7786291494363 -142.76251684413296 122.43379941464264
331.8183449117832 93.49410815430186 16.16316519481628 -662.7049736503154 -112.50149857209577 157.67098509099912
732.6386100185105 -15.521271845255152 21.748526750485297 -673.997504746462 -91.23445525926118 228.40704360609445
1098.7783659280096 -10.39145854092062 62.090996917229 -651.1065914935368 -74.61682472107296 301.4403550066501
1425.105441154932 -13.19862265376371 91.83092369762535 -601.0026221817698 -56.468074568021635 378.158699038583
1750.0010144835605 -11.139051084594973 127.6648580440397 -526.5004037024989 -32.115696087747956 455.57712122627777
2062.3073413286465 -17.370894937853034 165.70791415902806 -418.229121179264 0.3123231516817535 537.240348154876
2328.468651342011 -26.752770878928608 200.5161371445547 -251.17237257803356 41.53334364920624 633.4016068290864
2509.4457720425867 79.09650042817918 255.4205860936575 -54.21054662972767 63.48476491326979 764.6932207576107
2675.7151110414543 422.1169460155639 388.0034679121045 -3.3375233026005873 0.8929739824298744 888.3090707959963
2515.853015279344 79.41700172501113 256.6275160974429 47.31406790929327 -61.522496175309485 764.6243212145722
2342.1895447780157 -26.090270239177663 203.01641137738923 243.59852816071435 -39.05093834651998 633.2431716418356
2085.160440543467 -16.3257433634831 169.64144640920193 409.47844480783175 3.0040908533833415 536.9426117068915
1784.7487726830348 -9.65980077568978 133.1716196046761 515.9950153175644 36.49745760422926 455.0594922297443
1475.371908991172 -11.423519963876352 98.80782486225631 588.0619010222919 62.003683629949755 377.24100439828146
1168.9837617883763 -8.503144710122648 70.11747855353394 634.8813402660559 81.02379909114953 300.0953202788588
826.7427667660176 -13.900332192401432 28.98513172029116 652.3211782406003 97.83844634895814 225.7292041424533
425.9645624389322 94.73299157593019 11.834915943018565 631.2057087534502 121.66171749447382 158.26291783806764
402.8575494406674 269.92744066060357 187.8102622741032 717.7889122968699 156.32991243404027 124.31383190979781
-762.0295749636568 -3014.879676733246 -810.2791247139919 626.4727906777149 200.17072423691567 83.13927167582307
-560.1829015054193 -1755.9593311974509 -419.4734849333707 -612.9002509376246 -82.29133821454636 30.67603124031183
-98.0039237221777 -40.75556113230939 65.47244173431758 -803.4870193503629 -46.62416946166578 106.32656442035997
-226.84972000683334 118.99278617847158 7.304089550965143 -806.7109592989341 -7.3542289459743 163.02349247587958
-178.88631393108477 9.029251323751229 -28.349389657058524 -770.1423042858759 12.224210394913861 240.17805878320348
-108.26916067981736 -7.786876022463984 -18.491906573374568 -738.4813236322713 18.015156690567867 319.9546663336003
-71.62697446999672 -3.1676195120889616 -9.787398347088928 -681.2461217317901 19.594372588737798 401.28756099826137
-37.31240039252749 1.191644741409748 -0.644553848335784 -598.0652568365608 21.027173263703993 484.4205329144976
16.742063005865063 0.2398500567613393 13.680861263240214 -481.12390648993403 26.495422167676402 571.0133098320932
65.98744925214687 -25.62753691113639 16.754664159254695 -289.7960825588232 51.292708530242805 670.3309409042234
67.58927390157994 126.03635450282945 46.74261407998942 -17.95312303637381 83.3817304918535 812.8551494294395
304.61210313991137 894.0074098571416 317.90454260814164 -3.7472724021209842 2.217600465932147 996.5210605104855
74.11216385592563 126.41395378150585 48.28214835921487 10.20317697770426 -78.71348202115549 812.7610992914513
79.81593544282335 -24.858830125184028 19.90870513012287 281.2649304652041 -45.94473022175874 670.1193458419989
39.37906310130198 1.4234777611106253 18.5581771412565 471.23680938324395 -20.09254227498595 570.630611437807
-3.7824744835533437 2.7917450562903454 6.001073646121126 586.1472110410322 -13.357669953503299 483.7619516482843
-24.838488807865488 -1.3479148703691237 -1.6034966740104517 666.4511575340298 -10.776239126288528 400.1923506412144
-46.05275163993269 -6.309742364831983 -9.615244953596829 719.6431822301677 -8.747644693280808 318.14219449061113
-106.90242034342886 8.113512566220265 -23.147336387408032 745.51546362388 -3.599307409268456 237.6655549316815
-163.4841692320666 131.07959565966374 7.000114371348472 775.6367651605677 14.47936765707993 161.64218883880656
-47.06349068800052 6.288319720723884 73.95094489386257 785.1858978238886 52.60343865260418 109.30488045301267
-570.7186591413795 -1840.2639942684416 -446.6063075476345 607.0475833624457 89.72358155757261 48.08037322857665
-439.8587173804241 -878.9310036119974 -154.88642391664183 -465.8074601783853 1.208085424698968 24.22177239766271
-413.2875500414679 -116.97272840621595 21.26870366183781 -675.6924108034087 43.68114742009199 82.5004562817039
-761.9051670052145 95.39561630160064 -14.227956058813978 -742.2932748355138 99.09629336882686 150.71456335582957
-1059.9193105577108 22.04087631953036 -74.3501320892746 -691.8185848931532 117.54737692297041 226.2719995518438
-1310.2418950245712 2.3015359329274565 -95.35062000283523 -651.7169675219482 111.92282048213137 302.1432597426579
-1569.7329040549025 7.017814335854618 -111.88358351337558 -600.6136851423688 96.06725610724008 378.2245202029082
-1827.762358215733 9.395321810420718 -131.25705207964012 -527.3894459932463 75.60616685773839 456.39760329417186
-2035.3027836473234 26.979646299637174 -137.01825676546912 -423.2142759054996 51.287531626297415 534.9029438477763
-2185.587460972257 -17.742440792344098 -160.22648590579533 -269.001617226079 45.65223088316308 618.6876810431481
-2421.0779168210684 45.188554377177596 -216.79475041287662 69.14931934942365 93.31597526925968 734.6789637901477
-1979.5703053922716 1617.842433697991 326.2396454623568 -3.3729294711978426 3.571605083808998 974.2293624104319
-2414.407853642861 45.632179507050495 -214.91119622518886 -76.12873855072954 -85.87679386989511 734.6164482714087
-2171.590365441407 -16.850494363760955 -156.39360877817424 261.3092264389607 -37.356198117113166 618.5431441350565
-2012.799129119771 28.317807217007022 -131.1613448063262 414.2893288604024 -41.685429975741215 534.6301010987046
-1795.395536833704 11.122917869305613 -123.43046680167332 516.6250683971714 -64.50184017067654 455.90807418143436
-1526.5245964242613 8.904132296344237 -102.49269242017945 587.2013302153371 -83.7751408941176 377.3638354617509
-1257.5064810018957 3.2105633702335634 -85.99277038497169 634.536635648476 -99.60537540822078 300.7054090603277
-1005.9262551474623 22.17804183212909 -68.5307266937229 669.8587088805479 -107.38107764808855 224.3222685735438
-719.6627262924198 107.00029308230226 -12.410941711025337 721.0098357532812 -93.4109673595714 149.40293643282783
-385.3277742666245 -90.81263991789072 23.956424775210284 670.6515085080885 -41.36247477480659 86.15818883708137
-448.519732204631 -929.5176031675957 -174.84000684778437 469.13744634263617 1.308155570691806 40.49853508253153
-409.6181131144202 -351.7266065329399 2.642772185843487 -257.9044712591833 74.58571252575891 35.49497020486811
-662.8514605257177 -109.32956392707447 12.460570792718922 -389.2977335884253 136.03226167459556 59.22473143366414
-1287.4811932624261 54.883342770187696 -49.56103019344004 -445.9440345918583 216.9354774573499 118.4180778471803
-1938.8995451554092 23.46931837879897 -136.5371425321382 -414.6855385922704 234.31130445857346 178.6835056688209
-2529.7977684022835 7.958302324638575 -195.66465180238464 -386.0276199444637 215.04929915870508 237.39570490611985
-3098.2039941712683 8.552597914595292 -246.21208855555562 -353.9108269037122 179.0457247479407 295.87999810989277
-3646.727944411355 13.428573069599878 -295.58228571727057 -308.4258427138143 132.06671323864833 355.02807834197375
-4174.210307942618 7.922174611823985 -353.11471065737004 -247.12268355488007 78.20346802068408 415.0652907953919
-4474.793508291596 87.12173356155661 -344.12485570734765 -143.38988552731763 0.8145044536953217 465.1766208033597
-5051.695166516635 -304.7949961204193 -633.7064637877816 72.8883618379738 36.436443882205246 531.5360916837806
-4181.498471422034 2582.828079542811 351.764484892394 -2.1340193829981047 5.13650513473848 706.4031786117956
-5044.720397406843 -304.28484839744704 -631.4476331512946 -77.3030118810968 -25.787386980435958 531.5558361904259
-4460.309175539611 88.14100328436007 -339.55351087607033 138.529572078847 10.919730202713868 465.20580161780475
-4151.354169854729 9.427052980787817 -346.19920359119084 241.4991952140504 -64.82865663586685 415.0779941343736
-3614.8391053484684 15.326452744705556 -286.49087494006227 301.67665297123915 -116.84170614858313 354.9700248799627
-3058.025986289852 10.466151662071491 -235.71496380637103 345.57069378796547 -162.4551095594124 295.65117476816164
-2485.7928406007377 9.089391538977669 -185.78823275690024 375.42546405634533 -198.84528027978794 236.8719941032211
-1900.68450161949 24.764431530641193 -130.2617610851677 401.84570483542 -222.01107601982028 177.8796887546424
-1263.8032908586304 62.97338394997083 -47.600261716233476 435.5903800950953 -212.24657941826015 118.07422658748587
-652.4807646481804 -97.27092171433333 11.734664224161573 389.19770530442014 -136.94149279572747 61.81982262730376
-416.387803608325 -373.64073966789874 -8.527933503517396 261.30436387386766 -76.38023476554505 46.048162831890764
-357.8001538393062 -151.88158446529314 110.84387891825668 -127.16399042792843 149.31928597188258 42.839729757803944
-803.3886100352822 -98.42342785789319 34.669257640984085 -182.35450770038162 241.55959816517418 49.533094844960736
-1839.9102349183886 -77.55011081508341 -145.21751018213394 -205.01874114007452 358.4310556483607 98.3417642157174
-2955.6819160300465 -200.99617869158087 -346.82425092126164 -197.12483308868843 374.21697484432934 146.3595696547232
-3930.2861068556385 -298.5259582252579 -496.3561589515533 -183.30192435488567 337.3131435618789 191.89012805097684
-4851.589336419863 -378.681837160078 -629.1674587223305 -164.45273233820478 275.37966910477206 236.941741798831
-5745.839023744131 -447.95916559092007 -758.367193439766 -139.73781818925903 194.41376356988968 282.6364268909799
-6613.074462104585 -551.0286964848918 -906.0742445335383 -102.42855323805563 98.27654111125102 324.4269545809281
-7386.096253440674 -513.7373523619908 -1012.3246208623177 -50.12421631701534 -39.798448488460394 373.9136749090794
-8070.259622909753 -1219.9441064500252 -1423.0394605590807 139.3043435868437 -288.98222396198105 335.80033098985615
-6527.50909854203 2580.2754158397092 -155.54809966990678 -1.3789138363910638 7.142271677003123 692.5164707656418
-8062.566666174469 -1219.1480350993993 -1420.2440445230886 -142.1529800968866 303.7544413082721 335.8406278185885
-7370.307409622379 -512.1785914613868 -1006.7165677946673 47.00531762565362 55.97774069341654 373.98277935953195
-6588.658817534595 -548.8115523785411 -897.7211583442358 98.86574974464003 -79.97132729630619 324.4987405918346
-5712.87096171751 -445.37032746340054 -747.6826565833203 135.5749525019637 -173.71147685651454 282.66355121550333
-4812.618243518804 -376.54613602982465 -617.5470073699604 159.57464132232988 -252.916636052581 236.8540200502375
-3893.7274444235795 -298.4649696632727 -487.1462521110896 177.65603654421176 -315.5110273240948 191.63995357269724
-2936.0858778230822 -203.6615412695689 -344.75198902074777 191.1218779204126 -358.29233496985717 146.04730643814543
-1843.8261806153969 -78.53175675487724 -151.00757357629456 200.70024795358745 -354.53924920498974 98.54305625173747
-816.26806132015 -97.51147622937071 26.882602626190845 182.61398820320176 -247.35126846950666 51.31606394004689
-373.5832256757582 -165.21507875703486 101.4449357717217 128.19506486887553 -157.47368089139297 49.880239756707944
SCALARS Strain float 6
LOOKUP_TABLE default
0.004573231309343254 -0.016995545004452 -1.0909784360635388e-18 -0.009628215602466387 0.003969391424946832 -0.005001903241990224
0.005506325538549919 0.001766720401802531 -0.0006371052158865595 -0.004277041211423135 0.004131666089417987 -0.00017010058735150035
0.007672812909047358 -0.002396249079787954 -0.0016803227785510324 -0.002016313148959458 0.004036350892642262 -0.0014031119777820158
0.010790145728927057 -0.0028149535548343254 -0.0023623853580555703 -0.0020792655056736642 0.0035914711887287554 -0.0015224298273504543
0.014646903860529168 -0.004048968976002934 -0.0031245917923188454 -0.001959650908736225 0.003209474565120593 -0.0020909537215014445
0.018558240833500727 -0.005131230985815227 -0.0038581185712826846 -0.0017780305970714284 0.002520857727002795 -0.002578410793288147
0.02237328301215713 -0.006223995944955967 -0.004548142235731071 -0.0014852075828707986 0.0015722881107404882 -0.00307929483605168
0.025960630455284277 -0.0072723824144802565 -0.005151958088726939 -0.0010826332246563239 0.00038322530168819315 -0.0035714776381426993
0.02897065054734683 -0.008182793735706208 -0.0056078493141935295 -0.0005634806663747829 -0.0007758552868512951 -0.004078851582774494
0.03088671428946057 -0.008712318433534738 -0.005859274666753799 -0.00010469776934789608 -0.001104605139624204 -0.00462400597673276
0.03150917986847068 -0.008742392831540567 -0.005928501747936242 -1.282364137428354e-05 2.6552725829613165e-05 -0.0049958466250506275
0.0309101990347695 -0.008719800477517315 -0.005864807293190468 7.838467230079175e-05 0.0011572442074423424 -0.004625295878020768
0.029022135959214802 -0.008199155726433451 -0.005619786623134336 0.0005351709533169044 0.0008269536980417052 -0.004081408448747474
0.02604974762318691 -0.007300572949579444 -0.005172237778193132 0.0010509490313755428 -0.0003353316429257461 -0.003575367052773503
0.022516063990006503 -0.006268708281080941 -0.004580045713191969 0.0014488800177333094 -0.001530059476352076 -0.0030839910916814306
0.0187782938209081 -0.00519961331496524 -0.003907634271263885 0.0017352705617174763 -0.002489716786157862 -0.0025857920505583058
0.014977592396460713 -0.004149238626844024 -0.0031990263110489793 0.0019106412212895557 -0.0031895559492810216 -0.002091660543499088
0.011276280715724457 -0.002958989934359216 -0.0024865001205921413 0.002009880476184753 -0.0036144465117353207 -0.0015614034467434765
0.008458227275927613 -0.0026029685060182718 -0.0018290657455080595 0.0019322987874656713 -0.003973149852096285 -0.0012736970822273446
0.007196783370508102 0.0014795281913920803 -0.0010919712628187947 0.004437746298145969 -0.005312729231834912 -0.0009357372379949135
0.006959791873974385 -0.017935517330869014 0.0014315286951782466 0.005787429244617024 -0.00695888629302203 -0.0019400242502739336
0.002809090955970998 -0.014754317115500265 0.0011873045441369763 -0.006179950084191166 0.0032795735173451112 -0.002875298747883695
0.0025368669217858035 0.0011798206274934782 -0.0004166612292028791 -0.005120625605445945 0.0027460862867358564 -0.0008624301264513229
0.004050387596096697 -0.0014698010469321795 -0.0010866722905183885 -0.004260487493963328 0.0024915745289235667 -0.0015118361973873462
0.0070348259090079095 -0.0022577426938384707 -0.0016801139324200446 -0.004315118993968545 0.002202977800590154 -0.0019605126034877274
0.00955227741588471 -0.0031856553879345438 -0.0022238538259580403 -0.004218054719054588 0.0019117410679767345 -0.002601028774210636
0.012158677466690289 -0.004069355643969973 -0.002762521035649044 -0.0038743470820678926 0.0015064812762073678 -0.0032397396362559036
0.014691296492611392 -0.00494099456735421 -0.0032612073264873297 -0.0033663151669050405 0.0009426379357594778 -0.003882116200422468
0.017072545951293077 -0.005791872084611851 -0.003695801297033451 -0.0026252823048242826 0.00024670132082557335 -0.0045451032975593894
0.019080183272289115 -0.006528866682659283 -0.004026247938910594 -0.0015507461682698796 -0.00043872061093494903 -0.0052997874509017615
0.02037371085655488 -0.0068502751083396604 -0.004224706373807467 -0.00040815440104203046 -0.000654283200304065 -0.006246499201752001
0.020801793433226183 -0.006600928626190763 -0.004299448755889962 -2.286409864367575e-05 6.360506248081926e-06 -0.006980775769475
0.02039840210361545 -0.006858059796871757 -0.0042292409677974485 0.00036097012822840186 0.0006657377518927733 -0.0062466345586348025
0.019133698281458295 -0.0065457532114809825 -0.004036206572030467 0.0014991205433153802 0.0004463343063264587 -0.005299885266738138
0.017163500726710364 -0.005820579150855267 -0.003713107558555038 0.0025659873435699546 -0.0002455410935963969 -0.0045447966229606425
0.01483347006998994 -0.004985802277920282 -0.0032892942381974604 0.0032957542578659423 -0.0009508527650112916 -0.003880646550699684
0.012372058880940546 -0.0041366046322935624 -0.0028065756320034 0.003788505929810136 -0.0015260041135906866 -0.003236523726155969
0.009863139408154028 -0.003283162380948735 -0.0022939879903682786 0.004112743593901718 -0.00194751168255556 -0.0025926584815307765
0.0074839643134986126 -0.0023931177288171747 -0.0017843604305512904 0.004172951690029967 -0.0022394386018856874 -0.001958805753393479
0.004694944798392237 -0.0016570401921441903 -0.001270615905180009 0.004041063372982167 -0.0025946575826527696 -0.001452969218097346
0.0031188046479439418 0.0011052502047200327 -0.0005849372243075226 0.0048298223027384 -0.0031403043424927776 -0.0012370260989316162
0.00321524306390551 -0.015478289281775727 0.0014751646553311452 0.003867231600694977 -0.0038831579460465223 -0.0011678471417138653
0.0014484845103790473 -0.010266193486124904 0.0012982688562896002 -0.007255645918388423 0.0019970160963214204 -0.0009522967294788793
0.0008506108593104493 0.00024619715088155153 6.221455421478298e-05 -0.008317576571744553 0.0015628738686078293 -0.001340327909380346
0.0012586154227617495 -4.589618896034585e-05 -0.00046918135041953735 -0.0072548755010155164 0.0012315953527887726 -0.0017260823631020988
0.003076928141244442 -0.0010182627910541428 -0.0008142596829521695 -0.007378498999333764 0.0009987771944177323 -0.0025004560563215974
0.004561130544900849 -0.0015101148100803363 -0.0011133687380995823 -0.007127903738462446 0.0008168578706323 -0.0032999786232312807
0.00590111895090844 -0.0019717032930911178 -0.0013968047235898388 -0.006579397127051214 0.0006181768163248959 -0.004139842599999492
0.007221234831136387 -0.0024186897382840293 -0.0016589209725289373 -0.005763793893169596 0.00035158235717214643 -0.004987370590264119
0.008496026254997815 -0.0028874756698322786 -0.0018853600831918718 -0.0045785082739644364 -3.41911660746872e-06 -0.005881368021910322
0.009584587964050654 -0.003307150347052546 -0.0020631521136597725 -0.0027496764998007767 -0.0004546808146865936 -0.006934080748445992
0.010143539562462523 -0.00315942487162959 -0.0021942825079898152 -0.000593462826255166 -0.0006949911106291815 -0.008371378416711504
0.01024285889204791 -0.0020926258007058127 -0.002279352207180974 -3.6537097207894206e-05 -9.77571517711565e-06 -0.009724646669766336
0.010168588041816104 -0.0031676932955235367 -0.0021976989010686876 0.0005179645328915984 0.0006735094318119702 -0.00837062414803127
0.009638365062888872 -0.003324850766673279 -0.002070793140984988 0.002666762834591146 0.0004275050092687252 -0.006932346300080061
0.00858596096686296 -0.0029169107766336914 -0.0018989851062929603 0.004482711395780367 -3.288688933983438e-05 -0.0058781085913167915
0.007358716745409737 -0.002463309130370708 -0.0016814950398626176 0.005648787536099865 -0.00039955111482452917 -0.004981703914939605
0.006101712073777703 -0.0020365365899818327 -0.0014331650182983176 0.006437730284870976 -0.000678777168158969 -0.00412979625867489
0.004844208259519511 -0.0016009832286838514 -0.001170638764505538 0.006950279935544158 -0.0008869973795248802 -0.003285254032528285
0.003461967692244511 -0.0011394471652106917 -0.0009047056785344061 0.0071412002670601035 -0.0010710735179266656 -0.002471140761139461
0.0016589229060360252 -0.0001541341134261011 -0.0006078920011012055 0.006910041443204986 -0.0013318756441522076 -0.001732562468964702
0.001118047320255543 0.00039042988271974823 -5.905362002617425e-05 0.00785789967147014 -0.0017114011466495135 -0.0013609093177519393
0.0016232339598785364 -0.010708156070879231 0.0013591311612446873 0.006858228445322377 -0.002191342665334039 -0.0009101562372979815
0.00038925028771989804 -0.006156052274798258 0.001159449199483648 -0.0067096448523694206 0.0009008735972943908 -0.00033582181568179417
-0.00044386942274973865 -0.00013050996436353004 0.0004509485776456143 -0.00879606842236123 0.0005104119604220288 -0.0011639960736535354
-0.0011146896114786634 0.0007783430539569275 0.00016699439873560113 -0.00883136208074802 8.050945372412386e-05 -0.0017846782334208764
-0.0007288011470820154 0.00029978931536984413 9.519043842249337e-05 -0.008431031541660297 -0.00013382293484924984 -0.0026293176961554024
-0.00042267589853450636 0.00012733239643690058 6.873643973669817e-05 -0.008084427121876252 -0.00019721855745407613 -0.0035026616103890286
-0.0002852230278444175 8.950186245410643e-05 5.326728356882752e-05 -0.007457852280020932 -0.0002145068157084753 -0.004393042773031774
-0.0001577959059422666 5.296307795352275e-05 4.291230672458923e-05 -0.006547240706429776 -0.00023019221257192238 -0.005303130044535521
5.290884046018097e-05 -3.7419061996897825e-05 3.6152788819099215e-05 -0.0052670406605231914 -0.00029005514794047844 -0.006251093076059182
0.00028904973085225165 -0.00021242177235505558 1.956501245043932e-05 -0.0031725044827482837 -0.0005615201775948434 -0.00733835977411298
6.633929821308123e-05 0.0003862601604586747 -4.776873449036355e-05 -0.00019653945218030917 -0.000912810523280721 -0.00889862479374771
-0.0002482588741112081 0.002977904910053767 -0.00017550025806966095 -4.10227715587999e-05 -2.427688931325632e-05 -0.010909283188745934
9.138245563202065e-05 0.0003776659373370712 -5.000289234548232e-05 0.00011169793742796887 0.0008617054873863528 -0.008897595192241077
0.00034231988606731777 -0.0002306367254593875 1.4406625411291657e-05 0.0030791108177134485 0.000502973888743777 -0.007336043365008192
0.0001405665963400152 -6.719029184788791e-05 2.659964161205493e-05 0.005158802965870646 0.00021996046280138234 -0.0062469035357406635
-2.703292671229213e-05 8.952274974680515e-06 2.6519126208817236e-05 0.006416769468229388 0.00014623133422745962 -0.005295920312782443
-0.00010085501197769578 2.77249716789433e-05 2.6325997598552963e-05 0.007295886356158138 0.00011797145990867753 -0.004381053101757129
-0.00017379054924063534 4.37501331097949e-05 2.5656855780711303e-05 0.007878199047572787 9.57636892742598e-05 -0.0034828198133740607
-0.000431125360831167 0.00019843553509638152 2.732351977144022e-05 0.0081614324438878 3.940294427017949e-05 -0.0026018123908316546
-0.0008627708725962095 0.0007495781562867339 7.040625870782701e-05 0.008491181429138496 -0.000158510972246293 -0.0017695565936045772
-0.00029951692662055345 -7.48596438375255e-06 0.00036287787867022263 0.00859571930250432 -0.0005758692231452768 -0.0011966007965406717
0.00048565234275194677 -0.00646343791269104 0.0011650041620029073 0.006645573544186855 -0.0009822371033681838 -0.0005263535595596229
-0.0005461620594602701 -0.002949505099883029 0.0010136862837090918 -0.0050993658798459286 -1.3225356228858907e-05 -0.0002651646662469912
-0.0016192688110239642 2.664949505821494e-06 0.0007593548934575237 -0.007397053760371268 -0.00047819361386241784 -0.0009031628898202519
-0.003310549326645242 0.0013820444346122952 0.0007819996174836996 -0.008126157956094386 -0.0010848436326692074 -0.0016499278514745042
-0.004396743300324893 0.0015255650910059103 0.0009979511502411446 -0.00757359292935989 -0.0012868344421044058 -0.002477082942464433
-0.0053992722939121005 0.0017851759597527332 0.0012506588956829473 -0.007134585749721359 -0.0012252603505418984 -0.0033076735803411698
-0.006476939677062817 0.002153695834132265 0.0015028671301152833 -0.006575139289988095 -0.0010516836458078062 -0.004140563168533171
-0.007541910901624818 0.0025141100837883855 0.0017442234056509495 -0.005773526566670339 -0.0008276885634967218 -0.004996352709744601
-0.008430699791613814 0.0028575829828328225 0.001959910250269384 -0.004633082599388664 -0.0005614635041199316 -0.005855779595811509
-0.008977670665108352 0.002888428392718264 0.0021085157247311124 -0.0029448598096339144 -0.0004997717907220635 -0.006773001981949067
-0.009977246560048003 0.003522317282308495 0.002088303403452755 0.0007570030749931654 -0.0010215643608431804 -0.008042801287804451
-0.010790715491123985 0.00890038581761535 0.0018305600293469144 -3.692470157827395e-05 -3.90996767091612e-05 -0.010665247756915587
-0.009952101678434539 0.0035133806082876438 0.0020872484463805713 -0.0008334093483590704 0.0009401249013081737 -0.00804211690738975
-0.008924703724205712 0.002869661885906472 0.0021058469438470957 0.002860648373637829 0.0004089520635962508 -0.0067714196831656194
-0.008345036075128511 0.002827393471125243 0.0019544549547993724 0.004535377915937372 0.00045634575973412715 -0.0058527926857091525
-0.007417697988018713 0.002470613553512207 0.0017341108163701712 0.005655684959288357 0.0007061254081825059 -0.004990993654198342
-0.006309254856370141 0.0020951971324169897 0.0014854460918678812 0.0064283092991955365 0.0009171173318926087 -0.004131140935581439
-0.005190197132204124 0.00171056984752319 0.0012222989680200438 0.006946506327099241 0.0010904167413124616 -0.0032919328991894226
-0.004176928209220625 0.001450590047933105 0.0009540788938987854 0.0073331900761712315 0.0011755402184651517 -0.002455738519121142
-0.003149640133492732 0.0013752521830894748 0.0007216327926406783 0.007893160307205943 0.001022604274253195 -0.001635568988317622
-0.0015379827777862556 7.410006286222869e-05 0.0007023096801293852 0.0073418691457820895 0.0004528102501674665 -0.0009432054356924137
-0.0004935261018953038 -0.003126356553486934 0.001004510289533133 0.005135820465231185 -1.4320860983590844e-05 -0.0004433523840651437
-0.001283759843410303 -0.0009668800179121524 0.0009728260550730316 -0.0028233752643092944 -0.0008165172739657791 -0.0003885765159261166
-0.002668592684569227 0.0003612113810227698 0.0010278521184356214 -0.004261785715071787 -0.0014891952857006667 -0.0006483549546418433
-0.005427696366464336 0.0019199831991857375 0.0013482876840175666 -0.0048819136418466885 -0.00237487259532184 -0.0012963663259050358
-0.008020965043828678 0.002720422419726739 0.0018445975810557496 -0.0045397153698536995 -0.0025650921751272375 -0.001956114167322778
-0.010414677320249248 0.0034761980142566542 0.0023616302653514634 -0.004225986576239413 -0.0023542239065830655 -0.0025988582431830296
-0.0127448679872826 0.004260536516772112 0.0028660350750379236 -0.003874392210320833 -0.0019600795130337474 -0.0032391073477273553
-0.014998239286812707 0.005036301650984286 0.0033448737923598426 -0.0033764513307668964 -0.0014457829659835454 -0.003886623173426804
-0.017139589672127094 0.0057520828639621895 0.003775880965650631 -0.0027053430620775825 -0.0008561221762274564 -0.004543872657128907
-0.01851660030167885 0.006453883127417576 0.00409337548089104 -0.0015697419047199673 -8.91668033619704e-06 -0.00509245984879602
-0.02008481990966206 0.005898212601982147 0.004097855094750091 0.0007979357506549213 -0.0003988831751299697 -0.00581892142474731
-0.021313163118961632 0.015712624317928425 0.003500486747179491 -2.3361896401613523e-05 -5.623121410889101e-05 -0.007733255850065996
-0.020058950117652637 0.005888697097978946 0.004097911328798815 -0.0008462645511277067 0.00028230402588403123 -0.005819137575136124
-0.018462675466366887 0.006434104459826787 0.00409303975073963 0.0015165342627508275 -0.00011954230959252062 -0.005092779301922638
-0.017053989577567097 0.005720812905320535 0.003774227079879377 0.0026437806633897213 0.0007097031884316565 -0.004544011725257627
-0.014877851699751242 0.004992528197184135 0.003340475456174545 0.003302565464102358 0.0012791092041506715 -0.003885987640792263
-0.012591374074307556 0.004204582891326037 0.002857065206663114 0.0037830897004141914 0.0017784559362288262 -0.003236602334305029
-0.010243297634682827 0.0034128998465142372 0.0023462012714189078 0.004109920869669186 0.0021768325420119835 -0.0025931249880800757
-0.00786962232738878 0.0026696770961777442 0.0018211126734389391 0.004399152979254121 0.00243043704274636 -0.0019473144874193819
-0.005340695694863089 0.0019216608409381437 0.0013164156225541786 0.004768568371574641 0.002323541501003861 -0.0012926020594848768
-0.0026392416311654043 0.00039980171963443665 0.0009964638742445359 0.0042606906686013515 0.0014991489737673802 -0.0006767643740267206
-0.00127047242803031 -0.0010364884990940553 0.0009620237030715221 0.0028605951413595205 0.0008361625700672951 -0.0005041062036357297
-0.0014546898617882082 -0.0003275566399534738 0.001110519580671012 -0.0013921110531040475 -0.0016346532359008833 -0.00046898230471601057
-0.0033021573009249625 0.0005565994857281353 0.0012851068168788962 -0.001996301979035229 -0.002644441916754224 -0.0005422570383023659
-0.007465599783657031 0.0021810030009050342 0.0018106130254218148 -0.0022444156924792385 -0.003923876819728176 -0.0010765835240448055
-0.01175299278798123 0.003325287037447016 0.002527070221031272 -0.0021579981727610025 -0.004096691093035409 -0.0016022521309571685
-0.015544511459799884 0.004334596722176168 0.0032517366760958723 -0.002006673698204013 -0.0036926912558435266 -0.0021006919281370178
-0.019154671779602093 0.0053286113742454224 0.003957532182534663 -0.001800324648759876 -0.0030146826933631406 -0.0025938885417991163
-0.022669225751730745 0.006329695577114455 0.004630620056256716 -0.0015297613780744684 -0.00212831909592578 -0.0030941250943844886
-0.026003972967582688 0.007177751223186047 0.005234344012813975 -0.0011213231091339324 -0.0010758695026933005 -0.003551621397516758
-0.02917169541673815 0.008445426989181245 0.005716317730013757 -0.00054872826283658 0.00043568827818709114 -0.004093370756901846
-0.030641534959189486 0.006854928920379257 0.005743249087363274 0.0015250159719039258 0.0031635948728511607 -0.0036761299392562207
-0.03054706228796473 0.01930607400130436 0.004331040021639791 -1.5095477788459801e-05 -7.818907941205163e-05 -0.007581232943117249
-0.030613680178050856 0.006845032328877631 0.005744296277299372 -0.00155620104527771 -0.003325311778543003 -0.00367657108348555
-0.029114268891983437 0.008424962533739899 0.005718017821179454 0.0005145845297930627 -0.0006128089507593695 -0.004094127268776298
-0.02591452212344786 0.007145694485831104 0.0052358734847585955 0.0010823197866760483 0.0008754755830249034 -0.003552407265423622
-0.02254717922739102 0.006285455823275005 0.004630693600721664 0.0014841889537028745 0.0019016835361107408 -0.003094422034360968
-0.01900795916000552 0.005273698691517768 0.00395453602734887 0.0017469223892120633 0.0027687715946809145 -0.00259292821949654
-0.015402290854290733 0.004277040586515941 0.0032442588299595324 0.0019448660842745792 0.0034540154570239707 -0.0020979531759556026
-0.011669733973636678 0.0032866939738282904 0.0025144094177158662 0.002092281610920175 0.0039223581933582686 -0.0015988336704812894
-0.007473534237969939 0.0021891299768528995 0.0017924202426742367 0.0021971395565483103 0.003881271780778946 -0.0010787871421248673
-0.0033477027336414962 0.0005865438373853846 0.0012674377426996949 0.001999142607701893 0.002707845465356956 -0.0005617758578706882
-0.0014924302432861873 -0.00035188880752024855 0.0011077239035861316 0.0014033986048820972 0.0017239224013411592 -0.0005460573615487436
0.004277815631721752 -0.010936997560962796 9.435947032412906e-19 -0.0049524376082570555 0.0026420888918498287 0.0009346194786946513
0.005422868088745164 0.0005474223709266498 -0.0006786754730629672 -0.0022139401527685684 0.0028508549476027696 -0.0002929390745113771
0.007932618080285631 -0.0024286396561516875 -0.0015371283450455711 -0.0007911801384066695 0.002674018641222919 7.318960018121836e-05
0.011065283973003215 -0.0030397548160464717 -0.0021867334777561044 -0.0008599876678405596 0.0023761103807285145 -5.005963878400989e-05
0.014666122466397738 -0.004177669077625473 -0.0028203357267953815 -0.0008540993915170273 0.0018135342355957557 -5.13734476696857e-06
0.018301944739911685 -0.005240013480151407 -0.003395769403103497 -0.0008759237941098863 0.0010847262356739455 3.494741981449513e-06
0.021859910914817742 -0.006317096582153053 -0.003892161664923959 -0.0008961961903370493 0.0001686563981370041 1.6399593911902348e-05
0.025323197915972873 -0.0073857016336840685 -0.004273112251666365 -0.0009439039015567136 -0.0008431760313347017 1.2995464723998275e-06
0.028684411174406167 -0.008480647736791127 -0.004495426580471466 -0.0009917850299958186 -0.001630465230834168 -0.00010642458770986496
0.03160729110907065 -0.009601899435834813 -0.004545136290271753 -0.0007985792243614412 -0.0014898015116814169 -0.0004088081747509755
0.032879140180193785 -0.010300540914292614 -0.004519239517203313 2.688163747877669e-06 1.4104287110757182e-05 -0.0007254956530900415
0.031615195181920915 -0.009603846365289385 -0.004549190087847466 0.0008039136195146983 0.001516423650106408 -0.00041066912716404227
0.028701386369690038 -0.008484672056621196 -0.004504372952361715 0.0009969224217268695 0.001652091246207553 -0.00011008069588159233
0.025352029156719254 -0.0073921362318597325 -0.0042888309967700836 0.0009484359091363737 0.0008555798755496869 -3.797120999927086e-06
0.02190616536618381 -0.006326663770328449 -0.0039179727954179264 0.0008993664091651173 -0.00017199383867434281 1.0336193401781746e-05
0.018375885235557228 -0.005254294839769591 -0.0034374229866431416 0.0008760975383780788 -0.0011137055321866032 -3.2028791632995314e-07
0.01478716383508995 -0.004199794783268822 -0.0028864237665297567 0.0008507329224811356 -0.0018903015508982396 -1.0498478301084249e-05
0.011263527728398363 -0.0030751728863819376 -0.002294896032163761 0.0008435065821443341 -0.0025083732566754955 -1.941542971909853e-05
0.00829781392743734 -0.002498350833975686 -0.0016902705969578736 0.0007605984522110549 -0.003019467242488336 -1.4452337399371693e-05
0.0062415875233735405 0.00039763120967843517 -0.0009588597397845605 0.0021953759518784496 -0.0025512172511254977 0.0003455666716174886
0.005430341044619617 -0.011125557385405004 0.0004094861874404534 0.0029262864688853717 -0.0021553028733454992 -0.00172184444950947
0.0025607644907086383 -0.009628623295754772 0.0005100963224283293 -0.003178112866327663 0.0004449645373372926 -8.757914480846297e-05
0.002843981821764543 0.000310494294768028 -0.00035845543935165503 -0.0027610295168950215 0.0009586625436460441 -0.00026622936701565234
0.004685906472385734 -0.001664879387883773 -0.0009750239335434167 -0.0021738282385100143 0.0016309260384303683 1.7479433507213653e-05
0.007394020061493132 -0.0024449593535696566 -0.0014876051815613815 -0.002257164385594472 0.0013676551923483614 -2.354223242247928e-05
0.009765916212356689 -0.003311233159244971 -0.0019358451769738018 -0.0023244883131904124 0.0010191467624358506 3.7006622697548506e-06
0.01218970855469851 -0.004165001400759384 -0.0023421700840808198 -0.002337283116998976 0.0005553935730716143 4.536597377478211e-06
0.014556837709853505 -0.005016748278605319 -0.0026871216038364316 -0.0023573984016141457 1.0929705153388575e-06 -2.230635993758615e-05
0.01683912878222192 -0.005850473349114078 -0.0029504453632036875 -0.002420322083357957 -0.0005943328844236074 -0.00012807833918538773
0.019003904008445878 -0.006701495775959631 -0.003107292074675398 -0.002509326426514388 -0.00105536062729143 -0.000434799147738912
0.02084034409828969 -0.007707600452121294 -0.0031506012946962464 -0.002058906684720425 -0.0009726389474584941 -0.0011040210800057166
0.021630350150351207 -0.008596584631280216 -0.0031381033873546954 3.891349167037674e-06 -5.4339470724622516e-06 -0.0017705271049825722
0.02084809453158054 -0.007709991239594054 -0.0031522179335567806 0.002066569804314334 0.000959298026414209 -0.0011044216882533818
0.01902044934904953 -0.006706390786804268 -0.0031113228177229767 0.00251647634396328 0.0010345119285485578 -0.00043515693539731887
0.016866900385655303 -0.005858142107668975 -0.0029586881438461773 0.0024260531267779463 0.0005605294943236499 -0.00012725126567303142
0.014600472433077995 -0.005027744784380711 -0.0027028700845169664 0.002359868421830085 -5.409257203261403e-05 -1.800596217395798e-05
0.012257934557917786 -0.004180600690068821 -0.002370867666790641 0.002333225059613851 -0.0006365538480251434 1.7039789916999104e-05
0.00987384706531555 -0.003334043464076637 -0.0019870127323730266 0.002309500031862237 -0.0011382939225068867 2.981919757703633e-05
0.007573897139228668 -0.002479154675264505 -0.0015731983885031824 0.002219495449206093 -0.0015527382464545446 3.560691272862768e-05
0.004998825670468867 -0.0017327901452371135 -0.001121432088038443 0.002077588192047195 -0.0018639436886269272 7.06618404670075e-05
0.0031574356956229855 0.0002715973275344608 -0.0005212627096413432 0.002531447373701388 -0.0010204766065285645 0.00019382443818709213
0.002789108623627629 -0.00971687169025242 0.0005205742964687172 0.0018864661621688379 -0.00030517833445726047 -0.0018163597474941844
0.0014197019347475723 -0.006954659625460079 0.0007223977279448349 -0.004194574618456687 -7.055574391016642e-05 -0.0017517655203662344
0.0012549000173702938 -9.17201861201542e-05 3.875185585211698e-05 -0.0047949715141370865 0.00021913894435122524 -0.0002632729089846923
0.001975390005881063 -0.000430694898358837 -0.00040695963920701455 -0.003965308104307641 0.0006581185154031756 -8.02742276031977e-05
0.0035658052414409775 -0.0011972591914381568 -0.0007179202091070682 -0.004077865463444858 0.0005589676288251779 1.1136579157296197e-06
0.0048728559286633 -0.0016320715348174023 -0.0009659007790871707 -0.00412206056983731 0.00035426467002204064 -8.700800307913398e-07
0.006076563141996655 -0.002055592480822704 -0.0011777380269773067 -0.004138180278516504 0.00011953295825541776 -2.6609307075827625e-05
0.007249584047192432 -0.002472807469161853 -0.001352169413076098 -0.004148092235219804 -0.00015176433698506784 -0.0001171037271997216
0.008337705617173901 -0.0028433097030029163 -0.0014801781014776604 -0.004193161566571735 -0.0004598564622849243 -0.0003436371183661825
0.009383603221460013 -0.0032079938564605424 -0.0015525682797545334 -0.004338879417165219 -0.0007974132114470335 -0.000875725940451695
0.01051399805283905 -0.004086516853341606 -0.0015606261699194217 -0.003752825046130847 -0.0008862142972760619 -0.0019821492287321364
0.011117198962660441 -0.005651176713336536 -0.0015323623307248273 5.70789075108088e-06 -2.276442042246289e-05 -0.003261780779590489
0.010521482290427573 -0.004089773798556335 -0.001559733319247824 0.0037640206699517385 0.0008375099394493117 -0.001981221871028601
0.009399379822247506 -0.003214573391606173 -0.0015514751560841917 0.004349156110599461 0.0007392555886933178 -0.0008730604057320676
0.008363578869400042 -0.0028533247245945796 -0.001480483381144938 0.004200969237697072 0.0003862347031203355 -0.00033726158497640656
0.007288945190639326 -0.002486430947751399 -0.0013568196396759372 0.004150238315595592 5.7097482580441854e-05 -0.00010294117837244032
0.006135677621852949 -0.0020734345875198395 -0.0011918632649434518 0.004129026378732552 -0.0002401366530158274 2.4066464404972633e-06
0.004963651779719196 -0.0016553589777208782 -0.000997798017079575 0.0040926099778312115 -0.0005058575056968823 5.659418957303796e-05
0.003712893848974962 -0.0012301941464318707 -0.0007809661655743686 0.004010824857636013 -0.0007471690005275847 9.65915730453321e-05
0.002163122722838571 -0.00046978978996841785 -0.0005159073863434642 0.003808477558384283 -0.0008485571076421804 0.00011161486167707058
0.0013932919462382304 -1.8788892516248587e-06 -8.835740195811964e-05 0.00447803500600631 -0.0002580317198898709 -8.32291366633655e-05
0.0015046279980779958 -0.0069531894781370215 0.0006508256463624402 0.0038311966293970625 0.00015768243342849915 -0.002454816348992197
0.0004812263858939802 -0.0043859788309625666 0.0008396606774811865 -0.003966052275003749 -0.0002277952894475953 -0.001920634502436249
-2.266041085985989e-05 -0.000243596072557013 0.0004066976768863829 -0.005267938704434663 -0.0002175375221309138 -0.00047224741015337244
-0.00040444968836784426 0.00037062100213519395 0.00016523691262107645 -0.00500893654893141 -0.00013609787883735704 -0.00011915242377259994
-0.00016736389190105696 7.035985719076835e-05 7.306245957016727e-05 -0.004731345634778521 -0.00019025519429608035 -2.947570085112461e-05
-4.2716348698727515e-05 -6.811147992159218e-06 4.0059813246922153e-05 -0.00473067305957087 -0.00025556107010441583 -2.5258108042773737e-05
-3.4071763398791345e-05 1.6513849292523335e-07 3.113318835857328e-05 -0.004741182815441167 -0.00029002990094668203 -7.486982365347152e-05
-4.749801526003521e-05 -2.5918039361057184e-06 3.60710483877482e-05 -0.004752308978293334 -0.0003137942721470854 -0.00019496282865349702
-0.00013887421910574016 5.77024544835124e-05 5.156577376323611e-05 -0.004719561761813325 -0.0003747926406697783 -0.00045204839849335423
-0.00019767112525327242 0.00020808299721104958 7.010320337091504e-05 -0.004870571846219463 -0.0006351012303503331 -0.001003950371621605
0.00038032812507498063 -0.0005643776761580886 9.763269596843282e-05 -0.004767167044838063 -0.0009817115541963894 -0.0022098554597229144
0.0009399166520374135 -0.0035312229644535267 0.00014941783173340868 6.206608848662993e-06 -3.921536030601163e-05 -0.004187881194360416
0.0003874823956721813 -0.0005684795687347985 0.0001010862217713685 0.0047793329233691405 0.0008994610478092127 -0.0022085428739060764
-0.00018285335376812457 0.00019988101580938573 7.645316772493836e-05 0.004881705479478208 0.0005416667388893501 -0.0010003965634392822
-0.00011532947653097896 4.5485682953900534e-05 5.9493385198192985e-05 0.004727917977230571 0.0002637677406820718 -0.0004439776050236025
-1.3362407018296452e-05 -1.8563271774538375e-05 4.30516499513429e-05 0.004754257393350354 0.00018080823664828438 -0.000177848273070736
1.4135244340749811e-05 -1.9220777561829437e-05 3.2704598519101356e-05 0.004729955633213599 0.00013419166396286654 -4.008845656500832e-05
2.7592457328201346e-05 -2.98192317467409e-05 2.8679558671579116e-05 0.004694800691247575 8.062355220512103e-05 4.121444255576367e-05
-6.836769640566513e-05 4.2721225518091194e-05 3.6893763824171285e-05 0.0046508719154173695 7.4638604418321495e-06 9.084232793574104e-05
-0.000303638216283823 0.0003702790513134569 9.354849635795439e-05 0.004847510761409383 -6.493290053647636e-06 7.51063644585597e-05
4.200783331359606e-05 -0.00014798590199388285 0.00031110620158284304 0.005098736879385804 0.00020561376600842344 -0.0003550767503005758
0.0005227059850738679 -0.0043986208787572785 0.0007586842298811717 0.0038484035723332765 0.00029816343298064835 -0.0023408977700341703
-0.00037022194198149525 -0.00227657958582139 0.0009474832464704207 -0.0030028565370034555 -0.0003842811166250016 -0.0016611213406565468
-0.0011911561582043935 -9.147274171238419e-05 0.00074386006082832 -0.004462675632412524 -0.0006204460593414657 -0.0004815714252135612
-0.0026269963297017606 0.0009932306101843574 0.0007249812883904124 -0.004613302550550363 -0.0008768316700367403 -0.00012371998136916226
-0.0037978729974537414 0.0012739717912060885 0.0008588740250748871 -0.004193805369471844 -0.0009370305876923709 -1.5159145175156812e-05
-0.0049537378626013095 0.0016333034867204764 0.0010445967124391828 -0.004107015359336328 -0.0008721589592804504 5.4722063782943845e-06
-0.006156380619099247 0.002055955144802208 0.0012391150042145446 -0.004128552608724993 -0.0007050221672776725 -2.7261941943812587e-05
-0.0073354590529115474 0.0024799921074541995 0.0014239891137075484 -0.0041384164237947075 -0.00048577424216742626 -0.00012729164886908224
-0.00855468142035828 0.0028956063654458036 0.0015844821082026646 -0.004101442670811623 -0.00027078411811572357 -0.00031068315425733013
-0.009791102850654966 0.0035841387250623727 0.0016927453230757702 -0.0040326344268752385 -0.0003381628324981225 -0.0007021483168521643
-0.00980974718648213 0.0034029508933714056 0.0017232661484251025 -0.005098333156243406 -0.0010448301227282575 -0.0016151917998106938
-0.009233167572336842 -0.002113272187068227 0.0017739499615956973 5.84437235844849e-06 -5.601772168336531e-05 -0.004380152119395764
-0.009802909892242301 0.0033979761849254634 0.0017293127605811905 0.0051098371176246955 0.0009282741504971733 -0.0016144607111416643
-0.009777226545814765 0.0035742629924645263 0.0017044309520465322 0.004043327739150692 0.0002085167308493261 -0.0006998766807580556
-0.008533457781929632 0.0028811084636577384 0.0016007880600294976 0.0041098529786014045 0.00012113926797873234 -0.0003048955023629576
-0.0073066173096660355 0.0024615993308818806 0.0014428553808370434 0.004141373502245381 0.00031282053015779034 -0.00011398996010406133
-0.006119315105243107 0.002035034627278598 0.0012567351554723975 0.004119779809396607 0.000512102661831761 1.1713335503905881e-06
-0.004906969142917939 0.0016111694790820078 0.0010543543609901533 0.004075234897494807 0.0006727144470953919 6.296981828321816e-05
-0.003744334167974101 0.0012561617466202407 0.0008505685522350283 0.004120529235671702 0.0007592485712601685 9.235978395307021e-05
-0.0025835198410210985 0.0010064916059469634 0.0006881812012639142 0.00449997551442502 0.0007709220097313282 3.3765727855592664e-05
-0.0011647654272728344 -2.44717201232729e-05 0.0006800488735980616 0.004390006485209995 0.000624344074805088 -0.0004009534833585568
-0.00034942655528549473 -0.0022880078007125764 0.0008775284694870298 0.002975722405494305 0.00044227409329618294 -0.0019398314151570957
-0.0010894393562940856 -0.0009039760948334201 0.0010991845931468624 -0.001570345386997905 -0.0006886733348536425 -0.0010782913408856401
-0.002272028421159062 0.00022482025975555559 0.0010647527684383674 -0.0024950018800238396 -0.0011479697134164008 -0.0003277444793296054
-0.004790245763596896 0.001589660799983808 0.001259474833698789 -0.002661314131414142 -0.00169523767500327 -0.00011296881517768828
-0.00738578850074132 0.0024815405532780856 0.0016138249327425323 -0.0023859944766748886 -0.0017593495748652547 -1.786793157510758e-05
-0.00986528802645877 0.0033242133511712365 0.002010471629234527 -0.00230806610768581 -0.0015524072032435862 8.256693759414422e-06
-0.012282265031577885 0.004176061464700965 0.0024001290526613045 -0.0023265066119480707 -0.0011618231972188723 4.644955377987798e-06
-0.014653472024187255 0.005024906830928922 0.0027582575229594115 -0.0023481204404387774 -0.0006561778892176296 -2.9232856580821207e-05
-0.01687531758919933 0.005879337087943123 0.0030575111539554996 -0.00230452903192158 -0.00014104304850501656 -0.00011835910595546189
-0.01931233029563354 0.00663706477691053 0.003255337923408796 -0.0023772595384442224 0.00031589946639506424 -0.0001856395381457806
-0.020314520948643694 0.008419897907801569 0.0032250790024077177 -0.0032200503020081983 -0.0006593397383045414 -0.0006036405149395011
-0.019926077784339087 -0.0009932729536435653 0.0031437641162565676 4.053177282390216e-06 -7.440821781941616e-05 -0.0032243460977281406
-0.020307918419333482 0.008413986256822627 0.0032337289983250797 0.0032280843995573768 0.000505119631810271 -0.0006043521650307425
-0.01929919255457167 0.00662537229376438 0.003272374692397757 0.002384922647951023 -0.0004856829669348027 -0.0001866211229578178
-0.016855999572807426 0.005862301350538338 0.0030821987725241375 0.0023110127016920776 -5.2179616883964344e-05 -0.00011849859621378988
-0.014629055072147151 0.005003657047783429 0.002788945172187971 0.0023515689066243854 0.0004366779162291294 -2.622924638184355e-05
-0.01225519759429914 0.004152848017753623 0.002433548716521526 0.0023231510197774096 0.000922947719654417 1.542151151783557e-05
-0.009840514923114186 0.003303088612117206 0.002040788312663822 0.0022904634037584927 0.0013174928923442067 3.604007787824851e-05
-0.00737140607059956 0.0024712853374290714 0.001631811337204792 0.0023445740097591352 0.0015736468538249655 4.068480592029941e-05
-0.0047910952877701085 0.0016057885856376943 0.0012538468725556992 0.0026055194820218215 0.0016149139906993719 -2.7002796206054155e-05
-0.0022751857244558233 0.0002650961600042643 0.0010304952666698956 0.0024703455436322274 0.0011734555274356031 -0.00028569208797262917
-0.0010872729257020322 -0.0009027964574283433 0.0010466065086824276 0.0015646569294370679 0.0007543805464672306 -0.0012377967838984084
-0.0014637029924660498 -0.00043768045957579276 0.0013337223603118893 -0.0006014700198365155 -0.0013166217224783961 -0.0006988353072245718
-0.003135586218131978 0.0004024004486715707 0.0013855340870301336 -0.000976371207416069 -0.001977386010799704 -0.00022784822474857254
-0.0069509917416158105 0.0018943730609711068 0.001751808176923705 -0.0009588737406586286 -0.002751874518807569 -0.00012262494663785843
-0.011029012336729547 0.003100211730309005 0.0022999194296960605 -0.000869456201595682 -0.0027745901214049416 -5.079793957840081e-05
-0.014787317007210001 0.004187543261687541 0.0028836381033215015 -0.0008500916435126209 -0.002385553166944821 -2.527522313409107e-05
-0.018407010501848047 0.005261738557061421 0.003447815262479446 -0.000869878468259829 -0.0017174818112323954 -8.196398435905892e-06
-0.021965051169251428 0.006313860802343369 0.003961296851482242 -0.0008809593250466226 -0.0008640780012056768 4.6641082537444235e-06
-0.025352241419604446 0.007454240695423424 0.0043860043762924935 -0.0009209006109689632 7.977549408911504e-05 2.3471899934984558e-06
-0.02814661462402151 0.008015661995911364 0.004664809373741265 -0.0009480787939237581 0.001051490302037151 1.715873464342216e-05
-0.031084325505325614 0.011264870914819605 0.004568112292556546 -0.0022982137289738113 0.0015686574344469018 0.00037165478318048066
-0.03285107277601534 -0.0004127223836524889 0.003814334520485203 1.945713979550838e-06 -9.573267620119368e-05 -0.00342846657081566
-0.031077860676836464 0.011258472489538702 0.004579341604505488 0.002302110139636468 -0.001766729122105746 0.00037031988681856165
-0.028133933150513924 0.00800301790044349 0.0046871230219793 0.0009519293443935776 -0.0012686020196803472 1.4718267180276049e-05
-0.025334134616829745 0.00743585860537995 0.004418879731595916 0.0009244350164399632 -0.0003255916629518466 -6.196422294628905e-07
-0.021943497903849425 0.006291024987323849 0.0040033391611776215 0.0008834649495365635 0.0005860593471556654 2.361931918379244e-06
-0.018386661665247616 0.005237147860498028 0.0034959825133632607 0.0008698431556714864 0.0014160608821396513 -7.400971516972349e-06
-0.014778377544721433 0.00416662561313423 0.0029322271137695085 0.0008443187221607893 0.0020921941265400093 -1.647223849413489e-05
-0.011046806802018899 0.00309294146137051 0.00233956099902114 0.0008536715484547451 0.0025538040321286867 -2.6510336956131117e-05
-0.006997385095628093 0.0019115021854466724 0.0017699722788663923 0.0009358335525517824 0.0026861512538923042 -8.562681288018287e-05
-0.0031766030400174777 0.00043248518016104453 0.00137456194143475 0.0009648192682641131 0.002060474313562781 -0.0002114259477903784
-0.0014883005470596447 -0.00042862610977187566 0.0013015051648956463 0.0005920435103047626 0.0014533728652360073 -0.0007953365988814932
0.005938754478442392 -0.009457975493961308 9.571472303973594e-20 -0.00031120588862199483 0.0011415769538511327 9.905998229307165e-05
0.006245315979232162 5.77218876570847e-05 -0.0006341013340450729 -0.002141299652023058 0.001556392038534327 -0.00011877009245509088
0.007816508658813734 -0.002526901004857903 -0.0012111021057712103 -0.0008472630889927618 0.0014647901402511927 0.00011472657899771915
0.01077225667037113 -0.0032081248480784344 -0.0017473668843008218 -0.0009681611334861838 0.0012244534475808599 0.00013238254388582132
0.014180439973414187 -0.004360916619230171 -0.0021612193186963656 -0.001014516287120496 0.0007873645655636179 0.00018268469200376694
0.017591487570935573 -0.005478058401490841 -0.002451721558946756 -0.0010652361417185516 0.00023996743121138195 0.00023471085711209588
0.02099388601154075 -0.0066528292320014336 -0.0025989454215869664 -0.0011336525559869427 -0.00037872631606812633 0.00028344493805705867
0.024556724487899296 -0.007913653669001786 -0.002589274823308299 -0.0012638618325761786 -0.0009697729266417703 0.0003053680884147133
0.028546830911290358 -0.009390249906089332 -0.0024290915052558814 -0.0014189201072731818 -0.001300147885159407 0.00025725128326652667
0.03255940241970339 -0.011115066562271942 -0.0021867096406488038 -0.0011919548277163064 -0.001009142190640088 0.00011141278724424699
0.034434068425050215 -0.01223580098829417 -0.002046505402505317 2.7577903713041856e-06 1.3034265874835153e-06 -1.2234121415464622e-05
0.032550183529539735 -0.01111142459120953 -0.002188150481395051 0.0011976387818219466 0.0010102499128729033 0.00010983100557279671
0.028526984452991712 -0.009382017100600404 -0.0024330130539771525 0.0014251251275026592 0.0012965929221176783 0.0002541066158673348
0.02452318433174345 -0.007898751074595518 -0.0025979726349119278 0.0012710245090745513 0.0009576651200793937 0.0003008201114524412
0.020941269463444948 -0.0066276793086582 -0.0026163986006948184 0.0011422517591169494 0.00035200054990617495 0.00027796434871275465
0.01751125999772014 -0.005436858191382089 -0.0024839541300343882 0.0010762444710915435 -0.00029225530518408737 0.00022997833393547924
0.014058363654029758 -0.004294967430145557 -0.0022173598106198884 0.0010273452123706617 -0.00088607043127429 0.00017992105282892262
0.010588570695227333 -0.0031049858968276406 -0.0018370725161536215 0.000991669281726438 -0.0013933022202496466 0.00014377907561439953
0.007483293160280018 -0.0023567216183384594 -0.0013606708150477903 0.0008808201442262887 -0.001725343264222777 0.00010539708375305184
0.005380648879895567 0.00033996135877587864 -0.0008066397590327279 0.002092567028341957 -0.0015705425401796949 8.48324260075746e-05
0.0046560252243817305 -0.008990785149404976 -0.000708041522384553 0.0026876750903480065 -0.001388293364159202 -0.0008291431599912689
0.0026220869638878723 -0.008152081622279444 -9.346194786969557e-05 -0.0005308447370466409 0.0006043962333988986 -0.0002958537158563274
0.003043725251412338 0.00010661248130620701 -0.0002907263151464969 -0.002430149905947196 0.0007326767753920852 -0.0002488876389006589
0.004837965692074057 -0.0018419963560160995 -0.0007561085853396447 -0.002191350065764482 0.0009171616813731032 2.7534311598664695e-05
0.007293766335432453 -0.002620697379589516 -0.0011377364110792037 -0.0024151917419590685 0.000766805299360199 6.957543736796999e-05
0.009521737027039233 -0.0035092792603892567 -0.0014336137008737911 -0.0025530091802099734 0.000485738483196218 0.00010164378889388685
0.011795133142794161 -0.004411423968661845 -0.001631432580286444 -0.0026438448208620656 0.0001298630386286315 0.00011747677389229522
0.014060700259268092 -0.005347762508406779 -0.0017282697447453174 -0.0027922066784050992 -0.0002586295934424821 0.00010240870308785259
0.016405046609508818 -0.006329812299791874 -0.0017202235415979341 -0.0030992944751230215 -0.00061731809181296 1.842902449239682e-05
0.018949177531770788 -0.0074771133145502865 -0.0016163464611817686 -0.0035470972877559752 -0.0008125173529809713 -0.0001952569705873601
0.021429115486140977 -0.009042282033719979 -0.0014557086243093228 -0.0031085458325512266 -0.000633682570108755 -0.0005527445752804976
0.022569576094841635 -0.010452697466890181 -0.0013530199899767668 5.348759858442701e-06 -1.1702733949066462e-05 -0.0008079065984389333
0.021417806901578015 -0.009039362859911122 -0.00145199328686911 0.0031197330550122725 0.0006080618396082758 -0.000553120155169242
0.018925298834368984 -0.007470401345141968 -0.0016097261409946907 0.0035598370676012668 0.000780161616983345 -0.00019561780533057545
0.016365961395765814 -0.00631740420278511 -0.0017125811042762345 0.003114932407586401 0.0005732758275055734 1.9093062037347663e-05
0.01400213316540105 -0.005326390213636201 -0.0017230386292180918 0.002812595829134911 0.00019670986822704111 0.00010624166739807901
0.011710381392635284 -0.004375745423990824 -0.001634391823254169 0.0026716170046761347 -0.00021909238957817654 0.00012864068277796046
0.009401252311261567 -0.003451096322531648 -0.0014532911359319144 0.002591148856608006 -0.0006163741652864062 0.00012677589617595634
0.007115714261457083 -0.0025290271639227487 -0.0011882363873108592 0.002474408832868498 -0.0009597732236210029 0.00012000474854802215
0.004550522970472643 -0.001685408209658226 -0.0008501939185244899 0.0023056715358769618 -0.00114073631074898 0.00010606739776382016
0.002789370857510441 0.0002479879832897836 -0.0004786138756207457 0.002641761190243065 -0.0008201152978983413 -3.075382993272583e-05
0.002473228531586761 -0.007801748490597213 -0.0005358570774338219 0.0019962955387902337 -0.000536298068300806 -0.0010725255002588714
0.0013484933256763265 -0.005720144353067341 0.00016826721917125238 -0.003440477711471237 0.0002120447756830904 -0.0010199957696752871
0.0013091389057891978 7.534488293304278e-05 1.3126791969949029e-05 -0.004229856077075166 0.00026676343750738714 -0.0003761875753152942
0.002137706093532485 -0.000634936961135533 -0.0002925860700747383 -0.003942947639042273 0.0003732229847686827 -9.5869375196745e-05
0.00364782273828474 -0.0013629619467508823 -0.0005412728449948224 -0.004260524922127228 0.00030810838865472204 -1.3726386218978062e-06
0.004847957887884688 -0.0018007151747656675 -0.0007140146373231029 -0.004425700443405971 0.00014989296721916898 1.1691545412796836e-05
0.0059631335595590525 -0.00224947316498352 -0.0008182885210188002 -0.004582658085748385 -3.7651292975208874e-05 -1.711015291746703e-05
0.0070591770970111255 -0.0027091772602756943 -0.0008584295428747316 -0.004818366095909935 -0.00023211228561609423 -0.00011152533872936852
0.008124169681382968 -0.0031224492392923704 -0.0008381221078464992 -0.00527712014202885 -0.00041319957339066204 -0.00032192321828643087
0.009327094488113506 -0.0035988648424403694 -0.0007620756285097506 -0.006074078105873921 -0.0005372123478021045 -0.0007237107510205804
0.010908432046981699 -0.005002074682142619 -0.0006337199894936837 -0.0056360942058852805 -0.00046132538650757134 -0.0013268624578764586
0.011809802025451116 -0.007413494673659091 -0.00052039645020492 8.630516076098445e-06 -2.4471893026627635e-05 -0.0017628312598650048
0.010895252245264145 -0.005000644003414861 -0.0006249180623993231 0.005654170957487991 0.0004095938442754897 -0.0013260680074415885
0.009299668033219698 -0.0035952861989331794 -0.0007450812075924577 0.0060947486632291215 0.00047716145975131415 -0.0007213084403975578
0.008080423777237175 -0.0031151781703118485 -0.0008144623072061894 0.005302652211493084 0.0003393894565895787 -0.00031591673452405433
0.0069960399369560005 -0.002695585295495361 -0.0008311896471777155 0.004851988791470688 0.00013900967576873228 -9.787750258789961e-05
0.005876397452907572 -0.0022251001544697983 -0.0007930464295687082 0.004629022325080614 -8.093888237988593e-05 1.1444243823654313e-05
0.004731452405210595 -0.001758829167425153 -0.0007002005724854847 0.004491521004249109 -0.0003022352677400263 6.753002218450103e-05
0.0034883399654067806 -0.001292107494119714 -0.0005533246462068901 0.004361090834927165 -0.0004996850436808724 9.540704249072585e-05
0.001972899610050487 -0.000534674085704951 -0.00035181491982085847 0.00412445778862429 -0.0005647008096354343 7.765093801047262e-05
0.0012352917712854356 5.360916734716702e-05 -0.00014303088217504863 0.004546187947623914 -0.0003212384151828549 -0.00022754825440880056
0.0013447158076618057 -0.005500589186641109 -0.00016587492925716052 0.003764343140382924 -0.00014473759387590235 -0.001577683768313258
0.00040021717631389016 -0.003613747307771797 0.0005209805759323987 -0.0037067676687176612 -2.5247418236346516e-05 -0.001307857409440673
-4.368092632443145e-06 -1.7153396431549514e-07 0.0003471621636976904 -0.0049583949384870395 -8.11528512878408e-05 -0.000441853512555512
-0.00023574689105402815 0.0002695651729962962 0.0001696834087168709 -0.004919190221084383 -0.00011617622020104004 -0.00013228735908152567
4.272623382079614e-05 -3.358383311257226e-05 5.6771688593904176e-05 -0.004901000204328922 -0.00014910047624996833 -2.5645663440554744e-05
0.00014027918475998066 -7.456297382675697e-05 7.799126925943703e-06 -0.00504630884725052 -0.0001955367910547526 -7.922460225965562e-06
0.00011061720688062591 -5.10753202796113e-05 1.4834538580280982e-06 -0.005224695018803085 -0.00022987551016656412 -5.0375902691963555e-05
3.8228109082347695e-05 -3.719885206286887e-05 2.351155551808777e-05 -0.005495906903126978 -0.0002483067366385019 -0.0001689281915624976
-0.00016479965040209395 9.247552377766857e-05 6.53487461830352e-05 -0.00588728069312394 -0.00027231341315361786 -0.0004118120607036589
-0.00027874749440774384 0.00034111308879523954 0.00012507403223869246 -0.006748710004450656 -0.0003412458427783414 -0.0008546046553963898
0.000639216068772558 -0.0009316913867444337 0.00023328134215059988 -0.007048485427834198 -0.0003623838723146625 -0.001542008448453411
0.0015148503676043641 -0.005329683445100919 0.000387137106752098 9.780549521733747e-06 -3.7204395120020156e-05 -0.002103837543626031
0.0006242276839765659 -0.0009318072997344187 0.0002471795284336697 0.007068973212198164 0.00028466930577108286 -0.0015408582834424347
-0.00030958034481252077 0.00034143519879306926 0.00015245770159383112 0.006772141505732423 0.0002538255581714256 -0.0008513550759031061
-0.0002129684570511397 9.440956653259606e-05 0.000105021847713461 0.005916218361552761 0.00016947222201867617 -0.00040414691471017054
-2.9007902184957094e-05 -3.166110038105672e-05 7.2713270661763e-05 0.005534026835293119 0.00012561589451713697 -0.000152255423509452
2.2789727879852503e-05 -3.858945000287148e-05 5.4621771767659075e-05 0.005277629889986817 8.475025107106392e-05 -1.616246782734943e-05
2.9659948006354277e-05 -4.936073836281547e-05 5.471032220618243e-05 0.005123072249363989 2.7762815886415563e-05 5.7624530183644724e-05
-8.339937710737029e-05 1.252171857731715e-05 8.079809241785844e-05 0.0050178584723679295 -3.3500529817212104e-05 9.241194226173517e-05
-0.00032819329934910064 0.00030442687451640715 0.00014441171400631398 0.005103785440314175 -3.4961330463841905e-05 5.2342331088053784e-05
-1.89211128647843e-05 -3.776314083479063e-05 0.00022890656400205032 0.0051124121930106224 4.9293904404323124e-05 -0.0003336186385433391
0.0004265399309418522 -0.0034326488717728817 0.00026216782401064303 0.0037718020556528494 7.829841059793363e-05 -0.001670523643972655
-0.0004430879527897849 -0.0018958631320654205 0.0008849874751907102 -0.002957471760669404 -0.00022501610213084903 -0.0012290143719588605
-0.0011783083126315644 0.00010105382389684976 0.0006947244358945274 -0.004343708905159402 -0.00040172065783617203 -0.00037731914446165394
-0.0024381740109901194 0.0009758697907157993 0.0006296947061905543 -0.004582122706717792 -0.000588645829040568 -0.00011276608989461119
-0.0034746838395622796 0.0012530467236627778 0.0006522199217689708 -0.004359528479894123 -0.0006026152030077059 -1.2848442340135223e-05
-0.004568797859709195 0.0016668613537895187 0.000727357783525257 -0.004414952670000104 -0.000543084196771108 1.2228411019564106e-05
-0.005755237202226984 0.002148696240179135 0.0008199150062397268 -0.004582700226251329 -0.0004245569971154922 -1.7357450533339158e-05
-0.006965097954929787 0.002651336230616358 0.0009049981287008874 -0.00481020124889591 -0.0002677804550342369 -0.00011286429649896707
-0.008341083148083642 0.003201431252554899 0.0009684256766981184 -0.005107078618736429 -0.0001247362264145616 -0.00030880015241868935
-0.00986482003513668 0.004190226512055017 0.0010071019131971245 -0.005517933912526788 -0.00010900359537524776 -0.0006643869816381736
-0.0097332586914203 0.003761645227499088 0.0010667305451843175 -0.007321115197982377 -0.00022836202087273385 -0.001294784894094099
-0.008852451683179241 -0.004071488349052947 0.0012763485650526584 8.659842571463053e-06 -5.018719500394763e-05 -0.001943488722515013
-0.009750154872006686 0.0037599811770453124 0.0010858205654110855 0.007339252070483239 0.00012413058356948074 -0.001294092813002852
-0.009899277295656306 0.004187286079749709 0.0010450811471101515 0.005538662278647218 -6.425235451665951e-06 -0.0006621947046141469
-0.008394056988983292 0.0031980285869880306 0.0010244625926228454 0.005132637351325046 -7.958302458095439e-06 -0.0003031385695353498
-0.007036986566860348 0.0026488052802617385 0.000976696721914096 0.00484380490973934 0.00011436094088544036 -9.978195121440935e-05
-0.005844877056605402 0.0021491828088593375 0.000901744377614392 0.004629605289404781 0.0002515232813363795 1.0529151002398143e-05
-0.004671422514372007 0.0016746465431096951 0.0008083657791037899 0.004484083219329642 0.0003586707890518499 6.806008305544148e-05
-0.003572631523629272 0.0012691319258699954 0.0007132697275422539 0.004465086323164687 0.00042850319811309873 9.056480224171862e-05
-0.002493161743217346 0.0009766293512372428 0.0006409304717166831 0.004710167758586832 0.0004709152190053876 3.7193334963260736e-05
-0.0011739792888412642 7.763816577676077e-05 0.0006168854037651277 0.004400460327675973 0.0003856358106781854 -0.0002972957950803429
-0.0004130745670895484 -0.001768321968935794 0.0006895019437472682 0.0029384669172739246 0.00026814078624480547 -0.0014633998731587708
-0.0011579796954544058 -0.0007856812573319336 0.001218986462473706 -0.0015979951073663637 -0.0004771625904032927 -0.0007433001332468763
-0.0022595223043130656 0.00033244268201694017 0.001033923883003641 -0.0024854017444624565 -0.0007686359044083163 -0.0001641439548434363
-0.004569341613704207 0.00160612446820813 0.0010838134382880618 -0.0027024295470580843 -0.0010831539290333942 -2.2079291369276284e-05
-0.0069402767138648375 0.0024960839408048733 0.0012411994229459614 -0.0025345472394016715 -0.001058811161070318 5.8374611957000055e-05
-0.00926617603028901 0.0033920958310775986 0.0014398676826332946 -0.0025412618192556685 -0.0008836161383565148 0.00010034522313613164
-0.011602933686422526 0.004325710702443939 0.0016289069276666979 -0.002643255185281755 -0.0005995668240933212 0.00011688133970559519
-0.013972568177559094 0.005293014692706265 0.0017737239629147276 -0.002785410480152595 -0.00024886036610754787 0.00010154454870643225
-0.016303592405837578 0.006335978073015553 0.0018495260245731263 -0.0029072135719997085 8.500580278536086e-05 3.209351435456459e-05
-0.019229422791798245 0.007367700186084287 0.001853920395385242 -0.0032321290277776875 0.0002616132150715586 -0.00011627605487598839
-0.020560184507966758 0.009727907436011457 0.001796161760938176 -0.004390770765108518 7.177486078685634e-05 -0.0005152559893480837
-0.020104748645321864 -0.003174810847201015 0.00201866493723587 5.410836175281323e-06 -6.370463247059392e-05 -0.0012496852335801883
-0.02057924918741696 0.009724753337736664 0.00182062118227649 0.004402087889462052 -0.00020371366876779462 -0.0005158496603527836
-0.01926807330741834 0.00736161510105677 0.001902887676157604 0.0032450103183987874 -0.000406636611077006 -0.00011707475696017
-0.016362352842915994 0.0063274248513569996 0.001922615577515938 0.002922984052949867 -0.0002499255573969931 3.20734303886688e-05
-0.014050767352133953 0.005282687770201478 0.0018690503918739533 0.002805962646932604 6.095743154407771e-05 0.00010435069583838309
-0.01169645463700884 0.004314657634582855 0.0017412298525004233 0.002671651467588612 0.00039262845577249056 0.0001265909840088764
-0.009363338178003933 0.0033815347096261272 0.0015577122197433743 0.0025832701436723565 0.0006739220665499642 0.00012501881580223324
-0.007017764640722234 0.0024839645448557278 0.0013432423773042006 0.0025959663385786806 0.0008818727832434285 0.0001102739133670364
-0.004600741531059179 0.001584045940772617 0.0011367811220306047 0.0027650403201206447 0.0009899875104635403 5.452231179543458e-05
-0.0022453242396476016 0.0003163586224062891 0.000998760785905858 0.0024991824872567675 0.0007741045492799039 -0.00012360391885596998
-0.001126975382202733 -0.0007128661964742381 0.001078427300324798 0.001569702000047639 0.000528659838153013 -0.0008743201555644624
-0.0015415336383535077 -0.0004130299105395178 0.0014753847776127758 -0.0006229112117594002 -0.0009193890992180647 -0.00038150757542862435
-0.0031273853083825217 0.0004672479574007927 0.0013513570486300083 -0.0009950258035673388 -0.001266901129773405 -1.739433166799524e-05
-0.0066798449471317635 0.0019124219160740288 0.0015344917749810527 -0.0010311872276032902 -0.0016191044820266923 4.6305748370553934e-05
-0.01043256704366367 0.003111560750460217 0.0018324903999838965 -0.00099306502884028 -0.0015122903174914608 0.00011360847487959551
-0.013946927709582252 0.004245131454905643 0.002157294659774582 -0.0010069764066199301 -0.0011948869585037825 0.00017108807440303344
-0.017415275836913928 0.005406035078104581 0.002442015593933565 -0.0010604575285373579 -0.0007190372951346045 0.00022760577902619915
-0.02091953097811451 0.006584617955793349 0.002640768851735324 -0.0011136782435580991 -0.0001402987446116911 0.00027819020647138295
-0.02438496028895509 0.007952972236479436 0.002721989533524206 -0.0012319435125199946 0.00043123966155876104 0.00031562931708752816
-0.02748955413436099 0.008670926487518533 0.002664689212982663 -0.0013031816362641727 0.0008018974710016171 0.00029838502259236745
-0.03174446394903216 0.013103793502653104 0.002455511208713512 -0.002870155041773043 0.0007658364764386322 0.00018461643565525674
-0.034601429220805814 -0.0027086164846659763 0.0023615115943173494 2.8140770315513482e-06 -7.795190604460845e-05 -0.0008755289008308527
-0.031766106954202185 0.013099916600130898 0.002485585074197174 0.0028760735043688412 -0.000927144721394233 0.00018332856934078306
-0.027533289002620826 0.008663315248383098 0.002725193381470567 0.0013100043955063308 -0.0009788498691410037 0.0002959098322701001
-0.024451063104924724 0.007941910671452133 0.0028131170953245694 0.0012404093588624632 -0.0006320675772869392 0.00031225824083843865
-0.021006629031691416 0.006570512251493884 0.0027613869547380844 0.0011247608240341498 -8.822590939799392e-05 0.000274614065669315
-0.017517013700968066 0.00538933840378133 0.0025875926182384423 0.0010755365275607204 0.00046776070583446163 0.00022542664052834817
-0.014045536054200797 0.004225487976239798 0.0023165300714517996 0.0010284063219560906 0.0009428191451287607 0.00017393638970903639
-0.010495759324766148 0.003085855232347672 0.0019826372808117105 0.0010228567128843405 0.0013097314855779697 0.0001277215703279836
-0.006683576576418184 0.0018789402985354743 0.0016381527821129809 0.0010622126635105552 0.0015397083839135861 7.085624089923855e-05
-0.003092213080852683 0.0004507109046988302 0.0013630662813564757 0.0010066451856127671 0.0013232257477321693 -5.7265258953690495e-06
-0.0014994482371157307 -0.0003659196571298775 0.0013785800029069723 0.0006142946739787937 0.0010338539176941706 -0.00045997218088057994
0.0062998037263174425 -0.009145338750952532 1.3806637040245096e-19 0.0007083779389623215 -4.6483711248646725e-15 -2.3082325439037488e-15
0.006443925600357121 -0.0001184168389052083 -0.0005479569378508015 -0.0021009394087690113 -2.3708638540896262e-15 2.2686083426311926e-17
0.007784008220407173 -0.0025760954285291766 -0.001028270300002165 -0.0008166920966624429 -9.346754463067028e-16 -2.096152434570217e-16
0.01062907731017735 -0.0032644344552552967 -0.0014836521711448715 -0.0009711523214595563 3.734314154560034e-17 9.598577358285731e-17
0.01396653767357703 -0.0044174201881301495 -0.0018063589761208073 -0.001038403828887181 4.054098738301686e-16 3.905075996726501e-16
0.01733116157241538 -0.005558267775387407 -0.001970022882969342 -0.0011162580742180384 -2.1884874961504083e-16 -5.00981024785345e-16
0.02073259020017556 -0.006781053046167495 -0.0019617097490565484 -0.001215761330542049 -1.1622393179160431e-15 3.907058053823076e-16
0.02439341820073008 -0.008125492780317049 -0.0017842832320089693 -0.0013777525197736485 -6.636147387899596e-16 1.0990523541167668e-15
0.02861457733431951 -0.009721544052464854 -0.0014751791637605369 -0.0015492458296937053 6.499639558120093e-16 9.192848576550922e-16
0.03292505300576474 -0.0115697092755534 -0.0011424213675069231 -0.0012943879128110062 1.2378175267007026e-15 -2.9020704025647936e-16
0.034946061765102045 -0.012754516744849717 -0.0009830335185394862 3.4160005119061464e-06 1.2219106714677404e-15 2.7413374304938176e-16
0.03290857984835747 -0.01156368594302884 -0.0011427280802846654 0.0013015354725779593 2.372241976694809e-15 6.244157480569251e-17
0.028579254011532936 -0.009708057099072628 -0.001477066826364147 0.0015574026992883766 4.892873114320257e-15 -6.802521599399286e-17
0.02433381907273311 -0.00810133307756337 -0.0017905210544768122 0.0013878380175738293 5.352584152816531e-15 -3.006966962752766e-16
0.02063859985760343 -0.006740633668789509 -0.001976897323745819 0.0012289775153648357 4.5414234214553645e-15 1.480986286297309e-16
0.017185500754468567 -0.005492171744715313 -0.00200069655804745 0.0011344616112918672 1.582079245035636e-15 -8.200972995316136e-17
0.013741218206975261 -0.004312563339166911 -0.0018608983992297826 0.0010627814460353888 -2.530272913664044e-15 3.058686794512114e-16
0.010282139703556502 -0.003097987958001967 -0.0015708530885720792 0.0010104760668494788 -4.002869338618799e-15 3.0476076035620275e-16
0.007223934874792355 -0.0023240006298609482 -0.0011698661816879436 0.000889593396987053 -5.360742774164484e-15 4.446643452212483e-16
0.005174433162454969 0.0003254494192146787 -0.0007875313013150163 0.0020048148764968757 -4.698074171176608e-15 -9.59730680886485e-17
0.004460848446742592 -0.008619394026026305 -0.0008035267244715389 0.0025520447753324114 -4.234090698494383e-15 -2.1559699013053157e-15
0.002634122525990752 -0.007954839733567276 -1.9811996459102657e-05 5.561667927286095e-05 -1.4403049879065793e-15 -1.388718987352898e-15
0.0031127825771027516 1.806460477517268e-05 -0.00028120298079260483 -0.0023080698699990826 -1.3152998655507897e-15 -5.420646638260203e-16
0.0048839179763235175 -0.0018944644931636536 -0.0006488415941109531 -0.0021373049808204856 -1.0148687141044773e-15 -5.248961530181229e-16
0.007229821936078524 -0.0026583136592670926 -0.0009803763914557203 -0.002424844584792914 -5.165624076083246e-16 -1.1604181970794464e-16
0.009407782477109767 -0.0035453271906101353 -0.0012193908737580775 -0.0026054898238244734 -2.2081349547575639e-16 9.358697627623314e-17
0.011651003383844902 -0.004460854790781529 -0.0013410460280603904 -0.0027497623814683515 -2.9145164929335115e-16 6.55518797880103e-17
0.013918742539943739 -0.005430541565203472 -0.001343503608304901 -0.0029669489274335506 -7.162510601982364e-16 -1.7141405753585276e-16
0.016324840582120193 -0.006471614493826729 -0.0012353576538211013 -0.003354010515788894 -4.305180479691542e-16 8.277714180337375e-17
0.019004377001595314 -0.007703574966991401 -0.0010443567119225977 -0.0038542178612414797 -2.636910973591571e-16 -4.1574748743493373e-16
0.02165300636411802 -0.009355865153235257 -0.0008349210330329403 -0.0033607518907517848 4.758654391080709e-16 -6.856731708023561e-16
0.02287442268746019 -0.01082810609489966 -0.000729281961133803 6.612215336936644e-06 1.1791264020272153e-15 -1.0005593630100368e-15
0.021633594994449907 -0.009350704008728589 -0.0008287916744215732 0.0033748130924443924 1.153981593713261e-15 -1.1899034139733686e-15
0.018963415010495886 -0.0076919448663724434 -0.0010330132185730806 0.003870996600786623 2.337528025417486e-15 -5.935989953699192e-16
0.0162576505173219 -0.006450640138376317 -0.001220893479414955 0.0033760558620765865 3.1972351266615524e-15 -2.4025581329099877e-16
0.013817119895621864 -0.005395182754172763 -0.0013296313275995007 0.002998004036413246 2.3605238317349174e-15 2.8054493542714956e-16
0.011501331498256322 -0.004402782855715523 -0.0013336239449308219 0.00279500614017892 1.0607484654507433e-15 2.1368091690054762e-15
0.009188658481419861 -0.0034515489066867205 -0.0012265447974862626 0.0026717805519045285 -9.971237973759733e-16 7.569603106762253e-16
0.00690597547146238 -0.002511823786952483 -0.0010144364281667038 0.0025267781032583666 -2.4596528122361374e-15 1.0418107145742685e-15
0.004404441666643319 -0.001661283010387878 -0.0007281395661522069 0.0023344312606576947 -2.9778696869486865e-15 6.17443819868075e-16
0.002700288925728535 0.00023887729642278738 -0.000499639556266224 0.0025631663449304726 -2.3186661369293496e-15 -2.2652540921600656e-16
0.0023807145017492354 -0.0074844224975935646 -0.0006376980924737932 0.0018911550043472596 -1.5356948738110433e-15 -3.1443692593245698e-15
0.0013336545781425415 -0.005656189797580402 0.00019000783874238258 -0.0031773516664756578 -5.134338914176409e-16 -1.4608777241294918e-16
0.00134363379369173 8.342360608514316e-05 1.0964426450412501e-05 -0.00399273140703315 -6.376118861004367e-16 -9.005476418288798e-16
0.0021945110162614545 -0.0006794960343608044 -0.00024043421215514364 -0.0038729586204746427 -9.849408695560555e-16 -8.840728510047836e-16
0.003653895101219443 -0.001386856171233899 -0.0004609649547277865 -0.004278340800486499 -8.228379275720141e-16 -6.77725460658269e-16
0.004819444840333049 -0.0018172156444515636 -0.0006095964545715755 -0.0045192593177216 -7.033248080275437e-16 -1.0316861297557378e-18
0.005917868111543228 -0.0022666599319701086 -0.0006779057116729166 -0.004759293734893578 -6.979843711742238e-16 1.015575563098961e-16
0.007012155334763045 -0.0027368150569987023 -0.000671441232126236 -0.005105853661837364 -5.796087639383567e-16 -6.459778187622306e-16
0.008101647182603826 -0.003169385790115681 -0.0006012480959294561 -0.005695957232014764 -9.344084191700809e-16 -7.992060789205335e-16
0.009364660433874876 -0.0036749402361000707 -0.0004821668111699429 -0.006582674412928642 -1.0962450751713293e-15 -1.9716538379168855e-15
0.011043196506744558 -0.005110947172457046 -0.0003404701471379736 -0.006067865211074404 4.401522007112246e-17 -1.0694434704125455e-15
0.011999905773994846 -0.0075912738142293375 -0.00025542044614112184 1.0331820120425323e-05 3.6422247325345464e-16 -1.989316168933032e-15
0.011021247238032947 -0.00510755505869133 -0.0003280683873713191 0.006089904068633354 2.8449507357667e-17 -1.878036368454551e-15
0.009318995218985668 -0.0036671222993144084 -0.0004580052440009146 0.00660919357947178 7.045448531089451e-16 -1.5861691436214534e-15
0.008028640651707395 -0.0031549135790868957 -0.0005669429584151254 0.005731232158909591 1.1656356023971776e-15 3.655184336627537e-16
0.006905928231010452 -0.0027118378459115478 -0.0006302350548657551 0.005156293849536081 1.0620167914101382e-15 8.793879117735201e-16
0.005769145397710037 -0.002224566925519888 -0.0006355313475487824 0.004834395728451595 9.301612768585396e-16 3.6321196294738026e-15
0.004614149420484258 -0.001747226362029458 -0.0005754438753173704 0.004631804006944066 -2.172851267944094e-18 1.9402644909575356e-15
0.0033720657920544073 -0.0012747402336144061 -0.0004494226397995373 0.0044550348160783005 -9.01333476645695e-16 1.5893607637667076e-15
0.0019048958004378813 -0.0005299240237200607 -0.00027970706805605566 0.004170253452188015 -1.4037992443084583e-15 8.801620998873105e-16
0.0011988557672443754 4.945456855431797e-05 -0.0001684005804599684 0.004432687697872943 -7.12064599856432e-16 -7.442641338298306e-16
0.0012974443666702886 -0.005274799027057814 -0.0002742699899943798 0.003602599444310873 -3.6624709375562923e-16 -4.673426359444455e-15
0.0003968169633575615 -0.003575574286189001 0.0005220889963860154 -0.003554833870129616 -1.145579503332531e-16 8.526233647061787e-17
2.912471403652991e-05 1.619938467489294e-05 0.0003318775512681546 -0.004774028213406951 -2.750294803911032e-16 -7.7241442679888e-16
-0.00016725445906260063 0.0002404938940343981 0.0001758873909270183 -0.0048315071696394115 -9.411927295611142e-16 -9.75845482707998e-16
0.00010269128361330924 -6.511444806512171e-05 6.26088964699226e-05 -0.004922569770602857 -1.1126050930310724e-15 -5.577508669762227e-16
0.00019102181354856818 -9.660976743909855e-05 4.215067094566708e-06 -0.00515577867502752 -9.49428219149031e-16 3.4863876108987e-17
0.00015632071323594702 -6.845675142394654e-05 -6.032185432509317e-06 -0.005428794366659234 -1.201490189417097e-15 3.019096474557448e-16
7.705647354905637e-05 -5.033131784841362e-05 1.779332098509327e-05 -0.005822468515494084 -1.0640853517464516e-15 -5.754995953529893e-16
-0.00013705702459465324 8.72626056558524e-05 6.371873365855432e-05 -0.006354560072624242 -1.3179671723016935e-15 -8.746174222145839e-16
-0.000257891108355514 0.00034433150098146066 0.00012950667018584458 -0.007306428257315061 -1.3541023389853908e-15 -2.5566080150271273e-15
0.0007074225882740774 -0.000928459069379495 0.00022352855787401043 -0.00754468991861487 -6.087518854007066e-16 -1.9013094457133103e-15
0.0016283212318170645 -0.005420387226848013 0.0002999382919675421 1.1589810477972076e-05 -7.975359417067849e-16 -1.6219190161932684e-15
0.0006830692830816352 -0.000926896342531717 0.00024218372097944152 0.007569426923163061 -8.795281751356295e-16 -2.157306519296083e-15
-0.0003079400011267034 0.0003482136120675491 0.00016641569314940368 0.0073362387611421425 -4.5838747010685e-16 -2.1938746256949457e-15
-0.00021526512175353354 9.505247242344578e-05 0.00011765656664295985 0.006394261535061627 -4.804518578196569e-16 6.672891677151488e-16
-3.2641381346398376e-05 -3.596260631877916e-05 8.584236763003336e-05 0.005879407413484417 -6.973897540452512e-17 7.778964240335098e-16
1.0943186884976068e-05 -4.27606729344102e-05 7.016034409582697e-05 0.0055142780863089765 4.072468765345264e-16 3.922534192802359e-15
3.7590074188927934e-06 -5.132489749159088e-05 7.77183828499812e-05 0.005287069335927765 7.074093067783224e-16 2.449903886529714e-15
-0.00011576480319643021 9.434668693612733e-06 0.0001151321769586387 0.005125316064150522 2.3222191754452854e-16 2.087159485769218e-15
-0.0003363921182905667 0.0002914806278618979 0.00017213269400449596 0.00513260465928704 6.942112629106795e-17 9.227492224093622e-16
-1.795653653094058e-05 -4.1746737441035676e-05 0.00019847860350871062 0.005000979169457189 3.6534140377677757e-16 -1.0492332642910579e-15
0.0004141606864406731 -0.0032768952360015804 0.0001719713502619307 0.0036411893487502873 4.513423529774012e-16 -4.908305207586283e-15
-0.00042092709138707106 -0.0018730085584046606 0.0008886947411496478 -0.0028808689716556023 5.426940093058302e-18 2.6539236303371738e-17
-0.0011267096362287952 0.00011644853871284878 0.0006610836435898476 -0.004212732967376921 -2.8720049681020023e-16 -5.150070433589289e-16
-0.00234669227268538 0.000952934738914088 0.0005914264530838444 -0.004496993083056655 -9.55983407127832e-16 -9.918806634324692e-16
-0.003363836414388579 0.0012185896634505015 0.000584642943629182 -0.00436601813765421 -1.2380432609811459e-15 -4.0472081252757725e-16
-0.004441060582504314 0.0016382826375375458 0.0006161810378549143 -0.004505916847405071 -1.3299454887252902e-15 1.0662450740037133e-16
-0.005618625292219269 0.0021309021747809324 0.0006644671341651952 -0.004760472670780252 -1.7226871377963235e-15 2.4441135693022836e-16
-0.006839028906585687 0.002652855225811011 0.0007062414356374615 -0.005096596838127384 -1.7399756361151554e-15 -2.851688882862108e-16
-0.008258391615910667 0.0032335274510732277 0.0007277973872598611 -0.005515722983354268 -1.595227102201154e-15 -7.486670110896584e-16
-0.009861284926889044 0.004268941569889213 0.0007372289049735034 -0.005986014842052655 -1.4703165828376609e-15 -2.93266184448783e-15
-0.009735830533454651 0.0038756179213489325 0.000775232196971015 -0.007786956216385921 -1.3831964384159183e-15 -1.9140403509105425e-15
-0.008816382271356718 -0.004101770003830459 0.0008353572362604373 1.0409206483154178e-05 -1.5154702681294523e-15 -1.362225490828678e-15
-0.009762719818354904 0.00387535326574256 0.000800264056040322 0.007809159031605806 -1.5053130725424524e-15 -1.7758994416087331e-15
-0.009916005329993743 0.004268897439817332 0.0007871473339744946 0.0060127147699169815 -1.863583445275551e-15 -1.9477946138586263e-15
-0.008342322188388578 0.003234675362001911 0.0008018040199862396 0.005551156305354601 -1.6846919926395741e-15 4.888091613333007e-16
-0.006952918391230329 0.002656719126720128 0.0008017934985244728 0.005147211972939019 -1.3764114927501746e-15 1.1397463580017052e-15
-0.005761472990585603 0.002139999602046958 0.0007754645361521654 0.004836833141923456 -1.54720732211365e-16 4.0564882182458906e-15
-0.004607095133193867 0.0016578566760821413 0.0007303218042473926 0.004624599613325578 1.052000097413264e-15 2.420268744804128e-15
-0.0035268006602824954 0.0012476822580413317 0.0006794812445131036 0.004547889292138608 1.3517578576665093e-15 1.987220609421525e-15
-0.002446011847810677 0.0009525354347230691 0.0006271313335461645 0.004709111521801437 1.5725556300931823e-15 7.1643486634779055e-16
-0.0011348521378186564 7.66063927601912e-05 0.0005759827404635487 0.004299724990526971 1.3848287767843958e-15 -8.718323778840117e-16
-0.0003892361593777961 -0.0016733764398430408 0.000628457238053635 0.0028516297780860414 1.1133417999369469e-15 -4.3491550421811964e-15
-0.0011016285475007965 -0.0007603365402891409 0.001212429793726741 -0.0015765716631355236 4.3548504917185343e-17 6.818615225397118e-18
-0.002176821344046512 0.0003594441828111754 0.000966194347566095 -0.0024079015032004328 -3.9199075436329237e-16 -3.103520248410284e-16
-0.004442255023386328 0.0015969344214545804 0.000996964893196051 -0.0026427341166686056 -9.884264630735662e-16 -5.763466283002436e-16
-0.006772402370661821 0.0024762443305757203 0.001099346561462389 -0.0025302045741370616 -1.6109304577685384e-15 -3.1350552850365615e-16
-0.00905625724376083 0.00338160577623869 0.0012204223721488541 -0.00259210242832542 -2.005901497556745e-15 8.528690042608825e-17
-0.01136767918172952 0.0043391404913467385 0.0013235908250485825 -0.0027500150281664056 -1.968682340458799e-15 -2.8393306721616676e-16
-0.013749524163388345 0.00534894706701952 0.0013758066722701463 -0.0029597362251053026 -1.5230169081730145e-15 -4.29191594373754e-17
-0.016150828307470434 0.006459175279919634 0.0013599107068850487 -0.003150047907878494 -1.7710912590836441e-15 6.103973527798665e-17
-0.01924220766672191 0.007576427456136984 0.0012905404248435453 -0.003501630436263196 -1.6033177491550903e-15 -1.4284456796120719e-15
-0.020663348973110635 0.010061411578985718 0.0012400206118104368 -0.004660447463571038 -2.004943397414282e-15 -7.735748619366184e-16
-0.02018744849515641 -0.003155205555712 0.001250288389137477 6.747369327384239e-06 -1.973487664247691e-15 -1.2951802919546583e-15
-0.020693171872437514 0.010059381471529995 0.0012716956967011375 0.004674795046289816 -2.2840188365570637e-15 -2.973924207480376e-16
-0.019302492391631895 0.007572590211859191 0.0013540657182590646 0.0035187333309368465 -3.3390237833507124e-15 -7.226326064228503e-16
-0.016242084476208906 0.006453921920974518 0.0014550606898628658 0.0031724410535114316 -3.2291617042676983e-15 3.64886547084102e-16
-0.013870385659416954 0.005342675340647548 0.001500685895546503 0.002991249441075188 -2.6779318263150313e-15 5.634530927771386e-16
-0.011511650424458052 0.004332215245788343 0.0014724274786210652 0.002796847264685996 -9.469900348103594e-16 2.1079854848433596e-15
-0.009205648603094922 0.003373727854943378 0.0013800490855782378 0.0026645970769305603 1.410654176071469e-15 1.2282951823076697e-15
-0.006892031699466526 0.0024612176608621032 0.00124397475363773 0.002636212048558316 2.6630715861675203e-15 8.90802527770719e-16
-0.004492291849571284 0.001559638463161937 0.0010822841215039727 0.0027474788362421678 3.4586718458315922e-15 5.010110944549725e-16
-0.002159200431954474 0.0003277763864937384 0.0009329949127163972 0.0024291070253697686 2.802497867966788e-15 -3.783594531431289e-16
-0.0010597874233302556 -0.0006516248659174808 0.00102566528635623 0.0015350853394708829 1.9063425154858954e-15 -2.7815477785658738e-15
-0.0014519512245880577 -0.00037776565716817633 0.0013938444152727968 -0.0006256061353802939 3.7608262858090935e-17 1.7414997395548415e-18
-0.00300990044464895 0.0005060888938317069 0.0012167527400786234 -0.00095106431160464 -1.6603201018899894e-16 -1.4032625430572543e-16
-0.0065053317134173855 0.0019151456640732634 0.0013759802215363957 -0.0009973899312886194 -8.294824245871912e-16 -9.843878099810577e-17
-0.01019240190944775 0.0031065999173091044 0.0015922121616066206 -0.0009856994092204386 -2.103223465613896e-15 -6.802013379630933e-17
-0.013639383843672376 0.0042546238383370984 0.0017990497890020074 -0.0010278800394630061 -2.905854945773126e-15 -1.0081724951399584e-16
-0.017063552421695834 0.005449441188048289 0.0019459328454433315 -0.0011095794110475698 -1.6585311683053883e-15 -8.195484221817928e-16
-0.020575587275156418 0.006685121076478148 0.0019895640567621853 -0.0011940107391891527 -1.2270153155243685e-15 6.843009774278042e-16
-0.024145949150604362 0.008146856241899472 0.0019063143272762405 -0.001337747840484832 -1.3419746271257221e-15 -1.4897615476308634e-16
-0.02748685691707758 0.008967909365140657 0.0017160774084951516 -0.0014093737485500542 -1.65828383468479e-15 5.303442689348625e-16
-0.0319906876957727 0.013594542490511572 0.0015180469196763367 -0.0030205683188802633 -3.0741002530533003e-15 -2.7016962885623164e-16
-0.03494702403441136 -0.0026667933739500326 0.0014253941693034029 3.8985091476181725e-06 -2.4867311850104365e-15 -8.833062861875185e-16
-0.03202411359793665 0.013591651769465786 0.0015567832166815706 0.003028860343516245 -2.945255530347607e-15 3.861182749399783e-16
-0.027554201520375687 0.008962224733175383 0.0017941585401606566 0.0014192336288066326 -5.232115738926235e-15 7.487771253728015e-16
-0.02424723784881015 0.008138478021776639 0.0020243482122155165 0.0013505334370144052 -5.926940253690727e-15 3.7484257234612905e-16
-0.02070808110351179 0.006673931067484364 0.0021467891878425866 0.0012115914587732988 -4.779113624888689e-15 2.502677427275446e-16
-0.017216520667728497 0.005434649825938004 0.002137756237099811 0.001134594819925653 -1.9398714676700096e-15 1.8739079298696337e-16
-0.013784165533192373 0.004233010812591684 0.002012864745324544 0.001064288719626519 2.0377952526361848e-15 7.847387561814301e-16
-0.010278377187695645 0.003069760994354584 0.00180056198129727 0.0010358721767074362 4.368846864138964e-15 2.0952206983282373e-17
-0.0064979703424449375 0.0018584499691268476 0.0015287812491674164 0.0010480312983833636 5.858588082979094e-15 2.61577326639284e-16
-0.0029479798079923626 0.0004722425491072833 0.0012444464225429051 0.0009691213238352123 4.783049363478106e-15 -2.816215143031098e-17
-0.001384285673557902 -0.00031014023919723166 0.001261873579608701 0.000616160052680152 3.344167390922914e-15 -1.6820312503940116e-15
0.005938754478450767 -0.009457975493962462 1.5754812818929986e-19 -0.0003112058886080573 -0.0011415769538605423 -9.905998229795687e-05
0.006245315979238627 5.772188765511462e-05 -0.000634101334045486 -0.0021412996520237043 -0.0015563920385384625 0.00011877009245493875
0.007816508658817722 -0.002526901004858131 -0.001211102105771769 -0.0008472630889932468 -0.001464790140252539 -0.00011472657899869675
0.010772256670373653 -0.0032081248480775298 -0.001747366884301443 -0.0009681611334850377 -0.0012244534475813475 -0.0001323825438860102
0.014180439973415138 -0.00436091661923271 -0.0021612193186969176 -0.0010145162871201695 -0.0007873645655632961 -0.00018268469200428074
0.01759148757093573 -0.005478058401487284 -0.002451721558946911 -0.001065236141718685 -0.00023996743120934842 -0.00023471085711212762
0.02099388601154181 -0.0066528292320024544 -0.0025989454215860613 -0.001133652555986951 0.0003787263160724494 -0.0002834449380570056
0.024556724487901454 -0.007913653669006628 -0.0025892748233063228 -0.001263861832577208 0.0009697729266443877 -0.00030536808841552065
0.028546830911292297 -0.009390249906092576 -0.0024290915052534393 -0.0014189201072745791 0.0013001478851580647 -0.00025725128326690565
0.03255940241970513 -0.011115066562274891 -0.0021867096406469125 -0.0011919548277156517 0.0010091421906397158 -0.00011141278724487814
0.03443406842505331 -0.012235800988299579 -0.00204650540250336 2.7577903734607993e-06 -1.3034265847780412e-06 1.2234121415443277e-05
0.032550183529543975 -0.011111424591213398 -0.002188150481393102 0.0011976387818214335 -0.0010102499128679223 -0.00010983100557352526
0.028526984452994713 -0.009382017100604805 -0.0024330130539753064 0.0014251251275039403 -0.0012965929221109695 -0.0002541066158664396
0.024523184331744094 -0.00789875107459751 -0.002597972634911661 0.0012710245090777786 -0.0009576651200729167 -0.0003008201114527278
0.020941269463441523 -0.006627679308659285 -0.002616398600695028 0.0011422517591162876 -0.0003520005499017723 -0.00027796434871091497
0.017511259997713035 -0.005436858191372401 -0.002483954130035923 0.0010762444710924397 0.0002922553051853095 -0.00022997833393525774
0.01405836365402426 -0.004294967430146199 -0.0022173598106206205 0.0010273452123706558 0.0008860704312718076 -0.00017992105282701654
0.010588570695224052 -0.003104985896826124 -0.0018370725161540112 0.0009916692817243378 0.0013933022202425654 -0.0001437790756135915
0.007483293160277128 -0.0023567216183379854 -0.001360670815047804 0.0008808201442264689 0.0017253432642125148 -0.00010539708375255085
0.005380648879892893 0.00033996135877644714 -0.0008066397590326125 0.002092567028339816 0.0015705425401704505 -8.483242600710495e-05
0.004656025224378731 -0.008990785149400122 -0.0007080415223842383 0.0026876750903482003 0.0013882933641509172 0.0008291431599861882
0.0026220869638898473 -0.008152081622280573 -9.346194786979412e-05 -0.000530844737038352 -0.0006043962334018113 0.00029585371585322376
0.0030437252514148847 0.00010661248130513946 -0.00029072631514685495 -0.0024301499059467607 -0.0007326767753948965 0.000248887638899603
0.004837965692076906 -0.0018419963560159008 -0.0007561085853402583 -0.002191350065764047 -0.0009171616813750502 -2.753431159942973e-05
0.007293766335434633 -0.0026206973795900763 -0.0011377364110798105 -0.0024151917419578516 -0.0007668052993611101 -6.9575437368308e-05
0.009521737027040655 -0.0035092792603908293 -0.0014336137008742144 -0.002553009180209326 -0.0004857384831965919 -0.00010164378889456311
0.011795133142794968 -0.0044114239686607985 -0.0016314325802866062 -0.0026438448208629846 -0.00012986303862803618 -0.00011747677389247198
0.014060700259269235 -0.005347762508408135 -0.0017282697447449967 -0.0027922066784075907 0.0002586295934442163 -0.00010240870308828761
0.01640504660950997 -0.0063298122997939785 -0.001720223541596979 -0.003099294475126405 0.0006173180918136258 -1.842902449172449e-05
0.01894917753177212 -0.0074771133145521565 -0.0016163464611805203 -0.00354709728775672 0.0008125173529804411 0.00019525697058805322
0.021429115486143725 -0.009042282033722749 -0.0014557086243080644 -0.0031085458325505206 0.0006336825701087869 0.000552744575278987
0.022569576094844068 -0.010452697466893172 -0.0013530199899758912 5.348759857671644e-06 1.1702733950712175e-05 0.0008079065984383384
0.021417806901579652 -0.0090393628599098 -0.001451993286868056 0.003119733055011561 -0.0006080618396048289 0.0005531201551681183
0.01892529883437126 -0.007470401345147988 -0.0016097261409934993 0.0035598370676052224 -0.0007801616169795685 0.00019561780533075416
0.016365961395766498 -0.006317404202786584 -0.001712581104275699 0.003114932407590067 -0.000573275827501783 -1.909306203655727e-05
0.014002133165399161 -0.005326390213638295 -0.0017230386292179454 0.002812595829139342 -0.00019670986822459117 -0.00010624166739629199
0.01171038139263216 -0.004375745423988485 -0.0016343918232545438 0.0026716170046778803 0.00021909238957841957 -0.0001286406827764421
0.009401252311257947 -0.0034510963225311024 -0.0014532911359322214 0.0025911488566050063 0.0006163741652848016 -0.00012677589617346818
0.007115714261454757 -0.0025290271639237423 -0.00118823638731108 0.0024744088328674608 0.0009597732236161267 -0.00012000474854624429
0.004550522970471121 -0.0016854082096572987 -0.0008501939185245111 0.0023056715358746424 0.0011407363107425264 -0.00010606739776285458
0.0027893708575089608 0.00024798798328973145 -0.00047861387562069235 0.00264176119024146 0.000820115297894027 3.0753829932538446e-05
0.002473228531585552 -0.007801748490592754 -0.0005358570774335626 0.0019962955387897757 0.0005362980682975564 0.001072525500252511
0.0013484933256771592 -0.005720144353068626 0.00016826721917112439 -0.003440477711469686 -0.00021204477568409342 0.0010199957696747739
0.0013091389057902174 7.53448829331727e-05 1.3126791969647463e-05 -0.004229856077074208 -0.0002667634375089921 0.00037618757531355005
0.0021377060935340113 -0.000634936961134152 -0.0002925860700752891 -0.003942947639041316 -0.00037322298477081203 9.586937519603094e-05
0.003647822738286336 -0.0013629619467519637 -0.0005412728449953068 -0.004260524922125641 -0.0003081083886562196 1.3726386215112755e-06
0.004847957887885958 -0.0018007151747661064 -0.000714014637323499 -0.004425700443404693 -0.00014989296722022692 -1.1691545413513653e-05
0.005963133559560316 -0.002249473164984559 -0.0008182885210190217 -0.00458265808575085 3.765129297455095e-05 1.7110152916661007e-05
0.0070591770970119825 -0.0027091772602744436 -0.0008584295428747655 -0.004818366095914042 0.00023211228561572105 0.0001115253387289757
0.00812416968138353 -0.0031224492392884075 -0.0008381221078462709 -0.005277120142033182 0.0004131995733900445 0.000321923218288349
0.009327094488115409 -0.0035988648424433636 -0.0007620756285090542 -0.006074078105874299 0.0005372123478013777 0.0007237107510217862
0.010908432046984223 -0.0050020746821476305 -0.0006337199894928165 -0.005636094205884501 0.00046132538650704507 0.0013268624578744313
0.011809802025452306 -0.0074134946736564965 -0.0005203964502047627 8.63051607410396e-06 2.447189302733318e-05 0.0017628312598627599
0.01089525224526521 -0.0050006440034142795 -0.0006249180623987449 0.005654170957485695 -0.000409593844273508 0.001326068007439931
0.009299668033221454 -0.0035952861989388563 -0.0007450812075917274 0.006094748663234763 -0.000477161459749889 0.0007213084403980444
0.008080423777238117 -0.0031151781703144567 -0.0008144623072055962 0.005302652211498218 -0.00033938945658848794 0.0003159167345246615
0.006996039936955999 -0.0026955852955015385 -0.000831189647177296 0.00485198879147674 -0.0001390096757680697 9.78775025903681e-05
0.005876397452906581 -0.0022251001544743346 -0.0007930464295685357 0.004629022325083079 8.093888237960598e-05 -1.1444243821182671e-05
0.0047314524052088445 -0.0017588291674239705 -0.00070020057248563 0.004491521004244453 0.00030223526773894493 -6.753002218133359e-05
0.003488339965405162 -0.0012921074941192904 -0.0005533246462070311 0.004361090834925426 0.0004996850436782509 -9.540704248790384e-05
0.001972899610049776 -0.0005346740857051162 -0.0003518149198208658 0.004124457788621059 0.0005647008096326038 -7.765093800907406e-05
0.0012352917712851368 5.360916734651828e-05 -0.00014303088217501928 0.004546187947620977 0.00032123841518133116 0.0002275482544078362
0.001344715807661016 -0.005500589186637827 -0.00016587492925697873 0.003764343140381376 0.00014473759387504396 0.0015776837683040776
0.0004002171763143922 -0.003613747307773228 0.0005209805759323659 -0.0037067676687183152 2.5247418235990583e-05 0.001307857409440999
-4.368092632090191e-06 -1.7153396292688584e-07 0.0003471621636974277 -0.004958394938487395 8.11528512867599e-05 0.00044185351255399976
-0.00023574689105349065 0.0002695651729980056 0.00016968340871643448 -0.0049191902210838825 0.0001161762201991926 0.00013228735908054557
4.272623382196773e-05 -3.358383311292566e-05 5.677168859356575e-05 -0.004901000204327452 0.0001491004762477973 2.5645663440366205e-05
0.00014027918476092953 -7.456297382598754e-05 7.799126925548736e-06 -0.005046308847249192 0.00019553679105242417 7.922460225351489e-06
0.00011061720688148243 -5.107532027808998e-05 1.483453857740854e-06 -0.005224695018804989 0.0002298755101647221 5.037590269026111e-05
3.822810908336643e-05 -3.7198852060731885e-05 2.3511555517880485e-05 -0.005495906903131107 0.0002483067366370843 0.00016892819156246011
-0.00016479965040128682 9.247552378038165e-05 6.534874618285228e-05 -0.005887280693129168 0.00027231341315147705 0.0004118120607052674
-0.00027874749440602646 0.00034111308879051654 0.0001250740322389834 -0.0067487100044522266 0.0003412458427767806 0.000854604655398289
0.0006392160687742915 -0.0009316913867505384 0.00023328134215087375 -0.007048485427832592 0.0003623838723135545 0.0015420084484513417
0.0015148503676049566 -0.005329683445098407 0.00038713710675189684 9.780549520070598e-06 3.720439511953699e-05 0.0021038375436223805
0.0006242276839776796 -0.0009318072997404272 0.0002471795284339978 0.00706897321219659 -0.0002846693057706134 0.0015408582834404224
-0.00030958034481123355 0.00034143519879170913 0.00015245770159413017 0.006772141505738337 -0.0002538255581722288 0.0008513550759039468
-0.00021296845705042833 9.440956652674202e-05 0.00010502184771403429 0.005916218361558539 -0.0001694722220198996 0.00040414691471102446
-2.9007902183814338e-05 -3.166110038510444e-05 7.271327066218141e-05 0.005534026835299411 -0.00012561589451803466 0.00015225542351157248
2.2789727881022753e-05 -3.858945000490808e-05 5.4621771767876004e-05 0.005277629889990176 -8.475025107169254e-05 1.61624678302611e-05
2.965994800633335e-05 -4.936073836139187e-05 5.471032220617439e-05 0.00512307224935929 -2.7762815886959684e-05 -5.762453018029708e-05
-8.33993771078667e-05 1.252171858117037e-05 8.079809241764997e-05 0.005017858472364138 3.3500529816812765e-05 -9.241194225862366e-05
-0.00032819329934897834 0.0003044268745151426 0.0001444117140062879 0.005103785440310234 3.496133046418259e-05 -5.2342331086543227e-05
-1.892111286455998e-05 -3.7763140835802666e-05 0.0002289065640020408 0.005112412193006863 -4.929390440366164e-05 0.00033361863854195183
0.00042653993094194943 -0.003432648871770824 0.00026216782401074386 0.00377180205565118 -7.82984105975418e-05 0.0016705236439629124
-0.0004430879527897661 -0.0018958631320664706 0.0008849874751908299 -0.0029574717606699265 0.00022501610213066097 0.0012290143719594197
-0.0011783083126316518 0.00010105382389879627 0.0006947244358943547 -0.0043437089051608585 0.0004017206578354064 0.00037731914446072326
-0.0024381740109898444 0.0009758697907167814 0.000629694706190328 -0.004582122706718733 0.0005886458290388061 0.00011276608989368563
-0.00347468383956147 0.001253046723662409 0.0006522199217687026 -0.004359528479893042 0.0006026152030052297 1.284844233966979e-05
-0.004568797859708626 0.001666861353791136 0.0007273577835248698 -0.0044149526699984055 0.0005430841967676481 -1.2228411020158832e-05
-0.005755237202226472 0.0021486962401829094 0.0008199150062392675 -0.004582700226252714 0.00042455699711256383 1.7357450532013738e-05
-0.006965097954928607 0.002651336230612696 0.0009049981287004783 -0.004810201248899427 0.00026778045503136476 0.00011286429649896028
-0.008341083148081881 0.003201431252555849 0.0009684256766976768 -0.005107078618740938 0.00012473622641149824 0.0003088001524203221
-0.009864820035135457 0.004190226512051479 0.0010071019131969682 -0.005517933912528335 0.00010900359537334383 0.000664386981640952
-0.009733258691419687 0.0037616452274986173 0.0010667305451841286 -0.007321115197980711 0.00022836202087027314 0.0012947848940921228
-0.008852451683178183 -0.0040714883490579196 0.0012763485650521922 8.659842571183676e-06 5.0187195001862265e-05 0.0019434887225115022
-0.009750154872006103 0.00375998117704346 0.001085820565410924 0.007339252070482948 -0.00012413058357082986 0.001294092813001204
-0.00989927729565587 0.00418728607974797 0.0010450811471101329 0.005538662278652255 6.425235448605049e-06 0.0006621947046151153
-0.008394056988982292 0.0031980285869831386 0.0010244625926230148 0.005132637351331045 7.958302454600721e-06 0.00030313856953552513
-0.007036986566858556 0.0026488052802610446 0.0009766967219142055 0.004843804909746975 -0.00011436094088778081 9.978195121622796e-05
-0.005844877056602814 0.0021491828088545306 0.0009017443776147589 0.0046296052894078754 -0.00025152328133736163 -1.0529151000062265e-05
-0.004671422514370246 0.0016746465431092873 0.0008083657791038107 0.004484083219325127 -0.00035867078905159946 -6.806008305209674e-05
-0.0035726315236282516 0.0012691319258702485 0.0007132697275420981 0.004465086323160661 -0.00042850319811128644 -9.05648022388966e-05
-0.0024931617432164075 0.0009766293512370357 0.0006409304717165837 0.004710167758582452 -0.0004709152190021073 -3.719333496195977e-05
-0.0011739792888405766 7.763816577565453e-05 0.000616885403765009 0.004400460327673342 -0.00038563581067552113 0.00029729579507908514
-0.00041307456708905273 -0.0017683219689346992 0.0006895019437472919 0.002938466917272767 -0.00026814078624318546 0.00146339987315014
-0.0011579796954549538 -0.0007856812573325192 0.001218986462473985 -0.0015979951073667117 0.00047716259040322853 0.0007433001332472583
-0.002259522304313585 0.00033244268201832003 0.001033923883003627 -0.0024854017444633685 0.0007686359044077735 0.00016414395484290725
-0.004569341613704444 0.001606124468209008 0.0010838134382879987 -0.0027024295470585965 0.0010831539290313886 2.2079291368740153e-05
-0.0069402767138643405 0.0024960839408054085 0.001241199422945798 -0.0025345472394011836 0.00105881116106756 -5.837461195756343e-05
-0.009266176030288224 0.0033920958310788385 0.0014398676826330836 -0.00254126181925343 0.0008836161383528061 -0.00010034522313655738
-0.01160293368642147 0.004325710702444017 0.0016289069276663162 -0.0026432551852834576 0.0005995668240890978 -0.00011688133970544767
-0.013972568177557427 0.005293014692704933 0.0017737239629139509 -0.00278541048015409 0.0002488603661026387 -0.00010154454870628323
-0.01630359240583604 0.006335978073015336 0.0018495260245720798 -0.0029072135720018635 -8.500580278938524e-05 -3.2093514353421474e-05
-0.019229422791797995 0.0073677001860837366 0.0018539203953844138 -0.0032321290277794895 -0.0002616132150737277 0.00011627605487762764
-0.020560184507966275 0.009727907436015803 0.0017961617609373879 -0.004390770765108203 -7.177486079061424e-05 0.0005152559893470344
-0.02010474864532081 -0.00317481084720799 0.0020186649372350624 5.410836175427985e-06 6.370463246700424e-05 0.0012496852335778501
-0.020579249187417464 0.009724753337739374 0.001820621182275802 0.00440208788946134 0.00020371366876406787 0.0005158496603518454
-0.019268073307418695 0.007361615101055087 0.001902887676156951 0.003245010318402011 0.00040663661107123754 0.0001170747569608742
-0.01636235284291503 0.006327424851355079 0.0019226155775155847 0.0029229840529532256 0.0002499255573913519 -3.207343038879551e-05
-0.014050767352131238 0.005282687770201149 0.0018690503918737552 0.0028059626469372247 -6.095743154818431e-05 -0.00010435069583691881
-0.011696454637004233 0.004314657634574843 0.0017412298525007074 0.002671651467590621 -0.00039262845577388934 -0.00012659098400716592
-0.0093633381780001 0.003381534709624735 0.0015577122197435707 0.0025832701436702254 -0.0006739220665484594 -0.00012501881579979188
-0.007017764640719651 0.0024839645448530897 0.0013432423773041414 0.0025959663385771 -0.0008818727832391485 -0.00011027391336518664
-0.004600741531057345 0.0015840459407721811 0.0011367811220304761 0.002765040320118191 -0.0009899875104571842 -5.4522311794652153e-05
-0.0022453242396468878 0.0003163586224059575 0.0009987607859055475 0.0024991824872553138 -0.0007741045492747898 0.00012360391885531298
-0.0011269753822024146 -0.0007128661964739171 0.001078427300324706 0.001569702000047363 -0.0005286598381495154 0.0008743201555589602
-0.0015415336383535357 -0.0004130299105399815 0.0014753847776131502 -0.0006229112117595921 0.0009193890992184306 0.00038150757542875034
-0.0031273853083827493 0.00046724795740201293 0.0013513570486301711 -0.000995025803567383 0.0012669011297730538 1.7394331667705056e-05
-0.006679844947132717 0.0019124219160751024 0.0015344917749810743 -0.0010311872276027245 0.0016191044820244548 -4.6305748370943304e-05
-0.01043256704366414 0.0031115607504614553 0.0018324903999838316 -0.000993065028839618 0.0015122903174881145 -0.00011360847488002619
-0.01394692770958083 0.004245131454906697 0.002157294659774699 -0.001006976406619286 0.0011948869585003536 -0.00017108807440339107
-0.017415275836912086 0.005406035078100848 0.0024420155939334025 -0.001060457528537131 0.0007190372951289484 -0.00022760577902537836
-0.020919530978112708 0.006584617955798085 0.0026407688517339763 -0.0011136782435596517 0.0001402987446043501 -0.00027819020647145776
-0.024384960288953515 0.007952972236475222 0.002721989533522237 -0.001231943512522633 -0.00043123966156412264 -0.0003156293170863763
-0.02748955413436188 0.008670926487520549 0.0026646892129802914 -0.0013031816362633901 -0.0008018974710039307 -0.00029838502259209613
-0.03174446394903246 0.013103793502657954 0.002455511208711985 -0.0028701550417741094 -0.0007658364764408307 -0.00018461643565544734
-0.03460142922080482 -0.002708616484670718 0.0023615115943162613 2.81407703043771e-06 7.795190603895678e-05 0.0008755289008283242
-0.031766106954203635 0.013099916600133337 0.002485585074195645 0.0028760735043689813 0.0009271447213856337 -0.00018332856934148733
-0.02753328900262276 0.008663315248384217 0.0027251933814685793 0.001310004395507715 0.0009788498691327104 -0.00029590983227025474
-0.02445106310492391 0.007941910671450624 0.002813117095323515 0.0012404093588636088 0.0006320675772796643 -0.00031225824083910305
-0.021006629031687155 0.006570512251495778 0.002761386954737668 0.00112476082403663 8.822590939169461e-05 -0.0002746140656675047
-0.017517013700961034 0.005389338403774908 0.0025875926182391566 0.0010755365275615686 -0.00046776070583690304 -0.00022542664052743625
-0.01404553605419407 0.004225487976240052 0.0023165300714523512 0.0010284063219548054 -0.0009428191451262129 -0.00017393638970745548
-0.010495759324761754 0.0030858552323452405 0.0019826372808119386 0.0010228567128838031 -0.001309731485570964 -0.00012772157032689088
-0.006683576576415816 0.0018789402985341977 0.0016381527821128312 0.0010622126635093923 -0.0015397083839038925 -7.08562408988144e-05
-0.0030922130808521044 0.00045071090469897936 0.0013630662813559297 0.0010066451856119703 -0.0013232257477233708 5.7265258948399495e-06
-0.0014994482371157173 -0.00036591965712980134 0.0013785800029066618 0.0006142946739787293 -0.001033853917687035 0.00045997218087731357
0.004277815631739754 -0.01093699756096592 -5.124549330888517e-19 -0.0049524376082291455 -0.0026420888918608377 -0.0009346194787002469
0.005422868088758475 0.0005474223709242208 -0.0006786754730649954 -0.002213940152768973 -0.0028508549476075618 0.00029293907451085173
0.007932618080292417 -0.002428639656153372 -0.0015371283450478506 -0.0007911801384059417 -0.0026740186412245633 -7.318960018205527e-05
0.011065283973008062 -0.003039754816047576 -0.002186733477758285 -0.0008599876678404482 -0.0023761103807279044 5.005963878336272e-05
0.014666122466403054 -0.004177669077626995 -0.0028203357267967796 -0.0008540993915170968 -0.001813534235592735 5.137344766641754e-06
0.018301944739917128 -0.005240013480155139 -0.003395769403103816 -0.0008759237941108798 -0.0010847262356687994 -3.494741981317371e-06
0.021859910914819602 -0.00631709658215515 -0.0038921616649239994 -0.0008961961903363862 -0.00016865639813195765 -1.6399593912053438e-05
0.025323197915970125 -0.007385701633678245 -0.004273112251667636 -0.0009439039015551929 0.0008431760313380878 -1.299546472586196e-06
0.028684411174406097 -0.008480647736787828 -0.004495426580472651 -0.0009917850299966447 0.001630465230834789 0.00010642458770971283
0.03160729110907647 -0.00960189943583613 -0.0045451362902708195 -0.0007985792243634799 0.0014898015116821025 0.0004088081747511689
0.03287914018020047 -0.010300540914293412 -0.0045192395172027255 2.688163747698166e-06 -1.4104287108580292e-05 0.0007254956530861478
0.03161519518192661 -0.009603846365288606 -0.0045491900878466855 0.0008039136195175921 -0.0015164236501029316 0.0004106691271636761
0.02870138636969308 -0.008484672056626927 -0.0045043729523614505 0.0009969224217282267 -0.0016520912462040605 0.00011008069588141939
0.025352029156717682 -0.007392136231854399 -0.004288830996769974 0.000948435909137917 -0.0008555798755473192 3.7971210002942207e-06
0.021906165366178974 -0.006326663770329099 -0.0039179727954178995 0.0008993664091661807 0.0001719938386753925 -1.0336193400951474e-05
0.01837588523554986 -0.0052542948397672 -0.0034374229866425674 0.0008760975383768217 0.0011137055321869403 3.2028791809341983e-07
0.014787163835080717 -0.004199794783267888 -0.0028864237665291543 0.0008507329224815818 0.00189030155089702 1.0498478302016363e-05
0.011263527728389419 -0.0030751728863746804 -0.0022948960321629392 0.0008435065821424882 0.0025083732566697934 1.941542972072116e-05
0.008297813927430718 -0.002498350833976687 -0.0016902705969572952 0.000760598452210673 0.003019467242479602 1.445233739960543e-05
0.006241587523368166 0.00039763120967733763 -0.0009588597397842817 0.002195375951876558 0.002551217251117653 -0.00034556667161678655
0.005430341044613997 -0.011125557385391832 0.00040948618743912106 0.0029262864688828103 0.002155302873338689 0.0017218444495045995
0.0025607644907124165 -0.009628623295757406 0.0005100963224279047 -0.0031781128663108454 -0.00044496453734023107 8.757914480470623e-05
0.0028439818217696833 0.00031049429476720443 -0.0003584554393530324 -0.0027610295168921653 -0.0009586625436487452 0.00026622936701421924
0.00468590647239149 -0.0016648793878861353 -0.0009750239335450353 -0.0021738282385080987 -0.0016309260384320796 -1.747943350834065e-05
0.007394020061497763 -0.0024449593535720644 -0.001487605181562884 -0.0022571643855943376 -0.0013676551923483017 2.3542232421418218e-05
0.009765916212360833 -0.003311233159245911 -0.0019358451769748396 -0.0023244883131914645 -0.0010191467624343724 -3.700662270289905e-06
0.012189708554702252 -0.004165001400761339 -0.002342170084081223 -0.002337283116998899 -0.0005553935730694267 -4.536597377848155e-06
0.01455683770985531 -0.005016748278607424 -0.0026871216038364997 -0.0023573984016099364 -1.092970512717053e-06 2.2306359938304225e-05
0.01683912878222242 -0.00585047334911172 -0.0029504453632041385 -0.0024203220833538307 0.0005943328844254648 0.0001280783391866047
0.019003904008447686 -0.006701495775959337 -0.003107292074675718 -0.002509326426519274 0.0010553606272917283 0.0004347991477398439
0.02084034409829363 -0.00770760045212354 -0.0031506012946956657 -0.002058906684725472 0.0009726389474582172 0.0011040210800067577
0.021630350150356227 -0.008596584631284565 -0.0031381033873537152 3.891349166996891e-06 5.4339470731439276e-06 0.001770527104979959
0.020848094531584288 -0.007709991239594031 -0.0031522179335564493 0.0020665698043160225 -0.0009592980264117758 0.0011044216882530613
0.019020449349051248 -0.0067063907868031595 -0.003111322817723146 0.002516476343966657 -0.001034511928545624 0.00043515693539843283
0.016866900385654655 -0.005858142107669616 -0.002958688143846246 0.0024260531267798133 -0.0005605294943222885 0.0001272512656727985
0.014600472433074696 -0.005027744784377472 -0.0027028700845170154 0.002359868421830681 5.409257203327069e-05 1.800596217499755e-05
0.012257934557913271 -0.00418060069006722 -0.002370867666790357 0.0023332250596145225 0.000636553848024796 -1.703978991622705e-05
0.009873847065310007 -0.003334043464075678 -0.0019870127323725513 0.002309500031863619 0.0011382939225048072 -2.9819197575992032e-05
0.0075738971392229635 -0.002479154675258172 -0.0015731983885027422 0.0022194954492039164 0.0015527382464508748 -3.560691272655752e-05
0.0049988256704659355 -0.0017327901452389744 -0.0011214320880378905 0.002077588192045593 0.0018639436886217261 -7.066184046616878e-05
0.0031574356956210726 0.0002715973275340066 -0.0005212627096412881 0.0025314473736989785 0.0010204766065249678 -0.00019382443818696294
0.002789108623624726 -0.009716871690241156 0.0005205742964674802 0.00188646616216688 0.0003051783344555605 0.00181635974748845
0.0014197019347490297 -0.006954659625462161 0.0007223977279447531 -0.004194574618452816 7.055574390946534e-05 0.0017517655203656175
0.0012549000173723663 -9.172018611888118e-05 3.875185585117354e-05 -0.004794971514133435 -0.00021913894435237027 0.0002632729089828164
0.0019753900058845607 -0.0004306948983609164 -0.00040695963920810016 -0.003965308104304511 -0.0006581185154045821 8.027422760203607e-05
0.003565805241444876 -0.0011972591914406155 -0.0007179202091080918 -0.004077865463444776 -0.0005589676288257247 -1.1136579172464778e-06
0.004872855928666749 -0.001632071534819038 -0.0009659007790878978 -0.004122060569838395 -0.00035426467002184597 8.700800294594661e-07
0.006076563141999445 -0.00205559248082405 -0.0011777380269776987 -0.00413818027851594 -0.00011953295825504523 2.6609307075470983e-05
0.00724958404719429 -0.0024728074691644873 -0.001352169413076136 -0.004148092235212824 0.00015176433698584952 0.0001171037272016061
0.008337705617176021 -0.0028433097030087125 -0.0014801781014777684 -0.004193161566566369 0.0004598564622858772 0.0003436371183684619
0.00938360322146226 -0.0032079938564643635 -0.0015525682797544074 -0.004338879417175085 0.000797413211446974 0.000875725940454348
0.010513998052842097 -0.00408651685334583 -0.0015606261699188711 -0.0037528250461388237 0.0008862142972741035 0.001982149228732847
0.011117198962664639 -0.005651176713346509 -0.0015323623307236685 5.707890751318129e-06 2.276442042209725e-05 0.003261780779588077
0.010521482290429932 -0.004089773798556113 -0.0015597333192476734 0.0037640206699563793 -0.0008375099394471156 0.0019812218710278853
0.009399379822247693 -0.0032145733915991035 -0.0015514751560846945 0.004349156110602916 -0.0007392555886914345 0.000873060405734021
0.008363578869399984 -0.002853324724595472 -0.0014804833811450932 0.004200969237699864 -0.0003862347031194988 0.0003372615849767955
0.007288945190638562 -0.002486430947748736 -0.0013568196396762254 0.004150238315598739 -5.7097482580626175e-05 0.00010294117837372404
0.006135677621851241 -0.002073434587517139 -0.0011918632649434466 0.004129026378734138 0.0002401366530145718 -2.406646440269929e-06
0.004963651779716708 -0.0016553589777194508 -0.0009977980170794414 0.004092609977832823 0.0005058575056950845 -5.6594189571590915e-05
0.0037128938489725755 -0.00123019414642989 -0.0007809661655741514 0.004010824857633182 0.000747169000525591 -9.659157304269688e-05
0.002163122722837753 -0.00046978978996980336 -0.0005159073863432103 0.0038084775583811905 0.0008485571076399523 -0.00011161486167584723
0.0013932919462373789 -1.8788892513665713e-06 -8.835740195827432e-05 0.004478035006001914 0.0002580317198887327 8.322913666283521e-05
0.0015046279980763797 -0.0069531894781290375 0.0006508256463614131 0.0038311966293918197 -0.00015768243342875293 0.002454816348983945
0.0004812263858938342 -0.004385978830964545 0.000839660677481415 -0.003966052275003126 0.00022779528944735387 0.0019206345024369222
-2.266041085916773e-05 -0.000243596072555003 0.00040669767688586845 -0.005267938704432924 0.00021753752213043008 0.0004722474101519779
-0.0004044496883660183 0.0003706210021345477 0.00016523691262037535 -0.005008936548927872 0.0001360978788362443 0.00011915242377170384
-0.0001673638918986279 7.035985719063012e-05 7.306245956949757e-05 -0.004731345634778331 0.00019025519429506917 2.9475700849653464e-05
-4.271634869582269e-05 -6.811147994212414e-06 4.005981324641756e-05 -0.004730673059572847 0.00025556107010342964 2.5258108041207536e-05
-3.4071763396092224e-05 1.6513848552722133e-07 3.113318835841302e-05 -0.004741182815440654 0.00029002990094597746 7.486982365300309e-05
-4.749801525816074e-05 -2.591803939839616e-06 3.6071048387539934e-05 -0.0047523089782874756 0.0003137942721462698 0.00019496282865516057
-0.00013887421910353744 5.77024544783787e-05 5.1565773763056264e-05 -0.004719561761807807 0.0003747926406695284 0.0004520483984960794
-0.00019767112525045417 0.00020808299720394093 7.010320337132682e-05 -0.004870571846228531 0.0006351012303494271 0.0010039503716247834
0.0003803281250779791 -0.0005643776761611805 9.763269596898672e-05 -0.004767167044848701 0.0009817115541934545 0.0022098554597240984
0.0009399166520406093 -0.0035312229644631947 0.0001494178317346374 6.206608849027857e-06 3.9215360305050725e-05 0.004187881194357789
0.0003874823956732514 -0.0005684795687332773 0.00010108622177151343 0.004779332923375987 -0.000899461047808006 0.0022085428739061054
-0.00018285335376860465 0.00019988101581582183 7.645316772425572e-05 0.004881705479482168 -0.0005416667388886656 0.0010003965634417709
-0.000115329476530202 4.548568295463447e-05 5.9493385197755374e-05 0.004727917977233546 -0.00026376774068214315 0.00044397760502396216
-1.3362407017009775e-05 -1.8563271774726386e-05 4.3051649950798726e-05 0.004754257393354646 -0.0001808082366494894 0.0001778482730724004
1.4135244341150861e-05 -1.9220777559561323e-05 3.270459851879253e-05 0.004729955633216423 -0.00013419166396417566 4.008845656513279e-05
2.7592457328507142e-05 -2.9819231744992256e-05 2.8679558671337193e-05 0.00469480069124812 -8.062355220633058e-05 -4.121444255449425e-05
-6.8367696404687e-05 4.272122551490157e-05 3.6893763824200294e-05 0.004650871915413574 -7.463860442206575e-06 -9.084232793365153e-05
-0.0003036382162828905 0.0003702790513127755 9.354849635789716e-05 0.004847510761405431 6.493290053784109e-06 -7.510636445747148e-05
4.2007833313528905e-05 -0.0001479859019931084 0.00031110620158249615 0.005098736879381282 -0.00020561376600801299 0.0003550767502993524
0.0005227059850730467 -0.004398620878752358 0.0007586842298804285 0.0038484035723282198 -0.00029816343298001957 0.0023408977700258866
-0.0003702219419814759 -0.0022765795858226993 0.0009474832464708716 -0.003002856537003534 0.00038428111662494905 0.0016611213406575467
-0.0011911561582042998 -9.147274171124394e-05 0.0007438600608281936 -0.004462675632411152 0.000620446059341295 0.0004815714252126879
-0.002626996329701187 0.0009932306101843751 0.0007249812883901084 -0.004613302550548074 0.0008768316700360463 0.00012371998136812072
-0.003797872997452685 0.0012739717912057158 0.0008588740250745719 -0.004193805369470368 0.0009370305876907291 1.5159145173867473e-05
-0.004953737862599262 0.0016333034867197338 0.0010445967124388966 -0.004107015359339765 0.0008721589592783303 -5.472206379353387e-06
-0.006156380619096916 0.0020559551447929055 0.001239115004214472 -0.004128552608725891 0.0007050221672755648 2.7261941942889494e-05
-0.007335459052909363 0.0024799921074537554 0.0014239891137070274 -0.004138416423787536 0.0004857742421657468 0.00012729164887021938
-0.00855468142035486 0.002895606365439678 0.0015844821082023838 -0.004101442670807072 0.00027078411811446606 0.0003106831542598453
-0.009791102850652432 0.0035841387250559573 0.0016927453230758595 -0.004032634426882726 0.0003381628324960731 0.0007021483168546395
-0.009809747186480464 0.0034029508933697368 0.0017232661484256626 -0.005098333156254592 0.0010448301227250273 0.0016151917998125595
-0.009233167572334599 -0.0021132721870802443 0.0017739499615972633 5.844372358301196e-06 5.601772168172555e-05 0.004380152119391159
-0.009802909892242126 0.00339797618492853 0.0017293127605814869 0.005109837117632892 -0.0009282741504975797 0.0016144607111430896
-0.009777226545815424 0.003574262992471752 0.0017044309520457912 0.004043327739152623 -0.00020851673085031273 0.0006998766807591621
-0.008533457781927756 0.002881108463655015 0.0016007880600288056 0.004109852978603436 -0.00012113926798072587 0.00030489550236414937
-0.007306617309662804 0.0024615993308796753 0.0014428553808364028 0.004141373502249812 -0.0003128205301594137 0.00011398996010480014
-0.006119315105240273 0.0020350346272799964 0.001256735155471621 0.004119779809398897 -0.0005121026618328171 -1.1713335502546072e-06
-0.004906969142914923 0.0016111694790825405 0.001054354360989614 0.004075234897496127 -0.0006727144470958098 -6.296981828230684e-05
-0.003744334167970414 0.0012561617466150948 0.0008505685522347963 0.004120529235668345 -0.0007592485712588546 -9.235978395119135e-05
-0.0025835198410185333 0.0010064916059458703 0.0006881812012635549 0.004499975514421721 -0.0007709220097292375 -3.3765727854609143e-05
-0.0011647654272722984 -2.447172012235056e-05 0.0006800488735975798 0.004390006485206022 -0.0006243440748031243 0.0004009534833572367
-0.00034942655528567704 -0.002288007800710478 0.0008775284694865505 0.0029757224054901416 -0.0004422740932947133 0.0019398314151499996
-0.0010894393562944033 -0.0009039760948340366 0.0010991845931474908 -0.001570345386998467 0.0006886733348539125 0.0010782913408863728
-0.0022720284211597912 0.0002248202597556566 0.001064752768438598 -0.0024950018800235603 0.0011479697134163744 0.00032774447932904145
-0.004790245763597026 0.0015896607999846687 0.0012594748336988866 -0.0026613141314131062 0.001695237675002737 0.0001129688151769457
-0.007385788500740809 0.002481540553276631 0.0016138249327427665 -0.0023859944766745807 0.001759349574863396 1.786793157407811e-05
-0.009865288026458283 0.0033242133511719256 0.0020104716292343393 -0.0023080661076875495 0.00155240720324009 -8.256693759596605e-06
-0.012282265031576825 0.004176061464698581 0.0024001290526609815 -0.00232650661194932 0.001161823197214815 -4.644955379220358e-06
-0.0146534720241847 0.005024906830930364 0.002758257522958577 -0.00234812044043513 0.0006561778892139469 2.9232856582031404e-05
-0.016875317589194413 0.005879337087934193 0.0030575111539549917 -0.002304529031919851 0.0001410430485017862 0.00011835910595581908
-0.01931233029563081 0.006637064776907318 0.003255337923408471 -0.002377259538449011 -0.00031589946639701483 0.00018563953814700095
-0.020314520948643344 0.008419897907800601 0.003225079002407965 -0.0032200503020147803 0.0006593397383020564 0.0006036405149409389
-0.019926077784338234 -0.0009932729536648664 0.003143764116258636 4.053177282406186e-06 7.440821781656909e-05 0.0032243460977238432
-0.020307918419334596 0.008413986256827276 0.003233728998325522 0.00322808439956309 -0.000505119631813133 0.0006043521650315707
-0.019299192554572072 0.006625372293767412 0.003272374692397103 0.0023849226479514046 0.0004856829669309009 0.00018662112295779975
-0.01685599957280441 0.0058623013505341645 0.003082198772523184 0.002311012701692297 5.217961688048798e-05 0.0001184985962145759
-0.014629055072142324 0.005003657047780853 0.0027889451721869935 0.002351568906627515 -0.0004366779162311205 2.6229246382750027e-05
-0.012255197594293332 0.004152848017750946 0.002433548716520557 0.0023231510197793226 -0.0009229477196551459 -1.5421511517184628e-05
-0.009840514923107696 0.0033030886121157566 0.002040788312663015 0.0022904634037589117 -0.0013174928923437162 -3.604007787771301e-05
-0.007371406070593473 0.0024712853374240463 0.0016318113372041979 0.002344574009757487 -0.0015736468538219174 -4.068480591852243e-05
-0.0047910952877663095 0.0016057885856365275 0.0012538468725550663 0.0026055194820199324 -0.0016149139906950002 2.7002796206339687e-05
-0.0022751857244542734 0.0002650961600040734 0.0010304952666693183 0.0024703455436301254 -0.00117345552743175 0.000285692087971835
-0.0010872729257012412 -0.0009027964574276969 0.0010466065086820846 0.0015646569294346668 -0.0007543805464642913 0.0012377967838938405
-0.0014637029924667194 -0.00043768045957632954 0.0013337223603127508 -0.0006014700198373169 0.001316621722479495 0.0006988353072250871
-0.0031355862181334303 0.0004024004486717386 0.001385534087030678 -0.0009763712074159353 0.0019773860108001314 0.00022784822474805096
-0.006950991741617064 0.0018943730609726197 0.0017518081769242735 -0.0009588737406579192 0.002751874518806883 0.00012262494663732224
-0.011029012336728934 0.0031002117303077716 0.002299919429696857 -0.0008694562015969668 0.0027745901214028612 5.079793957751151e-05
-0.014787317007210529 0.004187543261689213 0.0028836381033215514 -0.0008500916435127329 0.002385553166939911 2.5275223134245948e-05
-0.01840701050184942 0.005261738557062972 0.003447815262478315 -0.0008698784682617703 0.0017174818112258691 8.196398434745213e-06
-0.021965051169248462 0.006313860802342813 0.003961296851481211 -0.0008809593250461432 0.000864078001198858 -4.664108253223844e-06
-0.025352241419597132 0.007454240695418018 0.004386004376291598 -0.0009209006109678061 -7.97754940945036e-05 -2.347189994149763e-06
-0.02814661462401569 0.008015661995908486 0.0046648093737407135 -0.0009480787939265582 -0.0010514903020391036 -1.7158734643588124e-05
-0.031084325505327245 0.01126487091482008 0.00456811229255616 -0.0022982137289786434 -0.0015686574344462587 -0.0003716547831799879
-0.0328510727760214 -0.00041272238367832004 0.003814334520487708 1.9457139794695636e-06 9.573267619767743e-05 0.0034284665708110592
-0.031077860676838223 0.01125847248954371 0.004579341604506189 0.0023021101396408913 0.0017667291220977283 -0.00037031988681805164
-0.02813393315051116 0.008003017900441783 0.004687123021979363 0.0009519293443924768 0.001268602019673132 -1.471826718127094e-05
-0.02533413461682653 0.007435858605373681 0.004418879731594391 0.0009244350164412866 0.00032559166294707253 6.196422294802378e-07
-0.021943497903843607 0.00629102498732453 0.0040033391611763395 0.0008834649495375204 -0.0005860593471580446 -2.361931918146032e-06
-0.01838666166523803 0.005237147860489824 0.0034959825133618083 0.0008698431556718306 -0.0014160608821400088 7.400971518821483e-06
-0.014778377544710838 0.004166625613131883 0.0029322271137687023 0.0008443187221621586 -0.002092194126538632 1.647223849424159e-05
-0.011046806802010327 0.003092941461365822 0.0023395609990201145 0.0008536715484539645 -0.0025538040321240302 2.651033695768206e-05
-0.0069973850956228005 0.0019115021854452124 0.0017699722788655581 0.0009358335525510912 -0.0026861512538848935 8.562681288044617e-05
-0.003176603040014744 0.00043248518016003807 0.001374561941434162 0.0009648192682635605 -0.002060474313556088 0.00021142594778994503
-0.0014883005470581285 -0.00042862610977153955 0.0013015051648951198 0.0005920435103038734 -0.001453372865230563 0.0007953365988786747
0.004573231309373007 -0.01699554500445892 1.883801274693564e-18 -0.009628215602418968 -0.003969391424964682 0.005001903241981087
0.0055063255385706745 0.0017667204017989342 -0.000637105215889851 -0.004277041211426059 -0.004131666089425536 0.0001701005873557765
0.0076728129090580695 -0.002396249079790744 -0.001680322778554182 -0.0020163131489588162 -0.004036350892643164 0.001403111977782116
0.010790145728935847 -0.002814953554838202 -0.0023623853580584183 -0.0020792655056733047 -0.0035914711887255635 0.0015224298273510723
0.014646903860536251 -0.00404896897600217 -0.0031245917923205272 -0.0019596509087331515 -0.003209474565114155 0.002090953721501708
0.018558240833504797 -0.005131230985818604 -0.0038581185712832887 -0.0017780305970699682 -0.002520857726996952 0.0025784107932883575
0.022373283012158122 -0.006223995944953654 -0.004548142235731889 -0.0014852075828692053 -0.0015722881107398722 0.003079294836053151
0.025960630455283528 -0.007272382414480811 -0.005151958088729757 -0.0010826332246565962 -0.0003832253016887145 0.00357147763814472
0.028970650547347848 -0.008182793735707017 -0.005607849314197134 -0.0005634806663750603 0.0007758552868560786 0.004078851582776871
0.030886714289466006 -0.008712318433536224 -0.005859274666753761 -0.00010469776935051738 0.0011046051396278666 0.004624005976734308
0.03150917986847935 -0.008742392831537259 -0.005928501747937451 -1.2823641372861744e-05 -2.655272582884127e-05 0.004995846625055333
0.030910199034777288 -0.008719800477524018 -0.005864807293190857 7.838467230494308e-05 -0.0011572442074389672 0.004625295878022196
0.029022135959217505 -0.00819915572642879 -0.005619786623135373 0.0005351709533210334 -0.0008269536980386967 0.004081408448746335
0.026049747623185755 -0.0073005729495837415 -0.005172237778193432 0.0010509490313780206 0.00033533164292916506 0.0035753670527723554
0.022516063990001226 -0.006268708281081028 -0.004580045713191635 0.0014488800177352378 0.0015300594763562982 0.003083991091680363
0.01877829382089862 -0.005199613314958837 -0.003907634271261809 0.0017352705617193027 0.002489716786159591 0.002585792050556747
0.014977592396449553 -0.004149238626841592 -0.0031990263110473942 0.0019106412212898532 0.003189555949279518 0.002091660543497654
0.011276280715713313 -0.0029589899343600303 -0.0024865001205901477 0.0020098804761822797 0.003614446511730122 0.0015614034467432488
0.008458227275918733 -0.002602968506014549 -0.0018290657455069762 0.0019322987874640604 0.003973149852087632 0.001273697082226266
0.0071967833704999476 0.0014795281913889589 -0.0010919712628182433 0.00443774629813835 0.005312729231824542 0.0009357372379939455
0.006959791873965237 -0.01793551733084233 0.0014315286951754056 0.005787429244607858 0.00695888629300952 0.0019400242502697384
0.0028090909559768213 -0.014754317115506845 0.001187304544136266 -0.006179950084163659 -0.003279573517350036 0.0028752987478797166
0.0025368669217930243 0.0011798206274929032 -0.00041666122920500147 -0.005120625605444546 -0.0027460862867391225 0.0008624301264536656
0.004050387596104578 -0.0014698010469332689 -0.0010866722905206155 -0.0042604874939620434 -0.002491574528924273 0.0015118361973868464
0.007034825909014751 -0.0022577426938424957 -0.001680113932421901 -0.004315118993966286 -0.0022029778005885218 0.001960512603486849
0.009552277415890079 -0.0031856553879354623 -0.002223853825959385 -0.004218054719050607 -0.0019117410679734277 0.002601028774211076
0.012158677466694258 -0.004069355643973006 -0.0027625210356497206 -0.0038743470820636105 -0.0015064812762042524 0.00323973963625667
0.014691296492613934 -0.004940994567354839 -0.0032612073264877087 -0.0033663151669019375 -0.0009426379357580207 0.0038821162004252516
0.01707254595129337 -0.00579187208461063 -0.0036958012970345817 -0.002625282304824928 -0.00024670132082508237 0.004545103297558396
0.019080183272290545 -0.0065288666826582905 -0.004026247938912248 -0.0015507461682697156 0.00043872061093601226 0.0052997874509018664
0.020373710856560055 -0.006850275108343528 -0.00422470637380746 -0.00040815440104499147 0.0006542832003059277 0.006246499201754604
0.02080179343323331 -0.00660092862619623 -0.004299448755889152 -2.2864098643171204e-05 -6.3605062482453915e-06 0.006980775769478891
0.02039840210362163 -0.006858059796877486 -0.004229240967797828 0.0003609701282359126 -0.0006657377518929698 0.006246634558635336
0.019133698281460443 -0.006545753211482758 -0.0040362065720315555 0.0014991205433213875 -0.000446334306324248 0.005299885266739228
0.01716350072670931 -0.00582057915085486 -0.003713107558555855 0.0025659873435745825 0.0002455410935987045 0.004544796622959018
0.01483347006998684 -0.004985802277919157 -0.003289294238197433 0.003295754257871413 0.0009508527650134798 0.003880646550698156
0.012372058880934698 -0.00413660463228805 -0.002806575632002815 0.0037885059298124937 0.0015260041135920473 0.00323652372615585
0.00986313940814761 -0.0032831623809465344 -0.0022939879903671346 0.004112743593902112 0.0019475116825542645 0.0025926584815293106
0.007483964313493027 -0.0023931177288197196 -0.0017843604305500917 0.0041729516900266056 0.002239438601882836 0.001958805753392704
0.004694944798387568 -0.0016570401921412814 -0.0012706159051790703 0.004041063372976851 0.002594657582648366 0.0014529692180963321
0.003118804647940072 0.001105250204718691 -0.0005849372243073115 0.004829822302732267 0.003140304342486361 0.0012370260989297342
0.0032152430639017706 -0.015478289281752853 0.0014751646553284323 0.003867231600689814 0.0038831579460397365 0.0011678471417104128
0.0014484845103815403 -0.01026619348613071 0.0012982688562895868 -0.007255645918383942 -0.0019970160963238 0.0009522967294805691
0.0008506108593133034 0.0002461971508838517 6.22145542134303e-05 -0.008317576571741167 -0.0015628738686092043 0.0013403279093811378
0.0012586154227659247 -4.589618895876254e-05 -0.0004691813504209246 -0.007254875501014078 -0.001231595352789164 0.0017260823631013548
0.003076928141249511 -0.0010182627910562253 -0.0008142596829534665 -0.007378498999329942 -0.0009987771944171997 0.002500456056319322
0.0045611305449050924 -0.00151011481008184 -0.0011133687381005006 -0.007127903738456121 -0.0008168578706308571 0.003299978623230575
0.005901118950912161 -0.0019717032930925285 -0.0013968047235903623 -0.006579397127043137 -0.0006181768163236861 0.004139842600000707
0.007221234831139458 -0.0024186897382859744 -0.0016589209725290076 -0.005763793893164764 -0.00035158235717115265 0.0049873705902663745
0.008496026254998993 -0.002887475669828846 -0.001885360083192358 -0.004578508273963363 3.419116607917416e-06 0.00588136802190695
0.009584587964051799 -0.003307150347052184 -0.002063152113660388 -0.002749676499802378 0.0004546808146860699 0.006934080748445265
0.010143539562467375 -0.0031594248716317283 -0.002194282507989717 -0.0005934628262625884 0.0006949911106293403 0.00837137841671505
0.010242858892055362 -0.002092625800719758 -0.0022793522071788957 -3.653709720700471e-05 9.77571517609223e-06 0.009724646669766603
0.010168588041821221 -0.0031676932955277347 -0.0021976989010688086 0.0005179645329021487 -0.0006735094318137573 0.008370624148032886
0.009638365062890359 -0.0033248507666770385 -0.0020707931409862435 0.0026667628346011434 -0.0004275050092673428 0.0069323463000789355
0.008585960966861915 -0.002916910776629228 -0.0018989851062937786 0.0044827113957902785 3.2886889342216424e-05 0.005878108591317195
0.007358716745407551 -0.002463309130366456 -0.0016814950398631933 0.0056487875361079225 0.00039955111482522317 0.004981703914936109
0.00610171207377539 -0.002036536589979325 -0.0014331650182985555 0.006437730284874923 0.0006787771681593867 0.004129796258676397
0.004844208259517255 -0.0016009832286849204 -0.0011706387645050067 0.006950279935543405 0.0008869973795242389 0.0032852540325263957
0.003461967692242603 -0.001139447165213109 -0.000904705678533866 0.007141200267054844 0.0010710735179254706 0.002471140761138304
0.0016589229060347353 -0.00015413411342583556 -0.0006078920011008068 0.006910041443195867 0.0013318756441500865 0.00173256246896392
0.001118047320253837 0.000390429882720563 -5.905362002641479e-05 0.007857899671460866 0.0017114011466465044 0.0013609093177494812
0.0016232339598760066 -0.010708156070863804 0.0013591311612425384 0.0068582284453142205 0.0021913426653306072 0.0009101562372936476
0.000389250287721154 -0.00615605227480243 0.001159449199484056 -0.006709644852369371 -0.0009008735972958299 0.0003358218156832506
-0.00044386942274868355 -0.0001305099643620208 0.0004509485776449609 -0.008796068422361334 -0.0005104119604223743 0.001163996073654222
-0.0011146896114766613 0.0007783430539587393 0.00016699439873472832 -0.00883136208074622 -8.050945372431338e-05 0.0017846782334200433
-0.0007288011470786901 0.0002997893153693728 9.519043842174139e-05 -0.008431031541656182 0.00013382293484951282 0.0026293176961528645
-0.00042267589853123874 0.00012733239643616522 6.87364397361295e-05 -0.008084427121869306 0.0001972185574544906 0.003502661610388682
-0.0002852230278413523 8.950186245510208e-05 5.3267283568589064e-05 -0.007457852280011882 0.0002145068157081636 0.0043930427730332205
-0.00015779590593908543 5.296307795215943e-05 4.2912306724236936e-05 -0.006547240706422262 0.0002301922125711702 0.005303130044537257
5.290884046221144e-05 -3.7419061995584124e-05 3.6152788818818874e-05 -0.005267040660521829 0.0002900551479409445 0.0062510930760573576
0.00028904973085324624 -0.00021242177235559242 1.9565012450382135e-05 -0.0031725044827500205 0.0005615201775942933 0.007338359774110218
6.633929821754105e-05 0.0003862601604564703 -4.776873448972416e-05 -0.0001965394521885573 0.0009128105232794832 0.008898624793753588
-0.00024825887410413457 0.002977904910032326 -0.0001755002580671521 -4.102277155941059e-05 2.427688931138273e-05 0.01090928318874621
9.138245563646805e-05 0.0003776659373342262 -5.000289234520561e-05 0.00011169793744092218 -0.0008617054873894912 0.008897595192243098
0.00034231988606860786 -0.00023063672546113566 1.4406625409981477e-05 0.0030791108177242537 -0.0005029738887436185 0.007336043365006802
0.00014056659633926455 -6.719029183916564e-05 2.6599641610770367e-05 0.005158802965879376 -0.0002199604628000293 0.006246903535740033
-2.703292671281355e-05 8.952274978480664e-06 2.6519126207643913e-05 0.00641676946823849 -0.00014623133422776827 0.00529592031278098
-0.000100855011977114 2.7724971680249426e-05 2.632599759781807e-05 0.007295886356161638 -0.00011797145990876965 0.00438105310175689
-0.0001737905492396897 4.3750133108625934e-05 2.5656855780370165e-05 0.00787819904757176 -9.57636892737721e-05 0.0034828198133709702
-0.00043112536082996495 0.00019843553509654694 2.7323519771563723e-05 0.00816143244388231 -3.940294426983607e-05 0.002601812390831063
-0.0008627708725953326 0.0007495781562860376 7.040625870766443e-05 0.008491181429126646 0.00015851097224594158 0.0017695565936035656
-0.0002995169266205157 -7.485964383373506e-06 0.0003628778786696945 0.008595719302493591 0.0005758692231443521 0.0011966007965383465
0.0004856523427513802 -0.006463437912681557 0.0011650041620013803 0.006645573544178802 0.000982237103367131 0.0005263535595553871
-0.0005461620594603635 -0.0029495050998852757 0.001013686283709707 -0.005099365879847143 1.322535622840235e-05 0.00026516466624798937
-0.0016192688110237487 2.664949506017445e-06 0.0007593548934574346 -0.007397053760373415 0.0004781936138621367 0.0009031628898206208
-0.0033105493266443954 0.0013820444346136658 0.0007819996174832682 -0.008126157956093793 0.0010848436326692504 0.0016499278514741959
-0.004396743300323401 0.0015255650910051214 0.0009979511502407922 -0.007573592929356831 0.0012868344421040315 0.0024770829424622335
-0.0053992722939099754 0.001785175959752369 0.0012506588956827864 -0.007134585749714413 0.0012252603505411772 0.0033076735803405414
-0.006476939677059721 0.0021536958341316754 0.0015028671301151504 -0.006575139289980159 0.0010516836458056606 0.0041405631685366324
-0.007541910901621246 0.0025141100837854083 0.001744223405650392 -0.005773526566663586 0.0008276885634952724 0.0049963527097464135
-0.008430699791611389 0.002857582982835455 0.0019599102502688434 -0.004633082599387177 0.0005614635041196057 0.005855779595808341
-0.008977670665107169 0.0028884283927204553 0.0021085157247309715 -0.0029448598096335076 0.0004997717907211501 0.00677300198194675
-0.009977246560044069 0.0035223172823043974 0.0020883034034539154 0.0007570030749825649 0.0010215643608428072 0.008042801287808047
-0.010790715491117675 0.00890038581758797 0.0018305600293501809 -3.692470157904955e-05 3.9099676707160725e-05 0.010665247756914466
-0.009952101678431389 0.0035133806082837315 0.002087248446381409 -0.000833409348343883 -0.0009401249013124959 0.008042116907391877
-0.008924703724205585 0.002869661885903857 0.0021058469438459695 0.002860648373647262 -0.0004089520635979589 0.006771419683162854
-0.00834503607512819 0.0028273934711351718 0.0019544549547979915 0.004535377915945069 -0.00045634575973454213 0.005852792685711501
-0.00741769798801678 0.0024706135535148273 0.001734110816369065 0.0056556849592953136 -0.0007061254081840244 0.004990993654196617
-0.006309254856366845 0.0020951971324194327 0.001485446091866184 0.006428309299199123 -0.0009171173318932905 0.004131140935581479
-0.005190197132200048 0.0017105698475218128 0.0012222989680190778 0.006946506327098351 -0.0010904167413110428 0.003291932899186819
-0.0041769282092169275 0.0014505900479342118 0.0009540788938983671 0.007333190076165787 -0.0011755402184633423 0.0024557385191207584
-0.0031496401334898095 0.0013752521830878333 0.0007216327926400542 0.00789316030719442 -0.0010226042742521233 0.001635568988317107
-0.0015379827777845926 7.410006286130163e-05 0.0007023096801287232 0.00734186914577317 -0.0004528102501663638 0.0009432054356902759
-0.0004935261018948073 -0.003126356553481916 0.0010045102895321772 0.005135820465224968 1.4320860984317355e-05 0.00044335238406172876
-0.001283759843411591 -0.0009668800179129499 0.0009728260550737738 -0.0028233752643107854 0.000816517273966171 0.0003885765159268922
-0.002668592684569907 0.0003612113810224507 0.0010278521184359638 -0.004261785715072874 0.001489195285700733 0.0006483549546421379
-0.0054276963664647545 0.0019199831991866749 0.0013482876840177627 -0.00488191364184735 0.0023748725953223987 0.0012963663259057607
-0.008020965043828859 0.002720422419726746 0.001844597581056106 -0.004539715369852159 0.0025650921751254096 0.001956114167321771
-0.01041467732024811 0.00347619801425695 0.00236163026535122 -0.0042259865762345715 0.0023542239065797643 0.0025988582431827416
-0.012744867987279902 0.004260536516768863 0.0028660350750377875 -0.003874392210315062 0.0019600795130301205 0.0032391073477291235
-0.014998239286808938 0.005036301650981668 0.0033448737923590754 -0.0033764513307623653 0.0014457829659808821 0.0038866231734277362
-0.017139589672122545 0.00575208286396544 0.003775880965650033 -0.0027053430620750623 0.0008561221762264234 0.0045438726571288045
-0.018516600301675977 0.006453883127416259 0.004093375480891274 -0.0015697419047205005 8.916680335565832e-06 0.005092459848795
-0.020084819909660333 0.005898212601982602 0.004097855094751021 0.0007979357506470416 0.0003988831751320097 0.005818921424748774
-0.02131316311895865 0.015712624317901623 0.0035004867471840058 -2.336189640306962e-05 5.623121410688634e-05 0.007733255850066368
-0.02005895011765159 0.00588869709797918 0.004097911328800082 -0.0008462645511188965 -0.00028230402589100314 0.005819137575137208
-0.018462675466366592 0.006434104459827003 0.004093039750739104 0.0015165342627574657 0.00011954230958765235 0.0050927793019210415
-0.017053989577564415 0.005720812905323622 0.003774227079877954 0.002643780663395459 -0.000709703188434712 0.004544011725260177
-0.014877851699746694 0.00499252819718398 0.003340475456172977 0.0033025654641061974 -0.0012791092041527941 0.003885987640791147
-0.012591374074301359 0.004204582891329855 0.0028570652066609247 0.003783089700415441 -0.0017784559362292293 0.003236602334304272
-0.01024329763467539 0.0034128998465109014 0.002346201271417344 0.004109920869668975 -0.00217683254201015 0.002593124988077509
-0.00786962232738188 0.0026696770961772095 0.001821112673437818 0.004399152979250708 -0.0024304370427432934 0.0019473144874191115
-0.005340695694858091 0.0019216608409364558 0.0013164156225531334 0.004768568371567672 -0.002323541501000049 0.0012926020594839598
-0.0026392416311627554 0.0003998017196333043 0.0009964638742438775 0.004260690668596104 -0.0014991489737639495 0.0006767643740252883
-0.0012704724280291151 -0.0010364884990921534 0.0009620237030709537 0.0028605951413562297 -0.0008361625700651086 0.0005041062036335199
-0.0014546898617899856 -0.00032755663995357695 0.0011105195806720117 -0.0013921110531055435 0.0016346532359024384 0.00046898230471693534
-0.0033021573009267505 0.0005565994857280115 0.0012851068168796128 -0.0019963019790354055 0.002644441916755433 0.0005422570383026356
-0.007465599783659281 0.002181003000905224 0.0018106130254226817 -0.0022444156924803175 0.003923876819729211 0.0010765835240456074
-0.011752992787983396 0.0033252870374476592 0.0025270702210323454 -0.002157998172760148 0.004096691093032756 0.001602252130956979
-0.01554451145979998 0.004334596722176423 0.003251736676095694 -0.002006673698201235 0.003692691255835955 0.0021006919281369757
-0.019154671779600313 0.005328611374242239 0.003957532182533586 -0.0018003246487556805 0.003014682693357672 0.0025938885417977854
-0.022669225751726182 0.006329695577112772 0.00463062005625596 -0.0015297613780719086 0.0021283190959225156 0.0030941250943853547
-0.026003972967575742 0.0071777512231860465 0.005234344012813807 -0.0011213231091323729 0.001075869502691459 0.003551621397517695
-0.02917169541673106 0.008445426989175234 0.005716317730014588 -0.0005487282628387461 -0.000435688278188598 0.004093370756899672
-0.030641534959188563 0.006854928920381989 0.005743249087363821 0.0015250159718977804 -0.003163594872846135 0.0036761299392573045
-0.030547062287971043 0.01930607400127628 0.004331040021645612 -1.509547778770189e-05 7.818907941162614e-05 0.007581232943118941
-0.030613680178053423 0.006845032328883879 0.005744296277301475 -0.0015562010452707777 0.0033253117785329335 0.003676571083487524
-0.02911426889198087 0.008424962533741386 0.005718017821180898 0.000514584529796208 0.0006128089507494243 0.004094127268777833
-0.025914522123442862 0.007145694485831059 0.005235873484756886 0.0010823197866779016 -0.000875475583032882 0.0035524072654260323
-0.022547179227383005 0.006285455823270902 0.004630693600719925 0.0014841889537058153 -0.0019016835361137106 0.0030944220343593967
-0.019007959159995202 0.005273698691522742 0.0039545360273456846 0.0017469223892128242 -0.002768771594680926 0.002592928219497207
-0.015402290854279183 0.0042770405865138 0.003244258829957673 0.0019448660842734493 -0.0034540154570212754 0.0020979531759536076
-0.01166973397362564 0.003286693973825907 0.0025144094177138865 0.0020922816109182397 -0.00392235819335402 0.0015988336704808226
-0.00747353423796266 0.002189129976852981 0.0017924202426728747 0.0021971395565446926 -0.0038812717807708156 0.0010787871421242944
-0.003347702733638796 0.0005865438373845722 0.0012674377426991255 0.0019991426076984204 -0.0027078454653508563 0.00056177585786999
-0.0014924302432848982 -0.00035188880751936113 0.0011077239035855338 0.001403398604880405 -0.001723922401337564 0.0005460573615472466
SCALARS Stress_vm float 1
LOOKUP_TABLE default
3762.229841936123
1725.5942348757148
1866.2581284531184
2582.9886278889394
3446.211896538691
4317.294749748516
5175.37763643554
5990.487909145258
6682.14413490311
7112.1465630228895
7224.817638514406
7117.647516343356
6693.846889264593
6010.367374987035
5206.9274501188365
4365.778465945785
3518.360843297849
2688.788880190596
2022.312753036436
2031.6505524517595
4065.410898928605
3193.977485499463
1004.7190531504473
1329.147376462844
1903.8757780616202
2481.2360733434857
3065.8919819025473
3647.044304993169
4206.69971028651
4690.5741233070075
4989.895733775492
5045.920712361789
4994.924678385172
4701.2754912532255
4224.745696356745
3675.1105367597725
3107.5771957218817
2540.623622431286
1983.8086538746795
1421.0280000157393
1062.1654873333198
3322.371890070762
2354.688648869814
1243.3136070764028
1225.4236997080457
1444.6643463179034
1678.288302315373
1928.8454463649202
2196.6598288213627
2482.4384205494725
2753.6035141946963
2892.6470032326547
2842.60124376493
2896.031282100451
2760.346831791019
2493.4012065541665
2212.9774112375517
1951.1730583898498
1705.0514093418353
1465.574628627132
1215.78739493664
1164.7622941459351
2416.319532758824
1607.0290749355659
1366.5638590899548
1428.1502439311103
1348.6565961134204
1312.4942657309846
1282.5135083434886
1300.556262219076
1409.8911135370051
1641.8530334522213
1825.2556514738076
1727.6044654542827
1822.7892681460235
1638.2261310988165
1402.299286099053
1285.781190424049
1257.4348697402302
1274.7572461384616
1294.5339327820427
1359.6082885582814
1324.5375035823538
1646.5786706835765
999.3235133763425
1230.8849821458625
1556.1482353217473
1658.8359730657703
1821.441853780745
2030.7616982193208
2254.0064210116075
2455.0499287119806
2647.9164130933254
2980.404363071868
3386.5048329352653
2974.08824994473
2634.947052935048
2433.4706705129324
2222.5384638942355
1987.5237735188252
1765.0470742044492
1593.389385275324
1503.647404250201
1214.3243168520087
1020.314937086946
608.12973311622
970.5111663163514
1626.1753468872687
2157.8908321585104
2670.70540088918
3195.870674006264
3718.144173320533
4212.72331992594
4594.381625449106
4961.963890299815
5840.258229765755
4956.140190309645
4582.090531840835
4192.264210507819
3688.6460173049936
3156.9738555701924
2625.0661722749733
2115.266867147573
1602.5928115121983
966.6709723931839
614.4179813037487
524.9606623247728
935.169117415133
1906.8998829764053
2832.7741580078127
3656.340927170945
4457.951570359505
5249.007463521381
5998.823191010929
6722.311064739776
7122.917203659545
7775.511011937271
7118.904409001501
6710.097288182424
5978.432255565774
5219.936625588245
4421.267780659654
3618.081186283998
2806.9681273372435
1907.0911931883338
947.4147854486595
537.4337966151525
2452.8230573757523
1448.7634926771213
1852.8865668562237
2580.494924222202
3394.8634813931426
4215.1267727037975
5020.655319647223
5803.742948861185
6563.26833138061
7241.835050938759
7574.3390756685185
7243.924275011768
6567.599728606582
5810.902885479505
5032.01245363529
4233.336509354541
3425.0228870719975
2630.730173376811
1949.7553407600758
1569.6054873718203
2571.6496210755004
2077.775099478793
788.8883822871701
1253.8134737140147
1834.6312890391137
2400.8086745955907
2967.4790318673868
3524.737521721763
4061.7109880622347
4579.896351216696
5071.351637834075
5365.153198254615
5073.080628549542
4583.604827872951
4067.97594945373
3534.6835762091982
2983.202595569523
2425.945682572152
1876.162734468882
1315.4987822785758
834.342351984134
2116.0972674748805
1586.7010312610082
732.764438220335
852.9285430980932
1137.3116980707484
1424.4229443485276
1709.8030223743835
1989.6478954149418
2248.8481084895766
2516.319664925712
2903.70505550233
3299.97087569718
2904.947652466126
2519.2187157668195
2253.7356591015478
1996.97116376309
1720.4662806071638
1440.0712396722222
1158.3725421513907
869.5721641720606
693.3993451547778
1588.6529180014338
1120.5593796102312
814.3739206356547
788.4770830966172
732.7162302004547
751.2052427189267
805.8685855921501
890.4858734882133
983.0332186353676
1076.3532239506465
1379.88124920006
2165.7542700885024
1379.014482210353
1074.9283093466559
982.1546469021115
889.3088841356589
802.9001730262812
743.5503755778047
716.2531518960791
755.1558821900722
776.9854808379041
1125.4452253799327
728.8068923286113
780.577810157217
1028.0671385072012
1206.7188638046332
1450.1973277756233
1728.9162399784057
2013.2299537193217
2309.2023493010624
2575.4070495360543
2593.685519740942
2815.4846230299067
2591.6025682672807
2572.8984777558057
2305.5616654823298
2007.3955228851617
1719.8617133998296
1436.175130113469
1186.2824026860426
1005.232573554736
761.5930235760711
735.4799641943385
504.65078962944517
728.4320804767156
1315.5271540909444
1877.1615176514422
2432.211985337969
2992.875804563172
3549.495318657955
4087.234424462343
4616.927006976381
4891.330046320126
4614.217670679461
4889.714515045155
4615.023571239415
4083.8528155315603
3544.3537295362203
2985.7690915359344
2423.4590477547895
1868.8297733668671
1311.6059995984326
725.0332414056348
507.40004731438876
516.6167722995979
838.5499713531666
1706.5684052986278
2600.502613885593
3432.0843713734994
4244.632461084641
5047.503662484421
5822.519807545061
6456.291864944961
7088.809441123253
7088.456760595188
7088.8427468906575
6455.420400535096
5820.133997034303
5043.611267458359
4239.483038457658
3427.335792483358
2600.3578705836994
1715.7015386063947
850.5541215330117
527.024393974162
2277.7893650119877
1438.1595583493984
1786.1103700264518
2483.151214211788
3257.632079595695
4025.727476366906
4789.582830849851
5583.247824339649
6476.614442088857
7425.127013573563
7939.035348501134
7423.254772757398
6472.54285831352
5576.389358675007
4778.99098843729
4009.968999822518
3234.567157341647
2450.5299426748275
1728.782937450741
1328.7740755842103
2092.1469461985134
1780.9503645131774
757.0203888523191
1242.5490410076725
1799.348837320224
2333.418215972087
2863.985162149146
3393.619510667697
3939.2197240163778
4554.166941614041
5251.411211859081
5706.741528921084
5249.218020740912
4549.328944310836
3931.2437701387807
3381.896338728318
2847.6496595421504
2311.497220529385
1770.3729889102074
1206.7420524589527
756.569880452757
1690.6686866598395
1282.1945734310382
654.0883962742927
859.0345459261715
1155.3118441891702
1424.5537801173914
1687.7606643640208
1948.3235603781238
2202.157785102237
2533.1334016699802
3116.1594421265804
3718.4512421781324
3114.6662198045133
2529.0826695094393
2195.260534473314
1938.7538497960752
1675.7604593554581
1410.7828331618032
1143.1247125581372
861.9786713798827
707.8191338014542
1259.5154284621476
925.6416480637308
756.9527505510015
762.5571765179562
750.4565902412778
775.3097232901383
818.9055873494925
883.9223263279066
961.4751548011774
1093.9925434580523
1424.1134081984358
2834.253851841598
1424.1527612434627
1096.0346395227427
964.463598731531
888.5020891444685
826.2531182566853
787.5783332341333
771.0486560650846
797.6695924462996
783.5183181636716
904.3058591375177
638.1876267648653
750.9099653526475
980.6841264503412
1142.9481823697502
1376.5267970845239
1649.3850330977539
1939.4242873647584
2272.6113429468724
2618.6728340824743
2612.30591850783
3168.5711493967983
2616.832087800073
2626.8645105697133
2285.202459270624
1956.6346058287954
1671.1171756060528
1402.5345896367621
1171.2288901389875
1002.5709229024463
754.989952949865
614.5604791427783
488.1564581398966
707.6684619253803
1248.3452107353114
1759.230938784278
2281.2673787476187
2823.1751663928844
3377.322050900364
3942.952332143276
4568.458144780456
4967.979866193616
4872.911062505315
4972.591327470454
4577.885923030424
3957.2145242048687
3396.3466199340864
2845.952185898432
2305.359927960634
1779.2419346182373
1256.9519151474658
703.4858045069724
464.5398507185165
511.21779249888345
801.2259477951142
1604.9933679891546
2427.7166188657834
3207.9000749729557
3986.781135588814
4773.625386134542
5564.641777838356
6249.030685898274
7222.0139776867045
7647.488135034813
7227.642963919436
6260.569132509675
5581.890923963319
4796.290843081337
4013.1795969335376
3233.877937068888
2445.694646476503
1609.3923710111517
798.6315163913375
495.56829263889597
2280.4396774958573
1437.1397424191903
1756.3384140202456
2433.067331912338
3194.4243372537285
3950.703860638634
4710.606385245289
5522.3919356091965
6467.728627934206
7490.422933146193
8047.27293721446
7486.922390321728
6460.156862837561
5509.649361521745
4690.71306353955
3920.214134790725
3147.8191147997677
2362.295568008073
1641.6783966054586
1247.804656575738
1989.04806385165
1755.2787127138422
748.2716337359889
1229.8692744496032
1774.1296926916812
2299.504318761265
2823.6480119981984
3353.4972512047143
3915.0650110395527
4568.051748950158
5315.1523682340885
5802.3724130019555
5311.4150808450495
4559.795507474606
3901.308098903403
3332.8190773212227
2793.711688746541
2256.899304970127
1714.1878964792259
1156.0737809360876
714.3017216833739
1606.7324491789414
1245.76064356764
615.0523206159276
849.0358224600174
1147.0791099095993
1414.5129741713429
1675.525116644222
1938.3234181587138
2204.6127488037087
2562.3444184570426
3176.9231366285326
3805.3108010604797
3174.4700969001474
2555.7444793907603
2193.2753550543976
1922.2780351916044
1654.6309869493416
1388.8441719500515
1121.4333786753039
843.3266923816143
685.5409099000298
1179.3346187221464
881.9537470193634
720.7892017298356
744.1615440103317
750.3295529893529
784.2299703705426
832.875720904912
904.4306627663451
997.3293558267741
1153.2557011170607
1387.1020970471595
2979.171825475763
1388.4281695840427
1157.2062054087232
1002.7040572541006
912.404060942259
845.8575418553289
805.8940545071371
785.8108805131858
801.4880757313658
764.5387141848474
825.2437813713901
596.4645124862748
718.9899805505423
946.7442150012748
1110.2549655677283
1344.262877699814
1618.2224225694404
1914.4009810494588
2264.2722546226923
2640.417713979119
2657.071707433578
3200.32323361939
2663.749808637059
2652.6896883618115
2283.255050299202
1941.0888680933997
1653.3154841008402
1388.3373025020653
1160.5561825077552
987.543441943693
730.8093134665322
543.1013663438277
457.5034164335715
669.1917721747375
1201.1724731985619
1706.0206329276616
2221.9746559566806
2760.600538290222
3319.2423563344096
3904.199101222766
4571.577793335447
5012.422077141921
4874.624123524815
5019.208817423863
4585.311933649033
3925.2564078650885
3347.9936678962654
2796.088334608108
2260.9911062075457
1740.0824514555063
1217.085966866353
664.3900733382245
412.79332806331223
463.871466101506
739.4064998581473
1536.766556029269
2350.5859616682296
3118.824878336166
3888.6655485940587
4675.743520999702
5488.728135663591
6223.3665471370205
7274.294030966041
7682.291521851773
7281.942449747942
6239.375273424697
5513.266486728568
4708.801088980877
3928.189620746319
3158.7279431496095
2378.6299035743436
1541.6490946252698
728.7994105353802
427.67076645269793
2277.7893650136452
1438.1595583507594
1786.1103700274582
2483.1512142122433
3257.6320795961738
4025.7274763665214
4789.582830850069
5583.247824340539
6476.614442089576
7425.127013574174
7939.035348502345
7423.254772758735
6472.542858314694
5576.389358675175
4778.990988436925
4009.9689998196545
3234.5671573407253
2450.5299426737824
1728.7829374497987
1328.7740755831169
2092.1469461969773
1780.9503645138466
757.0203888528483
1242.5490410083269
1799.3488373206415
2333.418215972604
2863.985162149044
3393.619510668078
3939.2197240169203
4554.166941614634
5251.411211859772
5706.741528921971
5249.218020741161
4549.328944312323
3931.2437701388462
3381.896338728778
2847.6496595405333
2311.49722052884
1770.3729889095948
1206.7420524582042
756.5698804521851
1690.66868665859
1282.19457343125
654.088396274197
859.0345459262588
1155.3118441893982
1424.5537801175244
1687.7606643643242
1948.32356037834
2202.1577851021752
2533.1334016709116
3116.159442127213
3718.451242178189
3114.666219804168
2529.082669511657
2195.2605344733433
1938.753849797785
1675.7604593550434
1410.782833161251
1143.124712557692
861.9786713791739
707.819133800992
1259.5154284610135
925.6416480640412
756.9527505509608
762.5571765177614
750.4565902409175
775.3097232900185
818.9055873497957
883.9223263278716
961.4751548008062
1093.9925434587672
1424.113408198724
2834.253851840624
1424.1527612436805
1096.0346395244212
964.463598731069
888.5020891463449
826.2531182571663
787.5783332337195
771.0486560644526
797.6695924456218
783.5183181630146
904.3058591365743
638.1876267650174
750.9099653528565
980.6841264504156
1142.9481823694816
1376.5267970843788
1649.3850330978873
1939.4242873642418
2272.6113429466095
2618.6728340823743
2612.3059185075963
3168.571149395638
2616.8320878000713
2626.8645105699934
2285.202459269925
1956.634605829454
1671.117175604239
1402.5345896361307
1171.2288901382635
1002.5709229017307
754.9899529493326
614.5604791419705
488.1564581400284
707.6684619255864
1248.3452107354633
1759.2309387842956
2281.267378747479
2823.1751663923405
3377.322050900222
3942.952332142339
4568.458144780817
4967.979866193755
4872.911062504744
4972.591327470673
4577.8859230306425
3957.2145242041956
3396.3466199339005
2845.9521858961307
2305.359927959646
1779.241934617178
1256.9519151466975
703.4858045065196
464.5398507180269
511.2177924989747
801.2259477952049
1604.9933679894218
2427.7166188660017
3207.900074972723
3986.781135587851
4773.625386134737
5564.641777837182
6249.030685898835
7222.013977687161
7647.488135034658
7227.642963919769
6260.569132510311
5581.890923962702
4796.290843080774
4013.1795969311743
3233.877937067449
2445.6946464751777
1609.3923710101737
798.6315163907287
495.5682926383254
2452.823057377483
1448.7634926799813
1852.886566858127
2580.494924223501
3394.8634813945855
4215.126772705331
5020.655319648082
5803.742948860079
6563.2683313800235
7241.835050940482
7574.339075669747
7243.9242750131625
6567.599728607715
5810.902885478658
5032.012453634155
4233.336509352754
3425.0228870696133
2630.730173373858
1949.7553407583766
1569.6054873699838
2571.649621071869
2077.7750994792887
788.8883822881631
1253.8134737153707
1834.631289040372
2400.8086745967344
2967.479031868473
3524.737521722587
4061.7109880618
4579.89635121668
5071.351637835952
5365.153198255757
5073.080628550719
4583.6048278733215
4067.9759494536206
3534.6835762080386
2983.202595568385
2425.945682570631
1876.1627344666283
1315.4987822778214
834.3423519832337
2116.0972674717973
1586.701031261214
732.764438219781
852.9285430985732
1137.3116980717384
1424.4229443495512
1709.8030223750995
1989.6478954157863
2248.848108489612
2516.319664926325
2903.7050555049746
3299.9708756988493
2904.9476524675206
2519.2187157658923
2253.7356591024445
1996.9711637622306
1720.4662806067554
1440.0712396714973
1158.37254215006
869.5721641716383
693.3993451539825
1588.6529179989793
1120.5593796104818
814.373920635184
788.4770830959346
732.7162302006021
751.2052427192422
805.8685855915805
890.4858734884974
983.0332186350018
1076.353223949486
1379.8812492025331
2165.754270090462
1379.014482211518
1074.9283093463357
982.1546469026329
889.3088841358897
802.9001730261015
743.5503755778888
716.2531518954016
755.1558821893527
776.9854808371174
1125.4452253779964
728.806892328878
780.5778101569402
1028.0671385068817
1206.718863804124
1450.1973277752463
1728.9162399775041
2013.229953718844
2309.2023492985722
2575.407049534915
2593.6855197413965
2815.484623030675
2591.602568268276
2572.8984777561527
2305.561665482632
2007.3955228839693
1719.8617133995683
1436.175130112652
1186.2824026843718
1005.2325735537784
761.5930235753032
735.479964192977
504.6507896297271
728.4320804768602
1315.5271540910774
1877.1615176511157
2432.211985337744
2992.8758045630975
3549.495318657308
4087.234424460082
4616.927006975211
4891.330046320049
4614.217670679481
4889.714515046043
4615.023571239286
4083.852815530873
3544.3537295347815
2985.7690915342714
2423.4590477529364
1868.8297733648205
1311.6059995972323
725.033241404858
507.400047313543
516.6167723000138
838.5499713535962
1706.5684052990837
2600.5026138854228
3432.084371373543
4244.632461085245
5047.503662483506
5822.519807542849
6456.29186494318
7088.809441123355
7088.456760596837
7088.842746891281
6455.420400533941
5820.13399703317
5043.611267456783
4239.483038454643
3427.3357924804704
2600.3578705811606
1715.7015386046846
850.5541215318715
527.0243939732733
3762.2298419374606
1725.5942348793187
1866.2581284559224
2582.988627891241
3446.2118965401282
4317.294749749632
5175.377636435453
5990.487909145345
6682.144134903797
7112.146563024215
7224.817638516239
7117.647516345835
6693.8468892646015
6010.367374987346
5206.927450117789
4365.778465942782
3518.3608432951023
2688.788880187499
2022.3127530338086
2031.6505524485556
4065.4108989215356
3193.977485500212
1004.7190531512298
1329.1473764642801
1903.8757780632411
2481.2360733444693
3065.891981903585
3647.0443049933792
4206.699710286361
4690.57412330732
4989.895733777011
5045.920712364005
4994.9246783875915
4701.275491253604
4224.745696356926
3675.110536759152
3107.57719571988
2540.6236224296745
1983.808653872976
1421.0280000139549
1062.1654873316065
3322.3718900650492
2354.6886488707482
1243.3136070756323
1225.4236997080486
1444.6643463181776
1678.288302315456
1928.8454463651665
2196.659828821432
2482.4384205487995
2753.6035141944444
2892.647003234054
2842.601243768227
2896.03128210237
2760.346831791975
2493.4012065541992
2212.9774112371665
1951.1730583890785
1705.0514093412546
1465.5746286260983
1215.7873949349196
1164.762294144224
2416.3195327547783
1607.0290749363028
1366.563859089841
1428.1502439306178
1348.6565961122765
1312.4942657296479
1282.5135083425448
1300.556262218064
1409.8911135356907
1641.8530334520203
1825.2556514731746
1727.6044654552543
1822.7892681467529
1638.2261310982963
1402.299286099808
1285.781190424526
1257.43486974061
1274.7572461382792
1294.5339327811032
1359.608288556101
1324.5375035803988
1646.578670680927
999.3235133767803
1230.8849821461665
1556.1482353215806
1658.8359730651077
1821.44185377975
2030.7616982181123
2254.0064210101286
2455.0499287112234
2647.916413092951
2980.4043630699794
3386.504832932557
2974.088249943294
2634.9470529350024
2433.470670513595
2222.5384638947885
1987.5237735181604
1765.047074203376
1593.3893852738154
1503.647404247964
1214.324316850275
1020.3149370853554
608.1297331166782
970.5111663166225
1626.1753468875
2157.890832158636
2670.705400888675
3195.8706740051225
3718.144173319275
4212.72331992492
4594.381625448216
4961.963890298801
5840.25822976231
4956.140190308912
4582.090531841156
4192.264210507195
3688.646017304204
3156.973855568755
2625.0661722730765
2115.266867145227
1602.5928115103056
966.6709723918307
614.4179813028959
524.9606623254278
935.1691174156496
1906.899882977029
2832.774158008474
3656.3409271706937
4457.951570358569
5249.007463520105
5998.823191009105
6722.3110647378435
7122.917203658451
7775.511011934932
7118.904409001688
6710.097288182562
5978.432255564258
5219.936625586229
4421.267780657197
3618.0811862813143
2806.9681273339556
1907.091193186161
947.4147854473672
537.4337966143954
SCALARS Statev float 1
LOOKUP_TABLE default
0.0
0.0
0.0
0.0
0.0
0.0
0.0
0.0
0.0
0.0
0.0
0.0
0.0
0.0
0.0
0.0
0.0
0.0
0.0
0.0
0.0
0.0
0.0
0.0
0.0
0.0
0.0
0.0
0.0
0.0
0.0
0.0
0.0
0.0
0.0
0.0
0.0
0.0
0.0
0.0
0.0
0.0
0.0
0.0
0.0
0.0
0.0
0.0
0.0
0.0
0.0
0.0
0.0
0.0
0.0
0.0
0.0
0.0
0.0
0.0
0.0
0.0
0.0
0.0
0.0
0.0
0.0
0.0
0.0
0.0
0.0
0.0
0.0
0.0
0.0
0.0
0.0
0.0
0.0
0.0
0.0
0.0
0.0
0.0
0.0
0.0
0.0
0.0
0.0
0.0
0.0
0.0
0.0
0.0
0.0
0.0
0.0
0.0
0.0
0.0
0.0
0.0
0.0
0.0
0.0
0.0
0.0
0.0
0.0
0.0
0.0
0.0
0.0
0.0
0.0
0.0
0.0
0.0
0.0
0.0
0.0
0.0
0.0
0.0
0.0
0.0
0.0
0.0
0.0
0.0
0.0
0.0
0.0
0.0
0.0
0.0
0.0
0.0
0.0
0.0
0.0
0.0
0.0
0.0
0.0
0.0
0.0
0.0
0.0
0.0
0.0
0.0
0.0
0.0
0.0
0.0
0.0
0.0
0.0
0.0
0.0
0.0
0.0
0.0
0.0
0.0
0.0
0.0
0.0
0.0
0.0
0.0
0.0
0.0
0.0
0.0
0.0
0.0
0.0
0.0
0.0
0.0
0.0
0.0
0.0
0.0
0.0
0.0
0.0
0.0
0.0
0.0
0.0
0.0
0.0
0.0
0.0
0.0
0.0
0.0
0.0
0.0
0.0
0.0
0.0
0.0
0.0
0.0
0.0
0.0
0.0
0.0
0.0
0.0
0.0
0.0
0.0
0.0
0.0
0.0
0.0
0.0
0.0
0.0
0.0
0.0
0.0
0.0
0.0
0.0
0.0
0.0
0.0
0.0
0.0
0.0
0.0
0.0
0.0
0.0
0.0
0.0
0.0
0.0
0.0
0.0
0.0
0.0
0.0
0.0
0.0
0.0
0.0
0.0
0.0
0.0
0.0
0.0
0.0
0.0
0.0
0.0
0.0
0.0
0.0
0.0
0.0
0.0
0.0
0.0
0.0
0.0
0.0
0.0
0.0
0.0
0.0
0.0
0.0
0.0
0.0
0.0
0.0
0.0
0.0
0.0
0.0
0.0
0.0
0.0
0.0
0.0
0.0
0.0
0.0
0.0
0.0
0.0
0.0
0.0
0.0
0.0
0.0
0.0
0.0
0.0
0.0
0.0
0.0
0.0
0.0
0.0
0.0
0.0
0.0
0.0
0.0
0.0
0.0
0.0
0.0
0.0
0.0
0.0
0.0
0.0
0.0
0.0
0.0
0.0
0.0
0.0
0.0
0.0
0.0
0.0
0.0
0.0
0.0
0.0
0.0
0.0
0.0
0.0
0.0
0.0
0.0
0.0
0.0
0.0
0.0
0.0
0.0
0.0
0.0
0.0
0.0
0.0
0.0
0.0
0.0
0.0
0.0
0.0
0.0
0.0
0.0
0.0
0.0
0.0
0.0
0.0
0.0
0.0
0.0
0.0
0.0
0.0
0.0
0.0
0.0
0.0
0.0
0.0
0.0
0.0
0.0
0.0
0.0
0.0
0.0
0.0
0.0
0.0
0.0
0.0
0.0
0.0
0.0
0.0
0.0
0.0
0.0
0.0
0.0
0.0
0.0
0.0
0.0
0.0
0.0
0.0
0.0
0.0
0.0
0.0
0.0
0.0
0.0
0.0
0.0
0.0
0.0
0.0
0.0
0.0
0.0
0.0
0.0
0.0
0.0
0.0
0.0
0.0
0.0
0.0
0.0
0.0
0.0
0.0
0.0
0.0
0.0
0.0
0.0
0.0
0.0
0.0
0.0
0.0
0.0
0.0
0.0
0.0
0.0
0.0
0.0
0.0
0.0
0.0
0.0
0.0
0.0
0.0
0.0
0.0
0.0
0.0
0.0
0.0
0.0
0.0
0.0
0.0
0.0
0.0
0.0
0.0
0.0
0.0
0.0
0.0
0.0
0.0
0.0
0.0
0.0
0.0
0.0
0.0
0.0
0.0
0.0
0.0
0.0
0.0
0.0
0.0
0.0
0.0
0.0
0.0
0.0
0.0
0.0
0.0
0.0
0.0
0.0
0.0
0.0
0.0
0.0
0.0
0.0
0.0
0.0
0.0
0.0
0.0
0.0
0.0
0.0
0.0
0.0
0.0
0.0
0.0
0.0
0.0
0.0
0.0
0.0
0.0
0.0
0.0
0.0
0.0
0.0
0.0
0.0
0.0
0.0
0.0
0.0
0.0
0.0
0.0
0.0
0.0
0.0
0.0
0.0
0.0
0.0
0.0
0.0
0.0
0.0
0.0
0.0
0.0
0.0
0.0
0.0
0.0
0.0
0.0
0.0
0.0
0.0
0.0
0.0
0.0
0.0
0.0
0.0
0.0
0.0
0.0
0.0
0.0
0.0
0.0
0.0
0.0
0.0
0.0
0.0
0.0
0.0
0.0
0.0
0.0
0.0
0.0
0.0
0.0
0.0
0.0
0.0
0.0
0.0
0.0
0.0
0.0
0.0
0.0
0.0
0.0
0.0
0.0
0.0
0.0
0.0
0.0
0.0
0.0
0.0
0.0
0.0
0.0
0.0
0.0
0.0
0.0
0.0
0.0
0.0
0.0
0.0
0.0
0.0
0.0
0.0
0.0
0.0
0.0
0.0
0.0
0.0
0.0
0.0
0.0
0.0
0.0
0.0
0.0
0.0
0.0
0.0
0.0
0.0
0.0
0.0
0.0
0.0
0.0
0.0
0.0
0.0
0.0
0.0
0.0
0.0
0.0
0.0
0.0
0.0
0.0
0.0
0.0
0.0
0.0
0.0
0.0
0.0
0.0
0.0
0.0
0.0
0.0
0.0
0.0
0.0
0.0
0.0
0.0
0.0
0.0
0.0
0.0
0.0
0.0
0.0
0.0
0.0
0.0
0.0
0.0
0.0
0.0
0.0
0.0
0.0
0.0
0.0
0.0
0.0
0.0
0.0
0.0
0.0
0.0
0.0
0.0
0.0
0.0
0.0
0.0
0.0
0.0
0.0
0.0
0.0
0.0
0.0
0.0
0.0
0.0
0.0
0.0
0.0
0.0
0.0
0.0
0.0
0.0
0.0
0.0
0.0
0.0
0.0
0.0
0.0
0.0
0.0
0.0
0.0
0.0
0.0
0.0
0.0
0.0
0.0
0.0
0.0
0.0
0.0
0.0
0.0
0.0
0.0
0.0
0.0
0.0
0.0
0.0
0.0
0.0
0.0
0.0
0.0
0.0
0.0
0.0
0.0
0.0
0.0
0.0
0.0
0.0
0.0
0.0
0.0
0.0
0.0
0.0
0.0
0.0
0.0
0.0
0.0
0.0
0.0
0.0
0.0
0.0
0.0
0.0
0.0
0.0
0.0
0.0
0.0
0.0
0.0
0.0
0.0
0.0
0.0
0.0
0.0
0.0
0.0
0.0
0.0
0.0
0.0
0.0
0.0
0.0
0.0
0.0
0.0
0.0
0.0
0.0
0.0
0.0
0.0
0.0
0.0
0.0
0.0
0.0
0.0
0.0
0.0
0.0
0.0
0.0
0.0
0.0
0.0
0.0
0.0
0.0
0.0
0.0
0.0
0.0
0.0
0.0
0.0
0.0
0.0
0.0
0.0
0.0
0.0
0.0
0.0
0.0
0.0
0.0
0.0
0.0
0.0
0.0
0.0
0.0
0.0
0.0
0.0
0.0
0.0
0.0
0.0
0.0
0.0
0.0
0.0
0.0
0.0
0.0
0.0
0.0
0.0
0.0
0.0
0.0
0.0
0.0
0.0
0.0
0.0
0.0
0.0
0.0
0.0
0.0
0.0
0.0
0.0
0.0
0.0
0.0
0.0
0.0
0.0
0.0
0.0
0.0
0.0
0.0
0.0
0.0
0.0
0.0
0.0
0.0
0.0
0.0
0.0
0.0
0.0
0.0
0.0
0.0
0.0
0.0
0.0
0.0
0.0
0.0
0.0
0.0
0.0
0.0
0.0
0.0
0.0
0.0
0.0
0.0
0.0
0.0
0.0
0.0
0.0
0.0
0.0
0.0
0.0
0.0
0.0
0.0
0.0
0.0
0.0
0.0
0.0
0.0
0.0
0.0
0.0
0.0
0.0
0.0
0.0
0.0
0.0
0.0
0.0
0.0
0.0
0.0
0.0
0.0
0.0
0.0
0.0
0.0
0.0
0.0
0.0
0.0
0.0
0.0
0.0
0.0
0.0
0.0
0.0
0.0
0.0
0.0
0.0
0.0
0.0
0.0
0.0
0.0
0.0
0.0
0.0
0.0
0.0
0.0
0.0
0.0
0.0
0.0
0.0
0.0
0.0
0.0
0.0
0.0
0.0
0.0
0.0
0.0
0.0
0.0
0.0
0.0
0.0
SCALARS Wm float 4
LOOKUP_TABLE default
92.17070222324575 92.17070222324575 0.0 0.0
16.678447802306724 16.678447802306724 0.0 0.0
19.87074793995045 19.87074793995045 0.0 0.0
41.599587512475736 41.599587512475736 0.0 0.0
73.3834090567894 73.3834090567894 0.0 0.0
115.6526502719983 115.6526502719983 0.0 0.0
166.53431410476867 166.53431410476867 0.0 0.0
223.45736079150024 223.45736079150024 0.0 0.0
278.2014221705124 278.2014221705124 0.0 0.0
316.0330669962256 316.0330669962256 0.0 0.0
328.2039252428474 328.2039252428474 0.0 0.0
316.511159161626 316.511159161626 0.0 0.0
279.1573114942758 279.1573114942758 0.0 0.0
224.91535186409826 224.91535186409826 0.0 0.0
168.53688044010534 168.53688044010534 0.0 0.0
118.21601557621034 118.21601557621034 0.0 0.0
76.43603748038947 76.43603748038947 0.0 0.0
44.94472106375446 44.94472106375446 0.0 0.0
23.628274218435944 23.628274218435944 0.0 0.0
26.329305262656337 26.329305262656337 0.0 0.0
88.30420448375085 88.30420448375085 0.0 0.0
68.42502412218714 68.42502412218714 0.0 0.0
2.070420981990637 2.070420981990637 0.0 0.0
9.2373943435882 9.2373943435882 0.0 0.0
19.745346559267194 19.745346559267194 0.0 0.0
33.89334074206982 33.89334074206982 0.0 0.0
52.27304826684383 52.27304826684383 0.0 0.0
74.50589823203201 74.50589823203201 0.0 0.0
99.58131626012906 99.58131626012906 0.0 0.0
124.19861147338496 124.19861147338496 0.0 0.0
141.67631891682157 141.67631891682157 0.0 0.0
147.36183591016658 147.36183591016658 0.0 0.0
141.98637447845542 141.98637447845542 0.0 0.0
124.81633610425034 124.81633610425034 0.0 0.0
100.51347170423917 100.51347170423917 0.0 0.0
75.75822710533868 75.75822710533868 0.0 0.0
53.8299839473269 53.8299839473269 0.0 0.0
35.67412489837362 35.67412489837362 0.0 0.0
21.61308940740006 21.61308940740006 0.0 0.0
10.563138991365415 10.563138991365415 0.0 0.0
2.3910184383175905 2.3910184383175905 0.0 0.0
71.86904788652515 71.86904788652515 0.0 0.0
38.065225913570885 38.065225913570885 0.0 0.0
5.653023077405375 5.653023077405375 0.0 0.0
7.938313300621051 7.938313300621051 0.0 0.0
10.33324767316514 10.33324767316514 0.0 0.0
14.295321854814455 14.295321854814455 0.0 0.0
18.87749674463765 18.87749674463765 0.0 0.0
24.499209734975416 24.499209734975416 0.0 0.0
31.45124466844977 31.45124466844977 0.0 0.0
39.012688870401846 39.012688870401846 0.0 0.0
44.04577370076504 44.04577370076504 0.0 0.0
45.47034331588244 45.47034331588244 0.0 0.0
44.173082791037544 44.173082791037544 0.0 0.0
39.25484660943833 39.25484660943833 0.0 0.0
31.801348730248527 31.801348730248527 0.0 0.0
24.944487162776323 24.944487162776323 0.0 0.0
19.385982012200483 19.385982012200483 0.0 0.0
14.805657865136153 14.805657865136153 0.0 0.0
10.633235564382916 10.633235564382916 0.0 0.0
7.7234493128181505 7.7234493128181505 0.0 0.0
4.783843363241235 4.783843363241235 0.0 0.0
39.717989555395775 39.717989555395775 0.0 0.0
17.558415268555216 17.558415268555216 0.0 0.0
8.201606753579926 8.201606753579926 0.0 0.0
10.22441464493318 10.22441464493318 0.0 0.0
9.360867825406327 9.360867825406327 0.0 0.0
9.239622667615643 9.239622667615643 0.0 0.0
9.102183162904286 9.102183162904286 0.0 0.0
8.941061903347455 8.941061903347455 0.0 0.0
9.24467787176152 9.24467787176152 0.0 0.0
10.685521261477373 10.685521261477373 0.0 0.0
12.276772334930568 12.276772334930568 0.0 0.0
13.31879607088162 13.31879607088162 0.0 0.0
12.23175257241811 12.23175257241811 0.0 0.0
10.577735552737497 10.577735552737497 0.0 0.0
9.065749183887181 9.065749183887181 0.0 0.0
8.677396476761155 8.677396476761155 0.0 0.0
8.73492140294992 8.73492140294992 0.0 0.0
8.729787714825525 8.729787714825525 0.0 0.0
8.640008095331826 8.640008095331826 0.0 0.0
9.399943776577048 9.399943776577048 0.0 0.0
7.521715237491677 7.521715237491677 0.0 0.0
18.48138986952742 18.48138986952742 0.0 0.0
6.66512764201881 6.66512764201881 0.0 0.0
7.542284554884967 7.542284554884967 0.0 0.0
12.081824897727262 12.081824897727262 0.0 0.0
14.229012335112074 14.229012335112074 0.0 0.0
17.156905563511913 17.156905563511913 0.0 0.0
21.2141638456057 21.2141638456057 0.0 0.0
26.01679727751398 26.01679727751398 0.0 0.0
30.69396880351269 30.69396880351269 0.0 0.0
35.949688393361235 35.949688393361235 0.0 0.0
44.194065479890554 44.194065479890554 0.0 0.0
49.47103804047114 49.47103804047114 0.0 0.0
43.9920520537926 43.9920520537926 0.0 0.0
35.53487283646283 35.53487283646283 0.0 0.0
30.066753383534888 30.066753383534888 0.0 0.0
25.18689378752621 25.18689378752621 0.0 0.0
20.208322437332438 20.208322437332438 0.0 0.0
16.027106321900423 16.027106321900423 0.0 0.0
13.114494680818765 13.114494680818765 0.0 0.0
11.298679285945157 11.298679285945157 0.0 0.0
7.205926837535251 7.205926837535251 0.0 0.0
7.012327939613335 7.012327939613335 0.0 0.0
2.3256192094894796 2.3256192094894796 0.0 0.0
5.7557597246300025 5.7557597246300025 0.0 0.0
14.301078679580309 14.301078679580309 0.0 0.0
25.594433558977677 25.594433558977677 0.0 0.0
39.65675680275627 39.65675680275627 0.0 0.0
57.0915451323244 57.0915451323244 0.0 0.0
77.5009538936665 77.5009538936665 0.0 0.0
99.75461627076322 99.75461627076322 0.0 0.0
116.91736736162649 116.91736736162649 0.0 0.0
142.59697340002316 142.59697340002316 0.0 0.0
155.11891071866984 155.11891071866984 0.0 0.0
142.238841379428 142.238841379428 0.0 0.0
116.21570365045525 116.21570365045525 0.0 0.0
98.70507453443682 98.70507453443682 0.0 0.0
76.18049284423385 76.18049284423385 0.0 0.0
55.61571902746723 55.61571902746723 0.0 0.0
38.23456887176086 38.23456887176086 0.0 0.0
24.529501791212063 24.529501791212063 0.0 0.0
13.809461419511475 13.809461419511475 0.0 0.0
5.627503495918601 5.627503495918601 0.0 0.0
2.4116924724925233 2.4116924724925233 0.0 0.0
1.4289794222967453 1.4289794222967453 0.0 0.0
6.212824500476236 6.212824500476236 0.0 0.0
22.55643408570924 22.55643408570924 0.0 0.0
49.287220564135005 49.287220564135005 0.0 0.0
82.5693163168188 82.5693163168188 0.0 0.0
123.1211888957529 123.1211888957529 0.0 0.0
170.82969243852926 170.82969243852926 0.0 0.0
224.20338287009997 224.20338287009997 0.0 0.0
278.71423951780673 278.71423951780673 0.0 0.0
330.8703593110927 330.8703593110927 0.0 0.0
284.49054989143247 284.49054989143247 0.0 0.0
330.408491927731 330.408491927731 0.0 0.0
277.6201498455833 277.6201498455833 0.0 0.0
222.59874858827314 222.59874858827314 0.0 0.0
168.86925578789345 168.86925578789345 0.0 0.0
121.06246682088963 121.06246682088963 0.0 0.0
80.84632097575316 80.84632097575316 0.0 0.0
48.3836333969913 48.3836333969913 0.0 0.0
22.47276388131894 22.47276388131894 0.0 0.0
6.325897833053471 6.325897833053471 0.0 0.0
1.5134380294105927 1.5134380294105927 0.0 0.0
34.30615754019287 34.30615754019287 0.0 0.0
14.154736573540236 14.154736573540236 0.0 0.0
21.02441020738795 21.02441020738795 0.0 0.0
42.360806308575064 42.360806308575064 0.0 0.0
72.62771833565769 72.62771833565769 0.0 0.0
112.1195864549747 112.1195864549747 0.0 0.0
159.4488654734956 159.4488654734956 0.0 0.0
214.12219951873584 214.12219951873584 0.0 0.0
275.60933649026384 275.60933649026384 0.0 0.0
336.0796810468695 336.0796810468695 0.0 0.0
365.1120232792794 365.1120232792794 0.0 0.0
336.24641093208703 336.24641093208703 0.0 0.0
275.9206912635401 275.9206912635401 0.0 0.0
214.57372272678293 214.57372272678293 0.0 0.0
160.06574851378934 160.06574851378934 0.0 0.0
112.9483407491565 112.9483407491565 0.0 0.0
73.73685336195352 73.73685336195352 0.0 0.0
43.7687323321831 43.7687323321831 0.0 0.0
23.01666563786865 23.01666563786865 0.0 0.0
16.907885963287 16.907885963287 0.0 0.0
33.43589142372102 33.43589142372102 0.0 0.0
27.510624245728035 27.510624245728035 0.0 0.0
2.393606434338484 2.393606434338484 0.0 0.0
8.872140514793315 8.872140514793315 0.0 0.0
19.308221419764813 19.308221419764813 0.0 0.0
33.058212358739226 33.058212358739226 0.0 0.0
50.705852843884955 50.705852843884955 0.0 0.0
71.84831161954108 71.84831161954108 0.0 0.0
95.92036396704499 95.92036396704499 0.0 0.0
122.51831693150659 122.51831693150659 0.0 0.0
149.2023406114308 149.2023406114308 0.0 0.0
163.3200378123914 163.3200378123914 0.0 0.0
149.31004500411933 149.31004500411933 0.0 0.0
122.72409745329487 122.72409745329487 0.0 0.0
96.22141357878581 96.22141357878581 0.0 0.0
72.25288087366543 72.25288087366543 0.0 0.0
51.23308417471274 51.23308417471274 0.0 0.0
33.72748917449858 33.72748917449858 0.0 0.0
20.162817477316967 20.162817477316967 0.0 0.0
9.712498556548768 9.712498556548768 0.0 0.0
2.7516884259939416 2.7516884259939416 0.0 0.0
27.680993610738792 27.680993610738792 0.0 0.0
16.529209105934285 16.529209105934285 0.0 0.0
1.9438056504554844 1.9438056504554844 0.0 0.0
3.796010599797233 3.796010599797233 0.0 0.0
6.402805164959484 6.402805164959484 0.0 0.0
10.280340807489686 10.280340807489686 0.0 0.0
14.896927156184317 14.896927156184317 0.0 0.0
20.33260255391948 20.33260255391948 0.0 0.0
26.20100170727452 26.20100170727452 0.0 0.0
33.129975189855344 33.129975189855344 0.0 0.0
43.68613825922486 43.68613825922486 0.0 0.0
53.15612212391773 53.15612212391773 0.0 0.0
43.73698172902549 43.73698172902549 0.0 0.0
33.23004996305184 33.23004996305184 0.0 0.0
26.346802536732252 26.346802536732252 0.0 0.0
20.519403657763075 20.519403657763075 0.0 0.0
15.11978010642251 15.11978010642251 0.0 0.0
10.53858665148415 10.53858665148415 0.0 0.0
6.663941628132697 6.663941628132697 0.0 0.0
3.871763153576335 3.871763153576335 0.0 0.0
1.7016980242361484 1.7016980242361484 0.0 0.0
16.38746294812704 16.38746294812704 0.0 0.0
8.218920921338075 8.218920921338075 0.0 0.0
2.7112214286808602 2.7112214286808602 0.0 0.0
3.3167213937807603 3.3167213937807603 0.0 0.0
2.861573939402586 2.861573939402586 0.0 0.0
2.97417794900037 2.97417794900037 0.0 0.0
3.2445608992209025 3.2445608992209025 0.0 0.0
3.6051185067870284 3.6051185067870284 0.0 0.0
3.824598181723779 3.824598181723779 0.0 0.0
4.034901527452348 4.034901527452348 0.0 0.0
7.335264091907177 7.335264091907177 0.0 0.0
17.9435645007878 17.9435645007878 0.0 0.0
7.324525854807767 7.324525854807767 0.0 0.0
4.029147511271291 4.029147511271291 0.0 0.0
3.822488133811394 3.822488133811394 0.0 0.0
3.5963466097821666 3.5963466097821666 0.0 0.0
3.2166206753886857 3.2166206753886857 0.0 0.0
2.910853440776484 2.910853440776484 0.0 0.0
2.7294393011162508 2.7294393011162508 0.0 0.0
3.0897502977392377 3.0897502977392377 0.0 0.0
2.4150241276277953 2.4150241276277953 0.0 0.0
8.273720251998324 8.273720251998324 0.0 0.0
3.40522037814417 3.40522037814417 0.0 0.0
2.91290048353941 2.91290048353941 0.0 0.0
5.202018586863692 5.202018586863692 0.0 0.0
7.333106383348538 7.333106383348538 0.0 0.0
10.627109884859468 10.627109884859468 0.0 0.0
15.211647437531104 15.211647437531104 0.0 0.0
20.7967489545216 20.7967489545216 0.0 0.0
27.7029192513691 27.7029192513691 0.0 0.0
34.240402643200106 34.240402643200106 0.0 0.0
36.13542587989094 36.13542587989094 0.0 0.0
54.7462417874882 54.7462417874882 0.0 0.0
36.060040303941754 36.060040303941754 0.0 0.0
34.1355978599641 34.1355978599641 0.0 0.0
27.56760100949518 27.56760100949518 0.0 0.0
20.626613142246494 20.626613142246494 0.0 0.0
15.005355953284996 15.005355953284996 0.0 0.0
10.384075674579718 10.384075674579718 0.0 0.0
7.070259216344143 7.070259216344143 0.0 0.0
4.978139421778834 4.978139421778834 0.0 0.0
2.7396788490994926 2.7396788490994926 0.0 0.0
3.4780746460285146 3.4780746460285146 0.0 0.0
1.4999344891991275 1.4999344891991275 0.0 0.0
3.1720824216174015 3.1720824216174015 0.0 0.0
9.540262291058367 9.540262291058367 0.0 0.0
19.86880883905463 19.86880883905463 0.0 0.0
33.81218245115235 33.81218245115235 0.0 0.0
51.509828290211665 51.509828290211665 0.0 0.0
72.75002926261949 72.75002926261949 0.0 0.0
96.64847403800158 96.64847403800158 0.0 0.0
125.63548622124607 125.63548622124607 0.0 0.0
133.42676278349109 133.42676278349109 0.0 0.0
172.14040733603395 172.14040733603395 0.0 0.0
133.29493688279993 133.29493688279993 0.0 0.0
125.44857697625628 125.44857697625628 0.0 0.0
96.39138763237888 96.39138763237888 0.0 0.0
72.44116951141919 72.44116951141919 0.0 0.0
51.183233950011505 51.183233950011505 0.0 0.0
33.5160884844698 33.5160884844698 0.0 0.0
19.666953417476172 19.666953417476172 0.0 0.0
9.462974827606052 9.462974827606052 0.0 0.0
3.130858434836035 3.130858434836035 0.0 0.0
1.5304497769382697 1.5304497769382697 0.0 0.0
1.392742550003509 1.392742550003509 0.0 0.0
4.918888925989342 4.918888925989342 0.0 0.0
18.5549722748018 18.5549722748018 0.0 0.0
42.432731709773876 42.432731709773876 0.0 0.0
74.04227481985957 74.04227481985957 0.0 0.0
113.47979748355604 113.47979748355604 0.0 0.0
161.0118296627203 161.0118296627203 0.0 0.0
214.00120885300873 214.00120885300873 0.0 0.0
267.03680366305605 267.03680366305605 0.0 0.0
303.0052471521666 303.0052471521666 0.0 0.0
454.6291502005838 454.6291502005838 0.0 0.0
302.9110165020164 302.9110165020164 0.0 0.0
266.7908895913253 266.7908895913253 0.0 0.0
213.62572750372703 213.62572750372703 0.0 0.0
160.56159700961038 160.56159700961038 0.0 0.0
113.0329003767488 113.0329003767488 0.0 0.0
73.7158366778753 73.7158366778753 0.0 0.0
42.3506561164519 42.3506561164519 0.0 0.0
18.690870725093628 18.690870725093628 0.0 0.0
5.039306957352701 5.039306957352701 0.0 0.0
1.452708873810371 1.452708873810371 0.0 0.0
24.327813204372916 24.327813204372916 0.0 0.0
15.81838401348401 15.81838401348401 0.0 0.0
20.155224257921912 20.155224257921912 0.0 0.0
39.87105539570814 39.87105539570814 0.0 0.0
68.06144321845251 68.06144321845251 0.0 0.0
104.41967337187913 104.41967337187913 0.0 0.0
148.9527239187249 148.9527239187249 0.0 0.0
204.87985195498726 204.87985195498726 0.0 0.0
279.20181349562654 279.20181349562654 0.0 0.0
366.7378992769934 366.7378992769934 0.0 0.0
413.2311002080525 413.2311002080525 0.0 0.0
366.5351843349411 366.5351843349411 0.0 0.0
278.81011076636383 278.81011076636383 0.0 0.0
204.3027708519549 204.3027708519549 0.0 0.0
148.1777866478949 148.1777866478949 0.0 0.0
103.43926980214322 103.43926980214322 0.0 0.0
66.88891139942977 66.88891139942977 0.0 0.0
38.58484163125844 38.58484163125844 0.0 0.0
18.60594923290836 18.60594923290836 0.0 0.0
12.332023348474717 12.332023348474717 0.0 0.0
24.006651092119103 24.006651092119103 0.0 0.0
20.584911141882056 20.584911141882056 0.0 0.0
2.664771897409822 2.664771897409822 0.0 0.0
8.889015334971978 8.889015334971978 0.0 0.0
18.86346166247576 18.86346166247576 0.0 0.0
31.67726097023184 31.67726097023184 0.0 0.0
48.00993129690158 48.00993129690158 0.0 0.0
67.93803088997879 67.93803088997879 0.0 0.0
92.484520883727 92.484520883727 0.0 0.0
124.4941748132452 124.4941748132452 0.0 0.0
163.0529509952024 163.0529509952024 0.0 0.0
185.78060273516772 185.78060273516772 0.0 0.0
162.91385182826065 162.91385182826065 0.0 0.0
124.22279531402229 124.22279531402229 0.0 0.0
92.09013787907492 92.09013787907492 0.0 0.0
67.42700284542187 67.42700284542187 0.0 0.0
47.3916359343553 47.3916359343553 0.0 0.0
30.980864363907177 30.980864363907177 0.0 0.0
18.111984253403037 18.111984253403037 0.0 0.0
8.273281122173454 8.273281122173454 0.0 0.0
2.4918925138741046 2.4918925138741046 0.0 0.0
19.913294064937723 19.913294064937723 0.0 0.0
11.43234674310154 11.43234674310154 0.0 0.0
1.8500971862319033 1.8500971862319033 0.0 0.0
3.8351951853512785 3.8351951853512785 0.0 0.0
6.777598715356592 6.777598715356592 0.0 0.0
10.501861883306054 10.501861883306054 0.0 0.0
14.79028101574206 14.79028101574206 0.0 0.0
19.807961156999607 19.807961156999607 0.0 0.0
25.48257710951879 25.48257710951879 0.0 0.0
34.10541107100096 34.10541107100096 0.0 0.0
50.49513612554076 50.49513612554076 0.0 0.0
66.49584468396829 66.49584468396829 0.0 0.0
50.4403004901522 50.4403004901522 0.0 0.0
33.98981048701435 33.98981048701435 0.0 0.0
25.312253473120204 25.312253473120204 0.0 0.0
19.594426575627608 19.594426575627608 0.0 0.0
14.551691603896584 14.551691603896584 0.0 0.0
10.260043915106511 10.260043915106511 0.0 0.0
6.594852092678428 6.594852092678428 0.0 0.0
3.8741895961142245 3.8741895961142245 0.0 0.0
2.088411335239702 2.088411335239702 0.0 0.0
11.484214374369689 11.484214374369689 0.0 0.0
5.814900423571655 5.814900423571655 0.0 0.0
2.485594470199914 2.485594470199914 0.0 0.0
3.1929086514425458 3.1929086514425458 0.0 0.0
3.053435025592136 3.053435025592136 0.0 0.0
3.2881849635439107 3.2881849635439107 0.0 0.0
3.55912166920947 3.55912166920947 0.0 0.0
3.8943618410366962 3.8943618410366962 0.0 0.0
4.049659098503672 4.049659098503672 0.0 0.0
4.739931951900232 4.739931951900232 0.0 0.0
10.727132601266158 10.727132601266158 0.0 0.0
30.25877373157505 30.25877373157505 0.0 0.0
10.76046186054178 10.76046186054178 0.0 0.0
4.786438527134584 4.786438527134584 0.0 0.0
4.107664094196633 4.107664094196633 0.0 0.0
3.9673544319872405 3.9673544319872405 0.0 0.0
3.6552975003853256 3.6552975003853256 0.0 0.0
3.4222066563744726 3.4222066563744726 0.0 0.0
3.256243124489594 3.256243124489594 0.0 0.0
3.4539617298345346 3.4539617298345346 0.0 0.0
2.6868437721141074 2.6868437721141074 0.0 0.0
5.710302599383895 5.710302599383895 0.0 0.0
2.572898875945683 2.572898875945683 0.0 0.0
2.726347281172614 2.726347281172614 0.0 0.0
4.82954421023016 4.82954421023016 0.0 0.0
6.673148412994366 6.673148412994366 0.0 0.0
9.66759131525967 9.66759131525967 0.0 0.0
13.961276219888914 13.961276219888914 0.0 0.0
19.470199236450238 19.470199236450238 0.0 0.0
27.09862711279025 27.09862711279025 0.0 0.0
35.26652847454431 35.26652847454431 0.0 0.0
37.97107290817874 37.97107290817874 0.0 0.0
75.55971456622834 75.55971456622834 0.0 0.0
38.091606365960516 38.091606365960516 0.0 0.0
35.475406543497265 35.475406543497265 0.0 0.0
27.381707233165372 27.381707233165372 0.0 0.0
19.807069301657606 19.807069301657606 0.0 0.0
14.333169157015822 14.333169157015822 0.0 0.0
10.051300789178534 10.051300789178534 0.0 0.0
7.026825811655519 7.026825811655519 0.0 0.0
5.06398631100189 5.06398631100189 0.0 0.0
2.7987561642698435 2.7987561642698435 0.0 0.0
2.445775530746769 2.445775530746769 0.0 0.0
1.3249940547260792 1.3249940547260792 0.0 0.0
2.9627876296541062 2.9627876296541062 0.0 0.0
8.617137408238838 8.617137408238838 0.0 0.0
17.620175725682905 17.620175725682905 0.0 0.0
30.120434324311653 30.120434324311653 0.0 0.0
46.54340754599772 46.54340754599772 0.0 0.0
67.08946184596192 67.08946184596192 0.0 0.0
91.84995642231009 91.84995642231009 0.0 0.0
126.58448449641753 126.58448449641753 0.0 0.0
136.6491040953485 136.6491040953485 0.0 0.0
219.89242680940563 219.89242680940563 0.0 0.0
136.85970439037814 136.85970439037814 0.0 0.0
126.97427812959774 126.97427812959774 0.0 0.0
92.37229470235769 92.37229470235769 0.0 0.0
67.69379887319236 67.69379887319236 0.0 0.0
47.15537658734832 47.15537658734832 0.0 0.0
30.64768360404129 30.64768360404129 0.0 0.0
17.964407085853146 17.964407085853146 0.0 0.0
8.745869940225642 8.745869940225642 0.0 0.0
2.9658347841577886 2.9658347841577886 0.0 0.0
1.2187740382963799 1.2187740382963799 0.0 0.0
1.3274439653199002 1.3274439653199002 0.0 0.0
4.489984096794883 4.489984096794883 0.0 0.0
16.55411745462871 16.55411745462871 0.0 0.0
37.61080495059133 37.61080495059133 0.0 0.0
65.9871306624582 65.9871306624582 0.0 0.0
102.40798963097986 102.40798963097986 0.0 0.0
147.9258181884126 147.9258181884126 0.0 0.0
201.2119409593936 201.2119409593936 0.0 0.0
260.08073805517 260.08073805517 0.0 0.0
317.07451116650384 317.07451116650384 0.0 0.0
591.6404057944184 591.6404057944184 0.0 0.0
317.39872320100284 317.39872320100284 0.0 0.0
260.70364573779347 260.70364573779347 0.0 0.0
202.04392176857039 202.04392176857039 0.0 0.0
148.86512886368706 148.86512886368706 0.0 0.0
103.31082178660107 103.31082178660107 0.0 0.0
66.66479373300945 66.66479373300945 0.0 0.0
37.904280900712436 37.904280900712436 0.0 0.0
16.55082445815201 16.55082445815201 0.0 0.0
4.446118888759938 4.446118888759938 0.0 0.0
1.2461146182909526 1.2461146182909526 0.0 0.0
23.660663351647415 23.660663351647415 0.0 0.0
16.274734644674826 16.274734644674826 0.0 0.0
19.839025394438252 19.839025394438252 0.0 0.0
38.823816855519034 38.823816855519034 0.0 0.0
66.37059740392466 66.37059740392466 0.0 0.0
102.16623592884768 102.16623592884768 0.0 0.0
146.77311755722116 146.77311755722116 0.0 0.0
204.73273417709223 204.73273417709223 0.0 0.0
284.73365211259 284.73365211259 0.0 0.0
381.1584772145637 381.1584772145637 0.0 0.0
432.7209324042715 432.7209324042715 0.0 0.0
380.7941571644931 380.7941571644931 0.0 0.0
284.04330497372734 284.04330497372734 0.0 0.0
203.73138075053936 203.73138075053936 0.0 0.0
145.43071100140676 145.43071100140676 0.0 0.0
100.43990682981578 100.43990682981578 0.0 0.0
64.25002014754143 64.25002014754143 0.0 0.0
36.40681661215659 36.40681661215659 0.0 0.0
17.112450868532957 17.112450868532957 0.0 0.0
11.025364017533532 11.025364017533532 0.0 0.0
22.081103919936655 22.081103919936655 0.0 0.0
19.536116403887252 19.536116403887252 0.0 0.0
2.670529640504471 2.670529640504471 0.0 0.0
8.838412324339256 8.838412324339256 0.0 0.0
18.53949700818634 18.53949700818634 0.0 0.0
31.08327048022826 31.08327048022826 0.0 0.0
47.20925573768694 47.20925573768694 0.0 0.0
67.23355410022747 67.23355410022747 0.0 0.0
92.72834349540368 92.72834349540368 0.0 0.0
127.16524027677968 127.16524027677968 0.0 0.0
169.33567073974558 169.33567073974558 0.0 0.0
194.1469382502731 194.1469382502731 0.0 0.0
169.09186546030614 169.09186546030614 0.0 0.0
126.6967799338269 126.6967799338269 0.0 0.0
92.05348205279563 92.05348205279563 0.0 0.0
66.35496735585465 66.35496735585465 0.0 0.0
46.1246080482755 46.1246080482755 0.0 0.0
29.814655098299284 29.814655098299284 0.0 0.0
17.136892036709007 17.136892036709007 0.0 0.0
7.66971580660589 7.66971580660589 0.0 0.0
2.183516589032332 2.183516589032332 0.0 0.0
18.480129891583616 18.480129891583616 0.0 0.0
10.902570966160097 10.902570966160097 0.0 0.0
1.6274517987487758 1.6274517987487758 0.0 0.0
3.754110538769053 3.754110538769053 0.0 0.0
6.747473413059751 6.747473413059751 0.0 0.0
10.458423029252689 10.458423029252689 0.0 0.0
14.739480503017665 14.739480503017665 0.0 0.0
19.845320323261674 19.845320323261674 0.0 0.0
25.884334192016034 25.884334192016034 0.0 0.0
35.38454384026009 35.38454384026009 0.0 0.0
53.084447761633804 53.084447761633804 0.0 0.0
69.9116771573325 69.9116771573325 0.0 0.0
52.98623239493725 52.98623239493725 0.0 0.0
35.185122829617775 35.185122829617775 0.0 0.0
25.594312454765447 25.594312454765447 0.0 0.0
19.48061481669079 19.48061481669079 0.0 0.0
14.323109648587659 14.323109648587659 0.0 0.0
10.018340979977706 10.018340979977706 0.0 0.0
6.387183684259467 6.387183684259467 0.0 0.0
3.7275446791488274 3.7275446791488274 0.0 0.0
1.9260496188625678 1.9260496188625678 0.0 0.0
10.499994219043668 10.499994219043668 0.0 0.0
5.4080191512194915 5.4080191512194915 0.0 0.0
2.2254971168759923 2.2254971168759923 0.0 0.0
3.011191488480851 3.011191488480851 0.0 0.0
2.9956475639704006 2.9956475639704006 0.0 0.0
3.315452544982556 3.315452544982556 0.0 0.0
3.649269211175143 3.649269211175143 0.0 0.0
4.076372580131382 4.076372580131382 0.0 0.0
4.421080409557306 4.421080409557306 0.0 0.0
5.4941067315662 5.4941067315662 0.0 0.0
11.91944651440575 11.91944651440575 0.0 0.0
32.14017564412157 32.14017564412157 0.0 0.0
11.970048973609098 11.970048973609098 0.0 0.0
5.567140199156288 5.567140199156288 0.0 0.0
4.511737513437112 4.511737513437112 0.0 0.0
4.19329687565198 4.19329687565198 0.0 0.0
3.810151643129942 3.810151643129942 0.0 0.0
3.544805686724348 3.544805686724348 0.0 0.0
3.334402696781213 3.334402696781213 0.0 0.0
3.425989430873433 3.425989430873433 0.0 0.0
2.5441003815289243 2.5441003815289243 0.0 0.0
5.004972789333962 5.004972789333962 0.0 0.0
2.286555400942802 2.286555400942802 0.0 0.0
2.479698742761071 2.479698742761071 0.0 0.0
4.491932266589684 4.491932266589684 0.0 0.0
6.3155431613295905 6.3155431613295905 0.0 0.0
9.281359448945512 9.281359448945512 0.0 0.0
13.550353453364488 13.550353453364488 0.0 0.0
19.14392696394838 19.14392696394838 0.0 0.0
27.152336311284582 27.152336311284582 0.0 0.0
36.12885136599308 36.12885136599308 0.0 0.0
39.33393418882551 39.33393418882551 0.0 0.0
78.88341618224308 78.88341618224308 0.0 0.0
39.529402261190334 39.529402261190334 0.0 0.0
36.46522983617834 36.46522983617834 0.0 0.0
27.60262097060045 27.60262097060045 0.0 0.0
19.685467580124737 19.685467580124737 0.0 0.0
14.16365965087647 14.16365965087647 0.0 0.0
9.933735423150743 9.933735423150743 0.0 0.0
6.929666138958913 6.929666138958913 0.0 0.0
4.903167198159936 4.903167198159936 0.0 0.0
2.622790929231484 2.622790929231484 0.0 0.0
1.9898968095542604 1.9898968095542604 0.0 0.0
1.1562621402787612 1.1562621402787612 0.0 0.0
2.6627844132427563 2.6627844132427563 0.0 0.0
8.017450075334954 8.017450075334954 0.0 0.0
16.71203388859429 16.71203388859429 0.0 0.0
28.873798831350022 28.873798831350022 0.0 0.0
45.02342182771361 45.02342182771361 0.0 0.0
65.63977751276819 65.63977751276819 0.0 0.0
91.29107427269552 91.29107427269552 0.0 0.0
128.62887725040554 128.62887725040554 0.0 0.0
140.07707797247343 140.07707797247343 0.0 0.0
228.40219017465114 228.40219017465114 0.0 0.0
140.41329199128012 140.41329199128012 0.0 0.0
129.23806662033178 129.23806662033178 0.0 0.0
92.10265870424075 92.10265870424075 0.0 0.0
66.58845227952634 66.58845227952634 0.0 0.0
46.003078967777874 46.003078967777874 0.0 0.0
29.743119867377114 29.743119867377114 0.0 0.0
17.30281410936503 17.30281410936503 0.0 0.0
8.24981979045938 8.24981979045938 0.0 0.0
2.680850704177431 2.680850704177431 0.0 0.0
0.9597569781724777 0.9597569781724777 0.0 0.0
1.0900944137082011 1.0900944137082011 0.0 0.0
3.958747687301594 3.958747687301594 0.0 0.0
15.437608940418642 15.437608940418642 0.0 0.0
35.78086877696388 35.78086877696388 0.0 0.0
63.35013841045104 63.35013841045104 0.0 0.0
99.08757667165193 99.08757667165193 0.0 0.0
144.62190465179432 144.62190465179432 0.0 0.0
199.82442666827043 199.82442666827043 0.0 0.0
263.97893972994046 263.97893972994046 0.0 0.0
326.06019845782043 326.06019845782043 0.0 0.0
616.7872643413842 616.7872643413842 0.0 0.0
326.53718064290683 326.53718064290683 0.0 0.0
264.9099189221174 264.9099189221174 0.0 0.0
201.08040554944455 201.08040554944455 0.0 0.0
146.06053151647126 146.06053151647126 0.0 0.0
100.49567789216279 100.49567789216279 0.0 0.0
64.43106044632513 64.43106044632513 0.0 0.0
36.262683410028586 36.262683410028586 0.0 0.0
15.418955762068194 15.418955762068194 0.0 0.0
3.8510309296692884 3.8510309296692884 0.0 0.0
0.9222302317767841 0.9222302317767841 0.0 0.0
24.32781320436691 24.32781320436691 0.0 0.0
15.818384013474489 15.818384013474489 0.0 0.0
20.15522425791481 20.15522425791481 0.0 0.0
39.87105539570221 39.87105539570221 0.0 0.0
68.06144321845066 68.06144321845066 0.0 0.0
104.41967337187727 104.41967337187727 0.0 0.0
148.95272391872078 148.95272391872078 0.0 0.0
204.8798519549764 204.8798519549764 0.0 0.0
279.20181349560823 279.20181349560823 0.0 0.0
366.7378992769772 366.7378992769772 0.0 0.0
413.23110020802795 413.23110020802795 0.0 0.0
366.53518433490694 366.53518433490694 0.0 0.0
278.81011076633735 278.81011076633735 0.0 0.0
204.3027708519543 204.3027708519543 0.0 0.0
148.17778664790902 148.17778664790902 0.0 0.0
103.43926980217434 103.43926980217434 0.0 0.0
66.88891139944681 66.88891139944681 0.0 0.0
38.58484163126734 38.58484163126734 0.0 0.0
18.605949232915012 18.605949232915012 0.0 0.0
12.332023348479419 12.332023348479419 0.0 0.0
24.006651092128948 24.006651092128948 0.0 0.0
20.584911141879832 20.584911141879832 0.0 0.0
2.6647718974086008 2.6647718974086008 0.0 0.0
8.889015334968635 8.889015334968635 0.0 0.0
18.86346166247321 18.86346166247321 0.0 0.0
31.67726097022876 31.67726097022876 0.0 0.0
48.00993129690127 48.00993129690127 0.0 0.0
67.93803088997458 67.93803088997458 0.0 0.0
92.48452088372099 92.48452088372099 0.0 0.0
124.49417481323432 124.49417481323432 0.0 0.0
163.05295099519208 163.05295099519208 0.0 0.0
185.78060273515192 185.78060273515192 0.0 0.0
162.9138518282484 162.9138518282484 0.0 0.0
124.22279531400704 124.22279531400704 0.0 0.0
92.09013787907374 92.09013787907374 0.0 0.0
67.42700284542178 67.42700284542178 0.0 0.0
47.391635934370555 47.391635934370555 0.0 0.0
30.980864363913305 30.980864363913305 0.0 0.0
18.111984253408206 18.111984253408206 0.0 0.0
8.273281122175865 8.273281122175865 0.0 0.0
2.49189251387542 2.49189251387542 0.0 0.0
19.913294064945372 19.913294064945372 0.0 0.0
11.432346743100618 11.432346743100618 0.0 0.0
1.8500971862320437 1.8500971862320437 0.0 0.0
3.8351951853505537 3.8351951853505537 0.0 0.0
6.777598715356128 6.777598715356128 0.0 0.0
10.501861883305535 10.501861883305535 0.0 0.0
14.790281015740453 14.790281015740453 0.0 0.0
19.807961156997088 19.807961156997088 0.0 0.0
25.482577109514068 25.482577109514068 0.0 0.0
34.105411070996716 34.105411070996716 0.0 0.0
50.495136125536575 50.495136125536575 0.0 0.0
66.49584468396232 66.49584468396232 0.0 0.0
50.4403004901551 50.4403004901551 0.0 0.0
33.98981048699909 33.98981048699909 0.0 0.0
25.31225347311943 25.31225347311943 0.0 0.0
19.594426575621938 19.594426575621938 0.0 0.0
14.551691603902196 14.551691603902196 0.0 0.0
10.260043915108971 10.260043915108971 0.0 0.0
6.59485209268003 6.59485209268003 0.0 0.0
3.8741895961163775 3.8741895961163775 0.0 0.0
2.088411335240618 2.088411335240618 0.0 0.0
11.484214374374677 11.484214374374677 0.0 0.0
5.814900423570818 5.814900423570818 0.0 0.0
2.4855944701998496 2.4855944701998496 0.0 0.0
3.1929086514425267 3.1929086514425267 0.0 0.0
3.053435025592328 3.053435025592328 0.0 0.0
3.288184963544845 3.288184963544845 0.0 0.0
3.559121669209351 3.559121669209351 0.0 0.0
3.8943618410345415 3.8943618410345415 0.0 0.0
4.049659098507685 4.049659098507685 0.0 0.0
4.739931951895998 4.739931951895998 0.0 0.0
10.727132601266296 10.727132601266296 0.0 0.0
30.258773731581766 30.258773731581766 0.0 0.0
10.76046186053875 10.76046186053875 0.0 0.0
4.786438527125694 4.786438527125694 0.0 0.0
4.1076640941996425 4.1076640941996425 0.0 0.0
3.9673544319783334 3.9673544319783334 0.0 0.0
3.6552975003882193 3.6552975003882193 0.0 0.0
3.4222066563749625 3.4222066563749625 0.0 0.0
3.2562431244914314 3.2562431244914314 0.0 0.0
3.4539617298361907 3.4539617298361907 0.0 0.0
2.6868437721152945 2.6868437721152945 0.0 0.0
5.710302599387161 5.710302599387161 0.0 0.0
2.572898875945228 2.572898875945228 0.0 0.0
2.726347281172527 2.726347281172527 0.0 0.0
4.829544210229909 4.829544210229909 0.0 0.0
6.673148412994951 6.673148412994951 0.0 0.0
9.667591315262333 9.667591315262333 0.0 0.0
13.96127621988954 13.96127621988954 0.0 0.0
19.4701992364504 19.4701992364504 0.0 0.0
27.09862711279221 27.09862711279221 0.0 0.0
35.266528474544295 35.266528474544295 0.0 0.0
37.971072908178826 37.971072908178826 0.0 0.0
75.5597145662332 75.5597145662332 0.0 0.0
38.09160636595658 38.09160636595658 0.0 0.0
35.47540654349443 35.47540654349443 0.0 0.0
27.381707233167496 27.381707233167496 0.0 0.0
19.807069301653442 19.807069301653442 0.0 0.0
14.333169157023766 14.333169157023766 0.0 0.0
10.05130078918153 10.05130078918153 0.0 0.0
7.026825811658065 7.026825811658065 0.0 0.0
5.063986311004214 5.063986311004214 0.0 0.0
2.7987561642709258 2.7987561642709258 0.0 0.0
2.4457755307485973 2.4457755307485973 0.0 0.0
1.3249940547258974 1.3249940547258974 0.0 0.0
2.9627876296539135 2.9627876296539135 0.0 0.0
8.61713740823827 8.61713740823827 0.0 0.0
17.620175725683772 17.620175725683772 0.0 0.0
30.1204343243135 30.1204343243135 0.0 0.0
46.543407546003614 46.543407546003614 0.0 0.0
67.08946184596283 67.08946184596283 0.0 0.0
91.84995642232077 91.84995642232077 0.0 0.0
126.58448449641183 126.58448449641183 0.0 0.0
136.64910409535435 136.64910409535435 0.0 0.0
219.89242680939185 219.89242680939185 0.0 0.0
136.859704390379 136.859704390379 0.0 0.0
126.97427812959047 126.97427812959047 0.0 0.0
92.37229470236383 92.37229470236383 0.0 0.0
67.69379887319565 67.69379887319565 0.0 0.0
47.15537658736322 47.15537658736322 0.0 0.0
30.647683604048776 30.647683604048776 0.0 0.0
17.964407085857975 17.964407085857975 0.0 0.0
8.745869940228758 8.745869940228758 0.0 0.0
2.965834784158949 2.965834784158949 0.0 0.0
1.218774038297168 1.218774038297168 0.0 0.0
1.3274439653197045 1.3274439653197045 0.0 0.0
4.489984096794595 4.489984096794595 0.0 0.0
16.55411745462748 16.55411745462748 0.0 0.0
37.610804950590875 37.610804950590875 0.0 0.0
65.98713066246296 65.98713066246296 0.0 0.0
102.40798963098919 102.40798963098919 0.0 0.0
147.9258181884211 147.9258181884211 0.0 0.0
201.211940959397 201.211940959397 0.0 0.0
260.08073805515716 260.08073805515716 0.0 0.0
317.0745111665083 317.0745111665083 0.0 0.0
591.6404057943888 591.6404057943888 0.0 0.0
317.3987232009955 317.3987232009955 0.0 0.0
260.7036457377765 260.7036457377765 0.0 0.0
202.04392176857627 202.04392176857627 0.0 0.0
148.86512886370448 148.86512886370448 0.0 0.0
103.31082178662993 103.31082178662993 0.0 0.0
66.66479373303237 66.66479373303237 0.0 0.0
37.90428090072437 37.90428090072437 0.0 0.0
16.550824458157194 16.550824458157194 0.0 0.0
4.446118888761623 4.446118888761623 0.0 0.0
1.2461146182917575 1.2461146182917575 0.0 0.0
34.306157540196956 34.306157540196956 0.0 0.0
14.154736573521456 14.154736573521456 0.0 0.0
21.024410207376217 21.024410207376217 0.0 0.0
42.360806308563916 42.360806308563916 0.0 0.0
72.62771833564015 72.62771833564015 0.0 0.0
112.11958645495444 112.11958645495444 0.0 0.0
159.44886547348406 159.44886547348406 0.0 0.0
214.12219951874812 214.12219951874812 0.0 0.0
275.6093364902684 275.6093364902684 0.0 0.0
336.07968104681623 336.07968104681623 0.0 0.0
365.1120232792328 365.1120232792328 0.0 0.0
336.2464109320387 336.2464109320387 0.0 0.0
275.92069126352317 275.92069126352317 0.0 0.0
214.57372272678776 214.57372272678776 0.0 0.0
160.06574851381626 160.06574851381626 0.0 0.0
112.9483407491858 112.9483407491858 0.0 0.0
73.73685336198656 73.73685336198656 0.0 0.0
43.768732332206376 43.768732332206376 0.0 0.0
23.016665637883037 23.016665637883037 0.0 0.0
16.907885963298163 16.907885963298163 0.0 0.0
33.43589142374728 33.43589142374728 0.0 0.0
27.510624245726476 27.510624245726476 0.0 0.0
2.393606434335635 2.393606434335635 0.0 0.0
8.872140514788025 8.872140514788025 0.0 0.0
19.30822141975792 19.30822141975792 0.0 0.0
33.05821235872963 33.05821235872963 0.0 0.0
50.70585284387302 50.70585284387302 0.0 0.0
71.84831161953358 71.84831161953358 0.0 0.0
95.9203639670503 95.9203639670503 0.0 0.0
122.51831693150226 122.51831693150226 0.0 0.0
149.20234061139888 149.20234061139888 0.0 0.0
163.32003781237174 163.32003781237174 0.0 0.0
149.3100450040964 149.3100450040964 0.0 0.0
122.72409745328353 122.72409745328353 0.0 0.0
96.22141357879022 96.22141357879022 0.0 0.0
72.25288087367525 72.25288087367525 0.0 0.0
51.23308417472478 51.23308417472478 0.0 0.0
33.72748917451155 33.72748917451155 0.0 0.0
20.162817477328144 20.162817477328144 0.0 0.0
9.712498556553689 9.712498556553689 0.0 0.0
2.7516884259951784 2.7516884259951784 0.0 0.0
27.680993610760332 27.680993610760332 0.0 0.0
16.52920910593375 16.52920910593375 0.0 0.0
1.9438056504562289 1.9438056504562289 0.0 0.0
3.7960105997966136 3.7960105997966136 0.0 0.0
6.402805164956481 6.402805164956481 0.0 0.0
10.280340807485452 10.280340807485452 0.0 0.0
14.896927156181121 14.896927156181121 0.0 0.0
20.332602553913254 20.332602553913254 0.0 0.0
26.201001707279392 26.201001707279392 0.0 0.0
33.12997518985155 33.12997518985155 0.0 0.0
43.686138259205364 43.686138259205364 0.0 0.0
53.15612212390437 53.15612212390437 0.0 0.0
43.736981729011994 43.736981729011994 0.0 0.0
33.230049963054206 33.230049963054206 0.0 0.0
26.346802536727278 26.346802536727278 0.0 0.0
20.519403657767107 20.519403657767107 0.0 0.0
15.119780106422683 15.119780106422683 0.0 0.0
10.53858665148689 10.53858665148689 0.0 0.0
6.6639416281376125 6.6639416281376125 0.0 0.0
3.871763153577064 3.871763153577064 0.0 0.0
1.7016980242369228 1.7016980242369228 0.0 0.0
16.38746294814096 16.38746294814096 0.0 0.0
8.218920921336787 8.218920921336787 0.0 0.0
2.7112214286822547 2.7112214286822547 0.0 0.0
3.3167213937820073 3.3167213937820073 0.0 0.0
2.861573939402916 2.861573939402916 0.0 0.0
2.974177948998524 2.974177948998524 0.0 0.0
3.24456089922147 3.24456089922147 0.0 0.0
3.6051185067868765 3.6051185067868765 0.0 0.0
3.8245981817276204 3.8245981817276204 0.0 0.0
4.0349015274552835 4.0349015274552835 0.0 0.0
7.335264091895327 7.335264091895327 0.0 0.0
17.94356450077358 17.94356450077358 0.0 0.0
7.324525854801179 7.324525854801179 0.0 0.0
4.029147511274063 4.029147511274063 0.0 0.0
3.8224881338067243 3.8224881338067243 0.0 0.0
3.5963466097821155 3.5963466097821155 0.0 0.0
3.2166206753882616 3.2166206753882616 0.0 0.0
2.910853440777855 2.910853440777855 0.0 0.0
2.729439301118527 2.729439301118527 0.0 0.0
3.0897502977404523 3.0897502977404523 0.0 0.0
2.415024127629284 2.415024127629284 0.0 0.0
8.2737202520058 8.2737202520058 0.0 0.0
3.4052203781433303 3.4052203781433303 0.0 0.0
2.912900483540289 2.912900483540289 0.0 0.0
5.202018586864538 5.202018586864538 0.0 0.0
7.333106383350992 7.333106383350992 0.0 0.0
10.627109884861005 10.627109884861005 0.0 0.0
15.211647437531457 15.211647437531457 0.0 0.0
20.796748954524254 20.796748954524254 0.0 0.0
27.702919251384184 27.702919251384184 0.0 0.0
34.240402643206174 34.240402643206174 0.0 0.0
36.135425879884025 36.135425879884025 0.0 0.0
54.7462417874721 54.7462417874721 0.0 0.0
36.060040303934876 36.060040303934876 0.0 0.0
34.13559785996727 34.13559785996727 0.0 0.0
27.56760100949217 27.56760100949217 0.0 0.0
20.626613142253998 20.626613142253998 0.0 0.0
15.005355953286786 15.005355953286786 0.0 0.0
10.384075674584205 10.384075674584205 0.0 0.0
7.070259216349192 7.070259216349192 0.0 0.0
4.978139421781276 4.978139421781276 0.0 0.0
2.7396788491010784 2.7396788491010784 0.0 0.0
3.4780746460318803 3.4780746460318803 0.0 0.0
1.4999344891987676 1.4999344891987676 0.0 0.0
3.1720824216172274 3.1720824216172274 0.0 0.0
9.54026229105869 9.54026229105869 0.0 0.0
19.86880883905606 19.86880883905606 0.0 0.0
33.812182451154484 33.812182451154484 0.0 0.0
51.50982829021072 51.50982829021072 0.0 0.0
72.7500292626311 72.7500292626311 0.0 0.0
96.6484740380208 96.6484740380208 0.0 0.0
125.63548622125793 125.63548622125793 0.0 0.0
133.4267627834937 133.4267627834937 0.0 0.0
172.14040733598148 172.14040733598148 0.0 0.0
133.2949368827944 133.2949368827944 0.0 0.0
125.44857697626074 125.44857697626074 0.0 0.0
96.39138763238418 96.39138763238418 0.0 0.0
72.44116951143478 72.44116951143478 0.0 0.0
51.18323395002783 51.18323395002783 0.0 0.0
33.51608848448569 33.51608848448569 0.0 0.0
19.66695341748721 19.66695341748721 0.0 0.0
9.462974827611246 9.462974827611246 0.0 0.0
3.130858434837727 3.130858434837727 0.0 0.0
1.5304497769397665 1.5304497769397665 0.0 0.0
1.3927425500029424 1.3927425500029424 0.0 0.0
4.9188889259880195 4.9188889259880195 0.0 0.0
18.554972274800882 18.554972274800882 0.0 0.0
42.43273170977517 42.43273170977517 0.0 0.0
74.04227481985919 74.04227481985919 0.0 0.0
113.47979748354969 113.47979748354969 0.0 0.0
161.01182966273655 161.01182966273655 0.0 0.0
214.00120885304602 214.00120885304602 0.0 0.0
267.0368036630964 267.0368036630964 0.0 0.0
303.00524715216596 303.00524715216596 0.0 0.0
454.62915020041163 454.62915020041163 0.0 0.0
302.91101650201745 302.91101650201745 0.0 0.0
266.7908895913491 266.7908895913491 0.0 0.0
213.62572750373675 213.62572750373675 0.0 0.0
160.56159700964275 160.56159700964275 0.0 0.0
113.0329003767841 113.0329003767841 0.0 0.0
73.7158366779132 73.7158366779132 0.0 0.0
42.35065611647409 42.35065611647409 0.0 0.0
18.690870725104066 18.690870725104066 0.0 0.0
5.039306957356177 5.039306957356177 0.0 0.0
1.4527088738119198 1.4527088738119198 0.0 0.0
92.17070222327905 92.17070222327905 0.0 0.0
16.678447802273958 16.678447802273958 0.0 0.0
19.87074793993331 19.87074793993331 0.0 0.0
41.599587512456225 41.599587512456225 0.0 0.0
73.38340905676714 73.38340905676714 0.0 0.0
115.65265027198349 115.65265027198349 0.0 0.0
166.53431410476796 166.53431410476796 0.0 0.0
223.45736079150703 223.45736079150703 0.0 0.0
278.20142217050136 278.20142217050136 0.0 0.0
316.03306699619316 316.03306699619316 0.0 0.0
328.2039252427744 328.2039252427744 0.0 0.0
316.5111591615734 316.5111591615734 0.0 0.0
279.1573114942588 279.1573114942588 0.0 0.0
224.91535186410582 224.91535186410582 0.0 0.0
168.53688044013057 168.53688044013057 0.0 0.0
118.21601557624892 118.21601557624892 0.0 0.0
76.43603748042543 76.43603748042543 0.0 0.0
44.94472106378732 44.94472106378732 0.0 0.0
23.62827421845352 23.62827421845352 0.0 0.0
26.32930526268007 26.32930526268007 0.0 0.0
88.30420448383987 88.30420448383987 0.0 0.0
68.42502412217897 68.42502412217897 0.0 0.0
2.07042098198852 2.07042098198852 0.0 0.0
9.237394343581864 9.237394343581864 0.0 0.0
19.745346559257804 19.745346559257804 0.0 0.0
33.89334074206059 33.89334074206059 0.0 0.0
52.273048266834515 52.273048266834515 0.0 0.0
74.50589823202844 74.50589823202844 0.0 0.0
99.58131626012928 99.58131626012928 0.0 0.0
124.19861147337932 124.19861147337932 0.0 0.0
141.67631891679937 141.67631891679937 0.0 0.0
147.36183591013219 147.36183591013219 0.0 0.0
141.98637447842148 141.98637447842148 0.0 0.0
124.8163361042446 124.8163361042446 0.0 0.0
100.51347170423908 100.51347170423908 0.0 0.0
75.7582271053497 75.7582271053497 0.0 0.0
53.829983947343955 53.829983947343955 0.0 0.0
35.67412489838843 35.67412489838843 0.0 0.0
21.61308940741287 21.61308940741287 0.0 0.0
10.563138991372636 10.563138991372636 0.0 0.0
2.3910184383189095 2.3910184383189095 0.0 0.0
71.86904788659706 71.86904788659706 0.0 0.0
38.06522591356268 38.06522591356268 0.0 0.0
5.653023077408031 5.653023077408031 0.0 0.0
7.938313300620695 7.938313300620695 0.0 0.0
10.333247673163667 10.333247673163667 0.0 0.0
14.295321854813448 14.295321854813448 0.0 0.0
18.877496744635646 18.877496744635646 0.0 0.0
24.49920973497551 24.49920973497551 0.0 0.0
31.451244668449622 31.451244668449622 0.0 0.0
39.01268887040338 39.01268887040338 0.0 0.0
44.04577370075072 44.04577370075072 0.0 0.0
45.470343315861385 45.470343315861385 0.0 0.0
44.173082791021024 44.173082791021024 0.0 0.0
39.254846609433486 39.254846609433486 0.0 0.0
31.801348730246072 31.801348730246072 0.0 0.0
24.944487162775882 24.944487162775882 0.0 0.0
19.385982012205037 19.385982012205037 0.0 0.0
14.805657865139828 14.805657865139828 0.0 0.0
10.63323556438894 10.63323556438894 0.0 0.0
7.723449312824195 7.723449312824195 0.0 0.0
4.7838433632449915 4.7838433632449915 0.0 0.0
39.71798955543413 39.71798955543413 0.0 0.0
17.558415268550096 17.558415268550096 0.0 0.0
8.20160675358066 8.20160675358066 0.0 0.0
10.224414644934814 10.224414644934814 0.0 0.0
9.360867825409413 9.360867825409413 0.0 0.0
9.239622667619873 9.239622667619873 0.0 0.0
9.10218316290899 9.10218316290899 0.0 0.0
8.941061903351159 8.941061903351159 0.0 0.0
9.244677871768705 9.244677871768705 0.0 0.0
10.685521261479725 10.685521261479725 0.0 0.0
12.276772334933698 12.276772334933698 0.0 0.0
13.318796070881477 13.318796070881477 0.0 0.0
12.231752572415399 12.231752572415399 0.0 0.0
10.577735552736817 10.577735552736817 0.0 0.0
9.065749183883488 9.065749183883488 0.0 0.0
8.677396476757874 8.677396476757874 0.0 0.0
8.734921402950317 8.734921402950317 0.0 0.0
8.729787714826324 8.729787714826324 0.0 0.0
8.640008095337835 8.640008095337835 0.0 0.0
9.399943776584982 9.399943776584982 0.0 0.0
7.521715237497724 7.521715237497724 0.0 0.0
18.481389869544884 18.481389869544884 0.0 0.0
6.665127642016494 6.665127642016494 0.0 0.0
7.542284554884318 7.542284554884318 0.0 0.0
12.081824897728547 12.081824897728547 0.0 0.0
14.22901233511488 14.22901233511488 0.0 0.0
17.156905563518734 17.156905563518734 0.0 0.0
21.214163845613715 21.214163845613715 0.0 0.0
26.016797277523963 26.016797277523963 0.0 0.0
30.6939688035206 30.6939688035206 0.0 0.0
35.94968839336489 35.94968839336489 0.0 0.0
44.19406547990946 44.19406547990946 0.0 0.0
49.471038040488615 49.471038040488615 0.0 0.0
43.99205205380492 43.99205205380492 0.0 0.0
35.534872836458376 35.534872836458376 0.0 0.0
30.066753383536096 30.066753383536096 0.0 0.0
25.186893787523935 25.186893787523935 0.0 0.0
20.208322437338435 20.208322437338435 0.0 0.0
16.027106321907056 16.027106321907056 0.0 0.0
13.114494680827493 13.114494680827493 0.0 0.0
11.298679285954636 11.298679285954636 0.0 0.0
7.205926837540891 7.205926837540891 0.0 0.0
7.012327939619886 7.012327939619886 0.0 0.0
2.3256192094882944 2.3256192094882944 0.0 0.0
5.7557597246294225 5.7557597246294225 0.0 0.0
14.301078679579863 14.301078679579863 0.0 0.0
25.594433558977638 25.594433558977638 0.0 0.0
39.65675680276101 39.65675680276101 0.0 0.0
57.09154513233448 57.09154513233448 0.0 0.0
77.50095389367813 77.50095389367813 0.0 0.0
99.75461627078604 99.75461627078604 0.0 0.0
116.91736736164053 116.91736736164053 0.0 0.0
142.59697340004223 142.59697340004223 0.0 0.0
155.11891071871068 155.11891071871068 0.0 0.0
142.23884137943833 142.23884137943833 0.0 0.0
116.21570365045348 116.21570365045348 0.0 0.0
98.70507453445032 98.70507453445032 0.0 0.0
76.1804928442445 76.1804928442445 0.0 0.0
55.61571902748551 55.61571902748551 0.0 0.0
38.23456887177708 38.23456887177708 0.0 0.0
24.529501791229006 24.529501791229006 0.0 0.0
13.80946141952104 13.80946141952104 0.0 0.0
5.6275034959229835 5.6275034959229835 0.0 0.0
2.411692472494486 2.411692472494486 0.0 0.0
1.4289794222956926 1.4289794222956926 0.0 0.0
6.212824500474868 6.212824500474868 0.0 0.0
22.556434085704524 22.556434085704524 0.0 0.0
49.287220564129925 49.287220564129925 0.0 0.0
82.56931631682218 82.56931631682218 0.0 0.0
123.12118889576101 123.12118889576101 0.0 0.0
170.82969243855314 170.82969243855314 0.0 0.0
224.20338287014437 224.20338287014437 0.0 0.0
278.7142395178515 278.7142395178515 0.0 0.0
330.8703593111228 330.8703593111228 0.0 0.0
284.49054989143553 284.49054989143553 0.0 0.0
330.4084919277384 330.4084919277384 0.0 0.0
277.6201498455973 277.6201498455973 0.0 0.0
222.59874858830497 222.59874858830497 0.0 0.0
168.86925578792744 168.86925578792744 0.0 0.0
121.06246682093807 121.06246682093807 0.0 0.0
80.84632097579261 80.84632097579261 0.0 0.0
48.38363339702452 48.38363339702452 0.0 0.0
22.472763881335762 22.472763881335762 0.0 0.0
6.325897833058167 6.325897833058167 0.0 0.0
1.5134380294118417 1.5134380294118417 0.0 0.0