# vtk DataFile Version 3.0
Some data
ASCII
DATASET UNSTRUCTURED_GRID
POINTS 1029 float
0.0 0.0 0.0
0.8 0.0 0.0
1.6 0.0 0.0
2.4000000000000004 0.0 0.0
3.2 0.0 0.0
4.0 0.0 0.0
4.800000000000001 0.0 0.0
5.6000000000000005 0.0 0.0
6.4 0.0 0.0
7.2 0.0 0.0
8.0 0.0 0.0
8.8 0.0 0.0
9.600000000000001 0.0 0.0
10.4 0.0 0.0
11.200000000000001 0.0 0.0
12.0 0.0 0.0
12.8 0.0 0.0
13.600000000000001 0.0 0.0
14.4 0.0 0.0
15.200000000000001 0.0 0.0
16.0 0.0 0.0
0.0 0.3333333333333333 0.0
0.8 0.3333333333333333 0.0
1.6 0.3333333333333333 0.0
2.4000000000000004 0.3333333333333333 0.0
3.2 0.3333333333333333 0.0
4.0 0.3333333333333333 0.0
4.800000000000001 0.3333333333333333 0.0
5.6000000000000005 0.3333333333333333 0.0
6.4 0.3333333333333333 0.0
7.2 0.3333333333333333 0.0
8.0 0.3333333333333333 0.0
8.8 0.3333333333333333 0.0
9.600000000000001 0.3333333333333333 0.0
10.4 0.3333333333333333 0.0
11.200000000000001 0.3333333333333333 0.0
12.0 0.3333333333333333 0.0
12.8 0.3333333333333333 0.0
13.600000000000001 0.3333333333333333 0.0
14.4 0.3333333333333333 0.0
15.200000000000001 0.3333333333333333 0.0
16.0 0.3333333333333333 0.0
0.0 0.6666666666666666 0.0
0.8 0.6666666666666666 0.0
1.6 0.6666666666666666 0.0
2.4000000000000004 0.6666666666666666 0.0
3.2 0.6666666666666666 0.0
4.0 0.6666666666666666 0.0
4.800000000000001 0.6666666666666666 0.0
5.6000000000000005 0.6666666666666666 0.0
6.4 0.6666666666666666 0.0
7.2 0.6666666666666666 0.0
8.0 0.6666666666666666 0.0
8.8 0.6666666666666666 0.0
9.600000000000001 0.6666666666666666 0.0
10.4 0.6666666666666666 0.0
11.200000000000001 0.6666666666666666 0.0
12.0 0.6666666666666666 0.0
12.8 0.6666666666666666 0.0
13.600000000000001 0.6666666666666666 0.0
14.4 0.6666666666666666 0.0
15.200000000000001 0.6666666666666666 0.0
16.0 0.6666666666666666 0.0
0.0 1.0 0.0
0.8 1.0 0.0
1.6 1.0 0.0
2.4000000000000004 1.0 0.0
3.2 1.0 0.0
4.0 1.0 0.0
4.800000000000001 1.0 0.0
5.6000000000000005 1.0 0.0
6.4 1.0 0.0
7.2 1.0 0.0
8.0 1.0 0.0
8.8 1.0 0.0
9.600000000000001 1.0 0.0
10.4 1.0 0.0
11.200000000000001 1.0 0.0
12.0 1.0 0.0
12.8 1.0 0.0
13.600000000000001 1.0 0.0
14.4 1.0 0.0
15.200000000000001 1.0 0.0
16.0 1.0 0.0
0.0 1.3333333333333333 0.0
0.8 1.3333333333333333 0.0
1.6 1.3333333333333333 0.0
2.4000000000000004 1.3333333333333333 0.0
3.2 1.3333333333333333 0.0
4.0 1.3333333333333333 0.0
4.800000000000001 1.3333333333333333 0.0
5.6000000000000005 1.3333333333333333 0.0
6.4 1.3333333333333333 0.0
7.2 1.3333333333333333 0.0
8.0 1.3333333333333333 0.0
8.8 1.3333333333333333 0.0
9.600000000000001 1.3333333333333333 0.0
10.4 1.3333333333333333 0.0
11.200000000000001 1.3333333333333333 0.0
12.0 1.3333333333333333 0.0
12.8 1.3333333333333333 0.0
13.600000000000001 1.3333333333333333 0.0
14.4 1.3333333333333333 0.0
15.200000000000001 1.3333333333333333 0.0
16.0 1.3333333333333333 0.0
0.0 1.6666666666666665 0.0
0.8 1.6666666666666665 0.0
1.6 1.6666666666666665 0.0
2.4000000000000004 1.6666666666666665 0.0
3.2 1.6666666666666665 0.0
4.0 1.6666666666666665 0.0
4.800000000000001 1.6666666666666665 0.0
5.6000000000000005 1.6666666666666665 0.0
6.4 1.6666666666666665 0.0
7.2 1.6666666666666665 0.0
8.0 1.6666666666666665 0.0
8.8 1.6666666666666665 0.0
9.600000000000001 1.6666666666666665 0.0
10.4 1.6666666666666665 0.0
11.200000000000001 1.6666666666666665 0.0
12.0 1.6666666666666665 0.0
12.8 1.6666666666666665 0.0
13.600000000000001 1.6666666666666665 0.0
14.4 1.6666666666666665 0.0
15.200000000000001 1.6666666666666665 0.0
16.0 1.6666666666666665 0.0
0.0 2.0 0.0
0.8 2.0 0.0
1.6 2.0 0.0
2.4000000000000004 2.0 0.0
3.2 2.0 0.0
4.0 2.0 0.0
4.800000000000001 2.0 0.0
5.6000000000000005 2.0 0.0
6.4 2.0 0.0
7.2 2.0 0.0
8.0 2.0 0.0
8.8 2.0 0.0
9.600000000000001 2.0 0.0
10.4 2.0 0.0
11.200000000000001 2.0 0.0
12.0 2.0 0.0
12.8 2.0 0.0
13.600000000000001 2.0 0.0
14.4 2.0 0.0
15.200000000000001 2.0 0.0
16.0 2.0 0.0
0.0 0.0 1.6666666666666667
0.8 0.0 1.6666666666666667
1.6 0.0 1.6666666666666667
2.4000000000000004 0.0 1.6666666666666667
3.2 0.0 1.6666666666666667
4.0 0.0 1.6666666666666667
4.800000000000001 0.0 1.6666666666666667
5.6000000000000005 0.0 1.6666666666666667
6.4 0.0 1.6666666666666667
7.2 0.0 1.6666666666666667
8.0 0.0 1.6666666666666667
8.8 0.0 1.6666666666666667
9.600000000000001 0.0 1.6666666666666667
10.4 0.0 1.6666666666666667
11.200000000000001 0.0 1.6666666666666667
12.0 0.0 1.6666666666666667
12.8 0.0 1.6666666666666667
13.600000000000001 0.0 1.6666666666666667
14.4 0.0 1.6666666666666667
15.200000000000001 0.0 1.6666666666666667
16.0 0.0 1.6666666666666667
0.0 0.3333333333333333 1.6666666666666667
0.8 0.3333333333333333 1.6666666666666667
1.6 0.3333333333333333 1.6666666666666667
2.4000000000000004 0.3333333333333333 1.6666666666666667
3.2 0.3333333333333333 1.6666666666666667
4.0 0.3333333333333333 1.6666666666666667
4.800000000000001 0.3333333333333333 1.6666666666666667
5.6000000000000005 0.3333333333333333 1.6666666666666667
6.4 0.3333333333333333 1.6666666666666667
7.2 0.3333333333333333 1.6666666666666667
8.0 0.3333333333333333 1.6666666666666667
8.8 0.3333333333333333 1.6666666666666667
9.600000000000001 0.3333333333333333 1.6666666666666667
10.4 0.3333333333333333 1.6666666666666667
11.200000000000001 0.3333333333333333 1.6666666666666667
12.0 0.3333333333333333 1.6666666666666667
12.8 0.3333333333333333 1.6666666666666667
13.600000000000001 0.3333333333333333 1.6666666666666667
14.4 0.3333333333333333 1.6666666666666667
15.200000000000001 0.3333333333333333 1.6666666666666667
16.0 0.3333333333333333 1.6666666666666667
0.0 0.6666666666666666 1.6666666666666667
0.8 0.6666666666666666 1.6666666666666667
1.6 0.6666666666666666 1.6666666666666667
2.4000000000000004 0.6666666666666666 1.6666666666666667
3.2 0.6666666666666666 1.6666666666666667
4.0 0.6666666666666666 1.6666666666666667
4.800000000000001 0.6666666666666666 1.6666666666666667
5.6000000000000005 0.6666666666666666 1.6666666666666667
6.4 0.6666666666666666 1.6666666666666667
7.2 0.6666666666666666 1.6666666666666667
8.0 0.6666666666666666 1.6666666666666667
8.8 0.6666666666666666 1.6666666666666667
9.600000000000001 0.6666666666666666 1.6666666666666667
10.4 0.6666666666666666 1.6666666666666667
11.200000000000001 0.6666666666666666 1.6666666666666667
12.0 0.6666666666666666 1.6666666666666667
12.8 0.6666666666666666 1.6666666666666667
13.600000000000001 0.6666666666666666 1.6666666666666667
14.4 0.6666666666666666 1.6666666666666667
15.200000000000001 0.6666666666666666 1.6666666666666667
16.0 0.6666666666666666 1.6666666666666667
0.0 1.0 1.6666666666666667
0.8 1.0 1.6666666666666667
1.6 1.0 1.6666666666666667
2.4000000000000004 1.0 1.6666666666666667
3.2 1.0 1.6666666666666667
4.0 1.0 1.6666666666666667
4.800000000000001 1.0 1.6666666666666667
5.6000000000000005 1.0 1.6666666666666667
6.4 1.0 1.6666666666666667
7.2 1.0 1.6666666666666667
8.0 1.0 1.6666666666666667
8.8 1.0 1.6666666666666667
9.600000000000001 1.0 1.6666666666666667
10.4 1.0 1.6666666666666667
11.200000000000001 1.0 1.6666666666666667
12.0 1.0 1.6666666666666667
12.8 1.0 1.6666666666666667
13.600000000000001 1.0 1.6666666666666667
14.4 1.0 1.6666666666666667
15.200000000000001 1.0 1.6666666666666667
16.0 1.0 1.6666666666666667
0.0 1.3333333333333333 1.6666666666666667
0.8 1.3333333333333333 1.6666666666666667
1.6 1.3333333333333333 1.6666666666666667
2.4000000000000004 1.3333333333333333 1.6666666666666667
3.2 1.3333333333333333 1.6666666666666667
4.0 1.3333333333333333 1.6666666666666667
4.800000000000001 1.3333333333333333 1.6666666666666667
5.6000000000000005 1.3333333333333333 1.6666666666666667
6.4 1.3333333333333333 1.6666666666666667
7.2 1.3333333333333333 1.6666666666666667
8.0 1.3333333333333333 1.6666666666666667
8.8 1.3333333333333333 1.6666666666666667
9.600000000000001 1.3333333333333333 1.6666666666666667
10.4 1.3333333333333333 1.6666666666666667
11.200000000000001 1.3333333333333333 1.6666666666666667
12.0 1.3333333333333333 1.6666666666666667
12.8 1.3333333333333333 1.6666666666666667
13.600000000000001 1.3333333333333333 1.6666666666666667
14.4 1.3333333333333333 1.6666666666666667
15.200000000000001 1.3333333333333333 1.6666666666666667
16.0 1.3333333333333333 1.6666666666666667
0.0 1.6666666666666665 1.6666666666666667
0.8 1.6666666666666665 1.6666666666666667
1.6 1.6666666666666665 1.6666666666666667
2.4000000000000004 1.6666666666666665 1.6666666666666667
3.2 1.6666666666666665 1.6666666666666667
4.0 1.6666666666666665 1.6666666666666667
4.800000000000001 1.6666666666666665 1.6666666666666667
5.6000000000000005 1.6666666666666665 1.6666666666666667
6.4 1.6666666666666665 1.6666666666666667
7.2 1.6666666666666665 1.6666666666666667
8.0 1.6666666666666665 1.6666666666666667
8.8 1.6666666666666665 1.6666666666666667
9.600000000000001 1.6666666666666665 1.6666666666666667
10.4 1.6666666666666665 1.6666666666666667
11.200000000000001 1.6666666666666665 1.6666666666666667
12.0 1.6666666666666665 1.6666666666666667
12.8 1.6666666666666665 1.6666666666666667
13.600000000000001 1.6666666666666665 1.6666666666666667
14.4 1.6666666666666665 1.6666666666666667
15.200000000000001 1.6666666666666665 1.6666666666666667
16.0 1.6666666666666665 1.6666666666666667
0.0 2.0 1.6666666666666667
0.8 2.0 1.6666666666666667
1.6 2.0 1.6666666666666667
2.4000000000000004 2.0 1.6666666666666667
3.2 2.0 1.6666666666666667
4.0 2.0 1.6666666666666667
4.800000000000001 2.0 1.6666666666666667
5.6000000000000005 2.0 1.6666666666666667
6.4 2.0 1.6666666666666667
7.2 2.0 1.6666666666666667
8.0 2.0 1.6666666666666667
8.8 2.0 1.6666666666666667
9.600000000000001 2.0 1.6666666666666667
10.4 2.0 1.6666666666666667
11.200000000000001 2.0 1.6666666666666667
12.0 2.0 1.6666666666666667
12.8 2.0 1.6666666666666667
13.600000000000001 2.0 1.6666666666666667
14.4 2.0 1.6666666666666667
15.200000000000001 2.0 1.6666666666666667
16.0 2.0 1.6666666666666667
0.0 0.0 3.3333333333333335
0.8 0.0 3.3333333333333335
1.6 0.0 3.3333333333333335
2.4000000000000004 0.0 3.3333333333333335
3.2 0.0 3.3333333333333335
4.0 0.0 3.3333333333333335
4.800000000000001 0.0 3.3333333333333335
5.6000000000000005 0.0 3.3333333333333335
6.4 0.0 3.3333333333333335
7.2 0.0 3.3333333333333335
8.0 0.0 3.3333333333333335
8.8 0.0 3.3333333333333335
9.600000000000001 0.0 3.3333333333333335
10.4 0.0 3.3333333333333335
11.200000000000001 0.0 3.3333333333333335
12.0 0.0 3.3333333333333335
12.8 0.0 3.3333333333333335
13.600000000000001 0.0 3.3333333333333335
14.4 0.0 3.3333333333333335
15.200000000000001 0.0 3.3333333333333335
16.0 0.0 3.3333333333333335
0.0 0.3333333333333333 3.3333333333333335
0.8 0.3333333333333333 3.3333333333333335
1.6 0.3333333333333333 3.3333333333333335
2.4000000000000004 0.3333333333333333 3.3333333333333335
3.2 0.3333333333333333 3.3333333333333335
4.0 0.3333333333333333 3.3333333333333335
4.800000000000001 0.3333333333333333 3.3333333333333335
5.6000000000000005 0.3333333333333333 3.3333333333333335
6.4 0.3333333333333333 3.3333333333333335
7.2 0.3333333333333333 3.3333333333333335
8.0 0.3333333333333333 3.3333333333333335
8.8 0.3333333333333333 3.3333333333333335
9.600000000000001 0.3333333333333333 3.3333333333333335
10.4 0.3333333333333333 3.3333333333333335
11.200000000000001 0.3333333333333333 3.3333333333333335
12.0 0.3333333333333333 3.3333333333333335
12.8 0.3333333333333333 3.3333333333333335
13.600000000000001 0.3333333333333333 3.3333333333333335
14.4 0.3333333333333333 3.3333333333333335
15.200000000000001 0.3333333333333333 3.3333333333333335
16.0 0.3333333333333333 3.3333333333333335
0.0 0.6666666666666666 3.3333333333333335
0.8 0.6666666666666666 3.3333333333333335
1.6 0.6666666666666666 3.3333333333333335
2.4000000000000004 0.6666666666666666 3.3333333333333335
3.2 0.6666666666666666 3.3333333333333335
4.0 0.6666666666666666 3.3333333333333335
4.800000000000001 0.6666666666666666 3.3333333333333335
5.6000000000000005 0.6666666666666666 3.3333333333333335
6.4 0.6666666666666666 3.3333333333333335
7.2 0.6666666666666666 3.3333333333333335
8.0 0.6666666666666666 3.3333333333333335
8.8 0.6666666666666666 3.3333333333333335
9.600000000000001 0.6666666666666666 3.3333333333333335
10.4 0.6666666666666666 3.3333333333333335
11.200000000000001 0.6666666666666666 3.3333333333333335
12.0 0.6666666666666666 3.3333333333333335
12.8 0.6666666666666666 3.3333333333333335
13.600000000000001 0.6666666666666666 3.3333333333333335
14.4 0.6666666666666666 3.3333333333333335
15.200000000000001 0.6666666666666666 3.3333333333333335
16.0 0.6666666666666666 3.3333333333333335
0.0 1.0 3.3333333333333335
0.8 1.0 3.3333333333333335
1.6 1.0 3.3333333333333335
2.4000000000000004 1.0 3.3333333333333335
3.2 1.0 3.3333333333333335
4.0 1.0 3.3333333333333335
4.800000000000001 1.0 3.3333333333333335
5.6000000000000005 1.0 3.3333333333333335
6.4 1.0 3.3333333333333335
7.2 1.0 3.3333333333333335
8.0 1.0 3.3333333333333335
8.8 1.0 3.3333333333333335
9.600000000000001 1.0 3.3333333333333335
10.4 1.0 3.3333333333333335
11.200000000000001 1.0 3.3333333333333335
12.0 1.0 3.3333333333333335
12.8 1.0 3.3333333333333335
13.600000000000001 1.0 3.3333333333333335
14.4 1.0 3.3333333333333335
15.200000000000001 1.0 3.3333333333333335
16.0 1.0 3.3333333333333335
0.0 1.3333333333333333 3.3333333333333335
0.8 1.3333333333333333 3.3333333333333335
1.6 1.3333333333333333 3.3333333333333335
2.4000000000000004 1.3333333333333333 3.3333333333333335
3.2 1.3333333333333333 3.3333333333333335
4.0 1.3333333333333333 3.3333333333333335
4.800000000000001 1.3333333333333333 3.3333333333333335
5.6000000000000005 1.3333333333333333 3.3333333333333335
6.4 1.3333333333333333 3.3333333333333335
7.2 1.3333333333333333 3.3333333333333335
8.0 1.3333333333333333 3.3333333333333335
8.8 1.3333333333333333 3.3333333333333335
9.600000000000001 1.3333333333333333 3.3333333333333335
10.4 1.3333333333333333 3.3333333333333335
11.200000000000001 1.3333333333333333 3.3333333333333335
12.0 1.3333333333333333 3.3333333333333335
12.8 1.3333333333333333 3.3333333333333335
13.600000000000001 1.3333333333333333 3.3333333333333335
14.4 1.3333333333333333 3.3333333333333335
15.200000000000001 1.3333333333333333 3.3333333333333335
16.0 1.3333333333333333 3.3333333333333335
0.0 1.6666666666666665 3.3333333333333335
0.8 1.6666666666666665 3.3333333333333335
1.6 1.6666666666666665 3.3333333333333335
2.4000000000000004 1.6666666666666665 3.3333333333333335
3.2 1.6666666666666665 3.3333333333333335
4.0 1.6666666666666665 3.3333333333333335
4.800000000000001 1.6666666666666665 3.3333333333333335
5.6000000000000005 1.6666666666666665 3.3333333333333335
6.4 1.6666666666666665 3.3333333333333335
7.2 1.6666666666666665 3.3333333333333335
8.0 1.6666666666666665 3.3333333333333335
8.8 1.6666666666666665 3.3333333333333335
9.600000000000001 1.6666666666666665 3.3333333333333335
10.4 1.6666666666666665 3.3333333333333335
11.200000000000001 1.6666666666666665 3.3333333333333335
12.0 1.6666666666666665 3.3333333333333335
12.8 1.6666666666666665 3.3333333333333335
13.600000000000001 1.6666666666666665 3.3333333333333335
14.4 1.6666666666666665 3.3333333333333335
15.200000000000001 1.6666666666666665 3.3333333333333335
16.0 1.6666666666666665 3.3333333333333335
0.0 2.0 3.3333333333333335
0.8 2.0 3.3333333333333335
1.6 2.0 3.3333333333333335
2.4000000000000004 2.0 3.3333333333333335
3.2 2.0 3.3333333333333335
4.0 2.0 3.3333333333333335
4.800000000000001 2.0 3.3333333333333335
5.6000000000000005 2.0 3.3333333333333335
6.4 2.0 3.3333333333333335
7.2 2.0 3.3333333333333335
8.0 2.0 3.3333333333333335
8.8 2.0 3.3333333333333335
9.600000000000001 2.0 3.3333333333333335
10.4 2.0 3.3333333333333335
11.200000000000001 2.0 3.3333333333333335
12.0 2.0 3.3333333333333335
12.8 2.0 3.3333333333333335
13.600000000000001 2.0 3.3333333333333335
14.4 2.0 3.3333333333333335
15.200000000000001 2.0 3.3333333333333335
16.0 2.0 3.3333333333333335
0.0 0.0 5.0
0.8 0.0 5.0
1.6 0.0 5.0
2.4000000000000004 0.0 5.0
3.2 0.0 5.0
4.0 0.0 5.0
4.800000000000001 0.0 5.0
5.6000000000000005 0.0 5.0
6.4 0.0 5.0
7.2 0.0 5.0
8.0 0.0 5.0
8.8 0.0 5.0
9.600000000000001 0.0 5.0
10.4 0.0 5.0
11.200000000000001 0.0 5.0
12.0 0.0 5.0
12.8 0.0 5.0
13.600000000000001 0.0 5.0
14.4 0.0 5.0
15.200000000000001 0.0 5.0
16.0 0.0 5.0
0.0 0.3333333333333333 5.0
0.8 0.3333333333333333 5.0
1.6 0.3333333333333333 5.0
2.4000000000000004 0.3333333333333333 5.0
3.2 0.3333333333333333 5.0
4.0 0.3333333333333333 5.0
4.800000000000001 0.3333333333333333 5.0
5.6000000000000005 0.3333333333333333 5.0
6.4 0.3333333333333333 5.0
7.2 0.3333333333333333 5.0
8.0 0.3333333333333333 5.0
8.8 0.3333333333333333 5.0
9.600000000000001 0.3333333333333333 5.0
10.4 0.3333333333333333 5.0
11.200000000000001 0.3333333333333333 5.0
12.0 0.3333333333333333 5.0
12.8 0.3333333333333333 5.0
13.600000000000001 0.3333333333333333 5.0
14.4 0.3333333333333333 5.0
15.200000000000001 0.3333333333333333 5.0
16.0 0.3333333333333333 5.0
0.0 0.6666666666666666 5.0
0.8 0.6666666666666666 5.0
1.6 0.6666666666666666 5.0
2.4000000000000004 0.6666666666666666 5.0
3.2 0.6666666666666666 5.0
4.0 0.6666666666666666 5.0
4.800000000000001 0.6666666666666666 5.0
5.6000000000000005 0.6666666666666666 5.0
6.4 0.6666666666666666 5.0
7.2 0.6666666666666666 5.0
8.0 0.6666666666666666 5.0
8.8 0.6666666666666666 5.0
9.600000000000001 0.6666666666666666 5.0
10.4 0.6666666666666666 5.0
11.200000000000001 0.6666666666666666 5.0
12.0 0.6666666666666666 5.0
12.8 0.6666666666666666 5.0
13.600000000000001 0.6666666666666666 5.0
14.4 0.6666666666666666 5.0
15.200000000000001 0.6666666666666666 5.0
16.0 0.6666666666666666 5.0
0.0 1.0 5.0
0.8 1.0 5.0
1.6 1.0 5.0
2.4000000000000004 1.0 5.0
3.2 1.0 5.0
4.0 1.0 5.0
4.800000000000001 1.0 5.0
5.6000000000000005 1.0 5.0
6.4 1.0 5.0
7.2 1.0 5.0
8.0 1.0 5.0
8.8 1.0 5.0
9.600000000000001 1.0 5.0
10.4 1.0 5.0
11.200000000000001 1.0 5.0
12.0 1.0 5.0
12.8 1.0 5.0
13.600000000000001 1.0 5.0
14.4 1.0 5.0
15.200000000000001 1.0 5.0
16.0 1.0 5.0
0.0 1.3333333333333333 5.0
0.8 1.3333333333333333 5.0
1.6 1.3333333333333333 5.0
2.4000000000000004 1.3333333333333333 5.0
3.2 1.3333333333333333 5.0
4.0 1.3333333333333333 5.0
4.800000000000001 1.3333333333333333 5.0
5.6000000000000005 1.3333333333333333 5.0
6.4 1.3333333333333333 5.0
7.2 1.3333333333333333 5.0
8.0 1.3333333333333333 5.0
8.8 1.3333333333333333 5.0
9.600000000000001 1.3333333333333333 5.0
10.4 1.3333333333333333 5.0
11.200000000000001 1.3333333333333333 5.0
12.0 1.3333333333333333 5.0
12.8 1.3333333333333333 5.0
13.600000000000001 1.3333333333333333 5.0
14.4 1.3333333333333333 5.0
15.200000000000001 1.3333333333333333 5.0
16.0 1.3333333333333333 5.0
0.0 1.6666666666666665 5.0
0.8 1.6666666666666665 5.0
1.6 1.6666666666666665 5.0
2.4000000000000004 1.6666666666666665 5.0
3.2 1.6666666666666665 5.0
4.0 1.6666666666666665 5.0
4.800000000000001 1.6666666666666665 5.0
5.6000000000000005 1.6666666666666665 5.0
6.4 1.6666666666666665 5.0
7.2 1.6666666666666665 5.0
8.0 1.6666666666666665 5.0
8.8 1.6666666666666665 5.0
9.600000000000001 1.6666666666666665 5.0
10.4 1.6666666666666665 5.0
11.200000000000001 1.6666666666666665 5.0
12.0 1.6666666666666665 5.0
12.8 1.6666666666666665 5.0
13.600000000000001 1.6666666666666665 5.0
14.4 1.6666666666666665 5.0
15.200000000000001 1.6666666666666665 5.0
16.0 1.6666666666666665 5.0
0.0 2.0 5.0
0.8 2.0 5.0
1.6 2.0 5.0
2.4000000000000004 2.0 5.0
3.2 2.0 5.0
4.0 2.0 5.0
4.800000000000001 2.0 5.0
5.6000000000000005 2.0 5.0
6.4 2.0 5.0
7.2 2.0 5.0
8.0 2.0 5.0
8.8 2.0 5.0
9.600000000000001 2.0 5.0
10.4 2.0 5.0
11.200000000000001 2.0 5.0
12.0 2.0 5.0
12.8 2.0 5.0
13.600000000000001 2.0 5.0
14.4 2.0 5.0
15.200000000000001 2.0 5.0
16.0 2.0 5.0
0.0 0.0 6.666666666666667
0.8 0.0 6.666666666666667
1.6 0.0 6.666666666666667
2.4000000000000004 0.0 6.666666666666667
3.2 0.0 6.666666666666667
4.0 0.0 6.666666666666667
4.800000000000001 0.0 6.666666666666667
5.6000000000000005 0.0 6.666666666666667
6.4 0.0 6.666666666666667
7.2 0.0 6.666666666666667
8.0 0.0 6.666666666666667
8.8 0.0 6.666666666666667
9.600000000000001 0.0 6.666666666666667
10.4 0.0 6.666666666666667
11.200000000000001 0.0 6.666666666666667
12.0 0.0 6.666666666666667
12.8 0.0 6.666666666666667
13.600000000000001 0.0 6.666666666666667
14.4 0.0 6.666666666666667
15.200000000000001 0.0 6.666666666666667
16.0 0.0 6.666666666666667
0.0 0.3333333333333333 6.666666666666667
0.8 0.3333333333333333 6.666666666666667
1.6 0.3333333333333333 6.666666666666667
2.4000000000000004 0.3333333333333333 6.666666666666667
3.2 0.3333333333333333 6.666666666666667
4.0 0.3333333333333333 6.666666666666667
4.800000000000001 0.3333333333333333 6.666666666666667
5.6000000000000005 0.3333333333333333 6.666666666666667
6.4 0.3333333333333333 6.666666666666667
7.2 0.3333333333333333 6.666666666666667
8.0 0.3333333333333333 6.666666666666667
8.8 0.3333333333333333 6.666666666666667
9.600000000000001 0.3333333333333333 6.666666666666667
10.4 0.3333333333333333 6.666666666666667
11.200000000000001 0.3333333333333333 6.666666666666667
12.0 0.3333333333333333 6.666666666666667
12.8 0.3333333333333333 6.666666666666667
13.600000000000001 0.3333333333333333 6.666666666666667
14.4 0.3333333333333333 6.666666666666667
15.200000000000001 0.3333333333333333 6.666666666666667
16.0 0.3333333333333333 6.666666666666667
0.0 0.6666666666666666 6.666666666666667
0.8 0.6666666666666666 6.666666666666667
1.6 0.6666666666666666 6.666666666666667
2.4000000000000004 0.6666666666666666 6.666666666666667
3.2 0.6666666666666666 6.666666666666667
4.0 0.6666666666666666 6.666666666666667
4.800000000000001 0.6666666666666666 6.666666666666667
5.6000000000000005 0.6666666666666666 6.666666666666667
6.4 0.6666666666666666 6.666666666666667
7.2 0.6666666666666666 6.666666666666667
8.0 0.6666666666666666 6.666666666666667
8.8 0.6666666666666666 6.666666666666667
9.600000000000001 0.6666666666666666 6.666666666666667
10.4 0.6666666666666666 6.666666666666667
11.200000000000001 0.6666666666666666 6.666666666666667
12.0 0.6666666666666666 6.666666666666667
12.8 0.6666666666666666 6.666666666666667
13.600000000000001 0.6666666666666666 6.666666666666667
14.4 0.6666666666666666 6.666666666666667
15.200000000000001 0.6666666666666666 6.666666666666667
16.0 0.6666666666666666 6.666666666666667
0.0 1.0 6.666666666666667
0.8 1.0 6.666666666666667
1.6 1.0 6.666666666666667
2.4000000000000004 1.0 6.666666666666667
3.2 1.0 6.666666666666667
4.0 1.0 6.666666666666667
4.800000000000001 1.0 6.666666666666667
5.6000000000000005 1.0 6.666666666666667
6.4 1.0 6.666666666666667
7.2 1.0 6.666666666666667
8.0 1.0 6.666666666666667
8.8 1.0 6.666666666666667
9.600000000000001 1.0 6.666666666666667
10.4 1.0 6.666666666666667
11.200000000000001 1.0 6.666666666666667
12.0 1.0 6.666666666666667
12.8 1.0 6.666666666666667
13.600000000000001 1.0 6.666666666666667
14.4 1.0 6.666666666666667
15.200000000000001 1.0 6.666666666666667
16.0 1.0 6.666666666666667
0.0 1.3333333333333333 6.666666666666667
0.8 1.3333333333333333 6.666666666666667
1.6 1.3333333333333333 6.666666666666667
2.4000000000000004 1.3333333333333333 6.666666666666667
3.2 1.3333333333333333 6.666666666666667
4.0 1.3333333333333333 6.666666666666667
4.800000000000001 1.3333333333333333 6.666666666666667
5.6000000000000005 1.3333333333333333 6.666666666666667
6.4 1.3333333333333333 6.666666666666667
7.2 1.3333333333333333 6.666666666666667
8.0 1.3333333333333333 6.666666666666667
8.8 1.3333333333333333 6.666666666666667
9.600000000000001 1.3333333333333333 6.666666666666667
10.4 1.3333333333333333 6.666666666666667
11.200000000000001 1.3333333333333333 6.666666666666667
12.0 1.3333333333333333 6.666666666666667
12.8 1.3333333333333333 6.666666666666667
13.600000000000001 1.3333333333333333 6.666666666666667
14.4 1.3333333333333333 6.666666666666667
15.200000000000001 1.3333333333333333 6.666666666666667
16.0 1.3333333333333333 6.666666666666667
0.0 1.6666666666666665 6.666666666666667
0.8 1.6666666666666665 6.666666666666667
1.6 1.6666666666666665 6.666666666666667
2.4000000000000004 1.6666666666666665 6.666666666666667
3.2 1.6666666666666665 6.666666666666667
4.0 1.6666666666666665 6.666666666666667
4.800000000000001 1.6666666666666665 6.666666666666667
5.6000000000000005 1.6666666666666665 6.666666666666667
6.4 1.6666666666666665 6.666666666666667
7.2 1.6666666666666665 6.666666666666667
8.0 1.6666666666666665 6.666666666666667
8.8 1.6666666666666665 6.666666666666667
9.600000000000001 1.6666666666666665 6.666666666666667
10.4 1.6666666666666665 6.666666666666667
11.200000000000001 1.6666666666666665 6.666666666666667
12.0 1.6666666666666665 6.666666666666667
12.8 1.6666666666666665 6.666666666666667
13.600000000000001 1.6666666666666665 6.666666666666667
14.4 1.6666666666666665 6.666666666666667
15.200000000000001 1.6666666666666665 6.666666666666667
16.0 1.6666666666666665 6.666666666666667
0.0 2.0 6.666666666666667
0.8 2.0 6.666666666666667
1.6 2.0 6.666666666666667
2.4000000000000004 2.0 6.666666666666667
3.2 2.0 6.666666666666667
4.0 2.0 6.666666666666667
4.800000000000001 2.0 6.666666666666667
5.6000000000000005 2.0 6.666666666666667
6.4 2.0 6.666666666666667
7.2 2.0 6.666666666666667
8.0 2.0 6.666666666666667
8.8 2.0 6.666666666666667
9.600000000000001 2.0 6.666666666666667
10.4 2.0 6.666666666666667
11.200000000000001 2.0 6.666666666666667
12.0 2.0 6.666666666666667
12.8 2.0 6.666666666666667
13.600000000000001 2.0 6.666666666666667
14.4 2.0 6.666666666666667
15.200000000000001 2.0 6.666666666666667
16.0 2.0 6.666666666666667
0.0 0.0 8.333333333333334
0.8 0.0 8.333333333333334
1.6 0.0 8.333333333333334
2.4000000000000004 0.0 8.333333333333334
3.2 0.0 8.333333333333334
4.0 0.0 8.333333333333334
4.800000000000001 0.0 8.333333333333334
5.6000000000000005 0.0 8.333333333333334
6.4 0.0 8.333333333333334
7.2 0.0 8.333333333333334
8.0 0.0 8.333333333333334
8.8 0.0 8.333333333333334
9.600000000000001 0.0 8.333333333333334
10.4 0.0 8.333333333333334
11.200000000000001 0.0 8.333333333333334
12.0 0.0 8.333333333333334
12.8 0.0 8.333333333333334
13.600000000000001 0.0 8.333333333333334
14.4 0.0 8.333333333333334
15.200000000000001 0.0 8.333333333333334
16.0 0.0 8.333333333333334
0.0 0.3333333333333333 8.333333333333334
0.8 0.3333333333333333 8.333333333333334
1.6 0.3333333333333333 8.333333333333334
2.4000000000000004 0.3333333333333333 8.333333333333334
3.2 0.3333333333333333 8.333333333333334
4.0 0.3333333333333333 8.333333333333334
4.800000000000001 0.3333333333333333 8.333333333333334
5.6000000000000005 0.3333333333333333 8.333333333333334
6.4 0.3333333333333333 8.333333333333334
7.2 0.3333333333333333 8.333333333333334
8.0 0.3333333333333333 8.333333333333334
8.8 0.3333333333333333 8.333333333333334
9.600000000000001 0.3333333333333333 8.333333333333334
10.4 0.3333333333333333 8.333333333333334
11.200000000000001 0.3333333333333333 8.333333333333334
12.0 0.3333333333333333 8.333333333333334
12.8 0.3333333333333333 8.333333333333334
13.600000000000001 0.3333333333333333 8.333333333333334
14.4 0.3333333333333333 8.333333333333334
15.200000000000001 0.3333333333333333 8.333333333333334
16.0 0.3333333333333333 8.333333333333334
0.0 0.6666666666666666 8.333333333333334
0.8 0.6666666666666666 8.333333333333334
1.6 0.6666666666666666 8.333333333333334
2.4000000000000004 0.6666666666666666 8.333333333333334
3.2 0.6666666666666666 8.333333333333334
4.0 0.6666666666666666 8.333333333333334
4.800000000000001 0.6666666666666666 8.333333333333334
5.6000000000000005 0.6666666666666666 8.333333333333334
6.4 0.6666666666666666 8.333333333333334
7.2 0.6666666666666666 8.333333333333334
8.0 0.6666666666666666 8.333333333333334
8.8 0.6666666666666666 8.333333333333334
9.600000000000001 0.6666666666666666 8.333333333333334
10.4 0.6666666666666666 8.333333333333334
11.200000000000001 0.6666666666666666 8.333333333333334
12.0 0.6666666666666666 8.333333333333334
12.8 0.6666666666666666 8.333333333333334
13.600000000000001 0.6666666666666666 8.333333333333334
14.4 0.6666666666666666 8.333333333333334
15.200000000000001 0.6666666666666666 8.333333333333334
16.0 0.6666666666666666 8.333333333333334
0.0 1.0 8.333333333333334
0.8 1.0 8.333333333333334
1.6 1.0 8.333333333333334
2.4000000000000004 1.0 8.333333333333334
3.2 1.0 8.333333333333334
4.0 1.0 8.333333333333334
4.800000000000001 1.0 8.333333333333334
5.6000000000000005 1.0 8.333333333333334
6.4 1.0 8.333333333333334
7.2 1.0 8.333333333333334
8.0 1.0 8.333333333333334
8.8 1.0 8.333333333333334
9.600000000000001 1.0 8.333333333333334
10.4 1.0 8.333333333333334
11.200000000000001 1.0 8.333333333333334
12.0 1.0 8.333333333333334
12.8 1.0 8.333333333333334
13.600000000000001 1.0 8.333333333333334
14.4 1.0 8.333333333333334
15.200000000000001 1.0 8.333333333333334
16.0 1.0 8.333333333333334
0.0 1.3333333333333333 8.333333333333334
0.8 1.3333333333333333 8.333333333333334
1.6 1.3333333333333333 8.333333333333334
2.4000000000000004 1.3333333333333333 8.333333333333334
3.2 1.3333333333333333 8.333333333333334
4.0 1.3333333333333333 8.333333333333334
4.800000000000001 1.3333333333333333 8.333333333333334
5.6000000000000005 1.3333333333333333 8.333333333333334
6.4 1.3333333333333333 8.333333333333334
7.2 1.3333333333333333 8.333333333333334
8.0 1.3333333333333333 8.333333333333334
8.8 1.3333333333333333 8.333333333333334
9.600000000000001 1.3333333333333333 8.333333333333334
10.4 1.3333333333333333 8.333333333333334
11.200000000000001 1.3333333333333333 8.333333333333334
12.0 1.3333333333333333 8.333333333333334
12.8 1.3333333333333333 8.333333333333334
13.600000000000001 1.3333333333333333 8.333333333333334
14.4 1.3333333333333333 8.333333333333334
15.200000000000001 1.3333333333333333 8.333333333333334
16.0 1.3333333333333333 8.333333333333334
0.0 1.6666666666666665 8.333333333333334
0.8 1.6666666666666665 8.333333333333334
1.6 1.6666666666666665 8.333333333333334
2.4000000000000004 1.6666666666666665 8.333333333333334
3.2 1.6666666666666665 8.333333333333334
4.0 1.6666666666666665 8.333333333333334
4.800000000000001 1.6666666666666665 8.333333333333334
5.6000000000000005 1.6666666666666665 8.333333333333334
6.4 1.6666666666666665 8.333333333333334
7.2 1.6666666666666665 8.333333333333334
8.0 1.6666666666666665 8.333333333333334
8.8 1.6666666666666665 8.333333333333334
9.600000000000001 1.6666666666666665 8.333333333333334
10.4 1.6666666666666665 8.333333333333334
11.200000000000001 1.6666666666666665 8.333333333333334
12.0 1.6666666666666665 8.333333333333334
12.8 1.6666666666666665 8.333333333333334
13.600000000000001 1.6666666666666665 8.333333333333334
14.4 1.6666666666666665 8.333333333333334
15.200000000000001 1.6666666666666665 8.333333333333334
16.0 1.6666666666666665 8.333333333333334
0.0 2.0 8.333333333333334
0.8 2.0 8.333333333333334
1.6 2.0 8.333333333333334
2.4000000000000004 2.0 8.333333333333334
3.2 2.0 8.333333333333334
4.0 2.0 8.333333333333334
4.800000000000001 2.0 8.333333333333334
5.6000000000000005 2.0 8.333333333333334
6.4 2.0 8.333333333333334
7.2 2.0 8.333333333333334
8.0 2.0 8.333333333333334
8.8 2.0 8.333333333333334
9.600000000000001 2.0 8.333333333333334
10.4 2.0 8.333333333333334
11.200000000000001 2.0 8.333333333333334
12.0 2.0 8.333333333333334
12.8 2.0 8.333333333333334
13.600000000000001 2.0 8.333333333333334
14.4 2.0 8.333333333333334
15.200000000000001 2.0 8.333333333333334
16.0 2.0 8.333333333333334
0.0 0.0 10.0
0.8 0.0 10.0
1.6 0.0 10.0
2.4000000000000004 0.0 10.0
3.2 0.0 10.0
4.0 0.0 10.0
4.800000000000001 0.0 10.0
5.6000000000000005 0.0 10.0
6.4 0.0 10.0
7.2 0.0 10.0
8.0 0.0 10.0
8.8 0.0 10.0
9.600000000000001 0.0 10.0
10.4 0.0 10.0
11.200000000000001 0.0 10.0
12.0 0.0 10.0
12.8 0.0 10.0
13.600000000000001 0.0 10.0
14.4 0.0 10.0
15.200000000000001 0.0 10.0
16.0 0.0 10.0
0.0 0.3333333333333333 10.0
0.8 0.3333333333333333 10.0
1.6 0.3333333333333333 10.0
2.4000000000000004 0.3333333333333333 10.0
3.2 0.3333333333333333 10.0
4.0 0.3333333333333333 10.0
4.800000000000001 0.3333333333333333 10.0
5.6000000000000005 0.3333333333333333 10.0
6.4 0.3333333333333333 10.0
7.2 0.3333333333333333 10.0
8.0 0.3333333333333333 10.0
8.8 0.3333333333333333 10.0
9.600000000000001 0.3333333333333333 10.0
10.4 0.3333333333333333 10.0
11.200000000000001 0.3333333333333333 10.0
12.0 0.3333333333333333 10.0
12.8 0.3333333333333333 10.0
13.600000000000001 0.3333333333333333 10.0
14.4 0.3333333333333333 10.0
15.200000000000001 0.3333333333333333 10.0
16.0 0.3333333333333333 10.0
0.0 0.6666666666666666 10.0
0.8 0.6666666666666666 10.0
1.6 0.6666666666666666 10.0
2.4000000000000004 0.6666666666666666 10.0
3.2 0.6666666666666666 10.0
4.0 0.6666666666666666 10.0
4.800000000000001 0.6666666666666666 10.0
5.6000000000000005 0.6666666666666666 10.0
6.4 0.6666666666666666 10.0
7.2 0.6666666666666666 10.0
8.0 0.6666666666666666 10.0
8.8 0.6666666666666666 10.0
9.600000000000001 0.6666666666666666 10.0
10.4 0.6666666666666666 10.0
11.200000000000001 0.6666666666666666 10.0
12.0 0.6666666666666666 10.0
12.8 0.6666666666666666 10.0
13.600000000000001 0.6666666666666666 10.0
14.4 0.6666666666666666 10.0
15.200000000000001 0.6666666666666666 10.0
16.0 0.6666666666666666 10.0
0.0 1.0 10.0
0.8 1.0 10.0
1.6 1.0 10.0
2.4000000000000004 1.0 10.0
3.2 1.0 10.0
4.0 1.0 10.0
4.800000000000001 1.0 10.0
5.6000000000000005 1.0 10.0
6.4 1.0 10.0
7.2 1.0 10.0
8.0 1.0 10.0
8.8 1.0 10.0
9.600000000000001 1.0 10.0
10.4 1.0 10.0
11.200000000000001 1.0 10.0
12.0 1.0 10.0
12.8 1.0 10.0
13.600000000000001 1.0 10.0
14.4 1.0 10.0
15.200000000000001 1.0 10.0
16.0 1.0 10.0
0.0 1.3333333333333333 10.0
0.8 1.3333333333333333 10.0
1.6 1.3333333333333333 10.0
2.4000000000000004 1.3333333333333333 10.0
3.2 1.3333333333333333 10.0
4.0 1.3333333333333333 10.0
4.800000000000001 1.3333333333333333 10.0
5.6000000000000005 1.3333333333333333 10.0
6.4 1.3333333333333333 10.0
7.2 1.3333333333333333 10.0
8.0 1.3333333333333333 10.0
8.8 1.3333333333333333 10.0
9.600000000000001 1.3333333333333333 10.0
10.4 1.3333333333333333 10.0
11.200000000000001 1.3333333333333333 10.0
12.0 1.3333333333333333 10.0
12.8 1.3333333333333333 10.0
13.600000000000001 1.3333333333333333 10.0
14.4 1.3333333333333333 10.0
15.200000000000001 1.3333333333333333 10.0
16.0 1.3333333333333333 10.0
0.0 1.6666666666666665 10.0
0.8 1.6666666666666665 10.0
1.6 1.6666666666666665 10.0
2.4000000000000004 1.6666666666666665 10.0
3.2 1.6666666666666665 10.0
4.0 1.6666666666666665 10.0
4.800000000000001 1.6666666666666665 10.0
5.6000000000000005 1.6666666666666665 10.0
6.4 1.6666666666666665 10.0
7.2 1.6666666666666665 10.0
8.0 1.6666666666666665 10.0
8.8 1.6666666666666665 10.0
9.600000000000001 1.6666666666666665 10.0
10.4 1.6666666666666665 10.0
11.200000000000001 1.6666666666666665 10.0
12.0 1.6666666666666665 10.0
12.8 1.6666666666666665 10.0
13.600000000000001 1.6666666666666665 10.0
14.4 1.6666666666666665 10.0
15.200000000000001 1.6666666666666665 10.0
16.0 1.6666666666666665 10.0
0.0 2.0 10.0
0.8 2.0 10.0
1.6 2.0 10.0
2.4000000000000004 2.0 10.0
3.2 2.0 10.0
4.0 2.0 10.0
4.800000000000001 2.0 10.0
5.6000000000000005 2.0 10.0
6.4 2.0 10.0
7.2 2.0 10.0
8.0 2.0 10.0
8.8 2.0 10.0
9.600000000000001 2.0 10.0
10.4 2.0 10.0
11.200000000000001 2.0 10.0
12.0 2.0 10.0
12.8 2.0 10.0
13.600000000000001 2.0 10.0
14.4 2.0 10.0
15.200000000000001 2.0 10.0
16.0 2.0 10.0
CELLS 720 6480
8 0 1 22 21 147 148 169 168
8 1 2 23 22 148 149 170 169
8 2 3 24 23 149 150 171 170
8 3 4 25 24 150 151 172 171
8 4 5 26 25 151 152 173 172
8 5 6 27 26 152 153 174 173
8 6 7 28 27 153 154 175 174
8 7 8 29 28 154 155 176 175
8 8 9 30 29 155 156 177 176
8 9 10 31 30 156 157 178 177
8 10 11 32 31 157 158 179 178
8 11 12 33 32 158 159 180 179
8 12 13 34 33 159 160 181 180
8 13 14 35 34 160 161 182 181
8 14 15 36 35 161 162 183 182
8 15 16 37 36 162 163 184 183
8 16 17 38 37 163 164 185 184
8 17 18 39 38 164 165 186 185
8 18 19 40 39 165 166 187 186
8 19 20 41 40 166 167 188 187
8 21 22 43 42 168 169 190 189
8 22 23 44 43 169 170 191 190
8 23 24 45 44 170 171 192 191
8 24 25 46 45 171 172 193 192
8 25 26 47 46 172 173 194 193
8 26 27 48 47 173 174 195 194
8 27 28 49 48 174 175 196 195
8 28 29 50 49 175 176 197 196
8 29 30 51 50 176 177 198 197
8 30 31 52 51 177 178 199 198
8 31 32 53 52 178 179 200 199
8 32 33 54 53 179 180 201 200
8 33 34 55 54 180 181 202 201
8 34 35 56 55 181 182 203 202
8 35 36 57 56 182 183 204 203
8 36 37 58 57 183 184 205 204
8 37 38 59 58 184 185 206 205
8 38 39 60 59 185 186 207 206
8 39 40 61 60 186 187 208 207
8 40 41 62 61 187 188 209 208
8 42 43 64 63 189 190 211 210
8 43 44 65 64 190 191 212 211
8 44 45 66 65 191 192 213 212
8 45 46 67 66 192 193 214 213
8 46 47 68 67 193 194 215 214
8 47 48 69 68 194 195 216 215
8 48 49 70 69 195 196 217 216
8 49 50 71 70 196 197 218 217
8 50 51 72 71 197 198 219 218
8 51 52 73 72 198 199 220 219
8 52 53 74 73 199 200 221 220
8 53 54 75 74 200 201 222 221
8 54 55 76 75 201 202 223 222
8 55 56 77 76 202 203 224 223
8 56 57 78 77 203 204 225 224
8 57 58 79 78 204 205 226 225
8 58 59 80 79 205 206 227 226
8 59 60 81 80 206 207 228 227
8 60 61 82 81 207 208 229 228
8 61 62 83 82 208 209 230 229
8 63 64 85 84 210 211 232 231
8 64 65 86 85 211 212 233 232
8 65 66 87 86 212 213 234 233
8 66 67 88 87 213 214 235 234
8 67 68 89 88 214 215 236 235
8 68 69 90 89 215 216 237 236
8 69 70 91 90 216 217 238 237
8 70 71 92 91 217 218 239 238
8 71 72 93 92 218 219 240 239
8 72 73 94 93 219 220 241 240
8 73 74 95 94 220 221 242 241
8 74 75 96 95 221 222 243 242
8 75 76 97 96 222 223 244 243
8 76 77 98 97 223 224 245 244
8 77 78 99 98 224 225 246 245
8 78 79 100 99 225 226 247 246
8 79 80 101 100 226 227 248 247
8 80 81 102 101 227 228 249 248
8 81 82 103 102 228 229 250 249
8 82 83 104 103 229 230 251 250
8 84 85 106 105 231 232 253 252
8 85 86 107 106 232 233 254 253
8 86 87 108 107 233 234 255 254
8 87 88 109 108 234 235 256 255
8 88 89 110 109 235 236 257 256
8 89 90 111 110 236 237 258 257
8 90 91 112 111 237 238 259 258
8 91 92 113 112 238 239 260 259
8 92 93 114 113 239 240 261 260
8 93 94 115 114 240 241 262 261
8 94 95 116 115 241 242 263 262
8 95 96 117 116 242 243 264 263
8 96 97 118 117 243 244 265 264
8 97 98 119 118 244 245 266 265
8 98 99 120 119 245 246 267 266
8 99 100 121 120 246 247 268 267
8 100 101 122 121 247 248 269 268
8 101 102 123 122 248 249 270 269
8 102 103 124 123 249 250 271 270
8 103 104 125 124 250 251 272 271
8 105 106 127 126 252 253 274 273
8 106 107 128 127 253 254 275 274
8 107 108 129 128 254 255 276 275
8 108 109 130 129 255 256 277 276
8 109 110 131 130 256 257 278 277
8 110 111 132 131 257 258 279 278
8 111 112 133 132 258 259 280 279
8 112 113 134 133 259 260 281 280
8 113 114 135 134 260 261 282 281
8 114 115 136 135 261 262 283 282
8 115 116 137 136 262 263 284 283
8 116 117 138 137 263 264 285 284
8 117 118 139 138 264 265 286 285
8 118 119 140 139 265 266 287 286
8 119 120 141 140 266 267 288 287
8 120 121 142 141 267 268 289 288
8 121 122 143 142 268 269 290 289
8 122 123 144 143 269 270 291 290
8 123 124 145 144 270 271 292 291
8 124 125 146 145 271 272 293 292
8 147 148 169 168 294 295 316 315
8 148 149 170 169 295 296 317 316
8 149 150 171 170 296 297 318 317
8 150 151 172 171 297 298 319 318
8 151 152 173 172 298 299 320 319
8 152 153 174 173 299 300 321 320
8 153 154 175 174 300 301 322 321
8 154 155 176 175 301 302 323 322
8 155 156 177 176 302 303 324 323
8 156 157 178 177 303 304 325 324
8 157 158 179 178 304 305 326 325
8 158 159 180 179 305 306 327 326
8 159 160 181 180 306 307 328 327
8 160 161 182 181 307 308 329 328
8 161 162 183 182 308 309 330 329
8 162 163 184 183 309 310 331 330
8 163 164 185 184 310 311 332 331
8 164 165 186 185 311 312 333 332
8 165 166 187 186 312 313 334 333
8 166 167 188 187 313 314 335 334
8 168 169 190 189 315 316 337 336
8 169 170 191 190 316 317 338 337
8 170 171 192 191 317 318 339 338
8 171 172 193 192 318 319 340 339
8 172 173 194 193 319 320 341 340
8 173 174 195 194 320 321 342 341
8 174 175 196 195 321 322 343 342
8 175 176 197 196 322 323 344 343
8 176 177 198 197 323 324 345 344
8 177 178 199 198 324 325 346 345
8 178 179 200 199 325 326 347 346
8 179 180 201 200 326 327 348 347
8 180 181 202 201 327 328 349 348
8 181 182 203 202 328 329 350 349
8 182 183 204 203 329 330 351 350
8 183 184 205 204 330 331 352 351
8 184 185 206 205 331 332 353 352
8 185 186 207 206 332 333 354 353
8 186 187 208 207 333 334 355 354
8 187 188 209 208 334 335 356 355
8 189 190 211 210 336 337 358 357
8 190 191 212 211 337 338 359 358
8 191 192 213 212 338 339 360 359
8 192 193 214 213 339 340 361 360
8 193 194 215 214 340 341 362 361
8 194 195 216 215 341 342 363 362
8 195 196 217 216 342 343 364 363
8 196 197 218 217 343 344 365 364
8 197 198 219 218 344 345 366 365
8 198 199 220 219 345 346 367 366
8 199 200 221 220 346 347 368 367
8 200 201 222 221 347 348 369 368
8 201 202 223 222 348 349 370 369
8 202 203 224 223 349 350 371 370
8 203 204 225 224 350 351 372 371
8 204 205 226 225 351 352 373 372
8 205 206 227 226 352 353 374 373
8 206 207 228 227 353 354 375 374
8 207 208 229 228 354 355 376 375
8 208 209 230 229 355 356 377 376
8 210 211 232 231 357 358 379 378
8 211 212 233 232 358 359 380 379
8 212 213 234 233 359 360 381 380
8 213 214 235 234 360 361 382 381
8 214 215 236 235 361 362 383 382
8 215 216 237 236 362 363 384 383
8 216 217 238 237 363 364 385 384
8 217 218 239 238 364 365 386 385
8 218 219 240 239 365 366 387 386
8 219 220 241 240 366 367 388 387
8 220 221 242 241 367 368 389 388
8 221 222 243 242 368 369 390 389
8 222 223 244 243 369 370 391 390
8 223 224 245 244 370 371 392 391
8 224 225 246 245 371 372 393 392
8 225 226 247 246 372 373 394 393
8 226 227 248 247 373 374 395 394
8 227 228 249 248 374 375 396 395
8 228 229 250 249 375 376 397 396
8 229 230 251 250 376 377 398 397
8 231 232 253 252 378 379 400 399
8 232 233 254 253 379 380 401 400
8 233 234 255 254 380 381 402 401
8 234 235 256 255 381 382 403 402
8 235 236 257 256 382 383 404 403
8 236 237 258 257 383 384 405 404
8 237 238 259 258 384 385 406 405
8 238 239 260 259 385 386 407 406
8 239 240 261 260 386 387 408 407
8 240 241 262 261 387 388 409 408
8 241 242 263 262 388 389 410 409
8 242 243 264 263 389 390 411 410
8 243 244 265 264 390 391 412 411
8 244 245 266 265 391 392 413 412
8 245 246 267 266 392 393 414 413
8 246 247 268 267 393 394 415 414
8 247 248 269 268 394 395 416 415
8 248 249 270 269 395 396 417 416
8 249 250 271 270 396 397 418 417
8 250 251 272 271 397 398 419 418
8 252 253 274 273 399 400 421 420
8 253 254 275 274 400 401 422 421
8 254 255 276 275 401 402 423 422
8 255 256 277 276 402 403 424 423
8 256 257 278 277 403 404 425 424
8 257 258 279 278 404 405 426 425
8 258 259 280 279 405 406 427 426
8 259 260 281 280 406 407 428 427
8 260 261 282 281 407 408 429 428
8 261 262 283 282 408 409 430 429
8 262 263 284 283 409 410 431 430
8 263 264 285 284 410 411 432 431
8 264 265 286 285 411 412 433 432
8 265 266 287 286 412 413 434 433
8 266 267 288 287 413 414 435 434
8 267 268 289 288 414 415 436 435
8 268 269 290 289 415 416 437 436
8 269 270 291 290 416 417 438 437
8 270 271 292 291 417 418 439 438
8 271 272 293 292 418 419 440 439
8 294 295 316 315 441 442 463 462
8 295 296 317 316 442 443 464 463
8 296 297 318 317 443 444 465 464
8 297 298 319 318 444 445 466 465
8 298 299 320 319 445 446 467 466
8 299 300 321 320 446 447 468 467
8 300 301 322 321 447 448 469 468
8 301 302 323 322 448 449 470 469
8 302 303 324 323 449 450 471 470
8 303 304 325 324 450 451 472 471
8 304 305 326 325 451 452 473 472
8 305 306 327 326 452 453 474 473
8 306 307 328 327 453 454 475 474
8 307 308 329 328 454 455 476 475
8 308 309 330 329 455 456 477 476
8 309 310 331 330 456 457 478 477
8 310 311 332 331 457 458 479 478
8 311 312 333 332 458 459 480 479
8 312 313 334 333 459 460 481 480
8 313 314 335 334 460 461 482 481
8 315 316 337 336 462 463 484 483
8 316 317 338 337 463 464 485 484
8 317 318 339 338 464 465 486 485
8 318 319 340 339 465 466 487 486
8 319 320 341 340 466 467 488 487
8 320 321 342 341 467 468 489 488
8 321 322 343 342 468 469 490 489
8 322 323 344 343 469 470 491 490
8 323 324 345 344 470 471 492 491
8 324 325 346 345 471 472 493 492
8 325 326 347 346 472 473 494 493
8 326 327 348 347 473 474 495 494
8 327 328 349 348 474 475 496 495
8 328 329 350 349 475 476 497 496
8 329 330 351 350 476 477 498 497
8 330 331 352 351 477 478 499 498
8 331 332 353 352 478 479 500 499
8 332 333 354 353 479 480 501 500
8 333 334 355 354 480 481 502 501
8 334 335 356 355 481 482 503 502
8 336 337 358 357 483 484 505 504
8 337 338 359 358 484 485 506 505
8 338 339 360 359 485 486 507 506
8 339 340 361 360 486 487 508 507
8 340 341 362 361 487 488 509 508
8 341 342 363 362 488 489 510 509
8 342 343 364 363 489 490 511 510
8 343 344 365 364 490 491 512 511
8 344 345 366 365 491 492 513 512
8 345 346 367 366 492 493 514 513
8 346 347 368 367 493 494 515 514
8 347 348 369 368 494 495 516 515
8 348 349 370 369 495 496 517 516
8 349 350 371 370 496 497 518 517
8 350 351 372 371 497 498 519 518
8 351 352 373 372 498 499 520 519
8 352 353 374 373 499 500 521 520
8 353 354 375 374 500 501 522 521
8 354 355 376 375 501 502 523 522
8 355 356 377 376 502 503 524 523
8 357 358 379 378 504 505 526 525
8 358 359 380 379 505 506 527 526
8 359 360 381 380 506 507 528 527
8 360 361 382 381 507 508 529 528
8 361 362 383 382 508 509 530 529
8 362 363 384 383 509 510 531 530
8 363 364 385 384 510 511 532 531
8 364 365 386 385 511 512 533 532
8 365 366 387 386 512 513 534 533
8 366 367 388 387 513 514 535 534
8 367 368 389 388 514 515 536 535
8 368 369 390 389 515 516 537 536
8 369 370 391 390 516 517 538 537
8 370 371 392 391 517 518 539 538
8 371 372 393 392 518 519 540 539
8 372 373 394 393 519 520 541 540
8 373 374 395 394 520 521 542 541
8 374 375 396 395 521 522 543 542
8 375 376 397 396 522 523 544 543
8 376 377 398 397 523 524 545 544
8 378 379 400 399 525 526 547 546
8 379 380 401 400 526 527 548 547
8 380 381 402 401 527 528 549 548
8 381 382 403 402 528 529 550 549
8 382 383 404 403 529 530 551 550
8 383 384 405 404 530 531 552 551
8 384 385 406 405 531 532 553 552
8 385 386 407 406 532 533 554 553
8 386 387 408 407 533 534 555 554
8 387 388 409 408 534 535 556 555
8 388 389 410 409 535 536 557 556
8 389 390 411 410 536 537 558 557
8 390 391 412 411 537 538 559 558
8 391 392 413 412 538 539 560 559
8 392 393 414 413 539 540 561 560
8 393 394 415 414 540 541 562 561
8 394 395 416 415 541 542 563 562
8 395 396 417 416 542 543 564 563
8 396 397 418 417 543 544 565 564
8 397 398 419 418 544 545 566 565
8 399 400 421 420 546 547 568 567
8 400 401 422 421 547 548 569 568
8 401 402 423 422 548 549 570 569
8 402 403 424 423 549 550 571 570
8 403 404 425 424 550 551 572 571
8 404 405 426 425 551 552 573 572
8 405 406 427 426 552 553 574 573
8 406 407 428 427 553 554 575 574
8 407 408 429 428 554 555 576 575
8 408 409 430 429 555 556 577 576
8 409 410 431 430 556 557 578 577
8 410 411 432 431 557 558 579 578
8 411 412 433 432 558 559 580 579
8 412 413 434 433 559 560 581 580
8 413 414 435 434 560 561 582 581
8 414 415 436 435 561 562 583 582
8 415 416 437 436 562 563 584 583
8 416 417 438 437 563 564 585 584
8 417 418 439 438 564 565 586 585
8 418 419 440 439 565 566 587 586
8 441 442 463 462 588 589 610 609
8 442 443 464 463 589 590 611 610
8 443 444 465 464 590 591 612 611
8 444 445 466 465 591 592 613 612
8 445 446 467 466 592 593 614 613
8 446 447 468 467 593 594 615 614
8 447 448 469 468 594 595 616 615
8 448 449 470 469 595 596 617 616
8 449 450 471 470 596 597 618 617
8 450 451 472 471 597 598 619 618
8 451 452 473 472 598 599 620 619
8 452 453 474 473 599 600 621 620
8 453 454 475 474 600 601 622 621
8 454 455 476 475 601 602 623 622
8 455 456 477 476 602 603 624 623
8 456 457 478 477 603 604 625 624
8 457 458 479 478 604 605 626 625
8 458 459 480 479 605 606 627 626
8 459 460 481 480 606 607 628 627
8 460 461 482 481 607 608 629 628
8 462 463 484 483 609 610 631 630
8 463 464 485 484 610 611 632 631
8 464 465 486 485 611 612 633 632
8 465 466 487 486 612 613 634 633
8 466 467 488 487 613 614 635 634
8 467 468 489 488 614 615 636 635
8 468 469 490 489 615 616 637 636
8 469 470 491 490 616 617 638 637
8 470 471 492 491 617 618 639 638
8 471 472 493 492 618 619 640 639
8 472 473 494 493 619 620 641 640
8 473 474 495 494 620 621 642 641
8 474 475 496 495 621 622 643 642
8 475 476 497 496 622 623 644 643
8 476 477 498 497 623 624 645 644
8 477 478 499 498 624 625 646 645
8 478 479 500 499 625 626 647 646
8 479 480 501 500 626 627 648 647
8 480 481 502 501 627 628 649 648
8 481 482 503 502 628 629 650 649
8 483 484 505 504 630 631 652 651
8 484 485 506 505 631 632 653 652
8 485 486 507 506 632 633 654 653
8 486 487 508 507 633 634 655 654
8 487 488 509 508 634 635 656 655
8 488 489 510 509 635 636 657 656
8 489 490 511 510 636 637 658 657
8 490 491 512 511 637 638 659 658
8 491 492 513 512 638 639 660 659
8 492 493 514 513 639 640 661 660
8 493 494 515 514 640 641 662 661
8 494 495 516 515 641 642 663 662
8 495 496 517 516 642 643 664 663
8 496 497 518 517 643 644 665 664
8 497 498 519 518 644 645 666 665
8 498 499 520 519 645 646 667 666
8 499 500 521 520 646 647 668 667
8 500 501 522 521 647 648 669 668
8 501 502 523 522 648 649 670 669
8 502 503 524 523 649 650 671 670
8 504 505 526 525 651 652 673 672
8 505 506 527 526 652 653 674 673
8 506 507 528 527 653 654 675 674
8 507 508 529 528 654 655 676 675
8 508 509 530 529 655 656 677 676
8 509 510 531 530 656 657 678 677
8 510 511 532 531 657 658 679 678
8 511 512 533 532 658 659 680 679
8 512 513 534 533 659 660 681 680
8 513 514 535 534 660 661 682 681
8 514 515 536 535 661 662 683 682
8 515 516 537 536 662 663 684 683
8 516 517 538 537 663 664 685 684
8 517 518 539 538 664 665 686 685
8 518 519 540 539 665 666 687 686
8 519 520 541 540 666 667 688 687
8 520 521 542 541 667 668 689 688
8 521 522 543 542 668 669 690 689
8 522 523 544 543 669 670 691 690
8 523 524 545 544 670 671 692 691
8 525 526 547 546 672 673 694 693
8 526 527 548 547 673 674 695 694
8 527 528 549 548 674 675 696 695
8 528 529 550 549 675 676 697 696
8 529 530 551 550 676 677 698 697
8 530 531 552 551 677 678 699 698
8 531 532 553 552 678 679 700 699
8 532 533 554 553 679 680 701 700
8 533 534 555 554 680 681 702 701
8 534 535 556 555 681 682 703 702
8 535 536 557 556 682 683 704 703
8 536 537 558 557 683 684 705 704
8 537 538 559 558 684 685 706 705
8 538 539 560 559 685 686 707 706
8 539 540 561 560 686 687 708 707
8 540 541 562 561 687 688 709 708
8 541 542 563 562 688 689 710 709
8 542 543 564 563 689 690 711 710
8 543 544 565 564 690 691 712 711
8 544 545 566 565 691 692 713 712
8 546 547 568 567 693 694 715 714
8 547 548 569 568 694 695 716 715
8 548 549 570 569 695 696 717 716
8 549 550 571 570 696 697 718 717
8 550 551 572 571 697 698 719 718
8 551 552 573 572 698 699 720 719
8 552 553 574 573 699 700 721 720
8 553 554 575 574 700 701 722 721
8 554 555 576 575 701 702 723 722
8 555 556 577 576 702 703 724 723
8 556 557 578 577 703 704 725 724
8 557 558 579 578 704 705 726 725
8 558 559 580 579 705 706 727 726
8 559 560 581 580 706 707 728 727
8 560 561 582 581 707 708 729 728
8 561 562 583 582 708 709 730 729
8 562 563 584 583 709 710 731 730
8 563 564 585 584 710 711 732 731
8 564 565 586 585 711 712 733 732
8 565 566 587 586 712 713 734 733
8 588 589 610 609 735 736 757 756
8 589 590 611 610 736 737 758 757
8 590 591 612 611 737 738 759 758
8 591 592 613 612 738 739 760 759
8 592 593 614 613 739 740 761 760
8 593 594 615 614 740 741 762 761
8 594 595 616 615 741 742 763 762
8 595 596 617 616 742 743 764 763
8 596 597 618 617 743 744 765 764
8 597 598 619 618 744 745 766 765
8 598 599 620 619 745 746 767 766
8 599 600 621 620 746 747 768 767
8 600 601 622 621 747 748 769 768
8 601 602 623 622 748 749 770 769
8 602 603 624 623 749 750 771 770
8 603 604 625 624 750 751 772 771
8 604 605 626 625 751 752 773 772
8 605 606 627 626 752 753 774 773
8 606 607 628 627 753 754 775 774
8 607 608 629 628 754 755 776 775
8 609 610 631 630 756 757 778 777
8 610 611 632 631 757 758 779 778
8 611 612 633 632 758 759 780 779
8 612 613 634 633 759 760 781 780
8 613 614 635 634 760 761 782 781
8 614 615 636 635 761 762 783 782
8 615 616 637 636 762 763 784 783
8 616 617 638 637 763 764 785 784
8 617 618 639 638 764 765 786 785
8 618 619 640 639 765 766 787 786
8 619 620 641 640 766 767 788 787
8 620 621 642 641 767 768 789 788
8 621 622 643 642 768 769 790 789
8 622 623 644 643 769 770 791 790
8 623 624 645 644 770 771 792 791
8 624 625 646 645 771 772 793 792
8 625 626 647 646 772 773 794 793
8 626 627 648 647 773 774 795 794
8 627 628 649 648 774 775 796 795
8 628 629 650 649 775 776 797 796
8 630 631 652 651 777 778 799 798
8 631 632 653 652 778 779 800 799
8 632 633 654 653 779 780 801 800
8 633 634 655 654 780 781 802 801
8 634 635 656 655 781 782 803 802
8 635 636 657 656 782 783 804 803
8 636 637 658 657 783 784 805 804
8 637 638 659 658 784 785 806 805
8 638 639 660 659 785 786 807 806
8 639 640 661 660 786 787 808 807
8 640 641 662 661 787 788 809 808
8 641 642 663 662 788 789 810 809
8 642 643 664 663 789 790 811 810
8 643 644 665 664 790 791 812 811
8 644 645 666 665 791 792 813 812
8 645 646 667 666 792 793 814 813
8 646 647 668 667 793 794 815 814
8 647 648 669 668 794 795 816 815
8 648 649 670 669 795 796 817 816
8 649 650 671 670 796 797 818 817
8 651 652 673 672 798 799 820 819
8 652 653 674 673 799 800 821 820
8 653 654 675 674 800 801 822 821
8 654 655 676 675 801 802 823 822
8 655 656 677 676 802 803 824 823
8 656 657 678 677 803 804 825 824
8 657 658 679 678 804 805 826 825
8 658 659 680 679 805 806 827 826
8 659 660 681 680 806 807 828 827
8 660 661 682 681 807 808 829 828
8 661 662 683 682 808 809 830 829
8 662 663 684 683 809 810 831 830
8 663 664 685 684 810 811 832 831
8 664 665 686 685 811 812 833 832
8 665 666 687 686 812 813 834 833
8 666 667 688 687 813 814 835 834
8 667 668 689 688 814 815 836 835
8 668 669 690 689 815 816 837 836
8 669 670 691 690 816 817 838 837
8 670 671 692 691 817 818 839 838
8 672 673 694 693 819 820 841 840
8 673 674 695 694 820 821 842 841
8 674 675 696 695 821 822 843 842
8 675 676 697 696 822 823 844 843
8 676 677 698 697 823 824 845 844
8 677 678 699 698 824 825 846 845
8 678 679 700 699 825 826 847 846
8 679 680 701 700 826 827 848 847
8 680 681 702 701 827 828 849 848
8 681 682 703 702 828 829 850 849
8 682 683 704 703 829 830 851 850
8 683 684 705 704 830 831 852 851
8 684 685 706 705 831 832 853 852
8 685 686 707 706 832 833 854 853
8 686 687 708 707 833 834 855 854
8 687 688 709 708 834 835 856 855
8 688 689 710 709 835 836 857 856
8 689 690 711 710 836 837 858 857
8 690 691 712 711 837 838 859 858
8 691 692 713 712 838 839 860 859
8 693 694 715 714 840 841 862 861
8 694 695 716 715 841 842 863 862
8 695 696 717 716 842 843 864 863
8 696 697 718 717 843 844 865 864
8 697 698 719 718 844 845 866 865
8 698 699 720 719 845 846 867 866
8 699 700 721 720 846 847 868 867
8 700 701 722 721 847 848 869 868
8 701 702 723 722 848 849 870 869
8 702 703 724 723 849 850 871 870
8 703 704 725 724 850 851 872 871
8 704 705 726 725 851 852 873 872
8 705 706 727 726 852 853 874 873
8 706 707 728 727 853 854 875 874
8 707 708 729 728 854 855 876 875
8 708 709 730 729 855 856 877 876
8 709 710 731 730 856 857 878 877
8 710 711 732 731 857 858 879 878
8 711 712 733 732 858 859 880 879
8 712 713 734 733 859 860 881 880
8 735 736 757 756 882 883 904 903
8 736 737 758 757 883 884 905 904
8 737 738 759 758 884 885 906 905
8 738 739 760 759 885 886 907 906
8 739 740 761 760 886 887 908 907
8 740 741 762 761 887 888 909 908
8 741 742 763 762 888 889 910 909
8 742 743 764 763 889 890 911 910
8 743 744 765 764 890 891 912 911
8 744 745 766 765 891 892 913 912
8 745 746 767 766 892 893 914 913
8 746 747 768 767 893 894 915 914
8 747 748 769 768 894 895 916 915
8 748 749 770 769 895 896 917 916
8 749 750 771 770 896 897 918 917
8 750 751 772 771 897 898 919 918
8 751 752 773 772 898 899 920 919
8 752 753 774 773 899 900 921 920
8 753 754 775 774 900 901 922 921
8 754 755 776 775 901 902 923 922
8 756 757 778 777 903 904 925 924
8 757 758 779 778 904 905 926 925
8 758 759 780 779 905 906 927 926
8 759 760 781 780 906 907 928 927
8 760 761 782 781 907 908 929 928
8 761 762 783 782 908 909 930 929
8 762 763 784 783 909 910 931 930
8 763 764 785 784 910 911 932 931
8 764 765 786 785 911 912 933 932
8 765 766 787 786 912 913 934 933
8 766 767 788 787 913 914 935 934
8 767 768 789 788 914 915 936 935
8 768 769 790 789 915 916 937 936
8 769 770 791 790 916 917 938 937
8 770 771 792 791 917 918 939 938
8 771 772 793 792 918 919 940 939
8 772 773 794 793 919 920 941 940
8 773 774 795 794 920 921 942 941
8 774 775 796 795 921 922 943 942
8 775 776 797 796 922 923 944 943
8 777 778 799 798 924 925 946 945
8 778 779 800 799 925 926 947 946
8 779 780 801 800 926 927 948 947
8 780 781 802 801 927 928 949 948
8 781 782 803 802 928 929 950 949
8 782 783 804 803 929 930 951 950
8 783 784 805 804 930 931 952 951
8 784 785 806 805 931 932 953 952
8 785 786 807 806 932 933 954 953
8 786 787 808 807 933 934 955 954
8 787 788 809 808 934 935 956 955
8 788 789 810 809 935 936 957 956
8 789 790 811 810 936 937 958 957
8 790 791 812 811 937 938 959 958
8 791 792 813 812 938 939 960 959
8 792 793 814 813 939 940 961 960
8 793 794 815 814 940 941 962 961
8 794 795 816 815 941 942 963 962
8 795 796 817 816 942 943 964 963
8 796 797 818 817 943 944 965 964
8 798 799 820 819 945 946 967 966
8 799 800 821 820 946 947 968 967
8 800 801 822 821 947 948 969 968
8 801 802 823 822 948 949 970 969
8 802 803 824 823 949 950 971 970
8 803 804 825 824 950 951 972 971
8 804 805 826 825 951 952 973 972
8 805 806 827 826 952 953 974 973
8 806 807 828 827 953 954 975 974
8 807 808 829 828 954 955 976 975
8 808 809 830 829 955 956 977 976
8 809 810 831 830 956 957 978 977
8 810 811 832 831 957 958 979 978
8 811 812 833 832 958 959 980 979
8 812 813 834 833 959 960 981 980
8 813 814 835 834 960 961 982 981
8 814 815 836 835 961 962 983 982
8 815 816 837 836 962 963 984 983
8 816 817 838 837 963 964 985 984
8 817 818 839 838 964 965 986 985
8 819 820 841 840 966 967 988 987
8 820 821 842 841 967 968 989 988
8 821 822 843 842 968 969 990 989
8 822 823 844 843 969 970 991 990
8 823 824 845 844 970 971 992 991
8 824 825 846 845 971 972 993 992
8 825 826 847 846 972 973 994 993
8 826 827 848 847 973 974 995 994
8 827 828 849 848 974 975 996 995
8 828 829 850 849 975 976 997 996
8 829 830 851 850 976 977 998 997
8 830 831 852 851 977 978 999 998
8 831 832 853 852 978 979 1000 999
8 832 833 854 853 979 980 1001 1000
8 833 834 855 854 980 981 1002 1001
8 834 835 856 855 981 982 1003 1002
8 835 836 857 856 982 983 1004 1003
8 836 837 858 857 983 984 1005 1004
8 837 838 859 858 984 985 1006 1005
8 838 839 860 859 985 986 1007 1006
8 840 841 862 861 987 988 1009 1008
8 841 842 863 862 988 989 1010 1009
8 842 843 864 863 989 990 1011 1010
8 843 844 865 864 990 991 1012 1011
8 844 845 866 865 991 992 1013 1012
8 845 846 867 866 992 993 1014 1013
8 846 847 868 867 993 994 1015 1014
8 847 848 869 868 994 995 1016 1015
8 848 849 870 869 995 996 1017 1016
8 849 850 871 870 996 997 1018 1017
8 850 851 872 871 997 998 1019 1018
8 851 852 873 872 998 999 1020 1019
8 852 853 874 873 999 1000 1021 1020
8 853 854 875 874 1000 1001 1022 1021
8 854 855 876 875 1001 1002 1023 1022
8 855 856 877 876 1002 1003 1024 1023
8 856 857 878 877 1003 1004 1025 1024
8 857 858 879 878 1004 1005 1026 1025
8 858 859 880 879 1005 1006 1027 1026
8 859 860 881 880 1006 1007 1028 1027
CELL_TYPES 720
12
12
12
12
12
12
12
12
12
12
12
12
12
12
12
12
12
12
12
12
12
12
12
12
12
12
12
12
12
12
12
12
12
12
12
12
12
12
12
12
12
12
12
12
12
12
12
12
12
12
12
12
12
12
12
12
12
12
12
12
12
12
12
12
12
12
12
12
12
12
12
12
12
12
12
12
12
12
12
12
12
12
12
12
12
12
12
12
12
12
12
12
12
12
12
12
12
12
12
12
12
12
12
12
12
12
12
12
12
12
12
12
12
12
12
12
12
12
12
12
12
12
12
12
12
12
12
12
12
12
12
12
12
12
12
12
12
12
12
12
12
12
12
12
12
12
12
12
12
12
12
12
12
12
12
12
12
12
12
12
12
12
12
12
12
12
12
12
12
12
12
12
12
12
12
12
12
12
12
12
12
12
12
12
12
12
12
12
12
12
12
12
12
12
12
12
12
12
12
12
12
12
12
12
12
12
12
12
12
12
12
12
12
12
12
12
12
12
12
12
12
12
12
12
12
12
12
12
12
12
12
12
12
12
12
12
12
12
12
12
12
12
12
12
12
12
12
12
12
12
12
12
12
12
12
12
12
12
12
12
12
12
12
12
12
12
12
12
12
12
12
12
12
12
12
12
12
12
12
12
12
12
12
12
12
12
12
12
12
12
12
12
12
12
12
12
12
12
12
12
12
12
12
12
12
12
12
12
12
12
12
12
12
12
12
12
12
12
12
12
12
12
12
12
12
12
12
12
12
12
12
12
12
12
12
12
12
12
12
12
12
12
12
12
12
12
12
12
12
12
12
12
12
12
12
12
12
12
12
12
12
12
12
12
12
12
12
12
12
12
12
12
12
12
12
12
12
12
12
12
12
12
12
12
12
12
12
12
12
12
12
12
12
12
12
12
12
12
12
12
12
12
12
12
12
12
12
12
12
12
12
12
12
12
12
12
12
12
12
12
12
12
12
12
12
12
12
12
12
12
12
12
12
12
12
12
12
12
12
12
12
12
12
12
12
12
12
12
12
12
12
12
12
12
12
12
12
12
12
12
12
12
12
12
12
12
12
12
12
12
12
12
12
12
12
12
12
12
12
12
12
12
12
12
12
12
12
12
12
12
12
12
12
12
12
12
12
12
12
12
12
12
12
12
12
12
12
12
12
12
12
12
12
12
12
12
12
12
12
12
12
12
12
12
12
12
12
12
12
12
12
12
12
12
12
12
12
12
12
12
12
12
12
12
12
12
12
12
12
12
12
12
12
12
12
12
12
12
12
12
12
12
12
12
12
12
12
12
12
12
12
12
12
12
12
12
12
12
12
12
12
12
12
12
12
12
12
12
12
12
12
12
12
12
12
12
12
12
12
12
12
12
12
12
12
12
12
12
12
12
12
12
12
12
12
12
12
12
12
12
12
12
12
12
12
12
12
12
12
12
12
12
12
12
12
12
12
12
12
12
12
12
12
12
12
12
12
12
12
12
12
12
12
12
12
12
12
12
12
12
12
12
12
12
12
12
12
12
12
12
12
12
12
12
12
12
12
12
12
12
12
12
12
12
12
12
12
12
12
12
12
12
12
12
12
12
12
12
12
12
12
12
12
12
12
12
12
12
12
12
12
12
12
12
12
12
12
12
12
12
POINT_DATA 1029
VECTORS Disp float
0.0 0.0 0.0
0.021951510284789633 -0.7959944907343355 0.01905307883969478
0.05286072517001908 -1.499971913572932 0.041025269900815314
0.09561051421164048 -2.178076555588759 0.058571191266406045
0.1564461241677068 -2.8119238219498532 0.07447030429692138
0.23622079127272277 -3.386569525635213 0.08761561689154443
0.3346052361693554 -3.886223488635009 0.09746033078879857
0.4510043081894776 -4.295615959810605 0.10330507735312051
0.5838272885400861 -4.599861401724025 0.10466032324665157
0.7291225534439215 -4.786250881643623 0.10232693948005475
0.8803397457187497 -4.848358402407606 0.10021512552893254
1.0316106801810676 -4.787160297848629 0.10241108255918446
1.177077656452442 -4.601701444715594 0.10485812731021343
1.3102231853895685 -4.2984253633571345 0.10368183047944356
1.4271552336351279 -3.8900486609853453 0.09812842914503145
1.5263773996937653 -3.3914405648574686 0.08875542531250298
1.6074268543160435 -2.817812462729194 0.07633745932194883
1.6701622866999766 -2.1848235527695135 0.06160645152793106
1.7156791491871428 -1.507266015592553 0.045504073754830614
1.7513612685490034 -0.8032486882314235 0.027052507807504116
1.7847682695441296 0.0 -0.0001544565055610479
0.3124079399343114 -0.03399109000892317 -0.010003806483997645
0.3258915765229684 -0.7924610499307241 0.009981138594895468
0.336761862383437 -1.5047644117325092 0.025988894611862982
0.3647752974454824 -2.18370646269842 0.039555867545625054
0.4042961911099091 -2.8200217599018598 0.05091081227685449
0.456477160637978 -3.396831987606846 0.06025386196197594
0.5210194947901503 -3.898671480524902 0.06717746815949079
0.5975136069670522 -4.310160724639573 0.07136248380194524
0.6849159359225545 -4.616226989195447 0.07258940861231515
0.7806833663809861 -4.803675518510679 0.07136123622376674
0.8805035601453708 -4.865843188070708 0.07005488735787965
0.9803805833398171 -4.804599898803653 0.07133227541470796
1.0763282203400055 -4.61809975616848 0.07255658853947537
1.164064086841845 -4.31302650925629 0.07138269767028774
1.2410978273164897 -3.9025860775474985 0.06735371496548453
1.3064653995138291 -3.4018397914874123 0.06075359278419425
1.3598695925736308 -2.826110939982886 0.052005702621302774
1.4011515378322246 -2.190741532638233 0.041608332050601105
1.4317156499833126 -1.5124719526045993 0.0297100374210434
1.446223007896853 -0.8002896318486341 0.015421649754121499
1.4616561746036258 -0.035871034661800444 -0.0040345050061166825
0.6073384995979971 -0.059017268462031425 -0.016348032946342628
0.6142912252478157 -0.7912752082243621 -0.0008846813816091746
0.6155043638473703 -1.5058511177606577 0.010543534905578956
0.6263739333063196 -2.1871075263641133 0.018968053729255575
0.645042874003314 -2.8246664435015942 0.025413980127244978
0.6701607865373661 -3.4028469482111023 0.030333817656007143
0.7016936159320256 -3.9059874669043997 0.03375780058245972
0.7394846409162644 -4.318783448149059 0.0356160429884665
0.7832554679799962 -4.625976868454666 0.035873033706343184
0.831496685371143 -4.813651982076969 0.03461722486925031
0.8806334477795681 -4.874762116912292 0.03320145107533132
0.9298281307346711 -4.814592537036095 0.03447535025799656
0.9782518929809401 -4.627884457561521 0.03560955556092391
1.0223564353384167 -4.321707679960559 0.03527909720620982
1.0606771182628627 -3.9099918700970395 0.033438743341255975
1.093000116094409 -3.407986983386679 0.03019257877334999
1.119253554171182 -2.8309451122530027 0.02571039909366754
1.1395045153858407 -2.194396023684785 0.020113549708288936
1.152488444016772 -1.5138941763611558 0.013115218406135172
1.1554301752838119 -0.7988276874125351 0.003451153842361329
1.1632216982912433 -0.06191315712721134 -0.0102738130288096
0.893600306062669 -0.07505586395344098 -0.02201410351350209
0.8954687074437268 -0.791476261327207 -0.011452729050472395
0.8893391596042687 -1.504947996488351 -0.005063612161804877
0.8847676871735152 -2.1877795138626523 -0.002087338156268058
0.8823426685922721 -2.8260622191421785 -0.0008433469361111241
0.8807099985475778 -3.404718800779201 -0.000562341913137016
0.8796045275249433 -3.9083462394780075 -0.0008993541779617597
0.8791951578505092 -4.321710627318895 -0.0016685028122699218
0.8801124523933621 -4.629455590583676 -0.002697130769757443
0.8819700352667106 -4.816313217997209 -0.004187939498653012
0.8807493096561604 -4.874213691273342 -0.005987739554937808
0.8795867500751352 -4.817270671985745 -0.004443561645928068
0.8816265812301733 -4.631399159235157 -0.0031932202868071792
0.8828730209813843 -4.324694152362846 -0.002366433371300318
0.8829760205550539 -3.912439314069028 -0.001719456676324468
0.8826135048849549 -3.409985937847335 -0.0013556954124253821
0.8820078124400635 -2.8325148728976246 -0.0013507750031035008
0.8809451156122405 -2.195299321299085 -0.0018891970473272294
0.8778690089760792 -1.5130884890583187 -0.0035922968685482277
0.8726625152353098 -0.7987279123177528 -0.008206910068179607
0.8749936464805232 -0.078703658945392 -0.016893398101775627
1.177516917999977 -0.08364147756123523 -0.027836612340919626
1.1748953401145645 -0.7917972480818175 -0.021488037652527003
1.161971937414137 -1.502737745544838 -0.02041389029876068
1.1431140665787536 -2.1859083691026533 -0.02302390993796126
1.119763201731003 -2.8241571139158466 -0.02705374462757004
1.0912810525571734 -3.402488940761268 -0.03142697142624945
1.057584580831162 -3.9057756145925544 -0.03554219663091044
1.018878707901547 -4.318933124397056 -0.038967616037109847
0.9766498628316738 -4.626826555544139 -0.04122719551176608
0.9326930695165496 -4.812106941435087 -0.042217644938783154
0.8808682958551958 -4.862850497271922 -0.043832571595130716
0.8291022008016767 -4.8130818732867064 -0.04258889577276737
0.7853281197421846 -4.628807004463361 -0.041960092381537355
0.7434250450493031 -4.32197644112797 -0.040033801401423055
0.7052157734209336 -3.9099560609971613 -0.03687504260305412
0.6722151443642783 -3.40787608349994 -0.032889348472134
0.644646926799736 -2.830770111720557 -0.028390305263520155
0.6223892518950698 -2.1936022815444005 -0.02380618349115186
0.6045484159911654 -1.5108958637360084 -0.02003493736213247
0.5921527066134987 -0.7988576312700685 -0.019360804878067028
0.5897837813243962 -0.08776690877802083 -0.023835141771839125
1.4633326513104283 -0.08685388435297786 -0.034107989800214504
1.4571706040620551 -0.7914656015291845 -0.03095699884448813
1.4377141615385514 -1.4994198187499044 -0.03515914560605121
1.4050647189439835 -2.1816772534986444 -0.043269964269652135
1.3607128971177798 -2.818921515303161 -0.05241365630642636
1.3050838166695558 -3.396104017442653 -0.06123848930402851
1.2383621644398133 -3.898289799142839 -0.0689232171823017
1.161100719516119 -4.310280295387592 -0.07474933014845937
1.0738221035873838 -4.617901877012842 -0.07801216271716802
0.9833413566200362 -4.802223948867909 -0.07690178616685978
0.8810078324546634 -4.8386121480027215 -0.07537816621712302
0.7787349906779922 -4.803217149552537 -0.07739153693428252
0.6884419113251968 -4.619920511691533 -0.07898815103145182
0.6014933062008521 -4.3133845784783755 -0.07619458235014213
0.5247236113804821 -3.9025568598549816 -0.07078576240036773
0.4586659298831446 -3.401605149317676 -0.06339524911788824
0.4038464202670213 -2.8256725935075386 -0.0546162571103758
0.360330272590079 -2.189496961107351 -0.045075974281854204
0.3282980459239941 -1.5075874803259492 -0.035899778667593925
0.3090595939193245 -0.7984315120663044 -0.029939854462063528
0.30296132626477096 -0.09120908515936144 -0.03118878303880099
1.7533998479229047 -0.08750899763288518 -0.0406128913589719
1.7464173365863138 -0.7903524025577282 -0.03987820914144569
1.7216991378340119 -1.4950578127480885 -0.048795965753948095
1.6747475786631862 -2.175026679423745 -0.061920510210166806
1.608870407069365 -2.8102523218588074 -0.07566325995669887
1.5255202686490752 -3.3854467946941282 -0.0884156337043471
1.4249855579851374 -3.885630407988603 -0.09912157759769907
1.3078957014324064 -4.295924792941203 -0.10678323079915981
1.1753474174962935 -4.601011023034462 -0.11045696156038584
1.0278474254316876 -4.788514091027178 -0.10654271504852302
0.8811886818881731 -4.8 -0.09054063210335074
0.7345956274674204 -4.789527084894808 -0.10715466425771782
0.5872973521789218 -4.6030705866240575 -0.11168404584214019
0.45509864610427475 -4.299093189506694 -0.10862107675516708
0.3385179397937023 -3.8899859482084294 -0.10153467510318764
0.2386457255211672 -3.3910577519346514 -0.091297212639604
0.15604153185746208 -2.817118512334494 -0.07877318973003128
0.09078373331978973 -2.182923573159686 -0.06479683979484284
0.044012085710400085 -1.5032092203722416 -0.05068725807048488
0.019037804635187172 -0.797258424391529 -0.039935703055654484
0.011874139467402855 -0.09191286277440291 -0.038648839095611245
0.0 0.0 0.0
0.020533515032257404 -0.7523357953838344 0.012682026680847997
0.0520595336519553 -1.4388211569060023 0.024222042115320756
0.09668664860302702 -2.0982242352583778 0.0349473376858641
0.15828625979282465 -2.7150358990645342 0.043224386373737926
0.23748142428048405 -3.2755448589202807 0.04903443117870964
0.33398492929601337 -3.7656021238489554 0.051978908431476394
0.44733656906275515 -4.171617768436143 0.05178549646584439
0.5770876292893298 -4.480295344380079 0.04858183010473596
0.7227069163369627 -4.677662425129483 0.04373419281252343
0.8805176239362471 -4.747515677802809 0.04093010804957616
1.0383466620666917 -4.67801922090644 0.043763009627302306
1.1840234976826525 -4.481007835349397 0.04866026107887368
1.3138799712157472 -4.172683369839111 0.05195945269750877
1.4274029775872707 -3.7670150010044425 0.052327972013094824
1.5241791587312563 -3.277289322721525 0.049679082599802214
1.6038114758487478 -2.7170702846609966 0.04434719621141845
1.6661359315482727 -2.100446989850307 0.03674145032197579
1.7119413420415253 -1.4410328047459129 0.02721341629973469
1.745794945251785 -0.7544517703444734 0.016132795179308105
1.7718605822660072 0.0 0.014160830446256953
0.3035683728600602 -0.02187399512194246 0.0018692389573854262
0.3158600424154656 -0.7512409506419805 0.005814526302877261
0.33087059834900345 -1.443678436218303 0.015122171706690486
0.36084474455037124 -2.104303744890467 0.02275472822143061
0.40185319093935296 -2.723391237219795 0.02867227401727749
0.4545975401890203 -3.286024885880577 0.03262865160548649
0.5188743930644827 -3.7782363170132705 0.03456539489461289
0.5943431822036283 -4.186389171703508 0.034404470831608934
0.6805300293737873 -4.4972566398536715 0.032326929223218885
0.7767806606846408 -4.696866224001151 0.029114172485693136
0.8805973327172743 -4.768116759631365 0.02706039979896106
0.9844320221279231 -4.69722691363701 0.029039865736741048
1.0807390402204105 -4.497977179462664 0.03219452281917741
1.1670283358788205 -4.187467642302848 0.03425162208473949
1.24266128392277 -3.7796683285451094 0.034460772583495995
1.3071928712364649 -3.28779791240107 0.03268783646413278
1.360337455678874 -2.72546987422753 0.029065822717593098
1.401981803063587 -2.1065973356230954 0.02376472774506571
1.433046868215567 -1.4460295064138688 0.01700387836922896
1.4499705295001495 -0.7536565079251124 0.00957227751104328
1.4633582508935825 -0.02225111477084955 0.010717141547229048
0.5950933448013568 -0.03851449318305168 -0.0033653443834373124
0.6019079140881475 -0.7510938182047554 -0.000262535839453212
0.6071403849681096 -1.4454806744575373 0.005851721401390598
0.6208716581446007 -2.1080040726726477 0.010825456899739492
0.6413721152859437 -2.7282808317015266 0.014280292746252147
0.6676510750597722 -3.292204864523314 0.016365770420113016
0.6997071214491268 -3.785669116963401 0.017168590857170866
0.7372470819128325 -4.195019661832579 0.016762442156548936
0.7797490953739766 -4.507101327483907 0.015241512569742072
0.8273296728388043 -4.708492826937949 0.012674399789343808
0.8806834766811714 -4.7819020163279 0.01040792900347679
0.9340547828802799 -4.708859185864801 0.012498361247299718
0.9816897066692547 -4.507833398496658 0.014901624151084656
1.024288829173874 -4.196115938269791 0.016289246143280645
1.061980063815529 -3.787125980141992 0.016623792942625996
1.0942627030040553 -3.2940117254818055 0.01586092859035745
1.1208825689853632 -2.730406458517307 0.014004011448601233
1.14191376008941 -2.1103636085513893 0.011066492922936636
1.1565263499355631 -1.4479639653268561 0.007036298395116867
1.1626797382286793 -0.7533653810343349 0.0028606176421018888
1.1699019526194676 -0.03886748676107703 0.0033174985836656413
0.8806061785709709 -0.04969263362380771 -0.010419611518660787
0.8829160652232622 -0.7516078313864571 -0.006943243274010446
0.8803886386267135 -1.4454012158117373 -0.0033936681744427986
0.8790333482149266 -2.1090927816562166 -0.001135433772042515
0.8787819452644501 -2.7299195233590687 -0.0001559825387401914
0.8786232712674074 -3.2942472558038913 -2.9669077443389704e-05
0.8784548563358194 -3.7881275468899434 -0.00047023111071207725
0.8781672903209119 -4.197762410515485 -0.0013069749240772381
0.8771216638323974 -4.510088615279482 -0.0025014806452602865
0.8762696475184668 -4.713212291414475 -0.004665626843578242
0.8807728138330908 -4.790721466484655 -0.007742742135697275
0.8852928473779748 -4.713586008831232 -0.004943590569403819
0.8844926448315262 -4.510835473029124 -0.003049154032687849
0.8835374551818204 -4.198880941201211 -0.002100436955169224
0.883385481856835 -3.7896140523361264 -0.0014542654142258727
0.8834091760744385 -3.2960916507511673 -0.0010924354364342088
0.8835211802025082 -2.7320913101384425 -0.001094206445290771
0.88367406366479 -2.1115181122088162 -0.001615961849609012
0.8828648503170051 -1.4479086655737357 -0.002888234281467157
0.8807591367884559 -0.7536640234821195 -0.0045781312814707036
0.8832681255168163 -0.05006387268344537 -0.005243356481726031
1.1641584671702045 -0.056058408506913925 -0.017699749503826544
1.1623814018486947 -0.7520682024949914 -0.013894488717948916
1.152723368051436 -1.4439981904489894 -0.012593894123920014
1.1371622370835368 -2.1077226332438794 -0.013044398435546365
1.1162637872758603 -2.7283080762934926 -0.014547155670738773
1.089606353602548 -3.292204203969361 -0.016398300125098433
1.057162533332485 -3.785679484179147 -0.018099962574396947
1.0191859466945763 -4.194788852014639 -0.019368513534409843
0.9750375916970476 -4.506268995495042 -0.020142038264464854
0.9251913593283134 -4.710750337642567 -0.021334610904287364
0.8808640187068308 -4.796026908185594 -0.02552697130173714
0.8365529506338498 -4.711133104139747 -0.021716411308989294
0.7867560837412985 -4.5070338744334375 -0.020901622943060635
0.7426915757940381 -4.195933995537992 -0.020489251853413607
0.7048348890347457 -3.787200233229068 -0.019533934439337736
0.6725480496212026 -3.2940886085920678 -0.018034887553434298
0.6460894640243583 -2.7305257354443055 -0.016167315583302682
0.6254411458491355 -2.1101927236493094 -0.014265394552148453
0.6101438560117588 -1.4464828491215993 -0.012818609435715942
0.6006393553752984 -0.753957324642312 -0.012337708076763605
0.598962107909928 -0.056461970276134366 -0.013790038876494454
1.4486029140796746 -0.05879895196709882 -0.024379729249485713
1.443373605169461 -0.7519737223533108 -0.020678477660131256
1.426791441236541 -1.4414282933709943 -0.021676268765872794
1.397387245838902 -2.1039968944913836 -0.02482398845909079
1.3558878716293896 -2.7233863094121897 -0.028797353652909037
1.302680480784866 -3.286023435224662 -0.03257813855366321
1.2379781273261998 -3.7782075784601354 -0.035474479258699905
1.1620071493526445 -4.186179985053714 -0.036990520491948384
1.075975078469884 -4.495752060379222 -0.037078407908266914
0.9766087785146108 -4.699600487841018 -0.03592323521939061
0.8809556773629689 -4.799174555232786 -0.0403732987454284
0.785318431784968 -4.69999410409153 -0.03641242364632843
0.6859996605373814 -4.496538421059289 -0.038057753524057256
0.6000461832610676 -4.187356507346573 -0.03845231155133539
0.524182064638355 -3.7797676550126 -0.037381007838597914
0.45960725456836865 -3.2879515122420426 -0.03482459705121839
0.40653216773298856 -2.7256466322220962 -0.031154244396157094
0.36513831130636115 -2.1064934652223215 -0.0268648475474423
0.33576666945513794 -1.4438826991499485 -0.022735622442035478
0.31914379654371233 -0.7537619103626132 -0.019975215719608357
0.3139248865003354 -0.0592159038863084 -0.021568546008076252
1.7355227276107177 -0.059674312886249886 -0.029507695552266358
1.7284969532468668 -0.7511689214559679 -0.027027140972656825
1.705421099916636 -1.4376395472490515 -0.030689835499733795
1.6617674325273415 -2.09779647103075 -0.036649807999851604
1.5995425814839805 -2.715011222888814 -0.04314589319574449
1.5198091892580605 -3.275499958110549 -0.048840311879022866
1.4228352806661813 -3.7655798568554544 -0.0528153770351401
1.3089446980331965 -4.171271503662871 -0.05443979067100884
1.179453763037984 -4.479720736387376 -0.053293784260252657
1.038737197642633 -4.677070746011391 -0.04911022417492998
0.8810442381869742 -4.8 -0.04723023188707288
0.723366898993056 -4.6774771591124535 -0.04971170148477204
0.5826967756893663 -4.480532385258387 -0.054503867630363384
0.4532811407480185 -4.1724847901358135 -0.05626234190756575
0.3394890833676916 -3.767185605037935 -0.05522773909594925
0.24262356087093165 -3.27747721652105 -0.051751852366044626
0.1629771313811679 -2.7173133809957974 -0.04633060143039014
0.10075113644144575 -2.1003075822995654 -0.039652745617648685
0.05692778608164181 -1.4400596947790427 -0.03276305564372619
0.033576239523324725 -0.7528969400022909 -0.027261325628646187
0.026432396897431078 -0.060073156105851934 -0.02757160005974046
0.0 0.0 0.0
0.028506021496565462 -0.7331782684448768 0.005479569378457759
0.059955033400698035 -1.4075094174830063 0.010282702999924566
0.10354450462124144 -2.057151653720127 0.014836521711303379
0.16336869743633334 -2.6665054452805923 0.018063589761020314
0.23967672836609016 -3.2224418350633326 0.019700228829464594
0.33224697811737053 -3.7117603613880923 0.019617097490298354
0.4412180340768822 -4.1217797125387134 0.017842832319781298
0.5679915332011456 -4.4394408846630515 0.014751791637224777
0.7152676108251635 -4.648226841870359 0.011424213674587718
0.8805617964301731 -4.724171232963359 0.00983033518484583
1.0458346677055603 -4.648142241486315 0.01142728080223374
1.193043558313727 -4.439245676036261 0.014770668262992297
1.3196937184543183 -4.1214229996494165 0.01790521054405822
1.4284661278985114 -3.7111699428212885 0.019768973236662407
1.5207299053034755 -3.221534509259046 0.02000696557957947
1.5965742238767882 -2.6652086973569524 0.01860898399129623
1.6556901963823016 -2.055444635594791 0.015708530884610522
1.6982245025510756 -1.4054596830354908 0.011698661815651561
1.727529810721081 -0.7307321781164116 0.007875313011807878
1.7498787317981412 0.0 0.00803526724328781
0.3048685334081346 -0.018915950987938166 0.0001981199645814407
0.3174545508348098 -0.7330628246695627 0.0028120298078756173
0.3340882958217257 -1.4125632194927273 0.006488415941008092
0.3638990214787646 -2.063567903416301 0.009803763914404986
0.40410845264192624 -2.6752272785190505 0.012193908737378481
0.4553076969383811 -3.233397951866311 0.013410460280350726
0.5173417308127725 -3.725066019852084 0.013435036082747109
0.5902904194273556 -4.137607019876721 0.012353576537849915
0.6748301782640241 -4.458221384475234 0.010443567118790976
0.772202523732292 -4.670456974994892 0.008349210329816625
0.8805496869309046 -4.748642834939943 0.007292819610749268
0.9888704542427189 -4.670365090668712 0.008287916743566097
1.0861606331860414 -4.458009710237441 0.010330132185021008
1.170553323052673 -4.137220501798599 0.012208934793364535
1.243273862585423 -3.7244253014386115 0.013296313275130256
1.304973801440583 -3.2324082256418336 0.013336239448347728
1.3556935239548087 -2.6737986322172573 0.012265447973807119
1.3952258236287864 -2.0616546073884487 0.010144364280508586
1.4240043808648712 -1.4101731262721737 0.0072813956602538815
1.4389108441453713 -0.730052255398861 0.0049963955612945705
1.4507823410970038 -0.017981570298833755 0.006376980923295551
0.592999015786516 -0.0326083264891432 -0.0019000783874365576
0.5994717837497692 -0.7327518185196529 -0.00010964426455669937
0.6055667492821103 -1.4148774029070816 0.002404342121447499
0.6199937622477042 -2.0676344432384894 0.004609649547118403
0.6405858475696683 -2.680542562322148 0.0060959645455008725
0.6665341579714174 -3.240087530937972 0.006779057116458401
0.6978319297414406 -3.7331514114217055 0.0067144123209340635
0.7343022581027254 -4.147098961737872 0.006012480958894998
0.7758239586827088 -4.4693493379212486 0.004821668111225297
0.823842365188579 -4.6843959700052205 0.003404701470830462
0.8805449063336933 -4.765982022830899 0.002554204460787883
0.9372164646328851 -4.6842996929259595 0.0032806838730236303
0.9851393278882143 -4.469127281416794 0.004580052439249158
1.0264932777517974 -4.146692616460543 0.005669429583305005
1.0627113961497068 -3.732475503675834 0.006302350547731353
1.0936552611466026 -3.23903749095503 0.00635531347446725
1.1191248116976642 -2.679013082647104 0.005754438752065583
1.1390772042366664 -2.065560744250492 0.004494226396786568
1.1526128753656089 -1.4122013158741333 0.002797070679255115
1.1580170404931753 -0.7297402261832517 0.0016840058032038016
1.1644716763699612 -0.03120699396243187 0.0027426998984715198
0.8745595325876689 -0.0417965284002244 -0.0052208899638734015
0.8764805750339785 -0.7327614451378313 -0.0033187755127373946
0.8745175988984023 -1.4151029673372806 -0.0017588739093758329
0.8742174048798623 -2.069019751203289 -0.0006260889648624628
0.8749277707430907 -2.682430139218116 -4.2150671169147096e-05
0.8755640850535615 -3.242395844526236 6.032185403446857e-05
0.8759896959291367 -3.735902728893181 -0.000177933210205018
0.8759310749007578 -4.150096816833886 -0.0006371873370114863
0.8744076192852869 -4.472616843844957 -0.0012950667023673324
0.8732550989544413 -4.690465273723453 -0.0022352855793199766
0.8805440935454816 -4.778296813634608 -0.0029993829203409624
0.8877976624834243 -4.690367666682397 -0.00242183721052727
0.8865366793116525 -4.472390855033155 -0.0016641569323035796
0.8848256911732261 -4.1496812144798385 -0.0011765656673323732
0.8844921821239697 -3.7352076426205825 -0.0008584236772882865
0.8845472153122512 -3.241308626259719 -0.000701603442038092
0.8847109635116088 -2.6808339488869493 -0.0007771838296652738
0.8848319508131071 -2.0668230373649408 -0.0011513217708419515
0.8839103294913772 -1.412311822614987 -0.0017213269413875016
0.8816812951393566 -0.7298378187294753 -0.001984786036512974
0.8837286868078751 -0.0399839270454284 -0.0017197135041271691
1.1539760423929764 -0.04706331572024093 -0.00888694741150955
1.1518492202195882 -0.7327525046555107 -0.00661083643595522
1.1426642825917073 -1.4137991422151 -0.005914264530947229
1.1284427497140652 -2.067768778570948 -0.005846429436458368
1.109307317731896 -2.680840814217444 -0.006161810378783077
1.0845822902608473 -3.240291832219077 -0.006644671341960011
1.054057040590504 -3.733300206829963 -0.007062414356753789
1.017717349893523 -4.146729059642767 -0.007277973873055665
0.9739826423689191 -4.467984885566047 -0.007372289050269262
0.9230150775562472 -4.688122735552186 -0.007752321970320486
0.8805433589313012 -4.7873007566113195 -0.008353572363311416
0.8380315413977117 -4.688026922124893 -0.008002640561179433
0.7869418721600413 -4.467761540621639 -0.00787147334060856
0.7429984793594117 -4.146314978194408 -0.008018040200822212
0.7063589250657865 -3.732602148077357 -0.00801793498629398
0.6754434083175205 -3.2391918487550244 -0.007754645362660103
0.6502481053223238 -2.6792105256005425 -0.00730321804369552
0.6305977521795083 -2.0655106573761763 -0.006794812446435266
0.6159508426954474 -1.4109836083760634 -0.006271313336840701
0.6066633994445926 -0.7298912787465928 -0.005759827406091466
0.6046806415225602 -0.04493758944954282 -0.006284572382080386
1.4341373029910398 -0.04937998092849131 -0.012124297937279885
1.4285790004528593 -0.7323572298422483 -0.009661943475717694
1.4124458888696212 -1.4111994881744143 -0.009969648932070247
1.3847133209612654 -2.0640075643086444 -0.010993465614796038
1.3458192324164773 -2.675762693802954 -0.01220422372173378
1.2957580310704553 -3.2338010595655122 -0.013235908250807312
1.2344310690268019 -3.725297383970712 -0.01375806672310736
1.161621376565885 -4.137291091823658 -0.01359910706934076
1.0779165819307934 -4.4558559377967395 -0.012905404248996458
0.9770189177647015 -4.675418692813453 -0.01240020611874547
0.8805388106543675 -4.794582767030733 -0.012502883892112888
0.7840133307696179 -4.675327741974218 -0.01271695696782972
0.6829780184551663 -4.455641710714133 -0.013540657183511091
0.5990398270183902 -4.1368891001318815 -0.014550606899649671
0.5258994311631494 -3.724612421499532 -0.015006858956581649
0.4641524604378458 -3.23271189502424 -0.014724274787410986
0.4136134666477687 -2.6741353627145275 -0.013800490857060274
0.37426441392891857 -2.061746509661443 -0.012439747537728123
0.34624292609675805 -1.4084053052100316 -0.010822841216456162
0.33009729523069703 -0.729527266066362 -0.009329949128648094
0.3246878133961168 -0.047057214921182186 -0.010256652865137758
1.716731769391641 -0.050206040749569865 -0.013938444152739973
1.7093324079275343 -0.7314227339274485 -0.012167527400841734
1.6867088704311388 -1.4073746443422572 -0.013759802215472383
1.64520589643501 -2.057784442807724 -0.01592212161624388
1.586556226811901 -2.6672724308931395 -0.017990497890275584
1.5113153904229655 -3.222988989409305 -0.019459328454769956
1.4193695787774843 -3.712128148059133 -0.01989564056806523
1.3104878930330575 -4.12138514735072 -0.01906314327329061
1.1852739600035735 -4.438514084821701 -0.017160774085548742
1.0465881733433087 -4.649211105808168 -0.015180469197431242
0.8805271060929759 -4.8 -0.014253941693788123
0.714414452823626 -4.64912790877397 -0.015567832167678618
0.5755724793326337 -4.438315080217334 -0.017941585402602545
0.4500948783984414 -4.12100527878897 -0.02024348212325116
0.3408422735253107 -3.7114713969965254 -0.021467891879617326
0.24843123969411396 -3.221933218216649 -0.021377562372264094
0.172678941995869 -2.665684386762041 -0.02012864745457784
0.11359409357362969 -2.0555747991967395 -0.018005619814367897
0.07191965247799684 -1.4046474246129583 -0.015287812493126704
0.04943175843994229 -0.7286258442569649 -0.012444464226940519
0.042234406901777335 -0.04778905423544197 -0.012618735797680839
0.0 0.0 0.0
0.030239057886409234 -0.728035801527132 -6.31535818903715e-14
0.061861685763561255 -1.3985837547369113 -1.1911062410327148e-13
0.1049655368024165 -2.045249006411677 -1.726253123093456e-13
0.16390082794138117 -2.6526853949880826 -2.2255129977654967e-13
0.23904429846886238 -3.2079529562868934 -2.7809745416470003e-13
0.3302799790366196 -3.69811261101231 -3.4452608075221004e-13
0.4380771643905306 -4.1106178488485625 -4.2532081605725565e-13
0.5644567937635195 -4.432068073530446 -4.926520757717232e-13
0.7127771067998822 -4.64468413593692 -5.562923772449065e-13
0.8805373026187953 -4.722385204490155 -6.223738825263586e-13
1.048259299744852 -4.644428960208314 -6.910781065647332e-13
1.1964596691630855 -4.431520342252346 -7.521135485364471e-13
1.3226201382555731 -4.109704210103126 -7.851373408216574e-13
1.4300643322613045 -3.696729114414831 -8.424972627052177e-13
1.5207506968886089 -3.205982494730518 -8.933953474239199e-13
1.5950451395042902 -2.650036503429505 -9.950426858259513e-13
1.6526663916757083 -2.041929742296996 -1.1039878076478437e-12
1.6937536806585514 -1.394752201516876 -1.222183165252289e-12
1.7220161664737819 -0.7239659473191802 -1.3442717707820357e-12
1.7434282390181555 0.0 -1.4333812083542245e-12
0.3047650065142791 -0.018290677501918772 -1.275872849043146e-14
0.3174087946390565 -0.7282726352049504 -5.703643867817698e-14
0.33464771925451736 -1.4037359455939638 -1.1086874243345752e-13
0.3642944072118258 -2.051777875322198 -1.6635965426892252e-13
0.40405400984094614 -2.6615202353643483 -2.2180970968780756e-13
0.4546091189921533 -3.2190694918376734 -2.81814670364341e-13
0.5159036423258914 -3.711674717104648 -3.4596051917195634e-13
0.5882290473755953 -4.126868834409175 -4.197142300913217e-13
0.6726221119142017 -4.451511161635376 -4.903584108817772e-13
0.770671066590862 -4.667823554488001 -5.644869293817618e-13
0.8804909730096903 -4.747894237979854 -6.29089924252623e-13
0.9902655243904697 -4.667556332094393 -7.035072659112197e-13
1.0881734849564138 -4.45093645645049 -7.770739119651301e-13
1.1723143084912413 -4.1259068762582745 -8.316883351811697e-13
1.2442469299227275 -3.710210381752409 -8.998197799470262e-13
1.304958659489242 -3.2169668382199395 -9.705289065375532e-13
1.354659712306042 -2.6586616301078454 -1.0585460543103854e-12
1.3931697809109465 -2.048125718213015 -1.1577041841433271e-12
1.4209570768321589 -1.3994002027766068 -1.2623094824881888e-12
1.4354524209107682 -0.7233150484807493 -1.3683547744452704e-12
1.4468798505191658 -0.017238788052067945 -1.4453534914596048e-12
0.5918740981363415 -0.03181935893429769 -1.3979735443012143e-14
0.5982756401114342 -0.7279635431080294 -5.537458521054075e-14
0.6047729825558023 -1.4061616127095649 -1.0556527805394503e-13
0.6193429458675742 -2.0558822610487626 -1.629737612244641e-13
0.6398503755275494 -2.6668667037505425 -2.205555521278552e-13
0.6656096163348173 -3.225796375450029 -2.852220363781062e-13
0.6966619093983885 -3.719834777273119 -3.5276987295040154e-13
0.7329263075485293 -4.136504306823862 -4.1779814244818794e-13
0.7744377223513732 -4.462882373398427 -4.998860955259672e-13
0.822827047713729 -4.682107596549847 -5.731655614788778e-13
0.8804524088161114 -4.765697628869755 -6.416829584171678e-13
0.9380261431440575 -4.681831776243194 -7.243418814235973e-13
0.9862563823012145 -4.462288121717847 -8.025709472768099e-13
1.027488497246333 -4.135506770656632 -8.76670917766853e-13
1.0633313325576292 -3.7183098454315076 -9.539015662517365e-13
1.093785408264053 -3.223593626153371 -1.032957708246147e-12
1.1187151283756733 -2.6638426990562474 -1.116711498434601e-12
1.1380812427007356 -2.0519770374448227 -1.2058886789952018e-12
1.151086959979422 -1.401397333558434 -1.3013500012848941e-12
1.156368242384957 -0.723010438133489 -1.3946527959920122e-12
1.1625959753449808 -0.029937689990400338 -1.4737486157220295e-12
0.8721757533264983 -0.04091543669226417 -1.1806985068541728e-14
0.8740804747506223 -0.7279389407806013 -5.3206583472511127e-14
0.8724553505812586 -1.406453929731417 -1.0225955340657695e-13
0.8724748319436301 -2.057325300007151 -1.614722229317762e-13
0.8734411869039493 -2.668789097942167 -2.2082679421449006e-13
0.8743086413537065 -3.228136131565578 -2.875877719619142e-13
0.8749418657510417 -3.722621977332613 -3.5751907202553975e-13
0.8750483834997792 -4.139546377569649 -4.247869009913644e-13
0.8736261183149363 -4.466210922579817 -5.076488387136986e-13
0.8725726288595876 -4.688267343177821 -5.850811899764288e-13
0.8804173751623816 -4.778259333236759 -6.579863476826174e-13
0.8882045126850355 -4.687986552329091 -7.470444260388866e-13
0.8869748402799544 -4.465604945647754 -8.250839938018832e-13
0.8852482886742137 -4.138526530574616 -9.16930810203622e-13
0.8849082951111369 -3.7210577331360284 -1.0032529610752253e-12
0.8849349314132984 -3.225865105922024 -1.0869865431502672e-12
0.8850133497052303 -2.6656505355559625 -1.1692914207416665e-12
0.8849710178845208 -2.053224679147475 -1.2516604190876444e-12
0.8839020075945403 -1.4015198988714908 -1.3390892645872288e-12
0.8817416535489292 -0.7231172302065351 -1.4238903149693083e-12
0.8837296248438471 -0.038337984160318875 -1.507593064435971e-12
1.150174349396094 -0.04612165607906602 -8.843793071876989e-15
1.1481538993574425 -0.7278987455693383 -5.073586520852316e-14
1.1393579368883096 -1.4051996371334383 -1.0054776630038605e-13
1.1256256535396483 -2.056142718841021 -1.5817792849597385e-13
1.1070651073101445 -2.6672531428202872 -2.1984577001954498e-13
1.0829914719475948 -3.226070202455773 -2.868114254505338e-13
1.0531263045048627 -3.7200361025445035 -3.627121884516064e-13
1.0173367944443912 -4.13615525640124 -4.3352842268228533e-13
0.9738457449921443 -4.4615050473945495 -5.166627948501518e-13
0.9226684591463028 -4.68582143282737 -5.973837376345589e-13
0.8803817718710173 -4.787379177777137 -6.769668779637304e-13
0.838031189341287 -4.685539361613303 -7.669850642088192e-13
0.7866596616148005 -4.460895267269534 -8.563525231859845e-13
0.7428375381733414 -4.135126560766974 -9.534654524779748e-13
0.7065733686062695 -3.718453695856765 -1.048914390484611e-12
0.676089521617526 -3.2237646688451047 -1.143660999678719e-12
0.6512632278966248 -2.6640479986462227 -1.220561234588207e-12
0.6318614083388276 -2.0519392987700518 -1.2975763920330604e-12
0.6174059415578791 -1.4002314110469893 -1.3753888466229857e-12
0.6083796945998208 -0.7231774250832582 -1.4533844563066245e-12
0.6065113610348078 -0.043045270934419476 -1.5415854974676586e-12
1.4287998520150968 -0.04840747092588645 -5.9873188883574605e-15
1.4235120349870853 -0.727473146625758 -4.839724569569767e-14
1.4079023671122353 -1.4026421907757705 -9.802657404483845e-14
1.3808663867625384 -2.052450941353322 -1.5494135585593615e-13
1.3428873043538305 -2.6622359673920166 -2.2031593977059724e-13
1.2939263172223963 -3.219612522866486 -2.9435688570197505e-13
1.2337575842092157 -3.7120105564293953 -3.62179069998271e-13
1.1619308852539054 -4.1266122677653785 -4.359074696045359e-13
1.0787096324575671 -4.449135156300292 -5.278621020971612e-13
0.9772056916534432 -4.672764871492453 -6.023280131328157e-13
0.8803414823157576 -4.794666413252097 -6.909882575166778e-13
0.7834061860999557 -4.672485139266109 -7.795922812243046e-13
0.6816870323403603 -4.448529355888463 -8.812903590188308e-13
0.5981022591402898 -4.125587829126604 -9.897293938339e-13
0.5257630213687359 -3.7104308566291655 -1.0939580254542853e-12
0.46494655680986885 -3.2173051075138206 -1.1967674637246196e-12
0.4152511772938935 -2.65901910885163 -1.2765435178813676e-12
0.376572330220081 -2.048233950115311 -1.3467827783406762e-12
0.3490876729789455 -1.3977097571325974 -1.413181542221377e-12
0.3334463284641521 -0.7228108046354981 -1.4795470027595529e-12
0.3283593488321634 -0.04503148991969866 -1.5708992731192285e-12
1.7097561258267768 -0.049163002240224477 -3.090334176774853e-15
1.7027867599487512 -0.7264609688380914 -4.536696892069687e-14
1.6808610815581124 -1.3988118994476195 -9.334234323508152e-14
1.6403355754998863 -2.0462377415186954 -1.4965286695195624e-13
1.5830140232273382 -2.6537267197153525 -2.2206129590270074e-13
1.5093974906005456 -3.208713640490371 -3.04509994398157e-13
1.4192039199790107 -3.698640314276477 -3.579902582541007e-13
1.3118718527590976 -4.110318555281592 -4.3648148499994553e-13
1.187402808133349 -4.431199337570013 -5.164825808717801e-13
1.0479980263552569 -4.645575786511434 -6.020002430560117e-13
0.8802922062539836 -4.8 -6.951272173954375e-13
0.712506595624937 -4.645301835727182 -7.863111466968287e-13
0.5728607157137799 -4.4306049064221265 -8.88547195825255e-13
0.4479862610293351 -4.109310873083041 -1.0220001487996416e-12
0.3400872323652176 -3.6970829944942194 -1.139411316802603e-12
0.2491886824355926 -3.2064358078619217 -1.2627783127893868e-12
0.17480863395494664 -2.6505530872264367 -1.3411795940090377e-12
0.11686069331681058 -2.04209442812659 -1.4050932507881406e-12
0.07613621295294386 -1.3939928571943472 -1.4531326959567418e-12
0.054480178029272866 -0.7218663195372805 -1.5018606617096003e-12
0.047835606796194856 -0.04565177039809368 -1.588086930186803e-12
0.0 0.0 0.0
0.028506021496679357 -0.7331782684449326 -0.005479569378584601
0.05995503340087357 -1.4075094174830978 -0.010282703000152759
0.10354450462146442 -2.057151653720177 -0.014836521711638791
0.16336869743657487 -2.6665054452805714 -0.018063589761465812
0.2396767283663329 -3.222441835063317 -0.01970022883003062
0.3322469781176255 -3.7117603613880714 -0.019617097490966705
0.4412180340771604 -4.121779712538703 -0.01784283232053368
0.5679915332014421 -4.439440884663061 -0.014751791638117457
0.7152676108254895 -4.648226841870272 -0.011424213675648387
0.8805617964305331 -4.724171232963283 -0.009830335186043334
1.045834667705972 -4.648142241486218 -0.011427280803565814
1.1930435583141954 -4.439245676035977 -0.014770668264437466
1.3196937184548059 -4.121422999648936 -0.017905210545622767
1.4284661278989979 -3.711169942820715 -0.019768973238354384
1.5207299053038745 -3.2215345092582757 -0.02000696558142604
1.5965742238770835 -2.6652086973563125 -0.018608983993311706
1.6556901963825537 -2.055444635594245 -0.015708530886826104
1.6982245025512854 -1.4054596830350718 -0.011698661818100526
1.7275298107212558 -0.7307321781161713 -0.007875313014489125
1.7498787317982745 0.0 -0.008035267246138454
0.30486853340823833 -0.01891595098794499 -0.00019811996460892563
0.3174545508349393 -0.7330628246696325 -0.0028120298079916724
0.3340882958218969 -1.4125632194928273 -0.006488415941232943
0.3638990214789702 -2.0635679034163434 -0.009803763914738528
0.40410845264215844 -2.6752272785190447 -0.012193908737828607
0.4553076969386247 -3.2333979518662868 -0.013410460280921632
0.5173417308130266 -3.7250660198520684 -0.013435036083433346
0.5902904194276305 -4.137607019876726 -0.012353576538647014
0.6748301782643056 -4.458221384475244 -0.010443567119732471
0.7722025237325992 -4.670456974994854 -0.008349210330904409
0.8805496869312567 -4.748642834939879 -0.007292819611986065
0.9888704542430926 -4.670365090668625 -0.00828791674494383
1.0861606331864442 -4.458009710237219 -0.010330132186527875
1.1705533230531184 -4.1372205017981365 -0.012208934795017615
1.243273862585846 -3.7244253014380373 -0.013296313276922038
1.3049738014409678 -3.2324082256410156 -0.013336239450307014
1.355693523955148 -2.673798632216601 -0.012265447975934537
1.395225823629079 -2.061654607387892 -0.010144364282824525
1.424004380865139 -1.410173126271751 -0.007281395662785604
1.4389108441456235 -0.7300522553986193 -0.0049963955640251615
1.4507823410972425 -0.01798157029880718 -0.006376980926175101
0.5929990157866595 -0.03260832648915561 0.0019000783874053228
0.599471783749927 -0.7327518185197253 0.00010964426444452377
0.6055667492822807 -1.4148774029071711 -0.0024043421216661254
0.6199937622479033 -2.0676344432385516 -0.004609649547451451
0.6405858475698851 -2.6805425623221395 -0.006095964545953332
0.6665341579716468 -3.2400875309379273 -0.0067790571170340186
0.6978319297416884 -3.7331514114217015 -0.0067144123216365936
0.7343022581029793 -4.14709896173788 -0.006012480959733241
0.7758239586829758 -4.46934933792126 -0.004821668112203141
0.8238423651888817 -4.684395970005184 -0.003404701471960238
0.880544906334016 -4.765982022830846 -0.002554204462068644
0.9372164646332252 -4.684299692925853 -0.003280683874450261
0.9851393278885783 -4.469127281416623 -0.004580052440821325
1.0264932777521865 -4.146692616460092 -0.005669429585042208
1.062711396150101 -3.7324755036752855 -0.006302350549622687
1.093655261146984 -3.23903749095425 -0.006355313476532816
1.1191248116980217 -2.6790130826464296 -0.005754438754294466
1.1390772042370039 -2.0655607442499377 -0.004494226399202484
1.1526128753659195 -1.4122013158737057 -0.0027970706818619107
1.158017040493492 -0.7297402261830135 -0.001684005805990113
1.1644716763702658 -0.031206993962382096 -0.002742699901409925
0.8745595325878341 -0.04179652840024444 0.00522088996384636
0.8764805750341498 -0.732761445137898 0.0033187755126274088
0.8745175988985758 -1.4151029673373614 0.0017588739091634064
0.8742174048800522 -2.0690197512033497 0.0006260889645338302
0.8749277707432928 -2.6824301392181082 4.215067071592538e-05
0.8755640850537751 -3.2423958445262024 -6.032185462174453e-05
0.8759896959293663 -3.7359027288931665 0.00017793320948464325
0.8759310749009952 -4.150096816833878 0.0006371873361501862
0.8744076192855436 -4.472616843845027 0.0012950667013490698
0.8732550989547221 -4.690465273723438 0.002235285578155651
0.8805440935457812 -4.77829681363452 0.0029993829190097907
0.887797662483728 -4.690367666682313 0.00242183720904904
0.8865366793119821 -4.47239085503302 0.0016641569306627044
0.8848256911735627 -4.149681214479425 0.0011765656655140135
0.884492182124319 -3.7352076426200655 0.000858423675299034
0.8845472153126167 -3.241308626258943 0.0007016034398707313
0.8847109635119874 -2.68083394888629 0.0007771838273317114
0.8848319508134757 -2.066823037364358 0.0011513217683330054
0.8839103294917419 -1.4123118226145737 0.0017213269387064704
0.881681295139725 -0.7298378187292374 0.001984786033668062
0.8837286868082481 -0.039983927045364485 0.0017197135011177565
1.153976042393155 -0.0470633157202697 0.008886947411489883
1.1518492202197632 -0.7327525046555654 0.006610836435849553
1.1426642825918798 -1.413799142215172 0.005914264530738901
1.1284427497142466 -2.0677687785709997 0.005846429436132484
1.1093073177320885 -2.6808408142174476 0.006161810378329589
1.0845822902610383 -3.240291832219021 0.006644671341361739
1.0540570405907161 -3.7333002068299606 0.007062414356019925
1.0177173498937553 -4.146729059642771 0.00727797387216629
0.9739826423691719 -4.467984885566116 0.007372289049226953
0.9230150775565075 -4.6881227355522 0.007752321969122442
0.8805433589315776 -4.787300756611247 0.008353572361930073
0.8380315413980031 -4.68802692212483 0.00800264055964645
0.7869418721603252 -4.467761540621487 0.007871473338898616
0.7429984793597106 -4.1463149781940105 0.008018040198921309
0.7063589250660998 -3.7326021480768525 0.008017934984207942
0.6754434083178728 -3.2391918487542632 0.007754645360393729
0.6502481053227125 -2.6792105255998737 0.007303218041258115
0.6305977521799052 -2.0655106573755813 0.006794812443831
0.615950842695861 -1.4109836083756513 0.006271313334087138
0.606663399445017 -0.7298912787463595 0.005759827403186503
0.6046806415229896 -0.04493758944946985 0.006284572378999145
1.4341373029912197 -0.04937998092852545 0.012124297937269383
1.428579000453037 -0.7323572298422918 0.009661943475617572
1.4124458888697913 -1.4111994881744794 0.009969648931868405
1.3847133209614324 -2.064007564308707 0.010993465614473778
1.3458192324166574 -2.675762693802927 0.01220422372128139
1.2957580310706451 -3.2338010595654376 0.013235908250211465
1.2344310690270102 -3.7252973839707315 0.013758066722361639
1.1616213765661203 -4.137291091823636 0.013599107068420872
1.0779165819310432 -4.455855937796821 0.0129054042479291
0.977018917764944 -4.675418692813452 0.01240020611751247
0.8805388106546271 -4.794582767030699 0.012502883890691598
0.7840133307698804 -4.675327741974148 0.0127169569662452
0.6829780184554152 -4.455641710714022 0.013540657181733074
0.5990398270186457 -4.136889100131495 0.014550606897666137
0.525899431163422 -3.7246124214990393 0.01500685895439943
0.46415246043817643 -3.2327118950235287 0.01472427478503469
0.4136134666481642 -2.6741353627138493 0.013800490854516187
0.37426441392935156 -2.061746509660852 0.012439747535030157
0.34624292609722546 -1.4084053052096228 0.010822841213626663
0.3300972952311796 -0.729527266066137 0.009329949125686045
0.32468781339660546 -0.0470572149211049 0.010256652861994016
1.716731769391822 -0.05020604074960802 0.013938444152736183
1.7093324079277128 -0.7314227339274835 0.012167527400749827
1.6867088704313113 -1.4073746443423256 0.013759802215279466
1.6452058964351635 -2.0577844428077765 0.015922121615927754
1.5865562268120585 -2.667272430893112 0.01799049788982492
1.511315390423154 -3.222988989409246 0.01945932845418377
1.4193695787776952 -3.71212814805912 0.019895640567301396
1.310487893033295 -4.121385147350703 0.019063143272347767
1.185273960003825 -4.438514084821768 0.01716077408444863
1.0465881733435296 -4.649211105808159 0.015180469196171295
0.8805271060932156 -4.8 0.014253941692350667
0.7144144528238644 -4.6491279087738855 0.015567832166043167
0.5755724793328301 -4.438315080217231 0.01794158540074187
0.4500948783986205 -4.121005278788619 0.020243482121183272
0.34084227352552976 -3.7114713969960236 0.021467891877332765
0.24843123969441083 -3.2219332182159763 0.021377562369778117
0.17267894199627748 -2.6656843867613738 0.020128647451920167
0.11359409357411715 -2.0555747991961564 0.018005619811575366
0.07191965247852958 -1.4046474246125529 0.015287812490220471
0.049431758440488 -0.7286258442567362 0.01244446422392358
0.042234406902324925 -0.04778905423536506 0.01261873579449947
0.0 0.0 0.0
0.02053351503249986 -0.7523357953839539 -0.01268202668099661
0.05205953365231522 -1.4388211569060803 -0.02422204211558895
0.0966866486034533 -2.0982242352584057 -0.034947337686243515
0.1582862597933176 -2.7150358990645325 -0.04322438637421622
0.237481424281047 -3.275544858920213 -0.04903443117927382
0.3339849292966549 -3.7656021238487836 -0.051978908432117395
0.447336569063374 -4.171617768435734 -0.051785496466589434
0.5770876292898868 -4.480295344379606 -0.048581830105590904
0.7227069163375807 -4.677662425129208 -0.04373419281352461
0.8805176239369821 -4.747515677802394 -0.040930108050702074
1.0383466620674902 -4.678019220906023 -0.0437630096285782
1.1840234976835327 -4.481007835348738 -0.04866026108027598
1.3138799712166336 -4.172683369838255 -0.051959452699060174
1.4274029775880996 -3.767015001003352 -0.052327972014798455
1.524179158732004 -3.2772893227203794 -0.04967908260167386
1.6038114758493807 -2.7170702846597696 -0.04434719621344366
1.6661359315487714 -2.100446989849259 -0.03674145032420072
1.7119413420419154 -1.4410328047450782 -0.02721341630218306
1.7457949452521089 -0.754451770343949 -0.0161327951819892
1.77186058226624 0.0 -0.01416083044910468
0.3035683728602654 -0.02187399512196168 -0.0018692389574169836
0.3158600424157231 -0.7512409506421109 -0.005814526303011682
0.3308705983493483 -1.443678436218387 -0.01512217170694558
0.3608447445507852 -2.104303744890501 -0.022754728221797655
0.4018531909398235 -2.723391237219811 -0.028672274017747485
0.4545975401895452 -3.286024885880534 -0.03262865160605914
0.5188743930650505 -3.7782363170131177 -0.034565394895288176
0.5943431822041975 -4.186389171703046 -0.03440447083239708
0.6805300293743716 -4.497256639853196 -0.03232692922412928
0.7767806606852639 -4.6968662240008925 -0.029114172486749145
0.8805973327179688 -4.768116759630985 -0.02706039980016504
0.9844320221286793 -4.6972269136365785 -0.02903986573808381
1.080739040221201 -4.4979771794620165 -0.03219452282066293
1.1670283358796254 -4.187467642301949 -0.03425162208637417
1.2426612839235396 -3.779668328544013 -0.034460772585291684
1.3071928712371785 -3.287797912399906 -0.032687836466093294
1.3603374556795238 -2.725469874226317 -0.02906582271972556
1.4019818030641575 -2.106597335622004 -0.02376472774739285
1.4330468682160626 -1.44602950641303 -0.017003878371755696
1.4499705295006302 -0.7536565079245955 -0.009572277513776907
1.4633582508940282 -0.022251114770775057 -0.010717141550104966
0.5950933448016416 -0.03851449318308092 0.0033653443834010277
0.6019079140884485 -0.7510938182048877 0.00026253583932509916
0.6071403849684515 -1.4454806744576367 -0.0058517214016339195
0.6208716581449983 -2.108004072672691 -0.01082545690009487
0.6413721152863883 -2.728280831701553 -0.014280292746719762
0.667651075060264 -3.2922048645232778 -0.01636577042069732
0.6997071214496413 -3.7856691169632275 -0.01716859085787281
0.7372470819133713 -4.195019661832137 -0.016762442157371403
0.7797490953745516 -4.507101327483457 -0.015241512570696827
0.8273296728394047 -4.708492826937687 -0.01267439979044572
0.8806834766818319 -4.781902016327528 -0.01040792900475345
0.9340547828809908 -4.708859185864392 -0.012498361248710005
0.9816897066699759 -4.507833398495971 -0.014901624152648906
1.024288829174596 -4.196115938268931 -0.016289246144998954
1.0619800638162502 -3.787125980140869 -0.01662379294451213
1.0942627030047558 -3.2940117254806314 -0.015860928592413205
1.1208825689860378 -2.730406458516094 -0.014004011450841222
1.141913760090039 -2.1103636085502657 -0.011066492925355095
1.1565263499361702 -1.4479639653260366 -0.0070362983977197025
1.1626797382292855 -0.753365381033815 -0.0028606176448896133
1.1699019526200507 -0.038867486760949053 -0.003317498586603246
0.8806061785712991 -0.049692633623849146 0.010419611518634976
0.8829160652235929 -0.7516078313865735 0.006943243273888414
0.8803886386270626 -1.4454012158118485 0.003393668174214197
0.8790333482153031 -2.1090927816562695 0.001135433771696666
0.8787819452648662 -2.729919523359104 0.00015598253827530303
0.8786232712678586 -3.294247255803858 2.9669076851603372e-05
0.878454856336307 -3.7881275468897835 0.00047023110999178135
0.8781672903214177 -4.197762410515117 0.0013069749232159067
0.8771216638329464 -4.510088615279057 0.0025014806442649425
0.8762696475190471 -4.713212291414255 0.004665626842425437
0.8807728138337174 -4.790721466484373 0.007742742134364921
0.8852928473786414 -4.713586008830802 0.0049435905679260815
0.8844926448321806 -4.510835473028423 0.0030491540310493854
0.8835374551824763 -4.198880941200349 0.0021004369533654784
0.8833854818575148 -3.789614052335029 0.0014542654122432315
0.8834091760751307 -3.2960916507499767 0.001092435434274361
0.8835211802031929 -2.732091310137201 0.0010942064429522984
0.8836740636654877 -2.1115181122077065 0.0016159618470964867
0.8828648503177177 -1.4479086655729168 0.002888234278787668
0.8807591367891795 -0.7536640234816014 0.004578131278621774
0.8832681255175298 -0.05006387268328062 0.005243356478716283
1.1641584671705552 -0.05605840850696627 0.01769974950381543
1.1623814018490402 -0.7520682024950958 0.013894488717837602
1.1527233680517914 -1.4439981904491026 0.012593894123705176
1.1371622370839078 -2.107722633243934 0.01304439843521545
1.116263787276241 -2.728308076293527 0.014547155670274512
1.0896063536029665 -3.2922042039693844 0.016398300124496015
1.0571625333329273 -3.785679484179018 0.018099962573650857
1.0191859466950615 -4.194788852014241 0.019368513533518823
0.9750375916975816 -4.506268995494644 0.020142038263424904
0.925191359328865 -4.710750337642341 0.021334610903085343
0.8808640187074064 -4.796026908185366 0.025526971300355028
0.8365529506344597 -4.711133104139312 0.021716411307448953
0.786756083741881 -4.507033874432688 0.020901622941345243
0.742691575794634 -4.195933995537155 0.02048925185151764
0.7048348890353854 -3.7872002332279915 0.019533934437249035
0.6725480496218803 -3.294088608590885 0.01803488755117022
0.6460894640250706 -2.7305257354430688 0.016167315580862963
0.625441145849896 -2.110192723648229 0.014265394549544645
0.6101438560125743 -1.446482849120792 0.012818609432957727
0.6006393553761298 -0.7539573246417812 0.012337708073850151
0.5989621079107552 -0.05646197027595317 0.013790038873412479
1.4486029140800507 -0.058798951967153804 0.02437972924949004
1.4433736051698254 -0.7519737223534109 0.020678477660034267
1.426791441236888 -1.4414282933711056 0.02167626876567246
1.397387245839268 -2.103996894491444 0.024823988458771956
1.3558878716297524 -2.723386309412223 0.02879735365245501
1.3026804807852406 -3.286023435224724 0.03257813855305164
1.2379781273265975 -3.7782075784599733 0.03547447925792871
1.1620071493530928 -4.186179985053397 0.03699052049101457
1.0759750784704176 -4.49575206037884 0.03707840790717332
0.9766087785151344 -4.699600487840794 0.0359232352181487
0.8809556773635004 -4.7991745552326535 0.04037329874400024
0.7853184317855095 -4.699994104091078 0.03641242364473057
0.6859996605378885 -4.496538421058507 0.03805775352225822
0.6000461832616032 -4.187356507345749 0.0384523115493374
0.5241820646389458 -3.7797676550115193 0.03738100783640247
0.45960725456902846 -3.287951512240844 0.03482459704884742
0.40653216773373163 -2.7256466322208692 0.03115424439361304
0.3651383113072008 -2.1064934652212823 0.02686484754474273
0.3357666694560469 -1.4438826991491414 0.022735622439199014
0.31914379654465236 -0.7537619103620846 0.019975215716631595
0.3139248865012852 -0.05921590388611962 0.021568546004929117
1.7355227276110994 -0.05967431288630706 0.02950769555228438
1.7284969532472534 -0.751168921456067 0.027027140972577395
1.7054210999169874 -1.437639547249152 0.030689835499549567
1.6617674325276737 -2.0977964710308252 0.03664980799954909
1.5995425814843403 -2.7150112228888394 0.04314589319530536
1.5198091892583925 -3.275499958110567 0.048840311878404256
1.422835280666506 -3.765579856855299 0.052815377034339285
1.3089446980336188 -4.171271503662583 0.05443979067001661
1.1794537630385118 -4.479720736387044 0.053293784259097456
1.038737197643209 -4.677070746011158 0.049110224173636745
0.8810442381874626 -4.8 0.04723023188561866
0.7233668989934573 -4.677477159111996 0.049711701483115225
0.5826967756897975 -4.480532385257623 0.054503867628469156
0.4532811407484929 -4.172484790135006 0.056262341905459715
0.33948908336820804 -3.7671856050368637 0.05522773909364213
0.24262356087157072 -3.2774772165198636 0.05175185236356397
0.1629771313819491 -2.717313380994607 0.04633060142774283
0.10075113644236645 -2.1003075822985493 0.039652745614852936
0.05692778608265046 -1.4400596947782613 0.03276305564080808
0.033576239524388055 -0.7528969400017655 0.02726132562561224
0.026432396898516203 -0.06007315610566294 0.02757160005654679
0.0 0.0 0.0
0.021951510285193286 -0.79599449073457 -0.019053078839935463
0.052860725170580075 -1.4999719135731968 -0.04102526990117066
0.0956105142123282 -2.178076555588959 -0.05857119126686542
0.1564461241685088 -2.811923821949933 -0.07447030429744204
0.2362207912736055 -3.386569525635067 -0.08761561689211912
0.334605236170262 -3.8862234886346214 -0.0974603307894581
0.45100430819037773 -4.2956159598101245 -0.10330507735393805
0.583827288540976 -4.599861401723529 -0.10466032324760895
0.7291225534448637 -4.786250881643005 -0.10232693948104918
0.8803397457197786 -4.84835840240698 -0.10021512553008893
1.0316106801822444 -4.787160297847819 -0.1024110825604735
1.1770776564536949 -4.6017014447145606 -0.10485812731164657
1.3102231853908148 -4.2984253633558165 -0.10368183048101118
1.4271552336363371 -3.8900486609837905 -0.09812842914672762
1.52637739969487 -3.3914405648557184 -0.08875542531432047
1.6074268543169978 -2.817812462727442 -0.07633745932393642
1.670162286700776 -2.1848235527678574 -0.06160645153010383
1.7156791491878018 -1.5072660155913387 -0.04550407375724741
1.7513612685495552 -0.803248688230626 -0.027052507810172474
1.7847682695445721 0.0 0.00015445650263029242
0.31240793993467475 -0.03399109000896309 0.010003806483946118
0.3258915765234122 -0.7924610499309779 -0.00998113859508867
0.33676186238399675 -1.5047644117327912 -0.02598889461218229
0.36477529744613624 -2.1837064626986598 -0.03955586754604491
0.40429619111065374 -2.8200217599019375 -0.0509108122773584
0.4564771606387785 -3.396831987606723 -0.06025386196256447
0.5210194947909952 -3.898671480524527 -0.06717746816017567
0.5975136069679209 -4.310160724639096 -0.07136248380276307
0.6849159359234128 -4.61622698919491 -0.0725894086132697
0.7806833663818891 -4.803675518510081 -0.0713612362248262
0.8805035601463724 -4.8658431880700395 -0.07005488735906233
0.98038058334093 -4.804599898802872 -0.07133227541606472
1.0763282203411773 -4.6180997561674095 -0.07255658854098877
1.1640640868429981 -4.313026509255002 -0.07138269767194776
1.241097827317631 -3.902586077545945 -0.06735371496727827
1.306465399514906 -3.4018397914856457 -0.06075359278613961
1.3598695925746151 -2.8261109399811133 -0.052005702623404614
1.401151537833122 -2.1907415326365904 -0.04160833205289445
1.4317156499841428 -1.5124719526033628 -0.029710037423542543
1.4462230078976317 -0.8002896318478477 -0.015421649756850194
1.4616561746043524 -0.03587103466165173 0.004034505003163327
0.6073384995984855 -0.05901726846210762 0.016348032946306535
0.6142912252483396 -0.7912752082246006 0.0008846813814433779
0.6155043638479363 -1.5058511177609448 -0.010543534905861794
0.6263739333069518 -2.1871075263643593 -0.018968053729647508
0.6450428740040123 -2.8246664435016866 -0.025413980127736577
0.6701607865381122 -3.40284694821098 -0.030333817656602147
0.7016936159328249 -3.905987466904047 -0.033757800583170856
0.7394846409170962 -4.318783448148581 -0.03561604298930639
0.7832554679808259 -4.625976868454131 -0.03587303370731316
0.8314966853720052 -4.813651982076388 -0.03461722487034876
0.8806334477805295 -4.874762116911767 -0.033201451076550655
0.9298281307357351 -4.814592537035338 -0.034475350259408635
0.9782518929820468 -4.627884457560455 -0.03560955556252346
1.0223564353395185 -4.3217076799592515 -0.03527909720794993
1.0606771182639398 -3.909991870095461 -0.03343874334315554
1.0930001160954528 -3.407986983384881 -0.03019257877541114
1.1192535541721897 -2.830945112251215 -0.025710399095892317
1.1395045153868262 -2.194396023683168 -0.02011354971069263
1.1524884440177294 -1.513894176359902 -0.013115218408725229
1.1554301752847633 -0.798827687411749 -0.003451153845156543
1.1632216982921537 -0.06191315712695648 0.010273813025811224
0.8936003060632217 -0.07505586395354684 0.022014103513487454
0.8954687074442873 -0.7914762613274365 0.011452729050332773
0.8893391596048452 -1.5049479964886268 0.005063612161550635
0.8847676871741371 -2.187779513862904 0.0020873381559025654
0.8823426685929379 -2.8260622191422824 0.0008433469356267027
0.8807099985482887 -3.404718800779101 0.000562341912537707
0.879604527525695 -3.9083462394776602 0.0008993541772272269
0.8791951578513096 -4.321710627318383 0.001668502811398062
0.8801124523941666 -4.629455590583125 0.0026971307687583246
0.8819700352675283 -4.816313217996612 0.004187939497518957
0.8807493096570786 -4.874213691272908 0.005987739553680125
0.8795867500761456 -4.817270671984986 0.004443561644457475
0.8816265812312205 -4.631399159234104 0.0031932202851283954
0.8828730209824242 -4.3246941523615225 0.0023664333694618897
0.8829760205560804 -3.912439314067417 0.0017194566743113087
0.8826135048859907 -3.4099859378455424 0.0013556954102440463
0.8820078124411065 -2.8325148728958593 0.001350775000755947
0.8809451156132981 -2.195299321297465 0.0018891970448172753
0.8778690089771537 -1.513088489057069 0.003592296865866092
0.8726625152363939 -0.7987279123169586 0.008206910065314767
0.8749936464815942 -0.0787036589450696 0.01689339809872366
1.177516918000565 -0.08364147756135942 0.027836612340925316
1.174895340115152 -0.7917972480820453 0.021488037652414263
1.1619719374147295 -1.5027377455451096 0.020413890298535107
1.1431140665793649 -2.185908369102905 0.02302390993762004
1.1197632017316344 -2.8241571139159536 0.02705374462710041
1.0912810525578402 -3.402488940761153 0.031426971425643664
1.0575845808318833 -3.9057756145922395 0.03554219663014432
1.018878707902311 -4.318933124396549 0.03896761603620058
0.9766498628324594 -4.6268265555435795 0.04122719551072487
0.9326930695173385 -4.8121069414345605 0.0422176449376135
0.8808682958560796 -4.86285049727163 0.04383257159384343
0.8291022008026427 -4.813081873285993 0.042588895771246874
0.7853281197431625 -4.628807004462338 0.04196009237978816
0.743425045050268 -4.32197644112658 0.04003380139948614
0.7052157734219202 -3.9099560609955426 0.03687504260093176
0.6722151443653044 -3.4078760834981265 0.03288934846982394
0.6446469268008062 -2.8307701117188016 0.028390305261053086
0.6223892518962015 -2.193602281542784 0.023806183488535138
0.6045484159923417 -1.5108958637347583 0.020034937359359253
0.5921527066147076 -0.7988576312692779 0.019360804875134852
0.5897837813256123 -0.08776690877765794 0.023835141768730875
1.4633326513110456 -0.08685388435311114 0.03410798980024165
1.457170604062661 -0.7914656015294134 0.030956998844402547
1.4377141615391553 -1.4994198187501622 0.0351591456058556
1.4050647189445715 -2.1816772534989073 0.043269964269343264
1.3607128971183675 -2.81892151530329 0.052413656305967525
1.3050838166701813 -3.39610401744257 0.06123848930341187
1.2383621644404867 -3.8982897991425203 0.0689232171815082
1.1611007195168375 -4.310280295387048 0.07474933014750998
1.0738221035881736 -4.617901877012267 0.07801216271608342
0.9833413566208282 -4.802223948867379 0.07690178616564114
0.8810078324555048 -4.838612148002569 0.0753781662158284
0.778734990678872 -4.803217149551849 0.07739153693272005
0.6884419113260616 -4.619920511690525 0.07898815102963816
0.6014933062017359 -4.313384578476905 0.07619458234810303
0.5247236113814182 -3.902556859853354 0.0707857623981251
0.4586659298841583 -3.4016051493158286 0.0633952491154554
0.40384642026813017 -2.8256725935057903 0.05461625710778938
0.36033027259128975 -2.189496961105715 0.045075974279124374
0.3282980459252837 -1.5075874803247171 0.035899778664728904
0.30905959392067006 -0.7984315120655172 0.029939854459069198
0.30296132626613437 -0.09120908515898332 0.03118878303563847
1.7533998479235537 -0.08750899763302006 0.04061289135901984
1.7464173365869442 -0.790352402557957 0.03987820914138734
1.7216991378346151 -1.4950578127483498 0.048795965753788396
1.6747475786637473 -2.1750266794240023 0.061920510209893455
1.6088704070698998 -2.8102523218589184 0.07566325995625979
1.5255202686496303 -3.385446794694078 0.0884156337037092
1.4249855579857151 -3.885630407988287 0.09912157759688031
1.3078957014330848 -4.2959247929406805 0.10678323079816557
1.1753474174970715 -4.601011023033924 0.11045696155925305
1.027847425432567 -4.788514091026624 0.10654271504725182
0.8811886818889814 -4.8 0.09054063210206438
0.7345956274681243 -4.789527084894084 0.10715466425611438
0.5872973521796492 -4.603070586623028 0.11168404584028017
0.4550986461050469 -4.299093189505224 0.10862107675300783
0.3385179397945687 -3.8899859482068195 0.10153467510083683
0.23864572552215796 -3.3910577519327885 0.09129721263703813
0.15604153185861105 -2.8171185123327636 0.078773189727327
0.09078373332109382 -2.1829235731580723 0.06479683979198969
0.04401208571184849 -1.503209220371013 0.0506872580675271
0.019037804636689963 -0.7972584243907495 0.039935703052605395
0.011874139468919501 -0.0919128627740198 0.0386488390924018
SCALARS Stress float 6
LOOKUP_TABLE default
-4743.503962018895 -26312.280275811398 -9316.735271349085 -4814.107801250027 1984.6957124677717 -2500.9516209997405
10483.281081891504 6743.675945154245 4339.850327463851 -2138.5206057122364 2065.8330447073813 -85.0502936747055
10369.993697079002 300.93170824390955 1016.8580094827831 -1008.1565744800455 2018.175446321347 -701.5559888916313
14999.750840956305 1394.6515571999128 1847.2197539765882 -1039.6327528374854 1795.7355943666646 -761.2149136762558
20251.91117968548 1556.0383431531327 2480.41552683783 -979.8254543689385 1604.7372825656414 -1045.476860750703
25734.909290809035 2045.4374714865548 3318.549886020027 -889.0152985382599 1260.4288635071186 -1289.2053966456713
31074.141635776006 2476.8626786682576 4152.716387881228 -742.6037914363147 786.1440553735549 -1539.6474180242503
36112.84791933817 2879.8350495687578 5000.259375326055 -541.3166123258122 191.61265084364436 -1785.7388190706367
40355.65617041362 3202.211887366333 5777.156308885155 -281.740333185789 -387.9276434267142 -2039.4257913869376
43123.05518131463 3524.0224583444874 6377.066225118653 -52.34888466979716 -552.3025698125432 -2312.0029883648613
44137.893835174116 3886.3211351708087 6700.212218787281 -6.411820688808248 13.276362912679978 -2497.923312523187
43154.39248280351 3524.3929705338087 6379.386154856702 39.19233614604745 578.6221037230703 -2312.647939009608
40424.5311664512 3203.239480789571 5782.60858409816 267.58547665606886 413.4768490242653 -2040.704224374602
36232.450294767164 2882.129721992736 5010.464893376349 525.4745156863236 -167.6658214607819 -1787.6835263879307
31266.546486835025 2481.7742157365656 4170.436783619582 724.4400088648022 -765.029738170625 -1541.9955458416753
26031.57849694593 2053.671361043092 3345.650404744912 867.6352808571633 -1244.858393077645 -1292.8960252801292
20699.587990418484 1572.7569670902383 2522.9692828833045 955.3206106442256 -1594.7779746449578 -1045.8302717518714
15649.373711329163 1414.1030612289148 1886.5928749928983 1004.9402380955527 -1807.223255873007 -780.7017233722246
11477.872044247004 416.6762622823261 1190.5790227961702 966.1493937351802 -1986.574926053474 -636.8485411149046
12885.038594842204 7167.7834157167235 4596.2839615021 2218.8731490748955 -2656.364615923352 -467.8686189982164
-198.35569731557496 -25093.66490220383 -5726.618876119132 2893.714622314639 -3479.443146517439 -970.0121251390888
-5259.350255579752 -22822.75832705838 -6881.136667411505 -3089.975042105355 1639.7867586720909 -1437.649373943936
5011.886661840337 3654.8403675499862 2058.358510854848 -2560.312802725374 1373.0431433675644 -431.2150632258292
5170.823290080136 -349.36535294616436 33.76340346790286 -2130.2437469819697 1245.7872644621993 -755.9180986943016
9357.552871069294 64.98426822282778 642.6130296424042 -2157.559496985513 1101.4889002961636 -980.2563017463258
12659.35356737901 -78.5792364411908 883.2223255363836 -2109.0273595298086 955.8705339906312 -1300.5143871063538
16153.778056994663 -74.25505366979952 1232.5795546538184 -1937.1735410365122 753.2406381062527 -1619.8698181286898
19558.117441694787 -74.17361826396365 1605.613622595098 -1683.1575834540624 471.318967881833 -1941.058100210708
22761.20037852583 -103.21765737940741 1992.8531302001313 -1312.641152409034 123.35066041347204 -2272.5516487785035
25473.98476032092 -135.06519462317215 2367.553549126896 -775.3730841311901 -219.36030546856844 -2649.893725449518
27347.757887341388 123.77192246231098 2749.3406569915023 -204.07720051690583 -327.1416001524889 -3123.249600874032
28227.85547157169 825.1334121912159 3126.613282469258 -11.432049323505964 3.1802531232750564 -3490.387884732674
27381.72810781584 125.26620734316376 2754.085036412111 180.4850641077632 332.86887594676165 -3123.3172793162353
25547.502154923808 -131.94933801971595 2377.59730143258 749.5602716538342 223.16715316519435 -2649.942633370518
22885.861239698268 -98.2186378749294 2009.2529544257109 1282.993671781821 -122.77054679646676 -2272.3983114822977
19752.250235406304 -67.02211251637583 1629.4859272082988 1647.877128928736 -475.42638250315446 -1940.3232753526215
16443.717843435672 -64.94566982098229 1265.0833304761381 1894.2529649039516 -763.0020567942919 -1618.261863076945
13077.63118579988 -68.67060331964915 920.5037872615784 2056.371796953711 -973.7558412792847 -1296.329240767492
9963.828929112577 86.74688678516823 695.5041850494872 2086.4758450189174 -1119.7193009455198 -979.4028766985216
6020.411324199283 -331.5736663514713 54.85062061831289 2020.531686495661 -1297.3287913291529 -726.4846090505009
5848.142869222764 3834.5884259954305 2144.4009969652457 2414.911151372156 -1570.1521712500291 -618.5130494668877
-4875.668108007669 -23569.20045372402 -6615.746516584203 1933.6158003514101 -1941.5789730273148 -583.9235708586463
-4191.095579216565 -15905.77357572521 -4341.311233304747 -3627.822959198358 998.5080481610795 -476.14836473903495
1719.8777826129315 1115.464074182468 931.4814775189787 -4158.7882858755775 781.4369343042172 -670.1639546906869
1816.2688352968134 511.75722357532607 88.47206211721982 -3627.4377505080806 615.7976763945217 -863.0411815525869
4010.23239166974 -84.95854063287673 119.04456747398763 -3689.2494996698892 499.38859720917816 -1250.228028163561
6014.365792441752 -56.87956253883429 339.86650944183776 -3563.9518692356382 408.4289353164486 -1649.9893116174262
7800.577151579718 -72.24509241587256 502.6534770829646 -3289.698563529756 309.08840816273994 -2069.921299999845
9578.952921383096 -60.97164802744955 698.7971177192032 -2881.8969465861132 175.79117858739482 -2493.68529513172
11288.419131477756 -95.08279334947704 907.0327932891997 -2289.2541369772766 -1.709558302518873 -2940.6840109527798
12745.302091548574 -146.43621955941398 1097.5620138386018 -1374.8382498940018 -227.340407343533 -3467.0403742209996
13735.913699578863 432.9492654917891 1398.0916291333406 -296.73141311832 -347.495555315515 -4185.689208351179
14646.019555176637 2310.534862487736 2123.8084559577333 -18.268548605970555 -4.88785758933868 -4862.323334882515
13770.984925721852 434.7035883907315 1404.6979828430312 258.9822664329647 336.75471590494584 -4185.312074014769
12820.405929317787 -142.80990024200233 1111.2477254436772 1333.3814172880723 213.7525046352337 -3466.1731500421006
11413.509779818874 -89.36196368711516 928.5637066587246 2241.355697883707 -16.443444668029713 -2939.0542956602985
9769.15117679406 -52.87469900519516 728.939391514702 2824.393768042895 -199.77555741142302 -2490.85195747406
8075.7199229115095 -62.528740852932955 540.8428308284589 3218.8651424343043 -339.3885840795833 -2064.8981293334928
6398.647959274504 -46.543528934502625 383.80093524323064 3475.139967778037 -443.4986897629165 -1642.6270162661801
4525.32882862476 -76.08602883776817 158.65545784018835 3570.6001335359965 -535.5367589638994 -1235.5703805713717
2331.595499668934 518.5384802000234 64.78059252824214 3455.020721609312 -665.9378220775948 -866.2812344840244
2205.1150074716493 1477.497569934447 1028.014067188127 3928.949835742304 -855.7005733267935 -680.4546588777881
-4171.1092524454425 -16502.49928322668 -4435.212051079561 3429.1142226673123 -1095.67133266928 -455.0781186507741
-3066.264302977171 -9611.566865498691 -2296.0653912133293 -3354.8224261866612 450.43679864737805 -167.91090784042342
-536.4425298507506 -223.0830714645283 358.3754705455304 -4398.034211183107 255.20598021102816 -581.9980368272704
-1241.7037305727792 651.3289348622196 39.98027964394494 -4415.681040375317 40.25472686202417 -892.3391167118845
-979.1671920546432 49.4232703934099 -155.1756065490628 -4215.515770832796 -66.91146742453174 -1314.658848080501
-592.6311953063897 -42.6229003347329 -101.21885703407742 -4042.2135609426564 -98.60927872813478 -1751.3308051964539
-392.0634392104665 -17.338548903881396 -53.57312779406738 -3728.926140015355 -107.25340785495835 -2196.5213865166243
-204.23629688815643 6.522687018829057 -3.528084218268118 -3273.6203532171394 -115.09610628600686 -2651.5650222681156
91.64076591999795 1.3128634598902469 74.8847142789999 -2633.520330259773 -145.02757396910735 -3125.5465380261953
361.1944590550814 -140.2770441693072 91.70974065028001 -1586.252241368631 -280.76008879735565 -3669.1798870537677
369.9623413474502 689.8832036106962 255.85430864700837 -98.26972607656012 -456.4052616403167 -4449.312396867174
1667.350459296961 4893.5142435135385 1740.1090753437322 -20.511385783090653 -12.138444657430826 -5454.641594373336
405.66658109641816 691.9500628195715 264.28123312270077 55.848968696504556 430.85274369020004 -4448.7975961198845
436.8872255823255 -136.06938594524487 108.97396492664905 1539.5554088476429 251.48694437110643 -3668.021682506046
215.54855591790817 7.79166772241274 101.58160118922221 2579.401482929491 109.98023140116688 -3123.4517678726265
-20.70407086062059 15.281130819648084 32.847982060632624 3208.384734107884 73.11566711376021 -2647.9601563939154
-135.95804399857315 -7.378060335096926 -8.777034421190505 3647.9431780776767 58.98572995446465 -2190.5265508768657
-252.0782195022666 -34.53753714965864 -52.630814479900806 3939.099523790821 47.88184463785121 -1741.4099066897095
-585.1500903045817 44.41080562308947 -126.70120970103775 4080.716221951168 19.701472135593438 -1300.906195416629
-894.8607157982867 717.4883130858456 38.31641550683751 4245.59071457757 -79.25548612308198 -884.7782968044243
-257.61068587001364 34.42027636700797 404.7841194213364 4297.85965125974 -287.93461157336526 -598.3003982719973
-3123.9337132061337 -10073.023968662239 -2444.5818939538494 3322.786772098813 -491.11855168495845 -263.1767797814947
-2407.647716187935 -4810.990756611232 -847.7993730176108 -2549.68293992411 -6.612678114419055 -132.58233312293632
-2262.205537071264 -640.2717765405599 116.41816741163703 -3698.526880188399 -239.09680693102368 -451.58144491069595
-4170.428282560671 522.1654786979607 -77.87933842949754 -4063.078978049966 -542.4218163347609 -824.963925738401
-5801.663594639178 120.6447966890611 -406.9691440710712 -3786.7964646815267 -643.417221053109 -1238.5414712345325
-7171.850372772626 12.597880896982485 -521.9191831746165 -3567.29287486466 -612.6301752722413 -1653.83679017176
-8592.222211677748 38.413299527298214 -612.4154044955279 -3287.569644998124 -525.8418229054224 -2070.2815842661685
-10004.593960766397 51.4270246536453 -718.4596534870367 -2886.763283338766 -413.8442817496193 -2498.176354872124
-11140.60471050175 147.67806393712135 -749.9946686182966 -2316.541299693821 -280.73175205972865 -2927.8897979027606
-11963.215575852137 -97.1165180398331 -877.0291860185916 -1472.4299048110015 -249.88589536002578 -3386.5009909711785
-13252.215965756348 247.34787661907984 -1186.6660022570252 378.5015375111991 -510.7821804203209 -4021.400643899619
-10835.542724236391 8855.558584553883 1785.7327962356762 -18.462350792396986 -19.54983835491705 -5332.623878456482
-13215.706146257127 249.7761404854184 -1176.3560214406596 -416.70467419828805 470.06245064964565 -4021.058453696596
-11886.599895044154 -92.23428493183404 -856.0492269907879 1430.3241868115067 204.47603179637164 -3385.7098415844384
-11017.426812040336 155.00273420662614 -717.9357821087325 2267.688957964426 228.1728798660072 -2926.3963428565226
-9827.428201629411 60.88333990577881 -675.6193972338073 2827.84247963801 353.06270409106065 -2495.496827100735
-8355.713580442934 48.738408346948965 -561.0126321976371 3214.154649596938 458.55866594700507 -2065.5704677891044
-6883.193369709409 17.57361002132754 -470.6972694779999 3473.253163554445 545.2083706573319 -1645.9664495966015
-5506.122659770826 121.39559738921 -375.1155566438558 3666.5950380920394 587.7701092339865 -1227.8692595613625
-3939.2065018195003 585.6858147704761 -67.93357568045501 3946.5801536114564 511.3021371279444 -817.7844941603947
-2109.16255388567 -497.0797132349138 131.12990403336585 3670.9345728975595 226.40512508450595 -471.60271784781406
-2455.0553762874706 -5087.885827883803 -957.0189848564328 2567.9102326196776 -7.160430491296438 -221.67619203394543
-2242.120198099335 -1925.2403726006605 14.465700384735868 -1411.6876321556783 -408.25863698292795 -194.28825796253003
-3628.2395734049537 -598.4355078119671 68.20522960132931 -2130.8928575379327 -744.5976428503724 -324.17747732113713
-7047.265478911478 300.414086741688 -271.2814284277011 -2440.956820925126 -1187.436297661166 -648.183162953012
-10612.92382611608 128.46363744143696 -747.3612012293687 -2269.8576849282476 -1282.546087565398 -978.0570836627764
-13847.314100733654 43.56123378034332 -1071.0065151287251 -2112.9932881220825 -1177.1119532934297 -1299.4291215925864
-16958.590283888338 46.81422018616484 -1347.6872215632925 -1937.196105162359 -980.0397565198264 -1619.5536738625553
-19961.037169418134 73.50376838625687 -1617.924090241287 -1688.2256653854977 -722.891482995015 -1943.3115867134413
-22848.309054013524 43.36348207781694 -1932.8384162342443 -1352.6715310385719 -428.0610881147693 -2271.9363285621635
-24493.606571698772 476.8768573960376 -1883.6307891338108 -784.8709523555117 -4.458340166574894 -2546.229924396505
-27651.38406935834 -1668.3515577225241 -3468.709064953514 398.967875336534 -199.44158756031038 -2909.460712372847
-22888.20215931998 14137.585277627877 1925.4477068117062 -11.68094820205647 -28.115607054659016 -3866.62792503047
-27613.206385815676 -1665.5591701893745 -3456.3449393677997 -423.132275575055 141.15201293533454 -2909.5687875686785
-24414.323908221002 482.4560179746724 -1858.608691112575 758.2671313709924 -59.771154800406094 -2546.3896509633887
-22723.201771855915 51.60071103862087 -1894.9851144001714 1321.8903316914977 354.85159421286835 -2272.0058626276955
-19786.48773456347 83.89216238113849 -1568.1605786243706 1651.28273204911 639.554602073381 -1942.993820397752
-16738.66855656801 57.288409073112675 -1290.2292755810251 1891.544850207145 889.2279681149811 -1618.3011671521394
-13606.445022262933 49.7524589484627 -1016.9461161456168 2054.960434836923 1088.4162710086464 -1296.562494041847
-10403.746745733897 135.55267784437783 -713.0117448930934 2199.576489631217 1215.2185213758553 -973.6572437098969
-6917.660118400382 344.69641741248535 -260.54880097359523 2384.2841857926073 1161.77075050483 -646.301029744096
-3571.473659136011 -532.4303083317868 64.23184627893616 2130.34533430457 749.574486885841 -338.3821870139504
-2279.1753460735827 -2045.191417137058 -46.67921496888766 1430.2975706827222 418.08128503483704 -252.05310181891983
-1958.4850525945956 -831.351830758505 606.7243898657679 -696.0555265521459 -817.3266179503792 -234.4911523575479
-4397.495549665699 -538.738763010764 189.76856813960597 -998.1509895188403 -1322.2209583773235 -271.1285191514148
-10071.08760165699 -424.48481709013856 -794.8747925763107 -1122.2078462399597 -1961.9384098647786 -538.2917620223105
-16178.469435111037 -1100.189609676386 -1898.4064260952327 -1078.9990863828748 -2048.3455465188817 -801.1260654789553
-21513.145005951585 -1634.0368239705801 -2716.8968700526384 -1003.3368491030108 -1846.3456279245502 -1050.3459640685678
-26556.067946716077 -2072.7847928452193 -3443.8639845764537 -900.1623243804902 -1507.3413466865074 -1296.944270900721
-31450.90834050877 -2451.9870116538223 -4151.062532516147 -764.8806890375647 -1064.159547969863 -1547.062547191755
-36197.881266272016 -3016.1570754884538 -4959.564285868366 -560.661554566761 -537.9347513506807 -1775.8106987584897
-40429.158439895946 -2812.0360339646354 -5541.145293140941 -274.3641314170339 217.8441390971384 -2046.6853784502657
-44174.05267276893 -6677.588793225409 -7789.26862623154 762.5079859584492 1581.7974364351066 -1838.0649696263229
-35729.52348665568 14123.61280265339 -851.4211770856596 -7.547738894917046 -39.09453970551764 -3790.6164715568584
-44131.943856964426 -6673.231350055557 -7773.967401623384 -778.1005226466914 -1662.6558892807664 -1838.285541740877
-40342.73529480481 -2803.503869071902 -5510.4485816320985 257.2922648955273 -306.4044753870714 -2047.0636343885028
-36064.23773810485 -3004.0211288008454 -4913.842129883331 541.1598933362388 437.73779150728666 -1776.2036327123656
-31270.45157996448 -2437.816529280275 -4092.578751832221 742.0944768488107 950.8417680513908 -1547.2110171802733
-26342.75249089612 -2061.094639358716 -3380.257303513014 873.461194606551 1384.3857973400534 -1296.4641097487822
-21313.034432679317 -1633.7029918440542 -2666.4847484032084 972.4330421396483 1727.0077285169655 -1048.9765879791994
-16071.206910229223 -1114.7789627430157 -1887.0635188560893 1046.1408054615686 1961.1790966845738 -799.4168352411007
-10092.522251817736 -429.85803698341175 -826.5677711615588 1098.569778276739 1940.635890395197 -539.39357106278
-4467.993598813863 -533.7470277803621 147.14687753293552 999.5713038534177 1353.9227326817665 -280.8879289358859
-2044.8766037051382 -904.3351679373447 555.2775431705406 701.6993024422038 861.9612006727225 -273.0286807750664
-716.5708152186611 -15931.38400791069 -4994.386446938804 -2476.218804134902 1321.0444459213973 467.3097393462855
9391.57932870317 4516.133610884776 3290.0357668961074 -1106.9700763857074 1425.4274738006234 -146.46953725625656
10907.75563960904 546.497903169936 1438.0092142759265 -395.5900692037186 1337.0093206115603 36.594800090547764
15444.380732413638 1339.341943361605 2192.363281651034 -429.993833920755 1188.0551903660462 -25.029819392652254
20417.21071288423 1573.4191688512437 2930.752519687122 -427.04969575877 906.7671178016342 -2.56867238363741
25551.566132413183 2009.607912348963 3853.851989393394 -437.9618970544326 542.3631178417268 1.7473709913038862
30597.900415623266 2420.8929186459436 4845.827835878128 -448.09809516708896 84.32819907224511 8.199796957054424
35571.48593893584 2862.586389283177 5975.175771298587 -471.9519507777387 -421.58801566585845 0.6497732386144475
40465.66381724255 3300.604906051239 7285.826062375405 -495.8925149970046 -815.2326154173145 -53.2122938549143
44702.48264626025 3493.292101372599 8550.055246934298 -399.2896121810188 -744.900755841914 -204.40408737604673
46423.659991702385 3243.9788972464326 9025.280294318927 1.3440818736471627 7.052143555337183 -362.7478265478
44711.814228504874 3492.772681302659 8547.428958740433 401.95680975624 758.211825055061 -205.3345635824013
40485.64239021555 3299.583963885627 7279.883068161058 498.46121086293124 826.0456231055315 -55.040347940770644
35605.32560280283 2861.1602142018683 5964.465449301433 474.2179545679159 427.78993777622134 -1.8985604991741019
30652.311966536392 2419.482830003239 4828.173804917863 449.68320458246967 -85.99691933765364 5.16809670168611
25639.01079243522 2008.8307170901796 3825.702570217267 438.04876919014583 -556.852766094644 -0.16014395665534042
20562.872799087898 1575.914180714055 2889.285197447893 425.36646124068653 -945.1507754517191 -5.249239150284247
15683.62183580627 1344.9212209954476 2125.1980752244526 421.75329107266515 -1254.1866283424415 -9.707714859456587
11379.708299835282 583.543538407411 1391.623775426046 380.29922610601704 -1509.7336212493399 -7.2261686998876105
10501.85676834443 4657.900454640575 3301.409505175214 1097.6879759412434 -1275.6086255670127 172.78333580908375
1466.043429615607 -15089.855000441243 -3554.811427572304 1463.1432344430598 -1077.6514366760673 -860.9222247571353
-2357.5573712592427 -14546.945157732309 -4408.2255395397615 -1589.0564331679998 222.48226866756235 -43.78957240509518
4940.997329652907 2407.50980265786 1738.5600685370162 -1380.5147584493034 479.3312718222794 -133.11468350867085
6220.408835605662 -130.37702466415735 559.4784296769619 -1086.9141192561347 815.4630192152011 8.739716753240357
9990.111706270005 151.1322912082097 1108.4864632142046 -1128.5821927976333 683.8275961751972 -11.771116212701456
13155.044619462527 77.89524785477013 1453.2832301292583 -1162.244156595012 509.57338122016824 1.8503311344928264
16451.611357096932 96.90140163673595 1919.7327183144178 -1168.641558499005 277.69678653812815 2.2682986888153978
19696.563580409653 122.9775919428206 2452.604266717346 -1178.699200805 0.5464852595465679 -11.15317996760505
22867.786334647906 178.1842033200094 3078.212189224071 -1210.1610416777064 -297.1664422107661 -64.03916959052675
25900.241126792418 194.84134239779763 3789.0450436779142 -1254.663213254569 -527.6803136464214 -217.39957386895512
28326.95086187792 -220.99368851757885 4336.005468901214 -1029.453342357937 -486.3194737308917 -552.0105400027913
29052.096749126027 -1174.8380324863592 4283.643211428214 1.945674581096542 -2.7169735362064174 -885.2635524934473
28337.50855039758 -220.57722076972414 4337.196085264115 1033.2849021510804 479.64901320898235 -552.2108441269056
25922.501157437153 195.66102156925683 3790.728990662403 1258.2381719792452 517.2559642759455 -217.5784676975359
22904.452986273154 179.4104929400888 3078.864456763964 1213.026563388683 280.26474716232013 -63.625632836304156
19752.8656062258 124.64838874917878 2449.523088619383 1179.9342109166607 -27.046286016681083 -9.002981086365317
16537.784208727222 99.24896072844302 1908.981984006516 1166.6125298070597 -318.2769240136444 8.519894958957288
13288.440216980916 80.54968757682492 1427.580419279939 1154.7500159295928 -569.1469612554265 14.909598788539494
10215.05519583747 162.00338132683098 1067.9596680931327 1109.7477246037254 -776.3691232301094 17.803456364726923
6607.27824837624 -124.33756733485978 487.02048986097947 1038.7940960248409 -931.9718443166297 35.3309202334215
5338.263430766984 2452.425062674639 1659.565025498729 1265.7236868525986 -510.2383032663364 96.91221909352795
-2016.282953993529 -14522.263267896298 -4284.817281154948 943.2330810850057 -152.58916722964133 -908.1798737499462
-2189.718037331892 -10564.079597546759 -2887.022244134659 -2097.287309230407 -35.27787195537357 -875.882760183589
2156.3487826978335 809.7285792087491 940.20062118044 -2397.485757071804 109.56947217528106 -131.6364544933117
2828.691607117093 422.6067028781228 446.34196203006996 -1982.6540521558313 329.05925770142943 -40.13711380229851
4803.774622113784 40.710189235577886 520.0491715659202 -2038.9327317216573 279.4838144128317 0.5568289563569548
6579.018639732184 74.09117624987044 740.2619319812399 -2061.0302849185045 177.1323350116914 -0.4350400161204324
8208.987617642226 76.83199481475395 954.6864486664389 -2069.0901392575056 59.766479128333124 -13.304653537991726
9818.039420905374 95.64790454258839 1216.285960635235 -2074.046117606903 -75.8821684918762 -58.55186359811028
11348.368976696333 167.35365653109986 1530.4852580459972 -2096.580783282188 -229.92823114201826 -171.8185591810585
12850.884035390327 259.2869574832179 1914.7125341792664 -2169.4397085780697 -398.7066057241477 -437.8629702242492
14164.139325017837 -436.37558114477724 2089.515102264497 -1876.412523062896 -443.1071486406044 -991.0746143651097
14067.443901607527 -2700.9317743653637 1417.8826082270762 2.853945369774743 -11.38221021169474 -1630.8903897977516
14175.463669889978 -435.79241909206314 2094.2480602160167 1882.0103349664046 418.75496972673324 -990.6109355147325
12874.378278163635 260.42506429992767 1923.5232998302188 2174.5780552958745 369.6277943476088 -436.5302028647975
11385.906942154797 169.00334816018827 1541.8446916056412 2100.484618847048 193.11735156065996 -168.63079248817746
9873.216143053884 97.8400046547556 1227.4513127334708 2075.1191577991744 28.548741289632723 -51.470589184981264
8288.46244890029 79.35023951769777 960.9215620979405 2064.5131893658017 -120.06832650900604 1.203323220413162
6696.522868411861 77.51211095811304 735.0730716068061 2046.3049889132312 -252.92875284951538 28.297094786921637
4989.194001710361 46.106006300959535 495.3339871556579 2005.4124288197238 -373.58450026509973 48.295786523059675
3046.1918827383083 413.2793699309237 367.1617735535086 1904.2387791931478 -424.27855382266944 55.807430838588985
2370.5836875130326 975.4128520211007 888.9343393150242 2239.017503006092 -129.01585994571448 -41.61456833222776
-2093.6738771974224 -10551.491353428311 -2947.4762289142827 1915.5983147024142 78.84121671419013 -1227.4081745001927
-1817.5924397987924 -6684.797656658553 -1459.15814821132 -1983.0261375035313 -113.89764472394067 -960.3172512182322
82.67048424040307 -138.2651774583914 512.0285719874204 -2633.969352219758 -108.76876106569725 -236.1237050776371
-305.8935185755197 469.17717193000465 263.79308241426617 -2504.4682744677143 -68.04893941920744 -59.5762118871123
-185.32007325779216 52.40367583647712 55.10627821499692 -2365.6728173899037 -95.12759714850978 -14.737850426688242
-49.81711128336486 -13.911910574917261 32.95905066375233 -2365.336529785118 -127.78053505254024 -12.629054022364905
-36.15184081334332 -1.9149389261400405 29.05311094431933 -2370.5914077193256 -145.0149504739727 -37.43491182736146
-58.01209336659342 -13.105882043357655 25.556970281248375 -2376.154489141966 -156.89713607405207 -97.4814143252382
-161.07871225060202 35.49796134089726 29.36128061885263 -2359.7808809035682 -187.3963203348148 -226.02419924440326
-137.28481875663147 268.4693037145335 130.4895098675649 -2435.2859231048997 -317.5506151759194 -501.97518580769463
315.5154837349605 -629.1903174916587 32.82005462947101 -2383.58352241376 -490.85577710048915 -1104.9277298599434
-891.4997084627287 -5362.639324914545 -1681.9985287647853 3.103304417399067 -19.607680153775323 -2093.940597183719
327.549182197041 -628.4127822107434 41.15300829676909 2389.666461670818 449.7305239056857 -1104.2714369523953
-112.74273144196926 269.99163812982385 146.56379004908095 2440.8527397354724 270.83336944505174 -500.1982817179528
-123.09228281697462 37.72287666303613 51.73057891173184 2363.958988613906 131.88387034094475 -221.988802511599
-5.0179286456680785 -10.218793395106882 51.396128325164426 2377.128696675343 90.40411832364897 -88.92413653423736
34.84954331222955 1.4935214055071118 53.41889749050631 2364.977816606143 67.09583198107946 -20.04422828365624
47.43204551599784 -9.979643562271029 48.51914685963189 2347.4003456216115 40.31177610243594 20.607221278997674
-59.932226703408844 51.15669522346614 45.32923352756397 2325.435957710895 3.7319302208032488 45.421163967997806
-183.49621774442437 490.42104985454097 213.6904948984868 2423.7553807067925 -3.2466450270371765 37.55318222922422
195.8539329907542 5.860197682607266 464.9523012603917 2549.3684396969934 102.80688300438001 -177.53837515135334
-1815.2170127800907 -6736.543876620143 -1579.2387679727951 1924.2017861698453 149.08171649054057 -1170.4488850212215
-1644.7106529811779 -3551.068296822993 -327.00546452959264 -1501.4282685035457 -192.1405583127853 -830.5606703282455
-1595.2327875225599 -495.5493710309849 339.7834315111338 -2231.3378162082995 -310.2230296709613 -240.78571260748177
-3308.5846530499057 311.64228684008924 43.392965044954636 -2306.6512752761814 -438.4158350189862 -61.85999068533574
-5046.6433833352885 25.20140532903124 -389.8963608041658 -2096.902684737847 -468.51529384745515 -7.579572588495161
-6660.61611018618 -73.57476086338544 -662.2815351437018 -2053.507679668051 -436.07947964196586 2.7361031889959677
-8302.363471661387 -90.02770775178345 -906.8678483451581 -2064.2763043622595 -352.51108364047803 -13.63097097279986
-9909.06742672949 -93.61626636385807 -1149.6192601077903 -2069.208211893645 -242.88712108482915 -63.645824433620206
-11610.62613039269 -160.33834459237372 -1471.4626018319698 -2050.721335402812 -135.39205905833754 -155.34157712649673
-13176.76695253651 198.4746231806307 -1692.9187788095944 -2016.3172134352465 -169.0814162500638 -351.0741584232944
-13322.394795001297 -109.6967151566987 -1789.3814600975263 -2549.166578114145 -522.4150613655772 -807.595899903752
-16412.534920675047 -9292.639535365091 -5405.417386744269 2.922186172922788 -28.00886084231164 -2190.0760597015274
-13309.625602296608 -108.73952512801363 -1777.4029494743659 2554.918558797908 464.1370752485962 -807.2303555702214
-13151.125996795106 200.36354147696903 -1669.4684989350892 2021.6638695731203 104.2583654242902 -349.9383403780187
-11572.128725615 -157.5624800223573 -1437.8828836521168 2054.926489299833 60.569633988204224 -152.44775118169434
-9858.239258133772 -90.02261758125795 -1108.76656762502 2070.686751123634 156.4102650785315 -56.99498005126868
-8239.974097119884 -85.62436458981226 -863.9238363969786 2059.889904697475 256.05133091623026 0.5856667747950324
-6588.05312005838 -69.91449804709292 -626.7296161429375 2037.61744874506 336.35722354840277 31.48490914209573
-4972.537069819321 27.9588447839508 -377.6343496039464 2060.2646178373925 379.62428563117885 46.179891976474636
-3250.155116385244 339.856330586287 21.54592590434438 2249.987757214559 385.4610048667443 16.88286392758898
-1546.6566326233396 -406.362925472757 298.15766824965385 2195.0032426086455 312.17203740353784 -200.47674168041343
-1669.3559701707134 -3607.937215601141 -442.40094539714613 1487.8612027503164 221.13704664883034 -969.9157075820871
-1760.112499780735 -1574.6492383202603 428.51144966043734 -785.1726934995429 -344.3366674269689 -539.1456704428048
-3008.869965883933 -512.0212849685123 327.9112237143616 -1247.500940014937 -573.984856708421 -163.87223966507412
-6246.078361037401 133.82820254740363 -196.35776373821517 -1330.6570657080104 -847.6188375024461 -56.484407589536254
-9853.605761784755 13.72329224333691 -853.9923282967555 -1192.9972383365168 -879.6747874345956 -8.933965788157426
-13263.240311006151 -73.73893337458182 -1387.4806553091885 -1154.0330538430856 -776.2036016251068 4.128346879418899
-16561.820917246245 -103.49442096012466 -1879.4268330025554 -1163.2533059748237 -580.9115986126309 2.3224776879315283
-19806.20277692062 -127.82392180807712 -2394.473229770982 -1174.0602202177172 -328.08894461114835 -14.616428289684599
-22829.16959967553 -74.51492253369105 -2896.3408565200143 -1152.264515957978 -70.52152425426434 -59.17955297642328
-26377.275992105682 -427.8809195613969 -3809.607773069008 -1188.629769221646 157.9497331976376 -92.8197690707926
-26816.67897746467 1917.7398789650795 -3277.0790264226534 -1610.0251509995526 -329.66986915220406 -301.82025746882243
-33257.7677506026 -14324.962919863834 -10187.92585001484 2.026588636582945 -37.20410891046266 -1612.1730488674884
-26803.070792470488 1918.8338836861656 -3261.4233748160964 1614.0421997696835 252.55981590361816 -302.17608251489787
-26350.276730883746 -425.71188254887034 -3778.709483913716 1192.4613239750697 -242.84148347008684 -93.31056147778581
-22789.624160125622 -71.32323676493263 -2851.4258147851147 1155.5063508459245 -26.089808444031835 -59.24929810658315
-19756.3947112951 -123.6825913550881 -2338.394466948823 1175.7844533124812 218.33895811443483 -13.114623190213408
-16506.79823933334 -98.75262726924338 -1818.0519284995282 1161.5755098881377 461.4738598280487 7.710755759722565
-13212.993421876183 -69.38988662154208 -1331.6901860836178 1145.2317018782155 658.7464461738066 18.020038939356628
-9822.638117585775 20.05329046080663 -819.4207097691476 1172.2870048798159 786.8234269150098 20.34240296018491
-6239.690159961728 157.19371345361742 -194.74799962835937 1302.7597410120063 807.4569953523114 -13.50139810332854
-3009.881447795767 -469.59956333159164 295.7995433338812 1235.1727718181023 586.7277637198437 -142.84604398681006
-1794.8700815410539 -1610.3936132668703 339.00935284580027 782.328464719814 377.19027323501376 -618.8983919514476
-1889.4488112688762 -863.4262783751619 907.9765415118302 -300.735009918109 -658.3108612389138 -349.4176536122644
-4146.324979957917 -608.3383131529826 374.7953252059832 -488.1856037114384 -988.6930054001264 -113.92411237443125
-9429.59961940855 -584.2348168192865 -726.799700867434 -479.43687032968364 -1375.9372594049794 -61.31247331945035
-15250.67321927648 -1121.4491522236162 -1921.7414528450277 -434.72810079404667 -1387.2950607051403 -25.398969789828055
-20574.418738873763 -1599.5584699689655 -2903.4636283353557 -425.0458217587348 -1192.776583477087 -12.63761156716701
-25680.10301359419 -2011.3539546833197 -3825.2772492607814 -434.939234130689 -858.7409056216292 -4.098199219541076
-30732.47130583369 -2453.5593342368575 -4806.123285095035 -440.479662521292 -432.03900060762044 2.3320541268124835
-35486.23868052038 -2679.7565654950895 -5747.992884623039 -460.4503054827735 39.887747041384955 1.1735949969687134
-39746.2220647815 -3583.9454448428246 -6934.79806702284 -474.0393969603209 525.7451510195347 8.579367322766057
-42522.83222877158 -173.63580864603796 -6870.394430904507 -1149.106864485016 784.3287172272504 185.8273915903936
-54938.16825533804 -22499.817862945678 -18272.76095886418 0.9728569875615563 -47.86633810087375 -1714.2332854113622
-42507.89561392782 -171.56244755386734 -6850.693332592257 1151.0550698140685 -883.3645610582313 185.15994341021948
-39716.777321598674 -3579.8262706218807 -6895.721149096461 475.9646721961568 -634.3010098446849 7.3591335918696075
-35443.681826742046 -2673.688604520411 -5690.667478304195 462.2175082194274 -162.79583147866077 -0.3098211144810783
-30680.34822037902 -2445.8253291818546 -4733.511155336119 441.73247476980634 293.02967357772707 1.1809659598656879
-25626.810133814048 -2003.000608053148 -3744.165955182694 434.9215778355208 708.0304410716673 -3.70048575631688
-20538.021158101637 -1593.0180002122418 -2827.4164995893866 422.1593610804057 1046.0970632726528 -8.236119246964222
-15257.535058259782 -1117.7867948462317 -1871.1672572006917 426.8357742271545 1276.902016068351 -13.255168477955866
-9484.318069126384 -575.4307880349072 -716.9606946199642 467.91677627578906 1343.0756269507847 -42.813406440625
-4203.769978841297 -594.6817586577794 347.39500261677216 482.4096341318682 1030.2371567850591 -105.71297389536961
-1949.8666660135705 -890.1922287240338 839.9390459442798 296.0217551532245 726.6864326205421 -397.6682994421339
3299.3387168133786 -12097.391255608138 -2639.415761638427 -155.60294430744815 570.7884769224586 49.52999114527617
10497.018378878569 4309.424287295853 3617.6010655930604 -1070.6498260121987 778.1960192664735 -59.385046227999574
10875.387819961921 531.9781562800963 1847.7770553689427 -423.6315444956659 732.3950701258792 57.36328949807231
15134.830373871735 1154.4488554053034 2615.206819190625 -484.08056674360546 612.226723791901 66.19127194291659
19924.16800004366 1382.8114073924567 3582.5087079232385 -507.2581435603527 393.68228278502613 91.34234600075797
24837.76827881912 1768.2223063879535 4794.559148927664 -532.6180708596156 119.98371560963605 117.35542855615734
29800.46953000679 2153.754286471162 6207.638096874639 -566.8262779922329 -189.36315803060617 141.72246902826467
35097.07148457378 2626.693327676895 7951.072173367173 -631.9309162855802 -484.88646331977475 152.6840442066766
41092.44803622238 3155.367218852468 10116.52561968206 -709.460053637166 -650.0739425826547 128.62564163234356
47002.62208226558 3328.1531003095147 12256.510021921817 -595.9774138589518 -504.5710953218947 55.70639362138593
49547.88995071991 2878.020537388172 13067.316123169037 1.3788951850881688 0.651713295423632 -6.117060707819265
46988.139872240805 3326.5317515067677 12249.805861304221 598.8193909092812 505.1249564411829 54.91550278622171
41060.95017681511 3151.948623230391 10100.95266983756 712.5625637505246 648.2964610646063 127.05330793340131
35043.02979843088 2621.0943920910713 7921.872831767225 635.5122545349597 478.83256004107767 150.41005572614583
29714.163129025797 2145.214356908436 6156.4950648741105 571.1258795597587 176.00027495072462 138.98217435728677
24704.095754970716 1755.9775658379729 4708.881627197346 538.1222355441414 -146.12765259596716 114.98916696719114
19717.89096399909 1364.5598798005542 3442.167499332906 513.672606184981 -443.0352156414031 89.96052641501893
14823.454906931016 1129.8983148630464 2397.8116955380046 495.83464086395236 -696.651110129236 71.88953780729338
10307.718705466055 467.7039268340926 1463.754730127858 440.41007211467405 -862.671632116533 52.69854187657734
9066.126739638039 4025.439218509947 2878.838100702018 1046.283514171031 -785.2712700943604 42.416213004016754
873.9241388273743 -12772.886234978383 -4490.142607945172 1343.837545175404 -694.1466820840777 -414.57157999825995
-1595.505490808151 -12369.67407698533 -4311.054402568947 -265.422368521264 302.1981166985471 -147.9268579290375
5188.4338145974125 2251.3210444873584 1853.9822480346859 -1215.0749529739992 366.3383876952668 -124.44381945112174
6517.861255118871 -162.10079297912125 923.7869776998052 -1095.6750328827598 458.5808406862257 13.767155798829155
9945.265744013439 30.802028984833253 1513.7629974956262 -1207.595870979855 383.4026496806958 34.78771868360101
12955.870076378471 -75.14621105421763 2000.5193484597053 -1276.5045901045114 242.8692415996138 50.82189444619044
16109.340588182944 -97.21652327347022 2682.774865097701 -1321.922410429484 64.93151931642653 58.73838694690684
19299.201263856194 -109.2615038145273 3510.2312598399253 -1396.1033391998858 -129.3147967199353 51.204351545091654
22671.30468559064 -63.554223703818906 4546.034534483855 -1549.6472375584462 -308.65904590689144 9.21451224761772
26340.965848785694 -85.32499752669861 5775.441855836229 -1773.5486438759237 -406.25867649145073 -97.62848529251323
29627.459107211183 -843.9384126370411 6742.634996765139 -1554.2729162766072 -316.8412850550125 -276.3722876409407
30642.47007331396 -2379.8034884069425 6719.8739884984625 2.6743799285618604 -5.851366973400858 -403.95329921931153
29612.644967671513 -844.5247938160882 6742.844779222409 1559.8665275041465 304.0309198072376 -276.5600775860242
26309.177345550295 -86.52283395214695 5774.152370182085 1779.9185337956396 390.08080849391905 -97.80890266341879
22617.94346230086 -65.42213624939494 4539.400962253107 1557.4662037901453 286.6379137537958 9.546531020373438
19216.66140732164 -111.86197172233298 3491.489612693901 1406.2979145639365 98.35493411258531 53.12083370127351
15985.5645016906 -100.56231495053724 2640.791285790197 1335.8085023363763 -109.54619479129734 64.32034138921648
12773.900950872538 -78.44768293795111 1919.3575036679426 1295.5744283067477 -308.1870826459559 63.38794808821222
9664.552294137224 19.81086874648168 1360.6016453605682 1237.2044164353501 -479.8866118138571 60.00237427408524
6061.713602197423 -174.21757794135016 660.9967131948903 1152.8357679413093 -570.3681553778544 53.03369888202899
4708.429581401664 2167.0467071776943 1440.4448482670762 1320.8805951234772 -410.0576489512968 -15.376914966456697
-1925.0542457488264 -12200.031267947867 -4934.13985477284 998.1477693972581 -268.1490341520691 -536.2627501327491
-1804.044530489293 -8872.68220923904 -2984.270636995992 -1720.2388557363465 106.02238784124273 -509.99788483803434
2357.346841311531 1123.552818453062 1061.3347274902371 -2114.9280385382267 133.38171875317732 -188.093787658537
3045.3433902764177 272.70033560294297 615.0512266665621 -1971.4738195215066 186.61149238367074 -47.93468759869513
4955.513698196741 -55.27098683734031 766.418114914145 -2130.262461064227 154.05419432709374 -0.6863193113247634
6597.878944734426 -50.79411791908799 1035.906419523832 -2212.8502217024334 74.94648360997408 5.845772706102921
8134.662464728668 -77.94425981189707 1353.2403841490418 -2291.3290428707664 -18.825646486664432 -8.555076457319416
9677.854817406696 -90.49953987890589 1760.2481775191627 -2409.183047948772 -116.05614280822329 -55.762669361679066
11246.86843206383 0.24951139065560568 2284.5766428333395 -2638.5600710088697 -206.5997866966908 -160.96160913947912
13051.71000098505 125.75067044584587 2962.5398843632834 -3037.0390529329798 -268.60617390182625 -361.85537550763354
14862.91007848361 -1047.5966506332315 3320.7580420102686 -2818.047102942272 -230.66269325383888 -663.4312289397466
14716.735201629117 -4506.561497487263 2386.536725974768 4.315258033290016 -12.235946512174785 -881.4156299327474
14847.519879842515 -1048.3763688409467 3327.3495721787226 2827.085478739112 204.79692213939865 -663.0340037215933
13019.143503242496 124.18927109345896 2974.394262427951 3047.3743316080095 238.58072987619263 -360.65422019509106
11193.511252029843 -2.0906955186547744 2298.6251675829785 2651.326105743875 169.6947282949163 -157.95836725784415
9597.988682675561 -93.6365497750264 1770.759098537356 2425.99439573017 69.50483788384243 -48.93875128995016
8020.085604566058 -81.41200281851873 1350.641722083801 2314.5111625380373 -40.46944119104436 5.722121912718615
6435.769404195279 -54.5121684427895 1004.116426494047 2245.7605021281934 -151.1176338715746 33.765011092484066
4720.52083422174 -59.92662531278455 678.8562226034053 2180.5454174657702 -249.84252184253057 47.703521245330016
2787.7075634502153 280.13386769394225 462.9930335760564 2062.2288943156627 -282.35040481940644 38.825469005435714
2094.694313630726 913.011709690339 716.3716601690677 2273.0939738164175 -160.61920759227033 -113.77412720484926
-1896.5954235178285 -8741.900417830942 -3407.186160438676 1882.171570194629 -72.36879693852467 -788.8418841612748
-1619.1949903312484 -5633.159474420391 -1498.4315907133055 -1853.3838343599466 -12.623709118501548 -653.9287047205496
252.59881019417145 256.79536886164493 604.1290665239874 -2479.197469244375 -40.57642564426942 -220.92675627844707
-83.12062305972958 422.1914409892882 322.3096767110262 -2459.5951105429294 -58.088110101235316 -66.14367954137201
92.16180079762437 15.85173386097103 106.20725556987001 -2450.5001021651524 -74.55023812588864 -12.822831720503245
195.41568815739515 -19.42647042654476 62.935630323022565 -2523.1544236250406 -97.7683955284044 -3.961230112868789
156.3862122258634 -5.306314929845394 47.25245920392967 -2612.3475093972875 -114.9377550840139 -25.187951344386843
56.633718484869824 -18.793242663007057 41.917164919573764 -2747.9534515565942 -124.15336831978708 -84.46409577739317
-170.03118573267653 87.24398844439746 60.117210850877065 -2943.6403465547087 -136.15670657856148 -205.9060303476869
-138.16777443468553 481.69280877463797 265.65375221080427 -3374.3550022216427 -170.62292139017785 -427.3023276950014
594.8205869041224 -976.0868686073978 188.88586028346162 -3524.242713919331 -181.19193615815772 -771.0042242275567
-1055.9216104614525 -7900.45542316948 -2183.63487131174 4.890274755662142 -18.602197559776485 -1051.9187718152416
578.9276184831584 -977.1073652257512 201.8794629398325 3534.486606095356 142.33465288690607 -770.429141721907
-171.34592813585144 479.6696154642019 290.6921182695392 3386.070752861212 126.91277908541369 -425.67753794782766
-223.12123915352734 84.25678442999858 94.8690656092603 2958.109180772981 84.73611100847357 -202.0734573506797
-19.974701112736746 -22.627899307882757 81.74647173322342 2767.0134176407037 62.80794725828694 -76.12771175037355
51.9062651145996 -9.472912763290925 83.73830900293618 2638.8149449913735 42.37512553517114 -8.081233912296364
55.91709689514238 -23.103589469944964 80.96747109545547 2561.5361246855587 13.881407942839536 28.812265091858926
-75.9590516906069 19.96204399566038 88.23841783474651 2508.929236186738 -16.750264908965875 46.20597113080422
-237.70933246759552 394.9108413991647 234.89568088780092 2551.892720160629 -17.48066523198158 26.171165544177683
110.24561986193216 91.40359189153644 358.07329672910805 2556.206096508666 24.646952202491974 -166.8093192723585
-1631.4159066781363 -5490.604709397551 -1795.7880136084832 1885.9010278300711 39.14920529932427 -835.2618219911946
-1533.5606600380102 -2986.3358393157255 -205.48523205796067 -1478.7358803360187 -112.508051065841 -614.5071859796087
-1465.2058522634104 -185.8437157353754 407.8268962637813 -2171.8544525804887 -200.860328918726 -188.65957223125713
-3062.6311465555204 351.4126551531741 5.237570627608566 -2291.061353360038 -294.32291452109746 -56.38304494812579
-4651.746735163865 75.98382806075008 -524.8429738306613 -2179.7642399466226 -301.3076015054536 -6.4242211702722445
-6199.731901505406 35.927311995660205 -903.5762582691193 -2207.476335000044 -271.54209838794253 6.114205509556101
-7845.206669083254 58.72677332648015 -1270.0544606141736 -2291.3501131234716 -212.2784985599643 -8.678725265420242
-9521.670651637372 94.76353390961437 -1651.5745680060209 -2405.100624441848 -133.89022751851994 -56.4321482465248
-11469.502812200852 73.01158843809162 -2159.993987420307 -2553.5393093629573 -62.36811320866854 -154.40007620587315
-13365.438742543121 689.6078046441128 -2493.5167942130242 -2758.966956260372 -54.50179768852285 -332.1934908160504
-13411.92088046876 82.98303844957854 -2611.93164386591 -3660.557598992304 -114.18101043799774 -647.3924470485149
-17588.145283548754 -12807.181949397229 -7459.345035314866 4.32992128179527 -25.093597502650695 -971.7443612602904
-13428.419719169206 81.7163298813344 -2592.444281751886 3669.626035236273 62.06529178505797 -647.0464065016718
-13399.459847248632 687.1035281638641 -2455.101404482145 2769.3311393182394 -3.2126177272834595 -331.0973523032488
-11522.731346014725 69.35422995942345 -2104.2117644066498 2566.3186756599316 -3.9791512302969245 -151.56928476389277
-9595.599990378803 90.19185674803188 -1581.916701600433 2421.9024548649268 57.18047044236139 -49.8909756038937
-7940.339459205696 53.720406275783695 -1193.7180249800588 2314.8026446998047 125.76164066845067 5.264575502626576
-6312.730158502087 33.33889897958966 -832.9418650213754 2242.041609668456 179.33539452675592 34.03004152770127
-4765.303926295161 76.4595232128136 -479.4026751193598 2232.5431615849748 214.25159905776363 45.28240112065987
-3149.86318341908 319.9279110404119 -15.770968481440818 2355.083879297068 235.45760950437383 18.596667481731533
-1533.5710783163604 -281.95362369538276 257.29361429167716 2200.2301638408167 192.81790534021795 -148.6478975406079
-1531.9955113010155 -2887.2429131495173 -429.4190004631895 1469.2334586399074 134.07039312323326 -731.6999365837723
-1701.4855631884777 -1329.1871250666145 675.4805947396743 -798.9975536830792 -238.58129520172233 -371.6500666234893
-2929.389108785599 -337.42412245567 364.057078533047 -1242.7008722318192 -384.3179522047607 -82.07197742203697
-5978.894394114212 196.57168780473606 -325.7393421174168 -1351.2147735292465 -541.5769645180902 -11.039645685052763
-9342.521726457036 93.83892821854248 -1161.0455896406372 -1267.2736197016661 -529.4055805375846 29.187305978365107
-12591.835417729977 66.43644363904372 -1885.7917048023874 -1270.6309096279494 -441.8080691814614 50.172611567686026
-15839.170728659652 89.47366020791316 -2607.3301145663618 -1321.6275926390808 -299.78341205023366 58.440669853249545
-19151.940319010366 113.64255125681103 -3405.6481785339147 -1392.705240072373 -124.43018305676974 50.77227435463555
-22392.158637018896 247.41184182643528 -4239.040206609189 -1453.6067859970346 42.502901391368056 16.04675717913404
-26735.2744495261 -138.1514716502826 -5651.931262349689 -1616.0645138864927 130.8066075355158 -58.138027436619794
-27337.270991223064 2950.820952742246 -4980.924722322883 -2195.385382554392 35.88743039168464 -257.6279946747513
-36050.41956175999 -19120.481763606553 -13927.005979201926 2.705418085962103 -31.852316236829502 -624.8426167925785
-27354.655187973385 2949.347337173706 -4954.7848182791295 2201.0439447286153 -101.85683438577522 -257.92483017694514
-26770.751205057044 -141.06279655959193 -5599.790221478446 1622.5051591954493 -203.318305541368 -58.53737847848069
-22446.587153449855 243.19054082820517 -4161.618733013889 1461.4920264723914 -124.96277870032378 16.0367151956419
-19225.039244683157 108.41587766540943 -3305.2215006674487 1402.9813234633464 30.478715771962396 52.17534792051786
-15926.879999462291 84.23227215222084 -2489.1955099415577 1335.8257337931261 196.3142278876772 63.29549200515727
-12681.406614497515 63.466273141678016 -1760.3562167394448 1291.635071839072 336.9610332770959 62.50940790129027
-9410.682929655946 91.04625593434058 -1049.6759116202165 1297.9831692911039 440.93639162467565 55.13695668375402
-6010.677382258404 174.11008958315225 -273.1547291620837 1382.5201600627022 494.9937552350104 27.26115589808082
-2942.977863152974 -381.29500109573166 301.1071624038169 1249.5912436298222 387.0522746423422 -61.80195942829593
-1698.0360909697097 -1283.926905240208 507.3665915599209 784.8510000252592 264.32991907815233 -437.16007778502245
-1900.917716817091 -772.4139890005735 1116.0006991518396 -311.45560587842095 -459.69454960913674 -190.75378771440288
-4108.970535152683 -514.3372693670522 369.7718218638682 -497.5129017836366 -633.4505648868885 -8.697165834102721
-9104.543389196566 -512.2765259789795 -890.2066670759413 -515.5936138018279 -809.5522410154051 23.152874185284304
-14548.9539635908 -1004.8261694597949 -2283.8965199344248 -496.5325144224057 -756.1451587492958 56.80423743936193
-19605.303905766974 -1413.2447412712677 -3501.0815364023615 -503.48820330980465 -597.4434792562602 85.54403720108276
-24590.694710578613 -1769.383795557097 -4733.403279723794 -530.2287642678434 -359.5186475731808 113.80288951391537
-29690.139106055605 -2185.990172150781 -6129.839276200731 -556.839121778012 -70.14937231089515 139.095103234891
-34667.45917816204 -2329.5266527452054 -7560.509355684548 -615.9717562571126 215.61983077849874 157.81465854452168
-39605.00795972818 -3444.5273378601873 -9450.764612393212 -651.5908181303079 400.948735501837 149.1925112960558
-43883.33337726553 964.92407439596 -9683.358219529273 -1435.0775208845457 382.91823821985207 92.30821782741916
-60812.82980413399 -28920.017067965407 -23849.888989015097 1.4070385166005792 -38.975953025352844 -437.76445041904293
-43901.560914111484 964.4626402148111 -9649.868885709735 1438.0367521823516 -463.5723607042451 91.66428466944365
-39641.87428218521 -3445.2700311606964 -9383.391898087622 655.002197752058 -489.42493457612335 147.95491613354727
-34723.08960854032 -2330.1158321552766 -7458.909408283082 620.204679429807 -316.03378864505385 156.12912041890317
-29762.676400794237 -2185.53511758902 -5994.660414352098 562.3804120153515 -44.11295469787415 137.30703283386077
-24672.07571019593 -1765.7236054139325 -4567.469390972097 537.7682637797062 233.88035292091857 112.713320265043
-19673.174559110477 -1402.1505286489653 -3311.108433439602 514.2031609786661 471.40957256850976 86.96819485458731
-14566.209433490705 -984.5948763594837 -2087.8128278991803 511.42835644246526 654.8657427933288 63.860785164466854
-9058.439198258413 -495.9223232954864 -736.7098397183471 531.1063317564555 769.8541919613901 35.4281204498411
-4051.0400019571052 -508.1160164022916 404.2393602566364 503.32259280716505 661.6128738701383 -2.8632629479038223
-1864.5391556229301 -731.0105756349319 1013.489084402618 307.1473369906615 516.9269588505741 -229.98609044194646
4165.652457869128 -11279.490019427358 -2134.151268467468 354.1889694944778 -6.913517758277976e-09 -3.3387612674573575e-09
10777.089468079577 4214.747028797809 3785.2069298553342 -1050.4697043857077 -3.533295434010597e-09 1.5059598013067443e-10
10918.740089334464 558.6364403903663 2106.4615689122675 -408.34604833102776 -1.3939409626573251e-09 -2.2429258450529233e-10
15039.820323027367 1146.308557576171 2927.090841689601 -485.576160729491 1.908446733978053e-10 4.0098502296359584e-10
19773.606555587878 1389.6486938663982 4000.7099058743647 -519.2019144428895 5.815590231605938e-10 8.443947763225879e-10
24683.314757963326 1793.8854101526138 5382.130302567057 -558.1290371054583 -2.895776951561402e-10 -6.264500029828923e-10
29724.96075387929 2211.3175075366025 7030.660804641874 -607.8806652687558 -1.3441652235712809e-09 1.4857803876111575e-10
35256.149842015075 2737.238860991895 9078.448409280923 -688.8762598867341 -7.640998944680177e-10 1.8012711322512587e-09
41677.96792286087 3341.8465360883565 11588.211424786872 -774.6229148483221 5.704392513905532e-10 1.2888357048268517e-11
48084.744777786414 3589.982496489163 14017.27040451686 -647.1939564064456 1.4257766078884515e-09 1.6124079849078043e-10
50852.44539138131 3151.866881430656 14923.350107735332 1.7080002551951807 2.0871468997540887e-09 3.4994762643236754e-10
48060.20421713959 3587.9384257362935 14008.896288485288 650.7677362902276 3.758755529048585e-09 -7.83697551298701e-10
41624.85157610057 3337.540465495791 11568.530738195243 778.7013496440359 7.172994642701269e-09 8.480451896275554e-10
35165.29277823399 2730.140627927449 9040.952651018424 693.9190087877789 7.836868487487436e-09 5.418971937842798e-10
29579.401506410093 2200.1679800139646 6963.904325050634 614.4887576789512 6.823150155987889e-09 -2.9758417952052696e-11
24454.97509326581 1777.3025940762327 5268.777780736967 567.2308056439695 2.1298665053848254e-09 7.949729763367941e-11
19417.035558433035 1363.2540122720789 3814.918952211976 531.3907230170702 -3.749683230580558e-09 4.0455638838921004e-11
14492.11369631131 1111.9860347322237 2639.120904169704 505.2380334257254 -5.755272702856473e-09 3.0247537807781555e-10
10021.485922234393 473.5504175687026 1627.6848657470866 444.79669849675156 -7.597680706794563e-09 4.774585171674062e-10
8708.696622728856 3859.7128794852442 2746.7321589549383 1002.4074382508296 -7.028170934120226e-09 -3.2152502882354383e-11
739.2942189240007 -12340.948253855378 -4525.08095229211 1276.0223876672749 -6.3024820917689794e-09 -3.1553106794035557e-09
-1371.274377033534 -11960.236636604162 -4025.2088994887235 27.808339644061885 -2.1253081516903194e-09 -1.999004517472258e-09
5250.01572792667 2155.2977555938182 1856.0301700246991 -1154.0349349992077 -1.9680255203269326e-09 -8.010130336799648e-10
6639.376893122179 -139.0055763715805 1106.6173226794124 -1068.6524904098187 -1.487926004628548e-09 -8.471343626581529e-10
9923.170850105249 35.03525474637261 1712.9725225610118 -1212.4222923961377 -6.713536393476716e-10 1.4313394913756383e-10
12890.08078667496 -63.02888105804388 2262.9074357963827 -1302.7449119097828 -2.2149118650283128e-10 4.035420886339125e-10
16037.830307599483 -74.02786703314146 3045.7808956868735 -1374.8811907291629 -3.967124961867796e-10 -3.3976421676129576e-10
19277.265564764457 -72.01854037927785 4015.0194165134203 -1483.474463710906 -8.596312550679386e-10 -6.308535915877655e-10
22788.241907964293 -8.213167975551075 5228.043672023937 -1677.0052578920752 -6.964209209314731e-10 8.040936805286947e-10
26696.710993590536 -11.240974995257709 6647.977280074198 -1927.108930624052 -5.494509291992244e-10 -1.1935181731814737e-09
30249.67149749649 -759.2000198489214 7761.744100347098 -1680.3759453775563 4.810923881493068e-10 -1.3354739536453053e-09
31362.198661025846 -2340.3301213330574 7758.49401242975 3.306107664596583 1.6470479424768314e-09 -8.813305640842373e-10
30224.16947792923 -760.1295252406255 7761.782809053062 1687.4065462215892 1.6800534297090053e-09 -2.1085080348370866e-09
26642.257704655145 -13.102172217267938 6645.82947558025 1935.4983003975663 3.5614253768301296e-09 -7.501039789303832e-10
22697.238191970744 -11.05246373067614 5218.694195226748 1688.0279310366332 4.998708558190401e-09 7.038014615545762e-11
19136.349256015703 -75.95339377813981 3989.5980327875614 1499.002018203685 3.5071689163945763e-09 5.008176096055195e-10
15825.025021474812 -79.08933250034482 2990.0695782795856 1397.5030700845164 1.407881755621787e-09 3.171197526796732e-09
12571.582064370088 -68.62532374323169 2156.3787854547777 1335.89027595016 -1.279671257847781e-09 1.2604259858051137e-09
9440.761913731998 22.962655304151628 1520.3500140942022 1263.3890516305282 -3.4441132168439026e-09 1.206104993656254e-09
5915.705984228604 -150.01869280948787 783.1247514281928 1167.215630331106 -4.4972154888967e-09 7.743878871480092e-10
4529.933925145291 2068.5222958380523 1330.0054431492392 1281.5831724668387 -3.3729753157185627e-09 -3.031481732307384e-10
-1925.3400644937087 -11790.477063843937 -4943.7526587168695 945.5775021743209 -2.1763910673655573e-09 -4.60049420780706e-09
-1765.7409573808313 -8755.585333112138 -2909.387696783196 -1588.6758332361733 -7.388092360116616e-10 -1.9055423905456337e-10
2422.1501633677285 1161.939975761379 1089.4807961237768 -1996.3657035160518 -8.654621463932699e-10 -1.3891749972572143e-09
3150.446593574285 276.4395429462417 715.5013651537154 -1936.4793102371762 -1.416139011611861e-09 -1.1956187151440645e-09
5008.450582666332 -32.30068979670417 893.5905267137639 -2139.1704002419347 -1.0575264448864363e-09 -9.617662222183299e-10
6613.919396321421 -22.741088471188288 1184.8781014104359 -2259.6296588569653 -9.900899544668107e-10 3.7488590010070766e-10
8147.844962466935 -36.683081055510044 1552.0711392462335 -2379.6468674394746 -1.2001144522599816e-09 4.6049475344034363e-10
9715.079618993474 -33.89077275821391 2031.4830521032502 -2552.92683090927 -7.394433954033275e-10 -1.4443255480500738e-09
11349.907155016659 78.87418229563828 2647.0118764826525 -2847.978616003033 -1.3920725683291835e-09 -9.041123405495455e-10
13270.325473819494 230.7248038335605 3423.4982287729217 -3291.3372064704477 -1.4940786385864158e-09 -2.504420670845775e-09
15237.030897105027 -917.1127820935798 3853.3642432218917 -3033.932605541367 2.351380201659481e-10 -1.7582832967377726e-09
15114.814409210087 -4476.365179007687 2859.488189074862 5.165910057720891 1.8682444480333515e-10 -2.3272992422107563e-09
15210.465082019333 -918.3372146857522 3861.149456614062 3044.952034315767 1.4277723447975177e-10 -2.9719444682996254e-09
13214.39597573734 228.27845743356758 3437.395512746444 3304.5967897432483 1.2188973719240437e-09 -1.7605588098490443e-09
11258.728737365327 75.17450656974142 2663.1451272377403 2865.616079451495 1.907028757131002e-09 6.682103759203528e-10
9578.819728693015 -38.946348224196655 2042.6564428124343 2578.146924762368 1.828096535261281e-09 8.081855185082532e-10
7950.930741194907 -42.78158203914157 1546.2539959316164 2417.197864218004 1.0800623520546004e-09 5.213047327146114e-09
6332.758807843798 -28.616974673215896 1143.1655120377106 2315.90200346843 -7.033007509704703e-11 3.1588296423024076e-09
4607.992981039281 -38.81304463332997 786.5045491825153 2227.517408041311 -1.2199634080722888e-09 2.2274311284320447e-09
2726.344331937098 291.5245077763213 541.741463441435 2085.1267260966188 -2.1744453460037505e-09 1.1824390355741343e-09
2008.7880837506448 859.3868850583978 641.5317360451339 2216.3438489388423 -1.1504574237708454e-09 -1.0521565840804215e-09
-1891.2741211172554 -8463.51751485213 -3462.988477783083 1801.299722157179 -6.671396768354043e-10 -6.8619954163295915e-09
-1595.684281475991 -5568.075531027672 -1470.4122484493166 -1777.4169350660572 -2.1495524804571176e-10 1.5201440106693553e-10
312.02595152136627 299.1006221562981 614.7787887520183 -2387.014106704927 -4.528419861316024e-10 -1.1355405504787086e-09
19.590660360985332 427.3390134540748 362.7325103495538 -2415.7535848193997 -1.3684884336839787e-09 -1.4629679689903696e-09
177.83058262769592 10.024850949381012 137.74819548384968 -2461.2848853005576 -1.4944223636348397e-09 -1.000012073149037e-09
264.99214845568747 -22.639432529880292 78.18540200023946 -2577.88933751 -1.5804040298661448e-09 3.5281733090641865e-10
217.69454551628567 -7.082919159209039 55.34164684441671 -2714.3971833212563 -1.875580912802377e-09 7.64540430964189e-10
110.44533106517255 -16.942460329905472 51.18217850034281 -2911.2342577351906 -1.4882087229217689e-09 -1.0307905640161152e-09
-126.61378855501283 97.70584169452587 74.16196969731133 -3177.280036309059 -1.9647073967732354e-09 -1.8725687667142665e-09
-95.93081125229168 506.29179806927965 291.4669672866584 -3653.2141286630103 -1.988561759702634e-09 -4.052976620982918e-09
709.2916458516786 -926.5900118051726 225.39761544983517 -3772.3449593109867 -8.703345266702911e-10 -2.851100688872066e-09
-990.7745454771224 -8039.483004139227 -2319.1574853270868 5.794905234057303 -1.0036505238009141e-09 -2.2964359303045967e-09
681.8367792299365 -928.1288463771659 240.95121712823948 3784.713461580993 -1.1321193149615993e-09 -3.3633122953347083e-09
-152.9230230529236 503.2305901526357 321.432671222618 3668.1193805776898 -6.507786948217742e-10 -3.504850631941281e-09
-217.182183773281 93.1354103922804 115.73950462067961 3197.13076752836 -9.125909611329419e-10 7.874012553088505e-10
-19.712596367637424 -23.033821336406504 98.77115260690208 2939.7037067353817 -1.4045198337697684e-10 1.1066019212080391e-09
39.700330419437115 -14.003529399075735 98.91748763015012 2757.139043145264 5.120754376086722e-10 5.845194994691383e-09
26.37337700011295 -28.710527912838607 100.33275243097238 2643.5346679597315 9.245421650483365e-10 3.6470999553728234e-09
-109.16327135610032 16.036200533235395 121.73370879953337 2562.65803207791 3.934130243798961e-10 3.3171665414499785e-09
-240.9762156095307 386.89653054220963 267.54859668593184 2566.3023296482734 1.6067969177413488e-10 1.1697505186702983e-09
86.12496062159961 62.334759709776236 302.5601006612165 2500.4895847318808 4.561607758191144e-10 -1.493704715471722e-09
-1603.9117130349287 -5294.967635481142 -1846.1010492138691 1820.5946743761444 6.550269215921389e-10 -7.238917021368252e-09
-1474.8577728667005 -2926.939239886707 -165.23594033102958 -1440.4344858285378 1.2421375039650684e-10 3.4372504842394846e-12
-1388.5927266724718 -145.4345517344018 399.20055314527986 -2106.36648369088 -3.940334725172079e-10 -8.144436236534602e-10
-2948.440583205423 351.186428393037 -10.32185743408732 -2248.496541527992 -1.3184122682474708e-09 -1.3237722029657562e-09
-4534.289269870982 48.13680797952986 -585.8099118490038 -2183.0090688265336 -1.7626853310304114e-09 -4.711302459270428e-10
-6081.0082628404625 -1.6650427978561178 -1023.7666424791144 -2252.9584236996043 -1.955382966656316e-09 -3.4000358084540494e-11
-7736.067279675131 13.460187314083328 -1452.9748532923288 -2380.236335382654 -2.8087844272661755e-09 5.690155013837739e-10
-9448.97809043955 42.90604194740393 -1903.7077482172226 -2548.2984190538878 -2.484184642714826e-09 -4.774749484681706e-10
-11481.191699092757 10.727367882480623 -2495.0026959235374 -2757.8614916739416 -2.3159377193771036e-09 -1.5952172915945084e-09
-13502.620765905325 627.6057308587217 -2904.106934046596 -2993.0074210325647 -2.3286511330322668e-09 -4.505518624853266e-09
-13549.56584480311 61.88260998845132 -3038.5031143804918 -3893.478108194594 -1.9209664692265704e-09 -2.6333717428883574e-09
-17878.4785505519 -13163.866283030837 -8226.739042933963 5.2046032376919165 -2.0006879208889217e-09 -2.3871846721590373e-09
-13578.046690782798 60.026393318774616 -3015.062816385428 3904.5795158025285 -2.1665158556061215e-09 -2.557174028083864e-09
-13560.975747141292 623.9270226761372 -2857.8230831714795 3006.357384964178 -2.7679237790678712e-09 -3.5203564507924057e-09
-11571.704293187568 5.293257203747835 -2427.5780848117056 2775.5781526744595 -2.6944272646378664e-09 9.456302407784278e-10
-9573.722715723337 35.9148022229841 -1819.0108259674043 2573.6059864634453 -2.1638689173819614e-09 1.322359999278433e-09
-7895.979629876242 5.492962763342117 -1359.0421031353305 2418.4165709531844 -1.2766276924480735e-10 5.583074891291062e-09
-6271.282622848418 -6.3308135672885575 -933.865685402688 2312.2998066581767 1.7909753680100948e-09 3.432542694525864e-09
-4726.528528585125 47.95438974228465 -520.2466237855152 2273.9446460718955 1.9404740037032298e-09 3.1914639819774493e-09
-3095.7706574712947 302.77662506538974 -22.627476111436625 2354.5557609048537 2.3239552504605854e-09 1.14388853944547e-09
-1496.549391267728 -285.09086068848546 214.28548701623794 2149.8624952661507 2.062258142032647e-09 -1.1957732581890923e-09
-1464.852680254237 -2748.9929607216177 -447.1592828225526 1425.8148890436594 1.6305508054870188e-09 -6.4036491664865025e-09
-1588.7800180509703 -1247.4880108381537 725.2783231790254 -788.2858315679824 8.670264506349667e-11 -1.3157208655911745e-10
-2815.2084543004503 -278.9429274403722 327.80723731460665 -1203.950751601293 -3.861653219416894e-10 -4.4256376341422765e-10
-5828.521804944833 210.66763990058067 -389.301888357177 -1321.3670583352055 -1.3441865398533537e-09 -7.432832127562961e-10
-9170.010979634217 78.63572161521972 -1298.2620475030617 -1265.1022870662678 -2.3244997038318616e-09 -5.306621808642831e-10
-12396.92906530072 40.933954697597585 -2120.2494493847753 -1296.0512141613917 -2.882880156818146e-09 4.360183325502476e-10
-15646.390080727244 60.429592354200885 -2955.120073945479 -1375.0075140774586 -2.7590210116557046e-09 -4.3762460322227525e-10
-19018.101981462787 80.36924892689392 -3892.7711458049375 -1479.8681125485143 -2.2929744769584204e-09 1.375735081410312e-10
-22399.63504795998 210.3685394147537 -4888.8960336087575 -1575.0239539374072 -2.8869366897055215e-09 2.049462821673842e-10
-27023.63750601541 -205.00238316800707 -6490.889414454571 -1750.8152181346488 -2.5258488633994602e-09 -2.231360873850008e-09
-27684.78655983516 3039.9739922538593 -5781.416974917349 -2330.2237317874415 -2.538327048551281e-09 -5.22976328909408e-10
-36756.722741453 -19724.479802014845 -15318.985857157782 3.3736846591043754 -2.87904045048748e-09 -1.4327010688930386e-09
-27714.742900589375 3037.810443378173 -5749.875331448234 2337.3975231454656 -3.518160651694302e-09 -7.168483584507612e-10
-27084.369737770354 -209.28713428706465 -6427.81162787601 1759.3666654717479 -4.9638733123913426e-09 -1.2634515655918221e-09
-22491.910875232094 204.09552196232977 -4794.765709155099 1586.2205267542413 -4.908990991481232e-09 1.1099441366013707e-09
-19140.653976844544 72.40702321008727 -3769.5824218763073 1495.6247205341326 -4.1792962424125335e-09 1.0732796873469397e-09
-15791.906199496496 51.95947076304737 -2807.8282964109367 1398.4236323378489 -1.2982011021733797e-09 3.0129716499516235e-09
-12544.552350036936 34.824108013250964 -1958.8546613545766 1332.298538462281 2.1962112128903755e-09 1.974045815700265e-09
-9282.161163202225 71.08819713781658 -1146.1547100900125 1318.1060242809283 3.888082300562701e-09 1.3959633449189823e-09
-5880.068798260125 171.86151447655607 -305.4928271796677 1373.7394181235243 5.021183024922493e-09 5.740912190077552e-10
-2833.022281515643 -346.0454630645074 259.1730631577092 1214.553512686941 4.045041634981317e-09 -4.99089214400783e-10
-1574.0976755008028 -1165.9351180883787 511.3550341868491 767.5426697359052 2.8396307527600584e-09 -4.074067305737117e-09
-1778.8555744515218 -704.6700070319486 1066.9400654109982 -312.80306769132517 1.1235812280574464e-10 -2.453859337947506e-10
-3975.1945527075945 -459.20521422138455 251.45863202484787 -475.532155801953 -2.363194084864517e-10 -1.1039347214136797e-10
-8915.98608428188 -495.5087067823775 -1034.6741493202815 -498.69496564552173 -1.181039266384687e-09 -5.855405049715046e-10
-14312.594282357195 -1013.5924555878412 -2527.980211292167 -492.84970460715124 -2.975058421839094e-09 1.1297629498585593e-11
-19328.666505940506 -1434.6588239260839 -3890.23287325315 -513.9400197310772 -4.309926637802164e-09 3.0755131774640176e-10
-24314.686212847242 -1801.6926030877084 -5305.200945698106 -554.789705521098 -2.477823723978645e-09 -1.1130367738587665e-09
-29501.26388159311 -2240.555529984739 -6936.1125496738905 -597.0053695937767 -1.6758239240743933e-09 1.382893799473095e-09
-34715.53308664873 -2422.727694167038 -8663.269608777648 -668.8739202400936 -2.4151205479938653e-09 2.551594491251308e-10
-40089.00952463618 -3634.2432424315907 -10886.075199070001 -704.6868742755427 -2.459872305848876e-09 1.3725056646762823e-09
-44649.261409949584 935.9687763264899 -11140.526794502346 -1510.2841594418392 -3.96192323393052e-09 3.92866184029117e-10
-62088.34146369776 -29808.110803241874 -25715.923259982526 1.949254569229666 -3.777265611404346e-09 -1.2259704362804769e-09
-44680.87255677842 934.8928106235534 -11099.975742154067 1514.4301717596898 -4.333665870603909e-09 3.268851855864341e-10
-40152.56520565518 -3636.138952112732 -10804.205145112333 709.6168144039791 -7.714954008974928e-09 8.543992180420901e-10
-34810.5465599117 -2424.83068932096 -8538.960498880953 675.266718506547 -9.027016467655358e-09 7.947420499476721e-10
-29623.601739661724 -2241.5895686745125 -6768.731448298626 605.795729387026 -7.453712091987086e-09 1.303913421679681e-09
-24449.606621251132 -1798.4361275643448 -5095.329716411665 567.2974099611815 -3.2853630926865662e-09 2.6561863819551945e-10
-19437.883014671486 -1420.7066688667894 -3640.852736139074 532.1443598117776 2.9485907049320303e-09 5.41671596465676e-10
-14334.417846748504 -986.2796646782313 -2255.4786777417057 517.9360883537751 6.685954900831348e-09 2.828670631060959e-11
-8831.02468557251 -474.60437399527007 -804.2730939527705 524.0156491929786 8.691394270954333e-09 2.0794388433387212e-10
-3871.447935251849 -451.2255781480451 320.9782952862383 484.5606619186543 6.933355223281978e-09 1.4520651347993407e-10
-1708.6999234176583 -634.554489057244 937.4593297492879 308.08002633996455 4.941568931826623e-09 -2.4909638796088984e-09
3299.338716854358 -12097.391255595607 -2639.4157616223747 -155.60294428627338 -570.7884769363285 -49.52999115247428
10497.018378905645 4309.4242872961495 3617.6010655997493 -1070.6498260131307 -778.1960192725887 59.38504622769121
10875.387819978285 531.9781562800472 1847.7770553718012 -423.6315444964299 -732.3950701278394 -57.36328949927745
15134.830373886169 1154.4488554165805 2615.206819196036 -484.0805667418993 -612.2267237925982 -66.19127194316363
19924.16800004006 1382.8114073785534 3582.508707915736 -507.25814355930595 -393.68228278470986 -91.34234600194311
24837.768278824657 1768.2223063964204 4794.559148931354 -532.6180708593662 -119.98371560707054 -117.35542855572834
29800.469530013586 2153.7542864715215 6207.638096880045 -566.8262779927144 189.3631580372205 -141.72246902848892
35097.071484579086 2626.6933276690047 7951.072173373572 -631.9309162881887 484.88646332377874 -152.68404420763318
41092.448036237874 3155.367218864502 10116.525619699167 -709.4600536367049 650.0739425803954 -128.62564163273362
47002.62208226348 3328.153100274927 12256.510021918508 -595.9774138591498 504.57109532147746 -55.70639362116992
49547.889950734796 2878.0205373852077 13067.316123180828 1.3788951834874297 -0.6517132908900578 6.1170607084485376
46988.13987226151 3326.5317515098063 12249.805861318635 598.8193909104991 -505.124956433751 -54.9155027873329
41060.950176808125 3151.9486231811065 10100.952669827651 712.5625637540679 -648.2964610542463 -127.05330793238193
35043.02979842731 2621.0943920754958 7921.872831762744 635.5122545396481 -478.8325600312565 -150.4100557270436
29714.163129009816 2145.2143569048935 6156.495064867032 571.1258795589116 -176.0002749443773 -138.98217435484034
24704.09575494883 1755.9775658613974 4708.881627192047 538.1222355442071 146.1276525979038 -114.9891669666903
19717.89096397708 1364.5598798040357 3442.1674993250053 513.6726061844319 443.03521563781806 -89.96052641232112
14823.454906918078 1129.8983148643315 2397.8116955333553 495.8346408627068 696.6511101185952 -71.88953780601548
10307.718705452566 467.70392683130865 1463.7547301226664 440.41007211311364 862.6716321013257 -52.69854187629585
9066.126739623882 4025.439218504863 2878.838100696725 1046.2835141685728 785.2712700808794 -42.41621300322487
873.9241388228285 -12772.886234960093 -4490.142607939742 1343.8375451766624 694.1466820717335 414.57157999066715
-1595.505490800938 -12369.674076986983 -4311.054402567694 -265.4223685092632 -302.19811670285617 147.92685792443874
5188.4338146062755 2251.321044484448 1853.982248035079 -1215.074952973367 -366.33838769930827 124.44381944962447
6517.861255132616 -162.1007929730617 923.7869777034557 -1095.675032881954 -458.5808406890644 -13.767155799747416
9945.265744021497 30.80202898314919 1513.7629974952015 -1207.5958709771292 -383.4026496821692 -34.787718684216756
12955.870076382223 -75.1462110578665 2000.519348457954 -1276.5045901041342 -242.86924160024267 -50.821894447508825
16109.34058819265 -97.21652325826942 2682.7748651045795 -1321.9224104306832 -64.93151931555644 -58.738386947025965
19299.201263859362 -109.26150381951561 3510.2312598405124 -1396.1033392023774 129.31479672246846 -51.20435154555141
22671.304685593925 -63.554223708834286 4546.034534486811 -1549.6472375630249 308.65904590789563 -9.214512246686459
26340.965848794724 -85.3249975211148 5775.441855845415 -1773.5486438774112 406.25867649092436 97.62848529377627
29627.459107218176 -843.9384126499829 6742.634996768349 -1554.2729162758221 316.8412850552295 276.3722876386446
30642.470073323977 -2379.8034884102426 6719.873988504192 2.6743799261433114 5.851366975789005 403.953299218509
29612.64496768567 -844.5247938048132 6742.8447792344505 1559.8665275034282 -304.0309198021498 276.56007758497043
26309.177345544096 -86.52283399659909 5774.152370171605 1779.9185338025677 -390.08080848822874 97.80890266368725
22617.943462299572 -65.42213626182046 4539.400962250913 1557.4662037968053 -286.63791374823734 -9.546531019328487
19216.661407305186 -111.86197173860413 3491.4896126843446 1406.2979145714035 -98.35493410911667 -53.12083369869647
15985.56450167485 -100.56231495548575 2640.7912857826905 1335.8085023384008 109.54619479170186 -64.32034138743042
12773.900950861727 -78.44768292874144 1919.3575036664208 1295.574428300551 308.18708264345963 -63.387948084553344
9664.55229412439 19.81086874364761 1360.6016453550608 1237.2044164338756 479.88661180667185 -60.00237427165071
6061.713602191279 -174.21757794069273 660.9967131930778 1152.8357679373964 570.368155368202 -53.03369888065648
4708.429581395764 2167.0467071743483 1440.4448482644966 1320.8805951203422 410.0576489448738 15.376914966198235
-1925.0542457435427 -12200.031267926683 -4934.139854763879 998.1477693961378 268.14903414751444 536.2627501231782
-1804.0445304867278 -8872.682209243103 -2984.2706369970197 -1720.2388557348645 -106.02238784262076 509.9978848373219
2357.3468413167634 1123.552818456446 1061.334727491626 -2114.928038536958 -133.38171875552788 188.0937876558577
3045.3433902867855 272.70033561379734 615.0512266707171 -1971.4738195206842 -186.61149238678945 47.93468759769942
4955.5136982007925 -55.27098684349962 766.4181149114986 -2130.26246106094 -154.05419432945524 0.6863193108422596
6597.878944739967 -50.79411791594322 1035.906419524617 -2212.8502217006 -74.94648361157385 -5.845772707215231
8134.66246473609 -77.94425980505983 1353.2403841523749 -2291.3290428749624 18.825646485903576 8.555076456059048
9677.85481741101 -90.4995398781161 1760.2481775209533 -2409.183047954894 116.05614280736992 55.7626693618959
11246.86843207098 0.24951139940376166 2284.576642838974 -2638.560071014578 206.59978669577637 160.9616091426184
13051.710000983749 125.75067042261182 2962.5398843590197 -3037.0390529337706 268.60617390099924 361.85537550932156
14862.910078491364 -1047.5966506373848 3320.758042014379 -2818.0471029423456 230.6626932530147 663.4312289364941
14716.735201642714 -4506.561497469559 2386.536725984577 4.315258030378686 12.235946513317534 881.4156299300564
14847.519879851181 -1048.376368838098 3327.3495721847967 2827.0854787363874 -204.79692213668284 663.0340037190118
13019.143503236744 124.18927106023234 2974.394262419008 3047.374331617079 -238.58072987427474 360.654220195545
11193.511252027516 -2.0906955372736977 2298.625167579073 2651.326105750179 -169.69472829341802 157.95836725873988
9597.988682662814 -93.6365498028555 1770.7590985266481 2425.9943957384817 -69.50483788284846 48.938751293484025
8020.08560455095 -81.41200284038474 1350.6417220734133 2314.5111625426116 40.46944119102735 -5.722121909241086
6435.769404187204 -54.5121684455642 1004.1164264903417 2245.7605021210434 151.11763387010987 -33.765011087719515
4720.520834218104 -59.92662530396825 678.8562226045027 2180.5454174621746 249.84252183837097 -47.70352124119649
2787.7075634440844 280.1338676872729 462.99303357221106 2062.228894311144 282.35040481510424 -38.825469003468385
2094.6943136288114 913.0117096880675 716.3716601679156 2273.0939738108755 160.6192075900706 113.77412720345251
-1896.5954235147906 -8741.900417815415 -3407.1861604324345 1882.1715701916348 72.36879693716652 788.8418841475664
-1619.1949903321304 -5633.159474427001 -1498.431590715711 -1853.3838343604336 12.623709118044646 653.9287047209774
252.59881019875863 256.7953688699827 604.1290665267879 -2479.197469245434 40.57642564281333 220.92675627626835
-83.12062305377398 422.19144099782477 322.3096767137269 -2459.5951105424365 58.08811009848278 66.14367953979853
92.16180080427357 15.851733867426514 106.20725557223643 -2450.5001021625358 74.55023812259626 12.822831720090594
195.4156881585904 -19.42647043128041 62.93563032035925 -2523.1544236230397 97.7683955251442 3.9612301118925304
156.3862122327321 -5.306314923015268 47.25245920688295 -2612.3475094021023 114.93775508127818 25.187951342194822
56.63371848862476 -18.79324266264709 41.91716492047231 -2747.953451562717 124.15336831763581 84.46409577753461
-170.0311857268784 87.24398844856204 60.11721085306664 -2943.6403465622525 136.15670657554307 205.90603035062418
-138.16777443777318 481.69280875095507 265.65375220411636 -3374.355002223252 170.6229213880025 427.30232769770146
594.8205869026721 -976.0868686266641 188.8858602784364 -3524.2427139160636 181.19193615630175 771.0042242243686
-1055.921610453611 -7900.4554231587235 -2183.634871307309 4.890274753387326 18.60219755904267 1051.9187718093451
578.9276184803751 -977.1073652440595 201.87946293459655 3534.486606091441 -142.33465288634133 770.4291417192173
-171.3459281327813 479.66961545901756 290.69211826964914 3386.070752868753 -126.91277908684523 425.677537947971
-223.12123915821996 84.25678441024611 94.86906560397048 2958.109180782209 -84.73611101030295 202.0734573518295
-19.97470111518404 -22.627899325504444 81.74647172883752 2767.0134176499723 -62.807947259536014 76.12771175368832
51.90626511785924 -9.472912767242642 83.73830900368847 2638.814944995338 -42.37512553582569 8.081233917186996
55.91709689448733 -23.1035894727951 80.96747109440346 2561.536124679327 -13.881407943535205 -28.81226508670155
-75.95905168544789 19.962044013126434 88.23841784091056 2508.929236181078 16.750264908280226 -46.20597112634825
-237.70933247098606 394.91084139148086 234.89568088439788 2551.892720155265 17.480665232334044 -26.17116554187865
110.2456198624021 91.40359188967771 358.0732967286177 2556.206096503794 -24.64695220148094 166.8093192703561
-1631.4159066714742 -5490.604709385788 -1795.7880136025856 1885.9010278273477 -39.14920529855257 835.2618219767498
-1533.5606600420037 -2986.335839322542 -205.48523206075816 -1478.7358803369495 112.50805106568365 614.5071859804252
-1465.205852260467 -185.84371572589563 407.82689626683407 -2171.8544525820275 200.86032891746902 188.65957222980092
-3062.6311465515146 351.41265516079613 5.237570630153688 -2291.061353360226 294.3229145183776 56.383044946530056
-4651.746735161024 75.98382806097001 -524.8429738307235 -2179.764239945872 301.30760150176826 6.424221169586884
-6199.731901500988 35.927312003842026 -903.5762582670308 -2207.476334996951 271.5420983830428 -6.114205510368836
-7845.206669072993 58.72677334488924 -1270.0544606075682 -2291.3501131262856 212.27849855564898 8.678725263672984
-9521.670651636587 94.7635338973439 -1651.5745680108726 -2405.1006244480795 133.89022751426947 56.43214824656905
-11469.502812191218 73.01158844679402 -2159.993987416431 -2553.5393093671964 62.368113204536954 154.4000762087505
-13365.438742540555 689.6078046401321 -2493.516794213936 -2758.9669562618215 54.50179768566777 332.1934908201187
-13411.920880467118 82.9830384451771 -2611.9316438672104 -3660.5575989894105 114.18101043390327 647.3924470452658
-17588.145283555037 -12807.181949421823 -7459.345035326056 4.329921281038786 25.09359749938631 971.7443612543376
-13428.419719170617 81.71632987568188 -2592.4442817544755 3669.626035235292 -62.06529178700706 647.0464064992599
-13399.459847252505 687.103528152189 -2455.1014044870135 2769.3311393258955 3.2126177224650085 331.097352304865
-11522.731346014001 69.35422994957986 -2104.211764408665 2566.3186756687624 3.979151225376485 151.5692847642464
-9595.599990373781 90.1918567399046 -1581.9167016007204 2421.902454874873 -57.18047044555394 49.890975606856586
-7940.339459203236 53.72040625305391 -1193.718024984562 2314.802644704307 -125.76164066987955 -5.264575498913856
-6312.7301584896195 33.33889899251263 -832.9418650136613 2242.0416096616623 -179.33539452655688 -34.030041522870484
-4765.303926289226 76.45952321803222 -479.40267511661847 2232.5431615792713 -214.25159905508 -45.282401117101024
-3149.863183414999 319.927911040316 -15.770968480737567 2355.0838792907616 -235.45760949940419 -18.59666747992187
-1533.5710783163518 -281.95362370066954 257.2936142896442 2200.230163837217 -192.81790533634154 148.64789753910534
-1531.9955112964242 -2887.2429131424233 -429.41900045959966 1469.2334586375491 -134.0703931207919 731.6999365708868
-1701.4855631906769 -1329.1871250706747 675.4805947389045 -798.9975536839472 238.5812952018075 371.6500666241425
-2929.3891087836682 -337.42412244752524 364.0570785360638 -1242.7008722332484 384.31795220385277 82.07197742119963
-5978.894394115669 196.57168780516884 -325.7393421180255 -1351.2147735302374 541.5769645150078 11.039645684192937
-9342.52172645573 93.83892821819198 -1161.0455896409703 -1267.2736197003655 529.4055805334852 -29.18730597866486
-12591.835417719723 66.43644365494183 -1885.7917047954804 -1270.6309096250427 441.8080691760219 -50.17261156820295
-15839.170728654506 89.47366021073175 -2607.3301145655546 -1321.6275926421208 299.7834120440119 -58.440669853260076
-19151.94031900114 113.64255126426593 -3405.6481785321043 -1392.7052400750883 124.43018304949277 -50.772274354371376
-22392.158637009205 247.4118418371594 -4239.040206607287 -1453.6067859998093 -42.50290139717178 -16.04675717788558
-26735.274449525215 -138.15147164894796 -5651.931262351626 -1616.0645138878283 -130.80660753867153 58.13802743905527
-27337.270991218676 2950.8209527505305 -4980.924722321613 -2195.38538255328 -35.88743039732356 257.6279946725146
-36050.41956177189 -19120.481763639116 -13927.005979218431 2.7054180848789398 31.85231623157944 624.8426167886363
-27354.655187972847 2949.347337181017 -4954.784818279459 2201.0439447259305 101.85683438046374 257.9248301753143
-26770.75120506993 -141.0627965854014 -5599.790221492539 1622.5051592013047 203.3183055328614 58.53737847922544
-22446.58715345583 243.19054080655897 -4161.618733023454 1461.492026477349 124.9627786922797 -16.03671519587585
-19225.039244669835 108.41587766963806 -3305.221500662692 1402.9813234686812 -30.47871577792322 -52.17534791821955
-15926.879999455761 84.23227212145775 -2489.195509947263 1335.8257337960501 -196.3142278901719 -63.2954920024182
-12681.406614477864 63.46627314971195 -1760.3562167305363 1291.6350718350388 -336.96103327517335 -62.50940789814709
-9410.682929644421 91.0462559352276 -1049.6759116168992 1297.9831692881774 -440.93639161823467 -55.13695668112374
-6010.677382250672 174.11008958373662 -273.1547291602681 1382.5201600583368 -494.99375522558614 -27.26115589686092
-2942.977863150451 -381.2950010966302 301.1071624031005 1249.591243627593 -387.0522746348381 61.801959427442924
-1698.0360909667295 -1283.9269052375964 507.3665915612338 784.851000024728 -264.3299190730814 437.1600777768213
-1900.9177168189979 -772.4139890039066 1116.000699151923 -311.45560587788816 459.6945496095054 190.753787714663
-4108.97053515051 -514.3372693594256 369.7718218675889 -497.512901785405 633.4505648867329 8.697165833678302
-9104.543389202614 -512.2765259846256 -890.2066670792926 -515.5936138020693 809.552241012414 -23.152874185528454
-14548.953963589554 -1004.8261694512918 -2283.8965199317377 -496.53251442088083 756.1451587439042 -56.80423743973719
-19605.303905760313 -1413.2447412682761 -3501.0815363991483 -503.48820330966976 597.4434792509231 -85.54403720125353
-24590.69471057404 -1769.383795565592 -4733.403279725602 -530.2287642692335 359.5186475647738 -113.80288951174714
-29690.139106037015 -2185.9901721211327 -6129.839276192038 -556.8391217794016 70.14937229996471 -139.09510323561872
-34667.45917816119 -2329.5266527513318 -7560.509355694274 -615.9717562610213 -215.61983078583089 -157.8146585429526
-39605.00795972945 -3444.527337850437 -9450.764612399038 -651.5908181302916 -400.9487355053412 -149.19251129587843
-43883.333377268995 964.9240743967503 -9683.358219536161 -1435.077520886559 -382.91823822317707 -92.30821782839186
-60812.829804145666 -28920.01706799563 -23849.888989032053 1.4070385156363638 38.97595301768497 437.764450414843
-43901.56091411792 964.4626402201055 -9649.868885715836 1438.036752181554 463.57236069164037 -91.66428467083136
-39641.87428220507 -3445.2700311791455 -9383.39189810711 655.002197753015 489.4249345637433 -147.95491613520392
-34723.089608552764 -2330.1158321891303 -7458.909408301232 620.204679431669 316.03378863431004 -156.12912041990475
-29762.676400768887 -2185.535117571298 -5994.660414341129 562.3804120189692 44.11295468855931 -137.30703283274656
-24672.075710173547 -1765.7236054331968 -4567.469390968074 537.7682637798795 -233.88035292453932 -112.71332026254778
-19673.17455907691 -1402.1505286421764 -3311.1084334250704 514.203160977304 -471.40957256478544 -86.96819485334598
-14566.209433468968 -984.5948763548957 -2087.812827890291 511.4283564424165 -654.865742782775 -63.8607851625315
-9058.439198249072 -495.92232329413764 -736.7098397159664 531.1063317541646 -769.8541919471895 -35.428120449384934
-4051.0400019536883 -508.1160163980805 404.23936025685896 503.3225928058073 -661.6128738572673 2.86326294721842
-1864.5391556230406 -731.0105756357542 1013.4890844011356 307.14733698947344 -516.9269588400718 229.9860904370138
-716.570815133432 -15931.384007888702 -4994.38644690664 -2476.218804093962 -1321.044445937669 -467.3097393545662
9391.579328763426 4516.133610899959 3290.0357669109503 -1106.9700763859892 -1425.427473807679 146.46953725529931
10907.755639637453 546.4979031756692 1438.0092142774593 -395.59006920272043 -1337.0093206140689 -36.594800091678465
15444.380732431177 1339.3419433606582 2192.363281647512 -429.99383391969775 -1188.0551903653472 25.029819391898137
20417.210712900593 1573.4191688437809 2930.752519684652 -427.04969575941897 -906.7671177970142 2.568672383215567
25551.566132432155 2009.6079123396175 3853.851989395693 -437.96189705514934 -542.3631178338206 -1.7473709901817909
30597.90041562684 2420.892918633101 4845.827835876009 -448.09809516766376 -84.32819906505699 -8.199796956369527
35571.48593893863 2862.586389323711 5975.175771307202 -471.9519507743389 421.5880156704672 -0.6497732373871354
40465.663817239554 3300.604906047977 7285.826062369122 -495.892514997235 815.2326154189936 53.2122938535894
44702.482646292316 3493.2921013780106 8550.05524695017 -399.28961218275 744.9007558433785 204.40408737543
46423.659991724904 3243.9788972308584 9025.280294323886 1.3440818704628938 -7.052143552857573 362.7478265417487
44711.814228541574 3492.7726813336885 8547.42895876374 401.9568097585274 -758.2118250500863 205.33456358372655
40485.642390230365 3299.583963887743 7279.8830681669715 498.46121086341026 -826.0456230999772 55.04034793845508
35605.325602809935 2861.1602142377487 5964.465449314167 474.21795457032476 -427.7899377727642 1.898560499384562
30652.311966512047 2419.4828299971336 4828.173804908382 449.6832045826507 85.99691933911105 -5.168096700162021
25639.010792406596 2008.8307170931535 3825.7025702115734 438.04876918859753 556.8527660956063 0.16014395902662582
20562.872799035216 1575.9141806808107 2889.285197423994 425.3664612397893 945.1507754496608 5.2492391513229775
15683.621835778695 1344.9212210175754 2125.198075225748 421.7532910700201 1254.1866283336099 9.707714861695132
11379.70829980398 583.5435383967579 1391.6237754156805 380.2992261049189 1509.7336212361847 7.226168700228979
10501.8567683117 4657.900454621365 3301.409505160524 1097.6879759364888 1275.608625555056 -172.78333580830457
1466.0434296067604 -15089.855000390904 -3554.811427565348 1463.1432344418788 1077.651436665943 860.9222247497336
-2357.5573712459577 -14546.945157738197 -4408.225539539182 -1589.0564331428036 -222.48226867199585 43.789572399469094
4940.997329674022 2407.509802660259 1738.5600685387942 -1380.514758445148 -479.33127182626464 133.1146835065394
6220.408835627807 -130.37702466459277 559.4784296770113 -1086.9141192531747 -815.4630192177254 -8.739716754758627
9990.11170628729 151.13229120711986 1108.4864632131778 -1128.5821927977347 -683.8275961751758 11.771116210648618
13155.044619475997 77.89524784844797 1453.2832301277413 -1162.2441565970892 -509.5733812179615 -1.8503311353076226
16451.611357109003 96.90140163037982 1919.732718314963 -1168.6415584991769 -277.69678653473557 -2.268298688841355
19696.563580418668 122.97759194760995 2452.6042667215625 -1178.699200798752 -0.5464852558507693 11.15317996913361
22867.78633465725 178.184203336817 3078.212189230518 -1210.1610416706917 297.1664422135183 64.03916959298166
25900.241126797162 194.8413423899055 3789.0450436761025 -1254.6632132633529 527.6803136469316 217.39957387008502
28326.950861897854 -220.9936885129751 4336.0054689104845 -1029.4533423653907 486.31947373050184 552.0105400042897
29052.09674914467 -1174.838032494461 4283.643211435105 1.9456745807509428 2.7169735376110378 885.2635524896095
28337.508550416165 -220.57722076235925 4337.196085273346 1033.284902154397 -479.64901320491504 552.2108441273499
25922.501157451778 195.6610215860329 3790.728990671429 1258.23817198395 -517.2559642717163 217.57846769858173
22904.4529862702 179.41049294128337 3078.864456762989 1213.0265633915697 -280.26474716072283 63.62563283596301
19752.86560621462 124.64838875612642 2449.5230886179907 1179.9342109170848 27.04628601767952 9.002981088140448
16537.784208710644 99.24896073260045 1908.9819840037396 1166.6125298073707 318.2769240134225 -8.519894958150413
13288.440216951987 80.54968756027768 1427.5804192680353 1154.7500159311694 569.1469612523147 -14.909598787451642
10215.055195823847 162.00338134973907 1067.9596680974419 1109.7477246005385 776.3691232244721 -17.80345636161822
6607.278248356942 -124.33756734890316 487.02048985323563 1038.794096021774 931.9718443091077 -35.330920232296464
5338.263430756525 2452.4250626684843 1659.5650254938855 1265.723686847953 510.2383032610692 -96.9122190932649
-2016.2829539846232 -14522.263267846076 -4284.817281142278 943.2330810827825 152.58916722683915 908.1798737413451
-2189.7180373302676 -10564.079597554522 -2887.0222441368273 -2097.287309225575 35.277871954373374 875.8827601826828
2156.348782709416 809.7285792176103 940.2006211829114 -2397.485757065979 -109.56947217698432 131.6364544905612
2828.691607127447 422.6067028703501 446.3419620264596 -1982.6540521504035 -329.05925770347176 40.137113800616405
4803.774622127609 40.71018923353493 520.0491715654341 -2038.932731722604 -279.4838144137264 -0.556828958381665
6579.018639744928 74.09117624729109 740.2619319816489 -2061.030284921221 -177.13233501159684 0.43504001412224724
8208.987617652674 76.83199481463532 954.6864486682322 -2069.0901392561873 -59.76647912757678 13.304653537563718
9818.039420915804 95.64790455020005 1216.2859606400223 -2074.0461175950827 75.88216849333028 58.55186360133329
11348.368976689366 167.35365649287485 1530.4852580323372 -2096.580783275545 229.92823114335525 171.8185591840739
12850.8840353921 259.2869574647562 1914.7125341748085 -2169.439708592688 398.70660572362516 437.8629702274127
14164.139325028562 -436.37558115290125 2089.515102267359 -1876.4125230727686 443.1071486376629 991.0746143668016
14067.443901610446 -2700.931774402562 1417.8826082209744 2.853945368876875 11.382210211632907 1630.8903897931616
14175.463669902683 -435.7924190849321 2094.248060223002 1882.0103349718152 -418.75496972345144 990.6109355140081
12874.378278173494 260.4250643207248 1923.523299837609 2174.578055302892 -369.6277943449416 436.5302028683028
11385.906942147845 169.0033481440729 1541.8446915985353 2100.484618851422 -193.11735155954432 168.63079248849525
9873.216143049405 97.84000465214007 1227.4513127307998 2075.1191578044977 -28.548741290182964 51.47058918752675
8288.462448896269 79.35023952534097 960.9215620993546 2064.513189367877 120.06832650705913 -1.2033232197771104
6696.522868404318 77.51211096673647 735.0730716074168 2046.3049889150527 252.92875284674625 -28.297094784886575
4989.19400170115 46.10600630346502 495.33398715447163 2005.4124288148378 373.58450026223716 -48.2957865194252
3046.191882730597 413.2793699206272 367.1617735492628 1904.238779188645 424.27855381947467 -55.807430836863276
2370.5836875082978 975.4128520192546 888.934339312442 2239.0175030003825 129.01585994407404 41.61456833143869
-2093.673877190756 -10551.491353392994 -2947.47622890579 1915.5983146946983 -78.84121671465576 1227.408174487998
-1817.5924398018267 -6684.797656668183 -1459.158148214272 -1983.026137502994 113.8976447235737 960.3172512193065
82.67048424871852 -138.26517744519344 512.0285719918455 -2633.969352217764 108.76876106483738 236.1237050755444
-305.89351857114815 469.1771719257002 263.7930824114488 -2504.4682744623833 68.04893941753798 59.57621188576806
-185.32007324851426 52.4036758358434 55.106278215059845 -2365.6728173892056 95.12759714692429 14.737850424932251
-49.81711127150238 -13.911910572772225 32.95905066585452 -2365.3365297888163 127.78053505124016 12.629054019836913
-36.15184081187285 -1.9149389483576513 29.05311093727246 -2370.5914077181224 145.01495047307716 37.434911826693096
-58.01209336499878 -13.105882058952758 25.556970276038903 -2376.1544891331773 156.89713607300973 97.48141432820874
-161.0787122476179 35.497961325919896 29.361280614551397 -2359.780880896192 187.39632033455177 226.02419924866442
-137.28481875179926 268.4693036977413 130.48950986531983 -2435.2859231183147 317.5506151743722 501.97518581298954
315.5154837446422 -629.1903174990027 32.820054632216184 -2383.5835224280377 490.8557770961623 1104.9277298620636
-891.4997084724696 -5362.639324972986 -1681.9985287802174 3.1033044178032263 19.60768015224412 2093.940597178795
327.5491822090387 -628.4127821934121 41.153008306126836 2389.6664616804364 -449.73052390388426 1104.2714369530247
-112.74273143396846 269.99163815418615 146.56379005625467 2440.8527397409266 -270.83336944404374 500.1982817223031
-123.09228281799909 37.72287665220243 51.730578906800005 2363.9589886193367 -131.88387034128277 221.9888025120983
-5.017928649457438 -10.218793415864635 51.39612831618197 2377.128696682487 -90.4041183253373 88.92413653639044
34.84954331371417 1.4935214083428114 53.41889749088147 2364.9778166108927 -67.0958319829493 20.0442282830137
47.432045521037175 -9.979643551672009 48.519146863389636 2347.4003456222354 -40.3117761042786 -20.607221276146724
-59.93222670661951 51.156695205575886 45.32923352115682 2325.435957705009 -3.731930221358791 -45.42116396504507
-183.49621774172678 490.4210498515291 213.69049489832167 2423.7553807018244 3.246645027258083 -37.55318222760246
195.85393299220266 5.860197687047943 464.95230126079167 2549.368439690815 -102.80688300363028 177.5383751493774
-1815.2170127752959 -6736.543876599158 -1579.2387679679737 1924.2017861632366 -149.08171648983367 1170.4488850090736
-1644.7106529850591 -3551.0682968291726 -327.0054645308782 -1501.4282685030153 192.14055831257326 830.5606703297079
-1595.2327875185763 -495.5493710231041 339.7834315142084 -2231.3378162072017 310.2230296706703 240.78571260623468
-3308.584653045704 311.6422868412536 43.39296504541075 -2306.651275273818 438.41583501799107 61.85999068380766
-5046.643383332699 25.201405326578755 -389.89636080515646 -2096.9026847348227 468.5152938450921 7.579572586701624
-6660.616110177111 -73.57476085885112 -662.2815351407161 -2053.5076796734165 436.07947963864575 -2.736103190189877
-8302.363471668421 -90.02770779015773 -906.8678483592706 -2064.276304363235 352.51108363754486 13.630970971697632
-9909.067426717773 -93.616266358979 -1149.619260105024 -2069.208211882301 242.88712108239608 63.64582443517041
-11610.626130386214 -160.33834460948714 -1471.4626018365354 -2050.7213353956467 135.39205905622424 155.34157713040062
-13176.766952532194 198.47462316671522 -1692.9187788123706 -2016.3172134467652 169.08141624705428 351.074158426885
-13322.39479499123 -109.69671514947125 -1789.3814600904122 -2549.1665781311704 522.4150613607508 807.5958999064837
-16412.53492068927 -9292.639535424472 -5405.417386759933 2.922186171789896 28.00886083976001 2190.076059694854
-13309.625602290494 -108.73952511719469 -1777.4029494684069 2554.9185588101086 -464.1370752491367 807.2303555714694
-13151.125996783081 200.3635415121364 -1669.4684989236018 2021.6638695757085 -104.25836542550391 349.9383403799063
-11572.12872561321 -157.56248003727717 -1437.8828836585114 2054.926489302036 -60.56963399112253 152.4477511821283
-9858.23925812283 -90.02261758336311 -1108.7665676248575 2070.686751130821 -156.41026508102084 56.994980052750854
-8239.974097106013 -85.62436458152368 -863.9238363933063 2059.8899047021273 -256.0513309177571 -0.5856667750297255
-6588.053120046758 -69.91449804899699 -626.7296161420379 2037.6174487472672 -336.357223549078 -31.48490914056351
-4972.537069814032 27.958844759306366 -377.6343496106158 2060.2646178325977 -379.6242856293112 -46.17989197413733
-3250.155116374706 339.8563305861995 21.545925906131718 2249.9877572102296 -385.46100486368147 -16.882863926168625
-1546.6566326200143 -406.3629254679119 298.15766825024843 2195.003242602846 -312.1720374006599 200.47674167821734
-1669.3559701684808 -3607.9372155917204 -442.4009453954975 1487.8612027431054 -221.137046646646 969.915707571662
-1760.1124997848299 -1574.6492383231287 428.511449660913 -785.1726935004212 344.33666742738546 539.1456704440494
-3008.8699658876317 -512.0212849670601 327.91122371467776 -1247.5009400124661 573.9848567084493 163.87223966440396
-6246.078361034895 133.8282025524486 -196.357763735504 -1330.6570657063212 847.618837501696 56.48440758847494
-9853.605761785491 13.723292235249549 -853.9923282984745 -1192.9972383375107 879.6747874317188 8.933965786640524
-13263.240311002477 -73.73893336882996 -1387.4806553068065 -1154.0330538459148 776.2036016198173 -4.128346880212218
-16561.820917239285 -103.49442095588068 -1879.4268330006225 -1163.253305975554 580.9115986067874 -2.3224776897337467
-19806.20277690309 -127.82392179158319 -2394.473229764039 -1174.0602202124276 328.088944605718 14.61642829133635
-22829.16959967266 -74.51492257499743 -2896.3408565335753 -1152.2645159541566 70.52152424925131 59.17955297682954
-26377.27599210459 -427.8809195852874 -3809.6077730770126 -1188.6297692274059 -157.94973320030343 92.81976907297788
-26816.67897746236 1917.7398789708889 -3277.0790264192574 -1610.0251510100773 329.6698691483193 301.82025747066984
-33257.76775063814 -14324.96291996013 -10187.92585004581 2.026588637759133 37.204108906245274 1612.1730488611236
-26803.070792471128 1918.833883692064 -3261.423374813035 1614.042199777831 -252.5598159077028 302.1760825157304
-26350.276730882895 -425.7118825427851 -3778.7094839140877 1192.4613239754474 242.84148346438624 93.31056147779583
-22789.6241601174 -71.32323677337149 -2851.425814788993 1155.5063508462833 26.089808438855357 59.24929810758432
-19756.394711274585 -123.68259134935931 -2338.394466945103 1175.784453316756 -218.33895811740243 13.114623191254191
-16506.79823930516 -98.7526272559346 -1818.0519284909562 1161.575509891093 -461.473859829186 -7.710755758197729
-13212.993421852865 -69.38988663057567 -1331.6901860822297 1145.2317018784524 -658.7464461730511 -18.020038938485705
-9822.638117567656 20.053290444218778 -819.4207097708662 1172.2870048778896 -786.8234269105728 -20.342402957943225
-6239.6901599489165 157.1937134488456 -194.7479996283704 1302.7597410094188 -807.4569953458765 13.501398104048263
-3009.8814477903065 -469.5995633320287 295.79954333319 1235.172771814707 -586.727763714163 142.84604398571236
-1794.8700815365034 -1610.3936132623924 339.00935284723187 782.3284647164448 -377.1902732306784 618.8983919446574
-1889.4488112659496 -863.4262783745284 907.9765415164227 -300.735009921091 658.3108612405231 349.4176536133596
-4146.324979961422 -608.3383131523266 374.79532520743203 -488.1856037078931 988.6930054009308 113.92411237391318
-9429.599619414024 -584.2348168136966 -726.7997008651312 -479.43687032682124 1375.9372594040638 61.31247331865586
-15250.673219279422 -1121.4491522353503 -1921.7414528465306 -434.72810079909607 1387.29506070192 25.398969788649623
-20574.418738869335 -1599.5584699593203 -2903.463628330327 -425.04582175610506 1192.7765834697577 12.637611567424141
-25680.103013586246 -2011.3539546490588 -3825.2772492516615 -434.939234132057 858.7409056114979 4.098199217423321
-30732.471305820316 -2453.5593342356206 -4806.1232850944125 -440.47966252362613 432.03900059676073 -2.3320541265708243
-35486.23868049445 -2679.7565655059047 -5747.99288462206 -460.45030547966337 -39.88774704921346 -1.173594999052277
-39746.22206477182 -3583.9454448743227 -6934.79806703162 -474.03939696472764 -525.7451510221164 -8.579367322977411
-42522.83222877544 -173.63580864030823 -6870.394430904709 -1149.1068644897016 -784.3287172263183 -185.82739158966945
-54938.168255416706 -22499.817863073644 -18272.76095891594 0.9728569884620129 47.86633809589594 1714.2332854045558
-42507.89561393784 -171.56244755712038 -6850.693332594233 1151.0550698189345 883.3645610464084 -185.15994340875588
-39716.77732159207 -3579.8262706327564 -6895.721149097697 475.96467219551516 634.3010098340918 -7.3591335922951515
-35443.68182673614 -2673.6886045330093 -5690.667478312441 462.21750822018146 162.79583147163424 0.30982111540185286
-30680.3482203544 -2445.8253291812566 -4733.511155333054 441.7324747710877 -293.0296735812678 -1.1809659600746727
-25626.810133770512 -2003.000608044118 -3744.1659551723824 434.92157783654136 -708.030441072052 3.7004857588819604
-20538.02115806436 -1593.018000225203 -2827.4164995852875 422.1593610810727 -1046.0970632704236 8.236119247728844
-15257.535058226902 -1117.7867948493426 -1871.1672571958807 426.8357742260629 -1276.9020160617488 13.255168479733545
-9484.318069111074 -575.4307880487122 -716.9606946230128 467.9167762751333 -1343.0756269398046 42.8134064408497
-4203.769978829182 -594.6817586556617 347.39500261886207 482.4096341319196 -1030.2371567750042 105.71297389478244
-1949.8666660063263 -890.1922287214237 839.9390459453302 296.021755151832 -726.6864326125904 397.66829943793556
-4743.503961879901 -26312.280275781777 -9316.735271298496 -4814.107801180202 -1984.695712494123 2500.9516209862213
10483.28108198421 6743.675945175559 4339.850327485467 -2138.5206057161718 -2065.8330447183566 85.05029368111423
10369.993697119442 300.9317082440208 1016.8580094829957 -1008.1565744785723 -2018.1754463227878 701.5559888912874
14999.750840981062 1394.6515571781752 1847.2197539665187 -1039.6327528362842 -1795.7355943620148 761.2149136775655
20251.91117972002 1556.0383431668006 2480.4155268464783 -979.8254543651299 -1604.7372825556613 1045.4768607509068
25734.90929081979 2045.4374714746743 3318.5498860182397 -889.0152985342543 -1260.4288634978416 1289.2053966461604
31074.141635772707 2476.8626786566683 4152.716387874319 -742.6037914340809 -786.1440553728569 1539.6474180288694
36112.84791932762 2879.835049557402 5000.259375309709 -541.3166123279173 -191.6126508452619 1785.7388190745705
40355.65617043013 3202.211887399293 5777.156308886019 -281.74033318672616 387.92764343460743 2039.4257913887432
43123.05518133365 3524.0224583381982 6377.066225123494 -52.348884673158636 552.3025698187957 2312.0029883658103
44137.89383523184 3886.32113522395 6700.212218816408 -6.411820685645637 -13.276362913534406 2497.9233125273713
43154.392482833755 3524.3929705234523 6379.3861548609675 39.19233615142207 -578.6221037184351 2312.647939012721
40424.531166476416 3203.2394808259537 5782.608584112379 267.58547666252684 -413.4768490199024 2040.7042243732524
36232.450294745206 2882.1297219591306 5010.464893357589 525.4745156902361 167.665821465324 1787.6835263878424
31266.546486807816 2481.7742157244707 4170.436783608695 724.4400088704182 765.0297381768829 1541.9955458405461
26031.578496908016 2053.671361042049 3345.6504047406734 867.6352808606744 1244.8583930803688 1292.8960252782344
20699.587990370852 1572.7569670865682 2522.969282873042 955.320610647189 1594.777974642374 1045.8302717493114
15649.373711271357 1414.1030611960898 1886.592874972806 1004.9402380918738 1807.2232558653213 780.7017233724408
11477.872044211344 416.6762622857751 1190.5790227908542 966.1493937329711 1986.5749260404702 636.84854111319
12885.038594797112 7167.783415689675 4596.283961482212 2218.873149068062 2656.3646159072764 467.86861899668156
-198.35569730598763 -25093.664902091907 -5726.618876094028 2893.7146223019918 3479.443146499858 970.0121251330941
-5259.350255565581 -22822.758327081745 -6881.136667416988 -3089.9750420645823 -1639.7867586792893 1437.6493739381224
5011.886661872526 3654.8403675596437 2058.358510859367 -2560.3128027227813 -1373.043143372444 431.2150632291954
5170.823290110736 -349.36535294454796 33.763403468790706 -2130.243746980532 -1245.7872644632932 755.9180986933874
9357.552871092075 64.98426821410136 642.6130296394257 -2157.5594969817134 -1101.4889002936625 980.2563017444251
12659.35356740178 -78.579236438131 883.2223255394722 -2109.027359523672 -955.8705339854547 1300.5143871069292
16153.778057008587 -74.25505367217748 1232.5795546551856 -1937.1735410296542 -753.2406381017149 1619.869818130336
19558.117441700004 -74.1736182759112 1605.613622591711 -1683.1575834488945 -471.3189678798703 1941.0581002157126
22761.200378524736 -103.21765738408075 1992.853130194427 -1312.6411524090397 -123.35066041243678 2272.5516487761993
25473.984760330943 -135.06519460738411 2367.5535491286687 -775.373084132382 219.36030546974993 2649.893725451288
27347.757887361244 123.77192245695376 2749.3406569954286 -204.07720052014133 327.14160015468093 3123.249600878272
28227.855471592913 825.133412161561 3126.61328246963 -11.432049322485199 -3.180253123438602 3490.3878847395504
27381.728107836672 125.26620733084626 2754.085036412798 180.4850641146546 -332.86887594610226 3123.3172793182684
25547.502154935733 -131.94933800324296 2377.597301437298 749.5602716623678 -223.1671531617371 2649.942633370932
22885.86123968757 -98.2186378860063 2009.2529544157837 1282.9936717892385 122.77054679939074 2272.3983114800294
19752.25023539653 -67.02211251151545 1629.4859272071155 1647.8771289377387 475.42638250714936 1940.323275349895
16443.71784341641 -64.94566980979255 1265.0833304757987 1894.2529649080154 763.0020567964959 1618.2618630766735
13077.631185774791 -68.67060331583372 920.5037872593834 2056.3717969541567 973.7558412778295 1296.3292407657111
9963.82892907807 86.74688675739802 695.504185035398 2086.4758450141067 1119.7193009409978 979.4028766971816
6020.411324186654 -331.57366634034184 54.8506206216758 2020.5316864879908 1297.3287913228821 726.4846090487111
5848.142869201182 3834.5884259820946 2144.400996955456 2414.9111513651164 1570.1521712408426 618.5130494643208
-4875.668107983326 -23569.20045362149 -6615.746516556752 1933.6158003431344 1941.5789730174129 583.9235708536689
-4191.095579215725 -15905.773575749428 -4341.311233311727 -3627.822959191185 -998.5080481645746 476.1483647414089
1719.877782629614 1115.4640741968308 931.4814775231557 -4158.788285871831 -781.4369343059625 670.1639546921602
1816.2688353157585 511.7572235843103 88.47206212021521 -3627.43775050631 -615.7976763951228 863.0411815512346
4010.2323916897412 -84.9585406303637 119.04456747576847 -3689.249499663448 -499.3885972082791 1250.2280281600822
6014.365792456716 -56.87956254307325 339.8665094417933 -3563.9518692258725 -408.4289353142281 1649.989311616671
7800.577151593976 -72.24509241856384 502.6534770850381 -3289.6985635172523 -309.0884081614391 2069.9213000027025
9578.952921392813 -60.97164803536343 698.7971177183874 -2881.8969465791747 -175.79117858586662 2493.685295134459
11288.419131488836 -95.0827933330674 907.0327932950994 -2289.2541369763844 1.7095583038248137 2940.6840109475243
12745.302091556425 -146.4362195502659 1097.5620138416568 -1374.8382498952637 227.34040734273023 3467.040374219626
13735.913699603274 432.9492655006954 1398.091629143759 -296.73141313013343 347.4955553156296 4185.68920835829
14646.01955517392 2310.534862401696 2123.808455938954 -18.26854860735412 4.887857588016786 4862.32333488072
13770.984925744777 434.7035883910658 1404.6979828498595 258.98226644902934 -336.75471590717365 4185.312074017912
12820.405929319151 -142.80990024894606 1111.2477254372934 1333.3814173016765 -213.75250463290885 3466.1731500404894
11413.509779817836 -89.36196367660276 928.5637066585766 2241.355697896854 16.443444671565924 2939.054295660258
9769.15117679341 -52.874698984271824 728.9393915189936 2824.3937680548015 199.77555741253946 2490.8519574691522
8075.719922902796 -62.52874084709672 540.8428308268625 3218.8651424402206 339.3885840797841 2064.8981293353813
6398.647959263288 -46.543528940836 383.80093524010135 3475.139967775972 443.4986897615988 1642.627016263992
4525.328828612136 -76.08602885076041 158.65545783451657 3570.6001335280525 535.5367589626086 1235.5703805688668
2331.595499666174 518.5384802042084 64.7805925304218 3455.020721595912 665.9378220746257 866.2812344829381
2205.1150074634083 1477.49756993329 1028.0140671842753 3928.9498357278576 855.7005733225826 680.4546588738389
-4171.1092524318865 -16502.49928315837 -4435.212051063308 3429.114222654367 1095.6713326642107 455.07811864449957
-3066.2643029828523 -9611.566865518573 -2296.0653912194894 -3354.822426187154 -450.4367986492435 167.91090784254826
-536.4425298457506 -223.0830714594741 358.37547054615123 -4398.034211184088 -255.2059802120692 581.9980368282869
-1241.7037305596714 651.3289348729421 39.98027964760692 -4415.681040373098 -40.25472686247964 892.339116710806
-979.1671920406593 49.4232703954925 -155.17560654693432 -4215.515770826135 66.91146742484207 1314.658848076683
-592.6311952932537 -42.62290033443484 -101.21885703269093 -4042.2135609322577 98.60927872840435 1751.3308051957551
-392.06343919659656 -17.338548902186908 -53.57312779045607 -3728.926140001342 107.25340785492241 2196.5213865186442
-204.2362968799021 6.522687006849289 -3.52808422139357 -3273.6203532048758 115.09610628497933 2651.565022270757
91.64076593553688 1.3128634778516357 74.88471428770373 -2633.520330257376 145.02757397016987 3125.5465380246114
361.1944590631906 -140.2770441561649 91.70974065618547 -1586.252241369725 280.76008879639454 3669.179887051202
369.96234136034417 689.8832035976429 255.85430864945 -98.26972609285505 456.40526163862916 4449.312396877498
1667.3504592952374 4893.514243431391 1740.10907532881 -20.511385784355213 12.138444654319056 5454.641594372493
405.6665811123235 691.9500628087366 264.2812331252411 55.84896871768623 -430.85274369517106 4448.797596122662
436.8872255762419 -136.06938596574247 108.97396491323717 1539.5554088615258 -251.48694437062943 3668.02168250508
215.54855592745082 7.791667756001843 101.58160119741044 2579.4014829421176 -109.98023139932221 3123.45176787097
-20.704070855283987 15.281130836755473 32.847982063190635 3208.384734121654 -73.11566711430814 2647.9601563916085
-135.95804399439493 -7.378060329097785 -8.777034421069317 3647.9431780837645 -58.98572995473593 2190.5265508759753
-252.07821950494136 -34.5375371628751 -52.63081448583682 3939.099523789734 -47.88184463696437 1741.409906685192
-585.1500902984807 44.41080562570982 -126.70120969809795 4080.7162219424063 -19.70147213504009 1300.9061954155898
-894.8607157943668 717.4883130855898 38.31641550756005 4245.590714560981 79.25548612268969 884.7782968030158
-257.6106858711151 34.420276367320355 404.7841194189085 4297.859651242844 287.93461157208156 598.3003982685026
-3123.9337131930624 -10073.023968617954 -2444.5818939424234 3322.7867720874333 491.11855168328697 263.1767797753376
-2407.6477161921375 -4810.990756622602 -847.7993730200071 -2549.6829399270086 6.612678113928823 132.58233312465356
-2262.2055370706053 -640.2717765403434 116.41816741171648 -3698.526880190505 239.09680693113424 451.5814449113271
-4170.428282553325 522.1654787076851 -77.8793384258239 -4063.0789780477185 542.4218163347084 824.9639257377781
-5801.663594634387 120.64479668681808 -406.9691440717178 -3786.796464676912 643.4172210523166 1238.5414712316726
-7171.850372767446 12.597880889205076 -521.9191831761399 -3567.2928748547793 612.6301752709327 1653.8367901713639
-8592.222211664539 38.413299525549874 -612.4154044925801 -3287.569644986302 525.8418229021834 2070.2815842710384
-10004.59396075406 51.427024648805386 -718.4596534875026 -2886.763283327594 413.84428174763 2498.1763548740987
-11140.60471048408 147.67806395646784 -749.9946686096703 -2316.541299691143 280.7317520593267 2927.8897978979285
-11963.215575844282 -97.1165180305312 -877.0291860135366 -1472.4299048117866 249.88589535901184 3386.5009909685214
-13252.215965747913 247.34787659939525 -1186.6660022560084 378.5015374932891 510.782180419318 4021.4006439046
-10835.542724249195 8855.558584449573 1785.732796213467 -18.462350792445562 19.549838352002336 5332.623878455176
-13215.706146252 249.77614046125518 -1176.356021443637 -416.70467417544893 -470.0624506562328 4021.058453698977
-11886.599895056068 -92.234284956128 -856.0492270062063 1430.3241868245127 -204.47603179844003 3385.709841581168
-11017.426812012221 155.00273427313542 -717.9357820859849 2267.6889579766075 -228.17287986710505 2926.3963428590914
-9827.428201616518 60.883339916762196 -675.619397231298 2827.8424796493787 -353.0627040932468 2495.496827099402
-8355.71358041942 48.73840837591799 -561.0126321881727 3214.1546496012224 -458.55866594750813 2065.5704677891904
-6883.193369694754 17.573610019979427 -470.69726947771846 3473.2531635522123 -545.2083706553334 1645.9664495923942
-5506.122659748634 121.39559740381424 -375.1155566346332 3666.5950380846093 -587.7701092312631 1227.8692595606226
-3939.206501809464 585.6858147674926 -67.93357568040045 3946.580153594504 -511.30213712623924 817.7844941596394
-2109.162553880947 -497.0797132363843 131.12990403178148 3670.9345728833378 -226.40512508299406 471.6027178443565
-2455.0553762758045 -5087.885827859146 -957.0189848491342 2567.910232611311 7.16043049247574 221.6761920289925
-2242.120198104045 -1925.2403726055722 14.465700384953948 -1411.6876321581958 408.25863698320757 194.28825796397615
-3628.239573407091 -598.4355078130761 68.20522960191428 -2130.892857539261 744.597642850872 324.17747732150343
-7047.265478911941 300.41408674615656 -271.2814284258488 -2440.9568209256036 1187.4362976624282 648.1831629539732
-10612.92382611893 128.46363743925446 -747.3612012295298 -2269.8576849275487 1282.5460875626595 978.057083660985
-13847.314100728709 43.56123377868449 -1071.0065151284152 -2112.9932881159434 1177.1119532883613 1299.4291215916037
-16958.59028388469 46.814220164085285 -1347.6872215695873 -1937.196105152321 980.0397565147227 1619.5536738659778
-19961.037169402112 73.50376839261111 -1617.9240902377078 -1688.2256653791226 722.8914829913099 1943.3115867148424
-22848.30905398948 43.36348209331697 -1932.8384162245013 -1352.671531035992 428.0610881130518 2271.9363285630025
-24493.606571688215 476.8768573927714 -1883.6307891303027 -784.8709523573136 4.458340165255986 2546.2299243944435
-27651.384069342814 -1668.351557707756 -3468.7090649413894 398.9678753253836 199.44158756282854 2909.4607123755463
-22888.202159349996 14137.585277512346 1925.4477067862058 -11.680948203500861 28.115607052218934 3866.6279250316998
-27613.20638580588 -1665.5591701785363 -3456.344939356769 -423.1322755625827 -141.15201294601195 2909.568787570073
-24414.323908221195 482.4560179737892 -1858.6086911149405 758.2671313810216 59.7711547931358 2546.389650960803
-22723.201771830398 51.600711076804856 -1894.9851143866963 1321.8903317002564 -354.85159421800273 2272.0058626327177
-19786.48773454372 83.89216238507346 -1568.1605786237271 1651.2827320539066 -639.5546020768143 1942.9938203964275
-16738.668556529516 57.28840910633302 -1290.2292755679664 1891.544850209039 -889.2279681152012 1618.3011671527088
-13606.445022234106 49.752458948270785 -1016.946116142828 2054.960434835763 -1088.4162710056814 1296.562494038136
-10403.74674570272 135.55267785433722 -713.0117448848922 2199.576489625729 -1215.2185213716004 973.6572437102956
-6917.660118381149 344.6964174112799 -260.54880097209355 2384.284185781893 -1161.7707504993057 646.3010297422305
-3571.4736591253545 -532.430308331965 64.2318462796843 2130.345334296436 -749.5744868808226 338.382187012142
-2279.1753460639347 -2045.1914171261383 -46.67921496480906 1430.2975706773875 -418.08128503150294 252.05310181560316
-1958.4850525998218 -831.3518307604943 606.7243898676411 -696.0555265542862 817.3266179527816 234.49115235891855
-4397.495549672888 -538.7387630133468 189.7685681395746 -998.1509895193842 1322.220958378779 271.12851915169944
-10071.087601669351 -424.48481709625406 -794.8747925785117 -1122.2078462417462 1961.9384098661358 538.2917620233375
-16178.469435119889 -1100.1896096747355 -1898.4064260934304 -1078.9990863816033 2048.345546515724 801.1260654788204
-21513.145005946597 -1634.0368239569093 -2716.896870047021 -1003.3368491000251 1846.3456279139057 1050.3459640690796
-26556.067946721087 -2072.784792870973 -3443.8639845884086 -900.1623243755892 1507.3413466774339 1296.9442708987885
-31450.908340489277 -2451.98701165132 -4151.062532512097 -764.880689036833 1064.1595479636026 1547.0625471936555
-36197.88126624268 -3016.157075492939 -4959.564285861241 -560.6615545649688 537.9347513468888 1775.810698758924
-40429.15843986897 -2812.036033977288 -5541.1452931335425 -274.3641314184167 -217.8441390991251 2046.6853784480181
-44174.05267275333 -6677.588793202069 -7789.268626216848 762.5079859517778 -1581.7974364276342 1838.064969629485
-35729.5234867363 14123.612802511394 -851.4211771297075 -7.547738894450731 39.09453970395208 3790.616471558783
-44131.94385696053 -6673.231350022546 -7773.9674016052795 -778.1005226364508 1662.6558892653247 1838.2855417443066
-40342.73529478236 -2803.5038690476267 -5510.448581613509 257.29226490004703 306.40447537239174 2047.0636343902756
-36064.23773808454 -3004.0211287979373 -4913.842129883609 541.15989333883 -437.7377915184693 1776.203632715417
-31270.451579932072 -2437.8165292796684 -4092.578751828282 742.0944768520708 -950.8417680552844 1547.2110171803165
-26342.7524908419 -2061.0946393266895 -3380.25730349872 873.461194606947 -1384.3857973409877 1296.4641097494239
-21313.034432632277 -1633.7029918425128 -2666.4847483964913 972.4330421366041 -1727.0077285133684 1048.976587976535
-16071.206910185876 -1114.7789627447855 -1887.0635188514316 1046.1408054589058 -1961.1790966782487 799.4168352400869
-10092.522251784425 -429.8580369739532 -826.5677711541114 1098.5697782726463 -1940.6358903828686 539.3935710620178
-4467.9935988047455 -533.7470277824416 147.1468775329965 999.5713038484932 -1353.9227326724742 280.8879289347972
-2044.8766036993238 -904.3351679320052 555.277543171753 701.6993024389965 -861.9612006676257 273.0286807729484
SCALARS Strain float 6
LOOKUP_TABLE default
0.027439387855987055 -0.10197327002676955 -7.087971702623985e-18 -0.057769293614985055 0.02381634854961848 -0.030011419451992972
0.03303795323126195 0.010600322410834166 -0.0038226312953080575 -0.02566224726854606 0.024789996536490253 -0.0010206035240973214
0.04603687745428176 -0.01437749447873119 -0.01008193667129673 -0.012097878893760504 0.024218105355856268 -0.008418671866699133
0.06474087437355483 -0.016889721328982928 -0.014174312148325156 -0.01247559303404965 0.021548827132398207 -0.009134578964114383
0.08788142316317647 -0.024293813856018767 -0.018747550753910065 -0.011757905452426783 0.01925684739078222 -0.012545722329008881
0.1113494450010303 -0.03078738591489801 -0.023148711427700863 -0.010668183582456315 0.015125146362079999 -0.015470464759746326
0.1342396980729717 -0.03734397566967823 -0.02728885341439327 -0.008911245497234975 0.009433728664479788 -0.018475769016291384
0.15576378273170685 -0.04363429448690628 -0.030911748532365675 -0.006495799347910815 0.002299351810124683 -0.021428865828848224
0.17382390328402733 -0.04909676241426248 -0.03364709588514934 -0.0033808839982308932 -0.0046551317211199926 -0.02447310949664221
0.1853202857366647 -0.0522739106011687 -0.035155648000518784 -0.0006281866160431848 -0.0066276308377496065 -0.02774403586038071
0.18905507921071638 -0.05245435698930466 -0.03557101048761378 -7.69418482647439e-05 0.00015931635495451695 -0.02997507975028049
0.1854611942085574 -0.05231880286507097 -0.035188843759129285 0.0004703080337564831 0.006943465244674926 -0.027751775268115945
0.174132815755313 -0.0491949343586529 -0.033718719738803825 0.003211025719875157 0.0049617221882883745 -0.02448845069249523
0.1562984857391788 -0.04380343769746803 -0.03103342666916085 0.006305694188235781 -0.00201198985753134 -0.021452202316653696
0.135096383940123 -0.037612249686458855 -0.027480274279161977 0.00869328010637754 -0.009180356858052477 -0.01850394655009853
0.11266976292557236 -0.03119767988983254 -0.023445805627620466 0.010411623370288236 -0.014938300716932005 -0.015514752303360791
0.08986555437888197 -0.02489543176107721 -0.019194157866318215 0.011463847327732934 -0.019137335695734725 -0.012549963261020602
0.0676576842944368 -0.017753939606158103 -0.014919000723573174 0.012059282857144457 -0.02168667907047109 -0.00936842068046619
0.05074936365564169 -0.015617811036138851 -0.010974394473057562 0.011593792724817345 -0.023838899112637323 -0.007642182493377137
0.043180700223116826 0.008877169148367873 -0.0065518275769176 0.02662647778889631 -0.031876375391075726 -0.005614423427978148
0.04175875124390799 -0.10761310398540107 0.008589172171090769 0.034724575467769116 -0.04175331775820454 -0.011640145501666975
0.016854545735821305 -0.08852590269304722 0.0071238272648298465 -0.03707970050525558 0.019677441104065673 -0.017251792487325508
0.015221201530703539 0.007078923764960233 -0.002499967375210923 -0.030723753632702334 0.01647651772041123 -0.00517458075870981
0.024302325576571263 -0.008818806281588555 -0.0065200337431034925 -0.02556292496378296 0.014949447173545856 -0.009071017184330983
0.04220895545404508 -0.013546456163032064 -0.010080683594516667 -0.02589071396382538 0.013217866803552985 -0.011763075620954024
0.057313664495309696 -0.01911393232761117 -0.013343122955746205 -0.025308328314355644 0.011470446407885611 -0.015606172645275338
0.07295206480015064 -0.02441613386383377 -0.01657512621389367 -0.023246082492435913 0.009038887657273122 -0.019438437817544608
0.08814777895567139 -0.02964596740408642 -0.019567243958926745 -0.020197891001448687 0.00565582761458024 -0.023292697202529078
0.10243527570775277 -0.034751232507681175 -0.022174807782201787 -0.01575169382891043 0.0014802079249608394 -0.02727061978534257
0.11448109963370874 -0.03917320009595992 -0.02415748763345776 -0.009304477009576814 -0.00263232366562193 -0.03179872470539672
0.12224226513926022 -0.041101650650019715 -0.025348238242844146 -0.002448926406206373 -0.003925699201829416 -0.03747899521048933
0.12481076059926953 -0.039605571757029244 -0.025796692535351152 -0.0001371845918809821 3.81630374803592e-05 -0.04188465461679625
0.1223904126216467 -0.041148358781197714 -0.025375445806780153 0.002165820769298186 0.003994426511360957 -0.037479807351796214
0.11480218968876749 -0.039274519268888995 -0.02421723943217877 0.008994723259849314 0.0026780058379802718 -0.031799311600444566
0.10298100436030254 -0.0349234749051361 -0.022278645351328952 0.015395924061385508 -0.0014732465615591491 -0.027268779737785184
0.08900082041999018 -0.02991481366754085 -0.019735765429193114 0.01977452554715039 -0.005705116590039974 -0.023283879304229867
0.07423235328571358 -0.02481962779381641 -0.016839453792036878 0.02273103557884852 -0.009156024681532196 -0.019419142356923626
0.05917883644899715 -0.01969897428571337 -0.013763927942225796 0.02467646156344299 -0.011685070095349989 -0.015555950889208383
0.044903785881051025 -0.014358706372907367 -0.010706162583321235 0.02503771014022424 -0.013436631611344355 -0.011752834520380265
0.028169668790392975 -0.009942241152904225 -0.007623695431088669 0.024246380237943985 -0.015567945495947198 -0.008717815308604616
0.018712827887695776 0.006631501228332725 -0.0035096233458469296 0.028978933816463298 -0.018841826054997343 -0.007422156593601438
0.019291458383465816 -0.09286973569081709 0.008850987932007445 0.023203389604213635 -0.023298947676323938 -0.007007082850302304
0.008690907062273061 -0.061597160916776826 0.007789613137743193 -0.04353387551037709 0.011982096577932606 -0.005713780376868864
0.005103665155858155 0.0014771829052759378 0.00037328732529357623 -0.049905459430504145 0.009377243211650139 -0.00804196745628773
0.007551692536564963 -0.0002753771337631798 -0.0028150881025130157 -0.043529253006096905 0.007389572116734061 -0.01035649417862958
0.018461568847464797 -0.0061095767463484885 -0.004885558097709652 -0.04427099399603639 0.00599266316650992 -0.015002736337960343
0.027366783269404074 -0.009060688860478217 -0.006680212428595703 -0.042767422430823994 0.0049011472237975315 -0.019799871739407806
0.03540671370544479 -0.01183021975853283 -0.008380828341536476 -0.039476382762353435 0.003709060897952895 -0.024839055599997068
0.043327408986811373 -0.014512138429658815 -0.00995352583517331 -0.03458276335903314 0.0021094941430477156 -0.02992422354157965
0.0509761575299816 -0.017324854018982167 -0.011312160499150535 -0.02747104964373123 -2.051469963188289e-05 -0.03528820813143469
0.05750752778429918 -0.019842902082344894 -0.012378912681960662 -0.016498058998731965 -0.0027280848881220104 -0.041604484490653924
0.060861237374732466 -0.018956549229794246 -0.013165695047943892 -0.0035607769574289 -0.004169946663785616 -0.050228270500217984
0.061457153352204925 -0.012555754803953566 -0.013676113243112721 -0.00021922258326962805 -5.8654291071614915e-05 -0.05834788001859067
0.06101152825085731 -0.019006159773135935 -0.013186193406418115 0.003107787197208715 0.004041056590860714 -0.050223744888178
0.05783019037734092 -0.019949104600016226 -0.012424758845903553 0.016000577007462005 0.002565030055622173 -0.04159407780050537
0.05151576580120159 -0.017501464659832055 -0.011393910637757503 0.02689626837460955 -0.00019732133601803087 -0.03526865154792136
0.04415230047249514 -0.014779854782294759 -0.010088970239177989 0.0338927252165214 -0.0023973066889377147 -0.029890223489685216
0.036610272442699675 -0.012219219539884607 -0.008598990109795528 0.038626381709212475 -0.0040726630089550405 -0.024778777552005006
0.029065249557144752 -0.009605899372107303 -0.007023832587039779 0.04170167961333185 -0.00532198427715456 -0.019711524195192613
0.02077180615349357 -0.0068366829912779314 -0.005428234071211384 0.04284720160242711 -0.006426441107566215 -0.014826844566854593
0.009953537436231908 -0.0009248046805791996 -0.003647352006610989 0.041460248659307086 -0.007991253864930057 -0.010395374813807307
0.006708283921544541 0.002342579296322221 -0.0003543217201556619 0.04714739802890154 -0.010268406879919919 -0.008165455906531815
0.009739403759289302 -0.06424893642538745 0.008154786967485153 0.04114937067200239 -0.013148055992029254 -0.005460937423807862
0.0023355017263221476 -0.036936313648805806 0.006956695196904788 -0.0402578691142379 0.005405241583768275 -0.0020149308940855485
-0.002663216536500142 -0.0007830597861827813 0.0027056914658771672 -0.052776410534195475 0.003062471762532043 -0.006983976441926849
-0.006688137668882183 0.004670058323729113 0.0010019663924172434 -0.052988172484502785 0.0004830567223445731 -0.010708069400541314
-0.004372806882497925 0.0017987358921909917 0.0005711426305353245 -0.050586189249991316 -0.0008029376090944965 -0.01577590617696394
-0.0025360553912108516 0.0007639943786208409 0.0004124186384225587 -0.04850656273130884 -0.001183311344736344 -0.021015969662356148
-0.0017113381670804827 0.0005370111747521344 0.00031960370141617385 -0.04474711368018142 -0.0012870408942587909 -0.026358256638199025
-0.000946775435667929 0.0003177784677688209 0.00025747384034980654 -0.0392834442386035 -0.0013811532754323204 -0.03181878026721652
0.0003174530427617439 -0.00022451437199526558 0.00021691673291560879 -0.031602243963118934 -0.0017403308876306732 -0.03750655845631833
0.0017342983851258357 -0.0012745306342103555 0.00011739007469829287 -0.019035026896430055 -0.0033691210655681547 -0.0440301586446475
0.0003980357892489415 0.0023175609628229552 -0.0002866124069551399 -0.001179236712930645 -0.005476863139683955 -0.05339174876241067
-0.0014895532447344348 0.01786742946055159 -0.001053001548455681 -0.000246136629393211 -0.00014566133588867148 -0.06545569913248067
0.0005482947337582177 0.0022659956240855903 -0.00030001735408545234 0.000670187624373709 0.00517023292428531 -0.053385571153438297
0.002053919316405736 -0.0013838203527617588 8.643975247159467e-05 0.018474664906178793 0.003017843332454186 -0.04401626019007184
0.0008433995780503642 -0.00040314175111767954 0.00015959784967865468 0.030952817795159376 0.0013197627768134078 -0.03748142121446885
-0.0001621975602683193 5.371364981631086e-05 0.00015911475725915753 0.0385006168093007 0.0008773880053653842 -0.031775521876724236
-0.0006051300718688951 0.00016634983010845484 0.00015795598559470452 0.043775318136932515 0.0007078287594532049 -0.02628631861052447
-0.0010427432954465406 0.00026250079866881255 0.00015394113468763815 0.047269194285486614 0.0005745821356531663 -0.020896918880273525
-0.0025867521649901976 0.001190613210576657 0.00016394111863093005 0.04896859466340819 0.00023641766562686807 -0.015610874344999274
-0.005176625235581596 0.00449746893772124 0.00042243755224864005 0.050947088574923596 -0.000951065833477033 -0.010617339561651102
-0.0017971015597224374 -4.491578630011481e-05 0.002177267272025345 0.05157431581511033 -0.003455215338879656 -0.007179604779262751
0.002913914056516806 -0.03878062747621432 0.0069900249720297606 0.03987344126518135 -0.005893422620219103 -0.003158121357376405
-0.0032769723567655264 -0.017697030599305257 0.006082117702255847 -0.030596195279088773 -7.935213737268271e-05 -0.0015909879974758676
-0.00971561286614997 1.5989697033716132e-05 0.004556129360746846 -0.04438232256225885 -0.002869161683172526 -0.005418977338928012
-0.019863295959881854 0.008292266607669636 0.004691997704904398 -0.04875694773659777 -0.006509061796017157 -0.009899567108860101
-0.02638045980195879 0.009153390546012082 0.005987706901448933 -0.04544155757617717 -0.0077210066526360215 -0.014862497654811698
-0.03239563376348774 0.010711055758526168 0.007503953374098754 -0.04280751449837255 -0.007351562103265681 -0.019846041482060758
-0.038861638062400776 0.01292217500482327 0.009017202780690606 -0.03945083573997471 -0.00631010187486329 -0.024843379011193163
-0.04525146540976642 0.015084660502752653 0.010465340433908092 -0.034641159400061405 -0.004966131380993826 -0.02997811625846526
-0.05058419874968022 0.017145497896954184 0.011759461501619993 -0.027798495596325405 -0.0033687810247171475 -0.035134677574834905
-0.05386602399062347 0.017330570356253693 0.012651094348380718 -0.017669158857736348 -0.0029986307443214707 -0.0406380118916573
-0.05986347936029876 0.021133903693949307 0.012529820420697469 0.00454201845012376 -0.006129386165044638 -0.04825680772679842
-0.06474429294679555 0.05340231490592935 0.010983360176036135 -0.0002215482095078252 -0.00023459806025910495 -0.06399148654148064
-0.05971261007063191 0.02108028364981294 0.01252349067826684 -0.0050004560903646736 0.005640749407799779 -0.048252701444356214
-0.05354822234523361 0.01721797131543588 0.01263508166308602 0.017163890241745368 0.0024537123815584288 -0.04062851809901228
-0.05007021645078203 0.01696436082670448 0.011726729728805662 0.027212267495576505 0.0027380745583930033 -0.03511675611427641
-0.04450618792814069 0.014823681321068862 0.01040466489822983 0.033934109755660864 0.004236752449092995 -0.029945961925208077
-0.03785552913824859 0.012571182794488909 0.008912676551219814 0.038569855795163435 0.005502703991363331 -0.024786845613470825
-0.03114118279325525 0.010263419085128933 0.007333793808130478 0.041679037962648165 0.00654250044788712 -0.019751597395157756
-0.0250615692553566 0.008703540287600184 0.005724473363402045 0.04399914045709903 0.00705324131080671 -0.014734431114735892
-0.01889784080098192 0.008251513098554757 0.004329796755849918 0.047358961843330404 0.006135625645534001 -0.009813413929922792
-0.009227896666730696 0.00044460037717255265 0.004213858080782052 0.04405121487476526 0.002716861501013237 -0.005659232614172405
-0.0029611566113780918 -0.01875813932095419 0.0060270617372068045 0.03081492279143221 -8.592516589606526e-05 -0.002660114304406242
-0.00770255906046675 -0.005801280107474758 0.005836956330437271 -0.016940251585867375 -0.004899103643794668 -0.002331459095550931
-0.0160115561074231 0.002167268286133872 0.006167112710614126 -0.02557071429045487 -0.00893517171420443 -0.003890129727853754
-0.03256617819879473 0.01151989919512401 0.00808972610410705 -0.029291481851099872 -0.014249235571933692 -0.007778197955435215
-0.04812579026298228 0.01632253451836172 0.011067585486336809 -0.027238292219137015 -0.015390553050783259 -0.011736685003952009
-0.06248806392151721 0.020857188085559083 0.014169781592110398 -0.025355919457462562 -0.014125343439519458 -0.015593149459110379
-0.07646920792372909 0.02556321910070955 0.017196210450219174 -0.02324635326194567 -0.011760477078235989 -0.019434644086351763
-0.0899894357208981 0.030217809905927307 0.02006924275416109 -0.02025870798462386 -0.008674697795937472 -0.023319739040561015
-0.10283753803276847 0.034512497183780404 0.02265528579390659 -0.016232058372462384 -0.005136733057376295 -0.027263235942747686
-0.11109960181005168 0.038723298764517924 0.024560252885340677 -0.009418451428268394 -5.350008200006422e-05 -0.030554759092758225
-0.12050891945795021 0.0353892756118643 0.0245871305684815 0.004787614504032187 -0.0023932990507272212 -0.03491352854847491
-0.12787897871377743 0.0942757459078842 0.021002920483016767 -0.00014017137842578382 -0.0003373872846559432 -0.046399535100368504
-0.12035370070591657 0.03533218258784663 0.024587467972772455 -0.005077587306891532 0.0016938241552299043 -0.03491482545082201
-0.11077605279821261 0.03860462675895715 0.02455823850443674 0.009099205576456776 -0.0007172538576013982 -0.03055667581155833
-0.10232393746544663 0.03432487743191516 0.022645362479284073 0.01586268398030186 0.004258219130556835 -0.027264070351534015
-0.0892671101985671 0.029955169183097152 0.020042852737061877 0.01981539278459042 0.00767465522488246 -0.02331592584477157
-0.0755482444459131 0.025227497347932244 0.017142391240001914 0.022698538202486185 0.010670735617379476 -0.019419614005824887
-0.06145978580816591 0.02047739907909455 0.014077207628531223 0.024659525218040875 0.01306099525210171 -0.015558749928501517
-0.04721773396439186 0.016018062577071612 0.010926676040647145 0.02639491787557162 0.014582622256508004 -0.01168388692451841
-0.032044174169221534 0.011529965045650792 0.007898493735335072 0.028611410229507212 0.013941249006055496 -0.007755612356927761
-0.015835449787014472 0.0023988103178089982 0.005978783245473098 0.0255641440116515 0.008994893842628316 -0.0040605862441667065
-0.0076228345681920075 -0.006218930994573051 0.0057721422184348475 0.01716357084818996 0.005016975420416903 -0.0030246372218263665
-0.00872813917073834 -0.0019653398397217665 0.006663117484023336 -0.00835266631862582 -0.009807919415404567 -0.0028138938282910833
-0.01981294380555773 0.0033395969143690404 0.007710640901273312 -0.01197781187422614 -0.01586665150052797 -0.0032535422298165797
-0.04479359870195437 0.013086018005447451 0.010863678152528582 -0.013466494154879223 -0.023543260918376552 -0.006459501144268439
-0.07051795672790409 0.019951722224697044 0.015162421326189106 -0.012947989036592594 -0.024580146558225945 -0.00961351278574696
-0.09326706875881932 0.026007580333060432 0.01951042005657263 -0.012040042189234039 -0.02215614753509306 -0.012604151568821952
-0.11492803067764203 0.03197166824557296 0.023745193095194548 -0.010801947892563876 -0.018088096160234133 -0.015563331250808155
-0.13601535451041796 0.037978173462709985 0.027783720337535376 -0.009178568268450045 -0.012769914575631711 -0.01856475056630203
-0.15602383780552778 0.04306650733917022 0.03140606407689058 -0.00672793865480024 -0.006455217016205163 -0.021309728385102533
-0.17503017250044942 0.0506725619351402 0.03429790638007988 -0.0032923695770050764 0.0026141296691622696 -0.02456022454140204
-0.18384920975507535 0.04112957352219362 0.03445949452415582 0.009150095831493591 0.01898156923721409 -0.022056779635517786
-0.1832823737276671 0.11583644400816626 0.0259862401297667 -9.057286674024395e-05 -0.0004691344764660108 -0.04548739765868266
-0.18368208106828185 0.04107019397318597 0.034465777663767475 -0.009337206271752276 -0.019951870671361963 -0.022059426500893254
-0.17468561335196592 0.050549775202426345 0.03430810692706607 0.0030875071787463087 -0.003676853704639184 -0.024564763612662386
-0.1554871327407621 0.04287416691504594 0.03141524090856078 0.006493918720036396 0.005252853498091684 -0.021314443592547014
-0.13528307536444223 0.03771273493965587 0.02778416160434304 0.008905133722188374 0.011410101216620458 -0.018566532206163174
-0.11404775496015025 0.03164219214907249 0.023727216164135638 0.010481534335277988 0.016612629568081315 -0.015557569316985915
-0.09241374512586084 0.025662243519133914 0.01946555297978466 0.011669196505674325 0.020724092742199232 -0.012587719055749059
-0.07001840384191364 0.01972016384299539 0.015086456506316502 0.012553689665538638 0.023534149160210044 -0.00959300202289275
-0.044841205427876694 0.01313477986112336 0.010754521456055214 0.013182837339317662 0.02328763068473775 -0.006472722852752935
-0.020086216401873316 0.0035192630243257015 0.007604626456204975 0.011994855646238707 0.016247072792178553 -0.003370655147230264
-0.008954581459730396 -0.002111332845124288 0.006646343421522476 0.008420391629304993 0.010343534408070936 -0.003276344169300221
0.025666893790321763 -0.0656219853658274 5.305814381600937e-18 -0.029714625649612466 0.01585253335106 0.005607716872156266
0.032537208532472044 0.003284534225561966 -0.004072052838371106 -0.013283640916626746 0.017105129685608216 -0.001757634447074582
0.04759570848173096 -0.014571837936902967 -0.009222770070267219 -0.004747080830444603 0.016044111847338748 0.0004391376010867002
0.06639170383804333 -0.01823852889626685 -0.013120400866530792 -0.005159926007049675 0.014256662284391023 -0.0003003578327108129
0.08799673479841062 -0.025066014465782015 -0.016922014360770316 -0.005124596349104258 0.010881205413616387 -3.0824068603176716e-05
0.10981166843949286 -0.03144008088089098 -0.02037461641862393 -0.005255542764653872 0.0065083574140967475 2.0968451894689156e-05
0.13115946548891935 -0.037902579492944566 -0.023352969989550037 -0.005377177142005558 0.0010119383888637533 9.839756348400699e-05
0.15193918749582286 -0.04431420980209786 -0.02563867351000176 -0.005663423409332968 -0.0050590561879914255 7.797278861265744e-06
0.17210646704637975 -0.050883886420779054 -0.02697255948282801 -0.005950710179965465 -0.00978279138500773 -0.0006385475262588653
0.18964374665432335 -0.05761139661500391 -0.027270817741640092 -0.00479147534617233 -0.008938809070102194 -0.0024528490485121895
0.19727484108108054 -0.061803245485667284 -0.027115437103225986 1.61289824832565e-05 8.462572266378036e-05 -0.004352973918571104
0.18969117109150302 -0.05762307819171214 -0.0272951405270852 0.004823481717076862 0.009098541900658855 -0.0024640147629892404
0.17220831821815957 -0.050908032339805 -0.027026237714166332 0.005981534530355176 0.009912547477264687 -0.000660484175289263
0.15211217494038648 -0.044352817391210345 -0.025732985980615575 0.005690615454815687 0.005133479253313221 -2.278272599197502e-05
0.13143699219719338 -0.0379599826220019 -0.02350783677251071 0.005396198454988762 -0.001031963032051478 6.201716042056033e-05
0.11025531141342329 -0.031525769038634036 -0.020624537919877044 0.005256585230279075 -0.006682233193134683 -1.921727481426686e-06
0.08872298301063514 -0.025198768699598247 -0.01731854259919577 0.00510439753488923 -0.011341809305418307 -6.29908698037516e-05
0.06758116637048583 -0.01845103731836577 -0.013769376192996159 0.0050610394928705775 -0.015050239540104869 -0.00011649257831316818
0.04978688356469522 -0.014990105003867799 -0.010141623581753717 0.004563590713271602 -0.018116803454987503 -8.671402439831648e-05
0.03744952514030119 0.0023857872580831437 -0.005753158438708869 0.013172255711290727 -0.015307303506800584 0.0020734000297088413
0.03258204626777762 -0.06675334431254863 0.0024569171246546628 0.017557718813318808 -0.012931817240110229 -0.010331066697083724
0.0153645869442567 -0.05777173977457744 0.0030605779345737215 -0.01906867719801208 0.002669787224011733 -0.0005254748688604798
0.017063890930589506 0.0018629657686185113 -0.002150732636105954 -0.01656617710139005 0.005751975261868064 -0.0015973762021034427
0.028115438834315994 -0.009989276327302827 -0.005850143601256468 -0.013042969431072278 0.009785556230582446 0.00010487660103946806
0.04436412036896839 -0.014669756121404523 -0.008925631089366018 -0.01354298631357186 0.008205931154101504 -0.00014125339455128556
0.05859549727415571 -0.019867398955488013 -0.011615071061842798 -0.013946929879140497 0.006114880574640078 2.2203973614161905e-05
0.07313825132820606 -0.02499000840455141 -0.014053020504487564 -0.014023698701989417 0.003332361438455591 2.7219584265536744e-05
0.0873410262591299 -0.030100489671667455 -0.0161227296230231 -0.014144390409661343 6.557823113150354e-06 -0.00013383815961274907
0.10103477269331536 -0.035102840094655086 -0.017702672179228596 -0.014521932500134793 -0.0035659973065301797 -0.0007684700350878975
0.11402342405063283 -0.04020897465574254 -0.018643752448057244 -0.015055958559056316 -0.006332163763756521 -0.0026087948864271736
0.1250420645896793 -0.04624560271269843 -0.018903607768185032 -0.012353440108295904 -0.00583583368476937 -0.006624126480033314
0.12978210090205128 -0.051579507787634545 -0.018828620324139112 2.3348094974338663e-05 -3.2603682434823616e-05 -0.01062316262991976
0.12508856718946 -0.04625994743754385 -0.018913307601342553 0.01239941882582013 0.005755788158505806 -0.006626530129522268
0.1141226960943108 -0.04023834472089138 -0.018667936906336304 0.015098858063754028 0.00620707157130978 -0.0026109416123715687
0.10120140231397472 -0.035148852646019926 -0.017752128863076966 0.014556318760662075 0.0033631769659475887 -0.0007635075940352432
0.0876028345985276 -0.03016646870632556 -0.01621722050710628 0.01415921053099899 -0.0003245554321994494 -0.00010803577303684355
0.07354760734756505 -0.02508360414042037 -0.014225206000753957 0.013999350357685496 -0.0038193230881631494 0.00010223873950679917
0.059243082391951404 -0.02000426078446529 -0.011922076394248693 0.013857000191156387 -0.006829763535063435 0.00017891518546262115
0.045443382835432956 -0.014874928051623847 -0.009439190331027757 0.013316972695243491 -0.009316429478758905 0.00021364147637668537
0.0299929540228513 -0.01039674087141485 -0.0067285925282368556 0.012465529152296642 -0.01118366213179645 0.0004239710428013369
0.01894461417375971 0.0016295839652076967 -0.003127576257848074 0.01518868424222954 -0.006122859639194347 0.0011629466291223742
0.01673465174179161 -0.058301230141615576 0.003123445778823666 0.01131879697302045 -0.0018310700067545684 -0.010898158484996999
0.008518211608488462 -0.04172795775279782 0.004334386367671813 -0.025167447710763544 -0.0004233344634641626 -0.01051059312220288
0.007529400104220574 -0.0005503211167150543 0.00023251113511574387 -0.028769829084858655 0.001314833666103545 -0.0015796374539187473
0.011852340035283217 -0.0025841693901515078 -0.002441757835239437 -0.02379184862586763 0.003948711092417423 -0.00048164536562709913
0.021394831448646335 -0.007183555148624522 -0.004307521254641151 -0.024467192780660417 0.0033538057729538425 6.681947477647923e-06
0.029237135571982247 -0.009792429208910889 -0.00579540467452323 -0.024732363419021536 0.0021255880201397786 -5.220480192578088e-06
0.03645937885198942 -0.012333554884971237 -0.007066428161864621 -0.024829081671090786 0.0007171977495395976 -0.0001596558424559547
0.04349750428316273 -0.014836844815009128 -0.008113016478457694 -0.024888553411285277 -0.0009105860219030649 -0.0007026223631787896
0.050026233703031185 -0.01705985821796485 -0.008881068608871445 -0.025158969399390847 -0.002759138773704759 -0.0020618227101739535
0.05630161932873238 -0.019247963138713898 -0.009315409678535367 -0.026033276502941082 -0.0047844792686894035 -0.005254355642692948
0.06308398831699673 -0.024519101119986352 -0.009363757019525954 -0.02251695027675639 -0.005317285783684958 -0.011892895372382627
0.06670319377592225 -0.033907060279932164 -0.009194173984363032 3.4247344442280036e-05 -0.00013658652253997072 -0.019570684677569578
0.06312889374255196 -0.024538642791335392 -0.00935839991549188 0.022584124019604142 0.005025059636719117 -0.01188733122617684
0.05639627893349642 -0.01928744034968661 -0.009308850936502423 0.026094936663554773 0.004435533532170369 -0.005238362434379374
0.050181473216421614 -0.01711994834754627 -0.00888290028687144 0.025205815426166008 0.0023174082187276002 -0.0020235695098584816
0.043733671143863305 -0.014918585686525775 -0.008140917838057381 0.024901429893588737 0.00034258489547614104 -0.0006176470702209071
0.03681406573114636 -0.0124406075251455 -0.007151179589664826 0.024774158272389334 -0.0014408199181073222 1.4439878644263041e-05
0.029781910678346783 -0.009932153866369179 -0.005986788102480584 0.024555659866960924 -0.003035145034193249 0.0003395651374431506
0.022277363093875017 -0.007381164878581532 -0.004685796993450708 0.024064949145835415 -0.0044830140031800764 0.0005795494382760231
0.012978736337043327 -0.0028187387398000527 -0.00309544431806402 0.022850865350317058 -0.0050913426458706395 0.0006696891700630198
0.008359751677440333 -1.1273335510866389e-05 -0.0005301444117472575 0.026868210036072065 -0.0015481903193479648 -0.0004993748199862426
0.009027767988485444 -0.04171913686889368 0.0039049538781843326 0.022987179776424886 0.0009460946005701473 -0.014728898093998837
0.0028873583153640647 -0.026315872985793416 0.005037964064888602 -0.023796313650040153 -0.0013667717366871138 -0.0115238070146189
-0.0001359624651609117 -0.0014615764353537813 0.0024401860613205 -0.031607632226635145 -0.001305225132788181 -0.0028334844609308623
-0.0024266981302097004 0.0022237260128214714 0.0009914214757287129 -0.030053619293610334 -0.0008165872730299424 -0.0007149145426446961
-0.0010041833514146327 0.0004221591431519666 0.0004383747574216777 -0.028388073808677625 -0.0011415311657817801 -0.0001768542051199784
-0.000256298092199601 -4.086688794952899e-05 0.0002403588794825917 -0.02838403835742191 -0.0015333664206300477 -0.0001515486482672592
-0.00020443058039412108 9.908309304931427e-07 0.00018679913015144455 -0.028447096892632567 -0.0017401794056871311 -0.0004492189419280151
-0.0002849880915596053 -1.5550823619752516e-05 0.0002164262903270214 -0.02851385386970803 -0.001882765632888171 -0.0011697769719036123
-0.0008332453146388019 0.0003462147269096199 0.0003093946425775279 -0.02831737057084585 -0.002248755844018079 -0.0027122903909353943
-0.001186026751528174 0.0012484979832983823 0.00042061922021703114 -0.029223431077262624 -0.0038106073821106345 -0.0060237022296947395
0.002281968750433329 -0.0033862660569280423 0.0005857961757999065 -0.028603002268969793 -0.0058902693252038466 -0.0132591327583206
0.005639499912192297 -0.02118733778653851 0.0008965069903790521 3.723965301533245e-05 -0.00023529216184462433 -0.0251272871662012
0.0023248943740220656 -0.0034108774124217774 0.0006065173306202391 0.028675997540061997 0.0053967662868675695 -0.013251257243429293
-0.0010971201225964777 0.001199286094833457 0.0004587190063510772 0.029290232876828567 0.003250000433340341 -0.006002379380617238
-0.0006919768591820262 0.0002729140976972588 0.0003569603111903822 0.028367507863369383 0.0015826064440913473 -0.0026638656301397282
-8.017444211362592e-05 -0.00011137963061329482 0.00025830989971085223 0.028525544360103013 0.0010848494198841545 -0.0010670896384117343
8.481146604593889e-05 -0.00011532466539295011 0.00019622759111618518 0.02837973379927352 0.0008051499837733345 -0.00024053073940251673
0.00016555474396974626 -0.00017891539049763187 0.00017207735203146672 0.028168804147461344 0.00048374131322932154 0.00024728665534660217
-0.000410206178439505 0.00025632735311946524 0.00022136258294558185 0.027905231492529287 4.478316264968534e-05 0.0005450539676157189
-0.0018218292977088288 0.0022216743078853594 0.0005612909781482153 0.029085064568479743 -3.895974032422261e-05 0.00045063818675073977
0.0002520469998820428 -0.000887915411966036 0.0018666372094999907 0.030592421276360842 0.0012336825960523098 -0.0021304605018152853
0.003136235910450623 -0.02639172527258589 0.004552105379294535 0.023090421434034808 0.0017889805978863812 -0.014045386620251123
-0.0022213316518873956 -0.01365947751493672 0.005684899478823018 -0.018017139222041147 -0.002305686699753142 -0.009966728043939088
-0.007146936949230441 -0.0005488364502804918 0.004463160364971532 -0.026776053794498454 -0.0037226763560512435 -0.0028894285512891756
-0.01576197797822369 0.00595938366111455 0.004349887730344034 -0.027679815303313357 -0.005260990020227295 -0.0007423198882235598
-0.022787237984734757 0.007643830747249294 0.005153244150450864 -0.025162832216851633 -0.005622183526168271 -9.095487106102992e-05
-0.029722427175617978 0.009799820920318227 0.006267580274636083 -0.02464209215601647 -0.005232953755702081 3.283323826764494e-05
-0.036938283714609506 0.012335730868844133 0.007434690025286827 -0.024771315652346228 -0.004230133003684201 -0.0001635716516725582
-0.04401275431748223 0.014879952644711704 0.00854393468224699 -0.024830498542727817 -0.002914645453017036 -0.0007637498932043935
-0.05132808852214825 0.01737363819265627 0.009506892649216244 -0.024608656024836202 -0.0016247047086996157 -0.001864098925520074
-0.05874661710391424 0.02150483235038948 0.010156471938449046 -0.024195806561225424 -0.002028976994999925 -0.004212889901082049
-0.058858483118885425 0.020417705360185768 0.010339596890538795 -0.030589998937378293 -0.006268980736385833 -0.009691150798847662
-0.055399005434039646 -0.012679633122196145 0.010643699769545783 3.506623407991942e-05 -0.00033610633010714363 -0.026280912716415916
-0.05881745935345755 0.020387857109552113 0.010375876563476381 0.030659022705587565 0.005569644902983374 -0.009686764266842547
-0.058663359274882275 0.021445577954752666 0.010226585712278625 0.02425996643487925 0.0012511003850918466 -0.004199260084537669
-0.05120074669159552 0.017286650781956146 0.009604728360180248 0.02465911787160111 0.0007268356078594159 -0.001829373014180277
-0.04383970385802207 0.014769595985290419 0.008657132285028032 0.02484824101348271 0.0018769231809428447 -0.0006839397606164812
-0.03671589063149217 0.012210207763686372 0.007540410932842166 0.024718678856371606 0.0030726159709944935 7.028001298316416e-06
-0.02944181485754203 0.00966701687452014 0.0063261261659473865 0.024451409384943567 0.004036286682580076 0.0003778189097046139
-0.022466005007874667 0.007536970479741965 0.005103411313414977 0.024723175414047432 0.004555491427573176 0.0005541587037177083
-0.015501119046148195 0.006038949635680358 0.004129087207587528 0.02699985308657278 0.0046255320584000495 0.00020259436713139075
-0.006988592563644323 -0.00014683032074079571 0.004080293241592666 0.02634003891130091 0.003746064448841572 -0.0024057209001640484
-0.002096559331713114 -0.01372804680429446 0.005265170816927621 0.0178543344330015 0.0026536445597854642 -0.011638988490981977
-0.006536636137766738 -0.005423856569003916 0.006595107558880385 -0.009422072321994972 -0.004132040009123513 -0.00646974804531373
-0.01363217052695835 0.001348921558534868 0.006388516610631131 -0.01497001128017663 -0.006887818280500799 -0.0019664668759809194
-0.028741474581599206 0.009537964799907438 0.007556849002194289 -0.01596788478849505 -0.010171426050028801 -0.00067781289107373
-0.04431473100446958 0.014889243319694118 0.009682949596456832 -0.014315966860040219 -0.01055609744921322 -0.00010720758945773342
-0.059191728158772675 0.019945280107017346 0.012062829775407768 -0.013848396646118245 -0.009314443219498439 4.9540162553659074e-05
-0.07369359018949356 0.025056368788217875 0.014400774315966362 -0.01395903967169725 -0.0069709391833494075 2.7869732255672236e-05
-0.08792083214513831 0.030149440985538258 0.016549545137758304 -0.014088722642612909 -0.003937067335331642 -0.00017539713947696463
-0.10125190553519739 0.03527602252765211 0.01834506692373558 -0.013827174191499134 -0.0008462582910495163 -0.0007101546357183072
-0.115873981773771 0.03982238866149818 0.019532027540451465 -0.014263557230660431 0.001895396798371489 -0.0011138372288509771
-0.12188712569182199 0.05051938744676425 0.01935047401443429 -0.019320301811998303 -0.003956038429826397 -0.003621843089627426
-0.11955646670602689 -0.0059596377216089265 0.018862584697503043 2.4319063643765885e-05 -0.00044644930692490413 -0.019346076586407298
-0.12184751051599209 0.05048391754094217 0.019402373989935835 0.01936850639724452 0.0030307177908446997 -0.003626112990178955
-0.11579515532743773 0.039752233762573495 0.01963424815438222 0.014309535887700186 -0.002914097801638548 -0.0011197267377341987
-0.10113599743689144 0.03517380810326667 0.018493192635147725 0.013866076210152015 -0.0003130777013264711 -0.000710991577279853
-0.08777433043293689 0.030021942286699712 0.01673367103313582 0.014109413439750787 0.0026200674973734174 -0.00015737547828295503
-0.07353118556585408 0.024917088106526236 0.01460129229914319 0.01393890611865823 0.005537686317935899 9.252906911588853e-05
-0.05904308953875462 0.019818531672762364 0.012244729875994653 0.01374278042253928 0.007904957354084344 0.00021624046727172127
-0.04422843642365662 0.01482771202461619 0.00979086802323783 0.014067444058557336 0.009441881122977926 0.00024410883552233314
-0.028746571726655533 0.009634731513834104 0.00752308123534133 0.01563311689214306 0.00968948394422544 -0.00016201677723967634
-0.013651114346751586 0.0015905769600318615 0.006182971600024628 0.01482207326181575 0.007040733164636353 -0.0017141525278414151
-0.006523637554221144 -0.005416778744576338 0.006279639052098968 0.009387941576636815 0.0045262832788189366 -0.007426780703415316
-0.008782217954813869 -0.002626082757453145 0.008002334161869566 -0.0036088201190178 -0.007899730334867074 -0.004193011843347413
-0.01881351730880129 0.0024144026920283456 0.008313204522181185 -0.005858227244534698 -0.011864316064801102 -0.0013670893484928103
-0.041705950449703405 0.011366238365829083 0.010510849061542711 -0.005753242443955017 -0.01651124711285867 -0.0007357496798334291
-0.06617407402040966 0.018601270381900445 0.013799516578176876 -0.005216737209533846 -0.016647540728459385 -0.0003047876374764178
-0.0887239020433005 0.025125259570126943 0.017301828619926976 -0.005100549861102579 -0.014313319001721263 -0.0001516513388059826
-0.11044206301112433 0.031570431342339146 0.020686891574873138 -0.005219270809567209 -0.010304890867455157 -4.91783906324889e-05
-0.13179030701553995 0.03788316481404152 0.023767781108890162 -0.005285755950256606 -0.005184468007287179 2.7984649520870026e-05
-0.15211344851762337 0.0447254441725284 0.026316026257760753 -0.005525403665795084 0.00047865296449993075 1.4083139963428645e-05
-0.1688796877441022 0.04809397197553599 0.027988856242451135 -0.005688472763525656 0.006308941812233491 0.00010295240787111625
-0.1865059530318811 0.06758922548888065 0.02740867375532753 -0.013789282373823077 0.009411944606723614 0.002229928699084673
-0.19710643665598557 -0.002476334301640106 0.022886007122868795 1.1674283851677335e-05 -0.0005743960572103096 -0.020570799424933384
-0.18646716406100466 0.06755083493723184 0.027476049627011747 0.013812660837772104 -0.010600374732694833 0.002221919320920798
-0.16880359890314842 0.048018107402704076 0.028122738131861284 0.005711576066354661 -0.007611612118132481 8.830960309918665e-05
-0.1520048077010467 0.04461515163227863 0.026513278389574776 0.005546610098635011 -0.001953549977741215 -3.7178533735233e-06
-0.13166098742317936 0.03774614992399434 0.024020034967071103 0.00530078969723691 0.003516356082933163 1.4171591517483863e-05
-0.11031996999157745 0.031422887162978204 0.020975895080201964 0.005219058934025561 0.008496365292858413 -4.440582907815787e-05
-0.08867026526842868 0.024999753678895228 0.017593362682636025 0.0050659123329655905 0.012553164759269582 -9.883343096358507e-05
-0.0662808408122038 0.018557648768268546 0.01403736599414248 0.005122029290725646 0.015322824192816902 -0.00015906202173521946
-0.04198431057382566 0.011469013112716425 0.010619833673207457 0.005615001315309125 0.016116907523405537 -0.0005137608772868515
-0.01905961824013174 0.002594911080967214 0.008247371648614188 0.005788915609582936 0.012362845881417592 -0.001268555686744441
-0.008929803282367081 -0.002571756658630636 0.007809030989379134 0.0035522610618374563 0.008720237191444491 -0.004772019593304406
0.0356325268707068 -0.05674785296381459 5.55653613398821e-19 -0.0018672353316920552 0.006849461723072196 0.0005943598937443311
0.03747189587543624 0.00034633132594214606 -0.00380460800427334 -0.01284779791214565 0.009338352231198397 -0.0007126205547356137
0.046899051952922446 -0.015161406029163178 -0.007266612634631956 -0.005083578533948455 0.008788740841510293 0.0006883594739777026
0.06463354002227202 -0.019248749088521137 -0.010484201305811014 -0.005808966800922112 0.007346720685501666 0.000794295263315081
0.08508263984053045 -0.026165499715375802 -0.012967315912188134 -0.00608709772272507 0.004724187393417716 0.0010961081520101954
0.10554892542564821 -0.03286835040893505 -0.014710329353696316 -0.0063914168503147835 0.0014398045873122588 0.001408265142674316
0.125963316069245 -0.03991697539197498 -0.015593672529546274 -0.006801915335907115 -0.0022723578963701964 0.0017006696283396994
0.14734034692735937 -0.04748192201402139 -0.015535648939880908 -0.007583170995429543 -0.005818637559838336 0.001832208530480119
0.17128098546767567 -0.056341499436545886 -0.014574549031568577 -0.008513520643643522 -0.00780088731098915 0.0015435076995882245
0.19535641451814215 -0.06669039937359937 -0.013120257843923911 -0.007151728966306717 -0.0060548531438609325 0.0006684767234561948
0.2066044105502479 -0.07341480592975086 -0.012279032415059551 1.6546742222029972e-05 7.820559543194942e-06 -7.340472849336507e-05
0.19530110117722094 -0.06666854754719143 -0.013128902888398002 0.007185832690911953 0.006061499477289648 0.000658986033434751
0.17116190671797363 -0.05629210260353719 -0.014598078323887728 0.00855075076500529 0.007779557532770028 0.0015246396952015467
0.1471391059904902 -0.047392506447550144 -0.015587835809488167 0.007626147054422777 0.005745990720491646 0.0018049206687139887
0.12564761678072334 -0.03976607585196781 -0.015698391604181194 0.0068535105547165315 0.002112003299410936 0.0016677860922872485
0.105067559986423 -0.032621149148361235 -0.014903724780208674 0.006457466826533036 -0.0017535318311482253 0.001379870003607201
0.08435018192426613 -0.025769804580915573 -0.013304158863724049 0.006164071274220669 -0.00531642258769297 0.0010795263169799856
0.06353142417142953 -0.01862991538097322 -0.011022435096923928 0.005950015690367311 -0.008359813321547149 0.0008626744536875467
0.044899758961737125 -0.01414032971004841 -0.00816402489028706 0.005284920865374214 -0.010352059585393805 0.00063238250251843
0.03228389327941616 0.002039768152651721 -0.00483983855419571 0.012555402170053942 -0.009423255241128406 0.0005089945560478767
0.027936151346325388 -0.053944710896501186 -0.004248249134307099 0.0161260505421043 -0.008329760185005152 -0.004974858959976847
0.015732521783343997 -0.04891248973371487 -0.0005607716872194548 -0.0031850684222568225 0.0036263774003833693 -0.0017751222951477477
0.018262351508494458 0.0006396748878358157 -0.0017443578908802886 -0.014580899435687578 0.004396060652343928 -0.0014933258334127036
0.029027794152471757 -0.011051978136113104 -0.004536651512040407 -0.013148100394592516 0.005502970088235047 0.00016520586958636093
0.04376259801262538 -0.01572418427754364 -0.0068264184664790905 -0.01449115045175795 0.004600831796167869 0.0004174526242030946
0.05713042216226035 -0.02105567556233362 -0.008601682205249789 -0.01531805508125437 0.002914430899193992 0.0006098627333549405
0.07077079885677884 -0.026468543811958806 -0.009788595481730491 -0.01586306892515486 0.0007791782317953059 0.0007048606433619657
0.08436420155560904 -0.03208657505042016 -0.01036961846848766 -0.016753240070400292 -0.0015517775606404113 0.0006144522185404377
0.09843027965703231 -0.03797887379873744 -0.010321341249608587 -0.018595766850703688 -0.003703908550882427 0.00011057414697041516
0.1136950651905853 -0.04486267988729427 -0.00969807876711277 -0.02128258372651197 -0.004875104117896453 -0.0011715418235106044
0.12857469291680051 -0.054253692202293057 -0.008734251745877282 -0.01865127499532002 -0.0038020954206596236 -0.003316467451690807
0.13541745656901688 -0.0627161848013103 -0.00811811993987705 3.209255914222086e-05 -7.021640368175722e-05 -0.00484743959063303
0.12850684140946034 -0.054236177159466416 -0.008711959721233365 0.01871839833005097 0.0036483710376838505 -0.003318720931030338
0.11355179300622122 -0.04482240807079876 -0.009658356845986347 0.021359022405551577 0.004680969701924921 -0.0011737068319628734
0.09819576837461345 -0.03790442521668998 -0.010275486625671347 0.018689594445486842 0.0034396549650446044 0.0001145583722428134
0.08401279899244378 -0.03195834128181637 -0.010338231775318745 0.01687557497477147 0.001180259209351717 0.0006374500044137579
0.07026228835586629 -0.026254472543975654 -0.00980635093953099 0.01602970202803736 -0.001314554337493746 0.0007718440966709893
0.05640751386762729 -0.020706577935228558 -0.008719746815595486 0.015546893139678875 -0.0036982449917490746 0.0007606553770586765
0.042694285568789146 -0.015174162983551296 -0.007129418323867023 0.014846452997223642 -0.005758639341763111 0.0007200284912884136
0.0273031378228656 -0.010112449257963606 -0.005101163511147382 0.013834029215292804 -0.006844417864531227 0.0006364043865842061
0.016736225145082773 0.0014879278997397515 -0.0028716832537234917 0.015850567141480237 -0.004920691787413395 -0.00018452297959747912
0.014839371189540382 -0.046810490943647795 -0.003215142464602322 0.011977773232765346 -0.0032177884098235363 -0.006435153001589996
0.008090959954066317 -0.03432086611842929 0.001009603315026999 -0.020642866268835592 0.0012722686540952478 -0.006119974618056074
0.00785483343474637 0.0004520692975969733 7.876075181935051e-05 -0.02537913646245842 0.0016005806250385466 -0.002257125451901681
0.012826236561209374 -0.0038096217668298414 -0.0017555164204488488 -0.023657685834257598 0.0022393379086046764 -0.0005752162511842938
0.021886936429723718 -0.008177771680482261 -0.0032476370699707395 -0.02556314953276985 0.0018486503319254434 -8.235831735560153e-06
0.029087747327320716 -0.010804291048597462 -0.0042840878239418095 -0.02655420266043012 0.0008993578033192482 7.014927247360102e-05
0.035778801357357636 -0.013496838989887324 -0.00490973112611947 -0.027495948514452626 -0.0002259077578407693 -0.0001026609174891316
0.042355062582067476 -0.01625506356164637 -0.005150577257257093 -0.028910196575390804 -0.0013926737136986428 -0.0006691520323433004
0.04874501808829266 -0.018734695435748044 -0.005028732647090019 -0.031662720852111366 -0.00247919744035893 -0.0019315393096769407
0.05596256692865853 -0.02159318905458564 -0.004572453771072586 -0.03644446863519832 -0.003223274086821345 -0.0043422645060935865
0.06545059228186537 -0.030012448092842172 -0.0038023199369750936 -0.0338165652353074 -0.0027679523190460016 -0.007961174747274192
0.07085881215269127 -0.04448096804199928 -0.0031223787012355426 5.1783096403103635e-05 -0.00014683135814718958 -0.010576987559192189
0.06537151347157559 -0.030003864020524382 -0.003749508374407218 0.03392502574487321 0.0024575630656715705 -0.007956408044657828
0.05579800819932032 -0.02157171719357374 -0.004470487245566169 0.03656849197930216 0.002862968758513862 -0.004327850642343921
0.048482542663432854 -0.018691069021858426 -0.004886773843247192 0.03181591326892947 0.0020363367395390083 -0.0018955004070975298
0.041976239621753245 -0.016173511772953578 -0.00498713788307397 0.029111932748765716 0.0008340580546064985 -0.0005872650154824312
0.03525838471747342 -0.013350600926828876 -0.0047582785774171205 0.027774133950458732 -0.00048563329429177245 6.866546295185421e-05
0.02838871443128982 -0.010552975004538364 -0.004201203434915383 0.02694912602553593 -0.0018134116064574797 0.0004051801331091909
0.020930039792465372 -0.00775264496473815 -0.0033199478772427595 0.026166545009587427 -0.0029981102621087236 0.0005724422549442079
0.01183739766031812 -0.00320804451421954 -0.0021108895189254667 0.024746746731785 -0.0033882048578314575 0.0004659056280650003
0.007411750627720256 0.0003216550040786118 -0.0008581852930489632 0.02727712768579264 -0.0019274304911064686 -0.0013652895264578307
0.00806829484598239 -0.033003535119892 -0.0009952495755418177 0.022586058842332727 -0.00086842556326163 -0.009466102609931104
0.002401303057886988 -0.021682483846646557 0.003125883455594693 -0.022240606012318087 -0.000151484509421756 -0.007847144456646441
-2.6208555791622703e-05 -1.0292037867645084e-06 0.002082972982187171 -0.029750369630931237 -0.0004869171077310057 -0.0026511210753409477
-0.0014144813463225242 0.0016173910379726718 0.0010181004523021609 -0.029515141326515237 -0.0006970573212145423 -0.0007937241544959651
0.00025635740293040136 -0.00020150299868799837 0.0003406301315643126 -0.02940600122598071 -0.0008946028575098595 -0.00015387398064549114
0.0008416751085620595 -0.0004473778429443727 4.679476155580824e-05 -0.03027785308350091 -0.0011732207463397105 -4.75347613553004e-05
0.0006637032412787305 -0.00030645192165687404 8.900723146739843e-06 -0.031348170112771113 -0.001379253061007635 -0.00030225541613365566
0.00022936865449767817 -0.00022319311238683888 0.00014106933310636618 -0.03297544141868569 -0.001489840419837092 -0.0010135691493326489
-0.000988797902406097 0.0005548531426577993 0.0003920924770957338 -0.03532368415866359 -0.0016338804789411898 -0.002470872364175376
-0.0016724849664477071 0.002046678532802098 0.0007504441934257899 -0.04049226002666378 -0.0020474750566811858 -0.005127627932342391
0.003835296412621857 -0.00559014832044892 0.0013996880528979467 -0.04229091256702916 -0.002174303233897264 -0.009252050690730249
0.009089102205614426 -0.0319781006706326 0.002322822640511785 5.86832970725896e-05 -0.00022322637071731314 -0.012623025261780198
0.003745366103856797 -0.005590843798397206 0.0014830771705970306 0.04241383927314782 0.0017080158346416685 -0.009245149700662184
-0.001857482068873866 0.002048611192730545 0.0009147462095588284 0.04063284903433899 0.0015229533490252667 -0.00510813045537626
-0.0012778107423016354 0.0005664573992019446 0.0006301310862756871 0.03549731016927928 0.0010168333321025345 -0.002424881488212102
-0.00017404741310921584 -0.00018996660228356733 0.00043627962396678506 0.03320416101169449 0.0007536953670994963 -0.0009135325410085033
0.0001367383672743635 -0.0002315366999921364 0.00032773063060416506 0.03166577933989778 0.0005085015064222571 -9.69748069481658e-05
0.00017795968803482578 -0.0002961644301569522 0.0003282619332364431 0.030738433496224377 0.00016657689531430516 0.0003457471811019317
-0.0005003962626448172 7.513031147346689e-05 0.0004847885545072047 0.03010715083423853 -0.0002010031789071458 0.0005544716535699958
-0.0019691597960940625 0.0018265612471051464 0.0008664702840384196 0.03062271264192428 -0.00020976798278387026 0.0003140539865300657
-0.00011352667718880203 -0.00022657884501147335 0.001373439384014043 0.030674473158100967 0.00029576342642964853 -0.0020017118312678113
0.002559239585648111 -0.020595893230666476 0.0015730069440655305 0.022630812333957966 0.00046979046359164146 -0.01002314186388999
-0.002658527716735137 -0.011375178792400388 0.005309924851145306 -0.017744830564030287 -0.0013500966127901904 -0.00737408623175533
-0.007069849875793186 0.0006063229433746125 0.004168346615369454 -0.026062253430965163 -0.002410323947024158 -0.0022639148667745576
-0.01462904406595194 0.005855218744299314 0.0037781682371458383 -0.0274927362403197 -0.0035318749742523723 -0.0006765965393763134
-0.020848103037382142 0.007518280341966823 0.003913319530616454 -0.026157170879359894 -0.0036156912180639587 -7.709065404285953e-05
-0.027412787158261176 0.010001168122743433 0.004364146701155678 -0.026489716020000387 -0.0032585051806532078 7.337046611481103e-05
-0.03453142321336987 0.012892177441086177 0.00491949003744348 -0.027496201357483173 -0.0025473419827176367 -0.00010414470318635314
-0.041790587729577645 0.015908017383703815 0.005429988772210266 -0.02886120749330786 -0.0016066827302213598 -0.0006771857789607098
-0.05004649888849064 0.019208587515342546 0.005810554060192891 -0.03064247171236125 -0.0007484173585026872 -0.001852800914473956
-0.059188920210797406 0.02514135907232725 0.006042611479184454 -0.0331076034751273 -0.0006540215722614776 -0.003986321889795476
-0.058399552148511176 0.0225698713649997 0.00640038327110699 -0.04392669118790514 -0.001370172125254532 -0.007768709364579849
-0.05311471009908456 -0.02442893009418846 0.0076580913903180475 5.195905538646352e-05 -0.0003011231700309593 -0.011660932335120456
-0.058500929232037355 0.0225598870622668 0.00651492339246669 0.044035512422839825 0.0007447835014204079 -0.007764556878020541
-0.05939566377393755 0.025123716478535042 0.006270486882661281 0.03323197367182329 -3.855141272611612e-05 -0.003973168227640763
-0.05036434193390931 0.01918817152193602 0.006146775555738039 0.030795824107921817 -4.774981476240919e-05 -0.0018188314171700742
-0.042221919401182056 0.015892831681575466 0.005860180331486645 0.02906282945838342 0.0006861656453083885 -0.0005986917072493782
-0.035069262339664106 0.012895096853217982 0.005410466265687192 0.027777631736400483 0.0015091396880210959 6.317490603023544e-05
-0.028028535086257505 0.010047879258632809 0.004850194674624637 0.02690449931601857 0.00215202473432042 0.00040836049833206477
-0.021435789141797706 0.007614791555246509 0.004279618365255262 0.026790517939016142 0.0025710191886919487 0.0005433888134481698
-0.014958970459322303 0.005859776107432926 0.0038455828303021644 0.028261006551561354 0.0028254913140509444 0.0002231600097805307
-0.007043875733054492 0.00046582899466988086 0.003701312422593066 0.026402761966087082 0.00231381486408178 -0.00178377477048685
-0.002478447402540432 -0.010609931813630735 0.0041370116624858625 0.017630801503675873 0.0016088447174778832 -0.008780399239001454
-0.006947878172725566 -0.004714087543993453 0.007313918774843915 -0.00958797064419885 -0.0028629755424206637 -0.00445980079948195
-0.013557133825886667 0.0019946560920933508 0.00620354329802486 -0.01491241046678258 -0.004611815426456597 -0.0009848637290640015
-0.02741604968224624 0.009636746809264154 0.006502880629732429 -0.01621457728235034 -0.006498923574215808 -0.00013247574822036558
-0.04164166028321493 0.014976503644835906 0.00744719653768075 -0.015207283436419233 -0.006352866966448968 0.00035024767174028247
-0.055597056181756456 0.02035257498645768 0.008639206095806614 -0.015247570915535432 -0.005301696830174686 0.0006020713388129962
-0.06961760211854719 0.025954264214657394 0.009773441566010652 -0.015859531111670724 -0.003597400944599563 0.0007012880382379753
-0.08383540906535633 0.031758088156245846 0.010642343777501307 -0.016712462880870572 -0.0014931621966787862 0.0006092672922549193
-0.09782155443500522 0.038015868438070415 0.01109715614745374 -0.01744328143196585 0.0005100348166975424 0.00019256108614810902
-0.11537653675073958 0.0442062011165183 0.011123522372321719 -0.019392774166640543 0.001569679290426878 -0.0006976563292399467
-0.12336110704776639 0.0583674446160283 0.010776970565636484 -0.026344624590653985 0.00043064916470178955 -0.003091535936096686
-0.12062849187192738 -0.019048865083019857 0.01211198962342123 3.246501703355375e-05 -0.0003822277948409341 -0.007498111401508521
-0.12347549512450053 0.05834852002638303 0.010923727093664648 0.026412527336746722 -0.0012222820126275044 -0.003095097962122708
-0.1156084398445173 0.044169690606458 0.011417326056952786 0.01947006191034956 -0.0024398196664938043 -0.0007024485417427226
-0.09817411705751053 0.037964549108157754 0.011535693465103697 0.01753790431766992 -0.001499553344402459 0.0001924405823471191
-0.0843046041128402 0.03169612662124842 0.011214302351251182 0.01683577588156269 0.0003657445892635017 0.0006261041750452109
-0.07017872782211297 0.025887945807563265 0.010447379115006483 0.016029908805518734 0.0023557707346508975 0.0007595459040607601
-0.05618002906807947 0.02028920825775219 0.009346273318464163 0.01549962086206554 0.004043532399323374 0.0007501128948158201
-0.0421065878443816 0.014903787269154962 0.008059454263828656 0.015575798031491587 0.005291236699493541 0.0006616434802045921
-0.027604449186388463 0.00950427564465732 0.006820686732186689 0.01659024192075024 0.005939925062817329 0.0003271338707766477
-0.0134719454379008 0.0018981517344416803 0.005992564715438641 0.014995094923556586 0.004644627295706014 -0.0007416235131392305
-0.006761852293225322 -0.004277197178848713 0.0064705638019516044 0.009418212000301782 0.0031719590289363787 -0.00524592093341778
-0.009249201830133318 -0.002478179463235778 0.008852308665678975 -0.0037374672705448348 -0.00551633459530943 -0.002289045452572663
-0.018764311850313836 0.002803487744399485 0.008108142291783438 -0.005970154821404658 -0.00760140677864253 -0.00010436599000913323
-0.040079069682827734 0.011474531496471665 0.009206950649892137 -0.006187123365619924 -0.009714626892183264 0.00027783449022341907
-0.06259540226202387 0.01866936450276055 0.01099494239991059 -0.005958390173066853 -0.009073741904988563 0.0006816508492728886
-0.08368156625752776 0.02547078872944324 0.01294376795865673 -0.006041858439718468 -0.007169321751071508 0.001026528446413104
-0.1044916550215101 0.0324362104686208 0.014652093563615505 -0.006362745171214818 -0.004314223770872859 0.0013656346741655833
-0.1255171858686924 0.03950770773473779 0.015844613110434638 -0.00668206946133678 -0.0008417924677265208 0.0016691412388193986
-0.14630976173369437 0.047717833418813964 0.016331937201171706 -0.0073916610750882576 0.002587437969343112 0.0018937759025342805
-0.16493732480609313 0.05202555892511491 0.01598813527792085 -0.00781908981756467 0.004811384826021554 0.0017903101355524948
-0.19046678369412362 0.0786227610158571 0.0147330672522984 -0.01722093025061576 0.00459501885863762 0.0011076986139292703
-0.2076085753248017 -0.016251698907799192 0.014169069565913324 1.6884462198336675e-05 -0.0004677114363018231 -0.005253173405025462
-0.1905966417252137 0.07859949960074553 0.014913510445195724 0.01725644102618945 -0.0055628683284446945 0.0010999714160349588
-0.16519973401574034 0.05197989149039416 0.016351160288842453 0.00786002637302689 -0.005873099214908712 0.0017754589936039543
-0.14670637862957692 0.047651464028734436 0.016878702571963125 0.007442456153158947 -0.003792405463739306 0.0018735494450271234
-0.1260397741902047 0.039423073509021 0.016568321728442956 0.0067485649441848036 -0.0005293554563753275 0.0016476843940076574
-0.10510208220590113 0.032336030422774 0.015525555709434556 0.006453219165357652 0.0028065642350479448 0.0013525598431794322
-0.08427321632530263 0.025352927857460062 0.01389918042871469 0.006170437931743896 0.005656914870818776 0.0010436183382551848
-0.06297455594867007 0.01851513139411078 0.01189582368487308 0.006137140277309665 0.007858388913516335 0.0007663294219733988
-0.040101459458554686 0.01127364179121935 0.009828916692681922 0.006373275981076392 0.009238250303532699 0.00042513744539770653
-0.01855327848513724 0.002704265428191207 0.008178397688143301 0.006039871113685056 0.00793935448643807 -3.435915537453572e-05
-0.00899668942270622 -0.0021955179427792836 0.008271480017445721 0.0036857680438868935 0.006203123506203742 -0.0027598330853018205
0.03779882235801152 -0.05487203250575622 8.809142651444724e-19 0.00425026763392242 -7.893727717919047e-14 -3.830059370785871e-14
0.038663553602225766 -0.000710501033455458 -0.003287741627112706 -0.012605636452627524 -4.0276951966764646e-14 1.5926658863268939e-15
0.04670404932250453 -0.015456572571157541 -0.006169621800023194 -0.004900152579972082 -1.5761297703174165e-14 -2.7947072824344166e-15
0.06377446386113746 -0.019586606731562723 -0.008901913026882645 -0.005826913928753941 2.233198977304174e-15 4.059537536856006e-15
0.0837992260415287 -0.026504521128796376 -0.010838153856745835 -0.006230422973315483 6.524506751385585e-15 8.98325196781874e-15
0.10398696943452393 -0.03334960665234057 -0.011820137297848561 -0.006697548445269105 -3.4083386070069e-15 -6.464148877630138e-15
0.12439554120104264 -0.040686318277014175 -0.011770258494379513 -0.007294567983227209 -1.5573005667131323e-14 1.4914827185796842e-15
0.14636050920431248 -0.048752956681835484 -0.010705699392094493 -0.008266515118641028 -9.037902533575587e-15 2.0506355944902022e-14
0.17168746400584464 -0.05832926431479427 -0.008851074982602668 -0.00929547497817708 7.094802176310644e-15 2.8541215614866222e-15
0.19755031803454742 -0.06941825565324235 -0.00685452820507083 -0.007766327476877946 1.681394959244034e-14 1.7257245979451774e-15
0.2096763705906063 -0.07652710046909789 -0.005898201111266749 2.0496003064050263e-05 2.373963994676577e-14 2.7959270098784628e-15
0.19745147909018115 -0.0693821156582337 -0.006856368481739866 0.007809212835482769 4.265577284836078e-14 -8.55873260718204e-15
0.17147552406920047 -0.058248342594432206 -0.008862400958228923 0.00934441619572762 8.162445871116863e-14 1.012997194807519e-14
0.14600291443638677 -0.048607998465445904 -0.010743126326904287 0.008327028105451684 8.99085629080601e-14 4.785912334839826e-15
0.1238315991456472 -0.040443802012733544 -0.011861383942505035 0.007373865092148672 7.815512102646522e-14 1.1460016963171782e-16
0.10311300452686599 -0.03295303046826523 -0.012004179348301648 0.006806769667727889 2.4434820215368108e-14 1.5009423825346202e-16
0.08244730924193706 -0.02587538003501966 -0.01116539039538238 0.006376688676205728 -4.299298682905808e-14 8.571973426213519e-16
0.06169283822141317 -0.01858792774805696 -0.009425118531430984 0.006062856401107141 -6.614456568186308e-14 3.2064059523814747e-15
0.04334360924879583 -0.013944003779192481 -0.007019197090125624 0.005337560381957867 -8.729738394837316e-14 5.6306616812683286e-15
0.03104659897475254 0.0019526965152926673 -0.0047251878078891 0.01202888925900787 -7.970841936250257e-14 -4.01032831075232e-16
0.02676509068046714 -0.05171636415620382 -0.004821160346827879 0.015312268652007516 -7.158306608058551e-14 -3.5955667696679905e-14
0.015804735155971736 -0.04772903840144654 -0.00011887197875710974 0.0003337000757227706 -2.4241595059440457e-14 -2.3017774752193132e-14
0.018676695462648888 0.00010838762865395469 -0.0016872178847601863 -0.013848419219990573 -2.2470940445841123e-14 -9.252865943061572e-15
0.029303507857980807 -0.011366786958980279 -0.003893049564672311 -0.01282382988491813 -1.6966042828449324e-14 -9.664578165535787e-15
0.04337893161651798 -0.015949881955628565 -0.005882258348743054 -0.014549067508753802 -7.625924021491086e-15 1.3649698775777819e-15
0.05644669486270469 -0.021271963143689492 -0.007316345242562127 -0.01563293894292027 -2.5307798628829755e-15 4.61294143074692e-15
0.06990602030309079 -0.026765128744703458 -0.00804627616838171 -0.01649857428875469 -4.5096084933795785e-15 -3.4478238948761064e-15
0.08351245523965123 -0.03258324939121344 -0.008061021649854134 -0.01780169356453506 -9.918650780262397e-15 -7.374384035276765e-15
0.09794904349269402 -0.03882968696294852 -0.007412145922949079 -0.020124063094707396 -7.82701811349873e-15 9.369953001426429e-15
0.11402626200954166 -0.0462214498019741 -0.006266140271557035 -0.02312530716748558 -6.080058399565887e-15 -1.3302184874441902e-14
0.12991803818468042 -0.05613519091939014 -0.005009526198216311 -0.020164511344528804 5.443320863225253e-15 -1.485754065350814e-14
0.13724653612475474 -0.06496863656939973 -0.004375691766820599 3.967329197895932e-05 1.8784071147755644e-14 -9.776372962046198e-15
0.12980156996670209 -0.05610422405231955 -0.004972750046552977 0.020248878554660524 1.9512679571621373e-14 -2.368302765270308e-14
0.11378049006298234 -0.046151669198251644 -0.006198079311464667 0.023225979604767258 4.0723046950633807e-14 -8.834187721629139e-15
0.09754590310394605 -0.038703840830259816 -0.007325360876514646 0.02025633517244078 5.696150795914947e-14 1.2608525877012833e-15
0.08290271937375042 -0.03237109652501569 -0.00797778796561569 0.017988024218446776 4.0108422056414194e-14 5.040293269559237e-15
0.06900798898957163 -0.026416697134279646 -0.008001743669596424 0.016770036841018614 1.623189819724034e-14 3.6085846496277524e-14
0.05513195088856528 -0.020709293440112797 -0.0073592687849224955 0.016030683311402297 -1.5050621813834757e-14 1.4085202459674512e-14
0.04143585282882324 -0.015070942721740095 -0.0060866185689999325 0.015160668619564647 -3.963093349042095e-14 1.4327796083899932e-14
0.026426649999888654 -0.009967698062336846 -0.004368837396911846 0.014006587563972162 -5.137380863599883e-14 8.587165809155473e-15
0.01620173355437941 0.0014332637785367584 -0.002997837337595919 0.015378998069600552 -3.861378816351249e-14 -3.3466475033924747e-15
0.014284287010497259 -0.04490653498560049 -0.003826188554841196 0.011346930026091266 -2.4744241351000104e-14 -5.2593834235642456e-14
0.00800192746886587 -0.033937138785518156 0.0011400470324525638 -0.019064109998835767 -8.591336599387753e-15 -2.315530579777292e-15
0.008061802762162989 0.0005005416365239458 6.57865587003666e-05 -0.023956388442193218 -9.904196586533976e-15 -1.5952710208594692e-14
0.01316706609758753 -0.004076976206179398 -0.0014426052729340879 -0.02323775172284611 -1.611502797930998e-14 -1.3875111183701133e-14
0.021923370607341976 -0.008321137027430274 -0.002765789728370958 -0.02567004480290457 -1.21576587624584e-14 -1.121801626200944e-14
0.02891666904202692 -0.010903293866728192 -0.003657578727436261 -0.027115555906287173 -1.135774874621914e-14 4.03714876199418e-15
0.035507208669274426 -0.013599959591855894 -0.004067434270047726 -0.028555762409279956 -1.373098344552813e-14 4.810550829209559e-15
0.04207293200856998 -0.016420890341947002 -0.004028647392771199 -0.030635121970919357 -8.579932147785921e-15 -1.598029976575266e-14
0.048609883095615446 -0.019016314740711023 -0.003607488575588472 -0.03417574339204174 -1.581448967819584e-14 -9.960592463678641e-15
0.05618796260324987 -0.022049641416660187 -0.002893000867028532 -0.039496046477639074 -1.7022832999430935e-14 -2.93607369319937e-14
0.06625917904046139 -0.030665683034731255 -0.0020428208828372103 -0.03640719126649158 2.249860962409613e-15 -2.0226143893423143e-14
0.0719994346439552 -0.04554764288535652 -0.0015325226768569584 6.199092069450869e-05 2.357009783204335e-15 -2.7008316373297592e-14
0.06612748342818926 -0.030645330352048188 -0.0019684103242421677 0.03653942441179033 1.521189858105787e-15 -3.397552150643385e-14
0.05591397131392212 -0.022002733795895135 -0.0027480314640211446 0.03965516147691212 1.394323719661585e-14 -2.034409153726241e-14
0.04817184391025924 -0.018929481474513166 -0.003401657750504164 0.034387392953421046 2.208693043590686e-14 7.894374173464391e-15
0.0414355693860751 -0.016271027075430267 -0.003781410329206212 0.030937763097152564 2.0585513714921778e-14 9.437315837655669e-15
0.03461487238627773 -0.013347401553125809 -0.0038131880853000217 0.029006374370622465 1.2636234124662534e-14 5.965445016220192e-14
0.02768489652292663 -0.01048335817217531 -0.0034526632519080143 0.027790824041624536 -8.081659934365895e-16 3.5916195961337855e-14
0.02023239475234284 -0.0076484414016899736 -0.002696535838796716 0.026730208896494603 -1.4111346978624463e-14 2.561101355405722e-14
0.01142937480263833 -0.0031795441423256364 -0.0016782424083351085 0.025021520713156283 -2.4814524756831477e-14 1.3473746315710577e-14
0.0071931346034742084 0.00029672741132143274 -0.0010104034827581744 0.026596126187263532 -1.2952700774470673e-14 -1.2021396519294042e-14
0.007784666200029683 -0.03164879416237637 -0.0016456199399644343 0.02161559666588458 -7.460513733485372e-15 -7.845173078876999e-14
0.0023809017801550147 -0.021453445717152554 0.003132533978315926 -0.02132900322079215 -2.2314591716305135e-15 1.6796053480330753e-15
0.00017474828422514078 9.719630803652986e-05 0.00199126530760944 -0.028644169280457994 -5.169470876213202e-15 -1.3038066448960856e-14
-0.0010035267543701638 0.0014429633641901455 0.0010553243455617713 -0.02898904301783238 -1.560814737004701e-14 -1.6718776970486848e-14
0.0006161477016817404 -0.0003906866883879201 0.0003756533788188875 -0.02953541862360789 -1.7117658337876054e-14 -1.1069053659773509e-14
0.001146130881297771 -0.0005796586046168872 2.5290402565520588e-05 -0.030934672050123905 -1.820426608393176e-14 3.4518151141235687e-15
0.0009379242794327477 -0.0004107405086150012 -3.6193112596865e-05 -0.03257276619986178 -2.1265785356619493e-14 7.88710324264516e-15
0.00046233884129543633 -0.0003019879070765031 0.00010675992590689788 -0.034934811092832474 -1.6865538557609338e-14 -1.1104439308178005e-14
-0.0008223421475658708 0.0005235756339322477 0.0003823124019485009 -0.03812736043571 -2.2639880320138046e-14 -2.120157348295404e-14
-0.0015473466501197684 0.002065989005818137 0.0007770400211149194 -0.043838569543951385 -2.307679685499076e-14 -4.6062098905085e-14
0.0042445355296532785 -0.005570754416287541 0.0013411713472426872 -0.045268139511728395 -9.775849495684795e-15 -3.222293579966534e-14
0.009769927390905007 -0.03252232336107038 0.001799629751805224 6.953886281429857e-05 -1.1358506417190458e-14 -2.6784740332803925e-14
0.004098415698483092 -0.005561378055163135 0.0014531023258728924 0.045416561538972465 -1.3223554594190049e-14 -3.8600334950969484e-14
-0.001847640006763646 0.002089281672468266 0.000998494158889884 0.04401743256692621 -7.253498669418184e-15 -4.000969613124697e-14
-0.001291590730510963 0.0005703148344871199 0.0007059393998539152 0.038365569210340955 -1.0253745484525671e-14 9.044218011230315e-15
-0.0001958482880720632 -0.00021577563788532393 0.0005150542057761958 0.03527644448083052 -1.6177969303554553e-15 1.2586943477516793e-14
6.565912130834797e-05 -0.00025656403760031596 0.00042096206457264626 0.033085668517750945 5.8754846962109225e-15 6.675825799280777e-14
2.2554044514056383e-05 -0.0003079493849623333 0.00046631029709909473 0.03172241601551977 1.0676744421022049e-14 4.186451532661728e-14
-0.0006945888191811385 5.6608012156128464e-05 0.0006907930617524861 0.030751896384932496 4.4440244263395726e-15 3.7478744744192174e-14
-0.0020183527097446547 0.0017488837671669661 0.0010327961640281915 0.030795627955773643 1.7258152304705336e-15 1.3407261005614693e-14
-0.00010773921918318532 -0.0002504804246536047 0.0011908716210543098 0.03000587501677928 5.257523339212075e-15 -1.7019446561707813e-14
0.0024849641186474075 -0.019661371416028733 0.0010318281015734778 0.021847136092512497 7.378273610570557e-15 -8.264607531324741e-14
-0.002525562548314649 -0.011238051350433473 0.005332168446899829 -0.017285213829942123 1.3419331225113067e-15 7.094070339844216e-17
-0.006760257817365352 0.0006986912322648397 0.00396650186154143 -0.0252763978042881 -4.715412088573956e-15 -9.18954514805663e-15
-0.014080153636121256 0.005717608433469729 0.0035485587185058384 -0.026981958498335856 -1.534624817088777e-14 -1.524695896881062e-14
-0.020183018486353052 0.007311537980743825 0.0035078576617772563 -0.026196108825918184 -2.0146912431536976e-14 -5.665755950338969e-15
-0.02664636349503346 0.009829695825225424 0.0036970862271338005 -0.02703550108439827 -2.2585928556562683e-14 -3.49031784377396e-16
-0.0337117517533011 0.012785413048638545 0.003986802804996523 -0.028562836024599716 -3.200540418628328e-14 6.519829435450847e-15
-0.04103417343950214 0.01591713135482603 0.004237448613832113 -0.0305795810286551 -2.811159595121675e-14 -5.7254006223528275e-15
-0.04955034969544907 0.019401164706405374 0.004366784323566585 -0.033094337900089525 -2.6570546029234046e-14 -1.8187667626297366e-14
-0.05916770956130532 0.025613649419286906 0.004423373429848865 -0.03591608905238487 -2.6587688705537052e-14 -5.0773079317278924e-14
-0.05841498320070437 0.02325370752804981 0.004651393181832878 -0.04672173729833331 -2.207261049690058e-14 -3.029610525125126e-14
-0.052898293628134946 -0.02461062002300552 0.005012143417572442 6.245523885532798e-05 -2.30088770945987e-14 -2.715755680234022e-14
-0.058576318910135414 0.023252119594472997 0.0048015843362477625 0.04685495418963134 -2.47482528990383e-14 -2.972192533323009e-14
-0.05949603197996593 0.025613384638934943 0.004722884003852151 0.03607628861956515 -3.143919146016399e-14 -3.880802742963624e-14
-0.05005393313033187 0.01940805217201813 0.004810824119923057 0.03330693783209561 -3.0751281275347934e-14 1.0455720490798459e-14
-0.04171751034738464 0.015940314760295168 0.004810760991150574 0.03088327183756721 -2.478066630883088e-14 1.5399357136680614e-14
-0.034568837943527976 0.01283999761230484 0.004652787216916149 0.029020998851444827 -1.5915088393209445e-15 6.38301125279947e-14
-0.027642570799186448 0.009947140056499068 0.004381930825486089 0.02774759767990227 2.03846000409319e-14 3.901145763851241e-14
-0.02116080396171603 0.007486093548245694 0.004076887467079879 0.02728733575286039 2.2225131484547925e-14 3.6360705299529755e-14
-0.014676071086879341 0.00571521260833968 0.0037627880012783515 0.02825466913085429 2.6659223602547993e-14 1.2979367065716133e-14
-0.006809112826919569 0.0004596383565556191 0.00345589644278339 0.02579834994319148 2.3487314761009345e-14 -1.3717495292876053e-14
-0.002335416956266145 -0.01004025863906969 0.003770743428323859 0.017109778668523645 1.8556065971980784e-14 -7.313561648653044e-14
-0.006609771285014095 -0.004562019241737702 0.007274578762364777 -0.00945942997881543 8.95415469201466e-16 -1.5772905442683338e-15
-0.01306092806428845 0.0021566650968704326 0.005797166085400579 -0.014447409019214728 -4.347664264194029e-15 -4.968356455414824e-15
-0.026653530140341917 0.00958160652872816 0.00598178935918159 -0.01585640470002289 -1.5580828863432164e-14 -8.650354467020643e-15
-0.04063441422400302 0.014857465983488477 0.006596079368780944 -0.015181227444797229 -2.6496806728977876e-14 -6.060398764860114e-15
-0.05433754346258878 0.02028963465740181 0.00732253423290455 -0.015552614569936856 -3.31533371177202e-14 4.859787160367557e-15
-0.06820607509038405 0.026034842948103806 0.007941544950305633 -0.01650009016893512 -3.180926693108297e-14 -4.284041925459864e-15
-0.0824971449803066 0.0320936824020395 0.008254840033640692 -0.017758417350585948 -2.596952109601555e-14 1.0834161259104524e-15
-0.09690496984478028 0.03875505167947223 0.008159464241328488 -0.01890028744725055 -3.292801957748698e-14 2.055166204318476e-15
-0.11545324600028889 0.04545856473680225 0.007743242549077669 -0.021009782617614575 -2.8985669048883604e-14 -2.4513611220121703e-14
-0.12398009383863105 0.0603684694739048 0.00744012367087738 -0.02796268478144729 -2.928780739523511e-14 -6.159359318153729e-15
-0.12112469097092972 -0.018931233334296027 0.0075017303348413455 4.048421591452713e-05 -3.2937009985189135e-14 -1.6477399685573685e-14
-0.12415903123462314 0.060356288829181946 0.0076301741802224715 0.028048770277745615 -4.008429601697755e-14 -7.922299155669471e-15
-0.11581495434979112 0.04543554127111106 0.008124394309573247 0.021112399985659204 -5.663906369195344e-14 -1.4885953526690837e-14
-0.09745250685726523 0.03872353152589913 0.008730364139194738 0.019034646321051556 -5.627900862080048e-14 1.2935846512886207e-14
-0.08322231395651314 0.032056052043818936 0.009004115373294317 0.017947496646411987 -4.761355113281382e-14 1.2192564937275191e-14
-0.06906990254677658 0.02599329147477395 0.008834564871733704 0.016781083588059503 -1.4900126081964296e-14 3.494113229004017e-14
-0.05523389161861737 0.020242367129679504 0.008280294513472938 0.01598758246155048 2.5005313846002825e-14 2.241589346866496e-14
-0.041352190196842484 0.014767305965192701 0.007463848521827485 0.015817272291369627 4.454460888689282e-14 1.6137614112848517e-14
-0.026953751097455562 0.009357830778962805 0.006493704729024844 0.01648487301748077 5.732456067990277e-14 6.5164108104757285e-15
-0.01295520259173877 0.001966658318966805 0.005597969476300243 0.014574642152241274 4.62507128136478e-14 -5.59838972597794e-15
-0.006358724539985821 -0.003909749195511308 0.006153991718139533 0.009210512036830763 3.245513124743027e-14 -4.661131506808469e-14
-0.008711707347532046 -0.0022665939430140713 0.008363066491642843 -0.003753636812293978 1.3631673914660247e-15 -2.823370877369502e-15
-0.018059402667915215 0.0030365333629997176 0.007300516440477469 -0.005706385869624655 -2.72254007532835e-15 -1.3715157481941631e-15
-0.03903199028054051 0.011490873984452936 0.008255881329225554 -0.005984339587745976 -1.3528403657731003e-14 -6.3954646700031814e-15
-0.06115441145673378 0.018639599503879636 0.009553272969651493 -0.005914196455289754 -3.434673877776573e-14 7.031051088568496e-17
-0.08183630306208797 0.025527743029992812 0.010794298734030155 -0.006167280236774002 -4.927021247588814e-14 3.1654366627886787e-15
-0.10238131453020484 0.032696647128346 0.011675597072686119 -0.0066574764662544975 -2.834944057934427e-14 -1.2641472070529236e-14
-0.12345352365090506 0.040110726458755255 0.011937384340609989 -0.007164064435127565 -1.9240251752927762e-14 1.6046951094306205e-14
-0.14487569490353855 0.048881137451358775 0.011437885963691516 -0.008026487042883229 -2.7786597350289155e-14 2.993373778015229e-15
-0.16492114150240036 0.053807456190833505 0.010296464450999212 -0.008456242491306241 -2.803238598279162e-14 1.475984048524004e-14
-0.19194412617460355 0.08156725494305946 0.009108281518080762 -0.01812340991330117 -4.546591645922596e-14 4.374322085110016e-15
-0.20968214420645 -0.01600076024371031 0.008552365015841638 2.3391054834734186e-05 -4.323334767443454e-14 -1.3452373980385457e-14
-0.1921446815876271 0.08154991061678268 0.009340699300116542 0.018173162061114998 -4.945672235460996e-14 4.785180498373398e-15
-0.16532520912225127 0.053773348399008 0.010764951241003323 0.00851540177284672 -8.83537492300801e-14 9.511922499649828e-15
-0.1454834270928516 0.04883086813068884 0.012146089273330328 0.008103200622078515 -1.0309332868722182e-13 8.739699502297027e-15
-0.12424848662108912 0.04004358640483966 0.01288073512708503 0.0072695487526450355 -8.479384593562331e-14 1.4114035461199048e-14
-0.10329912400641944 0.03260789895569513 0.012826537422612663 0.006807568919536048 -3.715776330289605e-14 3.687805269492195e-15
-0.08270499319923874 0.025398064875580897 0.012077188471949402 0.006385732317742009 3.360297608744067e-14 6.229934103318957e-15
-0.06167026312625173 0.01841856596616299 0.010803371887782982 0.0062152330602449095 7.623020053734719e-14 1.2958926466632992e-16
-0.03898782205471109 0.011150699814750266 0.009172687495004155 0.006288187790314414 9.928529894932814e-14 2.0857881394276134e-15
-0.01768787884796817 0.0028334552946531442 0.007466678535259231 0.005814727943022555 7.935530487931941e-14 1.4740812737112918e-15
-0.008305714041347556 -0.001860841435185089 0.0075712414776541 0.0036969603160793463 5.648324689910833e-14 -2.852600967939711e-14
0.035632526870849196 -0.056747852963834854 9.0801931945661e-19 -0.0018672353314504956 -0.006849461723230754 -0.0005943598938267796
0.03747189587554597 0.0003463313259001339 -0.003804608004280035 -0.01284779791215625 -0.009338352231268263 0.0007126205547322077
0.046899051952990614 -0.0151614060291882 -0.007266612634640946 -0.005083578533957363 -0.008788740841532689 -0.0006883594739912658
0.06463354002231328 -0.019248749088499578 -0.010484201305821268 -0.005808966800903599 -0.007346720685509608 -0.000794295263317879
0.08508263984054278 -0.026165499715419753 -0.012967315912198091 -0.00608709772271227 -0.004724187393413996 -0.0010961081520232114
0.10554892542565651 -0.03286835040890965 -0.014710329353698709 -0.006391416850311762 -0.001439804587282647 -0.0014082651426689985
0.12596331606926708 -0.03991697539199004 -0.015593672529531855 -0.00680191533591251 0.002272357896446157 -0.0017006696283421092
0.14734034692738543 -0.04748192201407271 -0.015535648939849218 -0.007583170995458513 0.005818637559883799 -0.0018322085304919179
0.17128098546770568 -0.056341499436544006 -0.014574549031529467 -0.008513520643640676 0.007800887310963395 -0.0015435076995927173
0.19535641451818178 -0.06669039937374717 -0.013120257843890488 -0.00715172896630947 0.006054853143856003 -0.0006684767234551804
0.20660441055030151 -0.07341480592979016 -0.012279032415023903 1.654674220443104e-05 -7.820559492327491e-06 7.340472850079268e-05
0.19530110117728866 -0.06666854754722015 -0.013128902888366125 0.007185832690927035 -0.006061499477204898 -0.0006589860334469727
0.1711619067180211 -0.05629210260372725 -0.01459807832385715 0.008550750765047683 -0.007779557532651596 -0.0015246396951886189
0.14713910599050134 -0.047392506447601235 -0.015587835809482508 0.0076261470544761265 -0.00574599072037982 -0.0018049206687235505
0.1256476167806677 -0.03976607585196599 -0.015698391604186776 0.006853510554707349 -0.0021120032993385113 -0.001667786092258639
0.10506755998630354 -0.032621149148218426 -0.014903724780234131 0.006457466826531111 0.0017535318311701679 -0.0013798700036012311
0.08435018192417436 -0.02576980458086577 -0.013304158863734582 0.006164071274212689 0.005316422587652105 -0.001079526316948486
0.06353142417137622 -0.01862991538094139 -0.01102243509692901 0.005950015690351923 0.008359813321425817 -0.000862674453673693
0.044899758961688935 -0.014140329710037557 -0.008164024890288257 0.00528492086535704 0.010352059585219925 -0.0006323825025154411
0.03228389327936827 0.002039768152656135 -0.004839838554193478 0.012555402170023785 0.009423255240974406 -0.0005089945560389977
0.027936151346273454 -0.053944710896421444 -0.004248249134301388 0.01612605054211972 0.008329760184863973 0.00497485895988999
0.01573252178337621 -0.04891248973373336 -0.0005607716872212675 -0.0031850684221199628 -0.0036263774004325834 0.0017751222950951025
0.01826235150853663 0.0006396748878109785 -0.001744357890886394 -0.014580899435680096 -0.00439606065239006 0.0014933258333955715
0.029027794152519326 -0.011051978136110042 -0.0045366515120504125 -0.013148100394583527 -0.005502970088267472 -0.00016520586959695732
0.04376259801266346 -0.01572418427756198 -0.006826418466489387 -0.014491150451727455 -0.004600831796184493 -0.00041745262421007747
0.05713042216228406 -0.02105567556235237 -0.0086016822052577 -0.015318055081249308 -0.002914430899201231 -0.0006098627333699294
0.07077079885679254 -0.02646854381191547 -0.009788595481733199 -0.015863068925168835 -0.0007791782317854366 -0.0007048606433634094
0.08436420155562857 -0.03208657505044558 -0.010369618468482661 -0.016753240070429776 0.0015517775606693233 -0.0006144522185458311
0.0984302796570495 -0.03797887379876688 -0.010321341249593207 -0.01859576685075649 0.003703908550893757 -0.00011057414696004459
0.11369506519060549 -0.044862679887296836 -0.009698078767091676 -0.021282583726529716 0.004875104117890077 0.0011715418235253151
0.12857469291684448 -0.05425369220236671 -0.008734251745855398 -0.018651274995308983 0.0038020954206620613 0.0033164674516645808
0.13541745656905826 -0.06271618480134569 -0.008118119939860786 3.209255911756429e-05 7.0216403708993e-05 0.004847439590622673
0.128506841409492 -0.0542361771594523 -0.008711959721214095 0.018718398330042095 -0.003648371037625737 0.003318720931017818
0.11355179300626603 -0.04482240807096832 -0.009658356845965754 0.021359022405630174 -0.004680969701859842 0.0011737068319659593
0.09819576837462618 -0.03790442521673368 -0.010275486625662746 0.01868959444555974 -0.0034396549649811114 -0.0001145583722313477
0.08401279899240584 -0.031958341281855165 -0.010338231775317558 0.01687557497485546 -0.0011802592093121977 -0.0006374500043836326
0.07026228835581376 -0.02625447254396153 -0.009806350939536827 0.016029702028061973 0.001314554337498131 -0.0007718440966498989
0.05640751386756954 -0.020706577935175226 -0.008719746815600104 0.01554689313960887 0.003698244991720827 -0.0007606553770160102
0.04269428556874429 -0.015174162983539262 -0.007129418323870538 0.014846452997206008 0.0057586393416814334 -0.0007200284912610059
0.027303137822840128 -0.010112449257950764 -0.005101163511148013 0.013834029215247616 0.006844417864420884 -0.0006364043865686582
0.016736225145064558 0.0014879278997368321 -0.002871683253722566 0.015850567141445088 0.004920691787340224 0.0001845229795944104
0.014839371189523748 -0.046810490943573126 -0.0032151424645978834 0.011977773232753591 0.003217788409771257 0.006435153001480652
0.008090959954084398 -0.034320866118449186 0.0010096033150245015 -0.02064286626881829 -0.001272268654110946 0.006119974618047938
0.00785483343476322 0.00045206929760192014 7.876075181414222e-05 -0.025379136462444014 -0.0016005806250653936 0.0022571254518710983
0.012826236561235103 -0.003809621766801627 -0.001755516420458506 -0.023657685834248102 -0.002239337908640263 0.0005752162511729307
0.021886936429752757 -0.008177771680509064 -0.003247637069979567 -0.025563149532732306 -0.0018486503319522375 8.235831730075354e-06
0.029087747327339743 -0.010804291048595647 -0.0042840878239497615 -0.026554202660408404 -0.0008993578033374814 -7.014927248621872e-05
0.035778801357377016 -0.013496838989873852 -0.0049097311261236285 -0.02749594851450028 0.00022590775783198864 0.00010266091747530323
0.04235506258208286 -0.01625506356164838 -0.005150577257256012 -0.028910196575460703 0.0013926737136888215 0.0006691520323447745
0.04874501808830471 -0.018734695435727467 -0.005028732647086083 -0.03166272085217742 0.002479197440348493 0.001931539309712698
0.05596256692868897 -0.021593189054675728 -0.004572453771059082 -0.036444468635208165 0.003223274086811633 0.004342264506113887
0.06545059228190024 -0.030012448092875416 -0.0038023199369617657 -0.03381656523530711 0.002767952319036751 0.007961174747238202
0.07085881215271478 -0.044480968041961444 -0.003122378701233529 5.178309636907722e-05 0.00014683135815995148 0.01057698755916177
0.06537151347160133 -0.030003864020532206 -0.0037495083743956975 0.033925025744842234 -0.0024575630656404417 0.007956408044629548
0.05579800819935078 -0.02157171719370225 -0.0044704872455539 0.036568491979407335 -0.0028629687584916077 0.00432785064234902
0.048482542663451686 -0.018691069021931697 -0.0048867738432366815 0.03181591326900189 -0.0020363367395217955 0.0018955004071078163
0.04197623962174845 -0.016173511773042232 -0.004987137883067468 0.029111932748861098 -0.0008340580545953403 0.0005872650155233308
0.03525838471745038 -0.013350600926891802 -0.004758278577414073 0.027774133950509178 0.00048563329429107113 -6.866546291136467e-05
0.028388714431262355 -0.010552975004533189 -0.004201203434917351 0.0269491260254537 0.0018134116064407765 -0.0004051801330550041
0.020930039792436215 -0.007752644964699075 -0.0033199478772447614 0.02616654500954648 0.002998110262061261 -0.0005724422548965137
0.011837397660305162 -0.0032080445142340036 -0.0021108895189255045 0.024746746731732848 0.003388204857782178 -0.00046590562804239594
0.007411750627716485 0.0003216550040729427 -0.000858185293048488 0.027277127685730707 0.001927430491081117 0.0013652895264417914
0.008068294845967263 -0.03300353511983598 -0.0009952495755388494 0.022586058842299125 0.0008684255632461107 0.009466102609774625
0.0024013030578945303 -0.021682483846671107 0.0031258834555940333 -0.022240606012323954 0.0001514845094164941 0.007847144456651326
-2.6208555786433603e-05 -1.0292037600377661e-06 0.0020829729821824857 -0.02975036963094336 0.00048691710771433925 0.0026511210753159212
-0.0014144813463109716 0.0016173910379987705 0.0010181004522949364 -0.029515141326508752 0.0006970573211827796 0.0007937241544781164
0.0002563574029481482 -0.00020150299867208163 0.0003406301315574407 -0.029406001225951776 0.0008946028574722584 0.000153873980640549
0.0008416751085769001 -0.000447377842962145 4.6794761548838015e-05 -0.03027785308347848 0.0011732207463027676 4.753476134374744e-05
0.0006637032412959275 -0.00030645192164078947 8.900723141756036e-06 -0.03134817011282417 0.001379253060976116 0.00030225541610928833
0.0002293686545125419 -0.0002231931123894767 0.00014106933310478856 -0.0329754414187555 0.001489840419812091 0.0010135691493336767
-0.0009887979023891894 0.0005548531426637956 0.00039209247709220626 -0.03532368415874924 0.0016338804789068138 0.0024708723642087255
-0.0016724849664207424 0.0020466785327156183 0.0007504441934317761 -0.04049226002668044 0.002047475056656501 0.005127627932373463
0.0038352964126484542 -0.005590148320526024 0.0013996880529031537 -0.042290912566994535 0.0021743032338759323 0.0092520506906937
0.009089102205628636 -0.03197810067060074 0.002322822640506871 5.868329704582579e-05 0.0002232263707090915 0.012623025261713626
0.0037453661038755006 -0.005590843798465658 0.0014830771706019368 0.04241383927310379 -0.0017080158346351024 0.009245149700631592
-0.0018574820688533823 0.0020486111927037727 0.0009147462095623395 0.040632849034425496 -0.001522953349041557 0.0051081304553789375
-0.0012778107422894782 0.0005664573991226397 0.0006301310862847216 0.03549731016938338 -0.0010168333321235099 0.0024248814882251737
-0.0001740474130912052 -0.00018996660235077298 0.0004362796239739441 0.03320416101179988 -0.000753695367113745 0.0009135325410459593
0.00013673836729286948 -0.00023153670001951703 0.0003277306306084033 0.03166577933994304 -0.0005085015064298437 9.697480700440102e-05
0.00017795968803689704 -0.00029616443016688976 0.0003282619332364762 0.030738433496151556 -0.00016657689532230443 -0.0003457471810432554
-0.000500396262653469 7.513031153466259e-05 0.0004847885545044433 0.030107150834173733 0.00020100317889936226 -0.0005544716535189481
-0.0019691597960941627 0.0018265612470816962 0.0008664702840380269 0.030622712641863163 0.00020976798278769638 -0.0003140539865039176
-0.00011352667718357916 -0.0002265788450192241 0.001373439384013699 0.03067447315804483 -0.0002957634264179512 0.0020017118312447655
0.00255923958565393 -0.020595893230631636 0.0015730069440671624 0.022630812333927317 -0.0004697904635829467 0.010023141863725075
-0.0026585277167399004 -0.011375178792421468 0.005309924851147281 -0.017744830564041532 0.001350096612787972 0.0073740862317644516
-0.007069849875797065 0.0006063229434093052 0.004168346615366499 -0.02606225343098261 0.0024103239470099763 0.0022639148667580418
-0.0146290440659478 0.005855218744323243 0.003778168237141714 -0.02749273624032264 0.0035318749742213875 0.0006765965393582884
-0.02084810303736956 0.007518280341963458 0.003913319530612086 -0.026157170879351523 0.0036156912180220434 7.709065403567994e-05
-0.027412787158255257 0.010001168122772288 0.004364146701148307 -0.02648971601996575 0.0032585051805972573 -7.337046612382091e-05
-0.03453142321335768 0.012892177441147254 0.0049194900374348455 -0.02749620135751511 0.002547341982668017 0.00010414470316646606
-0.04179058772955177 0.01590801738365237 0.0054299887722040665 -0.028861207493377675 0.001606682730172247 0.0006771857789613102
-0.05004649888846509 0.01920858751536269 0.005810554060185705 -0.030642471712409504 0.0007484173584555058 0.0018528009145057868
-0.05918892021077984 0.025141359072308366 0.006042611479182466 -0.03310760347514368 0.0006540215722288058 0.003986321889841601
-0.05839955214849626 0.022569871364979975 0.006400383271104814 -0.043926691187873415 0.001370172125208026 0.007768709364543954
-0.05311471009906505 -0.024428930094267387 0.0076580913903095986 5.195905537583079e-05 0.0003011231699941963 0.01166093233505369
-0.05850092923203269 0.022559887062247402 0.0065149233924647835 0.04403551242282864 -0.0007447835014427949 0.007764556877991916
-0.05939566377393276 0.025123716478496823 0.0062704868826604756 0.033231973671911136 3.8551412670931434e-05 0.003973168227659754
-0.05036434193389092 0.019188171521894195 0.006146775555741328 0.030795824108020623 4.774981470610214e-05 0.0018188314171741233
-0.04222191940114878 0.015892831681538454 0.005860180331489384 0.029062829458496527 -0.0006861656453450194 0.0005986917072827865
-0.03506926233961713 0.012895096853121613 0.005410466265694162 0.0277776317364513 -0.0015091396880373858 -6.317490598805651e-05
-0.028028535086229676 0.010047879258660807 0.004850194674625058 0.02690449931594094 -0.0021520247343180024 -0.0004083604982772082
-0.021435789141782128 0.007614791555258837 0.004279618365252666 0.026790517938952065 -0.0025710191886613846 -0.0005433888134073316
-0.014958970459305127 0.005859776107426674 0.0038455828302999323 0.028261006551489214 -0.0028254913139942857 -0.00022316000976014468
-0.007043875733044661 0.0004658289946502357 0.0037013124225910594 0.026402761966046188 -0.002313814864037296 0.0017837747704697272
-0.002478447402534324 -0.010609931813610612 0.004137011662486218 0.017630801503649096 -0.0016088447174500912 0.00878039923885426
-0.006947878172728474 -0.004714087544007438 0.007313918774848804 -0.009587970644207713 0.0028629755424214296 0.004459800799489255
-0.013557133825892735 0.001994656092122796 0.006203543298024795 -0.014912410466797034 0.004611815426446256 0.0009848637290545323
-0.02741604968225279 0.009636746809269268 0.006502880629731141 -0.016214577282361836 0.006498923574180872 0.00013247574821039081
-0.041641660283208565 0.014976503644834225 0.007447196537678063 -0.015207283436404402 0.0063528669664019944 -0.00035024767174373896
-0.055597056181741926 0.020352574986503162 0.008639206095802597 -0.01524757091550168 0.005301696830112575 -0.0006020713388189342
-0.06961760211852935 0.025954264214662202 0.009773441566003797 -0.01585953111170456 0.003597400944528434 -0.0007012880382388765
-0.08383540906532787 0.03175808815626051 0.01064234377748726 -0.016712462880904833 0.0014931621965953775 -0.0006092672922509943
-0.0978215544349793 0.03801586843810185 0.011097156147435129 -0.01744328143199677 -0.0005100348167640539 -0.0001925610861337278
-0.11537653675073509 0.04420620111652215 0.011123522372310353 -0.019392774166655403 -0.0015696792904626028 0.0006976563292679758
-0.1233611070477601 0.058367444616062254 0.010776970565625304 -0.026344624590640013 -0.0004306491647660883 0.0030915359360713427
-0.12062849187191466 -0.019048865083127885 0.012111989623407364 3.246501702104496e-05 0.0003822277947808315 0.007498111401463886
-0.12347549512450724 0.058348520026416564 0.010923727093653041 0.026412527336714755 0.0012222820125669888 0.0030950979621042853
-0.11560843984452167 0.044169690606382 0.011417326056941854 0.01947006191041546 0.002439819666396611 0.0007024485417517036
-0.0981741170574957 0.03796454910808716 0.011535693465098137 0.017537904317728847 0.0014995533443104704 -0.00019244058234993164
-0.08430460411279324 0.03169612662124219 0.011214302351248925 0.016835775881624323 -0.00036574458933165876 -0.0006261041750188826
-0.07017872782203616 0.025887945807430167 0.010447379115013254 0.01602990880555154 -0.002355770734679097 -0.0007595459040302603
-0.05618002906801553 0.020289208257749828 0.009346273318466873 0.01549962086201993 -0.004043532399301308 -0.0007501128947791566
-0.04210658784433666 0.014903787269137365 0.00805945426382685 0.01557579803145883 -0.005291236699419986 -0.0006616434801744439
-0.02760444918635746 0.009504275644647937 0.006820686732183654 0.01659024192070045 -0.005939925062709615 -0.00032713387076280703
-0.013471945437887538 0.001898151734434947 0.005992564715433339 0.014995094923531101 -0.0046446272956202645 0.0007416235131294682
-0.006761852293217736 -0.004277197178842841 0.006470563801950003 0.009418212000294865 -0.0031719590288784316 0.005245920933324145
-0.009249201830136404 -0.002478179463247714 0.008852308665686237 -0.0037374672705377146 0.005516334595313739 0.0022890454525756228
-0.018764311850319043 0.002803487744424871 0.008108142291786831 -0.005970154821421753 0.00760140677864041 0.00010436599000413155
-0.04007906968284327 0.011474531496460967 0.009206950649892872 -0.0061871233656238134 0.00971462689214863 -0.0002778344902265096
-0.06259540226203318 0.01866936450279114 0.010994942399909625 -0.005958390173048869 0.009073741904927348 -0.0006816508492771432
-0.08368156625750606 0.025470788729443795 0.012943767958658224 -0.006041858439715478 0.007169321751010538 -0.0010265284464154268
-0.10449165502147688 0.03243621046857475 0.014652093563612637 -0.00636274517122838 0.0043142237707768415 -0.0013656346741417707
-0.12551718586866178 0.039507707734832996 0.015844613110409182 -0.006682069461354905 0.0008417924676012004 -0.0016691412388276298
-0.14630976173366916 0.04771783341879983 0.01633193720113593 -0.007391661075132375 -0.0025874379694268436 -0.0018937759025157387
-0.16493732480610343 0.052025558925160566 0.015988135277884175 -0.007819089817565041 -0.004811384826061369 -0.0017903101355509206
-0.19046678369413078 0.07862276101587712 0.01473306725227162 -0.0172209302506378 -0.004595018858675534 -0.0011076986139410354
-0.2076085753247908 -0.01625169890790082 0.014169069565894133 1.6884462186271185e-05 0.000467711436213559 0.00525317340497766
-0.19059664172524082 0.07859949960078706 0.014913510445170466 0.017256441026182037 0.0055628683283006795 -0.001099971416050543
-0.16519973401577745 0.051979891490373034 0.016351160288807308 0.007860026373036918 0.005873099214767784 -0.0017754589936220815
-0.1467063786295628 0.047651464028628535 0.01687870257194452 0.007442456153179372 0.0037924054636166637 -0.0018735494450384982
-0.12603977419013107 0.039423073509046086 0.016568321728434466 0.006748564944225443 0.0005293554562689155 -0.001647684393993085
-0.10510208220578277 0.032336030422657064 0.015525555709448025 0.006453219165359958 -0.002806564235089489 -0.0013525598431522567
-0.0842732163251835 0.02535292785742596 0.013899180428725207 0.006170437931727062 -0.005656914870775939 -0.0010436183382398871
-0.06297455594859241 0.018515131394087402 0.011895823684877406 0.006137140277309466 -0.00785838891339559 -0.0007663294219517883
-0.04010145945851827 0.011273641791209963 0.009828916692678364 0.006373275981050878 -0.009238250303370426 -0.0004251374453925602
-0.018553278485127958 0.00270426542820262 0.008178397688134232 0.006039871113669113 -0.007939354486291074 3.435915536675454e-05
-0.008996689422703876 -0.0021955179427805053 0.008271480017440465 0.003685768043873939 -0.00620312350608377 0.002759833085245585
0.0256668937906248 -0.06562198536588512 -2.588532686809142e-18 -0.02971462564914588 -0.01585253335124577 -0.0056077168722509785
0.032537208532697 0.003284534225528912 -0.004072052838405251 -0.013283640916630354 -0.017105129685688905 0.0017576344470636401
0.04759570848184587 -0.014571837936919843 -0.009222770070305362 -0.00474708083043294 -0.01604411184736736 -0.00043913760109942407
0.06639170383812645 -0.01823852889628701 -0.01312040086656798 -0.005159926007036684 -0.014256662284382883 0.0003003578327026771
0.08799673479849605 -0.025066014465834827 -0.01692201436079285 -0.005124596349111838 -0.01088120541356376 3.0824068598191514e-05
0.1098116684395857 -0.03144008088096314 -0.02037461641862655 -0.005255542764661998 -0.006508357414006421 -2.0968451881564726e-05
0.13115946548895424 -0.03790257949300321 -0.023352969989547397 -0.005377177142013645 -0.0010119383887813196 -9.839756347688832e-05
0.1519391874957699 -0.0443142098019339 -0.025638673510021293 -0.005663423409293632 0.0050590561880442956 -7.797278848831781e-06
0.17210646704637905 -0.05088388642077408 -0.026972559482847432 -0.005950710179966691 0.00978279138502563 0.0006385475262443529
0.1896437466544346 -0.05761139661505345 -0.02727081774162022 -0.004791475346192501 0.008938809070117886 0.002452849048506613
0.1972748410811934 -0.061803245485774524 -0.027115437103213666 1.612898245062185e-05 -8.462572263483864e-05 0.004352973918502069
0.1896911710915938 -0.05762307819166476 -0.027295140527072305 0.004823481717102473 -0.009098541900601904 0.0024640147630027353
0.17220831821821447 -0.05090803233983661 -0.027026237714162724 0.005981534530360103 -0.009912547477201323 0.0006604841752637376
0.15211217494035434 -0.0443528173910806 -0.025732985980616508 0.0056906154548412935 -0.005133479253273814 2.2782725994006367e-05
0.13143699219710653 -0.03795998262198229 -0.02350783677251196 0.0053961984549922345 0.0010319630320680718 -6.201716040230763e-05
0.11025531141330079 -0.03152576903858017 -0.020624537919868315 0.005256585230263576 0.0066822331931455144 1.921727508936134e-06
0.08872298301047964 -0.025198768699641567 -0.017318542599187414 0.005104397534879097 0.011341809305394903 6.29908698150676e-05
0.06758116637033415 -0.01845103731823482 -0.013769376192983311 0.0050610394928398555 0.015050239540004617 0.00011649257833973147
0.04978688356458595 -0.014990105003855555 -0.010141623581744056 0.004563590713260333 0.018116803454837318 8.671402440245895e-05
0.03744952514020301 0.002385787258060421 -0.005753158438705006 0.013172255711239136 0.015307303506663778 -0.002073400029699817
0.032582046267664054 -0.06675334431232513 0.0024569171246306074 0.017557718813301874 0.012931817239994817 0.010331066696999087
0.0153645869443221 -0.05777173977462143 0.0030605779345665137 -0.01906867719772426 -0.0026697872240624295 0.0005254748687961188
0.017063890930676815 0.0018629657685992472 -0.002150732636129098 -0.016566177101342786 -0.0057519752619135 0.0015973762020789544
0.0281154388344138 -0.009989276327334757 -0.0058501436012848036 -0.013042969431039027 -0.00978555623061128 -0.00010487660105665791
0.04436412036904704 -0.014669756121428274 -0.008925631089391912 -0.013542986313572312 -0.008205931154101358 0.00014125339452811665
0.05859549727422508 -0.01986739895553089 -0.01161507106185893 -0.013946929879164568 -0.00611488057461484 -2.2203973623223335e-05
0.07313825132826682 -0.024990008404597232 -0.014053020504492846 -0.014023698701990668 -0.0033323614384168196 -2.721958426593732e-05
0.08734102625915761 -0.03010048967166585 -0.016122729623022698 -0.014144390409589596 -6.557823070640415e-06 0.00013383815962919336
0.10103477269332567 -0.03510284009460404 -0.017702672179234817 -0.014521932500053205 0.003565997306561433 0.000768470035116232
0.11402342405066644 -0.04020897465577749 -0.01864375244806116 -0.015055958559157083 0.006332163763762118 0.002608794886441147
0.1250420645897483 -0.04624560271271918 -0.01890360776817653 -0.012353440108381752 0.005835833684764623 0.006624126480050535
0.12978210090213477 -0.051579507787702074 -0.018828620324122882 2.3348094971115195e-05 3.2603682450591955e-05 0.010623162629875064
0.12508856718951997 -0.04625994743755198 -0.018913307601336263 0.012399418825855936 -0.0057557881584599565 0.0066265301295278
0.11412269609434136 -0.040238344720850826 -0.018667936906338268 0.015098858063807995 -0.006207071571261609 0.0026109416123836315
0.10120140231396162 -0.03514885264601248 -0.01775212886307904 0.014556318760695967 -0.0033631769659290176 0.0007635075940315515
0.08760283459847075 -0.030166468706275925 -0.016217220507106857 0.014159210531003249 0.0003245554322111012 0.0001080357730574352
0.07354760734749036 -0.025083604140378024 -0.01422520600074977 0.01399935035768887 0.003819323088160289 -0.00010223873949771653
0.059243082391861865 -0.020004260784486402 -0.011922076394241024 0.013857000191174002 0.006829763535027961 -0.00017891518545016703
0.04544338283533667 -0.014874928051510337 -0.00943919033102097 0.013316972695205898 0.009316429478694217 -0.0002136414763409367
0.029992954022795573 -0.01039674087143764 -0.006728592528227078 0.012465529152262766 0.011183662131710972 -0.0004239710427882144
0.018944614173728384 0.0016295839652008181 -0.003127576257847513 0.015188684242175326 0.006122859639134142 -0.0011629466291194082
0.01673465174174706 -0.05830123014142359 0.00312344577880153 0.011318796972992881 0.001831070006722855 0.010898158484898742
0.008518211608508668 -0.04172795775283113 0.004334386367670365 -0.025167447710707783 0.00042333446345287957 0.010510593122192307
0.007529400104256211 -0.000550321116694017 0.0002325111350996547 -0.02876982908479263 -0.0013148336661231086 0.001579637453887479
0.011852340035343651 -0.0025841693901927846 -0.0024417578352587 -0.023791848625805655 -0.003948711092440815 0.0004816453656076604
0.021394831448710502 -0.007183555148652101 -0.004307521254658818 -0.024467192780671023 -0.0033538057729640925 -6.6819475009026875e-06
0.029237135572041037 -0.00979242920893895 -0.005795404674534974 -0.02473236341905292 -0.0021255880201384043 5.220480170230651e-06
0.03645937885203309 -0.012333554884985812 -0.007066428161870435 -0.024829081671075927 -0.0007171977495309886 0.00015965584245019668
0.04349750428319204 -0.014836844814997951 -0.008113016478460279 -0.024888553411151308 0.0009105860219196329 0.0007026223632160582
0.050026233703069016 -0.01705985821810634 -0.008881068608871943 -0.025158969399312937 0.002759138773720071 0.0020618227102093896
0.056301619328770904 -0.019247963138791367 -0.009315409678533 -0.026033276503106707 0.004784479268683531 0.005254355642729573
0.06308398831705023 -0.024519101120042658 -0.009363757019516557 -0.02251695027686984 0.0053172857836516155 0.011892895372400623
0.06670319377599133 -0.03390706028008346 -0.009194173984344604 3.424734443261584e-05 0.00013658652253888603 0.019570684677518515
0.0631288937425899 -0.024538642791335018 -0.009358399915487516 0.0225841240196665 -0.0050250596366816095 0.011887331226168647
0.05639627893350324 -0.019287440349609105 -0.00930885093651064 0.02609493666363265 -0.004435533532140052 0.005238362434418843
0.05018147321642141 -0.017119948347598384 -0.008882900286872317 0.025205815426215746 -0.0023174082187148695 0.002023569509861497
0.04373367114384986 -0.014918585686525666 -0.00814091783805985 0.02490142989365004 -0.0003425848954822838 0.0006176470702499265
0.036814065731117264 -0.012440607525105929 -0.0071511795896634965 0.02477415827241288 0.0014408199180848888 -1.4439878637751127e-05
0.02978191067830206 -0.009932153866325812 -0.005986788102479356 0.024555659866981567 0.003035145034161762 -0.0003395651374191991
0.02227736309383277 -0.007381164878554275 -0.0046857969934470415 0.02406494914578042 0.004483014003147563 -0.0005795494382349222
0.012978736337028866 -0.002818738739830115 -0.0030954443180589934 0.022850865350264975 0.005091342645833986 -0.0006696891700434224
0.008359751677425234 -1.1273335509093718e-05 -0.0005301444117499314 0.026868210036004675 0.0015481903193292146 0.0004993748199771454
0.00902776798845664 -0.04171913686875831 0.0039049538781663474 0.022987179776336235 -0.0009460946005756407 0.01472889809385952
0.0028873583153671218 -0.026315872985827955 0.0050379640648923266 -0.023796313650034717 0.0013667717366829773 0.011523807014630861
-0.00013596246514785879 -0.0014615764353121345 0.002440186061311607 -0.0316076322266121 0.0013052251327783624 0.002833484460907189
-0.0024266981301811026 0.002223726012801337 0.0009914214757161678 -0.03005361929355005 0.0008165872730109691 0.0007149145426290657
-0.0010041833513728007 0.000422159143135856 0.00043837475741061925 -0.028388073808669947 0.001141531165763644 0.0001768542050990895
-0.00025629809215288083 -4.086688795990213e-05 0.00024035887947323155 -0.028384038357463857 0.001533366420615347 0.00015154864823932655
-0.00020443058034945748 9.908308408558946e-07 0.0001867991301478327 -0.02844709689262033 0.0017401794056767874 0.00044921894192008016
-0.00028498809152552865 -1.5550823684457397e-05 0.00021642629032277377 -0.02851385386960766 0.001882765632876321 0.001169776971937731
-0.0008332453146003458 0.00034621472684406965 0.0003093946425743608 -0.028317370570760524 0.0022487558440150044 0.002712290390983634
-0.0011860267514815493 0.0012484979832179993 0.00042061922022277394 -0.029223431077416505 0.0038106073820928306 0.006023702229753965
0.0022819687504819137 -0.003386266056978966 0.0005857961758089904 -0.028603002269132677 0.005890269325154451 0.013259132758344111
0.005639499912246476 -0.02118733778675729 0.0008965069904010974 3.7239653019453236e-05 0.00023529216182714352 0.02512728716614619
0.0023248943740395225 -0.003410877412378295 0.0006065173306225289 0.028675997540172273 -0.005396766286846891 0.01325125724343646
-0.0010971201226031714 0.0011992860949256046 0.00045871900633970443 0.02929023287689137 -0.003250000433328895 0.006002379380666456
-0.0006919768591660872 0.0002729140976634636 0.0003569603111843614 0.028367507863428305 -0.0015826064440953396 0.0026638656301453123
-8.01744420909288e-05 -0.00011137963068521257 0.00025830989970368105 0.028525544360185392 -0.0010848494199035747 0.0010670896384365352
8.481146604890206e-05 -0.00011532466538069163 0.00019622759111199346 0.02837973379932924 -0.0008051499837946184 0.00024053073939558328
0.00016555474397314562 -0.0001789153904617825 0.00017207735202727023 0.02816880414746762 -0.000483741313250453 -0.00024728665531501795
-0.00041020617842212634 0.00025632735305485563 0.00022136258294528052 0.027905231492462032 -4.4783162656087284e-05 -0.0005450539675821112
-0.0018218292976926735 0.002221674307866761 0.0005612909781478868 0.029085064568422424 3.895974032683367e-05 -0.0004506381867320991
0.0002520469998825119 -0.000887915411949332 0.0018666372094940085 0.030592421276290124 -0.001233682596043917 0.002130460501792981
0.0031362359104376452 -0.026391725272506144 0.004552105379281773 0.023090421433959514 -0.0017889805978781668 0.014045386620112031
-0.0022213316518936606 -0.01365947751495704 0.005684899478830632 -0.018017139222034385 0.002305686699750684 0.009966728043955691
-0.007146936949227273 -0.000548836450255793 0.004463160364969411 -0.026776053794485933 0.003722676356047817 0.0028894285512748607
-0.015761977978207723 0.00595938366111443 0.00434988773033886 -0.02767981530328534 0.005260990020216058 0.0007423198882061027
-0.022787237984718933 0.007643830747238141 0.0051532441504462635 -0.02516283221681767 0.005622183526141341 9.095487104110793e-05
-0.029722427175588238 0.009799820920321035 0.006267580274631242 -0.0246420921560774 0.005232953755664145 -3.283323828203859e-05
-0.03693828371457116 0.012335730868701824 0.007434690025284576 -0.024771315652358558 0.004230133003650902 0.0001635716516604727
-0.044012754317440686 0.014879952644714716 0.008543934682237313 -0.02483049854259905 0.0029146454529893726 0.0007637498932217603
-0.05132808852209107 0.01737363819257979 0.00950689264921028 -0.024608656024753733 0.0016247047086755456 0.0018640989255644341
-0.05874661710387284 0.021504832350324507 0.01015647193844937 -0.024195806561355303 0.002028976994965396 0.004212889901123419
-0.05885848311885965 0.02041770536019322 0.010339596890547318 -0.030589998937570185 0.006268980736330642 0.009691150798877021
-0.05539900543400337 -0.012679633122420101 0.010643699769573998 3.5066234067727595e-05 0.00033610633007781986 0.026280912716338343
-0.058817459353453276 0.020387857109587446 0.010375876563480123 0.03065902270572585 -0.00556964490298921 0.009686764266857805
-0.058663359274891025 0.021445577954874645 0.010226585712266863 0.02425996643490936 -0.001251100385105841 0.004199260084557943
-0.05120074669155976 0.01728665078189905 0.009604728360169451 0.024659117871625343 -0.0007268356078929536 0.001829373014186578
-0.04383970385797097 0.014769595985264526 0.00865713228501714 0.024848241013564806 -0.001876923180971045 0.0006839397606320368
-0.036715890631446715 0.012210207763698086 0.00754041093282906 0.024718678856423495 -0.003072615971011826 -7.028001299597963e-06
-0.029441814857490176 0.0096670168744978 0.00632612616593849 0.024451409384967496 -0.004036286682587921 -0.00037781890968751177
-0.022466005007810187 0.007536970479636272 0.0051034113134112375 0.024723175413991744 -0.004555491427551931 -0.0005541587036910165
-0.015501119046103866 0.006038949635663044 0.0041290872075816325 0.02699985308652377 -0.00462553205836491 -0.00020259436711473643
-0.006988592563636862 -0.00014683032072488204 0.004080293241584503 0.026340038911234324 -0.0037460644488086312 0.0024057209001389765
-0.0020965593317181087 -0.013728046804258431 0.005265170816919521 0.017854334432919002 -0.002653644559760325 0.01163898849086277
-0.006536636137781707 -0.005423856569011233 0.006595107558891676 -0.009422072322004848 0.004132040009128122 0.0064697480453277155
-0.013632170526976701 0.0013489215585434737 0.006388516610635485 -0.014970011280149624 0.006887818280501169 0.001966466875973177
-0.028741474581598474 0.009537964799925105 0.007556849002196154 -0.01596788478847657 0.010171426050020195 0.0006778128910618868
-0.04431473100445982 0.014889243319663457 0.009682949596460835 -0.014315966860050272 0.010556097449180676 0.00010720758944038386
-0.05919172815876707 0.019945280107031747 0.012062829775405832 -0.013848396646150635 0.009314443219437921 -4.9540162562530044e-05
-0.0736935901894716 0.025056368788226136 0.01440077431596011 -0.01395903967170533 0.006970939183281923 -2.786973227709977e-05
-0.08792083214509216 0.03014944098557776 0.01654954513774396 -0.014088722642552391 0.003937067335269738 0.00017539713949580563
-0.10125190553511237 0.035276022527488744 0.018345066923726727 -0.013827174191455675 0.000846258290992834 0.0007101546357233567
-0.11587398177372396 0.03982238866139901 0.019532027540446296 -0.014263557230727485 -0.0018953967984020423 0.0011138372288754454
-0.12188712569182329 0.05051938744677571 0.01935047401443859 -0.019320301812117673 0.003956038429782039 0.0036218430896487117
-0.11955646670601555 -0.005959637721950692 0.01886258469754103 2.431906365640504e-05 0.0004464493068769849 0.019346076586334
-0.1218475105160073 0.05048391754097455 0.01940237398994245 0.01936850639733735 -0.003030717790891233 0.003626112990188782
-0.11579515532744139 0.03975223376259699 0.019634248154371522 0.014309535887705635 0.002914097801573254 0.0011197267377345888
-0.10113599743683926 0.03517380810322239 0.018493192635131054 0.013866076210155525 0.00031307770126719366 0.0007109915772906478
-0.08777433043285925 0.030021942286691975 0.01673367103311769 0.014109413439799639 -0.002620067497407298 0.00015737547829509853
-0.07353118556575891 0.0249170881065318 0.014601292299126207 0.013938906118692288 -0.005537686317948823 -9.252906909892933e-05
-0.059043089538642214 0.019818531672692697 0.012244729875981946 0.013742780422542877 -0.007904957354075532 -0.00021624046726270312
-0.044228436423552925 0.014827712024519912 0.009790868023228254 0.014067444058535397 -0.00944188112292724 -0.00024410883549628865
-0.02874657172659281 0.00963473151379603 0.007523081235330669 0.015633116892113323 -0.009689483944151884 0.00016201677724770515
-0.01365111434672609 0.0015905769600233475 0.006182971600014943 0.014822073261777117 -0.007040733164571483 0.0017141525278287792
-0.006523637554208975 -0.005416778744564625 0.006279639052093331 0.009387941576598616 -0.00452628327876936 0.007426780703337901
-0.008782217954807624 -0.002626082757459817 0.008002334161885092 -0.0036088201190536172 0.007899730334885896 0.00419301184335943
-0.01881351730882001 0.002414402692031849 0.008313204522191253 -0.005858227244494469 0.011864316064810356 0.0013670893484872613
-0.04170595044973733 0.011366238365859965 0.010510849061552675 -0.005753242443925665 0.016511247112848338 0.000735749679824075
-0.0661740740204044 0.01860127038185703 0.013799516578189716 -0.005216737209588308 0.016647540728422606 0.00030478763746380325
-0.08872390204330079 0.0251252595701526 0.017301828619930466 -0.0051005498610748505 0.014313319001637006 0.0001516513388088816
-0.1104420630111465 0.03157043134247066 0.02068689157485764 -0.005219270809582158 0.010304890867338995 4.9178390608244896e-05
-0.13179030701548367 0.03788316481402453 0.023767781108873672 -0.005285755950283629 0.005184468007163759 -2.798464951829949e-05
-0.15211344851749653 0.044725444172444576 0.026316026257745335 -0.0055254036657627036 -0.0004786529645889355 -1.4083139987293805e-05
-0.16887968774400622 0.048093971975386826 0.02798885624244133 -0.005688472763577281 -0.006308941812263343 -0.00010295240787451412
-0.18650595303190584 0.06758922548890739 0.027408673755324162 -0.013789282373874029 -0.009411944606713067 -0.0022299286990755353
-0.19710643665609473 -0.0024763343020383793 0.022886007122914106 1.1674283862650112e-05 0.0005743960571538042 0.020570799424855252
-0.1864671640610405 0.06755083493724837 0.027476049627021378 0.013812660837828183 0.01060037473255946 -0.0022219193209055926
-0.16880359890310287 0.048018107402649106 0.02812273813186149 0.005711576066345534 0.007611612118011061 -8.830960310570726e-05
-0.1520048077009935 0.04461515163222607 0.026513278389547375 0.005546610098643914 0.0019535499776610556 3.717853384677572e-06
-0.13166098742307641 0.037746149923966285 0.024020034967051216 0.005300789697251359 -0.003516356082973203 -1.4171591519960831e-05
-0.11031996999141196 0.031422887162942066 0.020975895080178004 0.005219058934037501 -0.00849636529286298 4.440582910661932e-05
-0.08867026526825264 0.02499975367878663 0.017593362682622054 0.00506591233297363 -0.012553164759244263 9.883343097206689e-05
-0.06628084081206165 0.018557648768199708 0.014037365994124296 0.005122029290712903 -0.015322824192741254 0.00015906202175645188
-0.04198431057373652 0.01146901311264 0.010619833673191987 0.005615001315301534 -0.016116907523279836 0.0005137608772895765
-0.019059618240083932 0.0025949110809571924 0.008247371648604547 0.005788915609582824 -0.012362845881302736 0.0012685556867376609
-0.008929803282339827 -0.002571756658629963 0.007809030989370705 0.003552261061822613 -0.00872023719135349 0.004772019593256538
0.02743938785649159 -0.10197327002688926 1.1492543028346347e-17 -0.05776929361418761 -0.02381634854991927 0.03001141945183828
0.03303795323161254 0.010600322410776247 -0.003822631295363314 -0.02566224726859094 -0.024789996536615577 0.0010206035241706495
0.04603687745445928 -0.014377494478782324 -0.010081936671349021 -0.01209787889374305 -0.024218105355872318 0.008418671866694961
0.06474087437370538 -0.016889721329101475 -0.014174312148373131 -0.012475593034035849 -0.021548827132344652 0.009134578964129513
0.0878814231632983 -0.024293813856012567 -0.01874755075393547 -0.011757905452383125 -0.01925684739066884 0.012545722329010547
0.11134944500109563 -0.030787385914966464 -0.023148711427707164 -0.010668183582411145 -0.015125146361974897 0.01547046475975141
0.13423969807298256 -0.037343975669717124 -0.0272888534144044 -0.008911245497211008 -0.009433728664472549 0.018475769016344897
0.15576378273169608 -0.04363429448691252 -0.03091174853240916 -0.006495799347937373 -0.002299351810142029 0.02142886582889094
0.1738239032840535 -0.04909676241414394 -0.03364709588521078 -0.0033808839982395417 0.004655131721208964 0.024473109496664154
0.18532028573675152 -0.05227391060122758 -0.03515564800051472 -0.0006281866160808185 0.006627630837819955 0.027744035860390735
0.18905507921086273 -0.052454356989180786 -0.035571010487632074 -7.694184822819479e-05 -0.0001593163549622279 0.02997507975032782
0.18546119420869728 -0.0523188028651573 -0.03518884375913717 0.0004703080338190435 -0.006943465244620957 0.027751775268149054
0.17413281575535638 -0.04919493435854467 -0.03371871973882232 0.0032110257199495745 -0.0049617221882386885 0.02448845069247901
0.1562984857391515 -0.04380343769756025 -0.031033426669170583 0.006305694188281931 0.002011989857583294 0.02145220231665321
0.13509638394003448 -0.03761224968646369 -0.027480274279157484 0.008693280106442646 0.00918035685812394 0.018503946550085585
0.11266976292541285 -0.031197679889781334 -0.023445805627587933 0.010411623370325576 0.014938300716963945 0.015514752303338831
0.08986555437869097 -0.02489543176101317 -0.01919415786629564 0.01146384732776446 0.019137335695705724 0.012549963260991295
0.0676576842942522 -0.017753939606199032 -0.01491900072354186 0.012059282857102505 0.02168667907038349 0.009368420680468961
0.05074936365548692 -0.015617811036072174 -0.010974394473038584 0.01159379272479357 0.02383889911248893 0.007642182493358694
0.043180700222981365 0.008877169148334741 -0.00655182757690997 0.02662647778881778 0.03187637539089127 0.005614423427960451
0.04175875124377093 -0.10761310398495519 0.00858917217104099 0.03472457546762456 0.04175331775800274 0.011640145501598989
0.016854545735921746 -0.08852590269316135 0.007123827264817852 -0.03707970050478987 -0.019677441104147805 0.0172517924872589
0.015221201530826213 0.007078923764953964 -0.0024999673752461892 -0.030723753632672934 -0.01647651772046678 0.005174580758748234
0.02430232557670248 -0.008818806281621648 -0.006520033743142018 -0.025562924963766828 -0.014949447173558587 0.009071017184320757
0.042208955454160584 -0.013546456163100119 -0.01008068359454835 -0.025890713963781096 -0.013217866803524407 0.01176307562093188
0.05731366449540142 -0.019113932327630638 -0.013343122955766546 -0.025308328314284874 -0.0114704464078266 0.015606172645282483
0.07295206480021332 -0.024416133863868504 -0.01657512621390319 -0.023246082492358877 -0.00903888765722081 0.019438437817562486
0.0881477789557139 -0.029645967404138898 -0.019567243958932484 -0.020197891001388517 -0.0056558276145573265 0.0232926972025856
0.10243527570776097 -0.03475123250768357 -0.022174807782219585 -0.015751693828911638 -0.0014802079249497534 0.027270619785317387
0.11448109963373018 -0.039173200095904394 -0.02415748763348424 -0.009304477009591179 0.0026323236656352507 0.03179872470541514
0.12224226513935003 -0.041101650650075185 -0.025348238242846217 -0.002448926406243525 0.003925699201854713 0.037478995210537706
0.12481076059940069 -0.03960557175718083 -0.025796692535338374 -0.0001371845918677313 -3.816303748182967e-05 0.041884654616874656
0.12239041262175285 -0.04114835878127922 -0.025375445806788542 0.0021658207693794453 -0.003994426511353708 0.03747980735182113
0.11480218968879254 -0.03927451926884193 -0.0242172394321955 0.008994723259945941 -0.0026780058379410492 0.03179931160044925
0.10298100436028353 -0.03492347490515376 -0.022278645351344144 0.015395924061470292 0.001473246561592685 0.027268779737760245
0.08900082041994244 -0.02991481366750519 -0.01973576542919194 0.019774525547251964 0.005705116590085035 0.02328387930419843
0.07423235328561495 -0.024819627793743564 -0.016839453792027777 0.022731035578893992 0.009156024681557509 0.01941914235692081
0.05917883644888503 -0.01969897428565835 -0.01376392794220744 0.024676461563447587 0.01168507009533311 0.015555950889187741
0.04490378588095511 -0.01435870637296622 -0.010706162583300956 0.025037710140169218 0.013436631611292566 0.011752834520365456
0.02816966879031859 -0.009942241152845019 -0.007623695431072101 0.024246380237855636 0.015567945495875734 0.008717815308583994
0.018712827887631116 0.006631501228315347 -0.003509623345843976 0.028978933816382706 0.018841826054892076 0.007422156593572334
0.019291458383401176 -0.09286973569043472 0.008850987931960966 0.023203389604118677 0.023298947676211365 0.007007082850245339
0.008690907062317538 -0.061597160916875615 0.007789613137743294 -0.04353387551029536 -0.01198209657797265 0.005713780376895953
0.005103665155906781 0.0014771829053119238 0.0003732873252709693 -0.049905459430460375 -0.009377243211670539 0.008041967456304424
0.007551692536632725 -0.00027537713375342965 -0.002815088102536722 -0.04352925300607645 -0.0073895721167409395 0.010356494178614475
0.018461568847547506 -0.006109576746366586 -0.004885558097731581 -0.044270993995962654 -0.00599266316649971 0.015002736337920222
0.02736678326947535 -0.009060688860518152 -0.006680212428610085 -0.04276742243071253 -0.004901147223772187 0.019799871739398248
0.035406713705508026 -0.011830219758565791 -0.008380828341542891 -0.03947638276221018 -0.003709060897937558 0.024839055600031065
0.043327408986865025 -0.014512138429700592 -0.009953525835178828 -0.03458276335895099 -0.002109494143030018 0.02992422354161237
0.05097615753000066 -0.017324854018931333 -0.011312160499160987 -0.02747104964372024 2.051469964595631e-05 0.03528820813137573
0.05750752778431813 -0.019842902082322166 -0.012378912681969792 -0.016498058998749003 0.0027280848881131754 0.04160448449063773
0.0608612373748147 -0.018956549229796973 -0.013165695047941817 -0.0035607769575634204 0.0041699466637867885 0.050228270500297295
0.06145715335233111 -0.012555754804301654 -0.01367611324307832 -0.00021922258328504443 5.865429105624315e-05 0.058347880018570435
0.06101152825094816 -0.019006159773170456 -0.01318619340641918 0.0031077871973922994 -0.004041056590886312 0.05022374488821451
0.05783019037736454 -0.01994910460004429 -0.01242475884592473 0.016000577007619338 -0.0025650300555956594 0.04159407780048556
0.051515765801183104 -0.017501464659780325 -0.011393910637770585 0.02689626837476066 0.000197321336058579 0.035268651547922206
0.04415230047245893 -0.01477985478220726 -0.010088970239186043 0.03389272521665639 0.00239730668895033 0.029890223489628925
0.03661027244265629 -0.012219219539845352 -0.008598990109798758 0.03862638170928099 0.0040726630089578195 0.024778777552026274
0.029065249557108347 -0.009605899372118048 -0.007023832587030659 0.0417016796133075 0.005321984277140074 0.01971152419516805
0.020771806153462198 -0.006836682991311472 -0.0054282340712025175 0.042847201602335135 0.0064264411075518665 0.014826844566826178
0.009953537436210674 -0.0009248046805594297 -0.0036473520066033108 0.04146024865915317 0.007991253864895685 0.01039537481379425
0.006708283921515193 0.002342579296333588 -0.0003543217201601618 0.047147398028735944 0.010268406879871949 0.008165455906486704
0.009739403759238038 -0.06424893642512682 0.008154786967448674 0.04114937067185503 0.013148055991971525 0.005460937423736017
0.002335501726331923 -0.03693631364887766 0.006956695196911477 -0.04025786911424302 -0.005405241583789834 0.0020149308941095835
-0.0026632165364853847 -0.0007830597861673589 0.002705691465866615 -0.05277641053420594 -0.003062471762543882 0.006983976441938495
-0.00668813766884389 0.004670058323752967 0.001001966392401863 -0.05298817248447691 -0.0004830567223493332 0.010708069400528689
-0.004372806882442069 0.0017987358921814547 0.0005711426305235384 -0.05058618924991484 0.0008029376090979538 0.01577590617692047
-0.002536055391155338 0.0007639943785995615 0.0004124186384108381 -0.04850656273119004 0.0011833113447397865 0.021015969662348248
-0.0017113381670268533 0.0005370111747413029 0.0003196037014116596 -0.04474711368001914 0.0012870408942584905 0.026358256638222437
-0.0009467754356119013 0.00031777846771043864 0.0002574738403412645 -0.03928344423846303 0.0013811532754203126 0.03181878026724715
0.00031745304279471643 -0.00022451437195211368 0.0002169167329092907 -0.03160224396309277 0.001740330887642179 0.03750655845630005
0.0017342983851366986 -0.0012745306341738743 0.0001173900746960262 -0.0190350268964427 0.003369121065557567 0.044030158644616374
0.0003980357893201233 0.002317560962742678 -0.0002866124069438925 -0.0011792367131149423 0.005476863139664812 0.05339174876252942
-0.0014895532446140554 0.01786742946020656 -0.00105300154841088 -0.0002461366294082474 0.00014566133585320544 0.06545569913247
0.0005482947338387159 0.0022659956240187362 -0.00030001735408116746 0.0006701876246139556 -0.005170232924342151 0.05338557115347282
0.0020539193164239473 -0.001383820352825461 8.643975244740338e-05 0.018474664906337795 -0.0030178433324484747 0.04401626019005842
0.0008433995780373535 -0.00040314175099170744 0.00015959784965784157 0.030952817795303757 -0.0013197627767918883 0.0374814212144502
-0.00016219756027087808 5.371364987759948e-05 0.00015911475724084134 0.038500616809458384 -0.0008773880053717696 0.0317755218766984
-0.0006051300718587492 0.00016634983013155843 0.00015795598558180962 0.043775318137001175 -0.0007078287594563306 0.02628631861051368
-0.001042743295432853 0.00026250079861982027 0.00015394113468218605 0.04726919428547261 -0.0005745821356434881 0.020896918880222694
-0.0025867521649704213 0.0011906132105770958 0.0001639411186324719 0.04896859466330701 -0.00023641766562009924 0.01561087434498672
-0.005176625235565144 0.004497468937715943 0.00042243755224705484 0.050947088574734706 0.0009510658334725752 0.010617339561635613
-0.0017971015597246344 -4.491578629349871e-05 0.002177267272015793 0.05157431581491734 0.0034552153388647004 0.0071796047792227
0.0029139140565005058 -0.03878062747605222 0.006990024972004421 0.03987344126505023 0.005893422620199746 0.0031581213573059846
-0.003276972356766028 -0.017697030599346363 0.0060821177022659266 -0.030596195279121004 7.935213736707654e-05 0.0015909879974954208
-0.009715612866147149 1.5989697034484763e-05 0.0045561293607459955 -0.044382322562282854 0.002869161683173243 0.005418977338934995
-0.019863295959867 0.008292266607697165 0.004691997704897957 -0.04875694773657145 0.0065090617960165895 0.00989956710885311
-0.026380459801934493 0.009153390545995599 0.005987706901442753 -0.04544155757612523 0.0077210066526275 0.014862497654778824
-0.032395633763452863 0.010711055758488462 0.0075039533740955365 -0.04280751449826017 0.007351562103250792 0.01984604148205532
-0.038861638062344175 0.012922175004796687 0.009017202780688585 -0.03945083573983915 0.0063101018748267755 0.024843379011250097
-0.0452514654097056 0.015084660502710585 0.01046534043389607 -0.034641159399934715 0.004966131380971554 0.029978116258488792
-0.05058419874963988 0.01714549789700426 0.011759461501609048 -0.027798495596295415 0.003368781024712475 0.035134677574782426
-0.05386602399060771 0.01733057035628452 0.012651094348379972 -0.017669158857746305 0.002998630744309727 0.04063801189162665
-0.05986347936023734 0.0211339036938492 0.012529820420716889 0.004542018449918282 0.006129386165033249 0.04825680772685181
-0.0647442929466848 0.05340231490551169 0.010983360176093032 -0.000221548209506824 0.00023459806022486002 0.06399148654146423
-0.059712610070573074 0.02108028364970359 0.012523490678278746 -0.0050004560901031805 -0.005640749407874681 0.048252701444384205
-0.05354822234523419 0.01721797131536856 0.012635081663065744 0.017163890241895036 -0.0024537123815814915 0.04062851809897392
-0.050070216450776396 0.016964360826927 0.011726729728781094 0.027212267495714433 -0.002738074558404919 0.03511675611430699
-0.044506187928102195 0.014823681321095702 0.010404664898209633 0.03393410975579053 -0.004236752449117939 0.029945961925190164
-0.03785552913819622 0.01257118279457086 0.008912676551192227 0.03856985579521354 -0.005502703991369798 0.024786845613472015
-0.031141182793189212 0.010263419085102669 0.0073337938081140695 0.04167903796262412 -0.006542500447864181 0.019751597395109833
-0.025061569255290305 0.008703540287624859 0.005724473363394292 0.043999140457014405 -0.007053241310775328 0.014734431114727642
-0.018897840800933693 0.008251513098528096 0.004329796755840912 0.047358961843136343 -0.00613562564551473 0.009813413929914949
-0.009227896666705928 0.00044460037716182984 0.004213858080770818 0.04405121487460278 -0.002716861500996061 0.005659232614133254
-0.0029611566113692932 -0.018758139320870518 0.006027061737191033 0.03081492279133636 8.592516590932224e-05 0.0026601143043493217
-0.00770255906048091 -0.005801280107490866 0.005836956330450961 -0.01694025158589468 0.004899103643798113 0.0023314590955673346
-0.016011556107431484 0.0021672682861322897 0.006167112710620962 -0.025570714290468505 0.008935171714210077 0.003890129727858087
-0.03256617819880561 0.01151989919513988 0.008089726104109874 -0.0292914818511054 0.01424923557194812 0.007778197955446123
-0.048125790262991984 0.016322534518353953 0.011067585486342775 -0.027238292219130517 0.015390553050752102 0.011736685003932136
-0.06248806392149382 0.020857188085551686 0.014169781592107498 -0.02535591945739159 0.014125343439461802 0.015593149459098933
-0.07646920792367566 0.025563219100613262 0.017196210450216114 -0.023246353261833712 0.011760477078177227 0.01943464408639134
-0.08998943572084013 0.0302178099059293 0.020069242754147686 -0.02025870798455111 0.00867469779589477 0.023319739040575955
-0.1028375380326957 0.034512497183802116 0.022655285793897226 -0.016232058372431094 0.005136733057356363 0.027263235942757435
-0.11109960181000567 0.03872329876448406 0.024560252885346037 -0.009418451428289466 5.350008198560515e-05 0.030554759092735705
-0.12050891945791813 0.03538927561190278 0.024587130568495437 0.004787614503903878 0.002393299050756765 0.03491352854850602
-0.12787897871372272 0.09427574590744761 0.02100292048309688 -0.0001401713784412134 0.00033738728462700044 0.04639953510038209
-0.12035370070590183 0.03533218258786173 0.024587467972793663 -0.005077587306750194 -0.0016938241553514856 0.034914825450839314
-0.11077605279821 0.038604626758964575 0.024558238504427933 0.00909920557657095 0.0007172538575181337 0.03055667581152813
-0.10232393746540211 0.03432487743203407 0.022645362479259364 0.015862683980400943 -0.004258219130616042 0.027264070351589478
-0.08926711019848599 0.02995516918308737 0.02004285273703357 0.01981539278464585 -0.007674655224921221 0.023315925844756714
-0.07554824444580496 0.025227497348006563 0.017142391239964767 0.022698538202507283 -0.010670735617381926 0.01941961400583121
-0.06145978580804278 0.020477399079056588 0.014077207628505806 0.02465952521802872 -0.013060995252067682 0.015558749928457807
-0.047217733964279036 0.01601806257706631 0.010926676040628972 0.02639491787550921 -0.014582622256459385 0.011683886924522739
-0.032044174169137254 0.011529965045618236 0.007898493735317922 0.028611410229384123 -0.013941249005992376 0.0077556123569064985
-0.015835449786968363 0.0023988103177927703 0.005978783245462557 0.025564144011558394 -0.008994893842570828 0.004060586244146063
-0.007622834568169635 -0.006218930994542805 0.005772142218425612 0.01716357084812954 -0.005016975420378825 0.003024637221788152
-0.008728139170761531 -0.001965339839726607 0.006663117484041264 -0.008352666318648037 0.009807919415432204 0.002813893828306723
-0.019812943805586347 0.0033395969143688647 0.007710640901285967 -0.011977811874231402 0.015866651500544695 0.0032535422298204213
-0.04479359870199813 0.013086018005437232 0.010863678152543292 -0.013466494154899778 0.02354326091839303 0.006459501144279716
-0.07051795672794754 0.019951722224714058 0.015162421326206621 -0.012947989036577954 0.02458014655818898 0.009613512785744505
-0.09326706875882323 0.026007580333113192 0.019510420056572667 -0.012040042189201012 0.02215614753497067 0.012604151568829252
-0.11492803067761494 0.03197166824547683 0.023745193095182967 -0.010801947892508178 0.018088096160130525 0.015563331250784539
-0.13601535451034075 0.037978173462698855 0.027783720337524617 -0.009178568268441566 0.012769914575560723 0.01856475056632396
-0.15602383780540244 0.043066507339099586 0.031406064076889374 -0.006727938654781454 0.006455217016162491 0.02130972838510762
-0.17503017250032382 0.050672561935030905 0.034297906380093376 -0.0032923695770211425 -0.002614129669185398 0.02456022454138026
-0.18384920975505653 0.04112957352226376 0.03445949452416905 0.009150095831418889 -0.01898156923712801 0.02205677963555303
-0.18328237372777673 0.11583644400770751 0.025986240129867444 -9.057286673392478e-05 0.00046913447645029974 0.045487397658707455
-0.18368208106833245 0.041070193973293576 0.03446577766379948 -0.009337206271635649 0.019951870671185038 0.02205942650093009
-0.17468561335192345 0.05054977520249057 0.03430810692708662 0.003087507178801666 0.003676853704469454 0.02456476361268336
-0.1554871327406755 0.04287416691504415 0.03141524090852889 0.0064939187200641875 -0.005252853498219754 0.021314443592583252
-0.1352830753643057 0.03771273493960644 0.027784161604316834 0.008905133722224231 -0.011410101216664748 0.018566532206161532
-0.11404775495997359 0.031642192149119466 0.023727216164084512 0.01048153433528372 -0.016612629568091335 0.01555756931699308
-0.09241374512566511 0.025662243519080117 0.019465552979750514 0.011669196505640361 -0.020724092742158085 0.012587719055718658
-0.0700184038417267 0.019720163842926682 0.015086456506282053 0.012553689665506733 -0.02353414916013857 0.0095930020228819
-0.04484120542775246 0.013134779861113171 0.010754521456031414 0.01318283733927125 -0.023287630684596418 0.006472722852744317
-0.020086216401830677 0.0035192630243037755 0.007604626456195902 0.011994855646181985 -0.016247072792072215 0.0033706551472179403
-0.00895458145971309 -0.0021113328451096854 0.006646343421513011 0.008420391629269061 -0.010343534408012556 0.0032763441692758733
SCALARS Stress_vm float 1
LOOKUP_TABLE default
20593.25808218813
9445.357917211459
10215.307650479841
14138.464068441106
18863.47564421345
23631.508103892455
28328.38285207064
32790.039081639654
36575.94684367182
38929.64434494767
39546.37023185403
38959.75482628719
36640.004025457165
32898.852999937335
28501.07656908299
23896.892655730542
19258.396194916444
14717.581238957786
11069.501385057763
11120.613550281158
22252.775446805
17482.824131166115
5499.514817246297
7275.333008008001
10421.214785178572
13581.502717251606
16781.724532523007
19962.768827330066
23026.14578262101
25674.72151704366
27313.113490123877
27619.776530798772
27340.640344831583
25733.29742581336
23124.923811642515
20116.394517008892
17009.896229234524
13906.571407008336
10858.742105434387
7778.25852641428
5813.9584569925655
18185.61455620881
12888.822078031468
6805.506059792446
6707.582356297562
7907.636421955857
9186.420181099444
10557.8908643147
12023.822220915808
13588.083986164158
15072.356077694092
15833.436228213759
15559.5015447764
15851.960702016886
15109.2668687527
13648.090814826302
12113.139514149358
10680.105161722497
9332.912977459477
8022.092704075685
6654.836267033967
6375.54097849417
13226.170074071299
8796.369673335565
7480.139018180679
7817.243440467668
7382.120315573829
7184.179138745768
7020.0739404125
7118.834277411074
7717.298726725843
8986.98502520897
9990.873039652608
9456.361284562692
9977.37283618207
8967.132507071115
7675.743460754836
7037.960200217744
6882.801392257327
6977.618610448235
7085.869947871004
7442.066421595387
7250.1000196203995
9012.851671124557
5469.981336377714
6737.475691750308
8517.864024924223
9079.944273625084
9969.997515439394
11115.748242893895
12337.719357122123
13438.168030841178
14493.858261137277
16313.792303136173
18536.65803292363
16279.219894449434
14422.868079228894
13320.049985962609
12165.473697106441
10879.077497162503
9661.310300916604
8721.71031941396
8230.491054858363
6646.827839621678
5584.881760905626
3328.71011811153
5312.271647208554
8901.170319808027
11811.612976029111
14618.59798382161
17493.18684720508
20351.94705397099
23059.117119598195
25148.194160352003
27160.22339953216
31967.729257692023
27128.346304855557
25080.916595342256
22947.13041541899
20190.483463152093
17280.277946291022
14368.783258783053
11578.302851770433
8772.086968290658
5291.251638371212
3363.130002931499
2873.4688885152314
5118.820432169145
10437.767780505896
15505.711180679622
20013.655601362283
24401.41912198071
28731.40927402012
32835.66378238748
36795.807933319695
38988.59943054912
42560.69185482939
38966.634659796204
36728.95357742881
32724.05024100987
28572.284687445946
24200.623641526454
19804.233861790217
15364.457118078477
10438.814952202501
5185.849351937604
2941.742886739982
13425.978840380487
7930.073854655076
10142.115944898682
14124.814322061602
18582.410635000473
23072.272861119258
27481.481749652736
31767.856141132324
35925.25823491888
39639.51817354134
41459.54020363808
39650.95392637465
35948.96693554193
31807.04737316746
27543.647114654985
23171.94720911395
18747.49369767591
14399.78621219155
10672.34502312296
8591.524772995463
14076.397925911662
11373.084755050797
4318.12588199381
6862.979014014277
10042.192318951511
13141.268534632676
16243.043121803268
19293.300118903175
22232.52330307213
25068.90634349468
27758.977386024213
29367.154348325763
27768.441335212512
25089.205373629276
22266.815723334006
19347.74168031903
16329.108944179452
13278.860578302287
10269.522336055383
7200.624913532978
4566.926558234633
11582.848200935983
8685.10038164621
4010.921135525606
4668.661499065653
6225.285084174844
7796.841379593033
9358.921806684724
10890.704269645337
12309.484383300736
13773.53921853322
15893.964514309804
18062.998477483347
15900.766097703237
13789.407707361868
12336.237291922565
10930.789527979121
9417.289114904292
7882.495206638292
6340.56549388718
4759.763424944697
3795.449047167622
8695.78439328685
6133.588183133635
4457.625670851829
4315.874560110685
4010.657260044922
4111.860275934302
4411.070152715841
4874.238465409981
5380.813407255773
5891.617646892038
7553.03420613336
11854.654952030158
7548.289797364313
5883.8181143267075
5376.004383034755
4867.7959973794605
4394.82199972672
4069.9599505330916
3920.5435682769207
4133.484828833011
4252.97315827682
6160.331759985362
3989.258779064715
4272.636434548058
5627.3148634110985
6605.197991355797
7937.922215193434
9463.541524098158
11019.785009832296
12639.844438273896
14096.964902722217
14197.015476470546
15411.073726038681
14185.614057887273
14083.233772976357
12619.91648474858
10987.84917790491
9413.979904928608
7861.169133263558
6493.335256815855
5502.325665778612
4168.719708001633
4025.7850671767364
2762.299059024926
3987.207177349511
7200.780211870917
10274.989359782174
13313.160340800572
16382.057035508002
19428.816481076716
22372.23053389661
25271.600459237216
26773.596043007547
25256.770407914242
26764.7531349868
25261.18165310295
22353.720674495653
19400.673045895917
16343.157132625649
13265.249524573574
10229.38402265341
7179.317050442775
3968.603005594163
2777.3476274093864
2827.797069430673
4589.957737935897
9341.216534269435
14234.330097066635
18786.1460327891
23233.777681729618
27628.441099919226
31870.634736034146
35339.7028396987
38801.904309295474
38799.9738474373
38802.08661456139
35334.93271873303
31857.575562722788
27607.135358740343
23205.59136841493
18760.15381151552
14233.537817952356
9391.208421860547
4655.664665239873
2884.7651038628665
12467.899682182462
7872.031266762313
9776.604130679105
13591.985593593374
17831.24927779417
22035.560923277597
26216.66391622825
30560.93545953981
35450.94220932065
40642.800495335745
43455.772433892
40632.5524403468
35428.65564550319
30523.394384330586
26158.687515666257
21949.30399905439
17704.999177045178
13413.427054654307
9462.811868163471
7273.289676892124
11451.751705523186
9748.359889974849
4143.690549511185
6801.321066573594
9849.067320076123
12772.394445324207
15676.550361240414
18575.601532072335
21562.044805137255
24928.071680406563
28744.566633323102
31236.90100040375
28732.561797735973
24901.590010958913
21518.386952340657
18511.432590935812
15587.13497856348
12652.405838699591
9690.462676151079
6605.32491873097
4141.224608800166
9254.186495415248
7018.328191416779
3580.273326976666
4702.083830335783
6323.812199773365
7797.557533276494
9238.268899676938
10664.507909433734
12053.916297394835
13865.572303866169
17056.87273584214
20353.627851923113
17048.69930840482
13843.399875202833
12016.162925540317
10612.126335717197
9172.58356700957
7722.179718363029
6257.103689800237
4718.199043348577
3874.3784166042674
6894.189713698078
5066.670073615438
4143.320318806728
4173.997176731263
4107.762388689813
4243.800590642392
4482.430583382208
4838.311680942682
5262.811373641288
5988.169711545402
7795.147076448573
15513.81055745713
7795.362482594647
5999.347500536013
5279.169172000839
4863.379856355184
4522.648647301976
4310.955087177103
4220.476854255509
4366.191453395341
4288.7318467954765
4949.884702656539
3493.237535978662
4110.244020879564
5367.9552184683425
6256.137419288568
7534.672994569098
9028.212812749192
10615.79609925686
12439.556824547242
14333.78814444368
14298.937659199137
17343.75787038602
14323.712480585764
14378.626794699738
12508.476619168066
10709.9999476892
9147.167698068994
7677.031438014106
6410.937082874164
5487.75663063136
4132.576584572306
3363.909991104541
2672.014297187317
3873.5536863305083
6833.047469293277
9629.474612298789
12486.937231043456
15453.169331837671
18486.394383875704
21582.475923304133
25006.29721352714
27193.15295178933
26672.776342136374
27218.394634574233
25057.90189449278
21660.542658812257
18590.52886701355
15577.843543884406
12618.812237267362
9739.00848423793
6880.157851342248
3850.6591404635697
2542.744446042307
2798.244758942544
4385.657819513238
8785.226856370617
13288.55412432647
17559.031989333114
21822.380952702057
26129.317903051662
30459.091836578213
34205.22059648408
39531.023877850195
41859.93505492098
39561.83517092745
34268.37840953709
30553.50821538869
26253.381456879288
21966.877793766886
17701.226602921553
13386.960170202787
8809.305609754447
4371.456721305529
2712.584338659516
12482.406655786046
7866.449116414003
9613.641845172804
13317.842237851193
17485.270056561712
21624.905342450988
25784.3717929242
30227.829542265066
35402.304068680955
41000.20973931708
44048.23081422136
40981.048873360356
35360.85861763691
30158.080715704877
25675.482032012256
21458.01421149279
17230.1677862908
12930.459951217901
8986.0291182715
6830.088646523496
10887.420981090712
9607.841374865317
4095.802626770322
6731.916028571876
9711.025686322992
12586.760481652564
15455.75753936231
18355.984953962445
21429.82953410231
25004.072731092758
29093.465594543322
31760.354260634227
29073.008863580675
24958.880672492844
21354.528541369004
18242.799160076058
15291.895559455887
12353.554090372627
9382.923222844067
6327.982800920752
3909.862055530688
8794.74603761771
6818.900364796536
3366.602176001836
4647.353975574474
6278.748812141695
7742.597332313284
9171.295375316045
10609.770288860525
12067.353993446395
14025.46418524215
17389.47401102783
20829.0696478964
17376.046846189885
13989.338202985937
12005.296680292055
10521.942929467501
9056.927507509301
7602.094414888884
6138.372178017305
4616.104000409171
3752.4344541935648
6455.305281433044
4827.536299479146
3945.3724726288874
4073.305293529349
4107.067026889118
4292.627206234619
4558.898682839963
4950.5678382836395
5459.065947676799
6312.557521907459
7592.558846997682
16307.045781534825
7599.817349317376
6334.181334877391
5488.485366020529
4994.2117019927155
4629.957071200896
4411.209561507955
4301.280609127977
4387.092625062857
4184.843488174943
4517.123855931166
3264.858384136913
3935.524104069274
5182.178861060882
6077.185074692675
7358.070488460963
8857.638523532252
10478.826422575123
12393.91128844674
14452.812750195302
14543.97145121475
17517.55875242854
14580.525268341307
14519.985662611502
12497.817117428865
10624.907488503859
9049.726860339593
7599.31997159543
6352.518051627051
5405.500945382493
4000.2194000318295
2972.7653736735
2504.229226795341
3662.944437169785
6574.838800672787
9338.21820129511
12162.387590502083
15110.655578014435
18168.48447676498
21370.35297510025
25023.373184565313
27436.415580141937
26682.15309717933
27473.564053272323
25098.54953154808
21485.61402200403
18325.860076902463
15304.904568387617
12375.95131820125
9524.661839555662
6661.944239695052
3636.6614540658306
2259.500322032116
2539.085919715382
4047.277683438164
8411.774833011817
12866.365263877262
17071.462491954528
21285.32721336828
25593.54348335339
30043.564532035118
34064.743205371335
39817.188380019536
42050.43780381212
39859.053409149754
34152.36991768945
30177.879716831743
25774.49017126498
21501.669503045454
17289.879267786167
13019.8689458957
8438.500307429418
3989.2178260912956
2340.934721636074
12467.899682205643
7872.0312667817825
9776.604130695307
13591.985593598982
17831.249277799867
22035.560923277106
26216.66391623196
30560.93545954679
35450.94220932425
40642.800495354146
43455.7724339051
40632.55244036325
35428.65564553086
30523.394384335577
26158.687515658854
21949.303999015923
17704.999177026657
13413.427054640466
9462.811868149149
7273.289676877671
11451.751705502804
9748.359889984382
4143.690549518711
6801.321066583185
9849.067320082175
12772.394445329672
15676.550361238294
18575.601532077853
21562.04480514292
24928.071680410092
28744.566633336526
31236.901000412847
28732.561797741935
24901.590010989432
21518.386952345387
18511.432590941145
15587.1349785433
12652.405838686082
9690.462676140227
6605.324918719657
4141.224608792509
9254.18649539759
7018.328191420587
3580.273326975595
4702.083830337193
6323.812199777812
7797.557533275911
9238.268899677296
10664.507909440814
12053.916297397198
13865.572303880595
17056.872735846384
20353.627851923018
17048.699308405976
13843.39987523504
12016.162925543698
10612.126335739398
9172.583567003196
7722.17971835517
6257.103689790385
4718.199043339331
3874.378416595491
6894.189713682273
5066.670073618685
4143.32031880702
4173.997176729143
4107.762388684723
4243.800590638623
4482.4305833906765
4838.311680942469
5262.811373638494
5988.16971156291
7795.147076443846
15513.810557444
7795.362482596277
5999.347500559937
5279.169172002845
4863.379856376067
4522.64864730331
4310.955087174023
4220.4768542459005
4366.191453386937
4288.731846787486
4949.884702643112
3493.2375359812722
4110.2440208813905
5367.955218468708
6256.137419284947
7534.6729945693805
9028.212812747955
10615.796099254501
12439.55682454359
14333.788144444083
14298.937659193003
17343.75787037307
14323.71248058499
14378.626794704644
12508.476619158768
10709.99994769715
9147.16769804201
7677.031438009973
6410.937082865587
5487.756630621246
4132.576584565368
3363.9099910923965
2672.01429718918
3873.553686333009
6833.047469294528
9629.474612298622
12486.937231042359
15453.169331831274
18486.394383877807
21582.475923296523
25006.2972135322
27193.152951787164
26672.776342128265
27218.394634575725
25057.901894491806
21660.542658796305
18590.528867011883
15577.843543853067
12618.812237255202
9739.008484225255
6880.157851331669
3850.65914045705
2542.7444460352376
2798.2447589438552
4385.657819515913
8785.226856372305
13288.554124330909
17559.03198932821
21822.38095269059
26129.31790305557
30459.0918365682
34205.22059649258
39531.0238778502
41859.93505491703
39561.83517093238
34268.37840954195
30553.508215371017
26253.381456870633
21966.877793732874
17701.22660289817
13386.960170185299
8809.305609743376
4371.456721297476
2712.584338650818
13425.978840405114
7930.073854694054
10142.11594492379
14124.8143220805
18582.410635021635
23072.272861141457
27481.481749667026
31767.856141107488
35925.2582349165
39639.51817357093
41459.54020366225
39650.953926388764
35948.966935550445
31807.047373150574
27543.64711463483
23171.947209088135
18747.493697647904
14399.78621215048
10672.34502309704
8591.524772968725
14076.397925860649
11373.084755057827
4318.125882008491
6862.979014031994
10042.192318968313
13141.268534651095
16243.043121818342
19293.300118912884
22232.52330306057
25068.906343500847
27758.97738604986
29367.154348341897
27768.441335227686
25089.205373631892
22266.815723329593
19347.74168030315
16329.108944162486
13278.860578285885
10269.522336023918
7200.624913519962
4566.926558222685
11582.848200893059
8685.10038164906
4010.9211355176963
4668.661499071322
6225.285084187332
7796.841379608633
9358.921806694036
10890.704269649965
12309.484383304527
13773.539218545042
15893.964514343685
18062.998477501307
15900.766097725576
13789.407707354429
12336.237291936133
10930.789527972707
9417.289114898162
7882.495206626243
6340.56549386837
4759.763424939544
3795.4490471582785
8695.784393253172
6133.588183137769
4457.625670846131
4315.874560101349
4010.6572600461323
4111.860275939554
4411.070152708706
4874.238465411334
5380.813407257851
5891.617646877779
7553.034206166987
11854.654952060715
7548.289797375218
5883.818114326988
5376.004383044716
4867.7959973817115
4394.821999725117
4069.9599505308397
3920.543568267624
4133.484828824356
4252.973158266769
6160.331759959685
3989.2587790670846
4272.636434545549
5627.314863407424
6605.197991348466
7937.9222151902
9463.541524086359
11019.785009827041
12639.844438240569
14096.96490271023
14197.015476479753
15411.07372605033
14185.614057897124
14083.233772980424
12619.916484749545
10987.849177893748
9413.97990492432
7861.169133249719
6493.3352567914035
5502.325665766135
4168.7197079910375
4025.7850671565866
2762.2990590293007
3987.2071773506295
7200.780211872261
10274.989359777339
13313.160340798837
16382.057035511243
19428.816481067406
22372.230533864164
25271.60045921552
26773.59604301143
25256.77040791878
26764.75313499206
25261.181653098414
22353.720674488894
19400.673045878782
16343.157132608716
13265.249524542432
10229.38402262502
7179.317050424089
3968.603005583389
2777.3476273978476
2827.79706943547
4589.957737939863
9341.216534277104
14234.33009706359
18786.146032789307
23233.777681745894
27628.44109990579
31870.634736002467
35339.70283966679
38801.9043092986
38799.97384746412
38802.086614564265
35334.932718715165
31857.57556271154
27607.13535871528
23205.59136838045
18760.153811471268
14233.537817917886
9391.208421833311
4655.664665224323
2884.7651038504137
20593.25808220742
9445.357917261477
10215.307650518127
14138.464068477937
18863.47564423417
23631.5081039083
28328.382852073883
32790.03908164119
36575.946843672566
38929.64434496511
39546.37023187318
38959.75482632089
36640.00402545731
32898.8529999414
28501.076569069133
23896.892655694115
19258.396194876725
14717.581238918234
11069.501385020592
11120.613550237194
22252.77544670892
17482.824131176865
5499.514817256629
7275.333008028062
10421.214785202163
13581.502717264768
16781.724532535685
19962.768827337175
23026.14578262236
25674.721517042766
27313.1134901465
27619.776530834235
27340.64034486488
25733.297425811677
23124.92381164626
20116.39451699975
17009.896229208796
13906.571406982417
10858.74210541245
7778.258526389491
5813.958456969092
18185.614556128778
12888.8220780442
6805.5060597837855
6707.582356298586
7907.63642195673
9186.420181101721
10557.890864317475
12023.822220918792
13588.083986155849
15072.356077692666
15833.43622822578
15559.501544834617
15851.960702042448
15109.266868758257
13648.090814829344
12113.139514142411
10680.105161711746
9332.912977449498
8022.09270406144
6654.836267009437
6375.54097846912
13226.170074013953
8796.369673346047
7480.139018180628
7817.243440461311
7382.120315557265
7184.1791387277535
7020.073940399992
7118.8342773955665
7717.29872670719
8986.985025204658
9990.87303963592
9456.361284589697
9977.372836180219
8967.132507066743
7675.743460765804
7037.960200223259
6882.801392265343
6977.618610445448
7085.86994785624
7442.066421566938
7250.100019591565
9012.851671088178
5469.981336386174
6737.475691753117
8517.864024920224
9079.944273615083
9969.997515422929
11115.748242874917
12337.71935710419
13438.16803082928
14493.858261130086
16313.792303110933
18536.65803288975
16279.219894426782
14422.868079223857
13320.049985980804
12165.473697110607
10879.077497155995
9661.310300902454
8721.710319394531
8230.491054827362
6646.8278395963425
5584.881760884976
3328.710118118
5312.271647211886
8901.17031981097
11811.612976031422
14618.59798381385
17493.186847184486
20351.94705395788
23059.117119581075
25148.194160340252
27160.223399518123
31967.729257647003
27128.34630484726
25080.916595347815
22947.130415414034
20190.483463141813
17280.27794627059
14368.783258758236
11578.302851739058
8772.086968263051
5291.25163835202
3363.130002919297
2873.4688885236933
5118.820432175791
10437.767780514636
15505.711180690434
20013.65560136304
24401.419121966028
28731.409274002683
32835.663782355405
36795.80793329225
38988.599430533926
42560.691854800374
38966.634659800635
36728.953577432956
32724.050240986046
28572.284687421892
24200.62364148946
19804.23386175
15364.457118030894
10438.814952170787
5185.849351919804
2941.742886729954
SCALARS Statev float 1
LOOKUP_TABLE default
0.0
0.0
0.0
0.0
0.0
0.0
0.0
0.0
0.0
0.0
0.0
0.0
0.0
0.0
0.0
0.0
0.0
0.0
0.0
0.0
0.0
0.0
0.0
0.0
0.0
0.0
0.0
0.0
0.0
0.0
0.0
0.0
0.0
0.0
0.0
0.0
0.0
0.0
0.0
0.0
0.0
0.0
0.0
0.0
0.0
0.0
0.0
0.0
0.0
0.0
0.0
0.0
0.0
0.0
0.0
0.0
0.0
0.0
0.0
0.0
0.0
0.0
0.0
0.0
0.0
0.0
0.0
0.0
0.0
0.0
0.0
0.0
0.0
0.0
0.0
0.0
0.0
0.0
0.0
0.0
0.0
0.0
0.0
0.0
0.0
0.0
0.0
0.0
0.0
0.0
0.0
0.0
0.0
0.0
0.0
0.0
0.0
0.0
0.0
0.0
0.0
0.0
0.0
0.0
0.0
0.0
0.0
0.0
0.0
0.0
0.0
0.0
0.0
0.0
0.0
0.0
0.0
0.0
0.0
0.0
0.0
0.0
0.0
0.0
0.0
0.0
0.0
0.0
0.0
0.0
0.0
0.0
0.0
0.0
0.0
0.0
0.0
0.0
0.0
0.0
0.0
0.0
0.0
0.0
0.0
0.0
0.0
0.0
0.0
0.0
0.0
0.0
0.0
0.0
0.0
0.0
0.0
0.0
0.0
0.0
0.0
0.0
0.0
0.0
0.0
0.0
0.0
0.0
0.0
0.0
0.0
0.0
0.0
0.0
0.0
0.0
0.0
0.0
0.0
0.0
0.0
0.0
0.0
0.0
0.0
0.0
0.0
0.0
0.0
0.0
0.0
0.0
0.0
0.0
0.0
0.0
0.0
0.0
0.0
0.0
0.0
0.0
0.0
0.0
0.0
0.0
0.0
0.0
0.0
0.0
0.0
0.0
0.0
0.0
0.0
0.0
0.0
0.0
0.0
0.0
0.0
0.0
0.0
0.0
0.0
0.0
0.0
0.0
0.0
0.0
0.0
0.0
0.0
0.0
0.0
0.0
0.0
0.0
0.0
0.0
0.0
0.0
0.0
0.0
0.0
0.0
0.0
0.0
0.0
0.0
0.0
0.0
0.0
0.0
0.0
0.0
0.0
0.0
0.0
0.0
0.0
0.0
0.0
0.0
0.0
0.0
0.0
0.0
0.0
0.0
0.0
0.0
0.0
0.0
0.0
0.0
0.0
0.0
0.0
0.0
0.0
0.0
0.0
0.0
0.0
0.0
0.0
0.0
0.0
0.0
0.0
0.0
0.0
0.0
0.0
0.0
0.0
0.0
0.0
0.0
0.0
0.0
0.0
0.0
0.0
0.0
0.0
0.0
0.0
0.0
0.0
0.0
0.0
0.0
0.0
0.0
0.0
0.0
0.0
0.0
0.0
0.0
0.0
0.0
0.0
0.0
0.0
0.0
0.0
0.0
0.0
0.0
0.0
0.0
0.0
0.0
0.0
0.0
0.0
0.0
0.0
0.0
0.0
0.0
0.0
0.0
0.0
0.0
0.0
0.0
0.0
0.0
0.0
0.0
0.0
0.0
0.0
0.0
0.0
0.0
0.0
0.0
0.0
0.0
0.0
0.0
0.0
0.0
0.0
0.0
0.0
0.0
0.0
0.0
0.0
0.0
0.0
0.0
0.0
0.0
0.0
0.0
0.0
0.0
0.0
0.0
0.0
0.0
0.0
0.0
0.0
0.0
0.0
0.0
0.0
0.0
0.0
0.0
0.0
0.0
0.0
0.0
0.0
0.0
0.0
0.0
0.0
0.0
0.0
0.0
0.0
0.0
0.0
0.0
0.0
0.0
0.0
0.0
0.0
0.0
0.0
0.0
0.0
0.0
0.0
0.0
0.0
0.0
0.0
0.0
0.0
0.0
0.0
0.0
0.0
0.0
0.0
0.0
0.0
0.0
0.0
0.0
0.0
0.0
0.0
0.0
0.0
0.0
0.0
0.0
0.0
0.0
0.0
0.0
0.0
0.0
0.0
0.0
0.0
0.0
0.0
0.0
0.0
0.0
0.0
0.0
0.0
0.0
0.0
0.0
0.0
0.0
0.0
0.0
0.0
0.0
0.0
0.0
0.0
0.0
0.0
0.0
0.0
0.0
0.0
0.0
0.0
0.0
0.0
0.0
0.0
0.0
0.0
0.0
0.0
0.0
0.0
0.0
0.0
0.0
0.0
0.0
0.0
0.0
0.0
0.0
0.0
0.0
0.0
0.0
0.0
0.0
0.0
0.0
0.0
0.0
0.0
0.0
0.0
0.0
0.0
0.0
0.0
0.0
0.0
0.0
0.0
0.0
0.0
0.0
0.0
0.0
0.0
0.0
0.0
0.0
0.0
0.0
0.0
0.0
0.0
0.0
0.0
0.0
0.0
0.0
0.0
0.0
0.0
0.0
0.0
0.0
0.0
0.0
0.0
0.0
0.0
0.0
0.0
0.0
0.0
0.0
0.0
0.0
0.0
0.0
0.0
0.0
0.0
0.0
0.0
0.0
0.0
0.0
0.0
0.0
0.0
0.0
0.0
0.0
0.0
0.0
0.0
0.0
0.0
0.0
0.0
0.0
0.0
0.0
0.0
0.0
0.0
0.0
0.0
0.0
0.0
0.0
0.0
0.0
0.0
0.0
0.0
0.0
0.0
0.0
0.0
0.0
0.0
0.0
0.0
0.0
0.0
0.0
0.0
0.0
0.0
0.0
0.0
0.0
0.0
0.0
0.0
0.0
0.0
0.0
0.0
0.0
0.0
0.0
0.0
0.0
0.0
0.0
0.0
0.0
0.0
0.0
0.0
0.0
0.0
0.0
0.0
0.0
0.0
0.0
0.0
0.0
0.0
0.0
0.0
0.0
0.0
0.0
0.0
0.0
0.0
0.0
0.0
0.0
0.0
0.0
0.0
0.0
0.0
0.0
0.0
0.0
0.0
0.0
0.0
0.0
0.0
0.0
0.0
0.0
0.0
0.0
0.0
0.0
0.0
0.0
0.0
0.0
0.0
0.0
0.0
0.0
0.0
0.0
0.0
0.0
0.0
0.0
0.0
0.0
0.0
0.0
0.0
0.0
0.0
0.0
0.0
0.0
0.0
0.0
0.0
0.0
0.0
0.0
0.0
0.0
0.0
0.0
0.0
0.0
0.0
0.0
0.0
0.0
0.0
0.0
0.0
0.0
0.0
0.0
0.0
0.0
0.0
0.0
0.0
0.0
0.0
0.0
0.0
0.0
0.0
0.0
0.0
0.0
0.0
0.0
0.0
0.0
0.0
0.0
0.0
0.0
0.0
0.0
0.0
0.0
0.0
0.0
0.0
0.0
0.0
0.0
0.0
0.0
0.0
0.0
0.0
0.0
0.0
0.0
0.0
0.0
0.0
0.0
0.0
0.0
0.0
0.0
0.0
0.0
0.0
0.0
0.0
0.0
0.0
0.0
0.0
0.0
0.0
0.0
0.0
0.0
0.0
0.0
0.0
0.0
0.0
0.0
0.0
0.0
0.0
0.0
0.0
0.0
0.0
0.0
0.0
0.0
0.0
0.0
0.0
0.0
0.0
0.0
0.0
0.0
0.0
0.0
0.0
0.0
0.0
0.0
0.0
0.0
0.0
0.0
0.0
0.0
0.0
0.0
0.0
0.0
0.0
0.0
0.0
0.0
0.0
0.0
0.0
0.0
0.0
0.0
0.0
0.0
0.0
0.0
0.0
0.0
0.0
0.0
0.0
0.0
0.0
0.0
0.0
0.0
0.0
0.0
0.0
0.0
0.0
0.0
0.0
0.0
0.0
0.0
0.0
0.0
0.0
0.0
0.0
0.0
0.0
0.0
0.0
0.0
0.0
0.0
0.0
0.0
0.0
0.0
0.0
0.0
0.0
0.0
0.0
0.0
0.0
0.0
0.0
0.0
0.0
0.0
0.0
0.0
0.0
0.0
0.0
0.0
0.0
0.0
0.0
0.0
0.0
0.0
0.0
0.0
0.0
0.0
0.0
0.0
0.0
0.0
0.0
0.0
0.0
0.0
0.0
0.0
0.0
0.0
0.0
0.0
0.0
0.0
0.0
0.0
0.0
0.0
0.0
0.0
0.0
0.0
0.0
0.0
0.0
0.0
0.0
0.0
0.0
0.0
0.0
0.0
0.0
0.0
0.0
0.0
0.0
0.0
0.0
0.0
0.0
0.0
0.0
0.0
0.0
0.0
0.0
0.0
0.0
0.0
0.0
0.0
0.0
0.0
0.0
0.0
0.0
0.0
0.0
0.0
0.0
0.0
0.0
0.0
0.0
0.0
0.0
0.0
0.0
0.0
0.0
0.0
0.0
0.0
0.0
0.0
0.0
0.0
0.0
0.0
0.0
0.0
0.0
0.0
0.0
0.0
0.0
0.0
0.0
0.0
0.0
0.0
0.0
0.0
0.0
0.0
0.0
0.0
0.0
0.0
0.0
0.0
0.0
0.0
0.0
0.0
0.0
0.0
0.0
0.0
0.0
0.0
0.0
0.0
0.0
0.0
0.0
0.0
0.0
0.0
0.0
SCALARS Wm float 4
LOOKUP_TABLE default
2418.740387870625 2418.740387870625 0.0 0.0
437.67525182814535 437.67525182814535 0.0 0.0
521.447481905538 521.447481905538 0.0 0.0
1091.6549403294257 1091.6549403294257 0.0 0.0
1925.7248887621367 1925.7248887621367 0.0 0.0
3034.9528584532504 3034.9528584532504 0.0 0.0
4370.187725349301 4370.187725349301 0.0 0.0
5863.960352679183 5863.960352679183 0.0 0.0
7300.55212274239 7300.55212274239 0.0 0.0
8293.328841089215 8293.328841089215 0.0 0.0
8612.716083309555 8612.716083309555 0.0 0.0
8305.874919191276 8305.874919191276 0.0 0.0
7325.636537385886 7325.636537385886 0.0 0.0
5902.220904097239 5902.220904097239 0.0 0.0
4422.739002026598 4422.739002026598 0.0 0.0
3102.220602320219 3102.220602320219 0.0 0.0
2005.8318585291304 2005.8318585291304 0.0 0.0
1179.437819568489 1179.437819568489 0.0 0.0
620.0523568680496 620.0523568680496 0.0 0.0
690.9327203446128 690.9327203446128 0.0 0.0
2317.27588757738 2317.27588757738 0.0 0.0
1795.6071223667107 1795.6071223667107 0.0 0.0
54.33191598060663 54.33191598060663 0.0 0.0
242.40738367692194 242.40738367692194 0.0 0.0
518.1567032000388 518.1567032000388 0.0 0.0
889.4278784425794 889.4278784425794 0.0 0.0
1371.747529213409 1371.747529213409 0.0 0.0
1955.1812109728005 1955.1812109728005 0.0 0.0
2613.2094657734615 2613.2094657734615 0.0 0.0
3259.2156774731184 3259.2156774731184 0.0 0.0
3717.865073235326 3717.865073235326 0.0 0.0
3867.064214025356 3867.064214025356 0.0 0.0
3726.001540583946 3726.001540583946 0.0 0.0
3275.4259859179897 3275.4259859179897 0.0 0.0
2637.67105677467 2637.67105677467 0.0 0.0
1988.0447820590878 1988.0447820590878 0.0 0.0
1412.6045816213405 1412.6045816213405 0.0 0.0
936.159154832119 936.159154832119 0.0 0.0
567.1699465804156 567.1699465804156 0.0 0.0
277.1975289847922 277.1975289847922 0.0 0.0
62.745023368371896 62.745023368371896 0.0 0.0
1885.9850751639256 1885.9850751639256 0.0 0.0
998.9063451825717 998.9063451825717 0.0 0.0
148.34643656911885 148.34643656911885 0.0 0.0
208.3169437652267 208.3169437652267 0.0 0.0
271.1647289449493 271.1647289449493 0.0 0.0
375.1373429288625 375.1373429288625 0.0 0.0
495.382618304401 495.382618304401 0.0 0.0
642.9074166489974 642.9074166489974 0.0 0.0
825.3424775311557 825.3424775311557 0.0 0.0
1023.7696354126832 1023.7696354126832 0.0 0.0
1155.8476738938014 1155.8476738938014 0.0 0.0
1193.2311805898821 1193.2311805898821 0.0 0.0
1159.1885146468626 1159.1885146468626 0.0 0.0
1030.1243304435548 1030.1243304435548 0.0 0.0
834.5298962417156 834.5298962417156 0.0 0.0
654.5923715474955 654.5923715474955 0.0 0.0
508.7262711512379 508.7262711512379 0.0 0.0
388.5295629044004 388.5295629044004 0.0 0.0
279.0370008353147 279.0370008353147 0.0 0.0
202.67849040877655 202.67849040877655 0.0 0.0
125.53745249615864 125.53745249615864 0.0 0.0
1042.278111646543 1042.278111646543 0.0 0.0
460.7673277164326 460.7673277164326 0.0 0.0
215.2262814738575 215.2262814738575 0.0 0.0
268.3087363725043 268.3087363725043 0.0 0.0
245.64757052684595 245.64757052684595 0.0 0.0
242.46585927831265 242.46585927831265 0.0 0.0
238.85917653727319 238.85917653727319 0.0 0.0
234.63103800275542 234.63103800275542 0.0 0.0
242.59851777268113 242.59851777268113 0.0 0.0
280.40908029731196 280.40908029731196 0.0 0.0
322.16663606650616 322.16663606650616 0.0 0.0
349.5113870012033 349.5113870012033 0.0 0.0
320.98522901108373 320.98522901108373 0.0 0.0
277.5805714461657 277.5805714461657 0.0 0.0
237.90307731840753 237.90307731840753 0.0 0.0
227.7119389759769 227.7119389759769 0.0 0.0
229.22150610381888 229.22150610381888 0.0 0.0
229.08678803639378 229.08678803639378 0.0 0.0
226.73079435820296 226.73079435820296 0.0 0.0
246.6730002879625 246.6730002879625 0.0 0.0
197.384591764009 197.384591764009 0.0 0.0
484.9879953503102 484.9879953503102 0.0 0.0
174.906049636591 174.906049636591 0.0 0.0
197.92437108216993 197.92437108216993 0.0 0.0
317.0508321459742 317.0508321459742 0.0 0.0
373.3972508007875 373.3972508007875 0.0 0.0
450.23092388834 450.23092388834 0.0 0.0
556.7013557522251 556.7013557522251 0.0 0.0
682.7318965831716 682.7318965831716 0.0 0.0
805.470070409533 805.470070409533 0.0 0.0
943.3904825660738 943.3904825660738 0.0 0.0
1159.7391416409089 1159.7391416409089 0.0 0.0
1298.2172735177164 1298.2172735177164 0.0 0.0
1154.4379122795124 1154.4379122795124 0.0 0.0
932.5049070307665 932.5049070307665 0.0 0.0
789.0107049967339 789.0107049967339 0.0 0.0
660.9535978319215 660.9535978319215 0.0 0.0
530.306100217746 530.306100217746 0.0 0.0
420.58277116710747 420.58277116710747 0.0 0.0
344.1501169657639 344.1501169657639 0.0 0.0
296.49955201854675 296.49955201854675 0.0 0.0
189.09768346704104 189.09768346704104 0.0 0.0
184.01726786682795 184.01726786682795 0.0 0.0
61.0288190621502 61.0288190621502 0.0 0.0
151.04244812135374 151.04244812135374 0.0 0.0
375.28841332598665 375.28841332598665 0.0 0.0
671.6482424536852 671.6482424536852 0.0 0.0
1040.671243870101 1040.671243870101 0.0 0.0
1498.1943577184252 1498.1943577184252 0.0 0.0
2033.7773583157195 2033.7773583157195 0.0 0.0
2617.7571986720113 2617.7571986720113 0.0 0.0
3068.1415206913816 3068.1415206913816 0.0 0.0
3742.024856412757 3742.024856412757 0.0 0.0
4070.625103512637 4070.625103512637 0.0 0.0
3732.6267682786684 3732.6267682786684 0.0 0.0
3049.728485787321 3049.728485787321 0.0 0.0
2590.2151606323787 2590.2151606323787 0.0 0.0
1999.1258650095738 1999.1258650095738 0.0 0.0
1459.465779987719 1459.465779987719 0.0 0.0
1003.3502372469882 1003.3502372469882 0.0 0.0
643.7023397406956 643.7023397406956 0.0 0.0
362.387410146394 362.387410146394 0.0 0.0
147.6767525917427 147.6767525917427 0.0 0.0
63.28755066004693 63.28755066004693 0.0 0.0
37.49922870050352 37.49922870050352 0.0 0.0
163.03672620069506 163.03672620069506 0.0 0.0
591.9251650862964 591.9251650862964 0.0 0.0
1293.393541648336 1293.393541648336 0.0 0.0
2166.781150166558 2166.781150166558 0.0 0.0
3230.9419913550655 3230.9419913550655 0.0 0.0
4482.906895393842 4482.906895393842 0.0 0.0
5883.537438323423 5883.537438323423 0.0 0.0
7314.00945786805 7314.00945786805 0.0 0.0
8682.688554117856 8682.688554117856 0.0 0.0
7465.5911954172225 7465.5911954172225 0.0 0.0
8670.56824616905 8670.56824616905 0.0 0.0
7285.298394425008 7285.298394425008 0.0 0.0
5841.428680852552 5841.428680852552 0.0 0.0
4431.4611844355595 4431.4611844355595 0.0 0.0
3176.9170776808915 3176.9170776808915 0.0 0.0
2121.5663658611966 2121.5663658611966 0.0 0.0
1269.68163837552 1269.68163837552 0.0 0.0
589.7294944664358 589.7294944664358 0.0 0.0
166.00399269242203 166.00399269242203 0.0 0.0
39.71558855436564 39.71558855436564 0.0 0.0
900.2610026145463 900.2610026145463 0.0 0.0
371.4481088285363 371.4481088285363 0.0 0.0
551.7218473256391 551.7218473256391 0.0 0.0
1111.6308177128062 1111.6308177128062 0.0 0.0
1905.89407892811 1905.89407892811 0.0 0.0
2942.2383196560572 2942.2383196560572 0.0 0.0
4184.251626816503 4184.251626816503 0.0 0.0
5618.98737262249 5618.98737262249 0.0 0.0
7232.530699749867 7232.530699749867 0.0 0.0
8819.391395405033 8819.391395405033 0.0 0.0
9581.25711865756 9581.25711865756 0.0 0.0
8823.76671528442 8823.76671528442 0.0 0.0
7240.701260954307 7240.701260954307 0.0 0.0
5630.836229057797 5630.836229057797 0.0 0.0
4200.439850266324 4200.439850266324 0.0 0.0
2963.9864612470337 2963.9864612470337 0.0 0.0
1934.9999620156802 1934.9999620156802 0.0 0.0
1148.5775638466014 1148.5775638466014 0.0 0.0
604.002545597144 604.002545597144 0.0 0.0
443.6961601286452 443.6961601286452 0.0 0.0
877.4235092069358 877.4235092069358 0.0 0.0
721.9328523455338 721.9328523455338 0.0 0.0
62.81293747119229 62.81293747119229 0.0 0.0
232.8224053029212 232.8224053029212 0.0 0.0
506.68568036920004 506.68568036920004 0.0 0.0
867.5124682188081 867.5124682188081 0.0 0.0
1330.6212409915545 1330.6212409915545 0.0 0.0
1885.4409147742722 1885.4409147742722 0.0 0.0
2517.138882001844 2517.138882001844 0.0 0.0
3215.121446075264 3215.121446075264 0.0 0.0
3915.3626748987535 3915.3626748987535 0.0 0.0
4285.838797790373 4285.838797790373 0.0 0.0
3918.1890498495873 3918.1890498495873 0.0 0.0
3220.52153142393 3220.52153142393 0.0 0.0
2525.039015520123 2525.039015520123 0.0 0.0
1896.0576071780754 1896.0576071780754 0.0 0.0
1344.4568273832413 1344.4568273832413 0.0 0.0
885.0756073251823 885.0756073251823 0.0 0.0
529.111960625593 529.111960625593 0.0 0.0
254.875052041123 254.875052041123 0.0 0.0
72.20971274226848 72.20971274226848 0.0 0.0
726.4036793417972 726.4036793417972 0.0 0.0
433.7589351035319 433.7589351035319 0.0 0.0
51.00928081836983 51.00928081836983 0.0 0.0
99.61477919839588 99.61477919839588 0.0 0.0
168.02219224420668 168.02219224420668 0.0 0.0
269.7763488014381 269.7763488014381 0.0 0.0
390.92464849305645 390.92464849305645 0.0 0.0
533.5674547508146 533.5674547508146 0.0 0.0
687.5657828776741 687.5657828776741 0.0 0.0
869.3956659590491 869.3956659590491 0.0 0.0
1146.4101330449068 1146.4101330449068 0.0 0.0
1394.9211229102032 1394.9211229102032 0.0 0.0
1147.7443656226744 1147.7443656226744 0.0 0.0
872.0218247021735 872.0218247021735 0.0 0.0
691.3918832126612 691.3918832126612 0.0 0.0
538.4694828710898 538.4694828710898 0.0 0.0
396.7727479247963 396.7727479247963 0.0 0.0
276.5532273289933 276.5532273289933 0.0 0.0
174.87492630066512 174.87492630066512 0.0 0.0
101.60267510119469 101.60267510119469 0.0 0.0
44.655900843637056 44.655900843637056 0.0 0.0
430.03923731907884 430.03923731907884 0.0 0.0
215.680639266759 215.680639266759 0.0 0.0
71.14777919482333 71.14777919482333 0.0 0.0
87.03728838938075 87.03728838938075 0.0 0.0
75.09332459434098 75.09332459434098 0.0 0.0
78.0482751295357 78.0482751295357 0.0 0.0
85.14365518070514 85.14365518070514 0.0 0.0
94.60539547927769 94.60539547927769 0.0 0.0
100.3649735389412 100.3649735389412 0.0 0.0
105.88374667973662 105.88374667973662 0.0 0.0
192.4917472384428 192.4917472384428 0.0 0.0
470.874400588252 470.874400588252 0.0 0.0
192.20995478953833 192.20995478953833 0.0 0.0
105.73274998506068 105.73274998506068 0.0 0.0
100.30960173436776 100.30960173436776 0.0 0.0
94.37520365966323 94.37520365966323 0.0 0.0
84.41044879174612 84.41044879174612 0.0 0.0
76.3865155686286 76.3865155686286 0.0 0.0
71.62585197490307 71.62585197490307 0.0 0.0
81.08112071748455 81.08112071748455 0.0 0.0
63.374979839203995 63.374979839203995 0.0 0.0
217.1186814104986 217.1186814104986 0.0 0.0
89.35967568392462 89.35967568392462 0.0 0.0
76.44023399453395 76.44023399453395 0.0 0.0
136.51119228804714 136.51119228804714 0.0 0.0
192.43512472144138 192.43512472144138 0.0 0.0
278.87625096623765 278.87625096623765 0.0 0.0
399.18352725782734 399.18352725782734 0.0 0.0
545.7475685826098 545.7475685826098 0.0 0.0
726.9790512528992 726.9790512528992 0.0 0.0
898.5354648801306 898.5354648801306 0.0 0.0
948.264599279383 948.264599279383 0.0 0.0
1436.648988270135 1436.648988270135 0.0 0.0
946.2863335949507 946.2863335949507 0.0 0.0
895.7851813732774 895.7851813732774 0.0 0.0
723.4280346166445 723.4280346166445 0.0 0.0
541.2828704650757 541.2828704650757 0.0 0.0
393.77003324524753 393.77003324524753 0.0 0.0
272.49855560340103 272.49855560340103 0.0 0.0
185.53749843258487 185.53749843258487 0.0 0.0
130.63616296144448 130.63616296144448 0.0 0.0
71.89455783951324 71.89455783951324 0.0 0.0
91.2715148678699 91.2715148678699 0.0 0.0
39.36122911819426 39.36122911819426 0.0 0.0
83.2416774719911 83.2416774719911 0.0 0.0
250.35523390506586 250.35523390506586 0.0 0.0
521.3965960856767 521.3965960856767 0.0 0.0
887.2981253713533 887.2981253713533 0.0 0.0
1351.71913691692 1351.71913691692 0.0 0.0
1909.1037580533034 1909.1037580533034 0.0 0.0
2536.24592136331 2536.24592136331 0.0 0.0
3296.9220950348295 3296.9220950348295 0.0 0.0
3501.3805057830177 3501.3805057830177 0.0 0.0
4517.302630543804 4517.302630543804 0.0 0.0
3497.921135042058 3497.921135042058 0.0 0.0
3292.0172290702985 3292.0172290702985 0.0 0.0
2529.499468772236 2529.499468772236 0.0 0.0
1900.9986711138442 1900.9986711138442 0.0 0.0
1343.148659506585 1343.148659506585 0.0 0.0
879.528037709577 879.528037709577 0.0 0.0
516.0995130747792 516.0995130747792 0.0 0.0
248.3270589548623 248.3270589548623 0.0 0.0
82.15987903282631 82.15987903282631 0.0 0.0
40.16201024607358 40.16201024607358 0.0 0.0
36.548301947946975 36.548301947946975 0.0 0.0
129.0813134954378 129.0813134954378 0.0 0.0
486.9189422934751 486.9189422934751 0.0 0.0
1113.518281609311 1113.518281609311 0.0 0.0
1943.0148213827242 1943.0148213827242 0.0 0.0
2977.932930540582 2977.932930540582 0.0 0.0
4225.266879144782 4225.266879144782 0.0 0.0
5615.812339744446 5615.812339744446 0.0 0.0
7007.570589043533 7007.570589043533 0.0 0.0
7951.4532421854465 7951.4532421854465 0.0 0.0
11930.362475065525 11930.362475065525 0.0 0.0
7948.98044470398 7948.98044470398 0.0 0.0
7001.117320438543 7001.117320438543 0.0 0.0
5605.958971120174 5605.958971120174 0.0 0.0
4213.451889387712 4213.451889387712 0.0 0.0
2966.205472076289 2966.205472076289 0.0 0.0
1934.448442917229 1934.448442917229 0.0 0.0
1111.3644567169194 1111.3644567169194 0.0 0.0
490.4851847356096 490.4851847356096 0.0 0.0
132.24131931940653 132.24131931940653 0.0 0.0
38.12193614827422 38.12193614827422 0.0 0.0
638.4096348048854 638.4096348048854 0.0 0.0
415.1054875505228 415.1054875505228 0.0 0.0
528.9126996254539 528.9126996254539 0.0 0.0
1046.29486015198 1046.29486015198 0.0 0.0
1786.0660448356114 1786.0660448356114 0.0 0.0
2740.1774661737227 2740.1774661737227 0.0 0.0
3908.81224225223 3908.81224225223 0.0 0.0
5376.450006717935 5376.450006717935 0.0 0.0
7326.804357388226 7326.804357388226 0.0 0.0
9623.923300497672 9623.923300497672 0.0 0.0
10843.996275324307 10843.996275324307 0.0 0.0
9618.6036619695 9618.6036619695 0.0 0.0
7316.525307863744 7316.525307863744 0.0 0.0
5361.306264308504 5361.306264308504 0.0 0.0
3888.4763651196663 3888.4763651196663 0.0 0.0
2714.4497495130604 2714.4497495130604 0.0 0.0
1755.2965052890866 1755.2965052890866 0.0 0.0
1012.5420829171903 1012.5420829171903 0.0 0.0
488.2566778677023 488.2566778677023 0.0 0.0
323.61653125778804 323.61653125778804 0.0 0.0
629.9817097335379 629.9817097335379 0.0 0.0
540.1885280103147 540.1885280103147 0.0 0.0
69.92885219770601 69.92885219770601 0.0 0.0
233.26523375124165 233.26523375124165 0.0 0.0
495.0143101612662 495.0143101612662 0.0 0.0
831.2735895238262 831.2735895238262 0.0 0.0
1259.8749607636369 1259.8749607636369 0.0 0.0
1782.8274627742692 1782.8274627742692 0.0 0.0
2426.975606345769 2426.975606345769 0.0 0.0
3266.971840443677 3266.971840443677 0.0 0.0
4278.829914746707 4278.829914746707 0.0 0.0
4875.2481676061 4875.2481676061 0.0 0.0
4275.179679202369 4275.179679202369 0.0 0.0
3259.8503089814685 3259.8503089814685 0.0 0.0
2416.6262211385524 2416.6262211385524 0.0 0.0
1769.4170824572495 1769.4170824572495 0.0 0.0
1243.6496751868838 1243.6496751868838 0.0 0.0
812.998773804247 812.998773804247 0.0 0.0
475.2940659174152 475.2940659174152 0.0 0.0
217.10715778128042 217.10715778128042 0.0 0.0
65.39215737911042 65.39215737911042 0.0 0.0
522.5639758463864 522.5639758463864 0.0 0.0
300.00724881913254 300.00724881913254 0.0 0.0
48.550186533175385 48.550186533175385 0.0 0.0
100.64305974066784 100.64305974066784 0.0 0.0
177.85751166281037 177.85751166281037 0.0 0.0
275.5894972304227 275.5894972304227 0.0 0.0
388.126044155025 388.126044155025 0.0 0.0
519.7998333138235 519.7998333138235 0.0 0.0
668.7129093687008 668.7129093687008 0.0 0.0
894.993020700807 894.993020700807 0.0 0.0
1325.0916201428652 1325.0916201428652 0.0 0.0
1744.981662112115 1744.981662112115 0.0 0.0
1323.6526252881988 1323.6526252881988 0.0 0.0
891.9594341630632 891.9594341630632 0.0 0.0
664.2432823759247 664.2432823759247 0.0 0.0
514.1962661972244 514.1962661972244 0.0 0.0
381.86498903851486 381.86498903851486 0.0 0.0
269.24371845096135 269.24371845096135 0.0 0.0
173.06188109478492 173.06188109478492 0.0 0.0
101.66634972222501 101.66634972222501 0.0 0.0
54.8040182094422 54.8040182094422 0.0 0.0
301.368357408432 301.368357408432 0.0 0.0
152.59441630264368 152.59441630264368 0.0 0.0
65.2268843346817 65.2268843346817 0.0 0.0
83.78819867658513 83.78819867658513 0.0 0.0
80.1281365989291 80.1281365989291 0.0 0.0
86.28843637184762 86.28843637184762 0.0 0.0
93.39834805462739 93.39834805462739 0.0 0.0
102.19570907925862 102.19570907925862 0.0 0.0
106.27101435156749 106.27101435156749 0.0 0.0
124.38513075772988 124.38513075772988 0.0 0.0
281.5010436409021 281.5010436409021 0.0 0.0
794.0496963432456 794.0496963432456 0.0 0.0
282.3756689129213 282.3756689129213 0.0 0.0
125.60555470054669 125.60555470054669 0.0 0.0
107.79317944575727 107.79317944575727 0.0 0.0
104.11117813483607 104.11117813483607 0.0 0.0
95.92219089682524 95.92219089682524 0.0 0.0
89.80542901188704 89.80542901188704 0.0 0.0
85.4502197325895 85.4502197325895 0.0 0.0
90.63874455338346 90.63874455338346 0.0 0.0
70.50806157212759 70.50806157212759 0.0 0.0
149.84956380818087 149.84956380818087 0.0 0.0
67.51792353815915 67.51792353815915 0.0 0.0
71.54471129427155 71.54471129427155 0.0 0.0
126.73673254673355 126.73673254673355 0.0 0.0
175.1165304317683 175.1165304317683 0.0 0.0
253.696597765954 253.696597765954 0.0 0.0
366.3713289024206 366.3713289024206 0.0 0.0
510.9362966472893 510.9362966472893 0.0 0.0
711.1212378009823 711.1212378009823 0.0 0.0
925.4630235464551 925.4630235464551 0.0 0.0
996.4355852675588 996.4355852675588 0.0 0.0
1982.8354228639373 1982.8354228639373 0.0 0.0
999.5986201079072 999.5986201079072 0.0 0.0
930.9443946228304 930.9443946228304 0.0 0.0
718.5498165519573 718.5498165519573 0.0 0.0
519.7764292771514 519.7764292771514 0.0 0.0
376.13053052633154 376.13053052633154 0.0 0.0
263.7658885420187 263.7658885420187 0.0 0.0
184.39772052509215 184.39772052509215 0.0 0.0
132.88895406656283 132.88895406656283 0.0 0.0
73.44486270619389 73.44486270619389 0.0 0.0
64.18195709878665 64.18195709878665 0.0 0.0
34.770448272167336 34.770448272167336 0.0 0.0
77.74937076184344 77.74937076184344 0.0 0.0
226.13062257771278 226.13062257771278 0.0 0.0
462.3880435013666 462.3880435013666 0.0 0.0
790.4193983914306 790.4193983914306 0.0 0.0
1221.3904950875028 1221.3904950875028 0.0 0.0
1760.5593431965094 1760.5593431965094 0.0 0.0
2410.3233876411164 2410.3233876411164 0.0 0.0
3321.825675036452 3321.825675036452 0.0 0.0
3585.94107532004 3585.94107532004 0.0 0.0
5770.409478126747 5770.409478126747 0.0 0.0
3591.467640991312 3591.467640991312 0.0 0.0
3332.0546261039517 3332.0546261039517 0.0 0.0
2424.030570760837 2424.030570760837 0.0 0.0
1776.4183346132177 1776.4183346132177 0.0 0.0
1237.449765553877 1237.449765553877 0.0 0.0
804.2554557981229 804.2554557981229 0.0 0.0
471.42135097802213 471.42135097802213 0.0 0.0
229.5088172403149 229.5088172403149 0.0 0.0
77.8293340850997 77.8293340850997 0.0 0.0
31.9830262654177 31.9830262654177 0.0 0.0
34.83473874140767 34.83473874140767 0.0 0.0
117.82600776453845 117.82600776453845 0.0 0.0
434.4125791307939 434.4125791307939 0.0 0.0
986.9814459489721 986.9814459489721 0.0 0.0
1731.632006305127 1731.632006305127 0.0 0.0
2687.386930848896 2687.386930848896 0.0 0.0
3881.864217504467 3881.864217504467 0.0 0.0
5280.196812911121 5280.196812911121 0.0 0.0
6825.029755351619 6825.029755351619 0.0 0.0
8320.658383066395 8320.658383066395 0.0 0.0
15525.807117484588 15525.807117484588 0.0 0.0
8329.166344076684 8329.166344076684 0.0 0.0
6841.376077254685 6841.376077254685 0.0 0.0
5302.029624591982 5302.029624591982 0.0 0.0
3906.5135758338715 3906.5135758338715 0.0 0.0
2711.079021121629 2711.079021121629 0.0 0.0
1749.415217217962 1749.415217217962 0.0 0.0
994.6828317053374 994.6828317053374 0.0 0.0
434.32616443009493 434.32616443009493 0.0 0.0
116.67489848842092 116.67489848842092 0.0 0.0
32.700496822390676 32.700496822390676 0.0 0.0
620.9023113851229 620.9023113851229 0.0 0.0
427.0810250688111 427.0810250688111 0.0 0.0
520.6150199574973 520.6150199574973 0.0 0.0
1018.8132625079895 1018.8132625079895 0.0 0.0
1741.6949273025784 1741.6949273025784 0.0 0.0
2681.042838538279 2681.042838538279 0.0 0.0
3851.6150873108786 3851.6150873108786 0.0 0.0
5372.589347070108 5372.589347070108 0.0 0.0
7471.970675530259 7471.970675530259 0.0 0.0
10002.347609218854 10002.347609218854 0.0 0.0
11355.447779420305 11355.447779420305 0.0 0.0
9992.787135017104 9992.787135017104 0.0 0.0
7453.854609713956 7453.854609713956 0.0 0.0
5346.311864989453 5346.311864989453 0.0 0.0
3816.3877007810415 3816.3877007810415 0.0 0.0
2635.7405698763314 2635.7405698763314 0.0 0.0
1686.046812097516 1686.046812097516 0.0 0.0
955.3864255070985 955.3864255070985 0.0 0.0
449.06434531559535 449.06434531559535 0.0 0.0
289.3272221756456 289.3272221756456 0.0 0.0
579.4515672735653 579.4515672735653 0.0 0.0
512.6660926788236 512.6660926788236 0.0 0.0
70.07994669323683 70.07994669323683 0.0 0.0
231.93731129172977 231.93731129172977 0.0 0.0
486.5128408797001 486.5128408797001 0.0 0.0
815.6861115759043 815.6861115759043 0.0 0.0
1238.8636603627026 1238.8636603627026 0.0 0.0
1764.3406071618545 1764.3406071618545 0.0 0.0
2433.373990911517 2433.373990911517 0.0 0.0
3337.0658481860896 3337.0658481860896 0.0 0.0
4443.700829525451 4443.700829525451 0.0 0.0
5094.797255558753 5094.797255558753 0.0 0.0
4437.302899785055 4437.302899785055 0.0 0.0
3324.77252802431 3324.77252802431 0.0 0.0
2415.664300211373 2415.664300211373 0.0 0.0
1741.2847641241535 1741.2847641241535 0.0 0.0
1210.4003731166845 1210.4003731166845 0.0 0.0
782.395150489802 782.395150489802 0.0 0.0
449.70572960754436 449.70572960754436 0.0 0.0
201.26841759301215 201.26841759301215 0.0 0.0
57.29976699870766 57.29976699870766 0.0 0.0
484.95493105433314 484.95493105433314 0.0 0.0
286.1048911576394 286.1048911576394 0.0 0.0
42.70753395623315 42.70753395623315 0.0 0.0
98.51523924236254 98.51523924236254 0.0 0.0
177.0669645193632 177.0669645193632 0.0 0.0
274.4495763202222 274.4495763202222 0.0 0.0
386.79293885294663 386.79293885294663 0.0 0.0
520.7802112666786 520.7802112666786 0.0 0.0
679.2558048669416 679.2558048669416 0.0 0.0
928.5599787009371 928.5599787009371 0.0 0.0
1393.040246760623 1393.040246760623 0.0 0.0
1834.6198200350543 1834.6198200350543 0.0 0.0
1390.4628824970064 1390.4628824970064 0.0 0.0
923.3267794184388 923.3267794184388 0.0 0.0
671.6450644427016 671.6450644427016 0.0 0.0
511.2096219442475 511.2096219442475 0.0 0.0
375.8665492557034 375.8665492557034 0.0 0.0
262.9009583659119 262.9009583659119 0.0 0.0
167.61225388580849 167.61225388580849 0.0 0.0
97.81809887062136 97.81809887062136 0.0 0.0
50.54332764982728 50.54332764982728 0.0 0.0
275.54048604841705 275.54048604841705 0.0 0.0
141.9170519907584 141.9170519907584 0.0 0.0
58.40141856193406 58.40141856193406 0.0 0.0
79.01958315555278 79.01958315555278 0.0 0.0
78.61168002462597 78.61168002462597 0.0 0.0
87.00399130327772 87.00399130327772 0.0 0.0
95.76399674171361 95.76399674171361 0.0 0.0
106.97202861580656 106.97202861580656 0.0 0.0
116.01783958388836 116.01783958388836 0.0 0.0
144.176159304206 144.176159304206 0.0 0.0
312.78970421171783 312.78970421171783 0.0 0.0
843.4213804305067 843.4213804305067 0.0 0.0
314.1176121986598 314.1176121986598 0.0 0.0
146.09270104115288 146.09270104115288 0.0 0.0
118.39686017561127 118.39686017561127 0.0 0.0
110.04035194403713 110.04035194403713 0.0 0.0
99.98586797140304 99.98586797140304 0.0 0.0
93.02266853591146 93.02266853591146 0.0 0.0
87.50128053276757 87.50128053276757 0.0 0.0
89.90469644868507 89.90469644868507 0.0 0.0
66.76219444105456 66.76219444105456 0.0 0.0
131.3403232672156 131.3403232672156 0.0 0.0
60.003707945933044 60.003707945933044 0.0 0.0
65.07216885847016 65.07216885847016 0.0 0.0
117.87713156938656 117.87713156938656 0.0 0.0
165.73226575491728 165.73226575491728 0.0 0.0
243.56111445533128 243.56111445533128 0.0 0.0
355.5879078402063 355.5879078402063 0.0 0.0
502.3742709302778 502.3742709302778 0.0 0.0
712.5306727361385 712.5306727361385 0.0 0.0
948.0920711131607 948.0920711131607 0.0 0.0
1032.1997439738743 1032.1997439738743 0.0 0.0
2070.0558860045917 2070.0558860045917 0.0 0.0
1037.3292103814322 1037.3292103814322 0.0 0.0
956.919303324107 956.919303324107 0.0 0.0
724.3470272273361 724.3470272273361 0.0 0.0
516.585361096254 516.585361096254 0.0 0.0
371.68226791705223 371.68226791705223 0.0 0.0
260.6807422625267 260.6807422625267 0.0 0.0
181.8480597464053 181.8480597464053 0.0 0.0
128.6687444556455 128.6687444556455 0.0 0.0
68.82718907905208 68.82718907905208 0.0 0.0
52.21880342533472 52.21880342533472 0.0 0.0
30.342591194439414 30.342591194439414 0.0 0.0
69.87669670688246 69.87669670688246 0.0 0.0
210.39364827627477 210.39364827627477 0.0 0.0
438.5566167433928 438.5566167433928 0.0 0.0
757.7052327936551 757.7052327936551 0.0 0.0
1181.5030823076834 1181.5030823076834 0.0 0.0
1722.5167769405275 1722.5167769405275 0.0 0.0
2395.6572215558967 2395.6572215558967 0.0 0.0
3375.474559153277 3375.474559153277 0.0 0.0
3675.897847539327 3675.897847539327 0.0 0.0
5993.722394761822 5993.722394761822 0.0 0.0
3684.720764217705 3684.720764217705 0.0 0.0
3391.460885577965 3391.460885577965 0.0 0.0
2416.954792202743 2416.954792202743 0.0 0.0
1747.4118674369986 1747.4118674369986 0.0 0.0
1207.2112111788413 1207.2112111788413 0.0 0.0
780.5179254279549 780.5179254279549 0.0 0.0
454.0598509140555 454.0598509140555 0.0 0.0
216.49148632393036 216.49148632393036 0.0 0.0
70.35079169013186 70.35079169013186 0.0 0.0
25.18590950979483 25.18590950979483 0.0 0.0
28.606219996510426 28.606219996510426 0.0 0.0
103.8853202340315 103.8853202340315 0.0 0.0
405.1132012200029 405.1132012200029 0.0 0.0
938.960324013471 938.960324013471 0.0 0.0
1662.432146601545 1662.432146601545 0.0 0.0
2600.2527685238615 2600.2527685238615 0.0 0.0
3795.1630324649514 3795.1630324649514 0.0 0.0
5243.785710762169 5243.785710762169 0.0 0.0
6927.326229212122 6927.326229212122 0.0 0.0
8556.460478958566 8556.460478958566 0.0 0.0
16185.710111882929 16185.710111882929 0.0 0.0
8568.977428996319 8568.977428996319 0.0 0.0
6951.7569530433975 6951.7569530433975 0.0 0.0
5276.745065219527 5276.745065219527 0.0 0.0
3832.9154290077595 3832.9154290077595 0.0 0.0
2637.2041121723637 2637.2041121723637 0.0 0.0
1690.7976653726182 1690.7976653726182 0.0 0.0
951.6040869893795 951.6040869893795 0.0 0.0
404.6237051569365 404.6237051569365 0.0 0.0
101.05862079658574 101.05862079658574 0.0 0.0
24.20113392561668 24.20113392561668 0.0 0.0
638.4096348028594 638.4096348028594 0.0 0.0
415.1054875475403 415.1054875475403 0.0 0.0
528.9126996231383 528.9126996231383 0.0 0.0
1046.2948601501655 1046.2948601501655 0.0 0.0
1786.066044835468 1786.066044835468 0.0 0.0
2740.177466172928 2740.177466172928 0.0 0.0
3908.8122422501756 3908.8122422501756 0.0 0.0
5376.450006714729 5376.450006714729 0.0 0.0
7326.804357382572 7326.804357382572 0.0 0.0
9623.92330049382 9623.92330049382 0.0 0.0
10843.996275314628 10843.996275314628 0.0 0.0
9618.603661957115 9618.603661957115 0.0 0.0
7316.525307858069 7316.525307858069 0.0 0.0
5361.306264308133 5361.306264308133 0.0 0.0
3888.4763651241483 3888.4763651241483 0.0 0.0
2714.4497495226383 2714.4497495226383 0.0 0.0
1755.2965052948525 1755.2965052948525 0.0 0.0
1012.5420829199982 1012.5420829199982 0.0 0.0
488.2566778697211 488.2566778697211 0.0 0.0
323.6165312593649 323.6165312593649 0.0 0.0
629.9817097364431 629.9817097364431 0.0 0.0
540.1885280094849 540.1885280094849 0.0 0.0
69.92885219738439 69.92885219738439 0.0 0.0
233.265233750158 233.265233750158 0.0 0.0
495.0143101604977 495.0143101604977 0.0 0.0
831.2735895228698 831.2735895228698 0.0 0.0
1259.8749607630532 1259.8749607630532 0.0 0.0
1782.8274627730216 1782.8274627730216 0.0 0.0
2426.975606344173 2426.975606344173 0.0 0.0
3266.971840440855 3266.971840440855 0.0 0.0
4278.829914741512 4278.829914741512 0.0 0.0
4875.248167601839 4875.248167601839 0.0 0.0
4275.179679197773 4275.179679197773 0.0 0.0
3259.8503089760015 3259.8503089760015 0.0 0.0
2416.626221138472 2416.626221138472 0.0 0.0
1769.4170824574148 1769.4170824574148 0.0 0.0
1243.649675191961 1243.649675191961 0.0 0.0
812.9987738061302 812.9987738061302 0.0 0.0
475.2940659191454 475.2940659191454 0.0 0.0
217.10715778220953 217.10715778220953 0.0 0.0
65.39215737936614 65.39215737936614 0.0 0.0
522.5639758490931 522.5639758490931 0.0 0.0
300.0072488188487 300.0072488188487 0.0 0.0
48.55018653317075 48.55018653317075 0.0 0.0
100.64305974040923 100.64305974040923 0.0 0.0
177.85751166247903 177.85751166247903 0.0 0.0
275.5894972304318 275.5894972304318 0.0 0.0
388.1260441548621 388.1260441548621 0.0 0.0
519.799833312643 519.799833312643 0.0 0.0
668.7129093676443 668.7129093676443 0.0 0.0
894.9930206996628 894.9930206996628 0.0 0.0
1325.0916201417988 1325.0916201417988 0.0 0.0
1744.981662110377 1744.981662110377 0.0 0.0
1323.6526252880426 1323.6526252880426 0.0 0.0
891.9594341587473 891.9594341587473 0.0 0.0
664.2432823766744 664.2432823766744 0.0 0.0
514.1962661952097 514.1962661952097 0.0 0.0
381.8649890400714 381.8649890400714 0.0 0.0
269.24371845198027 269.24371845198027 0.0 0.0
173.0618810953135 173.0618810953135 0.0 0.0
101.66634972294415 101.66634972294415 0.0 0.0
54.804018209722095 54.804018209722095 0.0 0.0
301.3683574101443 301.3683574101443 0.0 0.0
152.59441630236984 152.59441630236984 0.0 0.0
65.22688433466632 65.22688433466632 0.0 0.0
83.78819867660354 83.78819867660354 0.0 0.0
80.12813659914184 80.12813659914184 0.0 0.0
86.28843637218755 86.28843637218755 0.0 0.0
93.39834805430911 93.39834805430911 0.0 0.0
102.19570907885785 102.19570907885785 0.0 0.0
106.27101435204446 106.27101435204446 0.0 0.0
124.385130755739 124.385130755739 0.0 0.0
281.5010436412541 281.5010436412541 0.0 0.0
794.0496963451915 794.0496963451915 0.0 0.0
282.37566891260815 282.37566891260815 0.0 0.0
125.60555469669568 125.60555469669568 0.0 0.0
107.79317944649388 107.79317944649388 0.0 0.0
104.1111781318191 104.1111781318191 0.0 0.0
95.92219089825402 95.92219089825402 0.0 0.0
89.8054290118413 89.8054290118413 0.0 0.0
85.45021973330428 85.45021973330428 0.0 0.0
90.63874455379248 90.63874455379248 0.0 0.0
70.50806157250108 70.50806157250108 0.0 0.0
149.84956380925647 149.84956380925647 0.0 0.0
67.51792353798669 67.51792353798669 0.0 0.0
71.5447112942344 71.5447112942344 0.0 0.0
126.73673254674023 126.73673254674023 0.0 0.0
175.11653043204936 175.11653043204936 0.0 0.0
253.69659776618167 253.69659776618167 0.0 0.0
366.37132890294254 366.37132890294254 0.0 0.0
510.9362966474241 510.9362966474241 0.0 0.0
711.1212378017765 711.1212378017765 0.0 0.0
925.4630235466128 925.4630235466128 0.0 0.0
996.435585267761 996.435585267761 0.0 0.0
1982.835422864943 1982.835422864943 0.0 0.0
999.5986201069571 999.5986201069571 0.0 0.0
930.9443946224612 930.9443946224612 0.0 0.0
718.5498165526692 718.5498165526692 0.0 0.0
519.7764292760536 519.7764292760536 0.0 0.0
376.13053052909066 376.13053052909066 0.0 0.0
263.76588854263684 263.76588854263684 0.0 0.0
184.39772052603337 184.39772052603337 0.0 0.0
132.88895406722142 132.88895406722142 0.0 0.0
73.44486270652185 73.44486270652185 0.0 0.0
64.18195709938676 64.18195709938676 0.0 0.0
34.77044827209949 34.77044827209949 0.0 0.0
77.74937076180429 77.74937076180429 0.0 0.0
226.13062257761436 226.13062257761436 0.0 0.0
462.3880435014602 462.3880435014602 0.0 0.0
790.4193983923299 790.4193983923299 0.0 0.0
1221.390495089427 1221.390495089427 0.0 0.0
1760.5593431963257 1760.5593431963257 0.0 0.0
2410.3233876444624 2410.3233876444624 0.0 0.0
3321.8256750347937 3321.8256750347937 0.0 0.0
3585.941075322214 3585.941075322214 0.0 0.0
5770.409478122285 5770.409478122285 0.0 0.0
3591.467640992016 3591.467640992016 0.0 0.0
3332.0546261007016 3332.0546261007016 0.0 0.0
2424.0305707634293 2424.0305707634293 0.0 0.0
1776.4183346143209 1776.4183346143209 0.0 0.0
1237.4497655586376 1237.4497655586376 0.0 0.0
804.255455800819 804.255455800819 0.0 0.0
471.42135097970936 471.42135097970936 0.0 0.0
229.50881724132807 229.50881724132807 0.0 0.0
77.8293340854688 77.8293340854688 0.0 0.0
31.98302626567301 31.98302626567301 0.0 0.0
34.83473874139612 34.83473874139612 0.0 0.0
117.82600776446876 117.82600776446876 0.0 0.0
434.41257913022525 434.41257913022525 0.0 0.0
986.9814459488374 986.9814459488374 0.0 0.0
1731.6320063068779 1731.6320063068779 0.0 0.0
2687.3869308513317 2687.3869308513317 0.0 0.0
3881.86421750697 3881.86421750697 0.0 0.0
5280.196812913911 5280.196812913911 0.0 0.0
6825.029755348132 6825.029755348132 0.0 0.0
8320.658383066957 8320.658383066957 0.0 0.0
15525.807117473598 15525.807117473598 0.0 0.0
8329.166344074665 8329.166344074665 0.0 0.0
6841.376077248099 6841.376077248099 0.0 0.0
5302.029624593401 5302.029624593401 0.0 0.0
3906.5135758396896 3906.5135758396896 0.0 0.0
2711.0790211309422 2711.0790211309422 0.0 0.0
1749.4152172253641 1749.4152172253641 0.0 0.0
994.6828317092509 994.6828317092509 0.0 0.0
434.32616443174817 434.32616443174817 0.0 0.0
116.67489848897237 116.67489848897237 0.0 0.0
32.70049682265236 32.70049682265236 0.0 0.0
900.2610026157864 900.2610026157864 0.0 0.0
371.4481088224082 371.4481088224082 0.0 0.0
551.7218473219774 551.7218473219774 0.0 0.0
1111.6308177090414 1111.6308177090414 0.0 0.0
1905.8940789229332 1905.8940789229332 0.0 0.0
2942.2383196494297 2942.2383196494297 0.0 0.0
4184.251626812933 4184.251626812933 0.0 0.0
5618.987372627493 5618.987372627493 0.0 0.0
7232.530699750545 7232.530699750545 0.0 0.0
8819.391395387056 8819.391395387056 0.0 0.0
9581.257118643807 9581.257118643807 0.0 0.0
8823.766715268282 8823.766715268282 0.0 0.0
7240.701260948425 7240.701260948425 0.0 0.0
5630.836229059288 5630.836229059288 0.0 0.0
4200.439850275211 4200.439850275211 0.0 0.0
2963.9864612561946 2963.9864612561946 0.0 0.0
1934.9999620266558 1934.9999620266558 0.0 0.0
1148.5775638539628 1148.5775638539628 0.0 0.0
604.0025456016479 604.0025456016479 0.0 0.0
443.696160132401 443.696160132401 0.0 0.0
877.423509215109 877.423509215109 0.0 0.0
721.9328523450527 721.9328523450527 0.0 0.0
62.8129374702941 62.8129374702941 0.0 0.0
232.82240530121464 232.82240530121464 0.0 0.0
506.6856803669098 506.6856803669098 0.0 0.0
867.5124682157441 867.5124682157441 0.0 0.0
1330.621240988249 1330.621240988249 0.0 0.0
1885.4409147710567 1885.4409147710567 0.0 0.0
2517.138882003521 2517.138882003521 0.0 0.0
3215.121446074159 3215.121446074159 0.0 0.0
3915.3626748878405 3915.3626748878405 0.0 0.0
4285.838797783735 4285.838797783735 0.0 0.0
3918.1890498425446 3918.1890498425446 0.0 0.0
3220.521531420292 3220.521531420292 0.0 0.0
2525.039015521883 2525.039015521883 0.0 0.0
1896.0576071817125 1896.0576071817125 0.0 0.0
1344.4568273868865 1344.4568273868865 0.0 0.0
885.0756073292573 885.0756073292573 0.0 0.0
529.1119606291941 529.1119606291941 0.0 0.0
254.87505204280473 254.87505204280473 0.0 0.0
72.20971274263071 72.20971274263071 0.0 0.0
726.4036793488652 726.4036793488652 0.0 0.0
433.7589351032807 433.7589351032807 0.0 0.0
51.00928081862969 51.00928081862969 0.0 0.0
99.61477919823426 99.61477919823426 0.0 0.0
168.02219224335323 168.02219224335323 0.0 0.0
269.7763487997975 269.7763487997975 0.0 0.0
390.9246484916577 390.9246484916577 0.0 0.0
533.5674547499227 533.5674547499227 0.0 0.0
687.5657828787098 687.5657828787098 0.0 0.0
869.395665958036 869.395665958036 0.0 0.0
1146.410133038826 1146.410133038826 0.0 0.0
1394.9211229080145 1394.9211229080145 0.0 0.0
1147.7443656173775 1147.7443656173775 0.0 0.0
872.0218247030175 872.0218247030175 0.0 0.0
691.3918832106041 691.3918832106041 0.0 0.0
538.4694828726457 538.4694828726457 0.0 0.0
396.77274792514226 396.77274792514226 0.0 0.0
276.553227329725 276.553227329725 0.0 0.0
174.87492630227823 174.87492630227823 0.0 0.0
101.60267510147987 101.60267510147987 0.0 0.0
44.65590084397108 44.65590084397108 0.0 0.0
430.03923732345896 430.03923732345896 0.0 0.0
215.68063926633982 215.68063926633982 0.0 0.0
71.147779195216 71.147779195216 0.0 0.0
87.03728838982083 87.03728838982083 0.0 0.0
75.09332459450638 75.09332459450638 0.0 0.0
78.04827512898592 78.04827512898592 0.0 0.0
85.1436551810569 85.1436551810569 0.0 0.0
94.60539547924358 94.60539547924358 0.0 0.0
100.36497353964228 100.36497353964228 0.0 0.0
105.88374668097377 105.88374668097377 0.0 0.0
192.4917472331536 192.4917472331536 0.0 0.0
470.87440058416564 470.87440058416564 0.0 0.0
192.20995478737734 192.20995478737734 0.0 0.0
105.732749985194 105.732749985194 0.0 0.0
100.30960173322124 100.30960173322124 0.0 0.0
94.37520365950955 94.37520365950955 0.0 0.0
84.41044879154146 84.41044879154146 0.0 0.0
76.38651556914657 76.38651556914657 0.0 0.0
71.62585197573785 71.62585197573785 0.0 0.0
81.08112071774518 81.08112071774518 0.0 0.0
63.37497983961276 63.37497983961276 0.0 0.0
217.1186814128809 217.1186814128809 0.0 0.0
89.35967568373404 89.35967568373404 0.0 0.0
76.44023399481796 76.44023399481796 0.0 0.0
136.5111922882611 136.5111922882611 0.0 0.0
192.43512472215286 192.43512472215286 0.0 0.0
278.87625096669234 278.87625096669234 0.0 0.0
399.1835272579005 399.1835272579005 0.0 0.0
545.7475685832165 545.7475685832165 0.0 0.0
726.9790512584401 726.9790512584401 0.0 0.0
898.5354648820013 898.5354648820013 0.0 0.0
948.264599278501 948.264599278501 0.0 0.0
1436.6489882635174 1436.6489882635174 0.0 0.0
946.2863335931585 946.2863335931585 0.0 0.0
895.7851813747102 895.7851813747102 0.0 0.0
723.4280346157449 723.4280346157449 0.0 0.0
541.2828704667685 541.2828704667685 0.0 0.0
393.77003324592954 393.77003324592954 0.0 0.0
272.49855560479523 272.49855560479523 0.0 0.0
185.53749843424038 185.53749843424038 0.0 0.0
130.63616296212462 130.63616296212462 0.0 0.0
71.89455784004731 71.89455784004731 0.0 0.0
91.271514869017 91.271514869017 0.0 0.0
39.361229118048364 39.361229118048364 0.0 0.0
83.24167747194609 83.24167747194609 0.0 0.0
250.35523390514933 250.35523390514933 0.0 0.0
521.3965960860419 521.3965960860419 0.0 0.0
887.2981253721259 887.2981253721259 0.0 0.0
1351.7191369163002 1351.7191369163002 0.0 0.0
1909.1037580572738 1909.1037580572738 0.0 0.0
2536.2459213692496 2536.2459213692496 0.0 0.0
3296.9220950399076 3296.9220950399076 0.0 0.0
3501.3805057834793 3501.3805057834793 0.0 0.0
4517.302630526549 4517.302630526549 0.0 0.0
3497.9211350413216 3497.9211350413216 0.0 0.0
3292.0172290721835 3292.0172290721835 0.0 0.0
2529.499468773913 2529.499468773913 0.0 0.0
1900.9986711189586 1900.9986711189586 0.0 0.0
1343.148659511694 1343.148659511694 0.0 0.0
879.5280377149188 879.5280377149188 0.0 0.0
516.0995130782419 516.0995130782419 0.0 0.0
248.3270589566174 248.3270589566174 0.0 0.0
82.15987903336791 82.15987903336791 0.0 0.0
40.16201024654249 40.16201024654249 0.0 0.0
36.548301947787344 36.548301947787344 0.0 0.0
129.08131349500076 129.08131349500076 0.0 0.0
486.9189422929371 486.9189422929371 0.0 0.0
1113.5182816097033 1113.5182816097033 0.0 0.0
1943.0148213831576 1943.0148213831576 0.0 0.0
2977.9329305392466 2977.9329305392466 0.0 0.0
4225.266879150472 4225.266879150472 0.0 0.0
5615.812339757872 5615.812339757872 0.0 0.0
7007.5705890539175 7007.5705890539175 0.0 0.0
7951.453242185422 7951.453242185422 0.0 0.0
11930.362475007212 11930.362475007212 0.0 0.0
7948.9804447038505 7948.9804447038505 0.0 0.0
7001.117320445199 7001.117320445199 0.0 0.0
5605.958971123239 5605.958971123239 0.0 0.0
4213.451889397903 4213.451889397903 0.0 0.0
2966.2054720886167 2966.2054720886167 0.0 0.0
1934.448442928939 1934.448442928939 0.0 0.0
1111.3644567240726 1111.3644567240726 0.0 0.0
490.4851847388243 490.4851847388243 0.0 0.0
132.24131932052393 132.24131932052393 0.0 0.0
38.12193614875211 38.12193614875211 0.0 0.0
2418.74038788133 2418.74038788133 0.0 0.0
437.67525181769474 437.67525181769474 0.0 0.0
521.4474819000073 521.4474819000073 0.0 0.0
1091.6549403234492 1091.6549403234492 0.0 0.0
1925.7248887550131 1925.7248887550131 0.0 0.0
3034.9528584491864 3034.9528584491864 0.0 0.0
4370.187725349304 4370.187725349304 0.0 0.0
5863.96035268124 5863.96035268124 0.0 0.0
7300.552122738837 7300.552122738837 0.0 0.0
8293.328841078293 8293.328841078293 0.0 0.0
8612.71608328528 8612.71608328528 0.0 0.0
8305.874919173437 8305.874919173437 0.0 0.0
7325.636537379436 7325.636537379436 0.0 0.0
5902.220904100901 5902.220904100901 0.0 0.0
4422.7390020346975 4422.7390020346975 0.0 0.0
3102.220602333017 3102.220602333017 0.0 0.0
2005.8318585408692 2005.8318585408692 0.0 0.0
1179.4378195790887 1179.4378195790887 0.0 0.0
620.0523568737531 620.0523568737531 0.0 0.0
690.9327203517632 690.9327203517632 0.0 0.0
2317.275887605876 2317.275887605876 0.0 0.0
1795.6071223641552 1795.6071223641552 0.0 0.0
54.3319159799737 54.3319159799737 0.0 0.0
242.40738367502328 242.40738367502328 0.0 0.0
518.1567031968251 518.1567031968251 0.0 0.0
889.4278784399565 889.4278784399565 0.0 0.0
1371.7475292101087 1371.7475292101087 0.0 0.0
1955.181210971429 1955.181210971429 0.0 0.0
2613.2094657737102 2613.2094657737102 0.0 0.0
3259.2156774719942 3259.2156774719942 0.0 0.0
3717.8650732269007 3717.8650732269007 0.0 0.0
3867.064214015385 3867.064214015385 0.0 0.0
3726.001540572749 3726.001540572749 0.0 0.0
3275.4259859175777 3275.4259859175777 0.0 0.0
2637.6710567742366 2637.6710567742366 0.0 0.0
1988.044782061294 1988.044782061294 0.0 0.0
1412.6045816266578 1412.6045816266578 0.0 0.0
936.1591548368191 936.1591548368191 0.0 0.0
567.1699465846225 567.1699465846225 0.0 0.0
277.1975289869617 277.1975289869617 0.0 0.0
62.74502336882013 62.74502336882013 0.0 0.0
1885.985075187153 1885.985075187153 0.0 0.0
998.9063451800392 998.9063451800392 0.0 0.0
148.34643656988038 148.34643656988038 0.0 0.0
208.316943765069 208.316943765069 0.0 0.0
271.16472894458946 271.16472894458946 0.0 0.0
375.1373429286784 375.1373429286784 0.0 0.0
495.3826183040538 495.3826183040538 0.0 0.0
642.9074166485698 642.9074166485698 0.0 0.0
825.3424775318475 825.3424775318475 0.0 0.0
1023.7696354125671 1023.7696354125671 0.0 0.0
1155.8476738894112 1155.8476738894112 0.0 0.0
1193.2311805820805 1193.2311805820805 0.0 0.0
1159.188514640868 1159.188514640868 0.0 0.0
1030.1243304426373 1030.1243304426373 0.0 0.0
834.5298962411216 834.5298962411216 0.0 0.0
654.5923715478717 654.5923715478717 0.0 0.0
508.72627115252254 508.72627115252254 0.0 0.0
388.5295629059368 388.5295629059368 0.0 0.0
279.0370008371109 279.0370008371109 0.0 0.0
202.67849041087942 202.67849041087942 0.0 0.0
125.53745249745151 125.53745249745151 0.0 0.0
1042.2781116587792 1042.2781116587792 0.0 0.0
460.76732771472 460.76732771472 0.0 0.0
215.22628147415827 215.22628147415827 0.0 0.0
268.30873637307 268.30873637307 0.0 0.0
245.64757052786757 245.64757052786757 0.0 0.0
242.46585927969008 242.46585927969008 0.0 0.0
238.85917653855842 238.85917653855842 0.0 0.0
234.63103800490907 234.63103800490907 0.0 0.0
242.59851777462845 242.59851777462845 0.0 0.0
280.4090802975582 280.4090802975582 0.0 0.0
322.1666360691372 322.1666360691372 0.0 0.0
349.5113870000617 349.5113870000617 0.0 0.0
320.98522901139347 320.98522901139347 0.0 0.0
277.5805714459943 277.5805714459943 0.0 0.0
237.90307731652732 237.90307731652732 0.0 0.0
227.71193897515047 227.71193897515047 0.0 0.0
229.22150610385074 229.22150610385074 0.0 0.0
229.08678803681167 229.08678803681167 0.0 0.0
226.73079436022232 226.73079436022232 0.0 0.0
246.6730002904945 246.6730002904945 0.0 0.0
197.38459176616928 197.38459176616928 0.0 0.0
484.98799535593776 484.98799535593776 0.0 0.0
174.90604963584582 174.90604963584582 0.0 0.0
197.92437108210115 197.92437108210115 0.0 0.0
317.05083214649636 317.05083214649636 0.0 0.0
373.397250801789 373.397250801789 0.0 0.0
450.2309238900482 450.2309238900482 0.0 0.0
556.7013557554312 556.7013557554312 0.0 0.0
682.731896585915 682.731896585915 0.0 0.0
805.4700704120796 805.4700704120796 0.0 0.0
943.390482567826 943.390482567826 0.0 0.0
1159.739141644423 1159.739141644423 0.0 0.0
1298.2172735243837 1298.2172735243837 0.0 0.0
1154.437912283384 1154.437912283384 0.0 0.0
932.504907029654 932.504907029654 0.0 0.0
789.0107049967539 789.0107049967539 0.0 0.0
660.9535978311387 660.9535978311387 0.0 0.0
530.3061002196805 530.3061002196805 0.0 0.0
420.5827711688144 420.5827711688144 0.0 0.0
344.1501169685431 344.1501169685431 0.0 0.0
296.4995520217177 296.4995520217177 0.0 0.0
189.09768346896928 189.09768346896928 0.0 0.0
184.01726786894082 184.01726786894082 0.0 0.0
61.02881906183767 61.02881906183767 0.0 0.0
151.0424481212469 151.0424481212469 0.0 0.0
375.2884133257869 375.2884133257869 0.0 0.0
671.6482424533358 671.6482424533358 0.0 0.0
1040.671243871417 1040.671243871417 0.0 0.0
1498.194357722004 1498.194357722004 0.0 0.0
2033.7773583198173 2033.7773583198173 0.0 0.0
2617.7571986795638 2617.7571986795638 0.0 0.0
3068.141520695796 3068.141520695796 0.0 0.0
3742.0248564187623 3742.0248564187623 0.0 0.0
4070.625103526609 4070.625103526609 0.0 0.0
3732.626768282532 3732.626768282532 0.0 0.0
3049.7284857845398 3049.7284857845398 0.0 0.0
2590.215160637457 2590.215160637457 0.0 0.0
1999.1258650131817 1999.1258650131817 0.0 0.0
1459.4657799945542 1459.4657799945542 0.0 0.0
1003.3502372518105 1003.3502372518105 0.0 0.0
643.702339746208 643.702339746208 0.0 0.0
362.38741014949903 362.38741014949903 0.0 0.0
147.67675259320893 147.67675259320893 0.0 0.0
63.287550660728314 63.287550660728314 0.0 0.0
37.49922870020214 37.49922870020214 0.0 0.0
163.03672620018372 163.03672620018372 0.0 0.0
591.925165084706 591.925165084706 0.0 0.0
1293.3935416464897 1293.3935416464897 0.0 0.0
2166.7811501677934 2166.7811501677934 0.0 0.0
3230.9419913569777 3230.9419913569777 0.0 0.0
4482.906895402442 4482.906895402442 0.0 0.0
5883.5374383381395 5883.5374383381395 0.0 0.0
7314.009457880788 7314.009457880788 0.0 0.0
8682.688554129565 8682.688554129565 0.0 0.0
7465.591195418675 7465.591195418675 0.0 0.0
8670.568246170838 8670.568246170838 0.0 0.0
7285.2983944295065 7285.2983944295065 0.0 0.0
5841.4286808643865 5841.4286808643865 0.0 0.0
4431.461184446049 4431.461184446049 0.0 0.0
3176.9170776968194 3176.9170776968194 0.0 0.0
2121.5663658735675 2121.5663658735675 0.0 0.0
1269.6816383859752 1269.6816383859752 0.0 0.0
589.7294944719542 589.7294944719542 0.0 0.0
166.00399269394745 166.00399269394745 0.0 0.0
39.71558855477193 39.71558855477193 0.0 0.0