# vtk DataFile Version 3.0
Some data
ASCII
DATASET UNSTRUCTURED_GRID
POINTS 1029 float
0.0 0.0 0.0
0.8 0.0 0.0
1.6 0.0 0.0
2.4000000000000004 0.0 0.0
3.2 0.0 0.0
4.0 0.0 0.0
4.800000000000001 0.0 0.0
5.6000000000000005 0.0 0.0
6.4 0.0 0.0
7.2 0.0 0.0
8.0 0.0 0.0
8.8 0.0 0.0
9.600000000000001 0.0 0.0
10.4 0.0 0.0
11.200000000000001 0.0 0.0
12.0 0.0 0.0
12.8 0.0 0.0
13.600000000000001 0.0 0.0
14.4 0.0 0.0
15.200000000000001 0.0 0.0
16.0 0.0 0.0
0.0 0.3333333333333333 0.0
0.8 0.3333333333333333 0.0
1.6 0.3333333333333333 0.0
2.4000000000000004 0.3333333333333333 0.0
3.2 0.3333333333333333 0.0
4.0 0.3333333333333333 0.0
4.800000000000001 0.3333333333333333 0.0
5.6000000000000005 0.3333333333333333 0.0
6.4 0.3333333333333333 0.0
7.2 0.3333333333333333 0.0
8.0 0.3333333333333333 0.0
8.8 0.3333333333333333 0.0
9.600000000000001 0.3333333333333333 0.0
10.4 0.3333333333333333 0.0
11.200000000000001 0.3333333333333333 0.0
12.0 0.3333333333333333 0.0
12.8 0.3333333333333333 0.0
13.600000000000001 0.3333333333333333 0.0
14.4 0.3333333333333333 0.0
15.200000000000001 0.3333333333333333 0.0
16.0 0.3333333333333333 0.0
0.0 0.6666666666666666 0.0
0.8 0.6666666666666666 0.0
1.6 0.6666666666666666 0.0
2.4000000000000004 0.6666666666666666 0.0
3.2 0.6666666666666666 0.0
4.0 0.6666666666666666 0.0
4.800000000000001 0.6666666666666666 0.0
5.6000000000000005 0.6666666666666666 0.0
6.4 0.6666666666666666 0.0
7.2 0.6666666666666666 0.0
8.0 0.6666666666666666 0.0
8.8 0.6666666666666666 0.0
9.600000000000001 0.6666666666666666 0.0
10.4 0.6666666666666666 0.0
11.200000000000001 0.6666666666666666 0.0
12.0 0.6666666666666666 0.0
12.8 0.6666666666666666 0.0
13.600000000000001 0.6666666666666666 0.0
14.4 0.6666666666666666 0.0
15.200000000000001 0.6666666666666666 0.0
16.0 0.6666666666666666 0.0
0.0 1.0 0.0
0.8 1.0 0.0
1.6 1.0 0.0
2.4000000000000004 1.0 0.0
3.2 1.0 0.0
4.0 1.0 0.0
4.800000000000001 1.0 0.0
5.6000000000000005 1.0 0.0
6.4 1.0 0.0
7.2 1.0 0.0
8.0 1.0 0.0
8.8 1.0 0.0
9.600000000000001 1.0 0.0
10.4 1.0 0.0
11.200000000000001 1.0 0.0
12.0 1.0 0.0
12.8 1.0 0.0
13.600000000000001 1.0 0.0
14.4 1.0 0.0
15.200000000000001 1.0 0.0
16.0 1.0 0.0
0.0 1.3333333333333333 0.0
0.8 1.3333333333333333 0.0
1.6 1.3333333333333333 0.0
2.4000000000000004 1.3333333333333333 0.0
3.2 1.3333333333333333 0.0
4.0 1.3333333333333333 0.0
4.800000000000001 1.3333333333333333 0.0
5.6000000000000005 1.3333333333333333 0.0
6.4 1.3333333333333333 0.0
7.2 1.3333333333333333 0.0
8.0 1.3333333333333333 0.0
8.8 1.3333333333333333 0.0
9.600000000000001 1.3333333333333333 0.0
10.4 1.3333333333333333 0.0
11.200000000000001 1.3333333333333333 0.0
12.0 1.3333333333333333 0.0
12.8 1.3333333333333333 0.0
13.600000000000001 1.3333333333333333 0.0
14.4 1.3333333333333333 0.0
15.200000000000001 1.3333333333333333 0.0
16.0 1.3333333333333333 0.0
0.0 1.6666666666666665 0.0
0.8 1.6666666666666665 0.0
1.6 1.6666666666666665 0.0
2.4000000000000004 1.6666666666666665 0.0
3.2 1.6666666666666665 0.0
4.0 1.6666666666666665 0.0
4.800000000000001 1.6666666666666665 0.0
5.6000000000000005 1.6666666666666665 0.0
6.4 1.6666666666666665 0.0
7.2 1.6666666666666665 0.0
8.0 1.6666666666666665 0.0
8.8 1.6666666666666665 0.0
9.600000000000001 1.6666666666666665 0.0
10.4 1.6666666666666665 0.0
11.200000000000001 1.6666666666666665 0.0
12.0 1.6666666666666665 0.0
12.8 1.6666666666666665 0.0
13.600000000000001 1.6666666666666665 0.0
14.4 1.6666666666666665 0.0
15.200000000000001 1.6666666666666665 0.0
16.0 1.6666666666666665 0.0
0.0 2.0 0.0
0.8 2.0 0.0
1.6 2.0 0.0
2.4000000000000004 2.0 0.0
3.2 2.0 0.0
4.0 2.0 0.0
4.800000000000001 2.0 0.0
5.6000000000000005 2.0 0.0
6.4 2.0 0.0
7.2 2.0 0.0
8.0 2.0 0.0
8.8 2.0 0.0
9.600000000000001 2.0 0.0
10.4 2.0 0.0
11.200000000000001 2.0 0.0
12.0 2.0 0.0
12.8 2.0 0.0
13.600000000000001 2.0 0.0
14.4 2.0 0.0
15.200000000000001 2.0 0.0
16.0 2.0 0.0
0.0 0.0 1.6666666666666667
0.8 0.0 1.6666666666666667
1.6 0.0 1.6666666666666667
2.4000000000000004 0.0 1.6666666666666667
3.2 0.0 1.6666666666666667
4.0 0.0 1.6666666666666667
4.800000000000001 0.0 1.6666666666666667
5.6000000000000005 0.0 1.6666666666666667
6.4 0.0 1.6666666666666667
7.2 0.0 1.6666666666666667
8.0 0.0 1.6666666666666667
8.8 0.0 1.6666666666666667
9.600000000000001 0.0 1.6666666666666667
10.4 0.0 1.6666666666666667
11.200000000000001 0.0 1.6666666666666667
12.0 0.0 1.6666666666666667
12.8 0.0 1.6666666666666667
13.600000000000001 0.0 1.6666666666666667
14.4 0.0 1.6666666666666667
15.200000000000001 0.0 1.6666666666666667
16.0 0.0 1.6666666666666667
0.0 0.3333333333333333 1.6666666666666667
0.8 0.3333333333333333 1.6666666666666667
1.6 0.3333333333333333 1.6666666666666667
2.4000000000000004 0.3333333333333333 1.6666666666666667
3.2 0.3333333333333333 1.6666666666666667
4.0 0.3333333333333333 1.6666666666666667
4.800000000000001 0.3333333333333333 1.6666666666666667
5.6000000000000005 0.3333333333333333 1.6666666666666667
6.4 0.3333333333333333 1.6666666666666667
7.2 0.3333333333333333 1.6666666666666667
8.0 0.3333333333333333 1.6666666666666667
8.8 0.3333333333333333 1.6666666666666667
9.600000000000001 0.3333333333333333 1.6666666666666667
10.4 0.3333333333333333 1.6666666666666667
11.200000000000001 0.3333333333333333 1.6666666666666667
12.0 0.3333333333333333 1.6666666666666667
12.8 0.3333333333333333 1.6666666666666667
13.600000000000001 0.3333333333333333 1.6666666666666667
14.4 0.3333333333333333 1.6666666666666667
15.200000000000001 0.3333333333333333 1.6666666666666667
16.0 0.3333333333333333 1.6666666666666667
0.0 0.6666666666666666 1.6666666666666667
0.8 0.6666666666666666 1.6666666666666667
1.6 0.6666666666666666 1.6666666666666667
2.4000000000000004 0.6666666666666666 1.6666666666666667
3.2 0.6666666666666666 1.6666666666666667
4.0 0.6666666666666666 1.6666666666666667
4.800000000000001 0.6666666666666666 1.6666666666666667
5.6000000000000005 0.6666666666666666 1.6666666666666667
6.4 0.6666666666666666 1.6666666666666667
7.2 0.6666666666666666 1.6666666666666667
8.0 0.6666666666666666 1.6666666666666667
8.8 0.6666666666666666 1.6666666666666667
9.600000000000001 0.6666666666666666 1.6666666666666667
10.4 0.6666666666666666 1.6666666666666667
11.200000000000001 0.6666666666666666 1.6666666666666667
12.0 0.6666666666666666 1.6666666666666667
12.8 0.6666666666666666 1.6666666666666667
13.600000000000001 0.6666666666666666 1.6666666666666667
14.4 0.6666666666666666 1.6666666666666667
15.200000000000001 0.6666666666666666 1.6666666666666667
16.0 0.6666666666666666 1.6666666666666667
0.0 1.0 1.6666666666666667
0.8 1.0 1.6666666666666667
1.6 1.0 1.6666666666666667
2.4000000000000004 1.0 1.6666666666666667
3.2 1.0 1.6666666666666667
4.0 1.0 1.6666666666666667
4.800000000000001 1.0 1.6666666666666667
5.6000000000000005 1.0 1.6666666666666667
6.4 1.0 1.6666666666666667
7.2 1.0 1.6666666666666667
8.0 1.0 1.6666666666666667
8.8 1.0 1.6666666666666667
9.600000000000001 1.0 1.6666666666666667
10.4 1.0 1.6666666666666667
11.200000000000001 1.0 1.6666666666666667
12.0 1.0 1.6666666666666667
12.8 1.0 1.6666666666666667
13.600000000000001 1.0 1.6666666666666667
14.4 1.0 1.6666666666666667
15.200000000000001 1.0 1.6666666666666667
16.0 1.0 1.6666666666666667
0.0 1.3333333333333333 1.6666666666666667
0.8 1.3333333333333333 1.6666666666666667
1.6 1.3333333333333333 1.6666666666666667
2.4000000000000004 1.3333333333333333 1.6666666666666667
3.2 1.3333333333333333 1.6666666666666667
4.0 1.3333333333333333 1.6666666666666667
4.800000000000001 1.3333333333333333 1.6666666666666667
5.6000000000000005 1.3333333333333333 1.6666666666666667
6.4 1.3333333333333333 1.6666666666666667
7.2 1.3333333333333333 1.6666666666666667
8.0 1.3333333333333333 1.6666666666666667
8.8 1.3333333333333333 1.6666666666666667
9.600000000000001 1.3333333333333333 1.6666666666666667
10.4 1.3333333333333333 1.6666666666666667
11.200000000000001 1.3333333333333333 1.6666666666666667
12.0 1.3333333333333333 1.6666666666666667
12.8 1.3333333333333333 1.6666666666666667
13.600000000000001 1.3333333333333333 1.6666666666666667
14.4 1.3333333333333333 1.6666666666666667
15.200000000000001 1.3333333333333333 1.6666666666666667
16.0 1.3333333333333333 1.6666666666666667
0.0 1.6666666666666665 1.6666666666666667
0.8 1.6666666666666665 1.6666666666666667
1.6 1.6666666666666665 1.6666666666666667
2.4000000000000004 1.6666666666666665 1.6666666666666667
3.2 1.6666666666666665 1.6666666666666667
4.0 1.6666666666666665 1.6666666666666667
4.800000000000001 1.6666666666666665 1.6666666666666667
5.6000000000000005 1.6666666666666665 1.6666666666666667
6.4 1.6666666666666665 1.6666666666666667
7.2 1.6666666666666665 1.6666666666666667
8.0 1.6666666666666665 1.6666666666666667
8.8 1.6666666666666665 1.6666666666666667
9.600000000000001 1.6666666666666665 1.6666666666666667
10.4 1.6666666666666665 1.6666666666666667
11.200000000000001 1.6666666666666665 1.6666666666666667
12.0 1.6666666666666665 1.6666666666666667
12.8 1.6666666666666665 1.6666666666666667
13.600000000000001 1.6666666666666665 1.6666666666666667
14.4 1.6666666666666665 1.6666666666666667
15.200000000000001 1.6666666666666665 1.6666666666666667
16.0 1.6666666666666665 1.6666666666666667
0.0 2.0 1.6666666666666667
0.8 2.0 1.6666666666666667
1.6 2.0 1.6666666666666667
2.4000000000000004 2.0 1.6666666666666667
3.2 2.0 1.6666666666666667
4.0 2.0 1.6666666666666667
4.800000000000001 2.0 1.6666666666666667
5.6000000000000005 2.0 1.6666666666666667
6.4 2.0 1.6666666666666667
7.2 2.0 1.6666666666666667
8.0 2.0 1.6666666666666667
8.8 2.0 1.6666666666666667
9.600000000000001 2.0 1.6666666666666667
10.4 2.0 1.6666666666666667
11.200000000000001 2.0 1.6666666666666667
12.0 2.0 1.6666666666666667
12.8 2.0 1.6666666666666667
13.600000000000001 2.0 1.6666666666666667
14.4 2.0 1.6666666666666667
15.200000000000001 2.0 1.6666666666666667
16.0 2.0 1.6666666666666667
0.0 0.0 3.3333333333333335
0.8 0.0 3.3333333333333335
1.6 0.0 3.3333333333333335
2.4000000000000004 0.0 3.3333333333333335
3.2 0.0 3.3333333333333335
4.0 0.0 3.3333333333333335
4.800000000000001 0.0 3.3333333333333335
5.6000000000000005 0.0 3.3333333333333335
6.4 0.0 3.3333333333333335
7.2 0.0 3.3333333333333335
8.0 0.0 3.3333333333333335
8.8 0.0 3.3333333333333335
9.600000000000001 0.0 3.3333333333333335
10.4 0.0 3.3333333333333335
11.200000000000001 0.0 3.3333333333333335
12.0 0.0 3.3333333333333335
12.8 0.0 3.3333333333333335
13.600000000000001 0.0 3.3333333333333335
14.4 0.0 3.3333333333333335
15.200000000000001 0.0 3.3333333333333335
16.0 0.0 3.3333333333333335
0.0 0.3333333333333333 3.3333333333333335
0.8 0.3333333333333333 3.3333333333333335
1.6 0.3333333333333333 3.3333333333333335
2.4000000000000004 0.3333333333333333 3.3333333333333335
3.2 0.3333333333333333 3.3333333333333335
4.0 0.3333333333333333 3.3333333333333335
4.800000000000001 0.3333333333333333 3.3333333333333335
5.6000000000000005 0.3333333333333333 3.3333333333333335
6.4 0.3333333333333333 3.3333333333333335
7.2 0.3333333333333333 3.3333333333333335
8.0 0.3333333333333333 3.3333333333333335
8.8 0.3333333333333333 3.3333333333333335
9.600000000000001 0.3333333333333333 3.3333333333333335
10.4 0.3333333333333333 3.3333333333333335
11.200000000000001 0.3333333333333333 3.3333333333333335
12.0 0.3333333333333333 3.3333333333333335
12.8 0.3333333333333333 3.3333333333333335
13.600000000000001 0.3333333333333333 3.3333333333333335
14.4 0.3333333333333333 3.3333333333333335
15.200000000000001 0.3333333333333333 3.3333333333333335
16.0 0.3333333333333333 3.3333333333333335
0.0 0.6666666666666666 3.3333333333333335
0.8 0.6666666666666666 3.3333333333333335
1.6 0.6666666666666666 3.3333333333333335
2.4000000000000004 0.6666666666666666 3.3333333333333335
3.2 0.6666666666666666 3.3333333333333335
4.0 0.6666666666666666 3.3333333333333335
4.800000000000001 0.6666666666666666 3.3333333333333335
5.6000000000000005 0.6666666666666666 3.3333333333333335
6.4 0.6666666666666666 3.3333333333333335
7.2 0.6666666666666666 3.3333333333333335
8.0 0.6666666666666666 3.3333333333333335
8.8 0.6666666666666666 3.3333333333333335
9.600000000000001 0.6666666666666666 3.3333333333333335
10.4 0.6666666666666666 3.3333333333333335
11.200000000000001 0.6666666666666666 3.3333333333333335
12.0 0.6666666666666666 3.3333333333333335
12.8 0.6666666666666666 3.3333333333333335
13.600000000000001 0.6666666666666666 3.3333333333333335
14.4 0.6666666666666666 3.3333333333333335
15.200000000000001 0.6666666666666666 3.3333333333333335
16.0 0.6666666666666666 3.3333333333333335
0.0 1.0 3.3333333333333335
0.8 1.0 3.3333333333333335
1.6 1.0 3.3333333333333335
2.4000000000000004 1.0 3.3333333333333335
3.2 1.0 3.3333333333333335
4.0 1.0 3.3333333333333335
4.800000000000001 1.0 3.3333333333333335
5.6000000000000005 1.0 3.3333333333333335
6.4 1.0 3.3333333333333335
7.2 1.0 3.3333333333333335
8.0 1.0 3.3333333333333335
8.8 1.0 3.3333333333333335
9.600000000000001 1.0 3.3333333333333335
10.4 1.0 3.3333333333333335
11.200000000000001 1.0 3.3333333333333335
12.0 1.0 3.3333333333333335
12.8 1.0 3.3333333333333335
13.600000000000001 1.0 3.3333333333333335
14.4 1.0 3.3333333333333335
15.200000000000001 1.0 3.3333333333333335
16.0 1.0 3.3333333333333335
0.0 1.3333333333333333 3.3333333333333335
0.8 1.3333333333333333 3.3333333333333335
1.6 1.3333333333333333 3.3333333333333335
2.4000000000000004 1.3333333333333333 3.3333333333333335
3.2 1.3333333333333333 3.3333333333333335
4.0 1.3333333333333333 3.3333333333333335
4.800000000000001 1.3333333333333333 3.3333333333333335
5.6000000000000005 1.3333333333333333 3.3333333333333335
6.4 1.3333333333333333 3.3333333333333335
7.2 1.3333333333333333 3.3333333333333335
8.0 1.3333333333333333 3.3333333333333335
8.8 1.3333333333333333 3.3333333333333335
9.600000000000001 1.3333333333333333 3.3333333333333335
10.4 1.3333333333333333 3.3333333333333335
11.200000000000001 1.3333333333333333 3.3333333333333335
12.0 1.3333333333333333 3.3333333333333335
12.8 1.3333333333333333 3.3333333333333335
13.600000000000001 1.3333333333333333 3.3333333333333335
14.4 1.3333333333333333 3.3333333333333335
15.200000000000001 1.3333333333333333 3.3333333333333335
16.0 1.3333333333333333 3.3333333333333335
0.0 1.6666666666666665 3.3333333333333335
0.8 1.6666666666666665 3.3333333333333335
1.6 1.6666666666666665 3.3333333333333335
2.4000000000000004 1.6666666666666665 3.3333333333333335
3.2 1.6666666666666665 3.3333333333333335
4.0 1.6666666666666665 3.3333333333333335
4.800000000000001 1.6666666666666665 3.3333333333333335
5.6000000000000005 1.6666666666666665 3.3333333333333335
6.4 1.6666666666666665 3.3333333333333335
7.2 1.6666666666666665 3.3333333333333335
8.0 1.6666666666666665 3.3333333333333335
8.8 1.6666666666666665 3.3333333333333335
9.600000000000001 1.6666666666666665 3.3333333333333335
10.4 1.6666666666666665 3.3333333333333335
11.200000000000001 1.6666666666666665 3.3333333333333335
12.0 1.6666666666666665 3.3333333333333335
12.8 1.6666666666666665 3.3333333333333335
13.600000000000001 1.6666666666666665 3.3333333333333335
14.4 1.6666666666666665 3.3333333333333335
15.200000000000001 1.6666666666666665 3.3333333333333335
16.0 1.6666666666666665 3.3333333333333335
0.0 2.0 3.3333333333333335
0.8 2.0 3.3333333333333335
1.6 2.0 3.3333333333333335
2.4000000000000004 2.0 3.3333333333333335
3.2 2.0 3.3333333333333335
4.0 2.0 3.3333333333333335
4.800000000000001 2.0 3.3333333333333335
5.6000000000000005 2.0 3.3333333333333335
6.4 2.0 3.3333333333333335
7.2 2.0 3.3333333333333335
8.0 2.0 3.3333333333333335
8.8 2.0 3.3333333333333335
9.600000000000001 2.0 3.3333333333333335
10.4 2.0 3.3333333333333335
11.200000000000001 2.0 3.3333333333333335
12.0 2.0 3.3333333333333335
12.8 2.0 3.3333333333333335
13.600000000000001 2.0 3.3333333333333335
14.4 2.0 3.3333333333333335
15.200000000000001 2.0 3.3333333333333335
16.0 2.0 3.3333333333333335
0.0 0.0 5.0
0.8 0.0 5.0
1.6 0.0 5.0
2.4000000000000004 0.0 5.0
3.2 0.0 5.0
4.0 0.0 5.0
4.800000000000001 0.0 5.0
5.6000000000000005 0.0 5.0
6.4 0.0 5.0
7.2 0.0 5.0
8.0 0.0 5.0
8.8 0.0 5.0
9.600000000000001 0.0 5.0
10.4 0.0 5.0
11.200000000000001 0.0 5.0
12.0 0.0 5.0
12.8 0.0 5.0
13.600000000000001 0.0 5.0
14.4 0.0 5.0
15.200000000000001 0.0 5.0
16.0 0.0 5.0
0.0 0.3333333333333333 5.0
0.8 0.3333333333333333 5.0
1.6 0.3333333333333333 5.0
2.4000000000000004 0.3333333333333333 5.0
3.2 0.3333333333333333 5.0
4.0 0.3333333333333333 5.0
4.800000000000001 0.3333333333333333 5.0
5.6000000000000005 0.3333333333333333 5.0
6.4 0.3333333333333333 5.0
7.2 0.3333333333333333 5.0
8.0 0.3333333333333333 5.0
8.8 0.3333333333333333 5.0
9.600000000000001 0.3333333333333333 5.0
10.4 0.3333333333333333 5.0
11.200000000000001 0.3333333333333333 5.0
12.0 0.3333333333333333 5.0
12.8 0.3333333333333333 5.0
13.600000000000001 0.3333333333333333 5.0
14.4 0.3333333333333333 5.0
15.200000000000001 0.3333333333333333 5.0
16.0 0.3333333333333333 5.0
0.0 0.6666666666666666 5.0
0.8 0.6666666666666666 5.0
1.6 0.6666666666666666 5.0
2.4000000000000004 0.6666666666666666 5.0
3.2 0.6666666666666666 5.0
4.0 0.6666666666666666 5.0
4.800000000000001 0.6666666666666666 5.0
5.6000000000000005 0.6666666666666666 5.0
6.4 0.6666666666666666 5.0
7.2 0.6666666666666666 5.0
8.0 0.6666666666666666 5.0
8.8 0.6666666666666666 5.0
9.600000000000001 0.6666666666666666 5.0
10.4 0.6666666666666666 5.0
11.200000000000001 0.6666666666666666 5.0
12.0 0.6666666666666666 5.0
12.8 0.6666666666666666 5.0
13.600000000000001 0.6666666666666666 5.0
14.4 0.6666666666666666 5.0
15.200000000000001 0.6666666666666666 5.0
16.0 0.6666666666666666 5.0
0.0 1.0 5.0
0.8 1.0 5.0
1.6 1.0 5.0
2.4000000000000004 1.0 5.0
3.2 1.0 5.0
4.0 1.0 5.0
4.800000000000001 1.0 5.0
5.6000000000000005 1.0 5.0
6.4 1.0 5.0
7.2 1.0 5.0
8.0 1.0 5.0
8.8 1.0 5.0
9.600000000000001 1.0 5.0
10.4 1.0 5.0
11.200000000000001 1.0 5.0
12.0 1.0 5.0
12.8 1.0 5.0
13.600000000000001 1.0 5.0
14.4 1.0 5.0
15.200000000000001 1.0 5.0
16.0 1.0 5.0
0.0 1.3333333333333333 5.0
0.8 1.3333333333333333 5.0
1.6 1.3333333333333333 5.0
2.4000000000000004 1.3333333333333333 5.0
3.2 1.3333333333333333 5.0
4.0 1.3333333333333333 5.0
4.800000000000001 1.3333333333333333 5.0
5.6000000000000005 1.3333333333333333 5.0
6.4 1.3333333333333333 5.0
7.2 1.3333333333333333 5.0
8.0 1.3333333333333333 5.0
8.8 1.3333333333333333 5.0
9.600000000000001 1.3333333333333333 5.0
10.4 1.3333333333333333 5.0
11.200000000000001 1.3333333333333333 5.0
12.0 1.3333333333333333 5.0
12.8 1.3333333333333333 5.0
13.600000000000001 1.3333333333333333 5.0
14.4 1.3333333333333333 5.0
15.200000000000001 1.3333333333333333 5.0
16.0 1.3333333333333333 5.0
0.0 1.6666666666666665 5.0
0.8 1.6666666666666665 5.0
1.6 1.6666666666666665 5.0
2.4000000000000004 1.6666666666666665 5.0
3.2 1.6666666666666665 5.0
4.0 1.6666666666666665 5.0
4.800000000000001 1.6666666666666665 5.0
5.6000000000000005 1.6666666666666665 5.0
6.4 1.6666666666666665 5.0
7.2 1.6666666666666665 5.0
8.0 1.6666666666666665 5.0
8.8 1.6666666666666665 5.0
9.600000000000001 1.6666666666666665 5.0
10.4 1.6666666666666665 5.0
11.200000000000001 1.6666666666666665 5.0
12.0 1.6666666666666665 5.0
12.8 1.6666666666666665 5.0
13.600000000000001 1.6666666666666665 5.0
14.4 1.6666666666666665 5.0
15.200000000000001 1.6666666666666665 5.0
16.0 1.6666666666666665 5.0
0.0 2.0 5.0
0.8 2.0 5.0
1.6 2.0 5.0
2.4000000000000004 2.0 5.0
3.2 2.0 5.0
4.0 2.0 5.0
4.800000000000001 2.0 5.0
5.6000000000000005 2.0 5.0
6.4 2.0 5.0
7.2 2.0 5.0
8.0 2.0 5.0
8.8 2.0 5.0
9.600000000000001 2.0 5.0
10.4 2.0 5.0
11.200000000000001 2.0 5.0
12.0 2.0 5.0
12.8 2.0 5.0
13.600000000000001 2.0 5.0
14.4 2.0 5.0
15.200000000000001 2.0 5.0
16.0 2.0 5.0
0.0 0.0 6.666666666666667
0.8 0.0 6.666666666666667
1.6 0.0 6.666666666666667
2.4000000000000004 0.0 6.666666666666667
3.2 0.0 6.666666666666667
4.0 0.0 6.666666666666667
4.800000000000001 0.0 6.666666666666667
5.6000000000000005 0.0 6.666666666666667
6.4 0.0 6.666666666666667
7.2 0.0 6.666666666666667
8.0 0.0 6.666666666666667
8.8 0.0 6.666666666666667
9.600000000000001 0.0 6.666666666666667
10.4 0.0 6.666666666666667
11.200000000000001 0.0 6.666666666666667
12.0 0.0 6.666666666666667
12.8 0.0 6.666666666666667
13.600000000000001 0.0 6.666666666666667
14.4 0.0 6.666666666666667
15.200000000000001 0.0 6.666666666666667
16.0 0.0 6.666666666666667
0.0 0.3333333333333333 6.666666666666667
0.8 0.3333333333333333 6.666666666666667
1.6 0.3333333333333333 6.666666666666667
2.4000000000000004 0.3333333333333333 6.666666666666667
3.2 0.3333333333333333 6.666666666666667
4.0 0.3333333333333333 6.666666666666667
4.800000000000001 0.3333333333333333 6.666666666666667
5.6000000000000005 0.3333333333333333 6.666666666666667
6.4 0.3333333333333333 6.666666666666667
7.2 0.3333333333333333 6.666666666666667
8.0 0.3333333333333333 6.666666666666667
8.8 0.3333333333333333 6.666666666666667
9.600000000000001 0.3333333333333333 6.666666666666667
10.4 0.3333333333333333 6.666666666666667
11.200000000000001 0.3333333333333333 6.666666666666667
12.0 0.3333333333333333 6.666666666666667
12.8 0.3333333333333333 6.666666666666667
13.600000000000001 0.3333333333333333 6.666666666666667
14.4 0.3333333333333333 6.666666666666667
15.200000000000001 0.3333333333333333 6.666666666666667
16.0 0.3333333333333333 6.666666666666667
0.0 0.6666666666666666 6.666666666666667
0.8 0.6666666666666666 6.666666666666667
1.6 0.6666666666666666 6.666666666666667
2.4000000000000004 0.6666666666666666 6.666666666666667
3.2 0.6666666666666666 6.666666666666667
4.0 0.6666666666666666 6.666666666666667
4.800000000000001 0.6666666666666666 6.666666666666667
5.6000000000000005 0.6666666666666666 6.666666666666667
6.4 0.6666666666666666 6.666666666666667
7.2 0.6666666666666666 6.666666666666667
8.0 0.6666666666666666 6.666666666666667
8.8 0.6666666666666666 6.666666666666667
9.600000000000001 0.6666666666666666 6.666666666666667
10.4 0.6666666666666666 6.666666666666667
11.200000000000001 0.6666666666666666 6.666666666666667
12.0 0.6666666666666666 6.666666666666667
12.8 0.6666666666666666 6.666666666666667
13.600000000000001 0.6666666666666666 6.666666666666667
14.4 0.6666666666666666 6.666666666666667
15.200000000000001 0.6666666666666666 6.666666666666667
16.0 0.6666666666666666 6.666666666666667
0.0 1.0 6.666666666666667
0.8 1.0 6.666666666666667
1.6 1.0 6.666666666666667
2.4000000000000004 1.0 6.666666666666667
3.2 1.0 6.666666666666667
4.0 1.0 6.666666666666667
4.800000000000001 1.0 6.666666666666667
5.6000000000000005 1.0 6.666666666666667
6.4 1.0 6.666666666666667
7.2 1.0 6.666666666666667
8.0 1.0 6.666666666666667
8.8 1.0 6.666666666666667
9.600000000000001 1.0 6.666666666666667
10.4 1.0 6.666666666666667
11.200000000000001 1.0 6.666666666666667
12.0 1.0 6.666666666666667
12.8 1.0 6.666666666666667
13.600000000000001 1.0 6.666666666666667
14.4 1.0 6.666666666666667
15.200000000000001 1.0 6.666666666666667
16.0 1.0 6.666666666666667
0.0 1.3333333333333333 6.666666666666667
0.8 1.3333333333333333 6.666666666666667
1.6 1.3333333333333333 6.666666666666667
2.4000000000000004 1.3333333333333333 6.666666666666667
3.2 1.3333333333333333 6.666666666666667
4.0 1.3333333333333333 6.666666666666667
4.800000000000001 1.3333333333333333 6.666666666666667
5.6000000000000005 1.3333333333333333 6.666666666666667
6.4 1.3333333333333333 6.666666666666667
7.2 1.3333333333333333 6.666666666666667
8.0 1.3333333333333333 6.666666666666667
8.8 1.3333333333333333 6.666666666666667
9.600000000000001 1.3333333333333333 6.666666666666667
10.4 1.3333333333333333 6.666666666666667
11.200000000000001 1.3333333333333333 6.666666666666667
12.0 1.3333333333333333 6.666666666666667
12.8 1.3333333333333333 6.666666666666667
13.600000000000001 1.3333333333333333 6.666666666666667
14.4 1.3333333333333333 6.666666666666667
15.200000000000001 1.3333333333333333 6.666666666666667
16.0 1.3333333333333333 6.666666666666667
0.0 1.6666666666666665 6.666666666666667
0.8 1.6666666666666665 6.666666666666667
1.6 1.6666666666666665 6.666666666666667
2.4000000000000004 1.6666666666666665 6.666666666666667
3.2 1.6666666666666665 6.666666666666667
4.0 1.6666666666666665 6.666666666666667
4.800000000000001 1.6666666666666665 6.666666666666667
5.6000000000000005 1.6666666666666665 6.666666666666667
6.4 1.6666666666666665 6.666666666666667
7.2 1.6666666666666665 6.666666666666667
8.0 1.6666666666666665 6.666666666666667
8.8 1.6666666666666665 6.666666666666667
9.600000000000001 1.6666666666666665 6.666666666666667
10.4 1.6666666666666665 6.666666666666667
11.200000000000001 1.6666666666666665 6.666666666666667
12.0 1.6666666666666665 6.666666666666667
12.8 1.6666666666666665 6.666666666666667
13.600000000000001 1.6666666666666665 6.666666666666667
14.4 1.6666666666666665 6.666666666666667
15.200000000000001 1.6666666666666665 6.666666666666667
16.0 1.6666666666666665 6.666666666666667
0.0 2.0 6.666666666666667
0.8 2.0 6.666666666666667
1.6 2.0 6.666666666666667
2.4000000000000004 2.0 6.666666666666667
3.2 2.0 6.666666666666667
4.0 2.0 6.666666666666667
4.800000000000001 2.0 6.666666666666667
5.6000000000000005 2.0 6.666666666666667
6.4 2.0 6.666666666666667
7.2 2.0 6.666666666666667
8.0 2.0 6.666666666666667
8.8 2.0 6.666666666666667
9.600000000000001 2.0 6.666666666666667
10.4 2.0 6.666666666666667
11.200000000000001 2.0 6.666666666666667
12.0 2.0 6.666666666666667
12.8 2.0 6.666666666666667
13.600000000000001 2.0 6.666666666666667
14.4 2.0 6.666666666666667
15.200000000000001 2.0 6.666666666666667
16.0 2.0 6.666666666666667
0.0 0.0 8.333333333333334
0.8 0.0 8.333333333333334
1.6 0.0 8.333333333333334
2.4000000000000004 0.0 8.333333333333334
3.2 0.0 8.333333333333334
4.0 0.0 8.333333333333334
4.800000000000001 0.0 8.333333333333334
5.6000000000000005 0.0 8.333333333333334
6.4 0.0 8.333333333333334
7.2 0.0 8.333333333333334
8.0 0.0 8.333333333333334
8.8 0.0 8.333333333333334
9.600000000000001 0.0 8.333333333333334
10.4 0.0 8.333333333333334
11.200000000000001 0.0 8.333333333333334
12.0 0.0 8.333333333333334
12.8 0.0 8.333333333333334
13.600000000000001 0.0 8.333333333333334
14.4 0.0 8.333333333333334
15.200000000000001 0.0 8.333333333333334
16.0 0.0 8.333333333333334
0.0 0.3333333333333333 8.333333333333334
0.8 0.3333333333333333 8.333333333333334
1.6 0.3333333333333333 8.333333333333334
2.4000000000000004 0.3333333333333333 8.333333333333334
3.2 0.3333333333333333 8.333333333333334
4.0 0.3333333333333333 8.333333333333334
4.800000000000001 0.3333333333333333 8.333333333333334
5.6000000000000005 0.3333333333333333 8.333333333333334
6.4 0.3333333333333333 8.333333333333334
7.2 0.3333333333333333 8.333333333333334
8.0 0.3333333333333333 8.333333333333334
8.8 0.3333333333333333 8.333333333333334
9.600000000000001 0.3333333333333333 8.333333333333334
10.4 0.3333333333333333 8.333333333333334
11.200000000000001 0.3333333333333333 8.333333333333334
12.0 0.3333333333333333 8.333333333333334
12.8 0.3333333333333333 8.333333333333334
13.600000000000001 0.3333333333333333 8.333333333333334
14.4 0.3333333333333333 8.333333333333334
15.200000000000001 0.3333333333333333 8.333333333333334
16.0 0.3333333333333333 8.333333333333334
0.0 0.6666666666666666 8.333333333333334
0.8 0.6666666666666666 8.333333333333334
1.6 0.6666666666666666 8.333333333333334
2.4000000000000004 0.6666666666666666 8.333333333333334
3.2 0.6666666666666666 8.333333333333334
4.0 0.6666666666666666 8.333333333333334
4.800000000000001 0.6666666666666666 8.333333333333334
5.6000000000000005 0.6666666666666666 8.333333333333334
6.4 0.6666666666666666 8.333333333333334
7.2 0.6666666666666666 8.333333333333334
8.0 0.6666666666666666 8.333333333333334
8.8 0.6666666666666666 8.333333333333334
9.600000000000001 0.6666666666666666 8.333333333333334
10.4 0.6666666666666666 8.333333333333334
11.200000000000001 0.6666666666666666 8.333333333333334
12.0 0.6666666666666666 8.333333333333334
12.8 0.6666666666666666 8.333333333333334
13.600000000000001 0.6666666666666666 8.333333333333334
14.4 0.6666666666666666 8.333333333333334
15.200000000000001 0.6666666666666666 8.333333333333334
16.0 0.6666666666666666 8.333333333333334
0.0 1.0 8.333333333333334
0.8 1.0 8.333333333333334
1.6 1.0 8.333333333333334
2.4000000000000004 1.0 8.333333333333334
3.2 1.0 8.333333333333334
4.0 1.0 8.333333333333334
4.800000000000001 1.0 8.333333333333334
5.6000000000000005 1.0 8.333333333333334
6.4 1.0 8.333333333333334
7.2 1.0 8.333333333333334
8.0 1.0 8.333333333333334
8.8 1.0 8.333333333333334
9.600000000000001 1.0 8.333333333333334
10.4 1.0 8.333333333333334
11.200000000000001 1.0 8.333333333333334
12.0 1.0 8.333333333333334
12.8 1.0 8.333333333333334
13.600000000000001 1.0 8.333333333333334
14.4 1.0 8.333333333333334
15.200000000000001 1.0 8.333333333333334
16.0 1.0 8.333333333333334
0.0 1.3333333333333333 8.333333333333334
0.8 1.3333333333333333 8.333333333333334
1.6 1.3333333333333333 8.333333333333334
2.4000000000000004 1.3333333333333333 8.333333333333334
3.2 1.3333333333333333 8.333333333333334
4.0 1.3333333333333333 8.333333333333334
4.800000000000001 1.3333333333333333 8.333333333333334
5.6000000000000005 1.3333333333333333 8.333333333333334
6.4 1.3333333333333333 8.333333333333334
7.2 1.3333333333333333 8.333333333333334
8.0 1.3333333333333333 8.333333333333334
8.8 1.3333333333333333 8.333333333333334
9.600000000000001 1.3333333333333333 8.333333333333334
10.4 1.3333333333333333 8.333333333333334
11.200000000000001 1.3333333333333333 8.333333333333334
12.0 1.3333333333333333 8.333333333333334
12.8 1.3333333333333333 8.333333333333334
13.600000000000001 1.3333333333333333 8.333333333333334
14.4 1.3333333333333333 8.333333333333334
15.200000000000001 1.3333333333333333 8.333333333333334
16.0 1.3333333333333333 8.333333333333334
0.0 1.6666666666666665 8.333333333333334
0.8 1.6666666666666665 8.333333333333334
1.6 1.6666666666666665 8.333333333333334
2.4000000000000004 1.6666666666666665 8.333333333333334
3.2 1.6666666666666665 8.333333333333334
4.0 1.6666666666666665 8.333333333333334
4.800000000000001 1.6666666666666665 8.333333333333334
5.6000000000000005 1.6666666666666665 8.333333333333334
6.4 1.6666666666666665 8.333333333333334
7.2 1.6666666666666665 8.333333333333334
8.0 1.6666666666666665 8.333333333333334
8.8 1.6666666666666665 8.333333333333334
9.600000000000001 1.6666666666666665 8.333333333333334
10.4 1.6666666666666665 8.333333333333334
11.200000000000001 1.6666666666666665 8.333333333333334
12.0 1.6666666666666665 8.333333333333334
12.8 1.6666666666666665 8.333333333333334
13.600000000000001 1.6666666666666665 8.333333333333334
14.4 1.6666666666666665 8.333333333333334
15.200000000000001 1.6666666666666665 8.333333333333334
16.0 1.6666666666666665 8.333333333333334
0.0 2.0 8.333333333333334
0.8 2.0 8.333333333333334
1.6 2.0 8.333333333333334
2.4000000000000004 2.0 8.333333333333334
3.2 2.0 8.333333333333334
4.0 2.0 8.333333333333334
4.800000000000001 2.0 8.333333333333334
5.6000000000000005 2.0 8.333333333333334
6.4 2.0 8.333333333333334
7.2 2.0 8.333333333333334
8.0 2.0 8.333333333333334
8.8 2.0 8.333333333333334
9.600000000000001 2.0 8.333333333333334
10.4 2.0 8.333333333333334
11.200000000000001 2.0 8.333333333333334
12.0 2.0 8.333333333333334
12.8 2.0 8.333333333333334
13.600000000000001 2.0 8.333333333333334
14.4 2.0 8.333333333333334
15.200000000000001 2.0 8.333333333333334
16.0 2.0 8.333333333333334
0.0 0.0 10.0
0.8 0.0 10.0
1.6 0.0 10.0
2.4000000000000004 0.0 10.0
3.2 0.0 10.0
4.0 0.0 10.0
4.800000000000001 0.0 10.0
5.6000000000000005 0.0 10.0
6.4 0.0 10.0
7.2 0.0 10.0
8.0 0.0 10.0
8.8 0.0 10.0
9.600000000000001 0.0 10.0
10.4 0.0 10.0
11.200000000000001 0.0 10.0
12.0 0.0 10.0
12.8 0.0 10.0
13.600000000000001 0.0 10.0
14.4 0.0 10.0
15.200000000000001 0.0 10.0
16.0 0.0 10.0
0.0 0.3333333333333333 10.0
0.8 0.3333333333333333 10.0
1.6 0.3333333333333333 10.0
2.4000000000000004 0.3333333333333333 10.0
3.2 0.3333333333333333 10.0
4.0 0.3333333333333333 10.0
4.800000000000001 0.3333333333333333 10.0
5.6000000000000005 0.3333333333333333 10.0
6.4 0.3333333333333333 10.0
7.2 0.3333333333333333 10.0
8.0 0.3333333333333333 10.0
8.8 0.3333333333333333 10.0
9.600000000000001 0.3333333333333333 10.0
10.4 0.3333333333333333 10.0
11.200000000000001 0.3333333333333333 10.0
12.0 0.3333333333333333 10.0
12.8 0.3333333333333333 10.0
13.600000000000001 0.3333333333333333 10.0
14.4 0.3333333333333333 10.0
15.200000000000001 0.3333333333333333 10.0
16.0 0.3333333333333333 10.0
0.0 0.6666666666666666 10.0
0.8 0.6666666666666666 10.0
1.6 0.6666666666666666 10.0
2.4000000000000004 0.6666666666666666 10.0
3.2 0.6666666666666666 10.0
4.0 0.6666666666666666 10.0
4.800000000000001 0.6666666666666666 10.0
5.6000000000000005 0.6666666666666666 10.0
6.4 0.6666666666666666 10.0
7.2 0.6666666666666666 10.0
8.0 0.6666666666666666 10.0
8.8 0.6666666666666666 10.0
9.600000000000001 0.6666666666666666 10.0
10.4 0.6666666666666666 10.0
11.200000000000001 0.6666666666666666 10.0
12.0 0.6666666666666666 10.0
12.8 0.6666666666666666 10.0
13.600000000000001 0.6666666666666666 10.0
14.4 0.6666666666666666 10.0
15.200000000000001 0.6666666666666666 10.0
16.0 0.6666666666666666 10.0
0.0 1.0 10.0
0.8 1.0 10.0
1.6 1.0 10.0
2.4000000000000004 1.0 10.0
3.2 1.0 10.0
4.0 1.0 10.0
4.800000000000001 1.0 10.0
5.6000000000000005 1.0 10.0
6.4 1.0 10.0
7.2 1.0 10.0
8.0 1.0 10.0
8.8 1.0 10.0
9.600000000000001 1.0 10.0
10.4 1.0 10.0
11.200000000000001 1.0 10.0
12.0 1.0 10.0
12.8 1.0 10.0
13.600000000000001 1.0 10.0
14.4 1.0 10.0
15.200000000000001 1.0 10.0
16.0 1.0 10.0
0.0 1.3333333333333333 10.0
0.8 1.3333333333333333 10.0
1.6 1.3333333333333333 10.0
2.4000000000000004 1.3333333333333333 10.0
3.2 1.3333333333333333 10.0
4.0 1.3333333333333333 10.0
4.800000000000001 1.3333333333333333 10.0
5.6000000000000005 1.3333333333333333 10.0
6.4 1.3333333333333333 10.0
7.2 1.3333333333333333 10.0
8.0 1.3333333333333333 10.0
8.8 1.3333333333333333 10.0
9.600000000000001 1.3333333333333333 10.0
10.4 1.3333333333333333 10.0
11.200000000000001 1.3333333333333333 10.0
12.0 1.3333333333333333 10.0
12.8 1.3333333333333333 10.0
13.600000000000001 1.3333333333333333 10.0
14.4 1.3333333333333333 10.0
15.200000000000001 1.3333333333333333 10.0
16.0 1.3333333333333333 10.0
0.0 1.6666666666666665 10.0
0.8 1.6666666666666665 10.0
1.6 1.6666666666666665 10.0
2.4000000000000004 1.6666666666666665 10.0
3.2 1.6666666666666665 10.0
4.0 1.6666666666666665 10.0
4.800000000000001 1.6666666666666665 10.0
5.6000000000000005 1.6666666666666665 10.0
6.4 1.6666666666666665 10.0
7.2 1.6666666666666665 10.0
8.0 1.6666666666666665 10.0
8.8 1.6666666666666665 10.0
9.600000000000001 1.6666666666666665 10.0
10.4 1.6666666666666665 10.0
11.200000000000001 1.6666666666666665 10.0
12.0 1.6666666666666665 10.0
12.8 1.6666666666666665 10.0
13.600000000000001 1.6666666666666665 10.0
14.4 1.6666666666666665 10.0
15.200000000000001 1.6666666666666665 10.0
16.0 1.6666666666666665 10.0
0.0 2.0 10.0
0.8 2.0 10.0
1.6 2.0 10.0
2.4000000000000004 2.0 10.0
3.2 2.0 10.0
4.0 2.0 10.0
4.800000000000001 2.0 10.0
5.6000000000000005 2.0 10.0
6.4 2.0 10.0
7.2 2.0 10.0
8.0 2.0 10.0
8.8 2.0 10.0
9.600000000000001 2.0 10.0
10.4 2.0 10.0
11.200000000000001 2.0 10.0
12.0 2.0 10.0
12.8 2.0 10.0
13.600000000000001 2.0 10.0
14.4 2.0 10.0
15.200000000000001 2.0 10.0
16.0 2.0 10.0
CELLS 720 6480
8 0 1 22 21 147 148 169 168
8 1 2 23 22 148 149 170 169
8 2 3 24 23 149 150 171 170
8 3 4 25 24 150 151 172 171
8 4 5 26 25 151 152 173 172
8 5 6 27 26 152 153 174 173
8 6 7 28 27 153 154 175 174
8 7 8 29 28 154 155 176 175
8 8 9 30 29 155 156 177 176
8 9 10 31 30 156 157 178 177
8 10 11 32 31 157 158 179 178
8 11 12 33 32 158 159 180 179
8 12 13 34 33 159 160 181 180
8 13 14 35 34 160 161 182 181
8 14 15 36 35 161 162 183 182
8 15 16 37 36 162 163 184 183
8 16 17 38 37 163 164 185 184
8 17 18 39 38 164 165 186 185
8 18 19 40 39 165 166 187 186
8 19 20 41 40 166 167 188 187
8 21 22 43 42 168 169 190 189
8 22 23 44 43 169 170 191 190
8 23 24 45 44 170 171 192 191
8 24 25 46 45 171 172 193 192
8 25 26 47 46 172 173 194 193
8 26 27 48 47 173 174 195 194
8 27 28 49 48 174 175 196 195
8 28 29 50 49 175 176 197 196
8 29 30 51 50 176 177 198 197
8 30 31 52 51 177 178 199 198
8 31 32 53 52 178 179 200 199
8 32 33 54 53 179 180 201 200
8 33 34 55 54 180 181 202 201
8 34 35 56 55 181 182 203 202
8 35 36 57 56 182 183 204 203
8 36 37 58 57 183 184 205 204
8 37 38 59 58 184 185 206 205
8 38 39 60 59 185 186 207 206
8 39 40 61 60 186 187 208 207
8 40 41 62 61 187 188 209 208
8 42 43 64 63 189 190 211 210
8 43 44 65 64 190 191 212 211
8 44 45 66 65 191 192 213 212
8 45 46 67 66 192 193 214 213
8 46 47 68 67 193 194 215 214
8 47 48 69 68 194 195 216 215
8 48 49 70 69 195 196 217 216
8 49 50 71 70 196 197 218 217
8 50 51 72 71 197 198 219 218
8 51 52 73 72 198 199 220 219
8 52 53 74 73 199 200 221 220
8 53 54 75 74 200 201 222 221
8 54 55 76 75 201 202 223 222
8 55 56 77 76 202 203 224 223
8 56 57 78 77 203 204 225 224
8 57 58 79 78 204 205 226 225
8 58 59 80 79 205 206 227 226
8 59 60 81 80 206 207 228 227
8 60 61 82 81 207 208 229 228
8 61 62 83 82 208 209 230 229
8 63 64 85 84 210 211 232 231
8 64 65 86 85 211 212 233 232
8 65 66 87 86 212 213 234 233
8 66 67 88 87 213 214 235 234
8 67 68 89 88 214 215 236 235
8 68 69 90 89 215 216 237 236
8 69 70 91 90 216 217 238 237
8 70 71 92 91 217 218 239 238
8 71 72 93 92 218 219 240 239
8 72 73 94 93 219 220 241 240
8 73 74 95 94 220 221 242 241
8 74 75 96 95 221 222 243 242
8 75 76 97 96 222 223 244 243
8 76 77 98 97 223 224 245 244
8 77 78 99 98 224 225 246 245
8 78 79 100 99 225 226 247 246
8 79 80 101 100 226 227 248 247
8 80 81 102 101 227 228 249 248
8 81 82 103 102 228 229 250 249
8 82 83 104 103 229 230 251 250
8 84 85 106 105 231 232 253 252
8 85 86 107 106 232 233 254 253
8 86 87 108 107 233 234 255 254
8 87 88 109 108 234 235 256 255
8 88 89 110 109 235 236 257 256
8 89 90 111 110 236 237 258 257
8 90 91 112 111 237 238 259 258
8 91 92 113 112 238 239 260 259
8 92 93 114 113 239 240 261 260
8 93 94 115 114 240 241 262 261
8 94 95 116 115 241 242 263 262
8 95 96 117 116 242 243 264 263
8 96 97 118 117 243 244 265 264
8 97 98 119 118 244 245 266 265
8 98 99 120 119 245 246 267 266
8 99 100 121 120 246 247 268 267
8 100 101 122 121 247 248 269 268
8 101 102 123 122 248 249 270 269
8 102 103 124 123 249 250 271 270
8 103 104 125 124 250 251 272 271
8 105 106 127 126 252 253 274 273
8 106 107 128 127 253 254 275 274
8 107 108 129 128 254 255 276 275
8 108 109 130 129 255 256 277 276
8 109 110 131 130 256 257 278 277
8 110 111 132 131 257 258 279 278
8 111 112 133 132 258 259 280 279
8 112 113 134 133 259 260 281 280
8 113 114 135 134 260 261 282 281
8 114 115 136 135 261 262 283 282
8 115 116 137 136 262 263 284 283
8 116 117 138 137 263 264 285 284
8 117 118 139 138 264 265 286 285
8 118 119 140 139 265 266 287 286
8 119 120 141 140 266 267 288 287
8 120 121 142 141 267 268 289 288
8 121 122 143 142 268 269 290 289
8 122 123 144 143 269 270 291 290
8 123 124 145 144 270 271 292 291
8 124 125 146 145 271 272 293 292
8 147 148 169 168 294 295 316 315
8 148 149 170 169 295 296 317 316
8 149 150 171 170 296 297 318 317
8 150 151 172 171 297 298 319 318
8 151 152 173 172 298 299 320 319
8 152 153 174 173 299 300 321 320
8 153 154 175 174 300 301 322 321
8 154 155 176 175 301 302 323 322
8 155 156 177 176 302 303 324 323
8 156 157 178 177 303 304 325 324
8 157 158 179 178 304 305 326 325
8 158 159 180 179 305 306 327 326
8 159 160 181 180 306 307 328 327
8 160 161 182 181 307 308 329 328
8 161 162 183 182 308 309 330 329
8 162 163 184 183 309 310 331 330
8 163 164 185 184 310 311 332 331
8 164 165 186 185 311 312 333 332
8 165 166 187 186 312 313 334 333
8 166 167 188 187 313 314 335 334
8 168 169 190 189 315 316 337 336
8 169 170 191 190 316 317 338 337
8 170 171 192 191 317 318 339 338
8 171 172 193 192 318 319 340 339
8 172 173 194 193 319 320 341 340
8 173 174 195 194 320 321 342 341
8 174 175 196 195 321 322 343 342
8 175 176 197 196 322 323 344 343
8 176 177 198 197 323 324 345 344
8 177 178 199 198 324 325 346 345
8 178 179 200 199 325 326 347 346
8 179 180 201 200 326 327 348 347
8 180 181 202 201 327 328 349 348
8 181 182 203 202 328 329 350 349
8 182 183 204 203 329 330 351 350
8 183 184 205 204 330 331 352 351
8 184 185 206 205 331 332 353 352
8 185 186 207 206 332 333 354 353
8 186 187 208 207 333 334 355 354
8 187 188 209 208 334 335 356 355
8 189 190 211 210 336 337 358 357
8 190 191 212 211 337 338 359 358
8 191 192 213 212 338 339 360 359
8 192 193 214 213 339 340 361 360
8 193 194 215 214 340 341 362 361
8 194 195 216 215 341 342 363 362
8 195 196 217 216 342 343 364 363
8 196 197 218 217 343 344 365 364
8 197 198 219 218 344 345 366 365
8 198 199 220 219 345 346 367 366
8 199 200 221 220 346 347 368 367
8 200 201 222 221 347 348 369 368
8 201 202 223 222 348 349 370 369
8 202 203 224 223 349 350 371 370
8 203 204 225 224 350 351 372 371
8 204 205 226 225 351 352 373 372
8 205 206 227 226 352 353 374 373
8 206 207 228 227 353 354 375 374
8 207 208 229 228 354 355 376 375
8 208 209 230 229 355 356 377 376
8 210 211 232 231 357 358 379 378
8 211 212 233 232 358 359 380 379
8 212 213 234 233 359 360 381 380
8 213 214 235 234 360 361 382 381
8 214 215 236 235 361 362 383 382
8 215 216 237 236 362 363 384 383
8 216 217 238 237 363 364 385 384
8 217 218 239 238 364 365 386 385
8 218 219 240 239 365 366 387 386
8 219 220 241 240 366 367 388 387
8 220 221 242 241 367 368 389 388
8 221 222 243 242 368 369 390 389
8 222 223 244 243 369 370 391 390
8 223 224 245 244 370 371 392 391
8 224 225 246 245 371 372 393 392
8 225 226 247 246 372 373 394 393
8 226 227 248 247 373 374 395 394
8 227 228 249 248 374 375 396 395
8 228 229 250 249 375 376 397 396
8 229 230 251 250 376 377 398 397
8 231 232 253 252 378 379 400 399
8 232 233 254 253 379 380 401 400
8 233 234 255 254 380 381 402 401
8 234 235 256 255 381 382 403 402
8 235 236 257 256 382 383 404 403
8 236 237 258 257 383 384 405 404
8 237 238 259 258 384 385 406 405
8 238 239 260 259 385 386 407 406
8 239 240 261 260 386 387 408 407
8 240 241 262 261 387 388 409 408
8 241 242 263 262 388 389 410 409
8 242 243 264 263 389 390 411 410
8 243 244 265 264 390 391 412 411
8 244 245 266 265 391 392 413 412
8 245 246 267 266 392 393 414 413
8 246 247 268 267 393 394 415 414
8 247 248 269 268 394 395 416 415
8 248 249 270 269 395 396 417 416
8 249 250 271 270 396 397 418 417
8 250 251 272 271 397 398 419 418
8 252 253 274 273 399 400 421 420
8 253 254 275 274 400 401 422 421
8 254 255 276 275 401 402 423 422
8 255 256 277 276 402 403 424 423
8 256 257 278 277 403 404 425 424
8 257 258 279 278 404 405 426 425
8 258 259 280 279 405 406 427 426
8 259 260 281 280 406 407 428 427
8 260 261 282 281 407 408 429 428
8 261 262 283 282 408 409 430 429
8 262 263 284 283 409 410 431 430
8 263 264 285 284 410 411 432 431
8 264 265 286 285 411 412 433 432
8 265 266 287 286 412 413 434 433
8 266 267 288 287 413 414 435 434
8 267 268 289 288 414 415 436 435
8 268 269 290 289 415 416 437 436
8 269 270 291 290 416 417 438 437
8 270 271 292 291 417 418 439 438
8 271 272 293 292 418 419 440 439
8 294 295 316 315 441 442 463 462
8 295 296 317 316 442 443 464 463
8 296 297 318 317 443 444 465 464
8 297 298 319 318 444 445 466 465
8 298 299 320 319 445 446 467 466
8 299 300 321 320 446 447 468 467
8 300 301 322 321 447 448 469 468
8 301 302 323 322 448 449 470 469
8 302 303 324 323 449 450 471 470
8 303 304 325 324 450 451 472 471
8 304 305 326 325 451 452 473 472
8 305 306 327 326 452 453 474 473
8 306 307 328 327 453 454 475 474
8 307 308 329 328 454 455 476 475
8 308 309 330 329 455 456 477 476
8 309 310 331 330 456 457 478 477
8 310 311 332 331 457 458 479 478
8 311 312 333 332 458 459 480 479
8 312 313 334 333 459 460 481 480
8 313 314 335 334 460 461 482 481
8 315 316 337 336 462 463 484 483
8 316 317 338 337 463 464 485 484
8 317 318 339 338 464 465 486 485
8 318 319 340 339 465 466 487 486
8 319 320 341 340 466 467 488 487
8 320 321 342 341 467 468 489 488
8 321 322 343 342 468 469 490 489
8 322 323 344 343 469 470 491 490
8 323 324 345 344 470 471 492 491
8 324 325 346 345 471 472 493 492
8 325 326 347 346 472 473 494 493
8 326 327 348 347 473 474 495 494
8 327 328 349 348 474 475 496 495
8 328 329 350 349 475 476 497 496
8 329 330 351 350 476 477 498 497
8 330 331 352 351 477 478 499 498
8 331 332 353 352 478 479 500 499
8 332 333 354 353 479 480 501 500
8 333 334 355 354 480 481 502 501
8 334 335 356 355 481 482 503 502
8 336 337 358 357 483 484 505 504
8 337 338 359 358 484 485 506 505
8 338 339 360 359 485 486 507 506
8 339 340 361 360 486 487 508 507
8 340 341 362 361 487 488 509 508
8 341 342 363 362 488 489 510 509
8 342 343 364 363 489 490 511 510
8 343 344 365 364 490 491 512 511
8 344 345 366 365 491 492 513 512
8 345 346 367 366 492 493 514 513
8 346 347 368 367 493 494 515 514
8 347 348 369 368 494 495 516 515
8 348 349 370 369 495 496 517 516
8 349 350 371 370 496 497 518 517
8 350 351 372 371 497 498 519 518
8 351 352 373 372 498 499 520 519
8 352 353 374 373 499 500 521 520
8 353 354 375 374 500 501 522 521
8 354 355 376 375 501 502 523 522
8 355 356 377 376 502 503 524 523
8 357 358 379 378 504 505 526 525
8 358 359 380 379 505 506 527 526
8 359 360 381 380 506 507 528 527
8 360 361 382 381 507 508 529 528
8 361 362 383 382 508 509 530 529
8 362 363 384 383 509 510 531 530
8 363 364 385 384 510 511 532 531
8 364 365 386 385 511 512 533 532
8 365 366 387 386 512 513 534 533
8 366 367 388 387 513 514 535 534
8 367 368 389 388 514 515 536 535
8 368 369 390 389 515 516 537 536
8 369 370 391 390 516 517 538 537
8 370 371 392 391 517 518 539 538
8 371 372 393 392 518 519 540 539
8 372 373 394 393 519 520 541 540
8 373 374 395 394 520 521 542 541
8 374 375 396 395 521 522 543 542
8 375 376 397 396 522 523 544 543
8 376 377 398 397 523 524 545 544
8 378 379 400 399 525 526 547 546
8 379 380 401 400 526 527 548 547
8 380 381 402 401 527 528 549 548
8 381 382 403 402 528 529 550 549
8 382 383 404 403 529 530 551 550
8 383 384 405 404 530 531 552 551
8 384 385 406 405 531 532 553 552
8 385 386 407 406 532 533 554 553
8 386 387 408 407 533 534 555 554
8 387 388 409 408 534 535 556 555
8 388 389 410 409 535 536 557 556
8 389 390 411 410 536 537 558 557
8 390 391 412 411 537 538 559 558
8 391 392 413 412 538 539 560 559
8 392 393 414 413 539 540 561 560
8 393 394 415 414 540 541 562 561
8 394 395 416 415 541 542 563 562
8 395 396 417 416 542 543 564 563
8 396 397 418 417 543 544 565 564
8 397 398 419 418 544 545 566 565
8 399 400 421 420 546 547 568 567
8 400 401 422 421 547 548 569 568
8 401 402 423 422 548 549 570 569
8 402 403 424 423 549 550 571 570
8 403 404 425 424 550 551 572 571
8 404 405 426 425 551 552 573 572
8 405 406 427 426 552 553 574 573
8 406 407 428 427 553 554 575 574
8 407 408 429 428 554 555 576 575
8 408 409 430 429 555 556 577 576
8 409 410 431 430 556 557 578 577
8 410 411 432 431 557 558 579 578
8 411 412 433 432 558 559 580 579
8 412 413 434 433 559 560 581 580
8 413 414 435 434 560 561 582 581
8 414 415 436 435 561 562 583 582
8 415 416 437 436 562 563 584 583
8 416 417 438 437 563 564 585 584
8 417 418 439 438 564 565 586 585
8 418 419 440 439 565 566 587 586
8 441 442 463 462 588 589 610 609
8 442 443 464 463 589 590 611 610
8 443 444 465 464 590 591 612 611
8 444 445 466 465 591 592 613 612
8 445 446 467 466 592 593 614 613
8 446 447 468 467 593 594 615 614
8 447 448 469 468 594 595 616 615
8 448 449 470 469 595 596 617 616
8 449 450 471 470 596 597 618 617
8 450 451 472 471 597 598 619 618
8 451 452 473 472 598 599 620 619
8 452 453 474 473 599 600 621 620
8 453 454 475 474 600 601 622 621
8 454 455 476 475 601 602 623 622
8 455 456 477 476 602 603 624 623
8 456 457 478 477 603 604 625 624
8 457 458 479 478 604 605 626 625
8 458 459 480 479 605 606 627 626
8 459 460 481 480 606 607 628 627
8 460 461 482 481 607 608 629 628
8 462 463 484 483 609 610 631 630
8 463 464 485 484 610 611 632 631
8 464 465 486 485 611 612 633 632
8 465 466 487 486 612 613 634 633
8 466 467 488 487 613 614 635 634
8 467 468 489 488 614 615 636 635
8 468 469 490 489 615 616 637 636
8 469 470 491 490 616 617 638 637
8 470 471 492 491 617 618 639 638
8 471 472 493 492 618 619 640 639
8 472 473 494 493 619 620 641 640
8 473 474 495 494 620 621 642 641
8 474 475 496 495 621 622 643 642
8 475 476 497 496 622 623 644 643
8 476 477 498 497 623 624 645 644
8 477 478 499 498 624 625 646 645
8 478 479 500 499 625 626 647 646
8 479 480 501 500 626 627 648 647
8 480 481 502 501 627 628 649 648
8 481 482 503 502 628 629 650 649
8 483 484 505 504 630 631 652 651
8 484 485 506 505 631 632 653 652
8 485 486 507 506 632 633 654 653
8 486 487 508 507 633 634 655 654
8 487 488 509 508 634 635 656 655
8 488 489 510 509 635 636 657 656
8 489 490 511 510 636 637 658 657
8 490 491 512 511 637 638 659 658
8 491 492 513 512 638 639 660 659
8 492 493 514 513 639 640 661 660
8 493 494 515 514 640 641 662 661
8 494 495 516 515 641 642 663 662
8 495 496 517 516 642 643 664 663
8 496 497 518 517 643 644 665 664
8 497 498 519 518 644 645 666 665
8 498 499 520 519 645 646 667 666
8 499 500 521 520 646 647 668 667
8 500 501 522 521 647 648 669 668
8 501 502 523 522 648 649 670 669
8 502 503 524 523 649 650 671 670
8 504 505 526 525 651 652 673 672
8 505 506 527 526 652 653 674 673
8 506 507 528 527 653 654 675 674
8 507 508 529 528 654 655 676 675
8 508 509 530 529 655 656 677 676
8 509 510 531 530 656 657 678 677
8 510 511 532 531 657 658 679 678
8 511 512 533 532 658 659 680 679
8 512 513 534 533 659 660 681 680
8 513 514 535 534 660 661 682 681
8 514 515 536 535 661 662 683 682
8 515 516 537 536 662 663 684 683
8 516 517 538 537 663 664 685 684
8 517 518 539 538 664 665 686 685
8 518 519 540 539 665 666 687 686
8 519 520 541 540 666 667 688 687
8 520 521 542 541 667 668 689 688
8 521 522 543 542 668 669 690 689
8 522 523 544 543 669 670 691 690
8 523 524 545 544 670 671 692 691
8 525 526 547 546 672 673 694 693
8 526 527 548 547 673 674 695 694
8 527 528 549 548 674 675 696 695
8 528 529 550 549 675 676 697 696
8 529 530 551 550 676 677 698 697
8 530 531 552 551 677 678 699 698
8 531 532 553 552 678 679 700 699
8 532 533 554 553 679 680 701 700
8 533 534 555 554 680 681 702 701
8 534 535 556 555 681 682 703 702
8 535 536 557 556 682 683 704 703
8 536 537 558 557 683 684 705 704
8 537 538 559 558 684 685 706 705
8 538 539 560 559 685 686 707 706
8 539 540 561 560 686 687 708 707
8 540 541 562 561 687 688 709 708
8 541 542 563 562 688 689 710 709
8 542 543 564 563 689 690 711 710
8 543 544 565 564 690 691 712 711
8 544 545 566 565 691 692 713 712
8 546 547 568 567 693 694 715 714
8 547 548 569 568 694 695 716 715
8 548 549 570 569 695 696 717 716
8 549 550 571 570 696 697 718 717
8 550 551 572 571 697 698 719 718
8 551 552 573 572 698 699 720 719
8 552 553 574 573 699 700 721 720
8 553 554 575 574 700 701 722 721
8 554 555 576 575 701 702 723 722
8 555 556 577 576 702 703 724 723
8 556 557 578 577 703 704 725 724
8 557 558 579 578 704 705 726 725
8 558 559 580 579 705 706 727 726
8 559 560 581 580 706 707 728 727
8 560 561 582 581 707 708 729 728
8 561 562 583 582 708 709 730 729
8 562 563 584 583 709 710 731 730
8 563 564 585 584 710 711 732 731
8 564 565 586 585 711 712 733 732
8 565 566 587 586 712 713 734 733
8 588 589 610 609 735 736 757 756
8 589 590 611 610 736 737 758 757
8 590 591 612 611 737 738 759 758
8 591 592 613 612 738 739 760 759
8 592 593 614 613 739 740 761 760
8 593 594 615 614 740 741 762 761
8 594 595 616 615 741 742 763 762
8 595 596 617 616 742 743 764 763
8 596 597 618 617 743 744 765 764
8 597 598 619 618 744 745 766 765
8 598 599 620 619 745 746 767 766
8 599 600 621 620 746 747 768 767
8 600 601 622 621 747 748 769 768
8 601 602 623 622 748 749 770 769
8 602 603 624 623 749 750 771 770
8 603 604 625 624 750 751 772 771
8 604 605 626 625 751 752 773 772
8 605 606 627 626 752 753 774 773
8 606 607 628 627 753 754 775 774
8 607 608 629 628 754 755 776 775
8 609 610 631 630 756 757 778 777
8 610 611 632 631 757 758 779 778
8 611 612 633 632 758 759 780 779
8 612 613 634 633 759 760 781 780
8 613 614 635 634 760 761 782 781
8 614 615 636 635 761 762 783 782
8 615 616 637 636 762 763 784 783
8 616 617 638 637 763 764 785 784
8 617 618 639 638 764 765 786 785
8 618 619 640 639 765 766 787 786
8 619 620 641 640 766 767 788 787
8 620 621 642 641 767 768 789 788
8 621 622 643 642 768 769 790 789
8 622 623 644 643 769 770 791 790
8 623 624 645 644 770 771 792 791
8 624 625 646 645 771 772 793 792
8 625 626 647 646 772 773 794 793
8 626 627 648 647 773 774 795 794
8 627 628 649 648 774 775 796 795
8 628 629 650 649 775 776 797 796
8 630 631 652 651 777 778 799 798
8 631 632 653 652 778 779 800 799
8 632 633 654 653 779 780 801 800
8 633 634 655 654 780 781 802 801
8 634 635 656 655 781 782 803 802
8 635 636 657 656 782 783 804 803
8 636 637 658 657 783 784 805 804
8 637 638 659 658 784 785 806 805
8 638 639 660 659 785 786 807 806
8 639 640 661 660 786 787 808 807
8 640 641 662 661 787 788 809 808
8 641 642 663 662 788 789 810 809
8 642 643 664 663 789 790 811 810
8 643 644 665 664 790 791 812 811
8 644 645 666 665 791 792 813 812
8 645 646 667 666 792 793 814 813
8 646 647 668 667 793 794 815 814
8 647 648 669 668 794 795 816 815
8 648 649 670 669 795 796 817 816
8 649 650 671 670 796 797 818 817
8 651 652 673 672 798 799 820 819
8 652 653 674 673 799 800 821 820
8 653 654 675 674 800 801 822 821
8 654 655 676 675 801 802 823 822
8 655 656 677 676 802 803 824 823
8 656 657 678 677 803 804 825 824
8 657 658 679 678 804 805 826 825
8 658 659 680 679 805 806 827 826
8 659 660 681 680 806 807 828 827
8 660 661 682 681 807 808 829 828
8 661 662 683 682 808 809 830 829
8 662 663 684 683 809 810 831 830
8 663 664 685 684 810 811 832 831
8 664 665 686 685 811 812 833 832
8 665 666 687 686 812 813 834 833
8 666 667 688 687 813 814 835 834
8 667 668 689 688 814 815 836 835
8 668 669 690 689 815 816 837 836
8 669 670 691 690 816 817 838 837
8 670 671 692 691 817 818 839 838
8 672 673 694 693 819 820 841 840
8 673 674 695 694 820 821 842 841
8 674 675 696 695 821 822 843 842
8 675 676 697 696 822 823 844 843
8 676 677 698 697 823 824 845 844
8 677 678 699 698 824 825 846 845
8 678 679 700 699 825 826 847 846
8 679 680 701 700 826 827 848 847
8 680 681 702 701 827 828 849 848
8 681 682 703 702 828 829 850 849
8 682 683 704 703 829 830 851 850
8 683 684 705 704 830 831 852 851
8 684 685 706 705 831 832 853 852
8 685 686 707 706 832 833 854 853
8 686 687 708 707 833 834 855 854
8 687 688 709 708 834 835 856 855
8 688 689 710 709 835 836 857 856
8 689 690 711 710 836 837 858 857
8 690 691 712 711 837 838 859 858
8 691 692 713 712 838 839 860 859
8 693 694 715 714 840 841 862 861
8 694 695 716 715 841 842 863 862
8 695 696 717 716 842 843 864 863
8 696 697 718 717 843 844 865 864
8 697 698 719 718 844 845 866 865
8 698 699 720 719 845 846 867 866
8 699 700 721 720 846 847 868 867
8 700 701 722 721 847 848 869 868
8 701 702 723 722 848 849 870 869
8 702 703 724 723 849 850 871 870
8 703 704 725 724 850 851 872 871
8 704 705 726 725 851 852 873 872
8 705 706 727 726 852 853 874 873
8 706 707 728 727 853 854 875 874
8 707 708 729 728 854 855 876 875
8 708 709 730 729 855 856 877 876
8 709 710 731 730 856 857 878 877
8 710 711 732 731 857 858 879 878
8 711 712 733 732 858 859 880 879
8 712 713 734 733 859 860 881 880
8 735 736 757 756 882 883 904 903
8 736 737 758 757 883 884 905 904
8 737 738 759 758 884 885 906 905
8 738 739 760 759 885 886 907 906
8 739 740 761 760 886 887 908 907
8 740 741 762 761 887 888 909 908
8 741 742 763 762 888 889 910 909
8 742 743 764 763 889 890 911 910
8 743 744 765 764 890 891 912 911
8 744 745 766 765 891 892 913 912
8 745 746 767 766 892 893 914 913
8 746 747 768 767 893 894 915 914
8 747 748 769 768 894 895 916 915
8 748 749 770 769 895 896 917 916
8 749 750 771 770 896 897 918 917
8 750 751 772 771 897 898 919 918
8 751 752 773 772 898 899 920 919
8 752 753 774 773 899 900 921 920
8 753 754 775 774 900 901 922 921
8 754 755 776 775 901 902 923 922
8 756 757 778 777 903 904 925 924
8 757 758 779 778 904 905 926 925
8 758 759 780 779 905 906 927 926
8 759 760 781 780 906 907 928 927
8 760 761 782 781 907 908 929 928
8 761 762 783 782 908 909 930 929
8 762 763 784 783 909 910 931 930
8 763 764 785 784 910 911 932 931
8 764 765 786 785 911 912 933 932
8 765 766 787 786 912 913 934 933
8 766 767 788 787 913 914 935 934
8 767 768 789 788 914 915 936 935
8 768 769 790 789 915 916 937 936
8 769 770 791 790 916 917 938 937
8 770 771 792 791 917 918 939 938
8 771 772 793 792 918 919 940 939
8 772 773 794 793 919 920 941 940
8 773 774 795 794 920 921 942 941
8 774 775 796 795 921 922 943 942
8 775 776 797 796 922 923 944 943
8 777 778 799 798 924 925 946 945
8 778 779 800 799 925 926 947 946
8 779 780 801 800 926 927 948 947
8 780 781 802 801 927 928 949 948
8 781 782 803 802 928 929 950 949
8 782 783 804 803 929 930 951 950
8 783 784 805 804 930 931 952 951
8 784 785 806 805 931 932 953 952
8 785 786 807 806 932 933 954 953
8 786 787 808 807 933 934 955 954
8 787 788 809 808 934 935 956 955
8 788 789 810 809 935 936 957 956
8 789 790 811 810 936 937 958 957
8 790 791 812 811 937 938 959 958
8 791 792 813 812 938 939 960 959
8 792 793 814 813 939 940 961 960
8 793 794 815 814 940 941 962 961
8 794 795 816 815 941 942 963 962
8 795 796 817 816 942 943 964 963
8 796 797 818 817 943 944 965 964
8 798 799 820 819 945 946 967 966
8 799 800 821 820 946 947 968 967
8 800 801 822 821 947 948 969 968
8 801 802 823 822 948 949 970 969
8 802 803 824 823 949 950 971 970
8 803 804 825 824 950 951 972 971
8 804 805 826 825 951 952 973 972
8 805 806 827 826 952 953 974 973
8 806 807 828 827 953 954 975 974
8 807 808 829 828 954 955 976 975
8 808 809 830 829 955 956 977 976
8 809 810 831 830 956 957 978 977
8 810 811 832 831 957 958 979 978
8 811 812 833 832 958 959 980 979
8 812 813 834 833 959 960 981 980
8 813 814 835 834 960 961 982 981
8 814 815 836 835 961 962 983 982
8 815 816 837 836 962 963 984 983
8 816 817 838 837 963 964 985 984
8 817 818 839 838 964 965 986 985
8 819 820 841 840 966 967 988 987
8 820 821 842 841 967 968 989 988
8 821 822 843 842 968 969 990 989
8 822 823 844 843 969 970 991 990
8 823 824 845 844 970 971 992 991
8 824 825 846 845 971 972 993 992
8 825 826 847 846 972 973 994 993
8 826 827 848 847 973 974 995 994
8 827 828 849 848 974 975 996 995
8 828 829 850 849 975 976 997 996
8 829 830 851 850 976 977 998 997
8 830 831 852 851 977 978 999 998
8 831 832 853 852 978 979 1000 999
8 832 833 854 853 979 980 1001 1000
8 833 834 855 854 980 981 1002 1001
8 834 835 856 855 981 982 1003 1002
8 835 836 857 856 982 983 1004 1003
8 836 837 858 857 983 984 1005 1004
8 837 838 859 858 984 985 1006 1005
8 838 839 860 859 985 986 1007 1006
8 840 841 862 861 987 988 1009 1008
8 841 842 863 862 988 989 1010 1009
8 842 843 864 863 989 990 1011 1010
8 843 844 865 864 990 991 1012 1011
8 844 845 866 865 991 992 1013 1012
8 845 846 867 866 992 993 1014 1013
8 846 847 868 867 993 994 1015 1014
8 847 848 869 868 994 995 1016 1015
8 848 849 870 869 995 996 1017 1016
8 849 850 871 870 996 997 1018 1017
8 850 851 872 871 997 998 1019 1018
8 851 852 873 872 998 999 1020 1019
8 852 853 874 873 999 1000 1021 1020
8 853 854 875 874 1000 1001 1022 1021
8 854 855 876 875 1001 1002 1023 1022
8 855 856 877 876 1002 1003 1024 1023
8 856 857 878 877 1003 1004 1025 1024
8 857 858 879 878 1004 1005 1026 1025
8 858 859 880 879 1005 1006 1027 1026
8 859 860 881 880 1006 1007 1028 1027
CELL_TYPES 720
12
12
12
12
12
12
12
12
12
12
12
12
12
12
12
12
12
12
12
12
12
12
12
12
12
12
12
12
12
12
12
12
12
12
12
12
12
12
12
12
12
12
12
12
12
12
12
12
12
12
12
12
12
12
12
12
12
12
12
12
12
12
12
12
12
12
12
12
12
12
12
12
12
12
12
12
12
12
12
12
12
12
12
12
12
12
12
12
12
12
12
12
12
12
12
12
12
12
12
12
12
12
12
12
12
12
12
12
12
12
12
12
12
12
12
12
12
12
12
12
12
12
12
12
12
12
12
12
12
12
12
12
12
12
12
12
12
12
12
12
12
12
12
12
12
12
12
12
12
12
12
12
12
12
12
12
12
12
12
12
12
12
12
12
12
12
12
12
12
12
12
12
12
12
12
12
12
12
12
12
12
12
12
12
12
12
12
12
12
12
12
12
12
12
12
12
12
12
12
12
12
12
12
12
12
12
12
12
12
12
12
12
12
12
12
12
12
12
12
12
12
12
12
12
12
12
12
12
12
12
12
12
12
12
12
12
12
12
12
12
12
12
12
12
12
12
12
12
12
12
12
12
12
12
12
12
12
12
12
12
12
12
12
12
12
12
12
12
12
12
12
12
12
12
12
12
12
12
12
12
12
12
12
12
12
12
12
12
12
12
12
12
12
12
12
12
12
12
12
12
12
12
12
12
12
12
12
12
12
12
12
12
12
12
12
12
12
12
12
12
12
12
12
12
12
12
12
12
12
12
12
12
12
12
12
12
12
12
12
12
12
12
12
12
12
12
12
12
12
12
12
12
12
12
12
12
12
12
12
12
12
12
12
12
12
12
12
12
12
12
12
12
12
12
12
12
12
12
12
12
12
12
12
12
12
12
12
12
12
12
12
12
12
12
12
12
12
12
12
12
12
12
12
12
12
12
12
12
12
12
12
12
12
12
12
12
12
12
12
12
12
12
12
12
12
12
12
12
12
12
12
12
12
12
12
12
12
12
12
12
12
12
12
12
12
12
12
12
12
12
12
12
12
12
12
12
12
12
12
12
12
12
12
12
12
12
12
12
12
12
12
12
12
12
12
12
12
12
12
12
12
12
12
12
12
12
12
12
12
12
12
12
12
12
12
12
12
12
12
12
12
12
12
12
12
12
12
12
12
12
12
12
12
12
12
12
12
12
12
12
12
12
12
12
12
12
12
12
12
12
12
12
12
12
12
12
12
12
12
12
12
12
12
12
12
12
12
12
12
12
12
12
12
12
12
12
12
12
12
12
12
12
12
12
12
12
12
12
12
12
12
12
12
12
12
12
12
12
12
12
12
12
12
12
12
12
12
12
12
12
12
12
12
12
12
12
12
12
12
12
12
12
12
12
12
12
12
12
12
12
12
12
12
12
12
12
12
12
12
12
12
12
12
12
12
12
12
12
12
12
12
12
12
12
12
12
12
12
12
12
12
12
12
12
12
12
12
12
12
12
12
12
12
12
12
12
12
12
12
12
12
12
12
12
12
12
12
12
12
12
12
12
12
12
12
12
12
12
12
12
12
12
12
12
12
12
12
12
12
12
12
12
12
12
12
12
12
12
12
12
12
12
12
12
12
12
12
12
12
12
12
12
12
12
12
12
12
12
12
12
POINT_DATA 1029
VECTORS Disp float
0.0 0.0 0.0
0.023780802808515904 -0.8623273649622076 0.020640835409664143
0.057265785600847455 -1.6249695730373614 0.04444404239254171
0.10357805706260306 -2.3595829352211766 0.06345212387192846
0.16948330118167365 -3.046250807112374 0.08067616298831931
0.2559058572121092 -3.668783652771522 0.09491691829916113
0.3624890058501312 -4.21007544602131 0.10558202502118468
0.4885880005385987 -4.653583956461532 0.11191383379919682
0.6324795625850888 -4.983183185201067 0.11338201685051555
0.7898827662309041 -5.185105121780632 0.11085418443669892
0.9537013911952913 -5.25238826927495 0.10856638598964248
1.1175782368627936 -5.186090322669414 0.11094533943907806
1.275167461156781 -4.985176565108644 0.11359630458602117
1.4194084508386737 -4.6566274769703275 0.11232198301935059
1.5460848364380353 -4.214219382734236 0.10630579824039979
1.6535755163349024 -3.674060611929043 0.09615171075515831
1.741379092175715 -3.052630167956738 0.08269891426538295
1.8093424772583167 -2.3668921821670685 0.06674032248852152
1.858652411619419 -1.632871516892002 0.049296079900986126
1.8973080409281073 -0.8701860789174194 0.029306883458039595
1.9334989586728333 0.0 -0.00016732788112444735
0.3384419349288352 -0.03682368084300204 -0.01083745702433251
0.35304920789987987 -0.8584994707582945 0.010812900144465568
0.3648253509153857 -1.6301614460435694 0.028154635829510374
0.39517323889926814 -2.3656820012566437 0.042852189841083424
0.4379875403690634 -3.055023573227047 0.055153379966579465
0.49451692402447206 -3.679901319907459 0.06527501712545936
0.564437786022659 -4.2235607705686915 0.0727755905060973
0.6473064075476359 -4.66934078502625 0.0773093574520867
0.7419922639160959 -5.000912571628439 0.07863852599664843
0.8457403135793934 -5.203981811719939 0.07730800590905054
0.9538788568241358 -5.271330120409979 0.07589279463766807
1.0620789652847795 -5.204983223704019 0.0772766316992254
1.1660222387016488 -5.002941402515935 0.07860297091771795
1.2610694274119791 -4.672445385027747 0.07733125580942722
1.3445226462595137 -4.227801584009901 0.07296652454588574
1.4153375161399704 -3.6853264407781525 0.06581639218281629
1.4731920586214289 -3.061620184981572 0.05633951117301052
1.5179141659849107 -2.373303327024848 0.04507569305474289
1.5510252874819275 -1.638511281988386 0.0321858738727138
1.5667415918882648 -0.8669804345027305 0.016706787233539525
1.5834608558206054 -0.03886028755029025 -0.004370713756727241
0.6579500412311626 -0.06393537416720377 -0.01771036902520609
0.6654821606851321 -0.8572148089097362 -0.0009584048300809748
0.6667963941679825 -1.6313387109073962 0.011422162814369557
0.6785717610818444 -2.3693664868944806 0.020548724873349404
0.6987964468369211 -3.060055313793426 0.027531811804501358
0.7260075187488105 -3.6864175272287363 0.03286163579399019
0.7601680839263582 -4.231486422479812 0.036570950630976914
0.8011083609926151 -4.6786820688281905 0.038584046570814434
0.8485267569783247 -5.011474940825925 0.03886245318184358
0.9007880758187331 -5.214789647250089 0.03750199360832113
0.9540195684278538 -5.280992293321685 0.03596823866490621
1.0073138082958755 -5.215808581789166 0.037348296112786124
1.0597728840626672 -5.013541495691733 0.03857701852428382
1.1075528049499348 -4.681849986624036 0.03821902197333844
1.1490668781180866 -4.235824525938571 0.03622530528629941
1.184083459102265 -3.6919858986690257 0.03270862700439545
1.212524683685439 -3.0668572049408658 0.027852932351399986
1.2344632250013214 -2.3772623589919477 0.02178967885056663
1.2485291476848324 -1.6400520243913244 0.014208153273226295
1.2517160232241265 -0.8653966613636228 0.0037387499957969063
1.2601568398155116 -0.0670725868878236 -0.011129964114646047
0.9680669982345589 -0.08131051928289831 -0.02384861213962848
0.9700910997307046 -0.8574326164378187 -0.012407123138016275
0.9634507562379584 -1.6303603295290656 -0.0054855798419628935
0.9584983277713076 -2.3700944733512315 -0.002261283002635144
0.9558712243082946 -3.061567404070727 -0.0009136258474688875
0.954102498426541 -3.6884453675108406 -0.0006092037392513126
0.9529049048186857 -4.234041759434551 -0.0009743003594827597
0.9524614210047138 -4.6818531795955165 -0.0018075447133200076
0.9534551567594726 -5.01524355646569 -0.0029218916672685176
0.9554675382056008 -5.217672652830345 -0.004536934456909073
0.9541450854608327 -5.280398165546148 -0.006486717851219698
0.952885645914717 -5.218709894651285 -0.004813858449801597
0.9550954629993401 -5.017349089171504 -0.0034593219774285006
0.95644577272982 -4.685085331726514 -0.0025636361523024955
0.9565573556012966 -4.238475923574894 -0.0018627447327522638
0.9561646302920227 -3.6941514326680673 -0.0014686700302004164
0.9555084634767231 -3.0685577789725382 -0.0014633395867743896
0.9543572085799154 -2.3782409314074395 -0.002046630134689175
0.9510247597240733 -1.639179196479917 -0.0038916549410177572
0.9453843915049064 -0.8652885716776091 -0.008890819240624927
0.947909783687221 -0.08526229719085537 -0.018301181277027612
1.2756433278333115 -0.09061160069134244 -0.030156330035997297
1.272803285124114 -0.857780352088646 -0.02327870745690876
1.258802932198651 -1.627965891006927 -0.02211504782366515
1.2383735721269844 -2.3680673998612316 -0.024942569099469826
1.213076801875255 -3.0595035400755344 -0.029308223346550356
1.18222114027027 -3.6860296858247454 -0.03404588571179095
1.1457166292337564 -4.231256915808642 -0.03850404635017932
1.1037852668933388 -4.678844218096856 -0.04221491737356734
1.0580373514009773 -5.012395435172862 -0.04466279513778129
1.0104174919762619 -5.21311585322138 -0.045735782017052334
0.9542739871764572 -5.268088038711275 -0.047485285894763314
0.898194050868475 -5.2141720293939855 -0.04613797042054655
0.8507721297206912 -5.0145409215020615 -0.045456766746723824
0.8053771321367365 -4.682141144555403 -0.04336995151827403
0.7639837545393343 -4.235785732747039 -0.03994796282004769
0.7282330730612888 -3.6918657571250564 -0.035630127511557794
0.6983675040330322 -3.066667621030715 -0.03075616403556446
0.6742550228863079 -2.376402471673197 -0.025790032115503913
0.6549274506570752 -1.6368038523807469 -0.02170451547573773
0.6414987654979349 -0.8654291005426177 -0.020974205284672014
0.6389324297680733 -0.09508081784287169 -0.0258214035862648
1.5852770389196367 -0.09409170804906367 -0.036950322283566435
1.5786014877338983 -0.8574210683232942 -0.03353674874819974
1.5575236750001016 -1.6243714703124155 -0.03808907440656359
1.5221534455226529 -2.363483691290224 -0.04687579462546868
1.474105638544264 -3.0538316415784554 -0.05678146099864595
1.4138408013920183 -3.6791126855629095 -0.06634169674605277
1.3415590114764615 -4.223147282404784 -0.07466681861418854
1.2578591128091254 -4.6694703200032714 -0.08097844099419928
1.1633072788863288 -5.002727033430619 -0.08451317627697076
1.0652864696717055 -5.202409277940269 -0.08331026834747171
0.9544251518258846 -5.241829827002963 -0.08165968006858858
0.8436295732344903 -5.203485245348637 -0.08384083167885688
0.7458120706022957 -5.004913887665908 -0.08557049695080156
0.6516177483842527 -4.672833293351677 -0.08254413087939141
0.5684505789955142 -4.227769931509679 -0.07668457593381023
0.4968880907067271 -3.68507224509427 -0.06867818654446452
0.437500288622588 -3.0611453096332806 -0.059167611869663524
0.3903577953058946 -2.3719550411997274 -0.04883230547210241
0.3556562164176312 -1.6332197703531817 -0.03889142688999107
0.3348145600792369 -0.8649674714052062 -0.03243484233400375
0.3282081034534697 -0.09880984225599122 -0.03378784829214184
1.8995165019164881 -0.09480141410229675 -0.04399729897221999
1.8919521146351816 -0.8562151027708826 -0.043201393236570185
1.8651740659868534 -1.6196459638104492 -0.05286229623345174
1.814309876885123 -2.3562789027090814 -0.06708055272769319
1.7429429409918153 -3.0444400153470705 -0.08196853161977438
1.6526469577031662 -3.667567360918672 -0.09578360317973203
1.543734354483898 -4.2094329419876955 -0.10738170906420383
1.416887009885102 -4.653918525686348 -0.11568183336579596
1.2732930356209788 -4.984428608287376 -0.11966170835712746
1.1135013775509892 -5.187556931946145 -0.11542127463594222
0.9546210720455257 -5.2 -0.09808568477866816
0.7958119297563837 -5.188654341969437 -0.1160842196125811
0.6362387981938392 -4.986659802176143 -0.12099104966238175
0.49302353327963444 -4.657350955299019 -0.11767283315150633
0.36672776810984 -4.2141514438925824 -0.10999589802853779
0.25853286931458386 -3.67364589792933 -0.09890531369299746
0.1690449928455602 -3.0518783883624794 -0.08533762220762929
0.09834904442973919 -2.3648338709230883 -0.0701965764445114
0.04767975951956138 -1.6284766554033316 -0.05491119624312548
0.02062428835474463 -0.8636966264241996 -0.0432636783103959
0.012863651089643848 -0.09957226800561948 -0.041869575687021036
0.0 0.0 0.0
0.022244641284944546 -0.8150304449991661 0.013738862237581998
0.05639782812295132 -1.5587229199815238 0.026240545624924394
0.1047438693199475 -2.2730762548632706 0.03785961582634324
0.17147678144223025 -2.941288890653274 0.04682641857153799
0.2572715429705294 -3.548506930497001 0.053120633776921646
0.3618170067373552 -4.079402300836397 0.05631048413408471
0.48461461648465826 -4.5192525824725145 0.05610095450464705
0.6251782650634458 -4.853653289745109 0.05263031594677596
0.7829324926983742 -5.067467627223623 0.047378708880207086
0.953894092597588 -5.143141984286412 0.04434095038700856
1.124875550572234 -5.0678541559820225 0.04740992709620718
1.2826921224895238 -4.85442515496191 0.05271528283540468
1.4233699688170474 -4.52040698399245 0.056289407088920385
1.5463532257195394 -4.080932917754901 0.05668863634746673
1.6511940886255303 -3.5503967662817355 0.05381900614972604
1.7374624321694865 -2.9434928083828327 0.04804279589563763
1.8049805925106464 -2.275484239004573 0.039803237848733325
1.8546031205450109 -1.5611188718081301 0.029481200991297044
1.8912778573561302 -0.8173227512065471 0.017477194777493057
1.91951563078821 0.0 0.015340899650015175
0.32886573726506757 -0.02369682804877281 0.0020250088705004708
0.34218171261675717 -0.8138443631954914 0.006299070161446942
0.3584431482114235 -1.5639849725698494 0.01638235268224135
0.39091513992957216 -2.279662390298034 0.024650955573206703
0.4353409568509697 -2.9503405069881414 0.03106163018537145
0.4924806685381106 -3.5598602930373224 0.03534770590592848
0.5621139258198631 -4.093089343431071 0.03744584446914621
0.6438717807206037 -4.5352549360121595 0.037271510067555295
0.7372408651549398 -4.872028026508167 0.03502083999179525
0.8415123824083611 -5.088271742667932 0.031540353526136766
0.9539804437770407 -5.165459822934013 0.02931543311550469
1.0664680239719067 -5.088662489773475 0.03145985454809501
1.1708006269054352 -4.872808611084623 0.03487739972072947
1.2642806972020484 -4.536423279161498 0.03710592392508305
1.3462163909163314 -4.09464068925729 0.037332503632063516
1.4161256105061726 -3.561781071767912 0.03541182283608029
1.473698910318787 -2.9525923637465765 0.03148797461065583
1.5188136199855655 -2.282147113591763 0.025745121723743634
1.552467440566882 -1.5665319652817489 0.018420868233246488
1.5708014069585146 -0.8164612169189056 0.010369967303537873
1.5853047718014017 -0.024105374335091023 0.011610236676067386
0.644684456868142 -0.0417240342816428 -0.0036457897487244617
0.6520669069288322 -0.8136849697218298 -0.00028441382607788363
0.6577354170487903 -1.5659373973290205 0.006339364851499482
0.6726109629899892 -2.283671078728727 0.011727578308040715
0.6948197915597771 -2.9556375676766833 0.01547031714175955
0.7232886646480922 -3.5665552699002894 0.017729584621771967
0.7580160482365602 -4.1011415433770475 0.018599306761914465
0.7986843387389087 -4.544604633651985 0.01815931233623697
0.8447281866551454 -4.882693104774254 0.016511638617191852
0.8962738122420404 -5.100867229182793 0.013730599771755348
0.9540737664046001 -5.180393851021921 0.011275256420392298
1.0118926814536309 -5.101264118020248 0.013539891351196194
1.0634971822250217 -4.883486181704778 0.016143426163624717
1.1096462316050277 -4.545792266459019 0.017646683321831714
1.1504784024668226 -4.102719811820583 0.01800910902111656
1.1854512615877282 -3.5685127026053753 0.017182672639486002
1.2142894497341477 -2.957940330060504 0.015171012402576687
1.2370732400968676 -2.2862272425974144 0.011988700666433826
1.2529035457635356 -1.568627629104151 0.007622656594622442
1.2595697164144113 -0.8161458294538971 0.0030990024455161743
1.2673937820044336 -0.04210644399117361 0.0035939567988717
0.9539900267852265 -0.05383368642579585 -0.011287912478549943
0.956492403991875 -0.8142418173353402 -0.007521846880181863
0.9537543585122797 -1.5658513171294033 -0.0036764738556535528
0.9522861272328442 -2.2848505134609276 -0.0012300532530571669
0.9520137740364939 -2.9574128169723553 -0.00016898108364991646
0.9518418772063645 -3.5687678604542485 -3.214150058264158e-05
0.9516594276971432 -4.103804842464135 -0.0005094170366281696
0.9513478978476608 -4.5475759447251285 -0.0014158895011111869
0.9502151358184351 -4.885929333219457 -0.002709937365730569
0.94929211814501 -5.105979982365698 -0.005054429080580461
0.9541705483191836 -5.189948255358395 -0.008387970647049136
0.9590672513261387 -5.106384842900552 -0.005355556450236048
0.9582003652341538 -4.886738429114952 -0.003303250202132288
0.9571655764469738 -4.548787686301391 -0.002275473368159785
0.9570009386782385 -4.105415223364228 -0.0015754541988106676
0.957026607413976 -3.5707659549805166 -0.0011834717228762586
0.9571479452193854 -2.959765585983403 -0.001185390315810431
0.95731356897019 -2.2874779548929594 -0.0017506253371607405
0.9564369211767558 -1.5685677210382707 -0.0031289204716797065
0.9541557315208271 -0.8164693587723301 -0.004959642221689562
0.9568738026432185 -0.054235862073741314 -0.005680302855305021
1.2611716727677313 -0.060729942549161184 -0.019174728629146074
1.2592465186694297 -0.814740552702919 -0.015052362777782047
1.2487836487223982 -1.5643313729864257 -0.013643385300920904
1.2319257568405066 -2.283366186014229 -0.014131431638520014
1.209285769548856 -2.955667082651312 -0.015759418643316404
1.180406883069433 -3.5665545543001738 -0.017764825135544338
1.1452594111101972 -4.1011527745274385 -0.01960829278895618
1.104118108919129 -4.544354589682549 -0.02098255632897419
1.0562907243384736 -4.881791411786315 -0.021820541453205486
1.0022906392723465 -5.103312865779464 -0.023112495146351737
0.9542693535990733 -5.195695817201073 -0.027654218910261034
0.9062656965200077 -5.103727529484775 -0.023526112251456892
0.8523190907197458 -4.882620030636289 -0.022643424855039857
0.8045825404435457 -4.545595161832904 -0.022196689507929173
0.7635711297876442 -4.102800252664911 -0.021161762309353602
0.72859372042297 -3.5685959926414927 -0.019537794849631005
0.6999302526930524 -2.9580695467314215 -0.01751459188199385
0.6775612413365582 -2.2860421172868266 -0.015454177431581888
0.6609891773460648 -1.567023086548456 -0.013886826888785328
0.6506926349898983 -0.8167871016958729 -0.013365850416592422
0.6488756169024137 -0.061167134465821886 -0.014939208782973319
1.5693198235863268 -0.06369886463102838 -0.026411373353610094
1.5636547389335957 -0.8146381992160987 -0.022401684131812986
1.545690728006265 -1.5615473178185975 -0.02348262449636998
1.5138361829921527 -2.279329969032359 -0.026892654164026992
1.4688785275985148 -2.950335168529902 -0.031197133124002095
1.4112371875169443 -3.5598587214934136 -0.03529298343315828
1.3411429712700542 -4.093058209998513 -0.03843068586361998
1.2588410784653687 -4.5350283171415455 -0.04007306386631157
1.1656396683423782 -4.870398065410843 -0.04016827523399503
1.0579928433908368 -5.091233861827789 -0.038916838154382724
0.9543686504765603 -5.1991057681688595 -0.04373774030759599
0.850761634433725 -5.091660279432539 -0.03944679228357659
0.7431662989155083 -4.871249956147634 -0.04122923298445702
0.6500500318661651 -4.536302882958866 -0.04165667084734933
0.5678639033582223 -4.094748292930407 -0.040496091825223644
0.4979078591157322 -3.561947471595633 -0.03772664680556842
0.4404098483773989 -2.952783851574025 -0.03375043142925713
0.3955665039152131 -2.282034587324256 -0.02910358484315399
0.363747225243051 -1.5642062574125022 -0.024630257645634302
0.345739112922338 -0.8165754028928658 -0.021639817029676375
0.3400852937086787 -0.064150562543511 -0.023365924842189113
1.880149621578294 -0.0646471722934418 -0.03196667018162247
1.872538366017454 -0.8137663315773112 -0.02927940272038221
1.847539524909703 -1.5574428428531577 -0.03324732179138636
1.8002480519046336 -2.272612843616671 -0.03970395866651853
1.732837796607655 -2.9412621581295797 -0.04674138429540794
1.646459955029572 -3.5484582879531246 -0.05291033786896658
1.5414048873883657 -4.07937817826011 -0.057216658454766464
1.418023422869299 -4.5188774623014645 -0.05897643989363109
1.2777415766244864 -4.8530307977530125 -0.05773493294865062
1.125298630779524 -5.0668266415123595 -0.05320274285622018
0.9544645913692368 -5.2 -0.051166084544378994
0.7836474739091663 -5.067266922371867 -0.05385434327522649
0.6312548403301654 -4.853910084029991 -0.05904585659962633
0.4910545691436989 -4.520191855980543 -0.060950870399936935
0.36777984031500555 -4.081117738791185 -0.059830050687359596
0.262842190943508 -3.550600317897891 -0.05606450672996767
0.17655855899625686 -2.943756162745532 -0.05019148488301392
0.10914706447821607 -2.2753332141579357 -0.04295714108588122
0.06167176825508901 -1.5600646693440208 -0.03549331028080223
0.03637425948357476 -0.8156383516691827 -0.029533102764469073
0.02863509663885612 -0.06507925244801653 -0.02986923339816025
0.0 0.0 0.0
0.030881523287950033 -0.7942764574819615 0.005936200159993054
0.06495128618409643 -1.5248018689399403 0.011139594916578958
0.11217321333968866 -2.2285809581968277 0.01607289852056964
0.17698275555604162 -2.888714232387332 0.019568888907760353
0.2596497890632818 -3.490978654651967 0.021341914565240126
0.359934226293838 -4.021073724837115 0.021251855614474256
0.47798620358330657 -4.465261355250277 0.01932973501307793
0.6153241609679218 -4.8093942917183075 0.01598110760697012
0.7748732450606012 -5.03557907869289 0.012376231480772484
0.9539419461326887 -5.11785216904365 0.010649529783547902
1.1329875566810217 -5.035487428276866 0.012379554202380674
1.2924638548398688 -4.809182815705992 0.01600155728486719
1.42966819499218 -4.464874916286925 0.01939731142268457
1.547504971890057 -4.020434104723126 0.02141638767299913
1.6474573974121107 -3.4899957183640438 0.021674212711151573
1.7296220758665404 -2.887309422136765 0.020159732657170158
1.7936643794141853 -2.226731688561083 0.01701757512491976
1.8397432110970282 -1.522581323288493 0.012673550300206289
1.8714906282812065 -0.7916265262928055 0.008531589096034669
1.8957019594480242 0.0 0.008704872846799213
0.33027424452548504 -0.02049228023693462 0.00021462996162945497
0.34390909673771786 -0.7941513933920377 0.003046365625195528
0.361928987140212 -1.5302768211171394 0.007029117269419021
0.3942239399353399 -2.235531895367682 0.0106207442405956
0.4377841570287676 -2.8981628850623284 0.01321006779881386
0.4932500050165951 -3.5028477811885272 0.014527998637031091
0.5604535417138533 -4.035488188173103 0.014554622422956806
0.6394812877129838 -4.482407604866454 0.013383041249314661
0.7310660264527057 -4.829739833181503 0.011313864378662
0.8365527340433254 -5.059661722911134 0.009044977857268061
0.953928827508486 -5.144363071184948 0.007900554578273045
1.0712763254296165 -5.059562181557794 0.00897857647215438
1.1766740192848828 -4.829510519423932 0.011190976533726507
1.2680994333070676 -4.481988876948539 0.01322634602609366
1.346880017800882 -4.034794076558563 0.014404339381333696
1.4137216182273096 -3.501775577778731 0.0144475927356461
1.4686679842843926 -2.896615184902097 0.01328756863822016
1.511494642264539 -2.233459158004213 0.01098972797047295
1.5426714126036345 -1.5276875534615664 0.007888178631856237
1.558820081157511 -0.7908899433487925 0.005412761857976972
1.5716808695217817 -0.019480034490405546 0.006908396000139929
0.6424156004354022 -0.03532568702990774 -0.0020584182530569337
0.649427765728927 -0.7938144700629692 -0.00011878128660642467
0.6560306450556306 -1.5327838531493565 0.00260470396489477
0.6716599091016919 -2.239937313508387 0.004993787009367992
0.6939680015338212 -2.903921109182351 0.006603961590945168
0.7220786711357167 -3.5100948251828257 0.007343978542812698
0.7559845905532417 -4.044247362373526 0.00727394668099068
0.7954941129446336 -4.492690541882698 0.006513521038776578
0.8404759552396146 -4.841795116081351 0.005223473787129248
0.8924958956209715 -5.07476230083899 0.003688426593363241
0.9539236485281777 -5.16314719140015 0.0027670548324788694
1.0153178366856346 -5.074658000669815 0.0035540741957298884
1.0672342718789067 -4.841554554868231 0.004961723475802977
1.1120343842311236 -4.4922503344989755 0.006141882048523967
1.1512706791621916 -4.043515128982216 0.006827546426647081
1.1847931995754974 -3.5089572818680264 0.006884922930604473
1.2123852126724841 -2.9022641728677656 0.006233975314663412
1.234000304589738 -2.2376908062714262 0.004868745263104054
1.2486639483127608 -1.5298847588636897 0.0030301599024385954
1.2545184605342923 -0.7905519116985488 0.001824339620043487
1.2615109827341442 -0.0338075767926387 0.002971258223245096
0.9474394936366544 -0.045279572433579766 -0.005655964127530293
0.9495206229534902 -0.7938248988993292 -0.0035953401388025266
0.9473940654732825 -1.5330282146154062 -0.0019054467351641573
0.9470688552865311 -2.2414380638035847 -0.0006782630452782392
0.9478384183050292 -2.9059659841529832 -4.566322711484431e-05
0.9485277588080386 -3.5125954982367764 6.534867518473317e-05
0.9489888372565781 -4.04722795630096 -0.00019276097774537305
0.9489253311425018 -4.495938218236716 -0.000690286281791016
0.9472749208924081 -4.845334914165368 -0.001402988927598784
0.9460263572006588 -5.0813373798670725 -0.00242155937763563
0.9539227680076178 -5.176488214770842 -0.003249331497080843
0.9617808010237215 -5.081231638905953 -0.0026236569781202326
0.9604147359209688 -4.845090092952626 -0.0018028366767165109
0.9585611654376744 -4.495487982353214 -0.001274612806337721
0.9581998639676468 -4.046474946172358 -0.0009299589837953781
0.9582594832549509 -3.511417678448109 -0.0007600703956139417
0.958436877137588 -2.9042367779609295 -0.0008419491488821845
0.9585679467142111 -2.2390582904787477 -0.0012472652518299545
0.9575695236156705 -1.5300044744996124 -0.0018647708532599848
0.9551547364009815 -0.7906576369569577 -0.0021501848729849928
0.9573727440418762 -0.043315920965886115 -0.0018630229629058622
1.2501407125924067 -0.050985258696931456 -0.009627526362469592
1.2478366552379034 -0.7938152133768154 -0.007161739472288608
1.2378863061410315 -1.53161573739971 -0.0064071199085335056
1.222479645523585 -2.2400828434518836 -0.006333631889507693
1.2017495942095677 -2.904244215402254 -0.006675294577030866
1.1749641477825978 -3.5103161515706875 -0.007198393953810984
1.141895127306392 -4.044408557399142 -0.007650948886508978
1.1025271290513303 -4.492289814613 -0.007884471695841633
1.0551478625663433 -4.840316959363211 -0.007986646471161294
0.9999330006859516 -5.078799630181535 -0.00839834880122179
0.9539219721755929 -5.186242486328942 -0.009049703393635297
0.9078675031808696 -5.07869583230199 -0.008669527274663424
0.8525203615067278 -4.840075002340153 -0.008527429452384183
0.8049150193060447 -4.49184122637733 -0.008686210217622232
0.7652221688212831 -4.043652327083865 -0.008686096235222698
0.7317303590106599 -3.5091245028180187 -0.008400865809625027
0.7044354474325271 -2.9024780694006562 -0.007911819547419062
0.683147564861142 -2.2376365454909193 -0.007361046817059274
0.6672800795867408 -1.5285655757407792 -0.006793922781670045
0.6572186827316475 -0.7907155519755011 -0.006239813023363632
0.6550706949827783 -0.04868238857034424 -0.006808286747357602
1.5536487449069787 -0.05349497933920309 -0.013134656098720783
1.5476272504906168 -0.7933869989957809 -0.010467105432031342
1.5301497129421076 -1.528799445522301 -0.010800453009750296
1.500106097708053 -2.236008194667721 -0.01190958774937408
1.4579708351178635 -2.898742918286556 -0.013221242365228576
1.4037378669930052 -3.50328448119599 -0.014338900605063546
1.337300324779046 -4.03573883263495 -0.014904572283394844
1.2584231579463863 -4.482065349475631 -0.014732365991819823
1.167742963758374 -4.827177265946465 -0.013980854603118067
1.0584371609117793 -5.065036917214573 -0.013433556628685275
0.953917044875584 -5.1941313309499675 -0.013544790883172503
0.8493477750004399 -5.0649383871387625 -0.01377670338187135
0.7398928533264499 -4.826945186607014 -0.014669045282199672
0.6489598126032744 -4.481629858476259 -0.01576315747468971
0.5697243837600964 -4.034996789957886 -0.01625743053637266
0.5028318321410128 -3.5021045529430026 -0.015951297686442843
0.44808125553509076 -2.89697997627414 -0.014950531761901323
0.4054531150896658 -2.233558718799957 -0.013476393165962764
0.37509650327148786 -1.525772413977577 -0.011724744651255973
0.35760540316658695 -0.7903212049052509 -0.010107444889468546
0.35174513117912437 -0.05097864949795367 -0.011111373937338557
1.8597927501743015 -0.05438987747870462 -0.015099981165469229
1.8517767752548515 -0.7923746284214149 -0.013181488017582413
1.8272679429670868 -1.5246558647041297 -0.014906452400102523
1.78230638780461 -2.2292664797083916 -0.017248965084276518
1.7187692457129056 -2.88954513346759 -0.019489706047816573
1.6372583396248896 -3.4915714051934335 -0.021080939159357902
1.5376503770089491 -4.021472160397407 -0.021553610615436265
1.4196952174524875 -4.464833909629951 -0.02065173854610208
1.2840467900038857 -4.808390258556837 -0.01859083859271929
1.1338038544552729 -5.036645364625515 -0.016445508297263815
0.9539043649340826 -5.2 -0.015441770168322202
0.7739489905589544 -5.03655523450516 -0.01686515151504466
0.6235368526103772 -4.808174670235478 -0.01943671751955473
0.4876027849316684 -4.464422385354772 -0.021930438966930737
0.36924579631910764 -4.020760680079627 -0.023256882869667365
0.2691338430019714 -3.490427653068107 -0.02315902590337189
0.18706885382886396 -2.887824752325614 -0.021806034742548882
0.1230602680380972 -2.226872699129861 -0.019506088132325527
0.0779129568511567 -1.5217013766640812 -0.016561796867651364
0.05355107164326208 -0.7893446646117379 -0.013481502912620638
0.04575394081024878 -0.05177147542173511 -0.013670297114261489
0.0 0.0 0.0
0.03275897937695177 -0.7887054516544051 -7.261709398856263e-14
0.06701682624387147 -1.5151324009650076 -1.3696585369615908e-13
0.11371266486930298 -2.2156864236126697 -1.9854622738786196e-13
0.17755923026985432 -2.8737425112371104 -2.560448900844294e-13
0.2589646566746305 -3.475282369310809 -3.2018776735909817e-13
0.35780331062303505 -4.006288661930001 -3.964338152081376e-13
0.4745835947564362 -4.453169336252594 -4.898207358485998e-13
0.6114948599104995 -4.8014070796579595 -5.663115614545654e-13
0.7721751990332205 -5.031741147264992 -6.407036084492495e-13
0.9539154111703745 -5.115917304864334 -7.166042820141546e-13
1.1356142413902726 -5.031464706892362 -7.956692419379873e-13
1.2961646415933612 -4.800813704106723 -8.659452745793377e-13
1.4328384831102183 -4.45217956094507 -9.0361128738233e-13
1.5492363599497625 -4.004789873949434 -9.69376393307252e-13
1.6474799216293459 -3.4731477026247686 -1.0282696281411624e-12
1.7279655677963395 -2.8708728787153492 -1.1452226291142394e-12
1.7903885909820507 -2.212090554155122 -1.270306996309084e-12
1.8348998207134684 -1.5109815516433138 -1.4062101897067006e-12
1.8655175136799704 -0.7842964429291287 -1.5466519546484372e-12
1.8887139256030434 0.0 -1.6493640988621306e-12
0.3301620903904791 -0.019814900627080037 -1.4577835059548404e-14
0.3438595275256568 -0.7889620214720431 -6.5547080335782e-14
0.36253502919240893 -1.5207139410601467 -1.2738565835659127e-13
0.39465227447949647 -2.222759364932402 -1.9139281794533228e-13
0.4377251773277141 -2.8833135883113976 -2.5504012655667804e-13
0.49249321224152565 -3.487325282824154 -3.2441991246009323e-13
0.5588956125197422 -4.020980943530033 -3.980503484837913e-13
0.637248134656919 -4.470774570609922 -4.83339958714915e-13
0.7286739545737396 -4.822470425104971 -5.643683573809121e-13
0.8348936554734535 -5.056808850695329 -6.494796051969338e-13
0.9538652207605154 -5.143552091144842 -7.238949774202193e-13
1.072787651423028 -5.056519359768947 -8.097620350105541e-13
1.1788546087027996 -4.821847827821376 -8.944497090402759e-13
1.2700071675321973 -4.4697324492798165 -9.57232257935062e-13
1.3479341740829747 -4.019394580231809 -1.0352545901198966e-12
1.4137052144467015 -3.4850474080716425 -1.1169216939246563e-12
1.4675480216649044 -2.8802167659502174 -1.218012231322433e-12
1.509267262653556 -2.218802861397476 -1.3319347196948667e-12
1.5393701665682054 -1.5160168863413568 -1.4523804857848317e-12
1.5550734559866997 -0.7835913025208281 -1.574391708875889e-12
1.5674531713957975 -0.018675353723075157 -1.6631007676880793e-12
0.6411969396477186 -0.03447097217882543 -1.5925211964311856e-14
0.6481319434540698 -0.7886271717003772 -6.355330040413506e-14
0.6551707311021362 -1.5233417471020478 -1.212792837467164e-13
0.6709548580232246 -2.2272057828028484 -1.8743191782294618e-13
0.6931712401548666 -2.8891055957297755 -2.5354717442230037e-13
0.7210770843627425 -3.4946127400708735 -3.2829202358527136e-13
0.7547170685149447 -4.029821008712542 -4.0574292009298954e-13
0.7940034998442622 -4.481212999059165 -4.805696625415586e-13
0.8389741992140098 -4.834789237848277 -5.753650278554414e-13
0.8913959683565621 -5.072283229595665 -6.59554065040025e-13
0.9538234428841426 -5.162839097942235 -7.384560507152403e-13
1.0161949884060821 -5.07198442426348 -8.335094952759691e-13
1.0684444141596687 -4.834145465194348 -9.232646057296322e-13
1.1131125386835485 -4.480132334878036 -1.008884530304527e-12
1.151942276937454 -4.028168999217497 -1.0976800823308707e-12
1.1849341922860812 -3.4922264283328586 -1.1884344731722832e-12
1.2119413890736712 -2.8858295906443168 -1.2849206747884083e-12
1.2329213462591575 -2.2229751238986015 -1.3874391521299617e-12
1.2470108733110683 -1.5181804446883354 -1.4973534064532954e-12
1.252732262583732 -0.7832613079779629 -1.6046059810755346e-12
1.2594789732904255 -0.03243249748960299 -1.6956552419226362e-12
0.9448570661037254 -0.04432505641662333 -1.3414457222417775e-14
0.9469205143131937 -0.7886005191789963 -6.1024509914312e-14
0.9451599631297163 -1.5236584238757211 -1.1752919755762035e-13
0.9451810679389531 -2.228769075007771 -1.8571028184385102e-13
0.9462279524792984 -2.891188189437367 -2.538705575013153e-13
0.9471676947998697 -3.497147475862719 -3.306832289869353e-13
0.9478536878969844 -4.032840475443654 -4.1161205097332816e-13
0.9479690821247821 -4.484508575700434 -4.887953177638194e-13
0.946428294841204 -4.838395166128118 -5.840009825535491e-13
0.9452870145979098 -5.078956288442631 -6.732304147079993e-13
0.9537854897592711 -5.176447611006488 -7.571664092765836e-13
0.9622215554088122 -5.078652098356533 -8.596788387182764e-13
0.9608894103033072 -4.837738691118415 -9.491183292609337e-13
0.9590189793970886 -4.483403741455853 -1.0548631365561887e-12
0.9586506530370903 -4.03114587756406 -1.1543630948954457e-12
0.9586795090310979 -3.4946871980822336 -1.2505278839950361e-12
0.9587644621806908 -2.887788080185675 -1.3454139273472812e-12
0.9587186027082553 -2.2243267357431424 -1.4399689265195865e-12
0.9575605082274431 -1.5183132237774806 -1.5407553845063422e-12
0.9552201246780311 -0.7833769993904293 -1.6383225156210563e-12
0.9573737602475256 -0.04153281617368239 -1.7345520781472507e-12
1.24602221184579 -0.049965127418992256 -1.0044833037621863e-14
1.2438333909705843 -0.7885569743667962 -5.827292187068178e-14
1.234304431629024 -1.5222996068945787 -1.153816120435949e-13
1.219427791334639 -2.2274879454111294 -1.8194228094817347e-13
1.1993205329193422 -2.88952423805533 -2.527882160569058e-13
1.1732407612765796 -3.4949093859937665 -3.295763801016461e-13
1.1408868298802888 -4.030039111089873 -4.1730306399103743e-13
1.1021148606481108 -4.480834861101327 -4.988241928402131e-13
1.0549995570748458 -4.833297134677415 -5.94462802915273e-13
0.9995574974085204 -5.076306552229649 -6.874626836259147e-13
0.953746919526963 -5.186327442591896 -7.789662741537627e-13
0.9078671217864208 -5.076000975081095 -8.821136525924486e-13
0.8522146334160602 -4.83263653954201 -9.855608505227646e-13
0.8047406663544793 -4.479720440830909 -1.09688516500483e-12
0.7654544826568189 -4.028324837178192 -1.206864933437293e-12
0.7324303150856786 -3.4924117245822375 -1.3157945745039406e-12
0.7055351635547006 -2.8860519985334574 -1.4043140905087251e-12
0.6845165257004185 -2.2229342403342676 -1.4926358905690822e-12
0.6688564366877232 -1.5169173619676044 -1.5824835731273966e-12
0.6590780024831586 -0.7834422105068799 -1.6721882747783701e-12
0.6570539744543947 -0.04663237684562504 -1.7736587854365552e-12
1.547866506349713 -0.05244142683638112 -6.811434022182048e-15
1.5421380379027 -0.788095908844584 -5.561880849738597e-14
1.5252275643716118 -1.5195290400071053 -1.124168275701791e-13
1.4959385856594374 -2.2234885197994525 -1.7805081429434465e-13
1.4547945797166677 -2.884088964674706 -2.5329004063221884e-13
1.40175351032428 -3.4879135664387064 -3.382626143017762e-13
1.3365707162266678 -4.021344769465173 -4.1634170744878574e-13
1.2587584590250844 -4.470496623412476 -5.013454576213198e-13
1.1686021018290549 -4.819896419325305 -6.073753764913052e-13
1.0586394992912571 -5.062161944116821 -6.928489700662852e-13
0.9537032725087666 -5.194221947689769 -7.946153228923886e-13
0.8486900349416476 -5.061858900871633 -8.962210606114413e-13
0.7384942850354201 -4.81924013554585 -1.0141881665628075e-12
0.6479441140686758 -4.469386814887176 -1.1388744015819148e-12
0.5695766064828254 -4.019633428014961 -1.258537044835018e-12
0.5036921032107179 -3.4854138664733423 -1.3769724642187855e-12
0.4498554420684076 -2.880604034589316 -1.4685501563304402e-12
0.40795335773844027 -2.2189201126249642 -1.5493801844726336e-12
0.37817831239387395 -1.5141855702270135 -1.6257757933979538e-12
0.3612335225028461 -0.7830450383551395 -1.7022236086227412e-12
0.3557226279015246 -0.04878411407967784 -1.8073221581922187e-12
1.8522358029790364 -0.05325991909358079 -3.5248785077736772e-15
1.8446856566111756 -0.786999382907945 -5.211283423102926e-14
1.8209328383546466 -1.5153795577349414 -1.0717579825741091e-13
1.7770302067915662 -2.2167575533119406 -1.7193442337228696e-13
1.7149318584963 -2.8748706130249864 -2.5494484315561675e-13
1.6351806148172705 -3.4761064438645795 -3.4992345216396997e-13
1.537470913310608 -4.006860340466183 -4.116459980829935e-13
1.421194507155708 -4.4528451015550425 -5.018527386102695e-13
1.2863530421444882 -4.800465949034171 -5.940648070777899e-13
1.1353311952182232 -5.03270710205405 -6.92126361172127e-13
0.9536498901085136 -5.2 -7.992427473741846e-13
0.7718821452603812 -5.032410322037796 -9.043807981723027e-13
0.6205991086899585 -4.799821981957321 -1.0217924163327135e-12
0.4853184494484787 -4.451753445839979 -1.1755793046944775e-12
0.3684278350623503 -4.005173244035439 -1.310302206814682e-12
0.269954405971921 -3.473638791850451 -1.4528264451008572e-12
0.18937602011788307 -2.871432511162022 -1.5427847834817997e-12
0.12659908442656087 -2.2122689638038486 -1.6164087539694433e-12
0.0824808973657004 -1.5101589286272423 -1.6715349312541663e-12
0.05902019286505474 -0.7820218461654035 -1.7278666565161275e-12
0.05182190736255388 -0.04945608459793907 -1.8270502492180842e-12
0.0 0.0 0.0
0.030881523288081178 -0.7942764574820259 -0.005936200160138756
0.06495128618429843 -1.524801868940046 -0.011139594916841331
0.11217321333994523 -2.228580958196885 -0.01607289852095564
0.17698275555631973 -2.8887142323873083 -0.019568888908273154
0.25964978906356145 -3.4909786546519497 -0.02134191456589093
0.3599342262941314 -4.02107372483709 -0.021251855615243592
0.4779862035836266 -4.465261355250266 -0.01932973501394371
0.6153241609682615 -4.809394291718323 -0.015981107607997737
0.7748732450609761 -5.035579078692795 -0.012376231481993329
0.9539419461331041 -5.117852169043562 -0.010649529784926707
1.1329875566814953 -5.035487428276754 -0.012379554203913547
1.2924638548404084 -4.809182815705665 -0.016001557286530552
1.4296681949927408 -4.464874916286371 -0.019397311424485225
1.5475049718906162 -4.020434104722469 -0.021416387674945973
1.647457397412568 -3.489995718363156 -0.021674212713276374
1.7296220758668794 -2.887309422136032 -0.020159732659489133
1.7936643794144753 -2.2267316885604567 -0.017017575127469563
1.8397432110972705 -1.5225813232880103 -0.012673550303024151
1.871490628281407 -0.791626526292529 -0.008531589099120048
1.895701959448178 0.0 -0.008704872850078942
0.33027424452560467 -0.02049228023694232 -0.00021462996166093207
0.34390909673786696 -0.7941513933921185 -0.003046365625328922
0.3619289871404093 -1.5302768211172542 -0.00702911726967749
0.3942239399355768 -2.2355318953677314 -0.010620744240979366
0.4377841570290348 -2.8981628850623213 -0.013210067799331914
0.49325000501687516 -3.5028477811885006 -0.014527998637687708
0.5604535417141456 -4.035488188173085 -0.01455462242374688
0.6394812877133007 -4.48240760486646 -0.013383041250231703
0.7310660264530296 -4.829739833181514 -0.011313864379745821
0.8365527340436786 -5.059661722911096 -0.009044977858519855
0.9539288275088905 -5.14436307118488 -0.0079005545796966
1.0712763254300455 -5.0595621815576965 -0.00897857647373942
1.176674019285346 -4.829510519423683 -0.011190976535460747
1.2680994333075795 -4.481988876948006 -0.013226346027995769
1.3468800178013691 -4.034794076557898 -0.014404339383395798
1.4137216182277512 -3.5017755777777904 -0.014447592737900507
1.4686679842847834 -2.8966151849013433 -0.013287568640668039
1.5114946422648758 -2.233459158003574 -0.010989727973138028
1.5426714126039427 -1.5276875534610794 -0.007888178634769436
1.5588200811578017 -0.7908899433485144 -0.005412761861118963
1.571680869522056 -0.019480034490375348 -0.006908396003452901
0.6424156004355677 -0.035325687029921844 0.002058418253021159
0.649427765729109 -0.7938144700630526 0.00011878128647750898
0.656030645055827 -1.532783853149459 -0.002604703965146123
0.6716599091019214 -2.239937313508458 -0.004993787009750877
0.6939680015340709 -2.9039211091823405 -0.0066039615914658
0.7220786711359806 -3.510094825182774 -0.007343978543474978
0.755984590553527 -4.044247362373522 -0.0072739466817993495
0.7954941129449266 -4.492690541882709 -0.006513521039741621
0.8404759552399221 -4.841795116081365 -0.005223473788254802
0.8924958956213201 -5.074762300838948 -0.003688426594663223
0.9539236485285476 -5.1631471914000935 -0.00276705483395235
1.0153178366860258 -5.074658000669692 -0.0035540741973711376
1.067234271879326 -4.841554554868036 -0.004961723477611754
1.1120343842315703 -4.492250334498461 -0.006141882050523097
1.1512706791626455 -4.043515128981586 -0.006827546428823585
1.1847931995759355 -3.5089572818671315 -0.0068849229329813735
1.2123852126728953 -2.90226417286699 -0.006233975317227899
1.2340003045901264 -2.2376908062707903 -0.0048687452658840325
1.2486639483131188 -1.5298847588631974 -0.0030301599054380498
1.254518460534656 -0.7905519116982743 -0.001824339623249432
1.2615109827344948 -0.03380757679258191 -0.0029712582266259438
0.9474394936368447 -0.04527957243360265 0.00565596412749935
0.9495206229536871 -0.7938248988994053 0.0035953401386761936
0.9473940654734824 -1.5330282146154999 0.001905446734919895
0.9470688552867497 -2.2414380638036553 0.0006782630449006273
0.9478384183052618 -2.9059659841529726 4.566322659354924e-05
0.9485277588082847 -3.512595498236738 -6.534867586053355e-05
0.9489888372568428 -4.047227956300944 0.0001927609769168736
0.9489253311427757 -4.495938218236707 0.0006902862807998372
0.9472749208927037 -4.8453349141654485 0.0014029889264273133
0.9460263572009815 -5.081337379867059 0.0024215593762961737
0.953922768007962 -5.176488214770739 0.003249331495549574
0.961780801024072 -5.08123163890586 0.0026236569764197947
0.960414735921348 -4.84509009295247 0.0018028366748285422
0.958561165438061 -4.495487982352738 0.0012746128042451952
0.958199863968048 -4.046474946171764 0.0009299589815062611
0.9582594832553718 -3.5114176784472164 0.0007600703931199122
0.9584368771380234 -2.9042367779601728 0.0008419491461974399
0.9585679467146352 -2.239058290478077 0.001247265248943023
0.95756952361609 -1.5300044744991381 0.0018647708501753353
0.9551547364014055 -0.7906576369566842 0.0021501848697117795
0.9573727440423058 -0.04331592096581295 0.0018630229594433787
1.250140712592613 -0.05098525869696428 0.0096275263624471
1.247836655238105 -0.793815213376878 0.007161739472167321
1.2378863061412302 -1.531615737399793 0.0064071199082940304
1.222479645523794 -2.2400828434519426 0.006333631889133101
1.20174959420979 -2.904244215402258 0.006675294576509281
1.1749641477828177 -3.5103161515706227 0.007198393953122539
1.141895127306637 -4.044408557399141 0.007650948885665161
1.1025271290515977 -4.492289814613006 0.007884471694818294
1.0551478625666344 -4.840316959363293 0.007986646469962616
0.9999330006862511 -5.078799630181551 0.008398348799844017
0.9539219721759109 -5.186242486328862 0.009049703392046688
0.9078675031812059 -5.078695832301921 0.008669527272899982
0.8525203615070541 -4.840075002339977 0.008527429450417335
0.8049150193063892 -4.491841226376873 0.008686210215435258
0.7652221688216441 -4.043652327083284 0.008686096232822642
0.7317303590110653 -3.5091245028171443 0.008400865807017568
0.7044354474329746 -2.9024780693998875 0.007911819544614805
0.683147564861599 -2.237636545490235 0.007361046814062854
0.6672800795872166 -1.5285655757403058 0.006793922778502171
0.6572186827321356 -0.7907155519752332 0.0062398130200214605
0.6550706949832722 -0.04868238857026041 0.006808286743812531
1.553648744907186 -0.05349497933924196 0.013134656098708966
1.5476272504908213 -0.793386998995831 0.010467105431916498
1.5301497129423034 -1.528799445522375 0.010800453009518346
1.5001060977082459 -2.2360081946677948 0.011909587749003572
1.4579708351180714 -2.8987429182865254 0.013221242364708126
1.403737866993224 -3.503284481195907 0.014338900604378075
1.3373003247792863 -4.035738832634972 0.014904572282537255
1.2584231579466585 -4.482065349475608 0.01473236599076165
1.1677429637586618 -4.827177265946562 0.013980854601890831
1.0584371609120589 -5.065036917214571 0.013433556627266868
0.9539170448758844 -5.19413133094993 0.013544790881538172
0.8493477750007421 -5.0649383871386835 0.013776703380048742
0.7398928533267364 -4.826945186606889 0.014669045280154962
0.6489598126035693 -4.481629858475817 0.015763157472408407
0.5697243837604098 -4.034996789957323 0.01625743053386248
0.5028318321413933 -3.502104552942185 0.015951297683709283
0.44808125553554573 -2.8969799762733603 0.014950531758974457
0.40545311509016385 -2.233558718799277 0.013476393162859085
0.3750965032720259 -1.5257724139771083 0.011724744648000794
0.3576054031671418 -0.7903212049049932 0.010107444886060751
0.35174513117968675 -0.050978649497864924 0.011111373933721637
1.8597927501745097 -0.05438987747874839 0.015099981165465274
1.8517767752550558 -0.792374628421455 0.013181488017477004
1.8272679429672856 -1.5246558647042086 0.014906452399881158
1.7823063878047871 -2.229266479708452 0.017248965083913163
1.7187692457130865 -2.8895451334675593 0.019489706047298033
1.637258339625106 -3.4915714051933664 0.021080939158683747
1.5376503770091938 -4.021472160397392 0.02155361061455756
1.4196952174527617 -4.464833909629934 0.020651738545018193
1.2840467900041745 -4.808390258556915 0.01859083859145475
1.1338038544555273 -5.0366453646255085 0.016445508295814322
0.9539043649343598 -5.2 0.015441770166668969
0.7739489905592296 -5.036555234505064 0.016865151513164145
0.6235368526106054 -4.808174670235364 0.019436717517414936
0.4876027849318749 -4.464422385354372 0.021930438964552584
0.3692457963193596 -4.020760680079053 0.023256882867039183
0.269133843002313 -3.490427653067336 0.023159025900512456
0.18706885382933366 -2.887824752324846 0.021806034739491414
0.12306026803865835 -2.22687269912919 0.019506088129113128
0.07791295685176979 -1.5217013766636158 0.016561796864307924
0.053551071643889704 -0.7893446646114748 0.013481502909149628
0.04575394081087867 -0.05177147542164688 0.013670297110601309
0.0 0.0 0.0
0.022244641285223552 -0.8150304449993038 -0.01373886223775296
0.05639782812336536 -1.558722919981614 -0.026240545625232793
0.10474386932043794 -2.2730762548633026 -0.037859615826779505
0.1714767814427977 -2.941288890653274 -0.04682641857208797
0.25727154297117705 -3.5485069304969254 -0.053120633777571126
0.36181700673809275 -4.0794023008362 -0.05631048413482247
0.4846146164853715 -4.5192525824720455 -0.05610095450550448
0.625178265064086 -4.853653289744565 -0.05263031594775941
0.7829324926990838 -5.067467627223314 -0.04737870888135865
0.9538940925984359 -5.143141984285936 -0.044340950388303706
1.1248755505731525 -5.067854155981551 -0.047409927097675594
1.2826921224905363 -4.854425154961158 -0.052715282837017846
1.4233699688180674 -4.520406983991468 -0.05628940709070596
1.5463532257204937 -4.080932917753647 -0.05668863634942743
1.6511940886263896 -3.5503967662804197 -0.05381900615188013
1.7374624321702141 -2.9434928083814236 -0.04804279589796848
1.804980592511221 -2.275484239003368 -0.039803237851293256
1.8546031205454605 -1.5611188718071696 -0.029481200994114352
1.8912778573565023 -0.8173227512059444 -0.017477194780577972
1.9195156307884766 0.0 -0.015340899653291806
0.32886573726530394 -0.02369682804879494 -0.002025008870536751
0.34218171261705366 -0.8138443631956411 -0.00629907016160147
0.35844314821181994 -1.5639849725699457 -0.016382352682534834
0.39091513993004845 -2.2796623902980744 -0.02465095557362877
0.43534095685151136 -2.95034050698816 -0.03106163018591196
0.49248066853871475 -3.5598602930372722 -0.035347705906587486
0.5621139258205162 -4.093089343430897 -0.037445844469922884
0.6438717807212592 -4.535254936011629 -0.03727151006846212
0.7372408651556122 -4.872028026507622 -0.035020839992842875
0.8415123824090773 -5.088271742667639 -0.03154035352735225
0.9539804437778406 -5.165459822933574 -0.02931543311688981
1.066468023972777 -5.08866248977298 -0.031459854549640225
1.170800626906344 -4.872808611083876 -0.03487739972243881
1.264280697202974 -4.536423279160466 -0.037105923926964164
1.3462163909172165 -4.094640689256028 -0.03733250363412995
1.4161256105069935 -3.561781071766573 -0.03541182283833634
1.4736989103195346 -2.952592363745185 -0.03148797461310975
1.5188136199862217 -2.282147113590508 -0.025745121726421454
1.552467440567452 -1.5665319652807848 -0.018420868236153916
1.5708014069590668 -0.8164612169183114 -0.010369967306683159
1.585304771801914 -0.02410537433500536 -0.011610236679376435
0.6446844568684694 -0.041724034281676335 0.0036457897486827737
0.6520669069291782 -0.8136849697219823 0.0002844138259306523
0.6577354170491843 -1.565937397329134 -0.0063393648517792835
0.6726109629904469 -2.2836710787287795 -0.011727578308449482
0.6948197915602888 -2.955637567676716 -0.015470317142297277
0.7232886646486578 -3.5665552699002476 -0.017729584622444377
0.7580160482371525 -4.1011415433768486 -0.018599306762721472
0.7986843387395285 -4.544604633651477 -0.018159312337183223
0.8447281866558075 -4.882693104773738 -0.016511638618290362
0.8962738122427304 -5.100867229182498 -0.013730599773023546
0.9540737664053612 -5.180393851021495 -0.011275256421861373
1.01189268145445 -5.101264118019783 -0.013539891352819324
1.063497182225851 -4.883486181703993 -0.01614342616542497
1.1096462316058584 -4.545792266458032 -0.017646683323808865
1.1504784024676526 -4.102719811819292 -0.018009109023286805
1.1854512615885349 -3.5685127026040253 -0.017182672641851394
1.2142894497349237 -2.9579403300591087 -0.015171012405154364
1.2370732400975917 -2.2862272425961234 -0.011988700669216652
1.2529035457642337 -1.56862762910321 -0.007622656597617172
1.2595697164151094 -0.8161458294532998 -0.0030990024487236346
1.2673937820051042 -0.04210644399102641 -0.003593956802251671
0.9539900267856039 -0.05383368642584368 0.011287912478520425
0.9564924039922558 -0.8142418173354744 0.0075218468800416095
0.9537543585126822 -1.5658513171295314 0.0036764738553908046
0.9522861272332781 -2.2848505134609884 0.0012300532526594464
0.9520137740369726 -2.9574128169723957 0.00016898108311535183
0.9518418772068832 -3.568767860454211 3.2141499902015314e-05
0.9516594276977047 -4.103804842463954 0.0005094170357997261
0.9513478978482429 -4.547575944724707 0.0014158895001206225
0.9502151358190676 -4.885929333218974 0.002709937364585325
0.949292118145678 -5.105979982365444 0.00505442907925394
0.9541705483199052 -5.189948255358079 0.008387970645516189
0.9590672513269056 -5.106384842900057 0.005355556448535601
0.9582003652349066 -4.886738429114151 0.0033032502002471537
0.9571655764477287 -4.548787686300401 0.0022754733660845937
0.9570009386790213 -4.105415223362968 0.0015754541965297675
0.9570266074147724 -3.5707659549791506 0.0011834717203913386
0.9571479452201728 -2.959765585981975 0.0011853903131196076
0.9573135689709931 -2.2874779548916857 0.0017506253342699457
0.9564369211775761 -1.5685677210373299 0.0031289204685967928
0.9541557315216598 -0.8164693587717349 0.004959642218411729
0.9568738026440392 -0.054235862073552014 0.005680302851842122
1.2611716727681352 -0.06072994254922141 0.019174728629133577
1.259246518669827 -0.8147405527030401 0.015052362777654243
1.2487836487228074 -1.5643313729865551 0.013643385300674014
1.2319257568409336 -2.2833661860142924 0.014131431638139666
1.2092857695492951 -2.955667082651352 0.015759418642782567
1.180406883069916 -3.566554554300201 0.017764825134851493
1.1452594111107068 -4.10115277452729 0.019608292788097913
1.104118108919688 -4.54435458968209 0.02098255632794975
1.0562907243390882 -4.88179141178586 0.021820541452009193
1.0022906392729816 -5.103312865779206 0.02311249514496895
0.9542693535997352 -5.195695817200818 0.02765421890867126
0.9062656965207095 -5.103727529484273 0.023526112249684743
0.8523190907204167 -4.882620030635433 0.022643424853066377
0.8045825404442326 -4.545595161831945 0.02219668950574822
0.7635711297883807 -4.102800252663678 0.021161762306950882
0.7285937204237495 -3.5685959926401347 0.01953779484702621
0.6999302526938723 -2.95806954673 0.0175145918791872
0.6775612413374339 -2.286042117285586 0.015454177428586284
0.6609891773470032 -1.5670230865475285 0.01388682688561191
0.6506926349908547 -0.8167871016952625 0.013365850413240383
0.6488756169033656 -0.06116713446561379 0.014939208779427362
1.5693198235867598 -0.06369886463109191 0.026411373353615493
1.5636547389340154 -0.8146381992162138 0.022401684131701714
1.5456907280066645 -1.5615473178187267 0.02348262449613986
1.5138361829925748 -2.2793299690324282 0.026892654163660445
1.468878527598932 -2.95033516852994 0.031197133123479884
1.4112371875173764 -3.559858721493485 0.035292983432455266
1.3411429712705127 -4.093058209998328 0.03843068586273348
1.2588410784658848 -4.535028317141184 0.04007306386523803
1.165639668342993 -4.8703980654104075 0.040168275232736785
1.0579928433914398 -5.091233861827529 0.038916838152954374
0.9543686504771709 -5.19910576816871 0.043737740305953
0.8507616344343489 -5.091660279432022 0.03944679228173843
0.7431662989160925 -4.871249956146735 0.04122923298238742
0.6500500318667819 -4.536302882957918 0.04165667084505089
0.5678639033589024 -4.094748292929166 0.04049609182269825
0.4979078591164919 -3.561947471594257 0.0377266468028408
0.44040984837825364 -2.952783851572616 0.03375043142633047
0.39556650391617926 -2.2820345873230625 0.029103584840048394
0.3637472252440966 -1.5642062574115743 0.02463025764237095
0.3457391129234194 -0.8165754028922578 0.021639817026251503
0.3400852937097715 -0.06415056254329402 0.023365924838568253
1.8801496215787339 -0.06464717229350792 0.03196667018164371
1.8725383660178996 -0.8137663315774241 0.02927940272029121
1.8475395249101094 -1.5574428428532763 0.033247321791174726
1.8002480519050152 -2.2726128436167574 0.03970395866617039
1.7328377966080697 -2.9412621581296055 0.04674138429490278
1.646459955029955 -3.5484582879531485 0.052910337868255865
1.541404887388741 -4.07937817825993 0.05721665845384584
1.4180234228697857 -4.518877462301138 0.058976439892490226
1.277741576625095 -4.853030797752628 0.05773493294732171
1.1252986307801867 -5.06682664151209 0.05320274285473278
0.9544645913698004 -5.2 0.05116608454270587
0.7836474739096293 -5.067266922371351 0.053854343273320705
0.6312548403306609 -4.8539100840291125 0.05904585659744744
0.49105456914424517 -4.520191855979615 0.06095087039751422
0.3677798403155997 -4.081117738789957 0.05983005068470544
0.26284219094424377 -3.550600317896526 0.0560645067271142
0.1765585589971552 -2.9437561627441666 0.05019148487996889
0.10914706447927475 -2.275333214156767 0.04295714108266521
0.06167176825624921 -1.5600646693431215 0.035493310277445074
0.036374259484798034 -0.8156383516685785 0.029533102760978508
0.028635096640104066 -0.06507925244779932 0.029869233394485824
0.0 0.0 0.0
0.023780802808980168 -0.8623273649624776 -0.020640835409940918
0.05726578560149277 -1.6249695730376674 -0.044444042392950606
0.10357805706339493 -2.3595829352214097 -0.06345212387245713
0.1694833011825965 -3.046250807112465 -0.08067616298891764
0.25590585721312575 -3.668783652771358 -0.09491691829982203
0.3624890058511749 -4.2100754460208645 -0.1055820250219432
0.48858800053963414 -4.653583956460978 -0.11191383380013695
0.6324795625861144 -4.983183185200498 -0.11338201685161739
0.7898827662319895 -5.18510512177992 -0.11085418443784169
0.9537013911964747 -5.252388269274226 -0.10856638599097286
1.1175782368641491 -5.1860903226684805 -0.11094533944055933
1.2751674611582235 -4.985176565107457 -0.11359630458767012
1.419408450840108 -4.656627476968813 -0.1123219830211535
1.5460848364394255 -4.21421938273245 -0.10630579824235285
1.6535755163361725 -3.674060611927035 -0.09615171075725062
1.7413790921768122 -3.0526301679547254 -0.0826989142676704
1.8093424772592361 -2.3668921821651665 -0.06674032249102244
1.8586524116201781 -1.632871516890607 -0.04929607990376694
1.8973080409287435 -0.8701860789165027 -0.02930688346110979
1.9334989586733422 0.0 0.0001673278777521967
0.3384419349292533 -0.03682368084304792 0.010837457024273358
0.3530492079003903 -0.8584994707585868 -0.010812900144687717
0.3648253509160298 -1.630161446043895 -0.0281546358298777
0.39517323890002054 -2.3656820012569213 -0.04285218984156593
0.43798754036992027 -3.0550235732271367 -0.05515337996715905
0.4945169240253933 -3.6799013199073194 -0.0652750171261352
0.5644377860236313 -4.22356077056826 -0.07277559050688566
0.6473064075486366 -4.669340785025703 -0.07730935745302729
0.7419922639170844 -5.000912571627823 -0.07863852599774655
0.8457403135804327 -5.203981811719252 -0.07730800591026904
0.9538788568252872 -5.27133012040921 -0.07589279463902893
1.0620789652860605 -5.204983223703125 -0.07727663170078564
1.1660222387029975 -5.002941402514708 -0.07860297091945935
1.2610694274133059 -4.672445385026265 -0.07733125581133715
1.3445226462608268 -4.227801584008118 -0.07296652454795001
1.4153375161412105 -3.685326440776123 -0.06581639218505489
1.4731920586225609 -3.0616201849795366 -0.05633951117542936
1.5179141659859434 -2.3733033270229615 -0.04507569305738189
1.5510252874828825 -1.6385112819869645 -0.03218587387558914
1.5667415918891607 -0.8669804345018264 -0.01670678723667906
1.5834608558214414 -0.03886028755011928 0.004370713753328968
0.6579500412317246 -0.06393537416729157 0.017710369025164832
0.6654821606857356 -0.8572148089100107 0.0009584048298904458
0.6667963941686339 -1.6313387109077286 -0.011422162814694685
0.6785717610825714 -2.3693664868947617 -0.02054872487380014
0.6987964468377246 -3.0600553137935336 -0.027531811805066767
0.7260075187496693 -3.686417527228595 -0.03286163579467399
0.7601680839272773 -4.231486422479409 -0.03657095063179563
0.8011083609935736 -4.678682068827644 -0.03858404657178066
0.8485267569792799 -5.011474940825314 -0.03886245318295915
0.9007880758197259 -5.21478964724942 -0.037501993609585504
0.9540195684289596 -5.280992293321086 -0.03596823866630918
1.0073138082970994 -5.215808581788295 -0.03734829611441022
1.05977288406394 -5.013541495690507 -0.0385770185261236
1.107552804951202 -4.681849986622535 -0.038219021975340925
1.1490668781193272 -4.235824525936759 -0.0362253052884847
1.1840834591034666 -3.69198589866696 -0.032708627006766806
1.2125246836865975 -3.0668572049388123 -0.027852932353959636
1.2344632250024543 -2.377262358990088 -0.021789678853332294
1.2485291476859341 -1.640052024389883 -0.014208153276206325
1.2517160232252207 -0.865396661362719 -0.0037387499990129912
1.2601568398165595 -0.0670725868875306 0.01112996411119616
0.9680669982351953 -0.08131051928301981 0.023848612139611904
0.9700910997313499 -0.857432616438083 0.012407123137855783
0.9634507562386216 -1.630360329529383 0.005485579841670885
0.9584983277720233 -2.370094473351521 0.002261283002214366
0.9558712243090602 -3.0615674040708454 0.0009136258469116999
0.9541024984273594 -3.6884453675107274 0.000609203738561736
0.9529049048195506 -4.234041759434156 0.0009743003586370737
0.9524614210056355 -4.681853179594929 0.0018075447123174382
0.9534551567603995 -5.0152435564650535 0.0029218916661190456
0.9554675382065423 -5.2176726528296635 0.004536934455604501
0.9541450854618887 -5.280398165545652 0.006486717849772812
0.9528856459158794 -5.218709894650416 0.0048138584481093255
0.9550954630005458 -5.017349089170296 0.003459321975496985
0.9564457727310164 -4.685085331724998 0.0025636361501873476
0.9565573556024782 -4.238475923573046 0.0018627447304363923
0.9561646302932146 -3.6941514326660085 0.0014686700276910995
0.9555084634779237 -3.0685577789705096 0.0014633395840737424
0.9543572085811318 -2.3782409314055775 0.0020466301318010902
0.9510247597253098 -1.6391791964784805 0.003891654937931813
0.9453843915061537 -0.8652885716766961 0.008890819237328738
0.9479097836884536 -0.08526229719048464 0.018301181273516088
1.2756433278339878 -0.09061160069148533 0.03015633003600408
1.2728032851247908 -0.8577803520889091 0.023278707456779235
1.258802932199332 -1.6279658910072394 0.02211504782340641
1.2383735721276878 -2.368067399861523 0.02494256909907761
1.2130768018759808 -3.059503540075656 0.029308223346009882
1.182221140271037 -3.686029685824615 0.03404588571109401
1.145716629234586 -4.231256915808285 0.038504046349298326
1.1037852668942176 -4.678844218096276 0.04221491737252098
1.0580373514018822 -5.012395435172221 0.044662795136583014
1.0104174919771707 -5.213115853220769 0.04573578201570677
0.9542739871774754 -5.268088038710938 0.04748528589328196
0.8981940508695857 -5.21417202939317 0.046137970418796866
0.8507721297218165 -5.014540921500883 0.04545676674471107
0.8053771321378469 -4.682141144553809 0.04336995151604563
0.7639837545404697 -4.235785732745177 0.039947962817606486
0.7282330730624695 -3.691865757122973 0.03563012750890038
0.6983675040342636 -3.0666676210286985 0.030756164032726126
0.6742550228876106 -2.3764024716713403 0.02579003211249304
0.654927450658429 -1.6368038523793111 0.02170451547254701
0.6414987654993259 -0.8654291005417089 0.02097420528129844
0.6389324297694728 -0.09508081784245448 0.02582140358268858
1.5852770389203474 -0.09409170804921697 0.03695032228359789
1.5786014877345953 -0.8574210683235586 0.03353674874810157
1.5575236750007966 -1.6243714703127112 0.03808907440633918
1.52215344552333 -2.363483691290526 0.04687579462511394
1.4741056385449407 -3.0538316415786055 0.05678146099811783
1.4138408013927397 -3.6791126855628167 0.06634169674534335
1.3415590114772367 -4.223147282404417 0.0746668186132761
1.2578591128099523 -4.669470320002649 0.08097844099310685
1.1633072788872374 -5.0027270334299665 0.08451317627572273
1.0652864696726165 -5.20240927793966 0.08331026834606917
0.9544251518268545 -5.241829827002786 0.08165968006709855
0.8436295732355017 -5.203485245347847 0.08384083167705932
0.7458120706032915 -5.004913887664754 0.08557049694871474
0.6516177483852706 -4.672833293349989 0.08254413087704554
0.5684505789965915 -4.227769931507807 0.07668457593123063
0.4968880907078929 -3.6850722450921474 0.06867818654166578
0.43750028862386336 -3.061145309631271 0.059167611866688084
0.39035779530728804 -2.3719550411978485 0.04883230546896185
0.3556562164191155 -1.6332197703517664 0.0388914268866949
0.3348145600807845 -0.8649674714043016 0.0324348423305587
0.32820810345503815 -0.09880984225555646 0.0337878482885033
1.8995165019172349 -0.09480141410245194 0.043997298972275375
1.8919521146359064 -0.8562151027711472 0.043201393236503655
1.865174065987547 -1.619645963810748 0.05286229623326795
1.8143098768857708 -2.3562789027093776 0.06708055272737934
1.7429429409924326 -3.0444400153472024 0.08196853161927013
1.652646957703806 -3.6675673609186137 0.09578360317899802
1.5437343544845645 -4.209432941987336 0.10738170906326301
1.4168870098858841 -4.653918525685751 0.11568183336465217
1.2732930356218741 -4.984428608286762 0.11966170835582476
1.1135013775519995 -5.1875569319455135 0.11542127463448112
0.9546210720464555 -5.2 0.0980856847771873
0.7958119297571953 -5.1886543419686015 0.11608421961073467
0.6362387981946774 -4.986659802174968 0.12099104966024413
0.4930235332805218 -4.657350955297333 0.1176728331490231
0.3667277681108365 -4.214151443890727 0.10999589802583223
0.25853286931572483 -3.673645897927188 0.09890531369004582
0.16904499284688237 -3.051878388360493 0.08533762220451863
0.09834904443124039 -2.364833870921238 0.07019657644122974
0.04767975952122719 -1.6284766554019205 0.05491119623972302
0.020624288356473154 -0.8636966264233035 0.04326367830688794
0.01286365109138813 -0.09957226800517927 0.04186957568332862
SCALARS Stress float 6
LOOKUP_TABLE default
-5108.388882177258 -28336.301835491955 -10033.40721530076 -5184.423785963291 2137.364613426301 -2693.332514923247
11289.687318959412 7262.420248628238 4673.684968038195 -2303.022190767099 2224.7432789154823 -91.59262395725408
11167.68551993105 324.08030118579484 1095.0778563662468 -1085.7070802092999 2173.419711422981 -755.5218341910476
16153.577828721067 1501.9324462133445 1989.3135812049068 -1119.6045030558334 1933.8691016259336 -819.7699070360479
21809.7505012 1675.7336003189555 2671.2167212101817 -1055.1966431666558 1728.1786119943497 -1125.8981577315426
27714.517697794974 2202.778815446944 3573.822954175281 -957.4010907335454 1357.384929931234 -1388.3750425414316
33464.46022314561 2667.390577031009 4472.156110027644 -799.7271600084442 846.6166750179711 -1658.0818347951242
38890.75929774721 3101.3608226090823 5384.894711888073 -582.9563517355715 206.35208552387704 -1923.1033436148105
43459.93741429068 3448.535878702423 6221.552948030304 -303.41266650788907 -417.76823138263774 -2196.304698416229
46440.21327218368 3795.1011089891917 6867.609780897581 -56.37572195199601 -594.7873828751873 -2489.8493720845054
47533.1164378754 4185.268914795823 7215.613158691983 -6.905037665069699 14.297621598117985 -2690.0712596400394
46473.9611353268 3795.5001221165717 6870.108166769857 42.207131233942675 623.1314963174615 -2490.543934317812
43534.11048694975 3449.6425177767856 6227.424629030774 288.16897486087123 445.28276048797954 -2197.6814724033425
39019.561855903994 3103.83200829772 5395.885269789435 565.8956322773912 -180.56319234205785 -1925.197643802602
33671.66544736424 2672.679924641972 4491.239613130318 780.1661633920532 -823.8781795679643 -1660.610587829502
28034.007612096946 2211.6460811193847 3603.0081281852467 934.376456307294 -1340.6167310065912 -1392.3495656863427
22291.8639896846 1693.738272252096 2717.043843105781 1028.8068114629514 -1717.4532034642054 -1126.2787541944401
16853.17168912629 1522.8802197863763 2031.7154038392666 1082.2433333335462 -1946.2404294022565 -840.7557020931462
12360.785278422121 448.7282824589002 1282.1620245504307 1040.4685778691035 -2139.3883819042476 -685.8368904314722
13876.195409832317 7719.151370772968 4949.844266233938 2389.555699004105 -2860.7003556104314 -503.8585127673855
-213.61382787838627 -27023.94681776259 -6167.128020436949 3116.3080548013904 -3747.092619327201 -1044.628442457684
-5663.915659855842 -24578.355121448858 -7410.454872597463 -3327.66542996059 1765.9242016468 -1548.2377873244452
5397.416405058461 3935.9819342845462 2216.693780920615 -2757.259941396807 1478.6618467034748 -464.385452704746
5568.578927778453 -376.23961086470655 36.36058835025505 -2294.108650595994 1341.617054036292 -814.0656447478207
10077.36463038146 69.98305808427142 692.044801152643 -2323.525612138239 1186.2188157037021 -1055.6606326501408
13633.14999563942 -84.62379308962139 951.1625044242578 -2271.2602333401414 1029.3990366055195 -1400.5539553454958
17396.376369071124 -79.96698087546822 1327.3933665500178 -2086.186890347385 811.1822256531099 -1744.4751887542307
21062.588014134286 -79.87928120415924 1729.1223627961251 -1812.631243719913 507.57427310374584 -2090.3702617653507
24512.06194610454 -111.15747717801804 2146.149524830779 -1413.6135487481172 132.8391727530482 -2447.363314068926
27433.52204957594 -145.45482497835593 2549.6730529060633 -835.0171675250415 -236.2341751200535 -2853.73170433013
29451.43157098153 133.2928395754443 2960.828399836614 -219.7754467099716 -352.3063386257539 -3363.499570172018
30399.22896938359 888.6052131311068 3367.1219965054324 -12.31143773316316 3.424887978777493 -3758.879260481016
29488.014885338343 134.90206944524763 2965.937731519816 194.36853057710377 358.4741740964579 -3363.5724546482734
27512.694628380086 -142.0992870975788 2560.48940154327 807.2187540885081 240.33385725502816 -2853.7843743994185
24646.312104291283 -105.77391771190382 2163.810873997007 1381.6854926877622 -132.21443501135508 -2447.198181596366
21271.65409967013 -72.17765963186807 1754.8309985327692 1774.636908076637 -511.9976426955577 -2089.5789119183273
17708.61921600885 -69.9414905778587 1362.397432820031 2039.9647314348067 -821.694522701497 -1742.743544851971
14083.602815478427 -73.95295742113238 991.3117708972213 2214.5542428736608 -1048.6601367624853 -1396.0468746728804
10730.277308276314 93.41972422992778 749.0045069762973 2246.9739869438245 -1205.8515548646462 -1054.7415595216773
6483.519887599907 -357.07933299432716 59.06989912725042 2175.957200841962 -1397.1233137393606 -782.3680405161344
6298.00001301036 4129.556766457395 2309.3549198093174 2600.6735476320305 -1690.9331075003022 -666.0909763490281
-5250.719500931615 -25382.215873245408 -7124.650094783879 2082.3554773019982 -2090.931201722109 -628.8407686171914
-4513.48754684915 -17129.29462001261 -4675.258251251572 -3906.886263752588 1075.3163595581232 -512.7751620266098
1852.1760735827363 1201.2690029649568 1003.1338988663334 -4478.695077097093 841.547467712268 -721.7150281284721
1955.981822627193 551.1231638499821 95.2776053569368 -3906.4714236243103 663.1667284248662 -929.4289647491247
4318.71180641297 -91.49381299041175 128.2018418946106 -3973.037922721701 537.8031046868306 -1346.3994149455036
6477.009314937103 -61.25491350327042 366.010087091256 -3838.102013023318 439.84654572543656 -1776.911566357392
8400.621547855548 -77.80240721590542 541.3191291668155 -3542.7522991862397 332.8644395599582 -2229.1460153845237
10315.79545379794 -65.66177479649484 752.550742160106 -3103.58132709262 189.3135769403949 -2685.5072409109653
12156.759064668 -102.39685437671751 976.8045466188968 -2465.3506090521687 -1.84106278714013 -3166.890473333751
13725.70994474432 -157.70054414118994 1181.9898610566581 -1480.5950383470793 -244.8281309853658 -3733.735787622365
14792.522445699089 466.25305514478634 1505.6371390661543 -319.5569064345453 -374.22598264746756 -4507.665301300399
15772.636444037656 2488.2683134561357 2287.1783371873435 -19.673821576014788 -5.263846634752959 -5236.348206796624
14830.291458467756 468.14232595684854 1512.75167382942 278.90397923396756 362.6589248205772 -4507.2591566309075
13806.59100080364 -153.79527718469913 1196.7283197082083 1435.9492186171512 230.1950049918155 -3732.80185389132
12291.472070574944 -96.23596089295647 999.9916840944817 2413.7676746436414 -17.708325026989687 -3165.1353953267253
10520.624344240314 -56.941983544622836 785.0116524004214 3041.654827122429 -215.1429079813781 -2682.455954203322
8696.929147752635 -67.33864399383918 582.4461255084738 3466.4701533904954 -365.49539823948896 -2223.7364469741055
6890.851648450417 -50.12380039062587 413.32408410830277 3742.4584268381004 -477.61397359085095 -1768.9829405946014
4873.431046211524 -81.93880028765588 170.8597238275625 3845.2616822701543 -576.7318942688671 -1330.6142560001076
2510.94899964376 558.4260555995135 69.76371503025207 3720.7915463491117 -717.1638083914164 -932.9182525213998
2374.7392388159574 1591.1512291602785 1107.0920723566278 4231.176746184747 -921.5236943521933 -732.797324945474
-4491.963810326912 -17771.922305016447 -4776.382208855775 3692.8922397958077 -1179.953742874758 -490.0841277779519
-3302.1307878217262 -10350.918162845157 -2472.685805922173 -3612.8856897397327 485.08578315872944 -180.8271315203892
-577.7073398392653 -240.24330773108545 385.94281443371983 -4736.344535120526 274.8372094580387 -626.7671165832505
-1337.2194021557275 701.4311606201768 43.05568577012694 -4755.348812712216 43.35124431288445 -960.9805872282915
-1054.4877452896296 53.22506042397886 -167.1121916680462 -4539.7862147434835 -72.05850338032737 -1415.786451779188
-638.2182103303531 -45.901584976218295 -109.0049229599312 -4353.1530656308905 -106.19460786113139 -1886.0485594425325
-422.2221653034403 -18.67228343384262 -57.6941376239393 -4015.76661232453 -115.50366999770533 -2365.484570094916
-219.94678126392841 7.024432175619928 -3.7994753113532393 -3525.4373034651 -123.94965292341985 -2855.5315624425575
98.6900556061837 1.4138529569085652 80.64507691592249 -2836.098817202615 -156.1835411973177 -3365.97319479695
388.97864821273697 -151.06758603030949 98.76433608417635 -1708.271644549689 -302.35701870486133 -3951.424493749774
398.42098298851613 742.9511423496198 275.53540931133483 -105.82893577342811 -491.5133586895399 -4791.567196625786
1795.608186935482 5269.938416096677 1873.963619601717 -22.089184690067526 -13.072171169677102 -5874.229409324962
436.87170271930984 745.1769907319855 284.61055874820994 60.14504321010065 463.9952624353742 -4791.012795821586
470.4939352414258 -146.53626178967278 117.35657761229686 1657.9827479890182 270.83209393817333 -3950.177196545268
232.12921406527596 8.391026776238348 109.3955705109731 2777.8169816160557 118.44024920127086 -3363.717288478551
-22.296691696028375 16.456602420446345 35.374749911476755 3455.1835598078087 78.73994919940642 -2851.649399193629
-146.4163550752817 -7.945603437475405 -9.452190914970227 3928.554191775848 63.523093797185005 -2359.028593251936
-271.46885177132907 -37.19427077575029 -56.67933867030107 4242.107179467331 51.56506345620312 -1875.3645148967898
-630.1616357122808 47.82702144119717 -136.4474566006876 4394.617469794272 21.216969992200227 -1400.9759027565742
-963.696155475104 772.6797217851184 41.26383208440803 4572.174615699693 -85.35206197873626 -952.8381657896158
-277.42689247556063 37.067989933469256 435.921359376792 4628.464239818797 -310.08342784829136 -644.3235058315129
-3364.236306530499 -10847.871966253531 -2632.6266550277396 3578.385754568495 -528.8969018146809 -283.4211474571583
-2592.8513866642575 -5181.0669686585225 -913.0147094037096 -2745.812396841225 -7.121345661677658 -142.78097413235042
-2436.2213476152424 -689.5234516590465 125.37341105875363 -3983.028947895409 -257.4888690025711 -486.3184791346163
-4491.230458142445 562.3320539824144 -83.87005677027082 -4375.623514823406 -584.1465714374989 -888.4226892569654
-6247.94540961146 129.92516566512055 -438.2744628457346 -4078.0885004265974 -692.9108534418328 -1333.813892098946
-7723.531170678085 13.566948659062575 -562.0668126493091 -3841.7000190854797 -659.7555733703152 -1781.055004800221
-9253.162381806676 41.36816872314237 -659.5242817640016 -3540.459617690568 -566.29119389825 -2229.5340138251345
-10774.178111594405 55.38294962820577 -773.725780677924 -3108.8219974422204 -445.67845726907103 -2690.3437667851294
-11997.574303616755 159.03791501011526 -807.6865662036387 -2494.7367842857875 -302.3265022182297 -3153.1120900488495
-12883.462927840439 -104.58701942797626 -944.4929695584771 -1585.693743642231 -269.1078873106956 -3647.001067199528
-14271.617193892771 266.3746363570058 -1277.948002432082 407.617040398146 -550.0731173754834 -4330.739154968428
-11669.046010714768 9536.755398756846 1923.096857485944 -19.882531622656742 -21.053672074554544 -5742.8257152602755
-14232.298926739142 268.989689754033 -1266.8449461673838 -448.75887990767575 506.2211006991328 -4330.370642442888
-12800.953733123748 -99.32922992515961 -921.8991675277302 1540.3491242577138 220.20495731905297 -3646.1490601677237
-11864.921182198297 166.9260214508214 -773.1616115026065 2442.1265701153534 245.7246398556259 -3151.503753845525
-10583.384217140252 65.5666737435297 -727.5901200984028 3045.368824225036 380.22137363648295 -2687.458121493316
-8998.46077893923 52.48751668113073 -604.1674500589654 3461.3973149505186 493.832409481391 -2224.4605037726687
-7412.669782765488 18.92542617532097 -506.9047517462011 3740.4264838283534 587.1474760926575 -1772.5792534121683
-5929.6705566772025 130.73372026517006 -403.9705994627316 3948.6408102536025 632.9831945597575 -1322.320741066046
-4242.222386575228 630.7385697534243 -73.15923534794865 4250.163242351472 550.6330707533267 -880.6909937113285
-2271.405827261738 -535.3166142529323 141.21681972829023 3953.314155428648 243.82090393721677 -507.87984999006414
-2643.9057898485894 -5479.261660798938 -1030.635829845663 2765.4417889754827 -7.711232836723838 -238.7282068059075
-2414.590982568645 -2073.3357858777695 15.578446568141466 -1520.2789884753186 -439.66314752006133 -209.2335085749837
-3907.3349252058356 -644.4690084131823 73.45178572429387 -2294.8076927333345 -801.8743846080652 -349.11420634584016
-7589.362823443606 323.5228626443183 -292.14923061473223 -2628.7227302273104 -1278.7775513273978 -698.0434062571616
-11429.302581971251 138.345455706562 -804.8505244007632 -2444.462122230613 -1381.203478916928 -1053.2922439445797
-14912.492108482964 46.91209791809676 -1153.3916316770162 -2275.531233362501 -1267.659026623843 -1399.3852078690402
-18263.09722880261 50.415314049189305 -1451.3554693751764 -2086.2111901750063 -1055.4274300985644 -1744.1347256981926
-21496.50156706585 79.15790441628887 -1742.3797894906293 -1818.0891781079902 -778.4985201487791 -2092.7970933836577
-24605.87128893803 46.69913454455631 -2081.5182944063095 -1456.7231872724349 -460.98886412382734 -2446.70066152829
-26377.730154136934 513.5596925800173 -2028.525465221037 -845.2456409980465 -4.801289410090769 -2742.0937647344863
-29778.413613155728 -1796.68629293389 -3735.5328391818284 429.65771190157903 -214.78324814137892 -3133.2653825552716
-24648.833094648 15225.091837456917 2073.559068877542 -12.579482679044137 -30.278346058822265 -4164.060842340129
-29737.29918472712 -1793.6791063631263 -3722.21762701429 -455.68091215870095 152.00986008350753 -3133.3817712280274
-26292.34882423687 519.568019360903 -2001.5785904274453 816.5953722452138 -64.36893593936928 -2742.2657779606966
-24471.140369692297 55.56999650271021 -2040.7532001235866 1423.5742033597742 382.147870690554 -2446.775544368356
-21308.525252609114 90.34540563878751 -1688.7883154426859 1778.3044806681478 688.7511099250771 -2092.454883505608
-18026.25844553651 61.695209770163316 -1389.4776813952167 2037.0483002229028 957.6301195084649 -1742.7858723176173
-14653.094639362149 53.57957117432379 -1095.1727404650535 2213.0343144399008 1172.1405995480152 -1396.2980705066716
-11204.034956945805 145.97980690935586 -767.8588021927397 2368.7746811418265 1308.696869174217 -1048.5539547644537
-7449.787819816981 371.21152644384813 -280.5910164333301 2567.690661623492 1251.1377313132111 -696.0164935707118
-3846.202402146804 -573.3864858956441 69.17275753121514 2294.2180523283 807.2340628003644 -364.411586015148
-2454.49652654103 -2202.513833840199 -50.26992381268472 1540.3204607355437 450.24138388375366 -271.4418019589383
-2109.1377489476718 -895.301971586052 653.3954967786216 -749.5982593639812 -880.1978962540983 -252.52893330802243
-4735.76443810144 -580.1802063190404 204.3661503043037 -1074.931834866619 -1423.9302628680227 -291.9845590861883
-10845.786647939605 -457.1374953288783 -856.0190073905727 -1208.5315267198894 -2112.856749085212 -579.6988206392595
-17422.967083965676 -1184.8195796496095 -2044.4376896404895 -1161.999016104901 -2205.910588558789 -862.7511474391007
-23168.0023141014 -1759.7319642746766 -2925.8889369793965 -1080.5166067267364 -1988.3722146882965 -1131.1418074583255
-28598.84240415554 -2232.2297769081106 -3708.7765987743055 -969.4055801023574 -1623.2906810473517 -1396.7092148162264
-33870.208982087934 -2640.6013971666525 -4470.375035018492 -823.7176651173806 -1146.0179747374514 -1666.067358514302
-38982.33367137014 -3248.169158217879 -5341.069230934949 -603.7893664570397 -579.3143476086994 -1912.411521739805
-43539.093704504245 -3028.3464981181614 -5967.387238768261 -295.4690646032689 234.6013805664614 -2204.1227152541046
-47572.056724519454 -7191.2494696286285 -8388.443135942296 821.1624464174153 1703.4741623155467 -1979.4545826741764
-38477.94837023678 15210.044556717094 -916.915113779851 -8.12833419441111 -42.10181199070446 -4082.2023539841252
-47526.70876904096 -7186.556838527249 -8371.964894058852 -837.954409005077 -1790.5524961492818 -1979.6921218744258
-43446.02262517605 -3019.158012847559 -5934.329241758993 277.0839775798165 -329.9740504173705 -2204.5300678026774
-38838.409871806994 -3235.0996771701016 -5291.829986028637 582.7875774388162 471.4099293146784 -1912.8346813825765
-33675.870932273676 -2625.3408776899414 -4407.392501974928 799.1786673753004 1023.9834425164665 -1666.2272492711777
-28369.118067122654 -2219.6403808504147 -3640.277096091895 940.650517268704 1490.8770125202434 -1396.1921181911666
-22952.498619810867 -1759.3724527542643 -2871.598959818798 1047.235583842976 1859.854476864947 -1129.6670947468815
-17307.453595632775 -1200.5311906443353 -2032.2222510751915 1126.6131751123635 2112.0390271993715 -860.910437952077
-10868.870117343939 -462.92403982976805 -890.1499074055725 1183.0751458367258 2089.915574272285 -580.8853842215159
-4811.685414107701 -574.8044914556523 158.46586811243344 1076.461404150102 1458.0706351960162 -302.4946927002561
-2202.1748039906543 -973.8994116251255 597.9912003373628 755.676171861167 928.2659084169954 -294.0308869885722
-771.6916471596566 -17156.875085444117 -5378.570019781128 -2666.697173684384 1422.6632494534595 503.25664237280677
10114.008507833974 4863.528504029231 3543.115441272653 -1192.1216207232296 1535.0757410159802 -157.7364247375471
11746.813765733557 588.5362034144471 1548.6253076823152 -426.0200745270737 1439.8561914278587 39.4097847129022
16632.41001952299 1442.3682466972728 2361.0066110091852 -463.0702826838541 1279.4440511636449 -26.95519011532603
21987.765383106067 1694.4514126079046 3156.1950212011834 -459.8996723556392 976.5184345559472 -2.7662625669971037
27517.071219522437 2164.1931363756776 4150.302142423703 -471.65127375089713 584.0833576761725 1.8817841445627765
32951.58506297907 2607.1154508493246 5218.583823253288 -482.5671794106081 90.81498361669277 8.830550569339518
38307.754088084854 3082.7853423058677 6434.804676783311 -508.2559469912105 -454.01786302459556 0.6997557954533162
43578.40718779839 3554.4975911320003 7846.274221019281 -534.0380930734859 -877.9428166032664 -57.305547228428765
48141.13515750628 3762.0068783969214 9207.751804387808 -430.0041977334157 -802.2008139837478 -220.1274787127555
49994.71076029361 3493.5157354979374 9719.53262465132 1.4474727871155793 7.594616136500704 -390.65150551326707
48151.184553772444 3761.447502937683 9204.9234940264 432.8765643527684 816.5358115979617 -221.12953001199855
43599.92257407696 3553.3981149492906 7839.874073402672 536.8043809292592 889.5875941138031 -59.2742208592728
38344.196803020386 3081.2494614487036 6423.270483863923 510.6962587655731 460.6968560668031 -2.0446036146782625
33010.18211781114 2605.5968938508263 5199.571789912657 484.2742203199532 -92.61206697913343 5.565642602161612
27611.242391854677 2163.3561568648197 4119.987383310447 471.74482835860834 -599.6875942558815 -0.17246272249183203
22144.632245174238 1697.1383484630585 3111.5379049448115 458.086958258865 -1017.8546812559617 -5.6530267772551674
16890.05428471624 1448.3766995326398 2288.674850241682 454.1958519248057 -1350.6625228307514 -10.454462156392925
12255.070476747724 628.4315029007006 1498.6717581516898 409.55301272980694 -1625.8669767305707 -7.782027830683212
11309.691904373087 5016.200489614353 3555.364082497417 1182.1255125523924 -1373.73236599556 186.0743616406018
1578.81600112519 -16250.613077400778 -3828.2584604627664 1575.6927140155244 -1160.5477010361087 -927.1470112771632
-2538.9079382796353 -15665.940939097816 -4747.3198118125465 -1711.29154341215 239.59628933418017 -47.15800105173193
5321.074047318865 2592.702864401135 1872.295458424786 -1486.7082014071443 516.2029081162216 -143.35427454785372
6698.901822960083 -140.4060265614759 602.5152319599126 -1170.5228976606422 878.1909437702316 9.412002657224287
10758.581837522068 162.75785207133075 1193.754652692686 -1215.396207628271 736.4297189580099 -12.676586690740702
14166.971128652101 83.88718999723564 1565.0742478314855 -1251.647553256113 548.7713336218985 1.992664298627715
17717.11992302772 104.35535560836688 2067.404465876946 -1258.5370629987472 299.0580778105149 2.4427832033628882
21211.683855825526 132.43740670673725 2641.2661333874426 -1269.3683700976242 0.5885225874531854 -12.011116887989637
24626.84682192855 191.8906804998951 3314.997742241603 -1303.2503525756795 -320.0253993038251 -68.96525955878468
27892.567367314026 209.8291379669026 4080.510047037359 -1351.175768120094 -568.271107003894 -234.12261801258438
30505.94708202042 -237.9932030197947 4669.544351123301 -1108.6420610010232 -523.7286640180454 -594.4728892336974
31286.8734221347 -1265.2101888297896 4613.154227691894 2.0953418563037545 -2.9259715005446356 -953.3607488393288
30517.316900427697 -237.5446992905724 4670.826553361127 1112.7683561619938 516.5450911482714 -594.6886013673962
27916.53970800965 210.71186938212503 4082.323528405821 1355.02572367018 557.0448846050396 -234.31527290512344
24666.33398521856 193.21130009007396 3315.7001842079567 1306.336299034219 301.8235738671636 -68.51991228507016
21272.316806706403 134.2367263455301 2637.947941590589 1270.6983809871415 -29.126769556376566 -9.695518093043507
17809.921455553518 106.88349616834995 2055.82675200693 1256.351955176932 -342.7597643225576 9.175271494294867
14310.627925980958 86.74581739043025 1537.3942976863173 1243.5769402316992 -612.9274967368603 16.056491003016582
11000.82867244205 174.46517989042383 1150.1104117928994 1195.1129341887774 -836.0898250173464 19.17295300810269
7115.530421329542 -133.90199559086682 524.483604466064 1118.7013341807437 -1003.6619861874331 38.04868332827477
5748.89907928799 2641.073144419036 1787.2238736142183 1363.0870473798911 -549.4874035178365 104.36700517762964
-2171.3816427632173 -15639.360442352658 -4614.418610475436 1015.7894719376632 -164.32679547813098 -978.0398640386697
-2358.157886357817 -11376.701105051365 -3109.1008782992194 -2258.617102248193 -37.991554413497305 -943.2583571208279
2322.221765982334 872.0153929944405 1012.5237458868302 -2581.907738385394 117.99789311179377 -141.76233560826932
3046.2832692029665 455.1149107918322 480.67595910935285 -2135.1659023219595 354.3715082938161 -43.224584094876725
5173.295746892097 43.84174225447434 560.0529539944326 -2195.773711084771 300.98256936766984 0.5996619528042952
7085.096996634724 79.7904974998646 797.2051575182801 -2219.5710760660845 190.7578992434084 -0.4685046327913187
8840.448203614566 82.74214826122034 1028.1238677943609 -2228.2509192001967 64.36390059982483 -14.328088425440901
10573.273222513604 103.00543566113373 1309.8464191456114 -2233.588126653259 -81.71925837580748 -63.05585310561182
12221.320436443335 180.22701472934338 1648.2148932815492 -2257.856228149631 -247.61501815287988 -185.03537142544505
13839.413576573945 279.2321080600758 2061.9981137315613 -2336.3196861602146 -429.37634462605484 -471.5447371646411
15253.688503864512 -469.94293354026644 2250.2470332075172 -2020.7519479139157 -477.192313920877 -1067.3111231623188
15149.554970963263 -2908.6957570026425 1526.9505011695112 3.0734796282178207 -12.257764843446202 -1756.343496705432
15265.883952188542 -469.31491286899865 2255.3440648474902 2026.7803607324395 450.9668904751468 -1066.8117767081137
13864.715068791924 280.4577615534747 2071.486630586403 2341.853290318299 398.06070160521267 -470.1094492387985
12261.745937706213 182.0036057121257 1660.4481294220545 2262.0603587579394 207.97253245003344 -181.60239191026733
10632.694307904621 105.3661588583911 1321.8706444820987 2234.7437083990235 30.74479831188874 -55.42986527605366
8926.036483432059 85.45410409681962 1034.8386053367108 2223.3218962400574 -129.3043516252358 1.2958865450906023
7211.640012135475 83.4745810293031 791.6171540371628 2203.713064983446 -272.3848107611497 30.473794385961355
5372.978155689212 49.65262217125508 533.4366015527729 2159.6749233444257 -402.3217695163786 52.01084702497372
3280.5143352570994 445.07009069536224 395.40498690401853 2050.718685284814 -456.91536565533204 60.10031013385084
2552.9362788604785 1050.4446098688836 957.3139038778498 2411.2496186223275 -138.94015686470175 -44.81568897324093
-2254.725713904915 -11363.144534462974 -3174.2051696002973 2062.9520312182526 84.90592569217114 -1321.8241879236548
-1957.407242860491 -7199.012861017285 -1571.4010826892725 -2135.5666096193763 -122.65900201041302 -1034.1878090042164
89.0297522586023 -148.90096034007365 551.4153852171082 -2836.5823793139616 -117.13558883999241 -254.28706700675366
-329.4237892350369 505.26772361753956 284.0848579848559 -2697.119680196123 -73.2834732207507 -64.15899741698941
-199.5754635085119 56.434727823667956 59.34522269303949 -2547.647649496884 -102.44510462151179 -15.87153122877543
-53.649196766207744 -14.98205754104143 35.494362253791785 -2547.2854936149247 -137.60980697969464 -13.600519716495704
-38.932751645539966 -2.0622419209470237 31.28796563209037 -2552.9445929284548 -156.16994666438436 -40.31452042946869
-62.47456208676277 -14.114026815031115 27.52289107254301 -2558.935603690769 -168.96614654131335 -104.97998465793542
-173.469382423301 38.22857375301864 31.619840666888294 -2541.3024871266616 -201.81142189901377 -243.41067610907717
-147.8451894304905 289.1207886159831 140.5271644726085 -2622.6156094972976 -341.97758557421776 -540.5886616387024
339.78590556020254 -677.5895726834456 35.3446742158577 -2566.936101060292 -528.613913800743 -1189.922170618291
-960.0766091114403 -5775.150042208634 -1811.3830309751706 3.3420201411854435 -21.115963242596305 -2255.012950813461
352.7452731349691 -676.7522269963918 44.31862431928862 2573.486958720942 484.325179590872 -1189.2153936408247
-121.41524924584036 290.7602256760963 157.837927744299 2628.610642792004 291.66670555633186 -538.6750726192023
-132.5609199568261 40.624636406230735 55.70985421251706 2545.801987737637 142.02878344410973 -239.06486424333056
-5.4039231565969885 -11.004854424430144 55.34967665834734 2559.984750265758 97.35828127156043 -95.76445472894632
37.5302774130105 1.6084076672187724 57.528043451208376 2546.899187114102 72.25704982568017 -21.58609199786284
51.080664401119925 -10.747308453138828 52.2513889251647 2527.9696029767642 43.41268195645929 22.19239214663199
-64.542397987883 55.09182562650956 48.81609764557738 2504.3156467658855 4.0190017762415255 48.915099657877306
-197.61131141712465 528.1457459973933 230.12822527536937 2610.198102299664 -3.496386952199331 40.441888554579805
210.91962014399172 6.310982119739213 500.7178628959134 2745.4737042895727 110.7151047739275 -191.19517324002564
-1954.8490906863062 -7254.739559438158 -1700.7186732016369 2072.217308183057 160.5495408359899 -1260.4834146386575
-1771.226857056515 -3824.227396578671 -352.159731031836 -1616.922750696288 -206.92060125996483 -894.4499526611369
-1717.9430019475342 -533.668553418174 365.92061855039884 -2402.9791866860846 -334.0863396456695 -259.30769050046115
-3563.091164823063 335.61477044341007 46.73088543309387 -2484.08598875904 -472.14013002051416 -66.61845150734396
-5434.846720515587 27.139974968795617 -419.88838855875497 -2258.2028912561827 -504.55493183581893 -8.162616633824987
-7172.971195585238 -79.23435785200607 -713.2262686160525 -2211.46980887325 -469.62405499928246 2.9465726649257267
-8941.00681563526 -96.95291603944558 -976.6269136021826 -2223.0667893132004 -379.62732084374016 -14.679507201494587
-10671.303382632925 -100.81751762492668 -1238.0515108863146 -2228.3780743467087 -261.5707457837748 -68.54165708240056
-12503.751217346382 -172.6720634079385 -1584.6520327424619 -2208.4691304334897 -145.80683283206525 -167.29092921296171
-14190.364410423806 213.74190188647077 -1823.1433002566112 -2171.418537545267 -182.08767903864472 -378.0798629169554
-14347.19439461717 -118.13492401578984 -1927.026187797985 -2745.256314891485 -562.6008353169112 -869.7186614347895
-17675.0376068802 -10007.457961159107 -5821.2187241855845 3.14696972395628 -30.16338859945462 -2358.543448909583
-14333.442956318864 -117.10410398225939 -1914.1262532796409 2751.4507556269505 499.83992719075565 -869.3249983063234
-14162.751073472788 215.77612158786883 -1797.8891527004496 2177.1764749247936 112.27823968767608 -376.8566742531689
-12462.292473739502 -169.68267079308504 -1548.4892593176123 2212.9977577071936 65.22883660256132 -164.17450127270578
-10616.565354914008 -96.94743431867539 -1194.0563035964135 2229.9703473639966 168.44182393070489 -61.37920928597071
-8873.818258438003 -92.21085417475568 -930.3795161203316 2218.3429742892013 275.7475871405994 0.630718065216521
-7094.82643698636 -75.29253635757938 -674.9395866152128 2194.357252494411 362.2308561291042 33.90682522998748
-5355.039921344448 30.109525152340222 -406.6831457272716 2218.7465115174195 408.82615375676187 49.732191359193564
-3500.167048415527 365.9991252462631 23.20330481983687 2423.0637385389077 415.11185139507177 18.18154576815773
-1665.630219748394 -437.6216120478649 321.0928734995942 2363.849645886615 336.18527105007894 -215.89802950208275
-1797.767967876193 -3885.470847571039 -476.4317873508314 1602.3120645006625 238.14758869886697 -1044.5246081656894
-1895.5057689946148 -1695.7761028064099 461.4738688650926 -845.570592999471 -370.8241033829816 -580.618414323012
-3240.3215017214357 -551.4075376588044 353.1351639999098 -1343.4625507854944 -618.1375379937019 -176.47779656242142
-6726.545927271599 144.12267966690092 -211.4622071026714 -1433.0153015320748 -912.8202865411915 -60.829362019526386
-10611.575435768755 14.778930107864433 -919.6840458582818 -1284.7662566699855 -947.342078775925 -9.621193925874108
-14283.489565699914 -79.41115902027552 -1494.2099364875266 -1242.8048272156689 -835.9115709812291 4.4459120240078756
-17835.80714165016 -111.45553026374458 -2023.9981278487421 -1252.734329511461 -625.5971061985409 2.5011298177069996
-21329.75683668565 -137.65653118150328 -2578.6634782165593 -1264.3725448496125 -353.3265557353325 -15.740768927184213
-24585.25956888058 -80.24683964947889 -3119.136307020604 -1240.9002479540763 -75.94625688945008 -63.73182628211397
-28406.297222267167 -460.7948364510991 -4102.654524843457 -1280.0628283925544 170.09971267436066 -99.95975130705624
-28879.50043726887 2065.2583311927324 -3529.1620284553296 -1733.8732395377067 -355.02908985618984 -325.03720035078277
-35816.05757756978 -15426.883144463478 -10971.612453860651 2.1824800698345985 -40.0659634421357 -1736.186360319199
-28864.845468813233 2066.436490125923 -3512.3020959550954 1738.199292058685 271.9874940499025 -325.4203965542018
-28377.221094799737 -458.4589504412302 -4069.3794442165117 1284.1891181270164 -261.52159758343885 -100.48829697602058
-24542.67217244369 -76.80963959216011 -3070.766262076095 1244.3914547570248 -28.09671678606366 -63.80693642252923
-21276.117381396503 -133.19663684498494 -2518.2709644071006 1266.2294112596028 235.1342625847724 -14.123440358423487
-17776.551950053006 -106.3489832136911 -1957.9020768460405 1250.9274721872387 496.97184904566706 8.303890818083376
-14229.377531252338 -74.72757020651729 -1434.1278927051244 1233.3264481764916 709.4192497258082 19.40619578090049
-10578.225665093805 21.595851265444043 -882.4530720593118 1262.4629283322272 847.3483059087306 21.90720318791268
-6719.666326113656 169.28553756477655 -209.72861498471738 1402.972028782201 869.569071918129 -14.539967188232138
-3241.4107899343057 -505.72260666469265 318.5533543595998 1330.1860619580937 631.8606686215595 -153.83420121660254
-1932.9370108909623 -1734.2700450571658 365.08699537216427 842.5075773908255 406.20490963785704 -666.5059605633139
-2034.7910275210045 -929.843684404153 977.8208908586298 -323.8684722195059 -708.9501582572193 -376.2959346593488
-4465.273055340037 -655.1335680117272 403.6257348367638 -525.7383424585362 -1064.7463135078249 -122.6875056340026
-10154.953436285696 -629.1759565731562 -782.7073701642928 -516.3166295860123 -1481.7785870516516 -66.0288174209731
-16423.801928452034 -1207.7144716245812 -2069.567718448361 -468.1687239315012 -1494.0100653750355 -27.352736696850393
-22157.06633417406 -1722.601429199807 -3126.8069843626167 -457.74165420187353 -1284.528628360344 -13.609735533970653
-27655.49555310241 -2166.073489658669 -4119.529345358057 -468.39609829466383 -924.7978983621995 -4.4134453134154334
-33096.507560129954 -2642.294667641779 -5175.825076257446 -474.36271348449236 -465.27276988557253 2.511442905720127
-38215.94934825081 -2885.891685913989 -6190.146183438327 -495.8695597501676 42.95603527504608 1.263871535109395
-42803.62376207292 -3859.6335559864833 -7468.244072179069 -510.5039659572087 566.1870857134314 9.239318655353046
-45793.81932329006 -186.99240930896292 -7398.886310203805 -1237.4997002145237 844.6616954758593 200.12180632838124
-59164.181198050785 -24230.57308316462 -19678.357955696858 1.047692140240592 -51.54836410870217 -1846.0973842894969
-45777.73373807335 -184.75955889879816 -7377.669742789624 1239.5977674913893 -951.3156811401502 199.4030159804025
-42771.91403864777 -3855.197522211199 -7426.161237490698 512.5773392879563 -683.093395217919 7.925220791030426
-38170.11889033965 -2879.3569587144816 -6128.411130482116 497.7727011596984 -175.31858774655373 -0.3336535079344962
-33040.37500656324 -2633.9657391173473 -5097.627398053946 475.71189590603 315.57041769916316 1.2718094954136347
-27598.103221033143 -2157.0775779047185 -4032.1787209666804 468.37708382276264 762.4943211543163 -3.985138506396922
-22117.86893949582 -1715.5578463812112 -3044.9100764806694 454.63315808655733 1126.566068140064 -8.869666881505761
-16431.191601204755 -1203.7703944494185 -2015.1032000624477 459.66929532161544 1375.125248074031 -14.274796822377102
-10213.880997522472 -619.694694807352 -772.1115172835404 503.9103744509514 1446.3891367166755 -46.10674539768306
-4527.136900291158 -640.4265093233992 374.1176951258262 519.518067526641 1109.4861688457959 -113.84474111807961
-2099.8564095532556 -958.6685540106491 904.549741786151 318.7926593958432 782.5853889761892 -428.25816863015814
3553.1340027229817 -13027.95981373266 -2842.447743302903 -167.57240156166546 614.6952828392627 53.33999046403242
11304.481331101388 4640.918463242508 3895.8780706392836 -1153.0075049363484 838.0572515176634 -63.95312670716197
11711.956113805747 572.8995529163353 1989.913751935654 -456.21858638002374 788.73315244327 61.775850228681016
16299.048094940747 1243.2526135154674 2816.376574514052 -521.3175334160884 659.3210871606447 71.28290824621004
21456.796307740336 1489.1815156533473 3858.0863008404503 -546.2780007571603 423.9655353072904 98.36868030841408
26748.365838729027 1904.239406879297 5163.371391152743 -573.5886916949263 129.21323219544357 126.38276921436156
32092.81334000814 2319.4276931251234 6685.148719711503 -610.428299376012 -203.92955480189153 152.6241974148156
37796.84621415365 2828.7466605714067 8562.693109777274 -680.5409867690629 -522.1854220365503 164.42897068415218
44253.405577469755 3398.087774151807 10894.719898119114 -764.0339039167776 -700.079630473869 138.51992175786353
50618.2083962832 3584.1648772550448 13199.318485144518 -641.821830309799 -543.3842565006867 59.99150082280756
53359.26610077366 3099.4067325719634 14072.494286488583 1.4849640453949533 0.7018450876116764 -6.587603839206944
50602.61217010452 3582.4188093145362 13192.098619864979 644.8824209790604 543.9807223217412 59.139772231128646
44219.48480580334 3394.4062096378725 10877.949029057441 767.3750686543083 698.1654196086307 136.8266393129145
37738.647475234444 2822.717037637634 8531.247664980378 684.3978125758655 515.6658338904437 161.9800600129299
31999.867985104982 2310.230845898407 6630.071608324923 615.0586395255683 189.53875763898162 149.67311084610074
26604.410813048227 1891.052763211093 5071.10329082902 579.5162536624284 -157.36824125758946 123.83448750307026
21234.651807385555 1469.526024400443 3706.9496146666697 553.1858835839896 -477.11484761425174 96.88056690840779
15963.72066900362 1216.8135698511894 2582.2587490407964 533.9757670840381 -750.2396570626612 77.41950225404796
11100.620144349894 503.68115197607585 1576.3512478308123 474.28776997023874 -929.0309884336918 56.752275867051516
9763.52110422676 4335.088389164814 3100.287185371849 1126.766861414729 -845.676752409726 45.678998619729306
941.1490725832177 -13755.415945363085 -4835.538193172283 1447.2096640351485 -747.5425807064485 -446.46170153683886
-1718.2366824087421 -13321.187467523589 -4642.673971997616 -285.8394737917941 325.4441256752854 -159.30584700057344
5587.544108028529 2424.499586371156 1996.5962671144648 -1308.542257049046 394.5182636717556 -134.0164209474365
7019.235197820851 -174.5700847469664 994.8475144459981 -1179.957727720029 493.8562899697151 14.8261677832871
10710.286185861605 33.17141583035323 1630.2063049956323 -1300.4878610552867 412.89516119463184 37.46369704393265
13952.475466869551 -80.92668882788242 2154.40545218728 -1374.6972508818053 261.5514909536233 54.73127094199647
17348.520633428358 -104.69471737067435 2889.142162413055 -1423.6087496928917 69.9262515717184 63.25672440436054
20783.755207229828 -117.6662348766216 3780.249049058182 -1503.4959037535211 -139.26208877520875 55.143147817785426
24415.251199865994 -68.44301014288834 4895.729498674016 -1668.8508712166215 -332.40204943821834 9.923320882153993
28367.19399099928 -91.88845887389088 6219.706613977017 -1909.9754626353242 -437.5093439140108 -105.13836877649504
31906.494423148655 -908.8567520720319 7261.299227284092 -1673.832371374886 -341.21369159777794 -297.63169438276134
32999.583155876106 -2562.8652952065986 7236.7873722288305 2.8801014615195175 -6.301472125037125 -435.0266299284896
31890.5407344145 -909.4882394958123 7261.525146853703 1679.8562603890534 327.41791363888916 -297.83392970813577
28332.960218285956 -93.1784365616897 6218.317937119673 1916.8353440870185 420.0870245321394 -105.33266440632342
24357.78526709456 -70.45460826638217 4888.5856516578915 1677.2712963888557 308.6869840426054 10.280879560377896
20694.866130962506 -120.46673877818117 3760.0657367471917 1514.474677222493 105.92069827497387 57.2070516783377
17215.22330951455 -108.29787763850197 2843.9290770053494 1438.563002515867 -117.97282516004698 69.26805995767016
13756.508716325341 -84.48212008747777 2067.000388565597 1395.2339997152587 -331.8937813112976 68.26394409499345
10407.979393687245 21.334781726838678 1465.2633103885598 1332.3739869305027 -516.8009665690433 64.61794152594123
6527.999263905883 -187.61893009030624 711.8426142102846 1241.5154423987174 -614.2426288688184 57.11321418068947
5070.616472279519 2333.742607730164 1551.2482981341316 1422.4867947485213 -441.6005450247227 -16.55975457923913
-2073.1353415753947 -13138.49521163758 -5313.689074371086 1074.928367043418 -288.7758829331823 -577.5137309125391
-1942.8171866809303 -9555.196225335032 -3213.8299167651658 -1852.5649215623107 114.1779561366916 -549.228491364056
2538.6812137202687 1209.9799583340337 1142.97586037414 -2277.614810733509 143.64185096489325 -202.56254055545412
3279.6005741439944 293.67728449508195 662.3628594870008 -2123.125651792491 200.9662225669879 -51.62197126012872
5336.707059597259 -59.52260120880913 825.3733545233058 -2294.128804223082 165.9045169676072 -0.7391131045183075
7105.408094329471 -54.70135775960112 1115.591528717752 -2383.0694695256175 80.71159773386606 6.295447529564067
8760.405731247445 -83.93997210253005 1457.3357983153373 -2467.5851230910966 -20.273773139382115 -9.213159261577193
10422.305187975851 -97.46104294761032 1895.6518834814663 -2594.5048208673493 -124.98353840889851 -60.05210546615311
12112.012157606752 0.2687045741592531 2460.3133076661693 -2841.52623031667 -222.4920779812101 -173.34327138066325
14055.687693367685 135.4237989412058 3190.4275677751148 -3270.6574416199646 -289.2681872789658 -389.6904043924205
16006.21085375061 -1128.1810083748726 3576.200968317951 -3034.8199570147503 -248.4059773503148 -714.4644003969157
15848.791755599033 -4853.22007422002 2570.1164741251223 4.647200958435995 -13.17717316684952 -949.2168322352113
15989.636793675778 -1129.0207049064313 3583.299539268683 3044.5535924877295 220.55053153495496 -714.0366193926942
14020.616080413904 133.74229194424726 3203.1938210749204 3281.7877417310974 256.9330937128485 -388.3968525174994
12054.550579109577 -2.2515182500080115 2475.4424881664377 2855.274267723759 182.7481689329721 -170.1090108928212
10336.29550442059 -100.83936129442523 1906.971336886933 2612.609349247287 74.85136387484728 -52.703270619474274
8637.015266456381 -87.6744645740812 1454.5372391671804 2492.550482732921 -43.58247512891514 6.1622851368283955
6930.828589134293 -58.70541216885815 1081.3561516093139 2418.511309984516 -162.74206724645558 36.36231963810377
5083.637821470105 -64.53636572128707 731.0759320346457 2348.27968034794 -269.06117736909687 51.373022879643834
3002.1466067932433 301.68262674805203 498.60788231310613 2220.861886186287 -304.0696667288148 41.812043544340845
2255.82464544886 983.2433796668927 771.4771724900245 2447.9473564181276 -172.97453125328173 -122.52598314370958
-2042.4873791735035 -9414.354296126961 -3669.2774035498596 2026.9539986714115 -77.9356274722716 -849.5220290972266
-1743.7484511259916 -6066.479433991693 -1613.695559229861 -1995.9518216186343 -13.594763666108657 -704.2309127760062
272.02948790152135 276.54885877410373 650.6005331797538 -2669.904966878584 -43.697689155394954 -237.9211221460835
-89.51451714133054 454.66770568072246 347.10272876570775 -2648.794734430857 -62.55642626294083 -71.23165489072869
99.25117009013762 17.0710980048459 114.3770444602072 -2639.0001100239915 -80.28487182792887 -13.80920339133202
210.44766416960283 -20.92081430538588 67.77683265562865 -2717.243225442227 -105.28904133837011 -4.265940121520277
168.41592085908752 -5.714492999990969 50.88726375861551 -2813.297317811965 -123.7791208597947 -27.125486063072415
60.99015836767266 -20.23887671556156 45.14156222034619 -2959.334486291328 -133.70362742138244 -90.96133391369187
-183.11050771186476 93.95506447914504 64.74161168572417 -3170.0742193659603 -146.63029939251743 -221.7449557585382
-148.7960647753103 518.7461017588851 286.08865622750204 -3633.9207716228575 -183.7477614971784 -460.1717375174668
640.576016665505 -1051.170473885215 203.41554184336516 -3795.3383072979454 -195.12977740118419 -830.3122414757648
-1137.1463497286336 -8508.182763414537 -2351.606784490271 5.266449736378501 -20.033135833541156 -1132.835600416786
623.460512212958 -1052.2694702419647 217.40865239705587 3806.370191178992 153.2834723398283 -829.6929218542917
-184.52638414776527 516.5672781883053 313.0530504423762 3646.5377338499065 136.67530055347024 -458.4219639432968
-240.28441139587886 90.73807554027083 102.16668604077054 3185.6560408322835 91.25427339367708 -217.61756945416963
-21.511216583186204 -24.36850694690895 88.0346618663705 2979.860603612334 67.63932781664056 -81.98368957698325
55.8990547395172 -10.20159835833961 90.17971738860724 2841.800709990444 45.634750576321814 -8.702867290004104
60.218412040906564 -24.880788660026056 87.19573810277721 2758.577365046508 14.949208553786086 31.02859317588849
-81.80205566694401 21.497585840838443 95.02598843721974 2701.9237928167972 -18.03874682508318 49.76027660239514
-255.99466573414475 425.28859843022684 252.9645794178146 2748.1921601733807 -18.825331788269043 28.18433212453036
118.72605215908942 98.43463742197167 385.61739647765813 2752.8373347019556 26.542871602710047 -179.6408053702718
-1756.9094379614858 -5912.958917813645 -1933.925553117189 2030.970337663496 42.16068263003073 -899.5127313756097
-1651.526864656183 -3216.053980801835 -221.2917883701439 -1592.4847942082004 -121.16251653248536 -661.7769695165231
-1577.913994745224 -200.13938617661063 439.19819597641066 -2338.9201797020773 -216.31112345097733 -203.17184701832286
-3298.2181578292725 378.4443978573659 5.640460675922984 -2467.2968420799257 -316.96313871505674 -60.720202251849855
-5009.57340709995 81.82873791122688 -565.2155102793396 -2347.438412250374 -324.48510931372647 -6.918392029616034
-6676.634355467197 38.69095138062244 -973.0821242894748 -2377.282206923171 -292.4299521103154 6.584529010220361
-8448.684105166107 63.244217429985014 -1367.7509575837637 -2467.607814132754 -228.60761383398426 -9.346319516465591
-10254.106855608914 102.0530365190213 -1778.618765544358 -2590.108364782855 -144.18947578939677 -60.77308272683956
-12351.772259291423 78.62786447515052 -2326.1473710664172 -2749.965410082397 -67.16566037872697 -166.27700514452093
-14393.549415046104 742.6545588469853 -2685.325778383307 -2971.195183664872 -58.6942436646438 -357.7468362632629
-14443.607102043008 89.3663490992958 -2812.849462624801 -3942.1389527613132 -122.96416508719788 -697.1918660523312
-18941.07953612821 -13792.349791654813 -8033.140807260667 4.662992149455711 -27.02387423363741 -1046.493927511446
-14461.375082182938 88.00220140927865 -2791.8630726564643 3951.9049610232028 66.83954499934094 -696.8192070018501
-14430.187527805343 739.9576457169219 -2643.9553586722664 2982.3566115726853 -3.4597421679844675 -356.5663794032314
-12409.0952957083 74.68917072584043 -2266.074207822473 2763.727804556793 -4.285239786584297 -163.2284605144803
-10333.723066562019 97.12969188283523 -1703.6026017234758 2608.202643700397 61.57896816869572 -53.7287429578058
-8551.134802221392 57.85274522221752 -1285.5424884393651 2492.8643865997524 135.43561302758155 5.6695428489994155
-6798.324786080336 35.903429669469915 -897.0143161774424 2414.506348874019 193.13042487504555 36.647737029874534
-5131.865766779657 82.34102499901034 -516.2798039745369 2404.2772509378747 230.73249129311034 48.76566274533874
-3392.160351374787 344.53775035118946 -16.984119903170953 2536.244177704889 253.56973331258308 20.02718036490174
-1651.5380843409116 -303.6423639795072 277.0854307756886 2369.4786379827256 207.65005190499645 -160.08235119759522
-1649.8413198631713 -3109.3385218538215 -462.45123126831044 1582.2514169971323 144.38350028659397 -787.9845470906574
-1832.3690680491961 -1431.4322885333306 727.4406404888523 -860.4589039663153 -256.9337025249097 -400.23853328681696
-3154.7267325386715 -363.37982418320075 392.0614691893505 -1338.2932470188855 -413.88087160520337 -88.38520645450508
-6438.809347508311 211.69258686645878 -350.79621458813324 -1455.1543714929717 -583.2367310196294 -11.888849199319415
-10061.177243877764 101.0573073116843 -1250.356788844101 -1364.756205832644 -570.1290867329088 31.432483361283644
-13560.438142170911 71.54693930395173 -2030.8526051715544 -1368.3717488298003 -475.79330527274544 54.03204322673902
-17057.568477017776 96.35624945609801 -2807.8939695322274 -1423.2912536110348 -322.84367451590816 62.9361059957789
-20625.16649739549 122.38428597004561 -3667.62111534346 -1499.8364123851256 -134.0017355998898 54.67783392056295
-24114.632378327857 266.44352196585663 -4565.120222502121 -1565.4226926119559 45.77235534445351 17.281123116200764
-28791.83402256535 -148.7785079315671 -6086.695205606903 -1740.3771688007876 140.8686542690364 -62.610183393162906
-29440.137990546922 3177.8071798767187 -5364.072777885567 -2364.2611812123696 38.64800196016289 -277.44553272675796
-38823.52875881614 -20591.28805310996 -14998.314131445908 2.913527169037378 -34.30249440907463 -672.9074334690675
-29458.85943320261 3176.2202092624752 -5335.9221119933245 2370.3550173999233 -109.6919754925149 -277.7652017290818
-28830.03975929021 -151.91378090503093 -6030.543315435986 1747.3132483637348 -218.95817519860904 -63.04025374600438
-24173.24770371579 261.8975055065681 -4481.743250938252 1573.9144900469544 -134.57530013902328 17.270308672457265
-20703.88841735114 116.75556056452074 -3559.4693084104088 1510.902963729406 32.82323236976895 56.1888362221623
-17152.02461480654 90.71167770347057 -2680.6720876292466 1438.5815594691778 211.4153223407423 68.16437600568698
-13656.899430999356 68.34829415098204 -1895.7682334127167 1390.991615827077 362.8811127601705 67.31782389378338
-10134.581616553456 98.04981408384799 -1130.4202125140603 1397.8280284674943 474.8545755961172 59.3782610440193
-6473.037180894493 187.50317339719643 -294.1666314055027 1488.8678646831784 533.0701979457201 29.358167890252975
-3169.3607757035697 -410.62538579558293 324.2692518194251 1345.71364698606 416.82552653813457 -66.55595630743613
-1828.6542518138094 -1382.6905133357511 546.3947909106255 845.2241538734663 284.6629897766342 -470.7877760764695
-2047.1421565723888 -831.8304496927702 1201.846906778928 -335.4137294073107 -495.05566880983736 -205.42715600010976
-4425.045191703609 -553.9016747034894 398.2158081607962 -535.7831249975392 -682.1775314166675 -9.366178590575538
-9804.892880673902 -551.6824125922624 -958.6841030047747 -555.2546610174558 -871.8254903244787 24.933864507157374
-15668.104268483781 -1082.1204901885562 -2459.580867622225 -534.7273232244227 -814.3101709611448 61.17379416545286
-21113.404206211235 -1521.9558752148153 -3770.395500740797 -542.2180651025263 -643.4006699686438 92.1243477549993
-26482.28661139356 -1905.49024137005 -5097.511224318184 -571.0155922882351 -387.17392815635526 122.55695793815795
-31973.99596036844 -2354.143262317727 -6601.365374370195 -599.6729003763179 -75.54547787370161 149.79472656056245
-37334.18680725177 -2508.7210106523466 -8142.086998430064 -663.3541990457522 232.2059716075738 169.95424766347554
-42651.5470335497 -3709.490979230737 -10177.746505651518 -701.7131887553358 431.7909459251733 160.6688583188153
-47258.97440628393 1039.1490031964015 -10428.231928722565 -1545.468099413495 412.37348731368314 99.40884996804716
-65490.73978906368 -31144.633765494316 -25684.49583432049 1.515272248949131 -41.974103258293624 -471.43863891325265
-47278.60406135094 1038.6520740776675 -10392.166492302475 1548.6549638884535 -499.2317730667115 98.71538348985054
-42691.24922696759 -3710.290802785324 -10105.191274861829 705.3869821939965 -527.0730064671636 159.33606352819493
-37394.0965015051 -2509.3555115517956 -8032.671670458332 667.9127316937297 -340.34408007950515 168.1390527588686
-32052.113047009672 -2353.653203555545 -6455.788138532238 605.6404437088767 -47.506258905338676 147.8691122824491
-26569.927687904295 -1901.5484981349323 -4918.813190276894 579.1350533009547 251.871149299835 121.38357566994186
-21186.495679045853 -1510.0082616251316 -3565.809082167695 553.7572502848878 507.67184738191406 93.65805599735396
-15686.687082222921 -1060.332943772361 -2248.4138146614223 550.7689992457296 705.2400307009516 68.77315325399121
-9755.242213510417 -534.0701943189595 -793.3798273895112 571.9606649686806 829.0737451896268 38.15336048448706
-4362.658463646813 -547.2018638182678 435.334695660761 542.039715330895 712.5061718605548 -3.0835139439251527
-2007.965244517517 -787.2421583763557 1091.4497832026823 330.7740552207806 556.6905710702141 -247.67732816841286
4486.087262323218 -12147.143097844728 -2298.3167506564523 381.4342748415506 -7.894145781506268e-09 -3.7838532307432615e-09
11606.09635024138 4538.958338704955 4076.3766936906236 -1131.2750662616766 -4.017093324648613e-09 1.5732437574911273e-10
11758.643173131552 601.6084742681077 2268.497074214102 -439.75728281795017 -1.5748335968623906e-09 -2.5348789733925514e-10
16196.729578645925 1234.4861389270054 3152.251675665378 -522.9281730933449 2.1888713064299736e-10 3.360804967655895e-10
21294.653213711896 1496.544747241395 4308.456821711133 -559.140523246202 6.339830882495789e-10 9.073248818936008e-10
26582.031277807084 1931.8765955484732 5796.14032584065 -601.0620399594642 -3.3345226579939435e-10 -5.688809423531893e-10
32011.496196485234 2381.418854271208 7571.48086653669 -654.6407164430525 -1.5657715124461902e-09 2.1504220626411552e-10
37968.1613683223 2947.795696453289 9776.790594608976 -741.8667414162187 -8.591594102824729e-10 1.922163761491902e-09
44883.96545538372 3598.9116542429033 12479.612303612379 -834.2092929139039 6.063802793221384e-10 -4.18509671362699e-12
51783.57129915352 3866.134996219835 15095.521974094276 -696.9781068992875 1.5789607399341321e-09 1.6402701419337973e-10
54764.17195994853 3394.318180001411 16071.30011602139 1.8393848900262668 2.4421527022866485e-09 4.74547512396839e-10
51757.14300307471 3863.933689255987 15086.503695291874 700.8267929280089 4.234253392354503e-09 -7.037010973931501e-10
44826.76323580134 3594.274347460142 12458.417718056504 838.6014534628778 8.23948731465407e-09 1.2552137107491035e-09
37870.31529963467 2940.1514454576054 9736.410547248168 747.2973940795868 9.029664127524484e-09 4.22810231270887e-10
31854.740083826695 2369.411670783574 7499.589273130678 661.7571236539551 7.806923496556095e-09 2.7429614135598968e-11
26336.127023518922 1914.0181782371803 5674.068379255803 610.8639445394022 2.3242863189665286e-09 1.1407408351260528e-10
20910.65367831513 1468.119705525324 4108.374256229499 572.2669324799904 -4.305444889496357e-09 1.0312728448980124e-10
15606.891672952897 1197.5234220199286 2842.1302044913273 544.1024975359319 -6.6061227599334416e-09 2.4874502457805647e-10
10792.369454714946 509.97737276572974 1752.8913938816745 479.0118291506212 -8.689985619980689e-09 6.31497965031258e-10
9378.596362939938 4156.61387021615 2958.0192481060812 1079.5157027317932 -7.99648680605003e-09 -5.4208193489557743e-11
796.1630049950131 -13290.251965691557 -4873.164102468763 1374.1779559493498 -7.109745681077584e-09 -3.5797000919046695e-09
-1476.7570214205202 -12880.254839420868 -4334.840353295841 29.947442694261667 -2.418758748845562e-09 -2.2673178889931478e-09
5653.863091614164 2321.0898906397215 1998.8017215652696 -1242.8068530760493 -2.2347985684234573e-09 -9.164056180566149e-10
7150.098192594237 -149.69831301501333 1191.7417321166488 -1150.8565281335273 -1.6853105577752103e-09 -9.314731208576177e-10
10686.491684729368 37.73027434138441 1844.7396396808415 -1305.685545657238 -7.533335066867153e-10 1.5129675290381783e-10
13881.625462574104 -67.87725652412561 2436.9772385499236 -1402.9560589794435 -2.588708136741502e-10 5.482165832404462e-10
17271.50956203049 -79.7223183439591 3280.071733816043 -1480.641282323304 -4.812081288996239e-10 -4.1526515559553445e-10
20760.132146669406 -77.55842809956341 4323.867063937339 -1597.5878839957106 -1.0326550725636707e-09 -7.478719865616767e-10
24541.18359319159 -8.844950126970495 5630.200877563636 -1806.0056623451374 -7.685849734428984e-10 1.1797975929539462e-09
28750.30414694186 -12.105665381970734 7159.360147770434 -2075.348079134038 -5.610369946396077e-10 -1.5240155804008282e-09
32576.569304995355 -817.6000213762131 8358.801338834452 -1809.635633483561 5.519412704657611e-10 -1.4243868307062257e-09
33774.67548110388 -2520.355515283172 8355.301244153965 3.5604236385487926 1.814035588409979e-09 -1.2131797788583754e-09
32549.105591616306 -818.6010271812554 8358.843025133856 1817.2070497768914 1.8909465104854917e-09 -2.3453745612300736e-09
28691.66214347444 -14.110031618561266 7157.047127547229 2084.3827850438133 4.051133428717435e-09 -1.0242420245276662e-09
24443.17959135298 -11.902653248734712 5620.132210243469 1817.8762334237394 5.701943694980116e-09 1.710080965722227e-10
20608.37612186444 -81.79596252807222 4296.490189156513 1614.3098657573744 4.0604873075000825e-09 7.737313012512459e-10
17042.334638512344 -85.17312730764087 3220.0749304551014 1505.0033062445016 1.5430455801990206e-09 3.695917794033221e-09
13538.626838554366 -73.90419479852571 2322.2540766446673 1438.6510664076534 -1.4867744813074069e-09 1.3552257094318065e-09
10166.974368635496 24.729013404396436 1637.3000151786364 1360.5728248331523 -3.955798133503663e-09 1.4036261042349452e-09
6370.760290708201 -161.5585922562711 843.3651169228674 1257.0014480491432 -5.1314743565455956e-09 8.652252247998149e-10
4878.390380926011 2227.6393955183175 1432.3135541609709 1380.1664934260625 -3.86264784046908e-09 -3.416875671291564e-10
-2073.443146378211 -12697.436837986912 -5324.041324772438 1018.3142331108196 -2.5017855564968272e-09 -5.248036671900991e-09
-1901.5671848718453 -9429.091897198583 -3133.186750382269 -1710.8816665618924 -8.641517501573048e-10 -2.0394708144522156e-10
2608.469406704319 1251.3199738977655 1173.287011210624 -2149.9322960941818 -9.697940228647894e-10 -1.5749845871937396e-09
3392.788639234063 297.7041231724003 770.5399317038488 -2085.439257178502 -1.623896239699718e-09 -1.3788263864000783e-09
5393.7160121024435 -34.78535824348778 962.328259537613 -2303.721969491167 -1.182034893576489e-09 -1.0928351557026872e-09
7122.682426808518 -24.490402968594292 1276.0225707499126 -2433.447324922518 -1.148023454078384e-09 4.730313918344109e-10
8774.602267271743 -39.50485652269603 1671.461226879737 -2562.6966264727175 -1.3857127667549207e-09 5.48794787391671e-10
10462.393435840515 -36.49775527407887 2187.7509791893676 -2749.305817901276 -8.207102775159569e-10 -1.6358185916942602e-09
12222.97693617179 84.94142708831329 2850.6281746735413 -3067.0538941567415 -1.578657538026107e-09 -1.0723857357675115e-09
14291.119741036018 248.47286566645568 3686.8442463703623 -3544.5169915839965 -1.7076168257190716e-09 -2.8929516560083357e-09
16409.11019688323 -987.6599191755336 4149.776877316578 -3267.3120367374167 2.339810567519862e-10 -2.020899003696286e-09
16277.492440687196 -4820.7009620089875 3079.4488190031075 5.563287754333465 1.6402390556891078e-10 -2.9490605513160517e-09
16380.500857559255 -988.9785388913714 4158.160953276676 3279.1791138785106 1.6464474228428116e-10 -3.2760496537775907e-09
14230.887973870425 245.8383387731822 3701.810552187543 3558.7965428012267 1.4203926923528343e-09 -2.0778800902121475e-09
12124.784794086549 80.95716092227221 2868.002444717831 3086.0480855627998 2.1444040987361745e-09 6.527498541686327e-10
10315.652015517238 -41.942221161316375 2199.78386149154 2776.4659189743434 2.0968600189519293e-09 8.874154744376028e-10
8562.540798209906 -46.07247296566447 1665.196611002974 2603.1361614649513 1.2535217933096199e-09 5.921834578259677e-09
6819.894100756138 -30.81828041553077 1231.101320656828 2494.048311427406 -1.0002171313416852e-10 3.592392605611394e-09
4962.453979580781 -41.79866345239436 847.0048991192886 2398.86490096767 -1.414773520558299e-09 2.490674777533286e-09
2936.0631267019266 313.9494699134486 583.4138837064364 2245.5210896426934 -2.4365211515053886e-09 1.3314798152919138e-09
2163.3102440395073 925.4935685245722 690.8803311257085 2386.831837319084 -1.2878373922831088e-09 -1.1910614716725831e-09
-2036.7567458186859 -9114.557323687746 -3729.3722068435673 1939.8612392463888 -7.885728736667375e-10 -7.842920979328483e-09
-1718.4292262049487 -5996.389033414713 -1583.5208829455262 -1914.1413146865655 -2.0907202358255716e-10 1.6926815504803017e-10
336.02794779220403 322.1083623219599 662.0694648098074 -2570.6305764516164 -5.059082042180307e-10 -1.2838512475354946e-09
21.097634234701587 460.2112452573396 390.6350111453442 -2601.58078365167 -1.5603329739377614e-09 -1.7168324539795776e-09
191.50985821423913 10.795993329351816 148.3442105207635 -2650.61449186201 -1.695372953136598e-09 -1.1427849777589927e-09
285.37615987597025 -24.38092733852494 84.19966369313627 -2776.1885173180885 -1.8149887148766197e-09 4.2776582276360386e-10
234.44027978587152 -7.627759097352832 59.59869660049606 -2923.196966652668 -2.1629950053281277e-09 8.075460300460691e-10
118.94112576299028 -18.245726507964182 55.11926915459753 -3135.1753544829394 -1.6836197991310087e-09 -1.081672529323896e-09
-136.35331075164893 105.22167567065355 79.86673659690325 -3421.686192947981 -2.18973880694584e-09 -2.206694382778096e-09
-103.31010442655193 545.2373209946743 313.88750323058423 -3934.230600099036 -2.313367997164306e-09 -4.459105973353417e-09
763.8525416873293 -997.8661665580729 242.7358935620557 -4062.525340796874 -9.872866968407834e-10 -3.3840201751900167e-09
-1066.9879720522028 -8657.904773688551 -2497.5542149676207 6.240667174563583 -1.165751467580023e-09 -2.4958914934813947e-09
734.2857622475585 -999.5233730211058 259.4859261381603 4075.8452663180155 -1.249157388638622e-09 -3.996939668127197e-09
-164.68633251837673 541.9406355492915 346.15826131670354 3950.282409853606 -7.133844313889082e-10 -4.085316085422619e-09
-233.88850560212387 100.2996727292053 124.6425434372908 3443.0639034918445 -1.0904257496946457e-09 8.741629642372573e-10
-21.228949934685126 -24.805653747593368 106.36893357627405 3165.8347610990713 -1.779256186829059e-10 1.2875833732550745e-09
42.75420198996178 -15.080723968340205 106.52652514001953 2969.2266618479152 5.975845929206969e-10 6.680649367041269e-09
28.40209830753282 -30.91903006050554 108.05065646384372 2846.8834885715546 1.060716292577979e-09 4.082938431793082e-09
-117.56044607630118 17.26975441946954 131.09784024521016 2759.785573007111 4.537975550888973e-10 3.780869395342279e-09
-259.5128475797549 416.6578021220527 288.12925796928926 2763.710201160323 1.5005485742847213e-10 1.2944720850782687e-09
92.7499575923693 67.12974122564253 325.83395455815395 2692.8349374039 5.398007596468801e-10 -1.719882014583618e-09
-1727.2895371146465 -5702.272838211017 -1988.1088222304852 1960.6404185587844 7.517768629838883e-10 -8.264969153515267e-09
-1588.3083707794403 -3152.0884121856543 -177.94639727949195 -1551.2371385849312 1.6152035264838105e-10 1.1999290450148692e-12
-1495.4075518012755 -156.6218249452419 429.90828800247004 -2268.3946747442487 -4.599207681366124e-10 -9.291496461116822e-10
-3175.243704991107 378.200769037825 -11.115846467847984 -2421.457813953363 -1.5326895308476196e-09 -1.4615100241144319e-09
-4883.080752168881 51.83963936339883 -630.8722127602013 -2350.932843351307 -1.99325267402628e-09 -5.049254347966325e-10
-6548.778129213 -1.7931230131221483 -1102.51792266978 -2426.2629178300253 -2.1987167642123495e-09 9.99511584609536e-12
-8331.149378112406 14.495586335859507 -1564.7421497002465 -2563.3314381035966 -3.2100385682909405e-09 7.036300431195741e-10
-10175.822558935613 46.206506710307735 -2050.1468057731176 -2744.3213743648703 -2.814063607137207e-09 -5.653415513506843e-10
-12364.360291330628 11.552550026446067 -2686.9259802253778 -2970.0046833408555 -2.6498799821084162e-09 -1.8842447602196444e-09
-14541.28390174396 675.8830947691878 -3127.4997751273377 -3223.2387611127683 -2.661433740058783e-09 -5.331203922764871e-09
-14591.84014055678 66.64281075575742 -3272.2341231789883 -4192.976424209745 -2.2204163507844044e-09 -2.8953639485962412e-09
-19253.746131363 -14176.471381724683 -8859.565123158955 5.6049573326103985 -2.270250265556939e-09 -2.8702000776092973e-09
-14622.511820842603 64.64380819075431 -3246.990725337497 4204.931786248574 -2.4291830769129774e-09 -2.9416824531836028e-09
-14604.127727690691 671.921409035648 -3077.6556280307614 3237.615645346558 -3.1676311573747284e-09 -3.926789560182442e-09
-12461.835392664147 5.700430832934815 -2614.3148605670754 2989.0841644182733 -3.020943994958003e-09 9.707719073048793e-10
-10310.162924625944 38.67747931546934 -1958.9347356578155 2771.5756777290226 -2.4870889236972005e-09 1.5986971746428935e-09
-8503.362678327907 5.915498362665943 -1463.58380337569 2604.448614871744 -1.6347789788540013e-10 6.319638146123907e-09
-6753.688978453272 -6.8177992277396235 -1005.7015073574577 2490.169022554538 2.0788990529041484e-09 3.991309949213928e-09
-5090.107646168945 51.64318895336429 -560.265594845995 2448.8634650007593 2.260178932900203e-09 3.5997169689494513e-09
-3333.906861892666 326.0671346853878 -24.368051197187945 2535.6754348210525 2.637567053653811e-09 1.2872054533374921e-09
-1611.66857521169 -307.0209268955953 230.76898601734692 2315.236533363817 2.3328740050843066e-09 -1.3641585638879405e-09
-1577.5336556584962 -2960.4539577004834 -481.5561507320499 1535.4929574317132 1.8648185218239632e-09 -7.306713456500802e-09
-1710.9938655934411 -1343.44862705651 781.0689634236282 -848.9232032271336 1.0312239950849289e-10 -1.6642909272945872e-10
-3031.7629507850766 -300.40007570492315 353.0231786466251 -1296.5623478782136 -4.1469583322850667e-10 -5.072000597294846e-10
-6276.869636094839 226.8728429697211 -419.24818746161714 -1423.0106782073535 -1.5422676469256658e-09 -8.46731129655609e-10
-9875.396439606466 84.68462327887666 -1398.128358849148 -1362.4178476092986 -2.6260682517431633e-09 -6.070104419109157e-10
-13350.538993401764 44.08272044248146 -2283.345560876292 -1395.7474614044202 -3.2499209989822475e-09 5.473350661588938e-10
-16849.95854847539 65.07802253588588 -3182.437002709979 -1480.7773228520196 -3.1629571184410565e-09 -5.138933723003447e-10
-20481.032903114046 86.55149884257631 -4192.215080097728 -1593.7041212052495 -2.5949428161808896e-09 1.3691314748598415e-10
-24122.683897802253 226.55073475365273 -5264.964959270499 -1696.1796427018191 -3.284450933449534e-09 2.822213573949739e-10
-29102.3788526306 -220.77179725760135 -6990.188600180927 -1885.493311837587 -2.9162408043958976e-09 -2.5207689269279854e-09
-29814.385525974703 3273.8181455056074 -6226.141357601957 -2509.4717111556506 -2.8651321870576396e-09 -5.705773631348166e-10
-39584.16295233338 -21241.74747909252 -16497.36938463075 3.633198863181592 -3.1406790501620208e-09 -1.699018703504862e-09
-29846.646200634077 3271.4881697927062 -6192.17343386649 2517.197332617948 -4.077633120047608e-09 -9.036793535699417e-10
-29167.7827945225 -225.38614461824747 -6922.258676174317 1894.7025628159895 -5.762573973555618e-09 -1.5024168575905605e-09
-24222.057865634357 219.79517749885323 -5163.593840627823 1708.2374903505122 -5.557630355923493e-09 1.2316281328139667e-09
-20613.011975064193 77.97679422470348 -4059.5503004824936 1610.6727759595622 -4.755354249263988e-09 1.2248966285710594e-09
-17006.66821484213 55.95635313159333 -3023.8150884416477 1505.9946809788883 -1.483370981603116e-09 3.4837341900129104e-09
-13509.517915425686 37.50288555224714 -2109.535789151525 1434.783041420683 2.5031097194982976e-09 2.260549081256613e-09
-9996.173560372335 76.55651999523222 -1234.3204570200053 1419.4987953795662 4.447986867717191e-09 1.6107875033810615e-09
-6332.3817827423545 185.08163097471348 -328.99227542444925 1479.4116810564033 5.737606834088638e-09 6.44103437252852e-10
-3050.9470724018574 -372.6643448387981 279.1094526312707 1307.9807059706654 4.603508463318917e-09 -5.673728153965385e-10
-1695.1821120780176 -1255.6224348645658 550.6900368165421 826.5844135617886 3.255156144632565e-09 -4.640881456907664e-09
-1915.6906186400186 -758.8753921882764 1149.0123781350803 -336.8648421290144 1.9165113940289302e-10 -2.9322322347979934e-10
-4280.978749070185 -494.5286922383306 270.80160371908244 -512.1115524018643 -3.0681945872856886e-10 -1.269455651708995e-10
-9601.831167689024 -533.6247611504613 -1114.264468498914 -537.0561168493413 -1.2940759575030825e-09 -7.321609984956012e-10
-15413.563073308813 -1091.5611060176607 -2722.440227545476 -530.7612203456578 -3.3776679231323214e-09 9.904965736495797e-12
-20815.48700639927 -1545.0171949982896 -4189.481555811545 -553.4738674025493 -4.972106282252753e-09 4.2037484604406927e-10
-26185.046690757732 -1940.2843417843262 -5713.293326134841 -597.4658367152301 -2.904510854051523e-09 -1.3346657112833782e-09
-31770.591872484718 -2412.9059553710854 -7469.659668879476 -642.9288595623399 -1.8434622717222737e-09 1.5700472033586266e-09
-37385.958708696664 -2609.0913629501556 -9329.67496329791 -720.3257602584806 -2.7076278996673864e-09 3.2596503274362476e-10
-43172.77948806848 -3913.8004149267804 -11723.46559899753 -758.8935569117687 -2.792402753470924e-09 1.446110786673671e-09
-48083.81997994445 1007.9663745068913 -11997.490394078037 -1626.459864014608 -4.5082728661327565e-09 2.6389912477498e-10
-66864.36773013588 -32101.042403493073 -27694.07120305806 2.09919722783566 -4.305174883256768e-09 -1.1351382056545845e-09
-48117.862753454356 1006.8076422082924 -11953.82003001207 1630.924800356568 -4.894532779076144e-09 2.1535839778152877e-10
-43241.22406762935 -3915.841948430999 -11635.297848582411 764.2027232043042 -8.740693502318209e-09 1.1513137110341631e-09
-37488.28091067175 -2611.356126956781 -9195.803614176624 727.2103122378854 -1.0300363229021059e-08 8.802665263374365e-10
-31902.34033502138 -2414.0195354979123 -7289.40309816801 652.3954008780494 -8.511983340397933e-09 1.5978294243268465e-09
-26330.34559211738 -1936.777368145993 -5487.27815613542 610.9356722656971 -3.735209475053125e-09 3.1107916242945066e-10
-20933.104785033 -1529.991797241671 -3920.9183312274467 573.0785413356209 3.371297907506232e-09 6.627089987887302e-10
-15437.065373423136 -1062.1473311911573 -2428.9770375682433 557.7773259194786 7.646601574151646e-09 8.622436098448816e-11
-9510.334276771393 -511.11240276390777 -866.1402550263065 564.3245452847958 9.934201017358646e-09 2.807691856787642e-10
-4169.2516225792515 -485.9352380058602 345.66893338505264 521.8345589893217 7.909552124374386e-09 1.4978240869822912e-10
-1840.1383790649174 -683.3663728306756 1009.5715858840405 331.77848990469556 5.650065304507734e-09 -2.84916268356028e-09
3553.1340027699644 -13027.959813718153 -2842.4477432844546 -167.57240153739505 -614.6952828550881 -53.339990472219604
11304.481331132263 4640.918463242652 3895.87807064684 -1153.007504937404 -838.0572515246379 63.953126706735524
11711.956113824886 572.8995529173354 1989.9137519393587 -456.2185863808187 -788.7331524455434 -61.775850229956816
16299.048094956543 1243.2526135267399 2816.3765745195237 -521.3175334141823 -659.3210871614783 -71.28290824647965
21456.796307736873 1489.181515638791 3858.0863008324895 -546.2780007560436 -423.96553530685844 -98.36868030979272
26748.365838735077 1904.2394068883477 5163.371391156659 -573.5886916948045 -129.21323219249717 -126.38276921397795
32092.813340014847 2319.427693123386 6685.148719716722 -610.4282993766426 203.92955480941689 -152.62419741512176
37796.84621416109 2828.746660565995 8562.693109786214 -680.540986772113 522.1854220411402 -164.42897068529226
44253.405577487996 3398.087774166822 10894.719898139167 -764.0339039162989 700.0796304712726 -138.51992175834133
50618.20839628113 3584.164877215305 13199.318485140873 -641.8218303097109 543.3842565000546 -59.99150082284649
53359.26610078946 3099.4067325656897 14072.494286500872 1.4849640433503026 -0.7018450823881208 6.58760383992972
50602.612170126886 3582.418809315219 13192.098619880262 644.8824209803581 -543.9807223132328 -59.13977223247919
44219.48480579268 3394.406209575093 10877.949029043539 767.3750686583619 -698.1654195967565 -136.82663931175858
37738.64747523024 2822.717037619867 8531.247664975244 684.3978125809018 -515.665833879201 -161.9800600136964
31999.867985089815 2310.230845901788 6630.071608319869 615.0586395253989 -189.53875763170927 -149.6731108436366
26604.410813022576 1891.0527632358612 5071.103290822144 579.5162536625855 157.36824125977293 -123.83448750267863
21234.651807361006 1469.52602440531 3706.9496146580177 553.185883583328 477.11484761008956 -96.88056690542948
15963.720668990238 1216.8135698558601 2582.2587490368846 533.975767082963 750.2396570506013 -77.41950225263146
11100.62014433393 503.68115197186023 1576.3512478244131 474.28776996826286 929.0309884163563 -56.75227586686387
9763.521104210924 4335.088389159491 3100.287185366062 1126.7668614122488 845.6767523943054 -45.67899861880623
941.1490725783206 -13755.415945342418 -4835.538193166041 1447.209664036256 747.5425806921763 446.4617015281651
-1718.236682400611 -13321.187467525475 -4642.673971996233 -285.839473778234 -325.4441256801939 159.30584699533406
5587.544108038647 2424.4995863678437 1996.5962671149155 -1308.5422570481371 -394.5182636763475 134.01642094572745
7019.235197836772 -174.57008473966638 994.8475144503215 -1179.9577277190072 -493.85628997299636 -14.826167784364516
10710.286185870536 33.171415827936066 1630.2063049949347 -1300.4878610521455 -412.89516119632856 -37.46369704454697
13952.475466874292 -80.9266888307283 2154.4054521857784 -1374.6972508814758 -261.55149095429846 -54.73127094343809
17348.520633439333 -104.69471735355253 2889.1421624208074 -1423.6087496944579 -69.92625157075616 -63.256724404624734
20783.75520723394 -117.66623488161333 3780.2490490592486 -1503.495903756323 139.26208877808418 -55.143147818403236
24415.251199869817 -68.44301014860987 4895.729498677548 -1668.8508712215778 332.40204943936675 -9.923320881455336
28367.193991009546 -91.8884588670291 6219.706613987663 -1909.975462637087 437.5093439133181 105.13836877793516
31906.49442315757 -908.856752084549 7261.299227288654 -1673.832371374225 341.2136915979916 297.63169437994827
32999.58315588644 -2562.865295213029 7236.787372234266 2.880101458626889 6.301472127822618 435.0266299277555
31890.54073443073 -909.488239482965 7261.525146867493 1679.8562603880864 -327.41791363306027 297.833929706891
28332.96021827867 -93.17843661297744 6218.317937107537 1916.8353440950243 -420.087024525682 105.33266440697084
24357.785267091695 -70.45460828373079 4888.585651654108 1677.2712963968668 -308.6869840362693 -10.280879559384164
20694.866130944534 -120.46673879452962 3760.06573673715 1514.4746772309552 -105.92069827104096 -57.20705167545787
17215.223309496072 -108.29787764537743 2843.9290769962445 1438.5630025179528 117.9728251605356 -69.2680599555672
13756.508716313727 -84.48212007594682 2067.000388564345 1395.233999708301 331.89378130849366 -68.26394409093746
10407.979393673042 21.334781724426087 1465.263310382607 1332.3739869289127 516.8009665608529 -64.61794152315541
6527.999263898723 -187.61893009024405 711.8426142079632 1241.5154423940933 614.2426288577648 -57.11321417913954
5070.616472272887 2333.7426077267314 1551.2482981313458 1422.486794744941 441.60054501736556 16.559754579002043
-2073.135341569906 -13138.495211613805 -5313.689074361137 1074.9283670418647 288.7758829279722 577.5137309015456
-1942.8171866780503 -9555.196225339687 -3213.8299167663777 -1852.5649215606954 -114.1779561382804 549.2284913632593
2538.681213726373 1209.9799583381312 1142.9758603758276 -2277.6148107320273 -143.64185096758283 202.5625405523949
3279.6005741556646 293.6772845070386 662.3628594915514 -2123.1256517914867 -200.96622257048506 51.62197125905525
5336.707059601717 -59.52260121592463 825.3733545202049 -2294.128804219327 -165.9045169703093 0.7391131039425165
7105.408094336165 -54.70135775478675 1115.591528719119 -2383.069469523539 -80.71159773570898 -6.2954475308733215
8760.405731255927 -83.93997209479191 1457.3357983191358 -2467.5851230959856 20.273773138481733 9.213159260103382
10422.305187981454 -97.46104294564081 1895.6518834840595 -2594.50482087429 124.98353840787713 60.05210546637616
12112.012157614332 0.26870458278357034 2460.3133076720333 -2841.526230323252 222.49207798016582 173.34327138417115
14055.68769336653 135.42379891572847 3190.4275677706937 -3270.657441620621 289.26818727806744 389.6904043945573
16006.210853759954 -1128.1810083778093 3576.200968323316 -3034.819957014952 248.40597734940164 714.4644003931087
15848.791755615182 -4853.220074198076 2570.116474137086 4.647200954911936 13.177173168184172 949.2168322323247
15989.636793686474 -1129.0207049021694 3583.2995392761313 3044.553592485175 -220.55053153176632 714.0366193896626
14020.6160804096 133.74229191185134 3203.19382106701 3281.787741741344 -256.9330937106969 388.39685251785284
12054.55057910611 -2.2515182727879814 2475.442488161335 2855.274267731302 -182.74816893128346 170.1090108935721
10336.295504405656 -100.83936132747728 1906.971336874252 2612.6093492567857 -74.85136387373595 52.703270623600424
8637.015266439232 -87.67446459919871 1454.5372391552692 2492.550482738251 43.582475128885314 -6.162285132854211
6930.828589125287 -58.70541217177385 1081.356151605191 2418.5113099762525 162.7420672448052 -36.36231963267057
5083.637821466051 -64.53636571116404 731.0759320359135 2348.2796803438646 269.06117736434385 -51.373022874794145
3002.146606785841 301.6826267397781 498.6078823084086 2220.861886181215 304.0696667238614 -41.81204354207406
2255.824645446512 983.2433796639992 771.4771724885672 2447.9473564117734 172.97453125079122 122.525983142124
-2042.4873791694574 -9414.354296108912 -3669.2774035424627 2026.9539986679026 77.93562747079055 849.5220290815479
-1743.7484511273317 -6066.47943399925 -1613.6955592327208 -1995.951821619018 13.59476366558618 704.2309127764836
272.0294879066478 276.54885878363757 650.6005331829043 -2669.904966879944 43.69768915374693 237.92112214358048
-89.51451713440353 454.6677056903436 347.1027287687944 -2648.7947344302797 62.55642625978435 71.23165488894539
99.25117009771208 17.071098011976687 114.37704446283682 -2639.000110020874 80.28487182422046 13.809203390805763
210.44766417066393 -20.92081431136677 67.77683265232797 -2717.2432254399264 105.28904133462585 4.265940120347643
168.41592086707948 -5.714492992059736 50.88726376207791 -2813.297317817499 123.77912085663274 27.125486060600224
60.99015837199099 -20.238876715586613 45.14156222132364 -2959.334486297965 133.70362741889392 90.96133391388088
-183.110507705167 93.95506448410467 64.74161168836943 -3170.074219374506 146.63029938902926 221.74495576214045
-148.7960647786655 518.746101732256 286.0886562200404 -3633.9207716248407 183.74776149478834 460.1717375203823
640.5760166650197 -1051.170473905012 203.41554183863158 -3795.33830729429 195.12977739908175 830.3122414722659
-1137.1463497192578 -8508.182763402277 -2351.6067844850318 5.266449733963469 20.033135832764764 1132.835600409928
623.4605122094819 -1052.2694702637814 217.40865239075652 3806.370191174777 -153.28347233922915 829.6929218512602
-184.5263841431818 516.5672781857182 313.0530504438453 3646.537733858629 -136.6753005551559 458.42196394365743
-240.28441140129542 90.73807551781869 102.16668603474707 3185.6560408427335 -91.25427339578341 217.6175694554552
-21.511216585092974 -24.368506965498 88.03466186212901 2979.8606036228343 -67.6393278180345 81.98368958063702
55.899054742525514 -10.201598364472133 90.17971738875909 2841.8007099950637 -45.6347505770346 8.70286729557861
60.21841204003152 -24.880788663013433 87.19573810161225 2758.5773650391743 -14.949208554575197 -31.028593169911225
-81.80205566066815 21.49758586194162 95.02598844468287 2701.923792810406 18.038746824291305 -49.76027659738177
-255.99466573803184 425.2885984213267 252.9645794138885 2748.1921601670433 18.82533178869781 -28.184332121868152
118.72605215961332 98.43463741948631 385.6173964769958 2752.8373346963726 -26.542871601517103 179.64080536799273
-1756.909437953706 -5912.958917799998 -1933.9255531103418 2030.970337660489 -42.160682629228376 899.5127313591157
-1651.5268646608183 -3216.053980809534 -221.29178837332876 -1592.4847942090214 121.16251653227818 661.7769695174529
-1577.913994742107 -200.1393861659808 439.1981959797747 -2338.9201797038845 216.31112344956503 203.17184701666514
-3298.218157824341 378.44439786686775 5.640460679141605 -2467.296842080289 316.9631387120087 60.72020225008005
-5009.573407096882 81.82873791059819 -565.2155102797109 -2347.4384122493116 324.485109309534 6.918392028896355
-6676.634355462725 38.69095138869462 -973.0821242876284 -2377.282206919716 292.4299521047315 -6.584529011210732
-8448.684105154865 63.244217449575416 -1367.7509575768286 -2467.607814136118 228.60761382913498 9.34631951453334
-10254.106855607646 102.05303650606331 -1778.6187655494623 -2590.1083647900227 144.1894757844703 60.77308272686949
-12351.772259281202 78.62786448384259 -2326.147371062522 -2749.9654100871276 67.16566037404546 166.27700514776276
-14393.549415043815 742.6545588410464 -2685.3257783848853 -2971.19518366631 58.694243661441824 357.7468362679019
-14443.607102039874 89.36634909741795 -2812.8494626249303 -3942.1389527580886 122.96416508259068 697.191866048752
-18941.079536135632 -13792.349791683986 -8033.140807273775 4.662992148303565 27.023874229914664 1046.4939275045265
-14461.375082184506 88.00220140312044 -2791.863072659352 3951.9049610222023 -66.83954500157918 696.8192069990484
-14430.187527810343 739.9576457024496 -2643.9553586782313 2982.356611581968 3.4597421624675766 356.5663794050522
-12409.09529570788 74.68917071335864 -2266.074207825212 2763.7278045669696 4.285239780952019 163.22846051495773
-10333.723066556835 97.12969187224432 -1703.6026017243225 2608.2026437115433 -61.57896817229223 53.72874296117004
-8551.134802218661 57.852745195581505 -1285.542488444715 2492.8643866045463 -135.43561302922504 -5.669542844780991
-6798.324786065465 35.903429685231636 -897.014316168098 2414.5063488662854 -193.13042487479026 -36.64773702444966
-5131.865766773008 82.3410250049427 -516.2798039714822 2404.2772509314796 -230.73249129002932 -48.7656627411516
-3392.1603513703953 344.53775035075245 -16.98411990255299 2536.2441776977817 -253.56973330688157 -20.027180362869213
-1651.5380843409241 -303.64236398579726 277.08543077327994 2369.4786379785623 -207.65005190055254 160.0823511959412
-1649.8413198576804 -3109.3385218456074 -462.4512312641073 1582.2514169944313 -144.38350028383417 787.9845470759361
-1832.3690680516659 -1431.4322885380625 727.4406404879948 -860.4589039671471 256.93370252500955 400.23853328759765
-3154.726732536468 -363.3798241739071 392.06146919280667 -1338.2932470206295 413.8808716042207 88.38520645358244
-6438.809347509755 211.69258686726255 -350.7962145887044 -1455.1543714942738 583.2367310160976 11.888849198331656
-10061.177243876271 101.05730731118481 -1250.3567888445202 -1364.7562058310652 570.1290867282701 -31.432483361674496
-13560.438142159866 71.54693932150103 -2030.85260516405 -1368.3717488267587 475.79330526647965 -54.032043227350556
-17057.568477012548 96.35624945793548 -2807.8939695319204 -1423.2912536144304 322.8436745089012 -62.93610599575754
-20625.166497384093 122.38428597969518 -3667.6211153407944 -1499.8364123884203 134.00173559162272 -54.67783392039041
-24114.63237831691 266.4435219778776 -4565.120222500014 -1565.4226926153372 -45.772355351075134 -17.281123114695664
-28791.834022564097 -148.77850792879812 -6086.695205608642 -1740.3771688022048 -140.86865427252962 62.61018339593101
-29440.13799054263 3177.8071798841884 -5364.072777884927 -2364.2611812109385 -38.64800196654246 277.4455327241323
-38823.528758828856 -20591.28805314477 -14998.314131463854 2.9135271680871533 34.30249440299718 672.9074334644396
-29458.85943320192 3176.2202092720154 -5335.922111993422 2370.3550173967874 109.69197548651965 277.76520172728385
-28830.039759305666 -151.9137809364732 -6030.543315452818 1747.3132483709246 218.95817518896126 63.04025374700295
-24173.24770372269 261.8975054818554 -4481.7432509491055 1573.9144900527924 134.57530012981522 -17.270308672576313
-20703.888417337243 116.75556056658945 -3559.4693084061673 1510.9029637356157 -32.823232376613795 -56.18883621959571
-17152.02461479875 90.71167766894233 -2680.672087635462 1438.5815594727403 -211.4153223435673 -68.16437600259182
-13656.89943097644 68.3482941613106 -1895.7682334020315 1390.991615822414 -362.8811127579823 -67.31782389018687
-10134.581616540689 98.04981408375569 -1130.4202125107172 1397.828028464087 -474.85457558873475 -59.378261040985365
-6473.037180885758 187.50317339773954 -294.16663140353126 1488.8678646780736 -533.070197934973 -29.358167888893846
-3169.3607757007157 -410.6253857966173 324.26925181857814 1345.7136469837135 -416.8255265295839 66.55595630642453
-1828.6542518101403 -1382.6905133326782 546.3947909122222 845.2241538729028 -284.66298977084676 470.7877760671043
-2047.1421565752776 -831.830449697114 1201.846906778702 -335.41372940669453 495.0556688103405 205.42715600046773
-4425.045191701051 -553.9016746946035 398.2158081651372 -535.7831249998748 682.1775314164582 9.366178590105594
-9804.89288068105 -551.6824125995956 -958.6841030089414 -555.254661017671 871.8254903210927 -24.933864507509323
-15668.104268481893 -1082.1204901771498 -2459.5808676185584 -534.7273232224717 814.3101709548846 -61.17379416580889
-21113.404206204013 -1521.9558752119633 -3770.3955007375116 -542.2180651027825 643.4006699626607 -92.1243477551152
-26482.28661138733 -1905.49024137871 -5097.511224319646 -571.0155922901307 387.17392814681 -122.55695793579966
-31973.995960346838 -2354.143262283759 -6601.365374360116 -599.672900377501 75.54547786126312 -149.79472656146092
-37334.186807250844 -2508.72101065842 -8142.086998440909 -663.3541990501622 -232.20597161576026 -169.95424766172624
-42651.54703354954 -3709.4909792155445 -10177.746505656469 -701.7131887559754 -431.7909459291909 -160.66885831844775
-47258.97440628956 1039.1490031924282 -10428.23192873248 -1545.468099415914 -412.37348731760346 -99.40884996906578
-65490.73978907656 -31144.633765527953 -25684.49583433957 1.5152722477337068 41.97410324969897 471.4386389082439
-47278.604061357524 1038.6520740850328 -10392.166492308828 1548.6549638875044 499.2317730523304 -98.71538349149648
-42691.249226990614 -3710.2908028070156 -10105.19127488444 705.3869821956074 527.0730064530285 -159.33606353028753
-37394.09650152016 -2509.355511591256 -8032.671670479547 667.912731695765 340.34408006718945 -168.13905275976208
-32052.113046980903 -2353.6532035354644 -6455.788138519911 605.6404437130421 47.506258894654124 -147.86911228132843
-26569.92768787896 -1901.5484981574016 -4918.813190272464 579.1350533014091 -251.87114930397632 -121.38357566719047
-21186.495679006694 -1510.0082616155032 -3565.8090821502974 553.7572502832929 -507.6718473776811 -93.65805599586287
-15686.687082198643 -1060.3329437686518 -2248.4138146518744 550.7689992458183 -705.2400306888848 -68.77315325190966
-9755.242213499529 -534.0701943167688 -793.3798273865692 571.9606649659806 -829.0737451734423 -38.15336048395132
-4362.658463642639 -547.2018638127623 435.3346956612983 542.0397153294647 -712.5061718458658 3.083513943130992
-2007.965244517607 -787.2421583772089 1091.4497832010102 330.77405521930814 -556.6905710582286 247.6773281627921
-771.6916470621136 -17156.87508541882 -5378.570019744278 -2666.697173637657 -1422.6632494720457 -503.25664238227455
10114.00850790304 4863.528504047173 3543.1154412898577 -1192.121620723563 -1535.0757410240537 157.73642473648252
11746.813765765757 588.5362034206391 1548.6253076838823 -426.02007452596484 -1439.8561914307068 -39.4097847142832
16632.410019543113 1442.3682466959542 2361.006611005138 -463.07028268269966 -1279.4440511627865 26.955190114388405
21987.765383125676 1694.451412601086 3156.195021199266 -459.8996723565624 -976.5184345507458 2.7662625664716423
27517.07121954537 2164.193136368324 4150.302142427691 -471.65127375150337 -584.0833576671613 -1.8817841432466231
32951.58506298356 2607.115450835047 5218.583823251114 -482.56717941117967 -90.81498360840394 -8.830550568420307
38307.754088087146 3082.785342350396 6434.804676792343 -508.2559469874515 454.01786302992247 -0.6997557941845329
43578.407187793935 3554.4975911274582 7846.274221011552 -534.0380930740412 877.9428166052708 57.30554722685297
48141.13515754513 3762.0068784072455 9207.75180440796 -430.00419773538187 802.2008139853731 220.12747871210487
49994.710760320675 3493.51573548261 9719.532624658186 1.4474727832735894 -7.5946161337626945 390.65150550636116
48151.1845538175 3761.4475029811115 9204.923494056547 432.87656435529044 -816.5358115921728 221.12953001336263
43599.92257409732 3553.3981149589745 7839.874073412682 536.8043809298562 -889.5875941075406 59.27422085652354
38344.19680302958 3081.2494614909865 6423.270483879282 510.6962587681352 -460.6968560629023 2.0446036146582394
33010.18211778301 2605.5968938441993 5199.571789901736 484.2742203194947 92.61206698076523 -5.565642600048179
27611.242391822132 2163.3561568698283 4119.987383304343 471.74482835701247 599.6875942569792 0.172462725150325
22144.63224511389 1697.1383484233666 3111.53790491691 458.0869582581702 1017.8546812536862 5.653026778487747
16890.054284684986 1448.376699557697 2288.674850243127 454.19585192150885 1350.6625228207504 10.454462158901567
12255.0704767116 628.4315028884099 1498.671758139681 409.5530127283729 1625.8669767154868 7.7820278310191
11309.691904335306 5016.2004895924665 3555.3640824805625 1182.125512547089 1373.7323659820267 -186.07436163968154
1578.8160011146697 -16250.613077343494 -3828.2584604550407 1575.6927140143302 1160.547701024553 927.1470112686796
-2538.907938264431 -15665.940939104372 -4747.319811811829 -1711.2915433833175 -239.5962893392471 47.15800104528821
5321.074047342819 2592.7028644038237 1872.2954584267577 -1486.7082014024227 -516.2029081207742 143.3542745454628
6698.901822985691 -140.40602656115465 602.5152319602976 -1170.5228976573608 -878.1909437731175 -9.412002659014998
10758.581837541748 162.7578520695932 1193.7546526913986 -1215.3962076284074 -736.4297189579866 12.676586688305843
14166.971128667312 83.88718998957629 1565.074247829599 -1251.6475532584636 -548.7713336194086 -1.9926642995261563
17717.119923041842 104.35535560204104 2067.4044658780367 -1258.5370629990034 -299.05807780660587 -2.4427832035089168
21211.683855836232 132.437406712894 2641.2661333926203 -1269.3683700904687 -0.5885225831756824 12.011116889920578
24626.846821939263 191.89068051901137 3314.9977422489733 -1303.250352567829 320.02539930692984 68.96525956176455
27892.567367319112 209.82913795769733 4080.5100470351886 -1351.175768130064 568.2711070044633 234.12261801386887
30505.947082044393 -237.99320301214215 4669.544351135077 -1108.6420610091516 523.7286640176405 594.4728892354901
31286.873422156914 -1265.2101888375494 4613.154227700502 2.0953418560116397 2.925971502105771 953.3607488349376
30517.316900448448 -237.54469928256935 4670.826553371475 1112.7683561661122 -516.5450911436351 594.688601367989
27916.539708026132 210.71186940120268 4082.323528416022 1355.0257236752475 -557.0448846001798 234.31527290611655
24666.33398521474 193.21130009020243 3315.700184206322 1306.3362990376008 -301.8235738653153 68.51991228492963
21272.31680669312 134.23672635275537 2637.947941588628 1270.698380987801 29.126769557535415 9.695518094859386
17809.921455535088 106.88349617434275 2055.8267520042573 1256.3519551771412 342.759764322356 -9.175271493475766
14310.627925948394 86.74581737253877 1537.3942976731296 1243.5769402333933 612.9274967332502 -16.05649100181666
11000.828672426072 174.4651799159915 1150.1104117975506 1195.1129341850208 836.0898250108428 -19.172953004704972
7115.530421306972 -133.9019956075791 524.4836044568707 1118.7013341772486 1003.6619861789128 -38.048683326965666
5748.899079276257 2641.07314441229 1787.2238736088539 1363.0870473748748 549.4874035117502 -104.36700517734695
-2171.3816427524353 -15639.360442295118 -4614.418610460745 1015.7894719352273 164.326795475028 978.0398640288624
-2358.1578863559303 -11376.701105060283 -3109.100878301694 -2258.6171022428725 37.99155441238816 943.2583571197954
2322.2217659956755 872.015393004411 1012.5237458896469 -2581.907738378681 -117.99789311372699 141.76233560515143
3046.2832692151505 455.11491078349667 480.6759591055069 -2135.165902315651 -354.3715082961758 43.22458409289165
5173.295746907978 43.841742252415784 560.0529539939697 -2195.773711085944 -300.98256936871815 -0.5996619550951436
7085.096996648838 79.79049749610013 797.2051575183602 -2219.5710760691795 -190.75789924331514 0.4685046304477858
8840.448203626278 82.74214826045012 1028.1238677962235 -2228.2509191986665 -64.36390059892754 14.328088425097771
10573.273222524986 103.00543566857097 1309.846419150571 -2233.5881266398515 81.71925837745809 63.05585310919804
12221.320436435197 180.22701468509473 1648.214893265792 -2257.856228142084 247.6150181543976 185.0353714289803
13839.413576575409 279.23210803770286 2061.998113726013 -2336.3196861771853 429.37634462543394 471.5447371681968
15253.688503877773 -469.94293354714694 2250.247033211826 -2020.7519479248913 477.19231391754477 1067.3111231641437
15149.554970965595 -2908.695757047993 1526.9505011613824 3.073479627258859 12.25776484335679 1756.3434967003295
15265.883952202441 -469.3149128616548 2255.3440648550486 2026.7803607381397 -450.96689047143263 1066.8117767074789
13864.715068801846 280.45776157438945 2071.486630593578 2341.853290326365 -398.0607016021889 470.1094492428424
12261.745937697786 182.00360569217492 1660.448129413311 2262.060358763351 -207.9725324487339 181.60239191080564
10632.69430789951 105.36615885538308 1321.8706444791053 2234.7437084055996 -30.74479831243087 55.42986527887947
8926.036483427153 85.45410410476686 1034.8386053380248 2223.3218962426567 129.3043516230383 -1.2958865442775416
7211.6400121279285 83.47458104155372 791.6171540389067 2203.713064985326 272.3848107579069 -30.473794383666835
5372.978155678105 49.652622172924715 533.4366015509269 2159.6749233390115 402.32176951313716 -52.01084702073139
3280.5143352481878 445.0700906828622 395.40498689892144 2050.718685279886 456.9153656516628 -60.100310131900564
2552.936278855185 1050.4446098669619 957.313903875002 2411.2496186159337 138.9401568627942 44.81568897232553
-2254.725713898108 -11363.14453442308 -3174.2051695909718 2062.9520312096734 -84.90592569274823 1321.8241879097604
-1957.407242863811 -7199.012861028376 -1571.4010826926155 -2135.5666096187783 122.65900201003119 1034.18780900548
89.02975226827864 -148.90096032515504 551.4153852221655 -2836.582379311658 117.13558883902425 254.287067004386
-329.4237892298152 505.2677236127185 284.0848579817559 -2697.1196801901465 73.2834732188495 64.15899741546058
-199.57546349783138 56.434727823430975 59.345222693204214 -2547.647649496173 102.44510461970755 15.871531226833802
-53.64919675294042 -14.982057538680294 35.49436225604474 -2547.2854936189096 137.60980697821742 13.60051971364318
-38.93275164387656 -2.062241946588916 31.287965623965082 -2552.944592927032 156.16994666336518 40.31452042873827
-62.47456208486263 -14.114026832980649 27.522891066515506 -2558.935603680677 168.96614654011677 104.97998466096037
-173.4693824200803 38.228573735234676 31.619840661785645 -2541.3024871181765 201.8114218986872 243.41067611388715
-147.8451894250037 289.12078859647613 140.52716446989314 -2622.615609512527 341.9775855724102 540.5886616448158
339.78590557115126 -677.5895726918654 35.34467421898623 -2566.9361010765033 528.6139137958041 1189.9221706208118
-960.0766091236853 -5775.150042277264 -1811.3830309937155 3.3420201412258734 21.11596324084571 2255.012950808053
352.7452731491495 -676.7522269749168 44.31862433050703 2573.486958731988 -484.3251795888279 1189.2153936416357
-121.41524923612133 290.7602257052112 157.83792775299827 2628.6106427980253 -291.66670555510535 538.6750726240239
-132.5609199571919 40.62463639545178 55.70985420766339 2545.8019877440547 -142.02878344445813 239.06486424382277
-5.403923160884339 -11.00485444819985 55.34967664815345 2559.984750274076 -97.358281273447 95.7644547314281
37.53027741478958 1.6084076704586554 57.52804345171756 2546.899187119696 -72.25704982787741 21.5860919971101
51.080664406933565 -10.74730844141261 52.251388929357915 2527.969602977499 -43.41268195853879 -22.19239214335102
-64.54239799168539 55.09182560547003 48.816097638047125 2504.315646759281 -4.019001776881277 -48.91509965448753
-197.61131141424954 528.1457459935515 230.1282252749907 2610.198102294303 3.4963869524815907 -40.44188855272423
210.9196201456677 6.310982124973105 500.71786289642426 2745.473704282425 -110.71510477311514 191.19517323780954
-1954.8490906810023 -7254.739559414381 -1700.7186731962438 2072.2173081756773 -160.54954083517038 1260.4834146247647
-1771.2268570611327 -3824.2273965858735 -352.15973103339087 -1616.9227506956631 206.92060125969667 894.4499526628356
-1717.943001943168 -533.6685534094275 365.9206185537682 -2402.979186684725 334.0863396453177 259.3076904989864
-3563.0911648183414 335.61477044459474 46.7308854335879 -2484.0859887562956 472.1401300193805 66.61845150564017
-5434.846720511864 27.13997496736369 -419.88838855926235 -2258.202891252953 504.55493183312007 8.162616631799263
-7172.971195574907 -79.23435784746128 -713.2262686128895 -2211.4698088792798 469.62405499539227 -2.9465726664158893
-8941.006815643444 -96.9529160835655 -976.6269136184416 -2223.066789314068 379.627320840375 14.679507200298529
-10671.30338261892 -100.81751761799876 -1238.05151088256 -2228.3780743335983 261.57074578101077 68.54165708406619
-12503.751217339337 -172.6720634283589 -1584.6520327480446 -2208.4691304256694 145.806832829641 167.29092921743234
-14190.364410418491 213.74190187141224 -1823.143300259553 -2171.4185375588263 182.08767903516818 378.07986292104334
-14347.194394605956 -118.13492400846549 -1927.0261877902576 -2745.2563149108805 562.6008353114464 869.7186614379176
-17675.037606895065 -10007.45796122364 -5821.218724202184 3.14696972272575 30.163388596580706 2358.5434489020968
-14333.442956313185 -117.10410397321168 -1914.1262532743197 2751.450755641161 -499.83992719146994 869.3249983077949
-14162.751073456973 215.77612163229855 -1797.889152685526 2177.1764749276476 -112.2782396890168 376.85667425529704
-12462.292473736878 -169.68267080860298 -1548.4892593242912 2212.997757709886 -65.22883660591098 164.1745012731736
-10616.56535490182 -96.94743432124956 -1194.056303596289 2229.970347372371 -168.44182393355194 61.37920928748427
-8873.818258422141 -92.21085416523016 -930.379516116088 2218.3429742947596 -275.7475871423205 -0.6307180653194706
-7094.826436973432 -75.29253636069832 -674.9395866145782 2194.3572524968868 -362.230856129893 -33.90682522823205
-5355.039921338071 30.1095251250606 -406.6831457345299 2218.746511511907 -408.826153754634 -49.732191356634274
-3500.1670484036736 365.99912524605804 23.203304821769414 2423.0637385340324 -415.1118513915485 -18.181545766526376
-1665.630219744573 -437.6216120421466 321.0928735003208 2363.8496458799827 -336.1852710467515 215.8980294995565
-1797.7679678737054 -3885.470847560328 -476.43178734898805 1602.3120644923936 -238.1475886963155 1044.5246081537834
-1895.505768999159 -1695.776102809721 461.47386886566886 -845.5705930003517 370.8241033833633 580.6184143244393
-3240.3215017252664 -551.4075376564882 353.1351640005832 -1343.4625507828057 618.1375379937168 176.47779656162675
-6726.5459272688195 144.1226796716981 -211.46220709986906 -1433.015301529606 912.8202865403064 60.829362018345954
-10611.575435768806 14.778930100416737 -919.6840458594432 -1284.7662566710044 947.3420787726685 9.62119392407549
-14283.489565695387 -79.41115901285649 -1494.2099364844753 -1242.8048272190647 835.9115709751587 -4.445912024991155
-17835.8071416427 -111.4555302602246 -2023.9981278470725 -1252.7343295124795 625.5971061918599 -2.5011298196622693
-21329.75683666557 -137.65653116181204 -2578.6634782083447 -1264.372544843739 353.3265557291402 15.740768929254394
-24585.259568879286 -80.24683970127347 -3119.136307038093 -1240.9002479500914 75.94625688365237 63.73182628254321
-28406.297222264224 -460.79483647478924 -4102.65452485114 -1280.0628283987285 -170.09971267745064 99.95975130917881
-28879.500437267267 2065.258331197748 -3529.1620284522996 -1733.873239549668 355.02908985175185 325.03720035304013
-35816.0575776092 -15426.883144570475 -10971.612453894859 2.1824800709766308 40.065963437309364 1736.1863603119655
-28864.845468815925 2066.436490127547 -3512.3020959537334 1738.1992920686048 -271.9874940546059 325.4203965555129
-28377.221094797023 -458.4589504300446 -4069.3794442152566 1284.1891181274927 261.5215975769532 100.48829697606882
-24542.67217243445 -76.8096396020173 -3070.7662620806977 1244.3914547571828 28.09671678016869 63.80693642347192
-21276.11738137293 -133.19663683829538 -2518.2709644027327 1266.229411264204 -235.1342625881689 14.123440359796202
-17776.55195002115 -106.34898319924277 -1957.9020768365851 1250.9274721906609 -496.9718490470161 -8.30389081643662
-14229.377531225966 -74.72757021720122 -1434.1278927037088 1233.3264481767544 -709.4192497249346 -19.406195779963753
-10578.22566507255 21.59585124783815 -882.4530720607361 1262.462928329846 -847.3483059036608 -21.90720318535191
-6719.666326098726 169.28553756005815 -209.72861498444448 1402.9720287793625 -869.5690719108018 14.53996718906636
-3241.4107899279356 -505.7226066650623 318.5533543588645 1330.1860619542624 -631.8606686150906 153.8342012153881
-1932.937010885603 -1734.2700450519244 365.0869953738747 842.5075773868535 -406.20490963289757 666.5059605555731
-2034.7910275173117 -929.8436844032972 977.8208908640087 -323.86847222249605 708.9501582591065 376.2959346605993
-4465.273055343407 -655.1335680099049 403.6257348389557 -525.7383424547887 1064.746313508806 122.68750563341308
-10154.953436292773 -629.1759565679355 -782.7073701623355 -516.3166295823182 1481.778587050537 66.02881742011033
-16423.801928455203 -1207.7144716373102 -2069.5677184497554 -468.1687239371381 1494.0100653713778 27.3527366954007
-22157.066334167408 -1722.6014291861247 -3126.8069843555 -457.74165419909826 1284.5286283521261 13.609735534052916
-27655.495553094188 -2166.0734896223425 -4119.529345348764 -468.39609829627557 924.7978983507808 4.413445311265804
-33096.507560113554 -2642.2946676377983 -5175.825076255485 -474.36271348720777 465.2727698732189 -2.511442905641026
-38215.94934822395 -2885.8916859326077 -6190.146183439956 -495.8695597466551 -42.95603528408133 -1.263871537761915
-42803.62376205881 -3859.6335560149746 -7468.244072186 -510.5039659617585 -566.187085716447 -9.239318655617751
-45793.81932329655 -186.99240930734697 -7398.88631020598 -1237.499700220092 -844.6616954748928 -200.1218063275498
-59164.18119813935 -24230.57308330824 -19678.357955754902 1.0476921414153821 51.54836410297885 1846.0973842816177
-45777.733738088325 -184.7595589101134 -7377.66974279534 1239.5977674971866 951.315681126687 -199.40301597876658
-42771.914038639545 -3855.197522222159 -7426.161237491309 512.5773392872782 683.0933952056985 -7.925220791907876
-38170.11889033312 -2879.356958729542 -6128.411130491803 497.77270116002876 175.3185877384216 0.33365350912345804
-33040.37500653608 -2633.965739118477 -5097.627398051446 475.71189590728034 -315.57041770312406 -1.2718094954741872
-27598.103220983434 -2157.077577894013 -4032.1787209548334 468.37708382415667 -762.4943211546675 3.9851385094308185
-22117.868939453503 -1715.557846396463 -3044.9100764761315 454.63315808731886 -1126.5660681375148 8.869666882245909
-16431.191601166553 -1203.7703944516506 -2015.1032000563273 459.6692953205042 -1375.1252480664878 14.274796824362026
-10213.880997504348 -619.6946948217549 -772.1115172864161 503.910374450194 -1446.389136704172 46.106745397947165
-4527.136900277367 -640.4265093210121 374.11769512817517 519.5180675265498 -1109.48616883433 113.84474111743758
-2099.8564095451798 -958.6685540077631 904.5497417872552 318.79265939418315 -782.5853889671253 428.25816862533446
-5108.3888820186085 -28336.30183545815 -10033.407215243027 -5184.423785883523 -2137.3646134563783 2693.332514907829
11289.687319065197 7262.420248652271 4673.684968062792 -2303.022190771693 -2224.743278928051 91.59262396461088
11167.685519978144 324.0803011872456 1095.0778563671508 -1085.7070802077187 -2173.4197114246213 755.5218341906188
16153.57782874956 1501.932446188861 1989.313581193524 -1119.6045030544656 -1933.8691016204364 819.769907037693
21809.75050123953 1675.7336003346873 2671.21672122025 -1055.1966431623905 -1728.1786119829817 1125.8981577317127
27714.517697808096 2202.7788154348127 3573.822954174085 -957.4010907294405 -1357.3849299206581 1388.3750425422547
33464.46022314179 2667.390577017771 4472.156110019786 -799.7271600058984 -846.6166750171157 1658.081834800253
38890.75929773352 3101.3608225921294 5384.894711867743 -582.956351737688 -206.35208552579525 1923.1033436191783
43459.93741431042 3448.5358787424234 6221.552948032111 -303.41266650897757 417.76823139184046 2196.3046984185667
46440.21327220443 3795.1011089798662 6867.609780902322 -56.375721955488814 594.7873828824999 2489.8493720860088
47533.11643794095 4185.268914854475 7215.613158724455 -6.905037661397387 -14.297621599087826 2690.071259645265
46473.961135358964 3795.500122098707 6870.10816677265 42.20713123921951 -623.1314963119219 2490.543934321184
43534.110486975755 3449.6425178134964 6227.424629044706 288.1689748677171 -445.2827604830287 2197.6814724020032
39019.561855880376 3103.832008264156 5395.88526977008 565.8956322818881 180.56319234709295 1925.1976438022546
33671.66544733219 2672.679924626281 4491.239613116942 780.1661633991135 823.8781795747539 1660.6105878284034
28034.00761205572 2211.64608112286 3603.0081281822513 934.3764563119703 1340.6167310099236 1392.3495656844516
22291.86398962955 1693.7382722460218 2717.0438430933427 1028.8068114665396 1717.4532034613185 1126.2787541916352
16853.17168906059 1522.8802197489604 2031.7154038162364 1082.2433333300041 1946.2404293934121 840.7557020936213
12360.785278381785 448.7282824631763 1282.1620245445943 1040.4685778662924 2139.3883818894233 685.8368904295714
13876.195409780783 7719.151370742129 4949.844266211227 2389.555698995926 2860.700355592041 503.8585127656528
-213.61382786782747 -27023.946817634995 -6167.128020408476 3116.308054786769 3747.0926193070445 1044.6284424508924
-5663.915659839638 -24578.355121475623 -7410.454872603727 -3327.665429914061 -1765.924201655051 1548.237787317838
5397.416405095384 3935.9819342958085 2216.6937809258984 -2757.259941393722 -1478.6618467090864 464.3854527085527
5568.578927813457 -376.23961086314944 36.36058835121095 -2294.1086505943695 -1341.617054037487 814.065644746774
10077.364630408392 69.98305807618796 692.0448011501276 -2323.5256121338894 -1186.21881570083 1055.6606326478884
13633.149995665077 -84.62379308693708 951.16250442745 -2271.2602333329637 -1029.3990365995671 1400.5539553460378
17396.376369088044 -79.96698087620683 1327.3933665527422 -2086.1868903395475 -811.1822256479318 1744.4751887557995
21062.5880141395 -79.87928121973488 1729.1223627913648 -1812.6312437140593 -507.57427310151735 2090.3702617709023
24512.061946102294 -111.15747718593907 2146.1495248231886 -1413.6135487479755 -132.8391727518037 2447.36331406638
27433.522049587613 -145.45482495966087 2549.673052908353 -835.017167526694 236.23417512147546 2853.7317043322423
29451.431571003446 133.29283956825722 2960.828399840725 -219.7754467138351 352.3063386283684 3363.499570176651
30399.228969405664 888.6052130924144 3367.121996503715 -12.31143773214663 -3.4248879790743043 3758.8792604886703
29488.01488536351 134.90206943341911 2965.9377315218876 194.36853058440983 -358.4741740957147 3363.572454650223
27512.694628393576 -142.09928707937036 2560.489401548433 807.21875409824 -240.3338572510809 2853.7843743993726
24646.31210427963 -105.77391772313746 2163.810873986263 1381.6854926959704 132.2144350147583 2447.1981815939926
21271.654099658575 -72.17765962782784 1754.8309985308008 1774.6369080869151 511.99764270005164 2089.5789119152964
17708.6192159875 -69.9414905633482 1362.397432820354 2039.9647314395238 821.6945227041183 1742.743544851629
14083.602815449021 -73.95295741785395 991.3117708941292 2214.554242874025 1048.6601367607118 1396.0468746709403
10730.277308237786 93.41972420023745 749.0045069610974 2246.9739869385207 1205.8515548595233 1054.7415595200991
6483.5198875854585 -357.07933298163505 59.06989913111603 2175.957200833192 1397.1233137322915 782.3680405140374
6298.000012985592 4129.556766442255 2309.354919798131 2600.6735476236977 1690.9331074899012 666.0909763461372
-5250.719500904419 -25382.21587312857 -7124.650094752798 2082.3554772925268 2090.931201710817 628.8407686115094
-4513.487546847889 -17129.294620040142 -4675.25825125938 -3906.8862637443453 -1075.3163595620929 512.7751620293308
1852.1760736019894 1201.2690029819719 1003.1338988713457 -4478.69507709283 -841.5474677142315 721.7150281301773
1955.9818226485847 551.1231638601608 95.27760536027284 -3906.4714236220234 -663.1667284255974 929.4289647475111
4318.71180643646 -91.49381298626028 128.20184189721905 -3973.0379227142757 -537.8031046858371 1346.3994149417433
6477.009314954782 -61.254913507075635 366.01008709165444 -3838.102013012272 -439.8465457228756 1776.9115663563757
8400.621547871351 -77.80240721966445 541.3191291689764 -3542.752299172036 -332.8644395584501 2229.1460153878934
10315.795453808254 -65.66177480750984 752.5507421581907 -3103.5813270848535 -189.31357693872326 2685.507240914125
12156.759064680704 -102.39685435823333 976.8045466255538 -2465.350609051177 1.841062788745294 3166.8904733275417
13725.709944753726 -157.70054412973371 1181.989861060647 -1480.5950383481124 244.82813098444564 3733.735787620566
14792.522445726525 466.2530551539842 1505.637139077648 -319.55690644791287 374.22598264770545 4507.665301309077
15772.636444032287 2488.2683133532055 2287.1783371638394 -19.673821577181172 5.263846633153872 5236.348206794222
14830.291458494841 468.14232595963824 1512.7516738383622 278.9039792529482 -362.65892482324784 4507.25915663502
13806.591000805622 -153.79527719179293 1196.7283197014247 1435.949218632847 -230.19500498932493 3732.8018538897654
12291.47207057315 -96.23596088338435 999.9916840933522 2413.767674658296 17.708325030980234 3165.135395326677
10520.62434423871 -56.94198352307565 785.0116524044041 3041.6548271360134 215.14290798282514 2682.4559541977264
8696.929147741894 -67.33864398759175 582.4461255063452 3466.4701533971675 365.49539823975505 2223.7364469761687
6890.8516484372285 -50.12380039805994 413.3240841046154 3742.4584268361973 477.61397358933755 1768.982940591974
4873.43104619774 -81.93880030169929 170.8597238215626 3845.2616822607965 576.7318942673198 1330.614255997435
2510.9489996406996 558.4260556045275 69.76371503283616 3720.7915463338973 717.1638083879766 932.9182525201146
2374.739238806785 1591.151229159224 1107.0920723523873 4231.176746168174 921.5236943473201 732.7973249409956
-4491.963810310748 -17771.922304938187 -4776.382208836941 3692.892239781213 1179.9537428690135 490.08412777078763
-3302.1307878281473 -10350.918162867905 -2472.6858059291585 -3612.8856897403775 -485.08578316082827 180.82713152282957
-577.7073398336089 -240.24330772527946 385.94281443441264 -4736.3445351216305 -274.8372094591908 626.7671165844315
-1337.2194021406267 701.4311606329949 43.05568577455679 -4755.348812709711 -43.351244313463454 960.9805872271311
-1054.4877452744358 53.22506042482816 -167.1121916664097 -4539.786214735663 72.0585033805674 1415.7864517749376
-638.2182103147044 -45.90158497469601 -109.00492295786502 -4353.153065619173 106.19460786150864 1886.0485594417582
-422.2221652877787 -18.672283432329856 -57.694137620032365 -4015.7666123088243 115.50366999769251 2365.484570097058
-219.9467812548915 7.024432161250267 -3.799475315382672 -3525.437303451015 123.94965292225504 2855.5315624455534
98.69005562339129 1.4138529753605127 80.6450769250018 -2836.0988171998124 156.18354119856588 3365.9731947951254
388.97864822222704 -151.06758601495636 98.76433609106695 -1708.2716445513834 302.35701870379677 3951.42449374733
398.42098300482087 742.9511423389962 275.53540931605704 -105.82893579212603 491.5133586876578 4791.567196637093
1795.6081869331035 5269.938416002277 1873.9636195843782 -22.08918469096102 13.072171166006825 5874.229409324306
436.87170273675224 745.1769907172476 284.6105587501264 60.145043233735095 -463.99526244108944 4791.012795824384
470.4939352364588 -146.53626180875082 117.35657759878919 1657.9827480048207 -270.8320939374445 3950.1771965438934
232.12921407525573 8.391026812659433 109.39557051946495 2777.816981630225 -118.44024919914033 3363.717288476462
-22.2966916894199 16.456602441198143 35.374749914954506 3455.183559823524 -78.73994920000732 2851.6493991909274
-146.416355069934 -7.94560342941395 -9.452190914225135 3928.5541917828514 -63.52309379741081 2359.0285932506795
-271.46885177462497 -37.194270791201205 -56.67933867719351 4242.107179466608 -51.565063455209184 1875.3645148917324
-630.161635706469 47.8270214414839 -136.44745659851614 4394.617469784484 -21.216969991605353 1400.9759027553043
-963.696155470434 772.6797217846673 41.26383208526437 4572.174615680876 85.35206197827063 952.8381657880535
-277.42689247666493 37.06798993401435 435.92135937412655 4628.4642397996795 310.0834278467784 644.3235058274947
-3364.2363065155178 -10847.871966202973 -2632.626655014681 3578.385754555502 528.8969018127916 283.42114745015147
-2592.8513866687417 -5181.066968671552 -913.014709406356 -2745.8123968447285 7.121345661073395 142.7809741343037
-2436.2213476145944 -689.5234516589546 125.37341105873513 -3983.0289478979166 257.4888690028006 486.3184791353471
-4491.230458133922 562.3320539938088 -83.87005676585005 -4375.623514820735 584.1465714373455 888.4226892562294
-6247.945409606512 129.925165661457 -438.2744628469623 -4078.0885004210427 692.9108534409272 1333.8138920956344
-7723.531170672899 13.566948649126278 -562.0668126516854 -3841.700019074077 659.7555733686688 1781.0550047998995
-9253.162381791539 41.36816872160704 -659.5242817604935 -3540.4596176774116 566.2911938945343 2229.5340138305655
-10774.178111579937 55.38294962392469 -773.7257806779197 -3108.821997429499 445.67845726670396 2690.3437667872727
-11997.574303597665 159.03791502964174 -807.6865661951225 -2494.7367842824715 302.32650221762765 3153.1120900432875
-12883.462927832496 -104.58701942022144 -944.4929695540937 -1585.6937436427445 269.1078873096551 3647.0010671963073
-14271.617193881106 266.3746363392713 -1277.948002428854 407.6170403774024 550.073117374408 4330.739154974502
-11669.046010731008 9536.75539863502 1923.0968574591625 -19.882531622925825 21.053672071235603 5742.825715259108
-14232.29892673144 268.98968973104667 -1266.8449461689588 -448.7588798817204 -506.2211007067193 4330.370642445302
-12800.953733137685 -99.32922995360934 -921.8991675458103 1540.3491242726143 -220.2049573213775 3646.149060164622
-11864.921182166481 166.92602152661644 -773.1616114767997 2442.1265701292964 -245.72463985681378 3151.503753848495
-10583.384217124694 65.56667375846138 -727.5901200944539 3045.368824238043 -380.22137363899344 2687.4581214917216
-8998.460778912091 52.487516715058206 -604.1674500477562 3461.397314955298 -493.83240948205014 2224.4605037728516
-7412.669782748419 18.925426174025034 -506.9047517457907 3740.426483825872 -587.1474760904314 1772.5792534072525
-5929.670556652051 130.73372028112357 -403.9705994525157 3948.6408102452656 -632.9831945566468 1322.3207410653565
-4242.222386564075 630.7385697493961 -73.15923534816372 4250.16324233229 -550.6330707513698 880.6909937104966
-2271.4058272562265 -535.3166142544994 141.21681972655108 3953.314155412499 -243.82090393550027 507.8798499861927
-2643.9057898350593 -5479.261660770685 -1030.6358298372375 2765.4417889658002 7.711232838054755 238.72820680025075
-2414.5909825744716 -2073.3357858836885 15.578446568132378 -1520.2789884783397 439.66314752050334 209.23350857664732
-3907.334925208109 -644.4690084141905 73.45178572508073 -2294.8076927347847 801.8743846086331 349.114206346267
-7589.362823443744 323.52286265014163 -292.149230612223 -2628.7227302274746 1278.7775513288943 698.0434062582777
-11429.30258197491 138.34545570327822 -804.8505244012102 -2444.462122229791 1381.2034789136658 1053.2922439427716
-14912.492108477098 46.912097915982145 -1153.3916316767331 -2275.5312333550874 1267.6590266181054 1399.3852078679258
-18263.097228798422 50.41531402373804 -1451.3554693824963 -2086.2111901633275 1055.427430092821 1744.1347257017605
-21496.501567047228 79.15790442419552 -1742.3797894862228 -1818.0891781001308 778.4985201444703 2092.797093385527
-24605.8712889098 46.69913456391745 -2081.5182943947043 -1456.7231872697096 460.98886412176574 2446.7006615290416
-26377.73015412564 513.5596925748541 -2028.5254652178219 -845.245640999893 4.801289408481182 2742.09376473224
-29778.41361313819 -1796.6862929185463 -3735.532839168571 429.65771188904694 214.78324814421984 3133.265382558515
-24648.833094683334 15225.091837322101 2073.559068847183 -12.579482680842546 30.27834605624014 4164.060842341761
-29737.299184713604 -1793.6791063450519 -3722.217626999332 -455.6809121446852 -152.00986009575678 3133.3817712295518
-26292.348824239576 519.5680193535374 -2001.5785904328436 816.5953722564644 64.36893593102397 2742.26577795752
-24471.140369662142 55.569996548733926 -2040.7532001071877 1423.5742033698425 -382.1478706963496 2446.775544373755
-21308.525252586533 90.3454056440248 -1688.7883154417023 1778.3044806737378 -688.7511099289435 2092.4548835040337
-18026.258445492458 61.69520980868509 -1389.4776813801002 2037.0483002252936 -957.6301195088487 1742.7858723182248
-14653.094639329089 53.579571173877014 -1095.1727404618975 2213.034314438478 -1172.1405995446366 1396.2980705025134
-11204.034956910444 145.97980691963247 -767.8588021838173 2368.7746811354373 -1308.6968691693444 1048.5539547649976
-7449.7878197950595 371.2115264428052 -280.5910164315175 2567.690661611102 -1251.1377313068297 696.0164935685929
-3846.2024021349907 -573.3864858962263 69.17275753184529 2294.218052319095 -807.2340627946525 364.4115860130329
-2454.4965265299543 -2202.5138338277184 -50.26992380801346 1540.32046072942 -450.24138387997283 271.4418019551578
-2109.1377489545575 -895.3019715888794 653.3954967803131 -749.5982593666516 880.197896256914 252.52893330964542
-4735.764438109915 -580.1802063218523 204.36615030426216 -1074.9318348671202 1423.9302628695486 291.9845590865004
-10845.786647952562 -457.1374953353195 -856.0190073926497 -1208.531526721998 2112.8567490866662 579.698820640534
-17422.967083975003 -1184.8195796485213 -2044.4376896382291 -1161.9990161035432 2205.910588555453 862.7511474387204
-23168.002314096186 -1759.7319642594869 -2925.8889369730696 -1080.5166067226028 1988.3722146760063 1131.141807459155
-28598.84240416133 -2232.229776936646 -3708.7765987878574 -969.4055800968727 1623.2906810370707 1396.709214814162
-33870.20898206662 -2640.6013971662246 -4470.375035014659 -823.7176651162156 1146.0179747303948 1666.0673585161546
-38982.33367133595 -3248.169158219939 -5341.069230925777 -603.7893664545409 579.3143476044781 1912.4115217406097
-43539.09370447414 -3028.346498132267 -5967.3872387598585 -295.46906460465357 -234.60138056871665 2204.1227152516662
-47572.05672450249 -7191.249469603933 -8388.443135926129 821.1624464100335 -1703.474162307151 1979.4545826778285
-38477.948370328195 15210.044556555009 -916.9151138298935 -8.128334193926776 42.10181198865382 4082.202353986501
-47526.708769035184 -7186.556838486997 -8371.964894037197 -837.9544089932135 1790.5524961319243 1979.6921218787004
-43446.02262515148 -3019.1580128213054 -5934.329241737956 277.08397758456556 329.9740504008174 2204.530067804997
-38838.409871782016 -3235.0996771624873 -5291.829986026986 582.7875774417954 -471.40992932793483 1912.8346813862236
-33675.870932234844 -2625.340877686378 -4407.392501969296 799.1786673790714 -1023.9834425209999 1666.2272492711097
-28369.11806706026 -2219.6403808128443 -3640.2770960752405 940.6505172691317 -1490.8770125210435 1396.1921181917864
-22952.498619757713 -1759.3724527538618 -2871.598959811633 1047.2355838392925 -1859.854476860714 1129.6670947440493
-17307.45359558481 -1200.5311906498257 -2032.2222510713104 1126.6131751095756 -2112.0390271921033 860.910437950789
-10868.870117305873 -462.9240398183661 -890.1499073968475 1183.0751458322407 -2089.9155742582575 580.8853842204865
-4811.685414097547 -574.8044914585826 158.46586811225217 1076.4614041446596 -1458.0706351854444 302.4946926989926
-2202.17480398399 -973.8994116190229 597.9912003387672 755.6761718573107 -928.2659084111463 294.0308869861615
SCALARS Strain float 6
LOOKUP_TABLE default
0.02972600351064492 -0.11047104252900615 -7.677506633912978e-18 -0.06258340141625392 0.02580104426208019 -0.03251237107299759
0.03579111600052967 0.011483682611739472 -0.004141183903249277 -0.027800767874259176 0.02685582958119576 -0.001105653817770814
0.04987328390880447 -0.015575619018624077 -0.01092209806057038 -0.013106035468240702 0.026236280802177516 -0.00912022785559137
0.0701359472380164 -0.018297198106402582 -0.01535550482735112 -0.013515225786887743 0.02334456272676768 -0.009895793877791503
0.09520487509344139 -0.026318298344019626 -0.02030984665006878 -0.01273773090679665 0.02086158467335438 -0.013591199189759469
0.12062856541778594 -0.03335300140780933 -0.025077770713343668 -0.011557198880996203 0.01638557522559302 -0.016759670156392473
0.14542633957905585 -0.04045597364214154 -0.029562924532259977 -0.009653849288672377 0.010219872719856702 -0.020015416434314003
0.1687440979593485 -0.04727048569415688 -0.03348772757672986 -0.007037115960236618 0.002490964460967541 -0.023214604647920377
0.18830922855769078 -0.05318815928211591 -0.03645102054224372 -0.0036626243314167263 -0.005043059364547141 -0.026512535288026585
0.20076364288137638 -0.05663006981792229 -0.03808528533389509 -0.0006805355007095545 -0.007179933407563518 -0.030056038848739645
0.2048096691449308 -0.05682555340508833 -0.03853526136158034 -8.33536689553156e-05 0.00017259271786502342 -0.0324730030628005
0.20091629372593087 -0.05667870310381652 -0.038121247405722515 0.0005095003698988657 0.0075220873484009645 -0.030064423207123745
0.1886438837349251 -0.053294512221869865 -0.036528613050369876 0.0034786111965332566 0.005375199037316053 -0.026529154916869347
0.16932335955078398 -0.04745372417225977 -0.03361954555825812 0.00683116870392092 -0.0021796556789890446 -0.02323988584304376
0.1463544159351428 -0.0407466038269954 -0.029770297135759842 0.009417720115237116 -0.009945386596218008 -0.020045942095941027
0.12205890983605008 -0.03379748654732944 -0.025399622763259362 0.011279258651141528 -0.01618315911000885 -0.016807648328641626
0.09735435057713404 -0.02697005107450114 -0.02079367102184716 0.012419167938375652 -0.020732113670384706 -0.013595793532774162
0.07329582465231489 -0.019233434573337274 -0.01616225078387292 0.013064223095240276 -0.023493902326350204 -0.010149122403838546
0.05497847729361914 -0.01691929528915159 -0.011888927345813469 0.012559942118557845 -0.025825474038696266 -0.008279031034493137
0.04677909190838402 0.009616933244066664 -0.007097813208327914 0.028845350937974825 -0.03453274000700567 -0.0060822920469770815
0.04523864718090767 -0.11658086265087052 0.00930493651868374 0.037618290090093584 -0.04523276090472908 -0.012610157626808432
0.01825909121380578 -0.0959030612508058 0.007717479536899793 -0.04016967554737162 0.021317227862737036 -0.018689441861271645
0.016489634991594046 0.007668834078707173 -0.0027082979898111737 -0.033284066435430394 0.017849560863778202 -0.005605795821935754
0.02632751937461761 -0.009553706805052579 -0.007063369888361421 -0.027693168710765433 0.016195234438008833 -0.00982693528302633
0.04572636840854851 -0.014675327509955928 -0.010920740560726025 -0.028048273460811242 0.014319355703850557 -0.012743331922702925
0.06208980320325242 -0.020706760021577397 -0.014455049868724803 -0.02741735567388874 0.01242631694187868 -0.01690668703238339
0.07903140353349722 -0.026450811685821408 -0.01795638673171853 -0.02518325603347597 0.009792128295381773 -0.021058307635674803
0.09549342720197744 -0.03211646468775141 -0.021197847622170654 -0.021881048584903796 0.00612714658246447 -0.02523375530273932
0.11097154868339816 -0.03764716854998712 -0.02402270843071885 -0.017064334981317965 0.0016035585853752328 -0.029543171434119296
0.1240211912698484 -0.042437633437287334 -0.026170611602911908 -0.01007985009370117 -0.002851683971091313 -0.034448618430844215
0.13242912056752487 -0.044526788204184875 -0.02746059142974828 -0.0026530036067180128 -0.00425284080198211 -0.040602244811362785
0.13521165731586632 -0.042906036070103626 -0.027946416913298026 -0.00014861664120605712 4.134329060223322e-05 -0.045375042501524736
0.1325896136734454 -0.044577388679629376 -0.02749006629067822 0.0023463058334002736 0.004327295387307456 -0.040603124631111875
0.12436903882949962 -0.042547395874630946 -0.0262353427181931 0.009744283531499968 0.0029011729911478184 -0.0344492542338185
0.11156275472366563 -0.037833764480564025 -0.024135199130606494 0.01667891773316322 -0.0015960171083533828 -0.029541178049268972
0.09641755545499474 -0.03240771480650226 -0.021380412548293332 0.021422402676073315 -0.006180542972541111 -0.02522420257958405
0.08041838272619727 -0.02688793010997452 -0.018242741608041606 0.0246252885437505 -0.009919026738325828 -0.021037404219999632
0.06411040615308757 -0.02134055547619126 -0.014910921937412808 0.026732833360400277 -0.012658825936631146 -0.016852280129977915
0.048645768037811635 -0.015555265237318325 -0.011598342798599559 0.027124185985246983 -0.014556350912292376 -0.012732237397081039
0.030517141189596562 -0.0107707612489833 -0.00825900338368039 0.026266911924444736 -0.016865274287279443 -0.009444299917657184
0.020272230211673764 0.007184126330695095 -0.003802091958000988 0.031393844967839854 -0.02041197822625064 -0.008040669643069405
0.020899079915425837 -0.10060888033173543 0.009588570259676785 0.025137005404569795 -0.02524052664935568 -0.007591006421162897
0.009415149317461792 -0.06673025765984437 0.008438747565888983 -0.04716169846958034 0.012980604626094109 -0.006189928741607396
0.005528970585512452 0.0016002814807135565 0.00040439460240185147 -0.05406424771638317 0.010158680145954812 -0.008712131410978935
0.008181000247945268 -0.0002983252282447307 -0.0030496787777220453 -0.04715669075660647 0.008005369793128662 -0.011219535360184099
0.020000032918086674 -0.006618708141880956 -0.0052926879391852165 -0.04796024349570926 0.006492051763719359 -0.016252964366125947
0.029647348541853802 -0.009815746265518557 -0.007236896797645087 -0.04633137430006358 0.005309576159114103 -0.02144986105102695
0.03835727318089808 -0.012816071405072953 -0.00907923070333093 -0.042766081325887266 0.004018149306116175 -0.026908976899997935
0.04693802640237781 -0.01572148329878918 -0.01078298632143747 -0.03746466030561858 0.002285285321636425 -0.032417908836711105
0.055224170657479144 -0.018768591853898054 -0.012254840540746492 -0.029760303780704704 -2.2224257932351573e-05 -0.03822889214238672
0.062299821766323794 -0.021496477255876157 -0.013410488738791033 -0.017872897248621993 -0.002955425295465883 -0.045071524864872335
0.06593300715595574 -0.020536261665609096 -0.014262836301939462 -0.003857508370538984 -0.004517442219101347 -0.05441395970856161
0.06657858279821398 -0.013602067704255193 -0.014815789346708344 -0.00023749113187892184 -6.354214866170183e-05 -0.06321020335347338
0.06609582227175831 -0.020590006420898723 -0.014285042856953955 0.0033667694636251456 0.004377811306764108 -0.05440905696218989
0.06264937290878694 -0.02161152998335375 -0.013460155416395465 0.017333958424742495 0.002778782560257887 -0.04506025095054626
0.05580874628463701 -0.01895992004815049 -0.012343403190904035 0.029137624072488426 -0.00021376478068444845 -0.0382077058435844
0.04783165884520652 -0.016011509347489485 -0.010929717759109713 0.03671711898455649 -0.002597082246347815 -0.03238107544716419
0.03966112847959544 -0.01323748783487273 -0.00931557261894567 0.041845246851644445 -0.004412051593034198 -0.026843675681334184
0.03148735368691017 -0.010406390986449255 -0.007609151969293975 0.045176819581113574 -0.00576548296691781 -0.021354151211461208
0.022502789999620656 -0.00740640657388742 -0.005880586910479684 0.04641780173596956 -0.006961977866530747 -0.016062414947427994
0.01078299888925303 -0.0010018717372963244 -0.003951298007162319 0.044915269380922766 -0.008657191687009232 -0.011261656048292748
0.007267307581674482 0.0025377942376823706 -0.0003838485301684367 0.051076347864651615 -0.011124107453249215 -0.008845910565411485
0.010551020739231535 -0.06960301446084781 0.008834352548110658 0.04457848489467395 -0.014243727324700554 -0.005916015542460616
0.0025301268701822554 -0.04001433978620788 0.007536419796647126 -0.04361269154042722 0.00585567838241588 -0.0021828418019253035
-0.0028851512478752085 -0.0008483147683649468 0.0029311657547006456 -0.05717444474538115 0.0033176777427432738 -0.007565974478754551
-0.007245482474623136 0.0050592298507042 0.0010854635917856023 -0.0574038535248808 0.0005233114492060353 -0.011600408517254555
-0.0047372074560399855 0.001948630549873701 0.0006187378497467844 -0.05480170502082831 -0.0008698490765193767 -0.017090565025046692
-0.0027473933404791972 0.0008276605768375872 0.0004467868582913805 -0.05254877629225524 -0.0012819206234655277 -0.022767300467554534
-0.0018539496810055073 0.0005817621059869961 0.000346237343201201 -0.048476039820200156 -0.0013942943021144792 -0.028554778024716464
-0.0010256733886419844 0.0003442600067549224 0.0002789299937127512 -0.04255706459182487 -0.0014962493817183896 -0.03447034528948488
0.00034390746299170786 -0.0002432239029969397 0.00023499312732529003 -0.03423576429337645 -0.001885358461597902 -0.04063210499433932
0.0018788232505543572 -0.0013807415204036334 0.00012717258092276635 -0.020621279137788013 -0.0036498811543656776 -0.04769933853169728
0.0004312054383500516 0.0025106910430606356 -0.0003104967742028342 -0.001277506438992604 -0.005933268401323986 -0.05784106115927293
-0.0016136826818023008 0.01935638191561459 -0.0011407516774976656 -0.0002666480151820476 -0.00015779978054723597 -0.07091034072685257
0.0005939859615672328 0.002454828592772118 -0.00032501880026067223 0.0007260365930525088 0.005601085667972583 -0.05783436874955947
0.0022250792594394574 -0.0014991387154953534 9.364306517772574e-05 0.020014220315018004 0.003269330276825219 -0.04768428187258015
0.0009136828762229669 -0.00043673689705043026 0.00017289767048562425 0.03353221927808405 0.0014297430082149652 -0.040604872982345
-0.00017571402362317903 5.818978729768762e-05 0.00017237432036495802 0.04170900154340109 0.0009505036724788336 -0.03442348203312069
-0.0006555575778583122 0.00018021231595322714 0.00017111898439449365 0.04742326131500929 0.0007668144894083048 -0.028476845161399818
-0.001129638570067054 0.00028437586522625345 0.00016676956257837558 0.05120829380928096 0.0006224639802919034 -0.02263832878696589
-0.0028023148454061836 0.0012898309781260464 0.00017760287851705897 0.05304931088536685 0.00025611913776273516 -0.01691178054041737
-0.005608010671880703 0.004872258015866437 0.0004576406816028287 0.05519267928950979 -0.001030321319600302 -0.01150211785845805
-0.0019468600230328169 -4.865876849230582e-05 0.002358706211361221 0.055872175466377356 -0.0037431499504537225 -0.007777905177536207
0.0031567402278931105 -0.042012346432572324 0.007572527053033556 0.043196228037285914 -0.006384541171904976 -0.003421298137159732
-0.003550053386496733 -0.019171783149247962 0.0065889608441107375 -0.03314587821901235 -8.596481548724616e-05 -0.0017235703305982135
-0.010525247271662874 1.7322171786608777e-05 0.0049358068074760245 -0.048080849442449586 -0.0031082584901029743 -0.00587055878383901
-0.02151857062320615 0.008983288824975393 0.005082997513646543 -0.05282002671465104 -0.007051483612352319 -0.010724531034600327
-0.028578831452122592 0.009916173091511738 0.0064866824765698805 -0.049228354040861476 -0.008364423873689929 -0.016101039126049002
-0.035095269910446376 0.011603643738406279 0.008129282821940366 -0.04637480737324189 -0.007964192278539882 -0.021499878272231814
-0.04210010790093645 0.013999022921897501 0.009768636345747952 -0.04273840538497605 -0.00683594369777027 -0.026913660595459955
-0.049022420860581936 0.016341715544651084 0.011337452136733882 -0.03752792268340514 -0.005379975662745876 -0.03247629261333598
-0.054799548645486855 0.01857428938836769 0.012739416626755878 -0.030115036896020325 -0.003649512776777067 -0.03806256737273499
-0.05835485932317302 0.018774784552606092 0.013705352210745482 -0.019141588762542686 -0.0032485166396802575 -0.04402451288262558
-0.06485210264032498 0.02289506233511081 0.013573972122420353 0.004920519987649829 -0.006640168345462961 -0.05227820837069399
-0.0701396506923668 0.057852507814778416 0.011898640190701363 -0.00024001056030118417 -0.0002541478986141568 -0.0693241104199321
-0.06468866090985381 0.022836973953971454 0.013567114901453788 -0.005417160764582228 0.006110811858444254 -0.052273759898056875
-0.05801057420733649 0.018652802258393653 0.013688005135010364 0.018594214428547823 0.002658188413353058 -0.04401422794059635
-0.05424273448834789 0.018378057562254968 0.012703957206206914 0.029479956453538046 0.0029662474382580696 -0.03804315245713411
-0.04821503692215482 0.01605898809782225 0.011271720306416452 0.03676195223529318 0.0045898151531836365 -0.03244145875231059
-0.04101015656643901 0.013618781360695928 0.009655399597156071 0.04178401044476009 0.005961262657310707 -0.026852416081257754
-0.03373628135936318 0.011118704008886534 0.007944943292142358 0.04515229112620839 0.007087708818545836 -0.02139756384475797
-0.02715003335997314 0.009428835311567964 0.006201512810353216 0.04766573549519793 0.00764101142004178 -0.015962300374297245
-0.02047266086773314 0.00893913919010332 0.004690613152171439 0.05130554199694978 0.0066469277826636235 -0.010631198424085032
-0.009996888055626211 0.00048165040860403155 0.0045650129208477525 0.04772214944766884 0.002943266626098527 -0.00613083533202162
-0.00320791966232707 -0.02032131759770375 0.006529316881974889 0.03338283302405675 -9.308559638673792e-05 -0.0028817904964415185
-0.008344438982172766 -0.006284720116431428 0.0063233693579738005 -0.01835193921802326 -0.005307362280777735 -0.0025257473535128597
-0.01734585244970947 0.002347873976645136 0.006681038769832062 -0.02770160714799411 -0.00967976935705464 -0.004214307205174838
-0.03528002638202857 0.012479890794716552 0.008763869946116162 -0.031732438672027456 -0.01543667186959493 -0.00842638111838916
-0.05213627278489863 0.017682745728226274 0.01198988427686501 -0.029508149904067492 -0.01667309913835166 -0.012714742087615777
-0.06769540258164683 0.02259528709269477 0.015350596724786308 -0.02746891274558753 -0.015302455392814713 -0.016892578580703952
-0.08284164191737656 0.027693487359111077 0.018629227987736707 -0.025183549367110383 -0.012740516834758665 -0.02105419776021413
-0.09748855536430792 0.03273596073142172 0.02174167965034113 -0.021946933650013864 -0.009397589278935803 -0.02526305062727428
-0.111407332868833 0.03738853861575983 0.02454322627673261 -0.017584729903502024 -0.005564794145493025 -0.02953517227130772
-0.12035790196088748 0.04195024032822748 0.026606940625785433 -0.010203322380621495 -5.795842216562234e-05 -0.03310098901715326
-0.13055132941277764 0.038338381912850585 0.02663605811585339 0.005186582379376369 -0.002592740638282573 -0.037822989260846714
-0.13853556027325964 0.10213205806691227 0.022753163856595544 -0.00015185232662668358 -0.0003655028917103167 -0.050266163025395105
-0.130383175764743 0.03827653113682153 0.02663642363716817 -0.005500719582477325 0.0018349761681577515 -0.037824394238393184
-0.12000739053139849 0.04182167898887907 0.026604758379806727 0.009857472707822282 -0.000777025012406599 -0.033103065462523694
-0.1108509322542384 0.03718528388457626 0.02453247601922525 0.017184574311989463 0.004613070724767016 -0.029536076214161308
-0.09670603604845343 0.03245143328168439 0.021713090465151977 0.02146667551663817 0.00831420982695423 -0.025258919665172238
-0.08184393148307902 0.027329788793590316 0.018570923843337663 0.024590083052691964 0.011559963585494763 -0.021037915172976956
-0.0665814346255203 0.022183849002353474 0.015250308264243848 0.026714485652879788 0.014149411523112953 -0.016855312422544122
-0.0511525451280979 0.01735290112516311 0.01183723237736906 0.028594494365207678 0.01579784077788641 -0.012657544168228155
-0.03471452201666111 0.012490795466122752 0.008556701546614066 0.030995694415306307 0.015103019756563621 -0.008401913386673506
-0.01715507060260093 0.002598711177627081 0.006477015182596426 0.0276944893459597 0.009744468329516528 -0.004398968431181814
-0.00825807078220892 -0.0067371752441217365 0.006253154069971634 0.018593868418876013 0.0054350567054528495 -0.003276690323646283
-0.009455484101632779 -0.0021291181596992267 0.007218377274358514 -0.00904872184517879 -0.010625246033353923 -0.0030483849806476875
-0.02146402245602142 0.0036178966572347694 0.008353194309712774 -0.012975962863746091 -0.017188872458906126 -0.0035246707489685137
-0.048526398593786615 0.014176519505899165 0.01176898466523922 -0.014588702001118892 -0.025505199328242162 -0.006997792906289405
-0.07639445312189866 0.02161436574342912 0.016425956436704792 -0.014026988122978147 -0.026628492104745105 -0.010414638851227634
-0.10103932448872262 0.028174878694154113 0.021136288394619885 -0.013043379038340807 -0.02400249316302046 -0.01365449753289009
-0.1245053665674481 0.03463597393271359 0.02572395918645926 -0.011702110216947248 -0.019595437506924857 -0.016860275521709548
-0.14734996738629 0.04114302125126818 0.030099030365662402 -0.009943448957487989 -0.01383407412360929 -0.020111813113493977
-0.16902582428932464 0.04665538295076923 0.034023236083298915 -0.007288600209370888 -0.006993151767559128 -0.023085539083860004
-0.18961602020882048 0.05489527542972907 0.037156065245086085 -0.0035667337084237857 0.0028319738082631346 -0.02660690991985271
-0.19916997723465815 0.04455703798237155 0.03733111906783323 0.00991260381746001 0.0205633666736581 -0.02389484460514104
-0.19855590487162847 0.12548948100888832 0.02815176014057349 -9.812060563379197e-05 -0.0005082290161725804 -0.04927801413023814
-0.1989889211573037 0.04449271013759972 0.03733792580241276 -0.01011530679440914 -0.02161452656065131 -0.023897712042630394
-0.18924274779796824 0.05476225646929556 0.03716711583765326 0.0033447994436419715 -0.003983258180032503 -0.026611827247048594
-0.16844439380249948 0.04644701415797442 0.03403317765094162 0.007035078613370495 0.005690591289591254 -0.02309064722526026
-0.14655666497815667 0.04085546285128953 0.030099508404706904 0.009647228199033646 0.01236094298466726 -0.020113743223344242
-0.123551734540175 0.03427904149482111 0.02570448417781788 0.011354995529885581 0.017997015365422243 -0.01685403342673554
-0.1001148905530278 0.02780076381240355 0.02108768239476918 0.012641629547816495 0.02245110047072177 -0.01363669564372926
-0.07585327082874911 0.02136351082991783 0.016343661215178107 0.013599830470999679 0.02549532825690094 -0.010392418858134874
-0.04857797254687169 0.014229344849549389 0.01165073157739395 0.014281407117597546 0.025228266575138724 -0.007012116423816319
-0.021760067768698498 0.00381253494302017 0.008238345327556088 0.012994426950095016 0.01760099552486338 -0.003651543076166798
-0.009700796581376011 -0.0022872772488849898 0.007200205373316478 0.009122090931750084 0.011205495608745938 -0.0035493728500758303
0.027805801606180663 -0.07109048414631843 6.227386228213616e-18 -0.032190844453754724 0.017173577796977483 0.006075026611501377
0.03524864257684455 0.0035582454110240965 -0.0044113905749013265 -0.014390610993014374 0.01853055715940798 -0.0019041039843313485
0.05156201752187681 -0.015786157764977275 -0.00999133424278882 -0.005142670899648279 0.017381121167950448 0.0004757324011772138
0.07192434582454932 -0.019758406304289367 -0.014213767605407629 -0.0055899198409698906 0.01544471747475921 -0.0003253876521050255
0.0953297960316137 -0.027154849004601692 -0.018332182224167683 -0.005551646044863791 0.011787972531421846 -3.339274098706924e-05
0.11896264080945299 -0.0340600876209659 -0.02207250112017628 -0.005693504661707773 0.0070507205319434935 2.2715822887003033e-05
0.14208942094633042 -0.04106112778402324 -0.02529905082201311 -0.005825275237171733 0.0010962665879403802 0.00010659736044271055
0.16460078645380663 -0.04800706061893539 -0.027775229635835636 -0.0061353753601093505 -0.005480644203655585 8.447052101076751e-06
0.18644867263357243 -0.05512421028917277 -0.0292202727730636 -0.006446602694960405 -0.010598024000425095 -0.0006917598201142192
0.20544739220883884 -0.062412346332930205 -0.029543385886777896 -0.005190764958353381 -0.009683709825945453 -0.0026572531358890032
0.21371441117116236 -0.06695351594279747 -0.029375056861828362 1.747306435788778e-05 9.167786621914266e-05 -0.004715721745121787
0.2054987686824595 -0.06242500137436095 -0.029569735571009198 0.00522543852683142 0.009856753725716181 -0.002669349326572611
0.1865590114030083 -0.055150368368138976 -0.029278424190346167 0.006479995741217785 0.010738593100372062 -0.0007155245232299057
0.16478818951875976 -0.048048885507146644 -0.027877401478999798 0.0061648334093840716 0.005561269191090829 -2.4681286491396595e-05
0.14239007488030195 -0.04112331450716672 -0.025466823170220188 0.005845881659574061 -0.0011179599513901056 6.718525712433082e-05
0.1194432540312169 -0.0341529164585288 -0.022343249413202013 0.005694633999470487 -0.0072390859592305744 -2.0818714369101908e-06
0.09611656492819727 -0.027298666091230783 -0.018761754482463828 0.005529763996127238 -0.012286960080872905 -6.824010895403341e-05
0.07321293023470275 -0.019988623761569714 -0.014916824209080515 0.005482792783946529 -0.016304426168452322 -0.0001262002931731394
0.053935790528427625 -0.016239280420856702 -0.010986758880233954 0.0049438899393795446 -0.01962653707624246 -9.394019309859835e-05
0.040570318901999504 0.0025846028629245787 -0.006232588308601476 0.014269943687235914 -0.016582912132371435 0.002246183365518333
0.035297216790099444 -0.07231612300527308 0.0026616602183771026 0.019020862047760306 -0.014009468676789821 -0.011191988921843423
0.016644969189612037 -0.06258605142246414 0.003315626095788585 -0.020657733631185032 0.002892269492678038 -0.0005692644412665002
0.018485881841472478 0.002018212916004355 -0.002329960355781011 -0.01794669185984147 0.006231306533689475 -0.0017304908856127703
0.03045839207050938 -0.0108217160212451 -0.006337655568027406 -0.014129883550330314 0.010601019249797729 0.00011361631779169174
0.048061130399716365 -0.015892235798185005 -0.009669433680146349 -0.014671568506369685 0.008889758750277815 -0.00015302451076545692
0.06347845538033657 -0.021523015535113613 -0.012582993650329685 -0.01510917403573498 0.006624453955862378 2.4054304748161822e-05
0.07923310560555832 -0.027072509104933275 -0.015224105546528475 -0.015192340260486574 0.003610058224996142 2.9487882954627257e-05
0.09461944511405813 -0.03260886381097663 -0.01746629042494214 -0.015323089610465222 7.104308375021223e-06 -0.0001449913395783058
0.10945433708442295 -0.038028076769205395 -0.019177894860831615 -0.015732093541809315 -0.003863163748739953 -0.0008325092046760472
0.1235253760548483 -0.04355972254371755 -0.02019739848539592 -0.016310621772308763 -0.00685984407740357 -0.0028261944602953853
0.13546223663881315 -0.0500994029387565 -0.020478908415534736 -0.013382893450654592 -0.006322153158501979 -0.007176137020035689
0.14059727597721583 -0.055877800103261696 -0.020397672017818506 2.5293769553150523e-05 -3.532065597095298e-05 -0.01150842618241552
0.13551261445524634 -0.05011494305733997 -0.02048941656812129 0.013432703727963038 0.0062354371717166695 -0.007178740973649205
0.1236329207688386 -0.043591540114301976 -0.020223598315197436 0.016357096235733174 0.0067243275355876484 -0.002828520080069087
0.10963485250681024 -0.03807792369985465 -0.019231472935000063 0.015769345324053455 0.0036434417131103584 -0.0008271332268705774
0.09490307081507775 -0.0326803410985217 -0.01756865554936561 0.015339144741915908 -0.0003516017182161724 -0.00011703875412320405
0.07967657462653487 -0.027173904485459636 -0.01541063983415106 0.015165962887492793 -0.004137600012178199 0.00011075863446631732
0.06418000592462056 -0.02167128251650703 -0.012915582760437097 0.01501175020708423 -0.007398910496321312 0.00019382478425091914
0.049230331405059106 -0.016114505389262075 -0.010225789525280986 0.014426720419848797 -0.010092798601992203 0.00023144493274101008
0.0324923668580931 -0.011263135944031295 -0.007289308572257275 0.01350432324832316 -0.01211563397611654 0.00045930196303445444
0.020523332021574896 0.001765382628974779 -0.003388207612668762 0.016454407929084057 -0.00663309794246311 0.0012598588482157808
0.018129206053608824 -0.06315966598676043 0.003383732927060145 0.012262030054105038 -0.0019836591739851367 -0.011806338358749854
0.009228062575862622 -0.04520528756553455 0.004695585231644741 -0.027264735019995018 -0.00045861233541981297 -0.01138647588238682
0.008156850112905173 -0.0005961812097733003 0.0002518870630423671 -0.03116731484193439 0.0014244031382784324 -0.0017112739084131235
0.012840035038223138 -0.0027995168393304135 -0.0026452376548424367 -0.025774502678026567 0.004277770350118516 -0.0005217824794302484
0.023177734069366733 -0.007782184744340968 -0.004666481359194425 -0.026506125512381226 0.003633289587366775 7.238776432051805e-06
0.03167356353631432 -0.010608464976320538 -0.006278355064066858 -0.026793393703940314 0.0023027203551520435 -5.655520209432008e-06
0.03949766042298944 -0.013361351125389265 -0.007655297175353248 -0.02689817181034668 0.0007769642286686601 -0.00017296049599334332
0.04712229630676032 -0.016073248549596145 -0.00878910118499587 -0.026962599528888822 -0.0009864681903942812 -0.0007611742267758722
0.05419508651161577 -0.018481513069452723 -0.009621157659611359 -0.02725555018266802 -0.002989067004846101 -0.002233641269352372
0.06099342093945732 -0.020851960066935887 -0.010091693818414302 -0.028202716211511936 -0.005183185874414059 -0.005692218612916642
0.0683409873434092 -0.02656235954664786 -0.010144070104487365 -0.024393362799818637 -0.005760392932328178 -0.012883969986746386
0.07226179325724412 -0.03673264863657227 -0.009960355149728197 3.710128980455546e-05 -0.00014796873275238509 -0.02120157506737009
0.06838963488776345 -0.026583529690617218 -0.010138266575116866 0.02446613435456293 0.005443814606448014 -0.012877942161691159
0.0610959688446231 -0.02089472704549335 -0.010084588514544255 0.02826951471884633 0.004805161326519067 -0.005674892637241874
0.05436326265112569 -0.018546610709839026 -0.00962314197744434 0.02730630004500962 0.002510525570289018 -0.0021922003023459773
0.04737814373918783 -0.01616180116040694 -0.008819327657895698 0.026976549051388007 0.0003711336367653472 -0.000669117659404803
0.039881904542078205 -0.013477324818907281 -0.007747111222137298 0.02683867146175503 -0.0015608882446176938 1.5643201865221275e-05
0.03226373656821222 -0.010759833355240807 -0.006485687111020969 0.026601964855872864 -0.003288073787044098 0.0003678622322303249
0.024133810018367525 -0.007996261951794113 -0.0050762800762387756 0.026070361574656475 -0.004856598503446497 0.00062784522480034
0.014060297698464877 -0.0030536336347824597 -0.003353398011236311 0.024755104129509813 -0.005515621199694979 0.0007254966009015403
0.009056397650561316 -1.2212780136967069e-05 -0.0005743231127260248 0.02910722753908117 -0.001677206179294545 -0.000540989388319187
0.009780081987527885 -0.045195731607975374 0.0042303667013673385 0.024902778091131086 0.001024935817284186 -0.015956306268503178
0.0031279715083107214 -0.028508862401277608 0.005457794403629451 -0.025779339787546034 -0.0014806693814112422 -0.01248412426583685
-0.0001472926705917252 -0.001583374471633857 0.0026435348997641247 -0.034241601578858326 -0.001413993893854041 -0.0030696081660093297
-0.0026289229743942395 0.002409036513892222 0.0010740399320396193 -0.032558087568079985 -0.0008846362124498508 -0.0007744907545327793
-0.0010878652973661267 0.0004573390717467572 0.00047490598720707067 -0.03075374662606857 -0.0012366587629307163 -0.00019159205554702946
-0.0002776562665498826 -4.427246194305726e-05 0.00026038878610621166 -0.03074937488720796 -0.0016611469556830397 -0.0001641777022908509
-0.00022146646209426885 1.0734001729658513e-06 0.0002023657243308131 -0.030817688300351226 -0.001885194356162065 -0.00048665385375555446
-0.00030873709918984265 -1.684672558679168e-05 0.000234461814521213 -0.03089000835884401 -0.002039662768962622 -0.0012672583862283877
-0.0009026824241925799 0.0003750659541546656 0.0003351775294586968 -0.030677151451746217 -0.0024361521643526288 -0.002938314590176696
-0.0012848623141567597 0.0013525394819075619 0.00045567082190091715 -0.031658717000363754 -0.004128157997287734 -0.006525677415498935
0.00247213281296786 -0.0036684548950046787 0.0006346125237820299 -0.0309865857913768 -0.006381125102306753 -0.01436406048817919
0.006109458238205402 -0.022952949268725886 0.0009712159062416555 4.034295742535773e-05 -0.0002548998419991879 -0.027221227763388103
0.0025186355718562906 -0.003695117196792565 0.0006570604415044077 0.031065664001717144 0.0058464968107744516 -0.014355528680380005
-0.0011885467994781345 0.0012992266027331252 0.0004969455902135936 0.03173108561656232 0.003520833802786327 -0.006502577662333434
-0.0007496415974471416 0.00029565693917243605 0.0003867070037894294 0.030731466851979326 0.0017144903144323865 -0.002885854432651515
-8.685564562374126e-05 -0.00012066126649403627 0.00027983572468706473 0.030902673056778945 0.0011752535382072201 -0.0011560137749440172
9.187908821667288e-05 -0.00012493505417659288 0.00021257989037594145 0.0307447116158784 0.0008722458157535885 -0.00026057496768736754
0.00017935097263365306 -0.00019382500637637706 0.0001864171313676603 0.030516204493079624 0.0005240530893316462 0.00026789387662640873
-0.00044439002664352427 0.0002776879658827365 0.00023980946485776473 0.030230667450242905 4.851509287041292e-05 0.0005904751315840621
-0.001973648405851797 0.002406813833542479 0.0006080652263273296 0.03150881994918767 -4.220638535140673e-05 0.0004881913689801388
0.00027305091653926044 -0.0009619083629636005 0.002022190310291981 0.03314178971606264 0.0013364894790566845 -0.0023079988769678103
0.003397588902989392 -0.02859103571197238 0.004931447494236523 0.025014623220207283 0.0019380623143771252 -0.015215835505276835
-0.0024064426228771058 -0.014797767307848774 0.006158641102058306 -0.019518567490546448 -0.002497827258066342 -0.010797288714266932
-0.007742515028333221 -0.0005945728211378303 0.004835090395386044 -0.029007391610708772 -0.0040328993857224734 -0.003130214263897585
-0.017075476143076883 0.006455998966208281 0.004712378374539489 -0.029986466578590453 -0.005699405855246988 -0.0008041798789095164
-0.024686174483463882 0.008280816642852393 0.005582681162988637 -0.027259734901591007 -0.006090698820016958 -9.853444365037803e-05
-0.03219929610692103 0.010616472663680066 0.006789878630855841 -0.02669559983568436 -0.005669033235346373 3.5569341455840387e-05
-0.04001647402416169 0.01336370844125154 0.008054247527393987 -0.026835591956708912 -0.004582644087326411 -0.00017720262264599222
-0.04768048384394002 0.01611994869843297 0.009255929239101098 -0.02689970675461752 -0.003157532574103055 -0.0008273957176378002
-0.05560542923232727 0.01882144137537491 0.010299133703317706 -0.026659377360235784 -0.0017600967677582318 -0.0020194405026442877
-0.06364216852923901 0.023296901712921227 0.011002844599985993 -0.026212123774656943 -0.002198058411251153 -0.004563964059501235
-0.06376335671212534 0.02211918080686477 0.011201229964749154 -0.0331391655154838 -0.006791395797752841 -0.010498746698749973
-0.06001558922021178 -0.013736269215696512 0.011530674750338395 3.798842024567999e-05 -0.00036411519095002416 -0.028470988776120237
-0.06371891429957953 0.0220868452020193 0.01124053294376493 0.03321394126436894 0.0060337819782315975 -0.010493994622412376
-0.0635519725477887 0.02323270945097593 0.011078801188301882 0.026281630304450788 0.0013553587505158182 -0.004549198424914431
-0.05546747558256349 0.018727205013788186 0.01040512239019553 0.026714044360897318 0.0007874052418463563 -0.001981820765362725
-0.047493012512859735 0.016000395650731344 0.009378559975447493 0.026918927764607324 0.0020333334460210036 -0.0007409347406670489
-0.03977554818411978 0.013227725077325045 0.008168778510579825 0.0267785687610656 0.003328667301911143 7.613668073064991e-06
-0.031895299429007325 0.0104726016140673 0.006853303346443611 0.026489026833685463 0.004372643906129212 0.00040930381884722486
-0.024338172091867262 0.008165051353055624 0.005528695589533389 0.026783440031886933 0.004935115713205538 0.0006003385956936132
-0.016792878966662483 0.006542195438652604 0.004473177808220302 0.029249840843789295 0.005010993063267989 0.0002194772310587196
-0.007570975277281944 -0.00015906618080345887 0.004420317678392511 0.028535042153913462 0.0040582364862463 -0.002606197641845564
-0.0022712726093556367 -0.01487205070465456 0.005703935051672157 0.01934219563575505 0.002874781606435368 -0.012608904198567975
-0.007081355815913923 -0.005875844616420842 0.007144699855453692 -0.010207245015494047 -0.004476376676551135 -0.007008893715756444
-0.014768184737538596 0.001461331688411566 0.00692089299485052 -0.016217512220194026 -0.007461803137209461 -0.002130339115646199
-0.03113659746340176 0.010332795199901674 0.00818658641904399 -0.01729854185420601 -0.011019044887532149 -0.0007342972986637878
-0.04800762525484386 0.016130013596336996 0.01048986206282838 -0.015508964098375013 -0.01143577223665012 -0.00011614155524704733
-0.06412437217200524 0.021607386782598565 0.01306806559002521 -0.01500242969996097 -0.01009064682112721 5.366850943287971e-05
-0.07983472270528782 0.027144399520573754 0.015600838842296759 -0.015122292977673117 -0.0075518507819652214 3.0192209942930118e-05
-0.09524756815723474 0.032661894400992014 0.01792867389923811 -0.015262782862828943 -0.004265156279945483 -0.0001900135677651809
-0.10968956432979764 0.03821569107162826 0.01987382250071383 -0.01497943870745106 -0.0009167798153061834 -0.0007693341886928958
-0.12553014692158257 0.043140921049954324 0.021159696502155805 -0.015452186999881816 0.0020533465315690897 -0.0012066569979213532
-0.1320443861661362 0.05472933640065711 0.02096301351563593 -0.020930326962994246 -0.004285708298978433 -0.003923663347093797
-0.12951950559819478 -0.006456274198390336 0.02043446675562482 2.6345652275820277e-05 -0.000483653415836333 -0.02095824963527844
-0.13200146972565727 0.05469091066936212 0.021019238489095652 0.020982548597003714 0.003283277606746717 -0.00392828907269179
-0.12544475160472496 0.04306491990944586 0.02127043550058055 0.015501997211675701 -0.003156939285111627 -0.0012130372992112338
-0.10956399722330376 0.03810495877854278 0.020034292021410518 0.015021582560996687 -0.0003391675097726495 -0.0007702408753863673
-0.09508885796902063 0.032523770810590075 0.01812814361923127 0.015285197893062812 0.00283840645548773 -0.00017049010147123027
-0.07965878436301474 0.026993512115403174 0.015818066657406503 0.015100481628546165 0.0059991601777647854 0.00010023982487548599
-0.06396334700032442 0.02147007597883299 0.013265124032328653 0.014888012124416837 0.008563703800259921 0.0002342605062117133
-0.047914139458967386 0.016063354693336536 0.010606773691841898 0.015239731063438148 0.010228704549895709 0.0002644512384825988
-0.031142119370546947 0.010437625806652775 0.008150004671620534 0.016935876633155843 0.010496940939580559 -0.00017551817534334707
-0.014788707208982739 0.0017231250400352287 0.006698219233360561 0.016057246033635484 0.007627460928358316 -0.0018569985718286238
-0.007067274017074227 -0.005868176973291985 0.006802942306440992 0.010170270041358771 0.0049034735520555395 -0.008045679095369199
-0.009514069451050298 -0.0028449229872401743 0.008669195342025227 -0.0039095551289356845 -0.00855804119610546 -0.004542429496959474
-0.02038131041786952 0.002615602916362314 0.009005971565696328 -0.006346412848247833 -0.012853009070201411 -0.0014810134608674226
-0.045181446320512846 0.012313424896319146 0.011386753150004765 -0.006232679314286584 -0.017887184372265077 -0.000797062153153039
-0.07168858018878022 0.020151376247064066 0.014949476293024995 -0.005651465310321685 -0.01803483578916742 -0.0003301866072677377
-0.09611756054691355 0.027219031200966453 0.01874364767158734 -0.005525595682863471 -0.015506095585202868 -0.00016428895037379914
-0.11964556826205561 0.03420130062086824 0.022410799206112234 -0.005654210043698916 -0.011163631773081875 -5.3276589853446194e-05
-0.14277283260017043 0.041040095215206865 0.02574842953463027 -0.005726235612777498 -0.00561650700789981 3.031670364761469e-05
-0.16478956922742452 0.04845256452024609 0.028509028445908163 -0.0059858539712736285 0.0005185407115377645 1.5256734959926094e-05
-0.18295299505610926 0.0521018029734908 0.030321260929322438 -0.006162512160484684 0.006834686963254048 0.00011153177519535004
-0.2020481157845312 0.07322166094628832 0.029692729901603526 -0.014938389238305936 0.010196273323954893 0.0024157560906768135
-0.21353197304397364 -0.0026826954934208824 0.024793174383103796 1.26471408373823e-05 -0.0006222623953117198 -0.022285032710348426
-0.20200609439941938 0.07318007118201615 0.02976572042926092 0.014963715907580088 -0.011483739293758394 0.0024070792643330154
-0.18287056547841724 0.05201961635292789 0.030466299642848114 0.006187540738549052 -0.008245913127982717 9.566873669129361e-05
-0.16467187500947497 0.048333080934969415 0.028722718255372686 0.006008827606855527 -0.0021163458092232075 -4.027674488335552e-06
-0.14263273637511936 0.040891662417666695 0.026021704547661124 0.005742522172007652 0.003809385756511141 1.5352557478930692e-05
-0.11951330082421803 0.03404146109322718 0.022723886336887673 0.005653980511860732 0.009204395733932263 -4.810631483065885e-05
-0.09605945404080747 0.027083066485476953 0.019059476239524118 0.005488071694045419 0.013599261822545212 -0.000107069550211581
-0.0718042442132299 0.020104119498961133 0.015207146493655753 0.005548865064953322 0.01659972620888965 -0.00017231719021305918
-0.04548300312165084 0.01242476420544434 0.011504819812642245 0.0060829180915857465 0.017459983150361163 -0.0005565742837283659
-0.020647919760145583 0.0028111536710491067 0.008934652619332576 0.006271325243714635 0.01339308303820647 -0.001374268660639738
-0.009673953555898309 -0.002786069713516613 0.008459783571827873 0.003848282816991708 0.009446923624067474 -0.005169687892748231
0.038601904109937545 -0.061476840710804004 8.470329472543003e-19 -0.002022838275996854 0.007420250199991307 0.0006438898848883766
0.04059455386506026 0.00037519226977183984 -0.004121658671296381 -0.013918447738159086 0.010116548250464012 -0.0007720056009643595
0.050807306282336616 -0.0164248565315968 -0.007872163687518403 -0.005507210078444382 0.009521135911636404 0.0007457227634752786
0.07001966835746574 -0.020852811512562987 -0.011357884747962533 -0.006293047367665631 0.00795894740929502 0.000860486535257905
0.0921728598272457 -0.02834595802499011 -0.014047925571538203 -0.00659435586628408 0.005117869676206245 0.0011874504980097897
0.11434466921112259 -0.035607379609680585 -0.015936190133172542 -0.006924034921174409 0.0015597883029265125 0.0015256205712305087
0.13646025907501538 -0.04324339000796442 -0.01689314524034433 -0.007368741613897642 -0.0024617210543973925 0.0018423920973661492
0.1596187091713023 -0.05143874884853036 -0.016830286351541046 -0.008215101911713688 -0.006303524023156748 0.0019848925746870486
0.185554400923309 -0.06103662438958506 -0.015789094784202665 -0.009222980697280815 -0.00845096125357472 0.0016721333412202262
0.21163611572797936 -0.07224793265473285 -0.014213612664254327 -0.0077477063801670585 -0.006559424239184929 0.0007241831170763459
0.22382144476276267 -0.0795327064238922 -0.013302285116317536 1.792563740607119e-05 8.472272841072836e-06 -7.95217892015277e-05
0.2115761929419871 -0.07222425984278648 -0.014222978129100845 0.007784652081819881 0.006566624433736141 0.0007139015362197117
0.1854253989444738 -0.06098311115381952 -0.015814584850881178 0.00926331332875564 0.008427853993841113 0.0016516930031347178
0.15940069815636768 -0.05134188198484211 -0.016886822126947188 0.008261659308954516 0.006224823280533706 0.001955330724441041
0.13611825151245666 -0.0430799155063103 -0.017006590904530827 0.007424636434274446 0.002288003574358848 0.001806768266643279
0.11382318998530204 -0.035339578244060844 -0.01614570184522629 0.006995589062072304 -0.0018996594837484449 0.001494859170573557
0.09137936375129664 -0.02791728829599584 -0.014412838769034847 0.006677743880406273 -0.0057594578033391235 0.0011694868433946442
0.06882570951905483 -0.02018240832939195 -0.01194097135500108 0.006445850331229913 -0.009056464431680877 0.0009345639914950848
0.048641405541888116 -0.015318690519219545 -0.008844360297810976 0.005725330937493657 -0.011214731217515896 0.0006850810443950496
0.03497421771937251 0.0022097488320389374 -0.005243158433711908 0.013601685684222705 -0.010208526511227422 0.000551410769052179
0.030264163958522255 -0.0584401034712165 -0.004602269895499361 0.01746988808728061 -0.009023906867094495 -0.005389430539977875
0.017043565265291043 -0.05298853054486161 -0.0006075026611545141 -0.00345049079077507 0.0039285755170810404 -0.0019230491530776018
0.01978421413420434 0.0006929811284885502 -0.0018897210484537465 -0.015795974388662586 0.004762399040038376 -0.001617769652864689
0.03144677699851372 -0.011972976314124101 -0.004914705804710617 -0.014243775427476454 0.005961550928920671 0.00017897302538454673
0.047409481180347206 -0.01703453296733887 -0.007395286672019431 -0.015698746322738336 0.004984234445849041 0.0004522403428871093
0.06189129067578451 -0.022810315192529143 -0.009318489055687943 -0.016594559671358918 0.0031573001407955484 0.0006606846278004475
0.07666836542817855 -0.028674255796287157 -0.010604311771875867 -0.01718499133558123 0.0008441097511138224 0.0007635990303093262
0.09139455168524291 -0.034760456304617625 -0.011233753340863272 -0.018149343409598027 -0.0016810923573590617 0.0006656565700858239
0.1066328029617828 -0.04114377994863094 -0.011181453020411585 -0.020145414088259882 -0.004012567596789631 0.00011978865921920768
0.12316965395646348 -0.04860123654456407 -0.010506251997707883 -0.023056132370385587 -0.0052813627943892934 -0.001269170308802519
0.13928925065986295 -0.05877483321915116 -0.009462106058035873 -0.02020554791159676 -0.004118936705715369 -0.0035928397393333532
0.14670224461643205 -0.06794253353475037 -0.008794629934868577 3.476693907099386e-05 -7.606777065361929e-05 -0.005251392889851698
0.139215744860248 -0.05875585858942387 -0.009437956364671428 0.020278264857554344 0.003952401957494704 -0.003595281008618054
0.12301444242340705 -0.04855760874335782 -0.010463219916487177 0.02313894093934144 0.0050710505104213655 -0.0012715157346225377
0.10637874907249956 -0.041063127318075286 -0.011131777177812082 0.020247060649270992 0.003726292878799237 0.00012410490326386303
0.09101386557515137 -0.03462153638863591 -0.011199751089929632 0.018281872889331946 0.0012786141434631883 0.0006905708381160747
0.0761174790521944 -0.028442345255973996 -0.01062354685115916 0.017365510530371813 -0.0014241005322871792 0.0008361644380603508
0.06110814002326841 -0.022432126096501175 -0.009446392383562147 0.016842467567988607 -0.004006432074397971 0.0008240433251467958
0.04625214269952613 -0.016438676565515405 -0.007723536517522675 0.016083657413660093 -0.0062385259535803345 0.0007800308655628253
0.029578399308107538 -0.010955153362794696 -0.005526260470409664 0.01498686498323806 -0.007414786019912934 0.0006894380854665843
0.018130910573841964 0.0016119218913850468 -0.0031109901915336797 0.01717144773660553 -0.0053307494363673946 -0.00019989989456379326
0.016075985455338206 -0.050711365188957996 -0.0034830710033191456 0.012975921002164891 -0.0034859374439774543 -0.006971415751726504
0.008765206616905982 -0.03718093829496768 0.00109373692461256 -0.022363105124572805 0.0013782910419361193 -0.0066299725028944045
0.008509402887642724 0.0004897417390627644 8.532414780429841e-05 -0.02749406450099702 0.001733962343791079 -0.0024452192395612933
0.01389508960797811 -0.004127090247400459 -0.001901809455486228 -0.025629159653779987 0.00242594940098776 -0.0006231509387829835
0.02371084779886914 -0.008859252653853582 -0.0035182734924684438 -0.02769341199383496 0.0020027045262521683 -8.922151047148927e-06
0.03151172627126544 -0.011704648635983153 -0.004641095142603928 -0.028767052882131577 0.0009743042869297534 7.599504517896655e-05
0.038760368137137825 -0.014621575572372071 -0.005318875386630078 -0.02978727755731845 -0.0002447334043263688 -0.0001112159939448176
0.045884651130572995 -0.017609652191785202 -0.00557979202869606 -0.031319379623333164 -0.0015087298565071622 -0.0007249147017016443
0.05280710292898295 -0.02029592005539331 -0.0054477937010152635 -0.03430128092311405 -0.002685797227057331 -0.002092500918812783
0.06062611417271122 -0.023392621475796908 -0.004953491585330165 -0.039481507688128935 -0.0034918802607239504 -0.004704119881597523
0.07090480830535191 -0.03251348543390968 -0.004119179931724471 -0.03663461233824955 -0.002998615012300046 -0.008624605976217052
0.0767637131654144 -0.048187715378842796 -0.003382576926339225 5.609835443136807e-05 -0.00015906730465811708 -0.011458403189124966
0.07081913959420554 -0.03250418602223661 -0.0040619674056089124 0.036752111223606894 0.0026623599878129933 -0.008619442048381425
0.06044784221593054 -0.023369360293042863 -0.0048430278493643945 0.03961586631090323 0.003101549488390447 -0.004688504862535709
0.05252275455205303 -0.020248658107011232 -0.0052940049968521795 0.03446723937466918 0.0022060314678338227 -0.002053458774352103
0.045474259590233705 -0.01752130442069349 -0.0054027327066642735 0.03153792714449022 0.0009035628924897564 -0.0006362037667677986
0.038196583443932834 -0.014463151004067308 -0.005154801792202332 0.030088645112993355 -0.0005261027354838347 7.438758486531238e-05
0.03075444063390031 -0.011432389588249032 -0.004551303721158483 0.029194886527667312 -0.0019645292403307007 0.00043894514420226986
0.022674209775172937 -0.00839869871180086 -0.0035966102003463798 0.028347090427055337 -0.0032479527839534912 0.0006201457761897892
0.012823847465346304 -0.003475381557069402 -0.002286796978835939 0.02680897562610338 -0.003670555262653025 0.0005047310970707156
0.00802939651336459 0.00034845958775237234 -0.0009297007341362348 0.02955022165961416 -0.002088049698699566 -0.0014790636536630285
0.008740652749815052 -0.035753829713220886 -0.0010781870401702079 0.024468230412530545 -0.0009407943602005808 -0.010254944494097524
0.002601411646044681 -0.023489357500535622 0.0033863737435609587 -0.02409398984668015 -0.00016410821854058406 -0.00850107316136726
-2.839260210740134e-05 -1.1149707690801527e-06 0.0022565540640362507 -0.03222956710017642 -0.0005274935333755701 -0.0028720478316200167
-0.0015323547918494108 0.0017521736244698594 0.001102942156660806 -0.031974736437058185 -0.0007551454313163865 -0.0008598678340377192
0.00027772051984175646 -0.00021829491524464316 0.00036901597586143657 -0.03185650132814631 -0.0009691530956364678 -0.00016669681236640372
0.0009118147009423578 -0.0004846593298545746 5.0694325018812766e-05 -0.03280100750712494 -0.0012709891418692615 -5.149599146753277e-05
0.000719011844718114 -0.0003319895817916879 9.642450075586287e-06 -0.03396051762216334 -0.0014941908160924831 -0.0003274433674767996
0.0002484827090394327 -0.00024179253842333527 0.00015282511086496577 -0.03572339487023647 -0.0016139937881575314 -0.0010980332451053212
-0.0010711977276063641 0.000601090904546368 0.00042476685018671593 -0.038267324505210545 -0.0017700371855219588 -0.0026767783945181862
-0.0018118587136519183 0.0022172350772091147 0.0008129812095439691 -0.04386661502888045 -0.0022180979780722534 -0.00555493026003473
0.004154904447006079 -0.006055994013819153 0.0015163287239721665 -0.04581515528095122 -0.002355495170056327 -0.010023054914957601
0.009846527389414236 -0.03464294239318845 0.002516391193887589 6.357357182276908e-05 -0.00024182856827667398 -0.013674944033599208
0.004057479945844475 -0.006056747448261018 0.0016066669348129092 0.045948325879237355 0.0018503504875297186 -0.010015578842383986
-0.002012272241279359 0.0022193287921150806 0.0009909750603549492 0.044018919787193904 0.0016498661281101894 -0.005533807993319558
-0.0013842949708262936 0.0006136621824679813 0.0006826420101314756 0.038455419350049494 0.001101569443110168 -0.0026269549455581534
-0.00018855136420216814 -0.00020579715247144787 0.0004726362592968904 0.03597117442932741 0.0008165033143579118 -0.0009896602527546415
0.00014813323121327517 -0.00025083142498801225 0.00035504151648771827 0.03430459428488678 0.0005508766319572203 -0.00010505604085910986
0.0001927896620376172 -0.00032084479933630405 0.00035561709433950444 0.0332999696209145 0.00018045830325676216 0.0003745594461942418
-0.0005420959511983136 8.139117076112377e-05 0.000525187600716231 0.03261608007042845 -0.00021775344381661375 0.0006006776247005659
-0.002133256445768426 0.0019787746843653894 0.0009386761410416843 0.03317460536208912 -0.00022724864801568388 0.00034022515207448006
-0.00012298723362139886 -0.000245460415428366 0.00148789266601537 0.033230679254613184 0.0003204103786324394 -0.002168521150540673
0.002772509551118464 -0.022312217666558345 0.001704090856071139 0.02451671336179171 0.0005089396688910202 -0.010858403685886456
-0.002880071693129044 -0.012323110358435035 0.0057524185887408074 -0.019223566444368456 -0.0014626046638562499 -0.007988593417735066
-0.007659004032109503 0.0006568498553223902 0.004515708833317129 -0.02823410788354608 -0.0026111842759434334 -0.0024525744390063776
-0.01584813107144912 0.006343153639658082 0.004093015590241655 -0.029783797593679353 -0.003826197888774057 -0.0007329795843251806
-0.022585444957164854 0.008144803703795944 0.004239429491501421 -0.02833693511930737 -0.0039169988195712005 -8.351487521393418e-05
-0.02969718608811696 0.010834598799640776 0.0047278255929190825 -0.028697192355000803 -0.0035300472790436533 7.948467162383828e-05
-0.03740904181448486 0.013966525561180453 0.005329447540564426 -0.029787551470604485 -0.002759620481279716 -0.00011282342845020221
-0.045273136707042104 0.017233685499014415 0.005882487836561661 -0.03126630811774249 -0.0017405729577417593 -0.0007336179272048127
-0.05421704046253042 0.020809303141627516 0.006294766898542609 -0.03319601102171619 -0.0008107854717130688 -0.0020072009906763628
-0.06412133022836175 0.027236472328353144 0.006546162435783304 -0.03586657043138533 -0.0007085233699509233 -0.00431851538060895
-0.063266181494219 0.024450693978748942 0.006933748543699282 -0.047587248786901105 -0.0014843531356940525 -0.008416101811630076
-0.057540935940676205 -0.0264646742686896 0.00829626567284462 5.6288976664715696e-05 -0.0003262167675341227 -0.012632676696384628
-0.06337600666804065 0.02443987765078614 0.007057833675172428 0.04770513845807073 0.0008068487932059198 -0.008411603284522298
-0.0643453024217656 0.027217359518418017 0.00679302745621629 0.03600130481113411 -4.176403045495736e-05 -0.004304265579941385
-0.05456137042840294 0.020787185815430695 0.006659006852049681 0.03336214278358004 -5.172896599400268e-05 -0.0019704007019291595
-0.045740412684615595 0.017217234321708946 0.00634852869244402 0.031484731913244295 0.0007433461157507166 -0.0006485826828504284
-0.037991700867972676 0.013969688257660103 0.005861338454494563 0.030092434381098643 0.0016349013286898278 6.843948153361292e-05
-0.030364246343448597 0.010885202530183415 0.005254377564176859 0.029146540925690426 0.0023313601288480067 0.0004423905398602167
-0.023222104903616356 0.008249357518186428 0.004636253229026773 0.02902306110060424 0.0027852707877511905 0.0005886712145687864
-0.016205551330934133 0.006348090783052905 0.004166048066160853 0.030616090430862462 0.0030609489235572636 0.00024175667726212708
-0.00763086537747666 0.0005046480775600892 0.004009755124476069 0.02860299212993126 0.002506632769423368 -0.0019324226680277942
-0.0026849846860865457 -0.011494092798101308 0.004481762634359898 0.019100034962319302 0.0017429151106018023 -0.009512099175589999
-0.007526868020452415 -0.005106928172659796 0.007923412006080982 -0.010386968197880483 -0.003101556837622245 -0.00483145086610529
-0.014686894978044625 0.002160877433100664 0.006720505239527211 -0.016155111339014042 -0.004996133378662119 -0.0010669357064862837
-0.02970072048910262 0.010439809043370558 0.007044787348877272 -0.017565792055879492 -0.007040500538735494 -0.00014351539390575896
-0.045111798640152544 0.016224545615238558 0.008067796249154683 -0.0164745570561218 -0.006882272546988392 0.0003794349777184858
-0.06023014419690481 0.022048622901995572 0.009359139937124642 -0.016518201825161418 -0.005743504899360186 0.0006522439503803026
-0.0754190689617609 0.028117119565881428 0.010587895029846008 -0.017181158704307083 -0.003897184356653186 0.0007597287080915497
-0.09082169315413684 0.034404595502602234 0.01152920575896109 -0.018105168120938597 -0.0016175923797386773 0.000660039566611119
-0.10597335063792006 0.04118385747457232 0.012021919159743067 -0.01889688821796063 0.0005525377180877187 0.00020860784332936004
-0.12499124814662928 0.047890051209559414 0.012050482570016292 -0.02100883868052539 0.001700485897962174 -0.0007557943566755325
-0.13364119930174384 0.06323139833403031 0.01167505144610696 -0.02854000997320739 0.00046653659509195383 -0.0033491639307722688
-0.1306808661945871 -0.020636270506588318 0.013121322092040408 3.5170435115568634e-05 -0.0004140801110794522 -0.008122954018303203
-0.13376511971820865 0.06321089669524463 0.011834037684804104 0.02861357128147286 -0.001324138847015098 -0.003353022792300387
-0.12524247649822834 0.04785049815701106 0.012368769895032852 0.02109256706953906 -0.002643137972037861 -0.0007609859202203897
-0.10635529347897096 0.04112826153383582 0.01249700125386313 0.01899939634414017 -0.0016245161231048804 0.00020847729754453192
-0.09132998778891353 0.03433747050635666 0.01214882754718953 0.01823875720502248 0.0003962233050352497 0.00067827952296666
-0.07602695514062853 0.02804527462486715 0.011317994041257431 0.017365734539309032 0.002552084962540271 0.0008228413960673454
-0.060861698157091845 0.021979975612562597 0.010125129428336571 0.016791255933908775 0.004380493432602796 0.0008126223027175013
-0.0456154701647518 0.01614576954158774 0.00873107545248138 0.01687378120078452 0.005732173091121534 0.0007167804368884209
-0.029904819951924237 0.010296298615046644 0.007389077293202557 0.017972762080815777 0.006434918818055845 0.00035439502667496803
-0.0145946075577272 0.0020563310456449906 0.006491945108392245 0.01624468616718769 0.005031679570350881 -0.0008034254725679518
-0.00732533998432834 -0.004633630277086347 0.007009777452114534 0.010203063000328421 0.003436288948016311 -0.005683081011205941
-0.010019968649312242 -0.00268469441850472 0.009590001054485677 -0.004048922876419939 -0.005976029144918657 -0.002479799240287045
-0.020328004504508917 0.0030371117230981277 0.008783820816099032 -0.006467667723186334 -0.008234857343529602 -0.00011306315584330759
-0.04341899215640085 0.012430742454514192 0.00997419653738376 -0.006702716979423425 -0.010524179133200742 0.00030098736440823206
-0.0678116857838633 0.020225144877988373 0.011911187599903984 -0.0064549226874921735 -0.009829887063741724 0.000738455086711888
-0.09065503011232526 0.027593354456898596 0.014022415288545899 -0.006545346643025659 -0.007766765230331938 0.0011120724836140466
-0.11319929293997276 0.03513922800766908 0.015873101360584996 -0.006892973935480935 -0.0046737424184527376 0.0014794375636808172
-0.1359769513577514 0.04280001671262854 0.017164997536306455 -0.007238908583114452 -0.000911941840042321 0.001808236342053355
-0.15850224187816478 0.05169431953703748 0.017692931967938773 -0.00800763283134151 0.0028030578001207846 0.0020515905610797303
-0.17868210187325914 0.05636102216888153 0.017320479884416966 -0.008470680635692012 0.0052123335615244055 0.001939502646848547
-0.206339015668627 0.08517465776717442 0.01596082285665842 -0.01865600777149558 0.004977937096857751 0.0012000068317569409
-0.22490928993519896 -0.017606007150097257 0.015349825363073928 1.8291500717277894e-05 -0.0005066873893298205 -0.005690937855448873
-0.20647969520231563 0.08514945790080698 0.016156302982296634 0.018694477778369682 -0.006026440689155971 0.0011916357007015095
-0.17896637851705388 0.05631154911460587 0.01771375697958137 0.008515028570774411 -0.006362524149490921 0.001923413909735244
-0.15893191018204358 0.0516224193644603 0.01828526111962841 0.008062660832588707 -0.0041084392523864375 0.002029678565446208
-0.1365430887060607 0.042708329634778074 0.017949015205814798 0.0073109453562001025 -0.0005734684110723654 0.001784991426839749
-0.11386058905640238 0.03503069962468555 0.016819352018554456 0.00699098742913504 0.0030404445879728998 0.0014652731634443388
-0.09129598435242134 0.027465671845577362 0.01505744546444134 0.006684641092723724 0.006128324443391827 0.0011305865331103931
-0.06822243561106699 0.020058059010287746 0.012887142325279445 0.006648568633752077 0.008513254656314353 0.0008301902071376421
-0.04344324774677202 0.01221311194048722 0.010647993083739213 0.0069043823128346225 0.010008104495498923 0.00046056556584801874
-0.020099385025567518 0.002929620880539473 0.008859930828822365 0.006543193706493344 0.00860096736031264 -3.722241832278112e-05
-0.009746413541266647 -0.002378477771344405 0.008960770018899972 0.003992915380878522 0.006720050465058263 -0.002989819175745593
0.040948724221189683 -0.05944470188123999 1.0164395367051604e-18 0.0046044566034312865 -9.078054605780872e-14 -4.3745348597863665e-14
0.04188551640241965 -0.0007697094529143458 -0.0035617200960395413 -0.013656106157014658 -4.6248873058086365e-14 1.8187694731351678e-15
0.050596053432719494 -0.01674462028541774 -0.006683756950026085 -0.005308498628302716 -1.8116008638959652e-14 -3.0448869337354467e-15
0.06908900251623926 -0.021218823959197324 -0.009643739112457578 -0.006312490089483713 2.5393979996048144e-15 4.214483579831341e-15
0.09078249487832968 -0.028713231222861967 -0.011741333344810046 -0.006749624887758052 7.383457452207753e-15 1.0388689691484543e-14
0.11265255022073786 -0.03612874054003489 -0.012805148739339309 -0.007255677482371068 -3.8716063368486944e-15 -6.930193181473032e-15
0.13476183630112842 -0.044076844800095494 -0.012751113368915348 -0.007902448648493444 -1.7963908626687092e-14 2.1440911112530214e-15
0.15855721830466527 -0.05281570307198298 -0.011597841008106487 -0.008955391378525942 -1.0102921103871676e-14 2.2747063022250658e-14
0.1859947526729902 -0.06319003634103695 -0.009588664564490356 -0.010070097893028918 7.488232039651321e-15 1.40045039367237e-15
0.21401284453742186 -0.07520311029100737 -0.007425738888829744 -0.008413521433284344 1.867070341106218e-14 1.9288363224331806e-15
0.22714940147315735 -0.08290435884152286 -0.00638971787054238 2.2204003317200524e-05 2.7743717154367353e-14 4.482267963908104e-15
0.21390576901436648 -0.07516395862975181 -0.007427732521888264 0.00845998057177344 4.885069399777203e-14 -8.85328323239204e-15
0.18576515107496616 -0.06310237114395913 -0.009600934371419316 0.010123117545372515 9.43683404531527e-14 1.3224081660441478e-14
0.15816982397275073 -0.052658665004241066 -0.011638386854150933 0.009020947114243153 1.0364611255299534e-13 5.14125959687195e-15
0.13415089907445465 -0.04381411884712585 -0.012849832604383526 0.007988353849825049 8.9822914748082e-14 2.3609857558587466e-16
0.11170575490411047 -0.03569911634062068 -0.013004527627328384 0.007374000473370061 2.732524560897405e-14 8.170412046579201e-16
0.08931791834544026 -0.028031661704604995 -0.012095839594997786 0.006908079399222805 -4.948164545204997e-14 1.098296800727816e-15
0.06683390807320536 -0.020136921727061823 -0.010210545075716788 0.006568094434537123 -7.601165248442843e-14 3.2203243977707574e-15
0.04695557668619974 -0.01510600409412938 -0.007604130180969134 0.005782357080457972 -1.0013426990796576e-13 6.919385041066067e-15
0.03363381555598444 0.0021154212249021955 -0.0051189534585464125 0.013031296697260596 -9.183170378095594e-14 -5.52882121595405e-16
0.028995514903841356 -0.056026061169225476 -0.005222923709063443 0.016588291039674526 -8.200501367371105e-14 -4.1246303247866045e-14
0.017121796418972088 -0.051706458268238165 -0.0001287779769871159 0.0003615084153740909 -2.7842884383700098e-14 -2.6246101917249548e-14
0.020233086751206122 0.00011741993104170625 -0.0018278193751573354 -0.015002454154989606 -2.576162278834261e-14 -1.0582941451344266e-14
0.03174546684614976 -0.01231401920556084 -0.004217470361728953 -0.013892482375326988 -1.943753419667276e-14 -1.0887097430176129e-14
0.046993842584565744 -0.017279038785268475 -0.00637244654447249 -0.015761489801148956 -8.70936725245585e-15 1.66555815363581e-15
0.06115058610126825 -0.02304462673899808 -0.007926040679443736 -0.01693568385482652 -2.9480744559960692e-15 5.870311018969093e-15
0.0757315219950175 -0.02899555614009652 -0.008716799182415637 -0.017873455479478807 -5.382643658048691e-15 -4.422596186839933e-15
0.09047182650962085 -0.03529852017381069 -0.00873277345401111 -0.01928516802823965 -1.1671560053616754e-14 -8.547578877332596e-15
0.10611146378374843 -0.04206549420985811 -0.008029824749863907 -0.02180106835259711 -8.909592288659611e-15 1.2353616393734335e-14
0.1235284505103341 -0.05007323728547621 -0.006788318627522346 -0.02505241609811404 -6.6866796794668934e-15 -1.6557271504367976e-14
0.14074454136673487 -0.060813123496007926 -0.005426986714736374 -0.021844887289907553 6.3093163370697355e-15 -1.66869556367244e-14
0.14868374746848395 -0.07038268961685117 -0.004740332747390894 4.297939964005581e-05 2.1183201338328093e-14 -1.2773920918425496e-14
0.14061836746392742 -0.06077957605667553 -0.005387145883768138 0.021936285100880082 2.204734773924872e-14 -2.7086175641809207e-14
0.1232621975682308 -0.049997641631438494 -0.006714585920756175 0.025161477905168417 4.6693585684185607e-14 -1.1074854141396306e-14
0.10567472836260941 -0.04192916089944909 -0.00793580761622683 0.021944363103474692 6.554371269633288e-14 1.7423061149206276e-15
0.08981127932156503 -0.03506868790209375 -0.008642603629418847 0.01948702623664631 4.6447355747517623e-14 7.548899927465463e-15
0.07475865473870605 -0.028618088562134502 -0.008668555642063978 0.018167539911098558 1.8145793705516902e-14 4.2066658045413624e-14
0.05972628012928398 -0.022435067893451986 -0.007972541183666462 0.017366573587350893 -1.7189213987194203e-14 1.585153042897927e-14
0.04488884056456308 -0.01632685461521965 -0.006593836783083293 0.016424057671197805 -4.552848508897374e-14 1.6288175913288863e-14
0.028628870833214894 -0.0107983395675324 -0.004732907179987701 0.01517380319430551 -5.904154389783228e-14 9.91753608490381e-15
0.017551878017245268 0.0015527024267489391 -0.0032476571157287804 0.01666058124206968 -4.441381027093605e-14 -3.8944948611494e-15
0.01547464426137261 -0.048648746234404544 -0.0041450376010778505 0.012292507528265967 -2.863415376390486e-14 -6.040963085665596e-14
0.008668754757938954 -0.03676523368431495 0.0012350509518234268 -0.020652785832070183 -9.912635152270997e-15 -2.4833379710237358e-15
0.008733619659011004 0.0005422534395701807 7.126877192517989e-05 -0.025952754145708797 -1.1255745650578988e-14 -1.8214088277988122e-14
0.014264321605721728 -0.004416724223362131 -0.0015628223790122684 -0.025174231033083316 -1.861285317834708e-14 -1.5900014594880107e-14
0.02375031815795651 -0.009014565113053897 -0.0029962722057356606 -0.027809215203144867 -1.3762098777329044e-14 -1.2712168828438869e-14
0.031326391462198774 -0.011811901688954407 -0.003962376954723288 -0.029375185565139954 -1.3141020762600774e-14 5.093541148755432e-15
0.03846614272504877 -0.014733289557848295 -0.0044063871258863034 -0.03093540927671264 -1.587268168870516e-14 5.97243608735365e-15
0.04557900967594982 -0.017789297870431115 -0.004364368008837008 -0.03318804880181797 -9.624510118998869e-15 -1.8622385263619007e-14
0.052660706686915804 -0.02060100763576872 -0.00390811262355546 -0.037023722008039696 -1.8168519599491735e-14 -1.1951092784671935e-14
0.06087029282018737 -0.023887111534718734 -0.003134084272615216 -0.04278738368411549 -1.9610962498557184e-14 -3.3484960680965625e-14
0.07178077729383302 -0.03322115662095431 -0.0022130559564079396 -0.03944112387203899 2.6459513562376163e-15 -2.3249048628111446e-14
0.07799938753095001 -0.04934327979246845 -0.001660232899929366 6.715683075041894e-05 2.2446059700048475e-15 -3.26733811447516e-14
0.07163810704720379 -0.03319910788137947 -0.0021324445179303083 0.03958437644610549 1.830717719889137e-15 -3.828160661731306e-14
0.06057346892341659 -0.023836294945558077 -0.0029770340860244197 0.04295975826666405 1.6204323039642476e-14 -2.3678528213687267e-14
0.05218616423611594 -0.020506938264054187 -0.003685129229714118 0.03725300903286875 2.4982121236874055e-14 8.189934461947518e-15
0.04488853350158297 -0.017626945998375013 -0.0040965278566412 0.03351591002190951 2.392235384733447e-14 1.0486782883040169e-14
0.037499445085135655 -0.01445968501588672 -0.004130953759075755 0.031423572234833434 1.4465942710674136e-14 6.831898057262781e-14
0.029991971233172692 -0.011356971353186206 -0.003740385189567394 0.03010672604509042 -1.0542976742826914e-15 4.130927506529672e-14
0.021918427648373214 -0.008285811518501026 -0.0029212471586964254 0.02895772630453714 -1.625166625216336e-14 2.89948017581209e-14
0.01238182270285907 -0.0034445061541854703 -0.001818095942362994 0.02710664743925564 -2.8244624487286287e-14 1.5390951181712062e-14
0.0077925624870981616 0.00032145469559823417 -0.0010946037729878762 0.02881247003620582 -1.484747451396297e-14 -1.3752108447232653e-14
0.008433388383366611 -0.03428619367591086 -0.0017827549349613127 0.023416896388043812 -8.856015760679882e-15 -9.020513285981635e-14
0.002579310261835314 -0.023241232860250212 0.0033935784765088913 -0.02310642015585875 -2.4747530803450766e-15 1.940166235135654e-15
0.0001893106412442557 0.00010529600037165653 0.002157204083243616 -0.031031183387164516 -5.873255305493749e-15 -1.48638764599536e-14
-0.0010871539839003392 0.001563210311203387 0.0011432680410252154 -0.031404796602652045 -1.794619208556232e-14 -1.9518851053675068e-14
0.0006674933434888826 -0.00042324391242183314 0.00040695782705365907 -0.031996703508907015 -1.9578758305902576e-14 -1.2962660187864489e-14
0.0012416417880728528 -0.0006279634883315855 2.7397936112517582e-05 -0.033512561387629536 -2.0899543556819784e-14 4.505991662694803e-15
0.0010160846360536928 -0.00044496888434065665 -3.920920531358125e-05 -0.03528716338317321 -2.4692346183420675e-14 9.193492321590835e-15
0.0005008670780702202 -0.0003271535659963515 0.00011565658639867307 -0.03784604535055534 -1.937623611634586e-14 -1.2582965810796487e-14
-0.0008908706598627285 0.0005672069367588158 0.0004141717687772552 -0.04130464047201687 -2.5553202284857692e-14 -2.494434780259125e-14
-0.001676292204295202 0.0022381547562927272 0.0008417933562078288 -0.04749178367261944 -2.6575210639674576e-14 -5.201565632211025e-14
0.0045982468237919785 -0.00603498395097599 0.0014529356261795403 -0.04904048447104388 -1.1305394486782298e-14 -3.810726690797739e-14
0.010584088006814133 -0.03523251697449172 0.0019495988977891255 7.533376804180143e-05 -1.3256684805614243e-14 -2.961613430624982e-14
0.004439950340022651 -0.006024826226423625 0.001574194186362007 0.049201275000553324 -1.4731341426454958e-14 -4.528042979630442e-14
-0.0020016100073272625 0.002263388478508617 0.0010817020054635148 0.04768555194751155 -8.263727760554076e-15 -4.655961217698429e-14
-0.0013992232913856628 0.0006178410706901983 0.0007647676831748737 0.041562699977867476 -1.2214690496648657e-14 1.0203968746347325e-14
-0.00021216897874425607 -0.00023375694104283781 0.0005579753895904912 0.0382161481875592 -1.9654302633369345e-15 1.4663190637826534e-14
7.113071475031832e-05 -0.00027794437406849533 0.0004560422366201558 0.035842807560886925 6.8220550261959174e-15 7.680322171429652e-14
2.4433548223354654e-05 -0.00033361183371096424 0.0005051694885238862 0.03436595068347499 1.2233052265121e-14 4.747151429547111e-14
-0.0007524712207798352 6.132534650005657e-05 0.0007483591502318923 0.033314554417012476 5.171740924511843e-15 4.331464250858022e-14
-0.0021865487688902227 0.0018946240810964624 0.001118862511030595 0.03336193028542891 1.8381868564180254e-15 1.5117186745027683e-14
-0.00011671748744851619 -0.0002713537933755873 0.0012901109228090314 0.03250636460151501 6.137530432070038e-15 -1.9688860730584373e-14
0.0026920444618682145 -0.021299819034033066 0.0011178137767047722 0.023667730766888342 8.575639384809236e-15 -9.504560766898651e-14
-0.0027360260940070664 -0.012174555629636668 0.005776515817475004 -0.018725648315773117 1.7209414028920324e-15 4.37069000783219e-17
-0.007323612635478784 0.0007569155016184192 0.004297043683336778 -0.02738276428798167 -5.347342712938921e-15 -1.0634322469924712e-14
-0.015253499772465878 0.006194075802923643 0.003844271945048259 -0.029230455039864784 -1.763551056490481e-14 -1.7123421550049173e-14
-0.021864936693551145 0.007920832812477222 0.003800179133592236 -0.028379117894742584 -2.30295383457646e-14 -6.114852818973199e-15
-0.028866893786287054 0.010648837143991986 0.004005176746062042 -0.02928845950809429 -2.5584586126102885e-14 -1.0988389018140587e-16
-0.03652106439940829 0.013850864136018413 0.004319036372080056 -0.030943072359973244 -3.686789676988437e-14 7.833408130052816e-15
-0.04445368789279301 0.017243558967720327 0.00459056933165224 -0.03312787944769921 -3.234727467766856e-14 -6.537142788892725e-15
-0.05367954550340186 0.0210179284319358 0.004730683017197979 -0.035852199391760334 -3.050950588494956e-14 -2.1341449115731825e-14
-0.064098352024744 0.02774812020421989 0.004791987882337172 -0.03890909647342543 -3.0593169446732236e-14 -6.004002633605565e-14
-0.06328289846742671 0.02519151648871613 0.00503900928031974 -0.05061521540653 -2.5469016527263034e-14 -3.3967389990140207e-14
-0.05730648476381224 -0.026661505024922993 0.005429822035704593 6.765984208964156e-05 -2.6261037649208483e-14 -3.223539057212177e-14
-0.06345767881931418 0.025189796227348453 0.005201716364269021 0.050759533705431396 -2.81637794276356e-14 -3.398172856387133e-14
-0.06445403464496335 0.027747833358847666 0.005116457670840454 0.0390826460045352 -3.6309161650623437e-14 -4.492814540540957e-14
-0.054225094224525684 0.021025389853014814 0.005211726129917247 0.03608251598476658 -3.501183582421338e-14 1.153779491652046e-14
-0.04519396954300041 0.01726867432364906 0.0052116577404136 0.03345687782402226 -2.855640884484112e-14 1.809102455514744e-14
-0.037449574438823977 0.013909997413336785 0.005040519484992776 0.03143941542238874 -1.8584478845163482e-15 7.299263732503392e-14
-0.0299461183657875 0.010776068394538235 0.004747091727610158 0.030059897486555628 2.37052029752622e-14 4.544960599279363e-14
-0.0229242042918609 0.008109934677267464 0.004416628089336636 0.029561280398935123 2.5803557695495277e-14 4.15784418071434e-14
-0.015899077010787483 0.0061914803257007 0.004076353668051664 0.03060922489176398 3.047375855347659e-14 1.4856280268482625e-14
-0.007376538895830322 0.0004979415529345784 0.0037438878130155273 0.027948212438460556 2.6907113723792595e-14 -1.572543094005563e-14
-0.0025300350359549134 -0.010876946858993142 0.004084972047351039 0.018535593557567964 2.1399392945587598e-14 -8.406155545953586e-14
-0.007160585558765988 -0.004942187511882768 0.007880793659228925 -0.010247715810384079 1.117785334778243e-15 -1.8706620996157552e-15
-0.0141493387363132 0.0023363871882767498 0.006280263259184353 -0.01565135977081575 -4.869436559702678e-15 -5.780901609188718e-15
-0.028874657652039136 0.010380073739455722 0.006480271805780593 -0.017177771758359238 -1.7815278061366485e-14 -9.828980484334268e-15
-0.04402061540933998 0.016095588148783146 0.00714575264951329 -0.016446329731859066 -3.031730817998693e-14 -6.975817764143938e-15
-0.05886567208447346 0.021980437545515645 0.007932745418981008 -0.016848665784097164 -3.770117898427294e-14 5.987906297102302e-15
-0.0738899146812499 0.02820441319378062 0.008603340362832486 -0.017875097683005683 -3.646370789404767e-14 -5.482776504941306e-15
-0.08937190706199709 0.03476815593553501 0.008942743369779628 -0.019238285463127097 -2.985194150250184e-14 1.4311197626265537e-15
-0.1049803839985082 0.04198463931942481 0.008839419594774441 -0.020475311401187093 -3.781301443836482e-14 2.8618939358106277e-15
-0.1250743498336421 0.04924677846486576 0.008388512761502664 -0.022760597835751593 -3.344854504049727e-14 -2.864268338568371e-14
-0.13431176832518 0.06539917526339892 0.008060133976785644 -0.03029290851323537 -3.326719613352307e-14 -6.788599765878214e-15
-0.13121841521850588 -0.02050883611215621 0.0081268745294132 4.3857900567891456e-05 -3.688287061832593e-14 -1.9281854623165104e-14
-0.13450561717084142 0.06538597956494818 0.008266022028576027 0.030386167800889458 -4.6546832143876116e-14 -9.834723367716652e-15
-0.12546620054560742 0.04922183637703252 0.008801427168706393 0.02287176665113353 -6.577629608518765e-14 -1.7208741484760204e-14
-0.10557354909537174 0.04195049248639334 0.009457894484129436 0.020620866847804103 -6.426408308225686e-14 1.447390249103772e-14
-0.0901575067862237 0.034727389714131245 0.009754458321070539 0.01944312136694313 -5.471661188036019e-14 1.4058083852835218e-14
-0.07482572775901106 0.028159399097678776 0.009570778611045636 0.018179507220392514 -1.7091930559136152e-14 4.01143894035276e-14
-0.059836715920173436 0.021929231057153272 0.008970319056262737 0.01731988100000969 2.87732721492278e-14 2.5900844511685117e-14
-0.04479820604658349 0.01599791479562869 0.008085835898646554 0.017135378315651994 5.118412746592249e-14 1.8538989787764137e-14
-0.029199897022246367 0.010137650010543287 0.007034846789777028 0.017858612435607008 6.595632785592886e-14 7.444538692100156e-15
-0.014034802807718382 0.0021305465122143474 0.0060644669326587915 0.01578919566492996 5.304809461712315e-14 -6.48696455709738e-15
-0.006888618251651938 -0.004235561628470961 0.006666824361318058 0.009978054706567012 3.7385865887459846e-14 -5.3471766944812593e-14
-0.009437682959826173 -0.002455476771599022 0.009059988699280343 -0.004066439879985581 1.92635620996362e-15 -3.317550227588395e-15
-0.019564352890243643 0.00328957780991736 0.00790889281051783 -0.006181918025424443 -3.355741249114197e-15 -1.5113778284447932e-15
-0.04228465613725577 0.012448446816491267 0.008943871439995107 -0.00648303455339371 -1.5175550703225293e-14 -7.957285004522863e-15
-0.06625061241146654 0.020192899462536374 0.010349379050456908 -0.006407046159891654 -3.912779930788368e-14 9.952975943416931e-17
-0.0886559949839348 0.027655054949158778 0.011693823628534387 -0.006681220256503579 -5.695395327229291e-14 4.314853595949186e-15
-0.11091309074105736 0.03542136772238162 0.012648563495412497 -0.007212266171776246 -3.3054200381573556e-14 -1.4995979718407382e-14
-0.13374131728847638 0.043453286996973046 0.01293216636899815 -0.0077610698047189935 -2.16027824968823e-14 1.8228582705781537e-14
-0.15694866947882496 0.05295456557229992 0.012391043127336085 -0.00869536096312173 -3.1492901819349384e-14 3.615488984587412e-15
-0.17866456996092814 0.058291410873399285 0.011154503155252215 -0.009160929365579615 -3.216699096756509e-14 1.677927545171154e-14
-0.20793947002248453 0.08836452618831382 0.009867304977923444 -0.019633694072745532 -5.2036798264473716e-14 3.9028296653503824e-15
-0.22715565622365136 -0.017334156930692395 0.009265062100497353 2.5340309398262217e-05 -4.9600433352572915e-14 -1.4104386061863927e-14
-0.20815673838659668 0.08834573650151188 0.010119090908462644 0.019687592232875195 -5.6542769598377784e-14 3.792051308376676e-15
-0.17910230988243897 0.058254460765585325 0.011662030511090899 0.009225018587251332 -1.0099207711430913e-13 1.2240208846492351e-14
-0.15760704601725511 0.05290010714158874 0.013158263379445 0.008778467340585521 -1.1849904195913863e-13 1.009142856084333e-14
-0.1346025271728486 0.04338055193856709 0.013954129721011961 0.007875344482029837 -9.772482709126049e-14 1.744345770257616e-14
-0.11190738434029211 0.035325223868672186 0.01389541554116531 0.00737486632949505 -4.285788846210281e-14 3.866264947083309e-15
-0.08959707596585002 0.027514570281881607 0.013083620844612088 0.006917876677552546 3.871466407005808e-14 7.422014391966769e-15
-0.06680945172011415 0.019953446463347138 0.011703652878431597 0.006733169148599064 8.781818046192658e-14 6.253949181439511e-16
-0.042236807225941364 0.012079924799313637 0.009937078119587788 0.006812203439508382 1.142153320705941e-13 2.8681213220388413e-15
-0.019161868751966613 0.0030695765692075718 0.008088901746531083 0.006299288604941867 9.108929973147828e-14 1.7104373473131318e-15
-0.008997856878126096 -0.002015911554783575 0.008202178267458848 0.004005040342420196 6.49673457392419e-14 -3.2782587408575203e-14
0.03860190411010147 -0.06147684071082695 5.624298769768554e-19 -0.0020228382757183183 -0.007420250200173448 -0.0006438898849828172
0.040594553865186504 0.00037519226972237735 -0.004121658671304102 -0.013918447738171243 -0.01011654825054428 0.0007720056009598848
0.050807306282415005 -0.01642485653162394 -0.007872163687528739 -0.005507210078454003 -0.009521135911662367 -0.0007457227634903513
0.0700196683575133 -0.020852811512539985 -0.011357884747974282 -0.00629304736764398 -0.007958947409304412 -0.000860486535261057
0.09217285982726012 -0.02834595802503992 -0.01404792557154957 -0.006594355866270416 -0.00511786967620158 -0.0011874504980252595
0.11434466921113215 -0.035607379609652746 -0.01593619013317527 -0.006924034921172108 -0.0015597883028925549 -0.0015256205712253562
0.1364602590750406 -0.04324339000798526 -0.01689314524032779 -0.007368741613904426 0.0024617210544842882 -0.0018423920973693459
0.15961870917133128 -0.051438748848581836 -0.016830286351504388 -0.008215101911748002 0.006303524023209312 -0.00198489257470036
0.1855544009233433 -0.06103662438957533 -0.015789094784157923 -0.009222980697276282 0.008450961253544964 -0.0016721333412255777
0.21163611572802668 -0.07224793265490181 -0.014213612664215383 -0.007747706380167881 0.006559424239178361 -0.0007241831170760926
0.22382144476282445 -0.07953270642394862 -0.013302285116276132 1.7925637383992715e-05 -8.472272781688496e-06 7.952178920993957e-05
0.21157619294206487 -0.07222425984282739 -0.014222978129063963 0.007784652081835844 -0.0065666244336384585 -0.000713901536234601
0.18542539894452828 -0.060983111154053055 -0.01581458485084556 0.009263313328803193 -0.008427853993704715 -0.0016516930031207416
0.1594006981563799 -0.05134188198490506 -0.016886822126940707 0.008261659309013921 -0.006224823280404719 -0.001955330724450801
0.13611825151239215 -0.043079915506285774 -0.017006590904537405 0.0074246364342687625 -0.0022880035742753667 -0.001806768266612958
0.11382318998516472 -0.03533957824390309 -0.01614570184525554 0.0069955890620723524 0.0018996594837736077 -0.0014948591705680279
0.09137936375119218 -0.027917288295933873 -0.014412838769046978 0.006677743880397973 0.005759457803291636 -0.0011694868433595352
0.06882570951899418 -0.020182408329351392 -0.011940971355006876 0.006445850331215218 0.00905646443154182 -0.0009345639914789511
0.0486414055418321 -0.015318690519207884 -0.008844360297812437 0.005725330937472225 0.011214731217316282 -0.0006850810443923352
0.03497421771931729 0.0022097488320440605 -0.005243158433709396 0.013601685684191513 0.01020852651105019 -0.0005514107690417389
0.030264163958463874 -0.05844010347112596 -0.004602269895492728 0.017469888087295528 0.009023906866931134 0.005389430539878068
0.01704356526532786 -0.05298853054488277 -0.0006075026611566515 -0.003450490790618494 -0.0039285755171375525 0.0019230491530172224
0.01978421413425286 0.0006929811284599324 -0.0018897210484607775 -0.01579597438865294 -0.004762399040091288 0.0016177696528450148
0.03144677699856861 -0.01197297631411951 -0.0049147058047222325 -0.014243775427465308 -0.005961550928958214 -0.00017897302539684763
0.047409481180390935 -0.01703453296736025 -0.007395286672031216 -0.015698746322702677 -0.004984234445868383 -0.0004522403428945941
0.0618912906758115 -0.02281031519254805 -0.009318489055697075 -0.016594559671354255 -0.003157300140803557 -0.0006606846278173122
0.07666836542819416 -0.028674255796236725 -0.010604311771878917 -0.017184991335598396 -0.0008441097511026339 -0.0007635990303117642
0.0913945516852659 -0.0347604563046467 -0.01123375334085745 -0.018149343409630987 0.001681092357392209 -0.0006656565700925371
0.10663280296180255 -0.04114377994866548 -0.011181453020393632 -0.020145414088318495 0.004012567596802763 -0.00011978865920948223
0.1231696539564861 -0.048601236544563865 -0.010506251997683552 -0.02305613237040593 0.005281362794381603 0.0012691703088192352
0.13928925065991307 -0.05877483321922941 -0.009462106058010828 -0.02020554791158695 0.004118936705717975 0.003592839739301955
0.1467022446164793 -0.06794253353479593 -0.00879462993484977 3.4766939039856005e-05 7.606777068534409e-05 0.005251392889841745
0.1392157448602844 -0.058755858589407226 -0.009437956364649138 0.0202782648575436 -0.0039524019574277616 0.003595281008603701
0.12301444242345874 -0.04855760874355626 -0.010463219916463309 0.02313894093943275 -0.005071050510346854 0.0012715157346282918
0.10637874907251454 -0.041063127318135516 -0.011131777177802076 0.0202470606493595 -0.0037262928787263074 -0.00012410490325167158
0.09101386557510728 -0.03462153638867517 -0.011199751089928404 0.018281872889428927 -0.0012786141434178652 -0.0006905708380822925
0.0761174790521339 -0.02844234525596345 -0.010623546851165823 0.017365510530397678 0.0014241005322925462 -0.0008361644380361365
0.061108140023202785 -0.022432126096436033 -0.009446392383567525 0.016842467567908387 0.004006432074365623 -0.0008240433250990985
0.04625214269947448 -0.01643867656550031 -0.007723536517526853 0.016083657413640942 0.006238525953486266 -0.0007800308655310126
0.029578399308078585 -0.010955153362781004 -0.005526260470410457 0.014986864983185418 0.007414786019785911 -0.0006894380854487362
0.01813091057382094 0.0016119218913820729 -0.00311099019153263 0.017171447736564663 0.005330749436282986 0.00019989989456071873
0.016075985455318312 -0.05071136518887279 -0.003483071003314001 0.012975921002148914 0.0034859374439174472 0.006971415751600375
0.008765206616926624 -0.037180938294990494 0.0010937369246096088 -0.02236310512455365 -0.0013782910419542957 0.006629972502885149
0.00850940288766207 0.0004897417390696417 8.532414779826156e-05 -0.027494064500980183 -0.0017339623438219858 0.0024452192395261166
0.013895089608007768 -0.004127090247368626 -0.0019018094554974008 -0.025629159653768722 -0.0024259494010282837 0.0006231509387703242
0.023710847798902444 -0.008859252653885786 -0.0035182734924786153 -0.027693411993791783 -0.002002704526283129 8.922151040663992e-06
0.03151172627128705 -0.011704648635976252 -0.004641095142613116 -0.028767052882107198 -0.000974304286950849 -7.599504519378595e-05
0.03876036813716008 -0.0146215755723552 -0.005318875386634824 -0.029787277557374058 0.0002447334043161257 0.00011121599392832336
0.04588465113059125 -0.01760965219178743 -0.0055797920286947186 -0.03131937962341322 0.0015087298564956115 0.0007249147017038325
0.052807102928997075 -0.02029592005537155 -0.005447793701010795 -0.03430128092318985 0.002685797227045324 0.002092500918853462
0.06062611417274599 -0.023392621475901456 -0.004953491585314498 -0.03948150768813812 0.003491880260713255 0.004704119881621567
0.07090480830539088 -0.03251348543394468 -0.0041191799317091965 -0.03663461233825074 0.0029986150122894868 0.008624605976174307
0.07676371316544109 -0.048187715378790116 -0.003382576926336875 5.609835439145461e-05 0.00015906730467317326 0.011458403189090999
0.07081913959423634 -0.03250418602224347 -0.004061967405595744 0.03675211122357476 -0.0026623599877767024 0.008619442048347583
0.060447842215965254 -0.023369360293178956 -0.004843027849350511 0.039615866311022416 -0.0031015494883653337 0.004688504862540555
0.05252275455207468 -0.020248658107098406 -0.005294004996839995 0.03446723937475441 -0.00220603146781424 0.0020534587743621267
0.04547425959022829 -0.017521304420799737 -0.005402732706656739 0.03153792714459965 -0.0009035628924769541 0.000636203766815068
0.03819658344390623 -0.014463151004139767 -0.005154801792198886 0.03008864511305322 0.0005261027354832908 -7.438758481923509e-05
0.03075444063386933 -0.011432389588243884 -0.004551303721160831 0.029194886527572482 0.0019645292403116226 -0.00043894514413986047
0.022674209775139675 -0.008398698711753924 -0.0035966102003487615 0.028347090427008368 0.003247952783898865 -0.000620145776134418
0.012823847465331044 -0.003475381557088243 -0.0022867969788359453 0.026808975626044316 0.0036705552625961872 -0.0005047310970446793
0.008029396513360097 0.00034845958774516 -0.0009297007341357087 0.029550221659541874 0.0020880496986707014 0.0014790636536447018
0.00874065274979852 -0.03575382971315633 -0.0010781870401668048 0.02446823041249093 0.000940794360183194 0.010254944493917374
0.0026014116460529135 -0.02348935750056365 0.00338637374356015 -0.024093989846685582 0.00016410821853455698 0.008501073161372807
-2.8392602101502196e-05 -1.1149707380876678e-06 0.0022565540640307902 -0.03222956710019132 0.0005274935333565243 0.0028720478315912338
-0.0015323547918358485 0.00175217362449945 0.0011029421566524996 -0.0319747364370512 0.0007551454312799884 0.0008598678340172036
0.00027772051986224566 -0.00021829491522650982 0.00036901597585354596 -0.03185650132811156 0.000969153095593562 0.00016669681236051174
0.0009118147009593875 -0.0004846593298767326 5.0694325010765154e-05 -0.03280100750709875 0.0012709891418264522 5.149599145413294e-05
0.0007190118447381439 -0.000331989581772411 9.642450069808374e-06 -0.03396051762222583 0.001494190816056171 0.0003274433674485462
0.0002484827090569493 -0.00024179253842869237 0.00015282511086339977 -0.035723394870314513 0.0016139937881288562 0.0010980332451070646
-0.0010711977275868665 0.0006010909045547589 0.00042476685018282386 -0.038267324505308904 0.0017700371854820973 0.0026767783945582753
-0.0018118587136212597 0.0022172350771074204 0.0008129812095507955 -0.043866615028901684 0.0022180979780443743 0.0055549302600692175
0.0041549044470365615 -0.006055994013903278 0.001516328723978149 -0.04581515528091016 0.0023554951700319976 0.010023054914916578
0.009846527389431658 -0.03464294239315283 0.0025163911938820044 6.35735717937084e-05 0.0002418285682675169 0.01367494403352135
0.0040574799458662275 -0.00605674744834246 0.0016066669348185827 0.045948325879187936 -0.0018503504875225399 0.010015578842348988
-0.002012272241256806 0.002219328792090688 0.0009909750603588803 0.04401891978729383 -0.0016498661281292922 0.005533807993323241
-0.0013842949708123974 0.0006136621823807761 0.0006826420101418356 0.03845541935016947 -0.0011015694431343473 0.0026269549455730443
-0.00018855136418080464 -0.00020579715254690877 0.0004726362593052383 0.03597117442944838 -0.0008165033143740968 0.0009896602527971208
0.00014813323123453675 -0.00025083142501940305 0.0003550415164925587 0.03430459428493943 -0.0005508766319656468 0.00010505604092346106
0.00019278966203957804 -0.0003208447993472104 0.0003556170943395059 0.033299969620830386 -0.00018045830326589093 -0.0003745594461260505
-0.0005420959512083751 8.139117083417419e-05 0.0005251876007129739 0.03261608007035451 0.00021775344380757465 -0.0006006776246424568
-0.0021332564457685736 0.001978774684337273 0.0009386761410412639 0.033174605362017356 0.00022724864802038382 -0.0003402251520441018
-0.00012298723361511873 -0.0002454604154383548 0.0014878926660150144 0.03323067925454883 -0.00032041037861883683 0.0021685211505143363
0.0027725095511254537 -0.022312217666517784 0.001704090856073002 0.024516713361756835 -0.0005089396688814577 0.01085840368569679
-0.00288007169313485 -0.012323110358458962 0.005752418588743083 -0.019223566444379385 0.0014626046638537946 0.007988593417745672
-0.007659004032114141 0.000656849855361451 0.004515708833313754 -0.028234107883566548 0.0026111842759271586 0.002452574438987344
-0.015848131071444265 0.006343153639687689 0.004093015590236817 -0.029783797593683197 0.0038261978887387496 0.0007329795843046651
-0.022585444957150157 0.008144803703790674 0.00423942949149648 -0.028336935119296285 0.003916998819522994 8.35148752056664e-05
-0.02969718608811024 0.010834598799670641 0.004727825592910606 -0.02869719235496103 0.0035300472789793844 -7.94846716347798e-05
-0.03740904181447057 0.013966525561246331 0.005329447540554315 -0.029787551470642326 0.0027596204812233853 0.00011282342842770031
-0.04527313670701245 0.01723368549895918 0.005882487836554561 -0.03126630811782399 0.0017405729576851804 0.0007336179272053073
-0.05421704046250156 0.020809303141648753 0.006294766898534569 -0.03319601102177108 0.0008107854716590481 0.0020072009907133505
-0.06412133022834156 0.027236472328328327 0.006546162435781095 -0.035866570431402844 0.0007085233699137747 0.004318515380662166
-0.0632661814942022 0.02445069397873215 0.006933748543696919 -0.04758724878686426 0.001484353135640852 0.00841610181158886
-0.05754093594065325 -0.026464674268786608 0.008296265672835064 5.628897665189705e-05 0.00032621676749154335 0.012632676696306262
-0.06337600666803546 0.024439877650764403 0.007057833675170055 0.04770513845805864 -0.0008068487932316622 0.008411603284489774
-0.06434530242176041 0.027217359518370975 0.006793027456215578 0.03600130481123835 4.176403039150501e-05 0.004304265579962715
-0.05456137042838127 0.020787185815380325 0.00665900685205353 0.03336214278369562 5.1728965929239355e-05 0.001970400701934288
-0.045740412684577424 0.0172172343216607 0.006348528692447324 0.03148473191337329 -0.0007433461157924093 0.0006485826828889974
-0.037991700867918386 0.01396968825754729 0.005861338454502602 0.03009243438115521 -0.0016349013287086565 -6.843948148510533e-05
-0.030364246343416335 0.010885202530218652 0.005254377564177454 0.029146540925601323 -0.002331360128845137 -0.0004423905397975262
-0.023222104903598675 0.008249357518200141 0.004636253229023676 0.029023061100530646 -0.0027852707877158837 -0.0005886712145211514
-0.0162055513309147 0.006348090783044929 0.004166048066158314 0.030616090430780174 -0.0030609489234918724 -0.00024175667723872266
-0.00763086537746525 0.0005046480775363569 0.004009755124473773 0.028602992129883754 -0.0025066327693722386 0.001932422668008482
-0.0026849846860790795 -0.011494092798077985 0.004481762634360307 0.019100034962288345 -0.0017429151105699675 0.009512099175420712
-0.007526868020455846 -0.005106928172676121 0.007923412006086686 -0.010386968197890308 0.0031015568376232742 0.004831450866114012
-0.014686894978051717 0.002160877433134376 0.006720505239527196 -0.016155111339032597 0.004996133378650565 0.0010669357064755519
-0.029700720489109714 0.010439809043376633 0.0070447873488756795 -0.017565792055893696 0.007040500538695068 0.00014351539389435104
-0.04511179864014497 0.016224545615235668 0.008067796249151542 -0.016474557056104126 0.006882272546934749 -0.0003794349777227533
-0.06023014419688872 0.022048622902048273 0.00935913993711995 -0.016518201825124777 0.005743504899288404 -0.0006522439503872461
-0.07541906896174055 0.028117119565884287 0.010587895029838049 -0.01718115870434608 0.0038971843565720737 -0.000759728708091863
-0.09082169315410335 0.034404595502623155 0.011529205758944939 -0.018105168120977146 0.0016175923796432367 -0.0006600395666080344
-0.10597335063789036 0.04118385747460831 0.012021919159721804 -0.018896888217998082 -0.0005525377181640153 -0.00020860784331238648
-0.12499124814662477 0.04789005120956861 0.012050482570003244 -0.02100883868054204 -0.0017004858980027438 0.00075579435670754
-0.1336411993017361 0.06323139833406227 0.01167505144609416 -0.028540009973191106 -0.00046653659516556996 0.0033491639307425317
-0.13068086619457306 -0.02063627050670633 0.013121322092024278 3.5170435103059475e-05 0.00041408011100989734 0.008122954018250805
-0.13376511971821733 0.06321089669528485 0.011834037684790391 0.028613571281436476 0.0013241388469458727 0.0033530227922794866
-0.12524247649823303 0.04785049815691867 0.012368769895020483 0.02109256706961873 0.002643137971926553 0.0007609859202313712
-0.10635529347895414 0.04112826153375206 0.01249700125385693 0.018999396344207577 0.0016245161229990351 -0.00020847729754671143
-0.09132998778886002 0.03433747050634513 0.012148827547187031 0.01823875720509367 -0.00039622330511381905 -0.0006782795229368124
-0.07602695514054005 0.0280452746247131 0.011317994041265326 0.01736573453934858 -0.002552084962572737 -0.0008228413960319762
-0.06086169815701829 0.02197997561256205 0.0101251294283397 0.01679125593385565 -0.004380493432577537 -0.0008126223026757938
-0.04561547016469984 0.016145769541566626 0.008731075452479328 0.01687378120074598 -0.0057321730910367685 -0.0007167804368536273
-0.029904819951888775 0.010296298615035285 0.007389077293199012 0.017972762080757706 -0.006434918817932126 -0.00035439502665921354
-0.014594607557712032 0.002056331045637534 0.006491945108386117 0.01624468616715969 -0.0050316795702524285 0.0008034254725564931
-0.0073253399843188766 -0.004633630277079677 0.007009777452112672 0.010203063000321302 -0.0034362889479497196 0.005683081011098251
-0.010019968649317583 -0.0026846944185192115 0.009590001054494165 -0.004048922876412373 0.005976029144924081 0.002479799240290851
-0.020328004504515055 0.003037111723127864 0.008783820816102995 -0.006467667723210063 0.00823485734352718 0.00011306315583775204
-0.04341899215641786 0.012430742454498994 0.009974196537384567 -0.006702716979426766 0.010524179133161414 -0.00030098736441206504
-0.06781168578387457 0.020225144878028033 0.011911187599902699 -0.006454922687470498 0.009829887063670422 -0.000738455086716329
-0.09065503011230092 0.02759335445689814 0.014022415288547316 -0.006545346643025823 0.007766765230262562 -0.0011120724836159613
-0.11319929293993299 0.03513922800762083 0.01587310136058174 -0.006892973935500043 0.004673742418342686 -0.0014794375636535844
-0.13597695135771506 0.042800016712737296 0.017164997536277243 -0.007238908583131216 0.0009119418398988111 -0.0018082363420633112
-0.15850224187813716 0.05169431953702266 0.017692931967897625 -0.008007632831392228 -0.0028030578002158626 -0.0020515905610590923
-0.17868210187327152 0.05636102216894594 0.017320479884374733 -0.00847068063569637 -0.005212333561570425 -0.0019395026468453712
-0.20633901566863425 0.08517465776718615 0.015960822856627466 -0.018656007771522355 -0.004977937096902188 -0.001200006831769445
-0.22490928993518622 -0.017606007150208196 0.015349825363051536 1.8291500703406232e-05 0.000506687389229822 0.005690937855392415
-0.2064796952023464 0.08514945790085589 0.016156302982267525 0.018694477778359787 0.0060264406889904846 -0.0011916357007199976
-0.17896637851709668 0.056311549114575254 0.01771375697954077 0.008515028570789913 0.006362524149328578 -0.0019234139097579089
-0.15893191018202868 0.05162241936433589 0.018285261119606946 0.008062660832612152 0.004108439252245064 -0.0020296785654577037
-0.13654308870597626 0.04270832963481 0.01794901520580472 0.007310945356247502 0.0005734684109497102 -0.0017849914268251777
-0.11386058905626635 0.035030699624548585 0.01681935201857011 0.006990987429139136 -0.0030404445880205903 -0.0014652731634128661
-0.09129598435228416 0.02746567184554196 0.015057445464453499 0.006684641092704927 -0.0061283244433428955 -0.001130586533093051
-0.06822243561097742 0.020058059010259956 0.012887142325284484 0.006648568633752558 -0.008513254656175548 -0.0008301902071133065
-0.043443247746730446 0.012213111940477635 0.01064799308373498 0.006904382312804312 -0.010008104495312588 -0.000460565565841964
-0.02009938502555698 0.0029296208805554107 0.008859930828811912 0.0065431937064760765 -0.008600967360143666 3.722241831372931e-05
-0.009746413541263807 -0.0023784777713458274 0.00896077001889387 0.003992915380862472 -0.006720050464920371 0.0029898191756809406
0.027805801606529443 -0.07109048414638482 -2.791820594150174e-18 -0.032190844453217696 -0.017173577797191177 -0.006075026611610275
0.03524864257710334 0.0035582454109877224 -0.004411390574940639 -0.014390610993018332 -0.0185305571595008 0.001904103984318956
0.05156201752200895 -0.015786157764995562 -0.009991334242832772 -0.00514267089963524 -0.017381121167983273 -0.00047573240119255246
0.07192434582464517 -0.0197584063043148 -0.014213767605450442 -0.005589919840955892 -0.015444717474749558 0.00032538765209486406
0.09532979603171192 -0.027154849004658414 -0.018332182224193326 -0.005551646044873582 -0.01178797253136173 3.33927409811605e-05
0.11896264080955932 -0.03406008762104054 -0.02207250112017932 -0.005693504661715764 -0.00705072053183976 -2.27158228718847e-05
0.14208942094637145 -0.04106112778408997 -0.02529905082200988 -0.005825275237179496 -0.0010962665878452864 -0.00010659736043317573
0.16460078645374576 -0.04800706061875061 -0.027775229635857955 -0.0061353753600652495 0.005480644203716645 -8.447052086612959e-06
0.18644867263357012 -0.05512421028917251 -0.029220272773085875 -0.006446602694964627 0.010598024000447076 0.00069175982009672
0.20544739220896868 -0.06241234633297343 -0.029543385886754484 -0.005190764958376221 0.009683709825963867 0.0026572531358819854
0.21371441117129272 -0.06695351594291488 -0.029375056861813836 1.7473064316577726e-05 -9.167786618687704e-05 0.0047157217450423785
0.20549876868256228 -0.06242500137428511 -0.02956973557099372 0.0052254385268606166 -0.009856753725650074 0.0026693493265882275
0.18655901140307174 -0.05515036836815337 -0.029278424190341865 0.006479995741224094 -0.010738593100299676 0.0007155245231992712
0.16478818951872337 -0.04804888550699448 -0.027877401479000488 0.006164833409413515 -0.005561269191045773 2.468128649227904e-05
0.1423900748802013 -0.0411233145071442 -0.02546682317022204 0.005845881659572834 0.0011179599514090106 -6.718525710146817e-05
0.11944325403107506 -0.03415291645846035 -0.022343249413192268 0.005694633999452366 0.007239085959243118 2.081871467944814e-06
0.09611656492801936 -0.027298666091285468 -0.018761754482454367 0.005529763996117654 0.012286960080846414 6.82401089677049e-05
0.07321293023452896 -0.01998862376141925 -0.014916824209065854 0.005482792783909734 0.016304426168337195 0.00012620029320272475
0.05393579052830092 -0.016239280420845215 -0.010986758880222826 0.004943889939364591 0.019626537076069313 9.394019310285243e-05
0.040570318901885 0.002584602862899475 -0.006232588308596923 0.014269943687175646 0.01658291213221506 -0.0022461833655078377
0.03529721678996761 -0.07231612300501603 0.0026616602183493236 0.019020862047744082 0.014009468676657005 0.01119198892174596
0.016644969189687123 -0.06258605142251446 0.0033156260957802877 -0.020657733630853676 -0.0028922694927363195 0.0005692644411924349
0.018485881841572523 0.0020182129159819987 -0.0023299603558076367 -0.01794669185978713 -0.006231306533741781 0.0017304908855849841
0.030458392070621777 -0.010821716021279756 -0.006337655568060059 -0.014129883550292358 -0.010601019249830904 -0.00011361631781192609
0.04806113039980713 -0.015892235798215013 -0.00966943368017597 -0.014671568506370802 -0.008889758750277588 0.00015302451073804596
0.06347845538041642 -0.02152301553516419 -0.012582993650348132 -0.0151091740357623 -0.006624453955833575 -2.405430475853172e-05
0.07923310560562796 -0.027072509104983412 -0.015224105546534247 -0.01519234026048886 -0.0036100582249513464 -2.948788295577628e-05
0.09461944511409026 -0.03260886381097233 -0.017466290424941626 -0.015323089610382847 -7.104308325962323e-06 0.00014499133959907802
0.109454337084435 -0.03802807676914566 -0.019177894860838676 -0.01573209354171748 0.0038631637487757603 0.0008325092047095845
0.12352537605488634 -0.04355972254376023 -0.020197398485400215 -0.016310621772423956 0.006859844077410069 0.00282619446031072
0.13546223663889298 -0.05009940293877452 -0.020478908415524757 -0.013382893450750374 0.006322153158496974 0.007176137020055955
0.14059727597731236 -0.05587780010333796 -0.020397672017799698 2.5293769549648143e-05 3.532065598898339e-05 0.011508426182364624
0.13551261445531446 -0.050114943057347365 -0.020489416568113854 0.01343270372800771 -0.006235437171663604 0.007178740973655832
0.12363292076887308 -0.04359154011425401 -0.02022359831519958 0.016357096235793105 -0.006724327535531973 0.002828520080081571
0.10963485250679528 -0.03807792369984653 -0.019231472935002415 0.015769345324092375 -0.0036434417130890586 0.0008271332268678181
0.09490307081501209 -0.032680341098467375 -0.017568655549366267 0.015339144741922328 0.00035160171822953184 0.00011703875414530686
0.07967657462644892 -0.027173904485407657 -0.015410639834146306 0.01516596288749584 0.004137600012175458 -0.00011075863445645199
0.06418000592451768 -0.021671282516527998 -0.012915582760428394 0.015011750207104064 0.007398910496280108 -0.00019382478423689194
0.04923033140494837 -0.0161145053891329 -0.010225789525273154 0.014426720419805587 0.010092798601917585 -0.00023144493270105184
0.032492366858028254 -0.011263135944060648 -0.007289308572245905 0.013504323248283491 0.012115633976018416 -0.00045930196301938403
0.02052333202153898 0.0017653826289673004 -0.003388207612668032 0.016454407929024337 0.006633097942393448 -0.0012598588482124595
0.018129206053559343 -0.0631596659865397 0.0033837329270345637 0.012262030054075416 0.0019836591739491095 0.011806338358636977
0.009228062575885987 -0.04520528756557306 0.004695585231643104 -0.027264735019932575 0.0004586123354069631 0.01138647588237483
0.008156850112946748 -0.0005961812097499722 0.0002518870630238795 -0.031167314841857717 -0.0014244031383007798 0.0017112739083772236
0.012840035038292954 -0.0027995168393781453 -0.002645237654864567 -0.02577450267795456 -0.004277770350145551 0.0005217824794076257
0.023177734069440414 -0.007782184744371471 -0.0046664813592147796 -0.026506125512394157 -0.003633289587378714 -7.238776458568828e-06
0.03167356353638177 -0.010608464976354624 -0.006278355064080289 -0.02679339370397613 -0.0023027203551507507 5.655520183026224e-06
0.03949766042303973 -0.013361351125408651 -0.007655297175359706 -0.026898171810329295 -0.0007769642286585234 0.0001729604959882349
0.047122296306794154 -0.016073248549584213 -0.008789101184998885 -0.026962599528734685 0.000986468190413295 0.0007611742268178142
0.05419508651165936 -0.01848151306961617 -0.009621157659611709 -0.02725555018258001 0.0029890670048636206 0.002233641269393068
0.060993420939501164 -0.020851960067027484 -0.010091693818411301 -0.02820271621170505 0.005183185874407085 0.005692218612958066
0.06834098734347104 -0.026562359546706393 -0.010144070104476677 -0.0243933627999467 0.005760392932289849 0.01288396998676725
0.07226179325732461 -0.03673264863675693 -0.009960355149707044 3.710128979348104e-05 0.00014796873275126275 0.0212015750673114
0.068389634887806 -0.02658352969061476 -0.010138266575111727 0.024466134354631162 -0.005443814606405115 0.01287794216168294
0.061095968844630276 -0.02089472704541515 -0.01008458851455355 0.028269514718937672 -0.004805161326484254 0.005674892637287899
0.054363262651126065 -0.018546610709902073 -0.009623141977445347 0.02730630004506966 -0.0025105255702742046 0.0021922003023509854
0.04737814373917283 -0.016161801160408336 -0.008819327657898331 0.026976549051461414 -0.000371133636771943 0.0006691176594376797
0.03988190454204442 -0.01347732481886493 -0.007747111222135627 0.0268386714617837 0.0015608882445921934 -1.564320185667917e-05
0.032263736568160506 -0.010759833355184148 -0.006485687111019522 0.026601964855895395 0.0032880737870072774 -0.00036786223220343296
0.024133810018318762 -0.007996261951766599 -0.005076280076234476 0.026070361574593783 0.004856598503409172 -0.0006278452247522151
0.014060297698448566 -0.003053633634818233 -0.0033533980112304797 0.024755104129451748 0.005515621199652801 -0.000725496600879066
0.009056397650544105 -1.2212780134787551e-05 -0.0005743231127290703 0.029107227539005895 0.0016772061792727697 0.0005409893883086879
0.009780081987493592 -0.04519573160782005 0.004230366701346633 0.02490277809103099 -0.0010249358172906835 0.015956306268343202
0.003127971508314777 -0.028508862401317607 0.005457794403633763 -0.025779339787539424 0.001480669381406692 0.012484124265851047
-0.00014729267057599196 -0.0015833744715867903 0.002643534899753874 -0.03424160157883184 0.001413993893842839 0.0030696081659821023
-0.002628922974360946 0.0024090365138685105 0.001074039932025296 -0.03255808756801097 0.0008846362124280067 0.0007744907545150259
-0.0010878652973184543 0.00045733907172997544 0.0004749059871941201 -0.030753746626060077 0.001236658762909921 0.0001915920555239644
-0.00027765626649681554 -4.42724619539796e-05 0.00026038878609544337 -0.03074937488725485 0.0016611469556660882 0.0001641777022583445
-0.00022146646204245204 1.073400068887403e-06 0.0002023657243266783 -0.030817688300335867 0.0018851943561502672 0.0004866538537468398
-0.0003087370991500717 -1.6846725660920724e-05 0.00023446181451605748 -0.030890008358728228 0.00203966276894892 0.0012672583862651083
-0.0009026824241481412 0.0003750659540788411 0.0003351775294552767 -0.030677151451648406 0.00243615216434897 0.002938314590232086
-0.0012848623141030677 0.0013525394818165234 0.0004556708219075162 -0.03165871700053968 0.004128157997267081 0.0065256774155682895
0.002472132813023495 -0.0036684548950617507 0.0006346125237924975 -0.030986585791563628 0.006381125102249951 0.01436406048820733
0.006109458238267262 -0.02295294926898375 0.0009712159062669679 4.034295742768549e-05 0.0002548998419790685 0.027221227763325435
0.0025186355718759415 -0.003695117196736183 0.0006570604415068582 0.031065664001844073 -0.005846496810750829 0.014355528680388864
-0.0011885467994855424 0.0012992266028381697 0.0004969455902005304 0.031731085616632855 -0.003520833802772631 0.006502577662389384
-0.0007496415974283585 0.00029565693913250775 0.00038670700378264436 0.030731466852050495 -0.001714490314436648 0.002885854432657505
-8.685564559763798e-05 -0.00012066126657855886 0.00027983572467903665 0.030902673056874178 -0.0011752535382291932 0.0011560137749725505
9.187908821979004e-05 -0.00012493505416408043 0.00021257989037135467 0.03074471161594263 -0.0008722458157785123 0.00026057496767900796
0.00017935097263794888 -0.00019382500633664058 0.0001864171313628892 0.030516204493087562 -0.000524053089355729 -0.00026789387658929166
-0.00044439002662291266 0.00027768796580633165 0.0002398094648574199 0.030230667450166348 -4.851509287777208e-05 -0.0005904751315452254
-0.001973648405833365 0.002406813833521702 0.000608065226326944 0.03150881994912418 4.220638535454738e-05 -0.0004881913689587576
0.0002730509165393785 -0.000961908362943805 0.0020221903102850846 0.033141789715980835 -0.0013364894790472075 0.0023079988769422553
0.003397588902974283 -0.028591035711881086 0.004931447494221812 0.02501462322012166 -0.0019380623143676911 0.015215835505116985
-0.0024064426228852147 -0.014797767307872309 0.006158641102067094 -0.019518567490538995 0.0024978272580633704 0.010797288714286283
-0.007742515028329816 -0.000594572821109416 0.004835090395383572 -0.029007391610693677 0.004032899385718475 0.0031302142638808417
-0.017075476143058356 0.006455998966207266 0.004712378374533711 -0.02998646657855861 0.005699405855234001 0.0008041798788897129
-0.02468617448344521 0.008280816642840822 0.005582681162983351 -0.027259734901553034 0.006090698819985948 9.853444362724861e-05
-0.03219929610688611 0.010616472663682711 0.006789878630850175 -0.026695599835754008 0.00566903323530212 -3.556934147272253e-05
-0.040016474024117676 0.01336370844108841 0.00805424752739144 -0.026835591956720712 0.004582644087287888 0.00017720262263217558
-0.04768048384389225 0.016119948698438465 0.009255929239089942 -0.026899706754467914 0.003157532574071257 0.0008273957176573107
-0.05560542923226159 0.018821441375284527 0.010299133703310807 -0.026659377360143725 0.001760096767730439 0.002019440502695528
-0.06364216852919154 0.023296901712849306 0.01100284459998612 -0.026212123774810015 0.0021980584112112895 0.00456396405954849
-0.06376335671209565 0.022119180806872606 0.011201229964758827 -0.03313916551570583 0.006791395797689721 0.010498746698784972
-0.06001558922017002 -0.013736269215946218 0.011530674750370572 3.7988420231577214e-05 0.00036411519091668365 0.028470988776032786
-0.06371891429957394 0.022086845202051328 0.011240532943769066 0.033213941264530485 -0.00603378197823916 0.010493994622429566
-0.063551972547798 0.02323270945112495 0.011078801188288117 0.026281630304484386 -0.0013553587505315302 0.004549198424938404
-0.055467475582522394 0.01872720501372389 0.010405122390183106 0.026714044360926927 -0.000787405241884898 0.001981820765368918
-0.047493012512801885 0.016000395650702718 0.00937855997543515 0.02691892776470282 -0.00203333344605361 0.0007409347406846652
-0.03977554818406771 0.013227725077339639 0.008168778510564842 0.02677856876112766 -0.003328667301930998 -7.613668074374423e-06
-0.03189529942894722 0.010472601614038164 0.006853303346433401 0.026489026833713528 -0.004372643906138264 -0.0004093038188272636
-0.02433817209179317 0.008165051352935243 0.005528695589529053 0.02678344003182329 -0.0049351157131810874 -0.0006003385956636321
-0.016792878966611986 0.006542195438633094 0.004473177808213449 0.0292498408437331 -0.005010993063227521 -0.00021947723103978996
-0.007570975277273495 -0.00015906618078461978 0.004420317678383093 0.028535042153837065 -0.0040582364862082 0.0026061976418166057
-0.002271272609361331 -0.014872050704613017 0.005703935051662817 0.019342195635660055 -0.0028747816064062124 0.012608904198430979
-0.007081355815930708 -0.005875844616429801 0.00714469985546667 -0.010207245015504714 0.004476376676555923 0.0070088937157727115
-0.014768184737559588 0.0014613316884240276 0.006920892994855518 -0.01621751222016306 0.007461803137209744 0.0021303391156371624
-0.031136597463400154 0.010332795199918315 0.008186586419046241 -0.01729854185418072 0.011019044887522084 0.0007342972986501916
-0.048007625254832646 0.01613001359630396 0.010489862062833104 -0.015508964098386667 0.011435772236612685 0.0001161415552266829
-0.06412437217199897 0.02160738678261862 0.0130680655900229 -0.015002429699999237 0.010090646821057493 -5.366850944370664e-05
-0.07983472270526208 0.027144399520579825 0.015600838842289565 -0.015122292977683787 0.007551850781888052 -3.01922099663547e-05
-0.09524756815718236 0.032661894401039775 0.01792867389922164 -0.015262782862760504 0.004265156279874281 0.0001900135677880556
-0.10968956432969992 0.03821569107142924 0.019873822500703547 -0.014979438707403429 0.0009167798152401571 0.0007693341886982111
-0.1255301469215281 0.043140921049849054 0.021159696502149564 -0.015452186999955474 -0.0020533465316044516 0.0012066569979473842
-0.13204438616613887 0.054729336400671874 0.02096301351564068 -0.020930326963131674 0.004285708298927405 0.003923663347119118
-0.12951950559818176 -0.006456274198773489 0.0204344667556681 2.634565228956144e-05 0.00048365341578100366 0.020958249635194787
-0.13200146972567384 0.05469091066938336 0.021019238489103174 0.020982548597114608 -0.0032832776068005545 0.003928289072705226
-0.12544475160472926 0.04306491990948259 0.02127043550056791 0.015501997211681523 0.0031569392850368237 0.001213037299211742
-0.10956399722324371 0.03810495877849252 0.02003429202139112 0.015021582560999449 0.0003391675097046935 0.0007702408753978919
-0.09508885796893121 0.032523770810581984 0.01812814361921044 0.01528519789311715 -0.0028384064555267464 0.00017049010148622435
-0.07965878436290547 0.0269935121154111 0.01581806665738694 0.01510048162858544 -0.005999160177780019 -0.00010023982485630152
-0.06396334700019536 0.021470075978750607 0.013265124032314083 0.014888012124420334 -0.008563703800249836 -0.000234260506201115
-0.04791413945884818 0.01606335469322952 0.010606773691830823 0.015239731063411695 -0.010228704549837413 -0.0002644512384529317
-0.03114211937047494 0.01043762580661054 0.008150004671608223 0.016935876633122512 -0.01049694093949615 0.0001755181753527832
-0.014788707208953237 0.001723125040025822 0.00669821923334938 0.016057246033591273 -0.007627460928283832 0.0018569985718144121
-0.007067274017059958 -0.00586817697327833 0.006802942306434498 0.010170270041313859 -0.004903473551998514 0.008045679095280176
-0.009514069451042629 -0.002844922987248175 0.008669195342043025 -0.0039095551289730305 0.00855804119612714 0.004542429496973613
-0.02038131041789031 0.002615602916369502 0.009005971565707998 -0.0063464128482033574 0.012853009070212416 0.0014810134608608167
-0.04518144632055291 0.012313424896351479 0.011386753150016036 -0.0062326793142479 0.017887184372252663 0.0007970621531427555
-0.07168858018877493 0.02015137624701396 0.014949476293039861 -0.0056514653103855485 0.018034835789125257 0.0003301866072520065
-0.09611756054691266 0.027219031201003163 0.018743647671591628 -0.005525595682831568 0.015506095585107323 0.00016428895037578519
-0.11964556826208039 0.034201300621011684 0.022410799206094296 -0.00565421004371687 0.011163631772949571 5.327658982735048e-05
-0.14277283260010576 0.04104009521519456 0.02574842953461164 -0.0057262356128086654 0.005616507007757804 -3.0316703645819304e-05
-0.16478956922727875 0.048452564520138706 0.028509028445890195 -0.005985853971234616 -0.0005185407116409972 -1.525673498909677e-05
-0.18295299505599943 0.05210180297333959 0.030321260929311 -0.006162512160540078 -0.006834686963288574 -0.00011153177519877247
-0.2020481157845593 0.07322166094631222 0.02969272990160004 -0.014938389238367608 -0.010196273323943334 -0.0024157560906668415
-0.2135319730440984 -0.00268269549386911 0.024793174383155488 1.2647140850534106e-05 0.0006222623952462638 0.022285032710258144
-0.202006094399462 0.07318007118201166 0.029765720429271152 0.014963715907645801 0.011483739293603192 -0.00240707926431478
-0.18287056547836522 0.0520196163528673 0.030466299642848752 0.006187540738540087 0.008245913127842572 -9.566873670025379e-05
-0.16467187500941352 0.04833308093490786 0.028722718255341173 0.006008827606862145 0.002116345809130267 4.027674501642237e-06
-0.14263273637500096 0.040891662417627594 0.026021704547637907 0.005742522172022998 -0.0038093857565569093 -1.53525574805622e-05
-0.11951330082402789 0.0340414610931897 0.022723886336860007 0.005653980511875769 -0.009204395733936827 4.81063148646095e-05
-0.09605945404060559 0.02708306648534937 0.019059476239508166 0.005488071694054388 -0.013599261822515982 0.00010706955022063089
-0.07180424421306623 0.020104119498887886 0.015207146493634983 0.005548865064939731 -0.016599726208802793 0.00017231719023657797
-0.045483003121547995 0.012424764205358683 0.011504819812624524 0.006082918091577027 -0.017459983150217042 0.0005565742837314447
-0.02064791976009076 0.0028111536710379585 0.008934652619321496 0.006271325243713984 -0.01339308303807452 0.001374268660632175
-0.009673953555867485 -0.0027860697135159464 0.008459783571818199 0.003848282816973495 -0.009446923623963058 0.005169687892692943
0.029726003511225153 -0.11047104252914378 1.2414114874959026e-17 -0.0625834014153367 -0.025801044262426093 0.03251237107282003
0.03579111600093297 0.011483682611672824 -0.00414118390331278 -0.027800767874311474 -0.026855829581340113 0.001105653817855296
0.04987328390900921 -0.015575619018682018 -0.01092209806063068 -0.013106035468221693 -0.026236280802196206 0.009120227855586504
0.0701359472381898 -0.018297198106535892 -0.015355504827406564 -0.013515225786871952 -0.02334456272670516 0.009895793877809764
0.09520487509358178 -0.026318298344014404 -0.020309846650097777 -0.012737730906747098 -0.020861584673223802 0.01359119918976141
0.12062856541786138 -0.03335300140788283 -0.025077770713350538 -0.011557198880946935 -0.01638557522547172 0.016759670156400362
0.1454263395790675 -0.040455973642185325 -0.029562924532272408 -0.009653849288643847 -0.010219872719847528 0.02001541643437409
0.16874409795933695 -0.04727048569417686 -0.033487727576779466 -0.007037115960263653 -0.002490964460988683 0.023214604647970122
0.18830922855772192 -0.053188159281972805 -0.03645102054231476 -0.00366262433142812 0.005043059364651444 0.02651253528805276
0.20076364288147527 -0.05663006981799421 -0.03808528533388978 -0.0006805355007511033 0.007179933407646229 0.030056038848754425
0.20480966914509954 -0.056825553404953245 -0.03853526136160146 -8.335366891318741e-05 -0.000172592717875186 0.032473003062858136
0.2009162937260925 -0.05667870310393061 -0.03812124740573019 0.0005095003699644427 -0.007522087348337969 0.030064423207162218
0.18864388373497398 -0.0532945122217539 -0.03652861305039133 0.003478611196614952 -0.005375199037259029 0.026529154916852524
0.169323359550751 -0.04745372417235759 -0.033619545558268495 0.006831168703973239 0.0021796556790477503 0.023239885843041267
0.14635441593504028 -0.04074660382700299 -0.029770297135755238 0.009417720115315545 0.009945386596297871 0.020045942095927412
0.12205890983586691 -0.033797486547261994 -0.025399622763222267 0.011279258651190602 0.016183159110046478 0.016807648328618353
0.09735435057691483 -0.026970051074433704 -0.020793671021821145 0.012419167938414733 0.02073211367035143 0.01359579353274128
0.07329582465210364 -0.019233434573384726 -0.016162250783837488 0.013064223095196276 0.023493902326248928 0.010149122403843018
0.054978477293442116 -0.01691929528907294 -0.011888927345791531 0.012559942118527685 0.02582547403852571 0.008279031034471564
0.04677909190822764 0.009616933244028682 -0.007097813208319101 0.028845350937882406 0.0345327400067939 0.006082292046956967
0.04523864718074849 -0.11658086265035784 0.009304936518626409 0.03761829008992628 0.045232760904497155 0.012610157626730295
0.01825909121392129 -0.09590306125093721 0.007717479536886053 -0.04016967554683633 -0.021317227862831745 0.018689441861195394
0.01648963499173529 0.007668834078700547 -0.002708297989851744 -0.03328406643539566 -0.017849560863842446 0.0056057958219797085
0.026327519374768838 -0.0095537068050922 -0.007063369888405717 -0.02769316871074682 -0.016195234438022954 0.00982693528301441
0.045726368408681536 -0.014675327510028481 -0.01092074056076229 -0.028048273460760838 -0.014319355703817597 0.012743331922677218
0.06208980320335802 -0.02070676002160205 -0.014455049868748253 -0.027417355673806716 -0.012426316941810487 0.016906687032390486
0.07903140353356938 -0.02645081168585536 -0.01795638673172862 -0.025183256033386496 -0.009792128295321964 0.021058307635693944
0.09549342720202703 -0.03211646468781694 -0.02119784762217767 -0.021881048584835645 -0.006127146582438525 0.02523375530280367
0.11097154868340832 -0.037647168550000734 -0.024022708430739084 -0.017064334981317653 -0.0016035585853616007 0.029543171434090174
0.12402119126987261 -0.04243763343722332 -0.026170611602942193 -0.010079850093719095 0.002851683971107216 0.034448618430867155
0.13242912056762687 -0.04452678820425007 -0.027460591429750065 -0.0026530036067616875 0.004252840802011751 0.040602244811417075
0.13521165731601742 -0.04290603607029143 -0.02794641691328346 -0.0001486166411928001 -4.1343290604897406e-05 0.04537504250161368
0.13258961367356872 -0.0445773886797201 -0.02749006629068725 0.0023463058334883984 -0.004327295387299 0.040603124631137015
0.1243690388295284 -0.04254739587457589 -0.026235342718212328 0.009744283531611523 -0.0029011729911025503 0.03444925423382055
0.1115627547236435 -0.037833764480584155 -0.024135199130623782 0.016678917733258955 0.0015960171083922714 0.029541178049241067
0.09641755545494042 -0.03240771480646419 -0.021380412548292028 0.021422402676190916 0.006180542972592853 0.025224202579548646
0.08041838272608348 -0.026887930109886042 -0.01824274160803112 0.024625288543803896 0.009919026738355523 0.021037404219995982
0.06411040615295785 -0.021340555476131166 -0.014910921937391769 0.02673283336040495 0.012658825936611183 0.01685228012995498
0.04864576803770103 -0.015555265237381682 -0.011598342798576255 0.02712418598518499 0.014556350912233187 0.012732237397063374
0.030517141189510835 -0.010770761248914027 -0.008259003383661126 0.026266911924343564 0.016865274287197758 0.00944429991763324
0.020272230211599254 0.0071841263306755155 -0.0038020919579975425 0.03139384496774542 0.020411978226130393 0.008040669643036062
0.020899079915350567 -0.10060888033129588 0.009588570259623227 0.025137005404460754 0.02524052664922599 0.007591006421097481
0.009415149317513692 -0.06673025765995773 0.008438747565889224 -0.04716169846948594 -0.012980604626139931 0.006189928741638623
0.005528970585568374 0.001600281480755891 0.00040439460237587924 -0.05406424771633357 -0.010158680145977775 0.008712131410998367
0.0081810002480225 -0.0002983252282329559 -0.003049678777749237 -0.047156690756581375 -0.008005369793136853 0.011219535360166058
0.020000032918181688 -0.006618708141899202 -0.005292687939210394 -0.04796024349562413 -0.0064920517637077945 0.01625296436608144
0.0296473485419362 -0.009815746265561594 -0.007236896797661689 -0.04633137429993602 -0.005309576159084784 0.021449861051015567
0.038357273180970396 -0.012816071405112301 -0.00907923070333777 -0.04276608132572332 -0.004018149306098705 0.026908976900036845
0.046938026402440124 -0.0157214832988439 -0.010782986321444492 -0.03746466030552704 -0.0022852853216167104 0.03241790883674799
0.055224170657501605 -0.01876859185384094 -0.012254840540758462 -0.029760303780692776 2.2224257949822658e-05 0.03822889214231688
0.062299821766345194 -0.0214964772558462 -0.01341048873880127 -0.017872897248637238 0.0029554252954554837 0.04507152486485254
0.06593300715604994 -0.02053626166561666 -0.014262836301937169 -0.0038575083706931315 0.004517442219103479 0.05441395970865766
0.0665785827983585 -0.013602067704664902 -0.014815789346668684 -0.000237491131894215 6.35421486436221e-05 0.06321020335344767
0.06609582227186267 -0.020590006420936023 -0.014285042856954536 0.0033667694638403064 -0.0043778113067942685 0.05440905696223489
0.0626493729088141 -0.021611529983381915 -0.013460155416419175 0.017333958424923194 -0.0027787825602284427 0.04506025095052625
0.055808746284616954 -0.018959920048098506 -0.012343403190919236 0.029137624072659258 0.00021376478073066162 0.0382077058435845
0.047831658845165256 -0.016011509347393656 -0.010929717759118733 0.03671711898471227 0.002597082246363528 0.032381075447099686
0.03966112847954382 -0.013237487834827828 -0.009315572618949242 0.041845246851722105 0.004412051593037317 0.026843675681358245
0.031487353686867316 -0.010406390986460555 -0.007609151969283166 0.04517681958108903 0.00576548296690073 0.02135415121143186
0.022502789999585552 -0.007406406573924459 -0.005880586910469384 0.04641780173586274 0.006961977866513512 0.016062414947396415
0.01078299888922906 -0.001001871737273548 -0.003951298007153485 0.04491526938074694 0.00865719168696969 0.011261656048277871
0.007267307581640852 0.0025377942376954765 -0.00038384853017361855 0.05107634786446108 0.011124107453193555 0.008845910565359823
0.010551020739173491 -0.06960301446054812 0.008834352548068691 0.04457848489450539 0.014243727324634348 0.005916015542378127
0.002530126870193392 -0.0400143397862906 0.007536419796654875 -0.04361269154043397 -0.005855678382440299 0.002182841801953183
-0.002885151247858561 -0.0008483147683474802 0.0029311657546885047 -0.05717444474539357 -0.003317677742756681 0.0075659744787680535
-0.007245482474579176 0.005059229850733522 0.0010854635917680472 -0.057403853524851584 -0.0005233114492121799 0.011600408517240696
-0.004737207455975939 0.0019486305498584325 0.0006187378497329507 -0.054801705020739215 0.0008698490765226647 0.01709056502499733
-0.0027473933404150103 0.0008276605768174671 0.0004467868582778071 -0.052548776292119646 0.0012819206234697005 0.022767300467545548
-0.0018539496809436013 0.0005817621059706823 0.0003462373431958305 -0.048476039820016935 0.0013942943021142465 0.028554778024742093
-0.0010256733885775837 0.00034426000668605084 0.0002789299937024074 -0.04255706459166311 0.0014962493817048143 0.03447034528951967
0.00034390746303056795 -0.0002432239029489518 0.0002349931273180868 -0.03423576429334516 0.001885358461611768 0.04063210499431833
0.0018788232505668329 -0.0013807415203592988 0.00012717258092022788 -0.02062127913780534 0.0036498811543534625 0.04769933853166583
0.000431205438430829 0.0025106910429781703 -0.000310496774189667 -0.0012775064392062819 0.005933268401302183 0.05784106115940581
-0.0016136826816642584 0.019356381915220863 -0.00114075167744603 -0.0002666480151953545 0.00015779978050564907 0.07091034072684302
0.0005939859616607055 0.0024548285926873302 -0.00032501880025576795 0.0007260365933262531 -0.005601085668038156 0.05783436874959492
0.0022250792594605898 -0.0014991387155610437 9.364306514989305e-05 0.020014220315200244 -0.003269330276817627 0.047684281872564516
0.0009136828762077241 -0.00043673689691024514 0.00017289767046164674 0.03353221927824837 -0.0014297430081903562 0.0406048729823221
-0.0001757140236261015 5.818978737264543e-05 0.0001723743203439716 0.0417090015435821 -0.0009505036724859323 0.03442348203309023
-0.0006555575778464803 0.0001802123159803638 0.00017111898437985361 0.047423261315089116 -0.0007668144894113355 0.02847684516138626
-0.0011296385700516904 0.0002843758651707691 0.00016676956257247826 0.051208293809269265 -0.0006224639802806038 0.0226383287869076
-0.0028023148453836097 0.0012898309781209966 0.000177602878518685 0.05304931088525268 -0.00025611913775548434 0.01691178054040284
-0.005608010671861108 0.004872258015858517 0.0004576406816010135 0.055192679289293056 0.0010303213195950467 0.011502117858440157
-0.0019468600230350855 -4.865876848480621e-05 0.0023587062113502 0.055872175466156575 0.003743149950436409 0.007777905177490065
0.0031567402278746964 -0.0420123464323859 0.0075725270530043725 0.04319622803713587 0.00638454117188302 0.003421298137078977
-0.003550053386496439 -0.01917178314929574 0.006588960844122297 -0.033145878219051246 8.596481548051586e-05 0.0017235703306206851
-0.010525247271659901 1.7322171786746457e-05 0.004935806807474997 -0.04808084944247786 0.003108258490104824 0.005870558783847252
-0.021518570623189272 0.008983288825007936 0.005082997513639437 -0.052820026714620494 0.0070514836123510395 0.010724531034592043
-0.028578831452094403 0.009916173091491547 0.006486682476562762 -0.049228354040799394 0.008364423873679777 0.016101039126011043
-0.03509526991040675 0.011603643738360484 0.008129282821936383 -0.04637480737311157 0.007964192278521746 0.021499878272227005
-0.042100107900871785 0.013999022921866382 0.009768636345745508 -0.04273840538482275 0.006835943697727864 0.02691366059552373
-0.04902242086051214 0.01634171554460849 0.011337452136720242 -0.03752792268325909 0.00537997566271935 0.03247629261336168
-0.05479954864544 0.018574289388420824 0.012739416626742732 -0.030115036895983775 0.0036495127767708175 0.03806256737267258
-0.058354859323154366 0.01877478455263164 0.013705352210744284 -0.01914158876255097 0.003248516639667622 0.04402451288258933
-0.06485210264025423 0.02289506233500525 0.013573972122442685 0.0049205199874122856 0.006640168345450275 0.052278208370760165
-0.07013965069224057 0.05785250781429729 0.011898640190766412 -0.000240010560302427 0.000254147898575463 0.06932411041991632
-0.06468866090978671 0.022836973953854714 0.01356711490146727 -0.005417160764282773 -0.006110811858531016 0.052273759898086546
-0.058010574207336726 0.01865280225831288 0.013688005134986808 0.01859421442871953 -0.002658188413379699 0.04401422794055699
-0.05424273448834176 0.018378057562512498 0.012703957206178442 0.02947995645369765 -0.0029662474382717487 0.038043152457168716
-0.04821503692211085 0.01605898809785836 0.011271720306393356 0.03676195223544255 -0.004589815153212428 0.03244145875229128
-0.04101015656637881 0.013618781360792954 0.009655399597124494 0.041784010444816215 -0.0059612626573182234 0.02685241608125954
-0.033736281359286836 0.011118704008857056 0.007944943292123356 0.04515229112618024 -0.007087708818519896 0.02139756384470206
-0.027150033359896745 0.009428835311593662 0.0062015128103440524 0.04766573549510144 -0.007641011420005868 0.01596230037428864
-0.020472660867677964 0.008939139190071718 0.004690613152161057 0.05130554199672803 -0.006646927782641268 0.010631198424075703
-0.009996888055597569 0.0004816504085919224 0.004565012920834833 0.047722149447482654 -0.002943266626078782 0.006130835331976881
-0.003207919662316356 -0.02032131759760775 0.00652931688195673 0.03338283302394589 9.308559640201688e-05 0.0028817904963762903
-0.008344438982189967 -0.006284720116449899 0.006323369357989429 -0.018351939218056553 0.005307362280782329 0.0025257473535318757
-0.017345852449719177 0.0023478739766429413 0.006681038769839907 -0.027701607148010357 0.009679769357061156 0.004214307205179779
-0.03528002638204061 0.012479890794737271 0.008763869946119583 -0.031732438672031286 0.015436671869611873 0.008426381118401872
-0.05213627278490981 0.017682745728217257 0.011989884276872082 -0.0295081499040589 0.016673099138314877 0.012714742087594079
-0.06769540258161912 0.02259528709268117 0.015350596724782756 -0.02746891274550386 0.015302455392748583 0.016892578580690994
-0.08284164191731483 0.027693487359001664 0.01862922798773283 -0.025183549366978492 0.01274051683469195 0.021054197760257114
-0.09748855536424161 0.03273596073142523 0.021741679650325547 -0.021946933649926406 0.009397589278886443 0.02526305062729391
-0.11140733286874925 0.037388538615789224 0.024543226276721262 -0.017584729903468654 0.005564794145469657 0.029535172271317484
-0.1203579019608347 0.041950240328186755 0.02660694062579155 -0.010203322380644045 5.795842214792864e-05 0.033100989017127415
-0.1305513294127392 0.0383383819128851 0.026636058115868853 0.005186582379230743 0.0025927406383158113 0.03782298926088335
-0.1385355602731967 0.10213205806640614 0.02275316385668731 -0.000151852326646077 0.0003655028916790629 0.05026616302541248
-0.1303831757647266 0.038276531136852934 0.026636423637192503 -0.005500719582315534 -0.0018349761682981626 0.037824394238411746
-0.12000739053139448 0.041821678988870445 0.026604758379796374 0.009857472707952496 0.000777025012310723 0.033103065462487945
-0.11085093225418756 0.037185283884715856 0.024532476019196756 0.017184574312104448 -0.004613070724834291 0.029536076214224157
-0.09670603604836109 0.03245143328167493 0.021713090465119406 0.021466675516702217 -0.008314209826998745 0.025258919665154568
-0.08184393148295509 0.02732978879367942 0.018570923843294968 0.024590083052718054 -0.011559963585498483 0.021037915172984062
-0.06658143462537812 0.022183849002306227 0.015250308264214568 0.02671448565286446 -0.014149411523073975 0.016855312422495244
-0.051152545127967505 0.017352901125152927 0.01183723237734805 0.02859449436513495 -0.015797840777830422 0.012657544168233854
-0.034714522016564726 0.012490795466086065 0.008556701546594358 0.03099569441516421 -0.01510301975649058 0.008401913386649106
-0.017155070602548374 0.0025987111776081787 0.006477015182584306 0.027694489345853304 -0.009744468329450653 0.004398968431157746
-0.008258070782182905 -0.006737175244087224 0.006253154069961029 0.018593868418805996 -0.005435056705409237 0.003276690323602602
-0.009455484101660735 -0.0021291181597048185 0.007218377274378997 -0.009048721845207254 0.010625246033386047 0.003048384980666058
-0.021464022456054773 0.003617896657234043 0.008353194309727464 -0.012975962863751985 0.017188872458924417 0.0035246707489724628
-0.04852639859383451 0.014176519505889232 0.011768984665255933 -0.014588702001142876 0.02550519932825985 0.006997792906303328
-0.07639445312194623 0.021614365743445652 0.016425956436725384 -0.014026988122962008 0.02662849210470493 0.010414638851223935
-0.10103932448872764 0.028174878694209815 0.02113628839462041 -0.013043379038297427 0.024002493162879376 0.013654497532899133
-0.12450536656741734 0.03463597393260867 0.025723959186445308 -0.011702110216883752 0.01959543750680623 0.01686027552168432
-0.1473499673862013 0.04114302125124483 0.030099030365650307 -0.009943448957476179 0.013834074123527926 0.020111813113516987
-0.16902582428918184 0.04665538295069623 0.03402323608329717 -0.007288600209345235 0.006993151767510355 0.023085539083867773
-0.18961602020867815 0.05489527542961026 0.03715606524510185 -0.0035667337084408224 -0.0028319738082893562 0.02660690991982596
-0.199169977234637 0.04455703798244352 0.03733111906784902 0.00991260381737467 -0.020563366673560485 0.02389484460518241
-0.19855590487175268 0.12548948100835985 0.028151760140688886 -9.812060562748928e-05 0.0005082290161514029 0.04927801413026599
-0.1989889211573611 0.04449271013773358 0.03733792580244837 -0.01011530679427372 0.02161452656045003 0.023897712042676593
-0.18924274779792105 0.054762256469359116 0.03716711583767802 0.003344799443700518 0.003983258179840039 0.02661182724707416
-0.16844439380240067 0.04644701415797259 0.03403317765090534 0.007035078613403778 -0.005690591289741453 0.023090647225302085
-0.14655666497799819 0.04085546285124038 0.030099508404676085 0.00964722819907608 -0.012360942984718872 0.02011374322334298
-0.12355173453997136 0.034279041494879245 0.025704484177758984 0.011354995529891217 -0.017997015365432446 0.016854033426743152
-0.10011489055280272 0.02780076381233241 0.021087682394729856 0.012641629547775587 -0.02245110047067369 0.01363669564369565
-0.07585327082853452 0.02136351082983087 0.016343661215138732 0.013599830470965614 -0.025495328256817964 0.010392418858121078
-0.04857797254672949 0.014229344849537712 0.011650731577366765 0.014281407117545188 -0.02522826657497688 0.00701211642380532
-0.02176006776864945 0.0038125349429944016 0.00823834532754568 0.01299442695003128 -0.017600995524741498 0.0036515430761524213
-0.009700796581356329 -0.002287277248868482 0.007200205373305683 0.009122090931707051 -0.011205495608678728 0.003549372850047987
SCALARS Stress_vm float 1
LOOKUP_TABLE default
22177.35485774232
10171.923910842701
11001.100546670421
15226.038227552084
20314.512232230245
25449.316419577197
30507.48922530655
35312.34978022807
39389.481216260894
41924.23237147903
42588.39871122547
41956.65904369172
39458.46587356902
35429.53399993444
30693.46707439846
25735.115167713873
20739.811286835586
15849.702872725526
11921.001491602257
11976.045361843444
23964.52740425596
18827.656756641547
5922.554418573176
7834.974008623904
11222.846691731254
14626.233695501764
18072.62641964076
21498.366429431535
24797.387765899828
27649.70009527699
29414.122220131325
29744.374725473
29443.766525202536
27712.781843183595
24903.764104847098
21663.809479856085
18318.34978533208
14976.307669087599
11694.029959700281
8376.586105370394
6261.18603060852
19584.50798361308
13880.269930188497
7329.006525930963
7223.550229859267
8515.916146722358
9893.067887337907
11370.036315416075
12948.73162252398
14633.321215869046
16231.768083669793
17051.392861152577
16756.38627898525
17071.34229447988
16271.518166349942
14697.943954428278
13044.919476776477
11501.651712624946
10050.829360341759
8639.176758236787
7166.746749114807
6865.967207610294
14243.567772078764
9473.013494361863
8055.53432727197
8418.569858965835
7949.975724465158
7736.808303265481
7560.0796281370485
7666.436914135226
8310.937090321277
9678.291565608988
10759.40173500918
10183.773691065233
10744.863054351094
9656.911930693248
8266.185265427503
7579.3417540805995
7412.2476531998545
7514.358503559993
7630.936866939297
8014.533069411802
7807.800021130708
9706.147953520285
5890.749131483536
7255.743052654486
9173.084334534546
9778.40152544266
10736.92040124339
11970.805800040755
13286.774692286033
14471.873263982901
15608.770435071146
17568.699403376715
19962.554804688854
17531.467578637978
15532.319469940701
14344.669215651207
13101.279366114422
11715.929612329572
10404.488016372585
9392.611113216317
8863.605751387426
7158.122288824268
6014.488050207056
3584.764742581592
5720.907927763431
9585.875729024277
12720.198589570387
15743.10552103983
18838.81660468384
21917.48144273848
24832.8953595676
27082.670634224454
29249.47135334222
34426.78535444141
29215.142174459022
27010.217871908262
24712.29429352943
21743.597575702563
18609.530096006947
15474.074278690914
12468.941532678013
9446.862888929716
5698.2709951697825
3621.8323108499
3094.504956862326
5512.57585002858
11240.672994391423
16698.45819457916
21553.167570698635
26278.451362134107
30941.51767971486
35361.4840733409
39626.254697420365
41987.72246366761
45834.59122828056
41964.06809516437
39554.25769876985
35241.28487493517
30770.152740328012
26062.21007549226
21327.636466546166
16546.33843485655
11241.800717757535
5584.760840549013
3168.0308011052603
14458.746443487611
8540.079535782641
10922.278709890987
15211.338500682175
20011.826837693538
24847.06308120611
29595.441884241704
34211.53738275736
38688.739637604085
42688.71187919685
44648.7356039159
42701.02730532719
38714.27208443167
34253.74332495107
29662.38920039938
24954.404686740316
20189.608597498616
15507.462074670253
11493.294640288032
9252.411293996416
15159.197766369005
12247.93742851727
4650.289411378147
7390.900476630997
10814.668651178412
14152.13534498938
17492.507977327125
20777.400128049965
23942.717403307495
26997.283754532065
29894.283338793703
31626.166221272215
29904.47528407426
27019.144248524968
23979.64770205224
20836.02950188375
17585.194247579424
14300.311392019285
11059.485592676774
7754.519137651905
4918.228601176227
12473.836524086815
9353.185026388772
4319.453530566457
5027.7893066865545
6704.153167572501
8396.598408792528
10078.83886873792
11728.450751925824
13256.367797399012
14833.042235342959
17116.577169254168
19452.459898825855
17123.90195137198
14850.13137715911
13285.178622070018
11771.619491671145
10141.695969897057
8488.840991765948
6828.301301109821
5125.899073017467
4087.406666181218
9364.69088507986
6605.402658759649
4800.519953225726
4647.864910888618
4319.16935697146
4428.157220237525
4750.383241386321
5249.179885825728
5794.722130889198
6344.8190043451505
8134.036837374953
12766.551486795259
8128.927474086851
6336.419507737226
5789.543181728679
5242.24184333284
4732.885230474468
4383.033792881915
4222.123842760408
4451.445200281784
4580.1249396835665
6634.20343383146
4296.124838993011
4601.300775667569
6060.185237519894
7113.2901445370135
8548.531616362663
10191.506256721805
11867.460779818623
13612.14016429481
15181.346818315524
15289.093590044879
16596.540935730973
15276.815139264423
15166.559447819494
13590.679291268341
11833.068345436484
10138.132205307656
8465.874451208183
6992.822584264119
5925.581486223527
4489.390454771673
4335.460841575847
2974.783602026877
4293.9154217612
7754.686382015855
11065.373156688896
14337.249597785101
17642.2152690094
20923.340825774594
24093.17134419672
27215.569725331603
28833.1034309307
27199.598900828478
28823.580299217618
27204.349472571375
24073.237649457777
20893.03251096622
17600.32306590544
14285.65333415839
11016.259716704975
7731.572208169792
4273.880159871222
2990.9897525953616
3045.3199209255604
4943.031410084992
10059.771652290841
15329.278566072702
20231.23418915793
25020.991349555698
29753.705799913223
34322.22202342201
38058.14151967477
41786.66617924104
41784.58722031372
41786.86250799072
38053.00446632867
34308.15829831836
29730.7611555688
24990.6368582946
20203.242566250185
15328.425342412294
10113.609069697519
5013.792716412965
3106.67011185266
13426.968888505353
8477.572133437168
10528.6506022708
14637.522946947183
19202.883837625373
23730.60407122304
28233.330371321885
32911.776648735664
38177.93776388154
43769.16976420614
46798.52415957485
43758.1333972961
38153.9368490022
32871.3477985102
28170.894247642762
23637.711998983832
19066.922190665726
14445.229135783457
10190.720473407979
7832.773498192486
12332.655682872675
10498.233727665978
4462.43597639698
7324.49961015692
10606.687883159424
13754.886325734444
16882.438850566818
20004.493957615705
23220.663636301575
26845.61565582088
30955.687143578143
33639.7395388953
30942.758859100722
26817.096934877685
23173.6474871359
19935.388944085484
16786.14536153115
13625.667826293135
10435.882882010015
7113.426835557236
4459.78034793949
9966.04699506422
7558.1995907571
3855.67896751345
5063.782586515812
6810.259292064064
8397.36965122117
9948.904968882187
11484.854671697649
12981.140627963125
14932.15478877801
18368.939869368292
21919.291532840158
18360.137716744175
14908.276788679797
12940.483150581991
11428.443746155452
9878.166918319132
8316.19354285312
6738.41935824694
5081.137431298891
4172.4075255744865
7424.511999368138
5456.413925432588
4462.037266407278
4495.073882633775
4423.744110896606
4570.2467899226185
4827.23293594887
5210.489502552899
5667.643017768018
6448.798150894175
8394.773774635194
16707.18060034018
8395.005750485256
6460.835769807441
5685.259108309489
5237.485999149813
4870.544697094949
4642.567016960374
4545.128919967909
4702.052334426364
4618.634296549472
5330.645064400308
3761.9481156696907
4426.416637870383
5780.874850658303
6737.378759234145
8114.263224921081
9722.690721422798
11432.395799199989
13396.445811050837
15436.38723247627
15398.855940676047
18677.893091186095
15425.536517552422
15484.675009677834
13470.667128334988
11533.846097511207
9850.795982537416
8267.572317861737
6904.086089250119
5909.891756065274
4450.467091078449
3622.6722981133553
2877.5538585094005
4171.519354510029
7358.6665053933175
10370.203428630044
13447.470864201063
16641.87466505673
19908.424721097545
23242.666378941685
26929.85853764323
29284.933948080532
28724.52836845448
29312.117298772144
26985.432809455433
23326.738247951984
20020.569549092266
16776.139201108457
13589.490101673216
10488.162983026967
7409.400762984822
4146.863689730401
2738.340172661409
3013.494355784306
4723.0161133221945
9461.013537630812
14310.750595429368
18909.726757744298
23501.025641372005
28139.26543405554
32802.098900928264
36836.39141159742
42571.87186845316
45079.93005914545
42605.053260999426
36904.40751796417
32903.77807811156
28272.872338179302
23656.63762405988
19062.85941853215
14416.726337143022
9486.944502813376
4707.722622945025
2921.244672403098
13442.59178315622
8471.560586908987
10353.152756340894
14342.291640764572
18830.29083014503
23288.359599563486
27767.785007764105
32553.047199360928
38125.55822781022
44154.07202695614
47436.55626146895
44133.437248235176
38080.92466514583
32477.933078451973
27650.519111399102
23108.630689300655
18555.5653083148
13925.110716697687
9677.262127370506
7355.480080871822
11724.914902713823
10346.906096009954
4410.864367291771
7249.755723077933
10458.027662195145
13554.972826396255
16644.66196546775
19767.983796574237
23078.277959801257
26927.462941177095
31331.42448643148
34203.45843452874
31309.394160779848
26878.79457037628
22997.18458301277
19646.091403158825
16468.19521787582
13303.827481940543
10104.68654767925
6814.750708684467
4210.620675186931
9471.264963589128
7343.431162089016
3625.571574155666
5004.842742926844
6761.729489999339
8338.181742491783
9876.77963495599
11425.906464925072
12995.611992941067
15104.346045645258
18727.1258580303
22431.305774657012
18712.665834359017
15065.441141677744
12928.781040313987
11331.323154810305
9753.61423885607
8186.870908341962
6610.554653250196
4971.188923517833
4041.0832583629385
6951.867226159315
5198.885245593191
4248.86266283139
4386.636469954638
4422.995259726614
4622.829299021391
4909.583196903222
5331.380748918004
5878.994097497458
6798.138869745782
8176.60183522817
17561.433918574712
8184.418683882107
6821.426052945156
5910.676548021449
5378.381832914106
4986.1076151387315
4750.533373930712
4632.148348291953
4724.561288530268
4506.754525727424
4864.594921772141
3516.001336763361
4238.256727459608
5580.808004219675
6544.660849669555
7924.075910649985
9538.995333033878
11284.88999354096
13347.28907986457
15564.567577132128
15662.738485923846
18865.063271844476
15702.10413513812
15636.907636658598
13459.187664922201
11442.208064541615
9745.859695750896
8183.883046333797
6841.173286368248
5821.308710412588
4307.928584650151
3201.4396331870616
2696.8622442413766
3944.709393875155
7080.595631494375
10056.542678318547
13097.95586669479
16273.013699400688
19566.060205745594
23014.226280875508
26948.248044915803
29546.90908630681
28734.62641234514
29586.915134293802
27029.207187820473
23138.3535621587
19735.541621279423
16482.20491980305
13327.947573448555
10257.32813490726
7174.401488903162
3916.4046428404104
2433.3080391116573
2734.4002212320083
4358.606736010722
9058.834435552055
13856.08566879178
18384.651914413756
22922.66007593622
27562.277597455733
32354.607957573797
36685.10806732174
42880.049024636566
45285.08686564231
42925.134440622336
36779.475295972974
32499.25507966584
27757.1432613622
23155.644080203452
18619.86998069466
14021.397326351145
9087.6157156943
4296.080735790735
2521.0066233004345
13426.968888531837
8477.572133459418
10528.650602289017
14637.52294695403
19202.883837631653
23730.604071222522
28233.33037132686
32911.776648741994
38177.93776388538
43769.16976422768
46798.52415959068
43758.13339731599
38153.936849035956
32871.34779851589
28170.894247631823
23637.711998940507
19066.9221906445
14445.229135766846
10190.720473391719
7832.773498176115
12332.655682849501
10498.233727676874
4462.435976405598
7324.49961016763
10606.687883166533
13754.88632574006
16882.438850564657
20004.49395762192
23220.66363630795
26845.615655824204
30955.687143592957
33639.73953890688
30942.75885910723
26817.096934913498
23173.64748714224
19935.388944090213
16786.14536150877
13625.667826277715
10435.882881997375
7113.426835544518
4459.78034793046
9966.046995043915
7558.199590761408
3855.678967512189
5063.782586517424
6810.259292069112
8397.369651219975
9948.904968882887
11484.854671705367
12981.140627966313
14932.154788794416
18368.93986937149
21919.291532840612
18360.13771674508
14908.276788714873
12940.48315058678
11428.443746180945
9878.166918312336
8316.193542844056
6738.419358235821
5081.137431288549
4172.407525564442
7424.5119993502585
5456.413925435898
4462.037266407841
4495.073882631326
4423.744110890599
4570.246789918021
4827.232935958891
5210.489502552513
5667.643017764412
6448.7981509139045
8394.773774631405
16707.18060032412
8395.005750487891
6460.835769834231
5685.2591083103
5237.485999173996
4870.544697096338
4642.567016956613
4545.128919957086
4702.052334416412
4618.634296540364
5330.645064385079
3761.948115672319
4426.416637872573
5780.874850659084
6737.378759229438
8114.263224921105
9722.69072142081
11432.395799198053
13396.44581104609
15436.387232476663
15398.855940669311
18677.89309117138
15425.536517552431
15484.67500968277
13470.66712832429
11533.846097519308
9850.795982506415
8267.572317857135
6904.086089240454
5909.8917560538075
4450.467091070402
3622.672298099472
2877.5538585113495
4171.519354513003
7358.666505394684
10370.203428629875
13447.470864199988
16641.874665049156
19908.424721099756
23242.66637893319
26929.85853764998
29284.93394807684
28724.528368446056
29312.117298774443
26985.432809453894
23326.738247933685
20020.569549089836
16776.13920107268
13589.490101659718
10488.162983011973
7409.40076297279
4146.863689723171
2738.3401726532693
3013.494355786129
4723.016113325418
9461.013537632423
14310.750595434987
18909.726757738616
23501.025641358905
28139.265434059773
32802.098900917495
36836.39141160854
42571.87186845116
45079.93005914052
42605.05326100549
36904.40751796961
32903.77807809146
28272.872338169473
23656.63762402099
19062.859418505894
14416.726337122616
9486.944502800874
4707.722622936013
2921.24467239308
14458.746443515713
8540.079535827024
10922.278709919714
15211.338500703867
20011.82683771736
24847.06308123029
29595.44188425801
34211.537382729584
38688.73963760072
42688.71187923006
44648.73560394251
42701.02730534033
38714.27208443927
34253.74332493144
29662.38920037596
24954.40468670998
20189.60859746782
15507.462074623614
11493.29464025815
9252.411293965872
15159.197766310577
12247.937428525229
4650.289411394831
7390.900476650999
10814.668651197997
14152.135345010403
17492.50797734388
20777.400128060985
23942.71740329447
26997.28375453877
29894.283338822675
31626.16622128999
29904.4752840916
27019.144248527253
23979.64770204812
20836.029501865338
17585.19424755947
14300.311392000545
11059.485592640829
7754.51913763707
4918.228601162865
12473.836524038088
9353.185026392273
4319.453530557435
5027.789306692685
6704.153167586755
8396.598408810609
10078.838868748708
11728.450751931266
13256.367797403856
14833.04223535605
17116.577169293494
19452.459898845893
17123.901951398355
14850.131377151505
13285.178622086765
11771.619491664043
10141.6959698901
8488.84099175122
6828.30130108879
5125.89907301192
4087.4066661707107
9364.690885041315
6605.402658764546
4800.51995321915
4647.864910878204
4319.1693569728295
4428.157220242936
4750.3832413781465
5249.179885828655
5794.722130891163
6344.819004330244
8134.036837410321
12766.551486833108
8128.927474097126
6336.419507738209
5789.543181740404
5242.241843335017
4732.885230473315
4383.033792879052
4222.123842749987
4451.445200272386
4580.124939671902
6634.203433802323
4296.124838995702
4601.300775664535
6060.185237515514
7113.290144529274
8548.531616358485
10191.506256708119
11867.460779812904
13612.140164256218
15181.346818302523
15289.093590054985
16596.54093574572
15276.815139273922
15166.559447825904
13590.679291269269
11833.068345424448
10138.13220530252
8465.874451192136
6992.822584236342
5925.58148620947
4489.390454759542
4335.460841552782
2974.783602031633
4293.915421762567
7754.686382016631
11065.373156683687
14337.249597783495
17642.215269012722
20923.340825764564
24093.171344158214
27215.569725308233
28833.103430934385
27199.59890083496
28823.580299221867
27204.349472567497
24073.23764944999
20893.03251094645
17600.323065886107
14285.653334122688
11016.259716672923
7731.572208148831
4273.880159858902
2990.989752582038
3045.3199209307036
4943.031410089674
10059.771652299505
15329.27856606951
20231.234189158502
25020.99134957345
29753.70579989833
34322.222023384325
38058.141519640565
41786.6661792431
41784.587220344554
41786.86250799179
38053.00446630857
34308.15829830506
29730.761155540004
24990.636858255308
20203.242566199733
15328.425342373259
10113.609069666683
5013.792716395175
3106.6701118385236
22177.354857764272
10171.923910899857
11001.100546714122
15226.038227594201
20314.512232253575
25449.316419595343
30507.489225310106
35312.34978023116
39389.48121626101
41924.23237149955
42588.398711248454
41956.65904373203
39458.46587357002
35429.53399993732
30693.46707438294
25735.11516767148
20739.811286790624
15849.702872680888
11921.001491559808
11976.045361792965
23964.52740414611
18827.656756653934
5922.554418584824
7834.974008646962
11222.846691757826
14626.233695516716
18072.62641965475
21498.366429440208
24797.387765902313
27649.70009527562
29414.122220157107
29744.374725514852
29443.76652524017
27712.78184318222
24903.764104850274
21663.80947984675
18318.34978530183
14976.307669058237
11694.029959674746
8376.58610534217
6261.186030581555
19584.50798352148
13880.269930203136
7329.00652592104
7223.550229860188
8515.916146722884
9893.067887340721
11370.03631541886
12948.731622528592
14633.321215859458
16231.768083668318
17051.392861165976
16756.38627905362
17071.34229450787
16271.518166355925
14697.943954432494
13044.919476769395
11501.651712612429
10050.829360330552
8639.176758220061
7166.746749087002
6865.967207581581
14243.567772013756
9473.013494373987
8055.534327271918
8418.56985895865
7949.975724445835
7736.808303244965
7560.079628123248
7666.436914117278
8310.937090299256
9678.291565603095
10759.401734993467
10183.773691094697
10744.863054349422
9656.911930688215
8266.185265440456
7579.341754087658
7412.247653208896
7514.358503557797
7630.936866922709
8014.533069379475
7807.800021098086
9706.147953478752
5890.749131493567
7255.7430526579265
9173.084334529827
9778.401525430878
10736.920401224284
11970.805800019081
13286.774692266714
14471.873263968002
15608.770435062337
17568.69940334838
19962.55480464981
17531.46757861431
15532.319469933595
14344.669215672833
13101.279366119461
11715.929612322649
10404.488016356358
9392.611113194182
8863.605751352196
7158.122288795509
6014.48805018331
3584.764742589265
5720.907927767212
9585.875729027393
12720.198589572808
15743.105521030573
18838.816604660093
21917.48144272333
24832.895359548173
27082.670634211536
29249.471353324705
34426.785354389
29215.142174451063
27010.217871912806
24712.2942935244
21743.597575691423
18609.530095983897
15474.074278662285
12468.941532641395
9446.862888898373
5698.270995148007
3621.83231083591
3094.5049568725076
5512.575850036283
11240.672994400677
16698.458194590577
21553.167570699778
26278.45136211773
30941.517679694025
35361.48407330605
39626.25469738956
41987.72246365022
45834.591228246936
41964.06809516976
39554.257698775014
35241.28487490963
30770.152740300422
26062.210075450294
21327.636466499756
16546.338434801546
11241.800717721626
5584.760840528724
3168.030801093645
SCALARS Statev float 1
LOOKUP_TABLE default
0.0
0.0
0.0
0.0
0.0
0.0
0.0
0.0
0.0
0.0
0.0
0.0
0.0
0.0
0.0
0.0
0.0
0.0
0.0
0.0
0.0
0.0
0.0
0.0
0.0
0.0
0.0
0.0
0.0
0.0
0.0
0.0
0.0
0.0
0.0
0.0
0.0
0.0
0.0
0.0
0.0
0.0
0.0
0.0
0.0
0.0
0.0
0.0
0.0
0.0
0.0
0.0
0.0
0.0
0.0
0.0
0.0
0.0
0.0
0.0
0.0
0.0
0.0
0.0
0.0
0.0
0.0
0.0
0.0
0.0
0.0
0.0
0.0
0.0
0.0
0.0
0.0
0.0
0.0
0.0
0.0
0.0
0.0
0.0
0.0
0.0
0.0
0.0
0.0
0.0
0.0
0.0
0.0
0.0
0.0
0.0
0.0
0.0
0.0
0.0
0.0
0.0
0.0
0.0
0.0
0.0
0.0
0.0
0.0
0.0
0.0
0.0
0.0
0.0
0.0
0.0
0.0
0.0
0.0
0.0
0.0
0.0
0.0
0.0
0.0
0.0
0.0
0.0
0.0
0.0
0.0
0.0
0.0
0.0
0.0
0.0
0.0
0.0
0.0
0.0
0.0
0.0
0.0
0.0
0.0
0.0
0.0
0.0
0.0
0.0
0.0
0.0
0.0
0.0
0.0
0.0
0.0
0.0
0.0
0.0
0.0
0.0
0.0
0.0
0.0
0.0
0.0
0.0
0.0
0.0
0.0
0.0
0.0
0.0
0.0
0.0
0.0
0.0
0.0
0.0
0.0
0.0
0.0
0.0
0.0
0.0
0.0
0.0
0.0
0.0
0.0
0.0
0.0
0.0
0.0
0.0
0.0
0.0
0.0
0.0
0.0
0.0
0.0
0.0
0.0
0.0
0.0
0.0
0.0
0.0
0.0
0.0
0.0
0.0
0.0
0.0
0.0
0.0
0.0
0.0
0.0
0.0
0.0
0.0
0.0
0.0
0.0
0.0
0.0
0.0
0.0
0.0
0.0
0.0
0.0
0.0
0.0
0.0
0.0
0.0
0.0
0.0
0.0
0.0
0.0
0.0
0.0
0.0
0.0
0.0
0.0
0.0
0.0
0.0
0.0
0.0
0.0
0.0
0.0
0.0
0.0
0.0
0.0
0.0
0.0
0.0
0.0
0.0
0.0
0.0
0.0
0.0
0.0
0.0
0.0
0.0
0.0
0.0
0.0
0.0
0.0
0.0
0.0
0.0
0.0
0.0
0.0
0.0
0.0
0.0
0.0
0.0
0.0
0.0
0.0
0.0
0.0
0.0
0.0
0.0
0.0
0.0
0.0
0.0
0.0
0.0
0.0
0.0
0.0
0.0
0.0
0.0
0.0
0.0
0.0
0.0
0.0
0.0
0.0
0.0
0.0
0.0
0.0
0.0
0.0
0.0
0.0
0.0
0.0
0.0
0.0
0.0
0.0
0.0
0.0
0.0
0.0
0.0
0.0
0.0
0.0
0.0
0.0
0.0
0.0
0.0
0.0
0.0
0.0
0.0
0.0
0.0
0.0
0.0
0.0
0.0
0.0
0.0
0.0
0.0
0.0
0.0
0.0
0.0
0.0
0.0
0.0
0.0
0.0
0.0
0.0
0.0
0.0
0.0
0.0
0.0
0.0
0.0
0.0
0.0
0.0
0.0
0.0
0.0
0.0
0.0
0.0
0.0
0.0
0.0
0.0
0.0
0.0
0.0
0.0
0.0
0.0
0.0
0.0
0.0
0.0
0.0
0.0
0.0
0.0
0.0
0.0
0.0
0.0
0.0
0.0
0.0
0.0
0.0
0.0
0.0
0.0
0.0
0.0
0.0
0.0
0.0
0.0
0.0
0.0
0.0
0.0
0.0
0.0
0.0
0.0
0.0
0.0
0.0
0.0
0.0
0.0
0.0
0.0
0.0
0.0
0.0
0.0
0.0
0.0
0.0
0.0
0.0
0.0
0.0
0.0
0.0
0.0
0.0
0.0
0.0
0.0
0.0
0.0
0.0
0.0
0.0
0.0
0.0
0.0
0.0
0.0
0.0
0.0
0.0
0.0
0.0
0.0
0.0
0.0
0.0
0.0
0.0
0.0
0.0
0.0
0.0
0.0
0.0
0.0
0.0
0.0
0.0
0.0
0.0
0.0
0.0
0.0
0.0
0.0
0.0
0.0
0.0
0.0
0.0
0.0
0.0
0.0
0.0
0.0
0.0
0.0
0.0
0.0
0.0
0.0
0.0
0.0
0.0
0.0
0.0
0.0
0.0
0.0
0.0
0.0
0.0
0.0
0.0
0.0
0.0
0.0
0.0
0.0
0.0
0.0
0.0
0.0
0.0
0.0
0.0
0.0
0.0
0.0
0.0
0.0
0.0
0.0
0.0
0.0
0.0
0.0
0.0
0.0
0.0
0.0
0.0
0.0
0.0
0.0
0.0
0.0
0.0
0.0
0.0
0.0
0.0
0.0
0.0
0.0
0.0
0.0
0.0
0.0
0.0
0.0
0.0
0.0
0.0
0.0
0.0
0.0
0.0
0.0
0.0
0.0
0.0
0.0
0.0
0.0
0.0
0.0
0.0
0.0
0.0
0.0
0.0
0.0
0.0
0.0
0.0
0.0
0.0
0.0
0.0
0.0
0.0
0.0
0.0
0.0
0.0
0.0
0.0
0.0
0.0
0.0
0.0
0.0
0.0
0.0
0.0
0.0
0.0
0.0
0.0
0.0
0.0
0.0
0.0
0.0
0.0
0.0
0.0
0.0
0.0
0.0
0.0
0.0
0.0
0.0
0.0
0.0
0.0
0.0
0.0
0.0
0.0
0.0
0.0
0.0
0.0
0.0
0.0
0.0
0.0
0.0
0.0
0.0
0.0
0.0
0.0
0.0
0.0
0.0
0.0
0.0
0.0
0.0
0.0
0.0
0.0
0.0
0.0
0.0
0.0
0.0
0.0
0.0
0.0
0.0
0.0
0.0
0.0
0.0
0.0
0.0
0.0
0.0
0.0
0.0
0.0
0.0
0.0
0.0
0.0
0.0
0.0
0.0
0.0
0.0
0.0
0.0
0.0
0.0
0.0
0.0
0.0
0.0
0.0
0.0
0.0
0.0
0.0
0.0
0.0
0.0
0.0
0.0
0.0
0.0
0.0
0.0
0.0
0.0
0.0
0.0
0.0
0.0
0.0
0.0
0.0
0.0
0.0
0.0
0.0
0.0
0.0
0.0
0.0
0.0
0.0
0.0
0.0
0.0
0.0
0.0
0.0
0.0
0.0
0.0
0.0
0.0
0.0
0.0
0.0
0.0
0.0
0.0
0.0
0.0
0.0
0.0
0.0
0.0
0.0
0.0
0.0
0.0
0.0
0.0
0.0
0.0
0.0
0.0
0.0
0.0
0.0
0.0
0.0
0.0
0.0
0.0
0.0
0.0
0.0
0.0
0.0
0.0
0.0
0.0
0.0
0.0
0.0
0.0
0.0
0.0
0.0
0.0
0.0
0.0
0.0
0.0
0.0
0.0
0.0
0.0
0.0
0.0
0.0
0.0
0.0
0.0
0.0
0.0
0.0
0.0
0.0
0.0
0.0
0.0
0.0
0.0
0.0
0.0
0.0
0.0
0.0
0.0
0.0
0.0
0.0
0.0
0.0
0.0
0.0
0.0
0.0
0.0
0.0
0.0
0.0
0.0
0.0
0.0
0.0
0.0
0.0
0.0
0.0
0.0
0.0
0.0
0.0
0.0
0.0
0.0
0.0
0.0
0.0
0.0
0.0
0.0
0.0
0.0
0.0
0.0
0.0
0.0
0.0
0.0
0.0
0.0
0.0
0.0
0.0
0.0
0.0
0.0
0.0
0.0
0.0
0.0
0.0
0.0
0.0
0.0
0.0
0.0
0.0
0.0
0.0
0.0
0.0
0.0
0.0
0.0
0.0
0.0
0.0
0.0
0.0
0.0
0.0
0.0
0.0
0.0
0.0
0.0
0.0
0.0
0.0
0.0
0.0
0.0
0.0
0.0
0.0
0.0
0.0
0.0
0.0
0.0
0.0
0.0
0.0
0.0
0.0
0.0
0.0
0.0
0.0
0.0
0.0
0.0
0.0
0.0
0.0
0.0
0.0
0.0
0.0
0.0
0.0
0.0
0.0
0.0
0.0
0.0
0.0
0.0
0.0
0.0
0.0
0.0
0.0
0.0
0.0
0.0
0.0
0.0
0.0
0.0
0.0
0.0
0.0
0.0
0.0
0.0
0.0
0.0
0.0
0.0
0.0
0.0
0.0
0.0
0.0
0.0
0.0
0.0
0.0
0.0
0.0
0.0
0.0
0.0
0.0
0.0
0.0
0.0
0.0
0.0
0.0
0.0
0.0
0.0
0.0
0.0
0.0
0.0
0.0
0.0
0.0
0.0
0.0
0.0
0.0
0.0
0.0
0.0
0.0
0.0
0.0
0.0
0.0
0.0
0.0
0.0
0.0
0.0
0.0
0.0
0.0
0.0
0.0
0.0
0.0
0.0
0.0
0.0
0.0
0.0
0.0
0.0
SCALARS Wm float 4
LOOKUP_TABLE default
2811.0509946697994 2811.0509946697994 0.0 0.0
508.6645338892436 508.6645338892436 0.0 0.0
606.0243050598959 606.0243050598959 0.0 0.0
1268.7172717006506 1268.7172717006506 0.0 0.0
2238.070233235758 2238.070233235758 0.0 0.0
3527.210813660748 3527.210813660748 0.0 0.0
5079.015761198652 5079.015761198652 0.0 0.0
6815.072698490687 6815.072698490687 0.0 0.0
8484.674258223464 8484.674258223464 0.0 0.0
9638.475631696389 9638.475631696389 0.0 0.0
10009.666285076672 10009.666285076672 0.0 0.0
9653.056636545527 9653.056636545527 0.0 0.0
8513.827270709673 8513.827270709673 0.0 0.0
6859.5389676511 6859.5389676511 0.0 0.0
5140.0906575841545 5140.0906575841545 0.0 0.0
3605.389132942155 3605.389132942155 0.0 0.0
2331.170252637793 2331.170252637793 0.0 0.0
1370.7382042630256 1370.7382042630256 0.0 0.0
720.6225204083536 720.6225204083536 0.0 0.0
802.9994126338081 802.9994126338081 0.0 0.0
2693.129333500107 2693.129333500107 0.0 0.0
2086.847853816148 2086.847853816148 0.0 0.0
63.144348697212564 63.144348697212564 0.0 0.0
281.7249508950274 281.7249508950274 0.0 0.0
602.19977440764 602.19977440764 0.0 0.0
1033.689739883791 1033.689739883791 0.0 0.0
1594.2398265520367 1594.2398265520367 0.0 0.0
2272.3042602792725 2272.3042602792725 0.0 0.0
3037.0622266389955 3037.0622266389955 0.0 0.0
3787.8482196583527 3787.8482196583527 0.0 0.0
4320.888824855788 4320.888824855788 0.0 0.0
4494.287505931535 4494.287505931535 0.0 0.0
4330.344996649464 4330.344996649464 0.0 0.0
3806.6877792503774 3806.6877792503774 0.0 0.0
3065.4913958289753 3065.4913958289753 0.0 0.0
2310.498179168942 2310.498179168942 0.0 0.0
1641.7237394120077 1641.7237394120077 0.0 0.0
1088.0006537934555 1088.0006537934555 0.0 0.0
659.1627817836132 659.1627817836132 0.0 0.0
322.1579271095592 322.1579271095592 0.0 0.0
72.9220305059014 72.9220305059014 0.0 0.0
2191.884771121245 2191.884771121245 0.0 0.0
1160.9252027582215 1160.9252027582215 0.0 0.0
172.40767143285467 172.40767143285467 0.0 0.0
242.10516966380087 242.10516966380087 0.0 0.0
315.14662956096856 315.14662956096856 0.0 0.0
435.9832110409334 435.9832110409334 0.0 0.0
575.731818474861 575.731818474861 0.0 0.0
747.1845850490897 747.1845850490897 0.0 0.0
959.2099276315797 959.2099276315797 0.0 0.0
1189.8212252848605 1189.8212252848605 0.0 0.0
1343.32182555972 1343.32182555972 0.0 0.0
1386.7687966408776 1386.7687966408776 0.0 0.0
1347.2045381355895 1347.2045381355895 0.0 0.0
1197.2066279827495 1197.2066279827495 0.0 0.0
969.8875111514202 969.8875111514202 0.0 0.0
760.7647957467177 760.7647957467177 0.0 0.0
591.2397616980858 591.2397616980858 0.0 0.0
451.5475987989215 451.5475987989215 0.0 0.0
324.29575438565763 324.29575438565763 0.0 0.0
235.5521803491634 235.5521803491634 0.0 0.0
145.899155807358 145.899155807358 0.0 0.0
1211.331706849544 1211.331706849544 0.0 0.0
535.5020577588033 535.5020577588033 0.0 0.0
250.13517599917012 250.13517599917012 0.0 0.0
311.8274057195572 311.8274057195572 0.0 0.0
285.4906838827291 285.4906838827291 0.0 0.0
281.7929110192187 281.7929110192187 0.0 0.0
277.6012378832677 277.6012378832677 0.0 0.0
272.68731115820566 272.68731115820566 0.0 0.0
281.9470862233572 281.9470862233572 0.0 0.0
325.8903799836915 325.8903799836915 0.0 0.0
374.4208544685548 374.4208544685548 0.0 0.0
406.200821306648 406.200821306648 0.0 0.0
373.04782762549706 373.04782762549706 0.0 0.0
322.60309761976345 322.60309761976345 0.0 0.0
276.49006296222706 276.49006296222706 0.0 0.0
264.6459602556344 264.6459602556344 0.0 0.0
266.40037350204665 266.40037350204665 0.0 0.0
266.24380466990954 266.24380466990954 0.0 0.0
263.5056776654074 263.5056776654074 0.0 0.0
286.68243449964564 286.68243449964564 0.0 0.0
229.3996312266384 229.3996312266384 0.0 0.0
563.6512267164271 563.6512267164271 0.0 0.0
203.27515398943595 203.27515398943595 0.0 0.0
230.02696072308282 230.02696072308282 0.0 0.0
368.47528636574566 368.47528636574566 0.0 0.0
433.9608825050587 433.9608825050587 0.0 0.0
523.2566888014773 523.2566888014773 0.0 0.0
646.9962248404946 646.9962248404946 0.0 0.0
793.4684460588595 793.4684460588595 0.0 0.0
936.1142907099263 936.1142907099263 0.0 0.0
1096.404875727962 1096.404875727962 0.0 0.0
1347.8444747594494 1347.8444747594494 0.0 0.0
1508.7832395409293 1508.7832395409293 0.0 0.0
1341.6834059051196 1341.6834059051196 0.0 0.0
1083.7537007236374 1083.7537007236374 0.0 0.0
916.9852780439284 916.9852780439284 0.0 0.0
768.157789043573 768.157789043573 0.0 0.0
616.3197579915416 616.3197579915416 0.0 0.0
488.7997170589674 488.7997170589674 0.0 0.0
399.9699734057506 399.9699734057506 0.0 0.0
344.59066578627124 344.59066578627124 0.0 0.0
219.7686175272305 219.7686175272305 0.0 0.0
213.8641775972692 213.8641775972692 0.0 0.0
70.92746430684936 70.92746430684936 0.0 0.0
175.5409659334275 175.5409659334275 0.0 0.0
436.1587844891518 436.1587844891518 0.0 0.0
780.587064856793 780.587064856793 0.0 0.0
1209.464211155731 1209.464211155731 0.0 0.0
1741.1958557413102 1741.1958557413102 0.0 0.0
2363.6484075358408 2363.6484075358408 0.0 0.0
3042.3475847333716 3042.3475847333716 0.0 0.0
3565.782552267397 3565.782552267397 0.0 0.0
4348.9672341256955 4348.9672341256955 0.0 0.0
4730.865207172361 4730.865207172361 0.0 0.0
4338.044811392051 4338.044811392051 0.0 0.0
3544.3829922555406 3544.3829922555406 0.0 0.0
3010.3383315632145 3010.3383315632145 0.0 0.0
2323.3765721562922 2323.3765721562922 0.0 0.0
1696.1856481559582 1696.1856481559582 0.0 0.0
1166.0898774250677 1166.0898774250677 0.0 0.0
748.1084416802273 748.1084416802273 0.0 0.0
421.1652870461076 421.1652870461076 0.0 0.0
171.62936722941794 171.62936722941794 0.0 0.0
73.55255368670714 73.55255368670714 0.0 0.0
43.58146275911542 43.58146275911542 0.0 0.0
189.4806708701149 189.4806708701149 0.0 0.0
687.9332037579916 687.9332037579916 0.0 0.0
1503.1771164794836 1503.1771164794836 0.0 0.0
2518.2249148998144 2518.2249148998144 0.0 0.0
3754.98864783891 3754.98864783891 0.0 0.0
5210.017557282765 5210.017557282765 0.0 0.0
6837.825113899455 6837.825113899455 0.0 0.0
8500.314322562344 8500.314322562344 0.0 0.0
10090.988027849618 10090.988027849618 0.0 0.0
8676.482048644673 8676.482048644673 0.0 0.0
10076.901851470233 10076.901851470233 0.0 0.0
8466.946432457962 8466.946432457962 0.0 0.0
6788.88647411451 6788.88647411451 0.0 0.0
5150.227545221519 5150.227545221519 0.0 0.0
3692.201096067157 3692.201096067157 0.0 0.0
2465.6764623927947 2465.6764623927947 0.0 0.0
1475.6192315499898 1475.6192315499898 0.0 0.0
685.3814036094203 685.3814036094203 0.0 0.0
192.9292168424434 192.9292168424434 0.0 0.0
46.15730785720734 46.15730785720734 0.0 0.0
1046.279956109836 1046.279956109836 0.0 0.0
431.69559702541153 431.69559702541153 0.0 0.0
641.20905884894 641.20905884894 0.0 0.0
1291.9331613714105 1291.9331613714105 0.0 0.0
2215.0229405254163 2215.0229405254163 0.0 0.0
3419.458324880442 3419.458324880442 0.0 0.0
4862.921525808459 4862.921525808459 0.0 0.0
6530.366021119195 6530.366021119195 0.0 0.0
8405.62001589107 8405.62001589107 0.0 0.0
10249.863556579112 10249.863556579112 0.0 0.0
11135.301038787886 11135.301038787886 0.0 0.0
10254.948536907317 10254.948536907317 0.0 0.0
8415.115811434209 8415.115811434209 0.0 0.0
6544.136717564951 6544.136717564951 0.0 0.0
4881.735418301279 4881.735418301279 0.0 0.0
3444.7339333566906 3444.7339333566906 0.0 0.0
2248.849688534901 2248.849688534901 0.0 0.0
1334.8725309656343 1334.8725309656343 0.0 0.0
701.9694900278815 701.9694900278815 0.0 0.0
515.6620109024356 515.6620109024356 0.0 0.0
1019.7383070422052 1019.7383070422052 0.0 0.0
839.0276496178742 839.0276496178742 0.0 0.0
73.00096002120836 73.00096002120836 0.0 0.0
270.5853250272815 270.5853250272815 0.0 0.0
588.8681947554593 588.8681947554593 0.0 0.0
1008.2197324298198 1008.2197324298198 0.0 0.0
1546.4430088394104 1546.4430088394104 0.0 0.0
2191.252349962423 2191.252349962423 0.0 0.0
2925.4093549941294 2925.4093549941294 0.0 0.0
3736.6020695335264 3736.6020695335264 0.0 0.0
4550.419795763058 4550.419795763058 0.0 0.0
4980.98575438321 4980.98575438321 0.0 0.0
4553.704598114892 4553.704598114892 0.0 0.0
3742.8780284434793 3742.8780284434793 0.0 0.0
2934.5908604971223 2934.5908604971223 0.0 0.0
2203.591029999925 2203.591029999925 0.0 0.0
1562.5226753807383 1562.5226753807383 0.0 0.0
1028.6315467364961 1028.6315467364961 0.0 0.0
614.9319334421577 614.9319334421577 0.0 0.0
296.21482824259533 296.21482824259533 0.0 0.0
83.92185694956005 83.92185694956005 0.0 0.0
844.2236279612782 844.2236279612782 0.0 0.0
504.1130052999334 504.1130052999334 0.0 0.0
59.28279459050152 59.28279459050152 0.0 0.0
115.7719222591011 115.7719222591011 0.0 0.0
195.27476078196253 195.27476078196253 0.0 0.0
313.53305937260063 313.53305937260063 0.0 0.0
454.3311582750919 454.3311582750919 0.0 0.0
620.1100919813491 620.1100919813491 0.0 0.0
799.0863705561223 799.0863705561223 0.0 0.0
1010.4083777712125 1010.4083777712125 0.0 0.0
1332.3535510301974 1332.3535510301974 0.0 0.0
1621.1720901139415 1621.1720901139415 0.0 0.0
1333.9041911205345 1333.9041911205345 0.0 0.0
1013.4604895988363 1013.4604895988363 0.0 0.0
803.5330499954962 803.5330499954962 0.0 0.0
625.8072106516607 625.8072106516607 0.0 0.0
461.12779747087575 461.12779747087575 0.0 0.0
321.4091221450452 321.4091221450452 0.0 0.0
203.23898256523006 203.23898256523006 0.0 0.0
118.08224741136995 118.08224741136995 0.0 0.0
51.89892024537865 51.89892024537865 0.0 0.0
499.78998650471505 499.78998650471505 0.0 0.0
250.6632289196109 250.6632289196109 0.0 0.0
82.68768176903777 82.68768176903777 0.0 0.0
101.15440967839395 101.15440967839395 0.0 0.0
87.27317981401957 87.27317981401957 0.0 0.0
90.70741222811084 90.70741222811084 0.0 0.0
98.95363627526575 98.95363627526575 0.0 0.0
109.95003531457448 109.95003531457448 0.0 0.0
116.64379530454275 116.64379530454275 0.0 0.0
123.05769272136513 123.05769272136513 0.0 0.0
223.71318569588735 223.71318569588735 0.0 0.0
547.2484598924156 547.2484598924156 0.0 0.0
223.38568756983736 223.38568756983736 0.0 0.0
122.88220492981556 122.88220492981556 0.0 0.0
116.57944240115481 116.57944240115481 0.0 0.0
109.68250724619858 109.68250724619858 0.0 0.0
98.10150656384869 98.10150656384869 0.0 0.0
88.77612150738457 88.77612150738457 0.0 0.0
83.24329615857233 83.24329615857233 0.0 0.0
94.23217397980869 94.23217397980869 0.0 0.0
73.654163550376 73.654163550376 0.0 0.0
252.33451609803038 252.33451609803038 0.0 0.0
103.8534794698942 103.8534794698942 0.0 0.0
88.83855286028113 88.83855286028113 0.0 0.0
158.6527949792931 158.6527949792931 0.0 0.0
223.64737921871983 223.64737921871983 0.0 0.0
324.1089314918372 324.1089314918372 0.0 0.0
463.92959615734486 463.92959615734486 0.0 0.0
634.2657745316018 634.2657745316018 0.0 0.0
844.8923230365502 844.8923230365502 0.0 0.0
1044.2745426361687 1044.2745426361687 0.0 0.0
1102.0695558663417 1102.0695558663417 0.0 0.0
1669.6680585182814 1669.6680585182814 0.0 0.0
1099.770422917402 1099.770422917402 0.0 0.0
1041.078173473768 1041.078173473768 0.0 0.0
840.7653448382073 840.7653448382073 0.0 0.0
629.0769191473253 629.0769191473253 0.0 0.0
457.63805374757055 457.63805374757055 0.0 0.0
316.69679789373197 316.69679789373197 0.0 0.0
215.63098385130004 215.63098385130004 0.0 0.0
151.82485796084242 151.82485796084242 0.0 0.0
83.55558510517083 83.55558510517083 0.0 0.0
106.07541178906719 106.07541178906719 0.0 0.0
45.74547265140128 45.74547265140128 0.0 0.0
96.74316492547561 96.74316492547561 0.0 0.0
290.9619125801787 290.9619125801787 0.0 0.0
605.9651657509988 605.9651657509988 0.0 0.0
1031.2145488630065 1031.2145488630065 0.0 0.0
1570.9629042460328 1570.9629042460328 0.0 0.0
2218.753217550024 2218.753217550024 0.0 0.0
2947.6154843791383 2947.6154843791383 0.0 0.0
3831.6704765338864 3831.6704765338864 0.0 0.0
4069.291273616548 4069.291273616548 0.0 0.0
5249.992151498434 5249.992151498434 0.0 0.0
4065.270805933249 4065.270805933249 0.0 0.0
3825.970059730132 3825.970059730132 0.0 0.0
2939.7747825148963 2939.7747825148963 0.0 0.0
2209.3335159486796 2209.3335159486796 0.0 0.0
1561.002327587661 1561.002327587661 0.0 0.0
1022.1841821641764 1022.1841821641764 0.0 0.0
599.8089157697816 599.8089157697816 0.0 0.0
288.6047752701911 288.6047752701911 0.0 0.0
95.48590284237082 95.48590284237082 0.0 0.0
46.676137470673424 46.676137470673424 0.0 0.0
42.47629925870367 42.47629925870367 0.0 0.0
150.01781775109708 150.01781775109708 0.0 0.0
565.8953660021356 565.8953660021356 0.0 0.0
1294.1267648231183 1294.1267648231183 0.0 0.0
2258.1645279907 2258.1645279907 0.0 0.0
3460.942467591238 3460.942467591238 0.0 0.0
4910.589298021887 4910.589298021887 0.0 0.0
6526.676009832571 6526.676009832571 0.0 0.0
8144.172220114653 8144.172220114653 0.0 0.0
9241.149094637442 9241.149094637442 0.0 0.0
13865.422461432328 13865.422461432328 0.0 0.0
9238.275218689823 9238.275218689823 0.0 0.0
8136.67225557536 8136.67225557536 0.0 0.0
6515.224461822018 6515.224461822018 0.0 0.0
4896.857961298797 4896.857961298797 0.0 0.0
3447.312859408173 3447.312859408173 0.0 0.0
2248.208715110105 2248.208715110105 0.0 0.0
1291.6235976215858 1291.6235976215858 0.0 0.0
570.0400395742008 570.0400395742008 0.0 0.0
153.6903646514958 153.6903646514958 0.0 0.0
44.30517101616458 44.30517101616458 0.0 0.0
741.9572798820608 741.9572798820608 0.0 0.0
482.4340386109043 482.4340386109043 0.0 0.0
614.7003530563906 614.7003530563906 0.0 0.0
1215.9999568776157 1215.9999568776157 0.0 0.0
2075.75924934334 2075.75924934334 0.0 0.0
3184.6239598471443 3184.6239598471443 0.0 0.0
4542.806907541412 4542.806907541412 0.0 0.0
6248.490005368244 6248.490005368244 0.0 0.0
8515.184506733605 8515.184506733605 0.0 0.0
11184.8875150804 11184.8875150804 0.0 0.0
12602.851744170703 12602.851744170703 0.0 0.0
11178.705051159854 11178.705051159854 0.0 0.0
8503.238233978307 8503.238233978307 0.0 0.0
6230.890004813431 6230.890004813431 0.0 0.0
4519.172627512859 4519.172627512859 0.0 0.0
3154.7233041688423 3154.7233041688423 0.0 0.0
2039.9990060435196 2039.9990060435196 0.0 0.0
1176.7726059409713 1176.7726059409713 0.0 0.0
567.4500772619989 567.4500772619989 0.0 0.0
376.10591721438254 376.10591721438254 0.0 0.0
732.1623770167993 732.1623770167993 0.0 0.0
627.8050784564305 627.8050784564305 0.0 0.0
81.27104939093526 81.27104939093526 0.0 0.0
271.09997858666213 271.09997858666213 0.0 0.0
575.303772133976 575.303772133976 0.0 0.0
966.1030437135719 966.1030437135719 0.0 0.0
1464.2219476617 1464.2219476617 0.0 0.0
2071.995381435665 2071.995381435665 0.0 0.0
2820.621934654779 2820.621934654779 0.0 0.0
3796.862403133156 3796.862403133156 0.0 0.0
4972.840056832967 4972.840056832967 0.0 0.0
5665.995110325625 5665.995110325625 0.0 0.0
4968.5977667919315 4968.5977667919315 0.0 0.0
3788.5857860133065 3788.5857860133065 0.0 0.0
2808.5939180355585 2808.5939180355585 0.0 0.0
2056.409887796428 2056.409887796428 0.0 0.0
1445.3649817012845 1445.3649817012845 0.0 0.0
944.8641215190347 944.8641215190347 0.0 0.0
552.3849783373636 552.3849783373636 0.0 0.0
252.3211233795232 252.3211233795232 0.0 0.0
75.99851971129002 75.99851971129002 0.0 0.0
607.3218901241573 607.3218901241573 0.0 0.0
348.6672978342252 348.6672978342252 0.0 0.0
56.42484444793108 56.42484444793108 0.0 0.0
116.96698604340956 116.96698604340956 0.0 0.0
206.70533207142617 206.70533207142617 0.0 0.0
320.28907864416936 320.28907864416936 0.0 0.0
451.0786308242216 451.0786308242216 0.0 0.0
604.1094140548494 604.1094140548494 0.0 0.0
777.175631770202 777.175631770202 0.0 0.0
1040.1575273156539 1040.1575273156539 0.0 0.0
1540.0165042575418 1540.0165042575418 0.0 0.0
2028.0111340444437 2028.0111340444437 0.0 0.0
1538.3441098414962 1538.3441098414962 0.0 0.0
1036.6319044347185 1036.6319044347185 0.0 0.0
771.9810480654102 771.9810480654102 0.0 0.0
597.5969693974587 597.5969693974587 0.0 0.0
443.8020560822843 443.8020560822843 0.0 0.0
312.91403837952936 312.91403837952936 0.0 0.0
201.13186823624295 201.13186823624295 0.0 0.0
118.1562498167046 118.1562498167046 0.0 0.0
63.69302413439706 63.69302413439706 0.0 0.0
350.2491731245927 350.2491731245927 0.0 0.0
177.34465752495575 177.34465752495575 0.0 0.0
75.80643999984343 75.80643999984343 0.0 0.0
97.37832981688327 97.37832981688327 0.0 0.0
93.12461941643507 93.12461941643507 0.0 0.0
100.28409667610718 100.28409667610718 0.0 0.0
108.54720933104205 108.54720933104205 0.0 0.0
118.77146927364205 118.77146927364205 0.0 0.0
123.50777375537416 123.50777375537416 0.0 0.0
144.55993181132368 144.55993181132368 0.0 0.0
327.1594556805764 327.1594556805764 0.0 0.0
922.8415748613535 922.8415748613535 0.0 0.0
328.1759418868495 328.1759418868495 0.0 0.0
145.97830393397626 145.97830393397626 0.0 0.0
125.27682831080399 125.27682831080399 0.0 0.0
120.9976202163579 120.9976202163579 0.0 0.0
111.48041000307047 111.48041000307047 0.0 0.0
104.37153231367742 104.37153231367742 0.0 0.0
99.30992444596527 99.30992444596527 0.0 0.0
105.34000850614976 105.34000850614976 0.0 0.0
81.94420435052803 81.94420435052803 0.0 0.0
174.15460026466334 174.15460026466334 0.0 0.0
78.46907715759839 78.46907715759839 0.0 0.0
83.14899476427753 83.14899476427753 0.0 0.0
147.29295457808132 147.29295457808132 0.0 0.0
203.5197739790664 203.5197739790664 0.0 0.0
294.8452331102333 294.8452331102333 0.0 0.0
425.7953824622104 425.7953824622104 0.0 0.0
593.8082450298884 593.8082450298884 0.0 0.0
826.4624318002974 826.4624318002974 0.0 0.0
1075.5696501861166 1075.5696501861166 0.0 0.0
1158.0536948651393 1158.0536948651393 0.0 0.0
2304.4438814786954 2304.4438814786954 0.0 0.0
1161.7297620771024 1161.7297620771024 0.0 0.0
1081.9400790640816 1081.9400790640816 0.0 0.0
835.0958981246456 835.0958981246456 0.0 0.0
604.0822139714033 604.0822139714033 0.0 0.0
437.1374899363997 437.1374899363997 0.0 0.0
306.5477250325768 306.5477250325768 0.0 0.0
214.30633824788023 214.30633824788023 0.0 0.0
154.44304332232352 154.44304332232352 0.0 0.0
85.35734359874459 85.35734359874459 0.0 0.0
74.59202949065151 74.59202949065151 0.0 0.0
40.41008439384049 40.41008439384049 0.0 0.0
90.36002669451184 90.36002669451184 0.0 0.0
262.8081602764021 262.8081602764021 0.0 0.0
537.3856475570574 537.3856475570574 0.0 0.0
918.6224562163287 918.6224562163287 0.0 0.0
1419.495446189841 1419.495446189841 0.0 0.0
2046.1154564952326 2046.1154564952326 0.0 0.0
2801.2687886172666 2801.2687886172666 0.0 0.0
3860.6133236815863 3860.6133236815863 0.0 0.0
4167.567249946952 4167.567249946952 0.0 0.0
6706.348223439588 6706.348223439588 0.0 0.0
4173.99020381294 4173.99020381294 0.0 0.0
3872.5013721940227 3872.5013721940227 0.0 0.0
2817.199225357827 2817.199225357827 0.0 0.0
2064.5467167573806 2064.5467167573806 0.0 0.0
1438.159470010982 1438.159470010982 0.0 0.0
934.702670169715 934.702670169715 0.0 0.0
547.8841235796501 547.8841235796501 0.0 0.0
266.7342854256262 266.7342854256262 0.0 0.0
90.45295976845374 90.45295976845374 0.0 0.0
37.1705530063383 37.1705530063383 0.0 0.0
40.484802535724626 40.484802535724626 0.0 0.0
136.93694370237358 136.93694370237358 0.0 0.0
504.8726679335132 504.8726679335132 0.0 0.0
1147.066129655425 1147.066129655425 0.0 0.0
2012.4962142023608 2012.4962142023608 0.0 0.0
3123.2709979592564 3123.2709979592564 0.0 0.0
4511.488014388674 4511.488014388674 0.0 0.0
6136.624905025686 6136.624905025686 0.0 0.0
7932.0239487717645 7932.0239487717645 0.0 0.0
9670.237922738514 9670.237922738514 0.0 0.0
18044.034721363703 18044.034721363703 0.0 0.0
9680.125843068745 9680.125843068745 0.0 0.0
7951.02158269278 7951.02158269278 0.0 0.0
6161.998916761284 6161.998916761284 0.0 0.0
4540.13540606209 4540.13540606209 0.0 0.0
3150.80585629213 3150.80585629213 0.0 0.0
2033.1637951355228 2033.1637951355228 0.0 0.0
1156.016651256864 1156.016651256864 0.0 0.0
504.77223709280275 504.77223709280275 0.0 0.0
135.59912882487777 135.59912882487777 0.0 0.0
38.004394593031314 38.004394593031314 0.0 0.0
721.6103343560175 721.6103343560175 0.0 0.0
496.35196333765845 496.35196333765845 0.0 0.0
605.0568209098269 605.0568209098269 0.0 0.0
1184.0609473086356 1184.0609473086356 0.0 0.0
2024.1913031915853 2024.1913031915853 0.0 0.0
3115.897917702602 3115.897917702602 0.0 0.0
4476.332588885398 4476.332588885398 0.0 0.0
6244.003161225878 6244.003161225878 0.0 0.0
8683.896256474663 8683.896256474663 0.0 0.0
11624.690825418433 11624.690825418433 0.0 0.0
13197.25876136146 13197.25876136146 0.0 0.0
11613.579678204826 11613.579678204826 0.0 0.0
8662.841832819247 8662.841832819247 0.0 0.0
6213.463570241335 6213.463570241335 0.0 0.0
4435.391452563625 4435.391452563625 0.0 0.0
3063.2477912058066 3063.2477912058066 0.0 0.0
1959.5172726986311 1959.5172726986311 0.0 0.0
1110.3465155595763 1110.3465155595763 0.0 0.0
521.9008955655105 521.9008955655105 0.0 0.0
336.25501098036966 336.25501098036966 0.0 0.0
673.4364352271518 673.4364352271518 0.0 0.0
595.8186074807039 595.8186074807039 0.0 0.0
81.44665084614212 81.44665084614212 0.0 0.0
269.5566720914668 269.5566720914668 0.0 0.0
565.4233964640291 565.4233964640291 0.0 0.0
947.9873353843977 947.9873353843977 0.0 0.0
1439.8026932484331 1439.8026932484331 0.0 0.0
2050.510027274374 2050.510027274374 0.0 0.0
2828.0581131669733 2828.0581131669733 0.0 0.0
3878.325395677893 3878.325395677893 0.0 0.0
5164.4524147789 5164.4524147789 0.0 0.0
5921.154235779496 5921.154235779496 0.0 0.0
5157.016764861874 5157.016764861874 0.0 0.0
3864.038145155526 3864.038145155526 0.0 0.0
2807.475977146737 2807.475977146737 0.0 0.0
2023.714613086825 2023.714613086825 0.0 0.0
1406.722767711106 1406.722767711106 0.0 0.0
909.296705441548 909.296705441548 0.0 0.0
522.646309980717 522.646309980717 0.0 0.0
233.91339901858726 233.91339901858726 0.0 0.0
66.5935740040216 66.5935740040216 0.0 0.0
563.6127995161125 563.6127995161125 0.0 0.0
332.51002997338406 332.51002997338406 0.0 0.0
49.63453556641039 49.63453556641039 0.0 0.0
114.49404105176959 114.49404105176959 0.0 0.0
205.78656115039914 205.78656115039914 0.0 0.0
318.9642668434048 318.9642668434048 0.0 0.0
449.5293008489916 449.5293008489916 0.0 0.0
605.2488056296751 605.2488056296751 0.0 0.0
789.4285453220716 789.4285453220716 0.0 0.0
1079.1689198351642 1079.1689198351642 0.0 0.0
1618.9861429154632 1618.9861429154632 0.0 0.0
2132.1882645272767 2132.1882645272767 0.0 0.0
1615.9907398484893 1615.9907398484893 0.0 0.0
1073.0869152831642 1073.0869152831642 0.0 0.0
780.5833713847752 780.5833713847752 0.0 0.0
594.1259026633451 594.1259026633451 0.0 0.0
436.8306918956038 436.8306918956038 0.0 0.0
305.542506430345 305.542506430345 0.0 0.0
194.79833196128592 194.79833196128592 0.0 0.0
113.6838271299669 113.6838271299669 0.0 0.0
58.74126556799455 58.74126556799455 0.0 0.0
320.2321180323767 320.2321180323767 0.0 0.0
164.93546482285538 164.93546482285538 0.0 0.0
67.87390931328018 67.87390931328018 0.0 0.0
91.83626276796126 91.83626276796126 0.0 0.0
91.36219928112773 91.36219928112773 0.0 0.0
101.11571193006833 101.11571193006833 0.0 0.0
111.29655735054973 111.29655735054973 0.0 0.0
124.32248990067121 124.32248990067121 0.0 0.0
134.83549743422148 134.83549743422148 0.0 0.0
167.5609908579403 167.5609908579403 0.0 0.0
363.523019484064 363.523019484064 0.0 0.0
980.2211606825457 980.2211606825457 0.0 0.0
365.06630915883545 365.06630915883545 0.0 0.0
169.78838846658627 169.78838846658627 0.0 0.0
137.60038623085006 137.60038623085006 0.0 0.0
127.8884837487927 127.8884837487927 0.0 0.0
116.20320023764685 116.20320023764685 0.0 0.0
108.11059600526004 108.11059600526004 0.0 0.0
101.69365960481925 101.69365960481925 0.0 0.0
104.48690055567039 104.48690055567039 0.0 0.0
77.59077163922399 77.59077163922399 0.0 0.0
152.64323042359635 152.64323042359635 0.0 0.0
69.7360840176148 69.7360840176148 0.0 0.0
75.62663025442832 75.62663025442832 0.0 0.0
136.99635959640912 136.99635959640912 0.0 0.0
192.61341681630128 192.61341681630128 0.0 0.0
283.06581247266774 283.06581247266774 0.0 0.0
413.2629310033291 413.2629310033291 0.0 0.0
583.8574908984335 583.8574908984335 0.0 0.0
828.100471788769 828.100471788769 0.0 0.0
1101.8690442796005 1101.8690442796005 0.0 0.0
1199.6186657930127 1199.6186657930127 0.0 0.0
2405.81117616501 2405.81117616501 0.0 0.0
1205.5801123865542 1205.5801123865542 0.0 0.0
1112.1280204027203 1112.1280204027203 0.0 0.0
841.8333945988688 841.8333945988688 0.0 0.0
600.3735665163559 600.3735665163559 0.0 0.0
431.9677358387559 431.9677358387559 0.0 0.0
302.9621796134917 302.9621796134917 0.0 0.0
211.343132066738 211.343132066738 0.0 0.0
149.53833156245187 149.53833156245187 0.0 0.0
79.99070065196119 79.99070065196119 0.0 0.0
60.68849722169379 60.68849722169379 0.0 0.0
35.26404552789069 35.26404552789069 0.0 0.0
81.21043447539955 81.21043447539955 0.0 0.0
244.5187078468661 244.5187078468661 0.0 0.0
509.68885288315374 509.68885288315374 0.0 0.0
880.6021758238766 880.6021758238766 0.0 0.0
1373.1384448631495 1373.1384448631495 0.0 0.0
2001.9025288701237 2001.9025288701237 0.0 0.0
2784.2238254755866 2784.2238254755866 0.0 0.0
3922.963855311553 3922.963855311553 0.0 0.0
4272.114672767861 4272.114672767861 0.0 0.0
6965.881656449955 6965.881656449955 0.0 0.0
4282.3686333941005 4282.3686333941005 0.0 0.0
3941.5431038415286 3941.5431038415286 0.0 0.0
2808.9757820925815 2808.9757820925815 0.0 0.0
2030.8355095454535 2030.8355095454535 0.0 0.0
1403.0163356845949 1403.0163356845949 0.0 0.0
907.1150015250139 907.1150015250139 0.0 0.0
527.7066534103194 527.7066534103194 0.0 0.0
251.6055923240898 251.6055923240898 0.0 0.0
81.76142588433201 81.76142588433201 0.0 0.0
29.2709694410461 29.2709694410461 0.0 0.0
33.24604144297607 33.24604144297607 0.0 0.0
120.73512901172982 120.73512901172982 0.0 0.0
470.8210409658529 470.8210409658529 0.0 0.0
1091.2561620959348 1091.2561620959348 0.0 0.0
1932.072397149839 1932.072397149839 0.0 0.0
3022.004001756799 3022.004001756799 0.0 0.0
4410.724222761849 4410.724222761849 0.0 0.0
6094.308058859783 6094.308058859783 0.0 0.0
8050.912526495014 8050.912526495014 0.0 0.0
9944.28623297729 9944.28623297729 0.0 0.0
18810.971503037086 18810.971503037086 0.0 0.0
9958.833385299586 9958.833385299586 0.0 0.0
8079.305821974881 8079.305821974881 0.0 0.0
6132.613296821963 6132.613296821963 0.0 0.0
4454.5999162350745 4454.5999162350745 0.0 0.0
3064.9487145659555 3064.9487145659555 0.0 0.0
1965.0386965321077 1965.0386965321077 0.0 0.0
1105.9506959396908 1105.9506959396908 0.0 0.0
470.2521504797052 470.2521504797052 0.0 0.0
117.44994954183943 117.44994954183943 0.0 0.0
28.126466955668 28.126466955668 0.0 0.0
741.9572798793658 741.9572798793658 0.0 0.0
482.43403860697106 482.43403860697106 0.0 0.0
614.7003530533215 614.7003530533215 0.0 0.0
1215.9999568751919 1215.9999568751919 0.0 0.0
2075.7592493431816 2075.7592493431816 0.0 0.0
3184.623959846036 3184.623959846036 0.0 0.0
4542.806907538661 4542.806907538661 0.0 0.0
6248.490005364108 6248.490005364108 0.0 0.0
8515.184506726022 8515.184506726022 0.0 0.0
11184.88751507519 11184.88751507519 0.0 0.0
12602.851744157853 12602.851744157853 0.0 0.0
11178.705051143452 11178.705051143452 0.0 0.0
8503.238233970864 8503.238233970864 0.0 0.0
6230.890004813052 6230.890004813052 0.0 0.0
4519.172627518622 4519.172627518622 0.0 0.0
3154.7233041816744 3154.7233041816744 0.0 0.0
2039.999006051025 2039.999006051025 0.0 0.0
1176.772605944687 1176.772605944687 0.0 0.0
567.4500772646787 567.4500772646787 0.0 0.0
376.105917216479 376.105917216479 0.0 0.0
732.1623770206273 732.1623770206273 0.0 0.0
627.8050784553304 627.8050784553304 0.0 0.0
81.27104939050895 81.27104939050895 0.0 0.0
271.09997858521024 271.09997858521024 0.0 0.0
575.3037721329684 575.3037721329684 0.0 0.0
966.1030437123128 966.1030437123128 0.0 0.0
1464.2219476608675 1464.2219476608675 0.0 0.0
2071.9953814340897 2071.9953814340897 0.0 0.0
2820.621934652658 2820.621934652658 0.0 0.0
3796.8624031295317 3796.8624031295317 0.0 0.0
4972.840056826102 4972.840056826102 0.0 0.0
5665.99511032001 5665.99511032001 0.0 0.0
4968.597766785788 4968.597766785788 0.0 0.0
3788.5857860060405 3788.5857860060405 0.0 0.0
2808.5939180353257 2808.5939180353257 0.0 0.0
2056.4098877967767 2056.4098877967767 0.0 0.0
1445.364981708027 1445.364981708027 0.0 0.0
944.8641215215563 944.8641215215563 0.0 0.0
552.3849783396571 552.3849783396571 0.0 0.0
252.32112338075714 252.32112338075714 0.0 0.0
75.99851971163196 75.99851971163196 0.0 0.0
607.3218901277361 607.3218901277361 0.0 0.0
348.66729783384875 348.66729783384875 0.0 0.0
56.42484444791937 56.42484444791937 0.0 0.0
116.96698604307475 116.96698604307475 0.0 0.0
206.70533207099376 206.70533207099376 0.0 0.0
320.28907864416647 320.28907864416647 0.0 0.0
451.07863082403793 451.07863082403793 0.0 0.0
604.1094140532447 604.1094140532447 0.0 0.0
777.1756317688321 777.1756317688321 0.0 0.0
1040.1575273141866 1040.1575273141866 0.0 0.0
1540.0165042561625 1540.0165042561625 0.0 0.0
2028.0111340422723 2028.0111340422723 0.0 0.0
1538.344109841193 1538.344109841193 0.0 0.0
1036.631904428947 1036.631904428947 0.0 0.0
771.9810480663905 771.9810480663905 0.0 0.0
597.596969394751 597.596969394751 0.0 0.0
443.80205608429543 443.80205608429543 0.0 0.0
312.91403838089815 312.91403838089815 0.0 0.0
201.13186823692212 201.13186823692212 0.0 0.0
118.1562498176674 118.1562498176674 0.0 0.0
63.69302413477846 63.69302413477846 0.0 0.0
350.24917312685756 350.24917312685756 0.0 0.0
177.34465752459892 177.34465752459892 0.0 0.0
75.80643999982193 75.80643999982193 0.0 0.0
97.37832981690907 97.37832981690907 0.0 0.0
93.12461941667796 93.12461941667796 0.0 0.0
100.2840966766224 100.2840966766224 0.0 0.0
108.54720933058935 108.54720933058935 0.0 0.0
118.7714692731052 118.7714692731052 0.0 0.0
123.50777375598547 123.50777375598547 0.0 0.0
144.55993180857487 144.55993180857487 0.0 0.0
327.1594556811261 327.1594556811261 0.0 0.0
922.8415748640623 922.8415748640623 0.0 0.0
328.17594188647774 328.17594188647774 0.0 0.0
145.9783039289424 145.9783039289424 0.0 0.0
125.27682831167367 125.27682831167367 0.0 0.0
120.99762021247147 120.99762021247147 0.0 0.0
111.4804100049815 111.4804100049815 0.0 0.0
104.37153231356938 104.37153231356938 0.0 0.0
99.30992444692693 99.30992444692693 0.0 0.0
105.34000850667944 105.34000850667944 0.0 0.0
81.94420435101696 81.94420435101696 0.0 0.0
174.1546002660984 174.1546002660984 0.0 0.0
78.46907715736657 78.46907715736657 0.0 0.0
83.14899476423521 83.14899476423521 0.0 0.0
147.29295457809334 147.29295457809334 0.0 0.0
203.51977397946217 203.51977397946217 0.0 0.0
294.8452331104674 294.8452331104674 0.0 0.0
425.7953824629716 425.7953824629716 0.0 0.0
593.8082450300052 593.8082450300052 0.0 0.0
826.462431801363 826.462431801363 0.0 0.0
1075.5696501863004 1075.5696501863004 0.0 0.0
1158.0536948654458 1158.0536948654458 0.0 0.0
2304.4438814798377 2304.4438814798377 0.0 0.0
1161.7297620759173 1161.7297620759173 0.0 0.0
1081.9400790634963 1081.9400790634963 0.0 0.0
835.0958981257512 835.0958981257512 0.0 0.0
604.0822139698521 604.0822139698521 0.0 0.0
437.13748994009046 437.13748994009046 0.0 0.0
306.54772503338484 306.54772503338484 0.0 0.0
214.30633824912823 214.30633824912823 0.0 0.0
154.44304332320095 154.44304332320095 0.0 0.0
85.35734359917447 85.35734359917447 0.0 0.0
74.59202949144745 74.59202949144745 0.0 0.0
40.41008439374657 40.41008439374657 0.0 0.0
90.36002669445445 90.36002669445445 0.0 0.0
262.80816027627236 262.80816027627236 0.0 0.0
537.3856475571586 537.3856475571586 0.0 0.0
918.6224562175864 918.6224562175864 0.0 0.0
1419.4954461923296 1419.4954461923296 0.0 0.0
2046.1154564949832 2046.1154564949832 0.0 0.0
2801.2687886217286 2801.2687886217286 0.0 0.0
3860.613323679418 3860.613323679418 0.0 0.0
4167.567249949779 4167.567249949779 0.0 0.0
6706.348223433777 6706.348223433777 0.0 0.0
4173.990203813827 4173.990203813827 0.0 0.0
3872.5013721897967 3872.5013721897967 0.0 0.0
2817.199225361274 2817.199225361274 0.0 0.0
2064.5467167588154 2064.5467167588154 0.0 0.0
1438.1594700172807 1438.1594700172807 0.0 0.0
934.7026701732972 934.7026701732972 0.0 0.0
547.8841235818834 547.8841235818834 0.0 0.0
266.7342854269715 266.7342854269715 0.0 0.0
90.45295976894005 90.45295976894005 0.0 0.0
37.17055300667475 37.17055300667475 0.0 0.0
40.48480253570143 40.48480253570143 0.0 0.0
136.93694370227882 136.93694370227882 0.0 0.0
504.87266793277615 504.87266793277615 0.0 0.0
1147.0661296552382 1147.0661296552382 0.0 0.0
2012.4962142046757 2012.4962142046757 0.0 0.0
3123.270997962549 3123.270997962549 0.0 0.0
4511.4880143920545 4511.4880143920545 0.0 0.0
6136.624905029308 6136.624905029308 0.0 0.0
7932.023948767185 7932.023948767185 0.0 0.0
9670.237922739085 9670.237922739085 0.0 0.0
18044.034721349442 18044.034721349442 0.0 0.0
9680.125843066131 9680.125843066131 0.0 0.0
7951.021582683808 7951.021582683808 0.0 0.0
6161.998916763048 6161.998916763048 0.0 0.0
4540.135406069905 4540.135406069905 0.0 0.0
3150.805856304425 3150.805856304425 0.0 0.0
2033.1637951453188 2033.1637951453188 0.0 0.0
1156.0166512620865 1156.0166512620865 0.0 0.0
504.77223709497014 504.77223709497014 0.0 0.0
135.59912882560803 135.59912882560803 0.0 0.0
38.0043945933829 38.0043945933829 0.0 0.0
1046.2799561114693 1046.2799561114693 0.0 0.0
431.6955970172855 431.6955970172855 0.0 0.0
641.2090588440726 641.2090588440726 0.0 0.0
1291.9331613664372 1291.9331613664372 0.0 0.0
2215.0229405186165 2215.0229405186165 0.0 0.0
3419.458324871598 3419.458324871598 0.0 0.0
4862.921525803737 4862.921525803737 0.0 0.0
6530.366021125779 6530.366021125779 0.0 0.0
8405.620015892084 8405.620015892084 0.0 0.0
10249.863556554927 10249.863556554927 0.0 0.0
11135.30103876975 11135.30103876975 0.0 0.0
10254.948536885919 10254.948536885919 0.0 0.0
8415.11581142643 8415.11581142643 0.0 0.0
6544.13671756696 6544.13671756696 0.0 0.0
4881.735418313111 4881.735418313111 0.0 0.0
3444.733933368693 3444.733933368693 0.0 0.0
2248.849688549493 2248.849688549493 0.0 0.0
1334.8725309753877 1334.8725309753877 0.0 0.0
701.969490033849 701.969490033849 0.0 0.0
515.6620109074512 515.6620109074512 0.0 0.0
1019.7383070530138 1019.7383070530138 0.0 0.0
839.0276496172257 839.0276496172257 0.0 0.0
73.00096002001371 73.00096002001371 0.0 0.0
270.5853250250353 270.5853250250353 0.0 0.0
588.8681947524154 588.8681947524154 0.0 0.0
1008.2197324257544 1008.2197324257544 0.0 0.0
1546.4430088350614 1546.4430088350614 0.0 0.0
2191.2523499581116 2191.2523499581116 0.0 0.0
2925.4093549964173 2925.4093549964173 0.0 0.0
3736.6020695319326 3736.6020695319326 0.0 0.0
4550.419795748672 4550.419795748672 0.0 0.0
4980.985754374328 4980.985754374328 0.0 0.0
4553.704598105614 4553.704598105614 0.0 0.0
3742.878028438734 3742.878028438734 0.0 0.0
2934.590860499488 2934.590860499488 0.0 0.0
2203.5910300047376 2203.5910300047376 0.0 0.0
1562.5226753855786 1562.5226753855786 0.0 0.0
1028.6315467418622 1028.6315467418622 0.0 0.0
614.9319334469158 614.9319334469158 0.0 0.0
296.2148282448387 296.2148282448387 0.0 0.0
83.92185695003432 83.92185695003432 0.0 0.0
844.2236279706553 844.2236279706553 0.0 0.0
504.11300529958777 504.11300529958777 0.0 0.0
59.2827945908501 59.2827945908501 0.0 0.0
115.7719222589034 115.7719222589034 0.0 0.0
195.27476078081122 195.27476078081122 0.0 0.0
313.53305937041495 313.53305937041495 0.0 0.0
454.3311582732518 454.3311582732518 0.0 0.0
620.1100919801754 620.1100919801754 0.0 0.0
799.0863705576437 799.0863705576437 0.0 0.0
1010.4083777697599 1010.4083777697599 0.0 0.0
1332.3535510221186 1332.3535510221186 0.0 0.0
1621.1720901109911 1621.1720901109911 0.0 0.0
1333.9041911135696 1333.9041911135696 0.0 0.0
1013.4604895999348 1013.4604895999348 0.0 0.0
803.5330499928202 803.5330499928202 0.0 0.0
625.8072106537124 625.8072106537124 0.0 0.0
461.1277974713418 461.1277974713418 0.0 0.0
321.40912214604157 321.40912214604157 0.0 0.0
203.2389825673833 203.2389825673833 0.0 0.0
118.08224741172594 118.08224741172594 0.0 0.0
51.898920245801136 51.898920245801136 0.0 0.0
499.7899865105145 499.7899865105145 0.0 0.0
250.66322891906398 250.66322891906398 0.0 0.0
82.68768176955038 82.68768176955038 0.0 0.0
101.15440967897099 101.15440967897099 0.0 0.0
87.27317981426528 87.27317981426528 0.0 0.0
90.70741222736237 90.70741222736237 0.0 0.0
98.95363627568534 98.95363627568534 0.0 0.0
109.95003531461492 109.95003531461492 0.0 0.0
116.64379530535378 116.64379530535378 0.0 0.0
123.05769272294924 123.05769272294924 0.0 0.0
223.71318568901677 223.71318568901677 0.0 0.0
547.2484598868892 547.2484598868892 0.0 0.0
223.3856875670957 223.3856875670957 0.0 0.0
122.8822049299304 122.8822049299304 0.0 0.0
116.57944239965228 116.57944239965228 0.0 0.0
109.68250724599103 109.68250724599103 0.0 0.0
98.10150656357268 98.10150656357268 0.0 0.0
88.7761215080817 88.7761215080817 0.0 0.0
83.2432961596606 83.2432961596606 0.0 0.0
94.2321739801599 94.2321739801599 0.0 0.0
73.65416355091469 73.65416355091469 0.0 0.0
252.33451610117345 252.33451610117345 0.0 0.0
103.85347946963604 103.85347946963604 0.0 0.0
88.83855286065362 88.83855286065362 0.0 0.0
158.65279497957263 158.65279497957263 0.0 0.0
223.64737921966997 223.64737921966997 0.0 0.0
324.10893149243367 324.10893149243367 0.0 0.0
463.9295961574661 463.9295961574661 0.0 0.0
634.2657745323572 634.2657745323572 0.0 0.0
844.8923230439248 844.8923230439248 0.0 0.0
1044.2745426387125 1044.2745426387125 0.0 0.0
1102.0695558650332 1102.0695558650332 0.0 0.0
1669.6680585095542 1669.6680585095542 0.0 0.0
1099.7704229150454 1099.7704229150454 0.0 0.0
1041.0781734756388 1041.0781734756388 0.0 0.0
840.7653448370243 840.7653448370243 0.0 0.0
629.0769191494746 629.0769191494746 0.0 0.0
457.63805374842536 457.63805374842536 0.0 0.0
316.6967978955988 316.6967978955988 0.0 0.0
215.63098385348889 215.63098385348889 0.0 0.0
151.82485796174677 151.82485796174677 0.0 0.0
83.55558510587761 83.55558510587761 0.0 0.0
106.0754117905842 106.0754117905842 0.0 0.0
45.745472651202384 45.745472651202384 0.0 0.0
96.74316492541791 96.74316492541791 0.0 0.0
290.96191258029717 290.96191258029717 0.0 0.0
605.9651657514798 605.9651657514798 0.0 0.0
1031.214548864025 1031.214548864025 0.0 0.0
1570.9629042452327 1570.9629042452327 0.0 0.0
2218.753217555299 2218.753217555299 0.0 0.0
2947.6154843869317 2947.6154843869317 0.0 0.0
3831.6704765405993 3831.6704765405993 0.0 0.0
4069.2912736171206 4069.2912736171206 0.0 0.0
5249.99215147566 5249.99215147566 0.0 0.0
4065.270805932433 4065.270805932433 0.0 0.0
3825.9700597326037 3825.9700597326037 0.0 0.0
2939.7747825170854 2939.7747825170854 0.0 0.0
2209.333515955494 2209.333515955494 0.0 0.0
1561.0023275943975 1561.0023275943975 0.0 0.0
1022.1841821712628 1022.1841821712628 0.0 0.0
599.8089157743412 599.8089157743412 0.0 0.0
288.6047752725228 288.6047752725228 0.0 0.0
95.48590284308631 95.48590284308631 0.0 0.0
46.6761374712928 46.6761374712928 0.0 0.0
42.47629925849892 42.47629925849892 0.0 0.0
150.0178177505251 150.0178177505251 0.0 0.0
565.8953660013799 565.8953660013799 0.0 0.0
1294.1267648236155 1294.1267648236155 0.0 0.0
2258.16452799133 2258.16452799133 0.0 0.0
3460.9424675895 3460.9424675895 0.0 0.0
4910.589298029498 4910.589298029498 0.0 0.0
6526.676009850364 6526.676009850364 0.0 0.0
8144.172220128344 8144.172220128344 0.0 0.0
9241.149094637456 9241.149094637456 0.0 0.0
13865.42246135567 13865.42246135567 0.0 0.0
9238.275218689325 9238.275218689325 0.0 0.0
8136.672255584197 8136.672255584197 0.0 0.0
6515.224461826076 6515.224461826076 0.0 0.0
4896.857961312235 4896.857961312235 0.0 0.0
3447.3128594247046 3447.3128594247046 0.0 0.0
2248.208715125494 2248.208715125494 0.0 0.0
1291.623597631085 1291.623597631085 0.0 0.0
570.0400395784537 570.0400395784537 0.0 0.0
153.6903646529734 153.6903646529734 0.0 0.0
44.3051710167983 44.3051710167983 0.0 0.0
2811.0509946839684 2811.0509946839684 0.0 0.0
508.6645338753651 508.6645338753651 0.0 0.0
606.0243050526155 606.0243050526155 0.0 0.0
1268.7172716927114 1268.7172716927114 0.0 0.0
2238.0702332263068 2238.0702332263068 0.0 0.0
3527.2108136553547 3527.2108136553547 0.0 0.0
5079.015761198718 5079.015761198718 0.0 0.0
6815.072698493466 6815.072698493466 0.0 0.0
8484.674258218352 8484.674258218352 0.0 0.0
9638.475631682135 9638.475631682135 0.0 0.0
10009.666285044692 10009.666285044692 0.0 0.0
9653.056636521735 9653.056636521735 0.0 0.0
8513.82727070091 8513.82727070091 0.0 0.0
6859.538967656082 6859.538967656082 0.0 0.0
5140.090657594812 5140.090657594812 0.0 0.0
3605.389132959104 3605.389132959104 0.0 0.0
2331.170252653364 2331.170252653364 0.0 0.0
1370.7382042770937 1370.7382042770937 0.0 0.0
720.6225204158998 720.6225204158998 0.0 0.0
802.9994126432562 802.9994126432562 0.0 0.0
2693.1293335377895 2693.1293335377895 0.0 0.0
2086.8478538127597 2086.8478538127597 0.0 0.0
63.14434869637773 63.14434869637773 0.0 0.0
281.7249508925268 281.7249508925268 0.0 0.0
602.1997744033773 602.1997744033773 0.0 0.0
1033.6897398802787 1033.6897398802787 0.0 0.0
1594.23982654771 1594.23982654771 0.0 0.0
2272.3042602774435 2272.3042602774435 0.0 0.0
3037.0622266392775 3037.0622266392775 0.0 0.0
3787.848219656943 3787.848219656943 0.0 0.0
4320.888824844573 4320.888824844573 0.0 0.0
4494.287505918437 4494.287505918437 0.0 0.0
4330.344996634615 4330.344996634615 0.0 0.0
3806.6877792497507 3806.6877792497507 0.0 0.0
3065.4913958284938 3065.4913958284938 0.0 0.0
2310.49817917189 2310.49817917189 0.0 0.0
1641.7237394190083 1641.7237394190083 0.0 0.0
1088.0006537996758 1088.0006537996758 0.0 0.0
659.162781789198 659.162781789198 0.0 0.0
322.157927112418 322.157927112418 0.0 0.0
72.92203050648283 72.92203050648283 0.0 0.0
2191.8847711519707 2191.8847711519707 0.0 0.0
1160.9252027548737 1160.9252027548737 0.0 0.0
172.40767143384048 172.40767143384048 0.0 0.0
242.10516966357315 242.10516966357315 0.0 0.0
315.14662956052683 315.14662956052683 0.0 0.0
435.9832110406841 435.9832110406841 0.0 0.0
575.7318184744425 575.7318184744425 0.0 0.0
747.1845850485345 747.1845850485345 0.0 0.0
959.2099276323515 959.2099276323515 0.0 0.0
1189.8212252846113 1189.8212252846113 0.0 0.0
1343.3218255541103 1343.3218255541103 0.0 0.0
1386.7687966303527 1386.7687966303527 0.0 0.0
1347.2045381276246 1347.2045381276246 0.0 0.0
1197.2066279816925 1197.2066279816925 0.0 0.0
969.8875111505906 969.8875111505906 0.0 0.0
760.764795747201 760.764795747201 0.0 0.0
591.2397616998455 591.2397616998455 0.0 0.0
451.5475988009512 451.5475988009512 0.0 0.0
324.29575438801976 324.29575438801976 0.0 0.0
235.55218035194144 235.55218035194144 0.0 0.0
145.8991558090769 145.8991558090769 0.0 0.0
1211.3317068657325 1211.3317068657325 0.0 0.0
535.5020577565283 535.5020577565283 0.0 0.0
250.13517599954642 250.13517599954642 0.0 0.0
311.82740572028627 311.82740572028627 0.0 0.0
285.49068388407784 285.49068388407784 0.0 0.0
281.79291102104094 281.79291102104094 0.0 0.0
277.60123788492115 277.60123788492115 0.0 0.0
272.6873111610546 272.6873111610546 0.0 0.0
281.9470862259341 281.9470862259341 0.0 0.0
325.8903799841398 325.8903799841398 0.0 0.0
374.4208544720016 374.4208544720016 0.0 0.0
406.2008213050209 406.2008213050209 0.0 0.0
373.04782762598484 373.04782762598484 0.0 0.0
322.6030976196252 322.6030976196252 0.0 0.0
276.4900629596694 276.4900629596694 0.0 0.0
264.645960254556 264.645960254556 0.0 0.0
266.40037350203806 266.40037350203806 0.0 0.0
266.2438046704644 266.2438046704644 0.0 0.0
263.5056776680712 263.5056776680712 0.0 0.0
286.6824345030048 286.6824345030048 0.0 0.0
229.3996312295004 229.3996312295004 0.0 0.0
563.6512267238655 563.6512267238655 0.0 0.0
203.27515398843425 203.27515398843425 0.0 0.0
230.02696072299247 230.02696072299247 0.0 0.0
368.4752863664412 368.4752863664412 0.0 0.0
433.9608825063849 433.9608825063849 0.0 0.0
523.2566888038128 523.2566888038128 0.0 0.0
646.9962248447143 646.9962248447143 0.0 0.0
793.4684460624654 793.4684460624654 0.0 0.0
936.1142907133401 936.1142907133401 0.0 0.0
1096.4048757302137 1096.4048757302137 0.0 0.0
1347.8444747642457 1347.8444747642457 0.0 0.0
1508.7832395495543 1508.7832395495543 0.0 0.0
1341.683405910269 1341.683405910269 0.0 0.0
1083.7537007221772 1083.7537007221772 0.0 0.0
916.9852780437859 916.9852780437859 0.0 0.0
768.1577890426557 768.1577890426557 0.0 0.0
616.3197579940771 616.3197579940771 0.0 0.0
488.7997170612221 488.7997170612221 0.0 0.0
399.96997340942517 399.96997340942517 0.0 0.0
344.59066579047095 344.59066579047095 0.0 0.0
219.76861752978618 219.76861752978618 0.0 0.0
213.8641776000554 213.8641776000554 0.0 0.0
70.92746430643072 70.92746430643072 0.0 0.0
175.54096593328592 175.54096593328592 0.0 0.0
436.15878448888736 436.15878448888736 0.0 0.0
780.5870648563221 780.5870648563221 0.0 0.0
1209.464211157468 1209.464211157468 0.0 0.0
1741.1958557460548 1741.1958557460548 0.0 0.0
2363.648407541309 2363.648407541309 0.0 0.0
3042.3475847433074 3042.3475847433074 0.0 0.0
3565.7825522731832 3565.7825522731832 0.0 0.0
4348.967234133668 4348.967234133668 0.0 0.0
4730.865207190686 4730.865207190686 0.0 0.0
4338.044811397104 4338.044811397104 0.0 0.0
3544.382992251933 3544.382992251933 0.0 0.0
3010.3383315700225 3010.3383315700225 0.0 0.0
2323.376572161027 2323.376572161027 0.0 0.0
1696.1856481650475 1696.1856481650475 0.0 0.0
1166.0898774314996 1166.0898774314996 0.0 0.0
748.1084416874978 748.1084416874978 0.0 0.0
421.16528705022745 421.16528705022745 0.0 0.0
171.62936723136474 171.62936723136474 0.0 0.0
73.55255368761254 73.55255368761254 0.0 0.0
43.58146275871307 43.58146275871307 0.0 0.0
189.48067086944286 189.48067086944286 0.0 0.0
687.9332037558787 687.9332037558787 0.0 0.0
1503.1771164769946 1503.1771164769946 0.0 0.0
2518.224914901455 2518.224914901455 0.0 0.0
3754.9886478414223 3754.9886478414223 0.0 0.0
5210.017557294044 5210.017557294044 0.0 0.0
6837.825113919049 6837.825113919049 0.0 0.0
8500.314322579477 8500.314322579477 0.0 0.0
10090.988027865045 10090.988027865045 0.0 0.0
8676.482048646398 8676.482048646398 0.0 0.0
10076.901851472718 10076.901851472718 0.0 0.0
8466.946432463752 8466.946432463752 0.0 0.0
6788.886474129953 6788.886474129953 0.0 0.0
5150.227545235377 5150.227545235377 0.0 0.0
3692.2010960883426 3692.2010960883426 0.0 0.0
2465.676462409122 2465.676462409122 0.0 0.0
1475.619231563805 1475.619231563805 0.0 0.0
685.381403616711 685.381403616711 0.0 0.0
192.92921684445963 192.92921684445963 0.0 0.0
46.157307857741344 46.157307857741344 0.0 0.0