# vtk DataFile Version 3.0
Some data
ASCII
DATASET UNSTRUCTURED_GRID
POINTS 1029 float
0.0 0.0 0.0
0.8 0.0 0.0
1.6 0.0 0.0
2.4000000000000004 0.0 0.0
3.2 0.0 0.0
4.0 0.0 0.0
4.800000000000001 0.0 0.0
5.6000000000000005 0.0 0.0
6.4 0.0 0.0
7.2 0.0 0.0
8.0 0.0 0.0
8.8 0.0 0.0
9.600000000000001 0.0 0.0
10.4 0.0 0.0
11.200000000000001 0.0 0.0
12.0 0.0 0.0
12.8 0.0 0.0
13.600000000000001 0.0 0.0
14.4 0.0 0.0
15.200000000000001 0.0 0.0
16.0 0.0 0.0
0.0 0.3333333333333333 0.0
0.8 0.3333333333333333 0.0
1.6 0.3333333333333333 0.0
2.4000000000000004 0.3333333333333333 0.0
3.2 0.3333333333333333 0.0
4.0 0.3333333333333333 0.0
4.800000000000001 0.3333333333333333 0.0
5.6000000000000005 0.3333333333333333 0.0
6.4 0.3333333333333333 0.0
7.2 0.3333333333333333 0.0
8.0 0.3333333333333333 0.0
8.8 0.3333333333333333 0.0
9.600000000000001 0.3333333333333333 0.0
10.4 0.3333333333333333 0.0
11.200000000000001 0.3333333333333333 0.0
12.0 0.3333333333333333 0.0
12.8 0.3333333333333333 0.0
13.600000000000001 0.3333333333333333 0.0
14.4 0.3333333333333333 0.0
15.200000000000001 0.3333333333333333 0.0
16.0 0.3333333333333333 0.0
0.0 0.6666666666666666 0.0
0.8 0.6666666666666666 0.0
1.6 0.6666666666666666 0.0
2.4000000000000004 0.6666666666666666 0.0
3.2 0.6666666666666666 0.0
4.0 0.6666666666666666 0.0
4.800000000000001 0.6666666666666666 0.0
5.6000000000000005 0.6666666666666666 0.0
6.4 0.6666666666666666 0.0
7.2 0.6666666666666666 0.0
8.0 0.6666666666666666 0.0
8.8 0.6666666666666666 0.0
9.600000000000001 0.6666666666666666 0.0
10.4 0.6666666666666666 0.0
11.200000000000001 0.6666666666666666 0.0
12.0 0.6666666666666666 0.0
12.8 0.6666666666666666 0.0
13.600000000000001 0.6666666666666666 0.0
14.4 0.6666666666666666 0.0
15.200000000000001 0.6666666666666666 0.0
16.0 0.6666666666666666 0.0
0.0 1.0 0.0
0.8 1.0 0.0
1.6 1.0 0.0
2.4000000000000004 1.0 0.0
3.2 1.0 0.0
4.0 1.0 0.0
4.800000000000001 1.0 0.0
5.6000000000000005 1.0 0.0
6.4 1.0 0.0
7.2 1.0 0.0
8.0 1.0 0.0
8.8 1.0 0.0
9.600000000000001 1.0 0.0
10.4 1.0 0.0
11.200000000000001 1.0 0.0
12.0 1.0 0.0
12.8 1.0 0.0
13.600000000000001 1.0 0.0
14.4 1.0 0.0
15.200000000000001 1.0 0.0
16.0 1.0 0.0
0.0 1.3333333333333333 0.0
0.8 1.3333333333333333 0.0
1.6 1.3333333333333333 0.0
2.4000000000000004 1.3333333333333333 0.0
3.2 1.3333333333333333 0.0
4.0 1.3333333333333333 0.0
4.800000000000001 1.3333333333333333 0.0
5.6000000000000005 1.3333333333333333 0.0
6.4 1.3333333333333333 0.0
7.2 1.3333333333333333 0.0
8.0 1.3333333333333333 0.0
8.8 1.3333333333333333 0.0
9.600000000000001 1.3333333333333333 0.0
10.4 1.3333333333333333 0.0
11.200000000000001 1.3333333333333333 0.0
12.0 1.3333333333333333 0.0
12.8 1.3333333333333333 0.0
13.600000000000001 1.3333333333333333 0.0
14.4 1.3333333333333333 0.0
15.200000000000001 1.3333333333333333 0.0
16.0 1.3333333333333333 0.0
0.0 1.6666666666666665 0.0
0.8 1.6666666666666665 0.0
1.6 1.6666666666666665 0.0
2.4000000000000004 1.6666666666666665 0.0
3.2 1.6666666666666665 0.0
4.0 1.6666666666666665 0.0
4.800000000000001 1.6666666666666665 0.0
5.6000000000000005 1.6666666666666665 0.0
6.4 1.6666666666666665 0.0
7.2 1.6666666666666665 0.0
8.0 1.6666666666666665 0.0
8.8 1.6666666666666665 0.0
9.600000000000001 1.6666666666666665 0.0
10.4 1.6666666666666665 0.0
11.200000000000001 1.6666666666666665 0.0
12.0 1.6666666666666665 0.0
12.8 1.6666666666666665 0.0
13.600000000000001 1.6666666666666665 0.0
14.4 1.6666666666666665 0.0
15.200000000000001 1.6666666666666665 0.0
16.0 1.6666666666666665 0.0
0.0 2.0 0.0
0.8 2.0 0.0
1.6 2.0 0.0
2.4000000000000004 2.0 0.0
3.2 2.0 0.0
4.0 2.0 0.0
4.800000000000001 2.0 0.0
5.6000000000000005 2.0 0.0
6.4 2.0 0.0
7.2 2.0 0.0
8.0 2.0 0.0
8.8 2.0 0.0
9.600000000000001 2.0 0.0
10.4 2.0 0.0
11.200000000000001 2.0 0.0
12.0 2.0 0.0
12.8 2.0 0.0
13.600000000000001 2.0 0.0
14.4 2.0 0.0
15.200000000000001 2.0 0.0
16.0 2.0 0.0
0.0 0.0 1.6666666666666667
0.8 0.0 1.6666666666666667
1.6 0.0 1.6666666666666667
2.4000000000000004 0.0 1.6666666666666667
3.2 0.0 1.6666666666666667
4.0 0.0 1.6666666666666667
4.800000000000001 0.0 1.6666666666666667
5.6000000000000005 0.0 1.6666666666666667
6.4 0.0 1.6666666666666667
7.2 0.0 1.6666666666666667
8.0 0.0 1.6666666666666667
8.8 0.0 1.6666666666666667
9.600000000000001 0.0 1.6666666666666667
10.4 0.0 1.6666666666666667
11.200000000000001 0.0 1.6666666666666667
12.0 0.0 1.6666666666666667
12.8 0.0 1.6666666666666667
13.600000000000001 0.0 1.6666666666666667
14.4 0.0 1.6666666666666667
15.200000000000001 0.0 1.6666666666666667
16.0 0.0 1.6666666666666667
0.0 0.3333333333333333 1.6666666666666667
0.8 0.3333333333333333 1.6666666666666667
1.6 0.3333333333333333 1.6666666666666667
2.4000000000000004 0.3333333333333333 1.6666666666666667
3.2 0.3333333333333333 1.6666666666666667
4.0 0.3333333333333333 1.6666666666666667
4.800000000000001 0.3333333333333333 1.6666666666666667
5.6000000000000005 0.3333333333333333 1.6666666666666667
6.4 0.3333333333333333 1.6666666666666667
7.2 0.3333333333333333 1.6666666666666667
8.0 0.3333333333333333 1.6666666666666667
8.8 0.3333333333333333 1.6666666666666667
9.600000000000001 0.3333333333333333 1.6666666666666667
10.4 0.3333333333333333 1.6666666666666667
11.200000000000001 0.3333333333333333 1.6666666666666667
12.0 0.3333333333333333 1.6666666666666667
12.8 0.3333333333333333 1.6666666666666667
13.600000000000001 0.3333333333333333 1.6666666666666667
14.4 0.3333333333333333 1.6666666666666667
15.200000000000001 0.3333333333333333 1.6666666666666667
16.0 0.3333333333333333 1.6666666666666667
0.0 0.6666666666666666 1.6666666666666667
0.8 0.6666666666666666 1.6666666666666667
1.6 0.6666666666666666 1.6666666666666667
2.4000000000000004 0.6666666666666666 1.6666666666666667
3.2 0.6666666666666666 1.6666666666666667
4.0 0.6666666666666666 1.6666666666666667
4.800000000000001 0.6666666666666666 1.6666666666666667
5.6000000000000005 0.6666666666666666 1.6666666666666667
6.4 0.6666666666666666 1.6666666666666667
7.2 0.6666666666666666 1.6666666666666667
8.0 0.6666666666666666 1.6666666666666667
8.8 0.6666666666666666 1.6666666666666667
9.600000000000001 0.6666666666666666 1.6666666666666667
10.4 0.6666666666666666 1.6666666666666667
11.200000000000001 0.6666666666666666 1.6666666666666667
12.0 0.6666666666666666 1.6666666666666667
12.8 0.6666666666666666 1.6666666666666667
13.600000000000001 0.6666666666666666 1.6666666666666667
14.4 0.6666666666666666 1.6666666666666667
15.200000000000001 0.6666666666666666 1.6666666666666667
16.0 0.6666666666666666 1.6666666666666667
0.0 1.0 1.6666666666666667
0.8 1.0 1.6666666666666667
1.6 1.0 1.6666666666666667
2.4000000000000004 1.0 1.6666666666666667
3.2 1.0 1.6666666666666667
4.0 1.0 1.6666666666666667
4.800000000000001 1.0 1.6666666666666667
5.6000000000000005 1.0 1.6666666666666667
6.4 1.0 1.6666666666666667
7.2 1.0 1.6666666666666667
8.0 1.0 1.6666666666666667
8.8 1.0 1.6666666666666667
9.600000000000001 1.0 1.6666666666666667
10.4 1.0 1.6666666666666667
11.200000000000001 1.0 1.6666666666666667
12.0 1.0 1.6666666666666667
12.8 1.0 1.6666666666666667
13.600000000000001 1.0 1.6666666666666667
14.4 1.0 1.6666666666666667
15.200000000000001 1.0 1.6666666666666667
16.0 1.0 1.6666666666666667
0.0 1.3333333333333333 1.6666666666666667
0.8 1.3333333333333333 1.6666666666666667
1.6 1.3333333333333333 1.6666666666666667
2.4000000000000004 1.3333333333333333 1.6666666666666667
3.2 1.3333333333333333 1.6666666666666667
4.0 1.3333333333333333 1.6666666666666667
4.800000000000001 1.3333333333333333 1.6666666666666667
5.6000000000000005 1.3333333333333333 1.6666666666666667
6.4 1.3333333333333333 1.6666666666666667
7.2 1.3333333333333333 1.6666666666666667
8.0 1.3333333333333333 1.6666666666666667
8.8 1.3333333333333333 1.6666666666666667
9.600000000000001 1.3333333333333333 1.6666666666666667
10.4 1.3333333333333333 1.6666666666666667
11.200000000000001 1.3333333333333333 1.6666666666666667
12.0 1.3333333333333333 1.6666666666666667
12.8 1.3333333333333333 1.6666666666666667
13.600000000000001 1.3333333333333333 1.6666666666666667
14.4 1.3333333333333333 1.6666666666666667
15.200000000000001 1.3333333333333333 1.6666666666666667
16.0 1.3333333333333333 1.6666666666666667
0.0 1.6666666666666665 1.6666666666666667
0.8 1.6666666666666665 1.6666666666666667
1.6 1.6666666666666665 1.6666666666666667
2.4000000000000004 1.6666666666666665 1.6666666666666667
3.2 1.6666666666666665 1.6666666666666667
4.0 1.6666666666666665 1.6666666666666667
4.800000000000001 1.6666666666666665 1.6666666666666667
5.6000000000000005 1.6666666666666665 1.6666666666666667
6.4 1.6666666666666665 1.6666666666666667
7.2 1.6666666666666665 1.6666666666666667
8.0 1.6666666666666665 1.6666666666666667
8.8 1.6666666666666665 1.6666666666666667
9.600000000000001 1.6666666666666665 1.6666666666666667
10.4 1.6666666666666665 1.6666666666666667
11.200000000000001 1.6666666666666665 1.6666666666666667
12.0 1.6666666666666665 1.6666666666666667
12.8 1.6666666666666665 1.6666666666666667
13.600000000000001 1.6666666666666665 1.6666666666666667
14.4 1.6666666666666665 1.6666666666666667
15.200000000000001 1.6666666666666665 1.6666666666666667
16.0 1.6666666666666665 1.6666666666666667
0.0 2.0 1.6666666666666667
0.8 2.0 1.6666666666666667
1.6 2.0 1.6666666666666667
2.4000000000000004 2.0 1.6666666666666667
3.2 2.0 1.6666666666666667
4.0 2.0 1.6666666666666667
4.800000000000001 2.0 1.6666666666666667
5.6000000000000005 2.0 1.6666666666666667
6.4 2.0 1.6666666666666667
7.2 2.0 1.6666666666666667
8.0 2.0 1.6666666666666667
8.8 2.0 1.6666666666666667
9.600000000000001 2.0 1.6666666666666667
10.4 2.0 1.6666666666666667
11.200000000000001 2.0 1.6666666666666667
12.0 2.0 1.6666666666666667
12.8 2.0 1.6666666666666667
13.600000000000001 2.0 1.6666666666666667
14.4 2.0 1.6666666666666667
15.200000000000001 2.0 1.6666666666666667
16.0 2.0 1.6666666666666667
0.0 0.0 3.3333333333333335
0.8 0.0 3.3333333333333335
1.6 0.0 3.3333333333333335
2.4000000000000004 0.0 3.3333333333333335
3.2 0.0 3.3333333333333335
4.0 0.0 3.3333333333333335
4.800000000000001 0.0 3.3333333333333335
5.6000000000000005 0.0 3.3333333333333335
6.4 0.0 3.3333333333333335
7.2 0.0 3.3333333333333335
8.0 0.0 3.3333333333333335
8.8 0.0 3.3333333333333335
9.600000000000001 0.0 3.3333333333333335
10.4 0.0 3.3333333333333335
11.200000000000001 0.0 3.3333333333333335
12.0 0.0 3.3333333333333335
12.8 0.0 3.3333333333333335
13.600000000000001 0.0 3.3333333333333335
14.4 0.0 3.3333333333333335
15.200000000000001 0.0 3.3333333333333335
16.0 0.0 3.3333333333333335
0.0 0.3333333333333333 3.3333333333333335
0.8 0.3333333333333333 3.3333333333333335
1.6 0.3333333333333333 3.3333333333333335
2.4000000000000004 0.3333333333333333 3.3333333333333335
3.2 0.3333333333333333 3.3333333333333335
4.0 0.3333333333333333 3.3333333333333335
4.800000000000001 0.3333333333333333 3.3333333333333335
5.6000000000000005 0.3333333333333333 3.3333333333333335
6.4 0.3333333333333333 3.3333333333333335
7.2 0.3333333333333333 3.3333333333333335
8.0 0.3333333333333333 3.3333333333333335
8.8 0.3333333333333333 3.3333333333333335
9.600000000000001 0.3333333333333333 3.3333333333333335
10.4 0.3333333333333333 3.3333333333333335
11.200000000000001 0.3333333333333333 3.3333333333333335
12.0 0.3333333333333333 3.3333333333333335
12.8 0.3333333333333333 3.3333333333333335
13.600000000000001 0.3333333333333333 3.3333333333333335
14.4 0.3333333333333333 3.3333333333333335
15.200000000000001 0.3333333333333333 3.3333333333333335
16.0 0.3333333333333333 3.3333333333333335
0.0 0.6666666666666666 3.3333333333333335
0.8 0.6666666666666666 3.3333333333333335
1.6 0.6666666666666666 3.3333333333333335
2.4000000000000004 0.6666666666666666 3.3333333333333335
3.2 0.6666666666666666 3.3333333333333335
4.0 0.6666666666666666 3.3333333333333335
4.800000000000001 0.6666666666666666 3.3333333333333335
5.6000000000000005 0.6666666666666666 3.3333333333333335
6.4 0.6666666666666666 3.3333333333333335
7.2 0.6666666666666666 3.3333333333333335
8.0 0.6666666666666666 3.3333333333333335
8.8 0.6666666666666666 3.3333333333333335
9.600000000000001 0.6666666666666666 3.3333333333333335
10.4 0.6666666666666666 3.3333333333333335
11.200000000000001 0.6666666666666666 3.3333333333333335
12.0 0.6666666666666666 3.3333333333333335
12.8 0.6666666666666666 3.3333333333333335
13.600000000000001 0.6666666666666666 3.3333333333333335
14.4 0.6666666666666666 3.3333333333333335
15.200000000000001 0.6666666666666666 3.3333333333333335
16.0 0.6666666666666666 3.3333333333333335
0.0 1.0 3.3333333333333335
0.8 1.0 3.3333333333333335
1.6 1.0 3.3333333333333335
2.4000000000000004 1.0 3.3333333333333335
3.2 1.0 3.3333333333333335
4.0 1.0 3.3333333333333335
4.800000000000001 1.0 3.3333333333333335
5.6000000000000005 1.0 3.3333333333333335
6.4 1.0 3.3333333333333335
7.2 1.0 3.3333333333333335
8.0 1.0 3.3333333333333335
8.8 1.0 3.3333333333333335
9.600000000000001 1.0 3.3333333333333335
10.4 1.0 3.3333333333333335
11.200000000000001 1.0 3.3333333333333335
12.0 1.0 3.3333333333333335
12.8 1.0 3.3333333333333335
13.600000000000001 1.0 3.3333333333333335
14.4 1.0 3.3333333333333335
15.200000000000001 1.0 3.3333333333333335
16.0 1.0 3.3333333333333335
0.0 1.3333333333333333 3.3333333333333335
0.8 1.3333333333333333 3.3333333333333335
1.6 1.3333333333333333 3.3333333333333335
2.4000000000000004 1.3333333333333333 3.3333333333333335
3.2 1.3333333333333333 3.3333333333333335
4.0 1.3333333333333333 3.3333333333333335
4.800000000000001 1.3333333333333333 3.3333333333333335
5.6000000000000005 1.3333333333333333 3.3333333333333335
6.4 1.3333333333333333 3.3333333333333335
7.2 1.3333333333333333 3.3333333333333335
8.0 1.3333333333333333 3.3333333333333335
8.8 1.3333333333333333 3.3333333333333335
9.600000000000001 1.3333333333333333 3.3333333333333335
10.4 1.3333333333333333 3.3333333333333335
11.200000000000001 1.3333333333333333 3.3333333333333335
12.0 1.3333333333333333 3.3333333333333335
12.8 1.3333333333333333 3.3333333333333335
13.600000000000001 1.3333333333333333 3.3333333333333335
14.4 1.3333333333333333 3.3333333333333335
15.200000000000001 1.3333333333333333 3.3333333333333335
16.0 1.3333333333333333 3.3333333333333335
0.0 1.6666666666666665 3.3333333333333335
0.8 1.6666666666666665 3.3333333333333335
1.6 1.6666666666666665 3.3333333333333335
2.4000000000000004 1.6666666666666665 3.3333333333333335
3.2 1.6666666666666665 3.3333333333333335
4.0 1.6666666666666665 3.3333333333333335
4.800000000000001 1.6666666666666665 3.3333333333333335
5.6000000000000005 1.6666666666666665 3.3333333333333335
6.4 1.6666666666666665 3.3333333333333335
7.2 1.6666666666666665 3.3333333333333335
8.0 1.6666666666666665 3.3333333333333335
8.8 1.6666666666666665 3.3333333333333335
9.600000000000001 1.6666666666666665 3.3333333333333335
10.4 1.6666666666666665 3.3333333333333335
11.200000000000001 1.6666666666666665 3.3333333333333335
12.0 1.6666666666666665 3.3333333333333335
12.8 1.6666666666666665 3.3333333333333335
13.600000000000001 1.6666666666666665 3.3333333333333335
14.4 1.6666666666666665 3.3333333333333335
15.200000000000001 1.6666666666666665 3.3333333333333335
16.0 1.6666666666666665 3.3333333333333335
0.0 2.0 3.3333333333333335
0.8 2.0 3.3333333333333335
1.6 2.0 3.3333333333333335
2.4000000000000004 2.0 3.3333333333333335
3.2 2.0 3.3333333333333335
4.0 2.0 3.3333333333333335
4.800000000000001 2.0 3.3333333333333335
5.6000000000000005 2.0 3.3333333333333335
6.4 2.0 3.3333333333333335
7.2 2.0 3.3333333333333335
8.0 2.0 3.3333333333333335
8.8 2.0 3.3333333333333335
9.600000000000001 2.0 3.3333333333333335
10.4 2.0 3.3333333333333335
11.200000000000001 2.0 3.3333333333333335
12.0 2.0 3.3333333333333335
12.8 2.0 3.3333333333333335
13.600000000000001 2.0 3.3333333333333335
14.4 2.0 3.3333333333333335
15.200000000000001 2.0 3.3333333333333335
16.0 2.0 3.3333333333333335
0.0 0.0 5.0
0.8 0.0 5.0
1.6 0.0 5.0
2.4000000000000004 0.0 5.0
3.2 0.0 5.0
4.0 0.0 5.0
4.800000000000001 0.0 5.0
5.6000000000000005 0.0 5.0
6.4 0.0 5.0
7.2 0.0 5.0
8.0 0.0 5.0
8.8 0.0 5.0
9.600000000000001 0.0 5.0
10.4 0.0 5.0
11.200000000000001 0.0 5.0
12.0 0.0 5.0
12.8 0.0 5.0
13.600000000000001 0.0 5.0
14.4 0.0 5.0
15.200000000000001 0.0 5.0
16.0 0.0 5.0
0.0 0.3333333333333333 5.0
0.8 0.3333333333333333 5.0
1.6 0.3333333333333333 5.0
2.4000000000000004 0.3333333333333333 5.0
3.2 0.3333333333333333 5.0
4.0 0.3333333333333333 5.0
4.800000000000001 0.3333333333333333 5.0
5.6000000000000005 0.3333333333333333 5.0
6.4 0.3333333333333333 5.0
7.2 0.3333333333333333 5.0
8.0 0.3333333333333333 5.0
8.8 0.3333333333333333 5.0
9.600000000000001 0.3333333333333333 5.0
10.4 0.3333333333333333 5.0
11.200000000000001 0.3333333333333333 5.0
12.0 0.3333333333333333 5.0
12.8 0.3333333333333333 5.0
13.600000000000001 0.3333333333333333 5.0
14.4 0.3333333333333333 5.0
15.200000000000001 0.3333333333333333 5.0
16.0 0.3333333333333333 5.0
0.0 0.6666666666666666 5.0
0.8 0.6666666666666666 5.0
1.6 0.6666666666666666 5.0
2.4000000000000004 0.6666666666666666 5.0
3.2 0.6666666666666666 5.0
4.0 0.6666666666666666 5.0
4.800000000000001 0.6666666666666666 5.0
5.6000000000000005 0.6666666666666666 5.0
6.4 0.6666666666666666 5.0
7.2 0.6666666666666666 5.0
8.0 0.6666666666666666 5.0
8.8 0.6666666666666666 5.0
9.600000000000001 0.6666666666666666 5.0
10.4 0.6666666666666666 5.0
11.200000000000001 0.6666666666666666 5.0
12.0 0.6666666666666666 5.0
12.8 0.6666666666666666 5.0
13.600000000000001 0.6666666666666666 5.0
14.4 0.6666666666666666 5.0
15.200000000000001 0.6666666666666666 5.0
16.0 0.6666666666666666 5.0
0.0 1.0 5.0
0.8 1.0 5.0
1.6 1.0 5.0
2.4000000000000004 1.0 5.0
3.2 1.0 5.0
4.0 1.0 5.0
4.800000000000001 1.0 5.0
5.6000000000000005 1.0 5.0
6.4 1.0 5.0
7.2 1.0 5.0
8.0 1.0 5.0
8.8 1.0 5.0
9.600000000000001 1.0 5.0
10.4 1.0 5.0
11.200000000000001 1.0 5.0
12.0 1.0 5.0
12.8 1.0 5.0
13.600000000000001 1.0 5.0
14.4 1.0 5.0
15.200000000000001 1.0 5.0
16.0 1.0 5.0
0.0 1.3333333333333333 5.0
0.8 1.3333333333333333 5.0
1.6 1.3333333333333333 5.0
2.4000000000000004 1.3333333333333333 5.0
3.2 1.3333333333333333 5.0
4.0 1.3333333333333333 5.0
4.800000000000001 1.3333333333333333 5.0
5.6000000000000005 1.3333333333333333 5.0
6.4 1.3333333333333333 5.0
7.2 1.3333333333333333 5.0
8.0 1.3333333333333333 5.0
8.8 1.3333333333333333 5.0
9.600000000000001 1.3333333333333333 5.0
10.4 1.3333333333333333 5.0
11.200000000000001 1.3333333333333333 5.0
12.0 1.3333333333333333 5.0
12.8 1.3333333333333333 5.0
13.600000000000001 1.3333333333333333 5.0
14.4 1.3333333333333333 5.0
15.200000000000001 1.3333333333333333 5.0
16.0 1.3333333333333333 5.0
0.0 1.6666666666666665 5.0
0.8 1.6666666666666665 5.0
1.6 1.6666666666666665 5.0
2.4000000000000004 1.6666666666666665 5.0
3.2 1.6666666666666665 5.0
4.0 1.6666666666666665 5.0
4.800000000000001 1.6666666666666665 5.0
5.6000000000000005 1.6666666666666665 5.0
6.4 1.6666666666666665 5.0
7.2 1.6666666666666665 5.0
8.0 1.6666666666666665 5.0
8.8 1.6666666666666665 5.0
9.600000000000001 1.6666666666666665 5.0
10.4 1.6666666666666665 5.0
11.200000000000001 1.6666666666666665 5.0
12.0 1.6666666666666665 5.0
12.8 1.6666666666666665 5.0
13.600000000000001 1.6666666666666665 5.0
14.4 1.6666666666666665 5.0
15.200000000000001 1.6666666666666665 5.0
16.0 1.6666666666666665 5.0
0.0 2.0 5.0
0.8 2.0 5.0
1.6 2.0 5.0
2.4000000000000004 2.0 5.0
3.2 2.0 5.0
4.0 2.0 5.0
4.800000000000001 2.0 5.0
5.6000000000000005 2.0 5.0
6.4 2.0 5.0
7.2 2.0 5.0
8.0 2.0 5.0
8.8 2.0 5.0
9.600000000000001 2.0 5.0
10.4 2.0 5.0
11.200000000000001 2.0 5.0
12.0 2.0 5.0
12.8 2.0 5.0
13.600000000000001 2.0 5.0
14.4 2.0 5.0
15.200000000000001 2.0 5.0
16.0 2.0 5.0
0.0 0.0 6.666666666666667
0.8 0.0 6.666666666666667
1.6 0.0 6.666666666666667
2.4000000000000004 0.0 6.666666666666667
3.2 0.0 6.666666666666667
4.0 0.0 6.666666666666667
4.800000000000001 0.0 6.666666666666667
5.6000000000000005 0.0 6.666666666666667
6.4 0.0 6.666666666666667
7.2 0.0 6.666666666666667
8.0 0.0 6.666666666666667
8.8 0.0 6.666666666666667
9.600000000000001 0.0 6.666666666666667
10.4 0.0 6.666666666666667
11.200000000000001 0.0 6.666666666666667
12.0 0.0 6.666666666666667
12.8 0.0 6.666666666666667
13.600000000000001 0.0 6.666666666666667
14.4 0.0 6.666666666666667
15.200000000000001 0.0 6.666666666666667
16.0 0.0 6.666666666666667
0.0 0.3333333333333333 6.666666666666667
0.8 0.3333333333333333 6.666666666666667
1.6 0.3333333333333333 6.666666666666667
2.4000000000000004 0.3333333333333333 6.666666666666667
3.2 0.3333333333333333 6.666666666666667
4.0 0.3333333333333333 6.666666666666667
4.800000000000001 0.3333333333333333 6.666666666666667
5.6000000000000005 0.3333333333333333 6.666666666666667
6.4 0.3333333333333333 6.666666666666667
7.2 0.3333333333333333 6.666666666666667
8.0 0.3333333333333333 6.666666666666667
8.8 0.3333333333333333 6.666666666666667
9.600000000000001 0.3333333333333333 6.666666666666667
10.4 0.3333333333333333 6.666666666666667
11.200000000000001 0.3333333333333333 6.666666666666667
12.0 0.3333333333333333 6.666666666666667
12.8 0.3333333333333333 6.666666666666667
13.600000000000001 0.3333333333333333 6.666666666666667
14.4 0.3333333333333333 6.666666666666667
15.200000000000001 0.3333333333333333 6.666666666666667
16.0 0.3333333333333333 6.666666666666667
0.0 0.6666666666666666 6.666666666666667
0.8 0.6666666666666666 6.666666666666667
1.6 0.6666666666666666 6.666666666666667
2.4000000000000004 0.6666666666666666 6.666666666666667
3.2 0.6666666666666666 6.666666666666667
4.0 0.6666666666666666 6.666666666666667
4.800000000000001 0.6666666666666666 6.666666666666667
5.6000000000000005 0.6666666666666666 6.666666666666667
6.4 0.6666666666666666 6.666666666666667
7.2 0.6666666666666666 6.666666666666667
8.0 0.6666666666666666 6.666666666666667
8.8 0.6666666666666666 6.666666666666667
9.600000000000001 0.6666666666666666 6.666666666666667
10.4 0.6666666666666666 6.666666666666667
11.200000000000001 0.6666666666666666 6.666666666666667
12.0 0.6666666666666666 6.666666666666667
12.8 0.6666666666666666 6.666666666666667
13.600000000000001 0.6666666666666666 6.666666666666667
14.4 0.6666666666666666 6.666666666666667
15.200000000000001 0.6666666666666666 6.666666666666667
16.0 0.6666666666666666 6.666666666666667
0.0 1.0 6.666666666666667
0.8 1.0 6.666666666666667
1.6 1.0 6.666666666666667
2.4000000000000004 1.0 6.666666666666667
3.2 1.0 6.666666666666667
4.0 1.0 6.666666666666667
4.800000000000001 1.0 6.666666666666667
5.6000000000000005 1.0 6.666666666666667
6.4 1.0 6.666666666666667
7.2 1.0 6.666666666666667
8.0 1.0 6.666666666666667
8.8 1.0 6.666666666666667
9.600000000000001 1.0 6.666666666666667
10.4 1.0 6.666666666666667
11.200000000000001 1.0 6.666666666666667
12.0 1.0 6.666666666666667
12.8 1.0 6.666666666666667
13.600000000000001 1.0 6.666666666666667
14.4 1.0 6.666666666666667
15.200000000000001 1.0 6.666666666666667
16.0 1.0 6.666666666666667
0.0 1.3333333333333333 6.666666666666667
0.8 1.3333333333333333 6.666666666666667
1.6 1.3333333333333333 6.666666666666667
2.4000000000000004 1.3333333333333333 6.666666666666667
3.2 1.3333333333333333 6.666666666666667
4.0 1.3333333333333333 6.666666666666667
4.800000000000001 1.3333333333333333 6.666666666666667
5.6000000000000005 1.3333333333333333 6.666666666666667
6.4 1.3333333333333333 6.666666666666667
7.2 1.3333333333333333 6.666666666666667
8.0 1.3333333333333333 6.666666666666667
8.8 1.3333333333333333 6.666666666666667
9.600000000000001 1.3333333333333333 6.666666666666667
10.4 1.3333333333333333 6.666666666666667
11.200000000000001 1.3333333333333333 6.666666666666667
12.0 1.3333333333333333 6.666666666666667
12.8 1.3333333333333333 6.666666666666667
13.600000000000001 1.3333333333333333 6.666666666666667
14.4 1.3333333333333333 6.666666666666667
15.200000000000001 1.3333333333333333 6.666666666666667
16.0 1.3333333333333333 6.666666666666667
0.0 1.6666666666666665 6.666666666666667
0.8 1.6666666666666665 6.666666666666667
1.6 1.6666666666666665 6.666666666666667
2.4000000000000004 1.6666666666666665 6.666666666666667
3.2 1.6666666666666665 6.666666666666667
4.0 1.6666666666666665 6.666666666666667
4.800000000000001 1.6666666666666665 6.666666666666667
5.6000000000000005 1.6666666666666665 6.666666666666667
6.4 1.6666666666666665 6.666666666666667
7.2 1.6666666666666665 6.666666666666667
8.0 1.6666666666666665 6.666666666666667
8.8 1.6666666666666665 6.666666666666667
9.600000000000001 1.6666666666666665 6.666666666666667
10.4 1.6666666666666665 6.666666666666667
11.200000000000001 1.6666666666666665 6.666666666666667
12.0 1.6666666666666665 6.666666666666667
12.8 1.6666666666666665 6.666666666666667
13.600000000000001 1.6666666666666665 6.666666666666667
14.4 1.6666666666666665 6.666666666666667
15.200000000000001 1.6666666666666665 6.666666666666667
16.0 1.6666666666666665 6.666666666666667
0.0 2.0 6.666666666666667
0.8 2.0 6.666666666666667
1.6 2.0 6.666666666666667
2.4000000000000004 2.0 6.666666666666667
3.2 2.0 6.666666666666667
4.0 2.0 6.666666666666667
4.800000000000001 2.0 6.666666666666667
5.6000000000000005 2.0 6.666666666666667
6.4 2.0 6.666666666666667
7.2 2.0 6.666666666666667
8.0 2.0 6.666666666666667
8.8 2.0 6.666666666666667
9.600000000000001 2.0 6.666666666666667
10.4 2.0 6.666666666666667
11.200000000000001 2.0 6.666666666666667
12.0 2.0 6.666666666666667
12.8 2.0 6.666666666666667
13.600000000000001 2.0 6.666666666666667
14.4 2.0 6.666666666666667
15.200000000000001 2.0 6.666666666666667
16.0 2.0 6.666666666666667
0.0 0.0 8.333333333333334
0.8 0.0 8.333333333333334
1.6 0.0 8.333333333333334
2.4000000000000004 0.0 8.333333333333334
3.2 0.0 8.333333333333334
4.0 0.0 8.333333333333334
4.800000000000001 0.0 8.333333333333334
5.6000000000000005 0.0 8.333333333333334
6.4 0.0 8.333333333333334
7.2 0.0 8.333333333333334
8.0 0.0 8.333333333333334
8.8 0.0 8.333333333333334
9.600000000000001 0.0 8.333333333333334
10.4 0.0 8.333333333333334
11.200000000000001 0.0 8.333333333333334
12.0 0.0 8.333333333333334
12.8 0.0 8.333333333333334
13.600000000000001 0.0 8.333333333333334
14.4 0.0 8.333333333333334
15.200000000000001 0.0 8.333333333333334
16.0 0.0 8.333333333333334
0.0 0.3333333333333333 8.333333333333334
0.8 0.3333333333333333 8.333333333333334
1.6 0.3333333333333333 8.333333333333334
2.4000000000000004 0.3333333333333333 8.333333333333334
3.2 0.3333333333333333 8.333333333333334
4.0 0.3333333333333333 8.333333333333334
4.800000000000001 0.3333333333333333 8.333333333333334
5.6000000000000005 0.3333333333333333 8.333333333333334
6.4 0.3333333333333333 8.333333333333334
7.2 0.3333333333333333 8.333333333333334
8.0 0.3333333333333333 8.333333333333334
8.8 0.3333333333333333 8.333333333333334
9.600000000000001 0.3333333333333333 8.333333333333334
10.4 0.3333333333333333 8.333333333333334
11.200000000000001 0.3333333333333333 8.333333333333334
12.0 0.3333333333333333 8.333333333333334
12.8 0.3333333333333333 8.333333333333334
13.600000000000001 0.3333333333333333 8.333333333333334
14.4 0.3333333333333333 8.333333333333334
15.200000000000001 0.3333333333333333 8.333333333333334
16.0 0.3333333333333333 8.333333333333334
0.0 0.6666666666666666 8.333333333333334
0.8 0.6666666666666666 8.333333333333334
1.6 0.6666666666666666 8.333333333333334
2.4000000000000004 0.6666666666666666 8.333333333333334
3.2 0.6666666666666666 8.333333333333334
4.0 0.6666666666666666 8.333333333333334
4.800000000000001 0.6666666666666666 8.333333333333334
5.6000000000000005 0.6666666666666666 8.333333333333334
6.4 0.6666666666666666 8.333333333333334
7.2 0.6666666666666666 8.333333333333334
8.0 0.6666666666666666 8.333333333333334
8.8 0.6666666666666666 8.333333333333334
9.600000000000001 0.6666666666666666 8.333333333333334
10.4 0.6666666666666666 8.333333333333334
11.200000000000001 0.6666666666666666 8.333333333333334
12.0 0.6666666666666666 8.333333333333334
12.8 0.6666666666666666 8.333333333333334
13.600000000000001 0.6666666666666666 8.333333333333334
14.4 0.6666666666666666 8.333333333333334
15.200000000000001 0.6666666666666666 8.333333333333334
16.0 0.6666666666666666 8.333333333333334
0.0 1.0 8.333333333333334
0.8 1.0 8.333333333333334
1.6 1.0 8.333333333333334
2.4000000000000004 1.0 8.333333333333334
3.2 1.0 8.333333333333334
4.0 1.0 8.333333333333334
4.800000000000001 1.0 8.333333333333334
5.6000000000000005 1.0 8.333333333333334
6.4 1.0 8.333333333333334
7.2 1.0 8.333333333333334
8.0 1.0 8.333333333333334
8.8 1.0 8.333333333333334
9.600000000000001 1.0 8.333333333333334
10.4 1.0 8.333333333333334
11.200000000000001 1.0 8.333333333333334
12.0 1.0 8.333333333333334
12.8 1.0 8.333333333333334
13.600000000000001 1.0 8.333333333333334
14.4 1.0 8.333333333333334
15.200000000000001 1.0 8.333333333333334
16.0 1.0 8.333333333333334
0.0 1.3333333333333333 8.333333333333334
0.8 1.3333333333333333 8.333333333333334
1.6 1.3333333333333333 8.333333333333334
2.4000000000000004 1.3333333333333333 8.333333333333334
3.2 1.3333333333333333 8.333333333333334
4.0 1.3333333333333333 8.333333333333334
4.800000000000001 1.3333333333333333 8.333333333333334
5.6000000000000005 1.3333333333333333 8.333333333333334
6.4 1.3333333333333333 8.333333333333334
7.2 1.3333333333333333 8.333333333333334
8.0 1.3333333333333333 8.333333333333334
8.8 1.3333333333333333 8.333333333333334
9.600000000000001 1.3333333333333333 8.333333333333334
10.4 1.3333333333333333 8.333333333333334
11.200000000000001 1.3333333333333333 8.333333333333334
12.0 1.3333333333333333 8.333333333333334
12.8 1.3333333333333333 8.333333333333334
13.600000000000001 1.3333333333333333 8.333333333333334
14.4 1.3333333333333333 8.333333333333334
15.200000000000001 1.3333333333333333 8.333333333333334
16.0 1.3333333333333333 8.333333333333334
0.0 1.6666666666666665 8.333333333333334
0.8 1.6666666666666665 8.333333333333334
1.6 1.6666666666666665 8.333333333333334
2.4000000000000004 1.6666666666666665 8.333333333333334
3.2 1.6666666666666665 8.333333333333334
4.0 1.6666666666666665 8.333333333333334
4.800000000000001 1.6666666666666665 8.333333333333334
5.6000000000000005 1.6666666666666665 8.333333333333334
6.4 1.6666666666666665 8.333333333333334
7.2 1.6666666666666665 8.333333333333334
8.0 1.6666666666666665 8.333333333333334
8.8 1.6666666666666665 8.333333333333334
9.600000000000001 1.6666666666666665 8.333333333333334
10.4 1.6666666666666665 8.333333333333334
11.200000000000001 1.6666666666666665 8.333333333333334
12.0 1.6666666666666665 8.333333333333334
12.8 1.6666666666666665 8.333333333333334
13.600000000000001 1.6666666666666665 8.333333333333334
14.4 1.6666666666666665 8.333333333333334
15.200000000000001 1.6666666666666665 8.333333333333334
16.0 1.6666666666666665 8.333333333333334
0.0 2.0 8.333333333333334
0.8 2.0 8.333333333333334
1.6 2.0 8.333333333333334
2.4000000000000004 2.0 8.333333333333334
3.2 2.0 8.333333333333334
4.0 2.0 8.333333333333334
4.800000000000001 2.0 8.333333333333334
5.6000000000000005 2.0 8.333333333333334
6.4 2.0 8.333333333333334
7.2 2.0 8.333333333333334
8.0 2.0 8.333333333333334
8.8 2.0 8.333333333333334
9.600000000000001 2.0 8.333333333333334
10.4 2.0 8.333333333333334
11.200000000000001 2.0 8.333333333333334
12.0 2.0 8.333333333333334
12.8 2.0 8.333333333333334
13.600000000000001 2.0 8.333333333333334
14.4 2.0 8.333333333333334
15.200000000000001 2.0 8.333333333333334
16.0 2.0 8.333333333333334
0.0 0.0 10.0
0.8 0.0 10.0
1.6 0.0 10.0
2.4000000000000004 0.0 10.0
3.2 0.0 10.0
4.0 0.0 10.0
4.800000000000001 0.0 10.0
5.6000000000000005 0.0 10.0
6.4 0.0 10.0
7.2 0.0 10.0
8.0 0.0 10.0
8.8 0.0 10.0
9.600000000000001 0.0 10.0
10.4 0.0 10.0
11.200000000000001 0.0 10.0
12.0 0.0 10.0
12.8 0.0 10.0
13.600000000000001 0.0 10.0
14.4 0.0 10.0
15.200000000000001 0.0 10.0
16.0 0.0 10.0
0.0 0.3333333333333333 10.0
0.8 0.3333333333333333 10.0
1.6 0.3333333333333333 10.0
2.4000000000000004 0.3333333333333333 10.0
3.2 0.3333333333333333 10.0
4.0 0.3333333333333333 10.0
4.800000000000001 0.3333333333333333 10.0
5.6000000000000005 0.3333333333333333 10.0
6.4 0.3333333333333333 10.0
7.2 0.3333333333333333 10.0
8.0 0.3333333333333333 10.0
8.8 0.3333333333333333 10.0
9.600000000000001 0.3333333333333333 10.0
10.4 0.3333333333333333 10.0
11.200000000000001 0.3333333333333333 10.0
12.0 0.3333333333333333 10.0
12.8 0.3333333333333333 10.0
13.600000000000001 0.3333333333333333 10.0
14.4 0.3333333333333333 10.0
15.200000000000001 0.3333333333333333 10.0
16.0 0.3333333333333333 10.0
0.0 0.6666666666666666 10.0
0.8 0.6666666666666666 10.0
1.6 0.6666666666666666 10.0
2.4000000000000004 0.6666666666666666 10.0
3.2 0.6666666666666666 10.0
4.0 0.6666666666666666 10.0
4.800000000000001 0.6666666666666666 10.0
5.6000000000000005 0.6666666666666666 10.0
6.4 0.6666666666666666 10.0
7.2 0.6666666666666666 10.0
8.0 0.6666666666666666 10.0
8.8 0.6666666666666666 10.0
9.600000000000001 0.6666666666666666 10.0
10.4 0.6666666666666666 10.0
11.200000000000001 0.6666666666666666 10.0
12.0 0.6666666666666666 10.0
12.8 0.6666666666666666 10.0
13.600000000000001 0.6666666666666666 10.0
14.4 0.6666666666666666 10.0
15.200000000000001 0.6666666666666666 10.0
16.0 0.6666666666666666 10.0
0.0 1.0 10.0
0.8 1.0 10.0
1.6 1.0 10.0
2.4000000000000004 1.0 10.0
3.2 1.0 10.0
4.0 1.0 10.0
4.800000000000001 1.0 10.0
5.6000000000000005 1.0 10.0
6.4 1.0 10.0
7.2 1.0 10.0
8.0 1.0 10.0
8.8 1.0 10.0
9.600000000000001 1.0 10.0
10.4 1.0 10.0
11.200000000000001 1.0 10.0
12.0 1.0 10.0
12.8 1.0 10.0
13.600000000000001 1.0 10.0
14.4 1.0 10.0
15.200000000000001 1.0 10.0
16.0 1.0 10.0
0.0 1.3333333333333333 10.0
0.8 1.3333333333333333 10.0
1.6 1.3333333333333333 10.0
2.4000000000000004 1.3333333333333333 10.0
3.2 1.3333333333333333 10.0
4.0 1.3333333333333333 10.0
4.800000000000001 1.3333333333333333 10.0
5.6000000000000005 1.3333333333333333 10.0
6.4 1.3333333333333333 10.0
7.2 1.3333333333333333 10.0
8.0 1.3333333333333333 10.0
8.8 1.3333333333333333 10.0
9.600000000000001 1.3333333333333333 10.0
10.4 1.3333333333333333 10.0
11.200000000000001 1.3333333333333333 10.0
12.0 1.3333333333333333 10.0
12.8 1.3333333333333333 10.0
13.600000000000001 1.3333333333333333 10.0
14.4 1.3333333333333333 10.0
15.200000000000001 1.3333333333333333 10.0
16.0 1.3333333333333333 10.0
0.0 1.6666666666666665 10.0
0.8 1.6666666666666665 10.0
1.6 1.6666666666666665 10.0
2.4000000000000004 1.6666666666666665 10.0
3.2 1.6666666666666665 10.0
4.0 1.6666666666666665 10.0
4.800000000000001 1.6666666666666665 10.0
5.6000000000000005 1.6666666666666665 10.0
6.4 1.6666666666666665 10.0
7.2 1.6666666666666665 10.0
8.0 1.6666666666666665 10.0
8.8 1.6666666666666665 10.0
9.600000000000001 1.6666666666666665 10.0
10.4 1.6666666666666665 10.0
11.200000000000001 1.6666666666666665 10.0
12.0 1.6666666666666665 10.0
12.8 1.6666666666666665 10.0
13.600000000000001 1.6666666666666665 10.0
14.4 1.6666666666666665 10.0
15.200000000000001 1.6666666666666665 10.0
16.0 1.6666666666666665 10.0
0.0 2.0 10.0
0.8 2.0 10.0
1.6 2.0 10.0
2.4000000000000004 2.0 10.0
3.2 2.0 10.0
4.0 2.0 10.0
4.800000000000001 2.0 10.0
5.6000000000000005 2.0 10.0
6.4 2.0 10.0
7.2 2.0 10.0
8.0 2.0 10.0
8.8 2.0 10.0
9.600000000000001 2.0 10.0
10.4 2.0 10.0
11.200000000000001 2.0 10.0
12.0 2.0 10.0
12.8 2.0 10.0
13.600000000000001 2.0 10.0
14.4 2.0 10.0
15.200000000000001 2.0 10.0
16.0 2.0 10.0
CELLS 720 6480
8 0 1 22 21 147 148 169 168
8 1 2 23 22 148 149 170 169
8 2 3 24 23 149 150 171 170
8 3 4 25 24 150 151 172 171
8 4 5 26 25 151 152 173 172
8 5 6 27 26 152 153 174 173
8 6 7 28 27 153 154 175 174
8 7 8 29 28 154 155 176 175
8 8 9 30 29 155 156 177 176
8 9 10 31 30 156 157 178 177
8 10 11 32 31 157 158 179 178
8 11 12 33 32 158 159 180 179
8 12 13 34 33 159 160 181 180
8 13 14 35 34 160 161 182 181
8 14 15 36 35 161 162 183 182
8 15 16 37 36 162 163 184 183
8 16 17 38 37 163 164 185 184
8 17 18 39 38 164 165 186 185
8 18 19 40 39 165 166 187 186
8 19 20 41 40 166 167 188 187
8 21 22 43 42 168 169 190 189
8 22 23 44 43 169 170 191 190
8 23 24 45 44 170 171 192 191
8 24 25 46 45 171 172 193 192
8 25 26 47 46 172 173 194 193
8 26 27 48 47 173 174 195 194
8 27 28 49 48 174 175 196 195
8 28 29 50 49 175 176 197 196
8 29 30 51 50 176 177 198 197
8 30 31 52 51 177 178 199 198
8 31 32 53 52 178 179 200 199
8 32 33 54 53 179 180 201 200
8 33 34 55 54 180 181 202 201
8 34 35 56 55 181 182 203 202
8 35 36 57 56 182 183 204 203
8 36 37 58 57 183 184 205 204
8 37 38 59 58 184 185 206 205
8 38 39 60 59 185 186 207 206
8 39 40 61 60 186 187 208 207
8 40 41 62 61 187 188 209 208
8 42 43 64 63 189 190 211 210
8 43 44 65 64 190 191 212 211
8 44 45 66 65 191 192 213 212
8 45 46 67 66 192 193 214 213
8 46 47 68 67 193 194 215 214
8 47 48 69 68 194 195 216 215
8 48 49 70 69 195 196 217 216
8 49 50 71 70 196 197 218 217
8 50 51 72 71 197 198 219 218
8 51 52 73 72 198 199 220 219
8 52 53 74 73 199 200 221 220
8 53 54 75 74 200 201 222 221
8 54 55 76 75 201 202 223 222
8 55 56 77 76 202 203 224 223
8 56 57 78 77 203 204 225 224
8 57 58 79 78 204 205 226 225
8 58 59 80 79 205 206 227 226
8 59 60 81 80 206 207 228 227
8 60 61 82 81 207 208 229 228
8 61 62 83 82 208 209 230 229
8 63 64 85 84 210 211 232 231
8 64 65 86 85 211 212 233 232
8 65 66 87 86 212 213 234 233
8 66 67 88 87 213 214 235 234
8 67 68 89 88 214 215 236 235
8 68 69 90 89 215 216 237 236
8 69 70 91 90 216 217 238 237
8 70 71 92 91 217 218 239 238
8 71 72 93 92 218 219 240 239
8 72 73 94 93 219 220 241 240
8 73 74 95 94 220 221 242 241
8 74 75 96 95 221 222 243 242
8 75 76 97 96 222 223 244 243
8 76 77 98 97 223 224 245 244
8 77 78 99 98 224 225 246 245
8 78 79 100 99 225 226 247 246
8 79 80 101 100 226 227 248 247
8 80 81 102 101 227 228 249 248
8 81 82 103 102 228 229 250 249
8 82 83 104 103 229 230 251 250
8 84 85 106 105 231 232 253 252
8 85 86 107 106 232 233 254 253
8 86 87 108 107 233 234 255 254
8 87 88 109 108 234 235 256 255
8 88 89 110 109 235 236 257 256
8 89 90 111 110 236 237 258 257
8 90 91 112 111 237 238 259 258
8 91 92 113 112 238 239 260 259
8 92 93 114 113 239 240 261 260
8 93 94 115 114 240 241 262 261
8 94 95 116 115 241 242 263 262
8 95 96 117 116 242 243 264 263
8 96 97 118 117 243 244 265 264
8 97 98 119 118 244 245 266 265
8 98 99 120 119 245 246 267 266
8 99 100 121 120 246 247 268 267
8 100 101 122 121 247 248 269 268
8 101 102 123 122 248 249 270 269
8 102 103 124 123 249 250 271 270
8 103 104 125 124 250 251 272 271
8 105 106 127 126 252 253 274 273
8 106 107 128 127 253 254 275 274
8 107 108 129 128 254 255 276 275
8 108 109 130 129 255 256 277 276
8 109 110 131 130 256 257 278 277
8 110 111 132 131 257 258 279 278
8 111 112 133 132 258 259 280 279
8 112 113 134 133 259 260 281 280
8 113 114 135 134 260 261 282 281
8 114 115 136 135 261 262 283 282
8 115 116 137 136 262 263 284 283
8 116 117 138 137 263 264 285 284
8 117 118 139 138 264 265 286 285
8 118 119 140 139 265 266 287 286
8 119 120 141 140 266 267 288 287
8 120 121 142 141 267 268 289 288
8 121 122 143 142 268 269 290 289
8 122 123 144 143 269 270 291 290
8 123 124 145 144 270 271 292 291
8 124 125 146 145 271 272 293 292
8 147 148 169 168 294 295 316 315
8 148 149 170 169 295 296 317 316
8 149 150 171 170 296 297 318 317
8 150 151 172 171 297 298 319 318
8 151 152 173 172 298 299 320 319
8 152 153 174 173 299 300 321 320
8 153 154 175 174 300 301 322 321
8 154 155 176 175 301 302 323 322
8 155 156 177 176 302 303 324 323
8 156 157 178 177 303 304 325 324
8 157 158 179 178 304 305 326 325
8 158 159 180 179 305 306 327 326
8 159 160 181 180 306 307 328 327
8 160 161 182 181 307 308 329 328
8 161 162 183 182 308 309 330 329
8 162 163 184 183 309 310 331 330
8 163 164 185 184 310 311 332 331
8 164 165 186 185 311 312 333 332
8 165 166 187 186 312 313 334 333
8 166 167 188 187 313 314 335 334
8 168 169 190 189 315 316 337 336
8 169 170 191 190 316 317 338 337
8 170 171 192 191 317 318 339 338
8 171 172 193 192 318 319 340 339
8 172 173 194 193 319 320 341 340
8 173 174 195 194 320 321 342 341
8 174 175 196 195 321 322 343 342
8 175 176 197 196 322 323 344 343
8 176 177 198 197 323 324 345 344
8 177 178 199 198 324 325 346 345
8 178 179 200 199 325 326 347 346
8 179 180 201 200 326 327 348 347
8 180 181 202 201 327 328 349 348
8 181 182 203 202 328 329 350 349
8 182 183 204 203 329 330 351 350
8 183 184 205 204 330 331 352 351
8 184 185 206 205 331 332 353 352
8 185 186 207 206 332 333 354 353
8 186 187 208 207 333 334 355 354
8 187 188 209 208 334 335 356 355
8 189 190 211 210 336 337 358 357
8 190 191 212 211 337 338 359 358
8 191 192 213 212 338 339 360 359
8 192 193 214 213 339 340 361 360
8 193 194 215 214 340 341 362 361
8 194 195 216 215 341 342 363 362
8 195 196 217 216 342 343 364 363
8 196 197 218 217 343 344 365 364
8 197 198 219 218 344 345 366 365
8 198 199 220 219 345 346 367 366
8 199 200 221 220 346 347 368 367
8 200 201 222 221 347 348 369 368
8 201 202 223 222 348 349 370 369
8 202 203 224 223 349 350 371 370
8 203 204 225 224 350 351 372 371
8 204 205 226 225 351 352 373 372
8 205 206 227 226 352 353 374 373
8 206 207 228 227 353 354 375 374
8 207 208 229 228 354 355 376 375
8 208 209 230 229 355 356 377 376
8 210 211 232 231 357 358 379 378
8 211 212 233 232 358 359 380 379
8 212 213 234 233 359 360 381 380
8 213 214 235 234 360 361 382 381
8 214 215 236 235 361 362 383 382
8 215 216 237 236 362 363 384 383
8 216 217 238 237 363 364 385 384
8 217 218 239 238 364 365 386 385
8 218 219 240 239 365 366 387 386
8 219 220 241 240 366 367 388 387
8 220 221 242 241 367 368 389 388
8 221 222 243 242 368 369 390 389
8 222 223 244 243 369 370 391 390
8 223 224 245 244 370 371 392 391
8 224 225 246 245 371 372 393 392
8 225 226 247 246 372 373 394 393
8 226 227 248 247 373 374 395 394
8 227 228 249 248 374 375 396 395
8 228 229 250 249 375 376 397 396
8 229 230 251 250 376 377 398 397
8 231 232 253 252 378 379 400 399
8 232 233 254 253 379 380 401 400
8 233 234 255 254 380 381 402 401
8 234 235 256 255 381 382 403 402
8 235 236 257 256 382 383 404 403
8 236 237 258 257 383 384 405 404
8 237 238 259 258 384 385 406 405
8 238 239 260 259 385 386 407 406
8 239 240 261 260 386 387 408 407
8 240 241 262 261 387 388 409 408
8 241 242 263 262 388 389 410 409
8 242 243 264 263 389 390 411 410
8 243 244 265 264 390 391 412 411
8 244 245 266 265 391 392 413 412
8 245 246 267 266 392 393 414 413
8 246 247 268 267 393 394 415 414
8 247 248 269 268 394 395 416 415
8 248 249 270 269 395 396 417 416
8 249 250 271 270 396 397 418 417
8 250 251 272 271 397 398 419 418
8 252 253 274 273 399 400 421 420
8 253 254 275 274 400 401 422 421
8 254 255 276 275 401 402 423 422
8 255 256 277 276 402 403 424 423
8 256 257 278 277 403 404 425 424
8 257 258 279 278 404 405 426 425
8 258 259 280 279 405 406 427 426
8 259 260 281 280 406 407 428 427
8 260 261 282 281 407 408 429 428
8 261 262 283 282 408 409 430 429
8 262 263 284 283 409 410 431 430
8 263 264 285 284 410 411 432 431
8 264 265 286 285 411 412 433 432
8 265 266 287 286 412 413 434 433
8 266 267 288 287 413 414 435 434
8 267 268 289 288 414 415 436 435
8 268 269 290 289 415 416 437 436
8 269 270 291 290 416 417 438 437
8 270 271 292 291 417 418 439 438
8 271 272 293 292 418 419 440 439
8 294 295 316 315 441 442 463 462
8 295 296 317 316 442 443 464 463
8 296 297 318 317 443 444 465 464
8 297 298 319 318 444 445 466 465
8 298 299 320 319 445 446 467 466
8 299 300 321 320 446 447 468 467
8 300 301 322 321 447 448 469 468
8 301 302 323 322 448 449 470 469
8 302 303 324 323 449 450 471 470
8 303 304 325 324 450 451 472 471
8 304 305 326 325 451 452 473 472
8 305 306 327 326 452 453 474 473
8 306 307 328 327 453 454 475 474
8 307 308 329 328 454 455 476 475
8 308 309 330 329 455 456 477 476
8 309 310 331 330 456 457 478 477
8 310 311 332 331 457 458 479 478
8 311 312 333 332 458 459 480 479
8 312 313 334 333 459 460 481 480
8 313 314 335 334 460 461 482 481
8 315 316 337 336 462 463 484 483
8 316 317 338 337 463 464 485 484
8 317 318 339 338 464 465 486 485
8 318 319 340 339 465 466 487 486
8 319 320 341 340 466 467 488 487
8 320 321 342 341 467 468 489 488
8 321 322 343 342 468 469 490 489
8 322 323 344 343 469 470 491 490
8 323 324 345 344 470 471 492 491
8 324 325 346 345 471 472 493 492
8 325 326 347 346 472 473 494 493
8 326 327 348 347 473 474 495 494
8 327 328 349 348 474 475 496 495
8 328 329 350 349 475 476 497 496
8 329 330 351 350 476 477 498 497
8 330 331 352 351 477 478 499 498
8 331 332 353 352 478 479 500 499
8 332 333 354 353 479 480 501 500
8 333 334 355 354 480 481 502 501
8 334 335 356 355 481 482 503 502
8 336 337 358 357 483 484 505 504
8 337 338 359 358 484 485 506 505
8 338 339 360 359 485 486 507 506
8 339 340 361 360 486 487 508 507
8 340 341 362 361 487 488 509 508
8 341 342 363 362 488 489 510 509
8 342 343 364 363 489 490 511 510
8 343 344 365 364 490 491 512 511
8 344 345 366 365 491 492 513 512
8 345 346 367 366 492 493 514 513
8 346 347 368 367 493 494 515 514
8 347 348 369 368 494 495 516 515
8 348 349 370 369 495 496 517 516
8 349 350 371 370 496 497 518 517
8 350 351 372 371 497 498 519 518
8 351 352 373 372 498 499 520 519
8 352 353 374 373 499 500 521 520
8 353 354 375 374 500 501 522 521
8 354 355 376 375 501 502 523 522
8 355 356 377 376 502 503 524 523
8 357 358 379 378 504 505 526 525
8 358 359 380 379 505 506 527 526
8 359 360 381 380 506 507 528 527
8 360 361 382 381 507 508 529 528
8 361 362 383 382 508 509 530 529
8 362 363 384 383 509 510 531 530
8 363 364 385 384 510 511 532 531
8 364 365 386 385 511 512 533 532
8 365 366 387 386 512 513 534 533
8 366 367 388 387 513 514 535 534
8 367 368 389 388 514 515 536 535
8 368 369 390 389 515 516 537 536
8 369 370 391 390 516 517 538 537
8 370 371 392 391 517 518 539 538
8 371 372 393 392 518 519 540 539
8 372 373 394 393 519 520 541 540
8 373 374 395 394 520 521 542 541
8 374 375 396 395 521 522 543 542
8 375 376 397 396 522 523 544 543
8 376 377 398 397 523 524 545 544
8 378 379 400 399 525 526 547 546
8 379 380 401 400 526 527 548 547
8 380 381 402 401 527 528 549 548
8 381 382 403 402 528 529 550 549
8 382 383 404 403 529 530 551 550
8 383 384 405 404 530 531 552 551
8 384 385 406 405 531 532 553 552
8 385 386 407 406 532 533 554 553
8 386 387 408 407 533 534 555 554
8 387 388 409 408 534 535 556 555
8 388 389 410 409 535 536 557 556
8 389 390 411 410 536 537 558 557
8 390 391 412 411 537 538 559 558
8 391 392 413 412 538 539 560 559
8 392 393 414 413 539 540 561 560
8 393 394 415 414 540 541 562 561
8 394 395 416 415 541 542 563 562
8 395 396 417 416 542 543 564 563
8 396 397 418 417 543 544 565 564
8 397 398 419 418 544 545 566 565
8 399 400 421 420 546 547 568 567
8 400 401 422 421 547 548 569 568
8 401 402 423 422 548 549 570 569
8 402 403 424 423 549 550 571 570
8 403 404 425 424 550 551 572 571
8 404 405 426 425 551 552 573 572
8 405 406 427 426 552 553 574 573
8 406 407 428 427 553 554 575 574
8 407 408 429 428 554 555 576 575
8 408 409 430 429 555 556 577 576
8 409 410 431 430 556 557 578 577
8 410 411 432 431 557 558 579 578
8 411 412 433 432 558 559 580 579
8 412 413 434 433 559 560 581 580
8 413 414 435 434 560 561 582 581
8 414 415 436 435 561 562 583 582
8 415 416 437 436 562 563 584 583
8 416 417 438 437 563 564 585 584
8 417 418 439 438 564 565 586 585
8 418 419 440 439 565 566 587 586
8 441 442 463 462 588 589 610 609
8 442 443 464 463 589 590 611 610
8 443 444 465 464 590 591 612 611
8 444 445 466 465 591 592 613 612
8 445 446 467 466 592 593 614 613
8 446 447 468 467 593 594 615 614
8 447 448 469 468 594 595 616 615
8 448 449 470 469 595 596 617 616
8 449 450 471 470 596 597 618 617
8 450 451 472 471 597 598 619 618
8 451 452 473 472 598 599 620 619
8 452 453 474 473 599 600 621 620
8 453 454 475 474 600 601 622 621
8 454 455 476 475 601 602 623 622
8 455 456 477 476 602 603 624 623
8 456 457 478 477 603 604 625 624
8 457 458 479 478 604 605 626 625
8 458 459 480 479 605 606 627 626
8 459 460 481 480 606 607 628 627
8 460 461 482 481 607 608 629 628
8 462 463 484 483 609 610 631 630
8 463 464 485 484 610 611 632 631
8 464 465 486 485 611 612 633 632
8 465 466 487 486 612 613 634 633
8 466 467 488 487 613 614 635 634
8 467 468 489 488 614 615 636 635
8 468 469 490 489 615 616 637 636
8 469 470 491 490 616 617 638 637
8 470 471 492 491 617 618 639 638
8 471 472 493 492 618 619 640 639
8 472 473 494 493 619 620 641 640
8 473 474 495 494 620 621 642 641
8 474 475 496 495 621 622 643 642
8 475 476 497 496 622 623 644 643
8 476 477 498 497 623 624 645 644
8 477 478 499 498 624 625 646 645
8 478 479 500 499 625 626 647 646
8 479 480 501 500 626 627 648 647
8 480 481 502 501 627 628 649 648
8 481 482 503 502 628 629 650 649
8 483 484 505 504 630 631 652 651
8 484 485 506 505 631 632 653 652
8 485 486 507 506 632 633 654 653
8 486 487 508 507 633 634 655 654
8 487 488 509 508 634 635 656 655
8 488 489 510 509 635 636 657 656
8 489 490 511 510 636 637 658 657
8 490 491 512 511 637 638 659 658
8 491 492 513 512 638 639 660 659
8 492 493 514 513 639 640 661 660
8 493 494 515 514 640 641 662 661
8 494 495 516 515 641 642 663 662
8 495 496 517 516 642 643 664 663
8 496 497 518 517 643 644 665 664
8 497 498 519 518 644 645 666 665
8 498 499 520 519 645 646 667 666
8 499 500 521 520 646 647 668 667
8 500 501 522 521 647 648 669 668
8 501 502 523 522 648 649 670 669
8 502 503 524 523 649 650 671 670
8 504 505 526 525 651 652 673 672
8 505 506 527 526 652 653 674 673
8 506 507 528 527 653 654 675 674
8 507 508 529 528 654 655 676 675
8 508 509 530 529 655 656 677 676
8 509 510 531 530 656 657 678 677
8 510 511 532 531 657 658 679 678
8 511 512 533 532 658 659 680 679
8 512 513 534 533 659 660 681 680
8 513 514 535 534 660 661 682 681
8 514 515 536 535 661 662 683 682
8 515 516 537 536 662 663 684 683
8 516 517 538 537 663 664 685 684
8 517 518 539 538 664 665 686 685
8 518 519 540 539 665 666 687 686
8 519 520 541 540 666 667 688 687
8 520 521 542 541 667 668 689 688
8 521 522 543 542 668 669 690 689
8 522 523 544 543 669 670 691 690
8 523 524 545 544 670 671 692 691
8 525 526 547 546 672 673 694 693
8 526 527 548 547 673 674 695 694
8 527 528 549 548 674 675 696 695
8 528 529 550 549 675 676 697 696
8 529 530 551 550 676 677 698 697
8 530 531 552 551 677 678 699 698
8 531 532 553 552 678 679 700 699
8 532 533 554 553 679 680 701 700
8 533 534 555 554 680 681 702 701
8 534 535 556 555 681 682 703 702
8 535 536 557 556 682 683 704 703
8 536 537 558 557 683 684 705 704
8 537 538 559 558 684 685 706 705
8 538 539 560 559 685 686 707 706
8 539 540 561 560 686 687 708 707
8 540 541 562 561 687 688 709 708
8 541 542 563 562 688 689 710 709
8 542 543 564 563 689 690 711 710
8 543 544 565 564 690 691 712 711
8 544 545 566 565 691 692 713 712
8 546 547 568 567 693 694 715 714
8 547 548 569 568 694 695 716 715
8 548 549 570 569 695 696 717 716
8 549 550 571 570 696 697 718 717
8 550 551 572 571 697 698 719 718
8 551 552 573 572 698 699 720 719
8 552 553 574 573 699 700 721 720
8 553 554 575 574 700 701 722 721
8 554 555 576 575 701 702 723 722
8 555 556 577 576 702 703 724 723
8 556 557 578 577 703 704 725 724
8 557 558 579 578 704 705 726 725
8 558 559 580 579 705 706 727 726
8 559 560 581 580 706 707 728 727
8 560 561 582 581 707 708 729 728
8 561 562 583 582 708 709 730 729
8 562 563 584 583 709 710 731 730
8 563 564 585 584 710 711 732 731
8 564 565 586 585 711 712 733 732
8 565 566 587 586 712 713 734 733
8 588 589 610 609 735 736 757 756
8 589 590 611 610 736 737 758 757
8 590 591 612 611 737 738 759 758
8 591 592 613 612 738 739 760 759
8 592 593 614 613 739 740 761 760
8 593 594 615 614 740 741 762 761
8 594 595 616 615 741 742 763 762
8 595 596 617 616 742 743 764 763
8 596 597 618 617 743 744 765 764
8 597 598 619 618 744 745 766 765
8 598 599 620 619 745 746 767 766
8 599 600 621 620 746 747 768 767
8 600 601 622 621 747 748 769 768
8 601 602 623 622 748 749 770 769
8 602 603 624 623 749 750 771 770
8 603 604 625 624 750 751 772 771
8 604 605 626 625 751 752 773 772
8 605 606 627 626 752 753 774 773
8 606 607 628 627 753 754 775 774
8 607 608 629 628 754 755 776 775
8 609 610 631 630 756 757 778 777
8 610 611 632 631 757 758 779 778
8 611 612 633 632 758 759 780 779
8 612 613 634 633 759 760 781 780
8 613 614 635 634 760 761 782 781
8 614 615 636 635 761 762 783 782
8 615 616 637 636 762 763 784 783
8 616 617 638 637 763 764 785 784
8 617 618 639 638 764 765 786 785
8 618 619 640 639 765 766 787 786
8 619 620 641 640 766 767 788 787
8 620 621 642 641 767 768 789 788
8 621 622 643 642 768 769 790 789
8 622 623 644 643 769 770 791 790
8 623 624 645 644 770 771 792 791
8 624 625 646 645 771 772 793 792
8 625 626 647 646 772 773 794 793
8 626 627 648 647 773 774 795 794
8 627 628 649 648 774 775 796 795
8 628 629 650 649 775 776 797 796
8 630 631 652 651 777 778 799 798
8 631 632 653 652 778 779 800 799
8 632 633 654 653 779 780 801 800
8 633 634 655 654 780 781 802 801
8 634 635 656 655 781 782 803 802
8 635 636 657 656 782 783 804 803
8 636 637 658 657 783 784 805 804
8 637 638 659 658 784 785 806 805
8 638 639 660 659 785 786 807 806
8 639 640 661 660 786 787 808 807
8 640 641 662 661 787 788 809 808
8 641 642 663 662 788 789 810 809
8 642 643 664 663 789 790 811 810
8 643 644 665 664 790 791 812 811
8 644 645 666 665 791 792 813 812
8 645 646 667 666 792 793 814 813
8 646 647 668 667 793 794 815 814
8 647 648 669 668 794 795 816 815
8 648 649 670 669 795 796 817 816
8 649 650 671 670 796 797 818 817
8 651 652 673 672 798 799 820 819
8 652 653 674 673 799 800 821 820
8 653 654 675 674 800 801 822 821
8 654 655 676 675 801 802 823 822
8 655 656 677 676 802 803 824 823
8 656 657 678 677 803 804 825 824
8 657 658 679 678 804 805 826 825
8 658 659 680 679 805 806 827 826
8 659 660 681 680 806 807 828 827
8 660 661 682 681 807 808 829 828
8 661 662 683 682 808 809 830 829
8 662 663 684 683 809 810 831 830
8 663 664 685 684 810 811 832 831
8 664 665 686 685 811 812 833 832
8 665 666 687 686 812 813 834 833
8 666 667 688 687 813 814 835 834
8 667 668 689 688 814 815 836 835
8 668 669 690 689 815 816 837 836
8 669 670 691 690 816 817 838 837
8 670 671 692 691 817 818 839 838
8 672 673 694 693 819 820 841 840
8 673 674 695 694 820 821 842 841
8 674 675 696 695 821 822 843 842
8 675 676 697 696 822 823 844 843
8 676 677 698 697 823 824 845 844
8 677 678 699 698 824 825 846 845
8 678 679 700 699 825 826 847 846
8 679 680 701 700 826 827 848 847
8 680 681 702 701 827 828 849 848
8 681 682 703 702 828 829 850 849
8 682 683 704 703 829 830 851 850
8 683 684 705 704 830 831 852 851
8 684 685 706 705 831 832 853 852
8 685 686 707 706 832 833 854 853
8 686 687 708 707 833 834 855 854
8 687 688 709 708 834 835 856 855
8 688 689 710 709 835 836 857 856
8 689 690 711 710 836 837 858 857
8 690 691 712 711 837 838 859 858
8 691 692 713 712 838 839 860 859
8 693 694 715 714 840 841 862 861
8 694 695 716 715 841 842 863 862
8 695 696 717 716 842 843 864 863
8 696 697 718 717 843 844 865 864
8 697 698 719 718 844 845 866 865
8 698 699 720 719 845 846 867 866
8 699 700 721 720 846 847 868 867
8 700 701 722 721 847 848 869 868
8 701 702 723 722 848 849 870 869
8 702 703 724 723 849 850 871 870
8 703 704 725 724 850 851 872 871
8 704 705 726 725 851 852 873 872
8 705 706 727 726 852 853 874 873
8 706 707 728 727 853 854 875 874
8 707 708 729 728 854 855 876 875
8 708 709 730 729 855 856 877 876
8 709 710 731 730 856 857 878 877
8 710 711 732 731 857 858 879 878
8 711 712 733 732 858 859 880 879
8 712 713 734 733 859 860 881 880
8 735 736 757 756 882 883 904 903
8 736 737 758 757 883 884 905 904
8 737 738 759 758 884 885 906 905
8 738 739 760 759 885 886 907 906
8 739 740 761 760 886 887 908 907
8 740 741 762 761 887 888 909 908
8 741 742 763 762 888 889 910 909
8 742 743 764 763 889 890 911 910
8 743 744 765 764 890 891 912 911
8 744 745 766 765 891 892 913 912
8 745 746 767 766 892 893 914 913
8 746 747 768 767 893 894 915 914
8 747 748 769 768 894 895 916 915
8 748 749 770 769 895 896 917 916
8 749 750 771 770 896 897 918 917
8 750 751 772 771 897 898 919 918
8 751 752 773 772 898 899 920 919
8 752 753 774 773 899 900 921 920
8 753 754 775 774 900 901 922 921
8 754 755 776 775 901 902 923 922
8 756 757 778 777 903 904 925 924
8 757 758 779 778 904 905 926 925
8 758 759 780 779 905 906 927 926
8 759 760 781 780 906 907 928 927
8 760 761 782 781 907 908 929 928
8 761 762 783 782 908 909 930 929
8 762 763 784 783 909 910 931 930
8 763 764 785 784 910 911 932 931
8 764 765 786 785 911 912 933 932
8 765 766 787 786 912 913 934 933
8 766 767 788 787 913 914 935 934
8 767 768 789 788 914 915 936 935
8 768 769 790 789 915 916 937 936
8 769 770 791 790 916 917 938 937
8 770 771 792 791 917 918 939 938
8 771 772 793 792 918 919 940 939
8 772 773 794 793 919 920 941 940
8 773 774 795 794 920 921 942 941
8 774 775 796 795 921 922 943 942
8 775 776 797 796 922 923 944 943
8 777 778 799 798 924 925 946 945
8 778 779 800 799 925 926 947 946
8 779 780 801 800 926 927 948 947
8 780 781 802 801 927 928 949 948
8 781 782 803 802 928 929 950 949
8 782 783 804 803 929 930 951 950
8 783 784 805 804 930 931 952 951
8 784 785 806 805 931 932 953 952
8 785 786 807 806 932 933 954 953
8 786 787 808 807 933 934 955 954
8 787 788 809 808 934 935 956 955
8 788 789 810 809 935 936 957 956
8 789 790 811 810 936 937 958 957
8 790 791 812 811 937 938 959 958
8 791 792 813 812 938 939 960 959
8 792 793 814 813 939 940 961 960
8 793 794 815 814 940 941 962 961
8 794 795 816 815 941 942 963 962
8 795 796 817 816 942 943 964 963
8 796 797 818 817 943 944 965 964
8 798 799 820 819 945 946 967 966
8 799 800 821 820 946 947 968 967
8 800 801 822 821 947 948 969 968
8 801 802 823 822 948 949 970 969
8 802 803 824 823 949 950 971 970
8 803 804 825 824 950 951 972 971
8 804 805 826 825 951 952 973 972
8 805 806 827 826 952 953 974 973
8 806 807 828 827 953 954 975 974
8 807 808 829 828 954 955 976 975
8 808 809 830 829 955 956 977 976
8 809 810 831 830 956 957 978 977
8 810 811 832 831 957 958 979 978
8 811 812 833 832 958 959 980 979
8 812 813 834 833 959 960 981 980
8 813 814 835 834 960 961 982 981
8 814 815 836 835 961 962 983 982
8 815 816 837 836 962 963 984 983
8 816 817 838 837 963 964 985 984
8 817 818 839 838 964 965 986 985
8 819 820 841 840 966 967 988 987
8 820 821 842 841 967 968 989 988
8 821 822 843 842 968 969 990 989
8 822 823 844 843 969 970 991 990
8 823 824 845 844 970 971 992 991
8 824 825 846 845 971 972 993 992
8 825 826 847 846 972 973 994 993
8 826 827 848 847 973 974 995 994
8 827 828 849 848 974 975 996 995
8 828 829 850 849 975 976 997 996
8 829 830 851 850 976 977 998 997
8 830 831 852 851 977 978 999 998
8 831 832 853 852 978 979 1000 999
8 832 833 854 853 979 980 1001 1000
8 833 834 855 854 980 981 1002 1001
8 834 835 856 855 981 982 1003 1002
8 835 836 857 856 982 983 1004 1003
8 836 837 858 857 983 984 1005 1004
8 837 838 859 858 984 985 1006 1005
8 838 839 860 859 985 986 1007 1006
8 840 841 862 861 987 988 1009 1008
8 841 842 863 862 988 989 1010 1009
8 842 843 864 863 989 990 1011 1010
8 843 844 865 864 990 991 1012 1011
8 844 845 866 865 991 992 1013 1012
8 845 846 867 866 992 993 1014 1013
8 846 847 868 867 993 994 1015 1014
8 847 848 869 868 994 995 1016 1015
8 848 849 870 869 995 996 1017 1016
8 849 850 871 870 996 997 1018 1017
8 850 851 872 871 997 998 1019 1018
8 851 852 873 872 998 999 1020 1019
8 852 853 874 873 999 1000 1021 1020
8 853 854 875 874 1000 1001 1022 1021
8 854 855 876 875 1001 1002 1023 1022
8 855 856 877 876 1002 1003 1024 1023
8 856 857 878 877 1003 1004 1025 1024
8 857 858 879 878 1004 1005 1026 1025
8 858 859 880 879 1005 1006 1027 1026
8 859 860 881 880 1006 1007 1028 1027
CELL_TYPES 720
12
12
12
12
12
12
12
12
12
12
12
12
12
12
12
12
12
12
12
12
12
12
12
12
12
12
12
12
12
12
12
12
12
12
12
12
12
12
12
12
12
12
12
12
12
12
12
12
12
12
12
12
12
12
12
12
12
12
12
12
12
12
12
12
12
12
12
12
12
12
12
12
12
12
12
12
12
12
12
12
12
12
12
12
12
12
12
12
12
12
12
12
12
12
12
12
12
12
12
12
12
12
12
12
12
12
12
12
12
12
12
12
12
12
12
12
12
12
12
12
12
12
12
12
12
12
12
12
12
12
12
12
12
12
12
12
12
12
12
12
12
12
12
12
12
12
12
12
12
12
12
12
12
12
12
12
12
12
12
12
12
12
12
12
12
12
12
12
12
12
12
12
12
12
12
12
12
12
12
12
12
12
12
12
12
12
12
12
12
12
12
12
12
12
12
12
12
12
12
12
12
12
12
12
12
12
12
12
12
12
12
12
12
12
12
12
12
12
12
12
12
12
12
12
12
12
12
12
12
12
12
12
12
12
12
12
12
12
12
12
12
12
12
12
12
12
12
12
12
12
12
12
12
12
12
12
12
12
12
12
12
12
12
12
12
12
12
12
12
12
12
12
12
12
12
12
12
12
12
12
12
12
12
12
12
12
12
12
12
12
12
12
12
12
12
12
12
12
12
12
12
12
12
12
12
12
12
12
12
12
12
12
12
12
12
12
12
12
12
12
12
12
12
12
12
12
12
12
12
12
12
12
12
12
12
12
12
12
12
12
12
12
12
12
12
12
12
12
12
12
12
12
12
12
12
12
12
12
12
12
12
12
12
12
12
12
12
12
12
12
12
12
12
12
12
12
12
12
12
12
12
12
12
12
12
12
12
12
12
12
12
12
12
12
12
12
12
12
12
12
12
12
12
12
12
12
12
12
12
12
12
12
12
12
12
12
12
12
12
12
12
12
12
12
12
12
12
12
12
12
12
12
12
12
12
12
12
12
12
12
12
12
12
12
12
12
12
12
12
12
12
12
12
12
12
12
12
12
12
12
12
12
12
12
12
12
12
12
12
12
12
12
12
12
12
12
12
12
12
12
12
12
12
12
12
12
12
12
12
12
12
12
12
12
12
12
12
12
12
12
12
12
12
12
12
12
12
12
12
12
12
12
12
12
12
12
12
12
12
12
12
12
12
12
12
12
12
12
12
12
12
12
12
12
12
12
12
12
12
12
12
12
12
12
12
12
12
12
12
12
12
12
12
12
12
12
12
12
12
12
12
12
12
12
12
12
12
12
12
12
12
12
12
12
12
12
12
12
12
12
12
12
12
12
12
12
12
12
12
12
12
12
12
12
12
12
12
12
12
12
12
12
12
12
12
12
12
12
12
12
12
12
12
12
12
12
12
12
12
12
12
12
12
12
12
12
12
12
12
12
12
12
12
12
12
12
12
12
12
12
12
12
12
12
12
12
12
12
12
12
12
12
12
12
12
12
12
12
12
12
12
12
12
12
12
12
12
12
12
12
12
12
12
12
12
12
12
12
12
12
12
12
12
12
12
12
12
12
12
12
12
12
12
12
12
12
12
12
12
12
12
12
12
12
12
12
12
12
12
12
12
12
12
12
12
12
12
12
12
12
POINT_DATA 1029
VECTORS Disp float
0.0 0.0 0.0
0.007317170094940449 -0.265331496911427 0.006351026279907484
0.017620241723350503 -0.49999063785761183 0.01367508996695259
0.031870171403891284 -0.7260255185295484 0.019523730422154984
0.05214870805591576 -0.9373079406498943 0.02482343476566154
0.0787402637575855 -1.1288565085450015 0.029205205630536437
0.11153507872312446 -1.2954078295449158 0.03248677692962274
0.15033476939649518 -1.431871986603456 0.0344350257844032
0.19460909618003458 -1.5332871339079466 0.034886774415591834
0.24304085114799365 -1.5954169605478083 0.03410897982673202
0.2934465819062851 -1.6161194674691268 0.033405041843035034
0.3438702267270724 -1.5957200992827658 0.03413702751979594
0.392359218817533 -1.5339004815717234 0.03495270910347853
0.4367410617965651 -1.4328084544522062 0.03456061015989587
0.4757184112117441 -1.2966828869949245 0.03270947638176599
0.5087924665646067 -1.1304801882856121 0.029585141770925916
0.5358089514386809 -0.9392708209095347 0.025445819774089048
0.5567207622333104 -0.7282745175896692 0.020535483842765413
0.5718930497290207 -0.5024220051973962 0.01516802458508293
0.5837870895162964 -0.26774956274373024 0.00901750260265724
0.5949227565146631 0.0 -5.1485501680138566e-05
0.10413597997810735 -0.011330363336304387 -0.003334602161329497
0.10863052550766047 -0.26415368331022404 0.0033270461983063667
0.1122539541278193 -0.5015881372441374 0.008662964870634735
0.12159176581516776 -0.7279021542327696 0.01318528918189328
0.1347653970366439 -0.940007253300564 0.016970270758973813
0.15215905354599948 -1.1322773292022115 0.020084620654018066
0.17367316493005494 -1.2995571601748843 0.022392489386527114
0.19917120232235672 -1.4367202415464468 0.02378749460068441
0.22830531197419218 -1.5387423297317504 0.024196469537484028
0.2602277887936756 -1.60122517283683 0.02378707874130887
0.2935011867151507 -1.6219477293568196 0.023351629119353543
0.32679352777997833 -1.6015332996011096 0.02377742513830872
0.3587760734467094 -1.5393665853893475 0.02418552951323926
0.38802136228064843 -1.437675503085259 0.023794232556851907
0.4136992757721919 -1.300862025848976 0.022451238321924437
0.4354884665046285 -1.133946597162259 0.02025119759483616
0.4532898641912189 -0.9420369799941006 0.017335234207217567
0.46705051261073965 -0.7302471775459081 0.013869444016997102
0.4772385499944279 -0.5041573175347434 0.009903345807158825
0.48207433596560456 -0.2667632106161349 0.005140549918200145
0.48721872486785667 -0.011957011553922231 -0.0013448350018638343
0.20244616653266703 -0.019672422820671793 -0.005449344315444629
0.20476374174927364 -0.2637584027414356 -0.00029489379386202707
0.20516812128245956 -0.5019503725868548 0.0035145116352064154
0.20879131110210947 -0.7290358421213321 0.006322684576437396
0.21501429133444114 -0.9415554811671406 0.008471326709106079
0.22338692884579223 -1.1342823160702937 0.010111272552032445
0.23389787197734668 -1.3019958223013857 0.01125260019418987
0.24649488030542724 -1.4395944827162777 0.01187201432953095
0.26108515599333904 -1.541992289484826 0.011957677902163738
0.2771655617903877 -1.6045506606922566 0.01153907495647402
0.29354448259320814 -1.6249207056373691 0.011067150358506955
0.3099427102449213 -1.6048641790119258 0.011491783419408026
0.32608396432701053 -1.5426281525203611 0.011869851853729598
0.34078547844616736 -1.4405692266533474 0.011759699068832953
0.3535590394209777 -1.303330623365485 0.01114624778052418
0.3643333720314878 -1.1359956611286766 0.010064192924565936
0.37308451805707377 -0.9436483707508022 0.008570133031349599
0.379834838461957 -0.731465341228092 0.006704516569568172
0.38416281467226354 -0.5046313921202579 0.004371739468862185
0.38514339176127593 -0.26627589580410277 0.0011503846142842493
0.3877405660970841 -0.020637719042384147 -0.003424604342758978
0.2978667686875541 -0.025018621317807185 -0.007338034504498307
0.29848956914790664 -0.2638254204423832 -0.0038175763501496775
0.2964463865347543 -0.5016493321627519 -0.0016878707205880848
0.2949225623911724 -0.7292598379541757 -0.0006957793854034859
0.2941142228640904 -0.9420207397140039 -0.00028111564534355536
0.29356999951586094 -1.1349062669263312 -0.00018744730434529575
0.2932015091749854 -1.3027820798259273 -0.00029978472594586813
0.2930650526168424 -1.440570209106222 -0.0005561676040421516
0.2933708174644585 -1.5431518635278223 -0.0008990435898652174
0.2939900117555718 -1.6054377393323351 -0.0013959798328232347
0.29358310321873277 -1.624737897091068 -0.0019959131849147825
0.2931955833583999 -1.6057568906618054 -0.001481187215229097
0.29387552707674686 -1.543799719744906 -0.0010644067621746304
0.2942910069938158 -1.4415647174541093 -0.0007888111236608909
0.29432534018503737 -1.3041464380228096 -0.0005731522253251776
0.29420450162833806 -1.1366619792822346 -0.00045189847068161717
0.29400260414670804 -0.9441716242990121 -0.00045025833423088937
0.29364837187076687 -0.7317664404328578 -0.0006297323489621564
0.2926230029920477 -0.5043628296859802 -0.0011974322893590298
0.2908875050784582 -0.26624263743917487 -0.0027356366892249506
0.2916645488268611 -0.02623455298177269 -0.005631132700411525
0.39250563933331917 -0.027880492520404535 -0.00927887078030459
0.3916317800381819 -0.26393241602725404 -0.0071626792175013086
0.38732397913804073 -0.5009125818482468 -0.006804630099573283
0.3810380221929146 -0.7286361230341737 -0.007674636645966625
0.3732544005769987 -0.9413857046385581 -0.009017914875828143
0.36376035085239256 -1.1341629802536868 -0.010475657142046917
0.35252819361039217 -1.3019252048641101 -0.011847398876924181
0.33962623596718805 -1.4396443747989378 -0.012989205345649195
0.32554995427722855 -1.5422755185146373 -0.013742398503863098
0.3108976898388477 -1.6040356471449706 -0.014072548312862972
0.29362276528507203 -1.62095016575727 -0.014610857198310569
0.2763674002672386 -1.6043606244288044 -0.014196298590837349
0.2617760399140756 -1.542935668154309 -0.013986697460411642
0.24780834834978038 -1.4406588137091483 -0.013344600467026615
0.2350719244736616 -1.3033186869988547 -0.012291680867558647
0.2240717147881139 -1.135958694499768 -0.010963116157240532
0.21488230893327018 -0.9435900372399888 -0.009463435087693867
0.2074630839650529 -0.7312007605146313 -0.007935394496895431
0.20151613866375623 -0.503631954578544 -0.006678312453880825
0.19738423553787027 -0.26628587708994766 -0.006453601625849883
0.1965945937748373 -0.029255636259312268 -0.007945047257096344
0.48777755043679927 -0.028951294784318647 -0.011369329933403545
0.48572353468734275 -0.2638218671763757 -0.010318999614822012
0.47923805384617585 -0.499806606249935 -0.01171971520200298
0.46835490631465393 -0.7272257511661699 -0.014423321423195691
0.4535709657059211 -0.9396405051009994 -0.017471218768778385
0.4350279388898513 -1.1320346724808186 -0.02041282976797157
0.41278738814660926 -1.299429933047538 -0.022974405727383778
0.3870335731720449 -1.4367600984624476 -0.02491644338275938
0.35794070119580024 -1.5393006256708686 -0.026004054238989695
0.3277804522066779 -1.6007413162892474 -0.02563392872221712
0.29366927748488725 -1.6128707160008873 -0.025126055405641265
0.25957833022599797 -1.6010723831840832 -0.02579717897800544
0.22948063710839872 -1.5399735038970324 -0.02632938367704391
0.20049776873362155 -1.4377948594926107 -0.02539819411659154
0.17490787046017248 -1.3008522866181262 -0.02359525413331965
0.15288864329440305 -1.1338683831056788 -0.021131749705814152
0.13461547342237196 -0.9418908645023145 -0.01820541903663571
0.12011009086340098 -0.7298323203689466 -0.015025324760455226
0.10943268197471334 -0.5025291601085263 -0.011966592889028526
0.1030198646398283 -0.26614383735535885 -0.009979951487178207
0.10098710875497874 -0.030403028386425047 -0.01039626101274728
0.5844666159742867 -0.029169665877621067 -0.013537630452989809
0.5821391121954241 -0.26345080085255695 -0.013292736380474878
0.5738997126113247 -0.4983526042493299 -0.016265321917969037
0.5582491928877185 -0.7250088931412062 -0.02064017007003322
0.5362901356897808 -0.9367507739528823 -0.025221086652202445
0.5085067562163539 -1.1284822648979846 -0.02947187790140972
0.4749951859950458 -1.2952101359961274 -0.03304052586584694
0.4359652338108066 -1.4319749309803211 -0.035594410266317676
0.39178247249877407 -1.53367034101141 -0.03681898718672046
0.3426158084772409 -1.596171363675665 -0.035514238349434284
0.2937295606293823 -1.6 -0.030180210701051053
0.24486520915578208 -1.5965090282981684 -0.03571822141914808
0.19576578405962516 -1.5343568622078732 -0.03722801528060149
0.1516995487014194 -1.4330310631687195 -0.03620702558492423
0.11283931326457328 -1.2966619827359407 -0.033844891700917146
0.0795485751737447 -1.1303525839780009 -0.03043240421303952
0.052013843952527 -0.9390395041113029 -0.026257729909843774
0.03026124443998561 -0.7276411910530606 -0.02159894659810941
0.014670695236866448 -0.5010697401239578 -0.016895752689987182
0.006345934878467028 -0.2657528081304347 -0.013311901018371841
0.003958046489207659 -0.030637620924771965 -0.012882946365014664
0.0 0.0 0.0
0.006844505010753598 -0.2507785984612565 0.0042273422269550566
0.017353177883984938 -0.479607052301964 0.008074014038451724
0.03222888286767217 -0.6994080784194111 0.011649112561971656
0.052762086597600975 -0.9050119663547944 0.014408128791266295
0.07916047476015049 -1.0918482863067083 0.016344810392926214
0.11132830976532453 -1.2552007079496053 0.017326302810517755
0.14911218968757106 -1.390539256145337 0.01726183215531288
0.19236254309643355 -1.493431781459986 0.01619394336828256
0.24090230544565652 -1.5592208083764643 0.014578064270887444
0.29350587464543715 -1.5825052259342132 0.013643369349914886
0.3461155540222574 -1.559339740302063 0.014587669875831419
0.3946744992275779 -1.493669278449688 0.016220087026364353
0.43795999040527067 -1.3908944566129011 0.017319817565918435
0.47580099252909636 -1.2556716670013248 0.017442657337789377
0.5080597195770806 -1.092429774240363 0.01655969420003729
0.5346038252828997 -0.9056900948868484 0.014782398737252995
0.5553786438493918 -0.7001489966166399 0.012247150107453015
0.5706471140137973 -0.4803442682485366 0.009071138766720709
0.5819316484172085 -0.2514839234480972 0.005377598393259881
0.5906201940886063 0.0 0.004720276815586238
0.10118945762001526 -0.0072913317073113005 0.0006230796524624799
0.10528668080514972 -0.2504136502139715 0.0019381754342983758
0.11029019944966234 -0.48122614540606506 0.00504072390224178
0.12028158151678456 -0.7014345816301084 0.007584909407160962
0.13395106364644288 -0.9077970790732127 0.009557424672447568
0.15153251339632964 -1.0953416286268067 0.01087621720185463
0.17295813102148194 -1.2594121056710421 0.011521798298235192
0.1981143940678632 -1.3954630572344597 0.011468156943906075
0.2268433431245882 -1.499085546617851 0.010775643074450406
0.25892688689487975 -1.5656220746670193 0.009704724161950989
0.2935324442391009 -1.5893722532104058 0.009020133266383701
0.32814400737599025 -1.5657423045455867 0.009679955245651189
0.3602463467401529 -1.49932572648744 0.010731507606472446
0.38900944529295234 -1.3958225474341421 0.011417207361668744
0.41422042797426006 -1.2598894428482141 0.011486924194597743
0.43573095707881654 -1.0959326374668743 0.010895945488154212
0.45344581855961147 -0.9084899580756921 0.009688607572652285
0.46732726768783966 -0.7021991118742317 0.007921575915155977
0.4776822894051587 -0.4820098354711875 0.005667959456556629
0.4833235098333496 -0.2512188359749774 0.003190759170507934
0.48778608363115716 -0.007417038256942748 0.003572380515911875
0.19836444826710908 -0.012838164394344742 -0.0011217814611445113
0.20063597136270572 -0.2503646060682317 -8.751194647815663e-05
0.202380128322694 -0.4818268914858082 0.0019505738004757
0.20695721938152417 -0.7026680242241705 0.0036084856332646398
0.21379070509530537 -0.909426943900457 0.004760097582107759
0.22255035835324766 -1.0974016215077194 0.005455256806733882
0.2332357071496968 -1.2618897056544152 0.005722863619092895
0.245749027304265 -1.3983398872774842 0.005587480718891599
0.25991636512464994 -1.5023671091612671 0.005080504189964019
0.27577655761293046 -1.5694976089792883 0.004224799929840326
0.2935611588937263 -1.5939673387759163 0.0034693096678966996
0.31135159429343456 -1.5696197286215177 0.004166120415844332
0.32722990222309056 -1.5026111328321021 0.004967208050448668
0.34142960972462916 -1.3987053127564595 0.005429748714523146
0.353993354605176 -1.2623753267138365 0.005541264314315437
0.36475423433468135 -1.0980039084937878 0.005286976196903335
0.3736275229951127 -0.9101354861722822 0.00466800381632946
0.38063792002979036 -0.7034545361836639 0.0036888309744520864
0.3855087833118387 -0.4826546551088525 0.002345432798523871
0.38755991274287716 -0.25112179367805093 0.0009535392141974217
0.3899673175398039 -0.012955828920346921 0.001105832861394373
0.2935353928569762 -0.01656421120792857 -0.0034732038395521533
0.2943053550744069 -0.25053594379546523 -0.002314414424663354
0.2934628795422247 -0.48180040527054263 -0.0011312227248018605
0.2930111160716289 -0.7030309272186915 -0.0003784779239947082
0.292927315088139 -0.9099731744529707 -5.1994179554412954e-05
0.29287442375579076 -1.0980824186012412 -9.889692448298817e-06
0.2928182854452625 -1.2627091822965941 -0.00015674370353020362
0.2927224301069588 -1.399254136838459 -0.00043565830797790794
0.29237388794412306 -1.503362871759793 -0.000833826881697951
0.2920898825061465 -1.5710707638048007 -0.0015552089477946956
0.29359093794435887 -1.5969071554948464 -0.002580914045156272
0.2950976157926583 -1.5711953362769935 -0.0016478635230508566
0.2948308816105072 -1.5036118243429197 -0.0010163846774687692
0.29451248506060335 -1.399626980400266 -0.0007001456516193185
0.294461827285609 -1.2632046841118845 -0.0004847551379607021
0.2944697253581442 -1.0986972169169036 -0.0003641451453525727
0.2945070600674993 -0.9106971033793223 -0.00036473548162756626
0.29455802122159425 -0.7038393707361408 -0.0005386539497236577
0.29428828343900026 -0.48263622185781047 -0.0009627447603325951
0.2935863789294847 -0.25122134116064687 -0.0015260437603231444
0.2944227085056037 -0.016687957561132737 -0.0017477854937319381
0.38805282239004957 -0.018686136168963544 -0.005899916501273957
0.38746046728287914 -0.2506894008316422 -0.004631496239309105
0.3842411226837945 -0.4813327301496271 -0.004197964707960324
0.37905407902783095 -0.7025742110812472 -0.0043481328118288734
0.3720879290919394 -0.9094360254311119 -0.004849051890218425
0.36320211786750356 -1.0974014013230624 -0.005466100041662795
0.3523875111108185 -1.261893161392997 -0.0060333208580872445
0.3397286488981837 -1.398262950671509 -0.0064561711780838135
0.32501253056567186 -1.5020896651649802 -0.006714012754760347
0.30839711977609163 -1.5702501125474952 -0.007111536968025483
0.2936213395689306 -1.5986756360618373 -0.008508990433832513
0.2788509835446088 -1.5703777013798317 -0.00723880376957363
0.26225202791375457 -1.5023446248110268 -0.006967207647586627
0.24756385859800364 -1.3986446651791904 -0.006829750617692859
0.2349449630115758 -1.2624000777428694 -0.006511311479655624
0.22418268320706522 -1.0980295361972041 -0.006011629184344194
0.21536315467478942 -0.9101752451479461 -0.00538910519429096
0.20848038194971957 -0.7033975745496382 -0.004755131517230649
0.20338128533726463 -0.48216094970710005 -0.004272869811743733
0.2002131184584466 -0.2513191082140434 -0.0041125693587503835
0.19965403596998957 -0.01882065675869437 -0.004596679625317119
0.48286763802653504 -0.019599650655691293 -0.00812657641649365
0.48112453505646413 -0.2506579074510822 -0.006892825886703165
0.4755971470788249 -0.4804760977902966 -0.007225422921944043
0.46579574861295003 -0.7013322981637488 -0.008274662819676058
0.4519626238764474 -0.9077954364706768 -0.009599117884273556
0.4342268269282766 -1.095341145074833 -0.010859379517847153
0.41265937577539225 -1.259402526153322 -0.01182482641951685
0.38733571645087367 -1.3953933283511981 -0.012330173497256366
0.3586583594899536 -1.4985840201263734 -0.01235946930268802
0.325536259504854 -1.5665334959469723 -0.011974411739722324
0.2936518924543031 -1.599724851744248 -0.013457766248392252
0.26177281059497065 -1.5666647013637618 -0.012137474548681899
0.22866655351243828 -1.4988461403529718 -0.012685917841245491
0.2000153944203395 -1.3957855024487233 -0.012817437183658388
0.17472735487944333 -1.2599225516707084 -0.01246033594606728
0.15320241818945504 -1.095983837413863 -0.011608199016930845
0.1355107225776711 -0.9085488774072122 -0.010384748131901366
0.12171277043547266 -0.7021644884073114 -0.00895494918232172
0.11192222315173805 -0.4812942330498813 -0.007578540813845405
0.10638126551459942 -0.2512539701208117 -0.006658405239694934
0.10464162883347507 -0.01973863462875135 -0.0071895153358406474
0.5785075758702101 -0.019891437628741803 -0.009835898517420555
0.5761656510822637 -0.25038964048530093 -0.00900904699087861
0.5684736999721857 -0.47921318241631616 -0.010229945166563923
0.5539224775090891 -0.6992654903435409 -0.01221660266659561
0.5331808604946432 -0.9050037409628853 -0.014381964398550783
0.5066030630860077 -1.0918333193701264 -0.01628010395963081
0.4742784268887214 -1.2551932856184247 -0.017605125678324632
0.43631489934439593 -1.3904238345542494 -0.018146596890269564
0.3931512543459866 -1.4932402454624285 -0.017764594753342206
0.34624573254753344 -1.5590235820037626 -0.01637007472489632
0.2936814127289636 -1.6 -0.015743410628938262
0.24112229966431056 -1.5591590530374033 -0.01657056716149149
0.19423225856308912 -1.4935107950860087 -0.018167955876673487
0.15109371358265003 -1.390828263378469 -0.018754113969060356
0.11316302778921736 -1.2557285350124892 -0.018409246365175276
0.08087452029031139 -1.0924924055068634 -0.017250617455198698
0.05432571046040267 -0.9057711269984524 -0.015443533809971632
0.033583712147177806 -0.7001025274330615 -0.013217581872384084
0.018975928693920067 -0.4800198982595822 -0.01092101854773701
0.01119207984115402 -0.2509656466673703 -0.00908710854270442
0.008810798965857188 -0.02002438536859944 -0.009190533353059428
0.0 0.0 0.0
0.009502007165514241 -0.2443927561482717 0.00182652312615756
0.01998501113355364 -0.4691698058276392 0.0034275676666519644
0.03451483487372825 -0.6857172179066691 0.00494550723711671
0.054456232478752385 -0.8888351484268221 0.006021196587026719
0.07989224278866479 -1.0741472783544048 0.006566742943178799
0.11074899270575521 -1.2372534537960054 0.006539032496794173
0.14707267802559507 -1.3739265708462283 0.0059476107732923285
0.189330511067023 -1.4798136282210193 0.004917263879115476
0.2384225369417083 -1.5494089472901171 0.003808071224916387
0.2935205988100552 -1.5747237443210984 0.003276778395009899
0.3486115559018558 -1.5493807471620626 0.0038090936008131184
0.39768118610457875 -1.479748558678676 0.004923556087735314
0.43989790615143415 -1.3738076665497072 0.005968403514764252
0.4761553759661662 -1.2370566476069906 0.00658965774564414
0.5069099684344726 -1.0738448364195488 0.006668988526629385
0.5321914079588944 -0.8884028991188667 0.006202994663881854
0.5518967321273901 -0.6851482118648254 0.005236176961666606
0.5660748341836388 -0.46848656101175296 0.003899553938694102
0.5758432702402992 -0.24357739270542514 0.002625104337425901
0.583292910599314 0.0 0.0026784224145958296
0.10162284446936716 -0.006305316995976613 6.603998819464288e-05
0.10581818361158991 -0.24435427488983413 0.0009373432692972986
0.11136276527389181 -0.4708544064975451 0.0021628053136804604
0.12129967382623387 -0.6878559678053906 0.0032679213048184934
0.1347028175472834 -0.8917424261729753 0.0040646362458152474
0.15176923231276543 -1.0777993172887328 0.004470153426811428
0.17244724360422814 -1.2416886732840045 0.004478345360949124
0.19676347314242362 -1.3792023399588962 0.004117858845990141
0.22494339275465114 -1.486073794825077 0.0034811890396458382
0.25740084124408047 -1.556818991664964 0.002783070109996795
0.2935165623102911 -1.5828809449799597 0.002430939870317015
0.329623484747565 -1.5567883635561985 0.0027626389145955213
0.3620535443953381 -1.4860032367457428 0.003443377395087198
0.3901844410175484 -1.3790735005994352 0.004069644931210242
0.4144246208617954 -1.2414751004794278 0.0044321044251424205
0.43499126714684094 -1.0774694085471401 0.004445413149559956
0.45189784131824096 -0.8912662107389676 0.004088482658058359
0.4650752745428917 -0.6872182024627109 0.003381454760304683
0.47466812695491467 -0.4700577087573131 0.0024271318868995684
0.4796369480484124 -0.24335075179957466 0.0016654651872578296
0.48359411369895344 -0.00599385676627375 0.0021256603079335057
0.1976663385954879 -0.010869442163043183 -0.0006333594624775582
0.19982392791657094 -0.24425060617319716 -3.6548088179696194e-05
0.20185558309401622 -0.4716258009689958 0.0008014473738275408
0.20666458741587876 -0.6892114810794571 0.0015365498490574985
0.21352861585653118 -0.8935141874406741 0.002031988181858334
0.2221780526571129 -1.080029176979284 0.002259685705516807
0.23261064324712097 -1.2443838038072146 0.0022381374403482902
0.24476741936754837 -1.3823663205792833 0.0020041603196774846
0.2586079862275458 -1.4897831126404175 0.0016072227037961817
0.27461412172950644 -1.5614653233350746 0.0011349004903399114
0.2935149687778794 -1.5886606742769473 0.0008514014870010676
0.3124054882109457 -1.5614332309752759 0.0010935612910871798
0.3283797759627234 -1.4897090938055304 0.001526684146503445
0.34216442591724977 -1.3822308721534187 0.001889809861199112
0.3542371320498857 -1.24415850122517 0.0021007835160172564
0.3645517537155127 -1.0796791636515406 0.00211843782494096
0.373041603899196 -0.8930043608822461 0.0019181462508172295
0.37969240141219335 -0.6885202480833906 0.0014980754657366866
0.3842042917885039 -0.4707337719579655 0.000932356893237538
0.3860056801643582 -0.24324674206103927 0.0005613352678975993
0.38815722545661907 -0.010402331320802828 0.0009142332996623929
0.29151984419586624 -0.013932176133402183 -0.0017402966546229627
0.29216019167796886 -0.24425381504592336 -0.0011062585042393412
0.2915058662994435 -0.4717009891123945 -0.0005862913031131226
0.2914058016265967 -0.6896732504010581 -0.0002086963216018919
0.29164259024767086 -0.8941433797393299 -1.4050223697116231e-05
0.2918546950178292 -1.0807986148420408 2.010728471169495e-05
0.29199656530968854 -1.2453009096310395 -5.931107002743134e-05
0.2919770249668931 -1.3833656056112882 -0.00021239577895442162
0.2914692064284033 -1.4908722812816602 -0.0004316889007300626
0.29108503298478855 -1.5634884245744831 -0.0007450951930392575
0.2935146978484712 -1.5927656045448428 -0.0009997943067024421
0.2959325541611194 -1.5634558888940866 -0.0008072790700904575
0.29551222643719643 -1.4907969516776503 -0.0005547189773405553
0.2949418970577199 -1.3832270714931845 -0.0003921885556722854
0.294830727374634 -1.245069214206752 -0.0002861412256478876
0.2948490717707275 -1.0804362087531014 -0.00023386781388679424
0.294903654503848 -0.893611316295533 -0.00025906127641927873
0.2949439836043475 -0.6889410124548727 -0.0003837739234675575
0.29463677649710446 -0.4707706075382533 -0.0005737756469724223
0.2938937650464301 -0.24327927290977897 -0.0006615953453377176
0.29457622893593693 -0.013327975681799874 -0.0005732378345330613
0.3846586807976306 -0.015687771906740425 -0.0029623158038348586
0.38394974007316723 -0.24425083488514962 -0.0022036121453116978
0.3808880941972087 -0.4712663807383344 -0.001971421510302924
0.37614758323799646 -0.6892562595236087 -0.001948809812133167
0.3697691059106072 -0.8936136047391096 -0.002053936792899975
0.3615274300869251 -1.0800972774063213 -0.002214890447283929
0.35135234686347894 -1.2444334022766304 -0.002354138118873007
0.33923911663115003 -1.3822430198809152 -0.0024259912909645703
0.32466088078961447 -1.4893282951886873 -0.002457429683360317
0.3076716925187185 -1.5627075785173972 -0.002584107323368517
0.2935144529770716 -1.5957669188704178 -0.002784524121020123
0.27934384713254234 -1.5626756407082563 -0.0026675468536352873
0.262313957386651 -1.489253846873807 -0.0026238244467681844
0.24766615978644224 -1.3821049927313716 -0.0026726800668279093
0.2354529750219019 -1.2442007160256778 -0.0026726449953088614
0.22514780277248442 -1.0797306162515428 -0.002584881787420428
0.21674936844075712 -0.8930701752000623 -0.002434406014422522
0.21019925072648782 -0.6885035524586196 -0.0022649374819928214
0.20531694756513766 -0.47032786945861055 -0.0020904377787859937
0.20222113314818752 -0.24329709291548543 -0.0019199424685270832
0.20156021384084394 -0.01497919648316983 -0.002094857460513263
0.4780457676636472 -0.01645999364282345 -0.004041432645758177
0.47619300015091964 -0.24411907661406168 -0.0032206478252323834
0.4708152962898427 -0.4703998293914385 -0.0033232163106768427
0.46157110698706094 -0.6880025214361747 -0.0036644885382446962
0.4486064108054687 -0.8919208979342756 -0.004068074573881371
0.43191934369013035 -1.0779336865217994 -0.004411969416897174
0.41147702300891414 -1.241765794656883 -0.004586022240986564
0.3872071255219415 -1.3790970306078805 -0.004533035689721193
0.3593055273102384 -1.4852853125989192 -0.004301801416264782
0.3256729725881996 -1.5584728976044868 -0.004133402039505354
0.2935129368847531 -1.598194255676899 -0.004167627963949828
0.2613377769231696 -1.5584425806580295 -0.004238985655846598
0.2276593394850188 -1.4852139035713148 -0.00451355239439439
0.1996799423394294 -1.3789630333771974 -0.004850202299762556
0.175299810387684 -1.2415374738330696 -0.005002286318729274
0.15471748681259173 -1.0775706316746168 -0.004908091595663356
0.1378711555492413 -0.8913784542380547 -0.00460016361887077
0.1247548046429649 -0.6872488365537095 -0.004146582512418509
0.11541430869891815 -0.469468435069936 -0.003607613738653525
0.11003243174356761 -0.2431757553554093 -0.003109983042709468
0.10822927113204227 -0.01568573830704919 -0.003418884288195399
0.5722439231305063 -0.016735346916516496 -0.004646148050911461
0.5697774693091394 -0.2438075779757947 -0.004055842466940345
0.5622362901436778 -0.4691248814473879 -0.004586600738477644
0.5484019654783092 -0.6859281476025338 -0.005307373872059662
0.528852075603943 -0.8890908102976721 -0.005996832630060068
0.5037717968076376 -1.074329663136397 -0.0064864428182152874
0.4731231929258134 -1.237376049353021 -0.006631880189299692
0.4368292976776696 -1.3737950491168973 -0.006354381091031795
0.3950913200011657 -1.4795046949405755 -0.005720258028443419
0.34886272444773203 -1.549737035269388 -0.0050601563990630965
0.29350903536427975 -1.6 -0.004751313897839295
0.23813815094116147 -1.549709302924612 -0.00518927738912342
0.19185749311083217 -1.4794383600723893 -0.005980528467413835
0.15003162613277007 -1.3736684262628938 -0.006747827374285695
0.113614091175066 -1.2371571323320705 -0.007155963959730486
0.08281041323134487 -1.0739777394054246 -0.007125854123939506
0.05755964733194528 -0.888561462253893 -0.006709549151370539
0.03786469785787792 -0.6851915997321428 -0.00600187327129362
0.02397321749267567 -0.4682158082042454 -0.005095937497539816
0.01647725281332852 -0.24287528141894316 -0.00414815474213717
0.01407813563394212 -0.015929684745135685 -0.004206245265707623
0.0 0.0 0.0
0.010079685962121129 -0.24267860050902293 -1.3579387531186283e-14
0.020620561921163266 -0.4661945849122685 -2.554766121090685e-14
0.034988512267438925 -0.6817496688038566 -3.686532564765003e-14
0.054633609313749006 -0.884228464995994 -4.817154777598678e-14
0.07968143282290192 -1.0693176520956194 -5.991257406125617e-14
0.11009332634548578 -1.2327042036707767 -7.483544969503013e-14
0.14602572146346085 -1.3702059496162204 -9.200455530310468e-14
0.1881522645878063 -1.4773560245101858 -1.0738676731691382e-13
0.23759236893326635 -1.5482280453123114 -1.2017186063641385e-13
0.29351243420624257 -1.5741284014967203 -1.3430396683476602e-13
0.3494197665815906 -1.5481429867360699 -1.501826912900771e-13
0.39881988972099597 -1.4771734474174258 -1.6310893073493448e-13
0.44087337941849836 -1.3699014033676793 -1.6962609210783736e-13
0.47668811075373874 -1.2322430381382186 -1.8225366345625668e-13
0.5069168989628342 -1.0686608315767672 -1.9307658354826218e-13
0.5316817131680515 -0.8833455011430813 -2.150405234101936e-13
0.5508887972251761 -0.6806432474322585 -2.3886545452661173e-13
0.5645845602194512 -0.46491740050557107 -2.650238409085382e-13
0.5740053888245232 -0.24132198243969788 -2.9122323048847013e-13
0.5811427463393124 0.0 -3.103527432219361e-13
0.10158833550474194 -0.0060968925006372725 -2.828158647319105e-15
0.10580293154633048 -0.24275754506829358 -1.2335862779601308e-14
0.11154923975147894 -0.4679119818646215 -2.395687382459235e-14
0.12143146907057555 -0.6839259584406957 -3.583739968251385e-14
0.13468466994694175 -0.8871734117880832 -4.815547183778585e-14
0.1515363729973382 -1.0730231639458783 -6.093711779091803e-14
0.17196788077525035 -1.2372249057015543 -7.524454344502804e-14
0.19607634912515562 -1.3756229448030945 -9.113156139359517e-14
0.2242073706380289 -1.483837053878496 -1.0642310094660913e-13
0.2568903555302528 -1.555941184829342 -1.2200830881239534e-13
0.29349699100319987 -1.5826314126599528 -1.3592073872395408e-13
0.33008850813012397 -1.5558521106980905 -1.525802143532374e-13
0.36272449498543996 -1.4836454854834746 -1.6833769063970495e-13
0.39077143616371257 -1.3753022920860563 -1.801293501552797e-13
0.41474897664087357 -1.2367367939174123 -1.9485615422141355e-13
0.434986219829708 -1.0723222794065768 -2.0984039319168057e-13
0.4515532374353022 -0.8862205433691929 -2.289505975741343e-13
0.4643899269702624 -0.682708572737596 -2.5057915657250855e-13
0.4736523589439935 -0.46646673425881263 -2.736379855815244e-13
0.47848414030352776 -0.24110501616022081 -2.964698825325324e-13
0.4822932835063274 -0.005746262684020001 -3.129925834226818e-13
0.19729136604542014 -0.010606452978094075 -3.1303379012811447e-15
0.19942521337044958 -0.24265451436932237 -1.2090728958557043e-14
0.20159099418523685 -0.4687205375698215 -2.291196281379433e-14
0.20644764862249104 -0.6852940870162161 -3.537659224196202e-14
0.21328345850914526 -0.8889555679168106 -4.8064242146006724e-14
0.22186987211156334 -1.075265458483329 -6.17035667526961e-14
0.23222063646608726 -1.2399449257577126 -7.635563154498366e-14
0.2443087691828036 -1.3788347689413196 -9.089328825994084e-14
0.25814590745041754 -1.487627457799509 -1.0819553278248698e-13
0.2742756825712027 -1.5607025321832888 -1.2434371756363694e-13
0.2934841362719992 -1.5885658762899206 -1.3899603566252336e-13
0.3126753810479844 -1.560610592081037 -1.5718255395124453e-13
0.3287521274337018 -1.4874293739059228 -1.7427432057640948e-13
0.34249616574873964 -1.3785022568855152 -1.900378802042509e-13
0.3544437775191697 -1.239436615143782 -2.0668759748265284e-13
0.3645951360879762 -1.0745312087177232 -2.235920512298106e-13
0.37290504279184594 -0.8879475663519968 -2.416366263393375e-13
0.37936041423353095 -0.6839923458148643 -2.6113265999681666e-13
0.3836956533264239 -0.4671324445194221 -2.820152685879099e-13
0.3854560807949352 -0.24100347937780056 -3.022251805570058e-13
0.3875319917816079 -0.009979229996795479 -3.1928995745853144e-13
0.2907252511087998 -0.013638478897414666 -2.7202281300369254e-15
0.2913601582501731 -0.24264631359351263 -1.1625538336543359e-14
0.29081845019371844 -0.4688179765771043 -2.223235397557941e-14
0.29082494398117426 -0.6857751000023431 -3.523527769653473e-14
0.2911470623012815 -0.8895963659806865 -4.814201094493331e-14
0.29143621378453105 -1.076045377188509 -6.240595525796776e-14
0.2916472885836401 -1.2408739924442174 -7.741226394934531e-14
0.29168279449988854 -1.3798487925232479 -9.252604831083004e-14
0.2912087061049382 -1.4887369741933003 -1.1004514485290282e-13
0.2908575429531542 -1.5627557810592858 -1.2671360719713446e-13
0.29347245838741787 -1.5927531110789255 -1.427640751323927e-13
0.2960681708949693 -1.5626621841096684 -1.6237299108810046e-13
0.2956582800932765 -1.4885349818825584 -1.7960233311286324e-13
0.2950827628913635 -1.3795088435248386 -1.9908354762939745e-13
0.29496943170366813 -1.24035257771196 -2.1731304631228088e-13
0.2949783104710564 -1.0752883686406027 -2.354621751327797e-13
0.2950044499016997 -0.8885501785185654 -2.532434396284395e-13
0.2949903392947966 -0.6844082263824148 -2.710355425029817e-13
0.2946340025314703 -0.4671732996237728 -2.902124688591428e-13
0.29391388451626627 -0.2410390767354825 -3.0864568283060244e-13
0.2945765416145726 -0.012779328053433257 -3.2669971475316577e-13
0.383391449798661 -0.015373885359681299 -2.107484866011442e-15
0.38271796645244255 -0.2426329151897569 -1.1067082542660153e-14
0.37978597896273086 -0.4683998790444436 -2.193768043848847e-14
0.37520855117984764 -0.6853809062803015 -3.443673203256911e-14
0.369021702436682 -0.8890843809400616 -4.8117801317567954e-14
0.36099715731583165 -1.075356734151903 -6.257257494702116e-14
0.3510421015015832 -1.240012034181511 -7.877419791139367e-14
0.3391122648147598 -1.3787184188004447 -9.407086442715763e-14
0.32461524833067357 -1.4871683491315402 -1.1175929599596463e-13
0.30755615304872236 -1.5619404776091295 -1.2921600509239917e-13
0.2934605906236239 -1.5957930592590495 -1.4668498738173707e-13
0.2793437297803818 -1.5618464538710732 -1.6646450919953727e-13
0.26221988720488687 -1.4869650890898258 -1.8579430116330204e-13
0.24761251272440177 -1.3783755202556216 -2.0715993968547268e-13
0.23552445620204318 -1.2394845652855386 -2.2723658188876064e-13
0.2253631738724632 -1.0745882229482977 -2.4782006249690583e-13
0.21708774263216585 -0.8880159995486521 -2.646044440879652e-13
0.21062046944623714 -0.6839797662566063 -2.813753029369044e-13
0.2058019805192565 -0.4667438036822724 -2.981436267350189e-13
0.20279323153323958 -0.2410591416943893 -3.1505562689509877e-13
0.20217045367823494 -0.014348423644799602 -3.3415140565658586e-13
0.47626661733832115 -0.016135823641954598 -1.4621458503326657e-15
0.47450401166231915 -0.24249104887523037 -1.0518600592464275e-14
0.46930078903737027 -0.4675473969252209 -2.1400802903908676e-14
0.4602887955874771 -0.6841503137844053 -3.3815364897472035e-14
0.44762910145124485 -0.8874119891306372 -4.833409885682408e-14
0.43130877240743637 -1.073204174288806 -6.438584638197066e-14
0.4112525280697078 -1.2373368521431374 -7.892302082264916e-14
0.3873102950845989 -1.3755374225884864 -9.462868751058335e-14
0.35956987748581387 -1.4830450521001182 -1.137984856469534e-13
0.32573523055110015 -1.5575882904974923 -1.3016370486092958e-13
0.2934471607718668 -1.5982221377507002 -1.4967899091399713e-13
0.26113539536660113 -1.5574950464220092 -1.6921580295622596e-13
0.22722901078006738 -1.4828431186294664 -1.9117007158683545e-13
0.19936741971337885 -1.3751959430421679 -2.1464841297564303e-13
0.17525434045619587 -1.236810285543 -2.370970590822442e-13
0.1549821856032418 -1.0724350358378731 -2.5912499609947523e-13
0.1384170590979234 -0.8863397029504542 -2.7705594453799254e-13
0.12552411007332623 -0.68274465003836 -2.921857432585339e-13
0.1163625576596198 -0.46590325237747493 -3.0655025720366164e-13
0.11114877615469132 -0.2409369348784691 -3.207913552868594e-13
0.10945311627736254 -0.01501049663989205 -3.4057798858822546e-13
0.5699187086088764 -0.016387667413400413 -6.726095159135951e-16
0.5675955866495348 -0.24215365627934213 -9.90737437627311e-15
0.560287027185994 -0.4662706331491712 -2.026164617927563e-14
0.5467785251665903 -0.6820792471728637 -3.2684726263013825e-14
0.5276713410757496 -0.8845755732384127 -4.8752805912749517e-14
0.5031324968668252 -1.069571213496771 -6.618603793868919e-14
0.47306797332631495 -1.2328801047588236 -7.822436408341303e-14
0.4372906175863333 -1.3701061850938905 -9.502199647964859e-14
0.3958009360444034 -1.4770664458566929 -1.111587027928997e-13
0.3493326754517014 -1.5485252621704835 -1.3064431808556041e-13
0.2934307354179382 -1.6 -1.5077023974724185e-13
0.23750219854158883 -1.5484339452423663 -1.7078161952818753e-13
0.1909535719045392 -1.4768683021406876 -1.933483488469761e-13
0.14932875367638662 -1.369770291027649 -2.2204418976284882e-13
0.11336241078834873 -1.2323609981646808 -2.4767712671680404e-13
0.08306289414514527 -1.0688119359539119 -2.73653624386331e-13
0.05826954465160614 -0.883517695742059 -2.9077455635369554e-13
0.03895356443890881 -0.6806981427087884 -3.0477922860454317e-13
0.025378737650961165 -0.46466428573138996 -3.1535535514655603e-13
0.018160059343075005 -0.2406221065123972 -3.256720133790182e-13
0.01594520226538227 -0.015217256799356994 -3.443263449415863e-13
0.0 0.0 0.0
0.00950200716553912 -0.2443927561482837 -0.0018265231261851654
0.019985011133591895 -0.469169805827658 -0.0034275676667012856
0.03451483487377647 -0.6857172179066794 -0.004945507237189371
0.054456232478804614 -0.8888351484268184 -0.006021196587122804
0.07989224278871795 -1.0741472783543986 -0.0065667429433006585
0.11074899270580954 -1.2372534537959998 -0.006539032496937632
0.14707267802565535 -1.3739265708462263 -0.005947610773454613
0.1893305110670889 -1.4798136282210184 -0.004917263879307647
0.23842253694177845 -1.5494089472900971 -0.0038080712251451513
0.29352059881013226 -1.5747237443210802 -0.003276778395268777
0.3486115559019457 -1.5493807471620409 -0.0038090936011005165
0.3976811861046802 -1.4797485586786177 -0.004923556088047725
0.439897906151541 -1.3738076665496028 -0.005968403515103267
0.47615537596626994 -1.2370566476068614 -0.006589657746010496
0.5069099684345589 -1.0738448364193824 -0.0066689885270290366
0.5321914079589577 -0.8884028991187243 -0.006202994664318568
0.5518967321274436 -0.6851482118647053 -0.0052361769621464055
0.5660748341836827 -0.4684865610116626 -0.0038995539392244673
0.5758432702403367 -0.24357739270537268 -0.0026251043380067698
0.5832929105993419 0.0 -0.0026784224152136666
0.10162284446938952 -0.006305316995978086 -6.603998820063113e-05
0.10581818361161797 -0.24435427488984857 -0.0009373432693224571
0.1113627652739288 -0.47085440649756505 -0.002162805313729367
0.1212996738262784 -0.6878559678053995 -0.003267921304890804
0.13470281754733318 -0.891742426172975 -0.004064636245912117
0.15176923231281833 -1.0777993172887232 -0.004470153426934724
0.17244724360428282 -1.241688673284001 -0.004478345361096707
0.19676347314248308 -1.3792023399588997 -0.004117858846162202
0.22494339275471256 -1.4860737948250813 -0.0034811890398489262
0.25740084124414714 -1.5568189916649524 -0.002783070110232382
0.29351656231036816 -1.5828809449799468 -0.0024309398705844223
0.3296234847476471 -1.5567883635561803 -0.002762638914893317
0.3620535443954263 -1.4860032367456948 -0.0034433773954131433
0.3901844410176441 -1.3790735005993342 -0.004069644931568336
0.41442462086188564 -1.2414751004793012 -0.00443210442553043
0.43499126714692415 -1.077469408546963 -0.004445413149984604
0.45189784131831295 -0.8912662107388235 -0.004088482658519219
0.46507527454295483 -0.687218202462588 -0.0033814547608066914
0.47466812695497246 -0.47005770875722236 -0.0024271318874478165
0.4796369480484655 -0.24335075179952204 -0.001665465187849476
0.48359411369900424 -0.005993856766267648 -0.002125660308557571
0.19766633859551885 -0.010869442163045974 0.0006333594624707435
0.19982392791660486 -0.24425060617321193 3.6548088155288736e-05
0.20185558309405296 -0.4716258009690148 -0.000801447373875108
0.20666458741592147 -0.68921148107947 -0.001536549849129782
0.2135286158565781 -0.8935141874406739 -0.002031988181955868
0.22217805265716242 -1.080029176979275 -0.002259685705641089
0.2326106432471746 -1.244383803807212 -0.0022381374405002685
0.2447674193676035 -1.3823663205792875 -0.0020041603198585017
0.25860798622760234 -1.4897831126404204 -0.0016072227040077772
0.27461412172957167 -1.5614653233350648 -0.0011349004905846262
0.29351496877795186 -1.5886606742769362 -0.000851401487278321
0.31240548821101954 -1.56143323097525 -0.0010935612913958472
0.3283797759628019 -1.48970909380549 -0.0015266841468440213
0.34216442591733354 -1.3822308721533183 -0.0018898098615748066
0.3542371320499697 -1.2441585012250476 -0.0021007835164265506
0.3645517537155966 -1.0796791636513683 -0.002118437825388104
0.3730416038992732 -0.8930043608820998 -0.0019181462513004725
0.3796924014122663 -0.6885202480832695 -0.0014980754662602023
0.384204291788571 -0.4707337719578732 -0.0009323568938022745
0.3860056801644266 -0.24324674206098673 -0.0005613352685013177
0.3881572254566852 -0.010402331320791939 -0.0009142333002991382
0.2915198441959022 -0.013932176133406717 0.0017402966546170053
0.29216019167800605 -0.24425381504593763 0.0011062585042153315
0.29150586629948083 -0.4717009891124113 0.0005862913030668201
0.2914058016266376 -0.6896732504010696 0.00020869632153066014
0.29164259024771566 -0.8941433797393297 1.4050223598998294e-05
0.2918546950178753 -1.080798614842033 -2.010728483894225e-05
0.29199656530973755 -1.2453009096310346 5.9311069871311734e-05
0.2919770249669447 -1.3833656056112837 0.00021239577876774491
0.2914692064284575 -1.4908722812816724 0.00043168890050891305
0.2910850329848496 -1.5634884245744836 0.0007450951927866895
0.2935146978485368 -1.592765604544826 0.0009997943064140838
0.29593255416118547 -1.5634558888940675 0.0008072790697704627
0.29551222643726754 -1.490796951677619 0.0005547189769853718
0.2949418970577929 -1.3832270714930919 0.0003921885552787038
0.29483072737470917 -1.2450692142066409 0.00028614122521723626
0.29484907177080727 -1.0804362087529324 0.00023386781341728352
0.2949036545039303 -0.8936113162953875 0.00025906127591340507
0.294943983604427 -0.6889410124547461 0.0003837739229234959
0.29463677649718334 -0.4707706075381619 0.0005737756463914048
0.2938937650465101 -0.24327927290972748 0.0006615953447212557
0.2945762289360176 -0.013327975681785858 0.0005732378338808247
0.38465868079766846 -0.015687771906746844 0.0029623158038305153
0.383949740073205 -0.244250834885161 0.0022036121452885644
0.38088809419724534 -0.47126638073834975 0.001971421510257521
0.3761475832380357 -0.689256259523621 0.0019488098120626028
0.36976910591064865 -0.8936136047391073 0.0020539367928018057
0.36152743008696725 -1.0800972774063102 0.0022148904471537695
0.351352346863524 -1.2444334022766257 0.002354138118713678
0.33923911663119927 -1.3822430198809144 0.0024259912907712
0.324660880789669 -1.4893282951887026 0.0024574296831333733
0.3076716925187742 -1.5627075785174012 0.0025841073231081375
0.2935144529771311 -1.595766918870402 0.0027845241207206995
0.2793438471326057 -1.5626756407082407 0.002667546853303046
0.26231395738671276 -1.4892538468737724 0.002623824446397663
0.24766615978650716 -1.382104992731287 0.0026726800664161527
0.23545297502196966 -1.2442007160255646 0.0026726449948563857
0.22514780277256077 -1.079730616251377 0.0025848817869290014
0.2167493684408409 -0.893070175199914 0.002434406013894067
0.21019925072657367 -0.6885035524584903 0.002264937481428351
0.2053169475652271 -0.4703278694585203 0.0020904377781889327
0.20222113314827977 -0.24329709291543522 0.0019199424678975287
0.20156021384093717 -0.014979196483153866 0.00209485745984537
0.4780457676636856 -0.016459993642831 0.004041432645755742
0.4761930001509574 -0.2441190766140708 0.0032206478252103554
0.4708152962898793 -0.47039982939145303 0.003323216310632858
0.46157110698709664 -0.6880025214361873 0.003664488538174694
0.4486064108055079 -0.8919208979342721 0.0040680745737835125
0.4319193436901711 -1.077933686521784 0.004411969416767537
0.41147702300895855 -1.2417657946568863 0.004586022240824339
0.38720712552199166 -1.3790970306078758 0.004533035689521497
0.3593055273102923 -1.4852853125989387 0.004301801416033035
0.32567297258825145 -1.5584728976044853 0.0041334020392379735
0.2935129368848099 -1.598194255676894 0.004167627963641676
0.26133777692322707 -1.5584425806580111 0.004238985655502582
0.22765933948507316 -1.4852139035712866 0.00451355239400836
0.19967994233948463 -1.3789630333771128 0.004850202299331916
0.17529981038774353 -1.2415374738329608 0.005002286318255076
0.1547174868126634 -1.0775706316744602 0.0049080915951475014
0.13787115554932725 -0.8913784542379081 0.004600163618319256
0.12475480464305928 -0.6872488365535808 0.004146582511833507
0.1154143086990199 -0.4694684350698456 0.003607613738040041
0.11003243174367262 -0.24317575535536026 0.003109983042067386
0.10822927113214836 -0.01568573830703236 0.003418884287513895
0.5722439231305445 -0.0167353469165246 0.00464614805091039
0.5697774693091787 -0.24380757797580238 0.004055842466920153
0.5622362901437151 -0.46912488144740205 0.004586600738435218
0.5484019654783419 -0.6859281476025455 0.005307373871990563
0.5288520756039781 -0.889090810297668 0.0059968326299624395
0.5037717968076781 -1.0743296631363852 0.006486442818087262
0.4731231929258582 -1.2373760493530195 0.006631880189133993
0.43682929767772094 -1.373795049116894 0.006354381090827093
0.39509132000121944 -1.479504694940592 0.0057202580282042295
0.3488627244477791 -1.5497370352693816 0.005060156398790334
0.2935090353643316 -1.6 0.0047513138975275844
0.23813815094121304 -1.5497093029245894 0.0051892773887675
0.19185749311087488 -1.4794383600723593 0.0059805284670103485
0.1500316261328102 -1.3736684262628138 0.006747827373836804
0.11361409117511424 -1.2371571323319615 0.007155963959234953
0.08281041323140971 -1.0739777394052763 0.007125854123399413
0.05755964733203465 -0.888561462253747 0.006709549150794158
0.037864697857983826 -0.6851915997320168 0.006001873270687696
0.023973217492791816 -0.4682158082041559 0.005095937496909478
0.01647725281344768 -0.24287528141889428 0.004148154741483127
0.01407813563406119 -0.015929684745118976 0.004206245265017955
0.0 0.0 0.0
0.006844505010806491 -0.2507785984612819 -0.0042273422269872695
0.017353177884063088 -0.47960705230197975 -0.008074014038509682
0.03222888286776453 -0.6994080784194159 -0.011649112562053454
0.05276208659770753 -0.9050119663547948 -0.014408128791369521
0.07916047476027366 -1.0918482863066905 -0.01634481039304844
0.11132830976546314 -1.2552007079495655 -0.017326302810656728
0.149112189687706 -1.3905392561452459 -0.017261832155473326
0.1923625430965551 -1.4934317814598832 -0.0161939433684676
0.24090230544579122 -1.5592208083763985 -0.014578064271104557
0.2935058746455928 -1.5825052259341237 -0.013643369350159203
0.34611555402242933 -1.559339740301968 -0.014587669876107351
0.394674499227768 -1.493669278449544 -0.01622008702666769
0.43795999040546124 -1.3908944566127124 -0.017319817566253906
0.47580099252927605 -1.255671667001088 -0.017442657338157867
0.5080597195772417 -1.0924297742401092 -0.016559694200442256
0.5346038252830356 -0.9056900948865799 -0.01478239873769148
0.5553786438494998 -0.7001489966164117 -0.012247150107934724
0.5706471140138809 -0.4803442682483535 -0.009071138767250677
0.5819316484172776 -0.25148392344798365 -0.005377598393840797
0.5906201940886582 0.0 -0.00472027681620317
0.10118945762005983 -0.007291331707315163 -0.0006230796524693421
0.10528668080520541 -0.2504136502139999 -0.0019381754343274612
0.11029019944973704 -0.4812261454060831 -0.005040723902296841
0.12028158151687421 -0.701434581630114 -0.007584909407240129
0.13395106364654474 -0.9077970790732148 -0.009557424672549312
0.15153251339644372 -1.0953416286267972 -0.010876217201978802
0.17295813102160515 -1.2594121056710041 -0.011521798298381552
0.19811439406798717 -1.3954630572343603 -0.01146815694407662
0.22684334312471474 -1.4990855466177426 -0.010775643074647366
0.2589268868950148 -1.565622074666957 -0.009704724162179452
0.2935324442392514 -1.589372253210317 -0.009020133266644727
0.3281440073761537 -1.5657423045454937 -0.009679955245942543
0.3602463467403247 -1.4993257264872972 -0.010731507606794026
0.38900944529312587 -1.3958225474339476 -0.011417207362022438
0.4142204279744279 -1.2598894428479772 -0.01148692419498644
0.43573095707897097 -1.0959326374666192 -0.010895945488578695
0.4534458185597532 -0.9084899580754264 -0.00968860757311397
0.4673272676879625 -0.7021991118739939 -0.007921575915659815
0.4776822894052657 -0.48200983547100523 -0.005667959457103955
0.4833235098334548 -0.2512188359748651 -0.003190759171100213
0.48778608363125364 -0.00741703825692671 -0.0035723805165349446
0.1983644482671709 -0.012838164394351032 0.0011217814611366702
0.2006359713627711 -0.2503646060682591 8.751194645041207e-05
0.2023801283227676 -0.4818268914858309 -0.0019505738005281407
0.20695721938161024 -0.7026680242241777 -0.003608485633341319
0.21379070509540132 -0.9094269439004595 -0.004760097582209072
0.2225503583533539 -1.0974016215077087 -0.005455256806860111
0.23323570714980854 -1.2618897056543772 -0.005722863619245541
0.245749027304382 -1.39833988727739 -0.005587480719069959
0.25991636512477506 -1.5023671091611621 -0.005080504190170949
0.27577655761306125 -1.5694976089792283 -0.0042247999300787185
0.2935611588938688 -1.5939673387758349 -0.003469309668173223
0.3113515942935888 -1.5696197286214268 -0.004166120416150371
0.32722990222324744 -1.5026111328319516 -0.004967208050787178
0.3414296097247858 -1.3987053127562725 -0.005429748714895473
0.3539933546053317 -1.2623753267135933 -0.005541264314724149
0.36475423433483256 -1.0980039084935318 -0.0052869761973487915
0.37362752299525914 -0.9101354861720171 -0.0046680038168144125
0.3806379200299271 -0.7034545361834186 -0.003688830974975926
0.38550878331197047 -0.4826546551086729 -0.0023454327990878464
0.3875599127430083 -0.251121793677938 -0.0009535392148014607
0.3899673175399306 -0.012955828920319398 -0.0011058328620308436
0.2935353928570475 -0.01656421120793737 0.0034732038395464257
0.29430535507447786 -0.2505359437954898 0.002314414424636943
0.29346287954229955 -0.48180040527056617 0.001131222724752188
0.2930111160717099 -0.7030309272187029 0.0003784779239199934
0.2929273150882286 -0.9099731744529761 5.1994179453301656e-05
0.29287442375588923 -1.0980824186012303 9.889692319985511e-06
0.2928182854453677 -1.2627091822965602 0.00015674370337345357
0.2927224301070685 -1.3992541368383744 0.00043565830779102765
0.2923738879442419 -1.5033628717596952 0.000833826881482187
0.29208988250627277 -1.5710707638047494 0.0015552089475448004
0.2935909379444945 -1.596907155494781 0.002580914044867633
0.2950976157928028 -1.5711953362768993 0.0016478635227304681
0.29483088161064885 -1.5036118243427636 0.001016384677113994
0.2945124850607453 -1.3996269804000754 0.0007001456512282145
0.29446182728575604 -1.2632046841116418 0.0004847551375306346
0.2944697253582937 -1.0986972169166436 0.00036414514488419434
0.2945070600676485 -0.9106971033790536 0.00036473548112092206
0.2945580212217453 -0.7038393707358972 0.000538653949179199
0.29428828343915453 -0.48263622185763305 0.0009627447597519168
0.29358637892964146 -0.2512213411605334 0.0015260437597058275
0.2944227085057584 -0.016687957561097096 0.0017477854930797278
0.3880528223901255 -0.01868613616897483 0.0058999165012714365
0.38746046728295486 -0.25068940083166386 0.004631496239284795
0.38424112268387134 -0.48133273014965117 0.0041979647079134885
0.37905407902791033 -0.7025742110812586 0.004348132811756729
0.3720879290920218 -0.9094360254311195 0.004849051890117381
0.3632021178675942 -1.0974014013230675 0.005466100041532353
0.3523875111109141 -1.2618931613929667 0.00603332085792491
0.3397286488982881 -1.3982629506714221 0.006456171177890257
0.3250125305657876 -1.502089665164893 0.00671401275453491
0.308397119776211 -1.570250112547443 0.007111536967764644
0.2936213395690562 -1.598675636061784 0.008508990433532737
0.27885098354474064 -1.5703777013797346 0.0072388037692394085
0.2622520279138808 -1.5023446248108592 0.006967207647215064
0.2475638585981317 -1.3986446651790048 0.006829750617281405
0.23494496301171378 -1.2624000777426276 0.0065113114792026425
0.22418268320721235 -1.098029536196945 0.006011629183853251
0.21536315467494369 -0.910175245147677 0.005389105193761921
0.20848038194988452 -0.7033975745494015 0.004755131516665983
0.20338128533744118 -0.48216094970692397 0.004272869811146091
0.20021311845862655 -0.2513191082139281 0.004112569358118933
0.19965403597016945 -0.01882065675865488 0.004596679624649155
0.48286763802661603 -0.019599650655703262 0.00812657641649442
0.48112453505654323 -0.2506579074511037 0.006892825886681798
0.4755971470789005 -0.48047609779031913 0.007225422921900104
0.4657957486130283 -0.7013322981637616 0.008274662819606505
0.45196262387652614 -0.9077954364706837 0.00959911788417453
0.4342268269283575 -1.0953411450748458 0.010859379517714244
0.4126593757754771 -1.2594025261532882 0.011824826419349455
0.3873357164509701 -1.3953933283511277 0.012330173497054071
0.35865835949006825 -1.4985840201262892 0.012359469302450413
0.3255362595049672 -1.5665334959469257 0.011974411739452094
0.29365189245441925 -1.5997248517442155 0.013457766248082136
0.2617728105950876 -1.566664701363659 0.012137474548335338
0.22866655351254755 -1.4988461403527964 0.012685917840855244
0.20001539442045474 -1.3957855024485397 0.012817437183225042
0.17472735487957056 -1.2599225516704715 0.012460335945591122
0.15320241818959832 -1.0959838374136013 0.01160819901641641
0.13551072257783245 -0.9085488774069422 0.010384748131349543
0.12171277043565441 -0.7021644884070823 0.008954949181736463
0.11192222315193533 -0.4812942330497057 0.00757854081323051
0.1063812655148037 -0.251253970120696 0.006658405239049668
0.10464162883368154 -0.019738634628710644 0.007189515335158448
0.5785075758702933 -0.019891437628754376 0.009835898517424058
0.5761656510823453 -0.2503896404853224 0.009009046990860786
0.5684736999722612 -0.4792131824163363 0.010229945166523409
0.5539224775091621 -0.6992654903435563 0.012216602666529422
0.5331808604947204 -0.9050037409628889 0.014381964398454539
0.5066030630860789 -1.091833319370134 0.016280103959495907
0.47427842688879157 -1.2551932856183932 0.017605125678151205
0.43631489934448514 -1.390423834554185 0.018146596890054476
0.3931512543461002 -1.493240245462356 0.01776459475309121
0.3462457325476575 -1.5590235820037142 0.016370074724615
0.2936814127290676 -1.6 0.015743410628622244
0.2411222996643972 -1.5591590530372952 0.016570567161131866
0.19423225856318296 -1.4935107950858377 0.018167955876262045
0.15109371358275236 -1.390828263378292 0.018754113968603443
0.11316302778932977 -1.2557285350122527 0.018409246364674833
0.08087452029044923 -1.0924924055066096 0.017250617454660742
0.05432571046057215 -0.9057711269981868 0.01544353380939691
0.03358371214737782 -0.7001025274328387 0.013217581871777753
0.018975928694139176 -0.4800198982594101 0.010921018547104379
0.011192079841385155 -0.2509656466672563 0.00908710854204653
0.00881079896609304 -0.020024385368558276 0.009190533352367084
0.0 0.0 0.0
0.00731717009502763 -0.2653314969114766 -0.006351026279959523
0.01762024172347226 -0.4999906378576694 -0.013675089967029546
0.031870171404041414 -0.7260255185295903 -0.019523730422254245
0.05214870805608947 -0.9373079406499105 -0.024823434765774866
0.07874026375777694 -1.1288565085449687 -0.029205205630661323
0.11153507872332136 -1.2954078295448326 -0.032486776929765655
0.15033476939669135 -1.4318719866033527 -0.034435025784580645
0.194609096180227 -1.5332871339078282 -0.0348867744157982
0.24304085114819554 -1.5954169605476731 -0.03410897982694789
0.29344658190650846 -1.616119467468992 -0.03340504184328721
0.34387022672732803 -1.5957200992825877 -0.034137027520075164
0.39235921881780245 -1.5339004815714903 -0.03495270910378822
0.4367410617968352 -1.4328084544519173 -0.03456061016023403
0.4757184112120065 -1.2966828869945812 -0.03270947638213167
0.5087924665648458 -1.1304801882852298 -0.029585141771319247
0.5358089514388872 -0.939270820909152 -0.02544581977451874
0.5567207622334828 -0.7282745175893062 -0.020535483843235194
0.5718930497291635 -0.5024220051971315 -0.015168024585606723
0.5837870895164161 -0.2677495627435555 -0.009017502603235023
0.5949227565147583 0.0 5.1485501045399736e-05
0.10413597997818605 -0.011330363336312804 0.0033346021613182633
0.1086305255077564 -0.26415368331027855 -0.0033270461983483
0.1122539541279403 -0.5015881372441985 -0.008662964870703506
0.12159176581530973 -0.7279021542328183 -0.013185289181984314
0.1347653970368054 -0.9400072533005798 -0.016970270759083375
0.15215905354617254 -1.1322773292021833 -0.020084620654146092
0.17367316493023865 -1.2995571601748026 -0.02239248938667584
0.19917120232254465 -1.436720241546341 -0.023787494600862
0.2283053119743775 -1.538742329731631 -0.024196469537691122
0.260227788793872 -1.6012251728366964 -0.023787078741537546
0.2935011867153675 -1.6219477293566804 -0.023351629119609807
0.32679352778021753 -1.60153329960094 -0.02377742513860238
0.35877607344696216 -1.539366585389107 -0.024185529513567755
0.3880213622808981 -1.4376755030849788 -0.023794232557210984
0.41369927577243865 -1.300862025848635 -0.02245123832231279
0.4354884665048613 -1.1339465971618716 -0.020251197595257564
0.4532898641914307 -0.9420369799937113 -0.017335234207672304
0.4670505126109342 -0.7302471775455484 -0.013869444017493548
0.47723854999460774 -0.5041573175344735 -0.009903345807700373
0.48207433596577204 -0.2667632106159635 -0.005140549918791327
0.48721872486801376 -0.01195701155388955 0.001344835001224215
0.20244616653277256 -0.01967242282068802 0.005449344315436706
0.20476374174938672 -0.26375840274148676 0.00029489379382601014
0.20516812128258144 -0.5019503725869149 -0.0035145116352675036
0.20879131110224664 -0.7290358421213853 -0.00632268457652227
0.21501429133459257 -0.9415554811671603 -0.008471326709212553
0.22338692884595376 -1.1342823160702677 -0.010111272552161849
0.23389787197752004 -1.3019958223013084 -0.011252600194343437
0.24649488030560696 -1.4395944827161669 -0.011872014329713477
0.26108515599351895 -1.541992289484704 -0.011957677902374427
0.27716556179057433 -1.6045506606921325 -0.011539074956712223
0.2935444825934173 -1.6249207056372479 -0.011067150358770646
0.30994271024515124 -1.6048641790117604 -0.011491783419715006
0.32608396432724945 -1.5426281525201317 -0.011869851854077018
0.34078547844640633 -1.440569226653058 -0.011759699069210143
0.35355903942121053 -1.30333062336514 -0.011146247780936286
0.3643333720317136 -1.1359956611282835 -0.010064192925012873
0.373084518057293 -0.9436483707504114 -0.008570133031831429
0.3798348384621706 -0.7314653412277384 -0.006704516570088874
0.38416281467247054 -0.5046313921199859 -0.004371739469423602
0.3851433917614814 -0.26627589580393074 -0.0011503846148899215
0.3877405660972812 -0.0206377190423284 0.0034246043421092527
0.29786676868767337 -0.025018621317829934 0.007338034504495107
0.2984895691480286 -0.263825420442432 0.0038175763501192422
0.29644638653487954 -0.5016493321628092 0.0016878707205328965
0.2949225623913066 -0.7292598379542289 0.0006957793853243341
0.2941142228642348 -0.9420207397140246 0.000281115645239031
0.29356999951601453 -1.1349062669263066 0.0001874473042154194
0.29320150917514787 -1.302782079825849 0.0002997847257869877
0.29306505261701477 -1.4405702091061081 0.0005561676038525187
0.29337081746463217 -1.543151863527703 0.0008990435896483155
0.29399001175574957 -1.6054377393322072 0.00139597983257746
0.2935831032189326 -1.6247378970909656 0.0019959131846421967
0.29319558335861934 -1.6057568906616397 0.0014811872149104732
0.29387552707697306 -1.5437997197446782 0.0010644067618106041
0.2942910069940423 -1.4415647174538146 0.0007888111232623714
0.29432534018525996 -1.3041464380224557 0.0005731522248884653
0.29420450162856204 -1.1366619792818407 0.00045189847020859857
0.29400260414693336 -0.9441716242986257 0.0004502583337218488
0.2936483718709964 -0.7317664404325038 0.0006297323484183384
0.2926230029922805 -0.5043628296857081 0.0011974322887776704
0.29088750507869254 -0.2662426374390012 0.002735636688604188
0.29166454882709386 -0.026234552981702478 0.005631132699749963
0.3925056393334458 -0.02788049252043105 0.009278870780305698
0.39163178003830945 -0.263932416027302 0.007162679217476572
0.3873239791381686 -0.500912581848303 0.006804630099523935
0.38103802219304705 -0.7286361230342275 0.007674636645892442
0.37325440057713494 -0.9413857046385811 0.009017914875726505
0.36376035085253666 -1.1341629802536608 0.010475657141915461
0.35252819361054766 -1.3019252048640375 0.011847398876758345
0.33962623596735364 -1.4396443747988263 0.012989205345452108
0.32554995427739836 -1.542275518514514 0.01374239850363654
0.31089768983901966 -1.6040356471448567 0.014072548312609977
0.2936227652852639 -1.6209501657572023 0.014610857198031409
0.2763674002674483 -1.6043606244286441 0.014196298590508357
0.2617760399142871 -1.5429356681540831 0.013986697460032307
0.24780834834999002 -1.4406588137088392 0.013344600466606626
0.23507192447387515 -1.303318686998502 0.012291680867098805
0.22407171478833574 -1.1359586944993705 0.010963116156739316
0.2148823089335026 -0.9435900372396039 0.009463435087158278
0.20746308396529853 -0.7312007605142763 0.007935394496328433
0.2015161386640107 -0.5036319545782713 0.00667831245327955
0.19738423553813253 -0.266285877089774 0.006453601625214231
0.1965945937751008 -0.029255636259233563 0.007945047256422475
0.4877775504369325 -0.028951294784347083 0.011369329933409025
0.4857235346874728 -0.2638218671764241 0.010318999614803011
0.4792380538463056 -0.49980660624999 0.011719715201960194
0.46835490631478144 -0.7272257511662251 0.014423321423128388
0.4535709657060491 -0.9396405051010237 0.017471218768678652
0.43502793888998553 -1.1320346724807988 0.020412829767837877
0.412787388146754 -1.2994299330474692 0.02297440572721153
0.3870335731722008 -1.4367600984623294 0.024916443382553187
0.35794070119597177 -1.5393006256707438 0.026004054238754303
0.32778045220684954 -1.6007413162891306 0.025633928721953487
0.293669277485069 -1.6128707160008517 0.02512605540536019
0.25957833022618976 -1.6010723831839317 0.02579717897766748
0.22948063710858616 -1.5399735038968085 0.026329383676650487
0.20049776873381311 -1.4377948594922907 0.025398194116149592
0.17490787046037587 -1.3008522866177696 0.023595254132833365
0.15288864329462276 -1.1338683831052783 0.021131749705286192
0.13461547342261249 -0.9418908645019344 0.018205419036074626
0.1201100908636638 -0.7298323203685891 0.015025324759863219
0.10943268197499371 -0.502529160108258 0.011966592888407292
0.10301986464012078 -0.2661438373551871 0.009979951486528953
0.1009871087552748 -0.030403028386342543 0.010396261012061503
0.5844666159744263 -0.02916966587764945 0.013537630452999569
0.58213911219556 -0.26345080085260564 0.013292736380461767
0.5738997126114544 -0.49835260424938616 0.01626532191793411
0.5582491928878401 -0.725008893141259 0.020640170069973648
0.5362901356898969 -0.9367507739529052 0.02522108665210646
0.5085067562164738 -1.12848226489797 0.029471877901269896
0.4749951859951709 -1.2952101359960588 0.03304052586566869
0.4359652338109541 -1.431974930980208 0.035594410266102855
0.391782472498942 -1.5336703410112962 0.036818987186475055
0.3426158084774297 -1.5961713636755461 0.0355142383491582
0.2937295606295565 -1.6 0.030180210700772248
0.24486520915593427 -1.5965090282980088 0.035718221418802105
0.19576578405978298 -1.5343568622076438 0.037228015280198125
0.1516995487015867 -1.4330310631683971 0.036207025584455814
0.11283931326476133 -1.2966619827355892 0.0338448917004069
0.07954857517395988 -1.1303525839775965 0.03043240421248225
0.052013843952776 -0.9390395041109237 0.026257729909257805
0.03026124444026844 -0.727641191052706 0.02159894659749048
0.014670695237181263 -0.5010697401236889 0.016895752689345817
0.006345934878793846 -0.265752808130264 0.01331190101771056
0.003958046489537864 -0.0306376209246885 0.012882946364318595
SCALARS Stress float 6
LOOKUP_TABLE default
-1468.0916709337023 -8143.524244012932 -2883.4847744839903 -1489.943219735872 614.2537812031587 -774.0325028930229
3244.525094456631 2087.1352835062603 1343.162811685004 -661.861846118793 639.365395447483 -26.322656996784037
3209.4631935068214 93.13691691409271 314.7126651940904 -312.01961289494596 624.6155978699084 -217.12820569652547
4642.350771089628 431.63795189813294 571.7056329915034 -321.7613387685602 555.7715331120322 -235.59235609558922
6267.869145154522 481.5863862509726 767.6766804810217 -303.2512674277525 496.6584738702524 -323.5700620713265
7964.830699979533 633.0530635919487 1027.0752351567107 -275.14596078517775 390.09667350058027 -399.00287215882383
9617.29744135844 766.5770910503243 1285.245757064953 -229.8323032388646 243.30780559902598 -476.5134737276011
11176.752811573768 891.2951024797748 1547.5562369547363 -167.53488903149395 59.303194221549276 -552.6775792197313
12489.88156716881 991.0691838942253 1788.0021028118013 -87.19727860039643 -120.06174060379699 -631.1924775024589
13346.37825623882 1090.6680084408079 1973.6713377024123 -16.20172812879953 -170.93499005624443 -715.5538095001309
13660.465940580416 1202.7977071077478 2073.6834691603767 -1.9844276769757414 4.108970493128309 -773.09525597933
13356.077000388177 1090.7826801822703 1974.3893448021709 12.129839613087366 179.08075926507584 -715.753418623856
12511.198047309243 991.3872191170602 1789.689555776211 82.81641855670895 127.96909690317563 -631.5881463658703
11213.769171754899 892.0052925614473 1550.7147957249474 162.6318362853929 -51.891765656568 -553.2794567846041
9676.845817737638 768.0971881630328 1290.7301343525394 224.21069985932533 -236.77302593686954 -477.24020799780124
8056.648392981074 635.601412821203 1035.462715410278 268.52894810225 -385.2776877615785 -400.1451039779664
6406.422965779833 486.7607199793808 780.846863390578 295.667136106929 -493.5761159502466 -323.6794410768361
4843.405926280067 437.65809887771957 583.891424651926 311.02417224673474 -559.3269091187349 -241.62343000993724
3552.346215614927 128.95929992490673 368.47848361733156 299.01859241153375 -614.8353887719189 -197.1015617030431
3987.8574977999115 2218.3945066652986 1422.5277885645723 686.730571979326 -822.132077643837 -144.80308821154543
-61.390134685579696 -7766.3686446066795 -1772.3610103360916 895.5907635160188 -1076.8709257544415 -300.21408921042706
-1627.7436187633853 -7063.533977423308 -2129.678716175536 -956.3324198812147 507.50611821889265 -444.94556945958414
1551.1548262310193 1131.1555224089793 637.0520631551889 -792.4045032470301 424.95025170335265 -133.45898891900035
1600.3449485524188 -108.12689709626474 10.449611048882906 -659.3001981344364 385.56516898913264 -233.95301732419918
2896.1176253614044 20.112318591494056 198.8856431889466 -667.7542914346967 340.9055190218009 -303.38461261949817
3918.0090668271278 -24.31989589354909 273.3530634923671 -652.7338282195375 295.83733473842597 -402.50295033621495
4999.516646245785 -22.98158211363267 381.47744630273644 -599.5458976161245 233.12435614433994 -501.34192087511235
6053.143318792647 -22.956378251287255 496.92969689588267 -520.9291799751242 145.87095460262125 -600.7481500051832
7044.482088305303 -31.94536872213587 616.7784627716086 -406.25612589612575 38.17643636581347 -703.3438095679292
7884.075812239842 -41.802028383128494 732.74644098626 -239.97424178378617 -67.8909599255807 -820.1293681532213
8463.999586529819 38.306814946676084 850.9077153564044 -63.160912420072655 -101.24875245099702 -966.6307358476432
8736.385557609714 255.37482408337678 967.6717791297502 -3.538164303612998 0.9842730520811172 -1080.2582696145487
8474.51320644627 38.769288929914644 852.3760779757208 55.85925962520988 103.02131677429719 -966.6516820001207
7906.829092419523 -40.837685743075696 735.8549340377939 231.98530042204132 69.06916098530583 -820.1445049192049
7083.064025505528 -30.398196218746826 621.8541295237046 397.0803731781601 -37.99689399065275 -703.2963524116032
6113.226485115698 -20.74302160113354 504.31806040429313 510.0100489178616 -147.14217968132155 -600.5207252441778
5089.251616205943 -20.100372569991926 391.5372086512267 586.2621856526242 -236.14546829877122 -500.8442665171516
4047.4639787760875 -21.253221580562887 284.89149665816615 636.4371847539722 -301.37275135731863 -401.2076676651048
3083.757150534584 26.847744407353876 215.25520150235255 645.7542428991645 -346.5477403765148 -303.1204816702906
1863.2883605540228 -102.62045562992691 16.97600337708391 625.3448428752737 -401.51702375832457 -224.84349378641278
1809.9721019515412 1186.7866823230968 663.6817989398281 747.4033911996854 -485.9545481929793 -191.42681518945298
-1508.9958387155398 -7294.554226958739 -2047.541740407982 598.4447939785856 -600.9093576371381 -180.7215378556828
-1297.1239322690237 -4922.760451620708 -1343.6149550188975 -1122.793764414946 309.0334403863495 -147.36562971193564
532.2939050759185 345.2307681520421 288.2890390159618 -1287.1249803036997 241.8509742587809 -207.41252203463696
562.1264724625746 158.3864003250298 27.381677878605053 -1122.6745441777682 190.58642027834222 -267.10709645383787
1241.1476452591144 -26.294259869553066 36.84372130427403 -1141.804983370914 154.5583699294946 -386.9395640046459
1861.4172975406861 -17.60395114613851 105.18705069866327 -1103.0259691437934 126.40679187978688 -510.6637593044802
2414.241125638978 -22.35950877133113 155.56883455360017 -1018.1458895536364 95.66137632440254 -640.6306908054054
2964.6398765088816 -18.870431934351117 216.2743483313426 -891.9332496947346 54.4065246227457 -771.783609971626
3493.7114499467493 -29.42766741306022 280.7222887884235 -708.513149365664 -0.5291000758300176 -910.1275634859844
3944.6097218443088 -45.321305931414315 339.69016654348934 -425.50582854331907 -70.36076309010458 -1073.0323273583228
4251.1992519754385 133.99571618560083 432.70263762409695 -91.83694576793857 -107.54820371831885 -1295.4506864796356
4532.872638770387 715.0994315897404 657.308506498845 -5.654027963901813 -1.512768424475715 -1504.8656955916606
4262.053627854327 134.53867068665414 434.74727233519417 80.15376635554057 104.22396555962679 -1295.3339652151344
3967.853998557183 -44.198977537462476 343.92582848814743 412.6751381637721 66.1553725281788 -1072.763925643967
3532.4264042096343 -27.657098137179084 287.386002961706 693.6888127470901 -5.0891670699370595 -909.6231744378586
3023.5053221449625 -16.364465134060342 225.60323715853812 874.1362923939073 -61.82957455954659 -770.9067055877712
2499.3964905630696 -19.352344675778333 167.38825593494988 996.2232862705704 -105.03913509673708 -639.0760436343944
1980.3507806640832 -14.404998438198195 118.78454426095803 1075.5391126229383 -137.26071227627043 -508.3851642889253
1400.5675160701762 -23.548260127068954 49.10310143485703 1105.083574981901 -165.74605220334232 -382.4030925444473
721.6175975537077 160.48516664932112 20.04928194267963 1069.312302660935 -206.1045543087415 -268.10987725911764
682.472493297531 457.27839454069385 318.1654114191332 1215.9910849793935 -264.83521349934193 -210.5974455057926
-1290.9382602210808 -5107.444189216158 -1372.6768066733596 1061.2943657886897 -339.10500981026433 -140.8444898466565
-948.9940601158362 -2974.7337354151996 -710.6211998044465 -1038.301411950511 139.40802361981335 -51.96761871268206
-166.0263839382407 -69.0431381036199 110.91548517470669 -1361.1704439657806 78.98502392347362 -180.12559433052039
-384.30133488223913 201.58317395138616 12.37370433717537 -1366.6320527602559 12.458644431509963 -276.17466653021717
-303.04753840542645 15.29626457664604 -48.026104189511884 -1304.6818641696586 -20.7087774781515 -406.88059300534957
-183.4165057588384 -13.191582735710579 -31.326749623030903 -1251.0456633922668 -30.519097683101734 -542.0284643484587
-121.3417495156828 -5.366197529546811 -16.58062549001299 -1154.0847128047865 -33.194414089683114 -679.8128089278418
-63.21015198196443 2.018740271397789 -1.0919251043806621 -1013.1697607610613 -35.621691548893764 -820.6466264831355
28.362376472999877 0.40632493196705255 23.176459048037152 -815.0618810601919 -44.885336895691154 -967.3416268534264
111.78794856751587 -43.415070756310854 28.383723821311808 -490.9374424914405 -86.89389767463844 -1135.5935347556886
114.50156598217538 213.51553476975866 79.18567845733826 -30.41400777183927 -141.25523422160063 -1377.0407959063016
516.0369510453656 1514.5191318530253 538.5553929101925 -6.348175286954768 -3.756790263489192 -1688.1853492201542
125.55185652907178 214.1552177567109 81.79377106800995 17.284987309069365 133.34685276503674 -1376.8814675491774
135.21449589814776 -42.11282077070784 33.726918231322074 476.48499733037016 77.83400021111322 -1135.235076015849
66.71124176543863 2.4114837009703365 31.439017195020817 798.3123579985645 34.0383528674739 -966.6933055610423
-6.4078103920155876 4.729436523323718 10.166292525276123 992.979650280665 22.628947454079135 -819.5309378258798
-42.07836097367725 -2.2834742037113998 -2.7164499568192264 1129.020875426761 18.25579983565985 -677.9574361189125
-78.0169970218315 -10.689201702749877 -16.288984049183984 1219.132364634454 14.819200714123875 -538.9579939569875
-181.10113972780874 13.744930826398168 -39.21341526232016 1262.9620518650659 6.09751090730049 -402.62421312470576
-276.9550893248877 222.05918343595582 11.858746385359725 1313.989914666983 -24.52919191913501 -273.83462911887347
-79.7292687642294 10.652910053203886 125.27873888309992 1330.1668992772252 -89.11437798085998 -185.1710968207946
-966.8424653248035 -3117.5524902989 -756.5863433806894 1028.386531027545 -151.99883059949127 -81.45194806919194
-745.1553929306086 -1488.9785094076835 -262.38982999035517 -789.1146118153366 -2.0465920846869086 -41.033594686575924
-700.1417377352603 -198.16103660958743 36.03086311117562 -1144.6762880387587 -73.99931224130269 -139.76228613515107
-1290.727503315998 161.607705246816 -24.103280823681143 -1257.5034096724596 -167.87694435839137 -255.32236884312084
-1795.586989926653 37.33898455341214 -125.95499350703307 -1171.9953000665073 -199.13453656370214 -383.32263082046114
-2219.6532103229124 3.898983570465594 -161.53147796581183 -1104.0599943236268 -189.60609390918972 -511.8545354196191
-2659.2514657531683 11.888731523513911 -189.53962338660313 -1017.4869995032353 -162.74551610338438 -640.7421970534873
-3096.373731847092 15.916416885767479 -222.3598086209438 -893.4393575232203 -128.0828155653973 -773.1735713696861
-3447.963597299945 45.70565079994977 -232.11974419303672 -716.9583950373847 -86.88512759061463 -906.1678160580822
-3702.5577052663643 -30.057095424263863 -271.43631658507735 -455.7099765498106 -77.33848323957204 -1048.1057754512683
-4101.497128825689 76.55297863811111 -367.2674225742086 117.14440613930948 -158.08462915658814 -1244.6041656303905
-3353.5483791958027 2740.7528071135994 552.6757151808683 -5.714008808802429 -6.050580981194401 -1650.4214527677593
-4090.1975152190885 77.30451462837426 -364.0765330796102 -128.96809327454594 145.48206856098318 -1244.4982594069206
-3678.8455204017155 -28.546067753319814 -264.9431201327983 442.67845926044635 63.28434878328522 -1047.8609185191076
-3409.840629926444 47.97260103533292 -222.1976729468471 701.8388301396975 70.6184093337177 -905.705598900668
-3041.541781152046 18.843100993454872 -209.1009552732182 875.2036520520227 109.271209499358 -772.3442704067191
-2586.0531814458454 15.084303065559629 -173.6307124885167 994.7654113836896 141.92170250152765 -639.2841291536973
-2130.315255647898 5.438947814491945 -145.67854193522305 1074.955155786893 168.73936952426754 -509.41870284964307
-1704.118491454514 37.57135375949249 -116.09646134103382 1134.793536427988 181.91202298997197 -380.01963261656647
-1219.1654738198138 181.26694387365023 -21.02511506956744 1221.4475835986752 158.24555325756668 -253.1003692862114
-652.7756702226137 -153.84378143987635 40.584074866075916 1136.1366015871429 70.07129772736464 -145.9587738529287
-759.8278358092917 -1574.676202739106 -296.1927747598025 794.7558712732106 -2.2161188120104054 -68.60771568344471
-693.9254218872326 -595.8526393563247 4.477064722683034 -436.91053519225164 -126.35408536430066 -60.13128176131003
-1122.9227045090083 -185.2129125736989 21.109190652042845 -659.5010947305096 -230.4493906658804 -100.3313706853249
-2181.0947846386534 92.97671554879832 -83.96029786044278 -755.4644007067047 -367.50582529773897 -200.60957266867993
-3284.6489005108347 39.75887817358655 -231.30469869819956 -702.5100407077697 -396.9418480142688 -302.7039651958691
-4285.677140551606 13.481992424241332 -331.47136736320533 -653.9612640518677 -364.3104903519891 -402.1670658773679
-5248.60216117953 14.488776076051915 -417.1027158091004 -599.5528811046885 -303.31759291301034 -501.24407574486844
-6177.8450374092845 22.74906293252605 -500.739727448116 -522.4977269671048 -223.73143854674456 -601.4455932437019
-7071.44180457782 13.420789224073731 -598.2041973324723 -418.6453356278282 -132.48284878537382 -703.15337091938
-7580.653476217314 147.59109468728076 -582.9746733195625 -242.91378633650857 -1.379834847337036 -788.045920110813
-8557.9704301204 -516.3467861941853 -1073.5487791169708 123.47863930105709 -61.72621249664358 -900.4641026874559
-7083.788528880051 4375.514674255263 595.9168082952971 -3.6151973102057138 -8.701645212208987 -1196.7027532399022
-8546.154620609086 -515.4825556758157 -1069.7221416900804 -130.95740499953504 43.6858693888646 -900.4975514408975
-7556.1158730366915 149.31781806310914 -575.2304542804907 234.68003164484108 -18.498885048960982 -788.0953547149775
-7032.721702225235 15.970171987746259 -586.4887824006967 409.1187024170868 109.8248623919728 -703.1748913783072
-6123.822826499856 25.96422093149766 -485.3381598496088 511.06406671003157 197.93907456024422 -601.3472460964548
-5180.537443886666 17.73048718580315 -399.31975776580714 585.4240371734749 275.21178099705554 -500.85643093949284
-4211.129318787414 15.398146850005734 -314.73993378295836 636.0003749642443 336.85960310635784 -401.2798584322441
-3219.9095997895265 41.95290209774453 -220.6737071029406 680.75834865351 376.1042899687965 -301.34223588380803
-2140.9825486625723 106.68188399448208 -80.6386012629518 737.9244925974382 359.5624618446311 -200.02706148909016
-1105.3539269554553 -164.78462066740735 19.87944761647386 659.3316389218759 231.9896999674165 -104.72766004334501
-705.3938120354816 -632.9769109524349 -14.446992613420711 442.67022169523466 129.39414771194794 -78.00922321907741
-606.1417079842743 -257.29939473578344 187.77828171944446 -215.42583904699663 -252.95865880083932 -72.5738842934004
-1361.0037308158767 -166.73705706178413 58.732459490313644 -308.9229324532307 -409.22102978616124 -83.91297317483634
-3116.9531940216725 -131.37601009607954 -246.00992678841837 -347.3179331812648 -607.2105054568317 -166.59871240479603
-5007.158509064489 -340.5033948245041 -587.547661923644 -333.9450297396236 -633.953098832414 -247.9446656979342
-6658.214950760029 -505.7265410735159 -840.8665192773167 -310.52793106217166 -571.4350951807526 -325.077026138951
-8218.975356106488 -641.5169280793698 -1065.8593461896535 -278.59591169223495 -466.5148999655699 -401.39801653454197
-9733.904925096374 -758.8781917078657 -1284.7338967817682 -236.72689594622565 -329.35226394400684 -478.80842055517235
-11203.07022363565 -933.4861141105577 -1534.9613024179826 -173.5220556500645 -166.48821931767912 -549.6048737140874
-12512.630166192563 -870.3116331072487 -1714.9578281048753 -84.91437961515403 67.42171372248332 -633.4392847969527
-13671.656926969548 -2066.681627708682 -2410.7411914107324 235.99255574966736 489.5587017802045 -568.8722712488564
-11058.115742573973 4371.190260422709 -263.510760942213 -2.3359889008544883 -12.099572084314659 -1173.1775738291485
-13658.624450922038 -2065.333019994676 -2406.0055359567273 -240.8183708903594 -514.5840041933744 -568.9405372579455
-12485.882618281415 -867.6709690927106 -1705.457343472675 79.6307190032233 -94.83071203301365 -633.5563531911866
-11161.708194183568 -929.7300969558012 -1520.8105149581518 167.48638525777707 135.47774196350812 -549.7264848838522
-9678.05442528551 -754.4924955377044 -1266.6334478310857 229.67467282317278 294.2809558576795 -478.8543713028104
-8152.9552480789425 -637.8988817687848 -1046.1733841987168 270.3320403979054 428.46074857581715 -401.2494089666087
-6596.281690399926 -505.62322163590255 -825.2642099929916 300.963351383051 534.5005890536635 -324.65321082279684
-4973.961273295668 -345.0187294551231 -584.0370866651174 323.77554976723064 606.9755016775557 -247.41566715684266
-3123.58711519449 -133.03899582115298 -255.81875129075874 340.0020647908634 600.6174780964392 -166.93971700557293
-1382.8225380938973 -165.19213900682954 45.54125115941846 309.3625129110377 419.03257652076263 -86.93346358287303
-632.8794777087065 -279.8873867110587 171.85573000780983 217.1725605513285 266.7728475637407 -84.50106406191153
-221.7752222572166 -4930.686757254236 -1545.7385938534362 -766.3778149809191 408.85690483788284 144.63011764634734
2906.648650410042 1397.7216403884213 1018.250252374646 -342.60191666962186 441.162950124702 -45.33161760024765
3375.8979293251105 169.13847363618237 445.05693831174153 -122.43322454321181 413.797956799873 11.3259146914439
4779.961584850234 414.5198923253552 678.5258954619608 -133.08102432035332 367.69736961428725 -7.746608766183348
6319.028555970342 486.9656682450757 907.053814686901 -132.16982771382342 280.64006350182166 -0.7949917533595887
7908.0868739138195 621.9639872964464 1192.7486625830793 -135.5471015523951 167.85877745646192 0.5408029209363527
9469.903073345033 749.2547194133845 1499.7604179555829 -138.68420613646975 26.099172188438555 2.537797735960779
11009.203881341384 885.9567250479398 1849.2881744102438 -146.06685976597612 -130.4794639833213 0.20110169302749803
12523.928404976925 1021.521350128464 2254.9281382950676 -153.4763492931152 -252.3105750841399 -16.46894911959324
13835.203463240761 1081.1571107048069 2646.2009928943135 -123.57821530829032 -230.5432026793462 -63.262082330771435
14367.89957675987 1003.9958726414253 2793.280860320363 0.41598687766121145 2.1826045258124083 -112.26870833629889
13838.091543077937 1080.9963526878394 2645.3881693223807 124.40370013490848 234.66291460515515 -63.550060243386184
12530.111677260764 1021.2053734406868 2253.088810158778 154.27134831381315 255.65714897777653 -17.034723070451427
11019.677094615929 885.515330719578 1845.9733812441432 146.76817704476437 132.39892905916872 -0.5875953469901241
9486.743186754402 748.8183037538914 1494.2965802458496 139.17478987962096 -26.615633088181134 1.5995010825078948
7935.1505757829555 621.7234491024025 1184.0365526826274 135.573988060289 -172.343253929384 -0.04956378486619517
6364.110271349425 487.7378624202549 894.2198778154271 131.64887472284448 -292.5196210079025 -1.6246142803295294
4854.005556151694 416.24665193218897 657.7385869836633 130.53061592677915 -388.1647317279966 -3.004491077273692
3521.9650086605357 180.60391963873207 430.7008679947528 117.70078211812681 -467.25529744129733 -2.2364644714062383
3250.2741801040174 1441.5977969578998 1021.7703696895504 339.72915120744153 -394.7947368787034 53.47561174376872
453.73339317924587 -4670.237575253695 -1100.1970463937955 452.8357967179816 -333.5279386343421 -266.45128951290036
-729.6526719937647 -4502.209589080164 -1364.3246110949847 -491.80532637054733 68.85719252645342 -13.552662132490383
1529.2149187323166 745.1127093555818 538.0759827499018 -427.2626806496493 148.35072415182256 -41.1983545714046
1925.1866288082736 -40.35106232068167 173.15588418483074 -336.39469436098676 252.38188395182948 2.7049003172868984
3091.8915437064848 46.77471752998147 343.0712311021987 -349.290762794868 211.64135338342598 -3.64310387568403
4071.4230643163824 24.108204714760944 449.78417278630326 -359.7089787538494 157.71051161533097 0.572668590349729
5091.694620735922 29.990517934922895 594.1480468342618 -361.68894388650034 85.94582035255566 0.7020275389027423
6095.991733120176 38.06097346974947 759.0692291832532 -364.80173582629527 0.16913456030078522 -3.4518555790752137
7077.469929293804 55.1471542730631 952.6918734683069 -374.5390243175852 -91.97158517953923 -19.81981510786139
8016.000108352797 60.30245873301858 1172.6912244553748 -388.31223246804217 -163.31452014891917 -67.28412292212015
8767.055104489778 -68.39648412552188 1341.9728464460084 -318.6108601650368 -150.51353904517137 -170.84460823400337
8991.48427031361 -363.6067227964054 1325.7669794987085 0.602176928857074 -0.8408902471232125 -273.98481342174534
8770.322658327388 -68.26758935963936 1342.3413364857283 319.7967095007386 148.44906358307446 -170.90660139744432
8022.889480817458 60.556145498786584 1173.2123979517435 389.4186650058341 160.08823413564542 -67.33948970212793
7088.8180816877475 55.52668501457526 952.8937471350437 375.4258895101641 86.74059182003245 -19.691827470410125
6113.4169394254295 38.5780770474965 758.1156193743095 365.1839655177846 -8.37069549185863 -2.7863793626856297
5118.3647040215965 30.717076187263544 590.8207462519022 361.06096926112525 -98.50517780458631 2.636866528721333
4112.708360422233 24.929741047711584 441.8292763997785 357.3895782475278 -176.14824822486332 4.614449144340056
3161.5104722677615 50.13926765827261 330.5283828530892 343.46158543918466 -240.28251109555026 5.510084151260812
2044.9208521100652 -38.48187931461753 150.7305001666594 321.50177851711004 -288.44080518173206 10.934749952076857
1652.166867093515 759.0137663924774 513.6273967135364 391.7353958706761 -157.91630179192097 29.99386588533804
-624.0298805923547 -4494.570662837284 -1326.1303484335454 291.92610382148706 -47.225613655658535 -281.07730467588067
-677.7072050631477 -3269.531846595187 -893.5195046445642 -649.1003390945531 -10.918331764996175 -271.0815033019674
667.379581183297 250.60710233854667 290.98757205968866 -742.0103154394048 33.911224861975214 -40.74084979799974
875.4664529240305 130.79474277811994 138.14069137355276 -613.6218971512786 101.84225824295946 -12.42224375485333
1486.7451504739406 12.59960784642466 160.95271836323587 -631.0398779067862 86.498896888565 0.17233588511376485
2036.1746390997998 22.930862841766718 229.10750899662062 -637.8789643828138 54.82160608828176 -0.13464279337802798
2540.6422013737288 23.779133011524568 295.47086602389845 -640.373450551557 18.497437951301013 -4.117726305313262
3038.635998658125 29.60256661218154 376.4346572886764 -641.9073020238836 -23.485166330214867 -18.12152028451983
3512.2656388206365 51.79515210914325 473.6778292623252 -648.8816727111863 -71.16168211433444 -53.17701801588852
3977.286825857585 80.24806676834072 592.5943239799373 -671.4311598071238 -123.39777761284932 -135.51648417409868
4383.73302427047 -135.05614440536903 646.6948784055983 -580.7406546740211 -137.13953218112368 -306.73282836445594
4353.806255605666 -835.9253989207493 438.8278505022845 0.8832823718854932 -3.522739338342673 -504.7527348227329
4387.237854564447 -134.87565855119806 648.1597061376763 582.4731505464695 129.60264988514348 -306.5893219892399
3984.558181042186 80.60030535815179 595.321213589514 673.0214534124075 114.39802529375493 -135.10399908394513
3523.8834586586167 52.305723738460635 477.1935193365175 650.0898910496759 59.768891859149115 -52.19041955019221
3055.7129288893216 30.28101105666716 379.89028008288085 642.2394028042094 8.835698175662221 -15.929899898159581
2565.2392795568144 24.55851763944915 297.4006036541155 638.9569065644796 -37.16056980285804 0.3724227514198315
2072.5416329520394 23.98962568958111 227.50158165796367 633.3215560642486 -78.28023300314659 8.757814792787512
1544.1315570183663 14.26958728523502 153.30348761056024 620.6655053136379 -115.62260675258337 14.947313737534925
942.7817425538846 127.9079780734038 113.6348037139217 589.3527471660751 -131.31217260718967 17.272131539561435
733.6842542478752 301.8855882152851 275.1209042949302 692.965152672975 -39.92978838456453 -12.879508828717055
-647.9819992525239 -3265.6358455600516 -912.2297222896893 592.8684687926292 24.400977528711067 -379.87692900648545
-562.5361216921673 -2068.9127362849486 -451.6024316877474 -613.7370557776285 -35.25077345719834 -297.2135723421669
25.586117418481066 -42.7924076864958 158.47038135444754 -815.2008511975381 -33.66340862308819 -73.07915151131088
-94.67257335745555 145.2080790523031 81.64269077093738 -775.1208902345916 -21.060819591786736 -18.438551154886948
-57.35567171084581 16.21868573152591 17.055128173929692 -732.1643635550179 -29.441533973207694 -4.5612938519670605
-15.418156436511602 -4.305669438235637 10.200667723665811 -732.0602841584267 -39.54746126922328 -3.908631503183104
-11.188820923666636 -0.5926643886586218 8.991798159928607 -733.6866436152485 -44.88142998435555 -11.585925234947275
-17.95446399258113 -4.056207483124714 7.909759432058131 -735.4083905703146 -48.55890930170865 -30.170029073124162
-49.8530870255285 10.986448369297976 9.087175190644523 -730.3408375395991 -57.998260199803966 -69.95340301162949
-42.48899138122151 83.08995878272016 40.38587595133848 -753.7092850961586 -98.28038871122146 -155.3589066655908
97.65052531544028 -194.73137830958666 10.157649119810898 -737.7076406514294 -151.9175031287519 -341.9698202392921
-275.91487371479104 -1659.7110891482998 -520.5704581233523 0.9604577983154313 -6.068482739832199 -648.0645478057835
101.37489713536463 -194.4907348774779 12.736658217856867 739.5902811076961 139.18943498272367 -341.76670073956984
-34.893333349460036 83.56111396402979 45.36078838630381 755.432188079639 83.82162575971283 -154.8089633925274
-38.096469742067754 11.675048967391145 16.01036546849466 731.6339417886912 40.817423813447746 -68.70446712349823
-1.5530247923213096 -3.162667430020441 15.906854618555641 735.7099031176376 27.979639986034368 -27.521592737580722
10.785766109683047 0.46223769602864007 16.532891952209 731.9492641541598 20.76583742206252 -6.203592287095573
14.679990048693142 -3.0886517028256186 15.016442688123881 726.509121391593 12.47630089710339 6.377835912485915
-18.54873602879979 15.832751225909298 14.02917984777208 719.711248930707 1.1550144613914581 14.057631877086596
-56.791197198165136 151.78295713693947 66.13618081317406 750.1406376584537 -1.0048210269722428 11.622529355775326
60.615850655044554 1.8137030086380275 143.90050189234057 789.01727550664 31.81823602596046 -54.94727355934516
-561.8009384503748 -2084.927942582535 -488.76680619327266 595.5312018489931 46.140074514786896 -362.24830275547987
-509.03003983506375 -1099.0385654227985 -101.20661913025471 -464.6848306964905 -59.46657904508553 -257.0545343864458
-493.71687834959505 -153.3701478848516 105.16133847863104 -690.5883265305949 -96.01253622626565 -74.52202042832091
-1023.9910434615701 96.45178949639781 13.429914061360122 -713.8974800283161 -135.68759316986103 -19.14536971321256
-1561.9118644334876 7.799713788409295 -120.67104916722174 -648.9812996631157 -145.00323096824107 -2.3458412758585148
-2061.4286639094917 -22.77103476203501 -204.97295108097939 -635.5507542241413 -134.96450241299775 0.8468107826297583
-2569.5415792696117 -27.86314272329267 -280.6712391209842 -638.8835917948084 -109.10048562171679 -4.218719982410602
-3066.8087288244683 -28.97378435993694 -355.80163398697226 -640.4099934652613 -75.17239624912153 -19.69807667273599
-3593.4329670380093 -49.62394679215441 -455.4106009268645 -634.6883940702185 -41.903191355116434 -48.07747128641358
-4078.1460219691626 61.42694166992588 -523.9502230087155 -624.0404837256403 -52.32988543783133 -108.65576417585471
-4123.21713907658 -33.95060594939827 -553.8049591029283 -788.9548003187285 -161.6849498815848 -249.94704834788337
-5079.600651533166 -2876.0272600506073 -1672.9506936156008 0.9044025722542666 -8.668607772627512 -677.8180112654218
-4119.265135326331 -33.65436024186616 -550.0976676558828 790.735010687381 143.6481933612328 -249.83391413386323
-4070.210269440697 62.01155280134474 -516.6924741293451 625.6952480953337 32.26746285672235 -108.30423395128227
-3581.5182053436415 -48.76483005656014 -445.0178395923881 635.9898689842682 18.746010519314993 -47.181846068722606
-3051.0776550105506 -27.861567339895267 -343.1579220712338 640.867594247968 48.40822506942549 -17.63967231163396
-2550.2323677973964 -26.500329184418632 -267.38027388458374 637.526022187261 79.24665590250989 0.1812610511438255
-2038.9707673254431 -21.63820101986243 -193.96980307364254 630.6328041491731 104.10094358611653 9.74442800963381
-1538.9763166801702 8.653128042847746 -116.87601565267421 637.6419941021462 117.49189128598728 14.29245454805834
-1005.9073827746853 105.18390039229733 6.668360481490516 696.3603936088263 119.29832782823037 5.225165218010063
-478.6827919475601 -125.76737176592067 92.27836487288108 679.3429506867069 96.61574474916867 -62.04658771947054
-516.6576470178167 -1116.6392223759356 -136.92096567270193 460.48588907194403 68.44085277883536 -300.18424843996274
-544.7463566027167 -487.3463688309672 132.62223351879345 -243.00717376942063 -106.57054310387338 -166.8629929555679
-931.2307887199278 -158.4681260567217 101.48694724342563 -386.0955433334728 -177.6455536086775 -50.717670329043706
-1933.1312235178611 41.4191852829703 -60.771783849394005 -411.8319644467973 -262.3339551163581 -17.481652589205456
-3049.6436101676695 4.247292970659445 -264.3065198759099 -369.2269097018395 -272.2551175050546 -2.7650194596390825
-4104.909110677384 -22.82184536499797 -429.4185922378704 -357.16768192858706 -240.2312829544724 1.2777035114336328
-5125.803949747776 -32.03102571786426 -581.6735691080784 -360.0213056351004 -179.7893469260404 0.718795678730779
-6129.924537326159 -39.56088925779593 -741.0779527218886 -363.3659936371581 -101.54195100617353 -4.523714284355762
-7065.518235475872 -23.062010277652362 -896.4035703766419 -356.62032795609684 -21.82607271068765 -18.315787129255632
-8163.640105731156 -132.42708748555657 -1179.0552903435491 -367.8751990078773 48.88468305093203 -28.72727227877523
-8299.633217184311 593.5312726386786 -1014.2402034892665 -498.295043729463 -102.03123955128743 -93.41191862784406
-10293.119225700315 -4433.507153691006 -3153.114070168946 0.6272194403360944 -11.514492841783056 -498.95980779211504
-8295.42154935332 593.8698618359107 -1009.3948545860861 499.5383010116362 78.16604879249002 -93.52204476881177
-8155.28396418518 -131.7557809564393 -1169.4924183982773 369.06104678313824 -75.15827162655489 -28.879170169177424
-7053.279112056838 -22.074198878999116 -882.5025808978668 357.6236602678487 -8.074670281401708 -18.337372911631036
-6114.5091804765025 -38.27916739431697 -723.7218452384004 363.89963549037805 67.5748578299181 -4.0589128263796095
-5108.774695464518 -30.563463366048694 -562.6783312355766 359.5020358128649 142.82394099235887 2.3864418365688302
-4089.357940062867 -21.475836306543933 -412.151710236955 354.44370580971673 203.87885804039112 5.577115416902394
-3040.0592731694583 6.206396987264972 -253.60677015075152 362.8171920151069 243.518067824952 6.295875916204278
-1931.1541059967421 48.65069857510833 -60.27356959633727 403.1978765751167 249.90405805644033 -4.178617802386291
-931.5438375085096 -145.33880716093302 91.54853654862346 382.28003454682215 181.58942206450388 -44.21016385404125
-555.5036610535011 -498.40908102880616 104.92176485320996 242.12689863616848 116.73857615130798 -191.5460768356799
-584.7753231979277 -267.22628206880717 281.0143743266359 -93.07603972841416 -203.74404659744002 -108.14308390046051
-1283.267647041636 -188.27778321683618 115.99735125101564 -151.0910973019088 -305.9957318395629 -35.25896506780827
-2918.4157475939173 -180.81786698520338 -224.94101318958414 -148.3834063820404 -425.84596670272003 -18.975915720847976
-4720.010040821787 -347.083121033003 -594.7697405146808 -134.54625715768742 -429.3611516001411 -7.8608590393636115
-6367.6836842050525 -495.05565626979137 -898.6080340092744 -131.54963834442538 -369.1586180828647 -3.911280022299117
-7947.868420671389 -622.5043790012107 -1183.9049178887315 -134.6116019091007 -265.77618172713346 -1.2683729553817615
-9511.552116886693 -759.3648179835142 -1487.4720503725966 -136.32633785983495 -133.7139935768494 0.721759540601445
-10982.820264704675 -829.3717735753472 -1778.9761632098543 -142.50715584382397 12.345065941688045 0.3632220092451126
-12301.264641445458 -1109.213884673859 -2146.2866613694187 -146.71291432403754 162.71559661948962 2.6552729392151018
-13160.612138113556 -53.739447989108044 -2126.354045623 -355.643050006014 242.74596717019506 57.512684296296015
-17003.09894922468 -6963.585456388769 -5655.33166695956 0.3010945607325173 -14.814401515563691 -530.5469603283317
-13155.989327629399 -53.09775270074576 -2120.256650412317 356.24601018915695 -273.3970847018846 57.3061122932123
-12292.151634988712 -1107.9390200561263 -2134.1925431396407 147.30877775319496 -196.31311302231734 2.2776164658166183
-10969.649123056977 -827.493768824305 -1761.2342255551707 143.05409659467435 -50.3845271700688 -0.09588814540810287
-9495.420272530568 -756.9711806057883 -1464.9989453106232 136.7140772272411 90.69127517582831 0.36550328668956844
-7931.374530593759 -619.9190583791983 -1158.801362329881 134.6061373709406 219.13201751894977 -1.1452825510763782
-6356.418807944692 -493.03141232842637 -875.071813275381 130.6562926420243 323.7620117697773 -2.549039310218241
-4722.133746994574 -345.9496390293075 -579.1172701065445 132.10362002829874 395.19503502068756 -4.102410917116823
-2935.350844710421 -178.09306240385368 -221.8958880587177 144.8179926574736 415.67544944636165 -13.250543459574011
-1301.0465980176925 -184.05114525673565 107.51708314207056 149.30346248682568 318.85344696129704 -32.71765718515494
-603.4743587722425 -275.5102150200367 259.9570965510396 91.61731003824585 224.90595721101107 -123.0764268103635
1021.1294706471275 -3744.0844330749683 -816.8864887283517 -48.15836317252043 176.65628943249584 15.329294134646686
3248.7767218266094 1333.7460985308467 1119.6301374874117 -331.36097379577836 240.84792663606476 -18.379386302456968
3365.880244758746 164.6446817815232 571.8781150929785 -131.1119263313129 226.6727530737884 17.75366231470442
4684.1572371049015 357.2963705141694 809.3939374300446 -149.82060809657628 189.48122761571537 20.485880439076244
6166.434206742618 427.97348245527917 1108.7692215021655 -156.99395669091658 121.84277381835646 28.27001694146787
7687.1698699453555 547.2563027563624 1483.8930058273595 -164.84273226717795 37.134383135985345 36.32094092935749
9223.102048048759 666.5765970739865 1921.234146569073 -175.43000791232953 -58.606987011126115 43.86242280623148
10862.374888557222 812.9489565851594 2460.8186113508473 -195.5795804612806 -150.07002921274852 47.25497762413514
12717.915107368905 976.5709842049193 3131.01604215283 -219.5744757348557 -201.1947598734111 39.80901769284261
14547.085560319661 1030.0473838103946 3793.330926257875 -184.45214431312218 -156.16232817930828 17.24086100665463
15334.83372874083 890.7335196855811 4044.271516487478 0.42676143054340443 0.20170213141398535 -1.8932008800877214
14542.603385940314 1029.545584149071 3791.256020776763 185.3317225472867 156.33374553255732 16.996084095489838
12708.166671306666 975.5129452844616 3126.196289040087 220.53468769900834 200.64463788887787 39.322387972206904
10845.649246508749 811.2161129361307 2451.781555504873 196.68798743153894 148.19637525294803 46.5511891219511
9196.39063188036 663.9335299365688 1905.4056240462219 176.76071392604467 54.471238942377134 43.014314779959726
7645.798866469234 543.4666144276321 1457.3762247629375 166.54624477523296 -45.22580594124466 35.58859434391913
6102.592455802222 422.32472241333875 1065.334292160388 158.9792020345161 -137.1172692635455 27.84235042290549
4587.7880270829 349.6980962458798 742.1111918273584 153.4584375266473 -215.61016930031383 22.249466328553755
3190.18938299961 144.75211677792316 453.02505169133724 136.3047999629673 -266.9927226796938 16.309945352422904
2805.9226387682866 1245.8540850549095 890.9865515986701 323.81971742686017 -243.03768275100822 13.127614000602781
270.4753194083469 -3953.1468816170463 -1389.6775499344847 415.91125947439537 -214.83506086080789 -128.30791087655055
-493.801278705616 -3828.354657238873 -1334.2506113716022 -82.14694698853441 93.52886424275475 -45.78265134211595
1605.7953212238158 696.7730396095998 573.7985923902381 -376.05985623893054 113.37996974952699 -38.51476383241936
2017.246722587154 -50.169416096189714 285.9076283144194 -339.1061550086215 141.9285654768514 4.2608685315438555
3078.0119339932417 9.533079883123051 468.5023700175784 -373.7451163187689 118.6612767941497 10.766631683938664
4009.7795008014496 -23.25739104152998 619.1511204667065 -395.07203359629057 75.16686263434511 15.729131995146295
4985.763463289746 -30.088046565398415 830.3059227921632 -409.12863063183516 20.095993057456187 18.179248363838887
5973.010006541253 -33.815910137135965 1086.399698808135 -432.0872714471205 -40.02230787922957 15.847500628283424
7016.659803533911 -19.669726687275197 1406.9758324882405 -479.6083697975301 -95.52849077043734 2.8518472399360615
8152.402290942224 -26.407676516875686 1787.4714878354775 -548.9047786036043 -125.73510720727093 -30.215546830464547
9169.556153976144 -261.1948813149487 2086.8131149854626 -481.0399951215592 -98.06085444904167 -85.53589431181685
9483.69716812427 -736.5377382984959 2079.7686923548354 0.8277077302345286 -1.810969946821551 -125.02160402521898
9164.971249009737 -261.3763634694163 2086.8780416475142 482.77119090433877 94.09610799282777 -85.59401439684619
8142.563902016665 -26.778401137051787 1787.0723982222228 550.8762289096935 120.72813484007817 -30.271385139458893
7000.144761468945 -20.247836640550684 1404.9227737742397 482.0283022554196 88.71305623976393 2.954605453880721
5947.46431777003 -34.62074244944432 1080.5992491212423 435.2424435103271 30.440379247710986 16.440642641696112
4947.455359595718 -31.123553005204965 817.3122068394822 413.42630931695265 -33.90402062325274 19.90683642753401
3953.4609313082647 -24.27918071624388 594.0319197048428 400.97405683735525 -95.38242040990554 19.618265183591646
2991.1324708401316 6.1313686321649845 421.09966788451436 382.90881878843135 -148.52259920877975 18.570446364828122
1876.0712170255454 -53.91950278825583 204.5753048648197 356.7971276977649 -176.52620193446703 16.41367483426056
1457.2363187622877 670.6905373769555 445.8107553225378 408.8061938029154 -126.91087091917731 -4.759081254630425
-595.7950339905625 -3775.85102343134 -1527.0925632252852 308.9219358408512 -82.99083689180668 -165.97074297938747
-558.3431088953621 -2746.052486632616 -923.617414694986 -532.4056554712213 32.81341931387933 -157.8418934444139
729.5875139873428 347.7341956150126 328.477995587343 -654.5600600042962 41.28100069590221 -58.21412298316196
942.5191382162993 84.39944281004774 190.35539767624374 -610.1616689023333 57.75535972217637 -14.835555356559144
1533.7076650053332 -17.106104702689798 237.20272186230451 -659.3059900527616 47.67903249913634 -0.21241252718073456
2042.0118128232232 -15.720535293202303 320.6080565233813 -684.8665049139756 23.1955763576039 1.809238547921113
2517.638923879645 -24.123373678991936 418.82139293122486 -709.1553227640289 -5.826447079844985 -2.6477550335398052
2995.2495378386975 -28.009172499801068 544.788348210283 -745.6305707300047 -35.91881823689568 -17.258278078086636
3480.851708240639 0.0772225742884336 707.065487415105 -816.6216565929061 -63.94164071423958 -49.816844175325805
4039.441496698742 38.91922792961247 916.8918512296625 -939.9489857339677 -83.13231944671013 -111.99249903059531
4599.999212993173 -324.22612684755 1027.7586488202446 -872.1720300572393 -71.38899460680939 -205.32877578330493
4554.758791371248 -1394.759117308431 738.6216429564583 1.3355516154092553 -3.7869666189637887 -272.7938998890384
4595.236020505979 -324.467445882345 1029.798695718091 874.9693639131817 63.38366280138759 -205.20583648828944
4029.362322217628 38.435982339749096 920.560724249364 943.1477047954708 73.83958887385263 -111.62074723619585
3464.337917544939 -0.6470602124410822 711.4134382843 820.5726829679812 52.519702567211624 -48.88735525152232
2970.5313531108327 -28.980061980513504 548.0414277320883 750.8336020443695 21.511413167258958 -15.14630824228195
2482.177936508426 -25.196623468313735 418.01711951505865 716.3300773482857 -12.52509748387624 1.7709692217459674
1991.8396893982363 -16.87125405633927 310.76920651651085 695.0520784827354 -46.77018115598136 10.450108601255435
1460.97850337933 -18.547002425288184 210.10273716385728 674.8683233140194 -77.32505934402182 14.764010481620872
862.7820884465115 86.70008525251065 143.29411796301852 638.2499282282536 -87.3860928375539 12.016295996224708
648.2978194226413 282.5727346696934 221.71358472764135 703.5116565590696 -49.71087254197581 -35.212545378843316
-586.9871653310549 -2705.576150949712 -1054.5077359524792 582.5230520730835 -22.397794725491757 -244.14277063830284
-501.1330649160937 -1743.4357748350596 -463.75737332753545 -573.6133862350893 -3.906977281244005 -202.38779022299008
78.17811733770365 79.47693206956654 186.97504162246406 -767.29969751244 -12.558208657916628 -68.37576892022945
-25.725433218522596 130.66622121989698 99.75329537638615 -761.2328617365205 -17.977990806503808 -20.47115081953981
28.523634261015168 4.906035419804978 32.87063498696203 -758.4180003694055 -23.072940285240144 -3.968604769234451
60.48021598540503 -6.012399202292025 19.478275009043244 -780.9041635618315 -30.2588483755601 -1.225981675626897
48.400780827228374 -1.642278960156958 14.624408948228766 -808.5089947960682 -35.572682613055925 -7.795549845389655
17.527863594121154 -5.816418250349714 12.973161018515983 -850.4783819429557 -38.42487060373076 -26.14123156622124
-52.62383452697814 27.001594980937817 18.605987733134242 -911.0425351425365 -42.13984608631 -63.72692646022187
-42.762261919832184 149.08160848354788 82.21855912735768 -1044.3466503273428 -52.806973867647486 -132.2480160838408
184.09411193302608 -302.09419310791526 58.45926565320754 -1090.7361764830816 -56.07803312573869 -238.62210064722993
-326.802661890681 -2445.152970510814 -675.8244944257099 1.5135165266884696 -5.757290711092111 -325.5638025747277
179.17531461449812 -302.410031906831 62.48072320529977 1093.906611862876 44.05189076712283 -238.44411537663052
-53.03074097849503 148.45543988470297 89.96781304724638 1047.9726188247093 39.27889496935514 -131.74515146857644
-69.05495081904976 26.07706970230184 29.36151970569234 915.520569770917 26.225418972088246 -62.5407635434991
-6.182073962548509 -7.003226048516693 25.300139989353045 856.3773498113577 19.438757715170905 -23.561160788662423
16.064739503545322 -2.93182095779133 25.91660404831618 816.7005388646694 13.114897626613274 -2.5011030438697475
17.306072656496802 -7.150449867237936 25.059043036904203 792.783115512269 4.296229020807205 8.91725752541594
-23.50896131049489 6.178156645104933 27.30936609665099 776.5015364397715 -5.1841264591587635 14.300525920913842
-73.56989556582846 122.22300680240808 72.69908392822738 789.7985281742916 -5.410181847634507 8.09984991298025
34.120489320327586 28.288972250393275 110.8219638314882 791.1334974167271 7.628113211650722 -51.626682346825
-504.91537977056413 -1699.315760419456 -555.7877566151425 583.677301281078 12.116490822777504 -258.5095182238681
-474.62965139399284 -924.2565848840849 -63.59669141212222 -457.66164565662865 -34.82070090075879 -190.18701969920855
-453.47416701644573 -57.51773654054199 126.22046368744603 -672.1785114655959 -62.165306125618685 -58.38923058833937
-947.8696156701011 108.76052728660815 1.6210029289260337 -709.072474146799 -91.09152703016655 -17.4502813389996
-1439.693250365587 23.516629479015783 -162.43637711662316 -674.6265526278161 -93.25325407150791 -1.988265566488606
-1918.7872171124052 11.11933033536031 -279.65250781770334 -683.2033128153516 -84.04097395994152 1.8923172100136205
-2428.0537467412637 18.17565400437454 -393.0757495291223 -709.1618439056097 -65.69917473433475 -2.6860237452557034
-2946.911289419085 29.32885815116996 -511.1543885356529 -744.3670802818013 -41.438381713808376 -17.465478574274243
-3549.7559785362037 22.59673560382349 -668.5077545205081 -790.3081396171104 -19.30263119124341 -47.78608127801908
-4136.539033900487 213.43030011571506 -771.7314597474355 -853.8870086987542 -16.868044356612568 -102.81228832374221
-4150.9250321174595 25.68285144139265 -808.3802864137496 -1132.924978053176 -35.33847378318535 -200.36484989751128
-5443.446406869169 -3963.761240352505 -2308.6314261959815 1.340089820223358 -7.766347784666664 -300.750207961839
-4156.031343373437 25.29081122974521 -802.3490415285017 1135.7316154733421 19.208909416588813 -200.25775201226872
-4147.068402244283 212.65523858234727 -759.8420813159939 857.0946735277204 -0.9942897411196614 -102.47303872396408
-3566.2299538439565 21.46480073976845 -651.2434246806455 794.2632920464221 -1.2315281751133225 -46.90996493645452
-2969.792064329532 27.91394604847543 -489.59561377659423 749.5671660192008 17.69708069580844 -15.441017089303255
-2457.4968879150742 16.626207469187825 -369.44998970293665 716.4202896761391 38.92262316359145 1.6293608074427226
-1953.7596343904734 10.318228953164564 -257.7915026948093 693.9010991458953 55.5034424165414 10.532134246860252
-1474.8386550728856 23.663854840165214 -148.37282312891017 690.9613751296024 66.30983985245031 14.014685443040369
-974.8675116948166 99.01615035185971 -4.881038923038557 728.8871381233176 72.87299813366607 5.7555791785324475
-474.63287580108147 -87.26329098796526 79.6311366345127 680.9606576788069 59.67621469351291 -46.00580963542023
-474.14524538423296 -893.587800643572 -132.90311612867464 454.72069182630094 41.49414210232569 -226.45761258400873
-526.6016015881045 -411.3770248854789 209.0579965689016 -247.28590153072366 -73.83976383948239 -115.02390884080206
-906.6318455674739 -104.43114366840396 112.67391553163012 -384.60994543227 -118.94455852483784 -25.400882435270383
-1850.4390702931485 60.83799231939891 -100.81476033072039 -418.1944761824609 -167.61546678277196 -3.4167172642562194
-2891.465558367521 29.042697135731697 -359.33802804340365 -392.2150926358789 -163.84848195695568 9.033330876682797
-3897.1125241158275 20.561759902030825 -583.6434663293637 -393.2541577274134 -136.73747333403273 15.528182065769899
-4902.147190660373 27.691667672960534 -806.9561352174088 -409.03738594324386 -92.78152476272402 18.087106354672738
-5927.433452097615 35.171823255378136 -1054.0317379481382 -431.0355761046334 -38.51054343369677 15.71377481514135
-6930.26544354945 76.57277556514998 -1311.9625639452827 -449.8843117720943 13.154443639924759 4.966394198887203
-8274.438907157588 -42.75721628839233 -1749.2455529525 -500.16419750733576 40.48401615439112 -17.993439981903627
-8460.75394259734 913.2648982341457 -1541.5722548061167 -679.46122116313 11.106987170709804 -79.7346257556859
-11157.431535043268 -5917.697180450051 -4310.34139380671 0.8373138909881854 -9.858138739015073 -193.38578584592827
-8466.134267912506 912.8088213009293 -1533.4820801766807 681.2125189516358 -31.524200545853432 -79.82649491647616
-8285.418792432787 -43.6582573545708 -1733.1081514818572 502.15754626602353 -62.92603807284706 -18.11703720946207
-6947.1108077082745 75.26630320039497 -1288.0009900858201 452.3247557895048 -38.67537922498238 4.963286253367127
-5950.0572181551615 33.55419290728092 -1022.9501639684912 434.2159745096211 9.433015999112765 16.14801933833045
-4929.292788293744 26.069483267156457 -770.3940430408119 413.4316423699792 60.75830971268251 19.589650470205495
-3924.8343788835696 19.642506412914578 -544.8217858286658 399.7548449497709 104.28781979406642 19.346361219479288
-2912.561123059075 28.17837848954944 -324.86964812723744 401.71955059157585 136.46769332098214 17.064623012045807
-1860.2757523207722 53.88623565768593 -84.54007543179598 427.883342807552 153.1981874671918 8.43719668715013
-910.8374997133036 -118.00896968995825 93.19121913348607 386.74248225307207 119.79081817327884 -19.12740931821238
-525.5340065196422 -397.369204446002 157.0275208254862 242.90761118552936 81.80883913757668 -135.29894234299678
-588.3248943269817 -239.05841606688455 345.39685099960053 -96.39401263720208 -142.27325303406843 -59.037380212081
-1271.7066259628075 -159.18491209307183 114.44260111813666 -153.97785121318446 -196.04990439710886 -2.6917310123509544
-2817.8124071122015 -158.54712192339355 -275.5146836203603 -159.57374465620444 -250.55252651596405 7.165703248444067
-4502.831304835678 -310.98886855137255 -706.8549926472814 -153.67442603774424 -234.0232913191654 17.58063839022084
-6067.747302565399 -437.39245297809754 -1083.5679033939482 -155.82717830828233 -184.90588450492285 26.475468244409665
-7610.701788428747 -547.6157780708384 -1464.9655583275085 -164.1032533640795 -111.26929296817934 35.22144717500477
-9188.955312270082 -676.5534487106987 -1897.1557856028878 -172.33903107938534 -21.710893473056405 43.04926572477574
-10729.411945165413 -720.9772993764443 -2339.941296982529 -190.64029715949636 66.73330099227891 48.84287809509792
-12257.559554848394 -1066.0646508450666 -2924.966211170881 -201.66422556332296 124.0917059996019 46.17436497446597
-13581.680702701166 298.63936196865023 -2996.9528143381553 -444.14959330287013 118.5113537758823 28.568949628134444
-18821.27845501005 -8950.606243999999 -7381.425979176448 0.4354716561824503 -12.062870076693429 -135.4859927675134
-13587.322037721035 298.4965503067017 -2986.588026527243 445.0654611622463 -143.4734169238484 28.369655411721126
-12268.969504404553 -1066.294510851586 -2904.11467999995 202.720031155726 -151.47466424613734 45.79133522187622
-10746.629295911287 -721.1596475710577 -2308.4966017220286 191.9503665303521 -97.81093819227623 48.321212148915265
-9211.40525625415 -676.412611514579 -1855.318577759599 174.05403376684964 -13.652747397633334 42.495866532356175
-7635.8888165550725 -546.482966821691 -1413.6098175184713 166.4366922155851 72.38484480379918 34.88423073087347
-6088.752943471085 -433.95884750679795 -1024.772141357492 159.14340619223603 145.89899631730393 26.916238191212148
-4508.171789809849 -304.7273806034152 -646.1680326722852 158.28461752870663 202.67779900104145 19.76460598532385
-2803.5433816710224 -153.4855748175677 -228.0081535181532 164.37485628259907 238.26617118943807 10.964832951693715
-1253.777404450883 -157.25946421021234 125.11013854138874 155.77592265355366 204.76600363121824 -0.886166116678963
-577.065904534192 -226.24425868479295 313.6699990790784 95.06062412855316 159.98640853809437 -71.17958928922295
1289.2494085318485 -3490.9479326957385 -660.509557249166 109.61978322536066 -1.581247577320255e-09 -7.927101197680031e-10
3335.4573774383302 1304.4439422066935 1171.5033466797463 -325.1153231720714 -7.887481778823258e-10 1.1593837001555585e-11
3379.297563703277 172.89529254595374 651.9397283577993 -126.38113875625349 -2.867084347712989e-10 -9.242318022018026e-11
4654.752083146105 354.7769874702363 905.9205429502305 -150.2834872450106 3.293831873918407e-11 2.0650148258027912e-14
6119.836163535738 430.0895897464465 1238.2004816851002 -160.69049635714134 1.179057962374941e-10 1.2328071896661186e-10
7639.367247806586 555.1989099934926 1665.7434530188293 -172.73825367194212 -6.478745318005963e-11 -1.1347234263325845e-10
9199.732444862077 684.3921372508229 2175.955717785039 -188.13614339794822 -3.403496373621806e-10 5.398925750910166e-11
10911.608875385878 847.1622676747585 2809.736136287808 -213.2038905297124 -2.08403294621462e-10 3.175257834442391e-10
12899.130697283168 1034.2854363512135 3586.4957234193407 -239.74206799659544 1.9918888760628306e-10 2.789239950118372e-10
14881.997332068233 1111.0823231312538 4338.277799475645 -200.30341799835526 3.9183162270362004e-10 5.3717030823463574e-11
15738.587365722455 975.4876465973039 4618.705111469727 0.528617867583419 4.044625745436292e-10 4.600075875771381e-11
14874.402146531573 1110.4496930653477 4335.686050825667 201.4094856908026 8.411726870605207e-10 -8.917666605157137e-11
12882.69144332497 1032.95272820294 3580.4046455364996 241.00432395833406 1.6922918621986582e-09 1.7244561334450736e-10
10883.489050959055 844.9653986733713 2798.1313793756353 214.76459707048045 1.8724758410471054e-09 6.016520615048648e-12
9154.682557570932 680.9414120813865 2155.2949082934656 190.18131622929133 1.5201999103986452e-09 7.932854373393639e-11
7568.697219367777 550.066608140696 1630.661392474876 175.55520727600722 5.113134360357208e-10 -1.527378223897813e-11
6009.479154200172 421.92056269277447 1180.6990747526168 164.46287401086306 -8.961373865190581e-10 1.0858358656662404e-10
4485.239515382465 344.1543316622797 816.7952317583271 156.36874231625586 -1.418441808453963e-09 9.072165241263974e-11
3101.601712710247 146.56157755390208 503.7606405408258 137.66243973840793 -1.8106072197099365e-09 1.3198087067678443e-10
2695.2997359999736 1194.5625798885812 850.1003977531657 310.24028287156733 -1.5924792040600266e-09 -2.2526425169644426e-12
228.8080064578262 -3819.464153084948 -1400.4907995371652 394.92279426002455 -1.448163367001598e-09 -7.418403669134932e-10
-424.4028270268965 -3701.6357378901084 -1245.7828024255527 8.606547425106776 -4.805901232529664e-10 -4.794655783513235e-10
1624.8546273319637 667.0542933473383 574.4324144003078 -357.1682641373922 -4.464942859883081e-10 -1.9574841747527216e-10
2054.8552283382737 -43.02155759257881 342.492741092827 -330.74280802961135 -3.331745990209356e-10 -1.789846049149446e-10
3071.1736705540784 10.84324290530732 530.1567602876639 -375.23887054331533 -1.6410398040456187e-10 -4.3697157003919074e-11
3989.4180319325474 -19.507135663651187 700.3589720164676 -403.19328703968824 -6.567445892669e-11 2.415156963309073e-11
4963.631375248423 -22.911268942792045 942.6545440383754 -425.51911852546317 -9.60077572997875e-11 1.545519268120188e-11
5966.221013134286 -22.28939200330364 1242.6292064342335 -459.1282144305207 -2.3031204721135623e-10 -1.344988564966343e-10
7052.851311661356 -2.5419360007455736 1618.0543816675895 -519.0250647926979 -1.516833325609923e-10 5.338773867435975e-11
8262.503702946144 -3.479027715731756 2057.5170067555873 -596.4309490809212 -8.570988363487686e-11 -2.1519075410481037e-10
9362.127897363547 -234.96875614234452 2402.222482981179 -520.0682763636137 1.4856380015082493e-10 -2.5777624479417227e-10
9706.449705786588 -724.3209209655296 2401.2165963955777 1.0232244279189682 3.7126032803591613e-10 -3.0055824495889283e-10
9354.235144911216 -235.25643359507876 2402.234463138268 522.2442135244169 4.052993496372892e-10 -4.461184754944725e-10
8245.650671814064 -4.0550593084926465 2056.8522715902577 599.027418692219 8.691101727187345e-10 -2.2329826876443803e-10
7024.686099077195 -3.4206843879671625 1615.1607635473417 522.4365291371689 1.133774407691135e-09 -1.3349765737302732e-11
5922.608093056544 -23.50721021592341 1234.7614103874976 463.9339178938785 7.935762845467931e-10 1.0784284576459413e-10
4897.769162293344 -24.477768174427574 925.4121591419148 432.52048142708435 3.4036165552642217e-10 7.443594629563677e-10
3890.844208621994 -21.239207770674305 667.388866891568 413.4516178573615 -3.648625290786356e-10 2.8405866547842606e-10
2921.8704240200227 7.106831419195536 470.54101998657035 391.0128374937259 -8.368415405080043e-10 3.287211614022567e-10
1830.882561223685 -46.43006418077495 242.37334554387766 361.2476259735696 -1.0627306257227076e-09 1.6994738949449584e-10
1401.9927713038023 640.1977057431535 411.63029039767144 396.643830420708 -8.045214772156584e-10 -6.912181937934747e-11
-595.8834935173971 -3649.0959662723326 -1530.067679830596 292.65169087708836 -5.082267939826579e-10 -1.082353762171806e-09
-546.4883371698683 -2709.811566436639 -900.4415047130267 -491.6875325222283 -1.8040927085571923e-10 -6.583911194013581e-11
749.6438306088249 359.61483624725355 337.1890685113856 -617.8655873262846 -1.9876578161159841e-10 -3.1367197728116025e-10
975.0480743329236 85.55670950571515 221.44423260464785 -599.3310365217823 -3.2725969156821577e-10 -2.826217038176537e-10
1550.091376245628 -9.99690819913279 276.56197191001087 -662.062954401874 -2.7110492843707146e-10 -2.911769714231127e-10
2046.9762554712963 -7.038257549384612 366.7140758572199 -699.3445158124828 -2.1828717999827774e-10 1.5014212095820767e-11
2521.7188435521616 -11.353237224418336 480.3585557169791 -736.4892648634176 -2.6237792494221424e-10 6.580402889255765e-11
3006.7704349642786 -10.489031234940757 628.7342378799058 -790.1185804809279 -1.9913787285830153e-10 -2.1360557767025057e-10
3512.741697617488 24.4111802196215 819.2374497539705 -881.4356894487197 -3.168506013118133e-10 -3.0705105125150567e-10
4107.1019345068 71.40821753604018 1059.5562426808212 -1018.6530416652037 -3.6927166879863194e-10 -5.826643612039106e-10
4715.787807697506 -283.84199686335995 1192.5977074872908 -938.9875552000624 3.445355112319248e-11 -4.0570258263983305e-10
4677.962392273746 -1385.4135019180376 884.9978469791672 1.5988243268104891 1.1154357992815278e-10 -6.364340165987414e-10
4707.565815647816 -284.2209528658052 1195.007193602517 942.398015428533 2.3374913116214202e-12 -6.449114575701742e-10
4089.792023741533 70.6510850854781 1063.8573852564032 1022.7568189400779 2.868969783964559e-10 -4.177334034238811e-10
3484.522415710475 23.266148366627558 824.2306132977333 886.894399590281 4.62083787899914e-10 1.6641932276684201e-10
2964.5986540110057 -12.053707536341623 632.1923485857748 797.9240782774037 3.984997887229724e-10 2.702122969822085e-10
2460.774838770981 -13.240693959918282 478.5581778276517 748.1111178326668 3.1864618756094476e-10 1.2468293064671343e-09
1959.9584050709357 -8.856816080425467 353.8042299872694 716.7605359297663 -3.0788871452358535e-11 7.079486996630635e-10
1426.1516738189075 -12.012450712318298 243.41937670013675 689.4059285702408 -3.1868269134704974e-10 5.246749701370845e-10
843.7904633096472 90.22543359682246 167.66637840881262 645.3366970788661 -5.206672870627926e-10 2.8366453630468413e-10
621.7102542854668 265.9761092576701 198.55098801857764 685.9477657469957 -2.5952907184434437e-10 -2.4206880944177556e-10
-585.3402478219078 -2619.4179808578024 -1071.778284890629 557.4936039125967 -1.4661705183272034e-10 -1.6130616842247036e-09
-493.85661355784674 -1723.2926072586092 -455.0855216052619 -550.1019961290424 -3.3035900404154717e-11 1.354116818674811e-11
96.57053187122762 92.57020457423147 190.2710794517103 -738.7693899956445 -9.429676484096206e-11 -2.5221458255231255e-10
6.0632151961118 132.25937015043337 112.26396804724055 -747.6641203017118 -3.2903932356553867e-10 -3.3532532306423946e-10
55.037710368798805 3.1026431730797466 42.63240425160812 -761.7558389001687 -3.6827291216567914e-10 -1.8992740713486e-10
82.01379594571519 -7.006795525549611 24.198006027291704 -797.8443562610643 -3.3297717361158163e-10 -1.3227197115384115e-12
67.37541522892828 -2.1921294257613555 17.127973633293905 -840.0928782524743 -4.1808081996386193e-10 8.725797862041418e-11
34.182298977027344 -5.243610019215492 15.840638177277551 -901.013006451911 -3.9071604285290107e-10 -2.0981061332747686e-10
-39.18635883745935 30.239488265091726 22.952773073590148 -983.352895853191 -4.566988315302112e-10 -3.170221862802691e-10
-29.690124875831547 156.69487741032353 90.207625092938 -1130.6522092910918 -4.673371967189865e-10 -8.344323010334165e-10
219.52235433495207 -286.7751538941003 69.75947833930564 -1167.522628632562 -2.0040089032669073e-10 -7.035341198502465e-10
-306.63995848648943 -2488.1813384213515 -717.7680919135685 1.7934953104203042 -2.408498817052518e-10 -5.887366150147955e-10
211.02520511044563 -287.25141579534875 74.57324328216953 1171.3506206216186 -2.9765074432974714e-10 -7.662073198133612e-10
-47.32894042830071 155.74744827314797 99.481866393733 1135.2653130988128 -1.4024320073302565e-10 -7.391449674543082e-10
-67.21684173192699 28.824961752286132 35.82082024117514 989.4966017291714 -1.554848333418235e-10 2.1244717096635668e-10
-6.100953804626473 -7.12885696576585 30.569196869870225 909.8241640445727 -1.2534029369959399e-11 2.532134502075678e-10
12.287061398908394 -4.334025021998359 30.614486857751828 853.3212783783695 1.317286280055896e-10 1.3358856243428363e-09
8.162433387006576 -8.885770356242444 31.052504508982235 818.16127043262 2.2217144790559473e-10 8.359294367821235e-10
-33.78550766096032 4.9631269685947395 37.675997615506645 793.1303404563755 7.169206894808156e-11 7.266666157690338e-10
-74.58098019139089 119.7426161240501 82.8050043832162 794.2582330335622 1.2920942094041266e-11 3.066807918727932e-10
26.65526125025409 19.29230844413393 93.6408965388536 773.8895048895209 1.1189653370546893e-10 -3.606994702920474e-10
-496.40296406973295 -1638.7670266054593 -571.3593992455216 563.465298860322 1.5380707818479777e-10 -1.6863204166384094e-09
-456.4613900401542 -905.8736229215514 -51.139729128990325 -445.80754819804577 1.75907621802196e-11 -6.4719340997498875e-12
-429.76277297870564 -45.011294557035846 123.55065196499153 -651.910299940007 -9.63117918750811e-11 -1.615850786507167e-10
-912.5281853064449 108.69051119175671 -3.1945652513225458 -695.8988695233855 -3.3636726737285016e-10 -3.0104185810841955e-10
-1403.3407295575116 14.898110641077706 -181.30535132402025 -675.6308115658991 -4.2830339275212737e-10 -1.3964873701866054e-10
-1882.042821732351 -0.5153227409424297 -316.85085389234865 -697.2798006045999 -4.754961979713812e-10 1.999023169219072e-11
-2394.2756304283926 4.165863262542326 -449.6887316377103 -736.6717023579192 -6.216678005710463e-10 3.804623283087949e-11
-2924.413291211081 13.279213706564775 -589.1883956312777 -788.686109263499 -5.76413007602472e-10 -8.678524565652879e-11
-3553.3736328319915 3.320068787052804 -772.1913391828514 -853.544872723915 -5.50913870078773e-10 -2.73898237423964e-10
-4178.996210601723 194.24095636761194 -898.8071340344763 -926.3214073499172 -5.24078835884012e-10 -9.157057334618912e-10
-4193.525486823654 19.15237027967569 -940.40210571286 -1205.0127558412826 -4.737049572045571e-10 -6.197322655054904e-10
-5533.303157171654 -4074.153326777687 -2546.136182157745 1.6107996802709925 -5.016663681689515e-10 -5.182478890475295e-10
-4202.340171726464 18.57788014380575 -933.1474461770783 1208.4485881242056 -5.022275373356422e-10 -5.588496332364912e-10
-4197.056796741869 193.10241386761635 -884.482504708255 930.4531570044397 -6.416039088907866e-10 -6.447824496547128e-10
-3581.386845547792 1.6382376565407468 -751.3237462008274 859.0280941271267 -6.050533546408943e-10 1.8941537227590288e-10
-2963.0211530024962 11.11545862287301 -562.975105391749 796.5186797056235 -4.794365737748052e-10 4.038018808216748e-10
-2443.7677340065734 1.7000455648557016 -420.6169970648993 748.4883017082535 -3.938127601799124e-11 1.3240870622155398e-09
-1940.931821373366 -1.9593563616999221 -289.0269398928012 715.6456733351439 3.8823733117254733e-10 8.060500045203867e-10
-1462.8378559015669 14.841653075492056 -161.01382887571012 703.7749355327195 4.432539335574859e-10 6.67336186310763e-10
-958.126134973925 93.70790980123041 -7.003095070299393 728.7236880199516 5.392160051798101e-10 2.499296325453315e-10
-463.17484164792285 -88.23425075342436 66.32032801305951 665.3721064071741 4.81013950892617e-10 -2.9750268915051947e-10
-453.3648619777745 -850.8001050308371 -138.3936482293484 441.2828532795709 3.798237280250305e-10 -1.4948344784215806e-09
-491.7197772207509 -386.09154181560035 224.47015410903975 -243.97067503458442 2.0448309712151058e-11 -1.1273093569741377e-11
-871.2934819497611 -86.33149497133635 101.45476395240027 -372.61696939575313 -1.0754164225801333e-10 -8.720180133536815e-11
-1803.8994768902992 65.20062172400215 -120.48706280280284 -408.9567518284671 -3.3888392092507047e-10 -1.839427499206181e-10
-2838.0743116050085 24.337377782549726 -401.8058620580505 -391.54307562484223 -5.670415248459904e-10 -1.1502998553680754e-10
-3836.789945088906 12.668862182416923 -656.2070110771709 -401.121619767697 -6.940775176822456e-10 1.6602941244059366e-11
-4842.482506956247 18.70266830608324 -914.5954555787546 -425.55821499455783 -6.496401749878089e-10 -4.931099972793618e-11
-5886.011130079587 24.873896155889685 -1204.7939543800474 -458.012066083605 -5.16220621804564e-10 7.452705119703751e-12
-6932.579356791555 65.10805156209446 -1513.0898180947688 -487.46234151318225 -6.327821600038419e-10 -8.84414763646646e-12
-8363.685886778967 -63.447252002376445 -2008.8990675755933 -541.8688926317208 -5.612401654531141e-10 -4.6410097986893106e-10
-8568.308340335481 940.8573353417652 -1789.3207584643897 -721.193041989278 -6.360625498524897e-10 -1.6328893792660892e-10
-11376.028973466551 -6104.631669492497 -4741.152473819958 1.04413918306075 -6.931118456954266e-10 -4.2165859692744334e-10
-8577.579683776394 940.1877273674032 -1779.5587714523906 723.4132959254596 -8.050502486867117e-10 -6.389277995566545e-11
-8382.482220524353 -64.7733618742374 -1989.376795887993 544.5155244694809 -1.119549675188125e-09 -2.7663071833217145e-10
-6961.138281697708 63.16658281791502 -1483.956935226172 490.9276269702025 -1.1376086184178291e-09 3.0220137503533806e-10
-5923.9403834569885 22.409625575898644 -1166.6676365773733 462.8886605020607 -9.246124837991587e-10 1.967914720069075e-10
-4887.519046118761 16.08120639276202 -869.0093585660295 432.80539101875905 -3.213826982317869e-10 7.743841123897255e-10
-3882.478641987208 10.777894006460507 -606.2561001184531 412.339992372989 4.820214227763131e-10 4.434954625764931e-10
-2872.784254235068 22.001455243751014 -354.72937241342424 407.9474774665123 9.21683396271078e-10 3.452145236337856e-10
-1819.8530234986606 53.19031247434468 -94.54856129589442 425.1657453925619 1.1804046629038112e-09 1.2595890996891512e-10
-876.8067758293375 -107.09940713837742 80.21281702299873 375.89847297675806 9.564557479357916e-10 -1.207648425705088e-10
-487.1756627899275 -360.8513135908077 158.26192464326382 237.55076617422 6.637379534879528e-10 -9.522365118641574e-10
-550.5472481025636 -218.09197933984876 330.2128207249696 -96.81104558936195 -3.9896974612929625e-12 -5.440980999082967e-12
-1230.3036025503354 -142.121806084394 77.82523767585378 -147.17491600860515 -2.575184510078543e-11 -4.8539838815031544e-11
-2759.454827766382 -153.35756249554822 -320.2266748194816 -154.34369429521416 -2.759206196856212e-10 -7.382716660231381e-11
-4429.679119838363 -313.7019919628775 -782.3977216434248 -152.53461410659145 -7.589058270696114e-10 -3.894662370385049e-12
-5982.1293573047315 -444.0200086042406 -1204.0083712281194 -159.06196524160558 -9.592993066576128e-10 -5.311306949806749e-13
-7525.278485346671 -557.6151986739894 -1641.9341869211526 -171.704746600927 -5.728114649272698e-10 -1.5572165779076386e-10
-9130.499338353158 -693.4411646245854 -2146.693487428748 -184.77029167137522 -4.3795789217426773e-10 2.4638069362481474e-10
-10744.29058872029 -749.8225736179622 -2681.2402935849186 -207.01326257451532 -4.843161427459108e-10 3.923084079815453e-12
-12407.355712255661 -1124.780811212236 -3369.1879372149833 -218.0971996706964 -5.688178816853906e-10 2.632578599559565e-10
-13818.73174646968 289.67783642428003 -3447.93948267412 -467.4256863654579 -1.0047711551663951e-09 4.8912873751305597e-11
-19216.043181373498 -9225.4669853779 -7958.95461471881 0.6032849183067412 -8.890954639184656e-10 -2.9130564627166677e-10
-13828.515244436048 289.3448302100878 -3435.3891269298756 468.70885724491 -1.0384528792428682e-09 1.6846435357820155e-10
-12427.025889972838 -1125.3675242435907 -3343.849549120433 219.6229924385652 -1.7887318293219323e-09 1.943458727282632e-10
-10773.696801897533 -750.4734405076757 -2642.7672217113163 208.99180290323685 -2.0471484507567084e-09 2.0260237931779557e-10
-9168.36231726167 -693.7611946296587 -2094.8898412700646 187.49086576549078 -1.6537626823520668e-09 9.594902650178483e-11
-7567.035703091315 -556.6073351564047 -1576.9800504530888 175.57582099184873 -7.06382063953015e-10 6.340705738239194e-11
-6015.931341678064 -439.70188369464046 -1126.8264177350427 164.69612097555842 6.83984424654227e-10 2.3504487245418204e-10
-4436.4334080956705 -305.2488144883367 -698.0598071126707 160.2987292682329 1.5344392423344289e-09 2.2168933355715126e-12
-2733.159683333026 -146.88777199755717 -248.91865587948757 162.1803241190419 2.031457668749681e-09 5.225597732305687e-11
-1198.1945232297164 -139.652147083422 99.3412392261363 149.96919524513285 1.6445098616202358e-09 1.9886314817085804e-12
-528.8344113943607 -196.39156362054086 290.1391555412967 95.34928699822538 1.1545324696271564e-09 -5.84286397042888e-10
1021.1294706566825 -3744.0844330720347 -816.8864887246058 -48.158363167657235 -176.6562894357107 -15.329294136322288
3248.776721833159 1333.7460985315647 1119.6301374892241 -331.36097379599715 -240.84792663745557 18.37938630243243
3365.8802447627963 164.6446817822619 571.8781150939117 -131.11192633157697 -226.67275307422906 -17.75366231503734
4684.157237108064 357.29637051655294 809.3939374311218 -149.8206080963018 -189.4812276158533 -20.48588043911029
6166.434206741796 427.97348245186896 1108.7692215003908 -156.9939566905945 -121.84277381823716 -28.270016941705165
7687.169869947041 547.2563027595489 1483.8930058286353 -164.84273226714978 -37.13438313530148 -36.32094092923283
9223.102048049495 666.5765970723327 1921.2341465695763 -175.4300079124769 58.606987012651324 -43.862422806298206
10862.374888558366 812.9489565821723 2460.8186113520082 -195.57958046182313 150.07002921369056 -47.25497762433263
12717.915107369912 976.5709842019497 3131.016042154412 -219.5744757349596 201.19475987293265 -39.809017692957106
14547.085560318807 1030.0473838027287 3793.3309262570065 -184.45214431306522 156.16232817918845 -17.24086100673887
15334.833728743697 890.7335196831812 4044.2715164893907 0.4267614304900782 -0.20170213047499574 1.8932008801747404
14542.603385944843 1029.5455841488892 3791.256020779835 185.3317225474907 -156.33374553087054 -16.996084095738155
12708.166671306648 975.5129452766512 3126.1962890393897 220.53468770014388 -200.64463788656644 -39.32238797200706
10845.64924650823 811.216112933898 2451.7815555043367 196.68798743251142 -148.19637525076578 -46.55118912198931
9196.390631874889 663.9335299319 1905.4056240428872 176.7607139259653 -54.47123894088184 -43.014314779322056
7645.798866464984 543.4666144344104 1457.3762247623338 166.5462447750499 45.22580594165332 -35.588594343784386
6102.592455795692 422.32472241138805 1065.3342921572437 158.97920203426358 137.11726926266576 -27.842350422198816
4587.788027080008 349.6980962468195 742.1111918264938 153.4584375263341 215.6101692978969 -22.249466328371156
3190.1893829964456 144.75211677679943 453.0250516900581 136.30479996281497 266.9927226761201 -16.309945352281016
2805.9226387650474 1245.8540850536822 890.9865515974473 323.81971742605754 243.03768274785696 -13.127614000463996
270.47531940703493 -3953.146881612618 -1389.6775499332766 415.9112594747373 214.83506085796014 128.30791087480307
-493.80127870392187 -3828.3546572392897 -1334.250611371306 -82.14694698571796 -93.52886424373669 45.78265134105629
1605.7953212260286 696.7730396093292 573.7985923905005 -376.05985623872976 -113.37996975047002 38.514763832069164
2017.2467225901771 -50.16941609512923 285.9076283151258 -339.10615500850804 -141.9285654775088 -4.260868531797186
3078.0119339950497 9.533079882725858 468.5023700174551 -373.7451163183687 -118.66127679443512 -10.766631684037158
4009.7795008021117 -23.25739104297461 619.151120466076 -395.07203359593706 -75.16686263446559 -15.729131995399701
4985.763463291253 -30.08804656364464 830.3059227929729 -409.12863063218265 -20.095993057212176 -18.179248363923158
5973.010006542186 -33.81591013770606 1086.399698808545 -432.0872714479938 40.02230787983223 -15.847500628420132
7016.659803534446 -19.66972668924845 1406.975832488664 -479.6083697987005 95.52849077067108 -2.851847239816288
8152.402290943509 -26.407676517546196 1787.4714878368304 -548.9047786041093 125.73510720711982 30.215546830761614
9169.556153977686 -261.1948813183327 2086.813114986045 -481.03999512131725 98.06085444907487 85.5358943113155
9483.697168126457 -736.5377383000495 2079.7686923558113 0.8277077299991875 1.8109699474043723 125.02160402515325
9164.971249013353 -261.37636346614653 2086.8780416505797 482.7711909042099 -94.09610799166782 85.59401439645131
8142.56390201619 -26.77840114428047 1787.0723982210159 550.8762289113411 -120.72813483878853 30.271385139547927
7000.144761468746 -20.247836642099863 1404.9227737741928 482.0283022568216 -88.71305623853155 -2.9546054535929573
5947.4643177661 -34.620742453743745 1080.59924911884 435.2424435119926 -30.44037924690229 -16.440642641054918
4947.455359593042 -31.12355300397264 817.312206838692 413.4263093175453 33.90402062331795 -19.906836427071294
3953.4609313048677 -24.279180716167467 594.0319197035714 400.9740568360958 95.38242040937399 -19.618265182655886
2991.1324708374436 6.131368631616647 421.09966788334583 382.9088187880666 148.52259920713257 -18.570446364289285
1876.0712170239044 -53.91950278821597 204.57530486433942 356.7971276968534 176.52620193224436 -16.41367483395171
1457.2363187610142 670.6905373764748 445.8107553220599 408.80619380231167 126.91087091769081 4.759081254560113
-595.7950339890524 -3775.8510234262712 -1527.0925632230983 308.92193584079456 82.9908368907326 165.97074297718737
-558.3431088948561 -2746.0524866336477 -923.6174146952576 -532.4056554707123 -32.81341931419621 157.84189344424254
729.587513988415 347.73419561546547 328.47799558754457 -654.5600600039726 -41.281000696449034 58.214122982554
942.5191382184497 84.3994428120303 190.3553976769994 -610.1616689021947 -57.75535972290748 14.835555356295483
1533.7076650066876 -17.10610470317551 237.20272186213208 -659.3059900521715 -47.67903249963716 0.21241252713400827
2042.0118128243462 -15.72053529290912 320.6080565234264 -684.8665049133682 -23.195576357954028 -1.8092385481810547
2517.6389238804113 -24.12337367961924 418.82139293106263 -709.1553227648046 5.82644707964931 2.6477550332844926
2995.249537840155 -28.00917249858138 544.7883482110971 -745.6305707316072 35.918818236701696 17.258278077965752
3480.851708242832 0.07722257812612421 707.0654874171764 -816.6216565943198 63.941640714045285 49.81684417591532
4039.44149669943 38.91922792681544 916.8918512297234 -939.9489857341686 83.13231944649758 111.9924990310196
4599.999212994467 -324.22612685132054 1027.7586488202498 -872.1720300571732 71.3889946066477 205.32877578263748
4554.7587913739135 -1394.759117305686 738.6216429581762 1.3355516147803592 3.786966619225389 272.7938998883932
4595.236020507619 -324.46744588138336 1029.798695719482 874.9693639126892 -63.38366280075689 205.20583648769764
4029.3623222164283 38.43598233247963 920.5607242475687 943.1477047974244 -73.83958887338007 111.62074723633005
3464.33791754441 -0.6470602161327124 711.4134382836031 820.5726829696231 -52.51970256682834 48.887355251814164
2970.5313531079046 -28.98006198748751 548.0414277294473 750.8336020465061 -21.511413167076313 15.146308243090665
2482.1779365051834 -25.196623473171062 418.01711951274694 716.3300773492198 12.525097483786139 -1.7709692208433292
1991.839689396205 -16.871254056623126 310.76920651568935 695.0520784811396 46.77018115562785 -10.450108600166542
1460.9785033781766 -18.547002423937958 210.1027371637978 674.8683233131363 77.32505934310085 -14.76401048061592
862.7820884456836 86.70008525235403 143.29411796272746 638.2499282272383 87.38609283655595 -12.016295995790891
648.2978194222602 282.57273466912505 221.7135847273869 703.5116565580767 49.710872541450705 35.21254537851779
-586.9871653302191 -2705.576150946162 -1054.5077359510071 582.5230520723907 22.397794725181605 244.14277063512912
-501.13306491642504 -1743.4357748366554 -463.7573733281309 -573.6133862352273 3.9069772811303705 202.38779022308577
78.17811733853564 79.47693207121735 186.97504162297986 -767.2996975126364 12.558208657549457 68.37576891972687
-25.725433217148836 130.66622122190444 99.7532953770206 -761.2328617363555 17.977990805846602 20.47115081916571
28.523634262657374 4.906035420924143 32.87063498747639 -758.4180003689393 23.072940284483092 3.968604769158344
60.48021598669526 -6.012399201006467 19.478275009465875 -780.9041635614783 30.258848374807148 1.2259816753857005
48.40078082835852 -1.6422789589210685 14.62440894868268 -808.508994796856 35.57268261243282 7.795549844884146
17.527863595263966 -5.8164182497396855 12.973161018911837 -850.4783819443303 38.42487060320054 26.14123156613844
-52.623834524983124 27.001594983659228 18.60598773442924 -911.0425351442847 42.1398460855875 63.726926460861065
-42.76226192016433 149.0816084788582 82.21855912617453 -1044.3466503278855 52.80697386712374 132.2480160844287
184.09411193256577 -302.0941931136547 58.45926565160198 -1090.736176482669 56.078033125352114 238.62210064643784
-326.80266188876357 -2445.1529705081603 -675.8244944245645 1.5135165260668106 5.757290710968016 325.5638025734887
179.17531461376103 -302.41003191101015 62.480723204143125 1093.9066118622543 -44.05189076697152 238.44411537594888
-53.030740978141864 148.45543988265032 89.96781304705887 1047.972618826651 -39.27889496968403 131.74515146872807
-69.05495082126232 26.077069695240066 29.361519703419305 915.5205697729516 -26.22541897252048 62.54076354378804
-6.18207396271427 -7.003226051774407 25.30013998864622 856.3773498134901 -19.438757715483703 23.561160789451485
16.0647395035625 -2.9318209606348087 25.916604047651344 816.7005388655955 -13.11489762681022 2.501103044984028
17.306072656703613 -7.150449866641971 25.059043037128802 792.7831155107307 -4.296229020973313 -8.917257524244471
-23.50896130951679 6.178156648933543 27.309366097919774 776.5015364384246 5.1841264590000815 -14.30052591982421
-73.56989556619294 122.22300680140556 72.69908392779789 789.7985281730523 5.410181847725187 -8.099849912514781
34.120489320273094 28.28897224949322 110.82196383120082 791.1334974155874 -7.628113211423475 51.62668234637153
-504.915379769139 -1699.3157604167986 -555.7877566138301 583.6773012804842 -12.116490822599507 258.5095182205072
-474.62965139470003 -924.256584885582 -63.59669141265509 -457.6616456568535 34.82070090069129 190.1870196993853
-453.4741670157422 -57.51773653822562 126.22046368819458 -672.1785114660073 62.16530612535158 58.38923058801464
-947.8696156693929 108.76052728781907 1.6210029292829429 -709.0724741469252 91.09152702955049 17.450281338657597
-1439.6932503650198 23.51662947865735 -162.43637711679918 -674.6265526275366 93.25325407065654 1.9882655663437792
-1918.787217111342 11.119330337100635 -279.6525078172174 -683.2033128147525 84.04097395877841 -1.89231721020642
-2428.053746738984 18.175654008552552 -393.0757495275687 -709.1618439062453 65.69917473331014 2.686023744782477
-2946.91128941953 29.3288581475674 -511.154388537212 -744.3670802830723 41.43838171280267 17.465478574251307
-3549.755978534643 22.596735604164223 -668.507754520328 -790.3081396183377 19.30263119023306 47.78608127862671
-4136.5390339006835 213.43030011288064 -771.7314597484796 -853.8870086990388 16.868044355942388 102.81228832469202
-4150.92503211619 25.682851442475716 -808.3802864132183 -1132.924978052692 35.33847378228955 200.36484989690337
-5443.4464068704065 -3963.76124035808 -2308.6314261984894 1.3400898201235951 7.766347783987488 300.750207960538
-4156.031343372984 25.290811230009624 -802.3490415283705 1135.731615473206 -19.208909417047735 200.2577520116475
-4147.068402244674 212.65523858084367 -759.8420813165667 857.0946735294114 0.9942897400201148 102.473038724322
-3566.2299538440175 21.46480073713628 -651.2434246812466 794.2632920484954 1.2315281739215984 46.90996493647825
-2969.792064327574 27.913946048431782 -489.59561377592036 749.5671660216593 -17.697080696581846 15.441017089976963
-2457.4968879141798 16.626207464693056 -369.449989703675 716.420289677005 -38.922623163909265 -1.6293608066512992
-1953.7596343882856 10.318228954607628 -257.7915026937068 693.9010991442649 -55.503442416484745 -10.532134245749308
-1474.838655071365 23.663854841663387 -148.3728231281393 690.9613751283129 -66.30983985183394 -14.014685442122607
-974.8675116937508 99.01615035192322 -4.881038922797865 728.887138121899 -72.872998132524 -5.755579178137585
-474.6328758008491 -87.26329098882533 79.63113663422637 680.9606576779696 -59.67621469260529 46.00580963505699
-474.1452453832451 -893.5878006420197 -132.9031161278874 454.72069182587006 -41.494142101767565 226.4576125810137
-526.601601588585 -411.3770248862851 209.0579965687896 -247.28590153087907 73.83976383947517 115.02390884092628
-906.6318455670779 -104.4311436667686 112.6739155322171 -384.60994543244044 118.94455852462194 25.400882435078724
-1850.4390702933702 60.837992319751464 -100.81476033076619 -418.19447618257027 167.61546678209564 3.4167172640502503
-2891.4655583670888 29.042697135890737 -359.3380280433671 -392.21509263573927 163.84848195598994 -9.033330876828762
-3897.1125241145255 20.561759903263255 -583.6434663287765 -393.254157726654 136.7374733327712 -15.528182065873438
-4902.147190659526 27.6916676731215 -806.9561352174001 -409.0373859438767 92.78152476122649 -18.087106354737855
-5927.433452096643 35.171823254500225 -1054.0317379488051 -431.0355761053271 38.51054343198669 -15.713774815069534
-6930.2654435473705 76.57277556698008 -1311.9625639450653 -449.88431177273355 -13.154443641285123 -4.966394198517422
-8274.438907157913 -42.75721628932515 -1749.2455529536019 -500.16419750755915 -40.484016155120116 17.993439982545638
-8460.753942595062 913.2648982388408 -1541.5722548047486 -679.4612211628677 -11.106987171991863 79.73462575523722
-11157.431535046022 -5917.697180458066 -4310.3413938107215 0.8373138909379368 9.858138737802383 193.38578584516756
-8466.134267911619 912.8088213043981 -1533.48208017596 681.2125189513147 31.52420054458131 79.82649491597778
-8285.418792434699 -43.65825735771951 -1733.108151483953 502.15754626721844 62.92603807086139 18.11703720981343
-6947.110807708146 75.26630319889507 -1288.0009900865307 452.32475579076487 38.67537922308144 -4.963286253420264
-5950.0572181528605 33.55419290633018 -1022.95016396823 434.21597451106385 -9.433016000518267 -16.148019337717603
-4929.292788291779 26.06948326129501 -770.3940430417059 413.43164237054464 -60.7583097131811 -19.589650469676393
-3924.8343788792254 19.642506414114763 -544.8217858268391 399.75484494891396 -104.28781979358314 -19.346361218663937
-2912.561123056528 28.178378489404842 -324.86964812658175 401.7195505910735 -136.46769331950574 -17.064623011426637
-1860.2757523188272 53.88623565819603 -84.5400754311916 427.8833428066286 -153.19818746499573 -8.437196686860489
-910.8374997128459 -118.00896969039594 93.19121913322314 386.742482252523 -119.79081817152652 19.127409318005597
-525.534006519086 -397.36920444551095 157.02752082572403 242.90761118540178 -81.80883913639775 135.29894234108772
-588.3248943264151 -239.05841606696697 345.3968510001042 -96.39401263725263 142.27325303416083 59.03738021211379
-1271.7066259623086 -159.18491209167388 114.44260111885366 -153.97785121307285 196.04990439698406 2.6917310122584865
-2817.8124071134557 -158.54712192358818 -275.5146836207947 -159.57374465623082 250.5525265152265 -7.165703248553649
-4502.831304835715 -310.9888685506385 -706.8549926471276 -153.67442603759974 234.02329131801162 -17.5806383904105
-6067.747302563636 -437.39245297713296 -1083.5679033930448 -155.8271783080535 184.90588450363208 -26.47546824442465
-7610.701788428814 -547.6157780745492 -1464.9655583288427 -164.10325336429847 111.26929296622053 -35.22144717477451
-9188.955312266678 -676.5534487059531 -1897.1557856016987 -172.33903107964858 21.71089347053564 -43.04926572488944
-10729.411945164618 -720.9772993765407 -2339.9412969841537 -190.64029716024686 -66.7333009940611 -48.84287809469646
-12257.559554849158 -1066.0646508435434 -2924.966211172746 -201.66422556328243 -124.09170600037848 -46.17436497452776
-13581.680702700505 298.63936197208295 -2996.952814338396 -444.14959330321926 -118.51135377663722 -28.56894962828341
-18821.278455011918 -8950.606244005128 -7381.425979179608 0.4354716558084757 12.062870074761712 135.48599276650415
-13587.322037721697 298.4965503097882 -2986.5880265278106 445.0654611623544 143.47341692092044 -28.369655412012595
-12268.969504407243 -1066.2945108519916 -2904.1146800026854 202.72003115574574 151.47466424335317 -45.791335221941694
-10746.62929591275 -721.1596475759459 -2308.4966017248635 191.95036653068718 97.81093818977436 -48.321212149098926
-9211.405256249318 -676.4126115125546 -1855.3185777579215 174.0540337677205 13.65274739546039 -42.495866531741534
-7635.888816549725 -546.4829668256432 -1413.6098175173736 166.4366922158548 -72.3848448046612 -34.88423073050212
-6088.7529434625785 -433.95884750345306 -1024.7721413534368 159.1434061919036 -145.8989963164017 -26.916238190766393
-4508.171789805271 -304.7273806033521 -646.1680326706517 158.28461752865658 -202.67779899858755 -19.764605984919914
-2803.543381668771 -153.4855748173059 -228.00815351753874 164.37485628214876 -238.26617118611705 -10.964832951590196
-1253.7774044506682 -157.2594642104601 125.11013854090143 155.77592265325634 -204.76600362821776 0.8861661165033823
-577.0659045344707 -226.24425868512657 313.6699990786253 95.0606241284176 -159.98640853564905 71.17958928808683
-221.7752222372636 -4930.686757248787 -1545.7385938458156 -766.3778149714095 -408.8569048416351 -144.63011764826555
2906.6486504236987 1397.721640391301 1018.2502523778306 -342.60191666974794 -441.1629501263398 45.331617600074416
3375.8979293310463 169.1384736362882 445.05693831154315 -122.43322454298763 -413.7979568004256 -11.325914691720245
4779.961584854638 414.51989232604166 678.5258954615607 -133.08102432020382 -367.6973696140805 7.746608766046185
6319.028555975166 486.9656682453225 907.0538146871637 -132.16982771384295 -280.6400635007834 0.7949917532304047
7908.086873916663 621.9639872908083 1192.748662582026 -135.54710155257422 -167.85877745466894 -0.5408029207059637
9469.903073346677 749.2547194125882 1499.7604179558793 -138.68420613657352 -26.09917218667841 -2.5377977358313677
11009.203881340682 885.9567250537782 1849.2881744106921 -146.06685976529417 130.47946398442642 -0.20110169306332892
12523.928404978882 1021.5213501338658 2254.9281382962326 -153.4763492931149 252.31057508437308 16.46894911956514
13835.20346324707 1081.1571107054967 2646.200992897353 -123.57821530895085 230.54320267959665 63.26208233081813
14367.899576767275 1003.9958726438814 2793.2808603238027 0.41598687792236433 -2.182604525159605 112.26870833488246
13838.091543084327 1080.9963526889069 2645.388169325194 124.40370013571784 -234.6629146039619 63.550060243509755
12530.111677264427 1021.2053734418981 2253.0888101604332 154.2713483141784 -255.657148976528 17.034723070187223
11019.677094616174 885.5153307241703 1845.9733812456427 146.76817704547028 -132.39892905838136 0.5875953470083073
9486.743186748687 748.8183037519723 1494.2965802436133 139.1747898799888 26.615633088559083 -1.5995010821304723
7935.150575774714 621.723449099988 1184.0365526798794 135.57398806026475 172.3432539295725 0.049563785431055774
6364.110271337704 487.73786241313195 894.2198778102706 131.64887472297187 292.5196210074371 1.6246142805126937
4854.005556145455 416.24665193731494 657.7385869840533 130.53061592590439 388.16473172597165 3.004491077931408
3521.965008652628 180.60391963497003 430.7008679917132 117.70078211808156 467.2552974383126 2.236464471441092
3250.2741800971926 1441.5977969539997 1021.7703696865515 339.7291512067755 394.79473687590666 -53.475611743548825
453.7333931782682 -4670.237575241734 -1100.1970463917366 452.8357967172205 333.5279386320449 266.45128951117687
-729.6526719907723 -4502.209589081512 -1364.3246110948724 -491.8053263647468 -68.85719252747052 13.552662131200325
1529.214918737322 745.11270935652 538.0759827504647 -427.26268064873483 -148.35072415273166 41.198354570907526
1925.1866288128977 -40.35106232196519 173.15588418438864 -336.3946943602824 -252.38188395239862 -2.7049003176586766
3091.891543710821 46.77471753060093 343.071231102325 -349.2907627947839 -211.64135338342686 3.643103875280083
4071.4230643203146 24.108204715158138 449.7841727866809 -359.7089787544577 -157.71051161483226 -0.5726685905260371
5091.694620738481 29.990517932921197 594.1480468340887 -361.6889438865176 -85.94582035179768 -0.7020275389244941
6095.991733121813 38.06097346982893 759.0692291836878 -364.8017358248002 -0.16913455939255967 3.451855579349794
7077.469929294819 55.14715427438422 952.6918734686158 -374.5390243159317 91.97158518017872 19.819815108483585
8016.000108355266 60.30245873467333 1172.6912244563118 -388.3122324696843 163.31452014900793 67.28412292249455
8767.055104493767 -68.39648412590209 1341.972846447585 -318.6108601667288 150.51353904506828 170.84460823443487
8991.484270318204 -363.6067227972313 1325.7669795006468 0.6021769287649699 0.8408902473733287 273.98481342077713
8770.322658330768 -68.26758936014203 1342.3413364868939 319.79670950141946 -148.4490635821922 170.90660139747246
8022.889480820873 60.556145502996785 1173.2123979538405 389.41866500711296 -160.08823413468537 67.33948970257464
7088.818081686404 55.52668501315072 952.8937471341366 375.4258895109208 -86.74059181964292 19.691827470296076
6113.416939422833 38.578077048925245 758.1156193739341 365.18396551792637 8.370695492110514 2.7863793630700098
5118.364704016919 30.71707618619867 590.820746250412 361.0609692614508 98.50517780452783 -2.6368665284911916
4112.7083604152385 24.929741043245404 441.8292763967841 357.3895782479709 176.1482482241529 -4.614449143994229
3161.510472264507 50.13926766387338 330.5283828541925 343.4615854382904 240.28251109422996 -5.510084150532201
2044.9208521060266 -38.481879317510334 150.73050016506275 321.5017785165587 288.4408051799918 -10.934749951791067
1652.1668670912493 759.0137663912661 513.627396712524 391.7353958695927 157.91630179070904 -29.99386588525557
-624.0298805907956 -4494.570662826016 -1326.1303484308303 291.9261038206892 47.2256136550576 281.0773046738896
-677.7072050627835 -3269.531846597024 -893.5195046450866 -649.1003390932923 10.918331764763323 271.0815033017493
667.3795811860376 250.6071023410209 290.9875720604097 -742.0103154382449 -33.91122486235071 40.740849797356795
875.4664529265215 130.79474277659912 138.14069137286444 -613.6218971500834 -101.84225824343423 12.422243754456447
1486.74515047682 12.599607845140993 160.95271836279974 -631.0398779068515 -86.49889688877381 -0.17233588563015445
2036.174639102791 22.930862841422144 229.10750899676304 -637.8789643834978 -54.82160608825088 0.13464279292753156
2540.6422013770557 23.779133013498807 295.4708660251204 -640.3734505513831 -18.497437951152804 4.117726305189567
3038.6359986594885 29.602566611247582 376.4346572886806 -641.907302021529 23.485166330527736 18.12152028515273
3512.2656388203122 51.795152103165634 473.67782926032714 -648.8816727092914 71.16168211465616 53.17701801681014
3977.2868258578746 80.24806676360174 592.5943239786706 -671.4311598101286 123.39777761280152 135.5164841749592
4383.733024271728 -135.05614440944643 646.6948784052356 -580.7406546765736 137.1395321804629 306.73282836464875
4353.806255606165 -835.9253989293348 438.8278505008435 0.8832823715180167 3.5227393382306635 504.7527348219573
4387.237854567574 -134.87565854961602 648.1597061392179 582.4731505477899 -129.60264988439155 306.58932198909025
3984.558181045113 80.6003053643686 595.3212135917496 673.0214534138162 -114.39802529313381 135.1039990846036
3523.883458657316 52.30572373595283 477.1935193352617 650.0898910506571 -59.768891858909114 52.19041955021441
3055.7129288890796 30.281011058370655 379.8902800831177 642.2394028053483 -8.835698175769403 15.929899898648252
2565.239279556083 24.558517641257826 297.4006036544575 638.9569065650527 37.160569802387435 -0.3724227513716829
2072.541632949781 23.989625689805354 227.5015816574506 633.3215560646393 78.28023300255069 -8.75781479225961
1544.1315570167149 14.269587286939284 153.3034876107845 620.6655053125854 115.62260675192093 -14.947313736694577
942.7817425518094 127.9079780705669 113.6348037126935 589.3527471649472 131.3121726064335 -17.272131539186425
733.684254246997 301.88558821532416 275.12090429453735 692.9651526712925 39.929788384180156 12.879508828544818
-647.9819992507844 -3265.6358455517884 -912.229722287635 592.8684687907837 -24.400977528843182 379.87692900366085
-562.536121693213 -2068.9127362873633 -451.60243168858244 -613.7370557774968 35.25077345712469 297.213572342401
25.586117420216084 -42.792407683497416 158.4703813554021 -815.2008511969848 33.66340862289327 73.07915151081905
-94.67257335612007 145.20807905204518 81.64269077061216 -775.1208902333772 21.060819591435433 18.43855115454921
-57.3556717091915 16.2186857300846 17.05512817341936 -732.164363554879 29.441533972809296 4.561293851431708
-15.418156434222215 -4.305669439302994 10.200667723564525 -732.060284159048 39.54746126887792 3.908631502642461
-11.18882092402068 -0.5926643953258501 8.991798157628178 -733.686643615168 44.881429984122605 11.585925234826037
-17.954463991967724 -4.056207485945878 7.9097594311907 -735.4083905682767 48.55890930148058 30.17002907385926
-49.85308702411261 10.986448367428427 9.087175190284706 -730.3408375377037 57.998260199747726 69.95340301255607
-42.48899138149689 83.08995877546627 40.38587594938365 -753.7092850994039 98.28038871088637 155.3589066667036
97.65052531751931 -194.7313783116055 10.157649120337254 -737.7076406548946 151.9175031277771 341.96982023973175
-275.91487371649976 -1659.7110891603081 -520.5704581263149 0.960457798438715 6.068482739475608 648.0645478048899
101.37489713799087 -194.49073487374608 12.73665821986662 739.5902811098674 -139.18943498228992 341.76670073974475
-34.893333346818956 83.56111397174539 45.360788388761065 755.4321880809787 -83.82162575950179 154.8089633934281
-38.0964697415759 11.675048966642564 16.010365468065544 731.6339417897703 -40.81742381353924 68.70446712364881
-1.5530247916156306 -3.162667431011217 15.906854618043464 735.7099031192788 -27.979639986415208 27.521592738154343
10.785766110602518 0.46223769759796074 16.532891952703093 731.9492641551145 -20.765837422483205 6.203592287040708
14.679990049758286 -3.0886517007686107 15.016442688829677 726.5091213917215 -12.47630089753568 -6.377835911916534
-18.54873602962315 15.832751221996045 14.029179846369534 719.7112489293064 -1.1550144615040074 -14.057631876415003
-56.79119719781786 151.78295713550946 66.13618081282908 750.1406376571389 1.004821027039452 -11.622529355413802
60.61585065549296 1.813703009654251 143.90050189246864 789.0172755052247 -31.818236025807085 54.94727355891871
-561.8009384490751 -2084.927942577426 -488.76680619202926 595.531201847418 -46.14007451459952 362.248302752643
-509.0300398355813 -1099.0385654241525 -101.20661913041525 -464.684830696315 59.46657904502905 257.05453438679274
-493.7168783488086 -153.37014788326664 105.1613384792267 -690.588326530229 96.01253622620027 74.52202042800502
-1023.9910434607748 96.45178949704353 13.429914061500027 -713.8974800276077 135.6875931696252 19.145369712864117
-1561.9118644328519 7.79971378791029 -120.6710491674452 -648.9812996625473 145.00323096769793 2.3458412754091325
-2061.4286639076054 -22.771034761783046 -204.97295108058654 -635.550754225299 134.96450241225452 -0.8468107830280607
-2569.5415792721233 -27.863142734179185 -280.6712391250986 -638.8835917950611 109.10048562100513 4.218719982176425
-3066.8087288219476 -28.973784359018346 -355.8016339864272 -640.4099934626773 75.17239624852509 19.69807667312971
-3593.432967037 -49.62394679736152 -455.41060092840235 -634.6883940687952 41.90319135470174 48.077471287319376
-4078.1460219687974 61.426941664923845 -523.9502230100854 -624.0404837282582 52.329885437134756 108.65576417671323
-4123.217139075114 -33.950605950209 -553.8049591021871 -788.9548003225112 161.68494988051256 249.94704834831742
-5079.600651536807 -2876.027260065114 -1672.950693619564 0.9044025721589577 8.668607772052605 677.8180112638831
-4119.265135324239 -33.654360237488426 -550.0976676537065 790.735010690227 -143.6481933613199 249.83391413422942
-4070.210269437852 62.01155280990542 -516.6924741265568 625.6952480959111 -32.26746285702592 108.304233951654
-3581.518205342933 -48.76483005904754 -445.01783959351286 635.9898689848338 -18.74601052001485 47.181846069121036
-3051.077655008272 -27.861567341517222 -343.15792207156 640.867594249494 -48.40822506997281 17.639672311858046
-2550.2323677942254 -26.5003291827768 -267.3802738838573 637.526022188025 -79.24665590287438 -0.18126105110285873
-2038.9707673219095 -21.638201018135515 -193.96980307258337 630.6328041495898 -104.10094358625751 -9.744428009371031
-1538.976316678811 8.653128037478416 -116.87601565405785 637.6419941010336 -117.49189128552074 -14.292454547445761
-1005.9073827721862 105.18390039253234 6.66836048200705 696.3603936078057 -119.29832782750825 -5.225165217659366
-478.68279194671805 -125.76737176487818 92.27836487300456 679.3429506853955 -96.61574474851379 62.04658771899358
-516.6576470170068 -1116.6392223736932 -136.9209656722222 460.4858890703224 -68.44085277833695 300.184248437523
-544.746356603495 -487.346368831604 132.6222335189521 -243.00717376950885 106.5705431039368 166.86299295583
-931.2307887208663 -158.46812605698233 101.48694724328692 -386.0955433331898 177.64555360864054 50.71767032885137
-1933.1312235170817 41.41918528499514 -60.77178384846893 -411.8319644464308 262.33395511615066 17.481652588966558
-3049.6436101675927 4.247292969443244 -264.30651987605677 -369.2269097018617 272.2551175044141 2.765019459278976
-4104.909110676088 -22.821845362944252 -429.4185922369933 -357.1676819293371 240.2312829532631 -1.2777035115405333
-5125.803949747004 -32.03102571822529 -581.6735691082547 -360.02130563541635 179.78934692465268 -0.7187956792640724
-6129.92453732317 -39.5608892563086 -741.0779527212819 -363.3659936358765 101.54195100494357 4.523714284842711
-7065.518235474874 -23.062010286600657 -896.403570379507 -356.6203279552671 21.826072709563906 18.31578712943626
-8163.6401057309395 -132.42708749142818 -1179.0552903455086 -367.8751990095575 -48.884683051599794 28.72727227922873
-8299.633217184788 593.5312726369204 -1014.2402034896579 -498.2950437317872 102.03123955040601 93.41191862818656
-10293.119225709741 -4433.507153715782 -3153.11407017723 0.6272194405131781 11.51449284082859 498.9598077906749
-8295.421549352099 593.8698618410789 -1009.3948545837303 499.538301013566 -78.16604879339184 93.5220447689884
-8155.28396418527 -131.75578095566792 -1169.4924183985972 369.06104678333 75.158271625221 28.879170169080208
-7053.279112055396 -22.074198881963035 -882.5025808991464 357.62366026784787 8.074670280204648 18.33737291187652
-6114.509180472482 -38.27916739507902 -723.721845238307 363.8996354913484 -67.57485783061858 4.058912826677592
-5108.77469545917 -30.563463366109325 -562.678331234875 359.50203581351377 -142.82394099263038 -2.3864418363212487
-4089.3579400561953 -21.475836305417186 -412.1517102353028 354.4437058099235 -203.87885804018293 -5.577115416797559
-3040.059273165478 6.206396982974997 -253.60677015134888 362.817192014506 -243.51806782391634 -6.295875915617472
-1931.1541059933252 48.650698574755054 -60.2735695959819 403.1978765744532 -249.90405805494126 4.17861780249546
-931.5438375072426 -145.3388071611281 91.54853654842357 382.28003454612957 -181.58942206317963 44.21016385376826
-555.5036610524585 -498.409081027765 104.92176485352121 242.1268986352826 -116.73857615029563 191.54607683410472
-584.7753231983133 -267.22628206920336 281.0143743271978 -93.07603972882336 203.7440465978137 108.1430839006597
-1283.267647042955 -188.2777832172294 115.99735125101982 -151.09109730149999 305.9957318396974 35.25896506766049
-2918.4157475943425 -180.81786698318484 -224.94101318855834 -148.38340638167392 425.8459667024788 18.97591572062974
-4720.010040822024 -347.08312103463896 -594.769740514548 -134.5462571581787 429.36115159939436 7.860859039130832
-6367.683684204033 -495.05565626680965 -898.6080340079423 -131.54963834439502 369.1586180811271 3.9112800223191915
-7947.868420670665 -622.5043789962388 -1183.9049178878554 -134.61160190969866 265.7761817248735 1.2683729548841836
-9511.552116884457 -759.3648179847161 -1487.4720503732017 -136.32633785980153 133.71399357440495 -0.7217595404155457
-10982.820264698768 -829.3717735780575 -1778.976163209612 -142.50715584342962 -12.345065943521858 -0.36322200981069486
-12301.26464144368 -1109.2138846828823 -2146.286661372039 -146.7129143253206 -162.71559662015144 -2.6552729392952603
-13160.61213811506 -53.73944798868101 -2126.3540456235664 -355.64305000715063 -242.7459671700299 -57.51268429623566
-17003.098949244733 -6963.58545642279 -5655.33166697338 0.30109456089661535 14.814401514416147 530.5469603266359
-13155.989327628595 -53.09775269547722 -2120.2566504097686 356.2460101906187 273.3970846991523 -57.30611229308363
-12292.151634987475 -1107.9390200593496 -2134.192543140239 147.30877775281036 196.31311301986887 -2.2776164661502953
-10969.649123056843 -827.4937688301325 -1761.2342255583153 143.05409659486077 50.384527168433245 0.09588814564295234
-9495.420272524425 -756.9711806045061 -1464.9989453094574 136.71407722754847 -90.69127517664332 -0.3655032867049677
-7931.374530586058 -619.919058382427 -1158.8013623297809 134.60613737110816 -219.13201751906675 1.145282551696134
-6356.418807934394 -493.03141232795593 -875.0718132728435 130.65629264240022 -323.7620117692911 2.549039310296462
-4722.133746987907 -345.9496390322883 -579.1172701063829 132.1036200279406 -395.1950350191252 4.102410917628715
-2935.3508447061286 -178.09306240527732 -221.8958880586675 144.81799265723282 -415.67544944381365 13.250543459676685
-1301.0465980152528 -184.0511452571736 107.51708314214544 149.30346248671538 -318.8534469589682 32.717657185003105
-603.4743587703596 -275.51021501901334 259.95709655144424 91.61731003798624 -224.90595720911958 123.076426809391
-1468.0916709017274 -8143.524244005957 -2883.4847744723043 -1489.9432197196336 -614.2537812092182 774.0325028898784
3244.5250944777054 2087.135283510411 1343.1628116896886 -661.8618461196836 -639.3653954500528 26.32265699825992
3209.4631935166644 93.13691691467162 314.7126651944535 -312.0196128946799 -624.6155978702225 217.12820569646962
4642.350771095587 431.63795189373167 571.7056329894375 -321.7613387684462 -555.771533110906 235.59235609581518
6267.869145162373 481.58638625438834 767.6766804829539 -303.2512674268457 -496.65847386799027 323.57006207146617
7964.830699981943 633.0530635889413 1027.0752351561712 -275.14596078447244 -390.0966734984689 399.0028721587572
9617.29744135812 766.577091048353 1285.2457570637187 -229.83230323842776 -243.30780559883027 476.51347372851103
11176.752811572513 891.2951024805539 1547.556236952136 -167.5348890318055 -59.30319422184669 552.6775792203763
12489.881567168732 991.0691838941569 1788.0021028086687 -87.19727860051951 120.06174060552004 631.1924775030524
13346.37825624452 1090.6680084419606 1973.6713377046713 -16.20172812931665 170.93499005731647 715.553809500468
13660.46594059273 1202.7977071163452 2073.6834691654794 -1.9844276762171944 -4.108970493061442 773.0952559806676
13356.077000393792 1090.7826801777858 1974.389344802023 12.129839614173235 -179.0807592637235 715.7534186244604
12511.198047314823 991.3872191251921 1789.6895557794026 82.81641855845197 -127.96909690217703 631.5881463655714
11213.769171749596 892.0052925521511 1550.7147957201428 162.63183628604452 51.89176565777155 553.2794567843699
9676.845817730593 768.0971881583283 1290.7301343494382 224.21069986047297 236.7730259382529 477.24020799739594
8056.648392972512 635.6014128217156 1035.462715409539 268.5289481027359 385.2776877622103 400.1451039772989
6406.422965769979 486.76071998125536 780.8468633894306 295.6671361073816 493.57611594970643 323.67944107617933
4843.405926266695 437.65809886959113 583.8914246472037 311.02417224605006 559.3269091168476 241.62343001005746
3552.3462156068276 128.95929992591857 368.47848361608857 299.0185924108816 614.8353887689566 197.1015617026804
3987.8574977890794 2218.3945066582796 1422.5277885596583 686.730571977436 822.1320776401784 144.80308821120218
-61.39013468323844 -7766.368644580425 -1772.361010330106 895.5907635130055 1076.870925750224 300.2140892090686
-1627.7436187601095 -7063.533977428604 -2129.6787161767797 -956.3324198718348 -507.50611822056356 444.9455694582221
1551.1548262382296 1131.1555224107944 637.0520631560291 -792.4045032464704 -424.9502517044588 133.45898891978825
1600.3449485601548 -108.12689709455822 10.449611049720993 -659.3001981340906 -385.5651689894063 233.95301732398903
2896.117625366239 20.112318588358693 198.8856431877281 -667.754291433848 -340.9055190212516 303.3846126190844
3918.0090668319936 -24.31989589337724 273.3530634927558 -652.7338282181604 -295.8373347372397 402.5029503364502
4999.516646248627 -22.98158211511634 381.4774463025897 -599.5458976146704 -233.1243561433305 501.3419208755007
6053.14331879408 -22.95637825343306 496.9296968953361 -520.9291799739319 -145.87095460212632 600.7481500060952
7044.482088306768 -31.945368718628924 616.7784627720858 -406.2561258962991 -38.176436365652044 703.3438095676013
7884.075812241517 -41.80202838147615 732.7464409857749 -239.97424178395266 67.89095992587244 820.1293681532266
8463.999586533826 38.30681494376676 850.9077153566905 -63.160912421051016 101.24875245156419 966.6307358484855
8736.385557615822 255.37482408043806 967.6717791313879 -3.5381643035310617 -0.9842730521574978 1080.2582696157751
8474.513206450838 38.76928892692161 852.3760779758592 55.85925962739957 -103.02131677425166 966.6516820005595
7906.829092420387 -40.8376857442915 735.8549340366744 231.98530042422058 -69.06916098460822 820.144504919386
7083.064025504008 -30.39819621943611 621.8541295222454 397.0803731796105 37.99689399142728 703.2963524109557
6113.226485112716 -20.743021601683775 504.31806040328826 510.01004891994086 147.14217968212446 600.5207252434933
5089.251616201105 -20.100372568040825 391.5372086508017 586.262185653489 236.14546829928886 500.8442665171229
4047.4639787706287 -21.253221579109333 284.89149665796015 636.437184754198 301.37275135685314 401.2076676646699
3083.757150526584 26.84774440027048 215.2552014989044 645.7542428979607 346.5477403754811 303.1204816700111
1863.2883605505742 -102.62045562820303 16.97600337740246 625.3448428732203 401.51702375688217 224.84349378606723
1809.9721019464494 1186.7866823199001 663.6817989374958 747.4033911979301 485.9545481907583 191.42681518884334
-1508.995838709465 -7294.554226934646 -2047.5417404013385 598.4447939766465 600.9093576348993 180.72153785452
-1297.1239322689687 -4922.760451626426 -1343.614955020608 -1122.793764413317 -309.0334403871728 147.3656297125088
532.2939050797221 345.2307681555034 288.2890390169398 -1287.124980302618 -241.85097425920503 207.41252203491447
562.1264724675024 158.38640032821095 27.381677879784014 -1122.6745441772923 -190.5864202784878 267.10709645363306
1241.1476452636261 -26.294259869529704 36.84372130444389 -1141.8049833696793 -154.55836992928968 386.9395640037289
1861.4172975440467 -17.603951147271005 105.18705069858653 -1103.025969141585 -126.40679187927688 510.6637593042343
2414.2411256425567 -22.359508771147283 155.56883455427464 -1018.1458895506947 -95.66137632405685 640.6306908059909
2964.6398765116214 -18.87043193478992 216.2743483318861 -891.933249692786 -54.40652462239467 771.7836099724115
3493.7114499495897 -29.427667408529437 280.72228878999744 -708.5131493652505 0.5291000759985405 910.1275634852338
3944.609721845536 -45.321305930887576 339.6901665434756 -425.5058285441692 70.36076308994204 1073.0323273578904
4251.199251980202 133.99571618527614 432.70263762546494 -91.8369457706256 107.54820371834015 1295.450686480827
4532.872638772225 715.0994315757878 657.3085064970717 -5.654027963887295 1.5127684242088382 1504.8656955915399
4262.053627859737 134.5386706878452 434.7472723370417 80.15376635906061 -104.22396556028437 1295.3339652158281
3967.8539985556145 -44.198977543688024 343.92582848448825 412.6751381672659 -66.15537252768944 1072.7639256433736
3532.426404211191 -27.657098130710985 287.3860029633866 693.6888127506364 5.089167070771937 909.6231744380736
3023.505322144633 -16.36446512935069 225.6032371593743 874.1362923966045 61.829574559804755 770.9067055867487
2499.396490561399 -19.35234467421855 167.38825593470312 996.2232862719444 105.03913509682951 639.0760436347923
1980.350780661341 -14.404998440288416 118.78454425994848 1075.539112622579 137.2607122760587 508.3851642883639
1400.5675160667233 -23.548260130675118 49.10310143320291 1105.0835749799426 165.7460522030079 382.4030925438802
721.617597552713 160.4851666499231 20.049281942939093 1069.312302657718 206.10455430800147 268.10987725873343
682.4724932958252 457.2783945407712 318.16541141840776 1215.991084976143 264.83521349835286 210.59744550493963
-1290.9382602178193 -5107.444189200424 -1372.6768066695947 1061.2943657857775 339.1050098090575 140.84448984517223
-948.9940601167816 -2974.7337354195915 -710.6211998056785 -1038.3014119506124 -139.4080236202894 51.9676187131699
-166.02638393676614 -69.04313810195202 110.91548517506767 -1361.1704439657426 -78.98502392366656 180.12559433073528
-384.3013348794571 201.58317395379035 12.373704337922364 -1366.6320527596672 -12.458644431519485 276.17466652999303
-303.04753840190153 15.296264577893966 -48.02610418871701 -1304.681864168155 20.708777478247914 406.88059300450755
-183.41650575591729 -13.191582736153615 -31.326749622784035 -1251.0456633898602 30.51909768320621 542.0284643482615
-121.34174951200606 -5.366197527876809 -16.580625488633675 -1154.0847128014032 33.19441408959706 679.8128089283128
-63.21015197945975 2.018740270145944 -1.0919251043244067 -1013.169760758273 35.62169154861551 820.6466264839415
28.362376475137864 0.4063249329912928 23.176459048554605 -815.0618810597367 44.88533689581889 967.341626853103
111.7879485688201 -43.41507075507285 28.383723821898847 -490.937442492063 86.8938976744477 1135.593534754648
114.5015659854541 213.5155347667726 79.18567845803994 -30.414007774903965 141.25523422122993 1377.0407959085383
516.0369510440969 1514.5191318320003 538.5553929058236 -6.348175287120846 3.7567902628357785 1688.1853492199887
125.55185653349997 214.15521775653062 81.79377106954868 17.28498731357633 -133.34685276618174 1376.8814675500907
135.21449589789276 -42.112820772993956 33.72691822918861 476.4849973339795 -77.8340002110396 1135.2350760154009
66.71124176835319 2.4114837099706357 31.43901719753535 798.3123580017777 -34.03835286696734 966.6933055609092
-6.407810391662878 4.729436525855537 10.166292525197711 992.9796502837037 -22.628947454194986 819.5309378254397
-42.07836097262552 -2.283474201698981 -2.716449956585393 1129.0208754280443 -18.25579983571678 677.957436118797
-78.01699702221553 -10.689201705516144 -16.288984050484615 1219.1323646339983 -14.81920071399563 538.9579939560887
-181.10113972588545 13.744930827913233 -39.21341526119359 1262.962051862873 -6.097510907114046 402.6242131243681
-276.95508932376015 222.0591834367887 11.8587463858573 1313.9899146630576 24.52919191904711 273.83462911863313
-79.72926876420456 10.652910053724767 125.27873888275809 1330.1668992733673 89.11437798053515 185.1710968199486
-966.8424653214968 -3117.5524902887655 -756.586343378015 1028.386531024783 151.99883059909385 81.45194806774646
-745.1553929311988 -1488.9785094100434 -262.38982999070805 -789.1146118158888 2.046592084508908 41.0335946869456
-700.1417377349845 -198.1610366093432 36.030863111274044 -1144.676288039309 73.99931224126914 139.7622861352794
-1290.7275033146743 161.60770524812298 -24.103280823266005 -1257.5034096721322 167.87694435835513 255.3223688430619
-1795.5869899255154 37.33898455300806 -125.95499350710799 -1171.9953000654868 199.13453656364698 383.32263081976714
-2219.653210321444 3.8989835694415476 -161.53147796575635 -1104.0599943213142 189.6060939088632 511.85453541943264
-2659.2514657502197 11.888731522924443 -189.53962338604524 -1017.486999500376 162.74551610263305 640.742197054686
-3096.3737318450685 15.916416882482192 -222.35980862184695 -893.4393575207173 128.08281556491949 773.1735713701846
-3447.9635972963983 45.70565080301763 -232.11974419157838 -716.9583950367169 86.88512759052405 906.1678160571388
-3702.557705264231 -30.057095421607507 -271.43631658380366 -455.7099765500212 77.33848323935909 1048.1057754506828
-4101.497128823051 76.55297863486945 -367.2674225732375 117.14440613509984 158.08462915644623 1244.6041656313485
-3353.548379200322 2740.7528070860417 552.6757151742322 -5.714008808590691 6.0505809804785615 1650.4214527674317
-4090.197515217676 77.30451462335577 -364.07653307994326 -128.96809326919134 -145.48206856246824 1244.4982594077449
-3678.84552040328 -28.546067756016036 -264.943120135224 442.67845926370006 -63.28434878380351 1047.8609185182186
-3409.840629921475 47.97260104708107 -222.19767294305677 701.8388301421644 -70.61840933384524 905.7055989014741
-3041.54178114959 18.84310099516863 -209.10095527294524 875.2036520545317 -109.27120949987184 772.344270406001
-2586.053181441496 15.084303069567323 -173.63071248750907 994.7654113849464 -141.92170250176528 639.2841291537779
-2130.3152556449736 5.438947812816416 -145.6785419358091 1074.955155786582 -168.7393695237229 509.41870284886085
-1704.1184914493867 37.5713537631563 -116.09646133874082 1134.79353642617 -181.91202298928135 380.01963261644084
-1219.1654738175357 181.26694387291295 -21.0251150696285 1221.4475835947298 -158.2455532572131 253.1003692860826
-652.7756702215341 -153.84378144032496 40.58407486565565 1136.1366015839346 -70.07129772699126 145.9587738521957
-759.8278358067603 -1574.6762027334087 -296.19277475819223 794.7558712710256 2.2161188122322812 68.60771568225384
-693.925421888417 -595.8526393573793 4.4770647227092795 -436.91053519275766 126.35408536435716 60.13128176160617
-1122.9227045096072 -185.21291257411403 21.10919065208141 -659.501094730914 230.44939066591073 100.33137068544147
-2181.094784639216 92.97671554846212 -83.9602978605541 -755.4644007068084 367.5058252979659 200.6095726688518
-3284.6489005109006 39.75887817398451 -231.30469869776414 -702.5100407075355 396.9418480137094 302.7039651955482
-4285.677140550256 13.481992424860458 -331.47136736270437 -653.961264050369 364.3104903508669 402.16706587720375
-5248.602161178671 14.48877607162968 -417.10271581028803 -599.5528811026114 303.3175929117652 501.24407574558404
-6177.845037406109 22.749062932148387 -500.73972744799585 -522.4977269655877 223.7314385458613 601.4455932439437
-7071.441804572324 13.420789226895932 -598.2041973305538 -418.6453356271431 132.48284878501946 703.1533709195681
-7580.653476216111 147.59109468378693 -582.9746733199266 -242.9137863368178 1.3798348471755535 788.0459201104188
-8557.970430116606 -516.3467861899264 -1073.5487791135886 123.4786392982679 61.72621249722917 900.4641026881554
-7083.788528887719 4375.514674226147 595.9168082884936 -3.6151973105948656 8.70164521155409 1196.7027532400873
-8546.15462060733 -515.482555674885 -1069.7221416880177 -130.95740499654028 -43.68586939121257 900.4975514412808
-7556.115873036113 149.3178180650458 -575.2304542801941 234.68003164720625 18.49888504727697 788.0953547143067
-7032.721702219767 15.970171995293693 -586.4887823980398 409.1187024188753 -109.82486239313647 703.1748913792286
-6123.822826494995 25.96422093295895 -485.3381598491948 511.0640667111292 -197.939074560994 601.3472460960699
-5180.537443878731 17.73048719130032 -399.3197577637409 585.4240371739276 -275.21178099713137 500.85643093947454
-4211.129318780536 15.398146850322604 -314.7399337821377 636.0003749641289 -336.859603105646 401.279858431348
-3219.909599782041 41.95290210057398 -220.67370710082804 680.7583486522312 -376.104289967771 301.3422358837561
-2140.98254865788 106.68188399459773 -80.63860126243105 737.9244925950032 -359.562461843318 200.0270614886934
-1105.3539269531614 -164.7846206677218 19.879447616490072 659.3316389200777 -231.9896999662474 104.72766004287958
-705.3938120333218 -632.9769109498164 -14.446992612510826 442.6702216941824 -129.39414771118683 78.00922321830335
-606.1417079851913 -257.29939473586035 187.77828172006798 -215.42583904759456 252.95865880130924 72.57388429371697
-1361.0037308175347 -166.73705706246878 58.73245949029987 -308.9229324532396 409.2210297865913 83.9129731749571
-3116.9531940247625 -131.37601009834364 -246.0099267892121 -347.31793318148016 607.210505457172 166.59871240498882
-5007.1585090657 -340.50339482270454 -587.5476619224917 -333.94502973934596 633.9530988315845 247.94466569797703
-6658.214950759628 -505.7265410719485 -840.8665192766651 -310.52793106164694 571.4350951782667 325.07702613899767
-8218.97535610732 -641.5169280842189 -1065.8593461920136 -278.5959116908892 466.5148999634778 401.3980165340643
-9733.904925091207 -758.87819170588 -1284.7338967803225 -236.72689594603486 329.35226394269694 478.8084205556264
-11203.070223629182 -933.4861141121332 -1534.9613024164323 -173.52205564983734 166.48821931700274 549.6048737144001
-12512.630166188283 -870.3116331139915 -1714.9578281048052 -84.9143796157947 -67.42171372303247 633.4392847965357
-13671.65692696684 -2066.6816277054286 -2410.7411914081777 235.99255574795447 -489.558701778539 568.8722712492599
-11058.115742593205 4371.190260387969 -263.5107609529482 -2.335988900609209 12.099572084165231 1173.177573829797
-13658.624450921056 -2065.3330199874526 -2406.005535952288 -240.8183708880137 514.5840041897768 568.9405372584984
-12485.882618274962 -867.6709690843392 -1705.4573434670713 79.63071900456373 94.8307120294443 633.5563531916766
-11161.708194176994 -929.7300969509006 -1520.8105149563992 167.48638525804415 -135.47774196609183 549.7264848845011
-9678.054425278437 -754.4924955387471 -1266.6334478306746 229.67467282358055 -294.28095585862224 478.8543713026145
-8152.955248066415 -637.8988817611065 -1046.173384195448 270.3320403982078 -428.46074857593135 401.2494089668271
-6596.28169038748 -505.62322163186246 -825.2642099896798 300.96335138249077 -534.5005890528156 324.6532108221469
-4973.96127328458 -345.0187294534233 -584.0370866631243 323.77554976645274 -606.975501676161 247.41566715671684
-3123.587115185931 -133.03899581739358 -255.81875128833812 340.00206478980033 -600.6174780935477 166.9397170053976
-1382.8225380914716 -165.1921390067598 45.54125115967727 309.36251290985257 -419.03257651859235 86.93346358267357
-632.8794777072494 -279.8873867098629 171.8557300080597 217.17256055070953 -266.7728475625205 84.50106406139693
SCALARS Strain float 6
LOOKUP_TABLE default
0.00914646261867557 -0.03399109000891312 -2.422514229147299e-18 -0.019256431204961656 0.007938782849884363 -0.010003806483988494
0.011012651077094066 0.003533440803608758 -0.0012742104317714532 -0.008554082422847371 0.008263332178833262 -0.00034020117470108817
0.015345625818094259 -0.004792498159576894 -0.003360645557100516 -0.0040326262979194704 0.008072701785285338 -0.002806223955564916
0.021580291457853295 -0.005629907109663069 -0.00472477071610999 -0.004158531011347017 0.007182942377461638 -0.0030448596547026662
0.02929380772105889 -0.008097937952009264 -0.006249183584637148 -0.003919301817473744 0.006418949130249512 -0.004181907443003334
0.03711648166700539 -0.010262461971629257 -0.007716237142566127 -0.003556061194146375 0.005041715454014763 -0.0051568215865792025
0.04474656602431849 -0.012447991889906225 -0.009096284471462992 -0.002970415165742583 0.003144576221486765 -0.006158589672100339
0.05192126091056886 -0.014544764828971787 -0.010303916177454181 -0.002165266449309516 0.0007664506033762038 -0.007142955276284955
0.05794130109468656 -0.016365587471411445 -0.011215698628385565 -0.0011269613327473883 -0.0015517105737051166 -0.008157703165547306
0.061773428578906546 -0.017424636867065676 -0.011718549333506745 -0.00020939553869184544 -0.0022092102792502233 -0.009248011953463114
0.06301835973692421 -0.01748478566307851 -0.011857003495872081 -2.5647282751702647e-05 5.3105451656150814e-05 -0.009991693250096217
0.061820398069529825 -0.01743960095503145 -0.011729614586378716 0.00015676934459493501 0.002314488414888168 -0.009250591756040243
0.05804427191843287 -0.016398311452872173 -0.011239573246268508 0.0010703419066291318 0.0016539073960894458 -0.008162816897496568
0.05209949524638191 -0.014601145899158584 -0.010344475556386458 0.0021018980627492264 -0.0006706632858469496 -0.007150734105549123
0.04503212798002606 -0.012537416562153902 -0.009160091426385972 0.0028977600354647506 -0.0030601189526948775 -0.006167982183364569
0.03755658764183556 -0.010399226629940706 -0.007815268542533175 0.003470541123434375 -0.004979433572313748 -0.00517158410111979
0.029955184792939737 -0.008298477253697546 -0.006398052622101628 0.0038212824425782055 -0.006379111898569164 -0.004183321087002736
0.02255256143146231 -0.005917979868716575 -0.004973000241187439 0.0040197609523744135 -0.007228893023479889 -0.003122806893487329
0.01691645455186632 -0.005205937012041489 -0.0036581314910173407 0.003864597574933318 -0.007946299704201675 -0.0025473941644564148
0.014393566741026584 0.0029590563827859447 -0.0021839425256384134 0.00887549259629742 -0.010625458463679812 -0.0018714744759915662
0.013919583747958411 -0.035871034661766596 0.002863057390359815 0.011574858489243887 -0.013917772586055699 -0.0038800485005511067
0.005618181911941408 -0.02950863423100769 0.0023746090882751864 -0.012359900168398994 0.006559147034689572 -0.005750597495771111
0.005073733843569979 0.002359641254987074 -0.0008333224584047943 -0.010241251210895816 0.00549217257347117 -0.0017248602529027278
0.008100775192192055 -0.0029396020938644166 -0.0021733445810357727 -0.008520974987927341 0.004983149057847646 -0.0030236723947758546
0.014069651818015384 -0.004515485387675386 -0.0033602278648393897 -0.008630237987939458 0.0044059556011820005 -0.003921025206979738
0.019104554831769843 -0.006371310775869518 -0.004447707651915746 -0.008436109438113244 0.0038234821359574025 -0.005202057548422313
0.024317354933381906 -0.008138711287938319 -0.005525042071298063 -0.0077486941641399 0.003012962552418914 -0.00647947927251327
0.029382592985223287 -0.009881989134704856 -0.006522414652975153 -0.006732630333813445 0.0018852758715226703 -0.0077642324008440665
0.034145091902585814 -0.01158374416923243 -0.007391602594067003 -0.005250564609643089 0.0004934026416519555 -0.009090206595116073
0.038160366544574296 -0.013057733365318742 -0.00805249587782017 -0.0031014923365328853 -0.0008774412218721219 -0.010599574901802336
0.040747421713099044 -0.013700550216672505 -0.008449412747614725 -0.0008163088020770843 -0.0013085664006090676 -0.012492998403500365
0.0416035868664392 -0.013201857252363032 -0.008598897511781906 -4.5728197290073337e-05 1.2721012495028662e-05 -0.01396155153894369
0.04079680420722414 -0.01371611959374018 -0.008458481935594517 0.0007219402564436289 0.00133147550378577 -0.012493269117268127
0.03826739656291875 -0.013091506422956556 -0.008072413144060087 0.0029982410866232156 0.0008926686126555151 -0.0105997705334789
0.034327001453426556 -0.011641158301711979 -0.007426215117109895 0.005131974687135738 -0.000491082187189367 -0.009089593245924206
0.029666940139987573 -0.009971604555840737 -0.006578588476396014 0.00659150851572582 -0.0019017055300189945 -0.007761293101405604
0.02474411776189196 -0.008273209264596812 -0.005613151264009168 0.007577011859619194 -0.003052008227178944 -0.00647304745230872
0.01972627881631948 -0.00656632476190116 -0.004587975980739169 0.008225487187808236 -0.003895023365113934 -0.005185316963064324
0.014967928627005586 -0.004786235457634088 -0.0035687208611046746 0.008345903380067908 -0.004478877203776566 -0.003917611506789894
0.009389889596790546 -0.0033140803842925228 -0.002541231810361319 0.008082126745972732 -0.005189315165309585 -0.0029059384361975063
0.006237609295892963 0.0022105004094411986 -0.0011698744486153259 0.009659644605482902 -0.006280608684992162 -0.0024740521978651067
0.006430486127815155 -0.030956578563576226 0.002950329310665428 0.007734463201397801 -0.007766315892099637 -0.0023356942834305925
0.002896969020758267 -0.02053238697225419 0.0025965377125800717 -0.014511291836784733 0.003994032192643493 -0.0019045934589569803
0.001701221718620342 0.0004923943017612525 0.00012442910843032145 -0.016635153143495156 0.003125747737216174 -0.002680655818761744
0.002517230845522391 -9.179237792161134e-05 -0.0009383627008384295 -0.014509751002032781 0.0024631907055778003 -0.003452164726206277
0.0061538562824884615 -0.002036525582109403 -0.0016285193659036532 -0.014756997998671676 0.0019975543888361208 -0.005000912112648192
0.0091222610898017 -0.0030202296201598177 -0.002226737476198992 -0.014255807476931353 0.0016337157412654587 -0.006599957246465868
0.011802237901815954 -0.0039434065861799995 -0.002793609447179139 -0.013158794254110755 0.0012363536326506122 -0.00827968520000049
0.014442469662271884 -0.004837379476564057 -0.0033178419450581864 -0.011527587786343978 0.0007031647143466316 -0.009974741180527269
0.016992052509995238 -0.005774951339662737 -0.0037707201663836096 -0.009157016547921523 -6.838233213646868e-06 -0.011762736043813601
0.019169175928100277 -0.006614300694107985 -0.0041263042273198295 -0.005499352999587291 -0.0009093616293740063 -0.013868161496888678
0.02028707912491817 -0.006318849743257423 -0.004388565015980218 -0.0011869256524949655 -0.0013899822212598333 -0.016742756833417118
0.020485717784083476 -0.00418525160137172 -0.004558704414366153 -7.307419442017389e-05 -1.9551430355346482e-05 -0.01944929333953088
0.02033717608362645 -0.006335386591043967 -0.004395397802138216 0.0010359290657622792 0.0013470188636220911 -0.016741248296061932
0.01927673012577878 -0.006649701533337526 -0.004141586281968558 0.005333525669167872 0.0008550100185385923 -0.013864692600165505
0.017171921933729465 -0.005833821553275742 -0.003797970212585885 0.008965422791548352 -6.577377867630868e-05 -0.0117562171826364
0.01471743349082522 -0.004926618260750513 -0.003362990079725244 0.011297575072187387 -0.0007991022296479042 -0.009963407829885165
0.012203424147559991 -0.004073073179963003 -0.002866330036597561 0.012875460569741487 -0.0013575543363180723 -0.008259592517343465
0.00968841651904318 -0.0032019664573674713 -0.002341277529012081 0.013900559871098693 -0.0017739947590501067 -0.006570508065060824
0.006923935384493573 -0.0022788943304243546 -0.0018094113570696526 0.014282400534130562 -0.0021421470358546483 -0.004942281522281861
0.0033178458120743494 -0.00030826822685520107 -0.00121578400220299 0.013820082886423455 -0.0026637512883073713 -0.0034651249379335516
0.0022360946405128846 0.0007808597654400497 -0.00011810724005209601 0.015715799342951885 -0.003422802293302544 -0.002721818635506618
0.003246467919760272 -0.021416312141775678 0.002718262322492013 0.013716456890655142 -0.004382685330672211 -0.0018203124745992147
0.0007785005754407391 -0.01231210454959912 0.0023188983989676937 -0.013419289704741648 0.0018017471945890762 -0.0006716436313627781
-0.0008877388454998545 -0.00026101992872758597 0.0009018971552917931 -0.01759213684472813 0.0010208239208440069 -0.0023279921473081085
-0.002229379222958895 0.0015566861079118885 0.00033398879747173363 -0.017662724161498427 0.00016101890744862524 -0.0035693564668439924
-0.001457602294164933 0.0005995786307374369 0.0001903808768452657 -0.016862063083324778 -0.0002676458696982619 -0.005258635392315544
-0.0008453517970696838 0.00025466479287397404 0.00013747287947348514 -0.016168854243761056 -0.00039443711490950214 -0.007005323220781453
-0.0005704460556906472 0.00017900372491005522 0.00010653456713819736 -0.014915704560051419 -0.0004290136314185289 -0.008786085546065022
-0.0003155918118865748 0.00010592615591382645 8.582461344939788e-05 -0.013094481412863427 -0.0004603844251442774 -0.010606260089071074
0.00010581768092072109 -7.483812399004507e-05 7.230557763854533e-05 -0.0105340813210433 -0.000580110295879704 -0.012502186152112424
0.0005780994617059245 -0.00042484354471701243 3.913002490035871e-05 -0.0063450089654865 -0.0011230403551894003 -0.014676719548222663
0.00013267859642145487 0.0007725203209294675 -9.553746898287652e-05 -0.00039307890433874294 -0.001825621046561195 -0.01779724958748491
-0.0004965177482324299 0.005955809820148859 -0.00035100051614489486 -8.204554312345068e-05 -4.855377862801388e-05 -0.021818566377493354
0.00018276491125880862 0.0007553318746819213 -0.00010000578469305672 0.0002233958748269437 0.0017234109747676582 -0.017795190384480915
0.0006846397721349146 -0.0004612734509213197 2.8813250823516528e-05 0.006158221635407868 0.0010059477774862872 -0.014672086730020203
0.0002811331926815739 -0.00013438058370113156 5.319928322494321e-05 0.01031760593172986 0.0004399209256034328 -0.012493807071483244
-5.406585342355969e-05 1.79045499455946e-05 5.303825241868413e-05 0.012833538936447727 0.00029246266845500387 -0.010591840625568954
-0.00020171002395582036 5.544994336316278e-05 5.265199519742704e-05 0.014591772712313104 0.0002359429198176193 -0.008762106203511073
-0.00034758109848199634 8.750026621992802e-05 5.131371156199374e-05 0.015756398095154733 0.00019152737854943573 -0.006965639626751332
-0.0008622507216627191 0.00039687107019102305 5.46470395430992e-05 0.01632286488778842 7.88058885413055e-05 -0.005203624781665231
-0.0017255417451929234 0.0014991563125707791 0.0001408125174158602 0.016982362858291286 -0.0003170219444926976 -0.0035391131872125068
-0.0005990338532415957 -1.4971928767315839e-05 0.0007257557573410845 0.01719143860502161 -0.0011517384462919097 -0.0023932015930844697
0.0009713046855036802 -0.012926875825392203 0.002330008324007753 0.013291147088382884 -0.0019644742067376894 -0.0010527071191221114
-0.0010923241189215625 -0.0058990101997671894 0.002027372567418379 -0.010198731759693973 -2.6450712457688246e-05 -0.0005303293324932736
-0.0032385376220490166 5.3298990113537975e-06 0.0015187097869153216 -0.014794107520747314 -0.0009563872277245125 -0.001806325779641394
-0.006621098653292083 0.0027640888692251945 0.0015639992349677735 -0.016252315912192276 -0.002169687265338573 -0.0032998557029504474
-0.008793486600651329 0.0030511301820088208 0.001995902300482649 -0.015147185858722061 -0.002573668884209444 -0.004954165884932391
-0.010798544587826303 0.0035703519195069092 0.002501317791365828 -0.014269171499449531 -0.002450520701085773 -0.00661534716068456
-0.012953879354129056 0.004307391668268828 0.0030057342602304708 -0.013150278579984187 -0.0021033672916184066 -0.008281126337064829
-0.015083821803252814 0.005028220167583909 0.003488446811302161 -0.011547053133345999 -0.0016553771269956171 -0.009992705419488955
-0.016861399583227306 0.005715165965661059 0.0039198205005392265 -0.009266165198775697 -0.0011229270082393852 -0.011711559191618592
-0.017955341330212784 0.005776856785431004 0.004217031449461649 -0.005889719619257624 -0.000999543581442615 -0.01354600396389256
-0.019954493120097828 0.007044634564632184 0.00417660680690249 0.0015140061500140036 -0.002043128721683324 -0.016085602575605523
-0.021581430982255654 0.017800771635271197 0.003661120058686834 -7.384940316438654e-05 -7.81993534188155e-05 -0.021330495513830136
-0.019904203356872773 0.007026761216582976 0.004174496892758231 -0.0016668186967522852 0.0018802498026089323 -0.016084233814780868
-0.017849407448411393 0.005739323771810515 0.004211693887695006 0.005721296747262813 0.0008179041271890804 -0.013542839366334682
-0.01669007215025878 0.005654786942248333 0.003908909909600252 0.009070755831867427 0.0009126915194670719 -0.011705585371421382
-0.014835395976041573 0.00494122710702482 0.0034682216327418143 0.011311369918565264 0.0014122508163648196 -0.00998198730840057
-0.012618509712744657 0.0041903942648336264 0.002970892183737803 0.012856618598388946 0.0018342346637862618 -0.008262281871160371
-0.01038039426441314 0.0034211396950464823 0.002444597936041743 0.013893012654205677 0.0021808334826272325 -0.006583865798381691
-0.008353856418446196 0.002901180095866535 0.0019081577877988704 0.014666380152353638 0.00235108043693318 -0.0049114770382436964
-0.006299280266989138 0.002750504366180804 0.0014432655852822545 0.015786320614426214 0.002045208548508491 -0.003271137976637747
-0.0030759655555743365 0.00014820012572402827 0.001404619360259701 0.014683738291575476 0.0009056205003360936 -0.001886410871387421
-0.0009870522037912098 -0.006252713106978552 0.0020090205790675355 0.010271640930471046 -2.8641721966690735e-05 -0.0008867047681328866
-0.0025675196868206324 -0.0019337600358247597 0.0019456521101459377 -0.0056467505286201345 -0.0016330345479316285 -0.0007771530318513932
-0.005337185369139656 0.0007224227620456016 0.002055704236871307 -0.008523571430146743 -0.0029783905714019163 -0.0012967099092842432
-0.01085539273293048 0.003839966398375453 0.002696575368035364 -0.009763827283695655 -0.004749745190644039 -0.002592732651810709
-0.016041930087659136 0.005440844839451343 0.0036891951621117794 -0.009079430739709515 -0.005130184350257057 -0.0039122283346471175
-0.020829354640501615 0.0069523960285134264 0.004723260530702899 -0.008451973152482365 -0.004708447813169168 -0.005197716486367902
-0.0254897359745699 0.008521073033553223 0.0057320701500746495 -0.007748784420644723 -0.0039201590260731735 -0.006478214695452852
-0.029996478573629023 0.010072603301973671 0.006689747584720157 -0.006752902661537718 -0.0028915659319726193 -0.007773246346854419
-0.034279179344255645 0.011504165727924185 0.007551761931301809 -0.0054106861241538 -0.0017122443524564684 -0.009087745314253208
-0.037033200603354306 0.01290776625484084 0.008186750961781003 -0.0031394838094316894 -1.7833360669106048e-05 -0.010184919697589015
-0.04016963981932061 0.011796425203958447 0.008195710189496878 0.0015958715013280086 -0.0007977663502515794 -0.011637842849491778
-0.042626326237925 0.03142524863590517 0.007000973494349403 -4.6723792807352055e-05 -0.00011246242821814998 -0.015466511700127335
-0.04011790023530527 0.01177739419595392 0.00819582265759412 -0.0016925291022757726 0.0005646080517569182 -0.011638275150273136
-0.03692535093273524 0.0128682089196535 0.008186079501479053 0.003033068525494535 -0.00023908461919255227 -0.010185558603848597
-0.03410797915514138 0.01144162581064274 0.007548454159759896 0.005287561326774893 0.0014194063768584553 -0.009088023450513731
-0.029755703399511543 0.009985056394370568 0.006680950912351421 0.006605130928199993 0.002558218408298376 -0.007771975281587078
-0.02518274814862536 0.00840916578265068 0.005714130413329987 0.0075661794008286135 0.0035569118724586655 -0.0064732046686088495
-0.020486595269376275 0.0068257996930289845 0.004692402542840607 0.008219841739342329 0.004353665084028825 -0.0051862499761635575
-0.015739244654786603 0.0053393541923560444 0.0036422253468801034 0.008798305958516358 0.00486087408549751 -0.003894628974839714
-0.010681391389732925 0.0038433216818795552 0.002632831245109876 0.009537136743158233 0.004647083002012965 -0.002585204118972378
-0.005278483262334134 0.0007996034392692719 0.001992927748489964 0.008521381337208938 0.002998297947538459 -0.001353528748054745
-0.0025409448560619573 -0.002072976998189509 0.001924047406143979 0.005721190282723218 0.0016723251401364835 -0.0010082124072732942
-0.002909379723578293 -0.0006551132799072087 0.002221039161341552 -0.0027842221062077377 -0.003269306471802274 -0.0009379646094312222
-0.006604314601851293 0.0011131989714561643 0.0025702136337577577 -0.003992603958073906 -0.005288883833508182 -0.0010845140766050584
-0.01493119956731601 0.0043620060018155936 0.0036212260508430697 -0.0044888313849595725 -0.00784775363945733 -0.0021531670480898412
-0.02350598557596492 0.006650574074891026 0.005054140442062562 -0.004315996345526554 -0.008193382186073494 -0.00320450426191359
-0.03108902291960282 0.008669193444350848 0.006503473352191 -0.004013347396407485 -0.007385382511692892 -0.004201383856273687
-0.03830934355920928 0.01065722274850154 0.007915064365067344 -0.003600649297520533 -0.006029365386735542 -0.005187777083599419
-0.045338451503466985 0.012659391154231824 0.009261240112513383 -0.0030595227561507864 -0.0042566381918621565 -0.006188250188767791
-0.05200794593516982 0.01435550244637858 0.010468688025628866 -0.0022426462182667233 -0.002151739005392349 -0.007103242795031824
-0.05834339083347854 0.0168908539783756 0.01143263546002696 -0.0010974565256686962 0.0008713765563797511 -0.008186741513803338
-0.06128306991836983 0.013709857840746985 0.01148649817472277 0.0030500319438199626 0.00632718974571882 -0.007352259878510205
-0.06109412457591173 0.038612148002661564 0.008662080043267666 -3.0190955579470946e-05 -0.0001563781588224222 -0.015162465886229352
-0.061227360356098166 0.013690064657744761 0.011488592554593956 -0.0031124020905685577 -0.0066506235571018625 -0.007353142166969016
-0.058228537783976665 0.016849925067477445 0.011436035642356802 0.001029169059584497 -0.0012256179015317408 -0.008188254537554012
-0.05182904424690743 0.014291388971672661 0.010471746969518324 0.0021646395733512774 0.0017509511660411153 -0.007104814530848086
-0.045094358454796715 0.01257091164655613 0.009261387201445122 0.0029683779074017656 0.003803367072214384 -0.006188844068721419
-0.03801591832002899 0.010547397383033523 0.007909072054704489 0.0034938447784240135 0.005537543189360858 -0.005185856438993501
-0.0308045817085994 0.00855408117303503 0.0064885176599232776 0.003889732168552697 0.006908030914056715 -0.004195906351914233
-0.0233394679472878 0.006573387947658173 0.005028818835435196 0.004184563221844369 0.007844716386725674 -0.003197667340962898
-0.014947068475949133 0.004378259953705912 0.0035848404853501005 0.004394279113100889 0.007762543561568138 -0.0021575742842504173
-0.006695405467286752 0.0011730876747721758 0.002534875485400448 0.003998285215407725 0.005415690930720023 -0.0011235517157423681
-0.00298486048657422 -0.0007037776150407107 0.002215447807173142 0.002806797209765684 0.003447844802686173 -0.0010921147230986534
0.008555631263441991 -0.021873995121933908 1.870248747537495e-18 -0.00990487521652494 0.005284177783693822 0.001869238957387432
0.010845736177490573 0.0010948447418550175 -0.0013573509461249776 -0.004427880305539006 0.005701709895204461 -0.0005858781490234542
0.015865236160574097 -0.004857279312303366 -0.0030742566900901856 -0.001582360276814306 0.005348037282446315 0.00014637920036191245
0.022130567946010024 -0.006079509632091803 -0.004373466955511481 -0.0017199753356818034 0.004752220761460193 -0.00010011927756827408
0.02933224493279895 -0.008355338155254985 -0.005640671453590442 -0.0017081987830350534 0.0036270684711975833 -1.0274689534484967e-05
0.03660388947982719 -0.010480026960295359 -0.006791538806207289 -0.0017518475882192257 0.0021694524713559596 6.989483964197094e-06
0.04371982182963781 -0.012634193164310028 -0.007784323329848565 -0.0017923923806703553 0.000337312796280867 3.279918782557912e-05
0.05064639583194313 -0.014771403267368744 -0.008546224503333257 -0.001887807803111815 -0.001686352062667033 2.599092947821611e-06
0.0573688223488034 -0.016961295473595133 -0.008990853160942901 -0.0019835700599907546 -0.0032609304616693633 -0.0002128491754182047
0.06321458221812724 -0.01920379887166524 -0.009090272580544683 -0.0015971584487223921 -0.002979603023365365 -0.0008176163495020467
0.0657582803603755 -0.020601081828578147 -0.009038479034407538 5.3763274920831726e-06 2.8208574221025077e-05 -0.0014509913061850075
0.06323039036383789 -0.019207692730570613 -0.00909838017569484 0.0016078272390264818 0.0030328473002159306 -0.0008213382543296463
0.057402772739383316 -0.016969344113256332 -0.009008745904722962 0.001993844843451041 0.0033041824924181055 -0.00022016139176163926
0.050704058313449034 -0.014784272463722983 -0.00857766199353948 0.0018968718182721515 0.001711159751101409 -7.59424199947174e-06
0.04381233073238122 -0.012653327540668334 -0.007835945590836547 0.001798732818327954 -0.0003439876773491275 2.0672386805382176e-05
0.03675177047112717 -0.010508589679534526 -0.006874845973288956 0.0017521950767557068 -0.0022274110643754983 -6.405758301896973e-07
0.029574327670194474 -0.008399589566531413 -0.005772847533062156 0.0017014658449619336 -0.0037806031018011036 -2.0996956601862468e-05
0.022527055456810923 -0.006150345772775025 -0.004589792064329643 0.0016870131642883336 -0.005016746513358687 -3.8830859437852075e-05
0.016595627854885355 -0.004996701667952828 -0.003380541193916647 0.0015211969044236116 -0.006038934484985209 -2.8904674799209227e-05
0.01248317504675562 0.0007952624193594611 -0.001917719479569402 0.0043907519037593885 -0.005102434502258223 0.0006911333432356304
0.010860682089247358 -0.022251114770828227 0.0008189723748827911 0.005852572937774562 -0.0043106057466968245 -0.003443688899023108
0.005121528981418081 -0.01925724659151712 0.0010201926448572404 -0.006356225732661687 0.000889929074672801 -0.00017515828961844123
0.005687963643529438 0.0006209885895372256 -0.0007169108787027201 -0.005522059033792896 0.0019173250872908977 -0.0005324587340328503
0.009371812944771764 -0.003329758775766436 -0.0019500478670862824 -0.004347656477021953 0.0032618520768608714 3.4958867013683375e-05
0.01478804012298783 -0.00488991870713904 -0.002975210363122435 -0.004514328771189274 0.0027353103846984475 -4.708446484677998e-05
0.01953183242471569 -0.006622466318493771 -0.0038716903539475715 -0.0046489766263799175 0.0020382935248753915 7.40132453882272e-06
0.0243794171093994 -0.008330002801516623 -0.00468434016816199 -0.0046745662339975165 0.001110787146147048 9.073194755127902e-06
0.02911367541970845 -0.010033496557214585 -0.005374243207673397 -0.004714796803224702 2.1859410341183746e-06 -4.461271987336602e-05
0.03367825756444143 -0.011700946698220954 -0.005900890726408278 -0.004840644166714674 -0.0011886657688454142 -0.00025615667836663116
0.03800780801688532 -0.013402991551921702 -0.006214584149351455 -0.005018652853025098 -0.0021107212545842325 -0.0008695982954758436
0.04168068819657047 -0.015415200904235878 -0.006301202589393625 -0.0041178133694358965 -0.0019452778949202332 -0.0022080421600109796
0.04326070030069406 -0.017193169262555277 -0.006276206774710956 7.782698329228517e-06 -1.0867894145243884e-05 -0.003541054209969268
0.041696189063157446 -0.015419982479181514 -0.0063044358671139585 0.004133139608619309 0.001918596052831476 -0.0022088433765072423
0.038040898698101316 -0.013412781573621153 -0.006222645635445615 0.005032952687921989 0.002069023857099579 -0.0008703138707920564
0.03373380077131697 -0.011716284215337495 -0.005917376287692501 0.0048521062535538334 0.0011210589886483124 -0.00025450253134581184
0.029200944866165104 -0.0100554895687675 -0.005405740169034604 0.004719736843661948 -0.00010818514406555115 -3.6011924346345415e-05
0.024515869115844583 -0.00836120138013725 -0.004741735333582861 0.0046664501192273874 -0.0012731076960521986 3.407957983485189e-05
0.01974769413063942 -0.006668086928150866 -0.00397402546474776 0.004619000063721039 -0.0022765878450172724 5.9638395154494935e-05
0.015147794278467025 -0.004958309350536118 -0.003146396777007725 0.00443899089841316 -0.003105476492914222 7.121382545774259e-05
0.009997651340943738 -0.0034655802904739164 -0.0022428641760777793 0.004155176384096206 -0.003727887377258984 0.00014132368093395725
0.0063148713912490806 0.0005431946550694218 -0.0010425254192826935 0.0050628947474063435 -0.0020409532130606263 0.0003876488763743046
0.005578217247259472 -0.01943374338052038 0.0010411485929392005 0.003772932324340204 -0.0006103566689160283 -0.003632719494993262
0.0028394038694958008 -0.013909319250925901 0.0014447954558901195 -0.0083891492369173 -0.00014111148782079992 -0.0035035310407333727
0.002509800034740567 -0.00018344037224062913 7.750371170469963e-05 -0.009589943028278808 0.00043827788870183146 -0.0005265458179710584
0.003950780011761524 -0.0008613897967164075 -0.0008139192784136622 -0.0079306162086181 0.0013162370308062075 -0.00016054845520775842
0.007131610482882098 -0.002394518382874703 -0.0014358404182139694 -0.008155730926888911 0.001117935257650835 2.2273158289819205e-06
0.009745711857327168 -0.0032641430696368308 -0.0019318015581743233 -0.008244121139673918 0.0007085293400453005 -1.740160062992976e-06
0.01215312628399465 -0.004111184961651953 -0.0023554760539546914 -0.008276360557032085 0.00023906591651190568 -5.3218614151617675e-05
0.014499168094385862 -0.0049456149383277715 -0.0027043388261524743 -0.008296184470432146 -0.00030352867396914185 -0.00023420745439677333
0.01667541123434573 -0.00568661940599909 -0.00296035620295604 -0.00838632313313917 -0.0009197129245692038 -0.0006872742367276853
0.0187672064429159 -0.006415987712912523 -0.0031051365595102663 -0.008677758834325235 -0.0015948264228950188 -0.0017514518808999559
0.021027996105672773 -0.008173033706671915 -0.0031212523398402316 -0.0075056500922556935 -0.0017724285945564398 -0.003964298457463983
0.022234397925315105 -0.011302353426661523 -0.003064724661451767 1.1415781493492903e-05 -4.552884084611652e-05 -0.006523561559183452
0.021042964580852634 -0.008179547597109704 -0.003119466638496253 0.007528041339885963 0.0016750198789023014 -0.003962443742058246
0.018798759644496617 -0.006429146783219601 -0.0031029503121678455 0.008698312221192757 0.0014785111773881173 -0.0017461208114624713
0.016727157738803417 -0.005706649449185552 -0.0029609667622901513 0.008401938475392508 0.0007724694062414857 -0.0006745231699535505
0.014577890381282675 -0.004972861895505089 -0.002713639279352077 0.008300476631193222 0.00011419496516003125 -0.0002058823567429249
0.012271355243710537 -0.0041468691750439985 -0.002383726529887493 0.008258052757462954 -0.00048027330603374617 4.813292880702021e-06
0.009927303559443157 -0.0033107179554453118 -0.0019955960341597107 0.008185219955659078 -0.001011715011395377 0.00011318837914688601
0.007425787697953733 -0.002460388292863842 -0.0015619323311494462 0.008021649715275383 -0.0014943380010575705 0.00019318314609106268
0.0043262454456792125 -0.0009395795799343881 -0.0010318147726873946 0.007616955116770679 -0.0016971142152870519 0.00022322972335402967
0.002786583892478241 -3.757778504187498e-06 -0.00017671480391599455 0.008956070012019039 -0.0005160634397812432 -0.00016645827332764863
0.0030092559961584766 -0.01390637895628499 0.0013016512927264102 0.007662393258800392 0.00031536486685664826 -0.004909632697991345
0.0009624527717883798 -0.008771957661928183 0.0016793213549626024 -0.007932104550010234 -0.0004555905788953305 -0.003841269004872675
-4.5320821719699886e-05 -0.000487192145115854 0.000813395353773101 -0.010535877408873585 -0.000435075044262425 -0.0009444948203084681
-0.0008088993767362875 0.0007412420042717532 0.0003304738252424886 -0.010017873097865514 -0.0002721957576753074 -0.0002383048475468008
-0.00033472778380356453 0.0001407197143850443 0.00014612491914047795 -0.009462691269557368 -0.0003805103885930756 -5.895140170497432e-05
-8.54326973988036e-05 -1.3622295982436252e-05 8.011962649393118e-05 -0.009461346119142502 -0.0005111221402093809 -5.051621608701954e-05
-6.81435267977995e-05 3.302769852960972e-07 6.226637671709662e-05 -0.009482365630880576 -0.0005800598018944085 -0.00014973964730800602
-9.499603051997195e-05 -5.1836078723558356e-06 7.214209677553084e-05 -0.009504617956578285 -0.00062758854429506 -0.00038992565730368674
-0.0002777484382121502 0.00011540490896232709 0.00010313154752631869 -0.009439123523621131 -0.0007495852813396432 -0.0009040967969830735
-0.00039534225050770054 0.00041616599443085084 0.00014020640674054582 -0.009741143692430737 -0.00127020246070205 -0.0020079007432377365
0.000760656250147379 -0.0011287553523108014 0.00019526539193519228 -0.009534334089666424 -0.0019634231083964196 -0.004419710919443259
0.0018798333040698878 -0.007062445928881383 0.0002988356634637016 1.2413217685870787e-05 -7.843072061359121e-05 -0.008375762388726261
0.0007749647913427173 -0.0011369591374709332 0.0002021724435415913 0.009558665846715405 0.001798922095620558 -0.004417085747811316
-0.0003657067075343282 0.0003997620316129938 0.00015290633545022187 0.009763410958950669 0.0010833334777795704 -0.002000793126876175
-0.00023065895306138273 9.097136590318019e-05 0.00011898677039658098 0.00945583595445857 0.0005275354813638112 -0.0008879552100466866
-2.6724814036997867e-05 -3.712654354913189e-05 8.610329990318661e-05 0.009508514786701075 0.00036161647329567727 -0.0003556965461394169
2.827048868144708e-05 -3.84415551247803e-05 6.540919703844618e-05 0.00945991126642718 0.0002683833279250546 -8.017691313127377e-05
5.5184914656281486e-05 -5.9638463495753795e-05 5.735911734348269e-05 0.00938960138249157 0.00016124710441005777 8.242888511298302e-05
-0.00013673539281193413 8.544245103852359e-05 7.378752764837912e-05 0.009301743830838646 1.4927720883567387e-05 0.00018168465587152527
-0.0006072764325684977 0.0007405581026288512 0.0001870969927159817 0.009695021522822778 -1.2986580107670038e-05 0.00015021272891678163
8.401566662713893e-05 -0.00029597180398868614 0.0006222124031661695 0.010197473758778176 0.0004112275320169937 -0.0007101535006030451
0.0010454119701487636 -0.008797241757521185 0.0015173684597635383 0.00769680714467142 0.0005963268659617728 -0.004681795540075407
-0.0007404438839630236 -0.004553159171644086 0.0018949664929409171 -0.006005713074009988 -0.0007685622332504997 -0.003322242681313009
-0.0023823123164093828 -0.00018294548342547785 0.0014877201216568832 -0.008925351264828811 -0.0012408921186833652 -0.0009631428504283872
-0.005253992659405095 0.0019864612203691345 0.0014499625767811068 -0.009226605101102762 -0.001753663340074475 -0.00024743996273952033
-0.007595745994909446 0.002547943582414043 0.0017177480501500367 -0.008387610738946132 -0.0018740611753867368 -3.0318290352571542e-05
-0.00990747572520463 0.0032666069734406783 0.0020891934248784497 -0.008214030718671965 -0.0017443179185636453 1.094441275588483e-05
-0.012312761238200551 0.0041119102896124225 0.002478230008428895 -0.008257105217449219 -0.0014100443345582225 -5.452388388856969e-05
-0.01467091810582489 0.004959984214908372 0.00284797822741535 -0.008276832847584265 -0.0009715484843371245 -0.00025458329773618397
-0.017109362840716656 0.005791212730891321 0.0031689642164053847 -0.008202885341617094 -0.0005415682362320948 -0.000621366308510954
-0.019582205701307528 0.00716827745012944 0.0033854906461508326 -0.008065268853745484 -0.0006763256649977707 -0.0014042966337000286
-0.019619494372963314 0.006805901786741914 0.0034465322968483354 -0.010196666312474364 -0.00208966024545885 -0.003230383599619491
-0.01846633514467679 -0.004226544374102057 0.0035478999231871307 1.1688744705965365e-05 -0.00011203544336774598 -0.008760304238798186
-0.019605819784484984 0.00679595236984771 0.0034586255211606163 0.010219674235224881 0.001856548300994808 -0.003228921422282152
-0.019554453091628246 0.007148525984921757 0.0034088619040930353 0.008086655478297722 0.0004170334616981147 -0.0013997533615146887
-0.017066915563861713 0.005762216927313702 0.003201576120059609 0.008219705957202658 0.00024227853595543128 -0.0006097910047254378
-0.014613234619336495 0.0049231986617638826 0.002885710761674933 0.00828274700449301 0.000625641060314996 -0.00022797992020673233
-0.012238630210491484 0.0040700692545606225 0.0025134703109460305 0.008239559618793276 0.0010242053236640617 2.3426671001283476e-06
-0.009813938285841019 0.003222338958165451 0.002108708721981401 0.00815046979498606 0.0013454288941920445 0.00012593963656709115
-0.007488668335953002 0.0025123234932440956 0.0017011371044707811 0.00824105847134618 0.0015184971425224636 0.00018471956790646127
-0.005167039682045591 0.002012983211893849 0.001376362402528449 0.008999951028853505 0.0015418440194645915 6.753145571096594e-05
-0.002329530854546904 -4.894344024720235e-05 0.0013600977471968385 0.008780012970425964 0.0012486881496118034 -0.0008019069667191047
-0.0006988531105713221 -0.0045760156014279345 0.0017550569389749241 0.0059514448109935945 0.0008845481865935383 -0.003879662830320357
-0.0021788787125886573 -0.0018079521896673936 0.0021983691862936094 -0.0031406907739977867 -0.0013773466697075145 -0.0021565826817713414
-0.004544056842318841 0.00044964051951187656 0.002129505536876888 -0.00499000376005172 -0.0022959394268334556 -0.0006554889586600661
-0.009580491527196307 0.0031793215999663584 0.0025189496673978413 -0.00532262826282999 -0.0033904753500080304 -0.0002259376303563859
-0.014771577001485925 0.004963081106559063 0.003227649865485299 -0.004771988953350342 -0.003518699149733846 -3.573586315156755e-05
-0.019730576052920924 0.0066484267023397756 0.0040209432584691045 -0.004616132215372117 -0.0031048144064926716 1.6513387518657323e-05
-0.024564530063159472 0.008352122929404376 0.0048002581053223185 -0.004653013223896985 -0.0023236463944434193 9.289910753725764e-06
-0.029306944048376804 0.010049813661858413 0.005516515045919164 -0.004696240880873694 -0.001312355778439249 -5.846571315952035e-05
-0.033750635178399165 0.011758674175889666 0.006115022307911454 -0.00460905806383894 -0.00028208609701300036 -0.0002367182119084954
-0.03862466059126233 0.013274129553827467 0.006510675846817473 -0.004754519076886825 0.0006317989327902174 -0.00037127907628797997
-0.040629041897281504 0.016839795815598843 0.006450158004813525 -0.0064401006040091064 -0.0013186794766086515 -0.0012072810298780399
-0.039852155568677 -0.0019865459072443033 0.00628752823250743 8.106354556303842e-06 -0.00014881643563999198 -0.006448692195462131
-0.04061583683866544 0.016827972513642812 0.006467457996647654 0.00645616879910038 0.0010102392636182225 -0.0012087043300607805
-0.03859838510914448 0.013250744587526774 0.006544749384794849 0.004769845295900862 -0.0009713659338742656 -0.0003732422459150052
-0.03371199914562187 0.011724602701082512 0.006164397545048694 0.004622025403384133 -0.0001043592337712799 -0.000236997192427156
-0.029258110144302824 0.01000731409557052 0.005577890344377113 0.004703137813249968 0.0008733558324581894 -5.245849276242565e-05
-0.02451039518860767 0.008305696035510735 0.004867097433045238 0.004646302039554518 0.00184589543931031 3.084302303687822e-05
-0.019681029846238984 0.0066061772242408156 0.00408157662532948 0.004580926807514585 0.00263498578469152 7.208015575684232e-05
-0.014742812141208135 0.0049425706748653766 0.0032636226744110156 0.004689148019519023 0.003147293707654178 8.136961184106365e-05
-0.009582190575545782 0.0032115771712766705 0.0025076937451125 0.005211038964045612 0.0032298279814032046 -5.400559241269505e-05
-0.004550371448914381 0.0005301923200096484 0.002060990533340622 0.00494069108726774 0.0023469110548747863 -0.0005713841759462393
-0.0021745458514054457 -0.001805592914857614 0.002093213017365565 0.003129313858877194 0.0015087610929369391 -0.0024755935678007286
-0.002927405984932973 -0.0008753609191515288 0.0026674447206235024 -0.0012029400396739458 -0.0026332434449565646 -0.001397670614449343
-0.006271172436265236 0.0008048008973436961 0.0027710681740603597 -0.0019527424148357184 -0.003954772021599989 -0.0004556964494976241
-0.013901983483234156 0.0037887461219412656 0.003503616353847417 -0.001917747481317912 -0.005503749037617183 -0.00024524989327704723
-0.02205802467346407 0.006200423460623265 0.0045998388593920655 -0.001738912403188659 -0.0055491802428145436 -0.00010159587915702857
-0.02957463401442589 0.00837508652337444 0.005767276206642713 -0.0017001832870287372 -0.004771106333898231 -5.055044626869215e-05
-0.036814021003701125 0.01052347711412053 0.006895630524958328 -0.0017397569365188725 -0.0034349636224734656 -1.63927968745815e-05
-0.04393010233850734 0.012627721604691779 0.007922593702964173 -0.0017619186500893783 -0.0017281560024189676 9.328216508685332e-06
-0.05070448283920932 0.014908481390846374 0.008772008752585764 -0.001841801221935651 0.00015955098817292072 4.694379987527574e-06
-0.056293229248039034 0.016031323991834562 0.009329618747483113 -0.0018961575878465673 0.002102980604075744 3.431746928790028e-05
-0.06216865101063944 0.022529741829629597 0.009136224585111355 -0.0045964274579438184 0.0031373148688998175 0.0007433095663611441
-0.06570214555201435 -0.0008254447672566234 0.007628669040963533 3.891427955692402e-06 -0.00019146535240278071 -0.006856933141638127
-0.062155721353671464 0.022516944979075366 0.009158683209007394 0.004604220279264276 -0.0035334582442206894 0.000740639773638042
-0.056267866301037806 0.016006035800889253 0.009374246043956298 0.0019038586887867408 -0.00253720403936847 2.9436534361366822e-05
-0.05066826923366988 0.014871717210763087 0.00883775946319156 0.0018488700328814151 -0.0006511833259084301 -1.2392844581969533e-06
-0.04388699580771167 0.012582049974658532 0.008006678322355998 0.0017669298990757153 0.0011721186943113434 4.723863837072608e-06
-0.036773323330509214 0.010474295720998695 0.006991965026730001 0.0017396863113422064 0.00283212176428231 -1.4801943030615209e-05
-0.029556755089458476 0.008333251226279524 0.0058644542275419695 0.001688637444320903 0.004184388253084635 -3.2944476987966514e-05
-0.022093613604051616 0.006185882922750091 0.004679121998044738 0.001707343096909248 0.005107608064264313 -5.3020673911699574e-05
-0.013994770191264876 0.0038230043708971195 0.003539944557734212 0.0018716671051034128 0.005372302507792543 -0.0001712536257608907
-0.006353206080039309 0.0008649703603240833 0.0027491238828704022 0.0019296385365285744 0.004120948627131939 -0.00042285189558111883
-0.0029766010941210466 -0.0008572522195442627 0.002603010329792114 0.0011840870206104616 0.002906745730476576 -0.0015906731977654645
0.0118775089568928 -0.018915950987929864 1.4568966692773966e-19 -0.0006224117772381699 0.0022831539076969467 0.0001981199645839253
0.012490631958471018 0.0001154437753128071 -0.0012682026680905898 -0.00428259930404741 0.0031127840770677384 -0.00023754018491070657
0.01563301731763374 -0.005053802009717991 -0.00242220421154318 -0.001694526177983717 0.00292958028050297 0.00022945315799413455
0.021544513340749204 -0.00641624969616457 -0.0034947337686025547 -0.001936322266972419 0.0024489068951642485 0.00026476508777170595
0.02836087994683533 -0.008721833238459688 -0.004322438637394338 -0.0020290325742418664 0.001574729131133202 0.0003653693840056373
0.035182975141876724 -0.010956116802983407 -0.004903443117895837 -0.0021304722834374194 0.0004799348624300782 0.000469421714224683
0.0419877720230814 -0.013305658463997274 -0.005197890843177774 -0.0022673051119708495 -0.0007574526321306743 0.0005668898761134804
0.04911344897579238 -0.015827307338003346 -0.005178549646621464 -0.0025277236651480668 -0.0019395458532822313 0.000610736176828274
0.05709366182257076 -0.018780499812173623 -0.004858183010516982 -0.002837840214546094 -0.002600295770323173 0.0005145025665314816
0.06511880483939515 -0.022230133124540224 -0.004373419281302283 -0.0023839096554328105 -0.0020182843812830294 0.0002228255744869163
0.06886813685009219 -0.024471601976584118 -0.004093010805014755 5.515580741899628e-06 2.6068531770901974e-06 -2.446824283088467e-05
0.06510036705907711 -0.022222849182407325 -0.004376300962794477 0.002395277563641511 0.002020499825753333 0.0002196620111450932
0.057053968905986456 -0.018764034201200104 -0.004866026107958236 0.0028502502550004733 0.002593185844244881 0.0005082132317342834
0.0490463686634922 -0.015797502149184704 -0.005195945269826415 0.0025420490181461046 0.001915330240161288 0.0006016402229044705
0.041882538926899006 -0.013255358617310652 -0.005232797201391486 0.0022845035182362506 0.0007040010998084338 0.0005559286974268761
0.03502251999545516 -0.01087371638277424 -0.0049679082600691095 0.002152488942182618 -0.0005845106103753555 0.0004599566678704898
0.02811672730807346 -0.008589934860302444 -0.0044347196212404065 0.0020546904247413836 -0.0017721408625561643 0.0003598421056595047
0.021177141390465237 -0.006209971793656413 -0.003674145032307564 0.0019833385634508032 -0.002786604440507012 0.0002875581512288036
0.01496658632056824 -0.004713443236680416 -0.0027213416300957203 0.0017616402884531631 -0.0034506865284543386 0.00021079416750624356
0.010761297759797034 0.0006799227175513622 -0.00161327951806533 0.004185134056685219 -0.003141085080366956 0.0001696648520154501
0.00931205044876844 -0.01798157029882121 -0.0014160830447689768 0.0053753501807002075 -0.0027765867283258017 -0.0016582863199869902
0.005244173927778431 -0.016304163244564775 -0.00018692389573959212 -0.0010616894740899992 0.001208792466796334 -0.0005917074317141302
0.006087450502827908 0.00021322496261182974 -0.0005814526302932133 -0.004860299811895323 0.001465353550782852 -0.0004977752778025267
0.009675931384152476 -0.003683992712034934 -0.0015122171706797205 -0.004382700131528865 0.0018343233627457207 5.5068623196426154e-05
0.014587532670869723 -0.005241394759182103 -0.0022754728221590402 -0.004830383483918056 0.0015336105987215386 0.00013915087473502993
0.019043474054082233 -0.007018558520777926 -0.0028672274017487163 -0.005106018360420787 0.000971476966395256 0.00020328757778632429
0.023590266285590453 -0.008822847937318653 -0.0032628651605746692 -0.005287689641720923 0.0002597260772612478 0.00023495354778554716
0.028121400518536344 -0.01069552501681422 -0.0034565394894931307 -0.005584413356803203 -0.0005172591868827895 0.0002048174061775913
0.0328100932190144 -0.012659624599582404 -0.003440447083199162 -0.006198588950240309 -0.0012346361836268215 3.6858048987232976e-05
0.03789835506353553 -0.014954226629097483 -0.0032326929223670474 -0.0070941945755079285 -0.0016250347059635992 -0.00039051394117258176
0.042858230972275 -0.01808456406743647 -0.002911417248621899 -0.006217091665104275 -0.0012673651402185652 -0.0011054891505615518
0.04513915218967783 -0.020905394933773278 -0.0027060399799558855 1.0697519714489498e-05 -2.340546789612316e-05 -0.0016158131968773528
0.042835613803154336 -0.018078725719819663 -0.0029039865737411296 0.006239466110020241 0.0012161236792214798 -0.0011062403103399116
0.037850597668739626 -0.014940802690281566 -0.003219452281992236 0.007119674135193902 0.001560323233970321 -0.00039123561065814875
0.03273192279153581 -0.012634808405567126 -0.003425162208554662 0.006229864815170143 0.001146551655012592 3.8186124078236594e-05
0.028004266330807884 -0.010652780427268863 -0.0034460772584377795 0.005625191658263966 0.0003934197364526266 0.00021248333480018876
0.023420762785278576 -0.008751490847987927 -0.0032687836465092146 0.00534323400934809 -0.00043818477916012253 0.00025728136555655903
0.018802504622531725 -0.006902192645069088 -0.0029065822718643704 0.005182297713220342 -0.0012327483305773134 0.0002535517923528205
0.014231428522921051 -0.005058054327847824 -0.002376472774621967 0.0049488176657387145 -0.00191954644724739 0.00024000949709585207
0.009101045940950438 -0.003370816419318749 -0.0017003878370490811 0.004611343071758016 -0.002281472621503828 0.00021213479552777346
0.005578741715024211 0.0004959759665787672 -0.0009572277512413215 0.005283522380488567 -0.0016402305958003363 -6.150765986558786e-05
0.004946457063176271 -0.015603496981204227 -0.00107171415486746 0.003992591077584132 -0.0010725961366043197 -0.002145051000523343
0.0026969866513537853 -0.011440288706138366 0.00033653443834241406 -0.006880955422943858 0.00042408955136563614 -0.0020399915393512083
0.002618277811580191 0.00015068976586615507 2.6253583939819642e-05 -0.00845971215415198 0.0005335268750138604 -0.0007523751506321665
0.004275412187067388 -0.001269873922274045 -0.0005851721401495838 -0.007885895278084892 0.0007464459695360947 -0.00019173875039432632
0.0072956454765718635 -0.0027259238935013405 -0.0010825456899900049 -0.008521049844254685 0.0006162167773093058 -2.745277244271108e-06
0.00969591577577136 -0.003601430349531802 -0.0014280292746467473 -0.008851400886810775 0.0002997859344390302 2.3383090825352037e-05
0.01192626711911861 -0.004498946329961933 -0.001636577042038675 -0.009165316171492138 -7.530258594905716e-05 -3.422030583249997e-05
0.014118354194022149 -0.005418354520552738 -0.0017168590857507752 -0.00963673219180889 -0.00046422457123245696 -0.00022305067745403173
0.016248339362765526 -0.006244898478587944 -0.0016762442156947467 -0.01055424028404782 -0.000826399146783475 -0.0006438464365674906
0.018654188976223784 -0.0071977296848749 -0.0015241512570216638 -0.012148156211741382 -0.0010744246956057195 -0.0014474215020363371
0.02181686409395851 -0.010004149364278984 -0.0012674399789894008 -0.011272188411768913 -0.0009226507730152686 -0.0026537249157541536
0.02361960405089955 -0.014826989347324127 -0.0010407929004107091 1.726103214416613e-05 -4.8943786051068896e-05 -0.0035256625197304737
0.02179050449052747 -0.010001288006832225 -0.0012498361248004543 0.011308341914967223 0.0008191876885539553 -0.002652136014884878
0.01859933606644004 -0.007190572397861194 -0.0014901624151868824 0.012189497326448358 0.0009543229195033053 -0.0014426168807878147
0.016160847554476478 -0.006230356340623321 -0.0016289246144139556 0.010605304422982275 0.0006787789131793011 -0.0006318334690404074
0.013992079873914378 -0.005391170590986875 -0.0016623792943566372 0.00970397758293161 0.00027801935153675674 -0.00019575500516915735
0.011752794905818953 -0.00445020030894145 -0.0015860928591380785 0.009258044650157367 -0.00016187776476157825 2.2888487649491305e-05
0.00946290481042542 -0.0035176583348483803 -0.001400401144971329 0.008983042008504081 -0.0006044705354827254 0.00013506004436898957
0.006976679930817444 -0.0025842149882427767 -0.0011066492924139656 0.008722181669858883 -0.0009993700873651464 0.00019081408498168646
0.003945799220103027 -0.0010693481714101273 -0.0007036298396417666 0.008248915577254273 -0.0011294016192739 0.00015530187602118481
0.002470583542571937 0.00010721833469351406 -0.0002860617643498943 0.009092375895253883 -0.000642476830367064 -0.0004550965088182984
0.0026894316153260067 -0.011001178373289172 -0.0003317498585140992 0.007528686280771285 -0.000289475187752739 -0.003155367536634415
0.0008004343526282697 -0.007227494615545869 0.00104196115186483 -0.007413535337437352 -5.0494836473391205e-05 -0.0026157148188817913
-8.736185264229816e-06 -3.4306792868054255e-07 0.0006943243273955181 -0.009916789876975678 -0.00016230570257649987 -0.0008837070251122032
-0.00047149378210761095 0.0005391303459920121 0.0003393668174338881 -0.00983838044217044 -0.00023235244040345284 -0.00026457471816420915
8.545246764211543e-05 -6.716766622743099e-05 0.00011354337718784176 -0.009802000408657936 -0.0002982009525013941 -5.129132688147705e-05
0.0002805583695203065 -0.0001491259476531564 1.5598253851881087e-05 -0.010092617694500391 -0.0003910735821112503 -1.5844920452211845e-05
0.0002212344137610591 -0.00010215064055601467 2.966907715767701e-06 -0.010449390037600079 -0.0004597510203343593 -0.00010075180538144364
7.645621816495563e-05 -7.439770412352096e-05 4.7023111035837385e-05 -0.010991813806242517 -0.0004966134732780659 -0.0003378563831188616
-0.00032959930080327744 0.00018495104755219497 0.00013069749236561406 -0.011774561386235647 -0.0005446268263102478 -0.000823624121399846
-0.0005574949888153355 0.0006822261775950303 0.0002501480644763714 -0.013497420008894059 -0.0006824916855584948 -0.0017092093107870664
0.0012784321375424405 -0.001863382773483346 0.000466562684300394 -0.014096970855671038 -0.0007247677446304035 -0.003084016896908159
0.003029700735206806 -0.010659366890205739 0.0007742742135040521 1.956109903587249e-05 -7.440879023926111e-05 -0.0042076750872553845
0.001248455367953278 -0.0018636145994705684 0.0004943590568665447 0.014137946424389895 0.0005693386115444637 -0.003081716566886297
-0.0006191606896247022 0.000682870397585093 0.00030491540318674983 0.01354428301145526 0.0005076511163421265 -0.0017027101517990354
-0.00042593691410150767 0.00018881913307124655 0.00021004369542607006 0.011832436723099977 0.0003389444440359701 -0.0008082938294124627
-5.801580437024823e-05 -6.332220076237968e-05 0.00014542654132301605 0.011068053670576197 0.00025123178903365816 -0.00030451084701170375
4.557945575872187e-05 -7.717890000219769e-05 0.00010924354353513275 0.0105552597799697 0.00016950050214155354 -3.232493565173957e-05
5.9319896012482105e-05 -9.872147672431137e-05 0.0001094206444122967 0.010246144498734358 5.552563177217387e-05 0.00011524906036730278
-0.00016679875421468776 2.5043437156386723e-05 0.00016159618483578634 0.010035716944741351 -6.700105963502065e-05 0.00018482388452354905
-0.0006563865986983256 0.0006088537490324656 0.00028882342801271447 0.010207570880634257 -6.992266092782579e-05 0.00010468466217617243
-3.784222572967687e-05 -7.552628166924856e-05 0.0004578131280043495 0.010224824386027752 9.858780880904262e-05 -0.0006672372770877962
0.0008530798618835515 -0.006865297743550519 0.0005243356480215715 0.007543604111311555 0.00015659682119654542 -0.003341047287953652
-0.0008861759055791643 -0.0037917262641318766 0.0017699749503815524 -0.005914943521339975 -0.00045003220426262066 -0.0024580287439181516
-0.0023566166252636956 0.0002021076477924646 0.0013894488717894119 -0.00868741781031998 -0.0008034413156734982 -0.0007546382889239724
-0.004876348021981777 0.0019517395814339727 0.0012593894123815155 -0.009164245413437964 -0.001177291658082495 -0.00022553217979049705
-0.006949367679125964 0.0025060934473252632 0.0013044398435383302 -0.008719056959787905 -0.0012052304060181378 -2.569688468050734e-05
-0.00913759571941959 0.0033337227075814 0.001454715567051092 -0.008829905339998676 -0.0010861683935464174 2.4456822038704496e-05
-0.011510474404455141 0.004297392480361819 0.0016398300124800655 -0.009165400452498565 -0.0008491139942347068 -3.471490106541089e-05
-0.013930195909859385 0.005302672461234682 0.0018099962574025397 -0.009620402497782515 -0.0005355609100709712 -0.00022572859299314313
-0.01668216629616527 0.006402862505111697 0.001936851353396921 -0.010214157237463257 -0.00024947245283169964 -0.0006176003048308818
-0.019729640070269703 0.008380453024111533 0.0020142038263945756 -0.011035867825048508 -0.0002180071907519545 -0.0013287739632701521
-0.01946651738283929 0.00752329045499481 0.002133461090368878 -0.014642230395964807 -0.0004567240417481393 -0.002589569788189394
-0.017704903366360113 -0.008142976698084527 0.0025526971301057465 1.7319685135865713e-05 -0.00010037439000876927 -0.003886977445034726
-0.019500309744012886 0.007519962354085507 0.002171641130822149 0.014678504140956918 0.0002482611671393436 -0.0025881856260067345
-0.01979855459131255 0.008374572159503324 0.0020901622942202493 0.011077324557286342 -1.2850470905681947e-05 -0.001324389409220392
-0.01678811397796817 0.006396057173980537 0.0020489251852457086 0.010265274702644867 -1.5916604918502345e-05 -0.0006062771390646848
-0.014073973133723654 0.005297610560523692 0.001953393443828516 0.009687609819468158 0.0002287218817699311 -0.0001995639024228794
-0.011689754113215512 0.0042983656177272836 0.001803488755228912 0.009259210578806234 0.0005030465626733135 2.105830200717985e-05
-0.00934284502874788 0.003349293086217439 0.0016167315582079054 0.00896816643866675 0.0007173415781051921 0.0001361201661107584
-0.0071452630472621384 0.002538263851744722 0.0014265394550847825 0.008930172646333176 0.0008570063962280865 0.00018112960448328475
-0.004986323486437679 0.0019532587024758607 0.001281860943433677 0.009420335517179489 0.0009418304380136222 7.438666992671079e-05
-0.002347958577683597 0.00015527633155445434 0.001233770807530598 0.008800920655357095 0.0007712716213583548 -0.0005945915901614836
-0.0008261491341794807 -0.00353664393787399 0.0013790038874948903 0.005876933834552798 0.0005362815724908629 -0.002926799746325091
-0.002315959390909439 -0.0015713625146641175 0.0024379729249476563 -0.003195990214734198 -0.0009543251808068874 -0.0014866002664938969
-0.0045190446086278094 0.0006648853640323998 0.0020678477660077926 -0.004970803488926072 -0.001537271808817646 -0.0003282879096874428
-0.00913868322741166 0.003212248936419599 0.0021676268765767927 -0.005404859094116995 -0.002166307858069122 -4.41585827393026e-05
-0.013880553427733694 0.004992167881612466 0.002482398845892673 -0.005069094478804196 -0.0021176223221447197 0.00011674922391330111
-0.018532352060581604 0.006784191662156142 0.0028797353652675666 -0.005082523638511737 -0.001767232276718576 0.0002006904462717304
-0.023205867372846627 0.008651421404886613 0.0032578138553348277 -0.005286510370560793 -0.0011991336481928386 0.00023376267941109042
-0.027945136355118066 0.01058602938541389 0.0035474479258313777 -0.0055708209602988775 -0.0004977207322203475 0.00020308909741547995
-0.03260718481167236 0.01267195614602683 0.0036990520491485207 -0.005814427143993396 0.00017001160556866606 6.418702871266407e-05
-0.03845884558358864 0.014735400372167954 0.0037078407907722645 -0.0064642580555523245 0.0005232264301429917 -0.00023255210974808946
-0.04112036901592836 0.019455814872013952 0.00359232352187765 -0.008781541530217131 0.0001435497215706845 -0.0010305119786979833
-0.04020949729064378 -0.0063496216943733875 0.00403732987447277 1.0821672347939263e-05 -0.00012740926494416303 -0.0024993704671643635
-0.04115849837483388 0.019449506675465824 0.003641242364553804 0.008804175778918987 -0.00040742733753869635 -0.0010316993207065024
-0.03853614661483764 0.014723230202126899 0.0038057753523162937 0.006490020636791948 -0.0008132732221587519 -0.00023414951391667867
-0.03272470568583424 0.012654849702716164 0.0038452311550331215 0.005845968105895009 -0.000499851114797491 6.414686078006949e-05
-0.028101534704273554 0.010565375540410999 0.0037381007837490546 0.005611925293859118 0.00012191486308777059 0.00020870139168006018
-0.023392909274026704 0.008629315269177212 0.0034824597050015157 0.005343302935174931 0.0007852569115476054 0.00025318196801844595
-0.01872667635601675 0.00676306941925392 0.0031154244394872924 0.0051665402873490715 0.0013478441331037632 0.0002500376316052393
-0.014035529281451953 0.004967929089715108 0.0026864847546088613 0.0051919326771592035 0.001763745566491853 0.00022054782673425457
-0.009201483062123319 0.003168091881547716 0.002273562244061656 0.005530080640244939 0.0019799750209326928 0.00010904462359133011
-0.004490648479297434 0.0006327172448134107 0.001997521571812243 0.004998364974516165 0.001548209098563908 -0.0002472078377124273
-0.00225395076440669 -0.0014257323929487817 0.0021568546006500208 0.003139404000097787 0.001057319676308851 -0.0017486403111337647
-0.003083067276708658 -0.000826059821079175 0.002950769555225961 -0.0012458224235203917 -0.0018387781984362831 -0.0007630151508574247
-0.006254770616767805 0.0009344959148010559 0.002702714097260611 -0.0019900516071353356 -0.002533802259547563 -3.4788663336216284e-05
-0.013359689894268847 0.0038248438321514897 0.0030689835499630985 -0.0020623744552067257 -0.0032382089640571174 9.261149674108357e-05
-0.02086513408733425 0.006223121500922594 0.0036649807999688767 -0.0019861300576829396 -0.0030245806349886144 0.00022721694975826758
-0.027893855419169732 0.008490262909810628 0.004314589319550609 -0.0020139528132417837 -0.0023897739170153525 0.00034217614880571766
-0.03483055167383095 0.01081207015620753 0.004884031187869389 -0.002120915057071551 -0.0014380745902794556 0.00045521155805221123
-0.04183906195622999 0.013169235911585702 0.005281537703473921 -0.002227356487115063 -0.0002805974892322458 0.0005563804129408822
-0.048769920577904816 0.015905944472949102 0.005443979067052363 -0.0024638870250370455 0.0008624793231163515 0.0006312586341759261
-0.05497910826871094 0.017341852975031383 0.005329378425969314 -0.0026063632725248885 0.001603794942005501 0.0005967700451847457
-0.06348892789805373 0.0262075870052969 0.004911022417429703 -0.005740310083543256 0.001531672952877895 0.00036923287131053706
-0.0692028584416066 -0.005417232969303385 0.00472302318863625 5.628154064568158e-06 -0.0001559038120953243 -0.0017510578016684132
-0.06353221390840469 0.026199833200251977 0.004971170148396213 0.0057521470087321756 -0.0018542894428005769 0.0003666571386806589
-0.05506657800524463 0.017326630496776723 0.00545038676294404 0.00262000879101416 -0.001957699738291396 0.0005918196645381935
-0.04890212620985387 0.015883821342910862 0.005626234190651492 0.0024808187177215706 -0.0012641351545769448 0.0006245164816764934
-0.04201325806339075 0.013141024502996538 0.005522773909478284 0.0022495216480644667 -0.0001764518187942172 0.0005492281313387136
-0.035034027401950475 0.010778676807576756 0.0051751852364775135 0.0021510730551205777 0.0009355214116751171 0.00045085328105720374
-0.028091072108416833 0.008450975952485376 0.004633060142904258 0.0020568126439131575 0.0018856382902647146 0.00034787277941864447
-0.0209915186495435 0.006171710464699871 0.003965274561623792 0.002045713425768794 0.002619462971163488 0.00025544314065670216
-0.013367153152843383 0.00375788059707182 0.003276305564226497 0.0021244253270226244 0.003079416767835099 0.00014171248179888716
-0.006184426161708485 0.0009014218093985589 0.0027261325627136257 0.0020132903712267963 0.002646451495471414 -1.145305179127699e-05
-0.002998896474233013 -0.0007318393142595028 0.0027571600058145327 0.0012285893479594952 0.0020677078353944535 -0.0009199443617639486
0.012599607452651403 -0.018290677501911837 2.388632911257127e-19 0.001416755877947267 -1.69774642207101e-14 -8.493768568259424e-15
0.012887851200727034 -0.00023683367781200773 -0.001095913875702817 -0.004201878817539711 -8.49926411802121e-15 1.3078358112195848e-16
0.015568016440823612 -0.005152190857058762 -0.0020565406000059745 -0.0016333841933239457 -3.0830542383387255e-15 -9.044075709695176e-16
0.021258154620366076 -0.006528868910517556 -0.0029673043422918243 -0.0019423046429184717 3.3184040367992274e-16 1.1543365005181605e-17
0.027933075347164375 -0.008834840376267226 -0.0036127179522448555 -0.0020768076577735504 1.2493558095082007e-15 1.2136660762756407e-15
0.034662323144835465 -0.011116535550776808 -0.003940045765943836 -0.002232516148430436 -7.152481731886873e-16 -1.2534224146879686e-15
0.0414651804003493 -0.013562106092332533 -0.0039234194981195404 -0.0024315226610819316 -3.751491982730351e-15 4.151071305268095e-16
0.04878683640145032 -0.016250985560622464 -0.0035685664640240813 -0.00275550503954618 -2.2520640951054216e-15 3.2615511853795187e-15
0.05722915466862839 -0.019443088104930704 -0.002950358327526936 -0.003098491659388744 2.1560562986659357e-15 2.9608917585539213e-15
0.06585010601152266 -0.023139418551092063 -0.002284842735018461 -0.0025887758256244926 4.2522146624667835e-15 5.058955099453144e-16
0.06989212353020262 -0.025509033489697252 -0.001966067037083602 6.832001022840956e-06 4.348717126147466e-15 5.498158623263444e-16
0.06581715969672078 -0.02312737188606237 -0.0022854561605740887 0.002603070945159257 8.97944201362199e-15 -9.20823069487306e-16
0.0571585080230673 -0.019416114198146643 -0.0029541336527349102 0.0031148053985760532 1.8243127955551788e-14 1.817607343931535e-15
0.048667638145464175 -0.01620266615513055 -0.003581042108960256 0.0027756760351473403 2.014512519201827e-14 -5.1784206263338906e-17
0.041277199715209885 -0.013481267337581468 -0.00395379464749639 0.002457955030724836 1.6407876915328946e-14 9.134335540554595e-16
0.03437100150894547 -0.01098434348942836 -0.004001393116097526 0.0022689232225822325 5.423547726104549e-15 -3.4814748198046253e-16
0.0274824364139637 -0.008625126678334918 -0.0037217967984601264 0.002125562892070156 -9.629258585701177e-15 9.617483133668447e-16
0.020564279407124814 -0.006195975916012821 -0.003141706177143902 0.002020952133702186 -1.5224163618134112e-14 9.32241073616294e-16
0.014447869749591929 -0.0046480012597246625 -0.0023397323633755707 0.0017791867939774514 -1.9537746664662417e-14 1.4662868765306578e-15
0.010348866324913232 0.000650898838431076 -0.0015750626026298012 0.004009629752995921 -1.7138920558918032e-14 -7.152685019794214e-17
0.008921696893486455 -0.01723878805205995 -0.0016070534489428486 0.005104089550667909 -1.5499781362907084e-14 -7.933391899146713e-15
0.005268245051985674 -0.015909679467141124 -3.9623992918582115e-05 0.0001112333585598602 -5.166628233642216e-15 -5.137952780245869e-15
0.0062255651542106214 3.6129209550836704e-05 -0.0005624059615859266 -0.0046161397399974175 -4.796805178541516e-15 -2.106614985534702e-15
0.009767835952653165 -0.0037889289863294526 -0.0012976831882229476 -0.004274609961640913 -3.5860842358234786e-15 -1.959437928751584e-15
0.014459643872164269 -0.005316627318539272 -0.00196075278291279 -0.004849689169585339 -1.755387691758023e-15 -4.687039872972726e-16
0.01881556495422666 -0.0070906543812248955 -0.0024387817475182098 -0.005210979647644832 -7.361102770422055e-16 2.1541572507981915e-16
0.023302006767692875 -0.008921709581564467 -0.0026820920561238452 -0.0054995247629272895 -1.0745934307318517e-15 2.384939847607098e-16
0.027837485079885864 -0.010861083130403513 -0.002687007216613748 -0.00593389785485781 -2.489399762310761e-15 -1.3012120135720562e-15
0.0326496811642366 -0.012943228987649193 -0.0024707153076457024 -0.006708021031574552 -1.6145769346064681e-15 6.102872384967234e-16
0.03800875400318575 -0.015407149933984739 -0.0020887134238484297 -0.007708435722487931 -9.088739757003896e-16 -2.3363574258843806e-15
0.043306012728231875 -0.018711730306466317 -0.001669842066068753 -0.006721503781505938 1.5710525701282795e-15 -2.8411992268433106e-15
0.045748845374919474 -0.021656212189800402 -0.0014585639222704312 1.3224430667329206e-05 3.982482526127809e-15 -3.2049897132936656e-15
0.04326718998889998 -0.01870140801745066 -0.0016575833488466517 0.006749626184889669 4.3849015266212224e-15 -4.860376695298846e-15
0.037926830020992876 -0.015383889732745671 -0.0020660264371501016 0.007741993201580181 9.266019517699484e-15 -2.4550945044304884e-15
0.03251530103464602 -0.01290128027675404 -0.0024417869588335746 0.006752111724150848 1.2133759251395588e-14 -2.77532039233766e-16
0.02763423979124711 -0.01079036550834485 -0.002659262655201855 0.005996008072821151 8.49429515805482e-15 1.2132950758447433e-15
0.023002662996517872 -0.008805565711433799 -0.002667247889863369 0.005590012280350116 3.6756583935120945e-15 7.688330020912994e-15
0.01837731696284647 -0.006903097813373447 -0.0024530895949732732 0.0053435611038046725 -3.8430249041094926e-15 3.1148637136399135e-15
0.013811950942932071 -0.0050236475739089 -0.0020288728563334123 0.0050535562065197066 -8.97755990641319e-15 3.581333228022329e-15
0.008808883333290843 -0.0033225660207765544 -0.001456279132304216 0.004668862521318887 -1.1323065288127918e-14 1.8585884919855925e-15
0.005400577851458661 0.0004777545928459748 -0.000999279112532192 0.005126332689863652 -8.682919389831664e-15 -7.895803965079357e-16
0.004761429003499535 -0.014968844995193215 -0.0012753961849473233 0.003782310008694792 -5.430287143749378e-15 -1.1589836620799765e-14
0.0026673091562868026 -0.011312379595166079 0.00038001567748449026 -0.006354703332948595 -1.9103146764920444e-15 -6.839587761171134e-16
0.0026872675873854473 0.00016684721217148012 2.1928852900495425e-05 -0.00798546281406571 -2.1657817192080727e-15 -3.361340136895548e-15
0.004389022032525921 -0.0013589920687241974 -0.0004808684243107949 -0.007745917240949364 -3.5318822798913207e-15 -3.0850837292803468e-15
0.007307790202442754 -0.0027737123424710496 -0.0009219299094561842 -0.008556681600970019 -2.9175532781029856e-15 -3.0147393370767717e-15
0.00963888968067018 -0.0036344312889050935 -0.0012191929091442601 -0.009038518635436038 -2.371919257141905e-15 1.169820262793969e-16
0.011835736223088745 -0.004533319863945851 -0.0013558114233473695 -0.00951858746977436 -2.8108665534856605e-15 5.70419091735358e-16
0.014024310669525156 -0.005473630113994046 -0.0013428824642545672 -0.010211707323659289 -2.15614904877366e-15 -2.394558753756118e-15
0.016203294365206452 -0.006338771580230575 -0.001202496191860796 -0.011391914464023434 -3.3651602554876647e-15 -3.3645232867113295e-15
0.018729320867749463 -0.0073498804722062884 -0.0009643336223411876 -0.013165348825866782 -3.95119609367155e-15 -6.2713878957575825e-15
0.022086393013488546 -0.01022189434491616 -0.0006809402942773615 -0.012135730422155504 3.2977216098096455e-16 -4.331340245234544e-15
0.02399981154798856 -0.01518254762845904 -0.000510840892283817 2.0663640234386864e-05 1.201669548643678e-15 -6.86990476441926e-15
0.022042494476064083 -0.010215110117366958 -0.000656136774744908 0.012179808137266566 9.370556088884874e-17 -6.992995592314255e-15
0.018637990437972023 -0.007334244598625654 -0.0009160104880042402 0.013218387158955921 3.0133730729328505e-15 -4.631183132298988e-15
0.01605728130341744 -0.0063098271581740134 -0.001133885916832176 0.011462464317814188 4.845415552351493e-15 1.7525755423731387e-15
0.013811856462022805 -0.005423675691821277 -0.0012604701097331421 0.010312587699061784 4.227346198651871e-15 3.0056862489365177e-15
0.011538290795422628 -0.004449133851039152 -0.001271062695098719 0.00966879145688841 3.3660739128701765e-15 1.3259062427097186e-14
0.009228298840971714 -0.003494452724058976 -0.0011508877506353108 0.009263608013882943 -2.72112722437233e-16 7.392996737259731e-15
0.0067441315841112025 -0.0025494804672281236 -0.0008988452795990667 0.008910069632160279 -3.374749091967057e-15 5.695207285915001e-15
0.003809791600877628 -0.0010598480474403253 -0.0005594141361119439 0.008340506904380292 -5.5379357139829794e-15 3.0046427043455004e-15
0.0023977115344900237 9.890913710757265e-05 -0.00033680116091967506 0.00886537539574963 -2.7649556207390237e-15 -2.602142812205624e-15
0.0025948887333409505 -0.010549598054119891 -0.0005485399799884596 0.007205198888624461 -1.5410218640163256e-15 -1.7303053521239287e-14
0.0007936339267165948 -0.007151148572380826 0.00104417799277199 -0.007109667740261193 -3.6613322076378273e-16 1.6794291651800464e-16
5.8249428074154016e-05 3.239876934822457e-05 0.0006637551025364017 -0.009548056426816404 -1.0187434663216921e-15 -2.734227435934565e-15
-0.00033450891812425746 0.0004809877880669592 0.00035177478185398266 -0.009663014339278084 -3.5293571687964372e-15 -3.588339884562017e-15
0.00020538256722693151 -0.0001302288961281753 0.0001252177929397654 -0.009845139541203793 -3.918390507624391e-15 -2.0430536331727395e-15
0.0003820436270979999 -0.00019321953487647385 8.430134188834031e-06 -0.010311557350048746 -3.573979711490741e-15 -1.790627650495591e-18
0.0003126414264741137 -0.00013691350286055483 -1.206437086519145e-05 -0.010857588733304268 -4.445638871137039e-15 1.0419453928128819e-15
0.00015411294709846685 -0.00010066263569716066 3.5586641969622557e-05 -0.011644937030967802 -4.128710270735292e-15 -2.1976879680234845e-15
-0.000274114049188671 0.0001745252113120311 0.0001274374673166497 -0.012709120145242775 -4.909729705245328e-15 -3.3312552206749696e-15
-0.0005157822167089695 0.0006886630019530812 0.0002590133403716923 -0.014612856514639562 -5.085205285763265e-15 -8.885036803518709e-15
0.0014148451765498224 -0.0018569181387612951 0.00044705711574778375 -0.015089379837236419 -2.1607048154804673e-15 -7.461926584441392e-15
0.003256642463634468 -0.010840774453693103 0.0005998765839349576 2.317962094771171e-05 -2.5869786989882854e-15 -6.3454592329290765e-15
0.0013661385661616738 -0.0018537926850548028 0.00048436744195827573 0.015138853846325469 -3.213767515726062e-15 -8.121057130808587e-15
-0.0006158800022536134 0.0006964272241460512 0.0003328313862977777 0.014672477522296456 -1.591167154170956e-15 -8.000666643949439e-15
-0.00043053024350523126 0.00019010494483993472 0.00023531313328529636 0.012788523070117432 -1.6515618870944983e-15 2.2341442660733096e-15
-6.528276269194107e-05 -7.192521263519668e-05 0.00017168473525953695 0.011758814826957783 -1.938038911888625e-16 2.6426479277433246e-15
2.1886373769738962e-05 -8.552134586212771e-05 0.00014032068819122315 0.011028556172602092 1.4655406405041267e-15 1.441563170646431e-14
7.518014837661134e-06 -0.00010264979498297425 0.00015543676569980484 0.01057413867184722 2.440664451141064e-15 9.055554700196367e-15
-0.0002315296063933353 1.8869337387288583e-05 0.00023026435391731588 0.010250632128304417 7.731297461228363e-16 7.742372417013713e-15
-0.0006727842365814626 0.000582961255724425 0.00034426538800914793 0.010265209318581768 1.7035526635178488e-16 3.3415297303251643e-15
-3.5913073061111916e-05 -8.349347488307389e-05 0.00039695720701769165 0.010001958338919224 1.2030472477323872e-15 -3.8798106979757996e-15
0.0008283213728828647 -0.006553790472006183 0.00034394270052416577 0.007282378697502515 1.6410721251965826e-15 -1.810547154909581e-14
-0.0008418541827730481 -0.003746017116809893 0.0017773894822996116 -0.005761737943312412 1.5460934737880107e-16 -5.35561991889949e-17
-0.002253419272456342 0.00023289707742336183 0.001322167287180079 -0.008425465934757199 -1.0523503455369537e-15 -1.7572647167691385e-15
-0.004693384545371829 0.0019058694778251281 0.0011828529061681337 -0.008993986166112411 -3.594019240473357e-15 -3.294576999992964e-15
-0.006727672828780559 0.002437179326906675 0.0011692858872587302 -0.008732036275306896 -4.605069106535138e-15 -1.5570735618832682e-15
-0.008882121165010004 0.0032765652750739085 0.001232362075710533 -0.009011833694806045 -5.1043526772941855e-15 2.677606671542404e-16
-0.011237250584436748 0.004261804349554429 0.0013289342683313087 -0.009520945341547828 -6.5465414664754584e-15 3.4986526479749425e-16
-0.01367805781316993 0.005305710451620082 0.001412482871276005 -0.010193193676236693 -6.1728180099411095e-15 -8.674295006241839e-16
-0.016516783231818526 0.006467054902142152 0.0014555947745207311 -0.011031445966702514 -5.901866172627868e-15 -2.905502580067068e-15
-0.019722569853773426 0.008537883139773182 0.0014744578099481062 -0.011972029684114531 -5.609583266375905e-15 -1.0076507228444498e-14
-0.01947166106690611 0.007751235842690521 0.0015504643939429953 -0.01557391243277433 -5.122471453189784e-15 -6.5286284137069245e-15
-0.017632764542712863 -0.008203540007661976 0.0016707144725222468 2.0818412958590524e-05 -5.442552498462975e-15 -5.583712339067917e-15
-0.01952543963671063 0.0077507065314887606 0.0016005281120814998 0.015618318063212441 -5.426839719654053e-15 -5.774555638347889e-15
-0.01983201065998753 0.008537794879638688 0.0015742946679497536 0.012025429539843497 -6.905180298540613e-15 -6.939534260815353e-15
-0.016684644376777295 0.00646935072400613 0.0016036080399732182 0.011102312610702499 -6.426866510698503e-15 2.0141460927488447e-15
-0.013905836782461586 0.005313438253439935 0.0016035869970495733 0.010294423945869017 -5.105708565284503e-15 4.32683741808694e-15
-0.01152294598117334 0.004279999204094324 0.0015509290723048287 0.009673666283832098 -4.459653878282309e-16 1.432600715031533e-14
-0.0092141902663913 0.0033157133521668145 0.0014606436084949757 0.009249199226642397 4.13760094030791e-15 8.622775074258043e-15
-0.007053601320568351 0.0024953645160822927 0.0013589624890263511 0.009095778584281391 4.790748045935701e-15 7.143582803743019e-15
-0.0048920236956234995 0.001905070869446716 0.0012542626670924777 0.00941822304360995 5.766463932602769e-15 2.6942152935721664e-15
-0.002269704275638468 0.0001532127855200916 0.0011519654809273837 0.008599449981058502 5.149075593392739e-15 -3.2158774747976723e-15
-0.0007784723187557661 -0.003346752879688175 0.0012569144761075898 0.005703259556172372 4.0864155863382795e-15 -1.6045785576970784e-14
-0.0022032570950024787 -0.0015206730805786739 0.002424859587454175 -0.0031531433262717568 1.9487856424069139e-16 -1.0739700144826725e-16
-0.004353642688094275 0.000718888365622131 0.0019323886951328217 -0.004815803006403082 -1.1978435008209304e-15 -9.769440844405869e-16
-0.008884510046776291 0.0031938688429086768 0.00199392978639291 -0.005285468233339531 -3.623693345714517e-15 -1.8861170627713572e-15
-0.013544804741328418 0.0049524886611566005 0.002198693122925815 -0.005060409148271239 -6.0995367692209465e-15 -1.1865135881184569e-15
-0.018112514487525464 0.006763211552473232 0.0024408447442994655 -0.005184204856649114 -7.399778930068397e-15 1.0393094262810265e-16
-0.022735358363460603 0.008678280982697968 0.0026471816500994137 -0.005500030056322406 -6.9082611691280134e-15 -6.908400717806074e-16
-0.027499048326773367 0.010697894134031263 0.002751613344543271 -0.0059194724502026645 -5.609990689223535e-15 -1.0066647764938458e-16
-0.032301656614933734 0.012918350559831301 0.0027198214137728063 -0.00630009581575277 -6.756530251462219e-15 -2.244637310223896e-17
-0.03848441533343672 0.015152854912270893 0.002581080849689345 -0.007003260872533948 -6.027961638145011e-15 -4.99488213919104e-15
-0.04132669794621692 0.020122823157969223 0.002480041223622998 -0.00932089492714536 -6.872035687556315e-15 -1.7666803350108173e-15
-0.040374896990311895 -0.0063104111114261775 0.002500576778277451 1.3494738648193232e-05 -7.400131295774454e-15 -4.548693981697681e-15
-0.04138634374487456 0.020118762943060402 0.0025433913934047535 0.0093495900925816 -8.661831763455939e-15 -7.770307563614159e-16
-0.038604984783263935 0.015145180423707431 0.002708131436520825 0.007037466661879256 -1.2060349023439425e-14 -2.9515455970139173e-15
-0.03248416895241969 0.012907843841958897 0.0029101213797283402 0.006344882107018616 -1.2142944476675613e-14 3.068204056707463e-15
-0.027740771318835646 0.01068535068128678 0.0030013717910953057 0.0059824988821426586 -9.916146950870314e-15 2.0454185491614735e-15
-0.023023300848920326 0.00866443049157872 0.0029448549572432562 0.005593694529364415 -3.461412844448907e-15 8.309228888172919e-15
-0.018411297206197223 0.006747455709889592 0.002760098171157007 0.005329194153855958 5.154600365791205e-15 4.651666083029492e-15
-0.01378406339893974 0.004922435321726887 0.0024879495072756036 0.00527242409711944 9.890180308839286e-15 3.59437922947594e-15
-0.008984583699146818 0.003119276926323624 0.0021645682430080707 0.0054949576724890176 1.267210417003374e-14 1.4499670927359092e-15
-0.004318400863910795 0.0006555527729880677 0.0018659898254330559 0.004858214050742856 1.0265131301402663e-14 -1.305614890831884e-15
-0.002119574846660992 -0.0013032497318360634 0.0020513305727127883 0.00307017067894263 7.114263605306759e-15 -1.0230694329899093e-14
-0.0029039024491769334 -0.0007555313143374551 0.0027876888305465516 -0.0012512122707618503 -6.340549829966791e-17 -6.768132061740761e-17
-0.006019800889301521 0.001012177787664709 0.00243350548015815 -0.0019021286232099059 -3.718542401082159e-16 -5.002034485397655e-16
-0.013010663426840331 0.003830291328149272 0.002751960443073859 -0.001994779862580064 -3.0187983189600143e-15 -7.694447292858064e-16
-0.020384803818902692 0.006213199834624613 0.003184424323215069 -0.001971398818436361 -8.080897604713366e-15 -6.555357385390481e-17
-0.027278767687353236 0.008509247676673336 0.0035980995780067527 -0.0020557600789278168 -1.0415191658338235e-14 3.042542346537447e-17
-0.03412710484339669 0.01089888237610556 0.0038918656908907665 -0.0022191588220904605 -6.23887030091249e-15 -1.898424451494962e-15
-0.041151174550307375 0.01337024215294166 0.0039791281135301065 -0.0023880214783783935 -4.606581907378934e-15 2.594671981610841e-15
-0.04829189830119475 0.016293712483787595 0.0038126286545576674 -0.0026754956809651453 -5.181293762090977e-15 -2.164474112095749e-16
-0.05497371383414497 0.017935818730275433 0.003432154816994295 -0.002818747497102211 -6.117007670791014e-15 2.7814664634029374e-15
-0.0639813753915408 0.027189084981026596 0.0030360938393560297 -0.00604113663776319 -1.0720345441981964e-14 4.596068534437614e-16
-0.06989404806882037 -0.005333586747900064 0.0028507883386100635 7.797018287447274e-06 -9.506762374935154e-15 -3.116661117553987e-15
-0.06404822719587429 0.027183303538928685 0.0031135664333672764 0.006057720687033218 -1.1132323632801616e-14 1.9353008778866254e-15
-0.05510840304075139 0.01792444946633621 0.003588317080327256 0.002838467257613798 -1.9237920718256918e-14 2.3760832711106072e-15
-0.04849447569761904 0.01627695604355592 0.0040486964244367514 0.002701066874027573 -2.1927233385130376e-14 2.0272954322220205e-15
-0.041416162207025854 0.013347862134957636 0.004293578375689633 0.0024231829175446035 -1.780245821770979e-14 1.0657571830260948e-15
-0.034433041335464154 0.010869299651883607 0.004275512474201676 0.002269189639849155 -7.493429433815674e-15 8.190876362584865e-16
-0.027568331066397778 0.00846602162518558 0.0040257294906494104 0.0021285774392502607 7.366503240735511e-15 2.4838665195828225e-15
-0.0205567543754031 0.006139521988715033 0.0036011239625943965 0.0020717443534158564 1.6398869566967844e-14 8.971772977317549e-17
-0.012995940684896143 0.0037168999382548727 0.0030575624983347877 0.002096062596768888 2.1769871604189472e-14 5.866753480590625e-16
-0.005895959615986818 0.0009444850982155298 0.0024888928450860904 0.0019382426476721565 1.763734015607088e-14 -2.930056371142076e-17
-0.002768571347115919 -0.0006202804783948181 0.002523747159217676 0.0012323201053598808 1.2394273975202541e-14 -6.25026289405306e-15
0.0118775089569239 -0.018915950987934235 1.6263032587282567e-19 -0.0006224117771859853 -0.002283153907731461 -0.00019811996460189772
0.012490631958494928 0.00011544377530541526 -0.001268202668092106 -0.004282599304049636 -0.003112784077082694 0.00023754018491043463
0.01563301731764833 -0.005053802009721106 -0.0024222042115452395 -0.0016945261779864212 -0.0029295802805076833 -0.0002294531579976414
0.021544513340757944 -0.006416249696160367 -0.003494733768604973 -0.0019363222669694538 -0.002448906895165767 -0.00026476508777217243
0.028360879946838426 -0.008721833238469662 -0.004322438637396404 -0.002029032574238879 -0.0015747291311319978 -0.0003653693840079968
0.03518297514187804 -0.010956116802973424 -0.004903443117896555 -0.0021304722834371683 -0.0004799348624227499 -0.0004694217142235215
0.04198777202308582 -0.013305658464003747 -0.005197890843174568 -0.002267305111972306 0.0007574526321469839 -0.0005668898761139497
0.049113448975799605 -0.015827307338019632 -0.0051785496466143915 -0.0025277236651534652 0.001939545853292303 -0.0006107361768303737
0.057093661822576934 -0.01878049981218841 -0.004858183010508063 -0.002837840214548004 0.0026002957703180362 -0.0005145025665328441
0.06511880483940213 -0.022230133124566294 -0.0043734192812953125 -0.0023839096554324523 0.002018284381281786 -0.00022282557448787584
0.0688681368501045 -0.0244716019766004 -0.004093010805007468 5.515580742526243e-06 -2.6068531670413196e-06 2.4468242831863216e-05
0.0651003670590923 -0.02222284918241849 -0.004376300962787148 0.0023952775636431416 -0.002020499825735162 -0.000219662011147862
0.05705396890599706 -0.018764034201230875 -0.004866026107951369 0.002850250255012046 -0.0025931858442201287 -0.0005082132317317436
0.049046368663493614 -0.015797502149194023 -0.005195945269825284 0.0025420490181566886 -0.001915330240137784 -0.0006016402229050959
0.04188253892688621 -0.01325535861731938 -0.005232797201392682 0.0022845035182347943 -0.0007040010997924496 -0.0005559286974203343
0.035022519995429865 -0.010873716382741282 -0.004967908260074753 0.0021524889421813452 0.0005845106103797179 -0.00045995666786907767
0.028116727308052897 -0.008589934860297634 -0.004434719621242931 0.0020546904247389533 0.0017721408625467892 -0.00035984210565172335
0.021177141390453076 -0.006209971793648442 -0.003674145032308756 0.001983338563447408 0.0027866044404809996 -0.0002875581512267527
0.014966586320558133 -0.004713443236679297 -0.002721341630095694 0.0017616402884520202 0.003450686528416197 -0.00021079416750464174
0.010761297759786967 0.0006799227175519126 -0.0016132795180648714 0.004185134056676369 0.003141085080333091 -0.00016966485201395245
0.009312050448756484 -0.017981570298802926 -0.0014160830447678453 0.005375350180703296 0.0027765867282951704 0.0016582863199682647
0.005244173927785565 -0.01630416324456897 -0.00018692389573995416 -0.0010616894740598244 -0.0012087924668069145 0.0005917074317027457
0.006087450502837053 0.00021322496260771641 -0.0005814526302945377 -0.004860299811893204 -0.0014653535507929802 0.000497775277798777
0.009675931384162765 -0.0036839927120351835 -0.001512217170681865 -0.004382700131527671 -0.0018343233627527798 -5.506862319915547e-05
0.014587532670877744 -0.0052413947591858035 -0.002275472822161287 -0.0048303834839137005 -0.0015336105987246277 -0.00013915087473605114
0.019043474054087465 -0.007018558520783211 -0.002867227401750346 -0.005106018360417194 -0.0009714769663965569 -0.00020328757778906043
0.023590266285593516 -0.008822847937314414 -0.0032628651605753596 -0.005287689641724409 -0.00025972607725870773 -0.00023495354778637836
0.02812140051854047 -0.01069552501681824 -0.0034565394894918904 -0.005584413356812615 0.0005172591868892566 -0.00020481740617892306
0.03281009321901861 -0.01265962459959159 -0.0034404470831956454 -0.0061985889502528865 0.001234636183629328 -3.685804898564268e-05
0.03789835506354002 -0.014954226629103166 -0.0032326929223622826 -0.007094194575512796 0.0016250347059618706 0.0003905139411758109
0.042858230972284805 -0.018084564067451826 -0.002911417248617233 -0.006217091665101281 0.0012673651402189121 0.0011054891505562988
0.04513915218968754 -0.02090539493378397 -0.0027060399799526415 1.0697519711856805e-05 2.3405467902391498e-05 0.0016158131968765559
0.042835613803161324 -0.018078725719814 -0.0029039865737369897 0.006239466110018217 -0.001216123679209041 0.0011062403103358222
0.037850597668748126 -0.014940802690308449 -0.0032194522819877056 0.007119674135211277 -0.0015603232339564837 0.0003912356106588893
0.03273192279153706 -0.012634808405572935 -0.0034251622085526923 0.006229864815184973 -0.001146551654999331 -3.818612407489265e-05
0.028004266330799978 -0.010652780427278992 -0.0034460772584374746 0.005625191658281791 -0.0003934197364438481 -0.0002124833347935011
0.023420762785267054 -0.008751490847978981 -0.0032687836465106557 0.005343234009355242 0.00043818477916088137 -0.00025728136555128905
0.018802504622519152 -0.0069021926450632855 -0.0029065822718655054 0.0051822977132074365 0.0012327483305715305 -0.0002535517923430472
0.014231428522912174 -0.005058054327846255 -0.0023764727746227706 0.004948817665734671 0.0019195464472296351 -0.000240009497089929
0.009101045940944222 -0.003370816419315959 -0.0017003878370490941 0.004611343071748636 0.0022814726214799193 -0.0002121347955244097
0.005578741715019927 0.0004959759665788801 -0.0009572277512411233 0.005283522380482182 0.0016402305957844924 6.15076598648185e-05
0.004946457063173429 -0.015603496981187898 -0.0010717141548665854 0.003992591077583351 0.0010725961365927092 0.0021450510004997667
0.0026969866513574846 -0.011440288706142953 0.00033653443834194 -0.006880955422938411 -0.000424089551369072 0.0020399915393493518
0.0026182778115838106 0.0001506897658664321 2.6253583938750778e-05 -0.008459712154148345 -0.0005335268750197091 0.0007523751506256678
0.004275412187072878 -0.001269873922269404 -0.0005851721401515684 -0.007885895278083178 -0.0007464459695439368 0.0001917387503915073
0.0072956454765782065 -0.0027259238935051595 -0.0010825456899917828 -0.008521049844248296 -0.0006162167773147221 2.7452772436992726e-06
0.00969591577577561 -0.003601430349531892 -0.0014280292746483014 -0.008851400886804578 -0.00029978593444275283 -2.3383090827974837e-05
0.011926267119122811 -0.004498946329964824 -0.0016365770420395224 -0.009165316171500685 7.530258594692553e-05 3.4220305829700765e-05
0.014118354194025655 -0.005418354520550538 -0.0017168590857507553 -0.00963673219182571 0.0004642245712304881 0.0002230506774527066
0.016248339362767344 -0.0062448984785761835 -0.0016762442156937195 -0.01055424028406289 0.0008263991467813216 0.0006438464365738813
0.018654188976230106 -0.007197729684886951 -0.0015241512570188264 -0.012148156211743404 0.0010744246956034054 0.0014474215020408888
0.02181686409396845 -0.010004149364296505 -0.0012674399789863121 -0.01127218841176851 0.0009226507730134995 0.0026537249157469163
0.02361960405090489 -0.014826989347318199 -0.0010407929004102676 1.7261032137061326e-05 4.894378605386963e-05 0.0035256625197235074
0.02179050449053124 -0.010001288006830913 -0.0012498361247979563 0.011308341914961474 -0.0008191876885472317 0.002652136014878604
0.018599336066446252 -0.007190572397885991 -0.0014901624151838705 0.012189497326469184 -0.000954322919498179 0.001442616880789245
0.016160847554479833 -0.006230356340636229 -0.0016289246144116304 0.010605304422999931 -0.0006787789131752055 0.0006318334690434303
0.013992079873914338 -0.005391170591009005 -0.0016623792943552382 0.009703977582954146 -0.0002780193515347433 0.00019575500517804502
0.011752794905814622 -0.004450200308954173 -0.001586092859137559 0.009258044650167259 0.0001618777647606929 -2.288848763978396e-05
0.009462904810418497 -0.0035176583348461104 -0.001400401144971833 0.008983042008487417 0.0006044705354789062 -0.00013506004435721733
0.006976679930811139 -0.002584214988236954 -0.0011066492924144376 0.00872218166984959 0.0009993700873552353 -0.00019081408497093345
0.0039457992201001706 -0.0010693481714094241 -0.000703629839641749 0.00824891557724326 0.0011294016192632537 -0.00015530187601629121
0.002470583542571291 0.00010721833469180525 -0.0002860617643497706 0.009092375895243221 0.00064247683036142 0.000455096508814771
0.0026894316153231713 -0.011001178373277307 -0.00033174985851346604 0.00752868628076401 0.00028947518774946395 0.0031553675366003957
0.0008004343526297936 -0.007227494615551293 0.0010419611518647433 -0.007413535337439132 5.049483647219872e-05 0.002615714818882839
-8.736185263376504e-06 -3.4306792368296176e-07 0.0006943243273945702 -0.009916789876977635 0.00016230570257256337 0.0008837070251067572
-0.0004714937821053003 0.0005391303459976886 0.00033936681743232584 -0.009838380442168766 0.00023235244039640523 0.0002645747181603409
8.545246764675538e-05 -6.71676662264464e-05 0.0001135433771865683 -0.00980200040865271 0.00029820095249329673 5.129132688063525e-05
0.00028055836952357833 -0.0001491259476501803 1.5598253850432593e-05 -0.010092617694496252 0.00039107358210310717 1.5844920449709662e-05
0.00022123441376371202 -0.0001021506405528247 2.966907714716971e-06 -0.010449390037608216 0.0004597510203276925 0.00010075180537591479
7.645621816839415e-05 -7.439770412129979e-05 4.702311103525919e-05 -0.010991813806257399 0.0004966134732724289 0.00033785638311808786
-0.0003295993008000475 0.00018495104755999483 0.00013069749236506553 -0.011774561386254885 0.0005446268263024848 0.0008236241214065552
-0.0005574949888094466 0.0006822261775767719 0.0002501480644776692 -0.013497420008899875 0.000682491685552926 0.0017092093107933977
0.00127843213754956 -0.0018633827735044543 0.00046656268430145356 -0.014096970855667005 0.0007247677446263103 0.00308401689689982
0.0030297007352099066 -0.010659366890198514 0.0007742742135031183 1.9561099029035353e-05 7.440879023784228e-05 0.004207675087241964
0.001248455367956721 -0.0018636145994858108 0.0004943590568678521 0.014137946424383738 -0.000569338611542886 0.0030817165668790576
-0.0006191606896203593 0.0006828703975765023 0.00030491540318807836 0.0135442830114762 -0.0005076511163456272 0.0017027101518008877
-0.0004259369140989743 0.0001888191330473966 0.00021004369542818897 0.011832436723121563 -0.0003389444440405492 0.0008082938294154989
-5.8015804365999716e-05 -6.332220077541943e-05 0.00014542654132438396 0.011068053670599348 -0.00025123178903700233 0.00030451084701996423
4.5579455763225105e-05 -7.717890001219366e-05 0.00010924354353589672 0.01055525977997966 -0.00016950050214371013 3.23249356634792e-05
5.931989601231312e-05 -9.872147672167692e-05 0.00010942064441224941 0.010246144498717646 -5.552563177396973e-05 -0.00011524906035480592
-0.00016679875421687942 2.5043437169029686e-05 0.00016159618483507017 0.010035716944726984 6.70010596333336e-05 -0.00018482388451183989
-0.0006563865986980302 0.0006088537490293077 0.00028882342801263847 0.010207570880620895 6.992266092884713e-05 -0.00010468466217113501
-3.784222572856791e-05 -7.552628167269208e-05 0.00045781312800434167 0.010224824386015212 -9.858780880657501e-05 0.0006672372770828947
0.0008530798618843481 -0.006865297743542901 0.0005243356480219282 0.007543604111305371 -0.00015659682119478218 0.0033410472879176092
-0.0008861759055793568 -0.003791726264136432 0.0017699749503820622 -0.00591494352134249 0.0004500322042619094 0.002458028743920045
-0.0023566166252644676 0.0002021076478001992 0.0013894488717887574 -0.008687417810324656 0.0008034413156706244 0.0007546382889204562
-0.004876348021980812 0.0019517395814375295 0.0012593894123806273 -0.009164245413439657 0.0011772916580759186 0.00022553217978681884
-0.0069493676791229295 0.002506093447323478 0.001304439843537349 -0.00871905695978482 0.0012052304060089745 2.5696884678931247e-05
-0.009137595719417791 0.003333722707586471 0.0014547155670496493 -0.008829905339992233 0.0010861683935339398 -2.445682204061957e-05
-0.011510474404452879 0.004297392480373649 0.0016398300124784763 -0.009165400452505097 0.0008491139942237037 3.471490106036761e-05
-0.013930195909854956 0.005302672461222348 0.0018099962574011047 -0.009620402497795829 0.0005355609100601616 0.0002257285929929221
-0.016682166296159397 0.006402862505111807 0.0019368513533952966 -0.010214157237477433 0.0002494724528208016 0.0006176003048373349
-0.019729640070265647 0.008380453024100683 0.002014203826393999 -0.011035867825052004 0.00021800719074483127 0.0013287739632803568
-0.019466517382836127 0.00752329045499698 0.002133461090368158 -0.014642230395959402 0.00045672404173863527 0.0025895697881828184
-0.017704903366355284 -0.008142976698102338 0.0025526971301038258 1.7319685134890432e-05 0.0001003743900015034 0.0038869774450209504
-0.019500309744011415 0.007519962354084761 0.0021716411308217616 0.014678504140955609 -0.000248261167144249 0.002588185625999879
-0.019798554591311537 0.008374572159498049 0.002090162294220257 0.011077324557304489 1.28504708938643e-05 0.0013243894092242934
-0.01678811397796443 0.00639605717396901 0.002048925185246568 0.01026527470266737 1.59166049056727e-05 0.0006062771390650242
-0.014073973133716501 0.005297610560520062 0.0019533934438289643 0.00968760981949511 -0.00022872188177830788 0.00019956390243013224
-0.011689754113205473 0.004298365617708722 0.0018034887552303206 0.009259210578815793 -0.000503046562676705 -2.1058301998795712e-05
-0.009342845028741923 0.003349293086218973 0.0016167315582079572 0.008968166438649233 -0.0007173415781045529 -0.0001361201660988174
-0.00714526304725861 0.0025382638517480287 0.0014265394550842068 0.008930172646319326 -0.0008570063962214784 -0.00018112960447341954
-0.00498632348643369 0.0019532587024745133 0.0012818609434332696 0.009420335517164246 -0.0009418304380013749 -7.438666992237487e-05
-0.0023479585776812213 0.0001552763315508677 0.0012337708075301965 0.008800920655348083 -0.0007712716213486328 0.0005945915901574736
-0.0008261491341782604 -0.0035366439378697817 0.001379003887494992 0.005876933834548264 -0.0005362815724848718 0.0029267997462930104
-0.00231595939091035 -0.001571362514666662 0.0024379729249487643 -0.0031959902147357527 0.000954325180806744 0.0014866002664952035
-0.004519044608628979 0.0006648853640379873 0.002067847766007694 -0.004970803488928143 0.00153727180881538 0.00032828790968537973
-0.009138683227412934 0.0032122489364215415 0.0021676268765764505 -0.005404859094118076 0.002166307858061777 4.415858273709037e-05
-0.013880553427732098 0.004992167881613051 0.0024823988458920936 -0.00506909447880272 0.002117622322134486 -0.00011674922391494391
-0.01853235206057846 0.006784191662159299 0.0028797353652668576 -0.005082523638503809 0.001767232276704933 -0.00020069044627290454
-0.02320586737284334 0.008651421404887134 0.003257813855333587 -0.005286510370567547 0.0011991336481767922 -0.00023376267941163398
-0.027945136355112168 0.010586029385409628 0.003547447925828512 -0.005570820960306007 0.0004977207322020321 -0.00020308909741473315
-0.032607184811666405 0.012671956146030306 0.003699052049144608 -0.0058144271440001725 -0.00017001160558322904 -6.418702870858328e-05
-0.0384588455835876 0.01473540037216626 0.0037078407907692634 -0.006464258055555226 -0.0005232264301508816 0.00023255210975504906
-0.04112036901592652 0.019455814872029097 0.0035923235218746755 -0.008781541530214614 -0.00014354972158451255 0.0010305119786932044
-0.040209497290640245 -0.006349621694397381 0.004037329874469543 1.0821672347131366e-05 0.00012740926493111861 0.00249937046715583
-0.04115849837483535 0.019449506675477048 0.003641242364551364 0.008804175778915742 0.0004074273375251106 0.001031699320701637
-0.038536146614839006 0.014723230202119719 0.003805775352313922 0.006490020636804638 0.0008132732221374102 0.00023414951392013712
-0.032724705685831024 0.012654849702710103 0.0038452311550319063 0.005845968105908319 0.0004998511147769582 -6.414686078067519e-05
-0.0281015347042633 0.01056537554040482 0.0037381007837484635 0.005611925293874813 -0.00012191486310284133 -0.0002087013916735984
-0.023392909274010203 0.008629315269151096 0.003482459705002659 0.00534330293518136 -0.0007852569115529253 -0.0002531819680127688
-0.01872667635600256 0.006763069419250717 0.003115424439487979 0.005166540287340011 -0.001347844133098501 -0.0002500376315964355
-0.01403552928144208 0.004967929089710157 0.0026864847546085925 0.0051919326771540245 -0.0017637455664760388 -0.0002205478267276008
-0.00920148306211667 0.0031680918815465663 0.0022735622440611166 0.005530080640235207 -0.001979975020909158 -0.00010904462358826793
-0.004490648479294711 0.0006327172448114072 0.001997521571811137 0.004998364974510419 -0.0015482090985451072 0.00024720783771021656
-0.0022539507644053223 -0.0014257323929476847 0.002156854600649708 0.0031394040000963454 -0.001057319676296154 0.0017486403111132993
-0.003083067276707177 -0.0008260598210808326 0.0029507695552274168 -0.0012458224235207618 0.001838778198437375 0.0007630151508577713
-0.006254770616768322 0.0009344959148053595 0.002702714097261208 -0.001990051607134496 0.002533802259546162 3.478866333525819e-05
-0.01335968989427303 0.003824843832152955 0.003068983549963101 -0.0020623744552067695 0.0032382089640491433 -9.261149674233e-05
-0.020865134087335688 0.00622312150092534 0.0036649807999686334 -0.001986130057680849 0.003024580634976101 -0.00022721694976031198
-0.027893855419164847 0.008490262909812332 0.004314589319550988 -0.0020139528132394786 0.0023897739170017046 -0.0003421761488060313
-0.03483055167382488 0.010812070156195588 0.004884031187868628 -0.002120915057073667 0.001438074590258407 -0.0004552115580497061
-0.04183906195622322 0.013169235911600316 0.005281537703468831 -0.0022273564871190922 0.00028059748920534995 -0.0005563804129419343
-0.048769920577899285 0.01590594447294583 0.00544397906704485 -0.002463887025045226 -0.0008624793231355394 -0.000631258634171707
-0.05497910826871372 0.017341852975040695 0.005329378425960711 -0.0026063632725235224 -0.001603794942013884 -0.0005967700451851881
-0.06348892789805498 0.02620758700531101 0.004911022417423694 -0.005740310083547135 -0.0015316729528860667 -0.0003692328713120076
-0.06920285844160384 -0.005417232969318258 0.004723023188631905 5.628154060048418e-06 0.00015590381207457597 0.001751057801657613
-0.06353221390841039 0.02619983320026529 0.004971170148390793 0.005752147008733386 0.0018542894427692133 -0.00036665713868394437
-0.0550665780052518 0.017326630496782316 0.005450386762936618 0.002620008791014888 0.001957699738261437 -0.0005918196645390715
-0.04890212620985044 0.01588382134289759 0.005626234190647646 0.0024808187177255067 0.0012641351545500774 -0.000624516481678297
-0.04201325806337532 0.013141024502998101 0.005522773909476752 0.0022495216480732765 0.00017645181877093798 -0.0005492281313319553
-0.03503402740192477 0.01077867680755204 0.005175185236480318 0.0021510730551233754 -0.0009355214116843503 -0.00045085328105344384
-0.028091072108391173 0.008450975952483427 0.004633060142906306 0.002056812643909439 -0.001885638290255003 -0.00034787277941381804
-0.02099151864952676 0.006171710464692161 0.003965274561624759 0.002045713425768038 -0.002619462971137238 -0.0002554431406523558
-0.013367153152835102 0.003757880597068951 0.003276305564225919 0.0021244253270177173 -0.0030794167677994683 -0.000141712481797625
-0.006184426161706655 0.0009014218093979299 0.0027261325627116607 0.002013290371223709 -0.002646451495439164 1.1453051789401964e-05
-0.0029988964742331194 -0.0007318393142598467 0.002757160005813425 0.0012285893479582598 -0.002067707835368241 0.0009199443617517728
0.00855563126350811 -0.02187399512194549 -1.0045810754436002e-18 -0.009904875216422871 -0.00528417778373409 -0.0018692389574080338
0.01084573617753943 0.0010948447418460247 -0.0013573509461323049 -0.004427880305540466 -0.005701709895221998 0.0005858781490215586
0.01586523616059877 -0.004857279312310174 -0.0030742566900984745 -0.0015823602768118305 -0.005348037282452247 -0.00014637920036488465
0.022130567946027767 -0.006079509632093935 -0.004373466955519458 -0.0017199753356803684 -0.004752220761457917 0.00010011927756666907
0.02933224493281821 -0.008355338155260116 -0.005640671453595612 -0.0017081987830351122 -0.0036270684711864026 1.0274689533123582e-05
0.03660388947984723 -0.010480026960320337 -0.006791538806208197 -0.001751847588221366 -0.0021694524713368113 -6.989483962058068e-06
0.04371982182964519 -0.012634193164315912 -0.007784323329848406 -0.0017923923806709968 -0.00033731279626200245 -3.279918782433555e-05
0.05064639583193249 -0.014771403267343672 -0.008546224503337802 -0.0018878078031050439 0.0016863520626790216 -2.5990929479097042e-06
0.057368822348803236 -0.016961295473578143 -0.008990853160947157 -0.001983570059991261 0.003260930461671876 0.00021284917541777276
0.0632145822181486 -0.019203798871674838 -0.009090272580540817 -0.001597158448729558 0.0029796030233679043 0.0008176163495023624
0.06575828036039888 -0.02060108182858024 -0.009038479034405526 5.376327494843904e-06 -2.8208574213891108e-05 0.0014509913061699147
0.06323039036385941 -0.0192076927305772 -0.009098380175692394 0.0016078272390354098 -0.0030328473002030534 0.0008213382543303711
0.05740277273939488 -0.016969344113259927 -0.009008745904722145 0.0019938448434551736 -0.0033041824924048982 0.00022016139175912318
0.05070405831344249 -0.014784272463706168 -0.008577661993539222 0.0018968718182793163 -0.0017111597510930535 7.594241999948071e-06
0.04381233073236278 -0.012653327540667156 -0.007835945590836344 0.0017987328183325573 0.0003439876773532329 -2.0672386801468447e-05
0.036751770471099766 -0.010508589679530085 -0.0068748459732870595 0.001752195076755412 0.002227411064377503 6.405758364330891e-07
0.029574327670161285 -0.008399589566539634 -0.005772847533060051 0.0017014658449633574 0.0037806031017961293 2.0996956604055816e-05
0.022527055456778314 -0.0061503457727466754 -0.004589792064326633 0.0016870131642795336 0.005016746513337196 3.8830859444584774e-05
0.01659562785486119 -0.004996701667955169 -0.0033805411939146737 0.001521196904422337 0.0060389344849530145 2.8904674799622585e-05
0.012483175046735843 0.0007952624193556905 -0.0019177194795684759 0.0043907519037527445 0.0051024345022284345 -0.0006911333432331877
0.010860682089225753 -0.0222511147707801 0.0008189723748777156 0.005852572937766436 0.00431060574667203 0.0034436888990046544
0.005121528981431958 -0.019257246591526552 0.0010201926448556687 -0.006356225732599559 -0.0008899290746836847 0.00017515828960459033
0.0056879636435482476 0.0006209885895342145 -0.0007169108787077528 -0.005522059033783057 -0.0019173250873006627 0.0005324587340275205
0.00937181294479299 -0.0033297587757768754 -0.0019500478670922419 -0.004347656477014373 -0.0032618520768669767 -3.495886701768249e-05
0.014788040123004803 -0.004889918707142521 -0.0029752103631280518 -0.004514328771188669 -0.002735310384698398 4.708446484258075e-05
0.019531832424730944 -0.006622466318497226 -0.003871690353951375 -0.004648976626386398 -0.0020382935248700025 -7.401324540755505e-06
0.02437941710941274 -0.00833000280152759 -0.004684340168163411 -0.004674566233997796 -0.0011107871461388974 -9.073194755550716e-06
0.02911367541971462 -0.010033496557217565 -0.005374243207673735 -0.004714796803208554 -2.185941024382897e-06 4.4612719876177324e-05
0.033678257564443516 -0.011700946698216428 -0.005900890726409939 -0.004840644166697646 0.0011886657688523247 0.00025615667837286326
0.03800780801689228 -0.013402991551918656 -0.006214584149352656 -0.005018652853043132 0.0021107212545852017 0.0008695982954800674
0.04168068819658541 -0.015415200904244652 -0.0063012025893915465 -0.004117813369454113 0.001945277894919117 0.002208042160015559
0.04326070030071174 -0.017193169262567018 -0.006276206774707615 7.78269832846759e-06 1.0867894147881927e-05 0.003541054209958883
0.04169618906317074 -0.015419982479188568 -0.006304435867112716 0.004133139608626501 -0.0019185960528221525 0.0022088433765074487
0.03804089869810762 -0.013412781573611376 -0.006222645635446382 0.005032952687935624 -0.0020690238570891823 0.0008703138707970457
0.033733800771314486 -0.01171628421534058 -0.005917376287692793 0.004852106253561625 -0.0011210589886440504 0.0002545025313444395
0.029200944866153163 -0.010055489568757854 -0.0054057401690347055 0.004719736843663691 0.0001081851440682241 3.6011924350509856e-05
0.024515869115828304 -0.008361201380133715 -0.004741735333581888 0.004666450119230733 0.0012731076960514516 -3.407957983232892e-05
0.019747694130619692 -0.006668086928155887 -0.003974025464745926 0.004619000063725871 0.0022765878450095914 -5.963839515082715e-05
0.015147794278445313 -0.004958309350510432 -0.0031463967770060564 0.0044389908984041075 0.003105476492900131 -7.12138254498549e-05
0.009997651340932652 -0.003465580290479056 -0.0022428641760757657 0.004155176384090092 0.003727887377240331 -0.00014132368093090102
0.006314871391242435 0.0005431946550684656 -0.0010425254192825558 0.005062894747395342 0.002040953213047584 -0.00038764887637349996
0.005578217247248561 -0.0194337433804791 0.0010411485929345365 0.0037729323243319737 0.0006103566689094847 0.003632719494971904
0.0028394038695002816 -0.013909319250933324 0.0014447954558897893 -0.008389149236903641 0.00014111148781828706 0.0035035310407310256
0.0025098000347479566 -0.0001834403722348507 7.750371170121606e-05 -0.009589943028266283 -0.0004382778887059189 0.0005265458179641569
0.00395078001177447 -0.0008613897967246615 -0.0008139192784177178 -0.007930616208605279 -0.0013162370308112817 0.0001605484552035166
0.007131610482896082 -0.002394518382883253 -0.001435840418217746 -0.008155730926889343 -0.001117935257653028 -2.2273158344813988e-06
0.009745711857339788 -0.0032641430696419603 -0.0019318015581770043 -0.008244121139681104 -0.0007085293400448898 1.740160058052702e-06
0.0121531262840045 -0.004111184961649814 -0.002355476053956227 -0.008276360557030167 -0.00023906591651037131 5.3218614150340404e-05
0.014499168094392575 -0.004945614938333819 -0.0027043388261529496 -0.008296184470406783 0.00030352867397245983 0.00023420745440361353
0.016675411234354086 -0.005686619406021232 -0.0029603562029564927 -0.008386323133118696 0.0009197129245726843 0.0006872742367375505
0.018767206442924508 -0.006415987712929323 -0.003105136559509995 -0.008677758834358168 0.0015948264228945069 0.0017514518809092787
0.021027996105683587 -0.008173033706688869 -0.0031212523398382796 -0.0075056500922833815 0.001772428594549348 0.003964298457466053
0.022234397925329722 -0.011302353426696317 -0.0030647246614476974 1.1415781490529663e-05 4.552884084487197e-05 0.006523561559174994
0.02104296458086165 -0.008179547597108773 -0.0031194666384957476 0.007528041339900456 -0.0016750198788942155 0.003962443742056615
0.018798759644498158 -0.006429146783199731 -0.003102950312169898 0.008698312221207673 -0.0014785111773814137 0.0017461208114694078
0.0167271577388027 -0.0057066494491918906 -0.0029609667622906015 0.008401938475402921 -0.0007724694062387366 0.0006745231699538979
0.01457789038127929 -0.004972861895497078 -0.002713639279352919 0.008300476631205176 -0.00011419496516110658 0.00020588235674796836
0.01227135524370473 -0.004146869175036568 -0.0023837265298874304 0.008258052757469294 0.00048027330602871363 -4.813292880074061e-06
0.00992730355943411 -0.0033107179554406753 -0.001995596034159287 0.008185219955663474 0.0010117150113889367 -0.00011318837914123815
0.007425787697944575 -0.002460388292855072 -0.0015619323311486008 0.008021649715264163 0.001494338001050396 -0.00019318314608205158
0.00432624544567577 -0.0009395795799417153 -0.0010318147726863973 0.007616955116758804 0.0016971142152789017 -0.00022322972334993114
0.0027865838924750887 -3.757778502418941e-06 -0.0001767148039165821 0.008956070012001273 0.0005160634397770556 0.0001664582733257703
0.003009255996152854 -0.013906378956255593 0.0013016512927225186 0.007662393258780912 -0.00031536486685799505 0.004909632697961055
0.0009624527717879794 -0.00877195766193572 0.001679321354963431 -0.00793210455000865 0.0004555905788944937 0.0038412690048751767
-4.532082171746173e-05 -0.0004871921451070324 0.0008133953537711727 -0.010535877408867361 0.00043507504426035096 0.0009444948203032657
-0.0008088993767299983 0.0007412420042695403 0.0003304738252398226 -0.010017873097852476 0.00027219575767152267 0.0002383048475431201
-0.00033472778379434 0.0001407197143786276 0.00014612491913810157 -0.009462691269555975 0.000380510388588901 5.8951401699286436e-05
-8.543269738791107e-05 -1.3622295989806755e-05 8.011962649200936e-05 -0.009461346119149111 0.0005111221402056916 5.0516216081320834e-05
-6.814352678808414e-05 3.302769616591278e-07 6.226637671630776e-05 -0.009482365630879508 0.0005800598018918906 0.00014973964730653866
-9.49960305129617e-05 -5.183607883747426e-06 7.214209677470214e-05 -0.009504617956556565 0.0006275885442924809 0.0003899256573113904
-0.00027774843820361036 0.00011540490895175137 0.00010313154752543155 -0.009439123523600443 0.0007495852813389469 0.000904096796992911
-0.0003953422504973128 0.00041616599440370806 0.00014020640674181962 -0.009741143692465582 0.0012702024606985212 0.0020079007432495756
0.000760656250157873 -0.0011287553523220157 0.00019526539193723096 -0.009534334089703961 0.001963423108385931 0.004419710919447904
0.0018798333040812723 -0.007062445928923926 0.00029883566346843336 1.2413217687198228e-05 7.843072060977746e-05 0.008375762388716892
0.0007749647913464841 -0.0011369591374616485 0.0002021724435420024 0.009558665846738543 -0.0017989220956158391 0.004417085747812929
-0.0003657067075359463 0.00039976203163872805 0.0001529063354475693 0.009763410958965064 -0.0010833334777772357 0.002000793126885654
-0.00023065895305800379 9.09713659012074e-05 0.00011898677039509973 0.009455835954470014 -0.0005275354813647617 0.0008879552100483707
-2.672481403224223e-05 -3.71265435517079e-05 8.610329990136814e-05 0.009508514786718108 -0.0003616164732997989 0.0003556965461457631
2.82704886827739e-05 -3.844155511978674e-05 6.540919703739413e-05 0.009459911266437493 -0.0002683833279296318 8.017691313075959e-05
5.518491465724918e-05 -5.963846348961356e-05 5.7359117342532844e-05 0.009389601382493165 -0.0001612471044146872 -8.242888510708397e-05
-0.00013673539280871074 8.544245102543278e-05 7.378752764845267e-05 0.00930174383082387 -1.4927720884794698e-05 -0.00018168465586436433
-0.000607276432564894 0.0007405581026233784 0.00018709699271588 0.009695021522808633 1.2986580108312967e-05 -0.00015021272891283075
8.401566662741453e-05 -0.0002959718039850796 0.0006222124031648797 0.010197473758762681 -0.00041122753201538944 0.0007101535005984388
0.001045411970146178 -0.008797241757503238 0.0015173684597607415 0.007696807144654245 -0.0005963268659597261 0.004681795540044996
-0.0007404438839633205 -0.004553159171648838 0.0018949664929425547 -0.006005713074008389 0.0007685622332498902 0.0033222426813167374
-0.002382312316408841 -0.00018294548342080412 0.0014877201216564023 -0.008925351264824542 0.001240892118682671 0.0009631428504249912
-0.0052539926594028005 0.001986461220370448 0.0014499625767799235 -0.009226605101095154 0.001753663340071948 0.00024743996273586457
-0.007595745994905928 0.0025479435824117334 0.0017177480501489515 -0.008387610738939948 0.0018740611753808338 3.031829034782974e-05
-0.009907475725197554 0.0032666069734384956 0.0020891934248774098 -0.008214030718684345 0.0017443179185556718 -1.0944412760254851e-05
-0.012312761238192327 0.004111910289576641 0.0024782300084285076 -0.008257105217451934 0.001410044334550538 5.4523883886166034e-05
-0.014670918105816355 0.004959984214908142 0.0028479782274133977 -0.008276832847557243 0.0009715484843307709 0.00025458329774042694
-0.017109362840704093 0.005791212730870184 0.003168964216404271 -0.008202885341601615 0.0005415682362275868 0.0006213663085208302
-0.019582205701298216 0.007168277450109306 0.0033854906461509506 -0.008065268853773426 0.0006763256649903143 0.0014042966337090858
-0.019619494372957163 0.006805901786735313 0.003446532296850552 -0.010196666312515168 0.0020896602454472902 0.00323038359962428
-0.018466335144668933 -0.004226544374151854 0.00354789992319321 1.1688744704761318e-05 0.00011203544336156231 0.008760304238781788
-0.019605819784484554 0.006795952369860732 0.0034586255211615925 0.010219674235255388 -0.0018565483009957647 0.003228921422286217
-0.019554453091630567 0.007148525984950746 0.003408861904090392 0.00808665547830428 -0.0004170334617014264 0.0013997533615187083
-0.01706691556385438 0.00576221692730372 0.003201576120057143 0.008219705957208896 -0.0002422785359629205 0.0006097910047295894
-0.014613234619324589 0.004923198661755228 0.0028857107616727246 0.008282747004509284 -0.0006256410603209453 0.00022797992020934086
-0.012238630210481317 0.004070069254563434 0.002513470310943095 0.008239559618801181 -0.0010242053236679887 -2.342667099656513e-06
-0.009813938285829887 0.0032223389581670474 0.0021087087219792636 0.008150469794990399 -0.001345428894193546 -0.0001259396365641439
-0.00748866833593907 0.0025123234932222837 0.0017011371044700241 0.008241058471334108 -0.0015184971425174238 -0.0001847195678997556
-0.005167039682036245 0.0020129832118910783 0.001376362402527185 0.008999951028842277 -0.0015418440194568466 -6.753145570726439e-05
-0.0023295308545448158 -4.8943440243934876e-05 0.0013600977471950099 0.008780012970411819 -0.001248688149604761 0.0008019069667140348
-0.000698853110571343 -0.004576015601420302 0.0017550569389731324 0.005951444810976517 -0.0008845481865881392 0.0038796628302941623
-0.0021788787125909563 -0.001807952189669303 0.002198369186295982 -0.0031406907739988683 0.0013773466697081986 0.002156582681774119
-0.004544056842322186 0.00044964051951210473 0.002129505536877795 -0.00499000376004928 0.0022959394268331204 0.000655488958658
-0.009580491527196804 0.0031793215999723038 0.002518949667398199 -0.005322628262826303 0.003390475350005816 0.00022593763035381537
-0.014771577001483951 0.004963081106553516 0.003227649865486106 -0.004771988953350376 0.003518699149726941 3.573586314770354e-05
-0.019730576052919287 0.006648426702345531 0.004020943258468538 -0.004616132215379918 0.0031048144064797093 -1.6513387519749413e-05
-0.0245645300631556 0.008352122929400744 0.004800258105321099 -0.004653013223900615 0.002323646394428621 -9.289910759198634e-06
-0.029306944048367076 0.010049813661860016 0.005516515045916154 -0.004696240880859952 0.0013123557784259945 5.84657131646079e-05
-0.03375063517838052 0.011758674175855537 0.006115022307909502 -0.004609058063830199 0.0002820860970008779 0.00023671821191030996
-0.03862466059125179 0.013274129553806073 0.006510675846816375 -0.004754519076904933 -0.0006317989327974024 0.00037127907629289704
-0.04062904189728064 0.016839795815593032 0.006450158004814653 -0.006440100604034186 0.0013186794765992305 0.00120728102988183
-0.039852155568674726 -0.0019865459073245694 0.00628752823251555 8.106354558663076e-06 0.00014881643562976947 0.006448692195446855
-0.04061583683866976 0.01682797251365934 0.006467457996649464 0.0064561687991215025 -0.0010102392636279953 0.001208704330062716
-0.03859838510914553 0.013250744587531619 0.006544749384792636 0.004769845295902686 0.0009713659338599671 0.0003732422459138796
-0.03371199914561063 0.011724602701069616 0.006164397545045298 0.004622025403384094 0.0001043592337584686 0.00023699719242982353
-0.02925811014428527 0.010007314095562013 0.005577890344373483 0.004703137813260479 -0.0008733558324656685 5.245849276571832e-05
-0.024510395188586335 0.008305696035502517 0.004867097433041603 0.0046463020395612255 -0.0018458954393131746 -3.0843023034135115e-05
-0.019681029846214913 0.006606177224235193 0.004081576625326611 0.004580926807516879 -0.0026349857846893598 -7.208015575563205e-05
-0.014742812141185698 0.004942570674844133 0.00326362267440891 0.004689148019512672 -0.003147293707643036 -8.136961183474023e-05
-0.009582190575531693 0.0032115771712707608 0.002507693745110172 0.005211038964038625 -0.003229827981387089 5.400559241386644e-05
-0.004550371448908631 0.0005301923200076984 0.0020609905333384693 0.004940691087260272 -0.0023469110548605715 0.0005713841759432491
-0.0021745458514027287 -0.001805592914855075 0.002093213017364281 0.0031293138588675503 -0.001508761092926082 0.0024755935677838368
-0.002927405984935115 -0.000875360919153341 0.0026674447206267524 -0.0012029400396781598 0.002633243444960505 0.001397670614451453
-0.0062711724362701626 0.0008048008973438462 0.0027710681740624847 -0.0019527424148327772 0.003954772021601511 0.0004556964494959531
-0.013901983483239504 0.0037887461219485506 0.0035036163538496663 -0.0019177474813141492 0.005503749037614614 0.00024524989327475837
-0.02205802467346304 0.00620042346061623 0.004599838859394927 -0.0017389124031941972 0.005549180242806496 0.00010159587915468021
-0.029574634014427 0.008375086523384038 0.005767276206643207 -0.001700183287028483 0.004771106333879702 5.0550446268875026e-05
-0.036814021003705455 0.010523477114136313 0.00689563052495479 -0.0017397569365256089 0.0034349636224491804 1.6392796869571334e-05
-0.0439301023384961 0.012627721604684693 0.00792259370296041 -0.0017619186500885137 0.0017281560023929268 -9.328216506567899e-06
-0.05070448283918207 0.014908481390827504 0.00877200875258273 -0.0018418012219315158 -0.0001595509881925888 -4.694379992918634e-06
-0.05629322924801727 0.016031323991800444 0.00932961874748125 -0.0018961575878598518 -0.0021029806040828505 -3.431746928875493e-05
-0.0621686510106454 0.02252974182963467 0.009136224585110361 -0.004596427457956669 -0.0031373148688979423 -0.0007433095663607619
-0.0657021455520377 -0.0008254447673544199 0.007628669040973396 3.891427956877842e-06 0.00019146535239047578 0.006856933141620431
-0.062155721353677834 0.022516944979091506 0.009158683209010388 0.0046042202792801815 0.003533458244191291 -0.0007406397736363394
-0.05626786630102801 0.016006035800875854 0.00937424604395633 0.0019038586887831822 0.00253720403934216 -2.943653436501779e-05
-0.050668269233658254 0.014871717210743008 0.008837759463185706 0.0018488700328836523 0.0006511833258909371 1.2392844602548232e-06
-0.04388699580768948 0.012582049974655753 0.008006678322351586 0.0017669298990790271 -0.0011721186943200652 -4.723863837216346e-06
-0.036773323330473534 0.01047429572097439 0.006991965026724852 0.0017396863113439054 -0.0028321217642836567 1.4801943037147635e-05
-0.029556755089419618 0.008333251226266285 0.005864454227539095 0.0016886374443256984 -0.004184388253079451 3.294447698890812e-05
-0.0220936136040206 0.006185882922730522 0.004679121998040836 0.001707343096905576 -0.00510760806424746 5.302067391711685e-05
-0.01399477019124543 0.0038230043708866123 0.0035399445577308994 0.0018716671051008057 -0.005372302507765198 0.00017125362576189335
-0.006353206080028846 0.00086497036031918 0.0027491238828682304 0.0019296385365273243 -0.004120948627106966 0.000422851895579564
-0.002976601094115146 -0.0008572522195429086 0.0026030103297901962 0.001184087020607483 -0.0029067457304563175 0.0015906731977550282
0.00914646261878453 -0.0339910900089384 3.686287386450715e-18 -0.019256431204787403 -0.007938782849949389 0.010003806483954767
0.01101265107717015 0.0035334408035941527 -0.0012742104317833524 -0.008554082422857101 -0.008263332178860772 0.00034020117471686017
0.015345625818133613 -0.0047924981595870155 -0.0033606455571119163 -0.004032626297916908 -0.00807270178528869 0.0028062239555643434
0.02158029145788573 -0.005629907109684327 -0.004724770716120471 -0.004158531011345589 -0.007182942377449685 0.003044859654705122
0.02929380772108468 -0.008097937952007982 -0.006249183584643199 -0.003919301817463704 -0.006418949130225274 0.004181907443004911
0.03711648166701989 -0.010262461971643573 -0.007716237142567725 -0.0035560611941394624 -0.005041715453992276 0.0051568215865787324
0.04474656602432143 -0.01244799188990968 -0.00909628447146535 -0.0029704151657379122 -0.003144576221484636 0.006158589672109187
0.05192126091056598 -0.014544764828964484 -0.010303916177464382 -0.0021652664493123953 -0.0007664506033791518 0.007142955276291969
0.05794130109469012 -0.016365587471407726 -0.01121569862839835 -0.0011269613327488386 0.001551710573723617 0.008157703165553965
0.061773428578925954 -0.017424636867069826 -0.011718549333505987 -0.00020939553869807012 0.002209210279261969 0.009248011953466646
0.06301835973695778 -0.017484785663065223 -0.011857003495876792 -2.5647282744299064e-05 -5.310545165512331e-05 0.009991693250111115
0.06182039806955855 -0.01743960095505593 -0.011729614586380681 0.00015676934460716568 -0.0023144884148739195 0.009250591756046362
0.0580442719184419 -0.016398311452850034 -0.011239573246272309 0.0010703419066478489 -0.0016539073960786595 0.008162816897493746
0.05209949524637751 -0.014601145899184601 -0.010344475556388072 0.002101898062756795 0.0006706632858596821 0.007150734105546193
0.04503212798000663 -0.012537416562161103 -0.009160091426384272 0.0028977600354761933 0.0030601189527099315 0.006167982183360606
0.03755658764180046 -0.010399226629926041 -0.00781526854252618 0.0034705411234396966 0.004979433572320536 0.005171584101112829
0.029955184792898156 -0.008298477253677335 -0.006398052622096351 0.003821282442582707 0.006379111898563468 0.00418332108699587
0.022552561431422757 -0.005917979868726629 -0.004973000241180278 0.004019760952367312 0.007228893023459775 0.003122806893488363
0.016916454551833354 -0.0052059370120257865 -0.0036581314910136232 0.0038645975749267577 0.007946299704169782 0.002547394164452384
0.01439356674099677 0.0029590563827760915 -0.0021839425256365364 0.008875492596275342 0.010625458463640658 0.0018714744759878857
0.013919583747927754 -0.035871034661668674 0.002863057390349143 0.011574858489211214 0.013917772586010596 0.0038800485005364253
0.005618181911962943 -0.02950863423103199 0.00237460908827256 -0.01235990016829829 -0.006559147034707466 0.0057505974957564685
0.0050737338435964145 0.0023596412549847464 -0.0008333224584125025 -0.010241251210889863 -0.005492172573483021 0.001724860252911134
0.008100775192220827 -0.0029396020938680795 -0.002173344581043997 -0.0085209749879235 -0.004983149057850561 0.0030236723947737526
0.014069651818040688 -0.004515485387692565 -0.003360227864846511 -0.008630237987930398 -0.004405955601176096 0.003921025206975396
0.019104554831789283 -0.006371310775874908 -0.004447707651920437 -0.008436109438098496 -0.003823482135944723 0.0052020575484246654
0.024317354933395794 -0.008138711287948205 -0.0055250420713003736 -0.007748694164124046 -0.0030129625524080044 0.00647947927251751
0.029382592985232582 -0.009881989134713583 -0.006522414652976566 -0.006732630333800491 -0.0018852758715173577 0.007764232400854169
0.0341450919025868 -0.011583744169220889 -0.007391602594071226 -0.0052505646096445225 -0.0004934026416500272 0.009090206595112364
0.03816036654457959 -0.013057733365313186 -0.00805249587782625 -0.0031014923365343464 0.0008774412218754351 0.010599574901802637
0.04074742171311877 -0.013700550216689172 -0.008449412747614852 -0.000816308802087648 0.0013085664006151467 0.012492998403509764
0.041603586866465946 -0.013201857252384118 -0.008598897511779046 -4.572819728897062e-05 -1.2721012495842843e-05 0.013961551538956778
0.040796804207246636 -0.013716119593758739 -0.008458481935595898 0.0007219402564680785 -0.0013314755037853983 0.012493269117272422
0.038267396562925375 -0.013091506422962015 -0.008072413144064235 0.0029982410866461976 -0.0008926686126479029 0.010599770533480971
0.03432700145342282 -0.011641158301711262 -0.007426215117113126 0.005131974687151598 0.0004910821871977415 0.009089593245917111
0.029666940139977022 -0.009971604555838304 -0.00657858847639581 0.006591508515747968 0.0019017055300273682 0.007761293101398442
0.024744117761870018 -0.008273209264580899 -0.00561315126400732 0.007577011859628829 0.0030520082271844827 0.006473047452308187
0.019726278816295528 -0.006566324761888803 -0.004587975980735 0.00822548718781074 0.0038950233651089744 0.0051853169630599
0.014967928626985637 -0.00478623545764835 -0.0035687208611002367 0.008345903380055338 0.004478877203765526 0.0039176115067869
0.009389889596773638 -0.0033140803842815593 -0.0025412318103578474 0.008082126745951011 0.005189315165294066 0.0029059384361938404
0.006237609295878772 0.0022105004094371376 -0.00116987444861467 0.009659644605463171 0.006280608684968243 0.0024740521978585434
0.006430486127802183 -0.0309565785634926 0.0029503293106554916 0.007734463201377267 0.007766315892075508 0.002335694283418051
0.0028969690207676685 -0.02053238697227564 0.002596537712580017 -0.014511291836767396 -0.003994032192652353 0.001904593458963068
0.001701221718630559 0.0004923943017697735 0.00012442910842535966 -0.016635153143483433 -0.0031257477372207683 0.0026806558187647154
0.002517230845537448 -9.179237791607321e-05 -0.000938362700843617 -0.0145097510020277 -0.0024631907055793745 0.0034521647262041933
0.0061538562825069355 -0.0020365255821158212 -0.0016285193659085699 -0.014756997998658077 -0.001997554388833832 0.005000912112638484
0.009122261089816978 -0.0030202296201674735 -0.0022267374762020876 -0.01425580747690762 -0.001633715741259972 0.00659995724646317
0.011802237901829672 -0.003943406586184671 -0.00279360944718104 -0.013158794254079707 -0.001236353632646859 0.00827968520000693
0.014442469662283205 -0.00483737947656988 -0.0033178419450587376 -0.011527587786323163 -0.0007031647143428541 0.009974741180535525
0.016992052509999307 -0.005774951339650208 -0.0037707201663861097 -0.00915701654791698 6.838233215549206e-06 0.011762736043805521
0.01916917592810461 -0.0066143006941078745 -0.0041263042273220855 -0.005499352999596401 0.0009093616293721641 0.013868161496884135
0.020287079124936488 -0.0063188497432663596 -0.004388565015980101 -0.001186925652523642 0.001389982221260225 0.016742756833429993
0.02048571778411057 -0.0041852516014278815 -0.004558704414358454 -7.30741944200815e-05 1.955143035238203e-05 0.019449293339530042
0.020337176083645055 -0.006335386591049853 -0.004395397802138782 0.001035929065799998 -0.0013470188636290088 0.016741248296069253
0.019276730125784444 -0.00664970153335653 -0.004141586281973903 0.0053335256692053565 -0.0008550100185332414 0.01386469260015931
0.017171921933725683 -0.005833821553253758 -0.003797970212588801 0.008965422791586138 6.57737786852447e-05 0.011756217182638733
0.014717433490817042 -0.004926618260731317 -0.0033629900797272805 0.011297575072216357 0.0007991022296505501 0.009963407829873854
0.012203424147551484 -0.004073073179953427 -0.002866330036598447 0.01287546056975651 0.0013575543363191903 0.008259592517348225
0.009688416519035554 -0.003201966457371533 -0.00234127752901021 0.013900559871094943 0.001773994759047771 0.006570508065054437
0.006923935384485964 -0.002278894330433019 -0.0018094113570677685 0.014282400534109549 0.00214214703585098 0.004942281522275979
0.003317845812069243 -0.00030826822685196516 -0.0012157840022014518 0.013820082886389114 0.0026637512882994176 0.0034651249379294927
0.0022360946405066535 0.0007808597654434623 -0.00011810724005307763 0.01571579934291704 0.003422802293291902 0.002721818635497544
0.00324646791974974 -0.021416312141719386 0.002718262322484054 0.013716456890623608 0.004382685330659314 0.0018203124745832088
0.0007785005754440435 -0.012312104549614492 0.0023188983989692056 -0.013419289704742592 -0.0018017471945943092 0.0006716436313679611
-0.0008877388454961529 -0.00026101992872293154 0.0009018971552893794 -0.01759213684472778 -0.001020823920845934 0.0023279921473105336
-0.002229379222951245 0.001556686107917707 0.0003339887974684249 -0.017662724161492165 -0.0001610189074488034 0.003569356466841411
-0.0014576022941529486 0.0005995786307367273 0.0001903808768426041 -0.016862063083308815 0.0002676458696993467 0.005258635392306546
-0.0008453517970575327 0.0002546647928685416 0.000137472879471437 -0.016168854243735167 0.00039443711491063003 0.007005323220779527
-0.0005704460556793112 0.00017900372491055124 0.00010653456713725939 -0.014915704560015659 0.000429013631417626 0.008786085546070055
-0.00031559181187484 0.00010592615590605594 8.582461344811996e-05 -0.013094481412834164 0.00046038442514128756 0.010606260089079481
0.00010581768092767809 -7.483812398917462e-05 7.230557763689385e-05 -0.010534081321038658 0.0005801102958810803 0.012502186152108276
0.0005780994617092524 -0.0004248435447151257 3.9130024899675976e-05 -0.00634500896549285 0.001123040355187229 0.01467671954821161
0.00013267859643779868 0.0007725203209135729 -9.55374689804054e-05 -0.00039307890437096326 0.0018256210465572738 0.017797249587508494
-0.0004965177482063586 0.005955809820068825 -0.00035100051613526297 -8.204554312532032e-05 4.855377862097097e-05 0.021818566377492174
0.00018276491127532666 0.0007553318746740044 -0.0001000057846919974 0.00022339587487494916 -0.0017234109747797763 0.017795190384490615
0.000684639772139389 -0.000461273450927067 2.8813250817965068e-05 0.006158221635446963 -0.0010059477774855712 0.014672086730015393
0.00028113319267932945 -0.000134380583671135 5.3199283220492825e-05 0.010317605931764399 -0.000439920925598052 0.012493807071481554
-5.4065853425164364e-05 1.790454995665107e-05 5.3038252414697165e-05 0.012833538936480595 -0.00029246266845625536 0.010591840625564355
-0.00020171002395414918 5.544994336940361e-05 5.265199519464168e-05 0.014591772712326605 -0.0002359429198181315 0.00876210620351014
-0.0003475810984785569 8.750026621125519e-05 5.131371156055493e-05 0.015756398095149983 -0.0001915273785480335 0.006965639626741325
-0.0008622507216580497 0.00039687107019335864 5.464703954348309e-05 0.016322864887765322 -7.880588853940648e-05 0.005203624781661952
-0.0017255417451899205 0.0014991563125718687 0.00014081251741545248 0.016982362858249306 0.0003170219444916997 0.0035391131872097984
-0.0005990338532416675 -1.4971928764861584e-05 0.0007257557573390149 0.017191438604980645 0.0011517384462883767 0.0023932015930754717
0.0009713046855016261 -0.012926875825357759 0.002330008324002139 0.013291147088353206 0.0019644742067334814 0.00105270711910658
-0.0010923241189204165 -0.00589901019977575 0.0020273725674205554 -0.010198731759699767 2.6450712455736923e-05 0.0005303293324971556
-0.0032385376220482776 5.329899011856932e-06 0.001518709786915067 -0.014794107520753491 0.0009563872277241942 0.0018063257796427851
-0.006621098653289006 0.0027640888692287463 0.0015639992349662682 -0.01625231591218912 0.0021696872653382527 0.00329985570294984
-0.008793486600646055 0.0030511301820057668 0.0019959023004814274 -0.015147185858711363 0.002573668884208672 0.004954165884924756
-0.010798544587819012 0.0035703519195011716 0.0025013177913654734 -0.014269171499424443 0.002450520701082288 0.0066153471606824705
-0.012953879354117017 0.004307391668262011 0.003005734260229864 -0.013150278579953566 0.0021033672916103588 0.008281126337077659
-0.015083821803239403 0.005028220167569384 0.0034884468113000606 -0.01154705313331929 0.0016553771269905318 0.009992705419494279
-0.016861399583218313 0.00571516596566784 0.00391982050053711 -0.009266165198768763 0.0011229270082382245 0.011711559191608475
-0.017955341330208714 0.005776856785438855 0.004217031449460974 -0.00588971961925972 0.0009995435814401444 0.013546003963886211
-0.019954493120084068 0.007044634564614791 0.0041766068069071976 0.0015140061499696474 0.002043128721681966 0.01608560257561597
-0.02158143098223207 0.01780077163517107 0.0036611200586992004 -7.384940316251939e-05 7.819935341110309e-05 0.0213304955138263
-0.019904203356860432 0.007026761216561947 0.004174496892761368 -0.0016668186966950702 -0.0018802498026248397 0.0160842338147898
-0.017849407448411445 0.0057393237718042014 0.004211693887690342 0.0057212967472976516 -0.0008179041271947861 0.013542839366325287
-0.016690072150257477 0.0056547869422858355 0.0039089099095951305 0.009070755831894184 -0.0009126915194684903 0.01170558537143016
-0.014835395976033923 0.004941227107028949 0.003468221632737695 0.011311369918591859 -0.0014122508163702352 0.009981987308392875
-0.012618509712732831 0.004190394264843603 0.0029708921837316364 0.012856618598402236 -0.001834234663788819 0.008262281871161039
-0.010380394264398221 0.0034211396950369877 0.0024445979360378143 0.013893012654202569 -0.0021808334826214247 0.006583865798373041
-0.008353856418432443 0.0029011800958721363 0.001908157787797469 0.014666380152334095 -0.002351080436925828 0.00491147703824249
-0.0062992802669787655 0.0027505043661750325 0.001443265585280074 0.015786320614383682 -0.0020452085485047006 0.003271137976636254
-0.003075965555568695 0.00014820012572119574 0.0014046193602571795 0.014683738291541279 -0.0009056205003320829 0.0018864108713794912
-0.0009870522037896574 -0.006252713106960142 0.002009020579063991 0.010271640930447381 2.8641721969126612e-05 0.000886704768120104
-0.002567519686824533 -0.0019337600358276408 0.0019456521101487614 -0.005646750528625502 0.0016330345479323672 0.0007771530318545003
-0.0053371853691418095 0.0007224227620445594 0.0020557042368727243 -0.008523571430150983 0.0029783905714021912 0.0012967099092855612
-0.010855392732932137 0.0038399663983752865 0.002696575368036051 -0.009763827283696918 0.004749745190646352 0.0025927326518127487
-0.016041930087660264 0.005440844839452745 0.003689195162113127 -0.009079430739706584 0.005130184350250916 0.003912228334643661
-0.02082935464049738 0.006952396028513911 0.004723260530702469 -0.008451973152465918 0.004708447813157178 0.00519771648636603
-0.025489735974559453 0.008521073033536353 0.005732070150074177 -0.007748784420622755 0.003920159026059869 0.006478214695459966
-0.029996478573615523 0.010072603301967967 0.0066897475847172375 -0.0067529026615217695 0.002891565931963153 0.007773246346856789
-0.03427917934423889 0.011504165727927744 0.00755176193129946 -0.005410686124145744 0.0017122443524526369 0.009087745314255078
-0.037033200603344536 0.012907766254826529 0.008186750961782325 -0.003139483809435144 1.783336066728139e-05 0.010184919697585023
-0.040169639819314325 0.011796425203965746 0.008195710189500827 0.001595871501297579 0.000797766350258062 0.011637842849499336
-0.04262632623791237 0.03142524863580335 0.007000973494366828 -4.6723792811794763e-05 0.00011246242821110717 0.015466511700129455
-0.04011790023530174 0.011777394195953266 0.008195822657599276 -0.0016925291022439652 -0.0005646080517822822 0.01163827515027693
-0.03692535093273542 0.012868208919659136 0.008186079501477138 0.003033068525519769 0.000239084619174472 0.010185558603841587
-0.034107979155131425 0.011441625810662626 0.007548454159754723 0.005287561326794409 -0.0014194063768706948 0.009088023450523296
-0.029755703399493953 0.009985056394369625 0.006680950912345343 0.006605130928212212 -0.0025582184083064174 0.007771975281583076
-0.025182748148602094 0.008409165782661104 0.005714130413321863 0.007566179400833248 -0.003556911872459528 0.006473204668608397
-0.02048659526934934 0.006825799693020223 0.004692402542835048 0.008219841739340782 -0.0043536650840213026 0.0051862499761538795
-0.01573924465476174 0.005339354192355605 0.0036422253468760494 0.008798305958502804 -0.004860874085486445 0.003894628974839085
-0.010681391389714391 0.0038433216818736216 0.002632831245106065 0.009537136743132163 -0.004647083001998854 0.0025852041189681637
-0.005278483262324341 0.0007996034392650653 0.0019929277484875695 0.008521381337189583 -0.00299829794752585 0.0013535287480497741
-0.0025409448560574895 -0.0020729769981824206 0.0019240474061418323 0.005721190282711738 -0.001672325140128338 0.0010082124072650215
-0.0029093797235828474 -0.0006551132799071034 0.0022210391613453027 -0.0027842221062141276 0.003269306471807554 0.0009379646094345955
-0.0066043146018573765 0.0011131989714553753 0.002570213633760591 -0.003992603958073875 0.005288883833512955 0.0010845140766063438
-0.014931199567324907 0.00436200600181149 0.003621226050846419 -0.004488831384961976 0.007847753639460855 0.002153167048091895
-0.023505985575973422 0.006650574074898259 0.005054140442066538 -0.004315996345523502 0.008193382186064616 0.003204504261914117
-0.03108902291960398 0.008669193444355678 0.006503473352191153 -0.004013347396401222 0.007385382511666055 0.004201383856273902
-0.03830934355920378 0.010657222748486302 0.007915064365064398 -0.0036006492975063633 0.00602936538671337 0.005187777083594365
-0.04533845150344973 0.01265939115423156 0.009261240112510496 -0.0030595227561480047 0.004256638191848193 0.006188250188772391
-0.05200794593514306 0.014355502446364597 0.01046868802562903 -0.002242646218263383 0.0021517390053853364 0.007103242795035235
-0.0583433908334528 0.016890853978342217 0.011432635460030309 -0.0010974565256757522 -0.0008713765563853353 0.0081867415137979
-0.06128306991836594 0.013709857840753297 0.011486498174725928 0.0030500319438006925 -0.006327189745701006 0.007352259878514804
-0.061094124575934654 0.03861214800255501 0.008662080043290004 -3.0190955576838395e-05 0.00015637815882072175 0.015162465886236126
-0.06122736035610837 0.013690064657768826 0.01148859255460214 -0.0031124020905436804 0.006650623557063438 0.0073531421669755966
-0.05822853778396724 0.01684992506749482 0.01143603564236165 0.0010291690595981336 0.001225617901493576 0.008188254537559395
-0.05182904424688857 0.014291388971680918 0.01047174696951143 0.00216463957335488 -0.0017509511660689153 0.00710481453085527
-0.045094358454766774 0.0125709116465418 0.009261387201439243 0.0029683779074069884 -0.003803367072224559 0.006188844068719083
-0.03801591831999086 0.010547397383044926 0.007909072054692904 0.003493844778427374 -0.005537543189361812 0.005185856438995869
-0.030804581708557162 0.008554081173031792 0.006488517659916546 0.003889732168547332 -0.0069080309140475415 0.0041959063519071875
-0.023339467947246735 0.006573387947649634 0.005028818835427639 0.004184563221836031 -0.007844716386710629 0.003197667340961454
-0.014947068475921624 0.00437825995370752 0.0035848404853448634 0.004394279113089204 -0.00776254356153722 0.002157574284248479
-0.006695405467277138 0.001173087674769308 0.00253487548539842 0.0039982852153950124 -0.005415690930696821 0.001123551715740166
-0.0029848604865699855 -0.0007037776150378493 0.002215447807170909 0.0028067972097590675 -0.0034478448026730637 0.0010921147230931248
SCALARS Stress_vm float 1
LOOKUP_TABLE default
6373.5143703873355
2923.2928650027625
3161.588605767545
4375.7866557979105
5838.155022097383
7313.838145134005
8767.498298567469
10148.359451349026
11320.0797022191
12048.537763012513
12239.411459979325
12057.856812223898
11339.905092012186
10182.036835916868
8820.946173722972
7395.973388038524
5960.38103388123
4555.020635852465
3425.957459916576
3441.776429321488
6887.127016283905
5410.8500165554315
1702.0733959624065
2251.6805884158825
3225.3158740185313
4203.409795302853
5193.863061447054
6178.380977208953
7126.481417098065
7946.202873364388
8453.277312149507
8548.188048897806
8461.796741341152
7964.331835511696
7157.0527421842935
6225.927389577862
5264.4811045982915
4304.016991950921
3360.7284761388605
2407.333618449882
1799.3921907146514
5628.360274303261
3989.0284676591696
2106.2714067259562
2075.96449128208
2447.375455111601
2843.1528805678413
3267.616463414464
3721.315170536509
4205.446666391316
4664.821742796424
4900.372390342419
4815.590922818728
4906.105625925499
4676.24545517181
4224.018491367366
3748.9584433805126
3305.4412008925206
2888.4916967483587
2482.799124156776
2059.639830240497
1973.1992812030544
4093.4360505658733
2722.4341236579658
2315.0670639198365
2419.399261923266
2284.7307467062715
2223.4689041182787
2172.679134201656
2203.2449836939354
2388.4668535240844
2781.428658644105
3092.1271727279855
2926.6983543016395
3087.948924656939
2775.2843997234536
2375.6056984914235
2178.2148456197165
2130.193940512957
2159.5394136899845
2193.0426821822152
2303.283778316516
2243.8710998209285
2789.4342611935
1692.9329256214728
2085.2163348861154
2636.237964443995
2810.199099108486
3085.6662983468973
3440.2706400770203
3818.4648250707833
4159.048398968538
4485.779449812461
5049.040286125887
5737.00654264018
5038.340291849459
4463.808329808487
4122.491431954488
3765.1556214000134
3367.0221821139153
2990.129089525469
2699.3274125574994
2547.2974118080588
2057.1612604585107
1728.4940546062849
1030.2197781411815
1644.1225350430445
2754.869419892279
3655.6374294793345
4524.385794270418
5414.05722734802
6298.829767304269
7136.685887375157
7783.24518784982
8405.958564158242
9893.858514246169
8396.092756610904
7762.423104928088
7102.026540829204
6248.857562212587
5348.162946116479
4447.069337902516
3583.4290677034933
2714.918743189177
1637.6169433649338
1040.8725670121987
889.3248062411828
1584.2503140424978
3230.438946490528
4798.9430637307
6194.130189122485
7552.121903735949
8892.23303853283
10162.48007687899
11388.125652439126
12066.784078566685
13172.329510357002
12059.98608761782
11367.434550705297
10127.936222425707
8842.984744009544
7489.976667897845
6129.315167557752
4755.225610460003
3230.7630410945912
1604.9954424556263
910.4552804507643
4155.275903121579
2454.319732660379
3138.936124773349
4371.5621249165
5751.166753018994
7140.757526126762
8505.386479008579
9831.998745603281
11118.694706121547
12268.240300106856
12831.528368316773
12271.779610627069
11126.032434977082
9844.128243495796
8524.626360603426
7171.606257625722
5802.259167246561
4456.664602928601
3303.0394753034616
2659.035611832628
4356.577483076374
3519.915053395008
1336.4392002562893
2124.0590097459526
3108.010242944817
4067.1594322926685
5027.143754644013
5971.18363054921
6880.859075169895
7758.705989725106
8591.270044354116
9088.993082567042
8594.199091126848
7764.988441957735
6891.472414371855
5988.033032067948
5053.78071289049
4109.743508306593
3178.3677903038024
2228.5587923485505
1413.441813395161
3584.8358314168363
2687.996812828399
1241.3608081699522
1444.9282884722531
1926.6958042972888
2413.0849221695757
2896.5413043521016
3370.620612299188
3809.726236419134
4262.844169198925
4919.105603890222
5590.411187444627
4921.2106612484
4267.755390198557
3818.006133017233
3383.026807034616
2914.6057056345926
2439.594369841063
1962.3745368695797
1473.1238965420748
1174.6732327468685
2691.303463064427
1898.3160542746798
1379.6137142354698
1335.7424269568953
1241.2791399776256
1272.6009868430115
1365.2050051977928
1508.5533712056479
1665.3358802520097
1823.4273366278733
2337.627774135235
3668.9587141248276
2336.1594024284577
1821.0134187957822
1663.8475103749179
1506.559458323028
1360.1762799632556
1259.6330375745029
1213.3893856141508
1279.2936820002678
1316.2747454994444
1906.5930627344014
1234.6564129913984
1322.360434970896
1741.6268958268404
2044.277022564394
2456.7487625148988
2928.920603911827
3410.570480807807
3911.971085164152
4362.942863523075
4393.908035086903
4769.653226511191
4390.379350847662
4358.693144881964
3905.8034793532847
3400.6864943630353
2913.5815210564797
2432.9940526610003
2009.656044025562
1702.943340069079
1290.1987077039496
1245.9611235542732
854.9182784842793
1234.0214521239689
2228.6068564376283
3180.05980786432
4120.3591198988815
5070.167892599425
6013.125293122249
6924.09779144117
7821.438844055344
8286.299256100245
7816.849014471337
8283.562418579675
7818.214273646128
6918.369078944628
6004.4150352370125
5058.128559676043
4105.530952614448
3165.9451752787218
2221.964111163475
1228.2635504086177
859.5757380498981
875.1895978102596
1420.5698527862423
2891.0616076611723
4405.456730761478
5814.221879137421
7190.742491640729
8550.869691381506
9863.808226597737
10937.468126469576
12009.002836110996
12008.405367450401
12009.059258712761
10935.991796961289
9859.766475240916
8544.275666915482
7182.018963179536
5806.177411613234
4405.211524183539
2906.5338565232564
1440.9058308878496
892.8209305820424
3858.755009808631
2436.355830757909
3025.8119755396997
4206.654195130854
5518.685924316411
6819.900165557377
8113.931440419446
9458.462597153197
10971.896176562834
12578.751355229031
13449.35264630769
12575.579631478706
10964.99859220927
9446.843814861435
8095.988023175822
6793.204062203784
5479.612125105456
4151.391185783808
2928.6947789072015
2251.04818725798
3544.2620963588997
3017.070518831325
1282.4523034841604
2104.9761714449196
3048.2389842775597
3952.994675084795
4851.816968772852
5749.059368400628
6673.34920351366
7715.118338587973
8896.305177983153
9667.67068221657
8892.589739083027
7706.922389210711
6659.837307966088
5729.199389621877
4824.143337714304
3915.8587782017707
2999.151609504401
2044.3163059764454
1281.6891066891676
2864.12622904788
2172.138833280382
1108.077381846598
1455.2723393163312
1957.1894728867474
2413.3065682913184
2859.199809695193
3300.613926298304
3730.629142524259
4291.327966643182
5279.020107547932
6299.349966189534
5276.490471050377
4284.465706569072
3718.944655440605
3284.4020810673196
2838.8705150286114
2389.977496968808
1936.5435097630068
1460.2599202663491
1199.101493118611
2133.718571245451
1568.1100287927748
1282.3377188613067
1291.8320589041195
1271.3327104416187
1313.4358799159832
1387.2907154108266
1497.43420413935
1628.8148181656159
1853.3097364478365
2412.560543492152
4801.449781904534
2412.627210658761
1856.7692083995316
1633.8774781144714
1505.19268390945
1399.7380128359396
1334.219873735817
1306.2172956375869
1351.3152635201457
1327.3418876795754
1531.9655179484214
1081.1402229736966
1272.100763673362
1661.356332638688
1936.2444536860646
2331.9450674298264
2794.1884606759622
3285.5378552392567
3849.9830316362345
4436.238518263634
4425.452460629169
5367.809677432641
4433.120148739259
4450.115864945612
3871.3133767252357
3314.693493426201
2831.0044257827394
2376.004321260287
1984.154205335616
1698.4342937340693
1279.012584767937
1041.1139696017372
826.9755787570097
1198.8462430648665
2114.7953405558824
2980.276096955012
3864.6470396556388
4782.681614120042
5721.450184913539
6679.672536359884
7739.328765004414
8416.150102267306
8255.096043388905
8423.9622817341
7755.300165661402
6703.833815677167
5753.679306797589
4821.267683351275
3905.4617200667867
3014.1763037139654
2129.3757773072343
1191.7604911886165
786.9671813166317
866.0432997928851
1357.340010245666
2718.985475377783
4112.743614198839
5434.43598227447
6753.921989567502
8086.898269274201
9426.94248548069
10586.351326436517
12234.66183719714
12955.448649810625
12244.197784270904
10605.898365930843
9456.163900795444
8125.295342722301
6798.643067178264
5478.444531551223
4143.199812290395
2726.4377337870187
1352.944838624519
839.5318115436269
3863.2448483928733
2434.6281820612426
2975.3759316481214
4121.808144525658
5411.607018706105
6692.804237596581
7980.139106583211
9355.367917229598
10956.84290587356
12689.367797926308
13632.71566666142
12683.43760202853
10944.015738031212
9333.78099073635
7946.438249089788
6641.152234926452
5332.654092509254
4001.915189227445
2781.13281004059
2113.879599133707
3369.604450276464
2973.580713974366
1267.6312216258852
2083.495645861712
3005.5157622922356
3895.541855798499
4783.482651905405
5681.089093323359
6632.429212779052
7738.640298385473
9004.287729080077
9829.6769496568
8997.95646919615
7724.653573517913
6609.123917550708
5646.0586342786255
4732.768156923442
3823.365598882046
2903.96962726119
1958.48025388963
1210.0835087729834
2721.9316162089763
2110.416879729029
1041.9471878854933
1438.3337123919848
1943.2425710646644
2396.2966503242046
2838.4718258939834
3283.6728958927765
3734.7880448471474
4340.813735215524
5381.958603171536
6446.496916268689
5377.802960209456
4329.632917388781
3715.581604779232
3256.4907504065113
2803.0755206538943
2352.811672876882
1899.7966776907654
1428.6619953182972
1161.3604230220935
1997.8859494810388
1494.0992753789878
1221.0738121414413
1260.668405148928
1271.1174993075756
1328.5474826995678
1410.9572245578163
1532.1769451446548
1689.5546652969174
1953.7062041957297
2349.860460459198
5046.95227012903
2352.1069320279616
1960.3986703483529
1698.6598338338895
1545.6845111351174
1432.949454128106
1365.2481515487991
1331.2256692908038
1357.7840756645398
1295.1889401495198
1398.0281164687322
1010.4579734556378
1218.0257894199049
1603.859443176591
1880.8595633804218
2277.287440839929
2741.3965382336373
3243.1463988158066
3835.8559576640623
4473.07606150978
4501.289241211141
5421.600214846499
4512.602471871218
4493.865754954615
3868.014312185081
3288.3577864076465
2800.8469549724687
2351.9529960161185
1966.0737960255954
1672.9765546097183
1238.0486724852185
920.0565910103701
775.0469061294555
1133.663692993845
2034.8809990053662
2890.1336380201087
3764.2004862429712
4676.675254012545
5623.058597077916
6614.021503713332
7744.613695944929
8491.43871621039
8257.998103996251
8502.935990044472
7767.880413910675
6649.694243588427
5671.765588705401
4736.794382642733
3830.2974332155163
2947.8370476978303
2061.8397136069457
1125.5292360835113
699.3044866864439
785.8348850078378
1252.6129849579056
2603.403869590854
3982.07819164384
5283.535566920328
6587.706439232314
7921.078662217708
9298.338782452367
10542.87424925918
12323.228374827175
13014.408334714622
12336.185400066517
10569.994295438457
9339.908686398614
7977.080792187942
6654.663337779626
5351.134508957319
4029.5868432291545
2611.675275435715
1234.643738243001
724.5080418524742
3858.7550098139736
2436.355830762304
3025.8119755431326
4206.654195132188
5518.685924317978
6819.900165556622
8113.931440420863
9458.462597155627
10971.896176565515
12578.751355232835
13449.352646311485
12575.579631482893
10964.998592214457
9446.843814861988
8095.988023175036
6793.204062194883
5479.612125101641
4151.391185780383
2928.694778904152
2251.0481872544956
3544.262096353917
3017.070518833534
1282.4523034857637
2104.976171447116
3048.2389842790335
3952.994675086402
4851.8169687725795
5749.059368401885
6673.349203515383
7715.118338589813
8896.30517798621
9667.670682219425
8892.589739084166
7706.922389216324
6659.837307966305
5729.1993896233835
4824.143337709073
3915.858778199337
2999.1516095019138
2044.3163059738733
1281.6891066874643
2864.1262290439963
2172.13883328114
1108.0773818463017
1455.2723393168756
1957.189472887667
2413.3065682912998
2859.1998096959287
3300.613926299258
3730.6291425244917
4291.327966645799
5279.020107550074
6299.349966190427
5276.490471049979
4284.465706576072
3718.944655441257
3284.402081072633
2838.8705150269493
2389.9774969669106
1936.5435097607285
1460.2599202640997
1199.1014931170216
2133.7185712418186
1568.1100287936124
1282.3377188613122
1291.8320589035447
1271.332710440443
1313.4358799156873
1387.290715412085
1497.434204139545
1628.8148181639062
1853.3097364511866
2412.5605434928166
4801.44978190189
2412.627210659179
1856.769208405917
1633.8774781137195
1505.1926839154864
1399.738012836746
1334.2198737348076
1306.2172956353375
1351.3152635181675
1327.3418876777246
1531.965517945381
1081.140222974298
1272.100763673913
1661.3563326386757
1936.2444536852588
2331.945067429294
2794.1884606763215
3285.5378552380057
3849.9830316350335
4436.238518263022
4425.452460628634
5367.809677429349
4433.1201487395665
4450.115864946883
3871.313376723821
3314.693493427883
2831.0044257769637
2376.0043212586397
1984.1542053338062
1698.4342937317467
1279.012584766324
1041.1139695990735
826.975578757411
1198.8462430652542
2114.795340556256
2980.276096954847
3864.647039654868
4782.681614118423
5721.450184913129
6679.672536357881
7739.328765005231
8416.15010226749
8255.096043387546
8423.962281734985
7755.300165662262
6703.833815674828
5753.6793067965145
4821.267683344353
3905.4617200639004
3014.1763037109736
2129.375777304888
1191.760491187024
786.9671813150275
866.0432997929418
1357.3400102458556
2718.985475378642
4112.74361419933
5434.435982273379
6753.921989564489
8086.898269274503
9426.942485478618
10586.351326438562
12234.661837198137
12955.448649810629
12244.197784272801
10605.898365932984
9456.163900792237
8125.295342719952
6798.643067170515
5478.4445315463245
4143.199812286164
2726.4377337842607
1352.9448386225529
839.5318115417936
4155.275903127177
2454.319732669557
3138.9361247794172
4371.562124920513
5751.166753023598
7140.757526132835
8505.386479011197
9831.998745598814
11118.69470611916
12268.240300112882
12831.528368320523
12271.779610632511
11126.032434978977
9844.128243493058
8524.626360599217
7171.60625762035
5802.259167240111
4456.664602919218
3303.0394752978364
2659.035611826817
4356.577483064809
3519.915053396497
1336.4392002595894
2124.059009750404
3108.010242948309
4067.1594322963897
5027.143754647987
5971.1836305514
6880.859075168476
7758.705989725047
8591.2700443605
9088.993082569981
8594.199091131604
7764.98844195801
6891.472414371524
5988.033032064503
5053.780712887198
4109.743508302836
3178.3677902962563
2228.5587923458233
1413.4418133921663
3584.8358314067964
2687.9968128289465
1241.360808168246
1444.9282884738097
1926.695804300067
2413.0849221730973
2896.541304353821
3370.6206123012075
3809.726236420075
4262.844169200898
4919.105603898765
5590.41118744894
4921.210661253627
4267.755390196459
3818.006133019884
3383.0268070324846
2914.6057056332197
2439.5943698389997
1962.3745368650248
1473.1238965406894
1174.6732327441093
2691.3034630566963
1898.3160542755802
1379.613714234002
1335.7424269547066
1241.2791399780108
1272.6009868438425
1365.2050051955114
1508.5533712067574
1665.335880250794
1823.4273366242962
2337.627774144034
3668.9587141306597
2336.159402432245
1821.013418795425
1663.8475103771436
1506.559458323215
1360.1762799625026
1259.6330375742048
1213.3893856118225
1279.2936819979839
1316.2747454971397
1906.5930627283446
1234.6564129919677
1322.3604349701457
1741.6268958260416
2044.2770225627862
2456.7487625138165
2928.9206039088185
3410.570480806236
3911.971085156309
4362.942863519991
4393.908035087943
4769.653226513729
4390.37935085067
4358.693144882864
3905.803479354224
3400.6864943593755
2913.581521055164
2432.994052658497
2009.656044019925
1702.9433400662585
1290.1987077015515
1245.9611235496711
854.918278485144
1234.021452124309
2228.6068564382067
3180.059807863408
4120.359119898569
5070.167892599909
6013.125293119629
6924.097791433634
7821.438844050074
8286.29925610012
7816.849014471499
8283.562418582569
7818.214273644856
6918.369078942715
6004.415035232356
5058.128559671079
4105.5309526082965
3165.945175271842
2221.9641111593855
1228.2635504061218
859.5757380471098
875.1895978115771
1420.5698527873742
2891.0616076628085
4405.456730761055
5814.2218791378245
7190.7424916436385
8550.869691378148
9863.80822659018
10937.468126461503
12009.002836111487
12008.405367455975
12009.059258714831
10935.991796956967
9859.766475237499
8544.275666909798
7182.0189631704525
5806.177411603553
4405.211524175041
2906.5338565173165
1440.905830884066
892.8209305791322
6373.514370391602
2923.292865014201
3161.588605776551
4375.786655806134
5838.155022102016
7313.83814513776
8767.49829856805
10148.359451348528
11320.079702220555
12048.537763016142
12239.411459985578
12057.856812231963
11339.905092011883
10182.03683591882
8820.946173720098
7395.97338802977
5960.381033871275
4555.020635843499
3425.9574599080615
3441.7764293111804
6887.127016261517
5410.850016557892
1702.0733959648521
2251.680588420465
3225.3158740241656
4203.409795306011
5193.863061450293
6178.380977210394
7126.481417096852
7946.202873365159
8453.27731215469
8548.188048905118
8461.796741348844
7964.331835512415
7157.052742185169
6225.927389576146
5264.48110459246
4304.016991944794
3360.728476134052
2407.333618444084
1799.3921907091485
5628.360274284776
3989.028467662136
2106.271406723591
2075.9644912820922
2447.3754551123834
2843.152880568364
3267.616463415023
3721.315170536841
4205.4466663887915
4664.821742796024
4900.372390347006
4815.590922829555
4906.105625931075
4676.245455175324
4224.018491366848
3748.958443379021
3305.441200890241
2888.4916967463805
2482.7991241533023
2059.6398302346793
1973.1992811973828
4093.4360505527907
2722.4341236604514
2315.067063919353
2419.399261921725
2284.7307467024534
2223.468904113912
2172.679134198329
2203.244983690682
2388.4668535197775
2781.428658643617
3092.12717272493
2926.698354305773
3087.9489246575004
2775.2843997236464
2375.6056984930456
2178.2148456208247
2130.1939405144544
2159.5394136891077
2193.042682178548
2303.283778309913
2243.8710998143247
2789.434261185048
1692.9329256231915
2085.216334886862
2636.237964443079
2810.199099106345
3085.666298343478
3440.270640072616
3818.4648250656282
4159.048398965864
4485.77944981025
5049.040286121055
5737.006542631048
5038.3402918443
4463.808329808392
4122.491431956857
3765.1556214013967
3367.0221821116993
2990.129089521937
2699.327412552876
2547.2974118009097
2057.1612604527245
1728.4940546011508
1030.2197781425762
1644.1225350439413
2754.869419892563
3655.637429480012
4524.385794268919
5414.057227343759
6298.829767300719
7136.68588737063
7783.245187846331
8405.958564155382
9893.858514234573
8396.092756608547
7762.42310492997
7102.026540827868
6248.857562210127
5348.162946111337
4447.069337897021
3583.429067696179
2714.918743182999
1637.6169433606058
1040.8725670095878
889.3248062430713
1584.2503140440213
3230.438946492233
4798.943063733288
6194.130189122401
7552.121903732878
8892.23303852915
10162.480076871587
11388.125652432009
12066.78407856253
13172.32951034922
12059.98608761876
11367.434550706872
10127.93622242138
8842.984744003526
7489.976667889627
6129.315167549528
4755.225610449414
3230.763041087495
1604.9954424514822
910.4552804483887
SCALARS Statev float 1
LOOKUP_TABLE default
0.0
0.0
0.0
0.0
0.0
0.0
0.0
0.0
0.0
0.0
0.0
0.0
0.0
0.0
0.0
0.0
0.0
0.0
0.0
0.0
0.0
0.0
0.0
0.0
0.0
0.0
0.0
0.0
0.0
0.0
0.0
0.0
0.0
0.0
0.0
0.0
0.0
0.0
0.0
0.0
0.0
0.0
0.0
0.0
0.0
0.0
0.0
0.0
0.0
0.0
0.0
0.0
0.0
0.0
0.0
0.0
0.0
0.0
0.0
0.0
0.0
0.0
0.0
0.0
0.0
0.0
0.0
0.0
0.0
0.0
0.0
0.0
0.0
0.0
0.0
0.0
0.0
0.0
0.0
0.0
0.0
0.0
0.0
0.0
0.0
0.0
0.0
0.0
0.0
0.0
0.0
0.0
0.0
0.0
0.0
0.0
0.0
0.0
0.0
0.0
0.0
0.0
0.0
0.0
0.0
0.0
0.0
0.0
0.0
0.0
0.0
0.0
0.0
0.0
0.0
0.0
0.0
0.0
0.0
0.0
0.0
0.0
0.0
0.0
0.0
0.0
0.0
0.0
0.0
0.0
0.0
0.0
0.0
0.0
0.0
0.0
0.0
0.0
0.0
0.0
0.0
0.0
0.0
0.0
0.0
0.0
0.0
0.0
0.0
0.0
0.0
0.0
0.0
0.0
0.0
0.0
0.0
0.0
0.0
0.0
0.0
0.0
0.0
0.0
0.0
0.0
0.0
0.0
0.0
0.0
0.0
0.0
0.0
0.0
0.0
0.0
0.0
0.0
0.0
0.0
0.0
0.0
0.0
0.0
0.0
0.0
0.0
0.0
0.0
0.0
0.0
0.0
0.0
0.0
0.0
0.0
0.0
0.0
0.0
0.0
0.0
0.0
0.0
0.0
0.0
0.0
0.0
0.0
0.0
0.0
0.0
0.0
0.0
0.0
0.0
0.0
0.0
0.0
0.0
0.0
0.0
0.0
0.0
0.0
0.0
0.0
0.0
0.0
0.0
0.0
0.0
0.0
0.0
0.0
0.0
0.0
0.0
0.0
0.0
0.0
0.0
0.0
0.0
0.0
0.0
0.0
0.0
0.0
0.0
0.0
0.0
0.0
0.0
0.0
0.0
0.0
0.0
0.0
0.0
0.0
0.0
0.0
0.0
0.0
0.0
0.0
0.0
0.0
0.0
0.0
0.0
0.0
0.0
0.0
0.0
0.0
0.0
0.0
0.0
0.0
0.0
0.0
0.0
0.0
0.0
0.0
0.0
0.0
0.0
0.0
0.0
0.0
0.0
0.0
0.0
0.0
0.0
0.0
0.0
0.0
0.0
0.0
0.0
0.0
0.0
0.0
0.0
0.0
0.0
0.0
0.0
0.0
0.0
0.0
0.0
0.0
0.0
0.0
0.0
0.0
0.0
0.0
0.0
0.0
0.0
0.0
0.0
0.0
0.0
0.0
0.0
0.0
0.0
0.0
0.0
0.0
0.0
0.0
0.0
0.0
0.0
0.0
0.0
0.0
0.0
0.0
0.0
0.0
0.0
0.0
0.0
0.0
0.0
0.0
0.0
0.0
0.0
0.0
0.0
0.0
0.0
0.0
0.0
0.0
0.0
0.0
0.0
0.0
0.0
0.0
0.0
0.0
0.0
0.0
0.0
0.0
0.0
0.0
0.0
0.0
0.0
0.0
0.0
0.0
0.0
0.0
0.0
0.0
0.0
0.0
0.0
0.0
0.0
0.0
0.0
0.0
0.0
0.0
0.0
0.0
0.0
0.0
0.0
0.0
0.0
0.0
0.0
0.0
0.0
0.0
0.0
0.0
0.0
0.0
0.0
0.0
0.0
0.0
0.0
0.0
0.0
0.0
0.0
0.0
0.0
0.0
0.0
0.0
0.0
0.0
0.0
0.0
0.0
0.0
0.0
0.0
0.0
0.0
0.0
0.0
0.0
0.0
0.0
0.0
0.0
0.0
0.0
0.0
0.0
0.0
0.0
0.0
0.0
0.0
0.0
0.0
0.0
0.0
0.0
0.0
0.0
0.0
0.0
0.0
0.0
0.0
0.0
0.0
0.0
0.0
0.0
0.0
0.0
0.0
0.0
0.0
0.0
0.0
0.0
0.0
0.0
0.0
0.0
0.0
0.0
0.0
0.0
0.0
0.0
0.0
0.0
0.0
0.0
0.0
0.0
0.0
0.0
0.0
0.0
0.0
0.0
0.0
0.0
0.0
0.0
0.0
0.0
0.0
0.0
0.0
0.0
0.0
0.0
0.0
0.0
0.0
0.0
0.0
0.0
0.0
0.0
0.0
0.0
0.0
0.0
0.0
0.0
0.0
0.0
0.0
0.0
0.0
0.0
0.0
0.0
0.0
0.0
0.0
0.0
0.0
0.0
0.0
0.0
0.0
0.0
0.0
0.0
0.0
0.0
0.0
0.0
0.0
0.0
0.0
0.0
0.0
0.0
0.0
0.0
0.0
0.0
0.0
0.0
0.0
0.0
0.0
0.0
0.0
0.0
0.0
0.0
0.0
0.0
0.0
0.0
0.0
0.0
0.0
0.0
0.0
0.0
0.0
0.0
0.0
0.0
0.0
0.0
0.0
0.0
0.0
0.0
0.0
0.0
0.0
0.0
0.0
0.0
0.0
0.0
0.0
0.0
0.0
0.0
0.0
0.0
0.0
0.0
0.0
0.0
0.0
0.0
0.0
0.0
0.0
0.0
0.0
0.0
0.0
0.0
0.0
0.0
0.0
0.0
0.0
0.0
0.0
0.0
0.0
0.0
0.0
0.0
0.0
0.0
0.0
0.0
0.0
0.0
0.0
0.0
0.0
0.0
0.0
0.0
0.0
0.0
0.0
0.0
0.0
0.0
0.0
0.0
0.0
0.0
0.0
0.0
0.0
0.0
0.0
0.0
0.0
0.0
0.0
0.0
0.0
0.0
0.0
0.0
0.0
0.0
0.0
0.0
0.0
0.0
0.0
0.0
0.0
0.0
0.0
0.0
0.0
0.0
0.0
0.0
0.0
0.0
0.0
0.0
0.0
0.0
0.0
0.0
0.0
0.0
0.0
0.0
0.0
0.0
0.0
0.0
0.0
0.0
0.0
0.0
0.0
0.0
0.0
0.0
0.0
0.0
0.0
0.0
0.0
0.0
0.0
0.0
0.0
0.0
0.0
0.0
0.0
0.0
0.0
0.0
0.0
0.0
0.0
0.0
0.0
0.0
0.0
0.0
0.0
0.0
0.0
0.0
0.0
0.0
0.0
0.0
0.0
0.0
0.0
0.0
0.0
0.0
0.0
0.0
0.0
0.0
0.0
0.0
0.0
0.0
0.0
0.0
0.0
0.0
0.0
0.0
0.0
0.0
0.0
0.0
0.0
0.0
0.0
0.0
0.0
0.0
0.0
0.0
0.0
0.0
0.0
0.0
0.0
0.0
0.0
0.0
0.0
0.0
0.0
0.0
0.0
0.0
0.0
0.0
0.0
0.0
0.0
0.0
0.0
0.0
0.0
0.0
0.0
0.0
0.0
0.0
0.0
0.0
0.0
0.0
0.0
0.0
0.0
0.0
0.0
0.0
0.0
0.0
0.0
0.0
0.0
0.0
0.0
0.0
0.0
0.0
0.0
0.0
0.0
0.0
0.0
0.0
0.0
0.0
0.0
0.0
0.0
0.0
0.0
0.0
0.0
0.0
0.0
0.0
0.0
0.0
0.0
0.0
0.0
0.0
0.0
0.0
0.0
0.0
0.0
0.0
0.0
0.0
0.0
0.0
0.0
0.0
0.0
0.0
0.0
0.0
0.0
0.0
0.0
0.0
0.0
0.0
0.0
0.0
0.0
0.0
0.0
0.0
0.0
0.0
0.0
0.0
0.0
0.0
0.0
0.0
0.0
0.0
0.0
0.0
0.0
0.0
0.0
0.0
0.0
0.0
0.0
0.0
0.0
0.0
0.0
0.0
0.0
0.0
0.0
0.0
0.0
0.0
0.0
0.0
0.0
0.0
0.0
0.0
0.0
0.0
0.0
0.0
0.0
0.0
0.0
0.0
0.0
0.0
0.0
0.0
0.0
0.0
0.0
0.0
0.0
0.0
0.0
0.0
0.0
0.0
0.0
0.0
0.0
0.0
0.0
0.0
0.0
0.0
0.0
0.0
0.0
0.0
0.0
0.0
0.0
0.0
0.0
0.0
0.0
0.0
0.0
0.0
0.0
0.0
0.0
0.0
0.0
0.0
0.0
0.0
0.0
0.0
0.0
0.0
0.0
0.0
0.0
0.0
0.0
0.0
0.0
0.0
0.0
0.0
0.0
0.0
0.0
0.0
0.0
0.0
0.0
0.0
0.0
0.0
0.0
0.0
0.0
0.0
0.0
0.0
0.0
0.0
0.0
0.0
0.0
0.0
0.0
0.0
0.0
0.0
0.0
0.0
0.0
0.0
0.0
0.0
0.0
0.0
0.0
0.0
0.0
0.0
0.0
0.0
0.0
0.0
0.0
0.0
0.0
0.0
0.0
0.0
0.0
0.0
0.0
0.0
0.0
0.0
0.0
0.0
SCALARS Wm float 4
LOOKUP_TABLE default
314.36177357808856 314.36177357808856 0.0 0.0
56.88430602357108 56.88430602357108 0.0 0.0
67.7721164541528 67.7721164541528 0.0 0.0
141.88152845881353 141.88152845881353 0.0 0.0
250.28493942089412 250.28493942089412 0.0 0.0
394.4504205955623 394.4504205955623 0.0 0.0
567.9898392966495 567.9898392966495 0.0 0.0
762.134285224842 762.134285224842 0.0 0.0
948.8469803971028 948.8469803971028 0.0 0.0
1077.8773846143067 1077.8773846143067 0.0 0.0
1119.3878916637273 1119.3878916637273 0.0 0.0
1079.5079884546976 1079.5079884546976 0.0 0.0
952.1071819131586 952.1071819131586 0.0 0.0
767.1069788070585 767.1069788070585 0.0 0.0
574.8198871282477 574.8198871282477 0.0 0.0
403.19315601893913 403.19315601893913 0.0 0.0
260.69637887111946 260.69637887111946 0.0 0.0
153.29059978675005 153.29059978675005 0.0 0.0
80.5877139994243 80.5877139994243 0.0 0.0
89.79997873286509 89.79997873286509 0.0 0.0
301.17451279317305 301.17451279317305 0.0 0.0
233.37363632192285 233.37363632192285 0.0 0.0
7.061476111755295 7.061476111755295 0.0 0.0
31.50549577088263 31.50549577088263 0.0 0.0
67.34441655070971 67.34441655070971 0.0 0.0
115.59823730503624 115.59823730503624 0.0 0.0
178.28494051954434 178.28494051954434 0.0 0.0
254.1133543015211 254.1133543015211 0.0 0.0
339.6367656936591 339.6367656936591 0.0 0.0
423.597681660319 423.597681660319 0.0 0.0
483.20798056770155 483.20798056770155 0.0 0.0
502.59927479269504 502.59927479269504 0.0 0.0
484.26547078857993 484.26547078857993 0.0 0.0
425.70452261773465 425.70452261773465 0.0 0.0
342.8160193130731 342.8160193130731 0.0 0.0
258.3846066215411 258.3846066215411 0.0 0.0
183.595099279748 183.595099279748 0.0 0.0
121.67186430602489 121.67186430602489 0.0 0.0
73.71462899514638 73.71462899514638 0.0 0.0
36.02714341736593 36.02714341736593 0.0 0.0
8.154921019327757 8.154921019327757 0.0 0.0
245.1199873061031 245.1199873061031 0.0 0.0
129.82706696607102 129.82706696607102 0.0 0.0
19.280468932383133 19.280468932383133 0.0 0.0
27.074788280982588 27.074788280982588 0.0 0.0
35.243065171544536 35.243065171544536 0.0 0.0
48.75630350811003 48.75630350811003 0.0 0.0
64.38448676448593 64.38448676448593 0.0 0.0
83.55816802720507 83.55816802720507 0.0 0.0
107.26910847742684 107.26910847742684 0.0 0.0
133.05852911551048 133.05852911551048 0.0 0.0
150.2246072259277 150.2246072259277 0.0 0.0
155.08331199874843 155.08331199874843 0.0 0.0
150.65881365418642 150.65881365418642 0.0 0.0
133.88444379865416 133.88444379865416 0.0 0.0
108.4631900146933 108.4631900146933 0.0 0.0
85.07685236573865 85.07685236573865 0.0 0.0
66.11875076255463 66.11875076255463 0.0 0.0
50.49687973735316 50.49687973735316 0.0 0.0
36.26621811770845 36.26621811770845 0.0 0.0
26.341962961669324 26.341962961669324 0.0 0.0
16.316003327659054 16.316003327659054 0.0 0.0
135.46406112148182 135.46406112148182 0.0 0.0
59.88556484768639 59.88556484768639 0.0 0.0
27.972789433690433 27.972789433690433 0.0 0.0
34.871874077683785 34.871874077683785 0.0 0.0
31.926620290905234 31.926620290905234 0.0 0.0
31.51309579857753 31.51309579857753 0.0 0.0
31.044338097723053 31.044338097723053 0.0 0.0
30.494810279292 30.494810279292 0.0 0.0
31.530337317936272 31.530337317936272 0.0 0.0
36.444546199032665 36.444546199032665 0.0 0.0
41.87174266803156 41.87174266803156 0.0 0.0
45.425718300830354 45.425718300830354 0.0 0.0
41.71819612830309 41.71819612830309 0.0 0.0
36.076927142724244 36.076927142724244 0.0 0.0
30.9200746389539 30.9200746389539 0.0 0.0
29.59554045571725 29.59554045571725 0.0 0.0
29.791737700421763 29.791737700421763 0.0 0.0
29.774228499918003 29.774228499918003 0.0 0.0
29.468021866600882 29.468021866600882 0.0 0.0
32.059894585368646 32.059894585368646 0.0 0.0
25.653919145352774 25.653919145352774 0.0 0.0
63.033505847616 63.033505847616 0.0 0.0
22.73240081859884 22.73240081859884 0.0 0.0
25.72407383598531 25.72407383598531 0.0 0.0
41.206845681964914 41.206845681964914 0.0 0.0
48.530145111624364 48.530145111624364 0.0 0.0
58.51615678262428 58.51615678262428 0.0 0.0
72.35403453181782 72.35403453181782 0.0 0.0
88.73412415992497 88.73412415992497 0.0 0.0
104.68630745447062 104.68630745447062 0.0 0.0
122.6117142469236 122.6117142469236 0.0 0.0
150.73037820898975 150.73037820898975 0.0 0.0
168.72827139247718 168.72827139247718 0.0 0.0
150.04138162556805 150.04138162556805 0.0 0.0
121.19692461162339 121.19692461162339 0.0 0.0
102.54709676075385 102.54709676075385 0.0 0.0
85.90361591042165 85.90361591042165 0.0 0.0
68.92346406402702 68.92346406402702 0.0 0.0
54.662809842473756 54.662809842473756 0.0 0.0
44.72891827876695 44.72891827876695 0.0 0.0
38.5358120719733 38.5358120719733 0.0 0.0
24.576876233767155 24.576876233767155 0.0 0.0
23.91657863978153 23.91657863978153 0.0 0.0
7.931867304127999 7.931867304127999 0.0 0.0
19.63086741969867 19.63086741969867 0.0 0.0
48.77593800801359 48.77593800801359 0.0 0.0
87.2935904062705 87.2935904062705 0.0 0.0
135.2552177880101 135.2552177880101 0.0 0.0
194.71913472737089 194.71913472737089 0.0 0.0
264.32843335639626 264.32843335639626 0.0 0.0
340.22783093874096 340.22783093874096 0.0 0.0
398.76392475467054 398.76392475467054 0.0 0.0
486.34800846354824 486.34800846354824 0.0 0.0
529.0559224658449 529.0559224658449 0.0 0.0
485.1265463886103 485.1265463886103 0.0 0.0
396.3707971838752 396.3707971838752 0.0 0.0
336.6482140568923 336.6482140568923 0.0 0.0
259.8248062011639 259.8248062011639 0.0 0.0
189.68561213682634 189.68561213682634 0.0 0.0
130.4046361001673 130.4046361001673 0.0 0.0
83.6614835524599 83.6614835524599 0.0 0.0
47.09920483711881 47.09920483711881 0.0 0.0
19.19343063599487 19.19343063599487 0.0 0.0
8.225432861961586 8.225432861961586 0.0 0.0
4.873745070448661 4.873745070448661 0.0 0.0
21.189754247180982 21.189754247180982 0.0 0.0
76.93204514827482 76.93204514827482 0.0 0.0
168.1013347794892 168.1013347794892 0.0 0.0
281.6148308997261 281.6148308997261 0.0 0.0
419.92297305713026 419.92297305713026 0.0 0.0
582.639860600749 582.639860600749 0.0 0.0
764.6787035495488 764.6787035495488 0.0 0.0
950.5960195917947 950.5960195917947 0.0 0.0
1128.4821583074588 1128.4821583074588 0.0 0.0
970.296978030896 970.296978030896 0.0 0.0
1126.9068914783486 1126.9068914783486 0.0 0.0
946.8644654042567 946.8644654042567 0.0 0.0
759.2058616742779 759.2058616742779 0.0 0.0
575.9535022717109 575.9535022717109 0.0 0.0
412.9013977931136 412.9013977931136 0.0 0.0
275.73830117555895 275.73830117555895 0.0 0.0
165.01951748162665 165.01951748162665 0.0 0.0
76.6466755761326 76.6466755761326 0.0 0.0
21.57540752434307 21.57540752434307 0.0 0.0
5.161803606240353 5.161803606240353 0.0 0.0
117.00620987855486 117.00620987855486 0.0 0.0
48.27681667235698 48.27681667235698 0.0 0.0
71.70685176321082 71.70685176321082 0.0 0.0
144.4777774299535 144.4777774299535 0.0 0.0
247.70754476461389 247.70754476461389 0.0 0.0
382.400385379412 382.400385379412 0.0 0.0
543.8238717538978 543.8238717538978 0.0 0.0
730.2953409231266 730.2953409231266 0.0 0.0
940.0062898952233 940.0062898952233 0.0 0.0
1146.2493183762674 1146.2493183762674 0.0 0.0
1245.2684033476182 1245.2684033476182 0.0 0.0
1146.8179752391045 1146.8179752391045 0.0 0.0
941.068211268569 941.068211268569 0.0 0.0
731.835327415836 731.835327415836 0.0 0.0
545.9278423423965 545.9278423423965 0.0 0.0
385.22697412700376 385.22697412700376 0.0 0.0
251.4904133504693 251.4904133504693 0.0 0.0
149.27971677896383 149.27971677896383 0.0 0.0
78.50173273330408 78.50173273330408 0.0 0.0
57.666838709743175 57.666838709743175 0.0 0.0
114.03803893842748 114.03803893842748 0.0 0.0
93.82904134962811 93.82904134962811 0.0 0.0
8.163747761463227 8.163747761463227 0.0 0.0
30.25974371891081 30.25974371891081 0.0 0.0
65.85353679372426 65.85353679372426 0.0 0.0
112.7499087861359 112.7499087861359 0.0 0.0
172.93978939426984 172.93978939426984 0.0 0.0
245.04926320980533 245.04926320980533 0.0 0.0
327.1505479685756 327.1505479685756 0.0 0.0
417.8667893097578 417.8667893097578 0.0 0.0
508.8765875201892 508.8765875201892 0.0 0.0
557.0270759496785 557.0270759496785 0.0 0.0
509.2439292358225 509.2439292358225 0.0 0.0
418.56863412833235 418.56863412833235 0.0 0.0
328.1773220689593 328.1773220689593 0.0 0.0
246.4291063180376 246.4291063180376 0.0 0.0
174.73798960581354 174.73798960581354 0.0 0.0
115.03257607336482 115.03257607336482 0.0 0.0
68.76826268661749 68.76826268661749 0.0 0.0
33.12590875910575 33.12590875910575 0.0 0.0
9.385039205135577 9.385039205135577 0.0 0.0
94.41011119554517 94.41011119554517 0.0 0.0
56.375305439246546 56.375305439246546 0.0 0.0
6.629635849886502 6.629635849886502 0.0 0.0
12.94685399904957 12.94685399904957 0.0 0.0
21.837711322405923 21.837711322405923 0.0 0.0
35.062618503286245 35.062618503286245 0.0 0.0
50.808167115230404 50.808167115230404 0.0 0.0
69.34733973095076 69.34733973095076 0.0 0.0
89.36238053486571 89.36238053486571 0.0 0.0
112.99466650553961 112.99466650553961 0.0 0.0
148.99801751232766 148.99801751232766 0.0 0.0
181.29679414804 181.29679414804 0.0 0.0
149.17142666453117 149.17142666453117 0.0 0.0
113.33598627880707 113.33598627880707 0.0 0.0
89.85965576686667 89.85965576686667 0.0 0.0
69.98445244558616 69.98445244558616 0.0 0.0
51.5682399691194 51.5682399691194 0.0 0.0
35.94340404114977 35.94340404114977 0.0 0.0
22.728355743308846 22.728355743308846 0.0 0.0
13.20521925595175 13.20521925595175 0.0 0.0
5.803892083811565 5.803892083811565 0.0 0.0
55.89185926278758 55.89185926278758 0.0 0.0
28.031841956381566 28.031841956381566 0.0 0.0
9.24702054258672 9.24702054258672 0.0 0.0
11.312167474736917 11.312167474736917 0.0 0.0
9.759819954912537 9.759819954912537 0.0 0.0
10.143872536866768 10.143872536866768 0.0 0.0
11.066053465566412 11.066053465566412 0.0 0.0
12.295788362427988 12.295788362427988 0.0 0.0
13.044356163468693 13.044356163468693 0.0 0.0
13.761626740239898 13.761626740239898 0.0 0.0
25.018000015046336 25.018000015046336 0.0 0.0
61.19917310759451 61.19917310759451 0.0 0.0
24.981375673666694 24.981375673666694 0.0 0.0
13.74200181941717 13.74200181941717 0.0 0.0
13.037159533867774 13.037159533867774 0.0 0.0
12.265870513934429 12.265870513934429 0.0 0.0
10.970759211509078 10.970759211509078 0.0 0.0
9.927894962237222 9.927894962237222 0.0 0.0
9.309155283365598 9.309155283365598 0.0 0.0
10.538049077224581 10.538049077224581 0.0 0.0
8.236795963164589 8.236795963164589 0.0 0.0
28.218743155554503 28.218743155554503 0.0 0.0
11.614006313040795 11.614006313040795 0.0 0.0
9.934876703489188 9.934876703489188 0.0 0.0
17.742251601735465 17.742251601735465 0.0 0.0
25.01064083165876 25.01064083165876 0.0 0.0
36.24532558432373 36.24532558432373 0.0 0.0
51.88156705076284 51.88156705076284 0.0 0.0
70.93037948407373 70.93037948407373 0.0 0.0
94.48489182681857 94.48489182681857 0.0 0.0
116.7819431047621 116.7819431047621 0.0 0.0
123.24519933791478 123.24519933791478 0.0 0.0
186.7201317770867 186.7201317770867 0.0 0.0
122.9880857129862 122.9880857129862 0.0 0.0
116.42449093452144 116.42449093452144 0.0 0.0
94.02336900568304 94.02336900568304 0.0 0.0
70.35010620403317 70.35010620403317 0.0 0.0
51.177979519174755 51.177979519174755 0.0 0.0
35.41642156660792 35.41642156660792 0.0 0.0
24.11416180298893 24.11416180298893 0.0 0.0
16.97867869074984 16.97867869074984 0.0 0.0
9.344078771915907 9.344078771915907 0.0 0.0
11.862486538437352 11.862486538437352 0.0 0.0
5.115747790808921 5.115747790808921 0.0 0.0
10.818854928337194 10.818854928337194 0.0 0.0
32.538471573695375 32.538471573695375 0.0 0.0
67.76550286452395 67.76550286452395 0.0 0.0
115.32143498432539 115.32143498432539 0.0 0.0
175.68186622696874 175.68186622696874 0.0 0.0
248.12470421982292 248.12470421982292 0.0 0.0
329.6338747496641 329.6338747496641 0.0 0.0
428.4983549030329 428.4983549030329 0.0 0.0
455.07165270228046 455.07165270228046 0.0 0.0
587.1102470684648 587.1102470684648 0.0 0.0
454.6220410257071 454.6220410257071 0.0 0.0
427.86087335677144 427.86087335677144 0.0 0.0
328.75704364714795 328.75704364714795 0.0 0.0
247.07129248652532 247.07129248652532 0.0 0.0
174.56796806238603 174.56796806238603 0.0 0.0
114.31156284190449 114.31156284190449 0.0 0.0
67.07704517883748 67.07704517883748 0.0 0.0
32.27487128094897 32.27487128094897 0.0 0.0
10.678254441554119 10.678254441554119 0.0 0.0
5.219824680132697 5.219824680132697 0.0 0.0
4.7501538731579105 4.7501538731579105 0.0 0.0
16.77659613641172 16.77659613641172 0.0 0.0
63.28446949307876 63.28446949307876 0.0 0.0
144.72308961852445 144.72308961852445 0.0 0.0
252.53209827746366 252.53209827746366 0.0 0.0
387.03958570088963 387.03958570088963 0.0 0.0
549.1545916323736 549.1545916323736 0.0 0.0
729.8826844134664 729.8826844134664 0.0 0.0
910.7684023817646 910.7684023817646 0.0 0.0
1033.4440836488316 1033.4440836488316 0.0 0.0
1550.5797670026454 1550.5797670026454 0.0 0.0
1033.1226961186217 1033.1226961186217 0.0 0.0
909.9296761711947 909.9296761711947 0.0 0.0
728.6020498941043 728.6020498941043 0.0 0.0
547.6190067668093 547.6190067668093 0.0 0.0
385.51537720804737 385.51537720804737 0.0 0.0
251.41873284979837 251.41873284979837 0.0 0.0
144.44315870256446 144.44315870256446 0.0 0.0
63.747971200487015 63.747971200487015 0.0 0.0
17.187299592008436 17.187299592008436 0.0 0.0
4.954677864526926 4.954677864526926 0.0 0.0
82.9735948813986 82.9735948813986 0.0 0.0
53.95093162655639 53.95093162655639 0.0 0.0
68.74236489204472 68.74236489204472 0.0 0.0
135.98611474471602 135.98611474471602 0.0 0.0
232.13359002765557 232.13359002765557 0.0 0.0
356.1386962003326 356.1386962003326 0.0 0.0
508.0252329750967 508.0252329750967 0.0 0.0
698.7729514645725 698.7729514645725 0.0 0.0
952.2589625527428 952.2589625527428 0.0 0.0
1250.8136932274676 1250.8136932274676 0.0 0.0
1409.3856119767852 1409.3856119767852 0.0 0.0
1250.1223040200587 1250.1223040200587 0.0 0.0
950.9230026243782 950.9230026243782 0.0 0.0
696.8047312523023 696.8047312523023 0.0 0.0
505.38219512227926 505.38219512227926 0.0 0.0
352.7948852322659 352.7948852322659 0.0 0.0
228.1344973297751 228.1344973297751 0.0 0.0
131.5992930058298 131.5992930058298 0.0 0.0
63.45833392689865 63.45833392689865 0.0 0.0
42.06018439830897 42.06018439830897 0.0 0.0
81.87822413142692 81.87822413142692 0.0 0.0
70.20787538146296 70.20787538146296 0.0 0.0
9.08859756565508 9.08859756565508 0.0 0.0
30.317297781861964 30.317297781861964 0.0 0.0
64.33661804677783 64.33661804677783 0.0 0.0
108.03997040825203 108.03997040825203 0.0 0.0
163.74495135464298 163.74495135464298 0.0 0.0
231.71267408030758 231.71267408030758 0.0 0.0
315.43209840322305 315.43209840322305 0.0 0.0
424.605744021703 424.605744021703 0.0 0.0
556.1161369687425 556.1161369687425 0.0 0.0
633.6321451785245 633.6321451785245 0.0 0.0
555.6417187449022 555.6417187449022 0.0 0.0
423.6801642153787 423.6801642153787 0.0 0.0
314.08699700072737 314.08699700072737 0.0 0.0
229.96973756611638 229.96973756611638 0.0 0.0
161.63616383226497 161.63616383226497 0.0 0.0
105.66480707538705 105.66480707538705 0.0 0.0
61.773593512677856 61.773593512677856 0.0 0.0
28.217245438541216 28.217245438541216 0.0 0.0
8.498966931266342 8.498966931266342 0.0 0.0
67.91722628814107 67.91722628814107 0.0 0.0
38.991704648382445 38.991704648382445 0.0 0.0
6.310029312212514 6.310029312212514 0.0 0.0
13.080498807154603 13.080498807154603 0.0 0.0
23.116000001825523 23.116000001825523 0.0 0.0
35.81814880302814 35.81814880302814 0.0 0.0
50.444434724748696 50.444434724748696 0.0 0.0
67.55797287089686 67.55797287089686 0.0 0.0
86.91208748853228 86.91208748853228 0.0 0.0
116.32153443881364 116.32153443881364 0.0 0.0
172.22110894930137 172.22110894930137 0.0 0.0
226.79388532624893 226.79388532624893 0.0 0.0
172.03408392737742 172.03408392737742 0.0 0.0
115.9272615979055 115.9272615979055 0.0 0.0
86.33117360659122 86.33117360659122 0.0 0.0
66.82968168836148 66.82968168836148 0.0 0.0
49.63069034759677 49.63069034759677 0.0 0.0
34.99339295833517 34.99339295833517 0.0 0.0
22.492715693082193 22.492715693082193 0.0 0.0
13.213494996077257 13.213494996077257 0.0 0.0
7.12283486477191 7.12283486477191 0.0 0.0
39.16860685439727 39.16860685439727 0.0 0.0
19.832575495707474 19.832575495707474 0.0 0.0
8.477486524472269 8.477486524472269 0.0 0.0
10.889885856677088 10.889885856677088 0.0 0.0
10.414190485678363 10.414190485678363 0.0 0.0
11.214839770775752 11.214839770775752 0.0 0.0
12.138909364102224 12.138909364102224 0.0 0.0
13.282295412505768 13.282295412505768 0.0 0.0
13.811959612866074 13.811959612866074 0.0 0.0
16.16623698317722 16.16623698317722 0.0 0.0
36.58646781039523 36.58646781039523 0.0 0.0
103.20201047749777 103.20201047749777 0.0 0.0
36.70014216466343 36.70014216466343 0.0 0.0
16.32485451697059 16.32485451697059 0.0 0.0
14.009794205361707 14.009794205361707 0.0 0.0
13.531247409239457 13.531247409239457 0.0 0.0
12.466931220610977 12.466931220610977 0.0 0.0
11.671940520157928 11.671940520157928 0.0 0.0
11.105897417762405 11.105897417762405 0.0 0.0
11.78024588151514 11.78024588151514 0.0 0.0
9.163876949563193 9.163876949563193 0.0 0.0
19.47582918984891 19.47582918984891 0.0 0.0
8.775251076212298 8.775251076212298 0.0 0.0
9.298609493331487 9.298609493331487 0.0 0.0
16.471872806452996 16.471872806452996 0.0 0.0
22.75975684094038 22.75975684094038 0.0 0.0
32.97274598966904 32.97274598966904 0.0 0.0
47.616991604049154 47.616991604049154 0.0 0.0
66.40598602659072 66.40598602659072 0.0 0.0
92.42386436517825 92.42386436517825 0.0 0.0
120.28169658913592 120.28169658913592 0.0 0.0
129.50594425532756 129.50594425532756 0.0 0.0
257.70755032991076 257.70755032991076 0.0 0.0
129.9170413897427 129.9170413897427 0.0 0.0
120.99410604922441 120.99410604922441 0.0 0.0
93.38935086526567 93.38935086526567 0.0 0.0
67.55493106675605 67.55493106675605 0.0 0.0
48.885387314058605 48.885387314058605 0.0 0.0
34.28144374120797 34.28144374120797 0.0 0.0
23.966025770585787 23.966025770585787 0.0 0.0
17.27147216742899 17.27147216742899 0.0 0.0
9.545570668229967 9.545570668229967 0.0 0.0
8.34167815881767 8.34167815881767 0.0 0.0
4.519087638234336 4.519087638234336 0.0 0.0
10.10502417284157 10.10502417284157 0.0 0.0
29.3900180152686 29.3900180152686 0.0 0.0
60.09620799534981 60.09620799534981 0.0 0.0
102.73018352628532 102.73018352628532 0.0 0.0
158.74315581435775 158.74315581435775 0.0 0.0
228.81850420586338 228.81850420586338 0.0 0.0
313.2678227198033 313.2678227198033 0.0 0.0
431.73505348217174 431.73505348217174 0.0 0.0
466.0619229881786 466.0619229881786 0.0 0.0
749.975552111034 749.975552111034 0.0 0.0
466.78020635421274 466.78020635421274 0.0 0.0
433.064502155931 433.064502155931 0.0 0.0
315.04933445997386 315.04933445997386 0.0 0.0
230.87968476680604 230.87968476680604 0.0 0.0
160.83036648498094 160.83036648498094 0.0 0.0
104.52844495523017 104.52844495523017 0.0 0.0
61.270259817579344 61.270259817579344 0.0 0.0
29.829079301496215 29.829079301496215 0.0 0.0
10.115416942675518 10.115416942675518 0.0 0.0
4.156808606508579 4.156808606508579 0.0 0.0
4.527443419634006 4.527443419634006 0.0 0.0
15.31375296010073 15.31375296010073 0.0 0.0
56.46025903604213 56.46025903604213 0.0 0.0
128.27719725227035 128.27719725227035 0.0 0.0
225.05884112883953 225.05884112883953 0.0 0.0
349.2775521121641 349.2775521121641 0.0 0.0
504.52281953029114 504.52281953029114 0.0 0.0
686.2630000581246 686.2630000581246 0.0 0.0
887.0437147223745 887.0437147223745 0.0 0.0
1081.429383552349 1081.429383552349 0.0 0.0
2017.876861086464 2017.876861086464 0.0 0.0
1082.5351565113474 1082.5351565113474 0.0 0.0
889.1682332419216 889.1682332419216 0.0 0.0
689.100593310748 689.100593310748 0.0 0.0
507.7264771208223 507.7264771208223 0.0 0.0
352.35679433133635 352.35679433133635 0.0 0.0
227.37011097479427 227.37011097479427 0.0 0.0
129.27814026291637 129.27814026291637 0.0 0.0
56.44902778586499 56.44902778586499 0.0 0.0
15.16414419870366 15.16414419870366 0.0 0.0
4.250057686860886 4.250057686860886 0.0 0.0
80.69818191513046 80.69818191513046 0.0 0.0
55.507382758305816 55.507382758305816 0.0 0.0
67.66392203401526 67.66392203401526 0.0 0.0
132.41435325305736 132.41435325305736 0.0 0.0
226.3667110054879 226.3667110054879 0.0 0.0
348.45301545639063 348.45301545639063 0.0 0.0
500.5913640235271 500.5913640235271 0.0 0.0
698.2711845857723 698.2711845857723 0.0 0.0
971.1261140102233 971.1261140102233 0.0 0.0
1299.9972010786544 1299.9972010786544 0.0 0.0
1475.858559108066 1475.858559108066 0.0 0.0
1298.7546338160334 1298.7546338160334 0.0 0.0
968.7715832778181 968.7715832778181 0.0 0.0
694.8559210412403 694.8559210412403 0.0 0.0
496.0128884821113 496.0128884821113 0.0 0.0
342.56511545919165 342.56511545919165 0.0 0.0
219.13416952261124 219.13416952261124 0.0 0.0
124.17081745570388 124.17081745570388 0.0 0.0
58.364537489035826 58.364537489035826 0.0 0.0
37.6036300396525 37.6036300396525 0.0 0.0
75.31086151456466 75.31086151456466 0.0 0.0
66.63080624774098 66.63080624774098 0.0 0.0
9.108235197646541 9.108235197646541 0.0 0.0
30.144708750985277 30.144708750985277 0.0 0.0
63.23168881390466 63.23168881390466 0.0 0.0
106.01407823830024 106.01407823830024 0.0 0.0
161.0141292736749 161.0141292736749 0.0 0.0
229.30995209024013 229.30995209024013 0.0 0.0
316.26369138019146 316.26369138019146 0.0 0.0
433.71580672279805 433.71580672279805 0.0 0.0
577.5442792539881 577.5442792539881 0.0 0.0
662.1667663482034 662.1667663482034 0.0 0.0
576.7127453909536 576.7127453909536 0.0 0.0
432.11805363288937 432.11805363288937 0.0 0.0
313.96197689913924 313.96197689913924 0.0 0.0
226.31340242150608 226.31340242150608 0.0 0.0
157.3147783614075 157.3147783614075 0.0 0.0
101.68727837854532 101.68727837854532 0.0 0.0
58.44789769776707 58.44789769776707 0.0 0.0
26.15869691395277 26.15869691395277 0.0 0.0
7.44720535928256 7.44720535928256 0.0 0.0
63.02920850708571 63.02920850708571 0.0 0.0
37.18482622800114 37.18482622800114 0.0 0.0
5.550664381716689 5.550664381716689 0.0 0.0
12.803947661344964 12.803947661344964 0.0 0.0
23.01325321536638 23.01325321536638 0.0 0.0
35.669994184744255 35.669994184744255 0.0 0.0
50.2711720838571 50.2711720838571 0.0 0.0
67.68539181733642 67.68539181733642 0.0 0.0
88.28233927085984 88.28233927085984 0.0 0.0
120.684205399171 120.684205399171 0.0 0.0
181.05233816438104 181.05233816438104 0.0 0.0
238.44408575524594 238.44408575524594 0.0 0.0
180.71736017114202 180.71736017114202 0.0 0.0
120.00405063105006 120.00405063105006 0.0 0.0
87.29317736252088 87.29317736252088 0.0 0.0
66.44150989912559 66.44150989912559 0.0 0.0
48.85107787705285 48.85107787705285 0.0 0.0
34.1690294508995 34.1690294508995 0.0 0.0
21.78443195854231 21.78443195854231 0.0 0.0
12.713340879083404 12.713340879083404 0.0 0.0
6.56907628541691 6.56907628541691 0.0 0.0
35.81177885857734 35.81177885857734 0.0 0.0
18.444846908123957 18.444846908123957 0.0 0.0
7.59038614092369 7.59038614092369 0.0 0.0
10.270112672145459 10.270112672145459 0.0 0.0
10.217097825123844 10.217097825123844 0.0 0.0
11.307839878794821 11.307839878794821 0.0 0.0
12.446370851278237 12.446370851278237 0.0 0.0
13.903069881765612 13.903069881765612 0.0 0.0
15.078746772741333 15.078746772741333 0.0 0.0
18.738461297374588 18.738461297374588 0.0 0.0
40.65303025747509 40.65303025747509 0.0 0.0
109.61880917595916 109.61880917595916 0.0 0.0
40.82561740755822 40.82561740755822 0.0 0.0
18.98755270983044 18.98755270983044 0.0 0.0
15.387946195914816 15.387946195914816 0.0 0.0
14.301857435991229 14.301857435991229 0.0 0.0
12.995084112981466 12.995084112981466 0.0 0.0
12.090082594461052 12.090082594461052 0.0 0.0
11.372472166319131 11.372472166319131 0.0 0.0
11.684842230444865 11.684842230444865 0.0 0.0
8.677029563698712 8.677029563698712 0.0 0.0
17.070197848279978 17.070197848279978 0.0 0.0
7.798634423813803 7.798634423813803 0.0 0.0
8.457378276515119 8.457378276515119 0.0 0.0
15.320397480524104 15.320397480524104 0.0 0.0
21.540091389312185 21.540091389312185 0.0 0.0
31.6554452468353 31.6554452468353 0.0 0.0
46.21547890454818 46.21547890454818 0.0 0.0
65.29318632156617 65.29318632156617 0.0 0.0
92.60704750789859 92.60704750789859 0.0 0.0
123.22277598865745 123.22277598865745 0.0 0.0
134.1541836523073 134.1541836523073 0.0 0.0
269.043524882046 269.043524882046 0.0 0.0
134.82085634122888 134.82085634122888 0.0 0.0
124.37004437150651 124.37004437150651 0.0 0.0
94.14280974785831 94.14280974785831 0.0 0.0
67.14019046123074 67.14019046123074 0.0 0.0
48.30725014363978 48.30725014363978 0.0 0.0
33.88046972143864 33.88046972143864 0.0 0.0
23.63464837743044 23.63464837743044 0.0 0.0
16.722974864938553 16.722974864938553 0.0 0.0
8.945415282185555 8.945415282185555 0.0 0.0
6.78683654567413 6.78683654567413 0.0 0.0
3.943602558859211 3.943602558859211 0.0 0.0
9.081818957785691 9.081818957785691 0.0 0.0
27.344695922474003 27.344695922474003 0.0 0.0
56.99885632415262 56.99885632415262 0.0 0.0
98.47834931953109 98.47834931953109 0.0 0.0
153.55902034952808 153.55902034952808 0.0 0.0
223.8741419832373 223.8741419832373 0.0 0.0
311.36167272289777 311.36167272289777 0.0 0.0
438.70775648348234 438.70775648348234 0.0 0.0
477.75353346522735 477.75353346522735 0.0 0.0
778.9993551163992 778.9993551163992 0.0 0.0
478.90024096221117 478.90024096221117 0.0 0.0
440.78548667477395 440.78548667477395 0.0 0.0
314.1297011216282 314.1297011216282 0.0 0.0
227.10973718888664 227.10973718888664 0.0 0.0
156.90028550884588 156.90028550884588 0.0 0.0
101.44329692323498 101.44329692323498 0.0 0.0
59.01379939730992 59.01379939730992 0.0 0.0
28.13722710657628 28.13722710657628 0.0 0.0
9.143436707490169 9.143436707490169 0.0 0.0
3.273392722251165 3.273392722251165 0.0 0.0
3.7179277687499455 3.7179277687499455 0.0 0.0
13.501892836985448 13.501892836985448 0.0 0.0
52.6522420818824 52.6522420818824 0.0 0.0
122.0359300469827 122.0359300469827 0.0 0.0
216.064990140796 216.064990140796 0.0 0.0
337.95279400866013 337.95279400866013 0.0 0.0
493.25433514153684 493.25433514153684 0.0 0.0
681.5306779333141 681.5306779333141 0.0 0.0
900.3391064540476 900.3391064540476 0.0 0.0
1112.0763952987393 1112.0763952987393 0.0 0.0
2103.643930903175 2103.643930903175 0.0 0.0
1113.7032133876576 1113.7032133876576 0.0 0.0
903.514348292453 903.514348292453 0.0 0.0
685.8143791431281 685.8143791431281 0.0 0.0
498.16098423674725 498.16098423674725 0.0 0.0
342.75533089270266 342.75533089270266 0.0 0.0
219.75163416206215 219.75163416206215 0.0 0.0
123.67922991259425 123.67922991259425 0.0 0.0
52.588622666074706 52.588622666074706 0.0 0.0
13.134508948656567 13.134508948656567 0.0 0.0
3.1454022191002116 3.1454022191002116 0.0 0.0
82.97359488130695 82.97359488130695 0.0 0.0
53.95093162641777 53.95093162641777 0.0 0.0
68.74236489193926 68.74236489193926 0.0 0.0
135.986114744634 135.986114744634 0.0 0.0
232.13359002763295 232.13359002763295 0.0 0.0
356.13869620030755 356.13869620030755 0.0 0.0
508.0252329750055 508.0252329750055 0.0 0.0
698.7729514644027 698.7729514644027 0.0 0.0
952.258962552491 952.258962552491 0.0 0.0
1250.813693227257 1250.813693227257 0.0 0.0
1409.385611976383 1409.385611976383 0.0 0.0
1250.1223040195084 1250.1223040195084 0.0 0.0
950.9230026240477 950.9230026240477 0.0 0.0
696.8047312523137 696.8047312523137 0.0 0.0
505.3821951225002 505.3821951225002 0.0 0.0
352.79488523270817 352.79488523270817 0.0 0.0
228.13449733003904 228.13449733003904 0.0 0.0
131.5992930059651 131.5992930059651 0.0 0.0
63.458333926990676 63.458333926990676 0.0 0.0
42.06018439838154 42.06018439838154 0.0 0.0
81.87822413156391 81.87822413156391 0.0 0.0
70.2078753814277 70.2078753814277 0.0 0.0
9.088597565638906 9.088597565638906 0.0 0.0
30.317297781813583 30.317297781813583 0.0 0.0
64.33661804674351 64.33661804674351 0.0 0.0
108.03997040820573 108.03997040820573 0.0 0.0
163.74495135463383 163.74495135463383 0.0 0.0
231.71267408025355 231.71267408025355 0.0 0.0
315.43209840312574 315.43209840312574 0.0 0.0
424.605744021556 424.605744021556 0.0 0.0
556.1161369685556 556.1161369685556 0.0 0.0
633.6321451783022 633.6321451783022 0.0 0.0
555.6417187446889 555.6417187446889 0.0 0.0
423.6801642151485 423.6801642151485 0.0 0.0
314.08699700071423 314.08699700071423 0.0 0.0
229.9697375661247 229.9697375661247 0.0 0.0
161.6361638324833 161.6361638324833 0.0 0.0
105.66480707547696 105.66480707547696 0.0 0.0
61.77359351275878 61.77359351275878 0.0 0.0
28.21724543858101 28.21724543858101 0.0 0.0
8.498966931279806 8.498966931279806 0.0 0.0
67.91722628826233 67.91722628826233 0.0 0.0
38.99170464836914 38.99170464836914 0.0 0.0
6.310029312214497 6.310029312214497 0.0 0.0
13.080498807143051 13.080498807143051 0.0 0.0
23.11600000181354 23.11600000181354 0.0 0.0
35.818148803023085 35.818148803023085 0.0 0.0
50.44443472473017 50.44443472473017 0.0 0.0
67.55797287084322 67.55797287084322 0.0 0.0
86.9120874884717 86.9120874884717 0.0 0.0
116.32153443875389 116.32153443875389 0.0 0.0
172.22110894925513 172.22110894925513 0.0 0.0
226.79388532616017 226.79388532616017 0.0 0.0
172.03408392742045 172.03408392742045 0.0 0.0
115.92726159770005 115.92726159770005 0.0 0.0
86.33117360662331 86.33117360662331 0.0 0.0
66.82968168827155 66.82968168827155 0.0 0.0
49.6306903476678 49.6306903476678 0.0 0.0
34.993392958369895 34.993392958369895 0.0 0.0
22.492715693104557 22.492715693104557 0.0 0.0
13.213494996107933 13.213494996107933 0.0 0.0
7.122834864782959 7.122834864782959 0.0 0.0
39.168606854474916 39.168606854474916 0.0 0.0
19.83257549569281 19.83257549569281 0.0 0.0
8.477486524472356 8.477486524472356 0.0 0.0
10.889885856678267 10.889885856678267 0.0 0.0
10.414190485688415 10.414190485688415 0.0 0.0
11.21483977078869 11.21483977078869 0.0 0.0
12.138909364099986 12.138909364099986 0.0 0.0
13.282295412486981 13.282295412486981 0.0 0.0
13.811959612894427 13.811959612894427 0.0 0.0
16.166236983116185 16.166236983116185 0.0 0.0
36.58646781037198 36.58646781037198 0.0 0.0
103.2020104775919 103.2020104775919 0.0 0.0
36.70014216463628 36.70014216463628 0.0 0.0
16.324854516817243 16.324854516817243 0.0 0.0
14.00979420540836 14.00979420540836 0.0 0.0
13.531247409088422 13.531247409088422 0.0 0.0
12.466931220669577 12.466931220669577 0.0 0.0
11.671940520162945 11.671940520162945 0.0 0.0
11.105897417790251 11.105897417790251 0.0 0.0
11.780245881537294 11.780245881537294 0.0 0.0
9.163876949580933 9.163876949580933 0.0 0.0
19.475829189895826 19.475829189895826 0.0 0.0
8.775251076205569 8.775251076205569 0.0 0.0
9.298609493327815 9.298609493327815 0.0 0.0
16.471872806451106 16.471872806451106 0.0 0.0
22.759756840948384 22.759756840948384 0.0 0.0
32.97274598969519 32.97274598969519 0.0 0.0
47.61699160406158 47.61699160406158 0.0 0.0
66.40598602661306 66.40598602661306 0.0 0.0
92.42386436521603 92.42386436521603 0.0 0.0
120.28169658912236 120.28169658912236 0.0 0.0
129.5059442553349 129.5059442553349 0.0 0.0
257.7075503299462 257.7075503299462 0.0 0.0
129.91704138970726 129.91704138970726 0.0 0.0
120.99410604918913 120.99410604918913 0.0 0.0
93.3893508652851 93.3893508652851 0.0 0.0
67.55493106670814 67.55493106670814 0.0 0.0
48.88538731418653 48.88538731418653 0.0 0.0
34.2814437412497 34.2814437412497 0.0 0.0
23.966025770629358 23.966025770629358 0.0 0.0
17.27147216746 17.27147216746 0.0 0.0
9.545570668245631 9.545570668245631 0.0 0.0
8.341678158843798 8.341678158843798 0.0 0.0
4.519087638231537 4.519087638231537 0.0 0.0
10.10502417283839 10.10502417283839 0.0 0.0
29.390018015264598 29.390018015264598 0.0 0.0
60.096207995359904 60.096207995359904 0.0 0.0
102.73018352631851 102.73018352631851 0.0 0.0
158.7431558144363 158.7431558144363 0.0 0.0
228.8185042058513 228.8185042058513 0.0 0.0
313.2678227199796 313.2678227199796 0.0 0.0
431.73505348207976 431.73505348207976 0.0 0.0
466.061922988273 466.061922988273 0.0 0.0
749.9755521108303 749.9755521108303 0.0 0.0
466.78020635422274 466.78020635422274 0.0 0.0
433.06450215580634 433.06450215580634 0.0 0.0
315.04933446006436 315.04933446006436 0.0 0.0
230.87968476685205 230.87968476685205 0.0 0.0
160.83036648520104 160.83036648520104 0.0 0.0
104.52844495534407 104.52844495534407 0.0 0.0
61.27025981765504 61.27025981765504 0.0 0.0
29.829079301542855 29.829079301542855 0.0 0.0
10.115416942692086 10.115416942692086 0.0 0.0
4.156808606519919 4.156808606519919 0.0 0.0
4.5274434196325295 4.5274434196325295 0.0 0.0
15.313752960099853 15.313752960099853 0.0 0.0
56.46025903602148 56.46025903602148 0.0 0.0
128.27719725226356 128.27719725226356 0.0 0.0
225.05884112892412 225.05884112892412 0.0 0.0
349.2775521122725 349.2775521122725 0.0 0.0
504.52281953042126 504.52281953042126 0.0 0.0
686.2630000582225 686.2630000582225 0.0 0.0
887.0437147221826 887.0437147221826 0.0 0.0
1081.4293835523908 1081.4293835523908 0.0 0.0
2017.8768610861134 2017.8768610861134 0.0 0.0
1082.5351565112492 1082.5351565112492 0.0 0.0
889.1682332416643 889.1682332416643 0.0 0.0
689.1005933108166 689.1005933108166 0.0 0.0
507.726477121101 507.726477121101 0.0 0.0
352.3567943317611 352.3567943317611 0.0 0.0
227.37011097513255 227.37011097513255 0.0 0.0
129.27814026309136 129.27814026309136 0.0 0.0
56.4490277859445 56.4490277859445 0.0 0.0
15.164144198728117 15.164144198728117 0.0 0.0
4.250057686872248 4.250057686872248 0.0 0.0
117.00620987861744 117.00620987861744 0.0 0.0
48.27681667207686 48.27681667207686 0.0 0.0
71.70685176304151 71.70685176304151 0.0 0.0
144.47777742978454 144.47777742978454 0.0 0.0
247.70754476435866 247.70754476435866 0.0 0.0
382.4003853791103 382.4003853791103 0.0 0.0
543.8238717537324 543.8238717537324 0.0 0.0
730.2953409233519 730.2953409233519 0.0 0.0
940.0062898952499 940.0062898952499 0.0 0.0
1146.2493183754784 1146.2493183754784 0.0 0.0
1245.268403346922 1245.268403346922 0.0 0.0
1146.8179752383817 1146.8179752383817 0.0 0.0
941.0682112683094 941.0682112683094 0.0 0.0
731.8353274159069 731.8353274159069 0.0 0.0
545.9278423428009 545.9278423428009 0.0 0.0
385.2269741274342 385.2269741274342 0.0 0.0
251.4904133509668 251.4904133509668 0.0 0.0
149.2797167793017 149.2797167793017 0.0 0.0
78.50173273351832 78.50173273351832 0.0 0.0
57.666838709906905 57.666838709906905 0.0 0.0
114.03803893881097 114.03803893881097 0.0 0.0
93.8290413496057 93.8290413496057 0.0 0.0
8.163747761422206 8.163747761422206 0.0 0.0
30.2597437188335 30.2597437188335 0.0 0.0
65.85353679362169 65.85353679362169 0.0 0.0
112.7499087859925 112.7499087859925 0.0 0.0
172.93978939411016 172.93978939411016 0.0 0.0
245.04926320968192 245.04926320968192 0.0 0.0
327.15054796863024 327.15054796863024 0.0 0.0
417.86678930970737 417.86678930970737 0.0 0.0
508.876587519708 508.876587519708 0.0 0.0
557.0270759494098 557.0270759494098 0.0 0.0
509.24392923546077 509.24392923546077 0.0 0.0
418.56863412817984 418.56863412817984 0.0 0.0
328.1773220690258 328.1773220690258 0.0 0.0
246.42910631818907 246.42910631818907 0.0 0.0
174.7379896059908 174.7379896059908 0.0 0.0
115.03257607355424 115.03257607355424 0.0 0.0
68.76826268678553 68.76826268678553 0.0 0.0
33.12590875917427 33.12590875917427 0.0 0.0
9.385039205153097 9.385039205153097 0.0 0.0
94.41011119586625 94.41011119586625 0.0 0.0
56.37530543923614 56.37530543923614 0.0 0.0
6.629635849898 6.629635849898 0.0 0.0
12.946853999038808 12.946853999038808 0.0 0.0
21.837711322366015 21.837711322366015 0.0 0.0
35.06261850321622 35.06261850321622 0.0 0.0
50.80816711517047 50.80816711517047 0.0 0.0
69.3473397308893 69.3473397308893 0.0 0.0
89.36238053491614 89.36238053491614 0.0 0.0
112.9946665055152 112.9946665055152 0.0 0.0
148.99801751201943 148.99801751201943 0.0 0.0
181.2967941478847 181.2967941478847 0.0 0.0
149.1714266643197 149.1714266643197 0.0 0.0
113.33598627884155 113.33598627884155 0.0 0.0
89.8596557667731 89.8596557667731 0.0 0.0
69.98445244565396 69.98445244565396 0.0 0.0
51.5682399691264 51.5682399691264 0.0 0.0
35.943404041193986 35.943404041193986 0.0 0.0
22.728355743379836 22.728355743379836 0.0 0.0
13.205219255965453 13.205219255965453 0.0 0.0
5.8038920838271295 5.8038920838271295 0.0 0.0
55.89185926298987 55.89185926298987 0.0 0.0
28.031841956361582 28.031841956361582 0.0 0.0
9.247020542607434 9.247020542607434 0.0 0.0
11.312167474758645 11.312167474758645 0.0 0.0
9.759819954916457 9.759819954916457 0.0 0.0
10.143872536845866 10.143872536845866 0.0 0.0
11.066053465586554 11.066053465586554 0.0 0.0
12.295788362414905 12.295788362414905 0.0 0.0
13.044356163524695 13.044356163524695 0.0 0.0
13.7616267403006 13.7616267403006 0.0 0.0
25.01800001482391 25.01800001482391 0.0 0.0
61.19917310741316 61.19917310741316 0.0 0.0
24.981375673568515 24.981375673568515 0.0 0.0
13.742001819430083 13.742001819430083 0.0 0.0
13.037159533821589 13.037159533821589 0.0 0.0
12.265870513933322 12.265870513933322 0.0 0.0
10.970759211495878 10.970759211495878 0.0 0.0
9.92789496225014 9.92789496225014 0.0 0.0
9.309155283405603 9.309155283405603 0.0 0.0
10.538049077237673 10.538049077237673 0.0 0.0
8.236795963185319 8.236795963185319 0.0 0.0
28.218743155665905 28.218743155665905 0.0 0.0
11.614006313030234 11.614006313030234 0.0 0.0
9.934876703504463 9.934876703504463 0.0 0.0
17.742251601745743 17.742251601745743 0.0 0.0
25.010640831694708 25.010640831694708 0.0 0.0
36.24532558434388 36.24532558434388 0.0 0.0
51.88156705076372 51.88156705076372 0.0 0.0
70.93037948410696 70.93037948410696 0.0 0.0
94.48489182705264 94.48489182705264 0.0 0.0
116.78194310484521 116.78194310484521 0.0 0.0
123.24519933786358 123.24519933786358 0.0 0.0
186.72013177680574 186.72013177680574 0.0 0.0
122.98808571288997 122.98808571288997 0.0 0.0
116.42449093457834 116.42449093457834 0.0 0.0
94.02336900562902 94.02336900562902 0.0 0.0
70.35010620414944 70.35010620414944 0.0 0.0
51.17797951920368 51.17797951920368 0.0 0.0
35.416421566676306 35.416421566676306 0.0 0.0
24.114161803062846 24.114161803062846 0.0 0.0
16.978678690784843 16.978678690784843 0.0 0.0
9.34407877194002 9.34407877194002 0.0 0.0
11.862486538488287 11.862486538488287 0.0 0.0
5.115747790803281 5.115747790803281 0.0 0.0
10.818854928332039 10.818854928332039 0.0 0.0
32.53847157369735 32.53847157369735 0.0 0.0
67.76550286454155 67.76550286454155 0.0 0.0
115.3214349843606 115.3214349843606 0.0 0.0
175.68186622695058 175.68186622695058 0.0 0.0
248.12470421998628 248.12470421998628 0.0 0.0
329.6338747499429 329.6338747499429 0.0 0.0
428.498354903244 428.498354903244 0.0 0.0
455.07165270230564 455.07165270230564 0.0 0.0
587.1102470676716 587.1102470676716 0.0 0.0
454.62204102566494 454.62204102566494 0.0 0.0
427.8608733568538 427.8608733568538 0.0 0.0
328.75704364722804 328.75704364722804 0.0 0.0
247.07129248675807 247.07129248675807 0.0 0.0
174.5679680626319 174.5679680626319 0.0 0.0
114.311562842139 114.311562842139 0.0 0.0
67.07704517899846 67.07704517899846 0.0 0.0
32.27487128102785 32.27487128102785 0.0 0.0
10.678254441579831 10.678254441579831 0.0 0.0
5.219824680154866 5.219824680154866 0.0 0.0
4.750153873148277 4.750153873148277 0.0 0.0
16.776596136393138 16.776596136393138 0.0 0.0
63.284469493060634 63.284469493060634 0.0 0.0
144.72308961854583 144.72308961854583 0.0 0.0
252.5320982774813 252.5320982774813 0.0 0.0
387.0395857007894 387.0395857007894 0.0 0.0
549.1545916326222 549.1545916326222 0.0 0.0
729.8826844140622 729.8826844140622 0.0 0.0
910.7684023822898 910.7684023822898 0.0 0.0
1033.4440836488227 1033.4440836488227 0.0 0.0
1550.5797669999506 1550.5797669999506 0.0 0.0
1033.1226961186296 1033.1226961186296 0.0 0.0
909.9296761715208 909.9296761715208 0.0 0.0
728.6020498942221 728.6020498942221 0.0 0.0
547.6190067672887 547.6190067672887 0.0 0.0
385.5153772085788 385.5153772085788 0.0 0.0
251.41873285035575 251.41873285035575 0.0 0.0
144.4431587028935 144.4431587028935 0.0 0.0
63.74797120064204 63.74797120064204 0.0 0.0
17.187299592060263 17.187299592060263 0.0 0.0
4.9546778645489225 4.9546778645489225 0.0 0.0
314.3617735785869 314.3617735785869 0.0 0.0
56.88430602308804 56.88430602308804 0.0 0.0
67.7721164538957 67.7721164538957 0.0 0.0
141.88152845853642 141.88152845853642 0.0 0.0
250.2849394205718 250.2849394205718 0.0 0.0
394.4504205953655 394.4504205953655 0.0 0.0
567.9898392966049 567.9898392966049 0.0 0.0
762.1342852249527 762.1342852249527 0.0 0.0
948.8469803970222 948.8469803970222 0.0 0.0
1077.8773846137535 1077.8773846137535 0.0 0.0
1119.3878916626384 1119.3878916626384 0.0 0.0
1079.5079884539216 1079.5079884539216 0.0 0.0
952.1071819128764 952.1071819128764 0.0 0.0
767.1069788071886 767.1069788071886 0.0 0.0
574.8198871286419 574.8198871286419 0.0 0.0
403.1931560195046 403.1931560195046 0.0 0.0
260.6963788716619 260.6963788716619 0.0 0.0
153.2905997872393 153.2905997872393 0.0 0.0
80.58771399968126 80.58771399968126 0.0 0.0
89.79997873321075 89.79997873321075 0.0 0.0
301.17451279448017 301.17451279448017 0.0 0.0
233.37363632180492 233.37363632180492 0.0 0.0
7.0614761117255025 7.0614761117255025 0.0 0.0
31.50549577079189 31.50549577079189 0.0 0.0
67.34441655057427 67.34441655057427 0.0 0.0
115.59823730490496 115.59823730490496 0.0 0.0
178.284940519401 178.284940519401 0.0 0.0
254.11335430146357 254.11335430146357 0.0 0.0
339.6367656936639 339.6367656936639 0.0 0.0
423.59768166024 423.59768166024 0.0 0.0
483.2079805673695 483.2079805673695 0.0 0.0
502.5992747921903 502.5992747921903 0.0 0.0
484.2654707880654 484.2654707880654 0.0 0.0
425.7045226177168 425.7045226177168 0.0 0.0
342.8160193130428 342.8160193130428 0.0 0.0
258.3846066216592 258.3846066216592 0.0 0.0
183.59509927999787 183.59509927999787 0.0 0.0
121.67186430623136 121.67186430623136 0.0 0.0
73.71462899533638 73.71462899533638 0.0 0.0
36.02714341747261 36.02714341747261 0.0 0.0
8.15492101934781 8.15492101934781 0.0 0.0
245.11998730716607 245.11998730716607 0.0 0.0
129.82706696595494 129.82706696595494 0.0 0.0
19.280468932422814 19.280468932422814 0.0 0.0
27.07478828097609 27.07478828097609 0.0 0.0
35.24306517152049 35.24306517152049 0.0 0.0
48.75630350810021 48.75630350810021 0.0 0.0
64.38448676445897 64.38448676445897 0.0 0.0
83.5581680271807 83.5581680271807 0.0 0.0
107.26910847746531 107.26910847746531 0.0 0.0
133.0585291155391 133.0585291155391 0.0 0.0
150.22460722570074 150.22460722570074 0.0 0.0
155.08331199841302 155.08331199841302 0.0 0.0
150.6588136539323 150.6588136539323 0.0 0.0
133.88444379856716 133.88444379856716 0.0 0.0
108.46319001467887 108.46319001467887 0.0 0.0
85.07685236573661 85.07685236573661 0.0 0.0
66.1187507626172 66.1187507626172 0.0 0.0
50.49687973741438 50.49687973741438 0.0 0.0
36.26621811779815 36.26621811779815 0.0 0.0
26.341962961762146 26.341962961762146 0.0 0.0
16.316003327716565 16.316003327716565 0.0 0.0
135.46406112204645 135.46406112204645 0.0 0.0
59.88556484761363 59.88556484761363 0.0 0.0
27.97278943370729 27.97278943370729 0.0 0.0
34.87187407770994 34.87187407770994 0.0 0.0
31.92662029094925 31.92662029094925 0.0 0.0
31.513095798646773 31.513095798646773 0.0 0.0
31.044338097785747 31.044338097785747 0.0 0.0
30.494810279379685 30.494810279379685 0.0 0.0
31.5303373180231 31.5303373180231 0.0 0.0
36.44454619904083 36.44454619904083 0.0 0.0
41.87174266809652 41.87174266809652 0.0 0.0
45.425718300845105 45.425718300845105 0.0 0.0
41.71819612825388 41.71819612825388 0.0 0.0
36.076927142720116 36.076927142720116 0.0 0.0
30.92007463887029 30.92007463887029 0.0 0.0
29.595540455679075 29.595540455679075 0.0 0.0
29.791737700431494 29.791737700431494 0.0 0.0
29.77422849993211 29.77422849993211 0.0 0.0
29.468021866689096 29.468021866689096 0.0 0.0
32.05989458548732 32.05989458548732 0.0 0.0
25.653919145445922 25.653919145445922 0.0 0.0
63.0335058478766 63.0335058478766 0.0 0.0
22.73240081856934 22.73240081856934 0.0 0.0
25.724073835977624 25.724073835977624 0.0 0.0
41.20684568198234 41.20684568198234 0.0 0.0
48.530145111661476 48.530145111661476 0.0 0.0
58.51615678270907 58.51615678270907 0.0 0.0
72.35403453195124 72.35403453195124 0.0 0.0
88.73412416006178 88.73412416006178 0.0 0.0
104.68630745458472 104.68630745458472 0.0 0.0
122.61171424699862 122.61171424699862 0.0 0.0
150.7303782091924 150.7303782091924 0.0 0.0
168.7282713927602 168.7282713927602 0.0 0.0
150.04138162575398 150.04138162575398 0.0 0.0
121.1969246115748 121.1969246115748 0.0 0.0
102.54709676077367 102.54709676077367 0.0 0.0
85.90361591038703 85.90361591038703 0.0 0.0
68.9234640641103 68.9234640641103 0.0 0.0
54.6628098425629 54.6628098425629 0.0 0.0
44.72891827890149 44.72891827890149 0.0 0.0
38.53581207211618 38.53581207211618 0.0 0.0
24.576876233852495 24.576876233852495 0.0 0.0
23.916578639881607 23.916578639881607 0.0 0.0
7.931867304112142 7.931867304112142 0.0 0.0
19.630867419690112 19.630867419690112 0.0 0.0
48.77593800800723 48.77593800800723 0.0 0.0
87.2935904062654 87.2935904062654 0.0 0.0
135.25521778807936 135.25521778807936 0.0 0.0
194.7191347275162 194.7191347275162 0.0 0.0
264.3284333565888 264.3284333565888 0.0 0.0
340.22783093908083 340.22783093908083 0.0 0.0
398.76392475488575 398.76392475488575 0.0 0.0
486.3480084638282 486.3480084638282 0.0 0.0
529.055922466506 529.055922466506 0.0 0.0
485.1265463887615 485.1265463887615 0.0 0.0
396.3707971837949 396.3707971837949 0.0 0.0
336.6482140570985 336.6482140570985 0.0 0.0
259.8248062013356 259.8248062013356 0.0 0.0
189.68561213712542 189.68561213712542 0.0 0.0
130.40463610039106 130.40463610039106 0.0 0.0
83.66148355271268 83.66148355271268 0.0 0.0
47.0992048372586 47.0992048372586 0.0 0.0
19.193430636060178 19.193430636060178 0.0 0.0
8.225432861992585 8.225432861992585 0.0 0.0
4.873745070433933 4.873745070433933 0.0 0.0
21.189754247158092 21.189754247158092 0.0 0.0
76.9320451482137 76.9320451482137 0.0 0.0
168.10133477941469 168.10133477941469 0.0 0.0
281.614830899764 281.614830899764 0.0 0.0
419.92297305723713 419.92297305723713 0.0 0.0
582.6398606011215 582.6398606011215 0.0 0.0
764.6787035502487 764.6787035502487 0.0 0.0
950.5960195923549 950.5960195923549 0.0 0.0
1128.4821583079179 1128.4821583079179 0.0 0.0
970.2969780310104 970.2969780310104 0.0 0.0
1126.906891478497 1126.906891478497 0.0 0.0
946.8644654044413 946.8644654044413 0.0 0.0
759.2058616747786 759.2058616747786 0.0 0.0
575.9535022722 575.9535022722 0.0 0.0
412.90139779384583 412.90139779384583 0.0 0.0
275.738301176126 275.738301176126 0.0 0.0
165.019517482115 165.019517482115 0.0 0.0
76.64667557638512 76.64667557638512 0.0 0.0
21.575407524414672 21.575407524414672 0.0 0.0
5.16180360625939 5.16180360625939 0.0 0.0