# vtk DataFile Version 3.0
Some data
ASCII
DATASET UNSTRUCTURED_GRID
POINTS 1029 float
0.0 0.0 0.0
0.8 0.0 0.0
1.6 0.0 0.0
2.4000000000000004 0.0 0.0
3.2 0.0 0.0
4.0 0.0 0.0
4.800000000000001 0.0 0.0
5.6000000000000005 0.0 0.0
6.4 0.0 0.0
7.2 0.0 0.0
8.0 0.0 0.0
8.8 0.0 0.0
9.600000000000001 0.0 0.0
10.4 0.0 0.0
11.200000000000001 0.0 0.0
12.0 0.0 0.0
12.8 0.0 0.0
13.600000000000001 0.0 0.0
14.4 0.0 0.0
15.200000000000001 0.0 0.0
16.0 0.0 0.0
0.0 0.3333333333333333 0.0
0.8 0.3333333333333333 0.0
1.6 0.3333333333333333 0.0
2.4000000000000004 0.3333333333333333 0.0
3.2 0.3333333333333333 0.0
4.0 0.3333333333333333 0.0
4.800000000000001 0.3333333333333333 0.0
5.6000000000000005 0.3333333333333333 0.0
6.4 0.3333333333333333 0.0
7.2 0.3333333333333333 0.0
8.0 0.3333333333333333 0.0
8.8 0.3333333333333333 0.0
9.600000000000001 0.3333333333333333 0.0
10.4 0.3333333333333333 0.0
11.200000000000001 0.3333333333333333 0.0
12.0 0.3333333333333333 0.0
12.8 0.3333333333333333 0.0
13.600000000000001 0.3333333333333333 0.0
14.4 0.3333333333333333 0.0
15.200000000000001 0.3333333333333333 0.0
16.0 0.3333333333333333 0.0
0.0 0.6666666666666666 0.0
0.8 0.6666666666666666 0.0
1.6 0.6666666666666666 0.0
2.4000000000000004 0.6666666666666666 0.0
3.2 0.6666666666666666 0.0
4.0 0.6666666666666666 0.0
4.800000000000001 0.6666666666666666 0.0
5.6000000000000005 0.6666666666666666 0.0
6.4 0.6666666666666666 0.0
7.2 0.6666666666666666 0.0
8.0 0.6666666666666666 0.0
8.8 0.6666666666666666 0.0
9.600000000000001 0.6666666666666666 0.0
10.4 0.6666666666666666 0.0
11.200000000000001 0.6666666666666666 0.0
12.0 0.6666666666666666 0.0
12.8 0.6666666666666666 0.0
13.600000000000001 0.6666666666666666 0.0
14.4 0.6666666666666666 0.0
15.200000000000001 0.6666666666666666 0.0
16.0 0.6666666666666666 0.0
0.0 1.0 0.0
0.8 1.0 0.0
1.6 1.0 0.0
2.4000000000000004 1.0 0.0
3.2 1.0 0.0
4.0 1.0 0.0
4.800000000000001 1.0 0.0
5.6000000000000005 1.0 0.0
6.4 1.0 0.0
7.2 1.0 0.0
8.0 1.0 0.0
8.8 1.0 0.0
9.600000000000001 1.0 0.0
10.4 1.0 0.0
11.200000000000001 1.0 0.0
12.0 1.0 0.0
12.8 1.0 0.0
13.600000000000001 1.0 0.0
14.4 1.0 0.0
15.200000000000001 1.0 0.0
16.0 1.0 0.0
0.0 1.3333333333333333 0.0
0.8 1.3333333333333333 0.0
1.6 1.3333333333333333 0.0
2.4000000000000004 1.3333333333333333 0.0
3.2 1.3333333333333333 0.0
4.0 1.3333333333333333 0.0
4.800000000000001 1.3333333333333333 0.0
5.6000000000000005 1.3333333333333333 0.0
6.4 1.3333333333333333 0.0
7.2 1.3333333333333333 0.0
8.0 1.3333333333333333 0.0
8.8 1.3333333333333333 0.0
9.600000000000001 1.3333333333333333 0.0
10.4 1.3333333333333333 0.0
11.200000000000001 1.3333333333333333 0.0
12.0 1.3333333333333333 0.0
12.8 1.3333333333333333 0.0
13.600000000000001 1.3333333333333333 0.0
14.4 1.3333333333333333 0.0
15.200000000000001 1.3333333333333333 0.0
16.0 1.3333333333333333 0.0
0.0 1.6666666666666665 0.0
0.8 1.6666666666666665 0.0
1.6 1.6666666666666665 0.0
2.4000000000000004 1.6666666666666665 0.0
3.2 1.6666666666666665 0.0
4.0 1.6666666666666665 0.0
4.800000000000001 1.6666666666666665 0.0
5.6000000000000005 1.6666666666666665 0.0
6.4 1.6666666666666665 0.0
7.2 1.6666666666666665 0.0
8.0 1.6666666666666665 0.0
8.8 1.6666666666666665 0.0
9.600000000000001 1.6666666666666665 0.0
10.4 1.6666666666666665 0.0
11.200000000000001 1.6666666666666665 0.0
12.0 1.6666666666666665 0.0
12.8 1.6666666666666665 0.0
13.600000000000001 1.6666666666666665 0.0
14.4 1.6666666666666665 0.0
15.200000000000001 1.6666666666666665 0.0
16.0 1.6666666666666665 0.0
0.0 2.0 0.0
0.8 2.0 0.0
1.6 2.0 0.0
2.4000000000000004 2.0 0.0
3.2 2.0 0.0
4.0 2.0 0.0
4.800000000000001 2.0 0.0
5.6000000000000005 2.0 0.0
6.4 2.0 0.0
7.2 2.0 0.0
8.0 2.0 0.0
8.8 2.0 0.0
9.600000000000001 2.0 0.0
10.4 2.0 0.0
11.200000000000001 2.0 0.0
12.0 2.0 0.0
12.8 2.0 0.0
13.600000000000001 2.0 0.0
14.4 2.0 0.0
15.200000000000001 2.0 0.0
16.0 2.0 0.0
0.0 0.0 1.6666666666666667
0.8 0.0 1.6666666666666667
1.6 0.0 1.6666666666666667
2.4000000000000004 0.0 1.6666666666666667
3.2 0.0 1.6666666666666667
4.0 0.0 1.6666666666666667
4.800000000000001 0.0 1.6666666666666667
5.6000000000000005 0.0 1.6666666666666667
6.4 0.0 1.6666666666666667
7.2 0.0 1.6666666666666667
8.0 0.0 1.6666666666666667
8.8 0.0 1.6666666666666667
9.600000000000001 0.0 1.6666666666666667
10.4 0.0 1.6666666666666667
11.200000000000001 0.0 1.6666666666666667
12.0 0.0 1.6666666666666667
12.8 0.0 1.6666666666666667
13.600000000000001 0.0 1.6666666666666667
14.4 0.0 1.6666666666666667
15.200000000000001 0.0 1.6666666666666667
16.0 0.0 1.6666666666666667
0.0 0.3333333333333333 1.6666666666666667
0.8 0.3333333333333333 1.6666666666666667
1.6 0.3333333333333333 1.6666666666666667
2.4000000000000004 0.3333333333333333 1.6666666666666667
3.2 0.3333333333333333 1.6666666666666667
4.0 0.3333333333333333 1.6666666666666667
4.800000000000001 0.3333333333333333 1.6666666666666667
5.6000000000000005 0.3333333333333333 1.6666666666666667
6.4 0.3333333333333333 1.6666666666666667
7.2 0.3333333333333333 1.6666666666666667
8.0 0.3333333333333333 1.6666666666666667
8.8 0.3333333333333333 1.6666666666666667
9.600000000000001 0.3333333333333333 1.6666666666666667
10.4 0.3333333333333333 1.6666666666666667
11.200000000000001 0.3333333333333333 1.6666666666666667
12.0 0.3333333333333333 1.6666666666666667
12.8 0.3333333333333333 1.6666666666666667
13.600000000000001 0.3333333333333333 1.6666666666666667
14.4 0.3333333333333333 1.6666666666666667
15.200000000000001 0.3333333333333333 1.6666666666666667
16.0 0.3333333333333333 1.6666666666666667
0.0 0.6666666666666666 1.6666666666666667
0.8 0.6666666666666666 1.6666666666666667
1.6 0.6666666666666666 1.6666666666666667
2.4000000000000004 0.6666666666666666 1.6666666666666667
3.2 0.6666666666666666 1.6666666666666667
4.0 0.6666666666666666 1.6666666666666667
4.800000000000001 0.6666666666666666 1.6666666666666667
5.6000000000000005 0.6666666666666666 1.6666666666666667
6.4 0.6666666666666666 1.6666666666666667
7.2 0.6666666666666666 1.6666666666666667
8.0 0.6666666666666666 1.6666666666666667
8.8 0.6666666666666666 1.6666666666666667
9.600000000000001 0.6666666666666666 1.6666666666666667
10.4 0.6666666666666666 1.6666666666666667
11.200000000000001 0.6666666666666666 1.6666666666666667
12.0 0.6666666666666666 1.6666666666666667
12.8 0.6666666666666666 1.6666666666666667
13.600000000000001 0.6666666666666666 1.6666666666666667
14.4 0.6666666666666666 1.6666666666666667
15.200000000000001 0.6666666666666666 1.6666666666666667
16.0 0.6666666666666666 1.6666666666666667
0.0 1.0 1.6666666666666667
0.8 1.0 1.6666666666666667
1.6 1.0 1.6666666666666667
2.4000000000000004 1.0 1.6666666666666667
3.2 1.0 1.6666666666666667
4.0 1.0 1.6666666666666667
4.800000000000001 1.0 1.6666666666666667
5.6000000000000005 1.0 1.6666666666666667
6.4 1.0 1.6666666666666667
7.2 1.0 1.6666666666666667
8.0 1.0 1.6666666666666667
8.8 1.0 1.6666666666666667
9.600000000000001 1.0 1.6666666666666667
10.4 1.0 1.6666666666666667
11.200000000000001 1.0 1.6666666666666667
12.0 1.0 1.6666666666666667
12.8 1.0 1.6666666666666667
13.600000000000001 1.0 1.6666666666666667
14.4 1.0 1.6666666666666667
15.200000000000001 1.0 1.6666666666666667
16.0 1.0 1.6666666666666667
0.0 1.3333333333333333 1.6666666666666667
0.8 1.3333333333333333 1.6666666666666667
1.6 1.3333333333333333 1.6666666666666667
2.4000000000000004 1.3333333333333333 1.6666666666666667
3.2 1.3333333333333333 1.6666666666666667
4.0 1.3333333333333333 1.6666666666666667
4.800000000000001 1.3333333333333333 1.6666666666666667
5.6000000000000005 1.3333333333333333 1.6666666666666667
6.4 1.3333333333333333 1.6666666666666667
7.2 1.3333333333333333 1.6666666666666667
8.0 1.3333333333333333 1.6666666666666667
8.8 1.3333333333333333 1.6666666666666667
9.600000000000001 1.3333333333333333 1.6666666666666667
10.4 1.3333333333333333 1.6666666666666667
11.200000000000001 1.3333333333333333 1.6666666666666667
12.0 1.3333333333333333 1.6666666666666667
12.8 1.3333333333333333 1.6666666666666667
13.600000000000001 1.3333333333333333 1.6666666666666667
14.4 1.3333333333333333 1.6666666666666667
15.200000000000001 1.3333333333333333 1.6666666666666667
16.0 1.3333333333333333 1.6666666666666667
0.0 1.6666666666666665 1.6666666666666667
0.8 1.6666666666666665 1.6666666666666667
1.6 1.6666666666666665 1.6666666666666667
2.4000000000000004 1.6666666666666665 1.6666666666666667
3.2 1.6666666666666665 1.6666666666666667
4.0 1.6666666666666665 1.6666666666666667
4.800000000000001 1.6666666666666665 1.6666666666666667
5.6000000000000005 1.6666666666666665 1.6666666666666667
6.4 1.6666666666666665 1.6666666666666667
7.2 1.6666666666666665 1.6666666666666667
8.0 1.6666666666666665 1.6666666666666667
8.8 1.6666666666666665 1.6666666666666667
9.600000000000001 1.6666666666666665 1.6666666666666667
10.4 1.6666666666666665 1.6666666666666667
11.200000000000001 1.6666666666666665 1.6666666666666667
12.0 1.6666666666666665 1.6666666666666667
12.8 1.6666666666666665 1.6666666666666667
13.600000000000001 1.6666666666666665 1.6666666666666667
14.4 1.6666666666666665 1.6666666666666667
15.200000000000001 1.6666666666666665 1.6666666666666667
16.0 1.6666666666666665 1.6666666666666667
0.0 2.0 1.6666666666666667
0.8 2.0 1.6666666666666667
1.6 2.0 1.6666666666666667
2.4000000000000004 2.0 1.6666666666666667
3.2 2.0 1.6666666666666667
4.0 2.0 1.6666666666666667
4.800000000000001 2.0 1.6666666666666667
5.6000000000000005 2.0 1.6666666666666667
6.4 2.0 1.6666666666666667
7.2 2.0 1.6666666666666667
8.0 2.0 1.6666666666666667
8.8 2.0 1.6666666666666667
9.600000000000001 2.0 1.6666666666666667
10.4 2.0 1.6666666666666667
11.200000000000001 2.0 1.6666666666666667
12.0 2.0 1.6666666666666667
12.8 2.0 1.6666666666666667
13.600000000000001 2.0 1.6666666666666667
14.4 2.0 1.6666666666666667
15.200000000000001 2.0 1.6666666666666667
16.0 2.0 1.6666666666666667
0.0 0.0 3.3333333333333335
0.8 0.0 3.3333333333333335
1.6 0.0 3.3333333333333335
2.4000000000000004 0.0 3.3333333333333335
3.2 0.0 3.3333333333333335
4.0 0.0 3.3333333333333335
4.800000000000001 0.0 3.3333333333333335
5.6000000000000005 0.0 3.3333333333333335
6.4 0.0 3.3333333333333335
7.2 0.0 3.3333333333333335
8.0 0.0 3.3333333333333335
8.8 0.0 3.3333333333333335
9.600000000000001 0.0 3.3333333333333335
10.4 0.0 3.3333333333333335
11.200000000000001 0.0 3.3333333333333335
12.0 0.0 3.3333333333333335
12.8 0.0 3.3333333333333335
13.600000000000001 0.0 3.3333333333333335
14.4 0.0 3.3333333333333335
15.200000000000001 0.0 3.3333333333333335
16.0 0.0 3.3333333333333335
0.0 0.3333333333333333 3.3333333333333335
0.8 0.3333333333333333 3.3333333333333335
1.6 0.3333333333333333 3.3333333333333335
2.4000000000000004 0.3333333333333333 3.3333333333333335
3.2 0.3333333333333333 3.3333333333333335
4.0 0.3333333333333333 3.3333333333333335
4.800000000000001 0.3333333333333333 3.3333333333333335
5.6000000000000005 0.3333333333333333 3.3333333333333335
6.4 0.3333333333333333 3.3333333333333335
7.2 0.3333333333333333 3.3333333333333335
8.0 0.3333333333333333 3.3333333333333335
8.8 0.3333333333333333 3.3333333333333335
9.600000000000001 0.3333333333333333 3.3333333333333335
10.4 0.3333333333333333 3.3333333333333335
11.200000000000001 0.3333333333333333 3.3333333333333335
12.0 0.3333333333333333 3.3333333333333335
12.8 0.3333333333333333 3.3333333333333335
13.600000000000001 0.3333333333333333 3.3333333333333335
14.4 0.3333333333333333 3.3333333333333335
15.200000000000001 0.3333333333333333 3.3333333333333335
16.0 0.3333333333333333 3.3333333333333335
0.0 0.6666666666666666 3.3333333333333335
0.8 0.6666666666666666 3.3333333333333335
1.6 0.6666666666666666 3.3333333333333335
2.4000000000000004 0.6666666666666666 3.3333333333333335
3.2 0.6666666666666666 3.3333333333333335
4.0 0.6666666666666666 3.3333333333333335
4.800000000000001 0.6666666666666666 3.3333333333333335
5.6000000000000005 0.6666666666666666 3.3333333333333335
6.4 0.6666666666666666 3.3333333333333335
7.2 0.6666666666666666 3.3333333333333335
8.0 0.6666666666666666 3.3333333333333335
8.8 0.6666666666666666 3.3333333333333335
9.600000000000001 0.6666666666666666 3.3333333333333335
10.4 0.6666666666666666 3.3333333333333335
11.200000000000001 0.6666666666666666 3.3333333333333335
12.0 0.6666666666666666 3.3333333333333335
12.8 0.6666666666666666 3.3333333333333335
13.600000000000001 0.6666666666666666 3.3333333333333335
14.4 0.6666666666666666 3.3333333333333335
15.200000000000001 0.6666666666666666 3.3333333333333335
16.0 0.6666666666666666 3.3333333333333335
0.0 1.0 3.3333333333333335
0.8 1.0 3.3333333333333335
1.6 1.0 3.3333333333333335
2.4000000000000004 1.0 3.3333333333333335
3.2 1.0 3.3333333333333335
4.0 1.0 3.3333333333333335
4.800000000000001 1.0 3.3333333333333335
5.6000000000000005 1.0 3.3333333333333335
6.4 1.0 3.3333333333333335
7.2 1.0 3.3333333333333335
8.0 1.0 3.3333333333333335
8.8 1.0 3.3333333333333335
9.600000000000001 1.0 3.3333333333333335
10.4 1.0 3.3333333333333335
11.200000000000001 1.0 3.3333333333333335
12.0 1.0 3.3333333333333335
12.8 1.0 3.3333333333333335
13.600000000000001 1.0 3.3333333333333335
14.4 1.0 3.3333333333333335
15.200000000000001 1.0 3.3333333333333335
16.0 1.0 3.3333333333333335
0.0 1.3333333333333333 3.3333333333333335
0.8 1.3333333333333333 3.3333333333333335
1.6 1.3333333333333333 3.3333333333333335
2.4000000000000004 1.3333333333333333 3.3333333333333335
3.2 1.3333333333333333 3.3333333333333335
4.0 1.3333333333333333 3.3333333333333335
4.800000000000001 1.3333333333333333 3.3333333333333335
5.6000000000000005 1.3333333333333333 3.3333333333333335
6.4 1.3333333333333333 3.3333333333333335
7.2 1.3333333333333333 3.3333333333333335
8.0 1.3333333333333333 3.3333333333333335
8.8 1.3333333333333333 3.3333333333333335
9.600000000000001 1.3333333333333333 3.3333333333333335
10.4 1.3333333333333333 3.3333333333333335
11.200000000000001 1.3333333333333333 3.3333333333333335
12.0 1.3333333333333333 3.3333333333333335
12.8 1.3333333333333333 3.3333333333333335
13.600000000000001 1.3333333333333333 3.3333333333333335
14.4 1.3333333333333333 3.3333333333333335
15.200000000000001 1.3333333333333333 3.3333333333333335
16.0 1.3333333333333333 3.3333333333333335
0.0 1.6666666666666665 3.3333333333333335
0.8 1.6666666666666665 3.3333333333333335
1.6 1.6666666666666665 3.3333333333333335
2.4000000000000004 1.6666666666666665 3.3333333333333335
3.2 1.6666666666666665 3.3333333333333335
4.0 1.6666666666666665 3.3333333333333335
4.800000000000001 1.6666666666666665 3.3333333333333335
5.6000000000000005 1.6666666666666665 3.3333333333333335
6.4 1.6666666666666665 3.3333333333333335
7.2 1.6666666666666665 3.3333333333333335
8.0 1.6666666666666665 3.3333333333333335
8.8 1.6666666666666665 3.3333333333333335
9.600000000000001 1.6666666666666665 3.3333333333333335
10.4 1.6666666666666665 3.3333333333333335
11.200000000000001 1.6666666666666665 3.3333333333333335
12.0 1.6666666666666665 3.3333333333333335
12.8 1.6666666666666665 3.3333333333333335
13.600000000000001 1.6666666666666665 3.3333333333333335
14.4 1.6666666666666665 3.3333333333333335
15.200000000000001 1.6666666666666665 3.3333333333333335
16.0 1.6666666666666665 3.3333333333333335
0.0 2.0 3.3333333333333335
0.8 2.0 3.3333333333333335
1.6 2.0 3.3333333333333335
2.4000000000000004 2.0 3.3333333333333335
3.2 2.0 3.3333333333333335
4.0 2.0 3.3333333333333335
4.800000000000001 2.0 3.3333333333333335
5.6000000000000005 2.0 3.3333333333333335
6.4 2.0 3.3333333333333335
7.2 2.0 3.3333333333333335
8.0 2.0 3.3333333333333335
8.8 2.0 3.3333333333333335
9.600000000000001 2.0 3.3333333333333335
10.4 2.0 3.3333333333333335
11.200000000000001 2.0 3.3333333333333335
12.0 2.0 3.3333333333333335
12.8 2.0 3.3333333333333335
13.600000000000001 2.0 3.3333333333333335
14.4 2.0 3.3333333333333335
15.200000000000001 2.0 3.3333333333333335
16.0 2.0 3.3333333333333335
0.0 0.0 5.0
0.8 0.0 5.0
1.6 0.0 5.0
2.4000000000000004 0.0 5.0
3.2 0.0 5.0
4.0 0.0 5.0
4.800000000000001 0.0 5.0
5.6000000000000005 0.0 5.0
6.4 0.0 5.0
7.2 0.0 5.0
8.0 0.0 5.0
8.8 0.0 5.0
9.600000000000001 0.0 5.0
10.4 0.0 5.0
11.200000000000001 0.0 5.0
12.0 0.0 5.0
12.8 0.0 5.0
13.600000000000001 0.0 5.0
14.4 0.0 5.0
15.200000000000001 0.0 5.0
16.0 0.0 5.0
0.0 0.3333333333333333 5.0
0.8 0.3333333333333333 5.0
1.6 0.3333333333333333 5.0
2.4000000000000004 0.3333333333333333 5.0
3.2 0.3333333333333333 5.0
4.0 0.3333333333333333 5.0
4.800000000000001 0.3333333333333333 5.0
5.6000000000000005 0.3333333333333333 5.0
6.4 0.3333333333333333 5.0
7.2 0.3333333333333333 5.0
8.0 0.3333333333333333 5.0
8.8 0.3333333333333333 5.0
9.600000000000001 0.3333333333333333 5.0
10.4 0.3333333333333333 5.0
11.200000000000001 0.3333333333333333 5.0
12.0 0.3333333333333333 5.0
12.8 0.3333333333333333 5.0
13.600000000000001 0.3333333333333333 5.0
14.4 0.3333333333333333 5.0
15.200000000000001 0.3333333333333333 5.0
16.0 0.3333333333333333 5.0
0.0 0.6666666666666666 5.0
0.8 0.6666666666666666 5.0
1.6 0.6666666666666666 5.0
2.4000000000000004 0.6666666666666666 5.0
3.2 0.6666666666666666 5.0
4.0 0.6666666666666666 5.0
4.800000000000001 0.6666666666666666 5.0
5.6000000000000005 0.6666666666666666 5.0
6.4 0.6666666666666666 5.0
7.2 0.6666666666666666 5.0
8.0 0.6666666666666666 5.0
8.8 0.6666666666666666 5.0
9.600000000000001 0.6666666666666666 5.0
10.4 0.6666666666666666 5.0
11.200000000000001 0.6666666666666666 5.0
12.0 0.6666666666666666 5.0
12.8 0.6666666666666666 5.0
13.600000000000001 0.6666666666666666 5.0
14.4 0.6666666666666666 5.0
15.200000000000001 0.6666666666666666 5.0
16.0 0.6666666666666666 5.0
0.0 1.0 5.0
0.8 1.0 5.0
1.6 1.0 5.0
2.4000000000000004 1.0 5.0
3.2 1.0 5.0
4.0 1.0 5.0
4.800000000000001 1.0 5.0
5.6000000000000005 1.0 5.0
6.4 1.0 5.0
7.2 1.0 5.0
8.0 1.0 5.0
8.8 1.0 5.0
9.600000000000001 1.0 5.0
10.4 1.0 5.0
11.200000000000001 1.0 5.0
12.0 1.0 5.0
12.8 1.0 5.0
13.600000000000001 1.0 5.0
14.4 1.0 5.0
15.200000000000001 1.0 5.0
16.0 1.0 5.0
0.0 1.3333333333333333 5.0
0.8 1.3333333333333333 5.0
1.6 1.3333333333333333 5.0
2.4000000000000004 1.3333333333333333 5.0
3.2 1.3333333333333333 5.0
4.0 1.3333333333333333 5.0
4.800000000000001 1.3333333333333333 5.0
5.6000000000000005 1.3333333333333333 5.0
6.4 1.3333333333333333 5.0
7.2 1.3333333333333333 5.0
8.0 1.3333333333333333 5.0
8.8 1.3333333333333333 5.0
9.600000000000001 1.3333333333333333 5.0
10.4 1.3333333333333333 5.0
11.200000000000001 1.3333333333333333 5.0
12.0 1.3333333333333333 5.0
12.8 1.3333333333333333 5.0
13.600000000000001 1.3333333333333333 5.0
14.4 1.3333333333333333 5.0
15.200000000000001 1.3333333333333333 5.0
16.0 1.3333333333333333 5.0
0.0 1.6666666666666665 5.0
0.8 1.6666666666666665 5.0
1.6 1.6666666666666665 5.0
2.4000000000000004 1.6666666666666665 5.0
3.2 1.6666666666666665 5.0
4.0 1.6666666666666665 5.0
4.800000000000001 1.6666666666666665 5.0
5.6000000000000005 1.6666666666666665 5.0
6.4 1.6666666666666665 5.0
7.2 1.6666666666666665 5.0
8.0 1.6666666666666665 5.0
8.8 1.6666666666666665 5.0
9.600000000000001 1.6666666666666665 5.0
10.4 1.6666666666666665 5.0
11.200000000000001 1.6666666666666665 5.0
12.0 1.6666666666666665 5.0
12.8 1.6666666666666665 5.0
13.600000000000001 1.6666666666666665 5.0
14.4 1.6666666666666665 5.0
15.200000000000001 1.6666666666666665 5.0
16.0 1.6666666666666665 5.0
0.0 2.0 5.0
0.8 2.0 5.0
1.6 2.0 5.0
2.4000000000000004 2.0 5.0
3.2 2.0 5.0
4.0 2.0 5.0
4.800000000000001 2.0 5.0
5.6000000000000005 2.0 5.0
6.4 2.0 5.0
7.2 2.0 5.0
8.0 2.0 5.0
8.8 2.0 5.0
9.600000000000001 2.0 5.0
10.4 2.0 5.0
11.200000000000001 2.0 5.0
12.0 2.0 5.0
12.8 2.0 5.0
13.600000000000001 2.0 5.0
14.4 2.0 5.0
15.200000000000001 2.0 5.0
16.0 2.0 5.0
0.0 0.0 6.666666666666667
0.8 0.0 6.666666666666667
1.6 0.0 6.666666666666667
2.4000000000000004 0.0 6.666666666666667
3.2 0.0 6.666666666666667
4.0 0.0 6.666666666666667
4.800000000000001 0.0 6.666666666666667
5.6000000000000005 0.0 6.666666666666667
6.4 0.0 6.666666666666667
7.2 0.0 6.666666666666667
8.0 0.0 6.666666666666667
8.8 0.0 6.666666666666667
9.600000000000001 0.0 6.666666666666667
10.4 0.0 6.666666666666667
11.200000000000001 0.0 6.666666666666667
12.0 0.0 6.666666666666667
12.8 0.0 6.666666666666667
13.600000000000001 0.0 6.666666666666667
14.4 0.0 6.666666666666667
15.200000000000001 0.0 6.666666666666667
16.0 0.0 6.666666666666667
0.0 0.3333333333333333 6.666666666666667
0.8 0.3333333333333333 6.666666666666667
1.6 0.3333333333333333 6.666666666666667
2.4000000000000004 0.3333333333333333 6.666666666666667
3.2 0.3333333333333333 6.666666666666667
4.0 0.3333333333333333 6.666666666666667
4.800000000000001 0.3333333333333333 6.666666666666667
5.6000000000000005 0.3333333333333333 6.666666666666667
6.4 0.3333333333333333 6.666666666666667
7.2 0.3333333333333333 6.666666666666667
8.0 0.3333333333333333 6.666666666666667
8.8 0.3333333333333333 6.666666666666667
9.600000000000001 0.3333333333333333 6.666666666666667
10.4 0.3333333333333333 6.666666666666667
11.200000000000001 0.3333333333333333 6.666666666666667
12.0 0.3333333333333333 6.666666666666667
12.8 0.3333333333333333 6.666666666666667
13.600000000000001 0.3333333333333333 6.666666666666667
14.4 0.3333333333333333 6.666666666666667
15.200000000000001 0.3333333333333333 6.666666666666667
16.0 0.3333333333333333 6.666666666666667
0.0 0.6666666666666666 6.666666666666667
0.8 0.6666666666666666 6.666666666666667
1.6 0.6666666666666666 6.666666666666667
2.4000000000000004 0.6666666666666666 6.666666666666667
3.2 0.6666666666666666 6.666666666666667
4.0 0.6666666666666666 6.666666666666667
4.800000000000001 0.6666666666666666 6.666666666666667
5.6000000000000005 0.6666666666666666 6.666666666666667
6.4 0.6666666666666666 6.666666666666667
7.2 0.6666666666666666 6.666666666666667
8.0 0.6666666666666666 6.666666666666667
8.8 0.6666666666666666 6.666666666666667
9.600000000000001 0.6666666666666666 6.666666666666667
10.4 0.6666666666666666 6.666666666666667
11.200000000000001 0.6666666666666666 6.666666666666667
12.0 0.6666666666666666 6.666666666666667
12.8 0.6666666666666666 6.666666666666667
13.600000000000001 0.6666666666666666 6.666666666666667
14.4 0.6666666666666666 6.666666666666667
15.200000000000001 0.6666666666666666 6.666666666666667
16.0 0.6666666666666666 6.666666666666667
0.0 1.0 6.666666666666667
0.8 1.0 6.666666666666667
1.6 1.0 6.666666666666667
2.4000000000000004 1.0 6.666666666666667
3.2 1.0 6.666666666666667
4.0 1.0 6.666666666666667
4.800000000000001 1.0 6.666666666666667
5.6000000000000005 1.0 6.666666666666667
6.4 1.0 6.666666666666667
7.2 1.0 6.666666666666667
8.0 1.0 6.666666666666667
8.8 1.0 6.666666666666667
9.600000000000001 1.0 6.666666666666667
10.4 1.0 6.666666666666667
11.200000000000001 1.0 6.666666666666667
12.0 1.0 6.666666666666667
12.8 1.0 6.666666666666667
13.600000000000001 1.0 6.666666666666667
14.4 1.0 6.666666666666667
15.200000000000001 1.0 6.666666666666667
16.0 1.0 6.666666666666667
0.0 1.3333333333333333 6.666666666666667
0.8 1.3333333333333333 6.666666666666667
1.6 1.3333333333333333 6.666666666666667
2.4000000000000004 1.3333333333333333 6.666666666666667
3.2 1.3333333333333333 6.666666666666667
4.0 1.3333333333333333 6.666666666666667
4.800000000000001 1.3333333333333333 6.666666666666667
5.6000000000000005 1.3333333333333333 6.666666666666667
6.4 1.3333333333333333 6.666666666666667
7.2 1.3333333333333333 6.666666666666667
8.0 1.3333333333333333 6.666666666666667
8.8 1.3333333333333333 6.666666666666667
9.600000000000001 1.3333333333333333 6.666666666666667
10.4 1.3333333333333333 6.666666666666667
11.200000000000001 1.3333333333333333 6.666666666666667
12.0 1.3333333333333333 6.666666666666667
12.8 1.3333333333333333 6.666666666666667
13.600000000000001 1.3333333333333333 6.666666666666667
14.4 1.3333333333333333 6.666666666666667
15.200000000000001 1.3333333333333333 6.666666666666667
16.0 1.3333333333333333 6.666666666666667
0.0 1.6666666666666665 6.666666666666667
0.8 1.6666666666666665 6.666666666666667
1.6 1.6666666666666665 6.666666666666667
2.4000000000000004 1.6666666666666665 6.666666666666667
3.2 1.6666666666666665 6.666666666666667
4.0 1.6666666666666665 6.666666666666667
4.800000000000001 1.6666666666666665 6.666666666666667
5.6000000000000005 1.6666666666666665 6.666666666666667
6.4 1.6666666666666665 6.666666666666667
7.2 1.6666666666666665 6.666666666666667
8.0 1.6666666666666665 6.666666666666667
8.8 1.6666666666666665 6.666666666666667
9.600000000000001 1.6666666666666665 6.666666666666667
10.4 1.6666666666666665 6.666666666666667
11.200000000000001 1.6666666666666665 6.666666666666667
12.0 1.6666666666666665 6.666666666666667
12.8 1.6666666666666665 6.666666666666667
13.600000000000001 1.6666666666666665 6.666666666666667
14.4 1.6666666666666665 6.666666666666667
15.200000000000001 1.6666666666666665 6.666666666666667
16.0 1.6666666666666665 6.666666666666667
0.0 2.0 6.666666666666667
0.8 2.0 6.666666666666667
1.6 2.0 6.666666666666667
2.4000000000000004 2.0 6.666666666666667
3.2 2.0 6.666666666666667
4.0 2.0 6.666666666666667
4.800000000000001 2.0 6.666666666666667
5.6000000000000005 2.0 6.666666666666667
6.4 2.0 6.666666666666667
7.2 2.0 6.666666666666667
8.0 2.0 6.666666666666667
8.8 2.0 6.666666666666667
9.600000000000001 2.0 6.666666666666667
10.4 2.0 6.666666666666667
11.200000000000001 2.0 6.666666666666667
12.0 2.0 6.666666666666667
12.8 2.0 6.666666666666667
13.600000000000001 2.0 6.666666666666667
14.4 2.0 6.666666666666667
15.200000000000001 2.0 6.666666666666667
16.0 2.0 6.666666666666667
0.0 0.0 8.333333333333334
0.8 0.0 8.333333333333334
1.6 0.0 8.333333333333334
2.4000000000000004 0.0 8.333333333333334
3.2 0.0 8.333333333333334
4.0 0.0 8.333333333333334
4.800000000000001 0.0 8.333333333333334
5.6000000000000005 0.0 8.333333333333334
6.4 0.0 8.333333333333334
7.2 0.0 8.333333333333334
8.0 0.0 8.333333333333334
8.8 0.0 8.333333333333334
9.600000000000001 0.0 8.333333333333334
10.4 0.0 8.333333333333334
11.200000000000001 0.0 8.333333333333334
12.0 0.0 8.333333333333334
12.8 0.0 8.333333333333334
13.600000000000001 0.0 8.333333333333334
14.4 0.0 8.333333333333334
15.200000000000001 0.0 8.333333333333334
16.0 0.0 8.333333333333334
0.0 0.3333333333333333 8.333333333333334
0.8 0.3333333333333333 8.333333333333334
1.6 0.3333333333333333 8.333333333333334
2.4000000000000004 0.3333333333333333 8.333333333333334
3.2 0.3333333333333333 8.333333333333334
4.0 0.3333333333333333 8.333333333333334
4.800000000000001 0.3333333333333333 8.333333333333334
5.6000000000000005 0.3333333333333333 8.333333333333334
6.4 0.3333333333333333 8.333333333333334
7.2 0.3333333333333333 8.333333333333334
8.0 0.3333333333333333 8.333333333333334
8.8 0.3333333333333333 8.333333333333334
9.600000000000001 0.3333333333333333 8.333333333333334
10.4 0.3333333333333333 8.333333333333334
11.200000000000001 0.3333333333333333 8.333333333333334
12.0 0.3333333333333333 8.333333333333334
12.8 0.3333333333333333 8.333333333333334
13.600000000000001 0.3333333333333333 8.333333333333334
14.4 0.3333333333333333 8.333333333333334
15.200000000000001 0.3333333333333333 8.333333333333334
16.0 0.3333333333333333 8.333333333333334
0.0 0.6666666666666666 8.333333333333334
0.8 0.6666666666666666 8.333333333333334
1.6 0.6666666666666666 8.333333333333334
2.4000000000000004 0.6666666666666666 8.333333333333334
3.2 0.6666666666666666 8.333333333333334
4.0 0.6666666666666666 8.333333333333334
4.800000000000001 0.6666666666666666 8.333333333333334
5.6000000000000005 0.6666666666666666 8.333333333333334
6.4 0.6666666666666666 8.333333333333334
7.2 0.6666666666666666 8.333333333333334
8.0 0.6666666666666666 8.333333333333334
8.8 0.6666666666666666 8.333333333333334
9.600000000000001 0.6666666666666666 8.333333333333334
10.4 0.6666666666666666 8.333333333333334
11.200000000000001 0.6666666666666666 8.333333333333334
12.0 0.6666666666666666 8.333333333333334
12.8 0.6666666666666666 8.333333333333334
13.600000000000001 0.6666666666666666 8.333333333333334
14.4 0.6666666666666666 8.333333333333334
15.200000000000001 0.6666666666666666 8.333333333333334
16.0 0.6666666666666666 8.333333333333334
0.0 1.0 8.333333333333334
0.8 1.0 8.333333333333334
1.6 1.0 8.333333333333334
2.4000000000000004 1.0 8.333333333333334
3.2 1.0 8.333333333333334
4.0 1.0 8.333333333333334
4.800000000000001 1.0 8.333333333333334
5.6000000000000005 1.0 8.333333333333334
6.4 1.0 8.333333333333334
7.2 1.0 8.333333333333334
8.0 1.0 8.333333333333334
8.8 1.0 8.333333333333334
9.600000000000001 1.0 8.333333333333334
10.4 1.0 8.333333333333334
11.200000000000001 1.0 8.333333333333334
12.0 1.0 8.333333333333334
12.8 1.0 8.333333333333334
13.600000000000001 1.0 8.333333333333334
14.4 1.0 8.333333333333334
15.200000000000001 1.0 8.333333333333334
16.0 1.0 8.333333333333334
0.0 1.3333333333333333 8.333333333333334
0.8 1.3333333333333333 8.333333333333334
1.6 1.3333333333333333 8.333333333333334
2.4000000000000004 1.3333333333333333 8.333333333333334
3.2 1.3333333333333333 8.333333333333334
4.0 1.3333333333333333 8.333333333333334
4.800000000000001 1.3333333333333333 8.333333333333334
5.6000000000000005 1.3333333333333333 8.333333333333334
6.4 1.3333333333333333 8.333333333333334
7.2 1.3333333333333333 8.333333333333334
8.0 1.3333333333333333 8.333333333333334
8.8 1.3333333333333333 8.333333333333334
9.600000000000001 1.3333333333333333 8.333333333333334
10.4 1.3333333333333333 8.333333333333334
11.200000000000001 1.3333333333333333 8.333333333333334
12.0 1.3333333333333333 8.333333333333334
12.8 1.3333333333333333 8.333333333333334
13.600000000000001 1.3333333333333333 8.333333333333334
14.4 1.3333333333333333 8.333333333333334
15.200000000000001 1.3333333333333333 8.333333333333334
16.0 1.3333333333333333 8.333333333333334
0.0 1.6666666666666665 8.333333333333334
0.8 1.6666666666666665 8.333333333333334
1.6 1.6666666666666665 8.333333333333334
2.4000000000000004 1.6666666666666665 8.333333333333334
3.2 1.6666666666666665 8.333333333333334
4.0 1.6666666666666665 8.333333333333334
4.800000000000001 1.6666666666666665 8.333333333333334
5.6000000000000005 1.6666666666666665 8.333333333333334
6.4 1.6666666666666665 8.333333333333334
7.2 1.6666666666666665 8.333333333333334
8.0 1.6666666666666665 8.333333333333334
8.8 1.6666666666666665 8.333333333333334
9.600000000000001 1.6666666666666665 8.333333333333334
10.4 1.6666666666666665 8.333333333333334
11.200000000000001 1.6666666666666665 8.333333333333334
12.0 1.6666666666666665 8.333333333333334
12.8 1.6666666666666665 8.333333333333334
13.600000000000001 1.6666666666666665 8.333333333333334
14.4 1.6666666666666665 8.333333333333334
15.200000000000001 1.6666666666666665 8.333333333333334
16.0 1.6666666666666665 8.333333333333334
0.0 2.0 8.333333333333334
0.8 2.0 8.333333333333334
1.6 2.0 8.333333333333334
2.4000000000000004 2.0 8.333333333333334
3.2 2.0 8.333333333333334
4.0 2.0 8.333333333333334
4.800000000000001 2.0 8.333333333333334
5.6000000000000005 2.0 8.333333333333334
6.4 2.0 8.333333333333334
7.2 2.0 8.333333333333334
8.0 2.0 8.333333333333334
8.8 2.0 8.333333333333334
9.600000000000001 2.0 8.333333333333334
10.4 2.0 8.333333333333334
11.200000000000001 2.0 8.333333333333334
12.0 2.0 8.333333333333334
12.8 2.0 8.333333333333334
13.600000000000001 2.0 8.333333333333334
14.4 2.0 8.333333333333334
15.200000000000001 2.0 8.333333333333334
16.0 2.0 8.333333333333334
0.0 0.0 10.0
0.8 0.0 10.0
1.6 0.0 10.0
2.4000000000000004 0.0 10.0
3.2 0.0 10.0
4.0 0.0 10.0
4.800000000000001 0.0 10.0
5.6000000000000005 0.0 10.0
6.4 0.0 10.0
7.2 0.0 10.0
8.0 0.0 10.0
8.8 0.0 10.0
9.600000000000001 0.0 10.0
10.4 0.0 10.0
11.200000000000001 0.0 10.0
12.0 0.0 10.0
12.8 0.0 10.0
13.600000000000001 0.0 10.0
14.4 0.0 10.0
15.200000000000001 0.0 10.0
16.0 0.0 10.0
0.0 0.3333333333333333 10.0
0.8 0.3333333333333333 10.0
1.6 0.3333333333333333 10.0
2.4000000000000004 0.3333333333333333 10.0
3.2 0.3333333333333333 10.0
4.0 0.3333333333333333 10.0
4.800000000000001 0.3333333333333333 10.0
5.6000000000000005 0.3333333333333333 10.0
6.4 0.3333333333333333 10.0
7.2 0.3333333333333333 10.0
8.0 0.3333333333333333 10.0
8.8 0.3333333333333333 10.0
9.600000000000001 0.3333333333333333 10.0
10.4 0.3333333333333333 10.0
11.200000000000001 0.3333333333333333 10.0
12.0 0.3333333333333333 10.0
12.8 0.3333333333333333 10.0
13.600000000000001 0.3333333333333333 10.0
14.4 0.3333333333333333 10.0
15.200000000000001 0.3333333333333333 10.0
16.0 0.3333333333333333 10.0
0.0 0.6666666666666666 10.0
0.8 0.6666666666666666 10.0
1.6 0.6666666666666666 10.0
2.4000000000000004 0.6666666666666666 10.0
3.2 0.6666666666666666 10.0
4.0 0.6666666666666666 10.0
4.800000000000001 0.6666666666666666 10.0
5.6000000000000005 0.6666666666666666 10.0
6.4 0.6666666666666666 10.0
7.2 0.6666666666666666 10.0
8.0 0.6666666666666666 10.0
8.8 0.6666666666666666 10.0
9.600000000000001 0.6666666666666666 10.0
10.4 0.6666666666666666 10.0
11.200000000000001 0.6666666666666666 10.0
12.0 0.6666666666666666 10.0
12.8 0.6666666666666666 10.0
13.600000000000001 0.6666666666666666 10.0
14.4 0.6666666666666666 10.0
15.200000000000001 0.6666666666666666 10.0
16.0 0.6666666666666666 10.0
0.0 1.0 10.0
0.8 1.0 10.0
1.6 1.0 10.0
2.4000000000000004 1.0 10.0
3.2 1.0 10.0
4.0 1.0 10.0
4.800000000000001 1.0 10.0
5.6000000000000005 1.0 10.0
6.4 1.0 10.0
7.2 1.0 10.0
8.0 1.0 10.0
8.8 1.0 10.0
9.600000000000001 1.0 10.0
10.4 1.0 10.0
11.200000000000001 1.0 10.0
12.0 1.0 10.0
12.8 1.0 10.0
13.600000000000001 1.0 10.0
14.4 1.0 10.0
15.200000000000001 1.0 10.0
16.0 1.0 10.0
0.0 1.3333333333333333 10.0
0.8 1.3333333333333333 10.0
1.6 1.3333333333333333 10.0
2.4000000000000004 1.3333333333333333 10.0
3.2 1.3333333333333333 10.0
4.0 1.3333333333333333 10.0
4.800000000000001 1.3333333333333333 10.0
5.6000000000000005 1.3333333333333333 10.0
6.4 1.3333333333333333 10.0
7.2 1.3333333333333333 10.0
8.0 1.3333333333333333 10.0
8.8 1.3333333333333333 10.0
9.600000000000001 1.3333333333333333 10.0
10.4 1.3333333333333333 10.0
11.200000000000001 1.3333333333333333 10.0
12.0 1.3333333333333333 10.0
12.8 1.3333333333333333 10.0
13.600000000000001 1.3333333333333333 10.0
14.4 1.3333333333333333 10.0
15.200000000000001 1.3333333333333333 10.0
16.0 1.3333333333333333 10.0
0.0 1.6666666666666665 10.0
0.8 1.6666666666666665 10.0
1.6 1.6666666666666665 10.0
2.4000000000000004 1.6666666666666665 10.0
3.2 1.6666666666666665 10.0
4.0 1.6666666666666665 10.0
4.800000000000001 1.6666666666666665 10.0
5.6000000000000005 1.6666666666666665 10.0
6.4 1.6666666666666665 10.0
7.2 1.6666666666666665 10.0
8.0 1.6666666666666665 10.0
8.8 1.6666666666666665 10.0
9.600000000000001 1.6666666666666665 10.0
10.4 1.6666666666666665 10.0
11.200000000000001 1.6666666666666665 10.0
12.0 1.6666666666666665 10.0
12.8 1.6666666666666665 10.0
13.600000000000001 1.6666666666666665 10.0
14.4 1.6666666666666665 10.0
15.200000000000001 1.6666666666666665 10.0
16.0 1.6666666666666665 10.0
0.0 2.0 10.0
0.8 2.0 10.0
1.6 2.0 10.0
2.4000000000000004 2.0 10.0
3.2 2.0 10.0
4.0 2.0 10.0
4.800000000000001 2.0 10.0
5.6000000000000005 2.0 10.0
6.4 2.0 10.0
7.2 2.0 10.0
8.0 2.0 10.0
8.8 2.0 10.0
9.600000000000001 2.0 10.0
10.4 2.0 10.0
11.200000000000001 2.0 10.0
12.0 2.0 10.0
12.8 2.0 10.0
13.600000000000001 2.0 10.0
14.4 2.0 10.0
15.200000000000001 2.0 10.0
16.0 2.0 10.0
CELLS 720 6480
8 0 1 22 21 147 148 169 168
8 1 2 23 22 148 149 170 169
8 2 3 24 23 149 150 171 170
8 3 4 25 24 150 151 172 171
8 4 5 26 25 151 152 173 172
8 5 6 27 26 152 153 174 173
8 6 7 28 27 153 154 175 174
8 7 8 29 28 154 155 176 175
8 8 9 30 29 155 156 177 176
8 9 10 31 30 156 157 178 177
8 10 11 32 31 157 158 179 178
8 11 12 33 32 158 159 180 179
8 12 13 34 33 159 160 181 180
8 13 14 35 34 160 161 182 181
8 14 15 36 35 161 162 183 182
8 15 16 37 36 162 163 184 183
8 16 17 38 37 163 164 185 184
8 17 18 39 38 164 165 186 185
8 18 19 40 39 165 166 187 186
8 19 20 41 40 166 167 188 187
8 21 22 43 42 168 169 190 189
8 22 23 44 43 169 170 191 190
8 23 24 45 44 170 171 192 191
8 24 25 46 45 171 172 193 192
8 25 26 47 46 172 173 194 193
8 26 27 48 47 173 174 195 194
8 27 28 49 48 174 175 196 195
8 28 29 50 49 175 176 197 196
8 29 30 51 50 176 177 198 197
8 30 31 52 51 177 178 199 198
8 31 32 53 52 178 179 200 199
8 32 33 54 53 179 180 201 200
8 33 34 55 54 180 181 202 201
8 34 35 56 55 181 182 203 202
8 35 36 57 56 182 183 204 203
8 36 37 58 57 183 184 205 204
8 37 38 59 58 184 185 206 205
8 38 39 60 59 185 186 207 206
8 39 40 61 60 186 187 208 207
8 40 41 62 61 187 188 209 208
8 42 43 64 63 189 190 211 210
8 43 44 65 64 190 191 212 211
8 44 45 66 65 191 192 213 212
8 45 46 67 66 192 193 214 213
8 46 47 68 67 193 194 215 214
8 47 48 69 68 194 195 216 215
8 48 49 70 69 195 196 217 216
8 49 50 71 70 196 197 218 217
8 50 51 72 71 197 198 219 218
8 51 52 73 72 198 199 220 219
8 52 53 74 73 199 200 221 220
8 53 54 75 74 200 201 222 221
8 54 55 76 75 201 202 223 222
8 55 56 77 76 202 203 224 223
8 56 57 78 77 203 204 225 224
8 57 58 79 78 204 205 226 225
8 58 59 80 79 205 206 227 226
8 59 60 81 80 206 207 228 227
8 60 61 82 81 207 208 229 228
8 61 62 83 82 208 209 230 229
8 63 64 85 84 210 211 232 231
8 64 65 86 85 211 212 233 232
8 65 66 87 86 212 213 234 233
8 66 67 88 87 213 214 235 234
8 67 68 89 88 214 215 236 235
8 68 69 90 89 215 216 237 236
8 69 70 91 90 216 217 238 237
8 70 71 92 91 217 218 239 238
8 71 72 93 92 218 219 240 239
8 72 73 94 93 219 220 241 240
8 73 74 95 94 220 221 242 241
8 74 75 96 95 221 222 243 242
8 75 76 97 96 222 223 244 243
8 76 77 98 97 223 224 245 244
8 77 78 99 98 224 225 246 245
8 78 79 100 99 225 226 247 246
8 79 80 101 100 226 227 248 247
8 80 81 102 101 227 228 249 248
8 81 82 103 102 228 229 250 249
8 82 83 104 103 229 230 251 250
8 84 85 106 105 231 232 253 252
8 85 86 107 106 232 233 254 253
8 86 87 108 107 233 234 255 254
8 87 88 109 108 234 235 256 255
8 88 89 110 109 235 236 257 256
8 89 90 111 110 236 237 258 257
8 90 91 112 111 237 238 259 258
8 91 92 113 112 238 239 260 259
8 92 93 114 113 239 240 261 260
8 93 94 115 114 240 241 262 261
8 94 95 116 115 241 242 263 262
8 95 96 117 116 242 243 264 263
8 96 97 118 117 243 244 265 264
8 97 98 119 118 244 245 266 265
8 98 99 120 119 245 246 267 266
8 99 100 121 120 246 247 268 267
8 100 101 122 121 247 248 269 268
8 101 102 123 122 248 249 270 269
8 102 103 124 123 249 250 271 270
8 103 104 125 124 250 251 272 271
8 105 106 127 126 252 253 274 273
8 106 107 128 127 253 254 275 274
8 107 108 129 128 254 255 276 275
8 108 109 130 129 255 256 277 276
8 109 110 131 130 256 257 278 277
8 110 111 132 131 257 258 279 278
8 111 112 133 132 258 259 280 279
8 112 113 134 133 259 260 281 280
8 113 114 135 134 260 261 282 281
8 114 115 136 135 261 262 283 282
8 115 116 137 136 262 263 284 283
8 116 117 138 137 263 264 285 284
8 117 118 139 138 264 265 286 285
8 118 119 140 139 265 266 287 286
8 119 120 141 140 266 267 288 287
8 120 121 142 141 267 268 289 288
8 121 122 143 142 268 269 290 289
8 122 123 144 143 269 270 291 290
8 123 124 145 144 270 271 292 291
8 124 125 146 145 271 272 293 292
8 147 148 169 168 294 295 316 315
8 148 149 170 169 295 296 317 316
8 149 150 171 170 296 297 318 317
8 150 151 172 171 297 298 319 318
8 151 152 173 172 298 299 320 319
8 152 153 174 173 299 300 321 320
8 153 154 175 174 300 301 322 321
8 154 155 176 175 301 302 323 322
8 155 156 177 176 302 303 324 323
8 156 157 178 177 303 304 325 324
8 157 158 179 178 304 305 326 325
8 158 159 180 179 305 306 327 326
8 159 160 181 180 306 307 328 327
8 160 161 182 181 307 308 329 328
8 161 162 183 182 308 309 330 329
8 162 163 184 183 309 310 331 330
8 163 164 185 184 310 311 332 331
8 164 165 186 185 311 312 333 332
8 165 166 187 186 312 313 334 333
8 166 167 188 187 313 314 335 334
8 168 169 190 189 315 316 337 336
8 169 170 191 190 316 317 338 337
8 170 171 192 191 317 318 339 338
8 171 172 193 192 318 319 340 339
8 172 173 194 193 319 320 341 340
8 173 174 195 194 320 321 342 341
8 174 175 196 195 321 322 343 342
8 175 176 197 196 322 323 344 343
8 176 177 198 197 323 324 345 344
8 177 178 199 198 324 325 346 345
8 178 179 200 199 325 326 347 346
8 179 180 201 200 326 327 348 347
8 180 181 202 201 327 328 349 348
8 181 182 203 202 328 329 350 349
8 182 183 204 203 329 330 351 350
8 183 184 205 204 330 331 352 351
8 184 185 206 205 331 332 353 352
8 185 186 207 206 332 333 354 353
8 186 187 208 207 333 334 355 354
8 187 188 209 208 334 335 356 355
8 189 190 211 210 336 337 358 357
8 190 191 212 211 337 338 359 358
8 191 192 213 212 338 339 360 359
8 192 193 214 213 339 340 361 360
8 193 194 215 214 340 341 362 361
8 194 195 216 215 341 342 363 362
8 195 196 217 216 342 343 364 363
8 196 197 218 217 343 344 365 364
8 197 198 219 218 344 345 366 365
8 198 199 220 219 345 346 367 366
8 199 200 221 220 346 347 368 367
8 200 201 222 221 347 348 369 368
8 201 202 223 222 348 349 370 369
8 202 203 224 223 349 350 371 370
8 203 204 225 224 350 351 372 371
8 204 205 226 225 351 352 373 372
8 205 206 227 226 352 353 374 373
8 206 207 228 227 353 354 375 374
8 207 208 229 228 354 355 376 375
8 208 209 230 229 355 356 377 376
8 210 211 232 231 357 358 379 378
8 211 212 233 232 358 359 380 379
8 212 213 234 233 359 360 381 380
8 213 214 235 234 360 361 382 381
8 214 215 236 235 361 362 383 382
8 215 216 237 236 362 363 384 383
8 216 217 238 237 363 364 385 384
8 217 218 239 238 364 365 386 385
8 218 219 240 239 365 366 387 386
8 219 220 241 240 366 367 388 387
8 220 221 242 241 367 368 389 388
8 221 222 243 242 368 369 390 389
8 222 223 244 243 369 370 391 390
8 223 224 245 244 370 371 392 391
8 224 225 246 245 371 372 393 392
8 225 226 247 246 372 373 394 393
8 226 227 248 247 373 374 395 394
8 227 228 249 248 374 375 396 395
8 228 229 250 249 375 376 397 396
8 229 230 251 250 376 377 398 397
8 231 232 253 252 378 379 400 399
8 232 233 254 253 379 380 401 400
8 233 234 255 254 380 381 402 401
8 234 235 256 255 381 382 403 402
8 235 236 257 256 382 383 404 403
8 236 237 258 257 383 384 405 404
8 237 238 259 258 384 385 406 405
8 238 239 260 259 385 386 407 406
8 239 240 261 260 386 387 408 407
8 240 241 262 261 387 388 409 408
8 241 242 263 262 388 389 410 409
8 242 243 264 263 389 390 411 410
8 243 244 265 264 390 391 412 411
8 244 245 266 265 391 392 413 412
8 245 246 267 266 392 393 414 413
8 246 247 268 267 393 394 415 414
8 247 248 269 268 394 395 416 415
8 248 249 270 269 395 396 417 416
8 249 250 271 270 396 397 418 417
8 250 251 272 271 397 398 419 418
8 252 253 274 273 399 400 421 420
8 253 254 275 274 400 401 422 421
8 254 255 276 275 401 402 423 422
8 255 256 277 276 402 403 424 423
8 256 257 278 277 403 404 425 424
8 257 258 279 278 404 405 426 425
8 258 259 280 279 405 406 427 426
8 259 260 281 280 406 407 428 427
8 260 261 282 281 407 408 429 428
8 261 262 283 282 408 409 430 429
8 262 263 284 283 409 410 431 430
8 263 264 285 284 410 411 432 431
8 264 265 286 285 411 412 433 432
8 265 266 287 286 412 413 434 433
8 266 267 288 287 413 414 435 434
8 267 268 289 288 414 415 436 435
8 268 269 290 289 415 416 437 436
8 269 270 291 290 416 417 438 437
8 270 271 292 291 417 418 439 438
8 271 272 293 292 418 419 440 439
8 294 295 316 315 441 442 463 462
8 295 296 317 316 442 443 464 463
8 296 297 318 317 443 444 465 464
8 297 298 319 318 444 445 466 465
8 298 299 320 319 445 446 467 466
8 299 300 321 320 446 447 468 467
8 300 301 322 321 447 448 469 468
8 301 302 323 322 448 449 470 469
8 302 303 324 323 449 450 471 470
8 303 304 325 324 450 451 472 471
8 304 305 326 325 451 452 473 472
8 305 306 327 326 452 453 474 473
8 306 307 328 327 453 454 475 474
8 307 308 329 328 454 455 476 475
8 308 309 330 329 455 456 477 476
8 309 310 331 330 456 457 478 477
8 310 311 332 331 457 458 479 478
8 311 312 333 332 458 459 480 479
8 312 313 334 333 459 460 481 480
8 313 314 335 334 460 461 482 481
8 315 316 337 336 462 463 484 483
8 316 317 338 337 463 464 485 484
8 317 318 339 338 464 465 486 485
8 318 319 340 339 465 466 487 486
8 319 320 341 340 466 467 488 487
8 320 321 342 341 467 468 489 488
8 321 322 343 342 468 469 490 489
8 322 323 344 343 469 470 491 490
8 323 324 345 344 470 471 492 491
8 324 325 346 345 471 472 493 492
8 325 326 347 346 472 473 494 493
8 326 327 348 347 473 474 495 494
8 327 328 349 348 474 475 496 495
8 328 329 350 349 475 476 497 496
8 329 330 351 350 476 477 498 497
8 330 331 352 351 477 478 499 498
8 331 332 353 352 478 479 500 499
8 332 333 354 353 479 480 501 500
8 333 334 355 354 480 481 502 501
8 334 335 356 355 481 482 503 502
8 336 337 358 357 483 484 505 504
8 337 338 359 358 484 485 506 505
8 338 339 360 359 485 486 507 506
8 339 340 361 360 486 487 508 507
8 340 341 362 361 487 488 509 508
8 341 342 363 362 488 489 510 509
8 342 343 364 363 489 490 511 510
8 343 344 365 364 490 491 512 511
8 344 345 366 365 491 492 513 512
8 345 346 367 366 492 493 514 513
8 346 347 368 367 493 494 515 514
8 347 348 369 368 494 495 516 515
8 348 349 370 369 495 496 517 516
8 349 350 371 370 496 497 518 517
8 350 351 372 371 497 498 519 518
8 351 352 373 372 498 499 520 519
8 352 353 374 373 499 500 521 520
8 353 354 375 374 500 501 522 521
8 354 355 376 375 501 502 523 522
8 355 356 377 376 502 503 524 523
8 357 358 379 378 504 505 526 525
8 358 359 380 379 505 506 527 526
8 359 360 381 380 506 507 528 527
8 360 361 382 381 507 508 529 528
8 361 362 383 382 508 509 530 529
8 362 363 384 383 509 510 531 530
8 363 364 385 384 510 511 532 531
8 364 365 386 385 511 512 533 532
8 365 366 387 386 512 513 534 533
8 366 367 388 387 513 514 535 534
8 367 368 389 388 514 515 536 535
8 368 369 390 389 515 516 537 536
8 369 370 391 390 516 517 538 537
8 370 371 392 391 517 518 539 538
8 371 372 393 392 518 519 540 539
8 372 373 394 393 519 520 541 540
8 373 374 395 394 520 521 542 541
8 374 375 396 395 521 522 543 542
8 375 376 397 396 522 523 544 543
8 376 377 398 397 523 524 545 544
8 378 379 400 399 525 526 547 546
8 379 380 401 400 526 527 548 547
8 380 381 402 401 527 528 549 548
8 381 382 403 402 528 529 550 549
8 382 383 404 403 529 530 551 550
8 383 384 405 404 530 531 552 551
8 384 385 406 405 531 532 553 552
8 385 386 407 406 532 533 554 553
8 386 387 408 407 533 534 555 554
8 387 388 409 408 534 535 556 555
8 388 389 410 409 535 536 557 556
8 389 390 411 410 536 537 558 557
8 390 391 412 411 537 538 559 558
8 391 392 413 412 538 539 560 559
8 392 393 414 413 539 540 561 560
8 393 394 415 414 540 541 562 561
8 394 395 416 415 541 542 563 562
8 395 396 417 416 542 543 564 563
8 396 397 418 417 543 544 565 564
8 397 398 419 418 544 545 566 565
8 399 400 421 420 546 547 568 567
8 400 401 422 421 547 548 569 568
8 401 402 423 422 548 549 570 569
8 402 403 424 423 549 550 571 570
8 403 404 425 424 550 551 572 571
8 404 405 426 425 551 552 573 572
8 405 406 427 426 552 553 574 573
8 406 407 428 427 553 554 575 574
8 407 408 429 428 554 555 576 575
8 408 409 430 429 555 556 577 576
8 409 410 431 430 556 557 578 577
8 410 411 432 431 557 558 579 578
8 411 412 433 432 558 559 580 579
8 412 413 434 433 559 560 581 580
8 413 414 435 434 560 561 582 581
8 414 415 436 435 561 562 583 582
8 415 416 437 436 562 563 584 583
8 416 417 438 437 563 564 585 584
8 417 418 439 438 564 565 586 585
8 418 419 440 439 565 566 587 586
8 441 442 463 462 588 589 610 609
8 442 443 464 463 589 590 611 610
8 443 444 465 464 590 591 612 611
8 444 445 466 465 591 592 613 612
8 445 446 467 466 592 593 614 613
8 446 447 468 467 593 594 615 614
8 447 448 469 468 594 595 616 615
8 448 449 470 469 595 596 617 616
8 449 450 471 470 596 597 618 617
8 450 451 472 471 597 598 619 618
8 451 452 473 472 598 599 620 619
8 452 453 474 473 599 600 621 620
8 453 454 475 474 600 601 622 621
8 454 455 476 475 601 602 623 622
8 455 456 477 476 602 603 624 623
8 456 457 478 477 603 604 625 624
8 457 458 479 478 604 605 626 625
8 458 459 480 479 605 606 627 626
8 459 460 481 480 606 607 628 627
8 460 461 482 481 607 608 629 628
8 462 463 484 483 609 610 631 630
8 463 464 485 484 610 611 632 631
8 464 465 486 485 611 612 633 632
8 465 466 487 486 612 613 634 633
8 466 467 488 487 613 614 635 634
8 467 468 489 488 614 615 636 635
8 468 469 490 489 615 616 637 636
8 469 470 491 490 616 617 638 637
8 470 471 492 491 617 618 639 638
8 471 472 493 492 618 619 640 639
8 472 473 494 493 619 620 641 640
8 473 474 495 494 620 621 642 641
8 474 475 496 495 621 622 643 642
8 475 476 497 496 622 623 644 643
8 476 477 498 497 623 624 645 644
8 477 478 499 498 624 625 646 645
8 478 479 500 499 625 626 647 646
8 479 480 501 500 626 627 648 647
8 480 481 502 501 627 628 649 648
8 481 482 503 502 628 629 650 649
8 483 484 505 504 630 631 652 651
8 484 485 506 505 631 632 653 652
8 485 486 507 506 632 633 654 653
8 486 487 508 507 633 634 655 654
8 487 488 509 508 634 635 656 655
8 488 489 510 509 635 636 657 656
8 489 490 511 510 636 637 658 657
8 490 491 512 511 637 638 659 658
8 491 492 513 512 638 639 660 659
8 492 493 514 513 639 640 661 660
8 493 494 515 514 640 641 662 661
8 494 495 516 515 641 642 663 662
8 495 496 517 516 642 643 664 663
8 496 497 518 517 643 644 665 664
8 497 498 519 518 644 645 666 665
8 498 499 520 519 645 646 667 666
8 499 500 521 520 646 647 668 667
8 500 501 522 521 647 648 669 668
8 501 502 523 522 648 649 670 669
8 502 503 524 523 649 650 671 670
8 504 505 526 525 651 652 673 672
8 505 506 527 526 652 653 674 673
8 506 507 528 527 653 654 675 674
8 507 508 529 528 654 655 676 675
8 508 509 530 529 655 656 677 676
8 509 510 531 530 656 657 678 677
8 510 511 532 531 657 658 679 678
8 511 512 533 532 658 659 680 679
8 512 513 534 533 659 660 681 680
8 513 514 535 534 660 661 682 681
8 514 515 536 535 661 662 683 682
8 515 516 537 536 662 663 684 683
8 516 517 538 537 663 664 685 684
8 517 518 539 538 664 665 686 685
8 518 519 540 539 665 666 687 686
8 519 520 541 540 666 667 688 687
8 520 521 542 541 667 668 689 688
8 521 522 543 542 668 669 690 689
8 522 523 544 543 669 670 691 690
8 523 524 545 544 670 671 692 691
8 525 526 547 546 672 673 694 693
8 526 527 548 547 673 674 695 694
8 527 528 549 548 674 675 696 695
8 528 529 550 549 675 676 697 696
8 529 530 551 550 676 677 698 697
8 530 531 552 551 677 678 699 698
8 531 532 553 552 678 679 700 699
8 532 533 554 553 679 680 701 700
8 533 534 555 554 680 681 702 701
8 534 535 556 555 681 682 703 702
8 535 536 557 556 682 683 704 703
8 536 537 558 557 683 684 705 704
8 537 538 559 558 684 685 706 705
8 538 539 560 559 685 686 707 706
8 539 540 561 560 686 687 708 707
8 540 541 562 561 687 688 709 708
8 541 542 563 562 688 689 710 709
8 542 543 564 563 689 690 711 710
8 543 544 565 564 690 691 712 711
8 544 545 566 565 691 692 713 712
8 546 547 568 567 693 694 715 714
8 547 548 569 568 694 695 716 715
8 548 549 570 569 695 696 717 716
8 549 550 571 570 696 697 718 717
8 550 551 572 571 697 698 719 718
8 551 552 573 572 698 699 720 719
8 552 553 574 573 699 700 721 720
8 553 554 575 574 700 701 722 721
8 554 555 576 575 701 702 723 722
8 555 556 577 576 702 703 724 723
8 556 557 578 577 703 704 725 724
8 557 558 579 578 704 705 726 725
8 558 559 580 579 705 706 727 726
8 559 560 581 580 706 707 728 727
8 560 561 582 581 707 708 729 728
8 561 562 583 582 708 709 730 729
8 562 563 584 583 709 710 731 730
8 563 564 585 584 710 711 732 731
8 564 565 586 585 711 712 733 732
8 565 566 587 586 712 713 734 733
8 588 589 610 609 735 736 757 756
8 589 590 611 610 736 737 758 757
8 590 591 612 611 737 738 759 758
8 591 592 613 612 738 739 760 759
8 592 593 614 613 739 740 761 760
8 593 594 615 614 740 741 762 761
8 594 595 616 615 741 742 763 762
8 595 596 617 616 742 743 764 763
8 596 597 618 617 743 744 765 764
8 597 598 619 618 744 745 766 765
8 598 599 620 619 745 746 767 766
8 599 600 621 620 746 747 768 767
8 600 601 622 621 747 748 769 768
8 601 602 623 622 748 749 770 769
8 602 603 624 623 749 750 771 770
8 603 604 625 624 750 751 772 771
8 604 605 626 625 751 752 773 772
8 605 606 627 626 752 753 774 773
8 606 607 628 627 753 754 775 774
8 607 608 629 628 754 755 776 775
8 609 610 631 630 756 757 778 777
8 610 611 632 631 757 758 779 778
8 611 612 633 632 758 759 780 779
8 612 613 634 633 759 760 781 780
8 613 614 635 634 760 761 782 781
8 614 615 636 635 761 762 783 782
8 615 616 637 636 762 763 784 783
8 616 617 638 637 763 764 785 784
8 617 618 639 638 764 765 786 785
8 618 619 640 639 765 766 787 786
8 619 620 641 640 766 767 788 787
8 620 621 642 641 767 768 789 788
8 621 622 643 642 768 769 790 789
8 622 623 644 643 769 770 791 790
8 623 624 645 644 770 771 792 791
8 624 625 646 645 771 772 793 792
8 625 626 647 646 772 773 794 793
8 626 627 648 647 773 774 795 794
8 627 628 649 648 774 775 796 795
8 628 629 650 649 775 776 797 796
8 630 631 652 651 777 778 799 798
8 631 632 653 652 778 779 800 799
8 632 633 654 653 779 780 801 800
8 633 634 655 654 780 781 802 801
8 634 635 656 655 781 782 803 802
8 635 636 657 656 782 783 804 803
8 636 637 658 657 783 784 805 804
8 637 638 659 658 784 785 806 805
8 638 639 660 659 785 786 807 806
8 639 640 661 660 786 787 808 807
8 640 641 662 661 787 788 809 808
8 641 642 663 662 788 789 810 809
8 642 643 664 663 789 790 811 810
8 643 644 665 664 790 791 812 811
8 644 645 666 665 791 792 813 812
8 645 646 667 666 792 793 814 813
8 646 647 668 667 793 794 815 814
8 647 648 669 668 794 795 816 815
8 648 649 670 669 795 796 817 816
8 649 650 671 670 796 797 818 817
8 651 652 673 672 798 799 820 819
8 652 653 674 673 799 800 821 820
8 653 654 675 674 800 801 822 821
8 654 655 676 675 801 802 823 822
8 655 656 677 676 802 803 824 823
8 656 657 678 677 803 804 825 824
8 657 658 679 678 804 805 826 825
8 658 659 680 679 805 806 827 826
8 659 660 681 680 806 807 828 827
8 660 661 682 681 807 808 829 828
8 661 662 683 682 808 809 830 829
8 662 663 684 683 809 810 831 830
8 663 664 685 684 810 811 832 831
8 664 665 686 685 811 812 833 832
8 665 666 687 686 812 813 834 833
8 666 667 688 687 813 814 835 834
8 667 668 689 688 814 815 836 835
8 668 669 690 689 815 816 837 836
8 669 670 691 690 816 817 838 837
8 670 671 692 691 817 818 839 838
8 672 673 694 693 819 820 841 840
8 673 674 695 694 820 821 842 841
8 674 675 696 695 821 822 843 842
8 675 676 697 696 822 823 844 843
8 676 677 698 697 823 824 845 844
8 677 678 699 698 824 825 846 845
8 678 679 700 699 825 826 847 846
8 679 680 701 700 826 827 848 847
8 680 681 702 701 827 828 849 848
8 681 682 703 702 828 829 850 849
8 682 683 704 703 829 830 851 850
8 683 684 705 704 830 831 852 851
8 684 685 706 705 831 832 853 852
8 685 686 707 706 832 833 854 853
8 686 687 708 707 833 834 855 854
8 687 688 709 708 834 835 856 855
8 688 689 710 709 835 836 857 856
8 689 690 711 710 836 837 858 857
8 690 691 712 711 837 838 859 858
8 691 692 713 712 838 839 860 859
8 693 694 715 714 840 841 862 861
8 694 695 716 715 841 842 863 862
8 695 696 717 716 842 843 864 863
8 696 697 718 717 843 844 865 864
8 697 698 719 718 844 845 866 865
8 698 699 720 719 845 846 867 866
8 699 700 721 720 846 847 868 867
8 700 701 722 721 847 848 869 868
8 701 702 723 722 848 849 870 869
8 702 703 724 723 849 850 871 870
8 703 704 725 724 850 851 872 871
8 704 705 726 725 851 852 873 872
8 705 706 727 726 852 853 874 873
8 706 707 728 727 853 854 875 874
8 707 708 729 728 854 855 876 875
8 708 709 730 729 855 856 877 876
8 709 710 731 730 856 857 878 877
8 710 711 732 731 857 858 879 878
8 711 712 733 732 858 859 880 879
8 712 713 734 733 859 860 881 880
8 735 736 757 756 882 883 904 903
8 736 737 758 757 883 884 905 904
8 737 738 759 758 884 885 906 905
8 738 739 760 759 885 886 907 906
8 739 740 761 760 886 887 908 907
8 740 741 762 761 887 888 909 908
8 741 742 763 762 888 889 910 909
8 742 743 764 763 889 890 911 910
8 743 744 765 764 890 891 912 911
8 744 745 766 765 891 892 913 912
8 745 746 767 766 892 893 914 913
8 746 747 768 767 893 894 915 914
8 747 748 769 768 894 895 916 915
8 748 749 770 769 895 896 917 916
8 749 750 771 770 896 897 918 917
8 750 751 772 771 897 898 919 918
8 751 752 773 772 898 899 920 919
8 752 753 774 773 899 900 921 920
8 753 754 775 774 900 901 922 921
8 754 755 776 775 901 902 923 922
8 756 757 778 777 903 904 925 924
8 757 758 779 778 904 905 926 925
8 758 759 780 779 905 906 927 926
8 759 760 781 780 906 907 928 927
8 760 761 782 781 907 908 929 928
8 761 762 783 782 908 909 930 929
8 762 763 784 783 909 910 931 930
8 763 764 785 784 910 911 932 931
8 764 765 786 785 911 912 933 932
8 765 766 787 786 912 913 934 933
8 766 767 788 787 913 914 935 934
8 767 768 789 788 914 915 936 935
8 768 769 790 789 915 916 937 936
8 769 770 791 790 916 917 938 937
8 770 771 792 791 917 918 939 938
8 771 772 793 792 918 919 940 939
8 772 773 794 793 919 920 941 940
8 773 774 795 794 920 921 942 941
8 774 775 796 795 921 922 943 942
8 775 776 797 796 922 923 944 943
8 777 778 799 798 924 925 946 945
8 778 779 800 799 925 926 947 946
8 779 780 801 800 926 927 948 947
8 780 781 802 801 927 928 949 948
8 781 782 803 802 928 929 950 949
8 782 783 804 803 929 930 951 950
8 783 784 805 804 930 931 952 951
8 784 785 806 805 931 932 953 952
8 785 786 807 806 932 933 954 953
8 786 787 808 807 933 934 955 954
8 787 788 809 808 934 935 956 955
8 788 789 810 809 935 936 957 956
8 789 790 811 810 936 937 958 957
8 790 791 812 811 937 938 959 958
8 791 792 813 812 938 939 960 959
8 792 793 814 813 939 940 961 960
8 793 794 815 814 940 941 962 961
8 794 795 816 815 941 942 963 962
8 795 796 817 816 942 943 964 963
8 796 797 818 817 943 944 965 964
8 798 799 820 819 945 946 967 966
8 799 800 821 820 946 947 968 967
8 800 801 822 821 947 948 969 968
8 801 802 823 822 948 949 970 969
8 802 803 824 823 949 950 971 970
8 803 804 825 824 950 951 972 971
8 804 805 826 825 951 952 973 972
8 805 806 827 826 952 953 974 973
8 806 807 828 827 953 954 975 974
8 807 808 829 828 954 955 976 975
8 808 809 830 829 955 956 977 976
8 809 810 831 830 956 957 978 977
8 810 811 832 831 957 958 979 978
8 811 812 833 832 958 959 980 979
8 812 813 834 833 959 960 981 980
8 813 814 835 834 960 961 982 981
8 814 815 836 835 961 962 983 982
8 815 816 837 836 962 963 984 983
8 816 817 838 837 963 964 985 984
8 817 818 839 838 964 965 986 985
8 819 820 841 840 966 967 988 987
8 820 821 842 841 967 968 989 988
8 821 822 843 842 968 969 990 989
8 822 823 844 843 969 970 991 990
8 823 824 845 844 970 971 992 991
8 824 825 846 845 971 972 993 992
8 825 826 847 846 972 973 994 993
8 826 827 848 847 973 974 995 994
8 827 828 849 848 974 975 996 995
8 828 829 850 849 975 976 997 996
8 829 830 851 850 976 977 998 997
8 830 831 852 851 977 978 999 998
8 831 832 853 852 978 979 1000 999
8 832 833 854 853 979 980 1001 1000
8 833 834 855 854 980 981 1002 1001
8 834 835 856 855 981 982 1003 1002
8 835 836 857 856 982 983 1004 1003
8 836 837 858 857 983 984 1005 1004
8 837 838 859 858 984 985 1006 1005
8 838 839 860 859 985 986 1007 1006
8 840 841 862 861 987 988 1009 1008
8 841 842 863 862 988 989 1010 1009
8 842 843 864 863 989 990 1011 1010
8 843 844 865 864 990 991 1012 1011
8 844 845 866 865 991 992 1013 1012
8 845 846 867 866 992 993 1014 1013
8 846 847 868 867 993 994 1015 1014
8 847 848 869 868 994 995 1016 1015
8 848 849 870 869 995 996 1017 1016
8 849 850 871 870 996 997 1018 1017
8 850 851 872 871 997 998 1019 1018
8 851 852 873 872 998 999 1020 1019
8 852 853 874 873 999 1000 1021 1020
8 853 854 875 874 1000 1001 1022 1021
8 854 855 876 875 1001 1002 1023 1022
8 855 856 877 876 1002 1003 1024 1023
8 856 857 878 877 1003 1004 1025 1024
8 857 858 879 878 1004 1005 1026 1025
8 858 859 880 879 1005 1006 1027 1026
8 859 860 881 880 1006 1007 1028 1027
CELL_TYPES 720
12
12
12
12
12
12
12
12
12
12
12
12
12
12
12
12
12
12
12
12
12
12
12
12
12
12
12
12
12
12
12
12
12
12
12
12
12
12
12
12
12
12
12
12
12
12
12
12
12
12
12
12
12
12
12
12
12
12
12
12
12
12
12
12
12
12
12
12
12
12
12
12
12
12
12
12
12
12
12
12
12
12
12
12
12
12
12
12
12
12
12
12
12
12
12
12
12
12
12
12
12
12
12
12
12
12
12
12
12
12
12
12
12
12
12
12
12
12
12
12
12
12
12
12
12
12
12
12
12
12
12
12
12
12
12
12
12
12
12
12
12
12
12
12
12
12
12
12
12
12
12
12
12
12
12
12
12
12
12
12
12
12
12
12
12
12
12
12
12
12
12
12
12
12
12
12
12
12
12
12
12
12
12
12
12
12
12
12
12
12
12
12
12
12
12
12
12
12
12
12
12
12
12
12
12
12
12
12
12
12
12
12
12
12
12
12
12
12
12
12
12
12
12
12
12
12
12
12
12
12
12
12
12
12
12
12
12
12
12
12
12
12
12
12
12
12
12
12
12
12
12
12
12
12
12
12
12
12
12
12
12
12
12
12
12
12
12
12
12
12
12
12
12
12
12
12
12
12
12
12
12
12
12
12
12
12
12
12
12
12
12
12
12
12
12
12
12
12
12
12
12
12
12
12
12
12
12
12
12
12
12
12
12
12
12
12
12
12
12
12
12
12
12
12
12
12
12
12
12
12
12
12
12
12
12
12
12
12
12
12
12
12
12
12
12
12
12
12
12
12
12
12
12
12
12
12
12
12
12
12
12
12
12
12
12
12
12
12
12
12
12
12
12
12
12
12
12
12
12
12
12
12
12
12
12
12
12
12
12
12
12
12
12
12
12
12
12
12
12
12
12
12
12
12
12
12
12
12
12
12
12
12
12
12
12
12
12
12
12
12
12
12
12
12
12
12
12
12
12
12
12
12
12
12
12
12
12
12
12
12
12
12
12
12
12
12
12
12
12
12
12
12
12
12
12
12
12
12
12
12
12
12
12
12
12
12
12
12
12
12
12
12
12
12
12
12
12
12
12
12
12
12
12
12
12
12
12
12
12
12
12
12
12
12
12
12
12
12
12
12
12
12
12
12
12
12
12
12
12
12
12
12
12
12
12
12
12
12
12
12
12
12
12
12
12
12
12
12
12
12
12
12
12
12
12
12
12
12
12
12
12
12
12
12
12
12
12
12
12
12
12
12
12
12
12
12
12
12
12
12
12
12
12
12
12
12
12
12
12
12
12
12
12
12
12
12
12
12
12
12
12
12
12
12
12
12
12
12
12
12
12
12
12
12
12
12
12
12
12
12
12
12
12
12
12
12
12
12
12
12
12
12
12
12
12
12
12
12
12
12
12
12
12
12
12
12
12
12
12
12
12
12
12
12
12
12
12
12
12
12
12
12
12
12
12
12
12
12
12
12
12
12
12
12
12
12
12
12
12
12
12
12
12
12
12
12
12
12
12
12
12
12
12
12
12
12
12
12
12
12
12
12
12
12
12
12
12
12
12
12
12
12
12
12
12
12
12
12
12
12
12
12
12
12
12
12
12
12
12
12
12
12
12
12
12
12
12
12
12
12
POINT_DATA 1029
VECTORS Disp float
0.0 0.0 0.0
0.025610095332241276 -0.9286602391900812 0.02222859197963243
0.061670846031674456 -1.7499672325017932 0.04786281488426661
0.11154559991356418 -2.5410893148535996 0.06833305647744949
0.1825204781956394 -3.280577792274901 0.08688202167971569
0.27559092315149436 -3.9509977799078375 0.10221821970677607
0.39037277553090693 -4.5339274034076205 0.11370371925356842
0.5261716928877196 -5.011551953112465 0.12052259024526997
0.6811318366300912 -5.366504968678116 0.1221037104543753
0.8506429790178848 -5.583959361917645 0.11938142939333782
1.0270630366718287 -5.656418136142299 0.11691764645034573
1.2035457935445142 -5.585020347490207 0.11947959631896501
1.373257265861114 -5.368651685501708 0.12233448186182148
1.5285937162877736 -5.014829590583535 0.1209621355592497
1.6650144392409387 -4.5383901044831445 0.11448316733575903
1.7807736329760369 -3.9566806590006376 0.10354799619780485
1.8753313300353858 -3.287447873184302 0.0890603692088067
1.948522667816658 -2.548960811564641 0.07187419344909993
2.001625674051697 -1.7584770181914635 0.05308808604712768
2.0432548133072146 -0.9371234696034236 0.03156125910855963
2.0822296478015416 0.0 -0.00018019925670507628
0.36447592992335853 -0.0396562716770814 -0.011671107564667696
0.3802068392767907 -0.9245378915858662 0.011644661694034872
0.3928888394473337 -1.755558480354633 0.030320377047156462
0.42557118035305314 -2.5476575398148738 0.04614851213654
0.4716788896282167 -3.2900253865522417 0.059395947656302135
0.5325566874109651 -3.962970652208079 0.0702961722889401
0.6078560772551675 -4.548450060612488 0.07837371285270053
0.6970992081282189 -5.028520845412936 0.08325623110222446
0.799068591909637 -5.385598154061437 0.08468764338097712
0.9107972607777987 -5.6042881049292035 0.08325477559432898
1.0272541535028972 -5.676817052749255 0.08173070191745034
1.1437773472297383 -5.605366548604395 0.08322098798373555
1.2557162570632874 -5.387783048863402 0.0846493532959525
1.3580747679821086 -5.031864260799219 0.0832798139485576
1.4479474652025341 -4.553017090472322 0.07857933412627728
1.5242096327661094 -3.9688130900689136 0.07087919158142791
1.586514524669227 -3.2971294299802776 0.06067331972470666
1.6346767941375964 -2.5558651214114794 0.04854305405887164
1.6703349249805435 -1.7645506113721847 0.03466171032436977
1.687260175879677 -0.9336712371568348 0.01799192471294167
1.7052655370375864 -0.0418495404387812 -0.00470692250735515
0.7085615828643277 -0.06885347987237675 -0.019072705104069842
0.7166730961224482 -0.9231544095951115 -0.0010321282785534759
0.7180884244885946 -1.756826304054138 0.01230079072315888
0.7307695888573688 -2.551625447424852 0.022129396017441193
0.7525500196705276 -3.2954441840852633 0.029649643481754907
0.781854250960254 -3.9699881062463773 0.03538945393197
0.8186425519206899 -4.5569853780552325 0.039384100679490344
0.8627320810689647 -5.038580689507329 0.041552050153158035
0.9137980459766519 -5.396973013197192 0.04185187265733923
0.9700794662663217 -5.615927312423211 0.04038676234738638
1.027405689076137 -5.687222469731084 0.03873502625447499
1.0847994858570764 -5.617024626542248 0.04022124196756808
1.1412938751443908 -5.399198533821957 0.04154448148763491
1.1927491745614498 -5.041992293287532 0.04115894674045744
1.2374566379733076 -4.56165718178012 0.03901186723133203
1.2751668021101188 -3.975984813951393 0.03522467523542944
1.305795813199695 -3.302769297628749 0.02999546560911951
1.3294219346168008 -2.560128694299127 0.02346580799283045
1.344569851352892 -1.7662098724215054 0.015301088140302378
1.3480018711644404 -0.9319656353147183 0.004026346149216202
1.3570919813397793 -0.0722320166484378 -0.01198611520050016
1.0425336904064486 -0.08756517461235623 -0.02568312076575512
1.0447134920176824 -0.9233889715484319 -0.01336151722556081
1.0375623528716482 -1.7557726625697838 -0.005907547522122184
1.0322289683691 -2.5524094328398146 -0.002435227849004351
1.0293997800243169 -3.2970725889992796 -0.0009839047588296596
1.0274949983055037 -3.972171934242487 -0.0006560655653689184
1.0262052821124272 -4.559737279391102 -0.0010492465410081762
1.0257276841589176 -5.041995731872145 -0.0019465866143747617
1.0267978611255817 -5.40103152234771 -0.0031466525647850254
1.02896504114449 -5.619032087663487 -0.004885929415170668
1.027540861265503 -5.686582639818961 -0.0069856961475083254
1.0261845417542959 -5.620149117316834 -0.0051841552536831285
1.028564344768504 -5.403299019107866 -0.0037254236680589092
1.0300185244782538 -5.0454765110901985 -0.002760838933315351
1.0301386906475372 -4.564512533080779 -0.002006032789191887
1.0297157556990881 -3.978316927488821 -0.001581644647988105
1.0290091145133806 -3.304600685047472 -0.0015759041704589546
1.027769301547588 -2.5611825415158105 -0.0022040632220657183
1.0241805104720652 -1.7652699039015276 -0.004191013013502938
1.0181062677745003 -0.9318492310374729 -0.00957472841308704
1.0208259208939163 -0.09182093543632149 -0.019708964452297615
1.3737697376666462 -0.09758172382145026 -0.03247604773107509
1.3707112301336644 -0.9237634560954764 -0.0250693772612912
1.355633926983165 -1.7531940364690188 -0.023816205348570867
1.3336330776752148 -2.550226430619814 -0.026861228260980793
1.3063904020195065 -3.2948499662352257 -0.03156270206553366
1.2731612279833664 -3.9695704308882283 -0.036664799997336094
1.2338486776363498 -4.556738217024739 -0.04146589606945303
1.1886918258851293 -5.038755311796663 -0.04546221871003031
1.1394248399702802 -5.397964314801589 -0.04809839476380174
1.0881419144359739 -5.614124765007679 -0.04925391909532795
1.0276796784977176 -5.67332558015063 -0.05113800019440327
0.9672859009352712 -5.615262185501274 -0.04968704506833402
0.9162161396991955 -5.400274838540778 -0.04895344111192013
0.8673292192241683 -5.042305847982854 -0.046706101635136325
0.822751735657733 -4.561615404496934 -0.04302088303705386
0.7842510017582972 -3.9758554307501943 -0.038370906550995426
0.7520880812663259 -3.302565130340893 -0.033122022807623504
0.7261207938775429 -2.5592026618020105 -0.027773880739871522
0.7053064853229815 -1.762711841025498 -0.023374093589359317
0.6908448243823674 -0.9320005698151743 -0.022587605691294168
0.6880810782117462 -0.10239472690772561 -0.027807665400708812
1.707221426528845 -0.10132953174515016 -0.03979265476691848
1.7000323714057424 -0.9233765351174054 -0.036116498651912105
1.677333188461652 -1.7493231218749299 -0.0410190032070773
1.6392421721013222 -2.545290129081807 -0.050481624981287214
1.5874983799707487 -3.288741767853755 -0.061149265690868655
1.5225977861144808 -3.9621213536831723 -0.07144490418808067
1.4447558585131084 -4.548004765666735 -0.08041042004608076
1.3546175061021306 -5.02866034461896 -0.08720755183994525
1.252792454185273 -5.387552189848408 -0.09101418983677993
1.147231582723375 -5.6025946070126365 -0.08971875052809032
1.0278424711971055 -5.6450475060032055 -0.08794119392006138
0.9085241557909878 -5.603753341144746 -0.09029012642343981
0.803182229879394 -5.389907263640298 -0.09215284287016207
0.701742190567652 -5.032282008224997 -0.088893679408653
0.6121775466105451 -4.552983003164397 -0.08258338946726643
0.5351102515303072 -3.968539340870885 -0.07396112397105561
0.4711541569781516 -3.296618025759042 -0.06371896662896694
0.420385318021706 -2.55441312129212 -0.05258863666236715
0.3830143869112634 -1.7588520603804265 -0.041883075112405195
0.3605695262391437 -0.9315034307441157 -0.03492983020596151
0.35345488064216257 -0.10641059935262392 -0.03638691354550125
2.0456331559100724 -0.10209383057170893 -0.047381706585468183
2.0374868926840506 -0.9220778029840385 -0.04652457733169526
2.0086489941396954 -1.7442341148728127 -0.056928626712956384
1.95387217510706 -2.53753112599442 -0.07224059524522124
1.8770154749142665 -3.27862770883534 -0.08827380328285284
1.7797736467572565 -3.9496879271432204 -0.10315157265512082
1.6624831509826583 -4.5332354759867926 -0.11564184053071348
1.5258783183377977 -5.011912258431504 -0.12458043593243949
1.3712386537456625 -5.367846193540301 -0.12886645515387787
1.1991553296702886 -5.586599772865122 -0.12429983422337021
1.0280534622028794 -5.6000000000000005 -0.10563073745399267
0.8570282320453493 -5.587781599044078 -0.12501377496745314
0.6851802442087582 -5.370249017728242 -0.13029805348263476
0.5309484204549936 -5.015608721091366 -0.12672458954785942
0.39493759642597637 -4.538316939576755 -0.11845712095390265
0.27842001310799724 -3.9562340439240296 -0.1065134147464074
0.18204845383365453 -3.2866382643904837 -0.09190205468524376
0.10591435553968317 -2.546744168686507 -0.0755963130941973
0.05134743332871606 -1.7537440904344346 -0.05913513441578367
0.022210772074294605 -0.9301348284568772 -0.0465916535651551
0.013853162711877543 -0.10723167323683919 -0.04509031227844963
0.0 0.0 0.0
0.02395576753763135 -0.8777250946145001 0.014795697794315417
0.06073612259394753 -1.6786246830570493 0.028259049134526936
0.11280109003686814 -2.4479282744681674 0.04077189396682104
0.18466730309163631 -3.167541882242018 0.050428450769336206
0.27706166166057594 -3.8214690020737256 0.05720683637513127
0.389649084178698 -4.393202477823841 0.060642059836690784
0.5218926639065624 -4.866887396508891 0.06041641254344682
0.6732689008375626 -5.227011235110144 0.056678801788812336
0.8431580690597846 -5.457272829317764 0.05102322494788609
1.027270561258927 -5.538768290770022 0.04775179272443555
1.2114044390777736 -5.457689091057612 0.051056844565106035
1.3813607472963916 -5.227842474574433 0.05677030459192829
1.5328599664183447 -4.8681305981457985 0.06061936148032379
1.6653034738518069 -4.394850834505375 0.061049300681829864
1.7782090185198047 -3.8235042098419587 0.057958929699639394
1.8711133884902256 -3.169915332104684 0.05173839557984542
1.9438252534730225 -2.4505214881588526 0.04286502537547826
1.9972648990485007 -1.681204938870357 0.03174898568284522
2.036760769460481 -0.8801937320686268 0.01882159437566238
2.067170679310418 0.0 0.016520968853756778
0.35416310167007536 -0.02551966097560343 0.0021807787836154724
0.36850338281804934 -0.8764477757490042 0.006783614020016052
0.38601569807384406 -1.6842915089213997 0.01764253365779117
0.4209855353087735 -2.455021035705605 0.026547182924981115
0.4688287227625871 -3.1772897767564916 0.03345098635346341
0.5303637968872019 -3.833695700194073 0.0380667602063679
0.605353458575244 -4.407942369848875 0.04032629404367646
0.6934003792375802 -4.884120700320817 0.04013854930349807
0.7939517009360924 -5.246799413162664 0.03771475076036713
0.9062441041320811 -5.479677261334717 0.03396653456657489
1.027363554836806 -5.562802886236663 0.031570466432042
1.148504025815888 -5.480098065909949 0.03387984335944215
1.260862213590458 -5.24764004270659 0.03756027662227349
1.3615330585252747 -4.88537891602016 0.03996022576541794
1.449771497909893 -4.409613049969486 0.04020423468062129
1.5250583497758807 -3.8357642311347675 0.03813580920801646
1.587060364958701 -3.179714853265638 0.03391012650370639
1.6356454369075457 -2.4576968915604436 0.02772551570240815
1.6718880129181992 -1.6870344241496396 0.01983785809724945
1.6916322844168832 -0.8792659259127044 0.0111676570960165
1.7072512927092243 -0.025959633899333277 0.012503331804888879
0.6942755689349283 -0.04493357538023446 -0.003926235114011709
0.7022258997695179 -0.8762761212389063 -0.00030629181270317384
0.7083304491294723 -1.6863941202005068 0.0068270083016071965
0.7243502678353786 -2.4593380847848114 0.012629699716340093
0.7482674678336115 -3.1829943036518453 0.01666034153726463
0.7789262542364129 -3.8409056752772694 0.01909339882342795
0.8163249750239947 -4.416613969790698 0.020030022666654657
0.8601215955649856 -4.894189605471394 0.019556182515920763
0.9097072779363142 -5.258284882064603 0.01778176466463663
0.9652179516452764 -5.49324163142764 0.01478679975416083
1.0274640561280277 -5.578885685715949 0.012142583837300788
1.08973058002698 -5.493669050175701 0.01458142145508476
1.145304657780788 -5.25913896491291 0.017385228176156075
1.1950036340361805 -4.89546859464826 0.019004120500373305
1.2389767411181158 -4.4183136434991885 0.019394425099596435
1.276639820171401 -3.8430136797289602 0.018504416688602563
1.3076963304829323 -3.185474201603715 0.016338013356539206
1.332232720104326 -2.4620908766434533 0.01291090840991706
1.349280741591509 -1.6892912928814559 0.008209014794112878
1.3564596946001444 -0.8789262778734653 0.0033373872489141053
1.3648856113894012 -0.045345401221271425 0.0038704150140605616
1.0273738749994834 -0.057974739227784775 -0.012156213438439237
1.0300687427604893 -0.8768758032842253 -0.008100450486353905
1.0271200783978471 -1.6863014184470722 -0.003959279536865548
1.0255389062507632 -2.460608245265643 -0.0013246727340738055
1.0252456028085388 -3.1849061105856475 -0.00018197962856230393
1.0250604831453225 -3.843288465104611 -3.4613923725134315e-05
1.0248639990584683 -4.419482138038331 -0.0005486029625481158
1.0245285053744098 -4.897389478934775 -0.00152480407815003
1.0233086078044737 -5.261770051159435 -0.0029183940862063246
1.022314588771554 -5.498747673316922 -0.005443231317588866
1.027568282805276 -5.589175044232138 -0.00903319915840843
1.0328416552743018 -5.49918367696988 -0.005767522331076408
1.0319080856367813 -5.262641385200793 -0.003557346371586164
1.0307936977121273 -4.898694431401585 -0.0024505097811607706
1.030616395499642 -4.421216394392345 -0.0016966429834070708
1.0306440387535136 -3.84544025920988 -0.0012745080093308906
1.030774710236263 -3.1874398618283792 -0.0012765741863436605
1.0309530742755901 -2.463437797577115 -0.0018852888247270676
1.0300089920365065 -1.6892267765028157 -0.0033696066619078755
1.0275523262531983 -0.8792746940625469 -0.00534115316192513
1.0304794797696208 -0.05840785146403885 -0.006117249228901645
1.35818487836526 -0.06540147659140927 -0.02064970775446577
1.3561116354901663 -0.8774129029108488 -0.016210236837615827
1.3448439293933623 -1.684664555523865 -0.01469287647792311
1.326689276597478 -2.4590097387845833 -0.015218464841495742
1.3023077518218522 -3.183026089009137 -0.016971681615896846
1.2712074125363184 -3.840904904630992 -0.019131350145994017
1.2333562888879102 -4.416626064875735 -0.0211166230035197
1.1890502711436817 -4.893920327350461 -0.022596599123544003
1.1375438569799003 -5.257313828077592 -0.023499044641952214
1.0793899192163805 -5.495875393916362 -0.024890379388422885
1.027674688491316 -5.595364726216555 -0.029781466518792595
0.9759784424061656 -5.496321954829811 -0.02533581319393327
0.9178820976981936 -5.258206186839153 -0.024385226767029162
0.8664735050930542 -4.89525632812783 -0.023904127162456077
0.8223073705405428 -4.418400272100771 -0.022789590179382032
0.7846393912247375 -3.843103376690933 -0.02104070214584129
0.7537710413617458 -3.185613358018552 -0.018861868180699487
0.7296813368239797 -2.4618915109243553 -0.016642960311030557
0.7118344986803694 -1.6875633239753225 -0.014955044341870805
0.7007459146044964 -0.8796168787494398 -0.01439399275643832
0.6987891258948978 -0.06587229865551121 -0.016088378689470238
1.6900367330929817 -0.06859877729495871 -0.028443017457734553
1.6839358726977325 -0.8773026760788885 -0.024124890603495385
1.6645900147759911 -1.6816663422662042 -0.025288980226868533
1.6302851201454052 -2.454663043573339 -0.028961319868965243
1.581869183567641 -3.177284027647619 -0.0335969125950979
1.5197938942490234 -3.8336940077621704 -0.038007828312657435
1.444307815213909 -4.407908841536896 -0.04138689246854514
1.355675007578094 -4.883876649229381 -0.04315560724068076
1.2553042582148728 -5.245044070442464 -0.043258142559730026
1.1393769082670642 -5.4828672358145605 -0.0419104410893825
1.0277816235901527 -5.599036981104935 -0.04710218186977177
0.9162048370824832 -5.483326454773557 -0.04248116092083439
0.8003329372936372 -5.245961491235991 -0.044400712444867506
0.7000538804712642 -4.885249258571172 -0.04486103014337556
0.61154574207809 -4.40972893084823 -0.04361117581186297
0.5362084636630955 -3.835943430949239 -0.040628696559932995
0.47428752902180804 -3.1799210709259693 -0.036346618462372464
0.42599469652406324 -2.457575709426203 -0.03134232213888163
0.3917277810309613 -1.6845298156750659 -0.02652489284924968
0.3723344293009605 -0.8793888954231244 -0.023304418339761768
0.36624570091701886 -0.06908522120071542 -0.02516330367632045
2.024776515545873 -0.06962003170063442 -0.03442564481097859
2.0165797787880435 -0.8763637416986564 -0.0315316644681083
1.9896579499027727 -1.6772461384572679 -0.035804808083040505
1.9387286712819278 -2.4474292162025963 -0.04275810933318754
1.8661330117313306 -3.1675130933703506 -0.05033687539507427
1.7731107208010843 -3.821416617795704 -0.05698036385891454
1.6599744941105503 -4.393176499664771 -0.06161793987439845
1.5271021477054014 -4.866483420940059 -0.06351308911626058
1.3760293902109892 -5.226340859118651 -0.06217608163705582
1.2118600639164165 -5.456582537013326 -0.057295261537518974
1.027884944551502 -5.6000000000000005 -0.05510193720169336
0.8439280488252807 -5.45705668563129 -0.05799698506569087
0.6798129049709676 -5.227287782801608 -0.06358784556890063
0.5288279975393814 -4.8678989218252875 -0.06563939889232134
0.3960705972623199 -4.39504987254445 -0.06443236227878461
0.28306082101608443 -3.8237234192747462 -0.06037716109390595
0.19013998661134404 -3.170198944495283 -0.054052368335653744
0.11754299251498315 -2.4503588460163184 -0.04626153655413022
0.06641575042853218 -1.6800696439090088 -0.038223564917895275
0.03917227944382012 -0.8783797633360807 -0.0318048799003097
0.03083779638027626 -0.07008534879018294 -0.03216686673659877
0.0 0.0 0.0
0.033257025079335485 -0.8553746465190485 0.006392830941527815
0.06994753896749631 -1.6420943203968772 0.011996486833232282
0.12080192205813746 -2.4000102626735322 0.0173092753298344
0.19059681367575204 -3.1109230194940745 0.021074188054498372
0.27962284976047663 -3.759515474240606 0.022983600301013273
0.3876214744703087 -4.3303870882861375 0.022886613738647518
0.5147543730897348 -4.80874299796184 0.02081663770637145
0.6626567887347002 -5.179347698773561 0.01721042357671161
0.8344788792960395 -5.4229313155154175 0.013328249286952067
1.027322095835204 -5.5115331051239425 0.011468724382243419
1.2201404456564828 -5.422832615067421 0.01333182760252046
1.3918841513660098 -5.179119955375728 0.017232446306734588
1.539642671530041 -4.808326832924443 0.02088941230130264
1.6665438158816035 -4.329698266624972 0.023063802109326795
1.774184889520747 -3.7584569274690542 0.02334145984271354
1.8626699278562961 -3.109410146916589 0.021710481323032486
1.9316385624460728 -2.398018741527384 0.01832661936521624
1.981261919642985 -1.6397029635415026 0.013648438784746949
2.0154514458413373 -0.8525208744692038 0.009187865180245934
2.041525187097913 0.0 0.009374478450293945
0.35567995564283644 -0.022068609485931444 0.00023113995867738604
0.3703636426406273 -0.8552399621145146 0.0032807014425148473
0.38976967845870003 -1.6479904227415543 0.007569818597828724
0.42454885839191725 -2.407495887319067 0.011437724566784541
0.4714598614156113 -3.12109849160561 0.01422622686024685
0.5311923130948115 -3.7722976105107477 0.015645536993708718
0.6035653526149373 -4.345910356494122 0.015674208763163253
0.6886721559986151 -4.827208189856188 0.014412505960775254
0.7873018746413893 -5.20125828188777 0.012184161638528326
0.9009029443543601 -5.4488664708273715 0.009740745384714021
1.0273079680860677 -5.540083307429953 0.00850828954579002
1.1536821966165143 -5.44875927244688 0.009669236200735013
1.2671874053837253 -5.201011328610429 0.012051820882423845
1.3656455435614625 -4.826757252098487 0.014243757258813652
1.4504861730163416 -4.345162851678522 0.015512365487527248
1.5224694350140384 -3.7711429299156425 0.015558946022933643
1.581642444613979 -3.1194317375869467 0.014309689302620884
1.6277634609002947 -2.405263708619989 0.011835091660423977
1.661338444342401 -1.6452019806509657 0.008494961603443854
1.6787293181696545 -0.8517276312987283 0.005829128154643497
1.6925793979465638 -0.02097849868197787 0.007439811076967532
0.6918321850842903 -0.0380430475706728 -0.002216758118677457
0.6993837477080865 -0.8548771216062879 -0.00012791830865676096
0.7064945408291528 -1.6506903033916345 0.0028050658083408463
0.723326055955682 -2.412240183778288 0.005377924471615618
0.7473501554979765 -3.127299656042558 0.007111958636386918
0.7776231843000183 -3.7801021194276836 0.007908899969163687
0.8141372513650452 -4.355343313325349 0.007833481041043542
0.8566859677865443 -4.838282122027524 0.007014561118653556
0.9051279517965225 -5.214240894241453 0.005625279463028104
0.9611494260533657 -5.465128631672757 0.003972151715889773
1.0273023907226633 -5.5603123599694015 0.0029799052041627285
1.0934192087383852 -5.4650163084136745 0.003827464518427775
1.1493292158696 -5.213981828319672 0.0053433945123480785
1.1975754907104512 -4.837808052537416 0.006614334513733331
1.2398299621746776 -4.35455475428861 0.007352742305552172
1.2759311380043943 -3.7788770727810372 0.007414532386729954
1.3056456136473062 -3.125515263088439 0.006713511877248424
1.3289234049428127 -2.409820868292371 0.0052432641294073955
1.344715021259916 -1.647568201853253 0.0032632491256068394
1.3510198805754121 -0.8513635972138501 0.001964673436866979
1.3585502890983305 -0.03640815962284636 0.003199816548001531
1.0203194546856424 -0.04876261646693569 -0.006091038291187327
1.022560670873004 -0.8548883526608291 -0.0038719047648682735
1.0202705320481649 -1.6509534618935353 -0.0020520195609537444
1.019920305693202 -2.4138563764038845 -0.0007304371256960008
1.02074906586697 -3.1295018290878547 -4.917578306315475e-05
1.0214914325625184 -3.7827951519473197 7.037549633168187e-05
1.0219879785840218 -4.3585531837087395 -0.0002075887452901296
1.0219195873842477 -4.841779619639547 -0.0007433852265749708
1.0201422224995311 -5.218052984485777 -0.0015109111528363612
1.0187976154468783 -5.47220948601069 -0.002607833175958375
1.027301442469756 -5.574679615907077 -0.0034992800738285848
1.0357639395640208 -5.472095611129512 -0.0028254767457221623
1.0342927925302867 -5.217789330872105 -0.0019415164211388416
1.0322966397021252 -4.841294750226595 -0.0013726599453535032
1.0319075458113254 -4.357742249724144 -0.0010014942903138393
1.031971751197652 -3.7815267306365117 -0.000818537349202403
1.0321627907635684 -3.1276396070349213 -0.0009067144681127363
1.0323039426153169 -2.4112935435925644 -0.001343208732832639
1.0312287177399655 -1.647697126384246 -0.0020082147651482056
1.028628177662608 -0.8514774551844441 -0.002315583709473581
1.0310168012758791 -0.04664791488634488 -0.0020063324217021498
1.3463053827918399 -0.0549072016736225 -0.01036810531342975
1.3438240902562213 -0.8548779220981221 -0.007712642508622658
1.3331083296903583 -1.649432332584323 -0.006899975286121016
1.3165165413331066 -2.4123969083328243 -0.006820834342558821
1.2941918706872415 -3.127647616587067 -0.007188778775281449
1.2653460053043502 -3.780340470922302 -0.007752116565665528
1.2297332140222816 -4.3555169079683225 -0.008239483416268883
1.1873369082091396 -4.837850569583233 -0.008490969518632718
1.1363130827637695 -5.212649033160372 -0.008601003892059757
1.0768509238156585 -5.469476524810884 -0.00904437563213051
1.0273005854198871 -5.5851842160465655 -0.009745834423967467
0.97770346496403 -5.469364742479091 -0.009336413988156957
0.9180988508534168 -5.212388464058672 -0.009183385564169897
0.8668315592526802 -4.837367474560261 -0.009354380234433645
0.8240854125767821 -4.354702506090382 -0.009354257484163724
0.7880173097038009 -3.7790571568810263 -0.009047086256603425
0.7586227895427318 -3.125745613200782 -0.00852042105115695
0.7356973775427769 -2.409762433605672 -0.0079272811876984
0.718609316478035 -1.6461475431055028 -0.00731653222651556
0.7077739660187033 -0.8515398252044137 -0.006719798640652772
0.7054607484429971 -0.05242718769114683 -0.007332001112652814
1.6731601868229204 -0.05760997774991548 -0.014145014260161726
1.6666755005283775 -0.8544167681493158 -0.011272267388345638
1.6478535370145972 -1.6463994028701905 -0.011631257087431571
1.6154988744548429 -2.4080088250268012 -0.012825709883953975
1.570122437819252 -3.121723142770163 -0.014238261008726357
1.5117177029155573 -3.7727679028264696 -0.015441892959323682
1.440169580531292 -4.346180281299189 -0.016051077843687162
1.3552249393268896 -4.826839607127603 -0.01586562491430467
1.2575693455859571 -5.19849859409619 -0.015056304957246625
1.13985540405886 -5.454655141615693 -0.014466907138632485
1.0272952790968033 -5.593679894869204 -0.014586697874240672
0.9146822192312651 -5.454549032303312 -0.014836449795922548
0.7968076881977372 -5.1982486624999025 -0.01579743338089937
0.6988797981881617 -4.826370616820647 -0.016975708049741897
0.6135493363570463 -4.3453811584162505 -0.017508002116177115
0.5415112038441819 -3.7714972108617766 -0.017178320585489047
0.4825490444224141 -3.119824589833764 -0.016100572666757226
0.43664181625041354 -2.40537092793848 -0.014513038794213106
0.4039500804462176 -1.6431395227451304 -0.012626648086072324
0.3851135111024766 -0.8511151437441442 -0.01088494065030636
0.37880244896213133 -0.05490008407472638 -0.011966095009557684
2.0028537309569656 -0.05857371420784012 -0.016261518178198493
1.9942211425821728 -0.8533265229153832 -0.014195448634323683
1.9678270155030382 -1.6419370850660044 -0.016053102584733712
1.9194068791742123 -2.4007485166090623 -0.018575808552311248
1.8509822646139122 -3.1118178360420448 -0.020988914205360622
1.7632012888268158 -3.760153820977564 -0.022702549863950008
1.6559311752404153 -4.330816172735683 -0.0232115806628129
1.528902541871919 -4.808282671909183 -0.02224033381891963
1.3828196200042004 -5.178266432291974 -0.020020903099897677
1.2210195355672402 -5.4240796234428625 -0.017710547397103666
1.0272816237751936 -5.6000000000000005 -0.01662959864286506
0.833483528294287 -5.423982560236356 -0.018162470862421454
0.6715012258881254 -5.1780342602536304 -0.020931849636519246
0.5251106914648986 -4.807839491920586 -0.023617395810623647
0.3976493191129076 -4.330049963162739 -0.025045873859731827
0.28983644630983174 -3.758922087919577 -0.02494048943449506
0.20145876566185983 -3.1099651178891987 -0.023483422030535526
0.1325264425025646 -2.3981705990629925 -0.021006556450299557
0.08390626122431569 -1.6387553287152115 -0.017835781242193018
0.05767038484658021 -0.8500634849665151 -0.014518541598318429
0.04927347471871848 -0.055753896608029554 -0.014721858430860666
0.0 0.0 0.0
0.035278900867496014 -0.8493751017816801 -8.271636550366569e-14
0.07217196672418394 -1.6316810471931067 -1.5621990019041015e-13
0.12245979293619266 -2.386123840813666 -2.2635920910087342e-13
0.1912176325983316 -3.094799627486139 -2.922302288045494e-13
0.2788850148804035 -3.742611782334726 -3.6558560609315244e-13
0.3853266422094558 -4.314464712847692 -4.525368614145032e-13
0.5110900251223455 -4.795720823656621 -5.593552746980698e-13
0.6585329260574824 -5.170746085785469 -6.465583209309363e-13
0.831573291266562 -5.418798158593065 -7.324819509491075e-13
1.0272935197219555 -5.509449405238511 -8.184502455884014e-13
1.222969183035695 -5.418500453576413 -9.084797409060398e-13
1.3958696140236395 -5.170107065961102 -9.887874542977823e-13
1.5430568279648658 -4.794654911787015 -1.0311286937689683e-12
1.668408387638223 -4.312850633484044 -1.1061469423686725e-12
1.7742091463700864 -3.7403129105190276 -1.1737485247544066e-12
1.8608859960883928 -3.091709254001201 -1.307037092388205e-12
1.9281107902883985 -2.3822513660132545 -1.4494343894664035e-12
1.9760459607683911 -1.6272109017697558 -1.6045047592360101e-12
2.0090188608861648 -0.8446269385390801 -1.764648056074037e-12
2.0339996121879382 0.0 -1.8820224075006907e-12
0.35555917426668093 -0.02133912375224155 -1.6496412563499697e-14
0.37031026041225923 -0.8496514077391379 -7.473876290758692e-14
0.39042233913030305 -1.6376919365263323 -1.4520433532294775e-13
0.42501014174717 -2.3937408545426093 -2.183047231808838e-13
0.47139634481448595 -3.105106941258451 -2.907864665264829e-13
0.5303773054909027 -3.7555810738106357 -3.702145681968018e-13
0.6018875827135972 -4.330287169955416 -4.542438475197151e-13
0.6862672219382461 -4.814680306810663 -5.516148063523541e-13
0.7847257972332811 -5.1934296885745646 -6.443559187856165e-13
0.8991162443560484 -5.4457941469026565 -7.413393097486557e-13
1.027239468511343 -5.539209944309827 -8.262279629625991e-13
1.1553097784555888 -5.445482387443503 -9.2425171304051e-13
1.2695357324491876 -5.192759199192264 -1.0207731303214266e-12
1.3677000265731574 -4.813558022301361 -1.0923317996737858e-12
1.4516214182432252 -4.328578778711217 -1.1813264861655074e-12
1.5224517694041646 -3.7531279779233513 -1.2747859926483321e-12
1.5804363310237706 -3.1017719017925973 -1.3898330486041589e-12
1.6253647443961698 -2.389480004581944 -1.5196360696408644e-12
1.6577832563042572 -1.6326335699061114 -1.6571387045391474e-12
1.6746944910626365 -0.8438675565609094 -1.7963265956118092e-12
1.6880264922724346 -0.020111919394082602 -1.8977606635892157e-12
0.6905197811590981 -0.03712258542335362 -1.797400547260736e-14
0.6979882467967081 -0.8492908002927271 -7.239251654045638e-14
0.705568479648473 -1.640521881494534 -1.3822930981844862e-13
0.7225667701788783 -2.398529304556938 -2.1369381459893372e-13
0.7464921047821877 -3.111344487709012 -2.8876039859390484e-13
0.7765445523906718 -3.763429104691719 -3.745419426843352e-13
0.8127722276315048 -4.339807240151962 -4.629375793946687e-13
0.8550806921399987 -4.825921691294465 -5.480756510504143e-13
0.9035106760766499 -5.206696102298123 -6.56465871233952e-13
0.9599648889993987 -5.462458862641482 -7.524225527630798e-13
1.0271944769521777 -5.559980567014714 -8.427928089130316e-13
1.0943638336681099 -5.462137072283766 -9.507469011690215e-13
1.1506324460181268 -5.206002808670852 -1.0532939182972235e-12
1.1987365801207677 -4.82475789909944 -1.151466227288231e-12
1.2405532213172827 -4.338028153003491 -1.252708547551637e-12
1.2760829763081136 -3.760859230512352 -1.3561207107340442e-12
1.305167649771673 -3.107816482232394 -1.4662619736465265e-12
1.3277614498175838 -2.393973210352387 -1.5831698108773549e-12
1.3429347866427193 -1.6349635558182416 -1.7084463764861515e-12
1.349096282782512 -0.8435121778224394 -1.8308511996492713e-12
1.3563619712358754 -0.03492730498880615 -1.934742599119876e-12
1.0175383788809558 -0.047734676140983145 -1.510472196405075e-14
1.0197605538757686 -0.8492620975773935 -6.946187791973539e-14
1.0178645756781772 -1.640862918020029 -1.3394270839514073e-13
1.0178873039342797 -2.400212850008395 -2.117677737420969e-13
1.0190147180546514 -3.1135872809325713 -2.894148815300344e-13
1.0200267482460366 -3.766158820159862 -3.772127939160861e-13
1.0207655100429311 -4.343058973554695 -4.695756188736795e-13
1.0208897807497879 -4.829470773831216 -5.577924525838359e-13
1.0192304713674756 -5.210579409676415 -6.65874736220924e-13
1.0180014003362359 -5.46964523370744 -7.677384568493881e-13
1.0271536043561649 -5.574635888776215 -8.63773179120825e-13
1.0362385981325928 -5.469317644383976 -9.806454234054895e-13
1.034803980326664 -5.2098724365890785 -1.082676570850406e-12
1.0327896701199675 -4.82828095233709 -1.2035735606951567e-12
1.0323930109630477 -4.341234021992096 -1.3174890514584803e-12
1.0324240866489018 -3.76350929024245 -1.4268419430279746e-12
1.0325155746561558 -3.1099256248153946 -1.5352669689445274e-12
1.0324661875319936 -2.3954287923388176 -1.6430051441506651e-12
1.03121900886035 -1.6351065486834753 -1.7579840066421358e-12
1.0286985958071364 -0.8436367685743265 -1.8693367305786243e-12
1.0310178956512082 -0.04472764818704662 -1.9790610086929768e-12
1.3418700742954892 -0.05380859875891916 -1.128900574160411e-14
1.3395128825837297 -0.849215203164256 -6.640430006586068e-14
1.3292509263697418 -1.639399576655723 -1.3140851187176856e-13
1.313229929129633 -2.3988331719812424 -2.0763662915806946e-13
1.2915759585285431 -3.1117953332903765 -2.8827216473450496e-13
1.2634900506055677 -3.7637485695317627 -3.7586827896914873e-13
1.2286473552557178 -4.340042119635241 -4.759125065801658e-13
1.186892926851834 -4.825514465801408 -5.693306620757856e-13
1.136153369157551 -5.205089221960277 -6.778916349396881e-13
1.0764465356707418 -5.466791671631926 -7.839736101327051e-13
1.027112067182913 -5.585275707406655 -8.887953942367311e-13
0.9777030542315589 -5.46646258854889 -1.0058294292951136e-12
0.9177696052173239 -5.204377811814485 -1.1247379223665194e-12
0.8666437945356216 -4.824314320894845 -1.2515514595816429e-12
0.8243355967073729 -4.338195978499626 -1.3772934303220648e-12
0.7887711085538353 -3.7610587803193756 -1.501227691830788e-12
0.7598070992127801 -3.108055998420701 -1.6023506068974848e-12
0.7371716430620131 -2.3939291818984905 -1.7030548202716883e-12
0.7203069318175706 -1.6336033128882246 -1.8056106404776458e-12
0.7097763103664996 -0.8437069959305046 -1.9078954206044945e-12
0.7075965878739845 -0.05021948275683137 -2.023664914711975e-12
1.6669331606843334 -0.05647538274687622 -7.665346432994244e-15
1.6607640408183193 -0.8487186710634127 -6.342100372993991e-14
1.6425527616309925 -1.6364158892384446 -1.2805186954030106e-13
1.61101078455634 -2.3945260982455876 -2.029830935349623e-13
1.5667018550795082 -3.1059419619573987 -2.887113130753009e-13
1.5095807034261663 -3.75621461001093 -3.856275190556775e-13
1.4393838482441226 -4.330678982500952 -4.747194197970801e-13
1.355586032796267 -4.814380979059571 -5.720349966945481e-13
1.2584945712005464 -5.190657682350311 -6.927679436621179e-13
1.1400733069290747 -5.451559016741188 -7.902990382678083e-13
1.027065062701781 -5.593777482127441 -9.063945957382359e-13
0.9139738837833439 -5.451232662477159 -1.0219100353380892e-12
0.7953015377304843 -5.189950915203236 -1.1574899613676882e-12
0.6977859689970668 -4.81318580064775 -1.2993867188338101e-12
0.6133901915969195 -4.32883599940076 -1.4360573203028522e-12
0.5424376496115714 -3.75352262543287 -1.570997299144846e-12
0.4844597068429255 -3.1021889603270103 -1.6756022292710448e-12
0.4393343852568026 -2.3896062751346245 -1.7678192932231607e-12
0.40726895180880485 -1.630661383321435 -1.854911304732037e-12
0.3890207165415422 -0.843279272074784 -1.942116948822893e-12
0.3830859069708879 -0.05253673823965782 -2.062010231131691e-12
1.9947154801313014 -0.057356835946937586 -3.983908870522444e-15
1.9865845532736044 -0.847537796977801 -5.94625317683492e-14
1.9610045951511847 -1.6319472160222674 -1.2213414092883476e-13
1.9137248380832497 -2.3872773651051897 -1.960440770609293e-13
1.8468496937652643 -3.096014506334624 -2.9055580205277074e-13
1.7609637390339974 -3.743499247238791 -3.98610256314637e-13
1.6557379066422067 -4.315080366655888 -4.696387337190569e-13
1.5305171615523205 -4.795371647828491 -5.723477037725339e-13
1.3853032761556312 -5.169732560498324 -6.776176955736567e-13
1.2226643640811947 -5.419838417596663 -7.89679345743013e-13
1.0270075739630489 -5.6000000000000005 -9.116316973648994e-13
0.8312576948958305 -5.4195188083484105 -1.0316832488877914e-12
0.6683375016661424 -5.169039057492518 -1.1659844849425127e-12
0.5226506378676276 -4.79419601859692 -1.341301034873974e-12
0.39676843775948784 -4.313263493576663 -1.494211332024385e-12
0.2907201295082542 -3.7408417758389865 -1.65744837954221e-12
0.20394340628082322 -3.092311935097616 -1.7600193859114199e-12
0.1363374755363135 -2.382443499481114 -1.844073733114379e-12
0.08882558177845862 -1.6263250000601426 -1.9069517629789645e-12
0.06356020770083787 -0.8421773727935299 -1.9713072052783005e-12
0.05580820792891413 -0.0532603987977852 -2.0845291119651523e-12
0.0 0.0 0.0
0.033257025079484887 -0.8553746465191218 -0.006392830941693916
0.06994753896772637 -1.6420943203969982 -0.011996486833531488
0.12080192205843024 -2.400010262673596 -0.01730927533027479
0.19059681367606937 -3.110923019494049 -0.021074188055083733
0.2796228497607957 -3.7595154742405867 -0.022983600301755613
0.3876214744706439 -4.330387088286113 -0.022886613739525944
0.5147543730900987 -4.808742997961829 -0.020816637707359847
0.6626567887350858 -5.179347698773585 -0.017210423577884566
0.8344788792964679 -5.422931315515319 -0.013328249288345619
1.027322095835679 -5.511533105123845 -0.01146872438381839
1.220140445657023 -5.422832615067293 -0.013331827604270116
1.3918841513666271 -5.179119955375358 -0.01723244630863382
1.5396426715306817 -4.808326832923809 -0.02088941230335814
1.6665438158822405 -4.329698266624225 -0.023063802111548525
1.7741848895212675 -3.7584569274680386 -0.02334145984513776
1.862669927856682 -3.1094101469157556 -0.021710481325678453
1.931638562446404 -2.398018741526673 -0.018326619368126035
1.9812619196432626 -1.6397029635409508 -0.013648438787962179
2.0154514458415664 -0.8525208744688881 -0.009187865183766618
2.04152518709809 0.0 -0.009374478454036035
0.35567995564297317 -0.022068609485939986 -0.00023113995871321032
0.37036364264079735 -0.8552399621146068 -0.0032807014426668823
0.38976967845892513 -1.647990422741685 -0.0075698185981234066
0.42454885839218776 -2.4074958873191243 -0.011437724567222413
0.47145986141591617 -3.1210984916056024 -0.014226226860838256
0.5311923130951313 -3.772297610510719 -0.015645536994457674
0.6035653526152702 -4.345910356494104 -0.015674208764065365
0.6886721559989765 -4.827208189856194 -0.014412505961821986
0.7873018746417593 -5.201258281887787 -0.012184161639765417
0.9009029443547628 -5.448866470827336 -0.009740745386142512
1.0273079680865291 -5.54008330742988 -0.008508289547415209
1.1536821966170034 -5.448759272446773 -0.009669236202543745
1.2671874053842531 -5.201011328610152 -0.012051820884403723
1.365645543562046 -4.826757252097877 -0.014243757260984468
1.4504861730168987 -4.345162851677762 -0.01551236548988055
1.5224694350145407 -3.7711429299145687 -0.015558946025505685
1.581642444614425 -3.119431737586089 -0.014309689305413974
1.6277634609006795 -2.40526370861926 -0.011835091663464978
1.6613384443427535 -1.6452019806504103 -0.008494961606768063
1.678729318169987 -0.8517276312984109 -0.0058291281582286665
1.692579397946877 -0.020978498681943625 -0.007439811080747401
0.6918321850844793 -0.03804304757068851 0.002216758118636753
0.6993837477082945 -0.854877121606383 0.0001279183085098754
0.706494540829377 -1.650690303391751 -0.00280506580862735
0.7233260559559442 -2.41224018377837 -0.0053779244720523365
0.7473501554982614 -3.1272996560425455 -0.007111958636981223
0.7776231843003194 -3.7801021194276254 -0.007908899969919524
0.8141372513653704 -4.355343313325345 -0.007833481041966708
0.8566859677868792 -4.838282122027539 -0.007014561119755121
0.9051279517968743 -5.21424089424147 -0.005625279464312672
0.961149426053764 -5.465128631672713 -0.00397215171737332
1.0273023907230843 -5.560312359969343 -0.0029799052058439865
1.093419208738832 -5.465016308413535 -0.0038274645203009495
1.1493292158700785 -5.213981828319455 -0.005343394514412406
1.19757549071096 -4.837808052536834 -0.006614334516014604
1.239829962175196 -4.354554754287888 -0.0073527423080355335
1.2759311380048932 -3.7788770727800176 -0.007414532389441942
1.3056456136477754 -3.1255152630875536 -0.006713511880174437
1.3289234049432557 -2.4098208682916478 -0.005243264132579387
1.344715021260324 -1.6475682018526916 -0.003263249129029293
1.3510198805758267 -0.8513635972135367 -0.0019646734405249565
1.35855028909873 -0.03640815962278197 -0.0031998165518589737
1.0203194546858594 -0.04876261646696149 0.006091038291152171
1.0225606708732287 -0.8548883526609153 0.0038719047647244632
1.020270532048393 -1.6509534618936426 0.00205201956067528
1.0199203056934514 -2.4138563764039658 0.0007304371252655771
1.0207490658672356 -3.1295018290878405 4.9175782468403706e-05
1.0214914325627993 -3.782795151947276 -7.037549710267409e-05
1.0219879785843244 -4.358553183708724 0.00020758874434501437
1.021919587384561 -4.841779619639536 0.0007433852254444665
1.0201422224998689 -5.218052984485869 0.0015109111514995037
1.0187976154472465 -5.472209486010678 0.002607833174429443
1.0273014424701483 -5.57467961590696 0.003499280072081502
1.0357639395644211 -5.47209561112941 0.0028254767437813654
1.034292792530719 -5.217789330871923 0.0019415164189841474
1.0322966397025648 -4.841294750226055 0.0013726599429655802
1.031907545811783 -4.357742249723466 0.0010014942877019665
1.0319717511981326 -3.7815267306354943 0.0008185373463564837
1.0321627907640656 -3.127639607034059 0.000906714465049627
1.0323039426158005 -2.4112935435917984 0.001343208729538612
1.031228717740444 -1.6476971263837052 0.002008214761628617
1.0286281776630921 -0.8514774551841326 0.002315583705738951
1.0310168012763692 -0.04664791488626162 0.002006332417751513
1.3463053827920752 -0.05490720167365977 0.010368105313404244
1.3438240902564516 -0.8548779220981931 0.007712642508484603
1.333108329690585 -1.649432332584418 0.0068999752858480475
1.316516541333346 -2.412396908332889 0.006820834342132143
1.2941918706874955 -3.127647616587073 0.007188778774686457
1.2653460053046015 -3.780340470922227 0.0077521165648802735
1.229733214022562 -4.3555169079683225 0.008239483415306538
1.187336908209445 -4.8378505695832414 0.00849096951746571
1.1363130827641017 -5.212649033160471 0.00860100389069225
1.0768509238160011 -5.469476524810898 0.009044375630558784
1.0273005854202493 -5.585184216046477 0.009745834422155297
0.9777034649644141 -5.469364742479015 0.009336413986144475
0.918098850853789 -5.212388464058471 0.009183385561926053
0.8668315592530731 -4.837367474559741 0.009354380231938209
0.8240854125771941 -4.354702506089719 0.009354257481425335
0.788017309704264 -3.77905715688003 0.009047086253628251
0.7586227895432427 -3.125745613199905 0.00852042104795733
0.7356973775432987 -2.4097624336048913 0.007927281184279718
0.7186093164785778 -1.6461475431049633 0.0073165322229011565
0.7077739660192596 -0.8515398252041086 0.006719798636839485
0.705460748443561 -0.052427187691051355 0.00733200110860797
1.6731601868231578 -0.057609977749959435 0.014145014260148598
1.6666755005286107 -0.8544167681493728 0.01127226738821501
1.6478535370148206 -1.6463994028702744 0.011631257087167285
1.6154988744550638 -2.4080088250268874 0.012825709883531896
1.5701224378194896 -3.121723142770128 0.014238261008132637
1.5117177029158064 -3.772767902826379 0.015441892958541802
1.4401695805315664 -4.346180281299213 0.016051077842709063
1.355224939327201 -4.82683960712758 0.015865624913098085
1.2575693455862855 -5.198498594096302 0.01505630495584704
1.1398554040591795 -5.454655141615689 0.014466907137014238
1.027295279097148 -5.5936798948691635 0.01458669787237674
0.91468221923161 -5.45454903230322 0.014836449793843328
0.796807688198064 -5.198248662499759 0.015797433378567084
0.6988797981884988 -4.826370616820144 0.016975708047139482
0.6135493363574038 -4.345381158415613 0.017508002113313263
0.541511203844616 -3.771497210860846 0.01717832058236999
0.4825490444229328 -3.1198245898328754 0.016100572663417898
0.43664181625098164 -2.4053709279377045 0.014513038790672454
0.40395008044683167 -1.6431395227445962 0.012626648082358452
0.3851135111031091 -0.851115143743851 0.010884940646418149
0.37880244896277304 -0.05490008407462524 0.011966095005430924
2.0028537309572036 -0.05857371420788969 0.01626151817819451
1.9942211425824046 -0.8533265229154291 0.014195448634203798
1.967827015503265 -1.641937085066095 0.016053102584481754
1.9194068791744157 -2.4007485166091325 0.018575808551897166
1.8509822646141192 -3.111817836042011 0.02098891420476943
1.7632012888270614 -3.760153820977489 0.022702549863181022
1.6559311752406967 -4.330816172735665 0.023211580661810026
1.5289025418722322 -4.808282671909167 0.022240333817684504
1.3828196200045293 -5.17826643229206 0.020020903098455885
1.2210195355675313 -5.424079623442858 0.017710547395450735
1.027281623775511 -5.6000000000000005 0.016629598640979137
0.8334835282946016 -5.423982560236246 0.01816247086027633
0.6715012258883876 -5.1780342602535 0.020931849634078376
0.5251106914651358 -4.80783949192013 0.02361739580791119
0.3976493191131958 -4.330049963162087 0.02504587385673323
0.2898364463102209 -3.7589220879187 0.024940489431232553
0.20145876566239485 -3.109965117888323 0.02348342202704703
0.1325264425032049 -2.3981705990622264 0.02100655644663448
0.08390626122501495 -1.638755328714681 0.017835781238378444
0.05767038484729609 -0.8500634849662151 0.01451854159435801
0.049273474719436765 -0.05575389660792894 0.014721858426684555
0.0 0.0 0.0
0.023955767537949743 -0.8777250946146571 -0.014795697794510466
0.06073612259441974 -1.678624683057152 -0.028259049134878502
0.11280109003742816 -2.4479282744682047 -0.04077189396731812
0.18466730309228419 -3.1675418822420194 -0.050428450769963135
0.2770616616613142 -3.8214690020736413 -0.05720683637587231
0.38964908417953875 -4.3932024778236185 -0.06064205983753224
0.5218926639073772 -4.866887396508357 -0.06041641254442507
0.6732689008382924 -5.227011235109525 -0.056678801789934424
0.8431580690605938 -5.457272829317423 -0.05102322494919985
1.0272705612598965 -5.538768290769481 -0.04775179272591268
1.2114044390788212 -5.457689091057081 -0.05105684456678125
1.3813607472975478 -5.227842474573579 -0.05677030459376828
1.5328599664195084 -4.86813059814468 -0.060619361482361946
1.6653034738528953 -4.394850834503946 -0.06104930068406732
1.7782090185207842 -3.8235042098404626 -0.05795892970209835
1.871113388491056 -3.169915332103077 -0.05173839558250547
1.9438252534736793 -2.4505214881574777 -0.04286502537839872
1.9972648990490136 -1.6812049388692611 -0.03174898568605985
2.0367607694609045 -0.8801937320679403 -0.018821594379182377
2.0671706793107214 0.0 -0.016520968857495388
0.3541631016703453 -0.025519660975628695 -0.002180778783656819
0.36850338281838757 -0.8764477757491752 -0.006783614020192164
0.3860156980742961 -1.6842915089215096 -0.017642533658125913
0.42098553530931704 -2.4550210357056517 -0.026547182925462324
0.46882872276320536 -3.177289776756513 -0.03345098635407968
0.5303637968878911 -3.8336957001940144 -0.038066760207119764
0.6053534585759895 -4.40794236984868 -0.04032629404456235
0.6934003792383285 -4.884120700320212 -0.04013854930453262
0.7939517009368596 -5.246799413162048 -0.03771475076156303
0.9062441041328979 -5.479677261334388 -0.033966534567962295
1.0273635548377191 -5.562802886236165 -0.03157046643362234
1.1485040258168815 -5.480098065909383 -0.033879843361205156
1.2608622135914944 -5.2476400427057355 -0.037560276624223926
1.3615330585263308 -4.885378916018987 -0.039960225767564646
1.449771497910901 -4.409613049968049 -0.04020423468297951
1.5250583497768169 -3.835764231133243 -0.03813580921059143
1.5870603649595538 -3.1797148532640542 -0.03391012650650678
1.635645436908294 -2.457696891559012 -0.02772551570546359
1.6718880129188494 -1.6870344241485395 -0.0198378581005668
1.6916322844175111 -0.8792659259120272 -0.011167657099605266
1.7072512927098078 -0.025959633899235425 -0.01250333180866456
0.6942755689353015 -0.04493357538027264 0.00392623511396422
0.7022258997699125 -0.8762761212390804 0.00030629181253539616
0.7083304491299217 -1.6863941202006363 -0.006827008301926253
0.7243502678359007 -2.4593380847848723 -0.01262969971680632
0.7482674678341956 -3.1829943036518844 -0.01666034153787772
0.7789262542370582 -3.8409056752772215 -0.01909339882419537
0.8163249750246706 -4.416613969790474 -0.02003002266757446
0.8601215955656936 -4.894189605470815 -0.019556182517000326
0.9097072779370705 -5.258284882064018 -0.017781764665890244
0.965217951646063 -5.493241631427309 -0.014786799755608366
1.0274640561288984 -5.578885685715462 -0.012142583838977226
1.0897305800279165 -5.493669050175176 -0.014581421456937464
1.1453046577817334 -5.259138964912018 -0.017385228178210498
1.1950036340371288 -4.895468594647138 -0.019004120502629278
1.238976741119063 -4.418313643497718 -0.019394425102073082
1.2766398201723221 -3.8430136797274193 -0.018504416691301838
1.3076963304838176 -3.185474201602124 -0.016338013359480708
1.3322327201051525 -2.4620908766419807 -0.012910908413092483
1.3492807415923056 -1.6892912928803832 -0.008209014797529796
1.3564596946009417 -0.8789262778727843 -0.003337387252573827
1.3648856113901664 -0.04534540122110346 -0.0038704150179171572
1.0273738749999137 -0.05797473922783941 0.012156213438405714
1.0300687427609234 -0.8768758032843786 0.008100450486194071
1.027120078398307 -1.6863014184472191 0.003959279536566106
1.0255389062512585 -2.4606082452657128 0.0013246727336201354
1.025245602809085 -3.1849061105856937 0.0001819796279526998
1.025060483145914 -3.8432884651045693 3.4613922948868165e-05
1.024863999059109 -4.419482138038127 0.0005486029616034891
1.024528505375075 -4.897389478934297 0.001524804077019931
1.0233086078051958 -5.261770051158889 0.002918394084899768
1.0223145887723162 -5.498747673316633 0.005443231316075713
1.0275682828061004 -5.589175044231785 0.009033199156659477
1.032841655275177 -5.499183676969313 0.00576752232913608
1.03190808563764 -5.262641385199882 0.0035573463694352236
1.0307936977129888 -4.8986944314004575 0.002450509778793096
1.0306163955005352 -4.421216394390909 0.0016966429808047835
1.0306440387544222 -3.845440259208324 0.0012745080064955761
1.0307747102371603 -3.1874398618267494 0.0012765741832733496
1.0309530742765065 -2.4634377975756645 0.0018852888214285681
1.0300089920374427 -1.6892267765017432 0.0033696066583903954
1.0275523262541482 -0.8792746940618679 0.0053411531581851295
1.0304794797705572 -0.058407851463822894 0.006117249224950519
1.358184878365721 -0.06540147659147803 0.020649707754451758
1.3561116354906195 -0.8774129029109874 0.016210236837470256
1.3448439293938295 -1.6846645555240127 0.01469287647764182
1.326689276597965 -2.459009738784657 0.015218464841062105
1.3023077518223545 -3.183026089009183 0.01697168161528811
1.271207412536871 -3.840904904631025 0.01913135014520366
1.2333562888884921 -4.416626064875565 0.021116623002540885
1.189050271144321 -4.893920327349938 0.022596599122375376
1.1375438569806022 -5.257313828077075 0.02349904464058785
1.0793899192171055 -5.495875393916072 0.0248903793868457
1.0276746884920713 -5.595364726216268 0.029781466516979563
0.9759784424069667 -5.496321954829241 0.02533581319191137
0.9178820976989592 -5.258206186838182 0.0243852267647775
0.8664735050938386 -4.895256328126736 0.023904127159967613
0.8223073705413837 -4.418400272099366 0.02278959017664086
0.7846393912256265 -3.8431033766893843 0.02104070214286904
0.7537710413626816 -3.185613358016931 0.018861868177497392
0.7296813368249799 -2.461891510922943 0.016642960307612618
0.7118344986814404 -1.6875633239742653 0.014955044338250179
0.7007459146055879 -0.8796168787487431 0.014393992752613704
0.6987891258959842 -0.06587229865527389 0.016088378685424357
1.690036733093475 -0.06859877729503139 0.028443017457741162
1.6839358726982117 -0.8773026760790201 0.024124890603368716
1.6645900147764467 -1.6816663422663523 0.02528898022660641
1.6302851201458874 -2.4546630435734174 0.028961319868547324
1.5818691835681171 -3.177284027647664 0.03359691259450241
1.5197938942495177 -3.833694007762254 0.03800782831185606
1.444307815214433 -4.4079088415366865 0.04138689246753413
1.3556750075786828 -4.883876649228972 0.0431556072394567
1.2553042582155751 -5.245044070441975 0.04325814255829418
1.1393769082677523 -5.482867235814263 0.04191044108775323
1.0277816235908495 -5.599036981104766 0.047102181867897865
0.9162048370831961 -5.483326454772968 0.04248116091873689
0.8003329372943039 -5.245961491234966 0.04440071244250621
0.7000538804719677 -4.8852492585700915 0.04486103014075295
0.6115457420788665 -4.409728930846814 0.043611175808981245
0.5362084636639626 -3.83594343094767 0.04062869655682065
0.4742875290227834 -3.179921070924363 0.03634661845903319
0.4259946965251654 -2.4575757094248423 0.03134232213533847
0.3917277810321541 -1.6845298156740078 0.026524892845526466
0.3723344293021941 -0.879388895422431 0.023304418335854133
0.36624570091826547 -0.06908522120046773 0.0251633036721891
2.0247765155463755 -0.06962003170071018 0.034425644811003464
2.016579778788553 -0.8763637416987845 0.03153166446800479
1.9896579499032379 -1.6772461384574044 0.035804808082799185
1.938728671282363 -2.4474292162026936 0.04275810933279021
1.866133011731805 -3.167513093370379 0.05033687539449804
1.7731107208015227 -3.8214166177957347 0.056980363858104704
1.6599744941109797 -4.393176499664566 0.061617939873348786
1.5271021477059563 -4.866483420939693 0.06351308911495865
1.3760293902116851 -5.226340859118209 0.06217608163553983
1.2118600639171717 -5.456582537013025 0.05729526153582185
1.027884944552147 -5.6000000000000005 0.055101937199784956
0.8439280488258094 -5.457056685630711 0.05799698506351665
0.6798129049715324 -5.227287782800603 0.06358784556641481
0.5288279975400049 -4.867898921824229 0.06563939888955651
0.3960705972629981 -4.395049872543052 0.06443236227575541
0.2830608210169239 -3.8237234192731906 0.0603771610906499
0.19013998661236903 -3.170198944493725 0.05405236833217971
0.11754299251619084 -2.4503588460149843 0.046261536550461425
0.0664157504298557 -1.6800696439079823 0.03822356491406528
0.039172279445215556 -0.8783797633353914 0.03180487989632713
0.03083779638169958 -0.070085348789935 0.03216686673240628
0.0 0.0 0.0
0.02561009533277069 -0.9286602391903898 -0.022228591979948174
0.061670846032410645 -1.7499672325021436 -0.047862814884732915
0.11154559991446789 -2.541089314853865 -0.06833305647805243
0.1825204781966921 -3.280577792275005 -0.08688202168039776
0.2755909231526549 -3.9509977799076546 -0.1022182197075296
0.3903727755320976 -4.533927403407113 -0.11370371925443375
0.5261716928889 -5.011551953111834 -0.12052259024634232
0.6811318366312619 -5.3665049686774715 -0.12210371045563335
0.8506429790191247 -5.583959361916836 -0.11938142939464144
1.0270630366731794 -5.65641813614147 -0.11691764645186388
1.2035457935460616 -5.5850203474891424 -0.11947959632065355
1.3732572658627606 -5.368651685500355 -0.12233448186370367
1.5285937162894114 -5.01482959058181 -0.12096213556130661
1.6650144392425246 -4.53839010448111 -0.11448316733798877
1.7807736329774855 -3.9566806589983523 -0.10354799620019192
1.8753313300366368 -3.287447873182006 -0.08906036921141669
1.9485226678177061 -2.548960811562472 -0.07187419345195376
2.0016256740525646 -1.7584770181898732 -0.05308808605030075
2.0432548133079416 -0.9371234696023772 -0.03156125911206243
2.082229647802123 0.0 0.00018019925285689948
0.36447592992383526 -0.039656271677133564 0.011671107564600294
0.380206839277373 -0.9245378915862004 -0.011644661694288195
0.3928888394480683 -1.7555584803550035 -0.030320377047575363
0.42557118035391134 -2.54765753981519 -0.04614851213709023
0.4716788896291945 -3.290025386552344 -0.05939594765696324
0.5325566874120161 -3.9629706522079196 -0.07029617228971041
0.6078560772562763 -4.548450060611998 -0.07837371285360067
0.6970992081293617 -5.028520845412313 -0.08325623110329783
0.7990685919107653 -5.385598154060737 -0.08468764338223005
0.9107972607789844 -5.604288104928423 -0.08325477559571905
1.0272541535042106 -5.676817052748379 -0.08173070191900325
1.1437773472311987 -5.605366548603378 -0.08322098798551515
1.2557162570648266 -5.3877830488620075 -0.08464935329793971
1.358074767983623 -5.03186426079753 -0.0832798139507368
1.4479474652040334 -4.553017090470289 -0.07857933412863313
1.5242096327675243 -3.9688130900666003 -0.07087919158398222
1.5865145246705168 -3.297129429977957 -0.060673319727466805
1.6346767941387752 -2.5558651214093295 -0.04854305406188302
1.6703349249816317 -1.7645506113705645 -0.034661710327650405
1.6872601758807004 -0.9336712371558032 -0.017991924716523746
1.7052655370385401 -0.04184954043858618 0.00470692250347742
0.7085615828649691 -0.06885347987247693 0.01907270510402293
0.7166730961231371 -0.9231544095954254 0.0010321282783363878
0.7180884244893379 -1.756826304054519 -0.012300790723529664
0.7307695888581984 -2.551625447425171 -0.02212939601795521
0.7525500196714444 -3.2954441840853876 -0.029649643482399804
0.7818542509612347 -3.969988106246216 -0.035389453932749636
0.8186425519217387 -4.556985378054776 -0.039384100680424944
0.8627320810700602 -5.038580689506711 -0.04155205015426075
0.9137980459777431 -5.396973013196499 -0.04185187265861148
0.9700794662674556 -5.615927312422451 -0.04038676234882945
1.0274056890773982 -5.687222469730403 -0.03873502625607564
1.0847994858584729 -5.617024626541251 -0.04022124196942045
1.141293875145843 -5.399198533820562 -0.041544481489733304
1.1927491745628955 -5.04199229328582 -0.04115894674274266
1.2374566379747247 -4.561657181778059 -0.03901186723382579
1.27516680211149 -3.9759848139490392 -0.03522467523813521
1.3057958132010146 -3.302769297626408 -0.029995465612040428
1.3294219346180922 -2.560128694297004 -0.023465807995986056
1.344569851354149 -1.766209872419862 -0.015301088143702433
1.3480018711656885 -0.9319656353136871 -0.004026346152885689
1.3570919813409748 -0.0722320166481036 0.011986115196563812
1.042533690407175 -0.08756517461249479 0.025683120765736343
1.0447134920184191 -0.9233889715487338 0.01336151722537797
1.0375623528724043 -1.7557726625701457 0.005907547521789498
1.0322289683699168 -2.552409432840144 0.002435227848524277
1.0293997800251904 -3.297072588999415 0.0009839047581940495
1.027494998306438 -3.9721719342423603 0.0006560655645826804
1.0262052821134147 -4.559737279390656 0.0010492465400426462
1.0257276841599698 -5.041995731871478 0.0019465866132313337
1.026797861126641 -5.401031522346984 0.0031466525634739374
1.0289650411455653 -5.619032087662716 0.004885929413682605
1.0275408612667083 -5.686582639818397 0.00698569614585721
1.0261845417556226 -5.620149117315847 0.005184155251752429
1.0285643447698807 -5.403299019106491 0.0037254236658561196
1.0300185244796183 -5.045476511088474 0.002760838930901566
1.030138690648886 -4.564512533078675 0.0020060327865495157
1.0297157557004475 -3.978316927486474 0.001581644645125417
1.0290091145147506 -3.304600685045159 0.0015759041673777138
1.027769301548975 -2.561182541513688 0.00220406321877039
1.0241805104734762 -1.7652699038998896 0.004191013009982102
1.0181062677759236 -0.9318492310364317 0.009574728409326059
1.0208259208953228 -0.09182093543589828 0.019708964448290962
1.3737697376674178 -0.09758172382161336 0.032476047731083084
1.3707112301344369 -0.923763456095777 0.02506937726114379
1.3556339269839417 -1.7531940364693757 0.023816205348276335
1.333633077676018 -2.550226430620147 0.026861228260533266
1.306390402020335 -3.2948499662353656 0.03156270206491697
1.273161227984241 -3.9695704308880817 0.03666479999654136
1.2338486776372959 -4.5567382170243365 0.04146589606844845
1.1886918258861325 -5.038755311796006 0.0454622187088363
1.1394248399713134 -5.397964314800862 0.04809839476243523
1.0881419144370117 -5.614124765006976 0.04925391909379282
1.0276796784988813 -5.6733255801502445 0.05113800019271179
0.9672859009365381 -5.615262185500348 0.04968704506633788
0.9162161397004801 -5.400274838539428 0.048953441109624
0.8673292192254357 -5.042305847981039 0.04670610163259401
0.8227517356590288 -4.561615404494809 0.043020883034268854
0.7842510017596436 -3.9758554307478198 0.038370906547963685
0.7520880812677306 -3.302565130338593 0.033122022804384914
0.7261207938790294 -2.5592026617998944 0.02777388073643603
0.7053064853245261 -1.7627118410238614 0.023374093585718816
0.6908448243839544 -0.9320005698141379 0.022587605687445087
0.6880810782133435 -0.1023947269072493 0.027807665396628347
1.707221426529657 -0.1013295317453251 0.039792654766954545
1.700032371406537 -0.9233765351177079 0.036116498651800395
1.6773331884624452 -1.7493231218752663 0.04101900320682187
1.6392421721020964 -2.5452901290821526 0.05048162498088314
1.5874983799715217 -3.288741767853927 0.061149265690265873
1.5225977861153048 -3.962121353683068 0.07144490418727127
1.444755858513994 -4.548004765666316 0.08041042004504012
1.3546175061030747 -5.0286603446182525 0.08720755183869866
1.2527924541863091 -5.387552189847665 0.09101418983535617
1.1472315827244137 -5.602594607011942 0.08971875052649032
1.027842471198214 -5.645047506003005 0.0879411939183599
0.9085241557921411 -5.603753341143843 0.09029012642138903
0.8031822298805316 -5.3899072636389835 0.09215284286778079
0.7017421905688155 -5.032282008223075 0.0888936794059768
0.612177546611774 -4.55298300316226 0.08258338946432332
0.5351102515316373 -3.9685393408684644 0.0739611239678629
0.4711541569796058 -3.296618025756751 0.06371896662557198
0.420385318023296 -2.5544131212899797 0.052588636658783806
0.3830143869129572 -1.7588520603788127 0.04188307510864442
0.36056952624090904 -0.9315034307430838 0.03492983020203092
0.35345488064395214 -0.10641059935212797 0.0363869135413498
2.045633155910924 -0.10209383057188622 0.047381706585531556
2.0374868926848766 -0.9220778029843409 0.046524577331619826
2.0086489941404873 -1.7442341148731533 0.05692862671274734
1.953872175107802 -2.53753112599476 0.07224059524486444
1.877015474914973 -3.2786277088354923 0.08827380328227778
1.779773646757989 -3.9496879271431533 0.10315157265428292
1.6624831509834215 -4.533235475986387 0.11564184052964094
1.5258783183386917 -5.011912258430821 0.12458043593113367
1.371238653746685 -5.3678461935396 0.1288664551523907
1.1991553296714415 -5.586599772864401 0.12429983422170307
1.0280534622039392 -5.6000000000000005 0.10563073745230167
0.8570282320462763 -5.587781599043119 0.1250137749653448
0.6851802442097149 -5.370249017726908 0.13029805348019674
0.5309484204560063 -5.015608721089438 0.1267245895450258
0.3949375964271132 -4.538316939574635 0.11845712095081512
0.27842001310930115 -3.956234043921583 0.10651341474303935
0.1820484538351627 -3.2866382643882233 0.09190205468169574
0.10591435554139603 -2.546744168684402 0.07559631309045374
0.05134743333061586 -1.7537440904328254 0.0591351344119016
0.022210772076266636 -0.9301348284558556 0.04659165356115279
0.013853162713867084 -0.10723167323633694 0.04509031227423686
SCALARS Stress float 6
LOOKUP_TABLE default
-5473.273802336098 -30360.323395173116 -10750.079159252762 -5554.739770676803 2290.033514384683 -2885.71340884682
12096.093556026988 7781.164552101898 5007.519608612443 -2467.5237758219255 2383.653513123507 -98.13495423978557
11965.37734278251 347.2288941263992 1173.2977032492274 -1163.2575859385474 2328.6639765247246 -809.4876794904712
17307.40481648633 1609.2133352276628 2131.407408433598 -1199.5762532740011 2072.002608885267 -878.3249003958898
23367.58982271413 1795.4288574840627 2862.01791558214 -1130.5678319643832 1851.6199414230814 -1206.3194547124351
29694.126104780415 2360.120159405963 3829.0960223299026 -1025.786882929048 1454.3409963554495 -1487.5446884376352
35854.77881051557 2857.9184753939717 4791.595832174222 -856.8505285804823 907.0892946622895 -1776.5162515659376
41668.67067615513 3322.8865956467116 5769.530048448993 -624.5960911451887 221.09152020404085 -2060.4678681587425
46564.21865816863 3694.8598700416865 6665.949587176734 -325.08499982966214 -447.608819338641 -2353.183605445563
49757.37136305251 4066.1797596347446 7358.153336676782 -60.40255923337473 -637.2721959379558 -2667.695755804308
50928.339040577266 4484.216694422703 7731.014098597617 -7.398254641218898 15.318880283594087 -2882.219206756959
49793.52978784928 4066.607273698146 7360.830178682579 45.221926321846624 667.6408889119282 -2668.4399296260517
46643.689807448354 3696.0455547648176 6672.240673963554 308.7524730653811 477.08867195177885 -2354.6587204318275
41806.6734170409 3325.53429460264 5781.305646202476 606.3167488686641 -193.46056322339953 -2062.7117612174998
36076.784407893756 2863.585633547194 4812.042442641251 835.8923179196853 -882.7266209651223 -1779.225629817236
30036.436727248634 2369.620801196775 3860.3658516257865 1001.11763175781 -1436.3750689354047 -1491.8031060926585
23884.139988950952 1814.7195774132874 2911.1184033280015 1102.2930122818905 -1840.1284322837262 -1206.7272366373056
18056.969666923487 1631.657378343514 2176.837932685479 1159.5464285719981 -2085.257602931562 -900.8096808142853
13243.698512597368 480.7803026354234 1373.7450263047342 1114.7877620035083 -2292.2018377550266 -734.8252397480873
14867.352224823344 8270.51932583009 5303.404570966275 2560.2382489331712 -3065.0360952973615 -539.8484065365571
-228.87195844094808 -28954.228733321906 -6607.637164754777 3338.90148728756 -4014.7420921369876 -1119.244759776317
-6068.481064131986 -26333.951915839578 -7939.773077783465 -3565.3558178159583 1892.061644621503 -1658.8262007049505
5782.946148276772 4217.123501019371 2375.0290509865595 -2954.2070800683096 1584.2805500394138 -497.5558421836595
5966.334565476703 -403.11386878379005 38.95777323248915 -2457.973554210284 1437.4468436103855 -872.2131908013172
10797.176389694336 74.98184794734782 741.4765726635802 -2489.491727291287 1270.9487311112298 -1131.064963553855
14606.94642389963 -90.66834973834368 1019.1026833120545 -2433.493107150348 1102.9275392204495 -1500.5935235844754
18638.97468114778 -85.67890808126651 1422.2071784463358 -2235.2002396579023 869.1238132000335 -1869.08055937974
22567.05858657336 -85.58494414542432 1852.6311029967346 -1942.1049039861014 543.8295783255979 -2239.682423319935
26262.923513682465 -119.09729697838614 2299.4459194606557 -1514.585945087265 142.32768509264343 -2622.17497935943
29393.05933883119 -155.84445533258355 2731.792556685569 -894.6612509191737 -253.10804477166926 -3057.569683210611
31555.105254621565 142.81375668953086 3172.3161426819934 -235.47369290317658 -377.47107709902883 -3603.7495394698913
32570.60246719541 952.0770140709011 3607.630710541496 -13.190826142983532 3.669522834389144 -4027.370636229002
31594.301662861308 144.53793154817322 3177.79042662807 208.2519970463347 384.0794722461384 -3603.827629980375
29477.887101836008 -152.24923617571608 2743.381501653746 864.8772365232247 257.50056134495696 -3057.626115428285
26406.762968883464 -113.32919755096194 2318.3687935675316 1480.3773135936303 -141.6583232262343 -2621.9980517104627
22791.057963934276 -77.33320674714314 1880.176069857369 1901.3966872243825 -548.5689028877274 -2238.834548484138
18973.520588582727 -74.93731133434603 1459.711535164084 2185.6764979657546 -880.386988608621 -1867.225226627042
15089.574445157437 -79.23531152234325 1062.1197545330297 2372.736688793667 -1123.5644322457833 -1495.7645085782272
11496.725687440281 100.09256167496558 802.5048289032486 2407.4721288688925 -1291.9838087838232 -1130.080242344894
6946.628451000407 -382.58499963766434 63.289177636022146 2331.3827151884116 -1496.9178361496877 -838.251471981833
6747.857156797825 4424.525106919436 2474.3088426533363 2786.4359438919696 -1811.7140437506498 -713.6689032311486
-5625.770893855814 -27195.2312927675 -7633.553672983779 2231.0951542522644 -2240.2834304169965 -673.7579663757683
-4835.879514481504 -18352.81566429999 -5009.205269198291 -4185.949568306675 1152.124670955209 -549.4019593141677
1984.4743645527421 1287.0739317478076 1074.7863202138667 -4798.601868318717 901.658001120354 -773.2661015663126
2095.694809957463 590.4891041246823 102.0831485966481 -4185.50509674034 710.5357804552376 -995.8167479456921
4627.191221156722 -98.02908534651034 137.35911631584224 -4256.826345773525 576.2176121644251 -1442.5708017275538
6939.65283743283 -65.63026446681705 392.1536647411509 -4112.252156811124 471.26415613442765 -1903.8338210974348
9000.665944131633 -83.35972201538345 579.9847812509648 -3795.806034842841 356.6404709572053 -2388.3707307692453
11052.637986212736 -70.35190156570917 806.3043666010389 -3325.265707599258 202.83597529341674 -2877.329186690313
13025.09899785868 -109.71091540252237 1046.5762999491988 -2641.447081126771 -1.9725672716733023 -3393.0969357145364
14706.117797939387 -168.9648687243145 1266.4177082741023 -1586.3518267997288 -262.31585462723984 -4000.4312010236517
15849.131191818758 499.5568447969781 1613.1826489984815 -342.38239975027966 -400.95640997947356 -4829.641394250207
16899.253332896653 2666.0017644207283 2450.548218415076 -21.079094546203777 -5.639835680193998 -5610.373078710804
15889.59799121407 501.5810635245092 1620.805364816365 298.8256920349623 388.56313373618593 -4829.206239246875
14792.776072289083 -164.78065412862372 1282.2089139723096 1538.5170199462877 246.63750534847244 -3999.4305577409273
13169.434361330712 -103.10995810005667 1071.4196615298101 2586.179651403194 -18.973205385923684 -3391.216494993031
11272.09751168622 -61.009268084910225 841.0839132857917 3258.915886202062 -230.51025855133506 -2874.0599509326735
9318.138372593545 -72.14854713563456 624.049420188058 3714.0751643467615 -391.60221239944434 -2382.574764614973
7383.055337626778 -53.70407184615504 442.84723297371096 4009.7768858982563 -511.7292574189187 -1895.338864922785
5221.5332637985175 -87.79157173711076 183.06398981514417 4119.923231004287 -617.9270295739013 -1425.6581314288285
2690.3024996185386 598.3136309986751 74.74683753214462 3986.562371088856 -768.3897947053006 -999.555270558908
2544.363470160334 1704.8048883862573 1186.1700775251622 4533.40365662746 -987.3468153776337 -785.1399910131939
-4812.818368208633 -19041.345326806873 -5117.552366632204 3956.670256924577 -1264.236153080331 -525.0901369051691
-3537.997272666447 -11090.26946019178 -2649.30622063108 -3870.948953292858 519.7347676701196 -193.74335520035967
-618.9721498278268 -257.40354399774765 413.51015832185385 -5074.654859058055 294.4684387050985 -671.536196339281
-1432.7350737387476 751.5333863779005 46.13109189621679 -5095.016585048969 46.447761763712045 -1029.6220577446695
-1129.8082985245446 57.02685045456961 -179.04877678701945 -4864.056658654135 -77.20553933607549 -1516.9140554779428
-683.8052253537434 -49.18026961675107 -116.7909888852595 -4664.092570319075 -113.77993699413881 -2020.766313688648
-452.3808913962151 -20.00601796303279 -61.815147453507834 -4302.607084633881 -123.75393214044956 -2534.4477536731783
-235.65726563965006 7.526177332484984 -4.070866404286111 -3777.254253712964 -132.8031995607538 -3059.498102616901
105.73934529192877 1.5148424530712497 86.4054395523766 -3038.677304145337 -167.33950842556962 -3606.3998515678472
416.762837370284 -161.85812789119848 105.81893151805987 -1830.2910477311193 -323.95394861221564 -4233.669100445901
426.8796246293524 796.0190810880594 295.21650997542207 -113.3881454703504 -526.621455738728 -5133.821996384167
1923.8659145732875 5646.362588678688 2007.818163859099 -23.66698359678246 -14.00589768198304 -6293.817224276532
468.07682434240127 798.4039186447404 304.93988437389 64.44111772319911 497.13778118050726 -5133.227995523173
504.1006449012035 -157.0031376330546 125.73919029835757 1776.4100871300182 290.17724350516465 -4232.332710584583
248.70987221255592 8.990385829991954 117.20953983273819 2976.23248030216 126.9002670013093 -3603.9828090846186
-23.88931253200319 17.632074020680374 37.901517761967014 3701.9823855074924 84.36423128505068 -3055.3386419935796
-156.87466615234132 -8.513146540500706 -10.127347409020345 4209.165205473975 68.06045763989889 -2527.5306356266055
-290.8594840406317 -39.85100440246164 -60.727862860932056 4545.114835144058 55.24828227460482 -2009.3191231040482
-675.1731811205295 51.24323725795546 -146.1937035009082 4708.518717637419 22.73246784885853 -1501.0456100964825
-1032.5315951520188 827.8711304840763 44.21124866186578 4898.758516821771 -91.44863783434678 -1020.8980347747299
-297.24309908076947 39.715703500370395 467.0585993324952 4959.068828378027 -332.2322441232273 -690.3466133911164
-3604.5388998545523 -11622.719963845062 -2820.6714161015593 3833.984737038214 -566.6752519443363 -303.66551513286464
-2778.0550571402496 -5551.143180705731 -978.2300457897055 -2941.94185375868 -7.630013209002499 -152.97961514175603
-2610.237158159251 -738.775126777442 134.32865470587694 -4267.531015602392 -275.8809310741764 -521.0555133585777
-4812.032633724601 602.498629266408 -89.86077511130651 -4688.168051596867 -625.8713265402465 -951.8814527754131
-6694.2272245839395 139.20553464080203 -469.57978162050756 -4369.380536171588 -742.4044858305888 -1429.0863129633613
-8275.211968583568 14.536016421309785 -602.2144421239186 -4116.107163306242 -706.8809714683691 -1908.2732194291425
-9914.102551936454 44.323037917772446 -706.6331590330979 -3793.349590383252 -606.7405648912998 -2388.7864433840778
-11543.762262422282 59.33887460370443 -828.9919078683523 -3330.880711545676 -477.5126327884218 -2882.511178698275
-12854.543896733147 170.3977660801228 -865.3784637903716 -2672.9322688771736 -323.92125237660946 -3378.3343821948924
-13803.71027982972 -112.05752081851602 -1011.9567530996851 -1698.9575824731976 -288.32987926133654 -3907.5011434279695
-15291.018422028177 285.4013960976459 -1369.230002606016 436.73254328489327 -589.364054330827 -4640.077666037294
-12502.549297193258 10217.952212960417 2060.4609187364304 -21.302712452829077 -22.557505794273297 -6153.027552064405
-15248.891707220355 288.2032390246083 -1357.3338708933074 -480.8130856174817 542.379750748679 -4639.682831189141
-13715.307571203137 -106.42417491781947 -987.7491080645307 1650.3740617035387 235.93388284169083 -3906.5882787510486
-12712.415552356753 178.84930869441104 -828.3874408968277 2616.5641822660864 263.27639984522693 -3376.611164834493
-11339.340232651559 70.25000758077817 -779.5608429632903 3262.895168811977 407.38004318187 -2879.4194158858427
-9641.207977435466 56.23662501525326 -647.3222679202848 3708.6399803038553 529.1061530158261 -2383.350539756189
-7942.146195821222 20.27724232972613 -543.1122340141598 4007.5998041023763 629.0865815279037 -1899.1920572274696
-6353.218453583791 140.07184314072498 -432.82564228173084 4230.686582415124 678.1962798855744 -1416.7722225707862
-4545.238271331142 675.7913247360657 -78.38489501556856 4553.746331091766 589.9640043787443 -943.5974932623429
-2433.6491006378656 -573.553515270873 151.30373542323215 4235.693737959972 261.2366827899467 -544.1569821323856
-2832.7562034099137 -5870.637493714147 -1104.2526748349374 2962.9733453313174 -8.262035182164276 -255.78022157785907
-2587.0617670378147 -2221.4311991548034 16.691192751594585 -1628.8703447950677 -471.0676580571249 -224.17875918743886
-4186.430277006336 -690.5025090138471 78.69834184754805 -2458.7225279286617 -859.1511263658294 -374.05093537054057
-8131.460167975823 346.63163854700383 -313.0170328017736 -2816.48863952948 -1370.1188049935922 -747.903649561269
-12245.681337826352 148.22727397141287 -862.3398475722125 -2619.0665595329697 -1479.860870268313 -1128.5274042264612
-15977.670116231895 50.26296205554411 -1235.7767482251813 -2438.06917860308 -1358.2060999543555 -1499.3412941454042
-19567.60417371809 54.01640791041311 -1555.0237171880688 -2235.226275187941 -1130.8151036773065 -1868.7157775336361
-23031.965964713163 84.81204044844726 -1866.8354887390917 -1947.9526908303496 -834.1055573026692 -2242.2826000538676
-26363.433523862765 50.034787010330575 -2230.19817257878 -1560.7748435065153 -493.9166401326723 -2621.4649944942703
-28261.85373657516 550.242527762878 -2173.4201413087944 -905.6203296405988 -5.1442386535224385 -2937.9576050725573
-31905.443156952686 -1925.021028144513 -4002.3566134099633 460.3475484670627 -230.12490872250243 -3357.0700527376816
-26409.464029976378 16312.59839728521 2221.6704309430506 -13.478017155873495 -32.44108506307674 -4461.493759649884
-31861.391983638343 -1921.7990425364703 -3988.0903146607748 -488.2295487428704 162.86770723161044 -3357.1947548874605
-28170.373740252704 556.6800207473453 -2144.5484897422602 874.9236131194125 -68.96671707830232 -2938.1419049579495
-26219.07896752921 59.53928196539367 -2186.521285847607 1525.2580750277675 409.4441471682306 -2621.5452261090063
-22830.56277065488 96.79864889656753 -1809.4160522610484 1905.3262292870122 737.9476177766549 -2241.915946613297
-19313.84833450608 66.10201046542085 -1488.726087210294 2182.551750238875 1026.032270901946 -1867.2705774832705
-15699.744256460675 57.406683402089946 -1173.399364783674 2371.1081940430586 1255.8649280873578 -1496.0336469715794
-12004.323168157895 156.40693597420443 -822.7058594923886 2537.972872652247 1402.1752169726506 -1123.4506658191058
-7981.915521233446 397.7266354758678 -300.6332318927618 2751.097137454335 1340.5047121216223 -745.7319573973797
-4120.931145157811 -614.3426634594402 74.11366878347832 2458.090770352165 864.8936387149056 -390.4409850162952
-2629.817707008751 -2359.8362505433656 -53.86063265656904 1650.3433507885188 482.4014827327286 -290.83050209894236
-2259.7904453008987 -959.2521124135742 700.0666036914567 -803.1409921754644 -943.0691745580003 -270.5667142585342
-5074.033326537233 -621.6216496269442 218.9637324690565 -1151.7126802141931 -1525.639567358584 -312.84059902093077
-11620.485694221956 -489.79017356737415 -917.1632222048313 -1294.8552071998363 -2263.7750883056406 -621.1058792561952
-18667.46473282037 -1269.4495496233092 -2190.468953185976 -1244.9989458273462 -2363.475630598728 -924.3762293991603
-24822.859622252792 -1885.4271045807222 -3134.8810039071695 -1157.6963643502431 -2130.3988014520537 -1211.93765084823
-30641.616861595296 -2391.674760970776 -3973.689212972176 -1038.648835824039 -1739.24001540828 -1496.474158731762
-36289.50962366632 -2829.2157826784505 -4789.687537520302 -882.5546411974615 -1227.8764015052361 -1785.0721698366585
-41766.78607646955 -3480.1812409491527 -5722.574176002455 -646.9171783472086 -620.6939438671457 -2049.0123447207966
-46649.02896911173 -3244.6569622681304 -6393.629184393875 -316.57399778937355 251.35862203579458 -2361.5600520579565
-50970.0607762703 -7704.910146033773 -8987.617645653565 879.816906876596 1825.1508881963118 -2120.8441957218947
-41226.3732538168 16296.476310781356 -982.4090504735142 -8.708929493766334 -45.1090842756648 -4373.788236411439
-50921.4736811189 -7699.882327002249 -8969.962386495938 -897.8082953633941 -1918.4491030179481 -2121.098702008082
-46549.30995554712 -3234.8121566212158 -6358.209901884951 296.87569026413394 -353.5436254480216 -2361.996501217383
-41612.58200551104 -3466.1782255429375 -5669.817842175385 624.4152615412421 505.08206712224285 -2049.465730052813
-36081.29028458182 -2812.8652260968643 -4722.2062521166645 856.262857901796 1097.1251169815266 -1785.2434813620496
-30395.483643350726 -2378.186122345301 -3900.296888672039 1007.8398399304343 1597.3682277004598 -1495.92012663348
-24591.962806941683 -1885.0419136623937 -3076.7131712334644 1122.0381255462949 1992.7012252129484 -1210.3576015148178
-18543.700281037658 -1286.2834185478569 -2177.380983295179 1207.085544763253 2262.8989577141538 -922.4040406630561
-11645.217982870126 -495.99004267515363 -953.7320436491568 1267.5805133968756 2239.1952581494893 -622.3771973802357
-5155.3772294015835 -615.861955130765 169.78485869196842 1153.3515044468252 1562.2185377103685 -324.1014564646047
-2359.4730042758856 -1043.463655312802 640.7048575043054 809.6530412799751 994.5706161612429 -315.0330932020647
-826.8124791008551 -18382.366162977745 -5762.753592623579 -2857.175543234119 1524.2820529854646 539.203545399334
10836.437686965282 5210.9233971746935 3796.1951156497025 -1277.2731650607006 1644.724008231322 -169.00331221886972
12585.871891858167 630.5745036590172 1659.2414010888042 -456.4500798504701 1542.703062244201 42.224769335206425
17820.439306632372 1545.3945500328523 2529.6499403672883 -496.14673144690204 1370.8329119612572 -28.880560837973622
23558.320053328112 1815.4836563644542 3381.6375227152284 -492.74964895229266 1046.2697513102673 -2.963852750267475
29482.576306631338 2318.7783604016413 4446.752295453621 -505.34065044730323 625.8035975107005 2.016197297823311
35305.26971033483 2793.337983052815 5591.339810628414 -517.0362636544589 97.30176816115457 9.461304181694114
41044.022237232624 3302.9842953258303 6894.433582266842 -544.5599432047457 -486.44771038333346 0.7497383523121623
46691.150558355475 3808.3902762167336 8406.722379664758 -572.1836711501504 -940.6530177892682 -61.39880060182255
51579.78766875175 4030.7216554204556 9865.448361840961 -460.718783285792 -859.5008721255585 -235.85087004950947
53565.761528885145 3743.0525737505654 10413.784954984114 1.5508637005097938 8.137088717758516 -418.555184478811
51590.55487903949 4030.1223245726837 9862.418029312159 463.79631894935454 874.8597981408429 -236.92449644140643
46714.202757938736 3807.2122660143987 8399.865078644756 575.1475509960588 953.1295651220881 -63.508093777728774
41083.068003238615 3301.338708696067 6882.075518426724 547.1745629630418 493.60377435745886 -2.190646729904084
35368.05226908606 2791.7109576977537 5570.96977490732 518.8652360570409 -99.2272146204962 5.963188502107392
29583.473991273648 2317.8815966382904 4414.272196403037 505.44088752700236 -642.5224224172348 -0.1847814884179213
23726.391691261033 1818.3625162119429 3333.790612441757 490.8074552773609 -1090.5585870601883 -6.056814404126434
18096.486733627677 1551.8321780717226 2452.151625259886 486.6384127769063 -1447.138417319177 -11.20120945328175
13130.43265366034 673.3194673937913 1605.7197408773425 438.80679935347183 -1742.0003322118455 -8.337886961443694
12117.527040402056 5374.500524588744 3809.3186598198927 1266.5630491635654 -1471.8561064242974 199.36538747213825
1691.5885726345232 -17411.37115436102 -4101.705493353485 1688.2421935884017 -1243.4439653962736 -993.3717977972324
-2720.2585053000575 -16784.936720463465 -5086.414084085362 -1833.5266536563024 256.7103100007848 -50.52642969836022
5701.150764984901 2777.895926144716 2006.0308483126844 -1592.901644364919 553.0745444101616 -153.5938655870838
7177.394810314551 -150.43502845834237 645.5520342430158 -1254.131676065029 940.9188683252663 10.084288561270359
11527.05196877411 174.3834129343186 1279.0228421711438 -1302.2102224586922 789.0318417408473 -13.582057168736931
15178.897637841348 89.87913213853572 1676.8652655332664 -1341.0509499172651 587.9692860236744 2.134997462820471
18982.628488958046 111.80930957919165 2215.076213439105 -1348.4325674985512 320.4193690829224 2.6172677180189914
22726.804131241675 141.89722147130516 2829.92800005785 -1360.0375393901804 0.6305599153515302 -12.869053808503207
26385.907309209153 205.59715767971872 3551.78329525908 -1396.3396634737012 -342.88435639685656 -73.89134952714875
29884.893607836577 224.8169335387979 4371.97505039794 -1447.6883229856405 -608.861900361456 -250.84566215626919
32684.94330216263 -254.99271752250922 5003.083233345192 -1187.8307796438457 -561.1378543051949 -636.9352384646404
33521.6500951429 -1355.5823451739902 4942.665243955132 2.2450091314546707 -3.1349694648109425 -1021.4579451851458
32697.125250458055 -254.51217781037064 5004.457021458506 1192.251810172941 553.441169087562 -637.1663586082736
29910.578258581238 225.76271719269758 4373.91806614823 1451.8132753609177 596.8338049342233 -251.0520781125431
26428.2149841644 207.01210723996599 3552.535911652045 1399.6460346794158 323.3824005720636 -73.41419173402926
22791.768007186594 143.8250639406644 2826.3727945612954 1361.462551057853 -31.207253096254306 -10.388055099749225
19082.058702379083 114.51803160686788 2202.6715200066837 1346.09138054671 -367.2426046313892 9.830648029740948
15332.815634981285 92.94194720444678 1647.2081760928472 1332.4038645338242 -656.7080322182811 17.203383217578395
11786.602149046885 186.9269784543711 1232.2611554928542 1280.47814377371 -895.810526804595 20.542449651531467
7623.782594283128 -143.46642384671134 561.9467190712658 1198.608572336693 -1075.352128058335 40.76644642315642
6159.534727809357 2829.721226163759 1914.8827217299072 1460.450407906953 -588.7365037693058 111.82179126174817
-2326.4803315330146 -16756.457616809515 -4944.019939796068 1088.3458627905432 -176.06442372674042 -1047.8998543274545
-2526.597735383748 -12189.322612556181 -3331.179512463843 -2419.946895266126 -40.7052368716326 -1010.6339540580723
2488.094749267016 934.3022067801642 1084.8468705932864 -2766.329719698916 126.4263140483266 -151.88821672327452
3263.874931288936 487.62311870580874 515.009956188747 -2287.6777524881745 379.6837588861947 -46.3120543875191
5542.816871670419 46.97329527343335 600.0567364229704 -2352.614690447972 322.4813243225354 0.6424949493807404
7591.175353536558 85.48981874803458 854.1483830545891 -2378.111867213645 204.3834634751564 -0.5019692495519239
9471.90878958675 88.65230170738099 1101.561286922132 -2387.4116991428377 68.96132207135966 -15.351523313115123
11328.50702412123 110.36296677846485 1403.4068776554661 -2393.1301356994595 -87.55634825974882 -67.55984261291667
13094.271896190367 193.10037292815255 1765.9445285172862 -2419.1316730173194 -265.30180516373497 -198.25218366989142
14827.94311775774 299.1772586375572 2209.283693284114 -2503.1996637424877 -460.04608352796237 -505.226504104622
16343.237682711242 -503.5102859351351 2410.9789641507105 -2165.0913727649167 -511.2774792011627 -1143.5476319594077
16231.666040318218 -3116.459739641102 1636.0183941113032 3.2930138869094217 -13.133319475141748 -1881.7966036132536
16356.304234487574 -502.8374066451263 2416.4400694792726 2171.5503864982493 483.17881122355516 -1143.0126179015256
14855.051859419418 300.49045880479923 2219.449961341699 2509.128525340387 426.49360886283745 -503.6886956127398
13137.584933256552 195.00386326160077 1779.0515672374204 2423.6360986691166 222.82771333941875 -194.57399133236365
11392.172472755383 112.89231306202008 1416.2899762307782 2394.3682589987434 32.940855334105855 -59.389141367156604
9563.61051796387 91.5579686759005 1108.75564857545 2382.1306031143104 -138.54037674142526 1.3884498697022059
7726.7571558595355 89.43705110128727 848.16123646791 2361.121141053574 -291.8408686727763 32.6504939849746
5756.76230966795 53.19923804139314 571.53921594979 2313.937417869208 -431.05903876765046 55.725907526779984
3514.836787775855 476.8608114598602 423.64820025451104 2197.1985913769063 -489.55217748799447 64.39318942916829
2735.28887020797 1125.4763677164806 1025.6934684406335 2583.4817342381853 -148.86445378370058 -48.016809614266805
-2415.777550612236 -12174.797715497845 -3400.9341102862904 2210.305747734412 90.97063467020224 -1416.2402013472074
-2097.2220459222 -7713.228065376214 -1683.6440171672814 -2288.1070817354243 -131.4203592968661 -1108.058366790229
95.38902027686976 -159.53674322156746 590.8021984468702 -3039.195406408071 -125.5024166142986 -272.45042893592444
-352.9540598945963 541.3582753049704 304.37663355540093 -2889.771085924728 -78.51800702231849 -68.74178294682089
-213.83085375936358 60.465779810734546 63.58416717099854 -2729.6224816039394 -109.76261209453767 -17.005212030965193
-57.48128224968056 -16.05220450819221 38.029673843376045 -2729.234457444699 -147.43907890685588 -14.571985410617499
-41.71366247724686 -2.209544915026071 33.52282032022647 -2735.297778137359 -167.32494285470798 -43.19412903156032
-66.93703080767615 -15.122171588078828 29.48881186319555 -2741.7167182395224 -181.0351570085839 -112.4785549905243
-185.86005259628084 40.95918616460681 33.87840071473272 -2722.824093349619 -216.22652346323164 -260.7971529737144
-158.4055601044173 309.7722735165951 150.5648190773082 -2809.945295889355 -366.40455597238923 -579.202137469751
364.0563273847659 -725.9888278758123 37.86929380175386 -2750.2886797068804 -566.3720505009925 -1274.9166113763852
-1028.653509760704 -6187.6607595028645 -1940.7675331858338 3.5807358647103773 -22.624246331420505 -2416.0853044432215
377.94136407179985 -725.0916717848253 47.484240340526 2757.307455770691 518.9198352760361 -1274.1593503294723
-130.08776704828665 311.52881322503697 169.1120654407127 2816.368545847903 312.5000416675441 -577.1518635203894
-142.02955709725248 43.52639614788659 59.6891295127256 2727.6449868617015 152.17369654724914 -256.1409259750848
-5.789917667331174 -11.79091545384833 59.30322499159859 2742.84080385635 104.31244421946388 -102.60477292378026
40.21101151478397 1.7232939302654149 61.63718941261048 2728.820557622207 77.41826767029946 -23.127955712101897
54.72928328658405 -11.514973343500687 55.98363099093899 2708.5388603320207 46.513587810451796 23.777563014387535
-69.15256927265371 59.0269560290912 52.30296176334734 2683.195335820857 4.3060733316839706 52.40903534777841
-211.72640508972987 565.8704421404004 246.56595565230202 2796.6408238927024 -3.7461288774005204 43.33059487986728
225.9853072970949 6.761766556553194 536.4834245313127 2941.5789688821155 118.62332654351675 -204.85197132867367
-2094.4811685927234 -7772.935242256395 -1822.1985784305843 2220.2328301965495 172.01736518149588 -1350.5179442561325
-1897.7430611320415 -4097.386496334511 -377.3139975341884 -1732.4172328889952 -221.7006442071211 -958.339234994034
-1840.6532163722914 -571.7877358049473 392.0578055898443 -2574.620557163887 -357.94964962037585 -277.8296683934074
-3817.5976765962923 359.58725404661163 50.06880582117813 -2661.5207022418945 -505.8644250220714 -71.37691232935421
-5823.05005769592 29.07854460913557 -449.8804163131281 -2419.503097774743 -540.5945698242411 -8.745660679286908
-7685.326280984598 -84.89395484091358 -764.1710020885572 -2369.431938078415 -503.1686303565758 3.1570421410146943
-9579.650159608413 -103.87812432551102 -1046.3859788585091 -2381.8572742641386 -406.7435580470634 -15.728043430405224
-11433.539338536199 -108.01876888547305 -1326.4837616646244 -2387.5479367995504 -280.25437048272227 -73.43748973098019
-13396.876304300527 -185.00578222493715 -1697.8414636534728 -2366.2169254641294 -156.22160660585467 -179.240281299214
-15203.961868310043 229.00918059434912 -1953.3678217028732 -2326.5198616555867 -195.09394182722218 -405.0855674106614
-15371.99399423318 -126.57313287517033 -2064.670915498647 -2941.3460516684167 -602.7866092682208 -931.8414229657214
-18937.54029308489 -10722.276386952048 -6237.020061626463 3.3717532747905095 -32.317916356650535 -2527.0108381176956
-15357.260310342332 -125.46868283950117 -2050.849557086292 2947.9829524559004 535.5427791329237 -931.419641042406
-15174.376150148717 231.18870170217113 -1926.3098064643164 2332.6890802765206 120.29811395103609 -403.7750081282774
-13352.456221864708 -181.80286156535922 -1659.0956349838116 2371.0690261147533 69.88803921690257 -175.90125136338386
-11374.891451694371 -103.87225105603984 -1279.3460395678062 2389.253943604435 180.47338278284047 -65.76343852070339
-9507.662419756703 -98.797343760517 -996.8351958440923 2376.7960438810765 295.4438433649294 0.6757693554338933
-7601.599753914447 -80.67057466765011 -723.1495570873683 2351.0970562438015 388.1044887098232 36.328741317831486
-5737.542772870036 32.26020551965685 -435.73194185101977 2377.2284051975194 438.0280218823498 53.284490742036105
-3750.178980445935 392.14191990606275 24.8606837352285 2596.1397198630148 444.762697923393 19.480227608760483
-1784.6038068735234 -468.8802986229531 344.0280787495223 2532.696049164551 360.19850469661327 -231.31931732374318
-1926.1799655818143 -4163.004479540951 -510.46262930454236 1716.7629262509793 255.15813074886168 -1119.1335087493308
-2030.8990382086179 -1816.9029672926063 494.4362880697055 -905.968492499445 -397.311539338909 -622.0911582031665
-3471.773037558875 -590.793790348808 378.3591042855665 -1439.4241615562505 -662.2902192790003 -189.08335345981084
-7207.0134935059705 154.4171567858935 -226.56665046733124 -1535.3735373558254 -978.0217355798633 -65.17431644958174
-11369.54510975256 15.834567973364766 -985.3757634194498 -1376.5352750034108 -1015.0093701172474 -10.308422063440318
-15303.738820394008 -85.08338466608714 -1600.9392176659933 -1331.5766005879807 -895.6195403374111 4.763477168438037
-19109.793366053564 -119.41663956601606 -2168.5694226943842 -1342.2153530480603 -670.2826137844646 2.679781947479401
-22853.31089644995 -147.48914055360925 -2762.8537266614585 -1354.6848694817133 -378.5641668595078 -16.865109564872363
-26341.34953808602 -85.97875676655894 -3341.9317575216755 -1329.5359799499852 -81.37098952458913 -68.28409958791622
-30435.31845242806 -493.7087533397358 -4395.701276617505 -1371.4958875634616 182.24969215110508 -107.09973354302606
-30942.32189707253 2212.776783421804 -3781.245030487461 -1857.721328075811 -380.38831056021195 -348.2541432329753
-38374.34740453651 -16528.80336906138 -11755.299057705852 2.3383715027557432 -42.927817973822954 -1860.1996717710597
-30926.62014515615 2214.0390965651854 -3763.1808170943505 1862.356384347735 291.4151721961623 -348.6647105938637
-30404.165458714688 -491.2060183313122 -4360.0494045183905 1375.9169122789885 -280.20171169682965 -107.66603247424442
-26295.72018476388 -82.2960424237017 -3290.106709369039 1333.2765586681874 -30.10362512814598 -68.36457473843438
-22795.84005149773 -142.71068233394368 -2698.1474618650445 1356.6743692066452 251.92956705509314 -15.132257526839275
-19046.30566077299 -113.9453391586836 -2097.752225192816 1340.279434486254 532.4698382633325 8.89702587661815
-15245.761640628418 -80.06525379109618 -1536.565599326422 1321.4211944747742 760.0920532778443 20.7923526224206
-11333.813212602177 23.138412069662746 -945.4854343496492 1352.6388517846751 907.8731849024978 23.47200341562344
-7199.642492266147 181.37736167521535 -224.7092303414391 1503.184316552452 931.6811484839944 -15.578536273175507
-3472.940132072771 -541.845649997712 341.307165385358 1425.1993520981882 676.9935735233184 -164.82235844641895
-2071.0039402405523 -1858.1464768472235 391.1646378987002 902.686690061651 435.21954604070163 -714.1135291752247
-2180.13324377282 -996.2610904329574 1047.6652402055802 -347.00193452115695 -759.5894552755545 -403.174215706411
-4784.221130722017 -701.9288228703681 432.45614446760715 -563.2910812060246 -1140.799621615577 -131.45089889362941
-10880.307253162997 -674.1170963275378 -838.6150394613925 -553.1963888422215 -1587.6199146983724 -70.74516152256757
-17596.930637627556 -1293.9797910253446 -2217.393984051672 -501.6093470689292 -1600.7250700448371 -29.306503604017855
-23739.71392947441 -1845.6443884306639 -3350.150340389923 -490.4374866451668 -1376.2806732437118 -14.581859500553254
-29630.888092610458 -2320.7930246333917 -4413.781441455107 -501.8529624587012 -990.8548911028975 -4.728691407351796
-35460.543814425735 -2831.0300010446986 -5545.526867419113 -508.24576444762715 -498.50653916372346 2.690831684463589
-40945.66001598111 -3092.026806332389 -6632.299482253296 -531.2888140178953 46.02432350872903 1.3541480734354536
-45861.02545936538 -4135.321667133457 -8001.690077336516 -546.9685349540038 606.6290204073986 9.899269988169374
-49064.80641780743 -200.34900997043553 -7927.378189502082 -1325.892535943534 904.9946737245106 214.41622106606496
-63390.19414076243 -25961.328303381928 -21083.95495252875 1.1225272925227472 -55.230390116497254 -1977.9614831677231
-49047.57186221889 -197.95667024384358 -7904.646152987199 1328.1404651688536 -1019.2668012221553 213.64608855089787
-45827.05075569647 -4130.568773799162 -7956.601325884461 549.1900063797914 -731.8857805911657 8.491307990431089
-40896.555953939576 -3085.0253129132707 -6566.154782662096 533.3278940996481 -187.84134401451527 -0.357485901382411
-35400.40179274802 -2822.106149053218 -5461.74364077209 509.69131704233865 338.11116182052774 1.3626530308865412
-29569.396308252 -2311.154547755094 -4320.191486750178 501.83258981033447 816.9582012370644 -4.2697912564974985
-23697.716720890443 -1838.0976925501195 -3262.4036533720077 487.1069550926872 1207.0350730075147 -9.50321451590644
-17604.848144150084 -1289.753994052759 -2159.03914292427 492.5028164160213 1473.3484800797814 -15.294425166887358
-10943.443925918855 -663.9586015801885 -827.2623399472798 539.9039726260077 1549.7026464826295 -49.40008435463273
-4850.503821741293 -686.1712599893899 400.8403876346815 556.6265009214629 1188.7351809065751 -121.97650834086683
-2249.8461530930153 -1027.1448792972005 969.1604376280382 341.56356363851046 838.4843453318769 -458.84803781815845
3806.929288632837 -13958.528371857308 -3045.47972496734 -179.54185881583047 658.6020887560159 57.14998978275889
12111.944283324563 4972.412639189446 4174.155075685705 -1235.3651838604844 897.9184837688604 -68.52120718626165
12548.52440764952 613.8209495522993 2132.0504485022507 -488.80562826437506 845.0712347606615 66.18841095915525
17463.265816009585 1332.0563716253946 3017.5463298373143 -558.5545000886265 706.4154505294065 76.37454454951082
22989.42461543714 1595.551623914035 4133.66389375758 -585.2978579541201 454.2487878295805 105.39501461607759
28658.963398639407 2040.2565073712851 5532.183633378098 -614.5593125303888 138.44274878126578 135.4101098724199
34385.157150009436 2485.1010997786343 7162.6593425480905 -654.0303207594436 -218.49595157309577 163.52592580152128
40496.62094373247 3030.799993463817 9174.314046186359 -729.1510572526323 -559.4843807533194 176.1738971614086
47414.3631187139 3640.808329445354 11672.914176553246 -818.607754196599 -750.0853183652148 148.41420188346518
54233.794710300856 3840.1766542017886 14142.126948367435 -687.6662467602943 -582.1974176795125 64.27660802426283
57170.642250828 3320.7929277570397 15077.672449808537 1.5910329057062143 0.7519768797181836 -7.058146970196381
54217.084467969755 3838.3058671257463 14134.391378427072 690.9454510490729 582.836488202358 63.364041675945245
47378.019434790505 3636.8637960427145 11654.945388276152 822.1875735582646 748.0343781527527 146.5999706921974
40434.26515203953 3024.3396831870014 9140.622498194809 733.2833706168443 552.499107739953 173.55006429960912
34285.57284118652 2475.247334893126 7103.6481517777365 658.9913994916553 203.07724032725892 160.36404733527013
28504.725871125185 2026.12796058159 5433.3249544597165 620.9102717813158 -168.60882991928605 132.6798080389147
22751.412650773393 1574.492169003071 3971.7317300016166 592.6991609827527 -511.19447958708236 103.8006074019376
17103.986431074954 1303.7288248370264 2766.7058025424876 572.1168933045258 -803.8282039961878 82.94946670082743
11893.521583234311 539.6583771187431 1688.9477655341439 508.16546782524205 -995.390344750936 60.80600985754343
10460.915468816253 4644.737559820158 3321.736270042064 1207.2502086587035 -906.0822347252852 48.94178423542565
1008.3740063393225 -14737.945655748139 -5180.933778399429 1550.5817828950062 -800.9384793287477 -478.35182307544477
-1840.9678740092793 -14272.70085806203 -4974.293541426326 -306.25657906243623 348.6901346520063 -170.68483607213014
5986.654401459724 2597.6781282547636 2139.210286194198 -1402.0095611240467 422.6981396482006 -143.58902244379394
7520.609140522892 -187.0393765149837 1065.9080511921306 -1264.240422557275 529.1317392532255 15.88517976784073
11475.306627709968 35.540802676133254 1746.6496124957846 -1393.3798511306018 442.38767270858233 40.13967540416074
14949.08085736071 -86.70716660143952 2308.291555914865 -1472.8899116591879 280.23374030761556 58.640647437640126
18587.700678673747 -112.17291146830638 3095.5094597282327 -1525.2950889564224 74.92098382708578 67.77506186194591
22268.30915060312 -126.07096593982409 4050.2668382759607 -1610.888468307127 -149.20938083044825 59.081944090553634
26159.19771414109 -73.33179658204853 5245.4244628640645 -1788.0545048747708 -356.14505296958254 10.632129516839846
30393.422133211276 -98.451920223963 6663.971372116392 -2046.4022813943484 -468.7600113364738 -112.64825226065452
34185.52973908594 -973.7750915067309 7779.963457802994 -1793.3918264732724 -365.5860981405369 -318.89110112441784
35356.69623843797 -2745.9271020062183 7753.700755959056 3.085822993834709 -6.751577276757739 -466.0999606376441
34168.436501158125 -974.4516851741297 7780.205514485514 1799.845993273482 350.8049074706137 -319.10778183011246
30356.74309102136 -99.83403917137535 6662.483504057114 2053.7521543785165 450.0932405703706 -112.85642614928584
26097.627071887688 -75.48708028378462 5237.770341062358 1797.0763889880259 330.73605433150107 11.015228100560517
22173.07085460383 -129.0715058333721 4028.6418608007502 1622.6514398804597 113.48646243739081 61.293269655518735
18444.882117338195 -116.03344032758783 3047.066868220064 1541.3175026954045 -126.39945552886026 74.21577852609106
14739.116481778112 -90.51655723737989 2214.643273463102 1494.893571123553 -355.60047997675304 73.1399401018813
11151.406493237315 22.858694706683867 1569.9249754163995 1427.543557425769 -553.715321324316 69.2335087777962
6994.284925614422 -201.02028223929636 762.6885152256784 1330.1951168562493 -658.1171023598624 61.19272947928871
5432.803363157518 2500.4385082827694 1662.0517480012825 1524.0929943736244 -473.1434410981422 -17.742594192058778
-2221.216437402055 -14076.959155327671 -5693.238293969484 1151.7089646896598 -309.40273171435035 -618.7647116923407
-2081.5898428727355 -10237.710241431156 -3443.389196534431 -1984.890987388262 122.3335244321158 -588.4590978900974
2720.015586128796 1296.407098214596 1224.616993257851 -2440.3015829288865 153.90198317661438 -217.03129345234234
3513.857758011703 314.6542333874657 709.6744923075452 -2274.777484063495 215.32095275024827 -55.30925492161694
5717.900420997294 -63.77421558124712 884.3285941320474 -2457.995147381893 177.75483960808359 -0.791906897689449
7612.937243924967 -58.608597598844995 1195.276637912216 -2553.2887173490576 86.47671185778088 6.745122353195875
9386.148997765391 -89.93568439492196 1561.4312124808564 -2643.8412033115505 -21.721899792113014 -9.871242065905253
11166.75555854498 -104.42254601668783 2031.0555894435884 -2779.826593785614 -133.91093400958786 -64.34154157046828
12977.155883150355 0.28789775910216875 2636.04997249963 -3044.4923896244804 -238.38436926568616 -185.72493362167577
15059.665385750384 145.0969274371879 3418.3152511871326 -3504.275830306774 -309.9302006561104 -417.5254332775796
17149.511629018063 -1208.7653661152349 3831.643894626148 -3251.5928110871196 -266.14926144679697 -765.4975718541842
16980.848309568533 -5199.878650953232 2753.696222275206 4.979143883479222 -14.118399821485287 -1017.0180345377428
17131.75370750948 -1209.6650409709086 3839.249506359091 3262.0217062364727 236.30414093050194 -765.0392350637179
15022.088657585582 143.29531279528032 3431.9933797220137 3516.2011518541126 275.2854575496041 -416.13948483993687
12915.589906189056 -2.412340981938881 2652.2598087495985 3059.222429703547 195.8016095710398 -182.2596545273975
11074.602326165834 -108.04217281389668 2043.183575236538 2799.224302764153 80.19788986584987 -56.46778994906678
9253.944928347577 -93.93692632814269 1558.432756251254 2670.5898029277487 -46.69550906679184 6.602448360972679
7425.887774072831 -62.898655896225144 1158.595876724022 2591.262117840951 -174.36650062137127 38.95962818371195
5446.754808718622 -69.14610612982045 783.2956414658886 2516.013943230282 -288.2798328956964 55.04252451388553
3216.585650136114 323.23138580150186 534.222731049913 2379.494878057074 -325.78892863817225 44.79861808325196
2416.954977267122 1053.4750496435013 826.5826848110391 2622.8007390198472 -185.32985491434135 -131.27783908253363
-2188.379334829164 -10086.80817442308 -3931.3686466610684 2171.736427148266 -83.50245800603898 -910.202174033266
-1868.3019119210237 -6499.799393562938 -1728.959527746485 -2138.5198088772595 -14.565818213728368 -754.5331208314329
291.46016560863995 296.3023486864464 697.0719998354084 -2860.612464512959 -46.81895266653032 -254.9154880137335
-95.90841122274625 487.1439703722109 371.8957808204708 -2837.994358318733 -67.02474242463664 -76.3196302401277
106.34053938188238 18.290462146671654 122.54683334972313 -2827.500117882983 -86.01950553002486 -14.795575062136944
225.47964018245347 -22.41515818280547 72.61803498887804 -2911.3320272595593 -112.8096871483516 -4.570650130159069
180.44562949156443 -6.122671071826057 54.52206831255433 -3014.2471262266695 -132.6204866356109 -29.063020781679114
65.34659825043786 -21.684510767873263 48.36595952120075 -3170.7155210260034 -143.25388652291463 -97.45857204999058
-196.18982969066298 100.66614051478447 69.36601252096064 -3396.5080921769586 -157.1038922064553 -237.5838811695587
-159.42435511451725 555.7993947459789 306.52356024549823 -3893.4865410236575 -196.8726016043014 -493.04114733973455
686.3314464269422 -1126.2540791633573 217.94522340317673 -4066.433900676582 -209.06761864421847 -889.6202587241823
-1218.3710889958766 -9115.91010365991 -2519.5786976688964 5.642624717055476 -21.464074107282794 -1213.7524290182043
667.9934059423954 -1127.4315752587195 232.9378418540112 4078.253776262509 164.2322917928444 -888.9567019868588
-197.7068401589905 553.4649409140305 335.4139826159405 3907.0047148385756 146.43782202155614 -491.1663899387949
-257.447583638554 97.21936664962661 109.46430647188905 3413.20290089143 97.7724357788724 -233.1616815574614
-23.047732053443283 -26.1091145852431 94.32285199976516 3192.7077895839248 72.47070837496649 -87.83966740335329
59.8918443640582 -10.930283954151879 96.62112577391343 3044.7864749893624 48.8943756174513 -9.32450066792522
64.5197271869781 -26.65798784940725 93.42400511037731 2955.6186054072655 16.017009164712928 33.24492125995386
-87.64505964335645 23.033127686086708 101.81355903966018 2894.918349446765 -19.327228741212444 53.314582073949225
-274.27999900099127 455.666355460879 271.0334779476162 2944.491600186145 -20.16999834457989 30.19749870489857
127.20648445614223 105.46568295212052 413.1614962260996 2949.4685728954037 28.438791002931513 -192.47229146822224
-1882.4029692448605 -6335.313126229833 -2072.063092625927 2176.03964749681 45.172159960770614 -963.7636407600994
-1769.4930692745895 -3445.772122287949 -237.09834468238597 -1706.2337080803818 -129.81698199911918 -709.0467530533866
-1690.6221372272041 -214.43505661794822 470.56949568895857 -2505.985906823746 -231.7619179832629 -217.68412180540122
-3533.8051691032474 405.4761405613879 6.043350724113718 -2643.532330800007 -339.6033629091076 -65.05735955564087
-5367.400079036202 87.6736477615811 -605.5880467280974 -2515.112584553787 -347.66261712202123 -7.412562888854669
-7153.536809428986 41.454590765438795 -1042.5879903098532 -2547.088078846197 -313.3178058327139 7.054852511001028
-9052.161541249134 67.76166153303019 -1465.4474545535377 -2643.865515142073 -244.93672910805975 -10.013913767549543
-10986.543059580588 109.34253912819793 -1905.6629630827977 -2775.1161051238196 -154.4887240601932 -65.11401720688819
-13234.041706381642 84.24414051311513 -2492.3007547121183 -2946.3915108015594 -71.96320754877495 -178.15393408323825
-15421.660087548618 795.7013130508083 -2877.1347625530866 -3183.423411069169 -62.88668964084486 -383.30018171023573
-15475.293323618014 95.74965974709869 -3013.767281384462 -4223.720306530378 -131.74731973645214 -746.9912850561939
-20294.01378870735 -14777.517633911964 -8606.936579206264 4.996063016714876 -28.954150964666134 -1121.2434937624882
-15494.330445197498 94.28807293504374 -2991.281863561932 4234.18388680984 71.61379821363084 -746.5920075019676
-15460.915208361828 792.8117632705452 -2832.8093128621126 3195.382083827275 -3.7068666086821893 -382.03540650301045
-13295.459245402835 80.0241114900794 -2427.936651239221 2961.13693345328 -4.59132834292609 -174.88763626507108
-11071.846142746306 104.06752701545274 -1825.2885018474913 2794.502832535552 65.97746589501686 -57.56651031166939
-9161.930145237235 61.985084168262475 -1377.3669518987958 2670.926128499233 145.10958538670502 6.074510195496641
-7283.919413658086 38.46796036036935 -961.0867673330321 2586.9710880797984 206.92545522338338 39.265432532057815
-5498.427607264279 88.22252678519153 -553.1569328297813 2576.0113402910406 247.2133835284963 52.24892436995141
-3634.4575193303303 369.14758966213907 -18.197271324804486 2717.404476112922 271.6818571208048 21.4576932481206
-1769.5050903654235 -325.33110426391 296.87724725963534 2538.727112124751 222.4821984697587 -171.51680485462776
-1767.6871284253612 -3331.434130558272 -495.4834620734801 1695.2693753543444 154.6966074500111 -844.2691575975987
-1963.2525729096094 -1533.6774520000747 779.4006862381232 -921.9202542493875 -275.2861098481813 -428.82699995011814
-3380.064356291246 -389.3355259104108 420.06585984589526 -1433.8856218058593 -443.44379100563447 -94.69843548702931
-6898.724300901951 226.81348592894625 -375.8530870584959 -1559.0939694567421 -624.896497521108 -12.738052713570934
-10779.832761298372 108.27568640531305 -1339.667988047382 -1462.238791963551 -610.8525929284268 33.67766074425658
-14529.04086661221 76.65743496838701 -2175.913505540971 -1466.1125880317627 -509.7785413639636 57.891474885688325
-18275.966225375865 103.23883870446949 -3008.457824498003 -1524.9549145829121 -345.9039369817288 67.43154213841815
-22098.392675780826 131.12602068240403 -3929.594052153292 -1606.9675846981181 -143.57328814304205 58.583393486350516
-25837.10611963609 285.4752021065657 -4891.200238394423 -1677.238599227134 49.041809297427534 18.515489053588084
-30848.393595605117 -159.40554421411056 -6521.459148864554 -1864.6898237150244 150.9307010024825 -67.08233934975532
-31543.00498987086 3404.7934070110705 -5747.220833448263 -2533.1369798705896 41.40857352858166 -297.26307077869984
-41596.63795587137 -22062.094342611414 -16069.622283689077 3.1216362522542465 -36.752672581229916 -720.9722501455943
-31563.063678431612 3403.093081351043 -5717.0594057074895 2539.666090071182 -117.52711659937418 -297.6055732811277
-30889.32831352476 -162.7647652537052 -6461.296409394906 1872.1213375322318 -234.5980448560083 -67.54312901343638
-25899.908253982256 280.60447018394683 -4801.867768862979 1686.3369536215337 -144.18782157773776 18.503902149235277
-22182.73759002005 125.09524346156512 -3813.717116154221 1618.8246039955302 35.16774896758862 60.202324523882176
-18377.169230150455 97.19108325605134 -2872.148665316368 1541.3373851455653 226.51641679385645 73.0332600061413
-14632.39224750088 73.23031516158278 -2031.1802500854794 1490.3481598149972 388.8011922432928 72.12623988620336
-10858.480303451739 105.05337223191721 -1211.1645134085654 1497.6728876438165 508.77275956756176 63.61956540429918
-6935.3969795305 200.89625721177563 -315.17853364875634 1595.2155693036657 571.146640656449 31.45517988246734
-3395.743688254363 -439.9557704956343 347.4313412349102 1441.8360503423523 446.59877843396765 -71.30995318655565
-1959.2724126579692 -1481.4541214313535 585.4229902613091 905.5973077218202 304.9960604751553 -504.4154743679384
-2193.366596327722 -891.2469103851867 1287.693114405941 -359.3718529358752 -530.4167880105688 -220.10052428579712
-4741.119848254624 -593.4660800396488 426.65979445777214 -574.0533482114579 -730.9044979463399 -10.035191347056479
-10505.242372151535 -591.0882992049468 -1027.1615389334902 -594.9157082330947 -934.0987396335609 26.71485482920893
-16787.25457337738 -1159.4148109180323 -2635.26521531044 -572.9221320262578 -872.4751831729592 65.5433508913982
-22621.504506655165 -1630.6670091580243 -4039.709465079089 -580.9479268954949 -689.3578606812234 98.70465830900407
-28373.878512208317 -2041.5966871829955 -5461.619168912477 -611.8024203088879 -414.82920873956584 131.3110263622117
-34257.85281468199 -2522.2963524865345 -7072.8914725403865 -642.5066789743983 -80.94158343660851 160.49434988634073
-40000.91443634048 -2687.9153685577353 -8723.664641174635 -710.7366418342039 248.79211243653484 182.09383678237322
-45698.08610737128 -3974.45462060163 -10904.728398909881 -751.8355593806215 462.63315634852506 172.14520534177066
-50634.61543530202 1113.3739319967178 -11173.105637915749 -1655.858677942801 441.8287364076791 106.50948210870992
-70168.64977399228 -33369.25046302097 -27519.10267962495 1.6235059814407578 -44.972253491491756 -505.112827407574
-50655.64720859006 1112.841507940831 -11134.464098894994 1659.273175594021 -534.8911854293796 105.76648231009305
-45740.62417175109 -3975.311574412206 -10826.990651637108 755.7717666359953 -564.721078358227 170.71721092306723
-40065.10339447109 -2688.5951909499718 -8606.43393263439 715.6207839575675 -364.65437151399146 180.1489850987508
-34341.54969322546 -2521.7712895233617 -6916.915862712754 648.9004754022175 -50.89956311277724 158.43119173106282
-28467.77966561284 -2037.3733908560662 -5270.156989581742 620.5018428222936 269.86194567878897 130.05383107515485
-22699.81679898115 -1617.865994600108 -3820.509730895398 593.3113395908842 543.9341221953899 100.3479171399701
-16807.164730956 -1136.0710111868352 -2409.0148014243982 590.1096420490903 755.6143186086123 73.68552134357927
-10452.045228762281 -572.2180653415116 -850.049815060379 612.81499818098 888.2932984179414 40.87860051909978
-4674.276925336705 -586.2877112344364 466.4300310647943 580.7568378545781 763.3994698510326 -3.3037649399484588
-2151.391333412005 -843.4737411176899 1169.4104820028106 354.4007734510219 596.4541832899092 -265.36856589490725
4806.522066777872 -13014.796176262065 -2462.482232845258 408.67958018880347 -8.925207239940391e-09 -4.25135215920136e-09
12435.103232403502 4863.169648612166 4367.546457526002 -1212.0804281376047 -4.566755862356331e-09 1.566622387372263e-10
12598.546256929007 644.5805081463286 2430.5325795161652 -471.1685173049707 -1.7998385004602824e-09 -2.6558488741557085e-10
17353.63883426529 1322.6637202790625 3377.412509641721 -560.2801854570793 2.4239499296641043e-10 4.384537177770653e-10
22815.69987183474 1603.44080061328 4616.20373754656 -599.0791320493416 6.881746283937673e-10 1.0481278067686617e-09
28480.747797651344 2069.8677809451488 6210.150349114548 -643.9950428134823 -3.852418384298062e-10 -7.060672047032313e-10
34298.031639091925 2551.520201008268 8112.300928432313 -701.4007676174265 -1.7805468210951858e-09 1.7851586875394787e-10
40680.1728946296 3158.3525319161613 10475.132779937272 -794.8572229454815 -1.078441336233027e-09 2.375527330400473e-09
48089.96298790591 3855.9767723957248 13371.013182437016 -893.7956709794253 5.73013636540054e-10 -2.503153240240863e-10
55482.39782051937 4142.287495947826 16173.773543670379 -746.7622573923076 1.8062897844117742e-09 2.6142732423295456e-10
58675.89852851592 3636.7694785728245 17219.25012430768 1.9707695248123471 2.880789828907382e-09 5.799778435289227e-10
55454.08178900872 4139.9289527731435 16164.111102097339 750.8858495652661 4.799304065272736e-09 -7.187699324617824e-10
48028.674895501455 3851.0082294231347 13348.304697917036 898.5015572817825 9.422233215872211e-09 1.2308003505268061e-09
40575.33782103519 3150.162262987325 10431.868443477648 800.6757793715187 1.0329054944691052e-08 7.035483307049617e-10
34130.07866124346 2538.6553615534845 8035.274221210751 709.025489628747 8.757832070660498e-09 -1.8454837658055112e-10
28217.278953773082 2050.7337624003612 6079.358977775557 654.4970834348569 2.5917581414347524e-09 2.816662458826613e-10
22404.271798197515 1572.9853987782153 4401.829560246965 613.1431419431625 -4.933133901374731e-09 4.7848836004504847e-11
16721.669649594573 1283.0608093070873 3045.1395048127833 582.9669616457979 -7.436449678266399e-09 2.2732304927330915e-10
11563.25298719511 546.4043279621104 1878.0979220158965 513.2269598044554 -9.805833478537807e-09 7.155716019724423e-10
10048.496103151134 4453.51486094693 3169.3063372571955 1156.6239672128884 -9.05594710332025e-09 -3.9599434842330083e-11
853.031791066624 -14239.555677527558 -5221.24725264519 1472.3335242313217 -8.089932279631284e-09 -4.1061802846797946e-09
-1582.2396658075038 -13800.273042237697 -4644.471807103007 32.08654574452329 -2.744531046872112e-09 -2.520609498901649e-09
6057.710455301812 2486.8820256857703 2141.5732731059343 -1331.5787711528776 -2.5514292900652435e-09 -1.0676943773546554e-09
7660.819492066593 -160.3910496579374 1276.8661415541324 -1233.0605658572917 -1.914240765898967e-09 -1.0658727234158505e-09
11449.812519354085 40.42529393732949 1976.5067568010895 -1398.9487989186212 -8.437096576940917e-10 1.5114975937535746e-10
14873.170138472986 -72.7256319914229 2611.047041303004 -1503.167206049102 -3.0906488479587324e-10 7.001119683991419e-10
18505.188816461487 -85.41676965457034 3514.3625719452325 -1586.4013739170691 -5.44693234960647e-10 -3.950448856926414e-10
22242.9987285746 -83.09831581845741 4632.714711361633 -1711.701304280438 -1.1796374987937952e-09 -8.91161811011898e-10
26294.1252784188 -9.476732278179858 6032.358083103302 -1935.0060667983564 -9.079397234046382e-10 1.392451487447488e-09
30803.897300292792 -12.970355769381499 7670.7430154662425 -2223.5872276443038 -6.582603351290572e-10 -1.6912258260504132e-09
34903.4671124937 -876.0000229040875 8955.858577321374 -1938.8953215893519 6.117216733159125e-10 -1.7155690201775542e-09
36187.15230118164 -2700.3809092334754 8952.108475877998 3.8147396128224536 2.0666474087605025e-09 -1.291295959049421e-09
34874.04170530378 -877.072529120972 8955.90324121502 1947.0075533321005 2.186723246921929e-09 -2.623273154256367e-09
30741.066582294334 -15.117891019790905 7668.264779514287 2233.2672696900186 4.62648475085814e-09 -1.2310410468785449e-09
26189.120990736035 -12.752842765834819 6021.570225260651 1947.724535810852 6.440559086051678e-09 1.5206502723685844e-10
22080.402987712976 -87.63853127828528 4603.382345525242 1729.6177133112476 4.597583230792068e-09 6.721441181412047e-10
18259.64425555062 -91.2569221132104 3450.0802826312997 1612.5035424043915 1.7611438973830218e-09 4.24664436948774e-09
14505.671612738795 -79.18306585369506 2488.1293678346383 1541.4118568652095 -1.6246335388103716e-09 1.5332672909096345e-09
10893.186823539592 26.495371505299605 1754.250016263452 1457.7565980356658 -4.450099844177657e-09 1.6001631131246086e-09
6825.814597187818 -173.09849170353183 903.6054824173951 1346.787265767249 -5.778357792252109e-09 9.36907440518553e-10
5226.846836706645 2386.7564951984155 1534.6216651726145 1478.7498143854293 -4.3856535347774894e-09 -3.7995473434193627e-10
-2221.5462282628996 -13604.396612130082 -5704.329990828114 1091.0509640473606 -2.851115343815991e-09 -5.945690162434403e-09
-2037.3934123626675 -10102.598461285164 -3356.98580398133 -1833.0874998875663 -9.864422612082535e-10 -2.176969715605992e-10
2794.7886500411178 1340.6999720343417 1257.0932262975969 -2303.4988886721762 -1.087247236686295e-09 -1.7566281762526614e-09
3635.1306848941663 318.9687033991073 825.5784982542514 -2234.399204119759 -1.8124824696652553e-09 -1.524238513184173e-09
5778.981441538801 -37.2700266901647 1031.065992361568 -2468.273538740286 -1.3106819726771413e-09 -1.3067009696499099e-09
7631.4454572953555 -26.23971746664652 1367.1670400890953 -2607.264990987751 -1.312886577231609e-09 5.290194948770477e-10
9401.359572076904 -42.326631988974995 1790.8513145136537 -2745.746385505501 -1.6327005303296005e-09 6.02806693450475e-10
11209.7072526861 -39.104737793029635 2344.018906274091 -2945.684804893215 -9.4298790997982e-10 -1.8856809447242995e-09
13096.04671732597 91.0086718791593 3054.2444728635883 -3286.129172310468 -1.7404451213565153e-09 -1.252096204495956e-09
15311.914008252927 266.2209274999539 3950.1902639680125 -3797.6967766977923 -1.901792279213055e-09 -3.127750503040261e-09
17581.189496661453 -1058.2070562575832 4446.189511411178 -3500.6914679334536 2.529026987829752e-10 -2.3932882342592166e-09
17440.170472164227 -5165.036745009925 3299.409448931357 5.960665450794255 1.8165513537837796e-10 -3.4661429282323297e-09
17550.536633100055 -1059.6198630949427 4455.172449940146 3513.406193441052 2.5688862148598446e-10 -3.6962308769261654e-09
15247.379972003666 263.3982201130533 3966.225591628641 3812.9962958594233 1.5140230180676895e-09 -2.5117490309867208e-09
12990.840850807408 86.73981527438022 3072.859762197609 3306.480091674113 2.3837384288682983e-09 5.463380858827804e-10
11052.48430234142 -44.93809409877107 2356.91128017051 2974.7849131861162 2.4045128943495087e-09 1.0773488767767958e-09
9174.150855225053 -49.363363892470915 1784.1392260742991 2789.074458711606 1.3778091376148716e-09 6.7424470451271645e-09
7307.0293936685675 -33.01958615761534 1319.0371292760208 2672.194619386183 -1.0757561508256686e-10 4.046635471155469e-09
5316.914978123103 -44.78428226962526 907.5052490569141 2570.2123938941213 -1.5787811058487478e-09 2.731829873425795e-09
3145.7819214665947 336.37443205008236 625.0863039712659 2405.91545318918 -2.8321528455776956e-09 1.525547244085601e-09
2317.8324043283806 991.6002519905217 740.2289262062134 2557.3198256992596 -1.509744149141845e-09 -1.377503444643935e-09
-2182.2393705198397 -9765.597132523411 -3995.7559359039715 2078.422756335622 -8.405609541739523e-10 -8.857277578044886e-09
-1841.1741709337682 -6424.702535801932 -1696.6295174417494 -2050.865694307166 -2.649758051864737e-10 1.9484591717855437e-10
360.0299440630697 345.1161024875131 709.3601408675796 -2754.2470461982307 -6.002874863852981e-10 -1.463011489732935e-09
22.604608108607678 493.083477061003 418.5375119413228 -2787.407982484013 -1.7769644644616278e-09 -1.882093147997921e-09
205.18913380065567 11.567135708791744 158.94022555749135 -2839.944098423549 -1.926033221799628e-09 -1.3272756227422633e-09
305.76017129599006 -26.12242214783217 90.21392538573053 -2974.487697126066 -2.051386727153215e-09 4.55141702104811e-10
251.18601405623778 -8.172599033813865 63.85574635732029 -3131.9967499840322 -2.4450775848450235e-09 9.72579350388969e-10
127.4369204598094 -19.54899268795666 59.05635980803802 -3359.1164512304003 -1.907811075785304e-09 -1.356631251780982e-09
-146.09283294848686 112.73750964649548 85.57150349628384 -3666.0923495866764 -2.4485209970670496e-09 -2.4495800943213908e-09
-110.68939759968069 584.1828439220787 336.3080391754571 -4215.247071535265 -2.5758080113291726e-09 -5.175679440583281e-09
818.413437522075 -1069.1423213130047 260.074171673351 -4352.70572228287 -1.1593796478415186e-09 -3.812855808860149e-09
-1143.2013986267762 -9276.326543236442 -2675.9509446075804 6.686429114897501 -1.3507118479250124e-09 -2.948970845295662e-09
786.7347452652128 -1070.9178996648498 278.0206351481308 4366.977071054795 -1.4438247125658776e-09 -4.553885268876456e-09
-176.44964198350215 580.6506809469104 370.8838514110778 4232.4454391298 -8.390344669040317e-10 -4.5885144572821446e-09
-250.59482743161684 107.46393506465728 133.54558225322708 3688.9970394555103 -1.3276650195903628e-09 1.0771632474870785e-09
-22.74530350166856 -26.577486159115757 113.96671454556281 3391.9658154624794 -2.0708257331136792e-10 1.3860548264688077e-09
45.808073560773025 -16.157918537324136 114.1355626500691 3181.3142805504617 7.226200193777288e-10 7.572471538708214e-09
30.43081961478451 -33.12753220821334 115.7685604966772 3050.232309183485 1.2229280921260965e-09 4.707913170420852e-09
-125.95762079607572 18.503308306794644 140.46197169138682 2956.913113936374 5.16131803962594e-10 4.3824806006398376e-09
-278.04947954993503 446.41907370169713 308.7099192526281 2961.1180726723383 1.8308243809883606e-10 1.431820439989906e-09
99.37495456334219 71.92472274162112 349.1078084551864 2885.180290075804 6.266973051616276e-10 -1.95131377722646e-09
-1850.6673611941121 -6109.578040940907 -2130.1165952470205 2100.6861627416592 8.691278807759772e-10 -9.365194841848279e-09
-1701.7589686919973 -3377.2375844844496 -190.65685422785663 -1662.03979134127 1.4367451672825382e-10 -9.884537632842694e-12
-1602.2223769301647 -167.80909815643602 460.6160228595354 -2430.422865797699 -5.10462783154253e-10 -1.0690381913036617e-09
-3402.046826776801 405.2151096824219 -11.909835501678511 -2594.419086378568 -1.775564584249878e-09 -1.672996408075278e-09
-5231.872234466659 55.542470747357996 -675.9345136713225 -2518.8566178763804 -2.28639973620659e-09 -5.023483851118726e-10
-7016.54799558571 -1.9212032287367373 -1181.2692028605945 -2599.567411960489 -2.4496247252869807e-09 -1.362518986525174e-10
-8926.23147654942 15.530985358536785 -1676.5094461077801 -2746.4265408243864 -3.6045569862253046e-09 9.141762902231676e-10
-10902.667027431453 49.506971473332094 -2196.5858633288344 -2940.3443296754904 -3.1785882606549798e-09 -7.018234882139041e-10
-13247.528883568419 12.377732170268612 -2878.8492645272277 -3182.1478750074707 -2.9991398253770285e-09 -2.0323538407751585e-09
-15579.947037581798 724.1604586820572 -3350.892616207115 -3453.4701011929255 -2.9272300139382423e-09 -6.132084173771091e-09
-15634.114436311373 71.40301152093414 -3505.9651319783657 -4492.474740225168 -2.5152201432732113e-09 -3.2205660360773436e-09
-20629.01371217384 -15189.076480418207 -9492.391203383802 6.005311427130225 -2.594898296237602e-09 -3.2858720189210544e-09
-15666.976950902748 69.26122306204596 -3478.918634289843 4505.284056694917 -2.7938070745747723e-09 -3.416345428775003e-09
-15647.27970823908 719.9157953975908 -3297.4881728890227 3468.873905729321 -3.6566082384226206e-09 -4.483558413426181e-09
-13351.966492140735 6.107604461961735 -2801.0516363224597 3202.5901761618175 -3.4645917801334747e-09 1.037031793771348e-09
-11046.603133528053 41.44015640921414 -2098.8586453476855 2969.5453689946576 -2.7959711212943716e-09 1.8171997240301607e-09
-9110.74572677986 6.33803396146536 -1568.1255036162738 2790.4806587904186 -1.3802237130988715e-10 7.142590963127304e-09
-7236.095334058108 -7.304784888062875 -1077.5373293121709 2668.038238450616 2.3462838338872416e-09 4.488835525506829e-09
-5453.686763752914 55.33198816420286 -600.284565906567 2623.7822839296623 2.550769817588616e-09 4.089580230015599e-09
-3572.043066314263 349.3576443051448 -26.108626283063227 2716.79510873724 2.995904413438666e-09 1.4324248454045119e-09
-1726.7877591557256 -328.95099310265175 247.25248501845175 2480.6105714615423 2.635321960653414e-09 -1.5475780656970528e-09
-1690.2146310628818 -3171.914954679465 -515.9530186416177 1645.1710258197306 2.0994894711634515e-09 -8.282626140498905e-09
-1833.2077131359072 -1439.409243274804 836.8596036682402 -909.5605748862858 9.411937895720257e-11 -1.9645129967216235e-10
-3248.3174472699357 -321.8572239696197 378.2391199785402 -1389.1739441554432 -4.550346766052371e-10 -5.826468196801216e-10
-6725.217467245249 243.07804603876508 -449.1944865662006 -1524.6542980792608 -1.7407142394176844e-09 -9.798681865902381e-10
-10580.781899578773 90.73352494276185 -1497.9946701951571 -1459.7334081525744 -2.9111966171058157e-09 -7.472324980994927e-10
-14304.148921502996 47.23148618687634 -2446.4416723679574 -1495.4437086475236 -3.733814368800381e-09 7.006581981272575e-10
-18053.527016223354 69.72645271780308 -3409.7539314743017 -1586.5471316267503 -3.6067571707043555e-09 -6.569558230751227e-10
-21943.963824765076 92.73374875817659 -4491.65901439045 -1707.5401298620397 -2.9343827367966924e-09 2.0207702178254294e-10
-25845.732747644484 242.73293009203033 -5641.033884932301 -1817.3353314655121 -3.690216798801771e-09 1.4288570326925765e-10
-31181.12019924567 -236.54121134655563 -7489.487785906964 -2020.1714055406226 -3.2528530979902825e-09 -2.873174143047663e-09
-31943.984492114247 3507.662298757092 -6670.865740286669 -2688.7196905245587 -3.234050416356382e-09 -6.421529974431905e-10
-42411.603163214 -22759.015156170844 -17675.752912104006 3.892713067283328 -3.52336515518914e-09 -1.9109211990553376e-09
-31978.54950067881 3505.1658962079227 -6634.471536284561 2696.997142090823 -4.633646355500787e-09 -9.674159251460424e-10
-31251.195851274282 -241.48515494939238 -7416.705724472408 2030.0384601603257 -6.541166053253278e-09 -1.6273093983443232e-09
-25952.20485603642 235.49483303511428 -5532.421972100511 1830.2544539468988 -6.275688191337281e-09 1.435460639243047e-09
-22085.36997328339 83.54656524049801 -4349.5181790881325 1725.7208313848173 -5.4026603191204e-09 1.3987757618849628e-09
-18221.430230188602 59.95323549871855 -3239.801880473007 1613.5657296194124 -1.683670758367839e-09 3.8527190326931304e-09
-14474.483480814652 40.18166309133387 -2260.2169169485246 1537.2675443788396 2.814791510985515e-09 2.5630719768798826e-09
-10710.185957543154 82.02484285151826 -1322.4862039505344 1520.8915664782035 5.044208606364009e-09 1.833056817446277e-09
-6784.69476722492 198.30174747252084 -352.4917236694326 1585.0839439891818 6.518082962259086e-09 7.724794137686786e-10
-3268.871863288062 -399.28322661310705 299.04584210483245 1401.407899254554 5.209914277770622e-09 -6.474656366606268e-10
-1816.2665486551086 -1345.3097516407574 590.0250394462623 885.626157387714 3.6946783410485295e-09 -5.268670832947464e-09
-2052.5256628290367 -813.0807773449362 1231.0846908588976 -360.92661656663137 1.9894486058547045e-10 -3.362146117069642e-10
-4586.762945432863 -529.852170254992 290.14457541337623 -548.6909490021733 -3.907629775312671e-10 -1.709494767965225e-10
-10287.676251096014 -571.740815517726 -1193.8547876772882 -575.4172680530402 -1.4973444706356531e-09 -8.303153720135015e-10
-16514.531864260876 -1169.5297564477285 -2916.9002437989493 -568.6727360842748 -3.7862264434807e-09 -1.1050715897908958e-10
-22302.307506858368 -1655.3755660705297 -4488.730238369938 -593.0077150739685 -5.522229784560295e-09 4.1254111238231417e-10
-28055.407168668986 -2078.87608048149 -6121.385706571917 -640.1419679091525 -3.3406153399084815e-09 -1.4175043361319695e-09
-34039.91986337567 -2585.2563807552124 -8003.206788084141 -688.8523495308657 -2.074298066645497e-09 1.8292851677870203e-09
-40056.38433074381 -2795.455031732162 -9996.080317817505 -771.777600277361 -3.1387834553697758e-09 2.8197533197271696e-10
-46256.54945149983 -4193.357587421983 -12560.855998924557 -813.1002395483431 -3.2413591810609432e-09 1.7574492972016742e-09
-51518.37854993786 1079.9639726892171 -12854.453993652745 -1742.635568587064 -5.079209497438342e-09 2.786499919693597e-10
-71640.39399657468 -34393.974003745214 -29672.219146134135 2.2491398864237624 -4.825457367019226e-09 -1.3911325424942333e-09
-51554.852950128676 1078.722473796881 -12807.664317868324 1747.4194289535476 -5.596874075308733e-09 2.92374124910566e-10
-46329.8829296046 -4195.544944752013 -12466.39055205345 818.7886320046352 -9.900420039343771e-09 1.1311094283428247e-09
-40166.01526143251 -2797.881564593555 -9852.646729472643 779.1539059690804 -1.151000006416325e-08 9.82886660949589e-10
-34181.07893038173 -2586.44950232242 -7810.07474803783 698.9950723689358 -9.59855617210792e-09 1.9172858856109087e-09
-28211.084562983477 -2075.1186087268393 -5879.226595858839 654.5739345701526 -4.3081449518922454e-09 3.376534607468784e-10
-22428.326555394782 -1639.2769256162942 -4200.983926315832 614.0127228595156 3.7777994066345855e-09 7.558114134553762e-10
-16539.712900098606 -1138.0149977055094 -2602.4753973954685 597.6185634852133 8.662240702506097e-09 1.779376646027231e-10
-10189.643867970504 -547.6204315328458 -928.007416099985 604.6334413766842 1.1243312059150412e-08 3.093969525025386e-10
-4467.055309906699 -520.6448978634954 370.3595714838994 559.108456060156 8.95959750835118e-09 1.8912871269094467e-10
-1971.5768347123062 -732.1782566041998 1081.6838420187087 355.47695346939 6.371337235577812e-09 -3.2350726542063057e-09
3806.9292886860044 -13958.528371840715 -3045.4797249464114 -179.54185878815852 -658.60208877395 -57.149989792031846
12111.944283359398 4972.4126391895525 4174.155075694178 -1235.3651838616572 -897.9184837767561 68.5212071858412
12548.524407671546 613.820949554019 2132.0504485067463 -488.8056282650932 -845.0712347632469 -66.18841096062334
17463.265816026214 1332.0563716349525 3017.546329842197 -558.5545000864789 -706.4154505303544 -76.37454454985345
22989.424615433592 1595.5516238985215 4133.663893749046 -585.2978579528698 -454.2487878290683 -105.39501461765884
28658.96339864578 2040.2565073800988 5532.183633382011 -614.5593125302539 -138.44274877798634 -135.41010987201582
34385.15715001816 2485.1010997798326 7162.6593425553965 -654.0303207607008 218.49595158155657 -163.52592580175832
40496.62094374196 3030.799993461081 9174.314046197907 -729.1510572558303 559.4843807585736 -176.17389716270358
47414.36311873669 3640.8083294658536 11672.914176577819 -818.6077541957958 750.0853183622241 -148.41420188402373
54233.79471030039 3840.1766541596935 14142.126948365014 -687.6662467606732 582.1974176787276 -64.27660802461409
57170.64225084459 3320.792927747653 15077.672449821597 1.5910329035898627 -0.7519768737878056 7.058146971278031
54217.084467992114 3838.305867119261 14134.391378441482 690.9454510501195 -582.8364881926774 -63.36404167762403
47378.01943477815 3636.8637959702705 11654.945388260112 822.187573562155 -748.0343781392656 -146.59997069111597
40434.26515203411 3024.339683166855 9140.622498188732 733.2833706220903 -552.4991077271129 -173.550064300508
34285.57284116793 2475.247334895288 7103.648151771108 658.9913994918222 -203.07724031893625 -160.36404733222923
28504.725871095314 2026.127960608359 5433.324954451261 620.9102717811722 168.6088299217238 -132.6798080385083
22751.412650745526 1574.4921690079045 3971.7317299916144 592.6991609819007 511.19447958238715 -103.80060739849283
17103.98643106221 1303.7288248465234 2766.7058025400847 572.1168933032776 803.8282039824587 -82.94946669909913
11893.521583216077 539.658377113065 1688.947765526592 508.1654678233858 995.3903447312817 -60.806009857339404
10460.915468798146 4644.737559813852 3321.7362700353506 1207.250208655697 906.082234707769 -48.94178423440114
1008.3740063337359 -14737.945655724678 -5180.933778392339 1550.5817828961922 800.9384793126751 478.35182306565736
-1840.9678740000807 -14272.700858064 -4974.293541424734 -306.25657904692844 -348.6901346575364 170.68483606620967
5986.654401471199 2597.678128251132 2139.2102861947637 -1402.0095611230363 -422.69813965342234 143.58902244185214
7520.609140541162 -187.03937650628617 1065.9080511972243 -1264.2404225560742 -529.131739256951 -15.885179769007749
11475.306627719398 35.54080267173814 1746.6496124942994 -1393.3798511270838 -442.38767271052905 -40.13967540489231
14949.080857366493 -86.7071666038934 2308.291555913525 -1472.889911658717 -280.23374030837294 -58.640647439428605
18587.70067868581 -112.17291144954547 3095.509459736717 -1525.295088958257 -74.92098382600828 -67.77506186207933
22268.30915060861 -126.0709659431377 4050.2668382781594 -1610.8884683102517 149.2093808336687 -59.08194409137245
26159.197714145448 -73.33179658902255 5245.4244628679335 -1788.0545048802892 356.14505297090693 -10.632129515782749
30393.422133224845 -98.45192021202904 6663.971372130315 -2046.4022813965928 468.76001133574437 112.64825226202157
34185.52973909669 -973.7750915195252 7779.963457808795 -1793.3918264722881 365.58609814074083 318.89110112122484
35356.696238449396 -2745.9271020146657 7753.700755964836 3.085822990992339 6.751577279900451 466.09996063685264
34168.43650117555 -974.4516851618725 7780.205514500222 1799.8459932725432 -350.80490746401074 319.1077818289207
30356.74309101274 -99.83403923006595 6662.4835040430835 2053.752154387759 -450.09324056307173 112.85642615024263
26097.62707188439 -75.48708030456785 5237.770341057685 1797.076388997131 -330.73605432426217 -11.015228099534363
22173.07085458403 -129.07150585044528 4028.6418607899727 1622.651439890301 -113.48646243291833 -61.29326965219978
18444.88211731625 -116.03344033713222 3047.0668682089045 1541.3175026977794 126.39945552934967 -74.21577852381222
14739.116481765855 -90.51655722310646 2214.643273462296 1494.893571115865 355.6004799734825 -73.13994009723575
11151.406493221697 22.85869470486876 1569.924975410066 1427.5435574239477 553.7153213150455 -69.2335087745523
6994.284925606152 -201.02028223948753 762.688515222932 1330.1951168508224 658.11710234729 -61.192729477579405
5432.803363149716 2500.4385082786275 1662.051747997955 1524.092994369418 473.14344108983806 17.742594191752296
-2221.2164373963133 -14076.959155301009 -5693.238293958412 1151.7089646878303 309.4027317084312 618.7647116799259
-2081.5898428693963 -10237.710241436369 -3443.3891965357875 -1984.89098738641 -122.33352443390979 588.4590978891938
2720.015586135924 1296.4070982197443 1224.6169932599819 -2440.301582927218 -153.9019831796553 217.03129344892105
3513.8577580246906 314.65423340026496 709.674492312404 -2274.7774840624265 -215.32095275425627 55.309254920338965
5717.900421002753 -63.77421558848595 884.3285941288876 -2457.9951473777046 -177.7548396112118 0.7919068971191416
7612.937243932576 -58.608597593201694 1195.2766379137622 -2553.2887173465215 -86.47671185986894 -6.745122354560653
9386.148997775517 -89.93568438474855 1561.431212485696 -2643.841203316932 21.72189979107717 9.87124206423405
11166.755558551087 -104.42254601505047 2031.0555894463728 -2779.826593793443 133.91093400840757 64.34154157075812
12977.155883158579 0.28789776755197494 2636.0499725057275 -3044.492389631899 238.38436926455321 185.72493362585416
15059.665385750957 145.0969274125904 3418.3152511839094 -3504.275830307766 309.93020065509927 417.52543327973723
17149.511629028373 -1208.7653661185586 3831.6438946320695 -3251.5928110876903 266.14926144577754 765.4975718497356
16980.848309587644 -5199.878650926652 2753.6962222895404 4.979143879812538 14.118399823052805 1017.018034534592
17131.753707520733 -1209.6650409682072 3839.2495063665006 3262.0217062336674 -236.30414092690603 765.0392350600258
15022.08865758156 143.29531276126588 3431.9933797140843 3516.2011518655836 -275.2854575471271 416.1394848403411
12915.589906185407 -2.412341007575895 2652.259808744009 3059.2224297123093 -195.8016095690734 182.259654528392
11074.60232614883 -108.0421728516188 2043.1835752220668 2799.2243027750283 -80.19788986454121 56.46778995366864
9253.944928327404 -93.93692635795475 1558.4327562371263 2670.589802934042 46.69550906678877 -6.602448356461488
7425.887774063303 -62.89865589806432 1158.5958767200043 2591.262117831663 174.36650061950473 -38.95962817755372
5446.754808714202 -69.14610611764847 783.2956414676019 2516.013943225475 288.27983289025735 -55.04252450847261
3216.58565012765 323.2313857923573 534.222731044629 2379.4948780513246 325.78892863260114 -44.798618080700884
2416.954977264068 1053.4750496397278 826.5826848091233 2622.8007390125385 185.32985491154744 131.2778390808062
-2188.3793348247254 -10086.808174402744 -3931.36864665277 2171.736427144296 83.50245800434702 910.2021740154559
-1868.3019119224139 -6499.799393571662 -1728.959527749755 -2138.5198088777456 14.565818213142851 754.5331208319835
291.460165614679 296.30234869765053 697.0719998391648 -2860.6124645144987 46.81895266463908 254.9154880109107
-95.90841121542555 487.1439703822358 371.8957808235486 -2837.994358318318 67.02474242110516 76.31963023808255
106.34053939151862 18.290462157228696 122.54683335374301 -2827.500117879268 86.01950552575589 14.79557506172603
225.47964018328074 -22.41515819073589 72.61803498466372 -2911.3320272566925 112.80968714408122 4.5706501289060775
180.445629502004 -6.122671059750838 54.52206831784303 -3014.2471262332742 132.62048663199755 29.06302077894466
65.34659825521308 -21.684510768127097 48.365959522213245 -3170.715521033513 143.25388652012666 97.45857205023626
-196.18982968390242 100.6661405189175 69.36601252326548 -3396.508092186587 157.10389220257179 237.58388117353778
-159.42435511958865 555.7993947134657 306.52356023588055 -3893.4865410263574 196.87260160146428 493.0411473431139
686.3314464278363 -1126.2540791817385 217.94522339941307 -4066.4339006723103 209.0676186418328 889.6202587202145
-1218.3710889849858 -9115.910103645116 -2519.5786976626414 5.642624714346129 21.464074106426736 1213.75242901034
667.9934059384901 -1127.431575283375 232.93784184682409 4078.2537762578772 -164.2322917921902 888.9567019834657
-197.70684015420306 553.4649409109494 335.413982617395 3907.0047148485132 -146.43782202345312 491.166389939229
-257.4475836433147 97.21936662748524 109.4643064664838 3413.2029009031826 -97.77243578120465 233.16168155888772
-23.047732056128552 -26.109114608432513 94.3228519942565 3192.7077895958596 -72.47070837652733 87.83966740749517
59.891844367652325 -10.930283961159908 96.62112577412599 3044.7864749947234 -48.89437561826668 9.324500674093603
64.51972718609657 -26.65798785255882 93.42400510919383 2955.618605399286 -16.017009165671038 -33.24492125330233
-87.64505963587493 23.033127710920844 101.8135590485075 2894.9183494396334 19.327228740300484 -53.31458206828707
-274.2799990051633 455.66635545076196 271.0334779432321 2944.4916001789857 20.169998345053322 -30.197498701899953
127.20648445660967 105.46568294899468 413.16149622521385 2949.468572889023 -28.43879100160493 192.47229146567685
-1882.4029692363831 -6335.313126214447 -2072.0630926182994 2176.0396474936147 -45.17215995981901 963.7636407413909
-1769.4930692797059 -3445.7721222966848 -237.09834468597046 -1706.2337080813281 129.81698199895226 709.0467530544857
-1690.6221372236819 -214.43505660601693 470.5694956927385 -2505.9859068257056 231.7619179816496 217.68412180349748
-3533.8051690974144 405.47614057226406 6.0433507278786065 -2643.5323308002116 339.6033629056287 65.05735955369444
-5367.400079032819 87.673647760275 -605.5880467286925 -2515.112584552648 347.66261711725093 7.412562888004556
-7153.536809424518 41.454590773436 -1042.5879903082807 -2547.08807884221 313.31780582637646 -7.054852512017505
-9052.161541236674 67.76166155448693 -1465.4474545459764 -2643.8655151458793 244.9367291025996 10.013913765293399
-10986.543059578607 109.34253911472408 -1905.6629630880632 -2775.1161051320446 154.48872405472946 65.11401720712345
-13234.041706371529 84.24414051985292 -2492.30075470905 -2946.3915108072006 71.96320754347317 178.15393408684866
-15421.660087545957 795.701313043901 -2877.1347625549515 -3183.423411070622 62.886689637182606 383.3001817155108
-15475.29332361276 95.74965974935449 -3013.767281382848 -4223.7203065265385 131.74731973124008 746.991285052116
-20294.013788717162 -14777.517633947793 -8606.936579222298 4.996063015362099 28.95415096041831 1121.2434937547878
-15494.330445196423 94.2880729343768 -2991.281863562561 4234.183886808921 -71.6137982161636 746.5920074988293
-15460.915208368273 792.811763252575 -2832.8093128695555 3195.3820838375846 3.7068666024542885 382.0354065051873
-13295.459245401536 80.02411147782546 -2427.936651241519 2961.13693346507 4.591328336542191 174.88763626564324
-11071.84614274067 104.06752700239784 -1825.288501848767 2794.50283254833 -65.97746589912646 57.56651031548671
-9161.93014523444 61.98508413768702 -1377.3669519051145 2670.926128504919 -145.10958538858048 -6.074510190711925
-7283.9194136419255 38.467960376843784 -961.0867673230462 2586.97108807097 -206.92545522305002 -39.26543252582999
-5498.4276072570165 88.22252679137353 -553.1569328265477 2576.011340283672 -247.21338352494203 -52.248924365271755
-3634.4575193257756 369.1475896612465 -18.1972713243275 2717.404476104708 -271.6818571143389 -21.45769324576803
-1769.5050903653062 -325.33110427078816 296.8772472570093 2538.727112119922 -222.48219846471747 171.51680485271262
-1767.6871284186177 -3331.434130548676 -495.48346206848714 1695.2693753513643 -154.6966074468604 844.2691575809193
-1963.2525729128768 -1533.6774520055035 779.4006862370056 -921.9202542505686 275.2861098482692 428.82699995104963
-3380.064356289187 -389.3355259003369 420.0658598495586 -1433.8856218078836 443.4437910044754 94.69843548596899
-6898.724300903868 226.81348592936018 -375.8530870593549 -1559.093969458375 624.8964975171938 12.738052712470344
-10779.832761297579 108.27568640286043 -1339.66798804869 -1462.2387919619346 610.8525929231155 -33.67766074459502
-14529.04086660017 76.65743498769092 -2175.9135055328 -1466.1125880284699 509.77854135685845 -57.89147488638337
-18275.966225370725 103.23883870481811 -3008.457824498384 -1524.9549145868916 345.90393697378994 -67.43154213848958
-22098.392675766972 131.12602069522936 -3929.5940521494526 -1606.9675847014257 143.57328813372612 -58.58339348632924
-25837.10611962448 285.47520211830744 -4891.2002383927675 -1677.2385992309416 -49.04180930491334 -18.51548905164934
-30848.39359560185 -159.40554420691825 -6521.459148864849 -1864.6898237164098 -150.9307010065353 67.08233935277076
-31543.00498986636 3404.793407017636 -5747.220833448228 -2533.1369798688875 -41.40857353583298 297.2630707759647
-41596.63795588663 -22062.094342652683 -16069.622283710129 3.121636251220963 36.75267257441618 720.972250140409
-31563.063678431045 3403.0930813622695 -5717.059405707654 2539.6660900677575 117.52711659257653 297.60557327924766
-30889.328313541308 -162.76476528732843 -6461.296409413045 1872.1213375401378 234.59804484502806 67.543129014524
-25899.908253989946 280.6044701561999 -4801.867768875231 1686.3369536278526 144.187821567239 -18.503902149171793
-22182.737590004228 125.09524346418156 -3813.717116149347 1618.8246040025995 -35.16774897536613 -60.20232452097537
-18377.169230142204 97.19108321579084 -2872.1486653239945 1541.3373851495692 -226.51641679705617 -73.0332600026146
-14632.392247475635 73.23031517164934 -2031.1802500740816 1490.3481598097455 -388.8011922407197 -72.12623988209606
-10858.480303436583 105.05337223318169 -1211.1645134041335 1497.6728876400507 -508.7727595592138 -63.61956540092416
-6935.396979520725 200.89625721213216 -315.1785336466178 1595.2155692978154 -571.1466406443191 -31.455179880891166
-3395.7436882509633 -439.9557704964192 347.43134123411085 1441.836050339716 -446.5987784242857 71.30995318540694
-1959.2724126536486 -1481.4541214277579 585.4229902631772 905.5973077210068 -304.99606046858116 504.41547435734805
-2193.366596331419 -891.2469103901935 1287.6931144055736 -359.3718529355723 530.416788011048 220.10052428623047
-4741.119848251809 -593.4660800299389 426.6597944625876 -574.0533482142401 730.9044979462589 10.035191346534052
-10505.242372159117 -591.0882992135868 -1027.1615389381675 -594.9157082334775 934.0987396297883 -26.714854829475236
-16787.2545733744 -1159.4148109039052 -2635.2652153056783 -572.9221320242925 872.4751831659704 -65.54335089192497
-22621.50450664807 -1630.6670091561873 -4039.709465076107 -580.9479268956889 689.3578606743408 -98.70465830896993
-28373.878512200376 -2041.596687191132 -5461.619168913406 -611.8024203106665 414.82920872871586 -131.31102635981478
-34257.852814655686 -2522.296352444232 -7072.8914725272125 -642.5066789757665 80.9415834226647 -160.49434988748106
-40000.91443634121 -2687.9153685674514 -8723.664641188401 -710.7366418393816 -248.792112445824 -182.0938367803405
-45698.086107370524 -3974.454620583592 -10904.72839891509 -751.8355593812059 -462.6331563530057 -172.14520534102473
-50634.615435310196 1113.373931987379 -11173.105637928955 -1655.8586779455727 -441.82873641211955 -106.50948210985733
-70168.64977400686 -33369.25046305911 -27519.1026796465 1.6235059799422054 44.972253481634965 505.1128274016836
-50655.64720859907 1112.8415079451843 -11134.464098903869 1659.2731755936275 534.8911854131609 -105.76648231250404
-45740.62417177604 -3975.3115744347842 -10826.990651661708 755.7717666384002 564.7210783422264 -170.71721092496267
-40065.10339448809 -2688.5951909944324 -8606.433932658403 715.6207839597349 364.6543714999941 -180.14898509981265
-34341.54969319226 -2521.7712894978563 -6916.915862698023 648.9004754071087 50.89956310062932 -158.43119172983504
-28467.77966558528 -2037.3733908831948 -5270.156989577684 620.5018428227863 -269.86194568350135 -130.0538310718445
-22699.816798936663 -1617.8659945893064 -3820.509730875724 593.3113395891329 -543.9341221905478 -100.34791713837487
-16807.164730927467 -1136.0710111806457 -2409.014801412671 590.1096420491327 -755.614318594916 -73.68552134123726
-10452.045228750098 -572.2180653394207 -850.0498150571848 612.8149981778525 -888.2932983996031 -40.87860051856203
-4674.2769253318465 -586.2877112278244 466.4300310655288 580.7568378530597 -763.399469834392 3.3037649390941795
-2151.391333412291 -843.4737411187493 1169.4104820008129 354.40077344907456 -596.4541832763107 265.36856588852345
-826.8124789903252 -18382.366162949165 -5762.753592581847 -2857.1755431810293 -1524.2820530065355 -539.2035454100516
10836.437687043277 5210.923397194443 3796.195115668938 -1277.2731650611245 -1644.7240082404476 169.00331221769693
12585.871891894714 630.5745036658184 1659.2414010905466 -456.45007984923245 -1542.7030622473642 -42.22476933686805
17820.43930665559 1545.394550032029 2529.649940363062 -496.1467314457086 -1370.8329119602809 28.88056083680993
23558.320053350777 1815.4836563584345 3381.637522713748 -492.74964895348444 -1046.2697513044204 2.9638527497087566
29482.576306658226 2318.778360395752 4446.752295459179 -505.34065044775264 -625.8035975004697 -2.0161972965032255
35305.2697103389 2793.337983033501 5591.339810624762 -517.0362636545311 -97.3017681517972 -9.46130418054574
41044.02223723661 3302.984295379339 6894.433582278473 -544.5599432006798 486.44771038933266 -0.7497383509268758
46691.15055834806 3808.390276206395 8406.722379653665 -572.1836711511069 940.6530177915334 61.3988006000294
51579.787668798075 4030.72165543685 9865.448361865881 -460.7187832880866 859.5008721275017 235.85087004880876
53565.76152891633 3743.0525737343787 10413.784954992527 1.5508636958462816 -8.137088714599393 418.5551844710609
51590.55487909389 4030.1223246293066 9862.41802934969 463.79631895215584 -874.8597981342886 236.92449644288166
46714.20275796401 3807.2122660304285 8399.865078658326 575.147550996791 -953.1295651150728 63.508093774522536
41083.06800324484 3301.3387087353904 6882.07551844035 547.1745629663732 -493.6037743530839 2.190646730137601
35368.052269054126 2791.710957690236 5570.969774894892 518.8652360565268 99.22721462238442 -5.963188500178454
29583.47399123831 2317.881596646601 4414.2721963974245 505.4408875252921 642.5224224184943 0.18478149124118026
23726.391691192406 1818.3625161656723 3333.790612409712 490.80745527682893 1090.5585870577431 6.056814405645875
18096.486733591446 1551.8321780986955 2452.151625260885 486.638412772675 1447.1384173077722 11.201209456115594
13130.432653619151 673.3194673798731 1605.7197408636493 438.8067993518262 1742.000332194796 8.337886961747564
12117.527040359324 5374.500524563792 3809.318659800821 1266.5630491570664 1471.8561064088674 -199.36538747104052
1691.5885726227937 -17411.371154295823 -4101.705493344627 1688.2421935868501 1243.443965383121 993.3717977876097
-2720.2585052829795 -16784.936720470952 -5086.414084084615 -1833.526653623719 -256.71031000652306 50.52642969108198
5701.150765011901 2777.895926147586 2006.0308483148146 -1592.9016443596772 -553.0745444153227 153.5938655843424
7177.394810343422 -150.4350284585028 645.5520342432541 -1254.1316760613058 -940.9188683285306 -10.084288563261381
11527.05196879646 174.3834129322727 1279.0228421696756 -1302.210222458919 -789.0318417407967 13.582057165996304
15178.8976378589 89.87913213069336 1676.8652655315109 -1341.0509499198222 -587.9692860208687 -2.1349974638466342
18982.628488974715 111.80930957337443 2215.07621344095 -1348.4325674989843 -320.41936907854137 -2.6172677180043937
22726.804131253193 141.89722147662616 2829.9280000630365 -1360.0375393820655 -0.630559910501463 12.869053810555302
26385.907309221016 205.59715770097768 3551.7832952672334 -1396.3396634649082 342.88435640034237 73.89134953025147
29884.893607841615 224.81693352696047 4371.975050394862 -1447.6883229970779 608.8619003620386 250.84566215778358
32684.94330219103 -254.99271751082898 5003.083233359828 -1187.8307796528866 561.13785430477 636.9352384666549
33521.650095168705 -1355.5823451813249 4942.665243965587 2.2450091316913543 3.134969466645887 1021.4579451802192
32697.12525048156 -254.5121778012588 5004.4570214702935 1192.2518101779765 -553.441169082403 637.1663586086643
29910.578258601035 225.762717216734 4373.918066160926 1451.813275366023 -596.8338049287297 251.052078113729
26428.214984158127 207.01210723630172 3552.5359116485333 1399.6460346827612 -323.382400569929 73.41419173375172
22791.768007172017 143.82506394998708 2826.372794559546 1361.4625510585242 31.207253097523413 10.388055101684994
19082.058702360144 114.51803161699317 2202.671520005222 1346.0913805470796 367.24260463120476 -9.83064802862604
15332.815634944538 92.94194718454413 1647.2081760780602 1332.4038645360988 656.708032214212 -17.20338321619895
11786.60214902833 186.92697848264422 1232.2611554977598 1280.478143769674 895.8105267972966 -20.5424496478408
7623.7825942571535 -143.46642386573038 561.9467190607293 1198.6085723326419 1075.3521280485809 -40.76644642167462
6159.534727795784 2829.7212261560753 1914.8827217237533 1460.4504079015248 588.7365037624911 -111.82179126136282
-2326.4803315204977 -16756.457616744105 -4944.019939779314 1088.3458627878306 176.06442372311247 1047.8998543163082
-2526.597735381574 -12189.322612566213 -3331.179512466616 -2419.9468952601505 40.70523687038151 1010.6339540568985
2488.094749282026 934.3022067913363 1084.8468705964137 -2766.3297196914523 -126.42631405052724 151.88821671969282
3263.874931302456 487.6231186957346 515.0099561840926 -2287.677752480922 -379.6837588888522 46.312054385218715
5542.816871688599 46.973295271326535 600.0567364225885 -2352.6146904494026 -322.48132432370465 -0.6424949518769347
7591.175353553037 85.48981874480788 854.1483830551804 -2378.1118672170824 -204.3834634750611 0.501969246786043
9471.90878959974 88.65230170575697 1101.5612869239778 -2387.411699141372 -68.96132207025214 15.351523312529475
11328.507024134535 110.36296678713069 1403.4068776612896 -2393.130135684408 87.55634826166322 67.55984261700857
13094.271896180559 193.1003728761067 1765.9445284986675 -2419.1316730085177 265.30180516539997 198.2521836739786
14827.943117759254 299.17725861248147 2209.283693277924 -2503.1996637618577 460.0460835272181 505.2265041087006
16343.237682727313 -503.5102859412101 2410.9789641564316 -2165.0913727771685 511.27747919741876 1143.547631961898
16231.66604032051 -3116.459739694495 1636.0183941014145 3.293013885776144 13.13331947505252 1881.7966036075632
16356.304234502395 -502.8374066377939 2416.4400694873875 2171.5503865045252 -483.17881121936875 1143.012617900807
14855.051859431223 300.4904588300277 2219.4499613505773 2509.128525349722 -426.4936088593918 503.6886956173492
13137.584933248188 195.00386324142292 1779.0515672285874 2423.63609867537 -222.82771333788787 194.57399133314334
11392.172472749713 112.89231305906412 1416.2899762274694 2394.368259006889 -32.940855334748754 59.389141370225325
9563.61051795825 91.55796868473217 1108.7556485768287 2382.1306031172903 138.5403767389356 -1.3884498688493547
7726.757155851397 89.437051116224 848.1612364702715 2361.1211410555 291.84086866907376 -32.65049398232242
5756.762309655126 53.19923804242329 571.5392159473608 2313.9374178630655 431.05903876395087 -55.725907521872585
3514.8367877659302 476.8608114457928 423.6482002488374 2197.1985913711337 489.55217748390123 -64.39318942699174
2735.288870201897 1125.4763677144524 1025.6934684374291 2583.4817342314623 148.86445378154528 48.01680961320407
-2415.777550604985 -12174.79771545275 -3400.9341102759113 2210.3057477247335 -90.970634670847 1416.2402013314572
-2097.222045926115 -7713.228065388874 -1683.6440171711465 -2288.1070817346354 131.42035929642682 1108.0583667916555
95.38902028784001 -159.5367432048029 590.8021984525557 -3039.195406405464 125.5024166132277 272.4504289331819
-352.9540598886988 541.3582752992331 304.37663355180644 -2889.7710859178374 78.51800702011568 68.74178294518721
-213.83085374711584 60.46577981087603 63.58416717134775 -2729.622481603053 109.76261209249824 17.005212028757892
-57.48128223446452 -16.05220450506941 38.02967384612789 -2729.23445744915 147.4390789052023 14.571985407325728
-41.71366247606083 -2.209544945605688 33.522820310405876 -2735.2977781358486 167.32494285358325 43.19412903070543
-66.93703080517462 -15.122171608049273 29.488811856535932 -2741.7167182281432 181.03515700722957 112.47855499401058
-185.86005259200664 40.95918614596104 33.87840070955381 -2722.824093340218 216.2265234628192 260.7971529791961
-158.4055600980763 309.77227349531637 150.56481907460005 -2809.945295906669 366.40455597046787 579.2021374766433
364.056327397916 -725.9888278844132 37.869293805929864 -2750.2886797253736 566.3720504954548 1274.916611379368
-1028.653509774494 -6187.6607595805945 -1940.7675332068352 3.5807358648059022 22.624246329430875 2416.085304437153
377.94136408804314 -725.091671759283 47.48424035378314 2757.3074557835616 -518.9198352737461 1274.15935033033
-130.0877670369674 311.5288132588318 169.11206545108874 2816.3685458548653 -312.50004166607994 577.1518635256881
-142.02955709686526 43.52639613742116 59.689129507955776 2727.644986868946 -152.1736965476407 256.1409259755191
-5.789917672046123 -11.790915480159242 59.303224980235775 2742.8408038657976 -104.31244422159821 102.60477292646111
40.21101151570477 1.7232939322417185 61.63718941238435 2728.8205576283754 -77.41826767284081 23.127955711304807
54.729283293041014 -11.514973330338535 55.98363099560291 2708.5388603328533 -46.51358781284518 -23.777563010533587
-69.1525692771847 59.02695600429366 52.30296175446179 2683.1953358132087 -4.306073332405724 -52.409035344068954
-211.72640508650397 565.8704421360476 246.56595565189264 2796.6408238867184 3.7461288777371986 -43.33059487777263
225.98530729926105 6.761766562943311 536.4834245320961 2941.5789688739483 -118.62332654259853 204.8519713261817
-2094.4811685864443 -7772.935242229282 -1822.1985784243461 2220.232830188231 -172.01736518054398 1350.5179442404237
-1897.7430611374236 -4097.386496342731 -377.31399753600556 -1732.4172328884988 221.70064420682027 958.3392349960006
-1840.6532163674667 -571.7877357952619 392.0578055935686 -2574.620557162244 357.94964962001376 277.82966839174503
-3817.597676590964 359.58725404812407 50.068805821800005 -2661.520702239073 505.8644250207612 71.37691232741983
-5823.050057691569 29.078544607558914 -449.88041631373983 -2419.5030977709825 540.5945698211694 8.745660676923556
-7685.326280972493 -84.89395483584315 -764.1710020848744 -2369.431938085323 503.16863035220854 -3.157042142597412
-9579.650159618495 -103.87812437715836 -1046.3859788776547 -2381.857274265035 406.7435580432216 15.728043428908391
-11433.539338520628 -108.01876887797476 -1326.4837616605423 -2387.5479367845455 280.2543704795147 73.43748973281443
-13396.876304292167 -185.00578224719766 -1697.8414636594996 -2366.216925455422 156.22160660315728 179.24028130429127
-15203.961868305125 229.00918057514116 -1953.3678217070626 -2326.51986167072 195.09394182334557 405.08556741542327
-15371.99399421977 -126.57313286479396 -2064.67091548905 -2941.346051690494 602.7866092620161 931.8414229692494
-18937.54029310069 -10722.276387022468 -6237.020061644279 3.371753273542886 32.31791635343029 2527.010838109411
-15357.260310335485 -125.46868282810223 -2050.849557079682 2947.982952471834 -535.5427791337747 931.4196410440827
-15174.376150131366 231.1887017512948 -1926.3098064478922 2332.6890802797875 -120.29811395256756 403.7750081307454
-13352.456221860897 -181.80286158111 -1659.0956349905257 2371.069026117569 -69.88803922063616 175.90125136401034
-11374.891451680041 -103.8722510575667 -1279.3460395670925 2389.253943613953 -180.47338278607367 65.76343852236705
-9507.662419738079 -98.79734374834096 -996.8351958386415 2376.796043887553 -295.443843366972 -0.6757693556947881
-7601.599753899992 -80.67057467222975 -723.1495570870368 2351.0970562465263 -388.10448871073663 -36.32874131587077
-5737.542772862194 32.260205490178464 -435.73194185865844 2377.228405191025 -438.02802187996156 -53.28449073907937
-3750.1789804325563 392.14191990610584 24.860683737492966 2596.1397198578397 -444.7626979194056 -19.480227606902147
-1784.6038068693063 -468.88029861667906 344.02807875025775 2532.6960491570803 -360.1985046928663 231.31931732095973
-1926.1799655788561 -4163.0044795286685 -510.46262930237447 1716.7629262415512 -255.15813074595954 1119.1335087358407
-2030.899038213106 -1816.9029672960387 494.43628807063334 -905.9684925002734 397.3115393394039 622.0911582048442
-3471.773037562989 -590.7937903460412 378.3591042864309 -1439.424161552945 662.2902192790472 189.08335345887727
-7207.013493502876 154.41715679118408 -226.56665046420724 -1535.3735373530883 978.0217355789031 65.17431644824052
-11369.545109752342 15.834567965320915 -985.375763420582 -1376.5352750045029 1015.0093701136011 10.308422061414104
-15303.738820387825 -85.08338465573844 -1600.9392176616648 -1331.5766005919668 895.6195403305896 -4.763477169697889
-19109.793366045447 -119.41663956332211 -2168.5694226930154 -1342.2153530491748 670.2826137769716 -2.679781949524541
-22853.310896427898 -147.48914053281922 -2762.85372665282 -1354.6848694748332 378.5641668525248 16.86510956725978
-26341.349538085487 -85.97875682735764 -3341.931757542499 -1329.5359799463297 81.37098951798836 68.28409958826208
-30435.318452423937 -493.7087533644649 -4395.701276625339 -1371.4958875699685 -182.24969215464978 107.09973354542758
-30942.32189707066 2212.7767834274764 -3781.2450304839585 -1857.7213280892804 380.3883105552033 348.2541432351573
-38374.34740458069 -16528.803369182235 -11755.299057744523 2.3383715043563384 42.927817968339085 1860.1996717627321
-30926.620145160166 2214.0390965649153 -3763.1808170937284 1862.3563843586685 -291.41517220157476 348.6647105951545
-30404.165458711614 -491.206018317849 -4360.049404516784 1375.9169122794453 280.2017116895306 107.66603247420299
-26295.720184751644 -82.29604243090321 -3290.1067093725183 1333.2765586684554 30.103625121464674 68.36457473937921
-22795.840051471798 -142.71068232823936 -2698.1474618608913 1356.6743692118634 -251.92956705895105 15.132257528382318
-19046.305660736645 -113.94533914150448 -2097.752225181684 1340.2794344901229 -532.4698382647907 -8.897025874687568
-15245.76164059902 -80.06525380415647 -1536.5655993252806 1321.4211944750502 -760.0920532768298 -20.792352621412952
-11333.813212577506 23.138412051254484 -945.4854343506822 1352.6388517818762 -907.8731848967175 -23.472003412735074
-7199.642492248835 181.37736167077452 -224.70923034074943 1503.1843165491198 -931.6811484756747 15.578536274125849
-3472.9401320657635 -541.8456499985743 341.3071653843536 1425.1993520938483 -676.9935735159827 164.8223584450347
-2071.0039402344128 -1858.14647684109 391.16463790071566 902.6866900572296 -435.2195460351134 714.1135291664503
-2180.133243768863 -996.2610904320888 1047.6652402115517 -347.00193452374936 759.5894552775793 403.1742157078689
-4784.221130725552 -701.9288228676148 432.45614447037684 -563.2910812014678 1140.7996216166046 131.45089889295966
-10880.307253171599 -674.1170963226776 -838.6150394596194 -553.1963888379204 1587.6199146971053 70.74516152148632
-17596.930637630958 -1293.979791039383 -2217.3939840529947 -501.6093470753249 1600.725070040803 29.306503602172555
-23739.71392946532 -1845.6443884120342 -3350.1503403805345 -490.43748664186285 1376.2806732345136 14.581859500735533
-29630.88809260167 -2320.79302459326 -4413.781441445109 -501.8529624605288 990.8548910900197 4.728691405050789
-35460.543814408586 -2831.0300010424667 -5545.526867417929 -508.2457644507041 498.5065391495918 -2.690831684532043
-40945.660015951704 -3092.026806356064 -6632.299482256469 -531.2888140137642 -46.024323518813496 -1.354148076289448
-45861.025459344266 -4135.32166715384 -8001.690077339446 -546.9685349587628 -606.6290204106946 -9.899269988575917
-49064.806417816806 -200.34900997336234 -7927.378189506771 -1325.892535950551 -904.9946737233839 -214.41622106515626
-63390.19414086216 -25961.32830354341 -21083.95495259406 1.12252729423858 55.23039010993624 1977.9614831589029
-49047.57186224052 -197.95667026636875 -7904.64615299807 1328.1404651754142 1019.2668012068335 -213.6460885485205
-45827.050755685996 -4130.56877380901 -7956.601325884047 549.1900063796377 731.8857805771861 -8.491307991816491
-40896.55595393014 -3085.0253129262032 -6566.15478267138 533.3278940999323 187.84134400521359 0.35748590272074665
-35400.401792718934 -2822.1061490585316 -5461.7436407709865 509.69131704349377 -338.111161825077 -1.3626530310676799
-29569.396308195675 -2311.1545477430054 -4320.191486736792 501.8325898117638 -816.9582012372884 4.269791260038815
-23697.716720842145 -1838.0976925668954 -3262.4036533664985 487.1069550935265 -1207.0350730045268 9.503214516776659
-17604.848144106818 -1289.7539940551676 -2159.03914291728 492.5028164146827 -1473.3484800712047 15.294425168972364
-10943.44392589791 -663.9586015954503 -827.2623399501363 539.9039726250537 -1549.7026464684936 49.400084355033876
-4850.503821725559 -686.1712599863552 400.84038763750016 556.626500921346 -1188.7351808936132 121.97650834008317
-2249.8461530838927 -1027.1448792938925 969.1604376293044 341.5635636366561 -838.4843453216162 458.8480378127027
-5473.273802156205 -30360.323395134492 -10750.079159187204 -5554.739770586611 -2290.0335144187866 2885.713408829353
12096.093556146663 7781.164552128617 5007.519608640088 -2467.5237758272237 -2383.653513137757 98.13495424809861
11965.377342837202 347.2288941310137 1173.2977032515469 -1163.2575859366484 -2328.6639765265395 809.4876794899494
17307.404816518552 1609.2133351999541 2131.407408420632 -1199.5762532725796 -2072.0026088790923 878.3249003977381
23367.589822759233 1795.4288575024143 2862.017915593752 -1130.567831959674 -1851.6199414102439 1206.319454712627
29694.126104797208 2360.120159396712 3829.096022330538 -1025.7868829246963 -1454.340996343414 1487.5446884383223
35854.77881051008 2857.918475377063 4791.595832164266 -856.8505285774753 -907.08929466136 1776.516251571564
41668.67067614142 3322.8865956316795 5769.530048427696 -624.5960911472736 -221.091520206414 2060.467868163528
46564.218658191734 3694.8598700876155 6665.949587179024 -325.0849998310432 447.6088193490522 2353.1836054484365
49757.37136307546 4066.179759622119 7358.153336681255 -60.40255923753324 637.2721959464043 2667.695755806484
50928.339040649924 4484.216694485925 7731.014098632777 -7.39825463708263 -15.318880284663273 2882.21920676304
49793.52978788429 4066.607273674578 7360.830178684362 45.22192632693083 -667.6408889056041 2668.43992963038
46643.68980747745 3696.045554804547 6672.240673978381 308.75247307268404 -477.08867194631944 2354.6587204308535
41806.67341701485 3325.534294566068 5781.305646181256 606.3167488732851 193.4605632292251 2062.711761217048
36076.784407857325 2863.5856335303047 4812.042442626195 835.8923179278527 882.7266209730848 1779.225629816195
30036.436727203225 2369.620801204164 3860.365851624223 1001.1176317632388 1436.375068939163 1491.803106090225
23884.139988887604 1814.7195774046188 2911.1184033132 1102.2930122859425 1840.128432280256 1206.7272366340558
18056.969666849443 1631.6573783010049 2176.8379326594372 1159.5464285680696 2085.2576029214615 900.8096808144671
13243.698512551999 480.7803026403092 1373.7450262981922 1114.7877619995497 2292.201837738481 734.8252397459453
14867.352224764547 8270.519325794674 5303.404570940371 2560.2382489241854 3065.0360952767787 539.8484065346247
-228.87195842904111 -28954.22873317741 -6607.637164722666 3338.9014872710263 4014.742092114078 1119.2447597686676
-6068.481064113573 -26333.95191586991 -7939.77307779055 -3565.355817763268 -1892.061644630889 1658.8262006974999
5782.946148318396 4217.123501031648 2375.0290509923148 -2954.2070800647466 -1584.2805500457393 497.55584218798225
5966.334565516413 -403.11386878174903 38.95777323367605 -2457.9735542082917 -1437.44684361176 872.2131908002274
10797.176389724895 74.98184793817111 741.4765726606823 -2489.4917272863177 -1270.9487311080068 1131.0649635514371
14606.946423928455 -90.66834973589734 1019.1026833153632 -2433.4931071422097 -1102.9275392136794 1500.5935235851791
18638.974681167238 -85.6789080810268 1422.207178449833 -2235.200239649353 -869.1238131942164 1869.0805593814982
22567.058586579136 -85.58494416367142 1852.6311029909741 -1942.1049039793263 -543.8295783231989 2239.682423326231
26262.923513680653 -119.09729698558522 2299.4459194526885 -1514.5859450866712 -142.32768509118083 2622.1749793563936
29393.059338844214 -155.84445531131388 2731.7925566882295 -894.6612509211311 253.10804477331055 3057.569683213142
31555.10525464636 142.81375668126338 3172.3161426866886 -235.47369290740383 377.4710771019666 3603.749539475134
32570.602467219993 952.0770140269041 3607.6307105393416 -13.190826141965687 -3.669522834643775 4027.37063623796
31594.301662890117 144.5379315355957 3177.7904266307673 208.25199705450018 -384.07947224546626 3603.827629982167
29477.887101851316 -152.24923615601267 2743.3815016592694 864.8772365343983 -257.50056134046224 3057.6261154279923
26406.762968871542 -113.32919756150223 2318.368793556452 1480.3773136033174 141.65832323010997 2621.9980517076197
22791.057963920164 -77.33320674455783 1880.1760698542255 1901.3966872363515 548.5689028929676 2238.8345484809865
18973.52058855829 -74.93731131745005 1459.711535164692 2185.67649797093 880.3869886116414 1867.2252266266269
15089.574445123999 -79.23531151974353 1062.1197545292246 2372.736688793685 1123.564432243713 1495.7645085761285
11496.725687397202 100.09256164249118 802.5048288864991 2407.472128862692 1291.9838087780486 1130.0802423429916
6946.628450984473 -382.58499962286174 63.28917764064698 2331.382715178304 1496.9178361415372 838.2514719793834
6747.857156770105 4424.525106902213 2474.308842640765 2786.435943882359 1811.714043738976 713.6689032278656
-5625.770893825658 -27195.231292635344 -7633.553672948876 2231.0951542416265 2240.2834304043045 673.7579663694085
-4835.8795144803535 -18352.81566433147 -5009.205269207306 -4185.949568297349 -1152.1246709596358 549.401959317261
1984.4743645744845 1287.0739317670323 1074.7863202195183 -4798.601868313878 -901.6580011225657 773.2661015681666
2095.694809981515 590.4891041355907 102.08314860016151 -4185.505096737892 -710.5357804560255 995.816747943788
4627.1912211834215 -98.02908534174402 137.35911631884932 -4256.826345765029 -576.2176121632815 1442.5708017233435
6939.652837452357 -65.63026447254377 392.15366474098096 -4112.2521567987105 -471.26415613150493 1903.833821096414
9000.665944148786 -83.3597220214762 579.9847812527232 -3795.806034826689 -356.6404709554546 2388.370730772966
11052.637986224127 -70.35190157884078 806.3043665983686 -3325.2657075904463 -202.8359752915707 2877.3291866938744
13025.09899787282 -109.71091538257049 1046.576299956266 -2641.447081125829 1.9725672736103146 3393.096935707142
14706.117797950908 -168.96486870927154 1266.417708279649 -1586.351826800842 262.31585462621894 4000.431201021787
15849.13119184843 499.5568448049676 1613.182649010394 -342.3823997649566 400.95640997979274 4829.641394259911
16899.253332891454 2666.001764306612 2450.5482183895383 -21.07909454704145 5.639835678258173 5610.37307870785
15889.597991244835 501.5810635273788 1620.8053648266539 298.8256920562637 -388.56313373925315 4829.20623925218
14792.77607229097 -164.78065413735635 1282.2089139644477 1538.5170199636514 -246.63750534560367 3999.4305577391647
13169.434361328267 -103.10995809051934 1071.41966152796 2586.1796514196762 18.973205390324768 3391.216494993057
11272.09751168474 -61.00926805990024 841.0839132905497 3258.9158862169947 230.51025855305497 2874.0599509262147
9318.138372580635 -72.14854712904035 624.049420185318 3714.0751643546246 391.60221239967046 2382.574764616951
7383.05533761138 -53.7040718551596 442.84723296916627 4009.776885896637 511.72925741706314 1895.3388649200222
5221.533263783324 -87.7915717527154 183.06398980860152 4119.923230993763 617.9270295720697 1425.6581314258935
2690.3024996152994 598.3136310049182 74.74683753533176 3986.562371071717 768.3897947013709 999.5552705573542
2544.3634701497817 1704.8048883848078 1186.170077520252 4533.403656608434 987.3468153719423 785.1399910081352
-4812.818368190051 -19041.345326717845 -5117.552366610676 3956.6702569080953 1264.2361530738058 525.090136897085
-3537.997272673473 -11090.26946021741 -2649.306220638891 -3870.948953293566 -519.7347676724544 193.74335520313747
-618.9721498214369 -257.40354399106167 413.51015832268496 -5074.654859059263 -294.46843870633796 671.5361963406045
-1432.7350737212314 751.5333863932719 46.131091901616514 -5095.016585046066 -46.44776176448204 1029.6220577434951
-1129.8082985071437 57.02685045552931 -179.04877678508083 -4864.056658645258 77.20553933637837 1516.9140554731323
-683.8052253368148 -49.18026961667835 -116.7909888836863 -4664.092570306022 113.77993699456226 2020.7663136876038
-452.3808913784714 -20.006017961680193 -61.81514744909784 -4302.6070846164785 123.75393214042312 2534.4477536754434
-235.65726562995502 7.526177314888471 -4.070866409604577 -3777.254253697038 132.80319955944162 3059.4981026204714
105.73934531158443 1.5148424741462776 86.40543956283777 -3038.6773041421893 167.33950842700543 3606.399851566022
416.76283738094867 -161.85812787415946 105.81893152579099 -1830.2910477331923 323.95394861113687 4233.66910044314
426.8796246486045 796.0190810783103 295.2165099816605 -113.3881454917661 526.6214557366138 5133.821996397001
1923.8659145720999 5646.362588575521 2007.8181638409474 -23.666983597726613 14.005897677779643 6293.817224275899
468.0768243613293 798.403918625944 304.9398843752579 64.44111774995802 -497.13778118677095 5133.227995525918
504.10064489565207 -157.0031376540736 125.7391902835084 1776.4100871483984 -290.1772435043752 4232.332710582804
248.70987222331075 8.990385870021953 117.20953984170124 2976.2324803186516 -126.90026699903532 3603.982809082148
-23.88931252211603 17.63207404967079 37.90151776820608 3701.9823855253626 -84.36423128562289 3055.3386419903395
-156.87466614630586 -8.513146531144947 -10.127347408045473 4209.165205482015 -68.06045764025387 2527.5306356254578
-290.8594840437479 -39.85100441856114 -60.727862868142246 4545.114835143112 -55.2482822734506 2009.3191230981656
-675.1731811140783 51.24323725788469 -146.19370349855856 4708.518717626665 -22.732467848205243 1501.0456100951073
-1032.531595146704 827.8711304835705 44.21124866286726 4898.7585168006335 91.44863783384795 1020.8980347729964
-297.2430990824239 39.71570350052548 467.0585993292117 4959.068828356456 332.2322441215237 690.346613386544
-3604.538899837691 -11622.71996378757 -2820.671416086748 3833.98473702358 566.6752519421944 303.66551512492816
-2778.055057144954 -5551.143180720237 -978.2300457924988 -2941.9418537623465 7.6300132082637475 152.97961514397272
-2610.2371581587054 -738.7751267777032 134.32865470572438 -4267.53101560539 275.8809310744266 521.0555133594488
-4812.032633714984 602.4986292797329 -89.86077510618011 -4688.16805159367 625.8713265400534 951.8814527745592
-6694.227224578504 139.20553463668858 -469.57978162201897 -4369.380536165275 742.404485829599 1429.0863129598256
-8275.211968578244 14.536016409073746 -602.2144421271018 -4116.107163293311 706.8809714665393 1908.2732194284317
-9914.102551918475 44.323037917808705 -706.6331590282554 -3793.349590368475 606.7405648869377 2388.786443390399
-11543.762262404767 59.33887460060569 -828.9919078674828 -3330.8807115314594 477.512632785669 2882.5111787004694
-12854.54389671037 170.39776610406898 -865.3784637798152 -2672.932268873681 323.9212523758751 3378.334382188204
-13803.710279821044 -112.05752081069814 -1011.9567530950138 -1698.9575824737778 288.3298792601369 3907.501143424276
-15291.018422014022 285.40139607893445 -1369.2300026017547 436.7325432619352 589.3640543294525 4640.077666044382
-12502.549297210346 10217.952212825965 2060.4609187071337 -21.30271245345108 22.55750579060942 6153.027552063
-15248.891707211136 288.2032390003156 -1357.3338708943402 -480.8130855878087 -542.3797507571581 4639.682831191937
-13715.307571218484 -106.42417494951023 -987.7491080846048 1650.374061720836 -235.933882844238 3906.5882787478913
-12712.415552320446 178.8493087806852 -828.3874408672834 2616.564182282131 -263.27639984658197 3376.611164837962
-11339.340232633243 70.25000759994931 -779.560842957942 3262.8951688265997 -407.38004318473236 2879.4194158845444
-9641.207977405276 56.23662505283309 -647.3222679079196 3708.6399803093236 -529.1061530166305 2383.350539756275
-7942.146195801161 20.27724232976336 -543.1122340130837 4007.599804099349 -629.0865815254572 1899.1920572219528
-6353.218453555257 140.0718431586487 -432.82564227017474 4230.686582405801 -678.1962798821249 1416.7722225700459
-4545.238271318459 675.7913247314228 -78.38489501585127 4553.746331069942 -589.9640043765185 943.5974932613277
-2433.6491006316373 -573.5535152728706 151.30373542121308 4235.693737941659 -261.23668278802154 544.1569821279289
-2832.756203394545 -5870.637493682272 -1104.2526748254352 2962.9733453204244 8.26203518361389 255.78022157151202
-2587.061767045111 -2221.4311991618906 16.691192751221706 -1628.8703447986638 471.0676580577351 224.17875918931637
-4186.430277009209 -690.5025090152151 78.69834184829293 -2458.7225279305726 859.1511263663905 374.05093537099424
-8131.460167975575 346.63163855369476 -313.0170327987718 -2816.488639529825 1370.1188049953128 747.9036495627007
-12245.681337830354 148.22727396784313 -862.3398475725774 -2619.066559531851 1479.860870264664 1128.5274042243645
-15977.67011622593 50.262962052634066 -1235.7767482253143 -2438.0691785943113 1358.2060999478495 1499.341294144354
-19567.604173712465 54.01640788387402 -1555.023717195497 -2235.2262751740177 1130.8151036707811 1868.7157775377455
-23031.965964692165 84.8120404573024 -1866.835488734139 -1947.9526908212567 834.1055572977443 2242.2826000559007
-26363.433523830074 50.03478703512055 -2230.1981725646765 -1560.774843502956 493.91664013042816 2621.464994495146
-28261.85373656117 550.2425277605662 -2173.42014130362 -905.6203296424667 5.144238651723597 2937.957605070109
-31905.443156934463 -1925.021028131644 -4002.356613396713 460.34754845251973 230.1249087255709 3357.0700527410945
-26409.464030016163 16312.598397133695 2221.6704309086817 -13.478017158350838 32.44108506010909 4461.493759651593
-31861.39198362149 -1921.7990425122384 -3988.0903146421138 -488.2295487263525 -162.8677072455274 3357.19475488917
-28170.37374025676 556.68002073548 -2144.5484897497636 874.9236131318371 68.9667170690289 2938.1419049545093
-26219.078967493482 59.53928202165095 -2186.5212858271866 1525.2580750393813 -409.44414717462615 2621.545226114729
-22830.562770629174 96.79864890330532 -1809.4160522595514 1905.326229293473 -737.9476177811091 2241.9159466115343
-19313.84833445516 66.10201051152842 -1488.7260871919505 2182.551750241577 -1026.0322709023803 1867.270577483791
-15699.744256423839 57.406683400229895 -1173.3993647806858 2371.1081940414215 -1255.8649280836833 1496.0336469670146
-12004.323168118164 156.40693598450056 -822.7058594828341 2537.972872645235 -1402.1752169670963 1123.4506658196328
-7981.915521208743 397.72663547433916 -300.6332318908898 2751.0971374404016 -1340.5047121143646 745.7319573949401
-4120.93114514452 -614.3426634604778 74.1136687840677 2458.0907703417156 -864.8936387084277 390.4409850139693
-2629.817706996068 -2359.836250529334 -53.86063265126165 1650.3433507812706 -482.4014827284193 290.8305020946665
-2259.790445308953 -959.2521124171432 700.0666036931126 -803.1409921790638 943.0691745610255 270.56671426036513
-5074.03332654626 -621.6216496295627 218.96373246937117 -1151.7126802149705 1525.6395673603297 312.84059902126927
-11620.485694236198 -489.7901735749256 -917.1632222069686 -1294.8552072021685 2263.775088307321 621.1058792578083
-18667.464732831035 -1269.4495496224974 -2190.468953183323 -1244.9989458252624 2363.4756305949345 924.3762293987922
-24822.85962224703 -1885.427104564094 -3134.881003900277 -1157.696364345153 2130.3988014380984 1211.9376508489304
-30641.616861600633 -2391.674761000982 -3973.6892129867674 -1038.6488358176193 1739.2400153967737 1496.4741587295146
-36289.50962364393 -2829.2157826821544 -4789.687537517768 -882.5546411956282 1227.8764014973522 1785.072169838719
-41766.78607642888 -3480.181240946721 -5722.574175990095 -646.9171783437566 620.693943862289 2049.0123447221954
-46649.02896907586 -3244.656962279789 -6393.629184382844 -316.5739977905655 -251.3586220383673 2361.5600520547932
-50970.06077625201 -7704.910146006852 -8987.617645635957 879.8169068685099 -1825.150888186729 2120.844195726239
-41226.37325392022 16296.476310598577 -982.4090505302479 -8.708929493584492 45.10908427320567 4373.788236414267
-50921.473681109885 -7699.88232695119 -8969.962386469244 -897.8082953500787 1918.449102998391 2121.0987020129924
-46549.30995552165 -3234.8121565974125 -6358.20990186366 296.8756902690984 353.5436254292439 2361.996501219655
-41612.582005478194 -3466.1782255236635 -5669.817842168992 624.4152615447387 -505.0820671372191 2049.465730056818
-36081.29028453669 -2812.8652260908516 -4722.206252109154 856.2628579061072 -1097.1251169866305 1785.2434813622192
-30395.48364327794 -2378.186122297577 -3900.296888650977 1007.8398399313818 -1597.3682277011021 1495.9201266343134
-24591.962806883203 -1885.0419136649632 -3076.7131712265723 1122.0381255418583 -1992.7012252081422 1210.3576015114027
-18543.70028098372 -1286.2834185550785 -2177.380983291231 1207.0855447602107 -2262.8989577060465 922.4040406613558
-11645.21798282734 -495.99004266317235 -953.7320436397899 1267.5805133915437 -2239.1952581336377 622.3771973790388
-5155.377229390271 -615.8619551346991 169.78485869153593 1153.3515044406408 -1562.2185376983261 324.1014564631507
-2359.4730042684687 -1043.463655305783 640.7048575059346 809.6530412756324 -994.5706161546225 315.0330931993851
SCALARS Strain float 6
LOOKUP_TABLE default
0.03201261916530162 -0.1189688150312442 -7.765598060427426e-18 -0.06739750921752617 0.027785739974540535 -0.03501332269400312
0.038544278769796554 0.012367042812644915 -0.004459736511190193 -0.0299392884799721 0.02892166262590068 -0.0011907041114440123
0.05370969036332677 -0.016773743558519842 -0.011762259449843798 -0.014114192042720904 0.028254456248499486 -0.00982178384448375
0.07553102010247809 -0.01970467488382208 -0.016536697506377058 -0.014554858539724888 0.025140298321138073 -0.010657008791469033
0.10252832702370643 -0.028342782832021875 -0.02187214254622769 -0.013717556361166828 0.022466321955927227 -0.014636676050510564
0.12990768583454212 -0.0359186169007225 -0.027006829998986855 -0.012446214179536912 0.01764600408910693 -0.018048875553040862
0.15661298108514068 -0.043567971614603164 -0.031836995650126584 -0.01039645308010931 0.011006016775233234 -0.021555063852335594
0.1817244131869904 -0.05090667690141476 -0.036063706621093844 -0.007578432572562033 0.0026825771118100367 -0.02500034346699202
0.20279455383135314 -0.05727955614996277 -0.03925494519933776 -0.003944364664601166 -0.005430987007974737 -0.028551961079409455
0.21620700002608584 -0.06098622903467122 -0.041014922667271025 -0.0007328843853717183 -0.007732235977378474 -0.03236804183709783
0.22056425907914332 -0.06119674982086856 -0.0414995122355461 -8.976548964558721e-05 0.0001858690807758742 -0.03497092637532048
0.216371393243303 -0.06103860334256178 -0.041053651052315364 0.0005486927060414318 0.008100709452128017 -0.03237707114613122
0.20315495171453712 -0.057394090085081804 -0.039338506361935914 0.0037461966731915956 0.005788675886344589 -0.028569859141241553
0.1823482333623904 -0.05110401064705582 -0.03620566444735552 0.007356643219606787 -0.0023473215004466185 -0.02502756936943564
0.15761244793016446 -0.04388095796753098 -0.032060319992357506 0.010142160124096517 -0.010710416334382297 -0.02158793764178255
0.1314480567465297 -0.0363972932048286 -0.02735343989889928 0.012146893931996527 -0.017428017503084547 -0.018100544353923095
0.10484314677538843 -0.029044670387926554 -0.02239318417737675 0.013374488549020113 -0.02232689164503657 -0.014641623804529566
0.07893396501019442 -0.020712929540516577 -0.01740550084417301 0.014069163333338132 -0.025301125582230268 -0.010929824127212127
0.05920759093159791 -0.01822077954216381 -0.012803460218569493 0.013526091512301724 -0.027812048964755816 -0.008915879575609133
0.0503774835936531 0.01035669733976635 -0.007643798839738342 0.031064224087053033 -0.037189104622935676 -0.006550160665976163
0.04871854311790899 -0.12554862131634326 0.010020700866277078 0.040512004712415936 -0.04871220405125497 -0.01358016975195028
0.019663636691790207 -0.10328021980856526 0.008311131808969906 -0.04325965058948957 0.022957014621408287 -0.020127091235217998
0.017758068452484503 0.00825874439245451 -0.0029166286044112907 -0.03584437923815923 0.01922260400714529 -0.006037010885161665
0.028352713172664048 -0.010288607328517661 -0.007606706033619178 -0.029823412457749585 0.01744102170247192 -0.010582853381721723
0.04924378136305189 -0.01580419885687804 -0.01176079752693533 -0.030205832957799 0.015420844604148273 -0.01372358822445152
0.06686594191119502 -0.022299587715543325 -0.015566976781703221 -0.02952638303342164 0.013382187475872262 -0.018207201419490792
0.08511074226684427 -0.028485489507809467 -0.019337647249543316 -0.027120429574514358 0.010545368933491103 -0.022678177453805706
0.10283907544828363 -0.03458696197141683 -0.022828451285414438 -0.02356420616836155 0.0065984655503486195 -0.027174813402949232
0.11950782165904354 -0.04054310459229687 -0.025870609079235846 -0.01837697613372621 0.0017269092457897993 -0.031815723082895944
0.13356128290598748 -0.04570206677861269 -0.028183735572365986 -0.010855223177825219 -0.003071044276561507 -0.03709851215629108
0.1426159759957877 -0.04795192575834626 -0.029572944616652466 -0.0028570808072296418 -0.004579982402134744 -0.043725494412235694
0.14561255403246243 -0.046206500383177244 -0.03009614129124501 -0.00016004869053241308 4.4523543724646206e-05 -0.04886543038625089
0.14278881472524377 -0.048006418578061275 -0.029604686774576047 0.002526790897501327 0.004660164263253627 -0.04372644191042838
0.13393588797023134 -0.04582027248037209 -0.028253446004207396 0.010493843803150944 0.0031243401443161304 -0.037099196867193096
0.1201445050870291 -0.04074405405599768 -0.02599175290988381 0.01796191140494019 -0.0017187876551472137 -0.031813576360752494
0.10383429049000038 -0.034900615945462725 -0.02302505966739359 0.023070279804995136 -0.006655969355040785 -0.02716452585493892
0.08660441216668316 -0.028956232426133217 -0.019646029424046876 0.02651954150865267 -0.010682028795118951 -0.02265566608307559
0.06904197585717936 -0.02298213666666933 -0.016057915932600152 0.02878920515735898 -0.013632581777913166 -0.018148609370747432
0.05238775019457284 -0.016751824101729387 -0.012490523013878088 0.02921066183027129 -0.01567607021324104 -0.01371164027378233
0.03286461358880053 -0.011599281345063132 -0.008894311336272196 0.028287443610947045 -0.018162603078612685 -0.01017078452671051
0.02183163253565187 0.007736751433057764 -0.004094560570155098 0.03380875611921773 -0.021982130397504542 -0.008659182692537168
0.02250670144738683 -0.10834802497265675 0.010326152587346423 0.027070621204924615 -0.027182105622388323 -0.008174929992023941
0.010139391572650848 -0.07186335440291233 0.009087881994034881 -0.050789521428783596 0.013979112674255913 -0.006666077106345789
0.005954276015166824 0.0017233800561513447 0.00043550187951017907 -0.05822303600226325 0.010940117080259708 -0.009382295365670496
0.008810307959325296 -0.0003212733227262435 -0.003284269452931012 -0.05078412850711544 0.008621167469523374 -0.012082576541739047
0.02153849698870813 -0.007127839537411173 -0.00569981778066066 -0.05164949299538253 0.006991440360928443 -0.01750319239429207
0.03192791381430321 -0.010570803670556805 -0.007793581166694173 -0.049895326169304074 0.005718005094430835 -0.023099850362646803
0.04130783265635144 -0.01380192305161188 -0.009777633065125241 -0.04605577988942211 0.004327237714279922 -0.028978898199999062
0.05054864381794426 -0.016930828167919198 -0.01161244680770141 -0.04034655725220447 0.0024610765002254214 -0.03491159413184259
0.05947218378497629 -0.020212329688811242 -0.013197520582342361 -0.03204955791767637 -2.393381623205297e-05 -0.04116957615333785
0.06709211574834803 -0.02315005242940898 -0.014442064795621561 -0.019247735498509236 -0.0031827657028100018 -0.048538565239089906
0.0710047769371782 -0.022115974101425035 -0.01535997755593533 -0.004154239783646316 -0.004864937774417252 -0.05859964891690715
0.07170001224422179 -0.014648380604559575 -0.01595546545030451 -0.000255759680489765 -6.843000625211159e-05 -0.06807252668835691
0.07118011629265872 -0.022173853068660918 -0.01538389230749 0.0036257517300398055 0.004714566022667263 -0.05859436903619961
0.06746855544023342 -0.023273955366694476 -0.014495551986887302 0.018667339842022113 0.0029925350648940157 -0.04852642410058916
0.06010172676807299 -0.020418375436470786 -0.013292895744050485 0.031378979770365016 -0.00023020822535072826 -0.04114676013924689
0.051511017217918134 -0.017243163912686026 -0.01177046527904136 0.03954151275259164 -0.002796857803757585 -0.034871927404644475
0.042711984516492274 -0.014255756129861656 -0.010032155128096125 0.04506411199407619 -0.004751440177113485 -0.028908573810664417
0.033909457816676376 -0.011206882600790386 -0.008194471351548178 0.04865195954889545 -0.006208981656681877 -0.02299677822772871
0.024233773845748097 -0.007976130156496737 -0.006332939749748034 0.049988401869512644 -0.007497514625495729 -0.017297985328001378
0.011612460342274745 -0.0010789387940144867 -0.00425524400771371 0.04837029010253896 -0.00932312950908907 -0.012127937282779278
0.007826331241804518 0.0027330091790427045 -0.00041337534018125643 0.055005297700404306 -0.011979808026579232 -0.009526365224291507
0.011362637719173483 -0.07495709249631047 0.009513918128736447 0.04800759911734673 -0.015339398657372431 -0.006371093661113906
0.0027247520140421515 -0.043092365923610244 0.008116144396389535 -0.04696751396661719 0.0063061151810637145 -0.0023507527097649905
-0.0031070859592502507 -0.0009135697505473633 0.003156640043524138 -0.061572478956567936 0.0035728837229547766 -0.008147972515582603
-0.007802827280364022 0.005448401377678748 0.001168960791153979 -0.061819534565258676 0.0005635661760671452 -0.01249274763396763
-0.005101608029582018 0.0020985252075569477 0.0006663330689583251 -0.05901722079166603 -0.0009367605439441781 -0.01840522387312998
-0.002958731289747451 0.0008913267750561683 0.0004811550781604121 -0.05659098985320162 -0.0013805299021946657 -0.02451863127275348
-0.0019965611949308883 0.0006265130372232082 0.00037287098498626727 -0.05220496596022032 -0.0015015477099701623 -0.030751299411233887
-0.0011045713416162686 0.0003707415457416267 0.0003003861470760328 -0.045830684945046725 -0.0016113454880040945 -0.0371219103117523
0.0003703618832215904 -0.0002619334339990202 0.00025306952173483727 -0.03686928462363292 -0.002030386035565154 -0.043757651532360685
0.0020233481159827415 -0.0014869524065960697 0.00013695508714721983 -0.022207531379146276 -0.00393064124316224 -0.051368518418747004
0.00046437508745079774 0.0027038211232968882 -0.0003343811414509201 -0.0013757761650535767 -0.0063896736629637275 -0.062290373556133545
-0.0017378121188712699 0.020845334370679716 -0.0012285018065400645 -0.0002871594009701003 -0.00016993822520650775 -0.07636498232122375
0.0006396771893756532 0.0026436615614606933 -0.0003500202464359681 0.0007818855617270392 0.00603193841165959 -0.06228316634568035
0.0023962392024737653 -0.0016144570782299873 0.00010084637788364533 0.02155377572385412 0.00352081722119618 -0.05135230355508988
0.0009839661743958209 -0.0004703320429842052 0.00018619749129274654 0.03611162076100607 0.001539723239615992 -0.043728324750222536
-0.00018923048697858309 6.266592477806916e-05 0.000185633883470888 0.04491738627749924 0.0010236193395922468 -0.037071442189518626
-0.000705985083847869 0.0001940748017963817 0.00018428198319432788 0.05107120449308545 0.000825800219363495 -0.030667371712272858
-0.0012165338446875598 0.00030625093178314466 0.00017959799046917769 0.055147393333076854 0.0006703458249308833 -0.024379738693659263
-0.0030178775258222004 0.0013890487456739904 0.0001912646384031897 0.05713002710732664 0.000275820609898948 -0.018212686735835818
-0.006039396108179854 0.005247047094011026 0.0004928438109570359 0.059438270004096426 -0.001109576805723405 -0.012386896155264775
-0.0020966184863429817 -5.240175068402421e-05 0.0025401451506971476 0.060170035117645855 -0.004031084562027837 -0.00837620557581036
0.0033995663992701397 -0.04524406538893172 0.00815502913403759 0.04651901480939133 -0.006875659723590675 -0.0036844749169434856
-0.003823134416227415 -0.020646535699190848 0.007095803985965589 -0.03569556115893759 -9.257749360213927e-05 -0.00185615266372052
-0.01133488167717589 1.8654646539729565e-05 0.0053154842542052225 -0.051779376322640326 -0.003347355297033636 -0.006322140228750262
-0.02317384528653091 0.009674311042280642 0.005473997322388647 -0.056883105692705146 -0.00759390542868776 -0.011549494960340351
-0.030777203102286363 0.010678955637011208 0.0069856580516910235 -0.05301515050554606 -0.00900784109474379 -0.017339580597286353
-0.03779490605740516 0.01249623171828703 0.00875461226978208 -0.049942100248111514 -0.008576822453814345 -0.023153715062405336
-0.04533857773947288 0.01507587083897035 0.010520069910805242 -0.046025975029979176 -0.007361785520678587 -0.028983942179726482
-0.05279337631139818 0.017598770586552778 0.012209563839559989 -0.040414685966749464 -0.005793819944497678 -0.03497446896820678
-0.05901489854129362 0.020003080879776793 0.01371937175189178 -0.03243157819571179 -0.003930244528836494 -0.0409904571706343
-0.06284369465572213 0.02021899874895382 0.014759610073109709 -0.02061401866734713 -0.0034984025350388165 -0.047411013873594574
-0.06984072592035163 0.024656220976275168 0.014618123824143034 0.005299021525176714 -0.007150950525881855 -0.05629960901458943
-0.07553500843793921 0.062302700723632885 0.012813920205366397 -0.0002584729110939825 -0.00027369773696985547 -0.0746567342983847
-0.06966471174907629 0.02459366425813249 0.014610739124640433 -0.005833865438804733 0.006580874309088541 -0.05629481835175786
-0.06247292606943934 0.02008763320135303 0.01474092860693457 0.02002453861534692 0.0028626644451475182 -0.04739993778218
-0.05841525252591402 0.019791754297803697 0.01368118468360815 0.03174764541149857 0.0031944203181230105 -0.04096954879999125
-0.051923885916169414 0.017294294874574206 0.012138775714603083 0.03958979471492444 0.004942877857273973 -0.034936955579413266
-0.044164783994629385 0.014666379926902912 0.01039812264309248 0.04499816509435512 0.006419821323258225 -0.028917986549044115
-0.03633137992547131 0.01197398893264412 0.0085560927761544 0.048625544289769645 0.007632917189204292 -0.023043530294357538
-0.0292384974645903 0.010154130335534934 0.006678552257304584 0.051332330533297284 0.00822878152927712 -0.01719016963385873
-0.0220474809344848 0.009626765281651859 0.005051429548493105 0.055252122150571376 0.007158229919793652 -0.011448982918247745
-0.010765879444522031 0.0005187004400358053 0.00491616776091351 0.05139308402057425 0.003169671751183917 -0.006602438049871316
-0.0034546827132765044 -0.02188449587445361 0.0070315720267431474 0.03595074325668194 -0.0001002460268774366 -0.003103466688476844
-0.008986318903878512 -0.006768160125388055 0.006809782385510347 -0.01976362685017957 -0.005715620917760179 -0.0027200356114747823
-0.01868014879199585 0.0025284796671570433 0.007194964829050036 -0.029832500005533343 -0.010424366999905213 -0.004538484682495934
-0.03799387456526274 0.013439882394308976 0.009438013788125251 -0.03417339549295535 -0.016624108167255812 -0.009074564281342828
-0.056146755306814594 0.019042956938090595 0.012912183067393177 -0.03177800758899805 -0.017955645225919855 -0.013692799171279885
-0.07290274124177594 0.02433338609982904 0.01653141185746246 -0.029581906033713776 -0.016479567346110665 -0.0181920077022971
-0.08921407591102529 0.02982375561751119 0.020062245525253933 -0.027120745472276806 -0.013720556591281826 -0.022673751434075694
-0.10498767500771881 0.03525411155692117 0.023414116546521358 -0.023635159315404202 -0.01012048076193525 -0.02720636221398728
-0.1199771277048971 0.040264580047736934 0.026431166759558696 -0.018937401434543352 -0.005992855233608883 -0.03180710859986662
-0.12961620211172217 0.045177181891933905 0.028653628366229943 -0.010988193332974652 -6.241676233070787e-05 -0.03564721894154826
-0.1405937393676047 0.04128748821383599 0.028684985663224697 0.005585550254724086 -0.002792182225837553 -0.040732449973218295
-0.14919214183274193 0.10998837022594414 0.024503407230173763 -0.00016353327482650763 -0.00039361849876515893 -0.05413279095042179
-0.14041265082356938 0.04122087968579393 0.028685379301563264 -0.0059238518580673125 0.001976128181084343 -0.04073396302596509
-0.12923872826458488 0.04503873121880411 0.028651278255176747 0.01061573983918733 -0.0008367961672122643 -0.035649455113488514
-0.11937792704303057 0.040045690337234235 0.026419589559166484 0.018506464643675224 0.0049679223189770085 -0.031808082076789215
-0.1041449618983405 0.03494769738027057 0.023383328193242098 0.02311795824868466 0.00895376442902537 -0.027201913485572556
-0.08813961852024604 0.029432080239246004 0.019999456446673593 0.026481627902898673 0.012449191553610028 -0.02265621634012974
-0.07170308344287561 0.02389029892561523 0.01642340889995668 0.028769446087719766 0.0152378277941243 -0.018151874916587325
-0.05508735629180506 0.01868773967325477 0.012747788714091327 0.030794070854843453 0.017013059299265432 -0.013631201411938264
-0.037384869864101514 0.013451625886595698 0.009214909357893309 0.033379978601106315 0.01626479050707235 -0.009048214416419717
-0.018474691418188024 0.0027986120374456887 0.006975247119719847 0.029824834680268923 0.01049404281640515 -0.004737350618196826
-0.008893306996226385 -0.007255419493670295 0.006734165921508481 0.02002416598956338 0.0058531379904891625 -0.003528743425466267
-0.010182829032527046 -0.0022928964796764687 0.007773637064693753 -0.009744777371729916 -0.011442572651303967 -0.0032828761330043173
-0.02311510110648538 0.003896196400101158 0.008995747718152161 -0.013974113853265302 -0.018511093417283866 -0.0037957992681203053
-0.05225919848561905 0.015267021006351238 0.012674291177949526 -0.015710909847358394 -0.027467137738107744 -0.007536084668309973
-0.08227094951589328 0.02327700926216104 0.017689491547220212 -0.015105987209366825 -0.02867683765126428 -0.011215764916708358
-0.10881158021862733 0.030342177055245226 0.02276215673266714 -0.014046715887446978 -0.025848838790948576 -0.014704843496958536
-0.1340827024572551 0.037300279619855464 0.02770272527772374 -0.012602272541329874 -0.021102778853616246 -0.01815721979261123
-0.15868458026216173 0.04430786903982793 0.03241434039378902 -0.010708329646527494 -0.01489823367158868 -0.02165887566068526
-0.18202781077312247 0.050244258562365744 0.03664040808970736 -0.007849261763942291 -0.007531086518916009 -0.024861349782615186
-0.20420186791719305 0.059117988924323385 0.04001422411009323 -0.0038410978398428193 0.0030498179473642333 -0.028653595298303067
-0.21449074471423932 0.04798450244254422 0.04020274361151076 0.010675111803427858 0.022145164110105076 -0.025732909574762833
-0.213829436015587 0.1351425180096153 0.030317280151379536 -0.00010566834452638285 -0.000547323555878115 -0.053068630601793426
-0.21429576124632557 0.04791522630200536 0.0402100739410574 -0.010893407317066648 -0.02327718244994232 -0.025735997584367735
-0.2037998822439723 0.05897473773616879 0.0400261247482405 0.0036020917085378486 -0.004289662655428393 -0.02865889088143729
-0.1814016548642386 0.0500198614008947 0.03665111439332284 0.007576238506703335 0.006128329081090205 -0.024866850857973417
-0.1578302545918727 0.04399819076292645 0.0324148552050708 0.010389322675878485 0.013311784752713553 -0.021660954240525443
-0.13305571412020134 0.03691589084056438 0.02768175219150086 0.012228456724490605 0.019381401162764107 -0.01815049753648539
-0.10781603598019619 0.029939284105677155 0.02270981180975399 0.013614062589959165 0.02417810819924505 -0.014685672231710946
-0.0816881378155864 0.023006857816838894 0.017600865924040233 0.01464597127646098 0.027456507353592473 -0.011191835693377302
-0.052314739665867915 0.015323909837976272 0.012546941698733041 0.015379976895878467 0.027168902465541045 -0.0075515099948796904
-0.02343391913552411 0.004105806861715384 0.008872064198907225 0.013993998253951874 0.018954918257549084 -0.0039324310051033285
-0.010447011703021352 -0.002463221652645815 0.007754067325110517 0.009823790234194881 0.012067456809421047 -0.003822401530851336
0.029944709422039178 -0.07655898292681024 6.3358064454621665e-18 -0.03466706325789912 0.01849462224289427 0.00654233635084636
0.03796007662121718 0.0038319565964875513 -0.004750728311431384 -0.015497581069401738 0.019955984633207587 -0.0020505735215883276
0.05552832656202298 -0.01700047759305132 -0.010759898415310288 -0.005538260968852194 0.018718130488562537 0.0005123272012674491
0.07745698781105548 -0.0212782837123123 -0.015307134344284509 -0.0060199136748898055 0.01663277266512777 -0.0003504174714993412
0.1026628572648174 -0.029243683543422216 -0.019742350087565197 -0.0059786957406217905 0.012694739649227665 -3.596141337027326e-05
0.1281136131794134 -0.03668009436104257 -0.023770385821728822 -0.0061314665587613535 0.007593083649791295 2.446319387935387e-05
0.1530193764037414 -0.044219676075102 -0.027245131654476246 -0.006273373332339849 0.0011805947870176957 0.00011479715740236503
0.17726238541179037 -0.051699911435777714 -0.029911785761669567 -0.006607327310885535 -0.005902232219319461 9.096825340571354e-06
0.20079087822076383 -0.05936453415755973 -0.031467986063299085 -0.006942495209956173 -0.011413256615842794 -0.0007449721139689572
0.22125103776335273 -0.06721329605085849 -0.0318159540319157 -0.005590054570534334 -0.010428610581788858 -0.0028616572232663152
0.23015398126124298 -0.07210378639992428 -0.031634676620430666 1.881714623226552e-05 9.873000977500551e-05 -0.0050784695716731675
0.2213063662734149 -0.06722692455701253 -0.031844330614933344 0.005627395336586528 0.010614965550773566 -0.0028746838901554483
0.20090970458785667 -0.05939270439647113 -0.03153061066652606 0.006978456952083271 0.011564638723479603 -0.0007705648711701895
0.17746420409713431 -0.051744953623082145 -0.030021816977384114 0.006639051363951815 0.005989059128868898 -2.657984699007621e-05
0.1533431575634124 -0.04428664639233403 -0.02742580956792965 0.0062955648641578165 -0.0012039568707282768 7.235335382586434e-05
0.1286311966490116 -0.0367800638784262 -0.024061960906527388 0.006132682768660768 -0.0077959387253273135 -2.24201539317321e-06
0.10351014684576093 -0.029398563482862607 -0.02020496636573225 0.005955130457366467 -0.01323211085632767 -7.34893481038398e-05
0.0788446940989219 -0.021526210204771225 -0.0160642722251651 0.0059045460750231605 -0.017558612796800807 -0.0001359080080329007
0.05808469749216131 -0.017488455837847146 -0.01183189417871422 0.005324189165487338 -0.02113627069749823 -0.00010116636179868392
0.043691112663698406 0.0027834184677676854 -0.0067120181784941085 0.015367631663181119 -0.017858520757943645 0.0024189667013280645
0.03801238731242189 -0.07787890169799987 0.0028664033120997115 0.02048400528220476 -0.015087120113470685 -0.01205291114660372
0.017925351434967485 -0.0674003630703517 0.003570674257003521 -0.022246790064358486 0.0031147517613441217 -0.0006130540136725895
0.01990787275235545 0.0021734600633907773 -0.0025091880754560063 -0.019327206618292705 0.006710637805510784 -0.001863605569122429
0.032801345306702555 -0.01165415571518658 -0.006825167534798321 -0.015216797669587848 0.011416482269013095 0.0001223560345441042
0.05175814043046438 -0.017114715474965646 -0.010413236270926636 -0.015800150699166345 0.009573586346454416 -0.00016479562697951797
0.06836141348651778 -0.023178632114741426 -0.01355091623881659 -0.016271418192329717 0.0071340273370850745 2.5904635882414176e-05
0.08532795988291057 -0.029155009805316528 -0.016395190588569405 -0.016360981818983867 0.003887755011537067 3.1756181644436585e-05
0.10189786396898641 -0.035117237950284694 -0.01880985122686119 -0.016501788811268788 7.650793637294625e-06 -0.00015614451954442554
0.11787390147553026 -0.04095331344375457 -0.020653117542434752 -0.01694225458348372 -0.004160330190949544 -0.0008965483742644911
0.133027328059063 -0.046910470431687654 -0.021751044522734637 -0.017565284985561043 -0.007387524391051251 -0.0030435940341634426
0.1458824086879461 -0.053953203164815375 -0.022054209062884477 -0.014412346793012305 -0.006808472632234757 -0.00772814756003801
0.15141245105237927 -0.06017609241888934 -0.021966723711498104 2.723944413103062e-05 -3.80376295067468e-05 -0.0123936897349112
0.14593666172103223 -0.053969938677133324 -0.02206552553490015 0.014465988630105616 0.006715086184927484 -0.0077309518177783865
0.1331431454433667 -0.046944735507716336 -0.0217792597240586 0.01761533440771257 0.00724158349986628 -0.0030460985477660757
0.11806830269964706 -0.041006994753689734 -0.020710817006923184 0.016982371887442938 0.003923706460273594 -0.0008907588597064789
0.10220330703162885 -0.035194213490720105 -0.01892009059162501 0.016519078952834006 -0.0003786480042337394 -0.0001260417352099718
0.08580554190550499 -0.029264204830501975 -0.016596073667548273 0.0163325754173 -0.004455876936193132 0.00011927852942647296
0.06911692945729048 -0.023338304248547995 -0.013909089126625735 0.016166500223011974 -0.00796805745757948 0.00020873438303971954
0.05301727997468634 -0.017354082726899915 -0.0110123887195343 0.01553646814445352 -0.010869167725225969 0.00024924838910546024
0.03499177969333595 -0.012129531016648218 -0.00785002461627778 0.01454311734435009 -0.013047605820437453 0.0004946328832677434
0.022102049869390596 0.0019011812927423434 -0.003648838967489448 0.017720131615937235 -0.007143336245732044 0.0013567710673092533
0.01952376036542606 -0.06801810183190721 0.0036440200752968 0.013205263135191053 -0.0021362483412163797 -0.012714518232503382
0.009937913543236958 -0.04868261737827202 0.005056784095617707 -0.02936202232922732 -0.0004938902073755177 -0.012262358642570881
0.008784300121590037 -0.000642041302831467 0.00027126299096901576 -0.03356480059901016 0.0015339726104533404 -0.0018429103629078467
0.013827730041162993 -0.0030148642885089475 -0.0028487174744454094 -0.02775715673018641 0.004606829607819521 -0.0005619195932339998
0.02496063669008711 -0.008380814340056941 -0.005025441463747673 -0.028545058244102427 0.003912773401779869 7.795605387001707e-06
0.0341099915006466 -0.01142450074373354 -0.0067613054536104005 -0.028854423988858863 0.002479852690164539 -6.090560226803266e-06
0.04253594199398948 -0.014389147365807847 -0.008244166188841898 -0.028967261949601787 0.000836730707798168 -0.00018626514953191917
0.050747088330357765 -0.01730965228418443 -0.009465185891534039 -0.029036645646490895 -0.001062350358885508 -0.0008197260903718936
0.05836393932019971 -0.01990316792093672 -0.010361246710351343 -0.029352130965946584 -0.003218995235987327 -0.00240545982853048
0.06568522255018175 -0.022455956995155443 -0.010867977958293336 -0.030372155920082133 -0.005581892480138785 -0.006130081583138364
0.07359798636982104 -0.028605617973308236 -0.010924383189448989 -0.026269775322881283 -0.006203500080971645 -0.013875044601109342
0.07782039273856495 -0.03955823699321102 -0.010726536315093675 3.995523516718193e-05 -0.00015935094296461438 -0.0228324654571712
0.07365037603297506 -0.028628416589896566 -0.010918133234742094 0.02634814468952008 0.005862569576177118 -0.0138685530972055
0.06579565875575023 -0.02250201374130552 -0.010860326092586046 0.03044409277413568 0.005174789120867975 -0.006111422840103747
0.05854505208582996 -0.019973273072136002 -0.010363383668017229 0.029406784663854064 0.0027036429218507303 -0.002360831094833351
0.051022616334512785 -0.017405016634288045 -0.009497737477733956 0.029051668209185852 0.00039968237805436163 -0.0007205882485889193
0.04294974335301025 -0.014514042112668372 -0.008343042854609847 0.02890318465112055 -0.0016809565711281107 1.6846525085671606e-05
0.03474556245807806 -0.011587512844112772 -0.00698458611956133 0.028648269844784666 -0.003541002539895094 0.00039615932701749684
0.025990256942860255 -0.008611359025006876 -0.005466763159026921 0.028075774003478077 -0.005230183003712977 0.0006761410113242405
0.015141859059886296 -0.0032885285297643532 -0.0036113517044086643 0.026659342908704798 -0.00593989975351945 0.0007813040317403638
0.009753043623682749 -1.3152224763736539e-05 -0.0006185018137047658 0.031346245042088786 -0.0018062220392413258 -0.0005826039566523265
0.010532395986571455 -0.04867232634705841 0.004555779524550503 0.026818376405839214 0.0011037770339984083 -0.017183714443008435
0.0033685847012574857 -0.03070185181676224 0.005877624742370334 -0.027762365925053267 -0.001594567026135251 -0.013444441517054914
-0.00015862287602266687 -0.0017051725079136513 0.0028468837382077624 -0.03687557093108161 -0.001522762654919962 -0.0033057318710881752
-0.002831147818578889 0.002594347014962935 0.0011566583883505308 -0.035062555842550726 -0.0009526851518699954 -0.0008340669664207245
-0.0011715472433177726 0.0004925190003414901 0.0005114372169925039 -0.03311941944345989 -0.001331786360079853 -0.00020632990597478857
-0.0002990144409005303 -4.7678035937279594e-05 0.00028041869272995055 -0.03311471141699453 -0.0017889274907360831 -0.00017680675631443973
-0.00023850234379414994 1.1559694166847351e-06 0.0002179323185101776 -0.03318827970806846 -0.0020302093066366356 -0.0005240887655829183
-0.0003324861068204535 -1.8142627555231607e-05 0.00025249733871541267 -0.03326616284797888 -0.002196559905037106 -0.0013647398005526017
-0.0009721195337465052 0.00040391718140001106 0.0003609604163399365 -0.033036932332645645 -0.0026235484846873196 -0.0031643387894174937
-0.0013836978767848478 0.0014565809805156006 0.0004907224235845961 -0.03409400292346267 -0.004445708612464397 -0.0070276526013028475
0.0026622968755013886 -0.003950643733081764 0.0006834288717636848 -0.03337016931378313 -0.006871980879409828 -0.015468988218036089
0.006579416564217465 -0.0247185607509102 0.0010459248221039205 4.3446261833263117e-05 -0.0002745075221538284 -0.029315168360575003
0.0027123767696908673 -0.003979356981167593 0.0007076035523882881 0.033455330463368044 0.006296227334681459 -0.015459800117331576
-0.0012799734763590984 0.001399167110634834 0.0005351721740760166 0.03417193835629251 0.003791667172232199 -0.007002775944049253
-0.0008073063357121606 0.00031839978064433127 0.0004164536963885529 0.03309542584059073 0.0018463741847733132 -0.0031078432351638067
-9.353684913351295e-05 -0.00012994290237483766 0.00030136154966341314 0.03327980175345575 0.001265657656530125 -0.0012449379114765798
9.894671038814071e-05 -0.0001345454429581776 0.00022893218963570942 0.03310968943248357 0.000939341647733741 -0.000280619195972345
0.00019314720129770847 -0.00020873462225508228 0.0002007569107038647 0.032863604838697935 0.0005643648654337602 0.0002885010979067246
-0.0004785738748477262 0.00029904857864607577 0.0002582563467699222 0.032556103407957025 5.224702309115211e-05 0.000635896295552591
-0.0021254675139947524 0.0025919533592003116 0.0006548394745064174 0.033932575329896415 -4.545303037880688e-05 0.0005257445512092069
0.00029405483319647007 -0.0010359013139617256 0.002177743411084036 0.035691158155765075 0.0014392963620612003 -0.002485537252120284
0.00365894189552812 -0.030790346151359695 0.005310789609178639 0.026938825006381215 0.002087144030868286 -0.016386284390303277
-0.0025915535938671338 -0.015936057100760986 0.006632382725293593 -0.0210199957590517 -0.0026899678163794594 -0.011627849384594683
-0.008338093107436014 -0.0006403091919944486 0.0052070204258005594 -0.03123872942691966 -0.004343122415393678 -0.0033709999765059403
-0.01838897430793001 0.006952614271302001 0.005074869018734954 -0.03229311785386753 -0.006137821690266961 -0.0008660398695955605
-0.02658511098219374 0.008917802538455817 0.006012118175526587 -0.029356637586331332 -0.0065592141138660475 -0.00010611401624055348
-0.03467616503822492 0.01143312440704261 0.007312176987075658 -0.02874910751535188 -0.006105112714990929 3.830544464451576e-05
-0.043094664333713874 0.014391686013662178 0.008673805029501162 -0.028899868261071354 -0.004935155170969119 -0.000190833593620631
-0.05134821337039792 0.017359944752153418 0.009967923795955238 -0.028968914966505842 -0.003400419695189222 -0.0008910415420702724
-0.05988276994250616 0.02026924455809062 0.011091374757419272 -0.028710098695634737 -0.0018954888268171706 -0.0021747820797670342
-0.06853771995456327 0.025088971075456178 0.011849217261522589 -0.028228440988089777 -0.00236713982750252 -0.004915038217919915
-0.06866823030536526 0.023820656253543335 0.012062863038959221 -0.03568833209358662 -0.007313810859119857 -0.011306342598652172
-0.06463217300638427 -0.014792905309194858 0.012417649731130733 4.0910606408981094e-05 -0.00039212405179324167 -0.030661064835825147
-0.06862036924570127 0.023785833294482365 0.012105189324053115 0.035768859823147835 0.0064979190534798035 -0.01130122497798183
-0.06844058582069455 0.02501984094720317 0.011931016664325063 0.028303294174022775 0.0014596171159396434 -0.00489913676529102
-0.05973420447353163 0.02016775924561709 0.011205516420210794 0.028768970850194548 0.0008479748758330451 -0.0021342685165433597
-0.051146321167697954 0.01723119531617221 0.01009998766586704 0.028989614515732502 0.0021897437110989662 -0.0007979297207180976
-0.04283520573674819 0.01424524239096183 0.008797146088317595 0.028838458665759802 0.003584718632827613 8.199334846851507e-06
-0.03434878400047353 0.011278186353615886 0.007380480526939963 0.028526644282427436 0.004709001129678456 0.00044078872798951736
-0.0262103391758602 0.008793132226367743 0.00595397986565193 0.028843704649727332 0.005314739998838042 0.0006465184876700406
-0.018084638887177054 0.0070454412416244856 0.004817268408853125 0.031499828601004254 0.005396454068136049 0.0002363600949863039
-0.008153357990919707 -0.00017130204086611146 0.00476034211519242 0.030730045396526306 0.0043704085236511364 -0.002806674383527111
-0.0024459858869982335 -0.016016054605014894 0.006142699286416798 0.020830056838508894 0.003095918653085285 -0.013578819906154636
-0.007626075494061326 -0.0063278326638377515 0.0076942921520270265 -0.01099241770899342 -0.004820713343978477 -0.007548039386198805
-0.015904198948119053 0.0015737418182887445 0.007453269379069935 -0.01746501316021264 -0.008035787993918237 -0.00229421135531187
-0.03353172034520472 0.011127625599895549 0.008816323835893718 -0.018629198919915872 -0.011866663725035184 -0.0007907817062541753
-0.05170051950521878 0.017370783872980914 0.011296774529199971 -0.01670196133670968 -0.012315447024087173 -0.00012507552103588514
-0.0690570161852386 0.02326949345817906 0.014073301404642692 -0.016156462753802357 -0.010866850422756775 5.7796856311285606e-05
-0.08597585522108248 0.02923243025293279 0.016800903368627093 -0.016285546283648953 -0.00813276238058163 3.2514687630081186e-05
-0.10257430416933089 0.035174347816445545 0.019307802660718063 -0.016436843083045608 -0.004593245224559541 -0.0002046299960542625
-0.11812722312439762 0.04115535961560352 0.021402578077692167 -0.016131703223400445 -0.0009873013395629202 -0.000828513741667901
-0.1351863120693935 0.04645945343841201 0.022787365463859982 -0.016640816769103402 0.002211296264766726 -0.0012994767669903488
-0.14220164664045018 0.05893928535455304 0.022575553016837363 -0.022540352113989897 -0.004615378168130596 -0.004225483604561243
-0.13948254449036315 -0.006952910675166869 0.02200634881374621 2.837224090578949e-05 -0.0005208575247480145 -0.02257042268415111
-0.14215542893532213 0.058897903797781904 0.02263610298825516 0.022596590796762135 0.0035358374226484115 -0.004230465155206008
-0.13509434788201188 0.04637760605631943 0.022906622846778798 0.01669445853565127 -0.003399780768585208 -0.0013063478606882056
-0.117991997009717 0.04103610945381182 0.02157539140767334 0.01617708891184156 -0.0003652573182192733 -0.0008294901734930051
-0.10240338550510542 0.03502559933448228 0.01952261620532677 0.016460982346374595 0.0030567454136019704 -0.00018360472466007053
-0.08578638316017623 0.029069936124279234 0.017034841015669964 0.01626205713843375 0.0064606340375940536 0.0001079505806357609
-0.06888360446189509 0.023121620284904887 0.014285518188662909 0.01603324382629444 0.00922245024643595 0.0002522805451515914
-0.05159984249427913 0.0172989973620563 0.011422679360446213 0.01641201806831947 0.011015527976814094 0.0002847936414428515
-0.03353766701443918 0.011240520099470117 0.008776928107899873 0.018238636374168865 0.011304397934936244 -0.00018901957344731485
-0.015926300071214032 0.001855673120038894 0.007213466866696539 0.017292418805455963 0.008214188692080725 -0.0019998446158160346
-0.007610910479927099 -0.006319575202007663 0.0073262455607830766 0.010952598506080121 0.005280663825292331 -0.00866457748732356
-0.010245920947286668 -0.003063763217027051 0.009336056522180896 -0.0042102901388553614 -0.009216352057343835 -0.004891847150571409
-0.02194910352693774 0.0028168031406960413 0.009698738609211471 -0.006834598451963079 -0.013841702075601956 -0.0015949375732423028
-0.04865694219132221 0.013260611426809017 0.012262657238466802 -0.006712116184617733 -0.019263121631671955 -0.0008583746264732093
-0.07720308635715127 0.021701482112228093 0.01609943600787299 -0.006086193411108883 -0.01942213084987515 -0.0003555855770599844
-0.10351121905052735 0.029312802831804805 0.02018546672324767 -0.005950641504625321 -0.016698872168685562 -0.0001769265619404949
-0.12884907351298766 0.036832169899399816 0.024134706837351243 -0.006089149277831022 -0.012022372678709772 -5.7374789074508706e-05
-0.15375535818480168 0.04419702561637533 0.027729077960370177 -0.006166715275298332 -0.006048546008514106 3.264875777282016e-05
-0.17746568993722575 0.052179684867967875 0.03070203063405596 -0.006446304276753134 0.0005584284585756204 1.6430329957291392e-05
-0.1970263023681156 0.05610963397143817 0.03265366561619405 -0.006636551557443378 0.0073604321142751155 0.00012011114252077515
-0.21759027853717972 0.07885409640370021 0.03197678604787996 -0.016087496102785932 0.010980602041186765 0.002601583482267828
-0.22995750943195992 -0.0028890566851968663 0.02670034164333828 1.3619997820089663e-05 -0.000670128733413092 -0.023999265995764407
-0.21754502473783363 0.07880930742680302 0.0320553912315095 0.01611477097738759 -0.012367103854823213 0.002592239207747344
-0.19693753205368714 0.05602112530315173 0.03280986115383465 0.006663505410743158 -0.008880214137833934 0.00010302787028344866
-0.17733894231790495 0.05205101023765281 0.030932158121170745 0.006471045115075496 -0.0022791416407059533 -4.3374956031539845e-06
-0.15360448532706075 0.044037174911340383 0.028023374128251257 0.006184254646779037 0.004102415430089001 1.653352344022465e-05
-0.12870663165686003 0.03666003502347748 0.024471877593573704 0.0060889020896975525 0.009912426175007049 -5.180680058256411e-05
-0.10344864281318826 0.02916637929206002 0.02052558979641246 0.00591023105512518 0.014645358885821452 -0.00011530566945918292
-0.07732764761425738 0.02165059022965443 0.016376926993169335 0.005975700839180805 0.01787662822496341 -0.0001855723586912978
-0.04898169566947695 0.013380515298171297 0.012389805952077202 0.006550834867861921 0.018803058777317666 -0.000599387690169295
-0.022236221280159993 0.003027396261131038 0.009621933590051004 0.006753734877846826 0.014423320194995978 -0.0014799816345355034
-0.010418103829429821 -0.0030003827684025757 0.009110536154276695 0.004144304572146175 0.010173610056690938 -0.005567356192192145
0.04157128134916936 -0.06620582845779438 5.963111948670274e-19 -0.002178441220301329 0.007991038676909753 0.0006934198760321212
0.04371721185468516 0.00040405321360182864 -0.004438709338319436 -0.014989097564172695 0.010894744269729596 -0.000831390647192881
0.0547155606117512 -0.017688307034031483 -0.008477714740404943 -0.005930841622940629 0.0102535309817625 0.0008030860529721479
0.0754057966926598 -0.022456873936603186 -0.012231568190114213 -0.0067771279344088905 0.008571174133088652 0.0009266778072007729
0.09926307981396196 -0.03052641633460601 -0.015128535230888526 -0.007101614009843824 0.005511551958995395 0.0012787928440094
0.12314041299659786 -0.03834640881042523 -0.017162050912649045 -0.0074566529920347315 0.0016797720185414845 0.0016429759997859832
0.14695720208078622 -0.046569804623953784 -0.018192617951142992 -0.007935567891885199 -0.0026510842124238196 0.0019841145663929624
0.17189707141524474 -0.055395575683044776 -0.018124923763201843 -0.008847032827998952 -0.006788410486474948 0.002137576618892682
0.19982781637894037 -0.06573174934262949 -0.01700364053683767 -0.009932440750918294 -0.009101035196161256 0.0018007589828526352
0.22791581693781504 -0.0778054659358632 -0.015306967484585567 -0.008343683794025437 -0.007063995334509301 0.0007798895106958825
0.24103847897527703 -0.08565060691803086 -0.014325537817576187 1.9304532590140003e-05 9.12398613870532e-06 -8.5638849907041e-05
0.2278512847067533 -0.07777997213837647 -0.015317053369804347 0.008383471472728906 0.007071749390183398 0.0007688170390035004
0.19968889117097402 -0.06567411970410295 -0.01703109137787511 0.009975875892506522 0.009076150454913449 0.0017787463110666435
0.1716622903222463 -0.05529125752212932 -0.01818580844440646 0.008897171563486758 0.0067036558405765495 0.0021057407801679793
0.14658888624419147 -0.046393755160645526 -0.018314790204880797 0.007995762313832986 0.002464003849306608 0.0019457504410008955
0.12257881998418306 -0.03805800733976514 -0.017387678910243936 0.007533711297614707 -0.0020457871363495817 0.0016098483375397233
0.09840854557832829 -0.03006477201107151 -0.015521518674345714 0.007191416486591038 -0.006202493018985596 0.001259447369809916
0.07411999486668018 -0.021734901277816486 -0.01285950761307831 0.0069416849720943755 -0.009753115541815656 0.0010064535293029199
0.05238305212204017 -0.01649705132838925 -0.009524695705334919 0.006165741009610905 -0.012077402849639037 0.000737779586271557
0.03766454215933021 0.0023797295114261247 -0.005646478313228102 0.014647969198392927 -0.010993797781328066 0.0005938269820563564
0.03259217657072011 -0.0629354960459335 -0.004956290656691639 0.018813725632457857 -0.009718053549184104 -0.0058040021199793285
0.018354608747238592 -0.057064571356009196 -0.0006542336350895897 -0.003715913159293373 0.004230773633778561 -0.0020709760110076444
0.021306076759914756 0.00074628736914074 -0.0020350842060272377 -0.017011049341637594 0.0051287374277324905 -0.0017422134723170044
0.03386575984455624 -0.01289397449213578 -0.005292760097380913 -0.015339450460360522 0.0064201317696063005 0.000192740181183238
0.05105636434806958 -0.018344881657133407 -0.007964154877559824 -0.016906342193718078 0.005367637095530302 0.0004870280615705989
0.06665215918930899 -0.024564954822724853 -0.010035295906126259 -0.017871064261464186 0.0034001693823972772 0.0007115065222448853
0.08256593199957867 -0.030879967780615813 -0.011420028062021435 -0.018506913746007353 0.0009090412704329687 0.0008223374172573117
0.0984249018148772 -0.03743433755881769 -0.012097888213239203 -0.019545446748795343 -0.0018104071540774452 0.0007168609216315108
0.11483532626653259 -0.04430868609852444 -0.012041564791214904 -0.021695061325815963 -0.004321226642697102 0.00012900317146906227
0.13264424272234054 -0.05233979320183773 -0.01131442522830344 -0.024829681014256064 -0.005687621470881727 -0.0013667987940955157
0.15000380840292407 -0.0632959742360091 -0.010189960370194867 -0.021759820827874657 -0.004435777990771174 -0.003869212026975391
0.1579870326638464 -0.07316888226818856 -0.00947113992986047 3.7441318995416436e-05 -8.191913762573671e-05 -0.0056553461890705365
0.14992464831103577 -0.06327554001937999 -0.010163953008109912 0.021838131385054808 0.004256432877306341 -0.0038718410862047556
0.13247709184059256 -0.05229280941591619 -0.011268082986988281 0.024918859473131084 0.00546113131891809 -0.0013693246372816282
0.11456172977038506 -0.04422182941945965 -0.011988067729953082 0.02180452685305765 0.004012930792554377 0.00013365143428557447
0.09801493215785975 -0.03728473149545482 -0.012061270404540783 0.01968817080388896 0.0013769690775746347 0.0007436916718189083
0.08197266974852331 -0.030630217967974653 -0.011440742762787375 0.018701319032706037 -0.0015336467270811803 0.0009004847794497671
0.0658087661789102 -0.024157674257774948 -0.010173037951528865 0.0181380419962974 -0.00431461915704788 0.000887431273235626
0.04980999983026404 -0.017703190147481274 -0.008317654711178334 0.017320861830097546 -0.006718412565398221 0.0008400332398370876
0.03185366079335003 -0.011797857467625666 -0.0059513574296719786 0.016139700751184653 -0.007985154175295576 0.0007424717843486685
0.019525596002601744 0.001735915883030352 -0.003350297129343849 0.01849232833173132 -0.005740807085321619 -0.0002152768095302788
0.017312599721136825 -0.05461223943426951 -0.0037509995420359934 0.013974068771565233 -0.003754086478132005 -0.0075076785018634625
0.009439453279745335 -0.04004101047150634 0.0011778705341981208 -0.02408334398031012 0.001484313429776812 -0.007139970387732834
0.009163972340539017 0.0005274141805278899 9.188754378923381e-05 -0.029608992539536257 0.0018673440625435337 -0.0026333130272208705
0.014963942654747058 -0.004444558727971003 -0.0020481024905236282 -0.027600633473302712 0.002612560893370494 -0.0006710856263820019
0.025534759168014693 -0.00954073362722691 -0.0037889099149661354 -0.02982367445489979 0.0021567587205786275 -9.608470358554684e-06
0.0339357052152101 -0.012605006223366579 -0.004998102461266016 -0.030979903103834666 0.0010492507705404522 8.184081788525674e-05
0.041741934916917946 -0.015746312154858038 -0.005728019647140748 -0.03207860660018429 -0.0002635590508119188 -0.00011977107040079258
0.04941423967907878 -0.018964240821925733 -0.00600900680013528 -0.03372856267127307 -0.0016247859993159016 -0.0007806773710588659
0.05686918776967335 -0.02185714467503639 -0.00586685475494065 -0.036939840994116145 -0.002892397013755625 -0.002253462527947283
0.06528966141676333 -0.025192053897008616 -0.005334529399587928 -0.04251854674105851 -0.0037604864346266922 -0.005065975257103031
0.07635902432883791 -0.035014522774976096 -0.004436039926473978 -0.039452659441191064 -0.0032292777055542045 -0.00928803720516072
0.08266861417813703 -0.05189446271568726 -0.003642775151443072 6.041361245833557e-05 -0.00017130325116871298 -0.012339818819057808
0.07626676571683536 -0.035004508023947 -0.004374426436810653 0.0395791967023405 0.002867156909954759 -0.009282476052104882
0.06509767623254127 -0.02516700339251393 -0.00521556845316281 0.042663240642503354 0.0033401302182676502 -0.005049159082727443
0.056562966440673414 -0.021806247192164455 -0.0057012361504574305 0.037118565480407664 0.00237572619612867 -0.002211417141604134
0.048972279558714464 -0.018869097068433264 -0.0058183275302547445 0.03396392154021211 0.0009730677303729026 -0.000685142518052833
0.04113478217039303 -0.01557570108130313 -0.0055513250069876025 0.03240315627552706 -0.0005665721766760643 8.010970677897809e-05
0.033120166836511374 -0.01231180417196272 -0.004901404007401639 0.03144064702979984 -0.0021156468742042638 0.0004727101552952637
0.024418379757880977 -0.009044752458863358 -0.00387327252345007 0.030527635844524507 -0.0034977953057987714 0.0006678492974351509
0.013810297270374873 -0.0037427185999204683 -0.0024627044387463995 0.028871204520422668 -0.003952905667474633 0.0005435565660764949
0.008647042399009193 0.0003752641714263195 -0.001001216175223488 0.03182331563343608 -0.0022486689062930013 -0.0015928377808679833
0.009413010653647726 -0.03850412430655047 -0.0011611245047985917 0.026350401982729012 -0.0010131631571395436 -0.011043786378264992
0.0028015202342018485 -0.02529623115442453 0.003646864031527237 -0.025947373681042264 -0.00017673192765952657 -0.009155001866087947
-3.0576648423492255e-05 -1.2007377514598055e-06 0.002430135145885332 -0.03470876456942244 -0.0005680699590202322 -0.0030929745878992753
-0.0016502282373760824 0.001886956210967165 0.0011877838610194807 -0.03443433154760087 -0.0008132335414183312 -0.0009260115135796901
0.00029908363675328704 -0.0002350868318043457 0.0003974018201586104 -0.034307001430312546 -0.001043703333763395 -0.00017951964408709185
0.0009819542933227567 -0.0005219408167627995 5.45938884818655e-05 -0.03532416193074961 -0.0013687575373989157 -5.545722157979975e-05
0.0007743204481574211 -0.0003575272419284995 1.0384177004374842e-05 -0.036572865131555006 -0.0016091285711777132 -0.0003526313188193142
0.0002675967635808149 -0.0002603919644600814 0.00016458088862356088 -0.03847134832178725 -0.0017381471564777114 -0.0011824973408776013
-0.001153597552806655 0.0006473286664374244 0.00045744122327766963 -0.04121096485175551 -0.0019061938921029384 -0.0028826844248612247
-0.0019512324608558598 0.002387791621621271 0.000875518225662135 -0.04724097003109401 -0.0023887208994640852 -0.0059822325877256395
0.004474512481390531 -0.006521839707190556 0.001632969395046336 -0.04933939799487339 -0.002536687106215584 -0.010794059139185986
0.010603952573214021 -0.037307784115745424 0.0027099597472633953 6.846384657224465e-05 -0.00026043076583567523 -0.014726862805417937
0.004369593787831763 -0.006522651098124618 0.0017302566990287282 0.04948281248532502 0.001992685140418347 -0.010786007984106578
-0.0021670624136846295 0.002390046391499898 0.001067203911151045 0.0474049905400477 0.0017767789071952097 -0.005959485531261949
-0.0014907791993506731 0.0006608669657330564 0.0007351529339871579 0.041413528530819047 0.001186305554117755 -0.002829028402902577
-0.0002030553152955868 -0.0002216277026585721 0.0005089928946268734 0.03873818784695924 0.000879311261616238 -0.0010657879644991183
0.00015952809515195842 -0.00027012614998286514 0.00038235240237121206 0.03694340922987425 0.0005932517574920437 -0.00011313727477106882
0.00020761963604052803 -0.0003455251685146862 0.00038297225544251683 0.035861505745604476 0.00019433971119901504 0.0004033717112868203
-0.0005837956397518569 8.765203004854963e-05 0.0005655866469252179 0.0351250093066182 -0.00023450370872618787 0.0006468835958309537
-0.002297353095443062 0.0021309881216249223 0.0010108819980449667 0.03572649808225452 -0.0002447293132476113 0.00036639631761908035
-0.000132447790054008 -0.00026434198584556444 0.0016023459480167374 0.035786885351126715 0.00034505733083527493 -0.002335330469813781
0.0029857795165889 -0.024028542102450662 0.0018351747680767738 0.026402614389625118 0.0005480888741905191 -0.011693665507883873
-0.003101615669523244 -0.01327104192446966 0.006194912326336344 -0.020702302324706705 -0.0015751127149224006 -0.008603100603714546
-0.008248158188426015 0.0007073767672700072 0.004863071051264827 -0.030405962336127395 -0.0028120446048629255 -0.002641234011238297
-0.017067218076946805 0.006831088535016867 0.004407862943337509 -0.03207485894703973 -0.004120520803296227 -0.0007893626292742563
-0.024322786876948044 0.008771327065625147 0.00456553945238643 -0.030516699359253302 -0.004218306421078739 -8.993909638452216e-05
-0.03198158501797262 0.011668029476538111 0.005091504484682569 -0.030904668690000674 -0.003801589377434467 8.559887713342625e-05
-0.0402866604155999 0.015040873681274804 0.005739405043685443 -0.03207890158372572 -0.0029718989798422466 -0.00012150215371417345
-0.0487556856845066 0.018559353614325248 0.006334986900913131 -0.033671408742176084 -0.0018744631852621347 -0.0007900500754471788
-0.05838758203657005 0.022410018767916873 0.006778979736892397 -0.03574955033106823 -0.0008731535849235717 -0.0021616010668792313
-0.06905374024592574 0.029331585584379875 0.00704971339238229 -0.03862553738764227 -0.0007630251676409536 -0.004650708871421007
-0.06813281083992649 0.02633151659249408 0.007467113816291667 -0.051247806385898 -0.0015985341461339654 -0.009063494258680298
-0.06196716178226779 -0.028500418443189495 0.008934439955371137 6.061889794098876e-05 -0.0003513103650373914 -0.013604421057648483
-0.06825108410404389 0.026319868239300253 0.007600743957878228 0.05137476449329933 0.0008689140849915605 -0.009058649691023941
-0.06929494106959369 0.029311002558303316 0.007315568029771323 0.03877063595044437 -4.497664818391286e-05 -0.00463536293224026
-0.05875839892289669 0.022386200108922078 0.0071712381483613535 0.035928461459236345 -5.570811722602097e-05 -0.0021219699866875416
-0.04925890596804954 0.01854163696183845 0.006836877053401418 0.03390663436810324 0.0008005265861929673 -0.0006984736584510647
-0.040914139396281524 0.015044279662102727 0.006312210643302016 0.03240723702579433 0.0017606629693584972 7.370405703753459e-05
-0.03269995760064001 0.011722525801735974 0.005658560453729137 0.0313885825353639 0.0025106955233759956 0.00047642058138848463
-0.025008420665435443 0.008883923481126738 0.004992888092798248 0.03125560426219387 0.0029995223868108226 0.0006339536156890782
-0.017452132202545878 0.006836405458673147 0.004486513302019559 0.032971174310165226 0.003296406533063863 0.00026035334474384735
-0.008217855021898684 0.0005434671604496099 0.004318197826359124 0.03080322229377652 0.0026994506747651144 -0.0020810705655689775
-0.0028915219696328633 -0.012378253782572202 0.004826513606233973 0.02056926842096288 0.0018769855037259744 -0.01024379911217939
-0.008105857868178766 -0.005499768801326473 0.008532905237318063 -0.011185965751561262 -0.003340138132824301 -0.005203100932728411
-0.015816656130202045 0.0023270987741083166 0.007237467181029587 -0.01739781221124511 -0.005380451330867686 -0.0011490076839088324
-0.03198539129595904 0.011242871277477974 0.007586694068022145 -0.018917006829408566 -0.007582077503254953 -0.00015455503959109043
-0.04858193699709064 0.017472587585641877 0.008688395960628677 -0.017741830675823973 -0.007411678127528971 0.00040862228369691045
-0.06486323221205346 0.02374467081753363 0.01007907377844275 -0.017788832734787166 -0.006185312968545857 0.0007024165619471256
-0.08122053580497494 0.030279974917107287 0.011402348493681538 -0.01850278629694248 -0.004196967768707828 0.0008181693779454927
-0.0978079772429173 0.03705110284895771 0.012416067740421125 -0.019497873361007067 -0.0017420225627991115 0.0007108118409668375
-0.11412514684083433 0.04435184651107547 0.012946682172032613 -0.0203504950039567 0.0005950406194771384 0.0002246546005130032
-0.1346059595425185 0.05157390130259669 0.012977442767711176 -0.022624903194410354 0.0018312925054972237 -0.000813932384111177
-0.14392129155572123 0.06809535205203218 0.012573132326577655 -0.03073539535576254 0.0005024240254817578 -0.003606791925447683
-0.14073324051724667 -0.022223675930152367 0.014130654560659605 3.787585319741433e-05 -0.00044593242731772077 -0.008747796635097966
-0.14405474431191606 0.06807327336410425 0.012744348275943751 0.03081461522619911 -0.0014259956814034799 -0.0036109476224775233
-0.13487651315193963 0.051531305707561016 0.013320213733113002 0.02271507222872905 -0.0028464562775829846 -0.0008195232986975305
-0.1145364699004319 0.044291973959511725 0.013458309042622844 0.02046088837061006 -0.0017494789018077364 0.00022451401274229505
-0.09835537146498743 0.03697881439146294 0.013083352743128066 0.01964173852848219 0.00042670202080695105 0.000730454870888564
-0.08187518245914518 0.03020260344217381 0.012188608967508589 0.018701560273100677 0.0027483991904302045 0.0008861368880735912
-0.06554336724610518 0.023670742967375022 0.01090398553820906 0.01808289100575188 0.004717454465882801 0.0008751317106190722
-0.049124352485122764 0.017387751814018887 0.009402696641134146 0.018171764370077066 0.006173109482749918 0.0007719173935721558
-0.032205190717460634 0.0110883215854372 0.007957467854218431 0.019355282240881726 0.0069299125732948386 0.00038165618257352164
-0.015717269677553963 0.0022145103568479976 0.006991325501345895 0.017494277410819138 0.005418731844996228 -0.0008652274319965868
-0.00788882767543156 -0.004990063375324061 0.007548991102277531 0.010987914000356043 0.003700618867096666 -0.00612024108899457
-0.010790735468490992 -0.00289120937377399 0.010327693443292374 -0.004360378482293159 -0.006435723694528026 -0.0026705530280012025
-0.021891697158704614 0.00327073570179758 0.009459499340414653 -0.006965180624967647 -0.008868307908416011 -0.0001217603216775207
-0.04675891462997543 0.013386953412558496 0.010741442424875514 -0.00721831059322683 -0.011333731374218519 0.0003241402385939735
-0.07302796930570374 0.021780925253214973 0.012827432799897447 -0.00695145520191676 -0.010586032222495097 0.0007952593241500336
-0.09762849396712273 0.029715920184354934 0.015101062618435118 -0.007048834846333545 -0.00836420870959392 0.00119761652081555
-0.12190693085843554 0.037842245546717654 0.01709410915755478 -0.007423202699748232 -0.005033261066033549 0.0015932404531947845
-0.14643671684681045 0.04609232569051471 0.01848538196217864 -0.007795747704890812 -0.0009820912123591158 0.0019473314452878932
-0.17069472202263433 0.05567080565526072 0.019053926734706468 -0.008623604587593094 0.0030186776308978687 0.0022094052196252917
-0.19242687894042415 0.06069648541264757 0.01865282449091346 -0.00912227145382006 0.005613282297027617 0.002088695158145782
-0.22221124764312924 0.09172655451849233 0.017188578461018792 -0.020091085292376 0.005360855335078789 0.0012923150495850854
-0.24221000454559571 -0.018960315392388145 0.01653058116023452 1.969853923799883e-05 -0.0005456633423596066 -0.006128702305873668
-0.22236274867941738 0.09169941620086935 0.017399095519397754 0.020132514530545976 -0.00649001304986895 0.0012832999853663587
-0.1927330230183677 0.060643206738813585 0.01907635367032039 0.009170030768521187 -0.006851949084073936 0.0020713688258675576
-0.17115744173451128 0.05559337470018433 0.019691819667294025 0.008682865512018547 -0.004424473041034163 0.0021858076858649843
-0.14704640322191692 0.04599358576053429 0.01932970868318713 0.007873325768214468 -0.0006175813657692344 0.001922298459671782
-0.122619095906905 0.03772536882659855 0.018113148327674557 0.007528755692912422 0.003274324940898579 0.0015779864837106767
-0.0983187523795419 0.02957841583369582 0.016215710500168123 0.007198844253702608 0.006599734015965948 0.001217554727965002
-0.07347031527346506 0.02160098662646208 0.013878460965685848 0.00715999699019512 0.009168120399113158 0.0008940509923020864
-0.046785036034990284 0.013152582089756825 0.011467069474796495 0.007435488644593679 0.010777958687466081 0.0004959936862981582
-0.02164549156599829 0.0031549763328875776 0.009541463969501524 0.00704651629930143 0.009262580234188033 -4.008568127105557e-05
-0.010496137659827176 -0.0025614375999095315 0.009650060020354283 0.004300062717870904 0.007236977423913542 -0.0032198052661896945
0.044098626084370006 -0.06401737125672462 1.3010426069826053e-18 0.004958645572942867 -1.0340395260963892e-13 -4.9506460129272734e-14
0.04510747920261496 -0.0008289178723738845 -0.003835698564966516 -0.01470657586140176 -5.2808817973919175e-14 1.9282806688197818e-15
0.054488057542935384 -0.018032667999676913 -0.00719789210002913 -0.005716844676633668 -2.0757396181677462e-14 -3.2488524674342822e-15
0.07440354117134226 -0.022851041186831268 -0.01038556519803275 -0.0067980662502128706 2.8450955784006804e-15 4.9573924609455644e-15
0.0977657637151318 -0.030921941316933755 -0.012644512832874627 -0.007268826802199747 8.164703044514707e-15 1.2006929196554939e-14
0.12131813100695252 -0.038907874427728986 -0.013790160180830655 -0.007813806519473176 -4.439906152150022e-15 -8.05430754643316e-15
0.14512813140121358 -0.04746737132317025 -0.013731968243452028 -0.008510329313759998 -2.0555985299347546e-14 2.231667541735538e-15
0.17075392740501655 -0.056878449462126245 -0.012489982624119381 -0.00964426763840858 -1.2061417131985913e-14 2.681416286925975e-14
0.20030204134013527 -0.06805080836728633 -0.010326254146378848 -0.010844720807880723 7.467835486281438e-15 -9.268844372578577e-16
0.2304753710402958 -0.08098796492877651 -0.007996949572589304 -0.009060715389692161 2.107646332851279e-14 2.6636678973623873e-15
0.24462243235570816 -0.08928161721394703 -0.006881234629818544 2.391200356988252e-05 3.259685341203307e-14 6.010559346243671e-15
0.23036005893855216 -0.0809458016012726 -0.007999096562037167 0.009110748308060959 5.5620723413314643e-14 -9.099004102258723e-15
0.20005477808073158 -0.06795639969348559 -0.010339467784610517 0.010901818895017849 1.0842933809932648e-13 1.4612239911983294e-14
0.17033673350911457 -0.05670933154303683 -0.012533647381398224 0.009714866123036441 1.1896178622261902e-13 7.1443908731747e-15
0.14447019900326277 -0.047184435681519865 -0.013838281266262586 0.008602842607499385 1.0183711656952207e-13 -1.081762717597412e-15
0.1202985052813561 -0.03844520221297093 -0.014004875906355387 0.007941231279011602 3.0509073051113514e-14 2.238782618492474e-15
0.09618852744894502 -0.030187943374190312 -0.013026288794613275 0.007439470122241953 -5.6806630525842866e-14 8.608971825349587e-16
0.07197497792499923 -0.021685915706068707 -0.010995971620002685 0.007073332467966247 -8.634283880318977e-14 3.088099166572572e-15
0.05056754412360415 -0.016268004409067668 -0.008189063271812737 0.006227153778957945 -1.1380477181292814e-13 8.110889347309747e-15
0.036221032137216946 0.0022781459345121782 -0.005512719109203762 0.01403370413551407 -1.0478015753222908e-13 -5.334071400721341e-16
0.031225939127216794 -0.06033575818224772 -0.005624687071298992 0.01786431342734086 -9.3587572587428e-14 -4.7313444394986304e-14
0.018438857681972825 -0.05568387813503045 -0.00013868397521717856 0.00038931675502644817 -3.1761102943636196e-14 -2.950702291011631e-14
0.021789478039763804 0.00012645223342946975 -0.00196842086555452 -0.016156489089988502 -2.9465291290870985e-14 -1.2231569110430357e-14
0.03418742583431923 -0.013261251452140813 -0.004541891158785639 -0.014961134865735897 -2.2161346515487887e-14 -1.2371072048711351e-14
0.050608753552614294 -0.018608195614907303 -0.006862634740202085 -0.016973912093545502 -9.838850112235675e-15 1.815069633221561e-15
0.06585447733983293 -0.024817290334309586 -0.008535736116325533 -0.018238428766732425 -3.4829816914177907e-15 7.485968767616258e-15
0.08155702368694448 -0.031225983535489728 -0.009387322196449915 -0.01924833667020036 -6.231892443493009e-15 -4.779908565309687e-15
0.09743119777958956 -0.03801379095640367 -0.009404525258168579 -0.020768642491942668 -1.3503355199414799e-14 -1.0065895599681296e-14
0.11427388407480238 -0.04530130145676606 -0.008647503576779176 -0.023478073610487864 -1.0356519380147824e-14 1.522755174992313e-14
0.1330306390111264 -0.05392502476898083 -0.007310496983488123 -0.026979525028745 -7.622019199604244e-15 -1.927186979878287e-14
0.1515710445487887 -0.06549105607262554 -0.0058444472312569615 -0.023525263235284557 7.131133960517223e-15 -1.949471400281011e-14
0.16012095881221258 -0.07579674266430395 -0.005104973727961567 4.628550730337571e-05 2.4024791894393036e-14 -1.47805216416802e-14
0.15143516496115264 -0.06545492806102929 -0.005801541720983628 0.023623691647098675 2.5237353439705457e-14 -3.059430150626624e-14
0.13274390507348036 -0.05384361406462518 -0.007231092530048272 0.027096976205569348 5.3419325440982185e-14 -1.3539476072417511e-14
0.11380355362127367 -0.04515448096863664 -0.008546254355939434 0.023632391034507882 7.463529340184186e-14 1.8597252102008077e-15
0.09671983926937976 -0.03776627927917125 -0.009307419293222338 0.020986028254846266 5.3108030456712626e-14 8.142954626561005e-15
0.08050932048784104 -0.030819479989986714 -0.009335367614531798 0.019565042981177824 2.0520363328750766e-14 4.86365776212333e-14
0.06432060937000325 -0.024160842346790303 -0.008585813582410458 0.018702463863299303 -1.9154520160204365e-14 1.789165332815451e-14
0.04834182830030395 -0.017582766508698857 -0.007101054997166688 0.017687446722830746 -5.16901178435579e-14 1.8544749611805467e-14
0.030831091666541577 -0.011628981072728936 -0.0050969769630635755 0.01634101882463987 -6.70798526859577e-14 1.1048487699814175e-14
0.018902022480110976 0.0016721410749610628 -0.00349747689386165 0.017942164414540142 -5.071380395163007e-14 -4.416660179945575e-15
0.0166650015122477 -0.052390957483209204 -0.00446388664731448 0.013238085030440827 -3.2849567385912284e-14 -6.885171686260572e-14
0.009335582047012675 -0.03959332858311239 0.001330054871194263 -0.022241461665304288 -1.1368130829053635e-14 -2.6570407115830696e-15
0.009405436555859339 0.0005839652426169072 7.67509851499906e-05 -0.027949119849223537 -1.269506553916791e-14 -2.052501099853235e-14
0.015361577113856259 -0.004756472240544609 -0.0016830394850904597 -0.027110710343320094 -2.108755946012182e-14 -1.785694530610782e-14
0.025577265708571696 -0.009707993198677635 -0.0032267546831003862 -0.029948385603384284 -1.540048591396195e-14 -1.484963953017615e-14
0.03373611388237095 -0.012720509511182162 -0.004267175182010443 -0.03163481522399036 -1.510429913873521e-14 5.985046713872372e-15
0.041425076780823133 -0.01586661952383951 -0.004745339981724965 -0.03331505614414208 -1.8548818758084076e-14 6.905073572389259e-15
0.04908508734332936 -0.01915770539891827 -0.004700088624903075 -0.035740975632714896 -1.0941615858793205e-14 -2.156823710516148e-14
0.05671153027821576 -0.02218570053082863 -0.004208736671522604 -0.039871700624037894 -2.0397147987012525e-14 -1.411375085812877e-14
0.06555262303712506 -0.025724581652775184 -0.003375167678202233 -0.0460787208905934 -2.216707415227722e-14 -3.7072395934339974e-14
0.07730237554720493 -0.03577663020717558 -0.0023832910299789282 -0.042475056477586946 2.9668387768765937e-15 -2.71801759701637e-14
0.08399934041794446 -0.05313891669958072 -0.0017879431230020148 7.232274080532919e-05 2.303050396332447e-15 -3.886624908629871e-14
0.07714873066621811 -0.03575288541070724 -0.0022964787116186176 0.042629328480419566 2.585139472822441e-15 -4.3165978061941723e-14
0.06523296653291119 -0.02566985609522064 -0.0032060367080281454 0.046264355056418245 1.794328591552029e-14 -2.816524140650256e-14
0.056200484561972484 -0.022084395053594896 -0.00396860070892438 0.040118625112316134 2.7985440028722997e-14 7.646078323438055e-15
0.04834149761709125 -0.018982864921318385 -0.004411645384076313 0.036094056946664524 2.7590560468493093e-14 1.2245534989664686e-14
0.040384017783994086 -0.015571968478649055 -0.004448719432851568 0.033840770099042135 1.6188713069457527e-14 7.798588299657086e-14
0.032299045943418966 -0.012230584534195586 -0.004028107127226859 0.032422628048555405 -1.226341077298354e-15 4.695794805515546e-14
0.023604460544403894 -0.008923181635309588 -0.0031459584785960347 0.031185243712580357 -1.838772833810936e-14 3.225462838441981e-14
0.013334270603080012 -0.003709468166045925 -0.0019579494763908405 0.029191774165357478 -3.253144552784609e-14 1.7611576801947193e-14
0.008391990370722484 0.0003461819798744754 -0.0011788040632175814 0.03102881388514809 -1.7236950858277324e-14 -1.5829934476956076e-14
0.009082110566704242 -0.0369235931894461 -0.0019198899299581516 0.025218196110203442 -9.891540643752576e-15 -1.0267475888600663e-13
0.0027777187435159972 -0.025029020003348293 0.0036546229747018485 -0.024883837090925957 -2.959655302209167e-15 2.2362754009686014e-15
0.00020387299826348074 0.00011339569270662494 0.0023231428588778207 -0.03341819749387076 -6.83836125746351e-15 -1.6941600845723354e-14
-0.0011707812134303967 0.001683457258216753 0.001231211736488706 -0.0338205501874721 -2.052330846230837e-14 -2.199299363502341e-14
0.0007188389852963671 -0.00045580113645754766 0.0004382622752884726 -0.03445798839420658 -2.2308467668096486e-14 -1.510799813161587e-14
0.0013371526948479755 -0.0006762683720466632 2.950546965946683e-05 -0.0360904507251342 -2.3783870313205495e-14 5.21027584141423e-15
0.0010942449926748133 -0.0004791972600650327 -4.222529803030816e-05 -0.03800156056648282 -2.8239289026751532e-14 1.0918268242635087e-14
0.0005393953148445688 -0.00035231922491895415 0.00012455324689054193 -0.04075727960827527 -2.2088798990588503e-14 -1.5109671868719643e-14
-0.0009593991721596627 0.0006108382395847974 0.0004460311356058303 -0.04448192050832186 -2.8692046771783795e-14 -2.839473990136343e-14
-0.0018052377584699562 0.002410320506769727 0.0009065466913007585 -0.05114499780128895 -3.003041473262011e-14 -5.964982197417812e-14
0.004951958117930915 -0.006499213485667074 0.0015646999051163446 -0.05281282943036058 -1.3188679918410984e-14 -4.3838359591735765e-14
0.011398248622723145 -0.0379427105879112 0.0020995680437730247 8.112867326776668e-05 -1.5408009154720343e-14 -3.397610426510156e-14
0.004781484981561903 -0.006488274397683947 0.001695286046851058 0.052985988462132795 -1.6750567811063197e-14 -5.223982867379878e-14
-0.002155580007890876 0.0024374952845509024 0.001164909852036895 0.05135367132809949 -9.58558726100664e-15 -5.310483227206203e-14
-0.0015068558522602841 0.0006653673068905343 0.000823595966495724 0.04475983074539456 -1.4737109932583996e-14 1.2104114368791108e-14
-0.0002284896694161338 -0.0002517382442021295 0.0006008965734047403 0.041155851894285736 -2.3287968097971887e-15 1.634069534415042e-14
7.660230819253155e-05 -0.00029932471053568856 0.0004911224086676649 0.03859994660402145 8.108063645397706e-15 8.762351873812038e-14
2.631305193229091e-05 -0.0003592742824596125 0.0005440286799487083 0.037009485351430116 1.4065588564747891e-14 5.4337034817355384e-14
-0.000810353622378742 6.60426808455324e-05 0.0008059252387113738 0.03587721244909267 5.940720632709607e-15 5.01442827148188e-14
-0.0023547448280356927 0.0020403643950254566 0.0012049288580330464 0.03592823261508464 2.109079851411212e-15 1.686580156133946e-14
-0.00012569575571350937 -0.0002922271620976382 0.0013893502245637594 0.03500685418625022 7.142310560256243e-15 -2.252810839351721e-14
0.0028991248050897703 -0.022938266652037943 0.0012037994518360987 0.025488325441264968 9.937194025543689e-15 -1.08396906901842e-13
-0.0029464896396992975 -0.013111059908839571 0.006220863188050197 -0.020166082801604826 1.7946231049077895e-15 -4.240585747133929e-17
-0.007886967453592129 0.0008151397709710907 0.004627585505132179 -0.02948913077167588 -5.991623077674854e-15 -1.226568759754576e-14
-0.016426845908810498 0.006670543172376735 0.00413998517159072 -0.031478951581393085 -2.0358904449443993e-14 -1.9436200966813783e-14
-0.02354685490074925 0.008530127644210494 0.0040925006054072875 -0.030562126963567755 -2.637647722849093e-14 -6.3222268132517856e-15
-0.031087424077540816 0.01146797846275888 0.00431326726499037 -0.031541417931790335 -2.8714662551475485e-14 -9.408774215464988e-16
-0.03933037704551577 0.01491631522339845 0.0046512699391637385 -0.033323308695345125 -4.186363610641803e-14 9.858650354410692e-15
-0.04787320234608349 0.018569986580613727 0.004943690049472622 -0.03567617786674029 -3.6834446856462145e-14 -7.83136169845225e-15
-0.05780874131135428 0.022634692157465323 0.005094581710829528 -0.03861006088342872 -3.4749139567050776e-14 -2.3881043626980403e-14
-0.06902899448818267 0.02988259098915678 0.005160602334825601 -0.04190210389446673 -3.432352160468149e-14 -6.987819882193352e-14
-0.06815081373414875 0.027129325449377698 0.0054266253788067854 -0.0545086935147286 -2.908340013385428e-14 -3.7917463765156645e-14
-0.06171467589948922 -0.028712390026838806 0.005847500653836827 7.286444532115721e-05 -2.999737790657835e-14 -3.7475922430411923e-14
-0.0683390387284931 0.027127472860223788 0.005601848392290428 0.05466411322123268 -3.2241614570218194e-14 -3.919741863988441e-14
-0.06941203730996079 0.02988228207876389 0.005510031337828785 0.04208900338950818 -4.192252183691115e-14 -5.1607454204169456e-14
-0.05839625531871932 0.0226427275340097 0.005612628139911553 0.038858094137435115 -4.002572792383965e-14 1.2509436574711236e-14
-0.048670428738616496 0.018597033887004365 0.005612554489676713 0.03603048381047637 -3.245205821189763e-14 2.0857440937143562e-14
-0.04033031093412052 0.014979997214369158 0.005428251753069502 0.033857831993332095 -1.8263402536177267e-15 8.292250620964975e-14
-0.03224966593238885 0.011604996732576665 0.005112252629734284 0.03237219729320681 2.710346866646035e-14 5.19019912768523e-14
-0.024687604622005956 0.008733775806288844 0.004756368711593434 0.03183522504501038 2.9481903301032536e-14 4.737093421518235e-14
-0.017122082934695967 0.0066677480430612085 0.004389919334825012 0.032963780652674045 3.471019722730076e-14 1.673918030012031e-14
-0.007943964964741328 0.0005362447493136156 0.004031879183247677 0.030098074933730304 3.0583237561909206e-14 -1.7922173619309978e-14
-0.002724653115643849 -0.011713635078916861 0.0043992006663782345 0.019961408446612223 2.4346505172155586e-14 -9.586743291573052e-14
-0.00771139983251784 -0.005322355782027644 0.008487008556093098 -0.011036001641952904 1.1703013775080096e-15 -2.212538149654747e-15
-0.015237749408338126 0.0025161092796828696 0.006763360432968193 -0.016855310522418253 -5.392360820019593e-15 -6.677767198795884e-15
-0.031095785163737136 0.011178540950183362 0.006978754252379655 -0.018499138816694814 -2.022232885702871e-14 -1.128341398180105e-14
-0.04740681659467761 0.017333710314078925 0.007695425930245761 -0.017711432018921267 -3.408148871626715e-14 -8.345002477667257e-15
-0.06339380070635837 0.023671240433628223 0.008542956605057692 -0.018144716998257485 -4.3120702456845086e-14 7.54815453847188e-15
-0.07957375427211595 0.030373983439458043 0.009265135775359642 -0.01925010519707672 -4.1675529570590637e-14 -7.011569330781647e-15
-0.09624666914368701 0.037442629469029584 0.009630646705918861 -0.020718153575666805 -3.399948237444578e-14 2.0294773890941475e-15
-0.1130557981522351 0.04521422695937507 0.009519374948220818 -0.022050335355119372 -4.289296240238272e-14 2.3599354350041513e-15
-0.13469545366699506 0.05303499219293098 0.009033782973928093 -0.02451141305388985 -3.786787845642438e-14 -3.299637852446219e-14
-0.14464344281172847 0.07042988105289287 0.008680144282694015 -0.03262313224502732 -3.7654941149748225e-14 -7.568307146352954e-15
-0.1413121394660818 -0.022086438890016703 0.008752018723985224 4.723158522127306e-05 -4.1343330871974025e-14 -2.206198277451138e-14
-0.14485220310706026 0.07041567030071638 0.008901869876929763 0.03272356532403509 -5.3392227162933625e-14 -1.1205839316359711e-14
-0.13511744674142304 0.05300813148295282 0.009478460027839935 0.02463113331660888 -7.540545472100105e-14 -1.9182253712963365e-14
-0.11369459133347791 0.04517745344688713 0.01018542482906441 0.022207087374556896 -7.292405814949242e-14 1.6567686621487415e-14
-0.09709269961593464 0.0373987273844455 0.010504801268847112 0.020938746087472877 -6.247556962599762e-14 1.6121137627958526e-14
-0.08058155297124636 0.030325506720582405 0.01030699235035771 0.01957793085272245 -1.9489791047320668e-14 4.5100323486663846e-14
-0.06443954022173044 0.023616094984627346 0.009660343599052537 0.01865217953846729 3.2682501995527635e-14 2.96106184276973e-14
-0.048244221896325386 0.01722852362606339 0.008707823275465666 0.018453484339934313 5.837953005131263e-14 2.1184077170395554e-14
-0.031446042947037796 0.01091746924212371 0.0075759888505292335 0.019232351853733204 7.534566774745205e-14 8.743782201102793e-15
-0.015114403023698134 0.002294434705461828 0.006530964389017354 0.01700374917761958 6.038832628396662e-14 -7.451938371927369e-15
-0.007418511963317869 -0.004561374061430738 0.007179657004496583 0.010745597376303645 4.27082414572455e-14 -6.098198118351106e-14
-0.010163658572121152 -0.002644359600184246 0.009756910906917897 -0.004379242947675897 2.2558181451276527e-15 -3.843876172221483e-15
-0.021069303112572768 0.0035426222568358152 0.008517269180558245 -0.0066574501812263496 -4.217709081294485e-15 -1.86688772080279e-15
-0.045537321993971674 0.013406019648531303 0.00963186155076464 -0.006981729519041613 -1.7319804444804188e-14 -9.374933555156284e-15
-0.07134681336620043 0.021746199421193723 0.011145485131262525 -0.006899895864493608 -4.417370332368553e-14 -6.680853786855678e-16
-0.09547568690578297 0.029782366868324302 0.012593348523039017 -0.007195160276232581 -6.437130559491799e-14 4.838523245259685e-15
-0.11944486695191107 0.038146088316417755 0.013621529918139311 -0.007767055877297613 -3.8240860944418337e-14 -1.6712109127126062e-14
-0.14402911092604787 0.04679584753519336 0.01392694839738688 -0.008358075174310118 -2.4284177099764825e-14 2.1004573948213423e-14
-0.1690216440541097 0.05702799369324053 0.013344200290981243 -0.009364234883363725 -3.6148655683382325e-14 3.640913525532197e-15
-0.19240799841945372 0.06277536555596297 0.01201254185950607 -0.009865616239854037 -3.715249136983234e-14 1.9813089970760478e-14
-0.22393481387036426 0.09516179743357292 0.010626328437766324 -0.021143978232188672 -5.903323619868561e-14 3.762452589067822e-15
-0.24462916824085273 -0.018667553617677683 0.009977759185153262 2.7289563960903587e-05 -5.616577895047742e-14 -1.6094764410112816e-14
-0.22416879518556637 0.09514156238624587 0.01089748251680934 0.021202022404635656 -6.465121949079944e-14 3.796550747392491e-15
-0.19287941064262693 0.06273557313215618 0.012559109781179287 0.009934635401655791 -1.1484856034943425e-13 1.3471970934653132e-14
-0.1697306649416592 0.05696934615248935 0.01417043748556046 0.00945373405909177 -1.3406428202820952e-13 1.1434538212118373e-14
-0.14495656772460844 0.046717517472292164 0.015027524314939516 0.008481140211413008 -1.1125307489492919e-13 2.1184117827977023e-14
-0.12051564467416548 0.03804254878165073 0.014964293659718287 0.007942163739453525 -4.943188057233289e-14 4.128804503150674e-15
-0.09648915873246287 0.029631075688183035 0.014090053217274768 0.007450021037363129 4.391349480228901e-14 8.623906710275575e-15
-0.07194864031397787 0.02148832696053035 0.012603933869080214 0.007251105236953413 1.0021340311403004e-13 1.4688228931747371e-15
-0.04548579239717233 0.013009149783877572 0.010701468744171444 0.0073362190887026404 1.3018915372836615e-13 3.4449168778011297e-15
-0.020635858655965355 0.003305697843762146 0.008711124957802933 0.006783849266861948 1.0378224430014626e-13 2.084107626060261e-15
-0.009689999714904696 -0.0021709816743820886 0.008833115057263575 0.004313120368761133 7.38977021935705e-14 -3.7419069578992215e-14
0.0415712813493561 -0.06620582845781997 1.2061749168901237e-18 -0.0021784412199821845 -0.007991038677117403 -0.0006934198761396154
0.04371721185482895 0.00040405321354488786 -0.004438709338328322 -0.014989097564186397 -0.01089474426982106 0.0008313906471879109
0.054715560611840804 -0.01768830703406065 -0.00847771474041668 -0.0059308416229501065 -0.010253530981792294 -0.0008030860529892273
0.0754057966927143 -0.02245687393658391 -0.012231568190127518 -0.006777127934384109 -0.00857117413309951 -0.0009266778072045763
0.09926307981397839 -0.03052641633466064 -0.015128535230901258 -0.007101614009828868 -0.005511551958989735 -0.0012787928440274128
0.12314041299660891 -0.03834640881039698 -0.01716205091265201 -0.007456652992032707 -0.001679772018503189 -0.001642975999780781
0.14695720208081428 -0.0465698046239732 -0.0181926179511239 -0.007935567891896774 0.0026510842125222617 -0.001984114566396101
0.17189707141527627 -0.05539557568309309 -0.018124923763159703 -0.008847032828036904 0.006788410486535383 -0.0021375766189077523
0.1998278163789807 -0.06573174934260892 -0.017003640536786355 -0.009932440750910826 0.00910103519612694 -0.0018007589828589424
0.22791581693787072 -0.07780546593605073 -0.015306967484540203 -0.008343683794028318 0.00706399533450091 -0.0007798895106980378
0.2410384789753469 -0.08565060691810483 -0.014325537817528261 1.930453256533877e-05 -9.123986070464404e-06 8.563884991827722e-05
0.22785128470684218 -0.07777997213844075 -0.015317053369761824 0.008383471472743704 -0.007071749390071634 -0.0007688170390218558
0.19968889117103678 -0.06567411970437954 -0.017031091377833842 0.009975875892555596 -0.009076150454757584 -0.0017787463110526245
0.17166229032225852 -0.05529125752220252 -0.01818580844439924 0.008897171563550556 -0.006703655840428594 -0.002105740780178702
0.14658888624411615 -0.04639375516060895 -0.018314790204888343 0.007995762313831234 -0.0024640038492107683 -0.0019457504409659695
0.12257881998402595 -0.038058007339590576 -0.01738767891027737 0.007533711297613799 0.0020457871363780086 -0.0016098483375343161
0.09840854557821024 -0.03006477201100003 -0.015521518674359528 0.007191416486581343 0.006202493018931334 -0.0012594473697699715
0.07411999486661267 -0.021734901277761107 -0.012859507613084777 0.006941684972078918 0.009753115541656893 -0.001006453529283619
0.05238305212197651 -0.016497051328378285 -0.0095246957053366 0.0061657410095881235 0.012077402849411471 -0.0007377795862688734
0.03766454215926712 0.002379729511431538 -0.005646478313225317 0.01464796919835778 0.010993797781125594 -0.0005938269820444775
0.03259217657065403 -0.06293549604583075 -0.004956290656684006 0.01881372563247301 0.009718053548997959 0.005804002119865807
0.01835460874728028 -0.057064571356032795 -0.000654233635092097 -0.003715913159114294 -0.004230773633842762 0.002070976010938976
0.021306076759970014 0.0007462873691083222 -0.002035084206035228 -0.017011049341626207 -0.005128737427792888 0.0017422134722945455
0.03386575984461899 -0.012893974492129258 -0.00529276009739421 -0.01533945046034714 -0.006420131769649289 -0.00019274018119697336
0.051056364348119436 -0.018344881657161048 -0.007964154877573201 -0.016906342193677384 -0.005367637095552627 -0.00048702806157909753
0.06665215918933969 -0.024564954822743762 -0.010035295906136665 -0.017871064261458784 -0.0034001693824062015 -0.000711506522264942
0.08256593199959622 -0.030879967780559108 -0.011420028062024863 -0.01850691374602787 -0.0009090412704203709 -0.0008223374172593982
0.09842490181490317 -0.03743433755884628 -0.012097888213232428 -0.019545446748832143 0.0018104071541149504 -0.0007168609216401887
0.11483532626655574 -0.044308686098565316 -0.012041564791194297 -0.02169506132588112 0.004321226642712278 -0.00012900317145732914
0.13264424272236647 -0.052339793201828404 -0.011314425228275603 -0.02482968101428083 0.005687621470873143 0.0013667987941127563
0.1500038084029812 -0.0632959742360926 -0.010189960370166281 -0.021759820827863346 0.004435777990773805 0.003869212026938939
0.15798703266390052 -0.07316888226824532 -0.00947113992983883 3.744131896137501e-05 8.1919137662025e-05 0.005655346189060416
0.14992464831107735 -0.06327554001936513 -0.01016395300808427 0.02183813138504334 -0.00425643287722995 0.0038718410861898348
0.1324770918406515 -0.05229280941614517 -0.011268082986960937 0.02491885947323682 -0.005461131318833394 0.0013693246372907223
0.11456172977040344 -0.044221829419535744 -0.011988067729941695 0.021804526853161085 -0.0040129307924708585 -0.0001336514342728089
0.09801493215780906 -0.03728473149549418 -0.012061270404539448 0.01968817080400142 -0.0013769690775229013 -0.0007436916717804439
0.08197266974845376 -0.030630217967968436 -0.011440742762794992 0.018701319032734403 0.0015336467270870456 -0.0009004847794228477
0.06580876617883664 -0.0241576742576969 -0.010173037951535086 0.018138041996207305 0.004314619157010447 -0.0008874312731815816
0.04980999983020527 -0.017703190147461797 -0.008317654711183186 0.017320861830076126 0.006718412565290929 -0.0008400332398000968
0.03185366079331708 -0.011797857467611033 -0.005951357429672896 0.01613970075112305 0.007985154175150338 -0.000742471784328634
0.01952559600257733 0.0017359158830268495 -0.0033502971293426827 0.01849232833168356 0.005740807085225438 0.00021527680952674986
0.017312599721112938 -0.05461223943417288 -0.0037509995420300394 0.01397406877154535 0.003754086478063527 0.007507678501719702
0.00943945327976894 -0.04004101047153227 0.0011778705341946572 -0.024083343980288517 -0.0014843134297975612 0.007139970387722339
0.009163972340561051 0.0005274141805372503 9.188754378233681e-05 -0.029608992539516998 -0.0018673440625787518 0.0026333130271810443
0.014963942654781107 -0.004444558727936472 -0.002048102490536406 -0.02760063347329014 -0.002612560893416807 0.0006710856263673654
0.02553475916805281 -0.009540733627262836 -0.0037889099149777876 -0.02982367445485097 -0.0021567587206144405 9.608470351605856e-06
0.033935705215234556 -0.012605006223355879 -0.004998102461276688 -0.030979903103805995 -0.0010492507705645723 -8.184081790153661e-05
0.04174193491694311 -0.015746312154835383 -0.00572801964714625 -0.032078606600247084 0.00026355905080006404 0.00011977107038168314
0.04941423967909987 -0.018964240821929438 -0.006009006800133455 -0.03372856267136399 0.0016247859993024558 0.0007806773710618442
0.056869187769690015 -0.02185714467501513 -0.005866854754935675 -0.03693984099420228 0.002892397013742258 0.002253462527994784
0.06528966141680302 -0.025192053897120405 -0.005334529399570135 -0.04251854674106952 0.003760486434614771 0.005065975257129073
0.07635902432888127 -0.035014522775014094 -0.004436039926456782 -0.039452659441195366 0.0032292777055422986 0.009288037205110428
0.08266861417816748 -0.051894462715619594 -0.0036427751514403295 6.041361241449988e-05 0.00017130325118643052 0.012339818819020342
0.07626676571687131 -0.03500450802395769 -0.004374426436796017 0.039579196702306224 -0.002867156909913241 0.00928247605206396
0.06509767623258002 -0.02516700339265804 -0.005215568453147162 0.042663240642637504 -0.0033401302182389917 0.005049159082732494
0.05656296644069854 -0.021806247192265198 -0.005701236150443343 0.03711856548050719 -0.002375726196106097 0.0022114171416156123
0.04897227955870839 -0.018869097068557095 -0.005818327530246112 0.03396392154033752 -0.0009730677303579948 0.0006851425181063795
0.04113478217036223 -0.015575701081388163 -0.005551325006983716 0.03240315627559788 0.0005665721766757722 -8.010970672661705e-05
0.03312016683647648 -0.012311804171954582 -0.004901404007404336 0.031440647029692056 0.002115646874182591 -0.00047271015522402937
0.02441837975784288 -0.009044752458807434 -0.0038732725234527907 0.030527635844469766 0.0034977953057361046 -0.0006678492973722814
0.013810297270356908 -0.0037427185999424377 -0.0024627044387464042 0.028871204520355777 0.003952905667410002 -0.0005435565660468953
0.008647042399003583 0.000375264171417004 -0.0010012161752228927 0.03182331563335243 0.002248668906260408 0.0015928377808475916
0.009413010653629077 -0.03850412430647691 -0.0011611245047947244 0.02635040198268338 0.0010131631571198532 0.011043786378059146
0.002801520234211486 -0.02529623115445685 0.003646864031526242 -0.02594737368104814 0.00017673192765270705 0.0091550018660943
-3.0576648416665386e-05 -1.2007377153000334e-06 0.0024301351458790605 -0.03470876456943991 0.0005680699589984162 0.003092974587866536
-0.0016502282373608256 0.001886956210999223 0.0011877838610100135 -0.03443433154759468 0.0008132335413771768 0.0009260115135561389
0.00029908363677668873 -0.00023508683177913035 0.00039740182014957 -0.034307001430271024 0.001043703333714194 0.00017951964408147538
0.0009819542933424505 -0.0005219408167911652 5.459388847263366e-05 -0.03532416193071787 0.0013687575373497538 5.545722156495656e-05
0.0007743204481805096 -0.0003575272419004695 1.038417699782332e-05 -0.03657286513162919 0.0016091285711360697 0.0003526313187874131
0.0002675967636009445 -0.000260391964467734 0.00016458088862191775 -0.038471348321875085 0.0017381471564452513 0.0011824973408800672
-0.0011535975527848282 0.0006473286664451508 0.0004574412232733162 -0.04121096485186728 0.001906193892057765 0.002882684424907133
-0.001951232460821603 0.002387791621500156 0.0008755182256696916 -0.047240970031122174 0.002388720899431705 0.005982232587764851
0.004474512481424613 -0.006521839707276424 0.001632969395053034 -0.04933939799482509 0.002536687106187912 0.010794059139139682
0.010603952573234184 -0.037307784115703485 0.0027099597472569734 6.846384654011638e-05 0.0002604307658255323 0.014726862805327885
0.004369593787856754 -0.006522651098218652 0.0017302566990350166 0.04948281248527021 -0.001992685140410506 0.010786007984067023
-0.0021670624136601747 0.0023900463914753203 0.0010672039111553685 0.04740499054016224 -0.0017767789072170909 0.00595948553126661
-0.001490779199334961 0.0006608669656417243 0.0007351529339989997 0.04141352853095542 -0.0011863055541450037 0.0028290284029192933
-0.0002030553152700926 -0.00022162770274813213 0.0005089928946366808 0.03873818784709725 -0.0008793112616344756 0.0010657879645472788
0.00015952809517667555 -0.00027012615001893346 0.00038235240237672404 0.036943409229935414 -0.0005932517575015566 0.00011313727484333899
0.0002076196360425552 -0.00034552516852647024 0.0003829722554425839 0.035861505745510565 -0.00019433971120980733 -0.0004033717112094905
-0.0005837956397634438 8.765203013491445e-05 0.0005655866469214708 0.03512500930653487 0.0002345037087157404 -0.0006468835957650932
-0.002297353095442691 0.002130988121591989 0.0010108819980445133 0.03572649808217208 0.0002447293132530385 -0.0003663963175844011
-0.00013244779004669143 -0.0002643419858580563 0.0016023459480163389 0.03578688535105308 -0.00034505733081985086 0.002335330469784067
0.00298577951659633 -0.024028542102404 0.0018351747680788746 0.02640261438958691 -0.0005480888741795525 0.01169366550766744
-0.0031016156695296998 -0.01327104192449694 0.00619491232633891 -0.020702302324718327 0.0015751127149200874 0.008603100603726993
-0.008248158188431314 0.0007073767673138906 0.0048630710512609955 -0.03040596233615036 0.0028120446048443045 0.002641234011216406
-0.017067218076940772 0.006831088535051658 0.0044078629433319675 -0.032074858947042977 0.0041205208032559625 0.0007893626292513457
-0.02432278687693081 0.008771327065617156 0.00456553945238092 -0.030516699359240358 0.004218306421023627 8.993909637486246e-05
-0.03198158501796529 0.011668029476568514 0.0050915044846729105 -0.03090466868995489 0.003801589377361137 -8.559887714550383e-05
-0.04028666041558334 0.015040873681346368 0.005739405043673856 -0.032078901583769366 0.00297189897977859 0.00012150215368825712
-0.048755685684472756 0.018559353614266406 0.006334986900905036 -0.033671408742270294 0.0018744631851983313 0.0007900500754489567
-0.0583875820365377 0.022410018767934435 0.00677897973688341 -0.035749550331132356 0.0008731535848620998 0.0021616010669211917
-0.0690537402459024 0.0293315855843496 0.007049713392379717 -0.03862553738766047 0.0007630251675985744 0.0046507088714819
-0.06813281083990791 0.026331516592486157 0.0074671138162888985 -0.05124780638585466 0.0015985341460734868 0.009063494258633184
-0.06196716178224199 -0.028500418443308192 0.008934439955360503 6.061889792578275e-05 0.00035131036498849057 0.013604421057559248
-0.06825108410403766 0.02631986823928737 0.007600743957875158 0.05137476449328729 -0.0008689140850208949 0.009058649690987276
-0.0692949410695882 0.02931100255824529 0.007315568029770668 0.03877063595056349 4.497664811170518e-05 0.004635362932265076
-0.0587583989228717 0.022386200108867018 0.007171238148365747 0.03592846145937078 5.570811715214379e-05 0.002121969986693825
-0.04925890596800559 0.018541636961778414 0.006836877053405443 0.033906634368250775 -0.0008005265862405272 0.0006984736584951614
-0.04091413939621969 0.015044279661972526 0.006312210643311082 0.03240723702585956 -0.0017606629693801004 -7.370405698217955e-05
-0.032699957600603326 0.011722525801775163 0.005658560453729922 0.03138858253526196 -0.002510695523372394 -0.00047642058131665895
-0.025008420665415507 0.008883923481141177 0.004992888092794702 0.03125560426210919 -0.0029995223867700658 -0.0006339536156348412
-0.017452132202524482 0.006836405458663155 0.00448651330201673 0.03297117431007071 -0.003296406532989141 -0.0002603533447168531
-0.008217855021885557 0.0005434671604224315 0.004318197826356477 0.030803222293721375 -0.002699450674706783 0.0020810705655468728
-0.0028915219696232126 -0.012378253782545348 0.004826513606234406 0.02056926842092804 -0.0018769855036895764 0.010243799111986331
-0.008105857868183745 -0.00549976880134492 0.008532905237324646 -0.011185965751573853 0.0033401381328253873 0.005203100932738828
-0.015816656130210743 0.0023270987741460672 0.007237467181029637 -0.017397812211267554 0.0053804513308543704 0.001149007683896574
-0.031985391295967024 0.011242871277484131 0.007586694068020335 -0.01891700682942629 0.007582077503209292 0.0001545550395782332
-0.04858193699708208 0.0174725875856347 0.00868839596062509 -0.017741830675804645 0.007411678127467624 -0.00040862228370124547
-0.06486323221203594 0.02374467081759309 0.010079073778437333 -0.01778883273474744 0.006185312968463782 -0.0007024165619551147
-0.08122053580495195 0.030279974917106024 0.0114023484936725 -0.018502786296987834 0.004196967768615671 -0.0008181693779461132
-0.09780797724287839 0.037051102848986994 0.012416067740402653 -0.019497873361047836 0.0017420225626908381 -0.0007108118409651585
-0.11412514684080059 0.04435184651111288 0.012946682172008612 -0.020350495004000154 -0.000595040619563945 -0.00022465460049191392
-0.13460595954251317 0.05157390130261704 0.012977442767696076 -0.02262490319442768 -0.0018312925055438511 0.0008139323841467791
-0.14392129155571096 0.06809535205206116 0.012573132326563057 -0.03073539535574332 -0.0005024240255656989 0.003606791925415036
-0.14073324051723093 -0.02222367593028731 0.01413065456064127 3.7875853184459265e-05 0.0004459324272386539 0.008747796635038059
-0.14405474431192727 0.06807327336415209 0.012744348275927632 0.030814615226158682 0.0014259956813246844 0.0036109476224548535
-0.13487651315194446 0.05153130570745676 0.013320213733099101 0.022715072228820257 0.002846456277455959 0.0008195232987100917
-0.11453646990041272 0.0442919739594154 0.013458309042615689 0.020460888370684827 0.0017494789016865716 -0.00022451401274297203
-0.09835537146492676 0.03697881439144819 0.013083352743125182 0.01964173852856373 -0.00042670202089678956 -0.0007304548708547459
-0.08187518245904438 0.030202603441995688 0.012188608967517486 0.01870156027314649 -0.002748399190467233 -0.0008861368880329836
-0.06554336724602143 0.023670742967372434 0.010903985538212629 0.01808289100569117 -0.004717454465853448 -0.0008751317105715208
-0.049124352485063166 0.01738775181399681 0.009402696641131884 0.01817176437003333 -0.0061731094826532745 -0.0007719173935328199
-0.03220519071742033 0.011088321585423477 0.007957467854214407 0.019355282240814647 -0.006929912573154139 -0.00038165618255539937
-0.015717269677536696 0.002214510356840356 0.006991325501338874 0.017494277410788 -0.00541873184488407 0.0008652274319833922
-0.007888827675420124 -0.00499006337531638 0.007548991102275335 0.010987914000347192 -0.0037006188670206373 0.0061202410888718875
-0.010790735468498878 -0.0028912093737907063 0.010327693443302225 -0.004360378482287407 0.006435723694533852 0.002670553028005923
-0.021891697158711535 0.0032707357018310003 0.009459499340419281 -0.00696518062499759 0.008868307908414272 0.00012176032167134738
-0.046758914629992904 0.013386953412538493 0.010741442424876393 -0.007218310593230991 0.011333731374174334 -0.0003241402385976226
-0.07302796930571609 0.021780925253264305 0.012827432799895873 -0.006951455201893145 0.01058603222241402 -0.000795259324155677
-0.09762849396709644 0.029715920184351728 0.015101062618436582 -0.007048834846334896 0.008364208709514499 -0.0011976165208162847
-0.12190693085838908 0.03784224554666792 0.01709410915755099 -0.007423202699769345 0.005033261065907996 -0.0015932404531655872
-0.14643671684676812 0.04609232569064522 0.018485381962145532 -0.007795747704908084 0.0009820912121967255 -0.001947331445300281
-0.17069472202260474 0.055670805655239915 0.019053926734659304 -0.008623604587652106 -0.003018677631005787 -0.0022094052196017606
-0.19242687894043814 0.060696485412728186 0.01865282449086524 -0.009122271453826018 -0.005613282297079751 -0.0020886951581393443
-0.22221124764313646 0.09172655451849089 0.017188578460983456 -0.020091085292407388 -0.005360855335129871 -0.0012923150495987958
-0.2422100045455811 -0.018960315392511844 0.016530581160208977 1.9698539221278075e-05 0.000545663342245537 0.00612870230580715
-0.22236274867945185 0.09169941620091807 0.017399095519364506 0.02013251453053847 0.006490013049680791 -0.0012832999853912752
-0.19273302301841613 0.06064320673877899 0.019076353670274236 0.00917003076854456 0.006851949083888759 -0.002071368825891211
-0.17115744173449496 0.05559337470004172 0.01969181966726935 0.00868286551204436 0.004424473040872493 -0.0021858076858776334
-0.14704640322182183 0.04599358576057806 0.01932970868317489 0.00787332576826995 0.0006175813656289452 -0.0019222984596565151
-0.12261909590675076 0.03772536882643852 0.018113148327692195 0.007528755692917675 -0.0032743249409530532 -0.001577986483673423
-0.09831875237938496 0.02957841583365701 0.016215710500181925 0.007198844253681832 -0.006599734015910005 -0.001217554727945962
-0.07347031527336238 0.021600986626433463 0.013878460965691649 0.0071599969901956426 -0.009168120398954722 -0.000894050992274696
-0.04678503603494303 0.013152582089745728 0.011467069474791671 0.007435488644558198 -0.010777958687253715 -0.0004959936862916348
-0.021645491565986393 0.003154976332907882 0.009541463969489532 0.007046516299282927 -0.00926258023399538 4.008568126097654e-05
-0.010496137659824179 -0.002561437599911178 0.009650060020347245 0.004300062717850223 -0.007236977423756203 0.0032198052661158716
0.02994470942243717 -0.0765589829268862 -3.4592825565865626e-18 -0.034667063257285524 -0.01849462224313808 -0.006542336350970473
0.03796007662151234 0.0038319565964458147 -0.004750728311476269 -0.015497581069406486 -0.019955984633313308 0.0020505735215745075
0.055528326562173984 -0.01700047759307218 -0.010759898415360422 -0.005538260968837632 -0.0187181304885995 -0.0005123272012859191
0.07745698781116528 -0.021278283712341323 -0.01530713434433328 -0.006019913674875057 -0.016632772665116594 0.0003504174714866963
0.10266285726492878 -0.0292436835434815 -0.019742350087594198 -0.005978695740634439 -0.012694739649159598 3.5961413363685e-05
0.12811361317953407 -0.036680094361118944 -0.023770385821732194 -0.006131466558768283 -0.007593083649672932 -2.4463193863212632e-05
0.1530193764037893 -0.04421967607518399 -0.02724513165447233 -0.00627337333234421 -0.0011805947869093238 -0.00011479715739013389
0.17726238541172096 -0.05169991143556323 -0.029911785761694724 -0.006607327310837036 0.005902232219388984 -9.096825324330168e-06
0.20079087822076022 -0.05936453415757155 -0.03146798606332463 -0.006942495209964515 0.011413256615868506 0.0007449721139485507
0.22125103776350247 -0.06721329605089256 -0.03181595403188872 -0.005590054570560684 0.010428610581810693 0.0028616572232582475
0.2301539812613921 -0.07210378640005309 -0.031634676620413624 1.8817146181282106e-05 -9.873000973833581e-05 0.005078469571583085
0.22130636627353178 -0.06722692455690196 -0.03184433061491502 0.005627395336619306 -0.010614965550697911 0.0028746838901728402
0.20090970458792934 -0.05939270439646735 -0.03153061066652093 0.0069784569520912 -0.011564638723397809 0.0007705648711340296
0.177464204097092 -0.05174495362292265 -0.03002181697738455 0.006639051363988167 -0.00598905912881793 2.6579846992036475e-05
0.15334315756329708 -0.04428664639230826 -0.027425809567932054 0.006295564864153835 0.0012039568707500035 -7.23533538018935e-05
0.12863119664885023 -0.03678006387834045 -0.024061960906516237 0.006132682768640585 0.007795938725341774 2.2420154270392e-06
0.10351014684555913 -0.029398563482930136 -0.020204966365721454 0.005955130457358219 0.013232110856298539 7.34893481205486e-05
0.07884469409872338 -0.021526210204602134 -0.01606427222514831 0.005904546074977258 0.017558612796669107 0.0001359080080661124
0.05808469749201568 -0.01748845583783502 -0.011831894178701558 0.005324189165469167 0.021136270697300827 0.00010116636180278597
0.043691112663567344 0.0027834184677391184 -0.006712018178488748 0.015367631663108759 0.01785852075776517 -0.0024189667013156824
0.03801238731227113 -0.07787890169770623 0.002866403312067863 0.020484005282186565 0.015087120113318794 0.012052911146492446
0.01792535143505279 -0.06740036307040893 0.003570674256994052 -0.022246790063981 -0.0031147517614105594 0.0006130540135882494
0.01990787275246922 0.0021734600633649304 -0.0025091880754863935 -0.01932720661823147 -0.00671063780557049 0.001863605569090718
0.03280134530683089 -0.011654155715226147 -0.006825167534835586 -0.01521679766954466 -0.011416482269050898 -0.0001223560345671623
0.051758140430568256 -0.01711471547500143 -0.010413236270960346 -0.01580015069916837 -0.009573586346453973 0.00016479562694799856
0.06836141348660879 -0.023178632114798172 -0.013550916238837486 -0.01627141819236 -0.007134027337052433 -2.5904635894269764e-05
0.08532795988299006 -0.029155009805370023 -0.01639519058857582 -0.01636098181898782 -0.0038877550114861928 -3.17561816449168e-05
0.10189786396902334 -0.03511723795028177 -0.018809851226860595 -0.016501788811174853 -7.650793581241155e-06 0.0001561445195681496
0.11787390147554393 -0.04095331344368657 -0.020653117542442753 -0.016942254583380646 0.004160330190990104 0.0008965483743014276
0.1330273280591059 -0.046910470431740084 -0.021751044522739387 -0.017565284985692976 0.007387524391058286 0.0030435940341809516
0.14588240868803734 -0.0539532031648275 -0.022054209062872955 -0.014412346793118943 0.006808472632229493 0.007728147560061231
0.15141245105248977 -0.06017609241897298 -0.02196672371147641 2.7239444130801066e-05 3.803762952769104e-05 0.012393689734853741
0.14593666172110936 -0.053969938677140714 -0.022065525534891415 0.014465988630160725 -0.006715086184867421 0.007730951817784234
0.13314314544340583 -0.04694473550765663 -0.02177925972406079 0.01761533440777571 -0.007241583499802731 0.0030460985477800233
0.11806830269962941 -0.041006994753687506 -0.020710817006925706 0.016982371887484138 -0.003923706460249069 0.0008907588597032961
0.10220330703155396 -0.035194213490657406 -0.018920090591625766 0.016519078952841576 0.0003786480042486686 0.0001260417352336058
0.08580554190540816 -0.029264204830435372 -0.01659607366754295 0.016332575417303957 0.004455876936190561 -0.00011927852941429496
0.06911692945717321 -0.023338304248569586 -0.013909089126615853 0.016166500223036673 0.00796805745753243 -0.00020873438302374062
0.053017279974559704 -0.017354082726754403 -0.01101238871952541 0.01553646814440567 0.010869167725141222 -0.0002492483890614901
0.03499177969326077 -0.012129531016683064 -0.007850024616264696 0.014543117344303916 0.013047605820324984 -0.0004946328832505778
0.02210204986934908 0.0019011812927341805 -0.0036488389674885274 0.017720131615872093 0.007143336245652915 -0.0013567710673050883
0.019523760365370985 -0.06801810183165526 0.003644020075267449 0.01320526313515861 0.0021362483411747862 0.012714518232374489
0.009937913543263677 -0.04868261737831592 0.005056784095615855 -0.02936202232915725 0.0004938902073609615 0.012262358642557251
0.008784300121637632 -0.000642041302805479 0.0002712629909479523 -0.03356480059892332 -0.001533972610478816 0.0018429103628666145
0.013827730041242745 -0.003014864288564646 -0.0028487174744706942 -0.027757156730103264 -0.004606829607850316 0.0005619195932077339
0.02496063669017126 -0.00838081434009081 -0.0050254414637708605 -0.028545058244118193 -0.003912773401793437 -7.79560541648546e-06
0.03410999150072347 -0.011424500743771453 -0.006761305453625575 -0.0288544239888991 -0.0024798526901632714 6.090560195622506e-06
0.04253594199404694 -0.014389147365832721 -0.00824416618884903 -0.028967261949583566 -0.0008367307077859008 0.00018626514952555767
0.05074708833039708 -0.01730965228417115 -0.00946518589153747 -0.029036645646315983 0.0010623503589074592 0.0008197260904194614
0.05836393932025003 -0.019903167921127236 -0.010361246710351686 -0.02935213096584538 0.0032189952360069107 0.0024054598285773946
0.06568522255023092 -0.022455956995260422 -0.010867977958289638 -0.03037215592030459 0.00558189248013046 0.006130081583185584
0.0735979863698924 -0.028605617973369035 -0.010924383189436839 -0.02626977532302495 0.006203500080928144 0.013875044601135967
0.07782039273865839 -0.03955823699343114 -0.010726536315069495 3.9955235154267796e-05 0.0001593509429634717 0.022832465457104868
0.07365037603302181 -0.028628416589894207 -0.01091813323473585 0.02634814468959498 -0.0058625695761284555 0.013868553097196708
0.06579565875575775 -0.02250201374121886 -0.010860326092596266 0.030444092774242044 -0.005174789120828175 0.0061114228401567185
0.058545052085831 -0.01997327307220507 -0.010363383668018417 0.029406784663924733 -0.002703642921833374 0.0023608310948409236
0.051022616334495806 -0.017405016634289398 -0.009497737477737071 0.029051668209275492 -0.00039968237806183813 0.0007205882486253044
0.042949743352971664 -0.014514042112621948 -0.008343042854607978 0.028903184651154237 0.0016809565710991787 -1.6846525075860566e-05
0.03474556245801888 -0.011587512844042764 -0.006984586119559798 0.028648269844808453 0.0035410025398526163 -0.0003961593269868127
0.025990256942804855 -0.008611359024979103 -0.005466763159022 0.028075774003406807 0.005230183003670267 -0.0006761410112682787
0.015141859059868132 -0.0032885285298057095 -0.003611351704401938 0.026659342908638244 0.005939899753471756 -0.0007813040317149777
0.009753043623662885 -1.3152224760753194e-05 -0.0006185018137082227 0.03134624504200745 0.0018062220392164286 0.0005826039566401703
0.010532395986530827 -0.048672326346881234 0.004555779524526838 0.026818376405726273 -0.001103777034005847 0.017183714442826074
0.0033685847012621135 -0.030701851816808033 0.0058776247423752495 -0.027762365925044837 0.0015945670261301192 0.013444441517071285
-0.00015862287600420974 -0.0017051725078606986 0.002846883738196049 -0.03687557093105143 0.0015227626549073987 0.0033057318710567347
-0.002831147818540501 0.0025943470149350075 0.001156658388334265 -0.03506255584247143 0.0009526851518447552 0.0008340669664012306
-0.0011715472432636826 0.0004925190003240039 0.0005114372169776086 -0.033119419443449885 0.0013317863600561983 0.0002063299059489086
-0.0002990144408403615 -4.767803594840997e-05 0.00028041869271769234 -0.0331147114170469 0.0017889274907168583 0.00017680675627678978
-0.00023850234373497844 1.1559692946698288e-06 0.00021793231850560394 -0.03318827970805096 0.002030209306623424 0.0005240887655730058
-0.0003324861067743397 -1.8142627639105717e-05 0.00025249733870928666 -0.03326616284784706 0.0021965599050214526 0.0013647398005936218
-0.000972119533695715 0.0004039171813161642 0.000360960416336057 -0.03303693233253562 0.0026235484846828094 0.0031643387894808163
-0.0013836978767241609 0.0014565809804141588 0.0004907224235923268 -0.034094002923663186 0.004445708612441583 0.007027652601382323
0.002662296875565398 -0.0039506437331447925 0.0006834288717759458 -0.03337016931399673 0.006871980879345431 0.015468988218069567
0.006579416564287967 -0.024718560751207368 0.0010459248221327112 4.3446261835074825e-05 0.00027450752213083526 0.029315168360504212
0.0027123767697122044 -0.00397935698109767 0.0007076035523913172 0.03345533046351517 -0.006296227334654761 0.015459800117341575
-0.001279973476367631 0.001399167110755572 0.0005351721740615891 0.03417193835637306 -0.0037916671722158356 0.007002775944111665
-0.0008073063356903679 0.00031839978060148875 0.00041645369638079353 0.03309542584067342 -0.0018463741847779887 0.0031078432351696245
-9.353684910399666e-05 -0.00012994290247082024 0.0003013615496542632 0.03327980175356478 -0.0012656576565549854 0.00124493791150827
9.89467103906862e-05 -0.0001345454429475033 0.0002289321896306782 0.03310968943255576 -0.0009393416477627212 0.0002806191959629853
0.00019314720130262782 -0.00020873462221065087 0.00020075691069842475 0.03286360483870732 -0.0005643648654613581 -0.00028850109786311397
-0.00047857387482348464 0.00029904857855594155 0.0002582563467695327 0.032556103407869005 -5.224702309952369e-05 -0.0006358962955090617
-0.002125467513973899 0.0025919533591769284 0.0006548394745060459 0.03393257532982577 4.5453030382565814e-05 -0.0005257445511849012
0.0002940548331965613 -0.001035901313938061 0.002177743411076131 0.03569115815567106 -0.0014392963620504945 0.002485537252091309
0.003658941895511252 -0.030790346151255654 0.005310789609161835 0.026938825006284334 -0.002087144030857382 0.01638628439012125
-0.002591553593877114 -0.015936057100787916 0.00663238272530365 -0.02101999575904474 0.0026899678163760147 0.011627849384617146
-0.008338093107432306 -0.0006403091919624378 0.0052070204257977535 -0.0312387294269014 0.004343122415389329 0.0033709999764867647
-0.018388974307909027 0.006952614271300812 0.005074869018728483 -0.032293117853833264 0.0061378216902519475 0.0008660398695730851
-0.026585110982171888 0.008917802538443298 0.006012118175520334 -0.0293566375862879 0.006559214113830575 0.00010611401621362794
-0.034676165038183764 0.011433124407044774 0.007312176987069153 -0.028749107515431613 0.006105112714940417 -3.8305444663244194e-05
-0.043094664333663976 0.014391686013473416 0.008673805029498324 -0.028899868261083088 0.0049351551709248855 0.00019083359360399312
-0.05134821337034379 0.017359944752160173 0.00996792379594257 -0.0289689149663335 0.003400419695152473 0.0008910415420919477
-0.05988276994243119 0.02026924455798803 0.01109137475741117 -0.028710098695532097 0.001895488826785742 0.00217478207982566
-0.06853771995450965 0.025088971075371648 0.011849217261522885 -0.0282284409882647 0.002367139827457392 0.004915038217974495
-0.06866823030533187 0.023820656253555925 0.012062863038970207 -0.03568833209384112 0.007313810859047966 0.011306342598692605
-0.06463217300633665 -0.014792905309470554 0.012417649731166939 4.09106063938356e-05 0.00039212405175564045 0.030661064835727572
-0.06862036924569485 0.02378583329451676 0.012105189324058008 0.03576885982333217 -0.006497919053489116 0.011301224978001326
-0.06844058582070497 0.02501984094737516 0.011931016664309381 0.028303294174060814 -0.0014596171159574542 0.004899136765319048
-0.059734204473484716 0.020167759245547735 0.011205516420196742 0.02876897085022769 -0.0008479748758765835 0.002134268516550527
-0.051146321167632555 0.017231195316142794 0.010099987665853056 0.028989614515842105 -0.0021897437111362845 0.0007979297207377173
-0.0428352057366888 0.0142452423909815 0.008797146088300626 0.02883845866583293 -0.003584718632850817 -8.199334849205852e-06
-0.034348784000404135 0.011278186353578773 0.0073804805269282745 0.028526644282459174 -0.00470900112968892 -0.00044078872796679173
-0.026210339175775702 0.008793132226233707 0.005953979865646893 0.028843704649653305 -0.005314739998810294 -0.0006465184876358318
-0.018084638887120072 0.007045441241603108 0.004817268408845296 0.03149982860094253 -0.005396454068089898 -0.00023636009496475873
-0.0081533579909102 -0.00017130204084472208 0.004760342115181679 0.030730045396439545 -0.004370408523607733 0.0028066743834945424
-0.0024459858870045244 -0.01601605460496726 0.006142699286406115 0.020830056838400106 -0.0030959186530518435 0.013578819905998452
-0.007626075494079064 -0.006327832663848143 0.007694292152041779 -0.010992417709004129 0.004820713343984086 0.007548039386217843
-0.015904198948142555 0.0015737418183043306 0.007453269379075608 -0.017465013160175673 0.008035787993918677 0.0022942113553012836
-0.033531720345202506 0.011127625599912427 0.008816323835896372 -0.018629198919885435 0.011866663725023915 0.0007907817062386591
-0.051700519505205746 0.017370783872944974 0.011296774529205363 -0.016701961336722602 0.012315447024044747 0.0001250755210125335
-0.06905701618523098 0.02326949345820707 0.014073301404639965 -0.016156462753847405 0.010866850422677583 -5.779685632488987e-05
-0.08597585522105244 0.029232430252935454 0.01680090336861883 -0.016285546283661523 0.008132762380494344 -3.2514687655086066e-05
-0.10257430416927169 0.03517434781649837 0.01930780266069931 -0.016436843082966668 0.004593245224478553 0.00020462999608121513
-0.11812722312428636 0.0411553596153672 0.02140257807768016 -0.01613170322335286 0.0009873013394870026 0.0008285137416728089
-0.13518631206933154 0.04645945343830033 0.022787365463852734 -0.016640816769182536 -0.0022112962648074483 0.0012994767670189717
-0.14220164664045368 0.05893928535457058 0.022575553016842814 -0.02254035211414616 0.004615378168072526 0.004225483604588078
-0.13948254449034755 -0.0069529106755984275 0.022006348813794933 2.837224092308452e-05 0.000520857524684706 0.022570422684055153
-0.14215542893534067 0.058897903797794374 0.02263610298826369 0.022596590796888645 -0.0035358374227105124 0.004230465155221119
-0.13509434788201774 0.046377606056367995 0.022906622846764094 0.016694458535657156 0.003399780768500359 0.001306347860688191
-0.11799199700964841 0.041036109453762105 0.02157539140765117 0.01617708891184469 0.0003652573181418668 0.0008294901735049096
-0.10240338550500323 0.03502559933446991 0.01952261620530301 0.01646098234643569 -0.0030567454136465563 0.00018360472467759855
-0.08578638316005192 0.029069936124290534 0.017034841015647863 0.016262057138478513 -0.006460634037611147 -0.00010795058061362095
-0.06888360446174817 0.02312162028480815 0.014285518188646228 0.016033243826298 -0.009222450246424312 -0.00025228054513974136
-0.051599842494143296 0.017298997361939048 0.011422679360433405 0.016412018068288053 -0.011015527976747371 -0.0002847936414092426
-0.03353766701435708 0.011240520099424391 0.008776928107885783 0.01823863637413053 -0.01130439793483996 0.00018901957345821027
-0.01592630007118036 0.0018556731200275332 0.007213466866683827 0.01729241880540565 -0.008214188691995805 0.001999844615799931
-0.007610910479910729 -0.006319575201991614 0.007326245560775665 0.010952598506028925 -0.0052806638252274945 0.008664577487222016
-0.010245920947278069 -0.003063763217036327 0.009336056522201104 -0.004210290138890889 0.009216352057367835 0.004891847150587953
-0.021949103526961108 0.002816803140707095 0.009698738609224818 -0.006834598451911221 0.01384170207561414 0.0015949375732346466
-0.048656942191368714 0.013260611426842454 0.012262657238479677 -0.006712116184570434 0.019263121631657516 0.0008583746264610389
-0.07720308635714554 0.021701482112171478 0.01609943600789019 -0.006086193411182385 0.019422130849827853 0.0003555855770401242
-0.10351121905052528 0.029312802831855896 0.020185466723252502 -0.005950641504587883 0.016698872168578 0.0001769265619426731
-0.1288490735130156 0.03683216989955777 0.024134706837330575 -0.006089149277851882 0.012022372678559917 5.737478904650555e-05
-0.15375535818472902 0.044197025616360984 0.027729077960349263 -0.0061667152753339125 0.006048546008351249 -3.2648757772367996e-05
-0.1774656899370592 0.052179684867835315 0.030702030634034747 -0.0064463042767067685 -0.0005584284586927857 -1.643032999042518e-05
-0.1970263023679904 0.056109633971297965 0.032653665616180445 -0.006636551557501992 -0.007360432114313803 -0.00012011114252512929
-0.21759027853721152 0.07885409640371539 0.03197678604787572 -0.016087496102862385 -0.010980602041173664 -0.0026015834822569347
-0.22995750943210147 -0.002889056685700929 0.02670034164339675 1.3619997837823958e-05 0.0006701287333377153 0.02399926599566194
-0.217545024737884 0.07880930742676882 0.032055391231520555 0.0161147709774631 0.012367103854646018 -0.0025922392077227666
-0.19693753205362785 0.05602112530308865 0.03280986115383551 0.00666350541073767 0.008880214137672995 -0.00010302787029693489
-0.1773389423178339 0.052051010237589575 0.03093215812113438 0.006471045115080633 0.002279141640599022 4.337495618506938e-06
-0.15360448532692567 0.04403717491128491 0.028023374128224577 0.0061842546467942 -0.004102415430141454 -1.6533523442220502e-05
-0.12870663165664334 0.03666003502343668 0.024471877593542028 0.006088902089714364 -0.009912426175010793 5.1806800622557615e-05
-0.10344864281295817 0.02916637929191394 0.020525589796394628 0.005910231055135113 -0.01464535888578741 0.0001153056694693651
-0.07732764761407082 0.02165059022957409 0.01637692699314578 0.005975700839165295 -0.01787662822486423 0.00018557235871661067
-0.04898169566935959 0.013380515298076748 0.01238980595205694 0.006550834867851362 -0.018803058777153724 0.0005993876901734423
-0.022236221280097633 0.0030273962611191358 0.009621933590038434 0.006753734877845742 -0.014423320194845747 0.0014799816345266279
-0.01041810382939503 -0.003000382768401764 0.0091105361542657 0.004144304572125012 -0.010173610056572033 0.005567356192129039
0.03201261916596333 -0.11896881503140057 1.2956215961201778e-17 -0.0673975092164813 -0.02778573997493516 0.03501332269380082
0.0385442787702566 0.012367042812567888 -0.00445973651126263 -0.029939288480032702 -0.02892166262606547 0.0011907041115402888
0.05370969036356071 -0.01677374355858004 -0.011762259449912636 -0.014114192042699068 -0.028254456248520604 0.009821783844477922
0.07553102010267583 -0.019704674883972463 -0.016536697506440583 -0.014554858539707735 -0.025140298321066686 0.010657008791490178
0.10252832702386686 -0.028342782832015894 -0.02187214254626075 -0.013717556361111435 -0.022466321955778492 0.01463667605051278
0.12990768583462833 -0.035918616900795446 -0.027006829998994362 -0.012446214179483987 -0.017646004088968048 0.018048875553049275
0.15661298108515295 -0.04356797161465574 -0.03183699565014089 -0.010396453080075509 -0.011006016775222602 0.021555063852402214
0.18172441318697752 -0.05090667690143608 -0.036063706621150306 -0.007578432572589116 -0.0026825771118360337 0.02500034346704798
0.20279455383139042 -0.05727955614979545 -0.03925494519941933 -0.003944364664615842 0.0054309870080945614 0.02855196107944121
0.21620700002619878 -0.06098622903475931 -0.04101492266726493 -0.0007328843854195258 0.007732235977474742 0.032368041837119346
0.22056425907933552 -0.06119674982072383 -0.041499512235570676 -8.976548959762666e-05 -0.00018586908078790525 0.034970926375388824
0.21637139324348786 -0.061038603342705326 -0.04105365105232336 0.0005486927061072685 -0.008100709452055412 0.03237707114617859
0.20315495171459336 -0.057394090084957446 -0.0393385063619612 0.00374619667327992 -0.0057886758862805915 0.028569859141226808
0.18234823336235215 -0.05110401064716069 -0.03620566444736679 0.0073566432196629766 0.0023473215005138377 0.025027569369431447
0.15761244793004608 -0.04388095796753836 -0.03206031999235285 0.01014216012418882 0.010710416334473985 0.021587937641768973
0.1314480567463202 -0.03639729320474115 -0.0273534398988561 0.012146893932056351 0.017428017503127793 0.01810054435389564
0.10484314677513805 -0.029044670387855905 -0.022393184177346738 0.013374488549065993 0.022326891644997383 0.014641623804492004
0.07893396500995511 -0.020712929540571513 -0.01740550084413299 0.014069163333290575 0.025301125582113962 0.010929824127215548
0.05920759093139719 -0.01822077954207334 -0.01280346021854452 0.013526091512260915 0.02781204896456298 0.008915879575584424
0.050377483593473896 0.010356697339722332 -0.0076437988397280365 0.031064224086948394 0.03718910462269599 0.006550160665953543
0.04871854311772669 -0.1255486213157587 0.010020700866211377 0.04051200471222482 0.04871220405099008 0.013580169751861484
0.019663636691922053 -0.10328021980871527 0.008311131808954257 -0.04325965058887938 -0.02295701462151665 0.020127091235131452
0.017758068452645666 0.008258744392446353 -0.0029166286044576143 -0.03584437923811869 -0.019222604007218525 0.006037010885211737
0.028352713172836504 -0.01028860732856304 -0.007606706033669662 -0.0298234124577273 -0.01744102170248792 0.010582853381708682
0.04924378136320384 -0.01580419885695799 -0.011760797526976735 -0.03020583295774149 -0.015420844604110851 0.013723588224422949
0.06686594191131555 -0.02229958771557363 -0.015566976781730137 -0.029526383033327715 -0.013382187475794161 0.0182072014194989
0.08511074226692618 -0.028485489507843045 -0.019337647249554377 -0.027120429574414052 -0.010545368933423387 0.022678177453826706
0.10283907544834082 -0.03458696197149522 -0.022828451285422983 -0.023564206168283443 -0.006598465550320057 0.027174813403022337
0.11950782165905544 -0.04054310459231433 -0.02587060907925912 -0.018376976133722193 -0.0017269092457734767 0.03181572308286164
0.13356128290601413 -0.045702066778539274 -0.02818373557240019 -0.010855223177846903 0.0030710442765801275 0.037098512156319
0.1426159759959034 -0.04795192575842167 -0.029572944616654048 -0.0028570808072789695 0.004579982402168659 0.04372549441229692
0.14561255403263393 -0.04620650038339794 -0.03009614129122854 -0.0001600486905191786 -4.4523543727632424e-05 0.048865430386353575
0.14278881472538488 -0.048006418578161715 -0.029604686774585987 0.0025267908975984445 -0.0046601642632450304 0.043726441910452586
0.13393588797026504 -0.045820272480310904 -0.028253446004229455 0.01049384380327935 -0.0031243401442642795 0.03709919686719223
0.1201445050870044 -0.04074405405601682 -0.025991752909903285 0.01796191140505104 0.0017187876551918511 0.03181357636072006
0.10383429048993838 -0.03490061594542429 -0.023025059667392163 0.02307027980513174 0.006655969355100716 0.02716452585490074
0.08660441216655206 -0.028956232426028895 -0.01964602942403446 0.026519541508712996 0.010682028795153429 0.02265566608307108
0.06904197585703183 -0.02298213666660486 -0.016057915932576015 0.028789205157361424 0.01363258177788973 0.018148609370722327
0.05238775019444677 -0.01675182410179738 -0.012490523013851649 0.029210661830199984 0.015676070213173906 0.013711640273761136
0.03286461358870327 -0.011599281344983007 -0.008894311336250151 0.028287443610830767 0.018162603078518875 0.010170784526682618
0.02183163253556765 0.007736751433035143 -0.004094560570151095 0.03380875611910804 0.021982130397368543 0.008659182692499155
0.022506701447299306 -0.10834802497215541 0.010326152587285174 0.02707062120480095 0.02718210562224098 0.008174929991949896
0.010139391572710049 -0.0718633544030418 0.009087881994035213 -0.05078952142867572 -0.013979112674307605 0.006666077106381507
0.005954276015230488 0.0017233800562000232 0.0004355018794805981 -0.05822303600220698 -0.010940117080285564 0.009382295365692267
0.008810307959413222 -0.00032127332271375943 -0.0032842694529620444 -0.05078412850708698 -0.00862116746953259 0.012082576541717654
0.021538496988816564 -0.007127839537430665 -0.005699817780689332 -0.051649492995284756 -0.006991440360915227 0.017503192394242455
0.031927913814397656 -0.010570803670607155 -0.007793581166713248 -0.04989532616915964 -0.005718005094397176 0.023099850362634476
0.04130783265643373 -0.013801923051660968 -0.00977763306513256 -0.04605577988923514 -0.004327237714259807 0.028978898200042694
0.05054864381801573 -0.01693082816798592 -0.011612446807710288 -0.04034655725210142 -0.0024610765002035647 0.03491159413188419
0.059472183785002575 -0.020212329688748705 -0.013197520582356253 -0.03204955791766428 2.3933816253378273e-05 0.04116957615325487
0.06709211574837211 -0.023150052429369197 -0.014442064795632743 -0.019247735498524095 0.003182765702798166 0.04853856523906788
0.0710047769372845 -0.02211597410144002 -0.015359977555932647 -0.004154239783818792 0.004864937774420393 0.058599648917018264
0.07170001224438578 -0.014648380605026665 -0.01595546545025904 -0.00025575968050287447 6.843000623048772e-05 0.06807252668832488
0.07118011629277791 -0.02217385306870318 -0.015383892307489794 0.0036257517302858725 -0.0047145660227022775 0.05859436903625662
0.06746855544026416 -0.023273955366725906 -0.014495551986913675 0.018667339842225322 -0.002992535064860645 0.04852642410056769
0.06010172676805107 -0.020418375436417713 -0.013292895744068028 0.03137897977055753 0.0002302082254024419 0.041146760139247125
0.051511017217871484 -0.017243163912578047 -0.011770465279051621 0.03954151275276658 0.002796857803776621 0.03487192740457023
0.04271198451643127 -0.014255756129810976 -0.01003215512810002 0.045064111994166094 0.004751440177116517 0.028908573810689304
0.03390945781662661 -0.011206882600803589 -0.008194471351535837 0.04865195954887265 0.006208981656661275 0.022996778227696073
0.024233773845709173 -0.007976130156537965 -0.006332939749736144 0.049988401869390825 0.007497514625475209 0.017297985327966517
0.01161246034224759 -0.001078938793987451 -0.004255244007703577 0.048370290102339626 0.009323129509043758 0.012127937282761736
0.007826331241766089 0.002733009179057235 -0.0004133753401871219 0.05500529770018538 0.011979808026514407 0.00952636522423279
0.011362637719108008 -0.07495709249596813 0.009513918128688575 0.048007599117155325 0.01533939865729691 0.006371093661020118
0.0027247520140552366 -0.04309236592370455 0.00811614439639837 -0.04696751396662519 -0.006306115181091099 0.0023507527097969844
-0.0031070859592315877 -0.0009135697505273307 0.00315664004351034 -0.061572478956581994 -0.0035728837229695373 0.008147972515597951
-0.007802827280313833 0.005448401377714654 0.001168960791134034 -0.061819534565225216 -0.0005635661760752236 0.012492747633953066
-0.005101608029508662 0.002098525207537208 0.0006663330689424835 -0.05901722079156378 0.0009367605439477918 0.018405223873074025
-0.002958731289674268 0.0008913267750324141 0.00048115507814480745 -0.05659098985304898 0.0013805299021995045 0.0245186312727422
-0.0019965611948598956 0.000626513037201818 0.00037287098498028443 -0.052204965960015566 0.0015015477099698737 0.030751299411261437
-0.0011045713415426396 0.0003707415456599156 0.0003003861470634917 -0.0458306849448623 0.0016113454879887776 0.037121910311792905
0.00037036188326651205 -0.00026193343394492736 0.0002530695217268389 -0.036869284623596815 0.0020303860355814197 0.04375765153233831
0.0020233481159970656 -0.0014869524065451024 0.00013695508714449997 -0.02220753137916843 0.00393064124314912 0.05136851841871335
0.0004643750875419454 0.0027038211232121587 -0.0003343811414358694 -0.0013757761652996373 0.006389673662939082 0.06229037355628339
-0.0017378121187142308 0.02084533437023945 -0.0012285018064813623 -0.00028715940098291695 0.000169938225158392 0.07636498232121484
0.0006396771894827753 0.0026436615613560895 -0.0003500202464301942 0.0007818855620378791 -0.006031938411733089 0.062283166345715915
0.0023962392024973575 -0.0016144570783000797 0.00010084637785253206 0.02155377572406472 -0.0035208172211872524 0.05135230355507049
0.0009839661743783487 -0.0004703320428288277 0.0001861974912650765 0.03611162076119542 -0.0015397232395889077 0.04372832475019501
-0.00018923048698175102 6.266592487593284e-05 0.00018563388344683402 0.044917386277705904 -0.001023619339599515 0.037071442189482315
-0.0007059850838346112 0.00019407480182808475 0.0001842819831779013 0.05107120449317766 -0.0008258002193673179 0.030667371712258598
-0.0012165338446701874 0.00030625093172290065 0.0001795979904626149 0.05514739333306484 -0.0006703458249177303 0.024379738693591883
-0.003017877525796497 0.0013890487456646862 0.00019126463840509137 0.05713002710719965 -0.0002758206098910764 0.018212686735819612
-0.006039396108157142 0.005247047094001062 0.0004928438109550252 0.05943827000385065 0.0011095768057175354 0.012386896155244553
-0.0020966184863459056 -5.2401750676183204e-05 0.0025401451506845522 0.06017003511739526 0.00403108456200811 0.00837620557575757
0.003399566399248856 -0.04524406538871853 0.008155029134004258 0.04651901480922119 0.006875659723565775 0.003684474916851522
-0.0038231344162260508 -0.02064653569924537 0.007095803985978792 -0.03569556115898086 9.257749359397184e-05 0.0018561526637461646
-0.011334881677172738 1.8654646538852297e-05 0.005315484254204116 -0.051779376322673994 0.003347355297036186 0.006322140228760045
-0.023173845286512264 0.009674311042319169 0.005473997322380705 -0.056883105692669106 0.007593905428685869 0.01154949496033066
-0.03077720310225446 0.010678955636987885 0.006985658051682694 -0.053015150505473986 0.00900784109473228 0.017339580597244386
-0.03779490605736045 0.012496231718231936 0.008754612269777312 -0.04994210024796231 0.008576822453793377 0.0231537150623983
-0.04533857773939927 0.015075870838937765 0.010520069910802619 -0.04602597502980648 0.007361785520629025 0.028983942179799462
-0.05279337631131781 0.01759877058650994 0.012209563839544534 -0.04041468596658402 0.0057938199444665245 0.03497446896823389
-0.059014898541239105 0.02000308087983822 0.013719371751876555 -0.032431578195670815 0.003930244528828597 0.040990457170559616
-0.0628436946557005 0.02021899874897611 0.014759610073108415 -0.020614018667355048 0.003498402535024701 0.047411013873552454
-0.06984072592027006 0.024656220976161786 0.014618123824168267 0.005299021524908713 0.007150950525866581 0.05629960901466855
-0.07553500843779598 0.06230270072309096 0.012813920205439323 -0.00025847291109864926 0.000273697736926692 0.07465673429836768
-0.0696647117490007 0.02459366425800726 0.014610739124655903 -0.005833865438462144 -0.006580874309187038 0.056294818351790885
-0.062472926069438994 0.020087633201259985 0.01474092860690789 0.0200245386155452 -0.0028626644451773967 0.0473999377821398
-0.058415252525907055 0.01979175429809876 0.013681184683575837 0.0317476454116827 -0.0031944203181386577 0.0409695488000311
-0.05192388591612003 0.017294294874622446 0.012138775714576796 0.03958979471509415 -0.004942877857306973 0.03493695557939516
-0.04416478399456128 0.014666379927013456 0.010398122643056779 0.04499816509441872 -0.006419821323267211 0.028917986549045545
-0.036331379925383836 0.011973988932613616 0.008556092776132515 0.04862554428973588 -0.007632917189175416 0.02304353029429372
-0.029238497464502855 0.010154130335562526 0.006678552257294046 0.05133233053318843 -0.008228781529236746 0.017190169633849624
-0.022047480934421815 0.009626765281615152 0.005051429548481177 0.055252122150318654 -0.007158229919768008 0.011448982918236482
-0.010765879444489132 0.0005187004400216003 0.004916167760898827 0.05139308402036209 -0.0031696717511615308 0.006602438049819979
-0.003454682713263759 -0.02188449587434457 0.007031572026722388 0.035950743256555694 0.0001002460268944988 0.0031034666884029727
-0.00898631890389976 -0.006768160125409262 0.006809782385528024 -0.019763626850219596 0.005715620917766442 0.002720035611496493
-0.018680148792007422 0.002528479667154118 0.007194964829059003 -0.029832500005553896 0.010424366999912116 0.004538484682501352
-0.03799387456527542 0.013439882394333627 0.009438013788129267 -0.0341733954929595 0.016624108167275463 0.009074564281358489
-0.056146755306827265 0.019042956938080443 0.012912183067401486 -0.03177800758898648 0.017955645225877764 0.013692799171255408
-0.07290274124174485 0.024333386099810603 0.016531411857458062 -0.02958190603361496 0.016479567346035312 0.018192007702283793
-0.08921407591095486 0.02982375561739149 0.02006224552524911 -0.027120745472120355 0.01372055659120605 0.022673751434123906
-0.10498767500764353 0.03525411155692559 0.02341411654650357 -0.023635159315301364 0.010120480761878561 0.027206362214010314
-0.11997712770480265 0.04026458004777848 0.02643116675954516 -0.018937401434503544 0.0059928552335826125 0.03180710859987719
-0.12961620211166297 0.04517718189189338 0.028653628366237163 -0.010988193332998053 6.241676231016766e-05 0.03564721894151942
-0.1405937393675595 0.04128748821386183 0.02868498566324223 0.005585550254556768 0.0027921822258741152 0.04073244997325881
-0.1491921418326705 0.10998837022536789 0.024503407230277205 -0.00016353327485232492 0.00039361849873024025 0.05413279095044159
-0.1404126508235513 0.04122087968584357 0.028685379301591256 -0.0059238518578790525 -0.0019761281812450083 0.04073396302598548
-0.12923872826457836 0.04503873121877879 0.02865127825516473 0.010615739839333196 0.0008367961671040492 0.03564945511344828
-0.11937792704297327 0.04004569033740256 0.026419589559134277 0.018506464643808198 -0.004967922319052215 0.031808082076857806
-0.10414496189823627 0.03494769738026227 0.023383328193205228 0.023117958248758678 -0.008953764429076581 0.02720191348555225
-0.08813961852010513 0.029432080239353873 0.01999945644662533 0.026481627902929288 -0.012449191553614713 0.022656216340136676
-0.0717030834427133 0.023890298925557073 0.016423408899923265 0.028769446087701482 -0.01523782779408093 0.018151874916533216
-0.0550873562916554 0.018687739673238463 0.012747788714067187 0.03079407085476149 -0.017013059299201338 0.013631201411944538
-0.03738486986399181 0.013451625886553608 0.009214909357870756 0.03337997860094472 -0.016264790506988664 0.009048214416391663
-0.01847469141812818 0.0027986120374232345 0.006975247119706069 0.02982483468014781 -0.01049404281633011 0.004737350618169675
-0.008893306996196178 -0.007255419493631449 0.006734165921496409 0.02002416598948126 -0.005853137990439343 0.003528743425416633
-0.010182829032559727 -0.0022928964796833868 0.00777363706471685 -0.009744777371767542 0.011442572651339687 0.003282876133025402
-0.023115101106522894 0.00389619640010078 0.00899574771816903 -0.013974113853273306 0.01851109341730435 0.0037957992681244817
-0.05225919848567133 0.015267021006339674 0.01267429117796889 -0.01571090984738554 0.027467137738127506 0.007536084668327416
-0.08227094951594635 0.023277009262177347 0.017689491547244536 -0.015105987209345204 0.02867683765121954 0.011215764916704118
-0.10881158021863314 0.030342177055305144 0.022762156732667845 -0.014046715887392203 0.025848838790787327 0.014704843496967612
-0.13408270245721943 0.03730027961974242 0.027702725277706924 -0.012602272541256409 0.02110277885348214 0.018157219792584
-0.1586845802620605 0.04430786903978829 0.0324143403937753 -0.010708329646509671 0.014898233671496754 0.02165887566071016
-0.18202781077296049 0.05024425856229553 0.036640408089705034 -0.007849261763907042 0.007531086518860055 0.02486134978262815
-0.20420186791703165 0.05911798892419967 0.04001422411011053 -0.003841097839859097 -0.0030498179473940666 0.028653595298269132
-0.2144907447142164 0.04798450244262058 0.04020274361152876 0.010675111803332655 -0.022145164109993988 0.02573290957481176
-0.21382943601572815 0.1351425180090142 0.030317280151510043 -0.00010566834452204604 0.0005473235558515381 0.05306863060182573
-0.21429576124638994 0.04791522630217314 0.04021007394109689 -0.010893407316912344 0.023277182449714554 0.02573599758442275
-0.20379988224391887 0.05897473773622501 0.04002612474826916 0.003602091708599398 0.004289662655210105 0.02865889088146484
-0.1814016548641263 0.050019861400912524 0.036651114393281586 0.00757623850674268 -0.006128329081262651 0.024866850858020362
-0.15783025459169087 0.043998190762877455 0.03241485520503583 0.010389322675927725 -0.013311784752772535 0.021660954240525915
-0.13305571411996914 0.03691589084064237 0.027681752191433696 0.012228456724499591 -0.01938140116277339 0.01815049753649461
-0.10781603597994074 0.029939284105586134 0.02270981180970963 0.013614062589909872 -0.024178108199189766 0.01468567223167194
-0.08168813781534186 0.023006857816733957 0.017600865923995387 0.014645971276424172 -0.027456507353498284 0.011191835693359353
-0.052314739665705885 0.01532390983796127 0.012546941698701793 0.015379976895817628 -0.027168902465357084 0.007551509994866412
-0.023433919135468037 0.004105806861684504 0.008872064198895406 0.013993998253879807 -0.01895491825740987 0.00393243100508669
-0.010447011702999453 -0.002463221652626797 0.0077540673250983665 0.009823790234145136 -0.01206745680934441 0.0038224015308199973
SCALARS Stress_vm float 1
LOOKUP_TABLE default
23761.451633296812
10898.48990447399
11786.893442861247
16313.612386663073
21765.548820247084
27267.124735262518
32686.595598542848
37834.660478817284
42203.01558884875
44918.82039800944
45630.42719059598
44953.563261096315
42276.92772168038
37960.21499993175
32885.85757971418
27573.337679697455
22221.226378755346
16981.824506493776
12772.501598146868
12831.4771734059
25676.279361707224
20172.489382117223
6345.5940199000615
8394.615009240211
12024.478598283651
15670.964673752133
19363.528306758377
23033.964031533273
26568.62974917948
29624.678673509632
31515.13095013798
31868.972920147164
31546.89270557336
29692.26626055375
26682.604398052034
23211.224442703482
19626.803341429943
16046.043931167264
12529.31781396622
8974.913684326888
6708.413604224632
20983.401411017654
14871.717782345542
7852.506992069682
7739.518103420717
9124.195871488433
10599.71559357633
12182.181766517404
13873.641024132568
15678.558445573139
17391.18008964642
18269.349494090566
17953.27101319498
18290.72388694259
17433.76946394704
15747.797094030968
13976.699439403868
12323.19826352778
10768.745743224177
9256.260812397843
7678.657231195802
7356.393436726862
15260.96547008688
10149.657315388273
8630.929636363458
9019.896277463678
8517.831133356438
8289.437467785116
8100.085315861512
8214.039550859005
8904.575453915308
10369.598106009082
11527.930430367287
10911.186097567228
11512.353272519413
10346.691354315926
8856.627070100107
8120.7233079439575
7941.693914142198
8051.098396672107
8176.003786007554
8586.999717228104
8365.500022641323
10399.444235916315
6311.516926589931
7774.010413558703
9828.304644144806
10476.858777260237
11503.84328704754
12825.86335718735
14235.830027450982
15505.578497123955
16723.682609002917
18823.606503618976
21388.451576454372
18783.715262827154
16641.77086065239
15369.288445340286
14037.085035121754
12552.781727496962
11147.665731828492
10063.511907018732
9496.720447916858
7669.416738027267
6444.094339508542
3840.8193670518613
6129.544208318272
10270.581138240721
13628.78420311133
16867.613058257673
20184.44636216262
23483.01583150693
26606.673599536367
29017.147108096797
31338.719307152085
36885.84145119034
31301.938044062535
28939.519148474752
26477.458171638875
23296.7116882536
19938.78224572259
16579.365298599583
13359.580213585414
10121.638809569238
6105.290351968653
3880.5346187685254
3315.5410252094307
5906.33126788796
12043.5782082769
17891.205208478405
23092.679540035366
28155.483602287837
33151.62608540917
37887.30436429464
42456.701461522694
44986.845496785536
49108.490601730984
44961.501530532216
42379.56182011179
37758.519508860285
32968.020793210555
27923.7965094574
22851.03907130296
17728.21975163446
12044.78648331335
5983.672329160595
3394.318715470278
15491.514046594823
9150.085216909976
11702.44147488336
16297.862679302842
21441.24304038688
26621.853301293086
31709.40201883057
36655.21862438322
41452.2210402876
45737.905584852204
47837.93100419341
45751.100684279176
41479.577233321
36700.439276734476
31781.131286144693
26736.862164366994
21631.723497322022
16615.137937149073
12314.244257453327
9913.297814997457
16241.997606826886
13122.790101983806
4982.452940762286
7918.8219392474575
11587.144983405393
15163.002155346368
18741.972832851447
22261.500137196257
25652.911503543266
28925.661165567955
32029.58929156359
33885.178094218274
32040.509232936034
28949.083123420605
25692.479680771343
22324.317323448864
18841.279550979634
15321.762205736346
11849.448849298087
8308.41336177111
5269.53064411756
13364.824847238211
10021.269671131673
4627.985925607247
5386.917114307384
7183.021250970274
8996.355437992583
10798.755930791083
12566.197234206278
14203.251211497232
15892.545252151845
18339.189824198824
20841.92132016844
18347.03780503982
15910.855046957598
14234.119952218325
12612.449455363096
10866.102824889926
9095.186776893383
7316.0371083327045
5492.034721090602
4379.364285194303
10033.597376873488
7077.217134385991
5143.414235599466
4979.855261666974
4627.68145389805
4744.454164540672
5089.696330056784
5624.1213062420165
6208.630854523086
6798.020361797717
8715.039468615083
13678.448021560962
8709.565150808005
6789.020901148612
6203.081980423341
5616.687689285738
5070.948461222478
4696.107635230868
4523.704117243636
4769.40557173084
4907.276721090254
7108.075107677935
4602.990898921227
4929.965116787068
6493.055611628665
7621.382297718995
9159.141017531747
10919.470989345833
12715.136549805384
14584.43589031428
16265.728733910473
16381.17170361865
17782.0081454233
16368.016220640653
16249.88512266374
14561.442097787063
12678.287512968645
10862.284505686323
9070.579769153428
7492.309911712066
6348.837306668181
4810.061201541696
4645.1366159749505
3187.2681450287605
4600.623666173112
8308.592552160453
11855.756953596074
15361.33885476974
18902.373502511127
22417.86517047281
25814.11215449662
29159.53899142588
30892.610818854453
29142.42739374304
30882.407463448268
29147.517292040608
25792.754624418696
22385.39197603687
18857.488999185167
15306.05714374351
11803.13541075665
8283.827365896981
4579.157314148393
3204.631877781117
3262.8427724204585
5296.105082234223
10778.326770312091
16424.227035078755
21676.322345526864
26808.20501738205
31878.97049990814
36773.8093108101
40776.580199649754
44771.42804918658
44769.2005931898
44771.63840142006
40771.07621392471
36758.74103391275
31854.38695239765
26775.682348174723
21646.331320985402
16423.312866872442
10836.009717534487
5371.920767586154
3328.5751198426087
14386.03809482855
9083.1130001121
11280.697073862644
15683.060300301002
20574.518397456864
25425.64721916853
30249.996826415798
35262.61783793212
40904.933318443924
46895.539033075824
50141.2758852573
46883.71435424438
40879.21805250185
35219.30121268953
30183.100979617786
25326.119998914655
20428.84520428564
15477.031216913114
10918.629078652515
8392.257319493321
13213.559660222647
11248.107565357364
4781.181403283007
7847.678153740323
11364.308446242736
14737.37820614451
18088.32733989374
21433.38638315932
24879.282467466004
28763.159631235878
33166.80765383258
36042.57807738653
33152.95592046502
28732.603858796698
24828.90802193105
21359.345297234373
17985.15574450004
14598.92981388634
11181.303087869894
7621.528752383549
4778.336087078841
10677.907494713476
8098.070990097324
4131.084608050441
5425.48134269588
7296.706384354796
8997.181769165583
10659.5410380883
12305.20143396175
13908.364958530416
15998.737273690185
19681.007002893486
23484.955213757414
19671.576125083284
15973.153702156636
13864.803375623684
12244.761156593953
10583.750269628697
8910.207367343673
7219.735026693972
5444.075819249461
4470.436634544772
7954.834285038368
5846.157777249511
4780.754214008125
4816.150588536114
4739.7258331036555
4896.692989203068
5172.035288515683
5582.6673241630515
6072.474661894849
6909.42659024254
8994.400472821155
17900.550643223898
8994.649018374386
6922.324039080485
6091.349044616403
5611.59214194372
5218.4407468869695
4974.178946743338
4869.780985680337
5037.913215457412
4948.536746303732
5711.405426144016
4030.658695360676
4742.589254861377
6193.794482848564
7218.620099179853
8693.853455272454
10417.168630096703
12248.995499142908
14353.334797554806
16538.98632050843
16498.774222152766
20012.028311985036
16527.36055451892
16590.7232246553
14432.857637501382
12357.69224733211
10554.424267005923
8858.113197709985
7397.2350956262435
6332.026881499442
4768.357597584692
3881.4346051222224
3083.093419831299
4469.485022689283
7884.28554149345
11110.93224496139
14408.004497359047
17830.579998275633
21330.455058319043
24902.856834579514
28853.41986175909
31376.714944371623
30776.280394773465
31405.839962969523
28912.96372441709
24992.93383709151
21450.610231170383
17974.434858333123
14560.167966079674
11237.317481815617
7938.643674627778
4443.068238997276
2933.935899280688
3228.743952625905
5060.374407131323
10136.800218891676
15332.947066532133
20260.42152615558
25179.67033004182
30149.212965058887
35145.10596527864
39467.562226710455
45612.719859056066
48299.92506336954
45648.27135107129
39540.43662639064
35254.047940834425
30292.36321947853
25346.39745435305
20424.492234143512
15446.49250408299
10164.583395872769
5043.988524584583
3129.9050061467497
14402.77691052683
9076.672057404206
11092.66366750893
15366.741043677954
20175.31160372934
24951.813856675984
29751.198222603
34878.26485645581
40848.812386940124
47307.934314596394
50824.881708715824
47285.825623111064
40800.99071265547
34797.78544119889
29625.556190786017
24759.247167107944
19880.96283033922
14919.761482177948
10368.495136469732
7880.87151522014
12562.408824337292
11085.970817154772
4725.926107813239
7767.595417583892
11205.02963806723
14523.185171140804
17833.56639157292
21179.98263918523
24726.72638549965
28850.85315126204
33569.38337831975
36646.56260842292
33545.77945797873
28798.708468260258
24639.84062465655
21049.383646241706
17644.49487629508
14254.10087350859
10826.449872514486
7301.51861644868
4511.379294843289
10147.783889560553
7867.96195938168
3884.540972309271
5362.33151027914
7244.710167857006
8933.766152670256
10582.263894595497
12242.042640989854
13923.869992436465
16183.227906048125
20064.777705033095
24033.541901416975
20049.284822527155
16141.544080370217
13852.265400335335
12140.703380153253
10450.300970202856
8771.64740179503
7082.737128482792
5326.273846627191
4329.732062532221
7448.429170885878
5570.234191707576
4552.35285303374
4699.967646380045
4738.92349256427
4953.031391808177
5260.2677109664355
5712.19365955341
6298.922247318318
7283.72021758461
8760.644823459004
18815.82205561362
8769.02001844681
7308.670771014384
6332.867730023003
5762.5519638351225
5342.258159077219
5089.857186353581
4963.016087455844
5062.0299519976525
4828.66556327974
5212.06598761358
3767.144289389737
4540.989350850024
5979.437147378218
7012.136624646619
8490.081332839041
10220.352142535789
12090.953564506537
14300.666871281417
16676.322404070317
16781.50552063188
20212.567791260473
16823.683001935624
16753.82961070608
14420.558212415233
12259.508640580505
10441.992531161739
8768.44612107202
7329.8285211094835
6237.116475442666
4615.637769268591
3430.1138927005954
2889.495261687355
4226.4743505809165
7586.352462316133
10774.867155342254
14033.52414288728
17435.37182078706
20963.63593472625
24658.099586650493
28873.122905265922
31657.402592471863
30787.099727511562
31700.266215316027
28959.86484409237
24791.09310231325
21145.223165656545
17659.505271217997
14279.943828696325
10989.994430258566
7686.858738111334
4196.147831615201
2607.1157561912073
2929.71452274876
4669.93578858354
9705.894038092765
14845.806073706586
19697.84133687312
24559.992938504663
29531.011711558946
34665.651383112774
39305.4729292714
45942.909669253655
48519.73592747287
45991.21547209642
39406.58067425537
34820.63044250002
29739.796351459143
24809.618657361978
19949.860693603623
15022.925706806343
9736.7311239592
4602.943645490397
2701.078524964786
14386.038094858346
9083.113000137177
11280.697073883224
15683.060300309766
20574.51839746367
25425.647219168415
30249.99682642031
35262.61783793762
40904.933318447394
46895.539033099834
50141.27588527568
46883.71435426926
40879.21805254125
35219.30121269496
30183.100979605802
25326.119998865553
20428.845204261994
15477.031216893674
10918.62907863443
8392.257319474775
13213.559660196348
11248.107565369504
4781.181403292723
7847.678153752329
11364.308446251418
14737.378206150683
18088.327339891235
21433.38638316583
24879.28246747282
28763.15963123874
33166.80765384896
36042.57807740024
33152.95592047305
28732.603858837916
24828.908021938416
21359.345297239695
17985.155744474683
14598.92981386924
11181.303087855
7621.528752369124
4778.336087068327
10677.907494690375
8098.070990102223
4131.084608048979
5425.481342697879
7296.70638436054
8997.181769163892
10659.54103808857
12305.201433970327
13908.364958535038
15998.737273706873
19681.00700289731
23484.955213758192
19671.57612508421
15973.153702195495
13864.803375629817
12244.761156622466
10583.750269621592
8910.207367332849
7219.735026681134
5444.075819237632
4470.43663453323
7954.834285018164
5846.157777253425
4780.75421400874
4816.150588533842
4739.725833096706
4896.692989197094
5172.035288527604
5582.667324163447
6072.474661888975
6909.426590263863
8994.400472817562
17900.550643204115
8994.649018380236
6922.324039108793
6091.349044617733
5611.592141971503
5218.440746888829
4974.178946739679
4869.780985667929
5037.913215446133
4948.53674629333
5711.405426126928
4030.658695363751
4742.589254863705
6193.79448284915
7218.62009917384
8693.85345527265
10417.168630093673
12248.995499141025
14353.334797548747
16538.986320509634
16498.77422214545
20012.028311968872
16527.360554520666
16590.72322466039
14432.857637490346
12357.69224734051
10554.424266971137
8858.113197704222
7397.235095615102
6332.026881486342
4768.357597575443
3881.434605106608
3083.093419833849
4469.4850226927565
7884.285541494977
11110.932244961019
14408.004497357528
17830.579998267123
21330.455058321626
24902.856834569586
28853.419861767783
31376.714944366187
30776.280394763755
31405.839962972528
28912.963724415687
24992.933837070846
21450.61023116792
17974.434858292214
14560.167966063924
11237.317481798966
7938.643674613963
4443.068238989221
2933.935899271208
3228.74395262833
5060.374407135007
10136.800218892871
15332.947066538714
20260.421526149097
25179.670330027395
30149.212965064522
35145.10596526636
39467.5622267228
45612.71985905181
48299.92506336448
45648.27135107675
39540.43662639704
35254.04794081166
30292.363219469007
25346.397454308644
20424.492234113564
15446.492504060257
10164.583395858523
5043.9885245744645
3129.9050061353023
15491.514046626648
9150.085216960493
11702.44147491602
16297.86267932735
21441.243040413072
26621.853301319694
31709.402018850193
36655.21862435075
41452.22104028527
45737.90558488902
47837.931004222715
45751.10068429193
41479.57723332799
36700.43927671455
31781.131286118005
26736.86216433224
21631.723497287643
16615.137937096268
12314.244257419276
9913.297814962694
16241.997606760611
13122.790101992863
4982.452940781271
7918.821939270353
11587.144983427612
15163.00215536994
18741.97283286978
22261.500137209867
25652.911503527965
28925.661165576428
32029.589291595334
33885.178094238
32040.50923295521
28949.083123422297
25692.479680767745
22324.317323427713
18841.279550956533
15321.76220571523
11849.448849257447
8308.413361753936
5269.530644102863
13364.824847182987
10021.269671135573
4627.985925597274
5386.917114314384
7183.021250986515
8996.355438012937
10798.755930803285
12566.197234213374
14203.251211502917
15892.54525216674
18339.18982424308
20841.921320191632
18347.03780507023
15910.855046948347
14234.119952237097
12612.449455355125
10866.102824881733
9095.186776876364
7316.037108309012
5492.034721084276
4379.364285183094
10033.597376829497
7077.217134391384
5143.414235591996
4979.855261654886
4627.681453899396
4744.454164546362
5089.6963300477755
5624.121306245435
6208.630854525596
6798.020361781492
8715.039468654672
13678.448021606115
8709.565150818158
6789.020901149229
6203.08198043633
5616.687689288595
5070.948461221611
4696.107635227672
4523.704117231728
4769.4055717203355
4907.2767210769325
7108.075107645033
4602.990898924641
4929.96511678346
6493.05561162419
7621.382297709927
9159.141017526723
10919.470989330302
12715.1365497984
14584.43589027119
16265.728733894462
16381.17170363149
17782.008145439315
16368.016220652318
16249.885122670687
14561.442097788587
12678.287512955641
10862.284505681027
9070.579769134394
7492.30991168102
6348.837306652844
4810.061201528044
4645.136615948712
3187.2681450340283
4600.623666174487
8308.592552161355
11855.756953590047
15361.338854768486
18902.373502514525
22417.865170460598
25814.11215445224
29159.53899140087
30892.61081885805
29142.42739375035
30882.407463452062
29147.517292036868
25792.754624411165
22385.391976013838
18857.488999163656
15306.057143702812
11803.135410720675
8283.82736587336
4579.157314134457
3204.6318777660977
3262.84277242593
5296.105082239472
10778.326770321872
16424.227035075106
21676.322345528388
26808.205017401953
31878.970499890813
36773.809310766796
40776.580199613956
44771.428049187714
44769.20059322406
44771.638401418895
40771.07621390224
36758.74103389874
31854.38695236363
26775.682348130344
21646.331320928155
16423.312866828426
10836.009717499845
5371.920767566121
3328.5751198266107
23761.45163332172
10898.489904538877
11786.893442910032
16313.612386710562
21765.548820273594
27267.124735281715
32686.595598547272
37834.66047881925
42203.01558884923
44918.820398033895
45630.4271906227
44953.56326114297
42276.92772168273
37960.21499993472
32885.85757969596
27573.337679648186
22221.22637870451
16981.82450644355
12772.501598099061
12831.477173348874
25676.279361582747
20172.48938213125
6345.594019913377
8394.615009265844
12024.478598313824
15670.964673769182
19363.528306773587
23033.96403154389
26568.629749181204
29624.678673507835
31515.13095016757
31868.972920194265
31546.892705615763
29692.26626055299
26682.604398055373
23211.22444269322
19626.803341395087
16046.04393113421
12529.317813937168
8974.913684294743
6708.413604194202
20983.401410913866
14871.717782362155
7852.506992058332
7739.518103422132
9124.19587148894
10599.71559358019
12182.1817665208
13873.6410241379
15678.55844556271
17391.180089644073
18269.34949410656
17953.271013271285
18290.723886973425
17433.769463954915
15747.79709403522
13976.699439396369
12323.198263513605
10768.745743211939
9256.260812378809
7678.657231164395
7356.39343669392
15260.965470013209
10149.657315402004
8630.929636363302
9019.896277455537
8517.831133334523
8289.437467762062
8100.085315846663
8214.03955083898
8904.575453891062
10369.598106001502
11527.930430350723
10911.186097601234
11512.353272518598
10346.691354309774
8856.627070115328
8120.723307951799
7941.693914152367
8051.098396669524
8176.003785989444
8586.999717191742
8365.500022604543
10399.4442358692
6311.516926600792
7774.01041356291
9828.304644139404
10476.858777247011
11503.843287025844
12825.863357163433
14235.830027429107
15505.578497107206
16723.68260899386
18823.6065035858
21388.451576411197
18783.7152628025
16641.770860643283
15369.288445365428
14037.085035127851
12552.78172748932
11147.665731810079
10063.511906993836
9496.720447876687
7669.416737994612
6444.094339481742
3840.819367060752
6129.544208322923
10270.58113824413
13628.784203114112
16867.61305824728
20184.446362136325
23483.015831489363
26606.673599516038
29017.147108083114
31338.7193071305
36885.8414511319
31301.938044054503
28939.519148478037
26477.458171635295
23296.711688241037
19938.782245697497
16579.365298566758
13359.580213543548
10121.638809533555
6105.290351943824
3880.5346187522964
3315.541025221172
5906.331267896654
12043.578208286943
17891.205208491345
23092.679540036002
28155.48360226947
33151.62608538478
37887.30436425619
42456.70146148927
44986.845496765534
49108.490601693695
44961.501530538895
42379.56182011648
37758.519508833924
32968.0207931803
27923.79650941109
22851.039071250103
17728.21975157182
12044.786483272137
5983.67232913745
3394.3187154572897
SCALARS Statev float 1
LOOKUP_TABLE default
0.0
0.0
0.0
0.0
0.0
0.0
0.0
0.0
0.0
0.0
0.0
0.0
0.0
0.0
0.0
0.0
0.0
0.0
0.0
0.0
0.0
0.0
0.0
0.0
0.0
0.0
0.0
0.0
0.0
0.0
0.0
0.0
0.0
0.0
0.0
0.0
0.0
0.0
0.0
0.0
0.0
0.0
0.0
0.0
0.0
0.0
0.0
0.0
0.0
0.0
0.0
0.0
0.0
0.0
0.0
0.0
0.0
0.0
0.0
0.0
0.0
0.0
0.0
0.0
0.0
0.0
0.0
0.0
0.0
0.0
0.0
0.0
0.0
0.0
0.0
0.0
0.0
0.0
0.0
0.0
0.0
0.0
0.0
0.0
0.0
0.0
0.0
0.0
0.0
0.0
0.0
0.0
0.0
0.0
0.0
0.0
0.0
0.0
0.0
0.0
0.0
0.0
0.0
0.0
0.0
0.0
0.0
0.0
0.0
0.0
0.0
0.0
0.0
0.0
0.0
0.0
0.0
0.0
0.0
0.0
0.0
0.0
0.0
0.0
0.0
0.0
0.0
0.0
0.0
0.0
0.0
0.0
0.0
0.0
0.0
0.0
0.0
0.0
0.0
0.0
0.0
0.0
0.0
0.0
0.0
0.0
0.0
0.0
0.0
0.0
0.0
0.0
0.0
0.0
0.0
0.0
0.0
0.0
0.0
0.0
0.0
0.0
0.0
0.0
0.0
0.0
0.0
0.0
0.0
0.0
0.0
0.0
0.0
0.0
0.0
0.0
0.0
0.0
0.0
0.0
0.0
0.0
0.0
0.0
0.0
0.0
0.0
0.0
0.0
0.0
0.0
0.0
0.0
0.0
0.0
0.0
0.0
0.0
0.0
0.0
0.0
0.0
0.0
0.0
0.0
0.0
0.0
0.0
0.0
0.0
0.0
0.0
0.0
0.0
0.0
0.0
0.0
0.0
0.0
0.0
0.0
0.0
0.0
0.0
0.0
0.0
0.0
0.0
0.0
0.0
0.0
0.0
0.0
0.0
0.0
0.0
0.0
0.0
0.0
0.0
0.0
0.0
0.0
0.0
0.0
0.0
0.0
0.0
0.0
0.0
0.0
0.0
0.0
0.0
0.0
0.0
0.0
0.0
0.0
0.0
0.0
0.0
0.0
0.0
0.0
0.0
0.0
0.0
0.0
0.0
0.0
0.0
0.0
0.0
0.0
0.0
0.0
0.0
0.0
0.0
0.0
0.0
0.0
0.0
0.0
0.0
0.0
0.0
0.0
0.0
0.0
0.0
0.0
0.0
0.0
0.0
0.0
0.0
0.0
0.0
0.0
0.0
0.0
0.0
0.0
0.0
0.0
0.0
0.0
0.0
0.0
0.0
0.0
0.0
0.0
0.0
0.0
0.0
0.0
0.0
0.0
0.0
0.0
0.0
0.0
0.0
0.0
0.0
0.0
0.0
0.0
0.0
0.0
0.0
0.0
0.0
0.0
0.0
0.0
0.0
0.0
0.0
0.0
0.0
0.0
0.0
0.0
0.0
0.0
0.0
0.0
0.0
0.0
0.0
0.0
0.0
0.0
0.0
0.0
0.0
0.0
0.0
0.0
0.0
0.0
0.0
0.0
0.0
0.0
0.0
0.0
0.0
0.0
0.0
0.0
0.0
0.0
0.0
0.0
0.0
0.0
0.0
0.0
0.0
0.0
0.0
0.0
0.0
0.0
0.0
0.0
0.0
0.0
0.0
0.0
0.0
0.0
0.0
0.0
0.0
0.0
0.0
0.0
0.0
0.0
0.0
0.0
0.0
0.0
0.0
0.0
0.0
0.0
0.0
0.0
0.0
0.0
0.0
0.0
0.0
0.0
0.0
0.0
0.0
0.0
0.0
0.0
0.0
0.0
0.0
0.0
0.0
0.0
0.0
0.0
0.0
0.0
0.0
0.0
0.0
0.0
0.0
0.0
0.0
0.0
0.0
0.0
0.0
0.0
0.0
0.0
0.0
0.0
0.0
0.0
0.0
0.0
0.0
0.0
0.0
0.0
0.0
0.0
0.0
0.0
0.0
0.0
0.0
0.0
0.0
0.0
0.0
0.0
0.0
0.0
0.0
0.0
0.0
0.0
0.0
0.0
0.0
0.0
0.0
0.0
0.0
0.0
0.0
0.0
0.0
0.0
0.0
0.0
0.0
0.0
0.0
0.0
0.0
0.0
0.0
0.0
0.0
0.0
0.0
0.0
0.0
0.0
0.0
0.0
0.0
0.0
0.0
0.0
0.0
0.0
0.0
0.0
0.0
0.0
0.0
0.0
0.0
0.0
0.0
0.0
0.0
0.0
0.0
0.0
0.0
0.0
0.0
0.0
0.0
0.0
0.0
0.0
0.0
0.0
0.0
0.0
0.0
0.0
0.0
0.0
0.0
0.0
0.0
0.0
0.0
0.0
0.0
0.0
0.0
0.0
0.0
0.0
0.0
0.0
0.0
0.0
0.0
0.0
0.0
0.0
0.0
0.0
0.0
0.0
0.0
0.0
0.0
0.0
0.0
0.0
0.0
0.0
0.0
0.0
0.0
0.0
0.0
0.0
0.0
0.0
0.0
0.0
0.0
0.0
0.0
0.0
0.0
0.0
0.0
0.0
0.0
0.0
0.0
0.0
0.0
0.0
0.0
0.0
0.0
0.0
0.0
0.0
0.0
0.0
0.0
0.0
0.0
0.0
0.0
0.0
0.0
0.0
0.0
0.0
0.0
0.0
0.0
0.0
0.0
0.0
0.0
0.0
0.0
0.0
0.0
0.0
0.0
0.0
0.0
0.0
0.0
0.0
0.0
0.0
0.0
0.0
0.0
0.0
0.0
0.0
0.0
0.0
0.0
0.0
0.0
0.0
0.0
0.0
0.0
0.0
0.0
0.0
0.0
0.0
0.0
0.0
0.0
0.0
0.0
0.0
0.0
0.0
0.0
0.0
0.0
0.0
0.0
0.0
0.0
0.0
0.0
0.0
0.0
0.0
0.0
0.0
0.0
0.0
0.0
0.0
0.0
0.0
0.0
0.0
0.0
0.0
0.0
0.0
0.0
0.0
0.0
0.0
0.0
0.0
0.0
0.0
0.0
0.0
0.0
0.0
0.0
0.0
0.0
0.0
0.0
0.0
0.0
0.0
0.0
0.0
0.0
0.0
0.0
0.0
0.0
0.0
0.0
0.0
0.0
0.0
0.0
0.0
0.0
0.0
0.0
0.0
0.0
0.0
0.0
0.0
0.0
0.0
0.0
0.0
0.0
0.0
0.0
0.0
0.0
0.0
0.0
0.0
0.0
0.0
0.0
0.0
0.0
0.0
0.0
0.0
0.0
0.0
0.0
0.0
0.0
0.0
0.0
0.0
0.0
0.0
0.0
0.0
0.0
0.0
0.0
0.0
0.0
0.0
0.0
0.0
0.0
0.0
0.0
0.0
0.0
0.0
0.0
0.0
0.0
0.0
0.0
0.0
0.0
0.0
0.0
0.0
0.0
0.0
0.0
0.0
0.0
0.0
0.0
0.0
0.0
0.0
0.0
0.0
0.0
0.0
0.0
0.0
0.0
0.0
0.0
0.0
0.0
0.0
0.0
0.0
0.0
0.0
0.0
0.0
0.0
0.0
0.0
0.0
0.0
0.0
0.0
0.0
0.0
0.0
0.0
0.0
0.0
0.0
0.0
0.0
0.0
0.0
0.0
0.0
0.0
0.0
0.0
0.0
0.0
0.0
0.0
0.0
0.0
0.0
0.0
0.0
0.0
0.0
0.0
0.0
0.0
0.0
0.0
0.0
0.0
0.0
0.0
0.0
0.0
0.0
0.0
0.0
0.0
0.0
0.0
0.0
0.0
0.0
0.0
0.0
0.0
0.0
0.0
0.0
0.0
0.0
0.0
0.0
0.0
0.0
0.0
0.0
0.0
0.0
0.0
0.0
0.0
0.0
0.0
0.0
0.0
0.0
0.0
0.0
0.0
0.0
0.0
0.0
0.0
0.0
0.0
0.0
0.0
0.0
0.0
0.0
0.0
0.0
0.0
0.0
0.0
0.0
0.0
0.0
0.0
0.0
0.0
0.0
0.0
0.0
0.0
0.0
0.0
0.0
0.0
0.0
0.0
0.0
0.0
0.0
0.0
0.0
0.0
0.0
0.0
0.0
0.0
0.0
0.0
0.0
0.0
0.0
0.0
0.0
0.0
0.0
0.0
0.0
0.0
0.0
0.0
0.0
0.0
0.0
0.0
0.0
0.0
0.0
0.0
0.0
0.0
0.0
0.0
0.0
0.0
0.0
0.0
0.0
0.0
0.0
0.0
0.0
0.0
0.0
0.0
0.0
0.0
0.0
0.0
0.0
0.0
0.0
0.0
0.0
0.0
0.0
0.0
0.0
0.0
0.0
0.0
0.0
0.0
0.0
0.0
0.0
0.0
0.0
0.0
0.0
0.0
0.0
0.0
0.0
0.0
0.0
0.0
0.0
0.0
0.0
0.0
0.0
0.0
0.0
0.0
0.0
0.0
0.0
0.0
0.0
0.0
0.0
0.0
0.0
SCALARS Wm float 4
LOOKUP_TABLE default
3231.89328196287 3231.89328196287 0.0 0.0
584.816672827594 584.816672827594 0.0 0.0
696.752169898217 696.752169898217 0.0 0.0
1458.6568635352976 1458.6568635352976 0.0 0.0
2573.1316027619396 2573.1316027619396 0.0 0.0
4055.269347428608 4055.269347428608 0.0 0.0
5839.394926927645 5839.394926927645 0.0 0.0
7835.356851270366 7835.356851270366 0.0 0.0
9754.914367194644 9754.914367194644 0.0 0.0
11081.45127980333 11081.45127980333 0.0 0.0
11508.212865155561 11508.212865155561 0.0 0.0
11098.21520607159 11098.21520607159 0.0 0.0
9788.431875547622 9788.431875547622 0.0 0.0
7886.480163099208 7886.480163099208 0.0 0.0
5909.6133426361475 5909.6133426361475 0.0 0.0
4145.1517385176485 4145.1517385176485 0.0 0.0
2680.1696208628064 2680.1696208628064 0.0 0.0
1575.9513442076684 1575.9513442076684 0.0 0.0
828.5068776604522 828.5068776604522 0.0 0.0
923.2164098164784 923.2164098164784 0.0 0.0
3096.3175754889403 3096.3175754889403 0.0 0.0
2399.269729370715 2399.269729370715 0.0 0.0
72.597685611393 72.597685611393 0.0 0.0
323.90197754717167 323.90197754717167 0.0 0.0
692.355068975808 692.355068975808 0.0 0.0
1188.4433730661428 1188.4433730661428 0.0 0.0
1832.9133818788657 1832.9133818788657 0.0 0.0
2612.4908040807195 2612.4908040807195 0.0 0.0
3491.7406428402064 3491.7406428402064 0.0 0.0
4354.92676491178 4354.92676491178 0.0 0.0
4967.768849321969 4967.768849321969 0.0 0.0
5167.127037249589 5167.127037249589 0.0 0.0
4978.640704065684 4978.640704065684 0.0 0.0
4376.586793915877 4376.586793915877 0.0 0.0
3524.4259413596933 3524.4259413596933 0.0 0.0
2656.402732432054 2656.402732432054 0.0 0.0
1887.5061086779758 1887.5061086779758 0.0 0.0
1250.8851708608302 1250.8851708608302 0.0 0.0
757.8460050013854 757.8460050013854 0.0 0.0
370.3881723705879 370.3881723705879 0.0 0.0
83.83918361703506 83.83918361703506 0.0 0.0
2520.0317176928575 2520.0317176928575 0.0 0.0
1334.727249975581 1334.727249975581 0.0 0.0
198.21881428664983 198.21881428664983 0.0 0.0
278.35072108225796 278.35072108225796 0.0 0.0
362.32721385811885 362.32721385811885 0.0 0.0
501.25423319749353 501.25423319749353 0.0 0.0
661.9245968394855 661.9245968394855 0.0 0.0
859.0455475146379 859.0455475146379 0.0 0.0
1102.8131922848188 1102.8131922848188 0.0 0.0
1367.9492944205776 1367.9492944205776 0.0 0.0
1544.4304609833366 1544.4304609833366 0.0 0.0
1594.3818756778473 1594.3818756778473 0.0 0.0
1548.8944542417705 1548.8944542417705 0.0 0.0
1376.4403653429035 1376.4403653429035 0.0 0.0
1115.0893162363604 1115.0893162363604 0.0 0.0
874.6588507967659 874.6588507967659 0.0 0.0
679.7542333754682 679.7542333754682 0.0 0.0
519.148764576583 519.148764576583 0.0 0.0
372.84605364864535 372.84605364864535 0.0 0.0
270.81668410331605 270.81668410331605 0.0 0.0
167.74171026841708 167.74171026841708 0.0 0.0
1392.6801089759779 1392.6801089759779 0.0 0.0
615.6720408951116 615.6720408951116 0.0 0.0
287.5828992172005 287.5828992172005 0.0 0.0
358.51106920090064 358.51106920090064 0.0 0.0
328.2314782099124 328.2314782099124 0.0 0.0
323.98011197757876 323.98011197757876 0.0 0.0
319.16090369074084 319.16090369074084 0.0 0.0
313.5113132703834 313.5113132703834 0.0 0.0
324.15736874309846 324.15736874309846 0.0 0.0
374.6794105564265 374.6794105564265 0.0 0.0
430.4753796634794 430.4753796634794 0.0 0.0
467.01312356183195 467.01312356183195 0.0 0.0
428.89679704804684 428.89679704804684 0.0 0.0
370.8999893332558 370.8999893332558 0.0 0.0
317.8833748347287 317.8833748347287 0.0 0.0
304.2660921738341 304.2660921738341 0.0 0.0
306.2831585292216 306.2831585292216 0.0 0.0
306.10314978582096 306.10314978582096 0.0 0.0
302.955097940294 302.955097940294 0.0 0.0
329.6016457448015 329.6016457448015 0.0 0.0
263.7430371955721 263.7430371955721 0.0 0.0
648.0354203635172 648.0354203635172 0.0 0.0
233.70746593156863 233.70746593156863 0.0 0.0
264.4642841560345 264.4642841560345 0.0 0.0
423.6397008923529 423.6397008923529 0.0 0.0
498.9291419696166 498.9291419696166 0.0 0.0
601.5934184354928 601.5934184354928 0.0 0.0
743.8579934987079 743.8579934987079 0.0 0.0
912.2585627690842 912.2585627690842 0.0 0.0
1076.2599088503982 1076.2599088503982 0.0 0.0
1260.5475883925005 1260.5475883925005 0.0 0.0
1549.6301957411574 1549.6301957411574 0.0 0.0
1734.6630940019065 1734.6630940019065 0.0 0.0
1542.5467536124686 1542.5467536124686 0.0 0.0
1246.002406684913 1246.002406684913 0.0 0.0
1054.2670927673055 1054.2670927673055 0.0 0.0
883.1586487069568 883.1586487069568 0.0 0.0
708.5889545124207 708.5889545124207 0.0 0.0
561.9778953792166 561.9778953792166 0.0 0.0
459.8494557685279 459.8494557685279 0.0 0.0
396.1793151006199 396.1793151006199 0.0 0.0
252.6701649735511 252.6701649735511 0.0 0.0
245.88177167166657 245.88177167166657 0.0 0.0
81.54601102388716 81.54601102388716 0.0 0.0
201.82119413180703 201.82119413180703 0.0 0.0
501.4560917368771 501.4560917368771 0.0 0.0
897.4487107073348 897.4487107073348 0.0 0.0
1390.5330306074554 1390.5330306074554 0.0 0.0
2001.870189983881 2001.870189983881 0.0 0.0
2717.5100785173217 2717.5100785173217 0.0 0.0
3497.81727159909 3497.81727159909 0.0 0.0
4099.615658867276 4099.615658867276 0.0 0.0
5000.05087567231 5000.05087567231 0.0 0.0
5439.122772915763 5439.122772915763 0.0 0.0
4987.493257640784 4987.493257640784 0.0 0.0
4075.0123719214203 4075.0123719214203 0.0 0.0
3461.0159149250544 3461.0159149250544 0.0 0.0
2671.209148913432 2671.209148913432 0.0 0.0
1950.121506736136 1950.121506736136 0.0 0.0
1340.6651277976316 1340.6651277976316 0.0 0.0
860.1077146696639 860.1077146696639 0.0 0.0
484.2179186293127 484.2179186293127 0.0 0.0
197.32399020432626 197.32399020432626 0.0 0.0
84.56410238800807 84.56410238800807 0.0 0.0
50.10604111289963 50.10604111289963 0.0 0.0
217.84781151547296 217.84781151547296 0.0 0.0
790.9236452421051 790.9236452421051 0.0 0.0
1728.2176785710092 1728.2176785710092 0.0 0.0
2895.2282261590112 2895.2282261590112 0.0 0.0
4317.147788430526 4317.147788430526 0.0 0.0
5990.008994581417 5990.008994581417 0.0 0.0
7861.515529517179 7861.515529517179 0.0 0.0
9772.89590468887 9772.89590468887 0.0 0.0
11601.709281489397 11601.709281489397 0.0 0.0
9975.437691197936 9975.437691197936 0.0 0.0
11585.514264429346 11585.514264429346 0.0 0.0
9734.532509620005 9734.532509620005 0.0 0.0
7805.250288704072 7805.250288704072 0.0 0.0
5921.267823154735 5921.267823154735 0.0 0.0
4244.960315789749 4244.960315789749 0.0 0.0
2834.812747762438 2834.812747762438 0.0 0.0
1696.5341042276482 1696.5341042276482 0.0 0.0
787.9898152353361 787.9898152353361 0.0 0.0
221.81263911241237 221.81263911241237 0.0 0.0
53.06751583659977 53.06751583659977 0.0 0.0
1202.9184698591343 1202.9184698591343 0.0 0.0
496.32472072751455 496.32472072751455 0.0 0.0
737.2044312102536 737.2044312102536 0.0 0.0
1485.3484027505365 1485.3484027505365 0.0 0.0
2546.633901147884 2546.633901147884 0.0 0.0
3931.3852395754902 3931.3852395754902 0.0 0.0
5590.949235636116 5590.949235636116 0.0 0.0
7508.0267531430645 7508.0267531430645 0.0 0.0
9664.024918661282 9664.024918661282 0.0 0.0
11784.37005674912 11784.37005674912 0.0 0.0
12802.366334928565 12802.366334928565 0.0 0.0
11790.216309193976 11790.216309193976 0.0 0.0
9674.942329221618 9674.942329221618 0.0 0.0
7523.859059781111 7523.859059781111 0.0 0.0
5612.579754919802 5612.579754919802 0.0 0.0
3960.4448579829236 3960.4448579829236 0.0 0.0
2585.5248497095554 2585.5248497095554 0.0 0.0
1534.7162229656942 1534.7162229656942 0.0 0.0
807.0613031442529 807.0613031442529 0.0 0.0
592.8617417323197 592.8617417323197 0.0 0.0
1172.4032719924312 1172.4032719924312 0.0 0.0
964.6384321462265 964.6384321462265 0.0 0.0
83.92992966576686 83.92992966576686 0.0 0.0
311.09463891340573 311.09463891340573 0.0 0.0
677.0276192788733 677.0276192788733 0.0 0.0
1159.160252219762 1159.160252219762 0.0 0.0
1777.9609052579594 1777.9609052579594 0.0 0.0
2519.3046168005935 2519.3046168005935 0.0 0.0
3363.3722260223662 3363.3722260223662 0.0 0.0
4296.00855651624 4296.00855651624 0.0 0.0
5231.662889054398 5231.662889054398 0.0 0.0
5726.688853274223 5726.688853274223 0.0 0.0
5235.439458981508 5235.439458981508 0.0 0.0
4303.224088882396 4303.224088882396 0.0 0.0
3373.9282941995007 3373.9282941995007 0.0 0.0
2533.490519935758 2533.490519935758 0.0 0.0
1796.4478577778073 1796.4478577778073 0.0 0.0
1182.6279181047748 1182.6279181047748 0.0 0.0
706.9933588270064 706.9933588270064 0.0 0.0
340.56113362226824 340.56113362226824 0.0 0.0
96.48579346282509 96.48579346282509 0.0 0.0
970.6123001164207 970.6123001164207 0.0 0.0
579.5837351468988 579.5837351468988 0.0 0.0
68.15801845514245 68.15801845514245 0.0 0.0
133.1041302696495 133.1041302696495 0.0 0.0
224.50933430430572 224.50933430430572 0.0 0.0
360.4720761671228 360.4720761671228 0.0 0.0
522.3490505867179 522.3490505867179 0.0 0.0
712.9467391922301 712.9467391922301 0.0 0.0
918.7175464294503 918.7175464294503 0.0 0.0
1161.6765595333961 1161.6765595333961 0.0 0.0
1531.8201266874894 1531.8201266874894 0.0 0.0
1863.8776731145579 1863.8776731145579 0.0 0.0
1533.602913018366 1533.602913018366 0.0 0.0
1165.185602851623 1165.185602851623 0.0 0.0
923.8299379988933 923.8299379988933 0.0 0.0
719.4967731797501 719.4967731797501 0.0 0.0
530.1632142566639 530.1632142566639 0.0 0.0
369.5272638567373 369.5272638567373 0.0 0.0
233.66587928535546 233.66587928535546 0.0 0.0
135.760334071364 135.760334071364 0.0 0.0
59.66870469449819 59.66870469449819 0.0 0.0
574.6135174491304 574.6135174491304 0.0 0.0
288.19000691081663 288.19000691081663 0.0 0.0
95.06684998499196 95.06684998499196 0.0 0.0
116.2982306974984 116.2982306974984 0.0 0.0
100.33884268603592 100.33884268603592 0.0 0.0
104.2872138429436 104.2872138429436 0.0 0.0
113.7679796312295 113.7679796312295 0.0 0.0
126.41064895607664 126.41064895607664 0.0 0.0
134.10653138049608 134.10653138049608 0.0 0.0
141.48065302055062 141.48065302055062 0.0 0.0
257.20527422303263 257.20527422303263 0.0 0.0
629.1769962374225 629.1769962374225 0.0 0.0
256.82874637044694 256.82874637044694 0.0 0.0
141.2788929613988 141.2788929613988 0.0 0.0
134.03254420746737 134.03254420746737 0.0 0.0
126.10306927527688 126.10306927527688 0.0 0.0
112.78827762853567 112.78827762853567 0.0 0.0
102.06678969617974 102.06678969617974 0.0 0.0
95.70564537376943 95.70564537376943 0.0 0.0
108.33966747938136 108.33966747938136 0.0 0.0
84.68092425869796 84.68092425869796 0.0 0.0
290.11150239911757 290.11150239911757 0.0 0.0
119.40137807664924 119.40137807664924 0.0 0.0
102.13856764351748 102.13856764351748 0.0 0.0
182.40469604806333 182.40469604806333 0.0 0.0
257.1296158612357 257.1296158612357 0.0 0.0
372.6312615102072 372.6312615102072 0.0 0.0
533.3844700676706 533.3844700676706 0.0 0.0
729.2216681859813 729.2216681859813 0.0 0.0
971.3811054953693 971.3811054953693 0.0 0.0
1200.612826047253 1200.612826047253 0.0 0.0
1267.0603274778532 1267.0603274778532 0.0 0.0
1919.6339702396967 1919.6339702396967 0.0 0.0
1264.416991463288 1264.416991463288 0.0 0.0
1196.937928636161 1196.937928636161 0.0 0.0
966.6362776212674 966.6362776212674 0.0 0.0
723.2559895518597 723.2559895518597 0.0 0.0
526.1510211954889 526.1510211954889 0.0 0.0
364.10945780509155 364.10945780509155 0.0 0.0
247.91308639133385 247.91308639133385 0.0 0.0
174.5545489601632 174.5545489601632 0.0 0.0
96.06468708102872 96.06468708102872 0.0 0.0
121.95595575903941 121.95595575903941 0.0 0.0
52.59402480520104 52.59402480520104 0.0 0.0
111.22657873920446 111.22657873920446 0.0 0.0
334.5218042497906 334.5218042497906 0.0 0.0
696.6841768464718 696.6841768464718 0.0 0.0
1185.5976213357983 1185.5976213357983 0.0 0.0
1806.1516728353672 1806.1516728353672 0.0 0.0
2550.922637737261 2550.922637737261 0.0 0.0
3388.90283379617 3388.90283379617 0.0 0.0
4405.309649414898 4405.309649414898 0.0 0.0
4678.504642747129 4678.504642747129 0.0 0.0
6035.968183069274 6035.968183069274 0.0 0.0
4673.882271070942 4673.882271070942 0.0 0.0
4398.755823528714 4398.755823528714 0.0 0.0
3379.8883008932285 3379.8883008932285 0.0 0.0
2540.0927131347535 2540.0927131347535 0.0 0.0
1794.6998988017092 1794.6998988017092 0.0 0.0
1175.2153189424612 1175.2153189424612 0.0 0.0
689.6062750242659 689.6062750242659 0.0 0.0
331.81178004474253 331.81178004474253 0.0 0.0
109.78109201985639 109.78109201985639 0.0 0.0
53.66401940249698 53.66401940249698 0.0 0.0
48.835423646599665 48.835423646599665 0.0 0.0
172.47697686170198 172.47697686170198 0.0 0.0
650.6155296168412 650.6155296168412 0.0 0.0
1487.8704104523472 1487.8704104523472 0.0 0.0
2596.234213260825 2596.234213260825 0.0 0.0
3979.0799709726166 3979.0799709726166 0.0 0.0
5645.7533473625 5645.7533473625 0.0 0.0
7503.784310472746 7503.784310472746 0.0 0.0
9363.435787991182 9363.435787991182 0.0 0.0
10624.641009086388 10624.641009086388 0.0 0.0
15941.214083175073 15941.214083175073 0.0 0.0
10621.336885329147 10621.336885329147 0.0 0.0
9354.81300417593 9354.81300417593 0.0 0.0
7490.618351847085 7490.618351847085 0.0 0.0
5629.9662929845845 5629.9662929845845 0.0 0.0
3963.4098749090817 3963.4098749090817 0.0 0.0
2584.787916189217 2584.787916189217 0.0 0.0
1484.9924942280527 1484.9924942280527 0.0 0.0
655.3807020372424 655.3807020372424 0.0 0.0
176.69934055313928 176.69934055313928 0.0 0.0
50.938095692617466 50.938095692617466 0.0 0.0
853.0356627829185 853.0356627829185 0.0 0.0
554.6592115664755 554.6592115664755 0.0 0.0
706.727108554932 706.727108554932 0.0 0.0
1398.0472424558452 1398.0472424558452 0.0 0.0
2386.5210505423483 2386.5210505423483 0.0 0.0
3661.3938348783986 3661.3938348783986 0.0 0.0
5222.910275760755 5222.910275760755 0.0 0.0
7183.951094829984 7183.951094829984 0.0 0.0
9789.992303304813 9789.992303304813 0.0 0.0
12859.376399815654 12859.376399815654 0.0 0.0
14489.623974388494 14489.623974388494 0.0 0.0
12852.268359564398 12852.268359564398 0.0 0.0
9776.25755471916 9776.25755471916 0.0 0.0
7163.716199173001 7163.716199173001 0.0 0.0
5195.737708988921 5195.737708988921 0.0 0.0
3627.0167537080115 3627.0167537080115 0.0 0.0
2345.407143216056 2345.407143216056 0.0 0.0
1352.9471670025619 1352.9471670025619 0.0 0.0
652.4029966120856 652.4029966120856 0.0 0.0
432.4127130586221 432.4127130586221 0.0 0.0
841.7743655568268 841.7743655568268 0.0 0.0
721.7937416621697 721.7937416621697 0.0 0.0
93.43813365274775 93.43813365274775 0.0 0.0
311.6863412282469 311.6863412282469 0.0 0.0
661.4324677046128 661.4324677046128 0.0 0.0
1110.7382763897774 1110.7382763897774 0.0 0.0
1683.4305336068117 1683.4305336068117 0.0 0.0
2382.1936941816007 2382.1936941816007 0.0 0.0
3242.89708684095 3242.89708684095 0.0 0.0
4365.290461291322 4365.290461291322 0.0 0.0
5717.32366379864 5717.32366379864 0.0 0.0
6514.25092160683 6514.25092160683 0.0 0.0
5712.446260751803 5712.446260751803 0.0 0.0
4355.774752283901 4355.774752283901 0.0 0.0
3229.068356524945 3229.068356524945 0.0 0.0
2364.2748971601177 2364.2748971601177 0.0 0.0
1661.7504923255285 1661.7504923255285 0.0 0.0
1086.3196763401686 1086.3196763401686 0.0 0.0
635.0825025695505 635.0825025695505 0.0 0.0
290.09610465757027 290.09610465757027 0.0 0.0
87.37625384941362 87.37625384941362 0.0 0.0
698.2440163492347 698.2440163492347 0.0 0.0
400.8662595049086 400.8662595049086 0.0 0.0
64.8722047564821 64.8722047564821 0.0 0.0
134.47810698634055 134.47810698634055 0.0 0.0
237.65117578244732 237.65117578244732 0.0 0.0
368.2395387061751 368.2395387061751 0.0 0.0
518.6095874329955 518.6095874329955 0.0 0.0
694.550600668012 694.550600668012 0.0 0.0
893.526552164667 893.526552164667 0.0 0.0
1195.87945259354 1195.87945259354 0.0 0.0
1770.5722890352376 1770.5722890352376 0.0 0.0
2331.6245675719806 2331.6245675719806 0.0 0.0
1768.6495205441358 1768.6495205441358 0.0 0.0
1191.826008908067 1191.826008908067 0.0 0.0
887.5542876232186 887.5542876232186 0.0 0.0
687.0631782850998 687.0631782850998 0.0 0.0
510.2436370927688 510.2436370927688 0.0 0.0
359.7603815755741 359.7603815755741 0.0 0.0
231.2433089879462 231.2433089879462 0.0 0.0
135.84541537256595 135.84541537256595 0.0 0.0
73.22850321750683 73.22850321750683 0.0 0.0
402.6849572563739 402.6849572563739 0.0 0.0
203.8949162906781 203.8949162906781 0.0 0.0
87.15541789519834 87.15541789519834 0.0 0.0
111.95683413100821 111.95683413100821 0.0 0.0
107.06630098431214 107.06630098431214 0.0 0.0
115.29762318429434 115.29762318429434 0.0 0.0
124.79780597303943 124.79780597303943 0.0 0.0
136.55273930041056 136.55273930041056 0.0 0.0
141.99811566127553 141.99811566127553 0.0 0.0
166.20199112346003 166.20199112346003 0.0 0.0
376.13847950504595 376.13847950504595 0.0 0.0
1061.0001354532958 1061.0001354532958 0.0 0.0
377.30714380441754 377.30714380441754 0.0 0.0
167.83270765721426 167.83270765721426 0.0 0.0
144.03201527505863 144.03201527505863 0.0 0.0
139.11216717672093 139.11216717672093 0.0 0.0
128.17013595326216 128.17013595326216 0.0 0.0
119.99698858290685 119.99698858290685 0.0 0.0
114.17760768390234 114.17760768390234 0.0 0.0
121.11045529182803 121.11045529182803 0.0 0.0
94.21206660370053 94.21206660370053 0.0 0.0
200.2272757360961 200.2272757360961 0.0 0.0
90.21667831298322 90.21667831298322 0.0 0.0
95.59722612300693 95.59722612300693 0.0 0.0
169.34417457533638 169.34417457533638 0.0 0.0
233.98870796614534 233.98870796614534 0.0 0.0
338.98649647954477 338.98649647954477 0.0 0.0
489.5411853717864 489.5411853717864 0.0 0.0
682.7072442039436 682.7072442039436 0.0 0.0
950.1920762724072 950.1920762724072 0.0 0.0
1236.5931223997309 1236.5931223997309 0.0 0.0
1331.4258487971458 1331.4258487971458 0.0 0.0
2649.4420461747077 2649.4420461747077 0.0 0.0
1335.6522598260226 1335.6522598260226 0.0 0.0
1243.917267828216 1243.917267828216 0.0 0.0
960.1180583571504 960.1180583571504 0.0 0.0
694.5193284616531 694.5193284616531 0.0 0.0
502.5813191216523 502.5813191216523 0.0 0.0
352.4409678133179 352.4409678133179 0.0 0.0
246.39012816862297 246.39012816862297 0.0 0.0
177.56470270573743 177.56470270573743 0.0 0.0
98.13618673800617 98.13618673800617 0.0 0.0
85.75919805643477 85.75919805643477 0.0 0.0
46.459875869813914 46.459875869813914 0.0 0.0
103.8878212404493 103.8878212404493 0.0 0.0
302.15315526222207 302.15315526222207 0.0 0.0
617.8376228167174 617.8376228167174 0.0 0.0
1056.1493727920636 1056.1493727920636 0.0 0.0
1632.0080300995755 1632.0080300995755 0.0 0.0
2352.439287124802 2352.439287124802 0.0 0.0
3220.646582391882 3220.646582391882 0.0 0.0
4438.585528592216 4438.585528592216 0.0 0.0
4791.493510001435 4791.493510001435 0.0 0.0
7710.355241139748 7710.355241139748 0.0 0.0
4798.878043930502 4798.878043930502 0.0 0.0
4452.2533361816095 4452.2533361816095 0.0 0.0
3238.961963925381 3238.961963925381 0.0 0.0
2373.629890330138 2373.629890330138 0.0 0.0
1653.4662438828354 1653.4662438828354 0.0 0.0
1074.6369546772414 1074.6369546772414 0.0 0.0
629.9078250976195 629.9078250976195 0.0 0.0
306.66706038798367 306.66706038798367 0.0 0.0
103.99466731966976 103.99466731966976 0.0 0.0
42.73535441931285 42.73535441931285 0.0 0.0
46.5457800605328 46.5457800605328 0.0 0.0
157.4377658902084 157.4377658902084 0.0 0.0
580.4571268308908 580.4571268308908 0.0 0.0
1318.7933358130815 1318.7933358130815 0.0 0.0
2313.7869099464992 2313.7869099464992 0.0 0.0
3590.8557244956464 3590.8557244956464 0.0 0.0
5186.902632864442 5186.902632864442 0.0 0.0
7055.338676567073 7055.338676567073 0.0 0.0
9119.526810805255 9119.526810805255 0.0 0.0
11117.968701660095 11117.968701660095 0.0 0.0
20745.406150981697 20745.406150981697 0.0 0.0
11129.336941987243 11129.336941987243 0.0 0.0
9141.368579435568 9141.368579435568 0.0 0.0
7084.511430178994 7084.511430178994 0.0 0.0
5219.838823942977 5219.838823942977 0.0 0.0
3622.512824929023 3622.512824929023 0.0 0.0
2337.548633264757 2337.548633264757 0.0 0.0
1329.0838395027527 1329.0838395027527 0.0 0.0
580.3416604944872 580.3416604944872 0.0 0.0
155.89966682213185 155.89966682213185 0.0 0.0
43.69403038334017 43.69403038334017 0.0 0.0
829.642577179161 829.642577179161 0.0 0.0
570.6607880258788 570.6607880258788 0.0 0.0
695.6398437494238 695.6398437494238 0.0 0.0
1361.3266455490889 1361.3266455490889 0.0 0.0
2327.2328700539742 2327.2328700539742 0.0 0.0
3582.3788208060287 3582.3788208060287 0.0 0.0
5146.4840905745405 5146.4840905745405 0.0 0.0
7178.792525502716 7178.792525502716 0.0 0.0
9983.961879670662 9983.961879670662 0.0 0.0
13365.022639160137 13365.022639160137 0.0 0.0
15173.019632898733 15173.019632898733 0.0 0.0
13352.24804271471 13352.24804271471 0.0 0.0
9959.755399423248 9959.755399423248 0.0 0.0
7143.680854057322 7143.680854057322 0.0 0.0
5099.413659021107 5099.413659021107 0.0 0.0
3521.8464468134966 3521.8464468134966 0.0 0.0
2252.8764940702963 2252.8764940702963 0.0 0.0
1276.5764303428596 1276.5764303428596 0.0 0.0
600.0346494698541 600.0346494698541 0.0 0.0
386.5957298799317 386.5957298799317 0.0 0.0
774.2565663045291 774.2565663045291 0.0 0.0
685.0185779044286 685.0185779044286 0.0 0.0
93.64002439196004 93.64002439196004 0.0 0.0
309.9119864038552 309.9119864038552 0.0 0.0
650.072901545291 650.072901545291 0.0 0.0
1089.9104663788066 1089.9104663788066 0.0 0.0
1655.3554739803606 1655.3554739803606 0.0 0.0
2357.491768849674 2357.491768849674 0.0 0.0
3251.446535223117 3251.446535223117 0.0 0.0
4458.94927389664 4458.94927389664 0.0 0.0
5937.622297141814 5937.622297141814 0.0 0.0
6807.609905471171 6807.609905471171 0.0 0.0
5929.073456489417 5929.073456489417 0.0 0.0
4442.523079896477 4442.523079896477 0.0 0.0
3227.783048768266 3227.783048768266 0.0 0.0
2326.684814701205 2326.684814701205 0.0 0.0
1617.323154639595 1617.323154639595 0.0 0.0
1045.4274643895897 1045.4274643895897 0.0 0.0
600.8916598354566 600.8916598354566 0.0 0.0
268.93256091142206 268.93256091142206 0.0 0.0
76.56329424608694 76.56329424608694 0.0 0.0
647.9912402295549 647.9912402295549 0.0 0.0
382.29008797567826 382.29008797567826 0.0 0.0
57.06531911187616 57.06531911187616 0.0 0.0
131.63493753820953 131.63493753820953 0.0 0.0
236.59485571821276 236.59485571821276 0.0 0.0
366.7163894045659 366.7163894045659 0.0 0.0
516.8283073538583 516.8283073538583 0.0 0.0
695.8605704918302 695.8605704918302 0.0 0.0
907.6138487195095 907.6138487195095 0.0 0.0
1240.731238506508 1240.731238506508 0.0 0.0
1861.3644678813075 1861.3644678813075 0.0 0.0
2451.3980504373853 2451.3980504373853 0.0 0.0
1857.9206231890087 1857.9206231890087 0.0 0.0
1233.7386973925752 1233.7386973925752 0.0 0.0
897.4444642863059 897.4444642863059 0.0 0.0
683.0724583438362 683.0724583438362 0.0 0.0
502.22859036389383 502.22859036389383 0.0 0.0
351.285257990324 351.285257990324 0.0 0.0
223.9615793513102 223.9615793513102 0.0 0.0
130.7034265354296 130.7034265354296 0.0 0.0
67.53541715292029 67.53541715292029 0.0 0.0
368.1740505241994 368.1740505241994 0.0 0.0
189.62794404271793 189.62794404271793 0.0 0.0
78.03530848289469 78.03530848289469 0.0 0.0
105.58506453400217 105.58506453400217 0.0 0.0
105.0400290290027 105.0400290290027 0.0 0.0
116.25373951154705 116.25373951154705 0.0 0.0
127.95875873097091 127.95875873097091 0.0 0.0
142.9348029155143 142.9348029155143 0.0 0.0
155.02171221923365 155.02171221923365 0.0 0.0
192.64653743375817 192.64653743375817 0.0 0.0
417.9460304125621 417.9460304125621 0.0 0.0
1126.9700158621702 1126.9700158621702 0.0 0.0
419.720365897722 419.720365897722 0.0 0.0
195.20739861384038 195.20739861384038 0.0 0.0
158.20053236291847 158.20053236291847 0.0 0.0
147.03466150304826 147.03466150304826 0.0 0.0
133.59997485060356 133.59997485060356 0.0 0.0
124.295827290562 124.295827290562 0.0 0.0
116.91821170026027 116.91821170026027 0.0 0.0
120.12962859766546 120.12962859766546 0.0 0.0
89.20688172451194 89.20688172451194 0.0 0.0
175.49543991860247 175.49543991860247 0.0 0.0
80.17626925813597 80.17626925813597 0.0 0.0
86.94868884280416 86.94868884280416 0.0 0.0
157.50607693447202 157.50607693447202 0.0 0.0
221.44956068212454 221.44956068212454 0.0 0.0
325.44357943673396 325.44357943673396 0.0 0.0
475.13250130559953 475.13250130559953 0.0 0.0
671.2667632280022 671.2667632280022 0.0 0.0
952.0753471362552 952.0753471362552 0.0 0.0
1266.829797312773 1266.829797312773 0.0 0.0
1379.2135091989041 1379.2135091989041 0.0 0.0
2765.985032882793 2765.985032882793 0.0 0.0
1386.0674436281956 1386.0674436281956 0.0 0.0
1278.6246441780384 1278.6246441780384 0.0 0.0
967.8642250519781 967.8642250519781 0.0 0.0
690.2554596034552 690.2554596034552 0.0 0.0
496.6376014274936 496.6376014274936 0.0 0.0
348.3186305899275 348.3186305899275 0.0 0.0
242.98330055577244 242.98330055577244 0.0 0.0
171.92570682243837 171.92570682243837 0.0 0.0
91.96610397560515 91.96610397560515 0.0 0.0
69.7741687486894 69.7741687486894 0.0 0.0
40.54342381286251 40.54342381286251 0.0 0.0
93.36844408162261 93.36844408162261 0.0 0.0
281.12558993162884 281.12558993162884 0.0 0.0
585.9943425602997 585.9943425602997 0.0 0.0
1012.4370783471339 1012.4370783471339 0.0 0.0
1578.7109246953291 1578.7109246953291 0.0 0.0
2301.6072445766054 2301.6072445766054 0.0 0.0
3201.04981877159 3201.04981877159 0.0 0.0
4510.270554827088 4510.270554827088 0.0 0.0
4911.692721649632 4911.692721649632 0.0 0.0
8008.743409897613 8008.743409897613 0.0 0.0
4923.481802146961 4923.481802146961 0.0 0.0
4531.6313016152035 4531.6313016152035 0.0 0.0
3229.507389428898 3229.507389428898 0.0 0.0
2334.8717801708303 2334.8717801708303 0.0 0.0
1613.061832881627 1613.061832881627 0.0 0.0
1042.919137701682 1042.919137701682 0.0 0.0
606.7095869971072 606.7095869971072 0.0 0.0
289.27345148783945 289.27345148783945 0.0 0.0
94.0019243835467 94.0019243835467 0.0 0.0
33.65312464002011 33.65312464002011 0.0 0.0
38.22330444918216 38.22330444918216 0.0 0.0
138.81037842777542 138.81037842777542 0.0 0.0
541.3076326931281 541.3076326931281 0.0 0.0
1254.6280611296925 1254.6280611296925 0.0 0.0
2221.3228477377174 2221.3228477377174 0.0 0.0
3474.4280519520644 3474.4280519520644 0.0 0.0
5071.053499626076 5071.053499626076 0.0 0.0
7006.686577729054 7006.686577729054 0.0 0.0
9256.214190853649 9256.214190853649 0.0 0.0
11433.044769106811 11433.044769106811 0.0 0.0
21627.160995366732 21627.160995366732 0.0 0.0
11449.76977478849 11449.76977478849 0.0 0.0
9288.858245010531 9288.858245010531 0.0 0.0
7050.726490723073 7050.726490723073 0.0 0.0
5121.497820715068 5121.497820715068 0.0 0.0
3523.802015315276 3523.802015315276 0.0 0.0
2259.2245299573065 2259.2245299573065 0.0 0.0
1271.522512813378 1271.522512813378 0.0 0.0
540.6535736440176 540.6535736440176 0.0 0.0
135.03337492308953 135.03337492308953 0.0 0.0
32.337278751541575 32.337278751541575 0.0 0.0
853.0356627793976 853.0356627793976 0.0 0.0
554.6592115613674 554.6592115613674 0.0 0.0
706.7271085509299 706.7271085509299 0.0 0.0
1398.0472424526733 1398.0472424526733 0.0 0.0
2386.52105054214 2386.52105054214 0.0 0.0
3661.3938348769193 3661.3938348769193 0.0 0.0
5222.910275757182 5222.910275757182 0.0 0.0
7183.951094824678 7183.951094824678 0.0 0.0
9789.992303294859 9789.992303294859 0.0 0.0
12859.376399808683 12859.376399808683 0.0 0.0
14489.62397437178 14489.62397437178 0.0 0.0
12852.26835954306 12852.26835954306 0.0 0.0
9776.257554709633 9776.257554709633 0.0 0.0
7163.716199172627 7163.716199172627 0.0 0.0
5195.7377089961465 5195.7377089961465 0.0 0.0
3627.0167537248603 3627.0167537248603 0.0 0.0
2345.4071432256646 2345.4071432256646 0.0 0.0
1352.9471670073997 1352.9471670073997 0.0 0.0
652.4029966155962 652.4029966155962 0.0 0.0
432.4127130613611 432.4127130613611 0.0 0.0
841.7743655617891 841.7743655617891 0.0 0.0
721.7937416607316 721.7937416607316 0.0 0.0
93.4381336521928 93.4381336521928 0.0 0.0
311.6863412263435 311.6863412263435 0.0 0.0
661.4324677033095 661.4324677033095 0.0 0.0
1110.73827638816 1110.73827638816 0.0 0.0
1683.4305336056548 1683.4305336056548 0.0 0.0
2382.1936941795852 2382.1936941795852 0.0 0.0
3242.8970868381925 3242.8970868381925 0.0 0.0
4365.290461286788 4365.290461286788 0.0 0.0
5717.323663789675 5717.323663789675 0.0 0.0
6514.250921599542 6514.250921599542 0.0 0.0
5712.446260743778 5712.446260743778 0.0 0.0
4355.77475227427 4355.77475227427 0.0 0.0
3229.068356524543 3229.068356524543 0.0 0.0
2364.2748971608266 2364.2748971608266 0.0 0.0
1661.750492334308 1661.750492334308 0.0 0.0
1086.3196763434694 1086.3196763434694 0.0 0.0
635.082502572536 635.082502572536 0.0 0.0
290.09610465918274 290.09610465918274 0.0 0.0
87.37625384986892 87.37625384986892 0.0 0.0
698.2440163538826 698.2440163538826 0.0 0.0
400.8662595044188 400.8662595044188 0.0 0.0
64.8722047564611 64.8722047564611 0.0 0.0
134.47810698591377 134.47810698591377 0.0 0.0
237.65117578189424 237.65117578189424 0.0 0.0
368.2395387061626 368.2395387061626 0.0 0.0
518.6095874327791 518.6095874327791 0.0 0.0
694.5506006658846 694.5506006658846 0.0 0.0
893.526552162882 893.526552162882 0.0 0.0
1195.8794525916671 1195.8794525916671 0.0 0.0
1770.5722890335906 1770.5722890335906 0.0 0.0
2331.624567569213 2331.624567569213 0.0 0.0
1768.6495205436738 1768.6495205436738 0.0 0.0
1191.826008900475 1191.826008900475 0.0 0.0
887.5542876244274 887.5542876244274 0.0 0.0
687.0631782814988 687.0631782814988 0.0 0.0
510.24363709533407 510.24363709533407 0.0 0.0
359.7603815773843 359.7603815773843 0.0 0.0
231.24330898880382 231.24330898880382 0.0 0.0
135.8454153738251 135.8454153738251 0.0 0.0
73.22850321801548 73.22850321801548 0.0 0.0
402.6849572593279 402.6849572593279 0.0 0.0
203.89491629022388 203.89491629022388 0.0 0.0
87.15541789516672 87.15541789516672 0.0 0.0
111.95683413104209 111.95683413104209 0.0 0.0
107.06630098459563 107.06630098459563 0.0 0.0
115.29762318503734 115.29762318503734 0.0 0.0
124.79780597240534 124.79780597240534 0.0 0.0
136.55273929971594 136.55273929971594 0.0 0.0
141.99811566206324 141.99811566206324 0.0 0.0
166.2019911197772 166.2019911197772 0.0 0.0
376.1384795057616 376.1384795057616 0.0 0.0
1061.0001354570538 1061.0001354570538 0.0 0.0
377.30714380397956 377.30714380397956 0.0 0.0
167.83270765073445 167.83270765073445 0.0 0.0
144.03201527615693 144.03201527615693 0.0 0.0
139.112167171742 139.112167171742 0.0 0.0
128.17013595579053 128.17013595579053 0.0 0.0
119.99698858271151 119.99698858271151 0.0 0.0
114.17760768517486 114.17760768517486 0.0 0.0
121.11045529251133 121.11045529251133 0.0 0.0
94.21206660433253 94.21206660433253 0.0 0.0
200.22727573797565 200.22727573797565 0.0 0.0
90.21667831268402 90.21667831268402 0.0 0.0
95.59722612295408 95.59722612295408 0.0 0.0
169.34417457534556 169.34417457534556 0.0 0.0
233.98870796669289 233.98870796669289 0.0 0.0
338.9864964797755 338.9864964797755 0.0 0.0
489.5411853728573 489.5411853728573 0.0 0.0
682.707244203992 682.707244203992 0.0 0.0
950.1920762738248 950.1920762738248 0.0 0.0
1236.5931223999696 1236.5931223999696 0.0 0.0
1331.4258487976401 1331.4258487976401 0.0 0.0
2649.4420461759955 2649.4420461759955 0.0 0.0
1335.6522598244514 1335.6522598244514 0.0 0.0
1243.9172678273962 1243.9172678273962 0.0 0.0
960.118058358717 960.118058358717 0.0 0.0
694.5193284595853 694.5193284595853 0.0 0.0
502.581319126484 502.581319126484 0.0 0.0
352.4409678143588 352.4409678143588 0.0 0.0
246.3901281702526 246.3901281702526 0.0 0.0
177.5647027068765 177.5647027068765 0.0 0.0
98.13618673856601 98.13618673856601 0.0 0.0
85.75919805747647 85.75919805747647 0.0 0.0
46.459875869693725 46.459875869693725 0.0 0.0
103.88782124036516 103.88782124036516 0.0 0.0
302.1531552620687 302.1531552620687 0.0 0.0
617.837622816838 617.837622816838 0.0 0.0
1056.1493727937518 1056.1493727937518 0.0 0.0
1632.0080301027497 1632.0080301027497 0.0 0.0
2352.439287124546 2352.439287124546 0.0 0.0
3220.6465823977082 3220.6465823977082 0.0 0.0
4438.5855285892885 4438.5855285892885 0.0 0.0
4791.493510005129 4791.493510005129 0.0 0.0
7710.35524113236 7710.35524113236 0.0 0.0
4798.878043931577 4798.878043931577 0.0 0.0
4452.253336176172 4452.253336176172 0.0 0.0
3238.961963929904 3238.961963929904 0.0 0.0
2373.6298903319357 2373.6298903319357 0.0 0.0
1653.4662438910375 1653.4662438910375 0.0 0.0
1074.6369546819183 1074.6369546819183 0.0 0.0
629.9078251005423 629.9078251005423 0.0 0.0
306.66706038973086 306.66706038973086 0.0 0.0
103.99466732029373 103.99466732029373 0.0 0.0
42.73535441975046 42.73535441975046 0.0 0.0
46.54578006049095 46.54578006049095 0.0 0.0
157.43776589008422 157.43776589008422 0.0 0.0
580.4571268299381 580.4571268299381 0.0 0.0
1318.7933358128269 1318.7933358128269 0.0 0.0
2313.786909949491 2313.786909949491 0.0 0.0
3590.855724500026 3590.855724500026 0.0 0.0
5186.902632868923 5186.902632868923 0.0 0.0
7055.3386765717105 7055.3386765717105 0.0 0.0
9119.526810799327 9119.526810799327 0.0 0.0
11117.968701660664 11117.968701660664 0.0 0.0
20745.406150963692 20745.406150963692 0.0 0.0
11129.336941983867 11129.336941983867 0.0 0.0
9141.368579423572 9141.368579423572 0.0 0.0
7084.511430181148 7084.511430181148 0.0 0.0
5219.838823953266 5219.838823953266 0.0 0.0
3622.512824945013 3622.512824945013 0.0 0.0
2337.5486332775317 2337.5486332775317 0.0 0.0
1329.083839509583 1329.083839509583 0.0 0.0
580.3416604972917 580.3416604972917 0.0 0.0
155.89966682308085 155.89966682308085 0.0 0.0
43.694030383804055 43.694030383804055 0.0 0.0
1202.9184698612664 1202.9184698612664 0.0 0.0
496.3247207169124 496.3247207169124 0.0 0.0
737.2044312038958 737.2044312038958 0.0 0.0
1485.3484027440693 1485.3484027440693 0.0 0.0
2546.6339011390464 2546.6339011390464 0.0 0.0
3931.38523956391 3931.38523956391 0.0 0.0
5590.949235629938 5590.949235629938 0.0 0.0
7508.026753151672 7508.026753151672 0.0 0.0
9664.024918662868 9664.024918662868 0.0 0.0
11784.370056716924 11784.370056716924 0.0 0.0
12802.366334905044 12802.366334905044 0.0 0.0
11790.216309166075 11790.216309166075 0.0 0.0
9674.942329211359 9674.942329211359 0.0 0.0
7523.859059783612 7523.859059783612 0.0 0.0
5612.579754935369 5612.579754935369 0.0 0.0
3960.4448579984924 3960.4448579984924 0.0 0.0
2585.5248497285684 2585.5248497285684 0.0 0.0
1534.7162229783635 1534.7162229783635 0.0 0.0
807.0613031520526 807.0613031520526 0.0 0.0
592.8617417388984 592.8617417388984 0.0 0.0
1172.4032720064824 1172.4032720064824 0.0 0.0
964.6384321453743 964.6384321453743 0.0 0.0
83.92992966420405 83.92992966420405 0.0 0.0
311.0946389104917 311.0946389104917 0.0 0.0
677.0276192748886 677.0276192748886 0.0 0.0
1159.1602522144706 1159.1602522144706 0.0 0.0
1777.9609052523454 1777.9609052523454 0.0 0.0
2519.3046167949233 2519.3046167949233 0.0 0.0
3363.3722260253344 3363.3722260253344 0.0 0.0
4296.008556514114 4296.008556514114 0.0 0.0
5231.662889035679 5231.662889035679 0.0 0.0
5726.688853262544 5726.688853262544 0.0 0.0
5235.4394589695685 5235.4394589695685 0.0 0.0
4303.224088876454 4303.224088876454 0.0 0.0
3373.9282942025934 3373.9282942025934 0.0 0.0
2533.4905199420546 2533.4905199420546 0.0 0.0
1796.447857784159 1796.447857784159 0.0 0.0
1182.6279181117106 1182.6279181117106 0.0 0.0
706.9933588331954 706.9933588331954 0.0 0.0
340.56113362520705 340.56113362520705 0.0 0.0
96.48579346342281 96.48579346342281 0.0 0.0
970.6123001286445 970.6123001286445 0.0 0.0
579.5837351464232 579.5837351464232 0.0 0.0
68.15801845560097 68.15801845560097 0.0 0.0
133.10413026941896 133.10413026941896 0.0 0.0
224.50933430277618 224.50933430277618 0.0 0.0
360.4720761642649 360.4720761642649 0.0 0.0
522.3490505843266 522.3490505843266 0.0 0.0
712.9467391907572 712.9467391907572 0.0 0.0
918.717546431586 918.717546431586 0.0 0.0
1161.6765595314478 1161.6765595314478 0.0 0.0
1531.8201266768415 1531.8201266768415 0.0 0.0
1863.87767311077 1863.87767311077 0.0 0.0
1533.602913009232 1533.602913009232 0.0 0.0
1165.1856028529917 1165.1856028529917 0.0 0.0
923.8299379954279 923.8299379954279 0.0 0.0
719.4967731823903 719.4967731823903 0.0 0.0
530.1632142572797 530.1632142572797 0.0 0.0
369.5272638580851 369.5272638580851 0.0 0.0
233.66587928816574 233.66587928816574 0.0 0.0
135.76033407180202 135.76033407180202 0.0 0.0
59.66870469503638 59.66870469503638 0.0 0.0
574.6135174566647 574.6135174566647 0.0 0.0
288.1900069101081 288.1900069101081 0.0 0.0
95.06684998565326 95.06684998565326 0.0 0.0
116.29823069824046 116.29823069824046 0.0 0.0
100.33884268637836 100.33884268637836 0.0 0.0
104.28721384195238 104.28721384195238 0.0 0.0
113.7679796317548 113.7679796317548 0.0 0.0
126.41064895616229 126.41064895616229 0.0 0.0
134.10653138144403 134.10653138144403 0.0 0.0
141.48065302249412 141.48065302249412 0.0 0.0
257.20527421436947 257.20527421436947 0.0 0.0
629.1769962299335 629.1769962299335 0.0 0.0
256.82874636715644 256.82874636715644 0.0 0.0
141.2788929614421 141.2788929614421 0.0 0.0
134.0325442054748 134.0325442054748 0.0 0.0
126.1030692750481 126.1030692750481 0.0 0.0
112.78827762814225 112.78827762814225 0.0 0.0
102.06678969712279 102.06678969712279 0.0 0.0
95.70564537515689 95.70564537515689 0.0 0.0
108.33966747983399 108.33966747983399 0.0 0.0
84.68092425939959 84.68092425939959 0.0 0.0
290.1115024031917 290.1115024031917 0.0 0.0
119.40137807630843 119.40137807630843 0.0 0.0
102.13856764400015 102.13856764400015 0.0 0.0
182.40469604843733 182.40469604843733 0.0 0.0
257.1296158624622 257.1296158624622 0.0 0.0
372.63126151098885 372.63126151098885 0.0 0.0
533.3844700678613 533.3844700678613 0.0 0.0
729.2216681869462 729.2216681869462 0.0 0.0
971.3811055050724 971.3811055050724 0.0 0.0
1200.6128260505732 1200.6128260505732 0.0 0.0
1267.060327476032 1267.060327476032 0.0 0.0
1919.6339702282728 1919.6339702282728 0.0 0.0
1264.4169914602828 1264.4169914602828 0.0 0.0
1196.9379286385079 1196.9379286385079 0.0 0.0
966.636277619783 966.636277619783 0.0 0.0
723.255989554515 723.255989554515 0.0 0.0
526.1510211965766 526.1510211965766 0.0 0.0
364.1094578075296 364.1094578075296 0.0 0.0
247.91308639417605 247.91308639417605 0.0 0.0
174.5545489613467 174.5545489613467 0.0 0.0
96.06468708194849 96.06468708194849 0.0 0.0
121.95595576101363 121.95595576101363 0.0 0.0
52.59402480493989 52.59402480493989 0.0 0.0
111.22657873912931 111.22657873912931 0.0 0.0
334.52180424996425 334.52180424996425 0.0 0.0
696.6841768471076 696.6841768471076 0.0 0.0
1185.597621337104 1185.597621337104 0.0 0.0
1806.1516728343458 1806.1516728343458 0.0 0.0
2550.922637744093 2550.922637744093 0.0 0.0
3388.9028338062703 3388.9028338062703 0.0 0.0
4405.309649423596 4405.309649423596 0.0 0.0
4678.504642747866 4678.504642747866 0.0 0.0
6035.9681830397485 6035.9681830397485 0.0 0.0
4673.882271070039 4673.882271070039 0.0 0.0
4398.755823531977 4398.755823531977 0.0 0.0
3379.8883008960606 3379.8883008960606 0.0 0.0
2540.0927131437134 2540.0927131437134 0.0 0.0
1794.6998988104276 1794.6998988104276 0.0 0.0
1175.2153189517082 1175.2153189517082 0.0 0.0
689.60627503018 689.60627503018 0.0 0.0
331.81178004777837 331.81178004777837 0.0 0.0
109.78109202078748 109.78109202078748 0.0 0.0
53.66401940330589 53.66401940330589 0.0 0.0
48.835423646343955 48.835423646343955 0.0 0.0
172.4769768609634 172.4769768609634 0.0 0.0
650.6155296157992 650.6155296157992 0.0 0.0
1487.8704104529645 1487.8704104529645 0.0 0.0
2596.2342132617373 2596.2342132617373 0.0 0.0
3979.079970970346 3979.079970970346 0.0 0.0
5645.753347372557 5645.753347372557 0.0 0.0
7503.78431049577 7503.78431049577 0.0 0.0
9363.435788009028 9363.435788009028 0.0 0.0
10624.64100908633 10624.64100908633 0.0 0.0
15941.214083075969 15941.214083075969 0.0 0.0
10621.336885328068 10621.336885328068 0.0 0.0
9354.813004187437 9354.813004187437 0.0 0.0
7490.618351852355 7490.618351852355 0.0 0.0
5629.966293001977 5629.966293001977 0.0 0.0
3963.409874930813 3963.409874930813 0.0 0.0
2584.787916209103 2584.787916209103 0.0 0.0
1484.9924942404796 1484.9924942404796 0.0 0.0
655.380702042784 655.380702042784 0.0 0.0
176.69934055506374 176.69934055506374 0.0 0.0
50.93809569344186 50.93809569344186 0.0 0.0
3231.8932819813194 3231.8932819813194 0.0 0.0
584.8166728094761 584.8166728094761 0.0 0.0
696.7521698887595 696.7521698887595 0.0 0.0
1458.6568635249168 1458.6568635249168 0.0 0.0
2573.1316027496396 2573.1316027496396 0.0 0.0
4055.2693474215152 4055.2693474215152 0.0 0.0
5839.394926927822 5839.394926927822 0.0 0.0
7835.356851274073 7835.356851274073 0.0 0.0
9754.914367187514 9754.914367187514 0.0 0.0
11081.451279785037 11081.451279785037 0.0 0.0
11508.212865114088 11508.212865114088 0.0 0.0
11098.215206040433 11098.215206040433 0.0 0.0
9788.431875536166 9788.431875536166 0.0 0.0
7886.480163105883 7886.480163105883 0.0 0.0
5909.613342649983 5909.613342649983 0.0 0.0
4145.151738539625 4145.151738539625 0.0 0.0
2680.169620883122 2680.169620883122 0.0 0.0
1575.9513442260193 1575.9513442260193 0.0 0.0
828.506877670272 828.506877670272 0.0 0.0
923.2164098287832 923.2164098287832 0.0 0.0
3096.3175755379807 3096.3175755379807 0.0 0.0
2399.2697293662936 2399.2697293662936 0.0 0.0
72.59768561031711 72.59768561031711 0.0 0.0
323.90197754392386 323.90197754392386 0.0 0.0
692.3550689702346 692.3550689702346 0.0 0.0
1188.4433730615465 1188.4433730615465 0.0 0.0
1832.913381873239 1832.913381873239 0.0 0.0
2612.4908040783553 2612.4908040783553 0.0 0.0
3491.740642840477 3491.740642840477 0.0 0.0
4354.926764910025 4354.926764910025 0.0 0.0
4967.768849307352 4967.768849307352 0.0 0.0
5167.127037232733 5167.127037232733 0.0 0.0
4978.6407040461745 4978.6407040461745 0.0 0.0
4376.586793914899 4376.586793914899 0.0 0.0
3524.4259413592677 3524.4259413592677 0.0 0.0
2656.402732435846 2656.402732435846 0.0 0.0
1887.5061086870983 1887.5061086870983 0.0 0.0
1250.8851708689374 1250.8851708689374 0.0 0.0
757.8460050086718 757.8460050086718 0.0 0.0
370.38817237429834 370.38817237429834 0.0 0.0
83.83918361778743 83.83918361778743 0.0 0.0
2520.0317177328507 2520.0317177328507 0.0 0.0
1334.7272499712392 1334.7272499712392 0.0 0.0
198.21881428790942 198.21881428790942 0.0 0.0
278.35072108194254 278.35072108194254 0.0 0.0
362.3272138576056 362.3272138576056 0.0 0.0
501.25423319711985 501.25423319711985 0.0 0.0
661.9245968390204 661.9245968390204 0.0 0.0
859.0455475138561 859.0455475138561 0.0 0.0
1102.813192285664 1102.813192285664 0.0 0.0
1367.949294420129 1367.949294420129 0.0 0.0
1544.4304609762517 1544.4304609762517 0.0 0.0
1594.381875663884 1594.381875663884 0.0 0.0
1548.8944542314966 1548.8944542314966 0.0 0.0
1376.4403653416944 1376.4403653416944 0.0 0.0
1115.0893162351992 1115.0893162351992 0.0 0.0
874.6588507973995 874.6588507973995 0.0 0.0
679.7542333778496 679.7542333778496 0.0 0.0
519.1487645792108 519.1487645792108 0.0 0.0
372.84605365172564 372.84605365172564 0.0 0.0
270.81668410691293 270.81668410691293 0.0 0.0
167.74171027065492 167.74171027065492 0.0 0.0
1392.6801089970477 1392.6801089970477 0.0 0.0
615.6720408921341 615.6720408921341 0.0 0.0
287.58289921766885 287.58289921766885 0.0 0.0
358.5110692018269 358.5110692018269 0.0 0.0
328.2314782116712 328.2314782116712 0.0 0.0
323.9801119799688 323.9801119799688 0.0 0.0
319.16090369282733 319.16090369282733 0.0 0.0
313.5113132740889 313.5113132740889 0.0 0.0
324.157368746531 324.157368746531 0.0 0.0
374.679410557148 374.679410557148 0.0 0.0
430.4753796677929 430.4753796677929 0.0 0.0
467.0131235596368 467.0131235596368 0.0 0.0
428.8967970487545 428.8967970487545 0.0 0.0
370.8999893331009 370.8999893331009 0.0 0.0
317.88337483134706 317.88337483134706 0.0 0.0
304.2660921723951 304.2660921723951 0.0 0.0
306.2831585291594 306.2831585291594 0.0 0.0
306.1031497865165 306.1031497865165 0.0 0.0
302.9550979437533 302.9550979437533 0.0 0.0
329.60164574918906 329.60164574918906 0.0 0.0
263.74303719929446 263.74303719929446 0.0 0.0
648.0354203731885 648.0354203731885 0.0 0.0
233.70746593023404 233.70746593023404 0.0 0.0
264.4642841559142 264.4642841559142 0.0 0.0
423.63970089326955 423.63970089326955 0.0 0.0
498.9291419713445 498.9291419713445 0.0 0.0
601.5934184386136 601.5934184386136 0.0 0.0
743.8579935042045 743.8579935042045 0.0 0.0
912.2585627736769 912.2585627736769 0.0 0.0
1076.2599088548593 1076.2599088548593 0.0 0.0
1260.5475883954164 1260.5475883954164 0.0 0.0
1549.6301957475648 1549.6301957475648 0.0 0.0
1734.66309401298 1734.66309401298 0.0 0.0
1542.5467536190974 1542.5467536190974 0.0 0.0
1246.0024066831963 1246.0024066831963 0.0 0.0
1054.267092766874 1054.267092766874 0.0 0.0
883.1586487059308 883.1586487059308 0.0 0.0
708.5889545156882 708.5889545156882 0.0 0.0
561.9778953821511 561.9778953821511 0.0 0.0
459.8494557732886 459.8494557732886 0.0 0.0
396.17931510607633 396.17931510607633 0.0 0.0
252.67016497687396 252.67016497687396 0.0 0.0
245.881771675288 245.881771675288 0.0 0.0
81.54601102333005 81.54601102333005 0.0 0.0
201.82119413162965 201.82119413162965 0.0 0.0
501.4560917365531 501.4560917365531 0.0 0.0
897.4487107067164 897.4487107067164 0.0 0.0
1390.5330306097537 1390.5330306097537 0.0 0.0
2001.8701899900714 2001.8701899900714 0.0 0.0
2717.510078524522 2717.510078524522 0.0 0.0
3497.8172716120066 3497.8172716120066 0.0 0.0
4099.615658874675 4099.615658874675 0.0 0.0
5000.050875682861 5000.050875682861 0.0 0.0
5439.122772939439 5439.122772939439 0.0 0.0
4987.493257647344 4987.493257647344 0.0 0.0
4075.0123719167223 4075.0123719167223 0.0 0.0
3461.0159149340343 3461.0159149340343 0.0 0.0
2671.2091489194972 2671.2091489194972 0.0 0.0
1950.1215067480107 1950.1215067480107 0.0 0.0
1340.665127806087 1340.665127806087 0.0 0.0
860.1077146791281 860.1077146791281 0.0 0.0
484.2179186346777 484.2179186346777 0.0 0.0
197.32399020685924 197.32399020685924 0.0 0.0
84.56410238919031 84.56410238919031 0.0 0.0
50.10604111236567 50.10604111236567 0.0 0.0
217.84781151460336 217.84781151460336 0.0 0.0
790.9236452394046 790.9236452394046 0.0 0.0
1728.2176785677598 1728.2176785677598 0.0 0.0
2895.2282261610962 2895.2282261610962 0.0 0.0
4317.147788433756 4317.147788433756 0.0 0.0
5990.0089945959935 5990.0089945959935 0.0 0.0
7861.515529542683 7861.515529542683 0.0 0.0
9772.895904711308 9772.895904711308 0.0 0.0
11601.70928150941 11601.70928150941 0.0 0.0
9975.437691200073 9975.437691200073 0.0 0.0
11585.514264432757 11585.514264432757 0.0 0.0
9734.53250962723 9734.53250962723 0.0 0.0
7805.250288723855 7805.250288723855 0.0 0.0
5921.267823172904 5921.267823172904 0.0 0.0
4244.960315817457 4244.960315817457 0.0 0.0
2834.812747783658 2834.812747783658 0.0 0.0
1696.534104245568 1696.534104245568 0.0 0.0
787.9898152448031 787.9898152448031 0.0 0.0
221.81263911502896 221.81263911502896 0.0 0.0
53.06751583729421 53.06751583729421 0.0 0.0