# vtk DataFile Version 3.0
Some data
ASCII
DATASET UNSTRUCTURED_GRID
POINTS 1029 float
0.0 0.0 0.0
0.8 0.0 0.0
1.6 0.0 0.0
2.4000000000000004 0.0 0.0
3.2 0.0 0.0
4.0 0.0 0.0
4.800000000000001 0.0 0.0
5.6000000000000005 0.0 0.0
6.4 0.0 0.0
7.2 0.0 0.0
8.0 0.0 0.0
8.8 0.0 0.0
9.600000000000001 0.0 0.0
10.4 0.0 0.0
11.200000000000001 0.0 0.0
12.0 0.0 0.0
12.8 0.0 0.0
13.600000000000001 0.0 0.0
14.4 0.0 0.0
15.200000000000001 0.0 0.0
16.0 0.0 0.0
0.0 0.3333333333333333 0.0
0.8 0.3333333333333333 0.0
1.6 0.3333333333333333 0.0
2.4000000000000004 0.3333333333333333 0.0
3.2 0.3333333333333333 0.0
4.0 0.3333333333333333 0.0
4.800000000000001 0.3333333333333333 0.0
5.6000000000000005 0.3333333333333333 0.0
6.4 0.3333333333333333 0.0
7.2 0.3333333333333333 0.0
8.0 0.3333333333333333 0.0
8.8 0.3333333333333333 0.0
9.600000000000001 0.3333333333333333 0.0
10.4 0.3333333333333333 0.0
11.200000000000001 0.3333333333333333 0.0
12.0 0.3333333333333333 0.0
12.8 0.3333333333333333 0.0
13.600000000000001 0.3333333333333333 0.0
14.4 0.3333333333333333 0.0
15.200000000000001 0.3333333333333333 0.0
16.0 0.3333333333333333 0.0
0.0 0.6666666666666666 0.0
0.8 0.6666666666666666 0.0
1.6 0.6666666666666666 0.0
2.4000000000000004 0.6666666666666666 0.0
3.2 0.6666666666666666 0.0
4.0 0.6666666666666666 0.0
4.800000000000001 0.6666666666666666 0.0
5.6000000000000005 0.6666666666666666 0.0
6.4 0.6666666666666666 0.0
7.2 0.6666666666666666 0.0
8.0 0.6666666666666666 0.0
8.8 0.6666666666666666 0.0
9.600000000000001 0.6666666666666666 0.0
10.4 0.6666666666666666 0.0
11.200000000000001 0.6666666666666666 0.0
12.0 0.6666666666666666 0.0
12.8 0.6666666666666666 0.0
13.600000000000001 0.6666666666666666 0.0
14.4 0.6666666666666666 0.0
15.200000000000001 0.6666666666666666 0.0
16.0 0.6666666666666666 0.0
0.0 1.0 0.0
0.8 1.0 0.0
1.6 1.0 0.0
2.4000000000000004 1.0 0.0
3.2 1.0 0.0
4.0 1.0 0.0
4.800000000000001 1.0 0.0
5.6000000000000005 1.0 0.0
6.4 1.0 0.0
7.2 1.0 0.0
8.0 1.0 0.0
8.8 1.0 0.0
9.600000000000001 1.0 0.0
10.4 1.0 0.0
11.200000000000001 1.0 0.0
12.0 1.0 0.0
12.8 1.0 0.0
13.600000000000001 1.0 0.0
14.4 1.0 0.0
15.200000000000001 1.0 0.0
16.0 1.0 0.0
0.0 1.3333333333333333 0.0
0.8 1.3333333333333333 0.0
1.6 1.3333333333333333 0.0
2.4000000000000004 1.3333333333333333 0.0
3.2 1.3333333333333333 0.0
4.0 1.3333333333333333 0.0
4.800000000000001 1.3333333333333333 0.0
5.6000000000000005 1.3333333333333333 0.0
6.4 1.3333333333333333 0.0
7.2 1.3333333333333333 0.0
8.0 1.3333333333333333 0.0
8.8 1.3333333333333333 0.0
9.600000000000001 1.3333333333333333 0.0
10.4 1.3333333333333333 0.0
11.200000000000001 1.3333333333333333 0.0
12.0 1.3333333333333333 0.0
12.8 1.3333333333333333 0.0
13.600000000000001 1.3333333333333333 0.0
14.4 1.3333333333333333 0.0
15.200000000000001 1.3333333333333333 0.0
16.0 1.3333333333333333 0.0
0.0 1.6666666666666665 0.0
0.8 1.6666666666666665 0.0
1.6 1.6666666666666665 0.0
2.4000000000000004 1.6666666666666665 0.0
3.2 1.6666666666666665 0.0
4.0 1.6666666666666665 0.0
4.800000000000001 1.6666666666666665 0.0
5.6000000000000005 1.6666666666666665 0.0
6.4 1.6666666666666665 0.0
7.2 1.6666666666666665 0.0
8.0 1.6666666666666665 0.0
8.8 1.6666666666666665 0.0
9.600000000000001 1.6666666666666665 0.0
10.4 1.6666666666666665 0.0
11.200000000000001 1.6666666666666665 0.0
12.0 1.6666666666666665 0.0
12.8 1.6666666666666665 0.0
13.600000000000001 1.6666666666666665 0.0
14.4 1.6666666666666665 0.0
15.200000000000001 1.6666666666666665 0.0
16.0 1.6666666666666665 0.0
0.0 2.0 0.0
0.8 2.0 0.0
1.6 2.0 0.0
2.4000000000000004 2.0 0.0
3.2 2.0 0.0
4.0 2.0 0.0
4.800000000000001 2.0 0.0
5.6000000000000005 2.0 0.0
6.4 2.0 0.0
7.2 2.0 0.0
8.0 2.0 0.0
8.8 2.0 0.0
9.600000000000001 2.0 0.0
10.4 2.0 0.0
11.200000000000001 2.0 0.0
12.0 2.0 0.0
12.8 2.0 0.0
13.600000000000001 2.0 0.0
14.4 2.0 0.0
15.200000000000001 2.0 0.0
16.0 2.0 0.0
0.0 0.0 1.6666666666666667
0.8 0.0 1.6666666666666667
1.6 0.0 1.6666666666666667
2.4000000000000004 0.0 1.6666666666666667
3.2 0.0 1.6666666666666667
4.0 0.0 1.6666666666666667
4.800000000000001 0.0 1.6666666666666667
5.6000000000000005 0.0 1.6666666666666667
6.4 0.0 1.6666666666666667
7.2 0.0 1.6666666666666667
8.0 0.0 1.6666666666666667
8.8 0.0 1.6666666666666667
9.600000000000001 0.0 1.6666666666666667
10.4 0.0 1.6666666666666667
11.200000000000001 0.0 1.6666666666666667
12.0 0.0 1.6666666666666667
12.8 0.0 1.6666666666666667
13.600000000000001 0.0 1.6666666666666667
14.4 0.0 1.6666666666666667
15.200000000000001 0.0 1.6666666666666667
16.0 0.0 1.6666666666666667
0.0 0.3333333333333333 1.6666666666666667
0.8 0.3333333333333333 1.6666666666666667
1.6 0.3333333333333333 1.6666666666666667
2.4000000000000004 0.3333333333333333 1.6666666666666667
3.2 0.3333333333333333 1.6666666666666667
4.0 0.3333333333333333 1.6666666666666667
4.800000000000001 0.3333333333333333 1.6666666666666667
5.6000000000000005 0.3333333333333333 1.6666666666666667
6.4 0.3333333333333333 1.6666666666666667
7.2 0.3333333333333333 1.6666666666666667
8.0 0.3333333333333333 1.6666666666666667
8.8 0.3333333333333333 1.6666666666666667
9.600000000000001 0.3333333333333333 1.6666666666666667
10.4 0.3333333333333333 1.6666666666666667
11.200000000000001 0.3333333333333333 1.6666666666666667
12.0 0.3333333333333333 1.6666666666666667
12.8 0.3333333333333333 1.6666666666666667
13.600000000000001 0.3333333333333333 1.6666666666666667
14.4 0.3333333333333333 1.6666666666666667
15.200000000000001 0.3333333333333333 1.6666666666666667
16.0 0.3333333333333333 1.6666666666666667
0.0 0.6666666666666666 1.6666666666666667
0.8 0.6666666666666666 1.6666666666666667
1.6 0.6666666666666666 1.6666666666666667
2.4000000000000004 0.6666666666666666 1.6666666666666667
3.2 0.6666666666666666 1.6666666666666667
4.0 0.6666666666666666 1.6666666666666667
4.800000000000001 0.6666666666666666 1.6666666666666667
5.6000000000000005 0.6666666666666666 1.6666666666666667
6.4 0.6666666666666666 1.6666666666666667
7.2 0.6666666666666666 1.6666666666666667
8.0 0.6666666666666666 1.6666666666666667
8.8 0.6666666666666666 1.6666666666666667
9.600000000000001 0.6666666666666666 1.6666666666666667
10.4 0.6666666666666666 1.6666666666666667
11.200000000000001 0.6666666666666666 1.6666666666666667
12.0 0.6666666666666666 1.6666666666666667
12.8 0.6666666666666666 1.6666666666666667
13.600000000000001 0.6666666666666666 1.6666666666666667
14.4 0.6666666666666666 1.6666666666666667
15.200000000000001 0.6666666666666666 1.6666666666666667
16.0 0.6666666666666666 1.6666666666666667
0.0 1.0 1.6666666666666667
0.8 1.0 1.6666666666666667
1.6 1.0 1.6666666666666667
2.4000000000000004 1.0 1.6666666666666667
3.2 1.0 1.6666666666666667
4.0 1.0 1.6666666666666667
4.800000000000001 1.0 1.6666666666666667
5.6000000000000005 1.0 1.6666666666666667
6.4 1.0 1.6666666666666667
7.2 1.0 1.6666666666666667
8.0 1.0 1.6666666666666667
8.8 1.0 1.6666666666666667
9.600000000000001 1.0 1.6666666666666667
10.4 1.0 1.6666666666666667
11.200000000000001 1.0 1.6666666666666667
12.0 1.0 1.6666666666666667
12.8 1.0 1.6666666666666667
13.600000000000001 1.0 1.6666666666666667
14.4 1.0 1.6666666666666667
15.200000000000001 1.0 1.6666666666666667
16.0 1.0 1.6666666666666667
0.0 1.3333333333333333 1.6666666666666667
0.8 1.3333333333333333 1.6666666666666667
1.6 1.3333333333333333 1.6666666666666667
2.4000000000000004 1.3333333333333333 1.6666666666666667
3.2 1.3333333333333333 1.6666666666666667
4.0 1.3333333333333333 1.6666666666666667
4.800000000000001 1.3333333333333333 1.6666666666666667
5.6000000000000005 1.3333333333333333 1.6666666666666667
6.4 1.3333333333333333 1.6666666666666667
7.2 1.3333333333333333 1.6666666666666667
8.0 1.3333333333333333 1.6666666666666667
8.8 1.3333333333333333 1.6666666666666667
9.600000000000001 1.3333333333333333 1.6666666666666667
10.4 1.3333333333333333 1.6666666666666667
11.200000000000001 1.3333333333333333 1.6666666666666667
12.0 1.3333333333333333 1.6666666666666667
12.8 1.3333333333333333 1.6666666666666667
13.600000000000001 1.3333333333333333 1.6666666666666667
14.4 1.3333333333333333 1.6666666666666667
15.200000000000001 1.3333333333333333 1.6666666666666667
16.0 1.3333333333333333 1.6666666666666667
0.0 1.6666666666666665 1.6666666666666667
0.8 1.6666666666666665 1.6666666666666667
1.6 1.6666666666666665 1.6666666666666667
2.4000000000000004 1.6666666666666665 1.6666666666666667
3.2 1.6666666666666665 1.6666666666666667
4.0 1.6666666666666665 1.6666666666666667
4.800000000000001 1.6666666666666665 1.6666666666666667
5.6000000000000005 1.6666666666666665 1.6666666666666667
6.4 1.6666666666666665 1.6666666666666667
7.2 1.6666666666666665 1.6666666666666667
8.0 1.6666666666666665 1.6666666666666667
8.8 1.6666666666666665 1.6666666666666667
9.600000000000001 1.6666666666666665 1.6666666666666667
10.4 1.6666666666666665 1.6666666666666667
11.200000000000001 1.6666666666666665 1.6666666666666667
12.0 1.6666666666666665 1.6666666666666667
12.8 1.6666666666666665 1.6666666666666667
13.600000000000001 1.6666666666666665 1.6666666666666667
14.4 1.6666666666666665 1.6666666666666667
15.200000000000001 1.6666666666666665 1.6666666666666667
16.0 1.6666666666666665 1.6666666666666667
0.0 2.0 1.6666666666666667
0.8 2.0 1.6666666666666667
1.6 2.0 1.6666666666666667
2.4000000000000004 2.0 1.6666666666666667
3.2 2.0 1.6666666666666667
4.0 2.0 1.6666666666666667
4.800000000000001 2.0 1.6666666666666667
5.6000000000000005 2.0 1.6666666666666667
6.4 2.0 1.6666666666666667
7.2 2.0 1.6666666666666667
8.0 2.0 1.6666666666666667
8.8 2.0 1.6666666666666667
9.600000000000001 2.0 1.6666666666666667
10.4 2.0 1.6666666666666667
11.200000000000001 2.0 1.6666666666666667
12.0 2.0 1.6666666666666667
12.8 2.0 1.6666666666666667
13.600000000000001 2.0 1.6666666666666667
14.4 2.0 1.6666666666666667
15.200000000000001 2.0 1.6666666666666667
16.0 2.0 1.6666666666666667
0.0 0.0 3.3333333333333335
0.8 0.0 3.3333333333333335
1.6 0.0 3.3333333333333335
2.4000000000000004 0.0 3.3333333333333335
3.2 0.0 3.3333333333333335
4.0 0.0 3.3333333333333335
4.800000000000001 0.0 3.3333333333333335
5.6000000000000005 0.0 3.3333333333333335
6.4 0.0 3.3333333333333335
7.2 0.0 3.3333333333333335
8.0 0.0 3.3333333333333335
8.8 0.0 3.3333333333333335
9.600000000000001 0.0 3.3333333333333335
10.4 0.0 3.3333333333333335
11.200000000000001 0.0 3.3333333333333335
12.0 0.0 3.3333333333333335
12.8 0.0 3.3333333333333335
13.600000000000001 0.0 3.3333333333333335
14.4 0.0 3.3333333333333335
15.200000000000001 0.0 3.3333333333333335
16.0 0.0 3.3333333333333335
0.0 0.3333333333333333 3.3333333333333335
0.8 0.3333333333333333 3.3333333333333335
1.6 0.3333333333333333 3.3333333333333335
2.4000000000000004 0.3333333333333333 3.3333333333333335
3.2 0.3333333333333333 3.3333333333333335
4.0 0.3333333333333333 3.3333333333333335
4.800000000000001 0.3333333333333333 3.3333333333333335
5.6000000000000005 0.3333333333333333 3.3333333333333335
6.4 0.3333333333333333 3.3333333333333335
7.2 0.3333333333333333 3.3333333333333335
8.0 0.3333333333333333 3.3333333333333335
8.8 0.3333333333333333 3.3333333333333335
9.600000000000001 0.3333333333333333 3.3333333333333335
10.4 0.3333333333333333 3.3333333333333335
11.200000000000001 0.3333333333333333 3.3333333333333335
12.0 0.3333333333333333 3.3333333333333335
12.8 0.3333333333333333 3.3333333333333335
13.600000000000001 0.3333333333333333 3.3333333333333335
14.4 0.3333333333333333 3.3333333333333335
15.200000000000001 0.3333333333333333 3.3333333333333335
16.0 0.3333333333333333 3.3333333333333335
0.0 0.6666666666666666 3.3333333333333335
0.8 0.6666666666666666 3.3333333333333335
1.6 0.6666666666666666 3.3333333333333335
2.4000000000000004 0.6666666666666666 3.3333333333333335
3.2 0.6666666666666666 3.3333333333333335
4.0 0.6666666666666666 3.3333333333333335
4.800000000000001 0.6666666666666666 3.3333333333333335
5.6000000000000005 0.6666666666666666 3.3333333333333335
6.4 0.6666666666666666 3.3333333333333335
7.2 0.6666666666666666 3.3333333333333335
8.0 0.6666666666666666 3.3333333333333335
8.8 0.6666666666666666 3.3333333333333335
9.600000000000001 0.6666666666666666 3.3333333333333335
10.4 0.6666666666666666 3.3333333333333335
11.200000000000001 0.6666666666666666 3.3333333333333335
12.0 0.6666666666666666 3.3333333333333335
12.8 0.6666666666666666 3.3333333333333335
13.600000000000001 0.6666666666666666 3.3333333333333335
14.4 0.6666666666666666 3.3333333333333335
15.200000000000001 0.6666666666666666 3.3333333333333335
16.0 0.6666666666666666 3.3333333333333335
0.0 1.0 3.3333333333333335
0.8 1.0 3.3333333333333335
1.6 1.0 3.3333333333333335
2.4000000000000004 1.0 3.3333333333333335
3.2 1.0 3.3333333333333335
4.0 1.0 3.3333333333333335
4.800000000000001 1.0 3.3333333333333335
5.6000000000000005 1.0 3.3333333333333335
6.4 1.0 3.3333333333333335
7.2 1.0 3.3333333333333335
8.0 1.0 3.3333333333333335
8.8 1.0 3.3333333333333335
9.600000000000001 1.0 3.3333333333333335
10.4 1.0 3.3333333333333335
11.200000000000001 1.0 3.3333333333333335
12.0 1.0 3.3333333333333335
12.8 1.0 3.3333333333333335
13.600000000000001 1.0 3.3333333333333335
14.4 1.0 3.3333333333333335
15.200000000000001 1.0 3.3333333333333335
16.0 1.0 3.3333333333333335
0.0 1.3333333333333333 3.3333333333333335
0.8 1.3333333333333333 3.3333333333333335
1.6 1.3333333333333333 3.3333333333333335
2.4000000000000004 1.3333333333333333 3.3333333333333335
3.2 1.3333333333333333 3.3333333333333335
4.0 1.3333333333333333 3.3333333333333335
4.800000000000001 1.3333333333333333 3.3333333333333335
5.6000000000000005 1.3333333333333333 3.3333333333333335
6.4 1.3333333333333333 3.3333333333333335
7.2 1.3333333333333333 3.3333333333333335
8.0 1.3333333333333333 3.3333333333333335
8.8 1.3333333333333333 3.3333333333333335
9.600000000000001 1.3333333333333333 3.3333333333333335
10.4 1.3333333333333333 3.3333333333333335
11.200000000000001 1.3333333333333333 3.3333333333333335
12.0 1.3333333333333333 3.3333333333333335
12.8 1.3333333333333333 3.3333333333333335
13.600000000000001 1.3333333333333333 3.3333333333333335
14.4 1.3333333333333333 3.3333333333333335
15.200000000000001 1.3333333333333333 3.3333333333333335
16.0 1.3333333333333333 3.3333333333333335
0.0 1.6666666666666665 3.3333333333333335
0.8 1.6666666666666665 3.3333333333333335
1.6 1.6666666666666665 3.3333333333333335
2.4000000000000004 1.6666666666666665 3.3333333333333335
3.2 1.6666666666666665 3.3333333333333335
4.0 1.6666666666666665 3.3333333333333335
4.800000000000001 1.6666666666666665 3.3333333333333335
5.6000000000000005 1.6666666666666665 3.3333333333333335
6.4 1.6666666666666665 3.3333333333333335
7.2 1.6666666666666665 3.3333333333333335
8.0 1.6666666666666665 3.3333333333333335
8.8 1.6666666666666665 3.3333333333333335
9.600000000000001 1.6666666666666665 3.3333333333333335
10.4 1.6666666666666665 3.3333333333333335
11.200000000000001 1.6666666666666665 3.3333333333333335
12.0 1.6666666666666665 3.3333333333333335
12.8 1.6666666666666665 3.3333333333333335
13.600000000000001 1.6666666666666665 3.3333333333333335
14.4 1.6666666666666665 3.3333333333333335
15.200000000000001 1.6666666666666665 3.3333333333333335
16.0 1.6666666666666665 3.3333333333333335
0.0 2.0 3.3333333333333335
0.8 2.0 3.3333333333333335
1.6 2.0 3.3333333333333335
2.4000000000000004 2.0 3.3333333333333335
3.2 2.0 3.3333333333333335
4.0 2.0 3.3333333333333335
4.800000000000001 2.0 3.3333333333333335
5.6000000000000005 2.0 3.3333333333333335
6.4 2.0 3.3333333333333335
7.2 2.0 3.3333333333333335
8.0 2.0 3.3333333333333335
8.8 2.0 3.3333333333333335
9.600000000000001 2.0 3.3333333333333335
10.4 2.0 3.3333333333333335
11.200000000000001 2.0 3.3333333333333335
12.0 2.0 3.3333333333333335
12.8 2.0 3.3333333333333335
13.600000000000001 2.0 3.3333333333333335
14.4 2.0 3.3333333333333335
15.200000000000001 2.0 3.3333333333333335
16.0 2.0 3.3333333333333335
0.0 0.0 5.0
0.8 0.0 5.0
1.6 0.0 5.0
2.4000000000000004 0.0 5.0
3.2 0.0 5.0
4.0 0.0 5.0
4.800000000000001 0.0 5.0
5.6000000000000005 0.0 5.0
6.4 0.0 5.0
7.2 0.0 5.0
8.0 0.0 5.0
8.8 0.0 5.0
9.600000000000001 0.0 5.0
10.4 0.0 5.0
11.200000000000001 0.0 5.0
12.0 0.0 5.0
12.8 0.0 5.0
13.600000000000001 0.0 5.0
14.4 0.0 5.0
15.200000000000001 0.0 5.0
16.0 0.0 5.0
0.0 0.3333333333333333 5.0
0.8 0.3333333333333333 5.0
1.6 0.3333333333333333 5.0
2.4000000000000004 0.3333333333333333 5.0
3.2 0.3333333333333333 5.0
4.0 0.3333333333333333 5.0
4.800000000000001 0.3333333333333333 5.0
5.6000000000000005 0.3333333333333333 5.0
6.4 0.3333333333333333 5.0
7.2 0.3333333333333333 5.0
8.0 0.3333333333333333 5.0
8.8 0.3333333333333333 5.0
9.600000000000001 0.3333333333333333 5.0
10.4 0.3333333333333333 5.0
11.200000000000001 0.3333333333333333 5.0
12.0 0.3333333333333333 5.0
12.8 0.3333333333333333 5.0
13.600000000000001 0.3333333333333333 5.0
14.4 0.3333333333333333 5.0
15.200000000000001 0.3333333333333333 5.0
16.0 0.3333333333333333 5.0
0.0 0.6666666666666666 5.0
0.8 0.6666666666666666 5.0
1.6 0.6666666666666666 5.0
2.4000000000000004 0.6666666666666666 5.0
3.2 0.6666666666666666 5.0
4.0 0.6666666666666666 5.0
4.800000000000001 0.6666666666666666 5.0
5.6000000000000005 0.6666666666666666 5.0
6.4 0.6666666666666666 5.0
7.2 0.6666666666666666 5.0
8.0 0.6666666666666666 5.0
8.8 0.6666666666666666 5.0
9.600000000000001 0.6666666666666666 5.0
10.4 0.6666666666666666 5.0
11.200000000000001 0.6666666666666666 5.0
12.0 0.6666666666666666 5.0
12.8 0.6666666666666666 5.0
13.600000000000001 0.6666666666666666 5.0
14.4 0.6666666666666666 5.0
15.200000000000001 0.6666666666666666 5.0
16.0 0.6666666666666666 5.0
0.0 1.0 5.0
0.8 1.0 5.0
1.6 1.0 5.0
2.4000000000000004 1.0 5.0
3.2 1.0 5.0
4.0 1.0 5.0
4.800000000000001 1.0 5.0
5.6000000000000005 1.0 5.0
6.4 1.0 5.0
7.2 1.0 5.0
8.0 1.0 5.0
8.8 1.0 5.0
9.600000000000001 1.0 5.0
10.4 1.0 5.0
11.200000000000001 1.0 5.0
12.0 1.0 5.0
12.8 1.0 5.0
13.600000000000001 1.0 5.0
14.4 1.0 5.0
15.200000000000001 1.0 5.0
16.0 1.0 5.0
0.0 1.3333333333333333 5.0
0.8 1.3333333333333333 5.0
1.6 1.3333333333333333 5.0
2.4000000000000004 1.3333333333333333 5.0
3.2 1.3333333333333333 5.0
4.0 1.3333333333333333 5.0
4.800000000000001 1.3333333333333333 5.0
5.6000000000000005 1.3333333333333333 5.0
6.4 1.3333333333333333 5.0
7.2 1.3333333333333333 5.0
8.0 1.3333333333333333 5.0
8.8 1.3333333333333333 5.0
9.600000000000001 1.3333333333333333 5.0
10.4 1.3333333333333333 5.0
11.200000000000001 1.3333333333333333 5.0
12.0 1.3333333333333333 5.0
12.8 1.3333333333333333 5.0
13.600000000000001 1.3333333333333333 5.0
14.4 1.3333333333333333 5.0
15.200000000000001 1.3333333333333333 5.0
16.0 1.3333333333333333 5.0
0.0 1.6666666666666665 5.0
0.8 1.6666666666666665 5.0
1.6 1.6666666666666665 5.0
2.4000000000000004 1.6666666666666665 5.0
3.2 1.6666666666666665 5.0
4.0 1.6666666666666665 5.0
4.800000000000001 1.6666666666666665 5.0
5.6000000000000005 1.6666666666666665 5.0
6.4 1.6666666666666665 5.0
7.2 1.6666666666666665 5.0
8.0 1.6666666666666665 5.0
8.8 1.6666666666666665 5.0
9.600000000000001 1.6666666666666665 5.0
10.4 1.6666666666666665 5.0
11.200000000000001 1.6666666666666665 5.0
12.0 1.6666666666666665 5.0
12.8 1.6666666666666665 5.0
13.600000000000001 1.6666666666666665 5.0
14.4 1.6666666666666665 5.0
15.200000000000001 1.6666666666666665 5.0
16.0 1.6666666666666665 5.0
0.0 2.0 5.0
0.8 2.0 5.0
1.6 2.0 5.0
2.4000000000000004 2.0 5.0
3.2 2.0 5.0
4.0 2.0 5.0
4.800000000000001 2.0 5.0
5.6000000000000005 2.0 5.0
6.4 2.0 5.0
7.2 2.0 5.0
8.0 2.0 5.0
8.8 2.0 5.0
9.600000000000001 2.0 5.0
10.4 2.0 5.0
11.200000000000001 2.0 5.0
12.0 2.0 5.0
12.8 2.0 5.0
13.600000000000001 2.0 5.0
14.4 2.0 5.0
15.200000000000001 2.0 5.0
16.0 2.0 5.0
0.0 0.0 6.666666666666667
0.8 0.0 6.666666666666667
1.6 0.0 6.666666666666667
2.4000000000000004 0.0 6.666666666666667
3.2 0.0 6.666666666666667
4.0 0.0 6.666666666666667
4.800000000000001 0.0 6.666666666666667
5.6000000000000005 0.0 6.666666666666667
6.4 0.0 6.666666666666667
7.2 0.0 6.666666666666667
8.0 0.0 6.666666666666667
8.8 0.0 6.666666666666667
9.600000000000001 0.0 6.666666666666667
10.4 0.0 6.666666666666667
11.200000000000001 0.0 6.666666666666667
12.0 0.0 6.666666666666667
12.8 0.0 6.666666666666667
13.600000000000001 0.0 6.666666666666667
14.4 0.0 6.666666666666667
15.200000000000001 0.0 6.666666666666667
16.0 0.0 6.666666666666667
0.0 0.3333333333333333 6.666666666666667
0.8 0.3333333333333333 6.666666666666667
1.6 0.3333333333333333 6.666666666666667
2.4000000000000004 0.3333333333333333 6.666666666666667
3.2 0.3333333333333333 6.666666666666667
4.0 0.3333333333333333 6.666666666666667
4.800000000000001 0.3333333333333333 6.666666666666667
5.6000000000000005 0.3333333333333333 6.666666666666667
6.4 0.3333333333333333 6.666666666666667
7.2 0.3333333333333333 6.666666666666667
8.0 0.3333333333333333 6.666666666666667
8.8 0.3333333333333333 6.666666666666667
9.600000000000001 0.3333333333333333 6.666666666666667
10.4 0.3333333333333333 6.666666666666667
11.200000000000001 0.3333333333333333 6.666666666666667
12.0 0.3333333333333333 6.666666666666667
12.8 0.3333333333333333 6.666666666666667
13.600000000000001 0.3333333333333333 6.666666666666667
14.4 0.3333333333333333 6.666666666666667
15.200000000000001 0.3333333333333333 6.666666666666667
16.0 0.3333333333333333 6.666666666666667
0.0 0.6666666666666666 6.666666666666667
0.8 0.6666666666666666 6.666666666666667
1.6 0.6666666666666666 6.666666666666667
2.4000000000000004 0.6666666666666666 6.666666666666667
3.2 0.6666666666666666 6.666666666666667
4.0 0.6666666666666666 6.666666666666667
4.800000000000001 0.6666666666666666 6.666666666666667
5.6000000000000005 0.6666666666666666 6.666666666666667
6.4 0.6666666666666666 6.666666666666667
7.2 0.6666666666666666 6.666666666666667
8.0 0.6666666666666666 6.666666666666667
8.8 0.6666666666666666 6.666666666666667
9.600000000000001 0.6666666666666666 6.666666666666667
10.4 0.6666666666666666 6.666666666666667
11.200000000000001 0.6666666666666666 6.666666666666667
12.0 0.6666666666666666 6.666666666666667
12.8 0.6666666666666666 6.666666666666667
13.600000000000001 0.6666666666666666 6.666666666666667
14.4 0.6666666666666666 6.666666666666667
15.200000000000001 0.6666666666666666 6.666666666666667
16.0 0.6666666666666666 6.666666666666667
0.0 1.0 6.666666666666667
0.8 1.0 6.666666666666667
1.6 1.0 6.666666666666667
2.4000000000000004 1.0 6.666666666666667
3.2 1.0 6.666666666666667
4.0 1.0 6.666666666666667
4.800000000000001 1.0 6.666666666666667
5.6000000000000005 1.0 6.666666666666667
6.4 1.0 6.666666666666667
7.2 1.0 6.666666666666667
8.0 1.0 6.666666666666667
8.8 1.0 6.666666666666667
9.600000000000001 1.0 6.666666666666667
10.4 1.0 6.666666666666667
11.200000000000001 1.0 6.666666666666667
12.0 1.0 6.666666666666667
12.8 1.0 6.666666666666667
13.600000000000001 1.0 6.666666666666667
14.4 1.0 6.666666666666667
15.200000000000001 1.0 6.666666666666667
16.0 1.0 6.666666666666667
0.0 1.3333333333333333 6.666666666666667
0.8 1.3333333333333333 6.666666666666667
1.6 1.3333333333333333 6.666666666666667
2.4000000000000004 1.3333333333333333 6.666666666666667
3.2 1.3333333333333333 6.666666666666667
4.0 1.3333333333333333 6.666666666666667
4.800000000000001 1.3333333333333333 6.666666666666667
5.6000000000000005 1.3333333333333333 6.666666666666667
6.4 1.3333333333333333 6.666666666666667
7.2 1.3333333333333333 6.666666666666667
8.0 1.3333333333333333 6.666666666666667
8.8 1.3333333333333333 6.666666666666667
9.600000000000001 1.3333333333333333 6.666666666666667
10.4 1.3333333333333333 6.666666666666667
11.200000000000001 1.3333333333333333 6.666666666666667
12.0 1.3333333333333333 6.666666666666667
12.8 1.3333333333333333 6.666666666666667
13.600000000000001 1.3333333333333333 6.666666666666667
14.4 1.3333333333333333 6.666666666666667
15.200000000000001 1.3333333333333333 6.666666666666667
16.0 1.3333333333333333 6.666666666666667
0.0 1.6666666666666665 6.666666666666667
0.8 1.6666666666666665 6.666666666666667
1.6 1.6666666666666665 6.666666666666667
2.4000000000000004 1.6666666666666665 6.666666666666667
3.2 1.6666666666666665 6.666666666666667
4.0 1.6666666666666665 6.666666666666667
4.800000000000001 1.6666666666666665 6.666666666666667
5.6000000000000005 1.6666666666666665 6.666666666666667
6.4 1.6666666666666665 6.666666666666667
7.2 1.6666666666666665 6.666666666666667
8.0 1.6666666666666665 6.666666666666667
8.8 1.6666666666666665 6.666666666666667
9.600000000000001 1.6666666666666665 6.666666666666667
10.4 1.6666666666666665 6.666666666666667
11.200000000000001 1.6666666666666665 6.666666666666667
12.0 1.6666666666666665 6.666666666666667
12.8 1.6666666666666665 6.666666666666667
13.600000000000001 1.6666666666666665 6.666666666666667
14.4 1.6666666666666665 6.666666666666667
15.200000000000001 1.6666666666666665 6.666666666666667
16.0 1.6666666666666665 6.666666666666667
0.0 2.0 6.666666666666667
0.8 2.0 6.666666666666667
1.6 2.0 6.666666666666667
2.4000000000000004 2.0 6.666666666666667
3.2 2.0 6.666666666666667
4.0 2.0 6.666666666666667
4.800000000000001 2.0 6.666666666666667
5.6000000000000005 2.0 6.666666666666667
6.4 2.0 6.666666666666667
7.2 2.0 6.666666666666667
8.0 2.0 6.666666666666667
8.8 2.0 6.666666666666667
9.600000000000001 2.0 6.666666666666667
10.4 2.0 6.666666666666667
11.200000000000001 2.0 6.666666666666667
12.0 2.0 6.666666666666667
12.8 2.0 6.666666666666667
13.600000000000001 2.0 6.666666666666667
14.4 2.0 6.666666666666667
15.200000000000001 2.0 6.666666666666667
16.0 2.0 6.666666666666667
0.0 0.0 8.333333333333334
0.8 0.0 8.333333333333334
1.6 0.0 8.333333333333334
2.4000000000000004 0.0 8.333333333333334
3.2 0.0 8.333333333333334
4.0 0.0 8.333333333333334
4.800000000000001 0.0 8.333333333333334
5.6000000000000005 0.0 8.333333333333334
6.4 0.0 8.333333333333334
7.2 0.0 8.333333333333334
8.0 0.0 8.333333333333334
8.8 0.0 8.333333333333334
9.600000000000001 0.0 8.333333333333334
10.4 0.0 8.333333333333334
11.200000000000001 0.0 8.333333333333334
12.0 0.0 8.333333333333334
12.8 0.0 8.333333333333334
13.600000000000001 0.0 8.333333333333334
14.4 0.0 8.333333333333334
15.200000000000001 0.0 8.333333333333334
16.0 0.0 8.333333333333334
0.0 0.3333333333333333 8.333333333333334
0.8 0.3333333333333333 8.333333333333334
1.6 0.3333333333333333 8.333333333333334
2.4000000000000004 0.3333333333333333 8.333333333333334
3.2 0.3333333333333333 8.333333333333334
4.0 0.3333333333333333 8.333333333333334
4.800000000000001 0.3333333333333333 8.333333333333334
5.6000000000000005 0.3333333333333333 8.333333333333334
6.4 0.3333333333333333 8.333333333333334
7.2 0.3333333333333333 8.333333333333334
8.0 0.3333333333333333 8.333333333333334
8.8 0.3333333333333333 8.333333333333334
9.600000000000001 0.3333333333333333 8.333333333333334
10.4 0.3333333333333333 8.333333333333334
11.200000000000001 0.3333333333333333 8.333333333333334
12.0 0.3333333333333333 8.333333333333334
12.8 0.3333333333333333 8.333333333333334
13.600000000000001 0.3333333333333333 8.333333333333334
14.4 0.3333333333333333 8.333333333333334
15.200000000000001 0.3333333333333333 8.333333333333334
16.0 0.3333333333333333 8.333333333333334
0.0 0.6666666666666666 8.333333333333334
0.8 0.6666666666666666 8.333333333333334
1.6 0.6666666666666666 8.333333333333334
2.4000000000000004 0.6666666666666666 8.333333333333334
3.2 0.6666666666666666 8.333333333333334
4.0 0.6666666666666666 8.333333333333334
4.800000000000001 0.6666666666666666 8.333333333333334
5.6000000000000005 0.6666666666666666 8.333333333333334
6.4 0.6666666666666666 8.333333333333334
7.2 0.6666666666666666 8.333333333333334
8.0 0.6666666666666666 8.333333333333334
8.8 0.6666666666666666 8.333333333333334
9.600000000000001 0.6666666666666666 8.333333333333334
10.4 0.6666666666666666 8.333333333333334
11.200000000000001 0.6666666666666666 8.333333333333334
12.0 0.6666666666666666 8.333333333333334
12.8 0.6666666666666666 8.333333333333334
13.600000000000001 0.6666666666666666 8.333333333333334
14.4 0.6666666666666666 8.333333333333334
15.200000000000001 0.6666666666666666 8.333333333333334
16.0 0.6666666666666666 8.333333333333334
0.0 1.0 8.333333333333334
0.8 1.0 8.333333333333334
1.6 1.0 8.333333333333334
2.4000000000000004 1.0 8.333333333333334
3.2 1.0 8.333333333333334
4.0 1.0 8.333333333333334
4.800000000000001 1.0 8.333333333333334
5.6000000000000005 1.0 8.333333333333334
6.4 1.0 8.333333333333334
7.2 1.0 8.333333333333334
8.0 1.0 8.333333333333334
8.8 1.0 8.333333333333334
9.600000000000001 1.0 8.333333333333334
10.4 1.0 8.333333333333334
11.200000000000001 1.0 8.333333333333334
12.0 1.0 8.333333333333334
12.8 1.0 8.333333333333334
13.600000000000001 1.0 8.333333333333334
14.4 1.0 8.333333333333334
15.200000000000001 1.0 8.333333333333334
16.0 1.0 8.333333333333334
0.0 1.3333333333333333 8.333333333333334
0.8 1.3333333333333333 8.333333333333334
1.6 1.3333333333333333 8.333333333333334
2.4000000000000004 1.3333333333333333 8.333333333333334
3.2 1.3333333333333333 8.333333333333334
4.0 1.3333333333333333 8.333333333333334
4.800000000000001 1.3333333333333333 8.333333333333334
5.6000000000000005 1.3333333333333333 8.333333333333334
6.4 1.3333333333333333 8.333333333333334
7.2 1.3333333333333333 8.333333333333334
8.0 1.3333333333333333 8.333333333333334
8.8 1.3333333333333333 8.333333333333334
9.600000000000001 1.3333333333333333 8.333333333333334
10.4 1.3333333333333333 8.333333333333334
11.200000000000001 1.3333333333333333 8.333333333333334
12.0 1.3333333333333333 8.333333333333334
12.8 1.3333333333333333 8.333333333333334
13.600000000000001 1.3333333333333333 8.333333333333334
14.4 1.3333333333333333 8.333333333333334
15.200000000000001 1.3333333333333333 8.333333333333334
16.0 1.3333333333333333 8.333333333333334
0.0 1.6666666666666665 8.333333333333334
0.8 1.6666666666666665 8.333333333333334
1.6 1.6666666666666665 8.333333333333334
2.4000000000000004 1.6666666666666665 8.333333333333334
3.2 1.6666666666666665 8.333333333333334
4.0 1.6666666666666665 8.333333333333334
4.800000000000001 1.6666666666666665 8.333333333333334
5.6000000000000005 1.6666666666666665 8.333333333333334
6.4 1.6666666666666665 8.333333333333334
7.2 1.6666666666666665 8.333333333333334
8.0 1.6666666666666665 8.333333333333334
8.8 1.6666666666666665 8.333333333333334
9.600000000000001 1.6666666666666665 8.333333333333334
10.4 1.6666666666666665 8.333333333333334
11.200000000000001 1.6666666666666665 8.333333333333334
12.0 1.6666666666666665 8.333333333333334
12.8 1.6666666666666665 8.333333333333334
13.600000000000001 1.6666666666666665 8.333333333333334
14.4 1.6666666666666665 8.333333333333334
15.200000000000001 1.6666666666666665 8.333333333333334
16.0 1.6666666666666665 8.333333333333334
0.0 2.0 8.333333333333334
0.8 2.0 8.333333333333334
1.6 2.0 8.333333333333334
2.4000000000000004 2.0 8.333333333333334
3.2 2.0 8.333333333333334
4.0 2.0 8.333333333333334
4.800000000000001 2.0 8.333333333333334
5.6000000000000005 2.0 8.333333333333334
6.4 2.0 8.333333333333334
7.2 2.0 8.333333333333334
8.0 2.0 8.333333333333334
8.8 2.0 8.333333333333334
9.600000000000001 2.0 8.333333333333334
10.4 2.0 8.333333333333334
11.200000000000001 2.0 8.333333333333334
12.0 2.0 8.333333333333334
12.8 2.0 8.333333333333334
13.600000000000001 2.0 8.333333333333334
14.4 2.0 8.333333333333334
15.200000000000001 2.0 8.333333333333334
16.0 2.0 8.333333333333334
0.0 0.0 10.0
0.8 0.0 10.0
1.6 0.0 10.0
2.4000000000000004 0.0 10.0
3.2 0.0 10.0
4.0 0.0 10.0
4.800000000000001 0.0 10.0
5.6000000000000005 0.0 10.0
6.4 0.0 10.0
7.2 0.0 10.0
8.0 0.0 10.0
8.8 0.0 10.0
9.600000000000001 0.0 10.0
10.4 0.0 10.0
11.200000000000001 0.0 10.0
12.0 0.0 10.0
12.8 0.0 10.0
13.600000000000001 0.0 10.0
14.4 0.0 10.0
15.200000000000001 0.0 10.0
16.0 0.0 10.0
0.0 0.3333333333333333 10.0
0.8 0.3333333333333333 10.0
1.6 0.3333333333333333 10.0
2.4000000000000004 0.3333333333333333 10.0
3.2 0.3333333333333333 10.0
4.0 0.3333333333333333 10.0
4.800000000000001 0.3333333333333333 10.0
5.6000000000000005 0.3333333333333333 10.0
6.4 0.3333333333333333 10.0
7.2 0.3333333333333333 10.0
8.0 0.3333333333333333 10.0
8.8 0.3333333333333333 10.0
9.600000000000001 0.3333333333333333 10.0
10.4 0.3333333333333333 10.0
11.200000000000001 0.3333333333333333 10.0
12.0 0.3333333333333333 10.0
12.8 0.3333333333333333 10.0
13.600000000000001 0.3333333333333333 10.0
14.4 0.3333333333333333 10.0
15.200000000000001 0.3333333333333333 10.0
16.0 0.3333333333333333 10.0
0.0 0.6666666666666666 10.0
0.8 0.6666666666666666 10.0
1.6 0.6666666666666666 10.0
2.4000000000000004 0.6666666666666666 10.0
3.2 0.6666666666666666 10.0
4.0 0.6666666666666666 10.0
4.800000000000001 0.6666666666666666 10.0
5.6000000000000005 0.6666666666666666 10.0
6.4 0.6666666666666666 10.0
7.2 0.6666666666666666 10.0
8.0 0.6666666666666666 10.0
8.8 0.6666666666666666 10.0
9.600000000000001 0.6666666666666666 10.0
10.4 0.6666666666666666 10.0
11.200000000000001 0.6666666666666666 10.0
12.0 0.6666666666666666 10.0
12.8 0.6666666666666666 10.0
13.600000000000001 0.6666666666666666 10.0
14.4 0.6666666666666666 10.0
15.200000000000001 0.6666666666666666 10.0
16.0 0.6666666666666666 10.0
0.0 1.0 10.0
0.8 1.0 10.0
1.6 1.0 10.0
2.4000000000000004 1.0 10.0
3.2 1.0 10.0
4.0 1.0 10.0
4.800000000000001 1.0 10.0
5.6000000000000005 1.0 10.0
6.4 1.0 10.0
7.2 1.0 10.0
8.0 1.0 10.0
8.8 1.0 10.0
9.600000000000001 1.0 10.0
10.4 1.0 10.0
11.200000000000001 1.0 10.0
12.0 1.0 10.0
12.8 1.0 10.0
13.600000000000001 1.0 10.0
14.4 1.0 10.0
15.200000000000001 1.0 10.0
16.0 1.0 10.0
0.0 1.3333333333333333 10.0
0.8 1.3333333333333333 10.0
1.6 1.3333333333333333 10.0
2.4000000000000004 1.3333333333333333 10.0
3.2 1.3333333333333333 10.0
4.0 1.3333333333333333 10.0
4.800000000000001 1.3333333333333333 10.0
5.6000000000000005 1.3333333333333333 10.0
6.4 1.3333333333333333 10.0
7.2 1.3333333333333333 10.0
8.0 1.3333333333333333 10.0
8.8 1.3333333333333333 10.0
9.600000000000001 1.3333333333333333 10.0
10.4 1.3333333333333333 10.0
11.200000000000001 1.3333333333333333 10.0
12.0 1.3333333333333333 10.0
12.8 1.3333333333333333 10.0
13.600000000000001 1.3333333333333333 10.0
14.4 1.3333333333333333 10.0
15.200000000000001 1.3333333333333333 10.0
16.0 1.3333333333333333 10.0
0.0 1.6666666666666665 10.0
0.8 1.6666666666666665 10.0
1.6 1.6666666666666665 10.0
2.4000000000000004 1.6666666666666665 10.0
3.2 1.6666666666666665 10.0
4.0 1.6666666666666665 10.0
4.800000000000001 1.6666666666666665 10.0
5.6000000000000005 1.6666666666666665 10.0
6.4 1.6666666666666665 10.0
7.2 1.6666666666666665 10.0
8.0 1.6666666666666665 10.0
8.8 1.6666666666666665 10.0
9.600000000000001 1.6666666666666665 10.0
10.4 1.6666666666666665 10.0
11.200000000000001 1.6666666666666665 10.0
12.0 1.6666666666666665 10.0
12.8 1.6666666666666665 10.0
13.600000000000001 1.6666666666666665 10.0
14.4 1.6666666666666665 10.0
15.200000000000001 1.6666666666666665 10.0
16.0 1.6666666666666665 10.0
0.0 2.0 10.0
0.8 2.0 10.0
1.6 2.0 10.0
2.4000000000000004 2.0 10.0
3.2 2.0 10.0
4.0 2.0 10.0
4.800000000000001 2.0 10.0
5.6000000000000005 2.0 10.0
6.4 2.0 10.0
7.2 2.0 10.0
8.0 2.0 10.0
8.8 2.0 10.0
9.600000000000001 2.0 10.0
10.4 2.0 10.0
11.200000000000001 2.0 10.0
12.0 2.0 10.0
12.8 2.0 10.0
13.600000000000001 2.0 10.0
14.4 2.0 10.0
15.200000000000001 2.0 10.0
16.0 2.0 10.0
CELLS 720 6480
8 0 1 22 21 147 148 169 168
8 1 2 23 22 148 149 170 169
8 2 3 24 23 149 150 171 170
8 3 4 25 24 150 151 172 171
8 4 5 26 25 151 152 173 172
8 5 6 27 26 152 153 174 173
8 6 7 28 27 153 154 175 174
8 7 8 29 28 154 155 176 175
8 8 9 30 29 155 156 177 176
8 9 10 31 30 156 157 178 177
8 10 11 32 31 157 158 179 178
8 11 12 33 32 158 159 180 179
8 12 13 34 33 159 160 181 180
8 13 14 35 34 160 161 182 181
8 14 15 36 35 161 162 183 182
8 15 16 37 36 162 163 184 183
8 16 17 38 37 163 164 185 184
8 17 18 39 38 164 165 186 185
8 18 19 40 39 165 166 187 186
8 19 20 41 40 166 167 188 187
8 21 22 43 42 168 169 190 189
8 22 23 44 43 169 170 191 190
8 23 24 45 44 170 171 192 191
8 24 25 46 45 171 172 193 192
8 25 26 47 46 172 173 194 193
8 26 27 48 47 173 174 195 194
8 27 28 49 48 174 175 196 195
8 28 29 50 49 175 176 197 196
8 29 30 51 50 176 177 198 197
8 30 31 52 51 177 178 199 198
8 31 32 53 52 178 179 200 199
8 32 33 54 53 179 180 201 200
8 33 34 55 54 180 181 202 201
8 34 35 56 55 181 182 203 202
8 35 36 57 56 182 183 204 203
8 36 37 58 57 183 184 205 204
8 37 38 59 58 184 185 206 205
8 38 39 60 59 185 186 207 206
8 39 40 61 60 186 187 208 207
8 40 41 62 61 187 188 209 208
8 42 43 64 63 189 190 211 210
8 43 44 65 64 190 191 212 211
8 44 45 66 65 191 192 213 212
8 45 46 67 66 192 193 214 213
8 46 47 68 67 193 194 215 214
8 47 48 69 68 194 195 216 215
8 48 49 70 69 195 196 217 216
8 49 50 71 70 196 197 218 217
8 50 51 72 71 197 198 219 218
8 51 52 73 72 198 199 220 219
8 52 53 74 73 199 200 221 220
8 53 54 75 74 200 201 222 221
8 54 55 76 75 201 202 223 222
8 55 56 77 76 202 203 224 223
8 56 57 78 77 203 204 225 224
8 57 58 79 78 204 205 226 225
8 58 59 80 79 205 206 227 226
8 59 60 81 80 206 207 228 227
8 60 61 82 81 207 208 229 228
8 61 62 83 82 208 209 230 229
8 63 64 85 84 210 211 232 231
8 64 65 86 85 211 212 233 232
8 65 66 87 86 212 213 234 233
8 66 67 88 87 213 214 235 234
8 67 68 89 88 214 215 236 235
8 68 69 90 89 215 216 237 236
8 69 70 91 90 216 217 238 237
8 70 71 92 91 217 218 239 238
8 71 72 93 92 218 219 240 239
8 72 73 94 93 219 220 241 240
8 73 74 95 94 220 221 242 241
8 74 75 96 95 221 222 243 242
8 75 76 97 96 222 223 244 243
8 76 77 98 97 223 224 245 244
8 77 78 99 98 224 225 246 245
8 78 79 100 99 225 226 247 246
8 79 80 101 100 226 227 248 247
8 80 81 102 101 227 228 249 248
8 81 82 103 102 228 229 250 249
8 82 83 104 103 229 230 251 250
8 84 85 106 105 231 232 253 252
8 85 86 107 106 232 233 254 253
8 86 87 108 107 233 234 255 254
8 87 88 109 108 234 235 256 255
8 88 89 110 109 235 236 257 256
8 89 90 111 110 236 237 258 257
8 90 91 112 111 237 238 259 258
8 91 92 113 112 238 239 260 259
8 92 93 114 113 239 240 261 260
8 93 94 115 114 240 241 262 261
8 94 95 116 115 241 242 263 262
8 95 96 117 116 242 243 264 263
8 96 97 118 117 243 244 265 264
8 97 98 119 118 244 245 266 265
8 98 99 120 119 245 246 267 266
8 99 100 121 120 246 247 268 267
8 100 101 122 121 247 248 269 268
8 101 102 123 122 248 249 270 269
8 102 103 124 123 249 250 271 270
8 103 104 125 124 250 251 272 271
8 105 106 127 126 252 253 274 273
8 106 107 128 127 253 254 275 274
8 107 108 129 128 254 255 276 275
8 108 109 130 129 255 256 277 276
8 109 110 131 130 256 257 278 277
8 110 111 132 131 257 258 279 278
8 111 112 133 132 258 259 280 279
8 112 113 134 133 259 260 281 280
8 113 114 135 134 260 261 282 281
8 114 115 136 135 261 262 283 282
8 115 116 137 136 262 263 284 283
8 116 117 138 137 263 264 285 284
8 117 118 139 138 264 265 286 285
8 118 119 140 139 265 266 287 286
8 119 120 141 140 266 267 288 287
8 120 121 142 141 267 268 289 288
8 121 122 143 142 268 269 290 289
8 122 123 144 143 269 270 291 290
8 123 124 145 144 270 271 292 291
8 124 125 146 145 271 272 293 292
8 147 148 169 168 294 295 316 315
8 148 149 170 169 295 296 317 316
8 149 150 171 170 296 297 318 317
8 150 151 172 171 297 298 319 318
8 151 152 173 172 298 299 320 319
8 152 153 174 173 299 300 321 320
8 153 154 175 174 300 301 322 321
8 154 155 176 175 301 302 323 322
8 155 156 177 176 302 303 324 323
8 156 157 178 177 303 304 325 324
8 157 158 179 178 304 305 326 325
8 158 159 180 179 305 306 327 326
8 159 160 181 180 306 307 328 327
8 160 161 182 181 307 308 329 328
8 161 162 183 182 308 309 330 329
8 162 163 184 183 309 310 331 330
8 163 164 185 184 310 311 332 331
8 164 165 186 185 311 312 333 332
8 165 166 187 186 312 313 334 333
8 166 167 188 187 313 314 335 334
8 168 169 190 189 315 316 337 336
8 169 170 191 190 316 317 338 337
8 170 171 192 191 317 318 339 338
8 171 172 193 192 318 319 340 339
8 172 173 194 193 319 320 341 340
8 173 174 195 194 320 321 342 341
8 174 175 196 195 321 322 343 342
8 175 176 197 196 322 323 344 343
8 176 177 198 197 323 324 345 344
8 177 178 199 198 324 325 346 345
8 178 179 200 199 325 326 347 346
8 179 180 201 200 326 327 348 347
8 180 181 202 201 327 328 349 348
8 181 182 203 202 328 329 350 349
8 182 183 204 203 329 330 351 350
8 183 184 205 204 330 331 352 351
8 184 185 206 205 331 332 353 352
8 185 186 207 206 332 333 354 353
8 186 187 208 207 333 334 355 354
8 187 188 209 208 334 335 356 355
8 189 190 211 210 336 337 358 357
8 190 191 212 211 337 338 359 358
8 191 192 213 212 338 339 360 359
8 192 193 214 213 339 340 361 360
8 193 194 215 214 340 341 362 361
8 194 195 216 215 341 342 363 362
8 195 196 217 216 342 343 364 363
8 196 197 218 217 343 344 365 364
8 197 198 219 218 344 345 366 365
8 198 199 220 219 345 346 367 366
8 199 200 221 220 346 347 368 367
8 200 201 222 221 347 348 369 368
8 201 202 223 222 348 349 370 369
8 202 203 224 223 349 350 371 370
8 203 204 225 224 350 351 372 371
8 204 205 226 225 351 352 373 372
8 205 206 227 226 352 353 374 373
8 206 207 228 227 353 354 375 374
8 207 208 229 228 354 355 376 375
8 208 209 230 229 355 356 377 376
8 210 211 232 231 357 358 379 378
8 211 212 233 232 358 359 380 379
8 212 213 234 233 359 360 381 380
8 213 214 235 234 360 361 382 381
8 214 215 236 235 361 362 383 382
8 215 216 237 236 362 363 384 383
8 216 217 238 237 363 364 385 384
8 217 218 239 238 364 365 386 385
8 218 219 240 239 365 366 387 386
8 219 220 241 240 366 367 388 387
8 220 221 242 241 367 368 389 388
8 221 222 243 242 368 369 390 389
8 222 223 244 243 369 370 391 390
8 223 224 245 244 370 371 392 391
8 224 225 246 245 371 372 393 392
8 225 226 247 246 372 373 394 393
8 226 227 248 247 373 374 395 394
8 227 228 249 248 374 375 396 395
8 228 229 250 249 375 376 397 396
8 229 230 251 250 376 377 398 397
8 231 232 253 252 378 379 400 399
8 232 233 254 253 379 380 401 400
8 233 234 255 254 380 381 402 401
8 234 235 256 255 381 382 403 402
8 235 236 257 256 382 383 404 403
8 236 237 258 257 383 384 405 404
8 237 238 259 258 384 385 406 405
8 238 239 260 259 385 386 407 406
8 239 240 261 260 386 387 408 407
8 240 241 262 261 387 388 409 408
8 241 242 263 262 388 389 410 409
8 242 243 264 263 389 390 411 410
8 243 244 265 264 390 391 412 411
8 244 245 266 265 391 392 413 412
8 245 246 267 266 392 393 414 413
8 246 247 268 267 393 394 415 414
8 247 248 269 268 394 395 416 415
8 248 249 270 269 395 396 417 416
8 249 250 271 270 396 397 418 417
8 250 251 272 271 397 398 419 418
8 252 253 274 273 399 400 421 420
8 253 254 275 274 400 401 422 421
8 254 255 276 275 401 402 423 422
8 255 256 277 276 402 403 424 423
8 256 257 278 277 403 404 425 424
8 257 258 279 278 404 405 426 425
8 258 259 280 279 405 406 427 426
8 259 260 281 280 406 407 428 427
8 260 261 282 281 407 408 429 428
8 261 262 283 282 408 409 430 429
8 262 263 284 283 409 410 431 430
8 263 264 285 284 410 411 432 431
8 264 265 286 285 411 412 433 432
8 265 266 287 286 412 413 434 433
8 266 267 288 287 413 414 435 434
8 267 268 289 288 414 415 436 435
8 268 269 290 289 415 416 437 436
8 269 270 291 290 416 417 438 437
8 270 271 292 291 417 418 439 438
8 271 272 293 292 418 419 440 439
8 294 295 316 315 441 442 463 462
8 295 296 317 316 442 443 464 463
8 296 297 318 317 443 444 465 464
8 297 298 319 318 444 445 466 465
8 298 299 320 319 445 446 467 466
8 299 300 321 320 446 447 468 467
8 300 301 322 321 447 448 469 468
8 301 302 323 322 448 449 470 469
8 302 303 324 323 449 450 471 470
8 303 304 325 324 450 451 472 471
8 304 305 326 325 451 452 473 472
8 305 306 327 326 452 453 474 473
8 306 307 328 327 453 454 475 474
8 307 308 329 328 454 455 476 475
8 308 309 330 329 455 456 477 476
8 309 310 331 330 456 457 478 477
8 310 311 332 331 457 458 479 478
8 311 312 333 332 458 459 480 479
8 312 313 334 333 459 460 481 480
8 313 314 335 334 460 461 482 481
8 315 316 337 336 462 463 484 483
8 316 317 338 337 463 464 485 484
8 317 318 339 338 464 465 486 485
8 318 319 340 339 465 466 487 486
8 319 320 341 340 466 467 488 487
8 320 321 342 341 467 468 489 488
8 321 322 343 342 468 469 490 489
8 322 323 344 343 469 470 491 490
8 323 324 345 344 470 471 492 491
8 324 325 346 345 471 472 493 492
8 325 326 347 346 472 473 494 493
8 326 327 348 347 473 474 495 494
8 327 328 349 348 474 475 496 495
8 328 329 350 349 475 476 497 496
8 329 330 351 350 476 477 498 497
8 330 331 352 351 477 478 499 498
8 331 332 353 352 478 479 500 499
8 332 333 354 353 479 480 501 500
8 333 334 355 354 480 481 502 501
8 334 335 356 355 481 482 503 502
8 336 337 358 357 483 484 505 504
8 337 338 359 358 484 485 506 505
8 338 339 360 359 485 486 507 506
8 339 340 361 360 486 487 508 507
8 340 341 362 361 487 488 509 508
8 341 342 363 362 488 489 510 509
8 342 343 364 363 489 490 511 510
8 343 344 365 364 490 491 512 511
8 344 345 366 365 491 492 513 512
8 345 346 367 366 492 493 514 513
8 346 347 368 367 493 494 515 514
8 347 348 369 368 494 495 516 515
8 348 349 370 369 495 496 517 516
8 349 350 371 370 496 497 518 517
8 350 351 372 371 497 498 519 518
8 351 352 373 372 498 499 520 519
8 352 353 374 373 499 500 521 520
8 353 354 375 374 500 501 522 521
8 354 355 376 375 501 502 523 522
8 355 356 377 376 502 503 524 523
8 357 358 379 378 504 505 526 525
8 358 359 380 379 505 506 527 526
8 359 360 381 380 506 507 528 527
8 360 361 382 381 507 508 529 528
8 361 362 383 382 508 509 530 529
8 362 363 384 383 509 510 531 530
8 363 364 385 384 510 511 532 531
8 364 365 386 385 511 512 533 532
8 365 366 387 386 512 513 534 533
8 366 367 388 387 513 514 535 534
8 367 368 389 388 514 515 536 535
8 368 369 390 389 515 516 537 536
8 369 370 391 390 516 517 538 537
8 370 371 392 391 517 518 539 538
8 371 372 393 392 518 519 540 539
8 372 373 394 393 519 520 541 540
8 373 374 395 394 520 521 542 541
8 374 375 396 395 521 522 543 542
8 375 376 397 396 522 523 544 543
8 376 377 398 397 523 524 545 544
8 378 379 400 399 525 526 547 546
8 379 380 401 400 526 527 548 547
8 380 381 402 401 527 528 549 548
8 381 382 403 402 528 529 550 549
8 382 383 404 403 529 530 551 550
8 383 384 405 404 530 531 552 551
8 384 385 406 405 531 532 553 552
8 385 386 407 406 532 533 554 553
8 386 387 408 407 533 534 555 554
8 387 388 409 408 534 535 556 555
8 388 389 410 409 535 536 557 556
8 389 390 411 410 536 537 558 557
8 390 391 412 411 537 538 559 558
8 391 392 413 412 538 539 560 559
8 392 393 414 413 539 540 561 560
8 393 394 415 414 540 541 562 561
8 394 395 416 415 541 542 563 562
8 395 396 417 416 542 543 564 563
8 396 397 418 417 543 544 565 564
8 397 398 419 418 544 545 566 565
8 399 400 421 420 546 547 568 567
8 400 401 422 421 547 548 569 568
8 401 402 423 422 548 549 570 569
8 402 403 424 423 549 550 571 570
8 403 404 425 424 550 551 572 571
8 404 405 426 425 551 552 573 572
8 405 406 427 426 552 553 574 573
8 406 407 428 427 553 554 575 574
8 407 408 429 428 554 555 576 575
8 408 409 430 429 555 556 577 576
8 409 410 431 430 556 557 578 577
8 410 411 432 431 557 558 579 578
8 411 412 433 432 558 559 580 579
8 412 413 434 433 559 560 581 580
8 413 414 435 434 560 561 582 581
8 414 415 436 435 561 562 583 582
8 415 416 437 436 562 563 584 583
8 416 417 438 437 563 564 585 584
8 417 418 439 438 564 565 586 585
8 418 419 440 439 565 566 587 586
8 441 442 463 462 588 589 610 609
8 442 443 464 463 589 590 611 610
8 443 444 465 464 590 591 612 611
8 444 445 466 465 591 592 613 612
8 445 446 467 466 592 593 614 613
8 446 447 468 467 593 594 615 614
8 447 448 469 468 594 595 616 615
8 448 449 470 469 595 596 617 616
8 449 450 471 470 596 597 618 617
8 450 451 472 471 597 598 619 618
8 451 452 473 472 598 599 620 619
8 452 453 474 473 599 600 621 620
8 453 454 475 474 600 601 622 621
8 454 455 476 475 601 602 623 622
8 455 456 477 476 602 603 624 623
8 456 457 478 477 603 604 625 624
8 457 458 479 478 604 605 626 625
8 458 459 480 479 605 606 627 626
8 459 460 481 480 606 607 628 627
8 460 461 482 481 607 608 629 628
8 462 463 484 483 609 610 631 630
8 463 464 485 484 610 611 632 631
8 464 465 486 485 611 612 633 632
8 465 466 487 486 612 613 634 633
8 466 467 488 487 613 614 635 634
8 467 468 489 488 614 615 636 635
8 468 469 490 489 615 616 637 636
8 469 470 491 490 616 617 638 637
8 470 471 492 491 617 618 639 638
8 471 472 493 492 618 619 640 639
8 472 473 494 493 619 620 641 640
8 473 474 495 494 620 621 642 641
8 474 475 496 495 621 622 643 642
8 475 476 497 496 622 623 644 643
8 476 477 498 497 623 624 645 644
8 477 478 499 498 624 625 646 645
8 478 479 500 499 625 626 647 646
8 479 480 501 500 626 627 648 647
8 480 481 502 501 627 628 649 648
8 481 482 503 502 628 629 650 649
8 483 484 505 504 630 631 652 651
8 484 485 506 505 631 632 653 652
8 485 486 507 506 632 633 654 653
8 486 487 508 507 633 634 655 654
8 487 488 509 508 634 635 656 655
8 488 489 510 509 635 636 657 656
8 489 490 511 510 636 637 658 657
8 490 491 512 511 637 638 659 658
8 491 492 513 512 638 639 660 659
8 492 493 514 513 639 640 661 660
8 493 494 515 514 640 641 662 661
8 494 495 516 515 641 642 663 662
8 495 496 517 516 642 643 664 663
8 496 497 518 517 643 644 665 664
8 497 498 519 518 644 645 666 665
8 498 499 520 519 645 646 667 666
8 499 500 521 520 646 647 668 667
8 500 501 522 521 647 648 669 668
8 501 502 523 522 648 649 670 669
8 502 503 524 523 649 650 671 670
8 504 505 526 525 651 652 673 672
8 505 506 527 526 652 653 674 673
8 506 507 528 527 653 654 675 674
8 507 508 529 528 654 655 676 675
8 508 509 530 529 655 656 677 676
8 509 510 531 530 656 657 678 677
8 510 511 532 531 657 658 679 678
8 511 512 533 532 658 659 680 679
8 512 513 534 533 659 660 681 680
8 513 514 535 534 660 661 682 681
8 514 515 536 535 661 662 683 682
8 515 516 537 536 662 663 684 683
8 516 517 538 537 663 664 685 684
8 517 518 539 538 664 665 686 685
8 518 519 540 539 665 666 687 686
8 519 520 541 540 666 667 688 687
8 520 521 542 541 667 668 689 688
8 521 522 543 542 668 669 690 689
8 522 523 544 543 669 670 691 690
8 523 524 545 544 670 671 692 691
8 525 526 547 546 672 673 694 693
8 526 527 548 547 673 674 695 694
8 527 528 549 548 674 675 696 695
8 528 529 550 549 675 676 697 696
8 529 530 551 550 676 677 698 697
8 530 531 552 551 677 678 699 698
8 531 532 553 552 678 679 700 699
8 532 533 554 553 679 680 701 700
8 533 534 555 554 680 681 702 701
8 534 535 556 555 681 682 703 702
8 535 536 557 556 682 683 704 703
8 536 537 558 557 683 684 705 704
8 537 538 559 558 684 685 706 705
8 538 539 560 559 685 686 707 706
8 539 540 561 560 686 687 708 707
8 540 541 562 561 687 688 709 708
8 541 542 563 562 688 689 710 709
8 542 543 564 563 689 690 711 710
8 543 544 565 564 690 691 712 711
8 544 545 566 565 691 692 713 712
8 546 547 568 567 693 694 715 714
8 547 548 569 568 694 695 716 715
8 548 549 570 569 695 696 717 716
8 549 550 571 570 696 697 718 717
8 550 551 572 571 697 698 719 718
8 551 552 573 572 698 699 720 719
8 552 553 574 573 699 700 721 720
8 553 554 575 574 700 701 722 721
8 554 555 576 575 701 702 723 722
8 555 556 577 576 702 703 724 723
8 556 557 578 577 703 704 725 724
8 557 558 579 578 704 705 726 725
8 558 559 580 579 705 706 727 726
8 559 560 581 580 706 707 728 727
8 560 561 582 581 707 708 729 728
8 561 562 583 582 708 709 730 729
8 562 563 584 583 709 710 731 730
8 563 564 585 584 710 711 732 731
8 564 565 586 585 711 712 733 732
8 565 566 587 586 712 713 734 733
8 588 589 610 609 735 736 757 756
8 589 590 611 610 736 737 758 757
8 590 591 612 611 737 738 759 758
8 591 592 613 612 738 739 760 759
8 592 593 614 613 739 740 761 760
8 593 594 615 614 740 741 762 761
8 594 595 616 615 741 742 763 762
8 595 596 617 616 742 743 764 763
8 596 597 618 617 743 744 765 764
8 597 598 619 618 744 745 766 765
8 598 599 620 619 745 746 767 766
8 599 600 621 620 746 747 768 767
8 600 601 622 621 747 748 769 768
8 601 602 623 622 748 749 770 769
8 602 603 624 623 749 750 771 770
8 603 604 625 624 750 751 772 771
8 604 605 626 625 751 752 773 772
8 605 606 627 626 752 753 774 773
8 606 607 628 627 753 754 775 774
8 607 608 629 628 754 755 776 775
8 609 610 631 630 756 757 778 777
8 610 611 632 631 757 758 779 778
8 611 612 633 632 758 759 780 779
8 612 613 634 633 759 760 781 780
8 613 614 635 634 760 761 782 781
8 614 615 636 635 761 762 783 782
8 615 616 637 636 762 763 784 783
8 616 617 638 637 763 764 785 784
8 617 618 639 638 764 765 786 785
8 618 619 640 639 765 766 787 786
8 619 620 641 640 766 767 788 787
8 620 621 642 641 767 768 789 788
8 621 622 643 642 768 769 790 789
8 622 623 644 643 769 770 791 790
8 623 624 645 644 770 771 792 791
8 624 625 646 645 771 772 793 792
8 625 626 647 646 772 773 794 793
8 626 627 648 647 773 774 795 794
8 627 628 649 648 774 775 796 795
8 628 629 650 649 775 776 797 796
8 630 631 652 651 777 778 799 798
8 631 632 653 652 778 779 800 799
8 632 633 654 653 779 780 801 800
8 633 634 655 654 780 781 802 801
8 634 635 656 655 781 782 803 802
8 635 636 657 656 782 783 804 803
8 636 637 658 657 783 784 805 804
8 637 638 659 658 784 785 806 805
8 638 639 660 659 785 786 807 806
8 639 640 661 660 786 787 808 807
8 640 641 662 661 787 788 809 808
8 641 642 663 662 788 789 810 809
8 642 643 664 663 789 790 811 810
8 643 644 665 664 790 791 812 811
8 644 645 666 665 791 792 813 812
8 645 646 667 666 792 793 814 813
8 646 647 668 667 793 794 815 814
8 647 648 669 668 794 795 816 815
8 648 649 670 669 795 796 817 816
8 649 650 671 670 796 797 818 817
8 651 652 673 672 798 799 820 819
8 652 653 674 673 799 800 821 820
8 653 654 675 674 800 801 822 821
8 654 655 676 675 801 802 823 822
8 655 656 677 676 802 803 824 823
8 656 657 678 677 803 804 825 824
8 657 658 679 678 804 805 826 825
8 658 659 680 679 805 806 827 826
8 659 660 681 680 806 807 828 827
8 660 661 682 681 807 808 829 828
8 661 662 683 682 808 809 830 829
8 662 663 684 683 809 810 831 830
8 663 664 685 684 810 811 832 831
8 664 665 686 685 811 812 833 832
8 665 666 687 686 812 813 834 833
8 666 667 688 687 813 814 835 834
8 667 668 689 688 814 815 836 835
8 668 669 690 689 815 816 837 836
8 669 670 691 690 816 817 838 837
8 670 671 692 691 817 818 839 838
8 672 673 694 693 819 820 841 840
8 673 674 695 694 820 821 842 841
8 674 675 696 695 821 822 843 842
8 675 676 697 696 822 823 844 843
8 676 677 698 697 823 824 845 844
8 677 678 699 698 824 825 846 845
8 678 679 700 699 825 826 847 846
8 679 680 701 700 826 827 848 847
8 680 681 702 701 827 828 849 848
8 681 682 703 702 828 829 850 849
8 682 683 704 703 829 830 851 850
8 683 684 705 704 830 831 852 851
8 684 685 706 705 831 832 853 852
8 685 686 707 706 832 833 854 853
8 686 687 708 707 833 834 855 854
8 687 688 709 708 834 835 856 855
8 688 689 710 709 835 836 857 856
8 689 690 711 710 836 837 858 857
8 690 691 712 711 837 838 859 858
8 691 692 713 712 838 839 860 859
8 693 694 715 714 840 841 862 861
8 694 695 716 715 841 842 863 862
8 695 696 717 716 842 843 864 863
8 696 697 718 717 843 844 865 864
8 697 698 719 718 844 845 866 865
8 698 699 720 719 845 846 867 866
8 699 700 721 720 846 847 868 867
8 700 701 722 721 847 848 869 868
8 701 702 723 722 848 849 870 869
8 702 703 724 723 849 850 871 870
8 703 704 725 724 850 851 872 871
8 704 705 726 725 851 852 873 872
8 705 706 727 726 852 853 874 873
8 706 707 728 727 853 854 875 874
8 707 708 729 728 854 855 876 875
8 708 709 730 729 855 856 877 876
8 709 710 731 730 856 857 878 877
8 710 711 732 731 857 858 879 878
8 711 712 733 732 858 859 880 879
8 712 713 734 733 859 860 881 880
8 735 736 757 756 882 883 904 903
8 736 737 758 757 883 884 905 904
8 737 738 759 758 884 885 906 905
8 738 739 760 759 885 886 907 906
8 739 740 761 760 886 887 908 907
8 740 741 762 761 887 888 909 908
8 741 742 763 762 888 889 910 909
8 742 743 764 763 889 890 911 910
8 743 744 765 764 890 891 912 911
8 744 745 766 765 891 892 913 912
8 745 746 767 766 892 893 914 913
8 746 747 768 767 893 894 915 914
8 747 748 769 768 894 895 916 915
8 748 749 770 769 895 896 917 916
8 749 750 771 770 896 897 918 917
8 750 751 772 771 897 898 919 918
8 751 752 773 772 898 899 920 919
8 752 753 774 773 899 900 921 920
8 753 754 775 774 900 901 922 921
8 754 755 776 775 901 902 923 922
8 756 757 778 777 903 904 925 924
8 757 758 779 778 904 905 926 925
8 758 759 780 779 905 906 927 926
8 759 760 781 780 906 907 928 927
8 760 761 782 781 907 908 929 928
8 761 762 783 782 908 909 930 929
8 762 763 784 783 909 910 931 930
8 763 764 785 784 910 911 932 931
8 764 765 786 785 911 912 933 932
8 765 766 787 786 912 913 934 933
8 766 767 788 787 913 914 935 934
8 767 768 789 788 914 915 936 935
8 768 769 790 789 915 916 937 936
8 769 770 791 790 916 917 938 937
8 770 771 792 791 917 918 939 938
8 771 772 793 792 918 919 940 939
8 772 773 794 793 919 920 941 940
8 773 774 795 794 920 921 942 941
8 774 775 796 795 921 922 943 942
8 775 776 797 796 922 923 944 943
8 777 778 799 798 924 925 946 945
8 778 779 800 799 925 926 947 946
8 779 780 801 800 926 927 948 947
8 780 781 802 801 927 928 949 948
8 781 782 803 802 928 929 950 949
8 782 783 804 803 929 930 951 950
8 783 784 805 804 930 931 952 951
8 784 785 806 805 931 932 953 952
8 785 786 807 806 932 933 954 953
8 786 787 808 807 933 934 955 954
8 787 788 809 808 934 935 956 955
8 788 789 810 809 935 936 957 956
8 789 790 811 810 936 937 958 957
8 790 791 812 811 937 938 959 958
8 791 792 813 812 938 939 960 959
8 792 793 814 813 939 940 961 960
8 793 794 815 814 940 941 962 961
8 794 795 816 815 941 942 963 962
8 795 796 817 816 942 943 964 963
8 796 797 818 817 943 944 965 964
8 798 799 820 819 945 946 967 966
8 799 800 821 820 946 947 968 967
8 800 801 822 821 947 948 969 968
8 801 802 823 822 948 949 970 969
8 802 803 824 823 949 950 971 970
8 803 804 825 824 950 951 972 971
8 804 805 826 825 951 952 973 972
8 805 806 827 826 952 953 974 973
8 806 807 828 827 953 954 975 974
8 807 808 829 828 954 955 976 975
8 808 809 830 829 955 956 977 976
8 809 810 831 830 956 957 978 977
8 810 811 832 831 957 958 979 978
8 811 812 833 832 958 959 980 979
8 812 813 834 833 959 960 981 980
8 813 814 835 834 960 961 982 981
8 814 815 836 835 961 962 983 982
8 815 816 837 836 962 963 984 983
8 816 817 838 837 963 964 985 984
8 817 818 839 838 964 965 986 985
8 819 820 841 840 966 967 988 987
8 820 821 842 841 967 968 989 988
8 821 822 843 842 968 969 990 989
8 822 823 844 843 969 970 991 990
8 823 824 845 844 970 971 992 991
8 824 825 846 845 971 972 993 992
8 825 826 847 846 972 973 994 993
8 826 827 848 847 973 974 995 994
8 827 828 849 848 974 975 996 995
8 828 829 850 849 975 976 997 996
8 829 830 851 850 976 977 998 997
8 830 831 852 851 977 978 999 998
8 831 832 853 852 978 979 1000 999
8 832 833 854 853 979 980 1001 1000
8 833 834 855 854 980 981 1002 1001
8 834 835 856 855 981 982 1003 1002
8 835 836 857 856 982 983 1004 1003
8 836 837 858 857 983 984 1005 1004
8 837 838 859 858 984 985 1006 1005
8 838 839 860 859 985 986 1007 1006
8 840 841 862 861 987 988 1009 1008
8 841 842 863 862 988 989 1010 1009
8 842 843 864 863 989 990 1011 1010
8 843 844 865 864 990 991 1012 1011
8 844 845 866 865 991 992 1013 1012
8 845 846 867 866 992 993 1014 1013
8 846 847 868 867 993 994 1015 1014
8 847 848 869 868 994 995 1016 1015
8 848 849 870 869 995 996 1017 1016
8 849 850 871 870 996 997 1018 1017
8 850 851 872 871 997 998 1019 1018
8 851 852 873 872 998 999 1020 1019
8 852 853 874 873 999 1000 1021 1020
8 853 854 875 874 1000 1001 1022 1021
8 854 855 876 875 1001 1002 1023 1022
8 855 856 877 876 1002 1003 1024 1023
8 856 857 878 877 1003 1004 1025 1024
8 857 858 879 878 1004 1005 1026 1025
8 858 859 880 879 1005 1006 1027 1026
8 859 860 881 880 1006 1007 1028 1027
CELL_TYPES 720
12
12
12
12
12
12
12
12
12
12
12
12
12
12
12
12
12
12
12
12
12
12
12
12
12
12
12
12
12
12
12
12
12
12
12
12
12
12
12
12
12
12
12
12
12
12
12
12
12
12
12
12
12
12
12
12
12
12
12
12
12
12
12
12
12
12
12
12
12
12
12
12
12
12
12
12
12
12
12
12
12
12
12
12
12
12
12
12
12
12
12
12
12
12
12
12
12
12
12
12
12
12
12
12
12
12
12
12
12
12
12
12
12
12
12
12
12
12
12
12
12
12
12
12
12
12
12
12
12
12
12
12
12
12
12
12
12
12
12
12
12
12
12
12
12
12
12
12
12
12
12
12
12
12
12
12
12
12
12
12
12
12
12
12
12
12
12
12
12
12
12
12
12
12
12
12
12
12
12
12
12
12
12
12
12
12
12
12
12
12
12
12
12
12
12
12
12
12
12
12
12
12
12
12
12
12
12
12
12
12
12
12
12
12
12
12
12
12
12
12
12
12
12
12
12
12
12
12
12
12
12
12
12
12
12
12
12
12
12
12
12
12
12
12
12
12
12
12
12
12
12
12
12
12
12
12
12
12
12
12
12
12
12
12
12
12
12
12
12
12
12
12
12
12
12
12
12
12
12
12
12
12
12
12
12
12
12
12
12
12
12
12
12
12
12
12
12
12
12
12
12
12
12
12
12
12
12
12
12
12
12
12
12
12
12
12
12
12
12
12
12
12
12
12
12
12
12
12
12
12
12
12
12
12
12
12
12
12
12
12
12
12
12
12
12
12
12
12
12
12
12
12
12
12
12
12
12
12
12
12
12
12
12
12
12
12
12
12
12
12
12
12
12
12
12
12
12
12
12
12
12
12
12
12
12
12
12
12
12
12
12
12
12
12
12
12
12
12
12
12
12
12
12
12
12
12
12
12
12
12
12
12
12
12
12
12
12
12
12
12
12
12
12
12
12
12
12
12
12
12
12
12
12
12
12
12
12
12
12
12
12
12
12
12
12
12
12
12
12
12
12
12
12
12
12
12
12
12
12
12
12
12
12
12
12
12
12
12
12
12
12
12
12
12
12
12
12
12
12
12
12
12
12
12
12
12
12
12
12
12
12
12
12
12
12
12
12
12
12
12
12
12
12
12
12
12
12
12
12
12
12
12
12
12
12
12
12
12
12
12
12
12
12
12
12
12
12
12
12
12
12
12
12
12
12
12
12
12
12
12
12
12
12
12
12
12
12
12
12
12
12
12
12
12
12
12
12
12
12
12
12
12
12
12
12
12
12
12
12
12
12
12
12
12
12
12
12
12
12
12
12
12
12
12
12
12
12
12
12
12
12
12
12
12
12
12
12
12
12
12
12
12
12
12
12
12
12
12
12
12
12
12
12
12
12
12
12
12
12
12
12
12
12
12
12
12
12
12
12
12
12
12
12
12
12
12
12
12
12
12
12
12
12
12
12
12
12
12
12
12
12
12
12
12
12
12
12
12
12
12
12
12
12
12
12
12
12
12
12
12
12
12
12
12
12
12
12
12
12
12
12
12
12
12
12
12
12
12
12
12
12
12
12
12
12
12
12
12
12
12
12
12
12
12
12
12
12
12
12
12
12
12
12
12
12
12
12
12
12
12
POINT_DATA 1029
VECTORS Disp float
0.0 0.0 0.0
0.03475655795085284 -1.2603246103294783 0.03016737482946146
0.08369614818579636 -2.3749555298240024 0.06495667734287239
0.15138331416835651 -3.448621213015775 0.09273771950502642
0.24770636326544976 -4.4522127180876225 0.11791131513666771
0.3740162528484052 -5.362068415589521 0.13872472674481914
0.5297916239347733 -6.153187190339297 0.1543121904154554
0.7140901546333244 -6.8013919363672635 0.16356637247560055
0.9243932068551036 -7.2831138860634645 0.16571217847362105
1.154444042952766 -7.57823056260283 0.1620176541764725
1.393871264054468 -7.676567470479176 0.15867394875378818
1.6333835769530434 -7.5796704715943335 0.16215088071830838
1.863706289382702 -7.286027287467251 0.1660253682407231
2.0745200435332083 -6.805840158649846 0.16416289825863403
2.259662453255409 -6.159243713227986 0.1553700128124349
2.4167642161816776 -5.369780894358946 0.14052942341091063
2.545092519333742 -4.461536399322414 0.12086764392577834
2.6444236206083898 -3.4593039585527516 0.09754354825182276
2.716491986213131 -2.386504524688954 0.07204811677764206
2.7729886752028077 -1.2718104230335554 0.042833137360940673
2.8258830934451553 0.0 -0.0002445561348526606
0.4946459048959716 -0.05381922584748288 -0.015839360266348187
0.5159949961613407 -1.254729995723752 0.01580346944187043
0.5332062821070664 -2.3825436519100025 0.04114908313536862
0.5775608876219704 -3.4575352326060864 0.06263012361379805
0.6401356359239754 -4.465034453178305 0.08060878610488313
0.7227555043434217 -5.378317313711278 0.09540194810630644
0.8249475334177018 -6.172896510831608 0.10636432458567721
0.9460632110311302 -6.8244211473465 0.1129905993528625
1.0844502318773335 -7.30902606622655 0.11493323030255889
1.2360819967698085 -7.605819570975616 0.11298862402064995
1.394130636896665 -7.704251714445756 0.1109202383162796
1.552269256954477 -7.607283173106441 0.11294276940618865
1.7041863488714268 -7.311991280600969 0.1148812651870127
1.8431014708327063 -6.8289586396568405 0.11302260464408852
1.965071559917596 -6.179094622784731 0.10664338202809974
2.0685702158967763 -5.386246336523043 0.09619318857434166
2.1531268549082063 -4.4746756549741 0.08234236248302698
2.218489934901033 -3.4686740933448874 0.06587985907933396
2.266883112473643 -2.394747258291362 0.047040892582448035
2.2898530958367607 -1.2671252504274668 0.024417612109727968
2.3142889431225235 -0.05679580488125267 -0.006387966260741309
0.9616192910301543 -0.09344400839825083 -0.025884385498392806
0.9726277733090302 -1.2528524130220169 -0.0014007455209266444
0.9745485760916535 -2.384264269787903 0.016693930267085565
0.9917587277349876 -3.4629202500767637 0.03003275173787471
1.021317883838556 -4.472388535544542 0.040238801867988054
1.0610879120174697 -5.387841001334697 0.048028544621826694
1.1110148918923413 -6.1844801559324525 0.05344985092200691
1.1708506814507063 -6.838073792903145 0.05639206806481489
1.2401544909682818 -7.324463375053639 0.056798970034745475
1.3165364185042543 -7.621615638288912 0.054810606042633624
1.394336292317527 -7.718373351778169 0.05256896420222968
1.4722278736630423 -7.623104850307827 0.05458597124137314
1.548898830552968 -7.327483724473303 0.056381796304263765
1.6187310226189864 -6.842703826605276 0.055858570575918434
1.679405437249384 -6.1908204609881725 0.05294467695634684
1.7305835171493638 -5.395979390363562 0.04780491639043753
1.7721514607709554 -4.482329761068459 0.04070813189754127
1.8042154826941856 -3.474460370835278 0.03184645370395563
1.8247733696931832 -2.396999112572597 0.02076576247547096
1.8294311108660057 -1.264810505070309 0.00546432691608209
1.8417676889611139 -0.09802916545153711 -0.01626687063002112
1.4148671512659055 -0.11883845125965715 -0.03485566389639115
1.4178254534525774 -1.253170747101528 -0.01813348766329457
1.4081203360401022 -2.3828343277734216 -0.00801738592293943
1.4008821713580641 -3.4639842302827915 -0.0033049520808765753
1.3970425586044286 -4.474598513642124 -0.0013352993156712776
1.3944574977003215 -5.390804767900825 -0.0008903746960027857
1.392707168581131 -6.188214879173973 -0.001423977448695167
1.3920589999299293 -6.842708493255393 -0.0026417961197190863
1.3935113829561232 -7.329971351757907 -0.0042704570524480425
1.3964525558389336 -7.625829261829294 -0.00663090420656353
1.394519740288842 -7.717505011183099 -0.009480587629045769
1.392679020952161 -7.6273452306447584 -0.007035639273203764
1.3959087536142945 -7.333048668789878 -0.005055932121348403
1.3978822832203908 -6.8474324079089 -0.0037468528385285194
1.3980453658787155 -6.194695580610509 -0.0027224730715546203
1.3974713827343876 -5.399144401592911 -0.0021465177371046977
1.3965123696966402 -4.484815215422436 -0.002138727089073311
1.3948297663859237 -3.4758905920579206 -0.002991228659155274
1.3899592642119944 -2.395723441009768 -0.005687803376150434
1.3817156491224405 -1.2646525278369065 -0.012994274275634817
1.385406606927364 -0.12461412666368736 -0.026747880328901942
1.8644017868333327 -0.13243233947200128 -0.04407463620646614
1.8602509551814264 -1.2536789761296578 -0.0340227262832144
1.8397889009057435 -2.379334763779527 -0.0323219929731198
1.8099306054163753 -3.461021584412791 -0.036454524068561894
1.7729584027407697 -4.471582097033761 -0.042835095660492054
1.7278616665488555 -5.38727415620574 -0.049759371425110485
1.6745089196493101 -6.184144723105328 -0.05627514466588661
1.6132246208440726 -6.838310780295808 -0.06169872539242399
1.5463622828167913 -7.325808712945334 -0.06527639289399163
1.47676402673454 -7.619169323939278 -0.06684460448679441
1.3947081351040136 -7.699513287347474 -0.0694015716926995
1.312745151269238 -7.620712966037853 -0.06743241830739216
1.2434361895917048 -7.328944423734569 -0.06643681293804572
1.177089654661314 -6.843129365120379 -0.06338685221961
1.116591641249705 -6.190763763246715 -0.05838548412226307
1.0643406452433126 -5.395803798876204 -0.05207480174837931
1.0206909674327582 -4.482052676892084 -0.04495131666812483
0.9854496488336766 -3.473203612446328 -0.03769312386192877
0.9572016586524634 -2.3922517842494444 -0.03172198415769727
0.9375751188044802 -1.264857916178068 -0.030654607724648432
0.9338243204300576 -0.1389642722320357 -0.03773897447318708
2.3169433645749056 -0.13751865022559484 -0.054004317183680525
2.30718678976498 -1.2531538690879889 -0.049015248170484436
2.276380755769417 -2.3740813796875493 -0.05566864720966544
2.224685804994681 -3.454322318039792 -0.06851077676040962
2.1544620871031817 -4.463292399230334 -0.08298828915202677
2.0663827097267977 -5.377164694284581 -0.09696094139827241
1.9607400936963355 -6.172292181976583 -0.1091284272056132
1.8384094725671483 -6.824610467697509 -0.11835310606876201
1.700218330679989 -7.311677971937448 -0.12351925763592057
1.5569571479817235 -7.603521252374558 -0.12176116143128198
1.3949290680532143 -7.661135901004461 -0.11934876317752008
1.2329970685734712 -7.6050938201254334 -0.12253660014647803
1.0900330262648892 -7.314874143512466 -0.12506457246711478
0.9523644014846414 -6.829525582591846 -0.12064142205513478
0.8308123846856824 -6.179048361438287 -0.1120774571347409
0.72622105564818 -5.3858748197542825 -0.10037581110422344
0.6394234987559262 -4.473981606388137 -0.08647574042570548
0.5705229316007058 -3.4667035217543334 -0.0713702926139209
0.5198052393793535 -2.387013510516836 -0.056841316224714514
0.48934435703860135 -1.2641832274387743 -0.047404769565998706
0.4796887665855489 -0.14441438483582864 -0.04938223981256058
2.7762164258780193 -0.13855591291878355 -0.0643037446517111
2.765160782928419 -1.251391304049843 -0.06314049780732975
2.726023634903924 -2.3671748701846744 -0.07726027911049801
2.651683666216763 -3.443792242421181 -0.0980408078328936
2.5473781445265344 -4.449566176276769 -0.11980016159829046
2.4154070920277175 -5.360290758266062 -0.13999142003212403
2.256227133476451 -6.152248145982385 -0.15694249786333628
2.0708348606012716 -6.801880922157381 -0.16907344876574848
1.8609667443690736 -7.284934119805008 -0.17489018913773313
1.6274250902667722 -7.581813977460101 -0.16869263216061392
1.3952154129896586 -7.600000000000002 -0.1433560008307056
1.163109743490212 -7.583417884417426 -0.16966155174194017
0.9298874742833745 -7.2881950954889465 -0.17683307258405412
0.7205728563317947 -6.806897550053359 -0.1719833715298076
0.5359867380066506 -6.159144417997914 -0.16076323558093386
0.37785573207503403 -5.3691747738978455 -0.14455392001368825
0.24706575877406475 -4.4604376445307965 -0.12472421707355137
0.14374091108932355 -3.4562956575038544 -0.10259499634286917
0.06968580237439342 -2.3800812655901242 -0.08025482527932042
0.03014319067193933 -1.2623258386203764 -0.06323152983920471
0.01880072082293967 -0.14552869939297855 -0.061193995235858355
0.0 0.0 0.0
0.03251139880106351 -1.191198342691202 0.020079875577975005
0.08242759494892933 -2.2781334984347357 0.03835156668252546
0.15308719362147505 -3.322188372492724 0.05533328466918654
0.25061991133867917 -4.2988068401858195 0.06843861175829968
0.3760122551108244 -5.186279359957427 0.07763784936614888
0.5288094713854324 -5.962203362761128 0.08229993834968703
0.7082829010161047 -6.605061466690837 0.08199370273740678
0.9137220797081622 -7.093800961935383 0.07692123099894346
1.1442859508668373 -7.406298839788515 0.06924580528621598
1.3941529045655907 -7.516899823188147 0.0648060044114938
1.644048881605429 -7.406863766435699 0.06929143190951241
1.8747038713306947 -7.0949290726372105 0.0770454133744461
2.0803099544248025 -6.606748668912754 0.08226913343722915
2.2600547145131378 -5.964440418257981 0.08285262235352327
2.4132836679911853 -5.1890414276433106 0.07865854744906295
2.539368170093951 -4.302027950714171 0.07021639400072618
2.6380485582849538 -3.325707733930443 0.05817396300902305
2.7105737915660195 -2.2816352741816406 0.04308790914038638
2.7641753299823137 -1.1945486363791182 0.025543592366288302
2.8054459219215513 0.0 0.022421314872229522
0.48064992369512055 -0.034633825609761075 0.002959628349189431
0.5001117338245186 -1.189464838516602 0.009206333312853341
0.5238784473859562 -2.285824190679201 0.023943438535524674
0.5713375122047902 -3.3318142627435385 0.03602831968382924
0.6362675523206869 -4.312036125598327 0.045397767193894205
0.719779438632673 -5.202872735977909 0.051662031708532064
0.82155112235217 -5.982207501937985 0.054728541916283735
0.9410433718224829 -6.628449521864159 0.054473745483161334
1.0775058798418682 -7.12065634643521 0.051184304603166045
1.2299027127506834 -7.436704854668682 0.046097439768689914
1.3942791101356218 -7.549518202749985 0.04284563301464134
1.5586840350357698 -7.437275946592449 0.04597978741607791
1.7111701470155485 -7.121797200816598 0.050974661129883025
1.8477948651413911 -6.630157100313682 0.05423173496696834
1.9675470328776947 -5.984474853530708 0.054562889923275196
2.0697220461244266 -5.205680027969275 0.05175574106754324
2.153867638158291 -4.315327300861175 0.04602088596878891
2.2198045215174824 -3.335445781404047 0.037627485595542944
2.2689908746748335 -2.2895467184892406 0.02692280741705777
2.2957866717087825 -1.1932894708817865 0.015156106058185431
2.3169838972483943 -0.035230931720555254 0.01696880744875866
0.9422311292688754 -0.060981280873200816 -0.00532846194044983
0.9530208639729626 -1.1892318788243217 -0.0004156817458387916
0.9613056095328973 -2.28867773455799 0.009265225552129044
0.98304679206234 -3.337673115065308 0.017140306757811745
1.0155058492027997 -4.319777983527736 0.022610463514758664
1.0571142021780302 -5.212657702162254 0.025912469831667593
1.1078696089611908 -5.993976101859017 0.027183602190304083
1.1673078796953886 -6.642114464568503 0.02654053341427781
1.2346027343421704 -7.136243768516397 0.024132394901790647
1.3099386486614617 -7.455113642651914 0.020067799666104457
1.3944155047451638 -7.57134485918615 0.01647922092174446
1.478920072893717 -7.455693710953086 0.01978907197441607
1.5543420355596127 -7.137402880953752 0.02359423823869034
1.6217906461919398 -6.643850235594669 0.02579130639294532
1.6814684343745823 -5.996282801892458 0.026321005491847117
1.7325826130897728 -5.21551856534711 0.02511313693402094
1.7747307342268683 -4.323143559319999 0.02217301812617106
1.8080301201416376 -3.341409046873845 0.017521947127136464
1.8311667207314024 -2.292609611768129 0.011140805791351838
1.8409095855288315 -1.1928285199713935 0.004529311265674728
1.8523447583142723 -0.061540187371779326 0.0052527060897620955
1.394293116070792 -0.07868000323774013 -0.016497718237888037
1.397950436603582 -1.1900457330286836 -0.010993468517224157
1.3939486778257038 -2.288551925035476 -0.005373307942942841
1.39180280134038 -3.339396904289289 -0.001797770139183478
1.3914047466687811 -4.322372578652188 -0.0002469723531594119
1.3911535128401282 -5.215891488356517 -4.697603948345662e-05
1.3908868558651126 -5.997868615909408 -0.0007445325922071049
1.3904315430081708 -6.646457149983062 -0.0020693769634143725
1.3887759677346836 -7.140973640859376 -0.00396067768866535
1.387426941904284 -7.462586128073088 -0.007387242502723379
1.3945569552357444 -7.585308988600914 -0.012259341715311558
1.4017136750151213 -7.463177847316634 -0.007827351735398409
1.4004466876499257 -7.142156165630183 -0.00482782721898824
1.3989343040379003 -6.648228156902755 -0.0033256918463116197
1.3986936796066642 -6.000222249533171 -0.002302586906550055
1.3987311954512076 -5.218811780356917 -0.0017296894417797495
1.3989085353206567 -4.325811241053486 -0.0017324935392020427
1.399150600802594 -3.3432370109980876 -0.002558606262764375
1.397869346335262 -2.2925220538256945 -0.004573037613268531
1.3945352999150582 -1.193301370513719 -0.007248707863337359
1.3985078654016383 -0.07926779841555075 -0.008301981097133778
1.8432509063529345 -0.08875914680266231 -0.02802460338106659
1.8404372195938798 -1.1907746539505304 -0.021999607136795232
1.8251453327482108 -2.286330468211116 -0.019940332362952905
1.8005068753823599 -3.337227502636428 -0.020653630856402743
1.7674176631868557 -4.3198211207983395 -0.023032996478836998
1.7252100598707625 -5.212656656285168 -0.025963975198292716
1.6738406777764903 -5.993992516617292 -0.02865827407640252
1.6137110822664615 -6.6417490156900625 -0.03066681309647005
1.5438095201870508 -7.134925909534051 -0.03189156058577318
1.4648863189365702 -7.458688034600896 -0.033779800598879535
1.394701362952545 -7.593709271294021 -0.04041770456155982
1.3245421718369672 -7.459294081555122 -0.03438431790644101
1.2456971325904502 -7.13613696785365 -0.03309423632711643
1.1759283283406115 -6.643562159602662 -0.03244131543524961
1.1159885743050446 -5.996400369280312 -0.03092872952969902
1.0648677452335762 -5.215640296938347 -0.02855523862708117
1.022974984705207 -4.323332414454444 -0.025598249674430112
0.9902818142610795 -3.3411384791121996 -0.022586874708488414
0.9660611053518773 -2.290264511109804 -0.020296131607526295
0.9510123126774673 -1.1937657640173684 -0.01953470445590799
0.9483566708572979 -0.08939811960398328 -0.021834228222210088
2.2936212806262906 -0.09309834061462298 -0.038601237978359265
2.285341541518451 -1.19062506039287 -0.03274092296191836
2.2590864486246556 -2.2822614645042925 -0.03432075887938053
2.212529805911693 -3.331328416278299 -0.039304648393686685
2.1468224634132973 -4.312028323236275 -0.04559580995061756
2.0625774279094395 -5.202870439106035 -0.051582052710209374
1.9601320349331939 -5.982161999228906 -0.056167925493239144
1.8398446531417325 -6.628118309668613 -0.05856832411261228
1.7036272075773577 -7.118274095600615 -0.05870747918850209
1.546297232648223 -7.4410341057484715 -0.056878455764486566
1.3948464891581474 -7.598693045785328 -0.06392438968076893
1.2434208503263047 -7.441657331478787 -0.057653004107256246
1.0861661291843119 -7.11951916667797 -0.06025810974707097
0.9500731234967865 -6.6299811366329156 -0.06088282662367779
0.8299549356774432 -5.98463212043758 -0.059186595745247796
0.7277114863999136 -5.205923227717502 -0.05513894533195693
0.6436759322438436 -4.315607167685931 -0.04932755362816362
0.5781356595682863 -3.3352813199361386 -0.04253600861774366
0.5316305599704769 -2.28614760698804 -0.03599806886756211
0.5053110111940312 -1.193456358074505 -0.03162742489043511
0.4970477369586744 -0.09375851448676459 -0.03415019784723775
2.7479109853838084 -0.09448432873660943 -0.04672051795776144
2.7367868426410333 -1.1893507923054147 -0.04279297320674949
2.7002500748681566 -2.2762626164778688 -0.048592239541330164
2.631131768168433 -3.321511079132289 -0.05802886266656448
2.532609087349736 -4.2987677695742805 -0.06831433089345076
2.406364549658663 -5.186208267008669 -0.0773304938087144
2.252822527721488 -5.962168106688155 -0.08362434697263492
2.0724957718859214 -6.604513214133104 -0.08619633522950328
1.8674684581435166 -7.0928911659469005 -0.08438182507918995
1.6446672296008953 -7.405362014518233 -0.07775785494412682
1.3949867104628657 -7.600000000000002 -0.07478120048838947
1.1453309234059168 -7.406005501928525 -0.07871019401815532
0.92260322817503 -7.094176276659879 -0.08629779041543621
0.7176951395178284 -6.606434251049231 -0.08908204135442568
0.5375243819989126 -5.964710541311003 -0.08744392023611021
0.3841539713789682 -5.189338926159253 -0.081940432913809
0.2580471246867635 -4.302412853244261 -0.07335678559907804
0.159522632698776 -3.3254870053084233 -0.06278351389560756
0.0901356612956894 -2.280094516734101 -0.05187483810360202
0.05316237924497881 -1.1920868216706608 -0.043163765579763924
0.04185129508730735 -0.095115830501042 -0.04365503342905599
0.0 0.0 0.0
0.045134534036274286 -1.1608655917045154 0.00867598484919434
0.09492880288451366 -2.228556577681604 0.016280946416482908
0.16394546565040946 -3.257156785057114 0.023491159376137775
0.2586671042743436 -4.221966955027855 0.028600683788161853
0.37948815324650376 -5.102199572183865 0.03119202897984761
0.5260577153527186 -5.876953905531277 0.031060404359477215
0.6985952206219236 -6.526151211519674 0.02825115117279158
0.8993199275686306 -7.029114734049828 0.02335700342535698
1.13250705047325 -7.359692499628063 0.018088338317773428
1.3942228443477838 -7.479937785525427 0.015564697375629395
1.655904890533785 -7.359558549020251 0.018093194603122635
1.8889856339967108 -7.02880565372451 0.023386891415974585
2.089515054219347 -6.5255864161121675 0.02834991669428698
2.2617380358393384 -5.876019076134373 0.031300874290841815
2.4078223500639573 -5.1007629729943025 0.03167769550038303
2.5279091878051236 -4.219913770815888 0.029464224652181393
2.6215094776055716 -3.2544540063590452 0.024871840566515823
2.688855462372851 -2.225311164806665 0.01852288120724847
2.7352555336420785 -1.156992615351265 0.012469245601081824
2.7706413253474564 0.0 0.012722506467533604
0.48270851122961034 -0.02995025573092014 0.0003136899439160678
0.5026363721551946 -1.1606828057269267 0.004452380529104111
0.5289731350511655 -2.2365584308636777 0.010273325239861731
0.5761734506748364 -3.26731584707605 0.015522626197706479
0.6398383833498689 -4.235776524322082 0.01930702216738228
0.7209038534859379 -5.119546757121903 0.02123322877705812
0.8191244071204034 -5.898021198099252 0.021272140464150595
0.9346264974268147 -6.5512111148048735 0.01955982951802234
1.0684811155848435 -7.058850525419103 0.016535647937788493
1.2226539959095584 -7.394890210408565 0.01321958302186316
1.39420367097399 -7.51868448865501 0.011546964383279517
1.5657115525510135 -7.394744726892367 0.01312253484353392
1.7197543358779466 -7.058515374543024 0.016356042625800222
1.8533760948334546 -6.550599127848364 0.01933081342229007
1.96851694909366 -5.897006727278481 0.021052496018356723
2.0662085189477146 -5.117979690600416 0.021115712459217447
2.1465147462619534 -4.233514501011366 0.019420292624452874
2.2091075540791283 -3.2642864616990317 0.01606191010998999
2.2546736030362955 -2.2327741165980806 0.01152887646117419
2.2782755032304434 -1.1559160710484775 0.00791095963775119
2.29707204007055 -0.028470819639845248 0.010096886460869089
0.9389151083287579 -0.05162985027450478 -0.003008457446781793
0.9491636576039139 -1.160190379322912 -0.00017360341891613438
0.9588140196967946 -2.2402225546030743 0.0038068750255554414
0.9816567902256681 -3.273754535127855 0.007298611782828831
1.0142609253187898 -4.244192390343655 0.009651943863561488
1.0553457501215686 -5.130138590652029 0.010733507100875657
1.1049005554241016 -5.910823068084497 0.010631152841256444
1.1626452419961377 -6.56624002275167 0.00951976151797548
1.2283879345810995 -7.076469785041961 0.007634307842446226
1.3044170782153652 -7.416960285841585 0.005390777328434267
1.3941961016951154 -7.546138202815701 0.0040441570624807546
1.4839260690021638 -7.416807847133048 0.005194416131807761
1.5598039358230884 -7.076118195576982 0.0072517496949531055
1.6252810231071182 -6.565596642729762 0.008976596839643396
1.6826263772371386 -5.909752880820739 0.00997872169992751
1.7316208301489082 -5.128476027346298 0.010062579667190708
1.7719476185214527 -4.241770714191989 0.009111194689991902
1.803538906708228 -3.270471178397259 0.00711585846072704
1.8249703859957354 -2.2359854168011877 0.004428695241234838
1.8335269807810621 -1.1554220247904277 0.0026663425207553246
1.8437468209193129 -0.04941107377389574 0.004342608171541838
1.384719259930617 -0.06617783663372317 -0.00826640910947474
1.3877609104706063 -1.16020562146836 -0.005254727895205375
1.3846528649226106 -2.240579698284228 -0.0027848836899182976
1.3841775577265911 -3.2759479394054476 -0.0009913075278102476
1.3853023036767096 -4.247181053762263 -6.673856284105752e-05
1.386309801334955 -5.1337934205000995 9.550960201861632e-05
1.3869836852212745 -5.915179320747659 -0.0002817275830707352
1.3868908685930155 -6.570986626653716 -0.0010088799505642337
1.3844787305351842 -7.0816433360878035 -0.00205052227910565
1.3826539066780126 -7.426570016728774 -0.0035392021676645923
1.3941948147804804 -7.5656366215883 -0.004749022957675383
1.40567963226555 -7.426415472247374 -0.0038345755838489724
1.4036830755769105 -7.08128552046962 -0.0026349151433806583
1.4009740110244104 -6.570328589593656 -0.001862895640579411
1.4004459550297543 -5.914078767483236 -0.0013591708230681315
1.400533090911194 -5.1320719915787345 -0.0011108721173220706
1.4007923588935023 -4.244653752405065 -0.0012305410644562005
1.400983922120878 -3.2724698091618127 -0.0018229261380518233
1.3995246883614716 -2.2361603858075276 -0.002725434324809634
1.3959953839707746 -1.155576546321947 -0.0031425778921501694
1.3992370874459281 -0.06330788448865333 -0.002722879715931436
1.827128733789047 -0.07451691655708689 -0.014071000068233365
1.8237612653478525 -1.1601914657046901 -0.010467157690301659
1.809218447437033 -2.2385153085074383 -0.009364252174075893
1.786701020380756 -3.2739672327375806 -0.00925684660784246
1.7564032530756475 -4.244664622511189 -0.00975619976657262
1.7172552929131515 -5.130462067680425 -0.010520729624990843
1.6689236476017646 -5.9110586608142635 -0.011182156065132771
1.6113858039982214 -6.5656543444344075 -0.011523458632662836
1.542139183750939 -7.074309402146165 -0.011672790996640172
1.4614405394642385 -7.422860997957634 -0.012274509786775347
1.3941936516414026 -7.579892864634718 -0.013226489575743535
1.3268832738798741 -7.422709293364672 -0.012670847555751779
1.2459912975869056 -7.073955772651393 -0.01246316612324198
1.1764142589858941 -6.564998715475053 -0.012695230318648276
1.1184016313543161 -5.909953401123126 -0.012695063729041885
1.069452063169542 -5.12872042719627 -0.012278188491682645
1.029559500093784 -4.242083332201597 -0.011563428570046098
0.9984464409509746 -3.270391874179595 -0.010758453041108996
0.9752555009345212 -2.2340573799292387 -0.009929579450969684
0.9605503824539976 -1.1556611913490449 -0.009119726727337699
0.9574110157441067 -0.07115118329517614 -0.00995057293938269
2.2707173964026803 -0.07818496980348758 -0.01919680506736956
2.2619167507172304 -1.1595656139170205 -0.01529807716992608
2.236372657377091 -2.234399189609689 -0.015785277475856195
2.1924627581888325 -3.2680119768222653 -0.01740632055688198
2.130880451326227 -4.236624265188251 -0.01932335422625752
2.0516168825283483 -5.120185010978927 -0.020956854730681547
1.9545158592925533 -5.898387524620416 -0.021783605645220083
1.8392338462294366 -6.550710895387474 -0.02153191952681368
1.7067012547239109 -7.055105234844809 -0.02043355672798323
1.5469466197943154 -7.402746263621295 -0.01963365968847593
1.3941864502029546 -7.591422714465407 -0.019796232829706294
1.2413544403854455 -7.40260225812612 -0.02013518186631605
1.081381862554227 -7.054766041964462 -0.021439373874552293
0.9484797261126464 -6.5500744085427405 -0.023038460925172755
0.8326740993418408 -5.897303000708229 -0.023760860015385438
0.734908062360063 -5.118460500455841 -0.02331343508091812
0.6548879888590503 -4.234047657632072 -0.021850777191247433
0.5925853220541613 -3.2644319736312553 -0.019696266935688298
0.5482179663198672 -2.2299750665830125 -0.017136165260387023
0.5226540507819197 -1.15508483793868 -0.01477241945473927
0.5140890378771621 -0.07450725695860617 -0.016239700370912494
2.7181586348703464 -0.07949289785352813 -0.022069203241848835
2.7064429792188376 -1.1580859953852554 -0.019265251718039413
2.6706223781828418 -2.2283431868754286 -0.021786353507908626
2.6049093360222617 -3.2581587011124813 -0.025210025892514663
2.5120473591189794 -4.22318134891436 -0.028484954993125148
2.3929160348364817 -5.103065899898273 -0.030810603386971114
2.247335166397768 -5.877536234427113 -0.03150143089977722
2.0749391639691006 -6.525526483305341 -0.030183310183101452
1.8766837700058103 -7.027647300967652 -0.02717122563589299
1.6570979411271298 -7.361250917529593 -0.024035742896418744
1.3941679179808188 -7.600000000000002 -0.02256874101570755
1.1311562169710212 -7.361119188892399 -0.02464906759945196
0.9113230922769389 -7.027332210344498 -0.028407510221509124
0.7126502241311092 -6.5249250247497965 -0.032052180029272306
0.5396669330819572 -5.876496378578457 -0.03399082881025518
0.3933494628491692 -5.101394262177115 -0.033847807090322216
0.2734083248268526 -4.2206669457073 -0.03187035847068936
0.1798573148248981 -3.2546600987288117 -0.028508898040401815
0.11387278309009571 -2.2240250889709756 -0.02420570311514194
0.0782669508631482 -1.1536575867404706 -0.01970373502705602
0.0668711442610412 -0.07566600253951734 -0.019979665014118755
0.0 0.0 0.0
0.04787850832023816 -1.1527233524180873 -1.4384815407503703e-13
0.09794766912577979 -2.214424278333659 -2.70045566787277e-13
0.1661954332706897 -3.2383109268187056 -3.953548052653124e-13
0.259509644240783 -4.200085208731336 -5.103623187197149e-13
0.37848680590934813 -5.079258847454324 -6.399633915587106e-13
0.5229433001416349 -5.855344967436138 -7.921801989265615e-13
0.6936221769519644 -6.5084782606767195 -9.765116055939086e-13
0.8937232567924418 -7.017441116422977 -1.1256332012794725e-12
1.12856375243331 -7.354083215233435 -1.2809110298872777e-12
1.394184062479893 -7.4771099071094165 -1.428187544352467e-12
1.6597438912628526 -7.35367918699673 -1.5856844436670817e-12
1.8943944761750853 -7.016573875233035 -1.7270382489015644e-12
2.0941485522381464 -6.507031665996795 -1.7968814770682645e-12
2.2642685260805666 -5.853154431157162 -1.925885838870786e-12
2.4078552700738305 -5.076138949990441 -2.0439275328870924e-12
2.525488137548724 -4.195891130430602 -2.2783698166914268e-12
2.6167217868202295 -3.2330554253040344 -2.5241906633058003e-12
2.6817766610431066 -2.208357652402047 -2.7960651377592297e-12
2.7265255969172446 -1.1462794165888812 -3.0739537781300607e-12
2.7604280451125236 0.0 -3.2800666717916187e-12
0.4825445936477154 -0.028960239378052127 -2.8350391767769787e-14
0.502563924845302 -1.1530983390746465 -1.2992791537186265e-13
0.5298588888198121 -2.2225819138573146 -2.517291972563744e-13
0.5767994780855857 -3.248648302593707 -3.8118047496078735e-13
0.639752182248402 -4.21407370599377 -5.077523972057241e-13
0.7197977717378545 -5.096860028743049 -6.458292575713054e-13
0.8168474336829399 -5.876818302082321 -7.936874333177058e-13
0.9313626583449458 -6.534208987814316 -9.608328776361484e-13
1.064985010531042 -7.048226005922487 -1.1236400479315528e-12
1.2202291887690737 -7.390720627939302 -1.2936493591337512e-12
1.3941107072655263 -7.517499210134783 -1.4379903406918808e-12
1.5679204136184417 -7.390297525816364 -1.6088271214278465e-12
1.7229413511811726 -7.047316056046742 -1.7782325241752408e-12
1.856164321778005 -6.532685887409114 -1.9031931966705273e-12
1.9700576390445255 -5.87449977110833 -2.057673813624981e-12
2.0661845441915383 -5.093530827181999 -2.2214293460391008e-12
2.1448778778181676 -4.209547581004638 -2.4210918648394926e-12
2.205852153109319 -3.2428657205044003 -2.646780950555786e-12
2.2498487049846028 -2.215716987729971 -2.8881516497495675e-12
2.2727996664424084 -1.1452488267613614 -3.1299761486624156e-12
2.290893096655709 -0.027294747749122467 -3.307994658269323e-12
0.9371339887160334 -0.05038065164600219 -3.0506139328066016e-14
0.9472697635099429 -1.1526089432545086 -1.2509467298069354e-13
0.9575572223802002 -2.22642255345702 -2.401400505225224e-13
0.9806263309571961 -3.255146913327439 -3.7287395636863086e-13
1.0130964279188492 -4.222538947605251 -5.010408050923168e-13
1.053881892530379 -5.107510927795962 -6.531637056499923e-13
1.1030480232143676 -5.889738397349053 -8.06668867995914e-13
1.1604666536187425 -6.549465152470922 -9.538961112673353e-13
1.2261930603899067 -7.066230424547302 -1.1438919578049e-12
1.3028094922136386 -7.41333702787056 -1.311797637940758e-12
1.3940496472924093 -7.5456879123771285 -1.467877298977177e-12
1.485208059978299 -7.4129003123852435 -1.6528813331572833e-12
1.561572605310465 -7.065289526053415 -1.833024309155485e-12
1.626856787306914 -6.547885720206501 -2.0069245915913713e-12
1.6836079432164819 -5.8873239219335405 -2.1825365467090504e-12
1.7318268964183374 -5.104023241409929 -2.3633650294049878e-12
1.7712989532617536 -4.2177509401729205 -2.554518550997979e-12
1.8019619676097833 -3.248963642621436 -2.7583479493753784e-12
1.8225543533010469 -2.2188791114678605 -2.9781453199732007e-12
1.830916383776486 -1.1447665270448675 -3.190758453714897e-12
1.8407769609632008 -0.04740134248482813 -3.371676313930642e-12
1.380944942767156 -0.06478277476279184 -2.494980273632023e-14
1.3839607516886903 -1.1525699895694088 -1.1987804912785724e-13
1.3813876384205326 -2.226885388741617 -2.3303422590555747e-13
1.3814184839109656 -3.25743172501157 -3.6914725773070033e-13
1.3829485459314648 -4.22558273840865 -5.030773288552656e-13
1.3843220154769262 -5.1112155416455956 -6.57381219280772e-13
1.385324620772722 -5.894151464109893 -8.178438886437607e-13
1.3854932738748715 -6.55428176448508 -9.735300011363472e-13
1.383241353998891 -7.071500627417868 -1.1589568326375518e-12
1.3815733290279297 -7.423089960031471 -1.3375429434951135e-12
1.3939941773406945 -7.565577277624827 -1.5053395509863617e-12
1.4063238117515546 -7.42264537452123 -1.7078700584807152e-12
1.4043768304435025 -7.07054116394243 -1.885744711161889e-12
1.401643123734421 -6.552667006743326 -2.0974479030411143e-12
1.4011048005929 -5.891674744132359 -2.2971954258959155e-12
1.4011469747379823 -5.107619751043634 -2.486420963934176e-12
1.4012711370335451 -4.22061334796413 -2.6749599505933394e-12
1.4012041116507485 -3.2509390753173077 -2.861960439077344e-12
1.399511512024945 -2.219073173213538 -3.064103052477078e-12
1.3960909514527275 -1.1449356144938587 -3.2584099256399123e-12
1.3992385726696852 -0.060701808253876485 -3.4487074124629258e-12
1.821109386544042 -0.07302595545856366 -1.8019698009286467e-14
1.817910340649514 -1.1525063471515877 -1.150870062642103e-13
1.8039834000733883 -2.2248994254614978 -2.27589325123186e-13
1.7822406181046564 -3.25555930483186 -3.6190507552131064e-13
1.7528530865745975 -4.223150809465654 -5.020227012442499e-13
1.714736497250556 -5.107944487221787 -6.539104777222696e-13
1.6674499821329147 -5.890057162362049 -8.270639332382707e-13
1.6107832578704995 -6.5489124893017685 -9.918829069905495e-13
1.5419224295711365 -7.064049658374544 -1.1784474525851097e-12
1.4608917269819122 -7.419217268643285 -1.3641037597439662e-12
1.39393780546273 -7.580017031480448 -1.5507421990063995e-12
1.3268827164573185 -7.418770655887884 -1.7519069770178873e-12
1.2455444642237061 -7.0630841731768985 -1.9614170955986546e-12
1.176159435441398 -6.547283721214582 -2.180721988051677e-12
1.11874116696021 -5.887551685106877 -2.4014004747165405e-12
1.070475075894684 -5.104294059005154 -2.616973737215823e-12
1.0311667775032405 -4.218075997857044 -2.7934762189672245e-12
1.000447229870041 -3.2489038897197187 -2.967668458250384e-12
0.9775594074668589 -2.217033067491412 -3.1473781791428243e-12
0.9632678497832535 -1.1450309230486742 -3.325162817249551e-12
0.9603096549719827 -0.06815501231287382 -3.5265822464023045e-12
2.262266432357494 -0.07664516229936105 -1.1877535955606205e-14
2.2538940553964792 -1.1518324821575907 -1.1035017693258333e-13
2.2291787479279543 -2.2208501353951897 -2.2191931174114717e-13
2.1863717790409036 -3.2497139904763204 -3.5243633011158517e-13
2.12623823189376 -4.215206948370914 -5.017658297437374e-13
2.048716668935643 -5.0977198278720826 -6.673882730351528e-13
1.9534495083314374 -5.877350047679846 -8.241634553465862e-13
1.8397239016522353 -6.533802757295007 -9.94601388750932e-13
1.707956918058063 -7.044463997475312 -1.202863212066852e-12
1.5472423451182333 -7.39854437986301 -1.3749403822642842e-12
1.3938740136669272 -7.59155515431579 -1.5798811896757538e-12
1.2403931279919036 -7.3981014705048285 -1.779262208863391e-12
1.079337801205878 -7.043504813490216 -2.016800286362962e-12
0.946995243639096 -6.53218072945068 -2.2660917875312886e-12
0.8324581171674609 -5.87484885632984 -2.502203253863498e-12
0.7361653816159057 -5.094066420230621 -2.738541930569073e-12
0.6574810307155753 -4.210113589015605 -2.9212164454755954e-12
0.5962395228486621 -3.2430370876830423 -3.0810822120238135e-12
0.5527221488835006 -2.213040448793628 -3.2328230193705433e-12
0.5279566867350585 -1.1444504406730518 -3.384665181889205e-12
0.5199023023177405 -0.07129985903957071 -3.593315552733737e-12
2.7071138658926928 -0.07784142021373318 -5.34754672805186e-15
2.6960790365858145 -1.150229867327111 -1.0375041231716176e-13
2.6613633791339413 -2.21478550745895 -2.118107371290311e-13
2.5971979945417205 -3.2398764240714835 -3.4063548722479535e-13
2.50643887011013 -4.201733972882866 -5.038130176181124e-13
2.3898793601176607 -5.080463264109877 -6.896857750035914e-13
2.247072873300229 -5.856180497604408 -8.164912064589069e-13
2.0771304335354297 -6.508004379195693 -9.923935327509237e-13
1.8800544462114135 -7.016065617819038 -1.1756604030476972e-12
1.659330208396128 -7.355494995309737 -1.3743083763470056e-12
1.3937959932358073 -7.600000000000002 -1.588868308965708e-12
1.1281354430731598 -7.355061239901526 -1.7956508968479772e-12
0.9070294665471363 -7.015124435168535 -2.036136021480117e-12
0.7093115799634565 -6.50640888238168 -2.338528663165458e-12
0.5384714512452546 -5.853714741282863 -2.6029488671375644e-12
0.3945487471899949 -5.076856695781763 -2.8886880799140906e-12
0.2767803370955838 -4.196709054775701 -3.06724523165022e-12
0.18502943108511583 -3.233316177867554 -3.213491221066229e-12
0.12054900384227693 -2.207155357224727 -3.3230855091545762e-12
0.08626028187977593 -1.1429550059342064 -3.435960739388472e-12
0.0757397107607368 -0.07228196979702961 -3.632340507848816e-12
0.0 0.0 0.0
0.04513453403653269 -1.1608655917046402 -0.008675984849483436
0.09492880288491297 -2.2285565776818164 -0.016280946417006028
0.16394546565091975 -3.257156785057226 -0.023491159376904255
0.25866710427489414 -4.221966955027806 -0.028600683789184775
0.37948815324705654 -5.102199572183828 -0.0311920289811427
0.5260577153533 -5.876953905531254 -0.0310604043610087
0.6985952206225507 -6.526151211519668 -0.0282511511745228
0.8993199275692925 -7.029114734049887 -0.02335700342740929
1.1325070504740011 -7.359692499627934 -0.018088338320204626
1.3942228443486195 -7.479937785525272 -0.015564697378386725
1.6559048905347187 -7.35955854902003 -0.018093194606175745
1.8889856339977975 -7.028805653723914 -0.023386891419289887
2.089515054220471 -6.525586416111071 -0.028349916697876093
2.2617380358404517 -5.876019076133064 -0.03130087429471676
2.4078223500648535 -5.100762972992522 -0.031677695504605814
2.527909187805799 -4.21991377081445 -0.029464224656789384
2.6215094776061565 -3.254454006357815 -0.02487184057158744
2.6888554623733394 -2.225311164805696 -0.01852288121285036
2.7352555336424773 -1.1569926153507084 -0.012469245607217681
2.7706413253477695 0.0 -0.012722506474055493
0.4827085112298491 -0.029950255730934416 -0.00031368994397814817
0.5026363721554892 -1.1606828057270901 -0.004452380529368217
0.5289731350515567 -2.236558430863898 -0.010273325240374886
0.576173450675307 -3.26731584707616 -0.015522626198469437
0.6398383833503992 -4.235776524322073 -0.019307022168412943
0.7209038534864952 -5.119546757121871 -0.021233228778362243
0.8191244071209793 -5.898021198099224 -0.0212721404657228
0.9346264974274406 -6.551211114804883 -0.019559829519850906
1.0684811155854887 -7.05885052541915 -0.016535647939950982
1.222653995910259 -7.394890210408541 -0.013219583024352655
1.3942036709747925 -7.518684488654902 -0.011546964386119664
1.565711552551862 -7.394744726892215 -0.013122534846689895
1.7197543358788703 -7.058515374542582 -0.01635604262925305
1.8533760948344613 -6.550599127847317 -0.01933081342607516
1.968516949094638 -5.897006727277146 -0.021052496022461224
2.0662085189485806 -5.117979690598527 -0.02111571246369861
2.1465147462627314 -4.233514501009892 -0.019420292629319543
2.2091075540797993 -3.2642864616977487 -0.01606191011528865
2.254673603036913 -2.2327741165971076 -0.011528876466966912
2.2782755032310265 -1.155916071047919 -0.00791095964400013
2.2970720400710944 -0.028470819639786867 -0.010096886467455608
0.9389151083290872 -0.051629850274530535 0.003008457446711262
0.949163657604275 -1.160190379323076 0.00017360341866146152
0.9588140196971853 -2.240222554603272 -0.003806875026052749
0.9816567902261257 -3.273754535128002 -0.0072986117835888015
1.0142609253192856 -4.244192390343635 -0.00965194386459791
1.0553457501220926 -5.130138590651947 -0.01073350710219334
1.1049005554246638 -5.910823068084486 -0.010631152842866696
1.1626452419967228 -6.566240022751697 -0.009519761519897167
1.228387934581715 -7.076469785042005 -0.007634307844687623
1.3044170782160607 -7.416960285841534 -0.005390777331022381
1.3941961016958477 -7.5461382028156 -0.004044157065414004
1.4839260690029443 -7.416807847132796 -0.005194416135074332
1.559803935823923 -7.07611819557663 -0.007251749698551254
1.6252810231079957 -6.565596642728773 -0.008976596843618267
1.6826263772380405 -5.909752880819477 -0.009978721704254468
1.731620830149778 -5.128476027344515 -0.01006257967191712
1.7719476185222722 -4.241770714190442 -0.009111194695091772
1.8035389067089986 -3.2704711783959963 -0.007115858466255171
1.824970385996452 -2.2359854168002062 -0.0044286952471976095
1.8335269807817802 -1.1554220247898754 -0.0026663425271305726
1.8437468209200074 -0.04941107377378565 -0.004342608178264437
1.3847192599309956 -0.06617783663376804 0.008266409109413772
1.3877609104709991 -1.1602056214685061 0.005254727894956901
1.384652864923009 -2.2405796982844155 0.0027848836894345005
1.3841775577270263 -3.275947939405591 0.0009913075270644902
1.3853023036771732 -4.247181053762243 6.673856180553952e-05
1.3863098013354436 -5.133793420500022 -9.550960336220366e-05
1.386983685221808 -5.915179320747661 0.00028172758142478934
1.3868908685935661 -6.570986626653704 0.0010088799485954308
1.3844787305357746 -7.081643336087979 0.0020505222767779477
1.3826539066786538 -7.426570016728774 0.0035392021649987763
1.3941948147811634 -7.565636621588085 0.004749022954632659
1.405679632266253 -7.4264154722472115 0.0038345755804647876
1.4036830755776595 -7.0812855204692715 0.002634915139627076
1.4009740110251734 -6.570328589592711 0.0018628956364199168
1.400445955030546 -5.914078767482058 0.0013591708185180722
1.40053309091203 -5.132071991576961 0.0011108721123614304
1.40079235889437 -4.2446537524035515 0.0012305410591181025
1.4009839221217208 -3.2724698091604703 0.0018229261323102553
1.3995246883623047 -2.2361603858065853 0.002725434318675512
1.3959953839716188 -1.1555765463214034 0.0031425778856422303
1.3992370874467772 -0.06330788448851013 0.0027228797090462385
1.8271287337894582 -0.07451691655715191 0.01407100006818875
1.8237612653482544 -1.1601914657048085 0.010467157690063515
1.8092184474374253 -2.2385153085076026 0.009364252173602651
1.7867010203811753 -3.273967232737689 0.009256846607102904
1.7564032530760894 -4.244664622511211 0.009756199765537479
1.717255292913587 -5.130462067680288 0.010520729623622677
1.6689236476022562 -5.911058660814287 0.011182156063456298
1.6113858039987565 -6.5656543444344395 0.011523458630632573
1.5421391837515197 -7.074309402146375 0.011672790994258423
1.46144053946484 -7.4228609979576285 0.012274509784037713
1.3941936516420323 -7.579892864634583 0.01322648957259135
1.3268832738805452 -7.422709293364534 0.012670847552245108
1.2459912975875562 -7.073955772651027 0.012463166119332193
1.1764142589865778 -6.564998715474152 0.012695230314301144
1.118401631355031 -5.909953401121973 0.01269506372427066
1.0694520631703468 -5.128720427194543 0.012278188486498165
1.0295595000946716 -4.242083332200049 0.01156342856447129
0.9984464409518851 -3.2703918741782285 0.010758453035150325
0.9752555009354673 -2.2340573799282937 0.009929579444670055
0.9605503824549618 -1.155661191348513 0.009119726720691872
0.9574110157450887 -0.07115118329501299 0.009950572932333132
2.2707173964030996 -0.07818496980356221 0.019196805067347545
2.2619167507176394 -1.1595656139171215 0.015298077169701139
2.236372657377479 -2.2343991896098347 0.015785277475398197
2.192462758189224 -3.2680119768224265 0.017406320556150157
2.130880451326645 -4.236624265188201 0.01932335422522453
2.051616882528783 -5.120185010978784 0.02095685472931692
1.9545158592930343 -5.898387524620455 0.021783605643516096
1.8392338462299813 -6.550710895387454 0.021531919524712912
1.7067012547244806 -7.055105234845004 0.020433556725547197
1.5469466197948725 -7.402746263621275 0.019633659685657553
1.3941864502035586 -7.591422714465339 0.019796232826463242
1.2413544403860455 -7.402602258125951 0.020135181862694265
1.0813818625547957 -7.05476604196418 0.02143937387048718
0.9484797261132352 -6.550074408541868 0.023038460920640717
0.8326740993424672 -5.897303000707143 0.02376086001039356
0.734908062360816 -5.118460500454215 0.0233134350754836
0.6548879888599537 -4.234047657630511 0.021850777185427384
0.5925853220551527 -3.2644319736299017 0.0196962669295177
0.548217966320939 -2.2299750665820812 0.017136165253914665
0.5226540507830215 -1.1550848379381675 0.0147724194479625
0.5140890378782793 -0.0745072569584328 0.01623970036371984
2.7181586348707665 -0.0794928978536116 0.0220692032418432
2.706442979219234 -1.158085995385338 0.019265251717832797
2.6706223781832374 -2.2283431868755845 0.021786353507472937
2.6049093360226236 -3.2581587011126074 0.025210025891797615
2.5120473591193475 -4.223181348914325 0.028484954992099406
2.3929160348369023 -5.103065899898148 0.030810603385630714
2.247335166398269 -5.877536234427057 0.03150143089802779
2.0749391639696513 -6.525526483305333 0.03018331018095564
1.8766837700063794 -7.027647300967798 0.02717122563338086
1.6570979411276412 -7.361250917529607 0.024035742893541226
1.3941679179813715 -7.600000000000002 0.022568741012425893
1.1311562169715659 -7.361119188892216 0.024649067595714537
0.9113230922773998 -7.027332210344224 0.028407510217259704
0.7126502241315288 -6.524925024749009 0.03205218002454565
0.5396669330824633 -5.876496378577309 0.03399082880502899
0.3933494628498466 -5.101394262175592 0.03384780708463439
0.2734083248277848 -4.220666945705777 0.03187035846460684
0.1798573148260148 -3.254660098727467 0.028508898034010677
0.11387278309131213 -2.2240250889700475 0.024205703108492366
0.07826695086439515 -1.1536575867399437 0.019703735020152824
0.06687114426229228 -0.07566600253934454 0.019979665006839484
0.0 0.0 0.0
0.03251139880161731 -1.191198342691475 -0.020079875578315445
0.08242759494974784 -2.2781334984349195 -0.03835156668313674
0.15308719362245302 -3.3221883724927963 -0.05533328467005107
0.25061991133980815 -4.298806840185837 -0.06843861175938919
0.3760122551121104 -5.186279359957311 -0.07763784936743938
0.5288094713868939 -5.962203362760749 -0.08229993835115376
0.7082829010175258 -6.605061466689913 -0.08199370273910751
0.9137220797094252 -7.093800961934316 -0.07692123100090016
1.1442859508682424 -7.406298839787991 -0.0692458052885092
1.3941529045672958 -7.516899823187224 -0.06480600441406553
1.6440488816072565 -7.406863766434787 -0.06929143191243098
1.8747038713327087 -7.094929072635786 -0.07704541337765032
2.080309954426838 -6.606748668910811 -0.08226913344077902
2.260054714515034 -5.9644404182555055 -0.08285262235742145
2.413283667992894 -5.189041427640698 -0.07865854745335212
2.5393681700953974 -4.3020279507113655 -0.07021639400536459
2.6380485582861004 -3.3257077339280303 -0.05817396301411151
2.710573791566908 -2.2816352741797274 -0.0430879091459896
2.7641753299830483 -1.1945486363779196 -0.025543592372423134
2.805445921922072 0.0 -0.022421314878745005
0.4806499236955938 -0.034633825609804575 -0.002959628349261413
0.500111733825107 -1.1894648385168987 -0.00920633331316006
0.52387844738674 -2.285824190679405 -0.023943438536107964
0.5713375122057379 -3.3318142627436274 -0.03602831968466777
0.6362675523217646 -4.312036125598364 -0.04539776719496604
0.7197794386338743 -5.202872735977806 -0.051662031709841134
0.821551122353468 -5.982207501937635 -0.05472854191782926
0.9410433718237886 -6.628449521863118 -0.05447374548496223
1.0775058798432018 -7.120656346434152 -0.05118430460525275
1.229902712752104 -7.436704854668137 -0.04609743977111183
1.3942791101372112 -7.549518202749121 -0.042845633017394025
1.5586840350375089 -7.437275946591449 -0.04597978741915091
1.711170147017354 -7.12179720081511 -0.050974661133282494
1.847794865143234 -6.630157100311655 -0.05423173497071075
1.9675470328794462 -5.984474853528203 -0.05456288992738379
2.069722046126062 -5.205680027966611 -0.05175574107203517
2.15386763815978 -4.315327300858419 -0.04602088597367175
2.2198045215187827 -3.3354457814015412 -0.03762748560086805
2.2689908746759633 -2.2895467184873235 -0.026922807422839354
2.295786671709863 -1.1932894708806048 -0.015156106064438743
2.3169838972494072 -0.03523093172038391 -0.016968807455338755
0.9422311292695228 -0.06098128087326688 0.00532846194036732
0.9530208639736482 -1.1892318788246234 0.00041568174554675394
0.9613056095336794 -2.2886777345582185 -0.00926522555268472
0.9830467920632486 -3.3376731150654146 -0.017140306758625247
1.0155058492038158 -4.319777983527805 -0.02261046351582473
1.0571142021791562 -5.2126577021621765 -0.02591246983300692
1.1078696089623639 -5.99397610185865 -0.027183602191905604
1.1673078796966243 -6.642114464567494 -0.026540533416161666
1.2346027343434924 -7.136243768515409 -0.02413239490397593
1.3099386486628322 -7.455113642651369 -0.020067799668631887
1.3944155047466913 -7.5713448591853085 -0.016479220924667432
1.4789200728953606 -7.455693710952196 -0.019789071977648988
1.5543420355612598 -7.137402880952226 -0.023594238242274482
1.6217906461935914 -6.643850235592742 -0.025791306396880907
1.6814684343762327 -5.996282801889901 -0.0263210054961643
1.73258261309138 -5.215518565344413 -0.025113136938727916
1.774730734228414 -4.323143559317217 -0.022173018131299727
1.8080301201430804 -3.341409046871267 -0.0175219471326713
1.8311667207327873 -2.292609611766258 -0.011140805797306412
1.840909585530228 -1.192828519970206 -0.004529311272051882
1.8523447583156025 -0.061540187371484915 -0.005252706096483672
1.3942931160715397 -0.07868000323783636 0.01649771823783018
1.3979504366043378 -1.1900457330289502 0.010993468516946492
1.3939486778265078 -2.2885519250357316 0.005373307942422713
1.3918028013412407 -3.339396904289409 0.0017977701383918852
1.391404746669733 -4.3223725786522715 0.0002469723520989688
1.3911535128411623 -5.215891488356452 4.697603812902636e-05
1.390886855866225 -5.99786861590906 0.0007445325905625636
1.3904315430093395 -6.646457149982243 0.0020693769614440775
1.3887759677359415 -7.140973640858448 0.003960677686386109
1.387426941905619 -7.462586128072596 0.007387242500085986
1.3945569552371881 -7.585308988600345 0.012259341712264227
1.401713675016643 -7.4631778473156425 0.007827351732014836
1.400446687651414 -7.1421561656286 0.004827827215237599
1.3989343040394007 -6.648228156900802 0.0033256918421835945
1.398693679608218 -6.000222249530664 0.002302586902012684
1.3987311954527883 -5.218811780354216 0.0017296894368379145
1.3989085353222146 -4.325811241050645 0.0017324935338491124
1.3991506008041936 -3.3432370109955656 0.002558606257015184
1.3978693463368979 -2.292522053823818 0.004573037607138689
1.3945352999167127 -1.1933013705125333 0.007248707856819721
1.3985078654032657 -0.07926779841517198 0.00830198109024746
1.8432509063537381 -0.0887591468027823 0.028024603381044337
1.840437219594669 -1.1907746539507733 0.02199960713654291
1.8251453327490232 -2.286330468211373 0.01994033236246427
1.8005068753832094 -3.3372275026365505 0.020653630855647427
1.7674176631877365 -4.319821120798429 0.02303299647777929
1.725210059871732 -5.21265665628523 0.02596397519691564
1.6738406777775083 -5.9939925166170065 0.02865827407469636
1.6137110822675806 -6.641749015689177 0.03066681309443431
1.5438095201882747 -7.134925909533137 0.03189156058339638
1.4648863189378374 -7.4586880346004145 0.0337798005961315
1.394701362953866 -7.593709271293522 0.040417704558407805
1.3245421718383636 -7.4592940815541375 0.034384317902916524
1.2456971325917798 -7.136136967851968 0.03309423632319446
1.1759283283419817 -6.643562159600763 0.0324413154309117
1.1159885743065143 -5.996400369277854 0.030928729524920342
1.0648677452351245 -5.215640296935661 0.02855523862190016
1.0229749847068417 -4.323332414451606 0.025598249668848803
0.9902818142628224 -3.341138479109744 0.02258687470253185
0.9660611053537475 -2.290264511107962 0.020296131601216353
0.9510123126793706 -1.193765764016144 0.019534704449242643
0.9483566708591944 -0.08939811960356835 0.02183422821515816
2.293621280627148 -0.09309834061475111 0.03860123797837392
2.2853415415192915 -1.1906250603931 0.03274092296169973
2.259086448625453 -2.2822614645045514 0.03432075887892545
2.2125298059125376 -3.3313284162784336 0.03930464839295859
2.1468224634141313 -4.312028323236366 0.045595809949583496
2.062577427910306 -5.2028704391061895 0.051582052708817785
1.9601320349341165 -5.982161999228549 0.056167925491482126
1.839844653142758 -6.628118309667923 0.05856832411048123
1.7036272075785905 -7.118274095599802 0.05870747918599926
1.5462972326494275 -7.44103410574795 0.056878455761651306
1.3948464891593595 -7.598693045785053 0.06392438967750778
1.2434208503275483 -7.4416573314777406 0.05765300410360232
1.0861661291854734 -7.119519166676177 0.060258109742958095
0.9500731234980111 -6.629981136631018 0.060882826619106344
0.8299549356787964 -5.984632120435115 0.05918659574022332
0.7277114864014274 -5.20592322771476 0.05513894532653144
0.6436759322455429 -4.315607167683116 0.049327553622343125
0.5781356595702074 -3.3352813199337588 0.042536008611570364
0.5316305599725544 -2.286147606986188 0.03599806886107284
0.5053110111961813 -1.1934563580732958 0.031627424883624446
0.49704773696085014 -0.09375851448632937 0.03415019784003654
2.7479109853846877 -0.09448432873674407 0.04672051795780887
2.736786842641922 -1.1893507923056366 0.042792973206571806
2.700250074868975 -2.276262616478118 0.04859223954091148
2.631131768169193 -3.321511079132456 0.05802886266587212
2.5326090873505724 -4.298767769574342 0.06831433089244784
2.4063645496594392 -5.186208267008745 0.07733049380730939
2.252822527722241 -5.962168106687816 0.08362434697081442
2.07249577188688 -6.604513214132505 0.08619633522723413
1.8674684581447338 -7.092891165946101 0.08438182507655215
1.6446672296022131 -7.405362014517702 0.07775785494116956
1.3949867104640017 -7.600000000000002 0.07478120048506544
1.1453309234068334 -7.406005501927565 0.07871019401436746
0.9226032281760053 -7.09417627665812 0.0862977904111055
0.7176951395189148 -6.606434251047348 0.08908204134960669
0.5375243820000931 -5.964710541308596 0.08744392023082732
0.3841539713804294 -5.189338926156525 0.0819404329081355
0.2580471246885475 -4.302412853241543 0.07335678559302439
0.1595226327008793 -3.325487005306088 0.06278351388921753
0.09013566129799606 -2.280094516732302 0.0518748380969285
0.05316237924741445 -1.1920868216694538 0.04316376557282271
0.04185129508978998 -0.09511583050060739 0.04365503342174761
0.0 0.0 0.0
0.03475655795177552 -1.2603246103300207 -0.03016737483001122
0.08369614818707531 -2.374955529824618 -0.06495667734368286
0.1513833141699275 -3.4486212130162475 -0.09273771950607741
0.24770636326728673 -4.452212718087795 -0.11791131513785345
0.3740162528504279 -5.362068415589209 -0.1387247267461255
0.5297916239368452 -6.153187190338409 -0.15431219041696484
0.7140901546353743 -6.801391936366172 -0.16356637247746675
0.9243932068571385 -7.2831138860623685 -0.16571217847581532
1.154444042954925 -7.578230562601422 -0.16201765417873903
1.393871264056817 -7.67656747047772 -0.15867394875643337
1.6333835769557519 -7.579670471592508 -0.16215088072125228
1.8637062893855856 -7.286027287464885 -0.16602536824399733
2.074520043536071 -6.805840158646827 -0.16416289826221228
2.2596624532581693 -6.15924371322443 -0.15537001281632018
2.4167642161842062 -5.369780894354959 -0.14052942341506877
2.5450925193359217 -4.461536399318403 -0.12086764393032602
2.6444236206102127 -3.459303958548973 -0.09754354825679776
2.7164919862146446 -2.386504524686182 -0.07204811678316994
2.7729886752040778 -1.2718104230317315 -0.04283313736704425
2.8258830934461665 0.0 0.00024455612814548597
0.4946459048968 -0.05381922584757428 0.01583936026623145
0.5159949961623538 -1.254729995724341 -0.01580346944231131
0.5332062821083439 -2.3825436519106424 -0.041149083136098406
0.5775608876234637 -3.4575352326066358 -0.06263012361475487
0.6401356359256756 -4.465034453178482 -0.08060878610603875
0.7227555043452547 -5.3783173137109985 -0.09540194810765004
0.8249475334196334 -6.17289651083076 -0.1063643245872483
0.9460632110331235 -6.824421147345412 -0.11299059935473796
1.0844502318793021 -7.309026066225326 -0.1149332303047408
1.2360819967718728 -7.605819570974291 -0.11298862402307222
1.3941306368989566 -7.704251714444239 -0.11092023831898827
1.5522692569570207 -7.607283173104703 -0.11294276940928506
1.7041863488741114 -7.31199128059853 -0.1148812651904798
1.8431014708353535 -6.828958639653901 -0.11302260464788359
1.9650715599202166 -6.17909462278118 -0.106643382032207
2.068570215899244 -5.386246336519006 -0.09619318857878995
2.1531268549104503 -4.474675654970059 -0.08234236248783591
2.2184899349030887 -3.4686740933411424 -0.06587985908458241
2.266883112475527 -2.3947472582885387 -0.047040892588163616
2.2898530958385486 -1.26712525042567 -0.024417612115970263
2.3142889431241787 -0.05679580488091087 0.006387966253982337
0.9616192910312714 -0.0934440083984259 0.025884385498313345
0.9726277733102301 -1.2528524130225673 0.00140074552054967
0.9745485760929484 -2.3842642697885714 -0.01669393026773349
0.991758727736433 -3.46292025007733 -0.03003275173876905
1.0213178838401509 -4.472388535544759 -0.04023880186911559
1.0610879120191823 -5.387841001334417 -0.04802854462318538
1.1110148918941696 -6.184480155931687 -0.053449850923639006
1.1708506814526225 -6.83807379290209 -0.05639206806674078
1.240154490970191 -7.324463375052436 -0.05679897003696349
1.3165364185062343 -7.621615638287618 -0.05481060604515044
1.394336292319723 -7.718373351777015 -0.052568964205022294
1.4722278736654744 -7.62310485030607 -0.05458597124459568
1.5488988305555014 -7.327483724470889 -0.05638179630792193
1.6187310226215135 -6.8427038266022695 -0.055858570579903816
1.6794054372518619 -6.1908204609845825 -0.0529446769606947
1.7305835171517527 -5.395979390359445 -0.04780491639515154
1.7721514607732478 -4.48232976106439 -0.04070813190263094
1.8042154826964323 -3.4744603708315607 -0.03184645370945642
1.8247733696953758 -2.396999112569726 -0.020765762481396523
1.8294311108681791 -1.2648105050685077 -0.005464326922477252
1.8417676889632006 -0.09802916545095287 0.01626687062316084
1.4148671512671684 -0.11883845125989845 0.03485566389636168
1.4178254534538661 -1.2531707471020581 0.0181334876629773
1.4081203360414158 -2.3828343277740633 0.00801738592235946
1.4008821713594874 -3.4639842302833657 0.003304952080040701
1.3970425586059483 -4.474598513642376 0.0013352993145623092
1.3944574977019493 -5.3908047679006295 0.0008903746946364248
1.3927071685828565 -6.188214879173216 0.0014239774470071712
1.3920589999317652 -6.84270849325426 0.002641796117727349
1.393511382957979 -7.329971351756637 0.004270457050159282
1.396452555840814 -7.625829261828005 0.006630904203973143
1.3945197402909384 -7.717505011182146 0.009480587626161888
1.3926790209544766 -7.627345230643054 0.0070356392698417945
1.3959087536166956 -7.333048668787508 0.005055932117508231
1.3978822832227715 -6.8474324079058935 0.0037468528343171563
1.3980453658810665 -6.194695580606837 0.0027224730669490396
1.3974713827367562 -5.399144401588818 0.002146517732116394
1.3965123696990285 -4.484815215418403 0.002138727083706351
1.3948297663883376 -3.4758905920542196 0.0029912286534116805
1.3899592642144576 -2.3957234410069086 0.00568780337001484
1.381715649124921 -1.2646525278350875 0.012994274269080053
1.385406606929814 -0.12461412666294644 0.026747880321918487
1.8644017868346763 -0.13243233947228597 0.04407463620648413
1.8602509551827777 -1.2536789761301876 0.03402272628295956
1.8397889009070967 -2.3793347637801605 0.03232199297260817
1.809930605417778 -3.4610215844133805 0.03645452406778488
1.7729584027422136 -4.471582097034034 0.04283509565941529
1.7278616665503757 -5.387274156205507 0.04975937142373236
1.6745089196509575 -6.184144723104659 0.056275144664138084
1.61322462084582 -6.838310780294707 0.061698725390342886
1.546362282818599 -7.325808712944102 0.06527639289160814
1.4767640267363504 -7.619169323938021 0.0668446044841231
1.394708135106047 -7.699513287346818 0.06940157168974558
1.3127451512714363 -7.62071296603627 0.06743241830391536
1.2434361895939405 -7.328944423732201 0.06643681293404549
1.1770896546635197 -6.843129365117224 0.06338685221517637
1.1165916412519585 -6.190763763243005 0.05838548411741244
1.0643406452456532 -5.395803798872057 0.05207480174309519
1.0206909674352056 -4.482052676888067 0.044951316662481595
0.9854496488362702 -3.4732036124426457 0.03769312385593904
0.9572016586551547 -2.39225178424659 0.03172198415135308
0.9375751188072453 -1.2648579161762614 0.030654607717940492
0.9338243204328445 -0.13896427223120206 0.037738974466075104
2.3169433645763253 -0.13751865022590073 0.054004317183746424
2.3071867897663636 -1.253153869088523 0.049015248170292444
2.2763807557708025 -2.3740813796881426 0.05566864720922504
2.2246858049960405 -3.4543223180403984 0.06851077675971014
2.15446208710453 -4.463292399230634 0.08298828915097536
2.0663827097282357 -5.3771646942844065 0.09696094139686451
1.9607400936978836 -6.172292181975886 0.10912842720380336
1.8384094725688018 -6.824610467696304 0.11835310606659044
1.700218330681787 -7.311677971936205 0.12351925763344128
1.5569571479835373 -7.603521252373364 0.12176116142849394
1.394929068055149 -7.661135901004103 0.11934876317455252
1.232997068575479 -7.605093820123853 0.12253660014290772
1.090033026266877 -7.314874143510181 0.12506457246296673
0.9523644014866803 -6.829525582588541 0.12064142205047043
0.8308123846878189 -6.179048361434547 0.11207745712961438
0.7262210556504911 -5.3858748197500494 0.10037581109865833
0.6394234987584557 -4.473981606384148 0.0864757404197888
0.5705229316034746 -3.4667035217506132 0.07137029260767529
0.5198052393823093 -2.3870135105140164 0.056841316218161
0.48934435704167734 -1.2641832274369733 0.04740476955914849
0.4796887665886679 -0.1444143848349632 0.049382239805325946
2.7762164258795123 -0.13855591291909347 0.06430374465182435
2.765160782929857 -1.2513913040503777 0.06314049780720303
2.726023634905311 -2.367174870185278 0.07726027911014109
2.6516836662180694 -3.4437922424217953 0.09804080783227909
2.5473781445277797 -4.449566176277043 0.11980016159728929
2.415407092029006 -5.360290758265943 0.1399914200306655
2.256227133477802 -6.152248145981714 0.15694249786147374
2.0708348606028393 -6.801880922156214 0.16907344876347755
1.860966744370856 -7.284934119803828 0.17489018913514368
1.6274250902687792 -7.581813977458856 0.16869263215771402
1.3952154129914998 -7.600000000000002 0.14335600082775962
1.1631097434918305 -7.583417884415743 0.1696615517382656
0.9298874742850453 -7.2881950954866666 0.1768330725798166
0.7205728563335597 -6.806897550050004 0.17198337152487475
0.5359867380086248 -6.159144417994169 0.16076323557554484
0.37785573207731593 -5.369174773893589 0.14455392000781705
0.2470657587766945 -4.460437644526866 0.12472421706737409
0.14374091109231016 -3.456295657500199 0.10259499633634879
0.06968580237770268 -2.3800812655873296 0.08025482527255602
0.03014319067537665 -1.2623258386185954 0.0632315298322291
0.018800720826407363 -0.145528699392102 0.06119399522851769
SCALARS Stress float 6
LOOKUP_TABLE default
-7297.698403136921 -40480.43119358428 -14333.438879016361 -7406.319694247679 3053.378019175527 -3847.6178784657363
16128.124741364312 10374.886069471959 6676.692811484519 -3290.0317010963668 3178.2046841634656 -130.8466056522763
15953.836457042662 462.97185883386567 1564.3969376668201 -1551.0101145851245 3104.8853020329852 -1079.3169059881502
23076.539755309615 2145.617780294023 2841.8765445753374 -1599.4350043662014 2762.670145181916 -1171.0998671947489
31156.786430282606 2393.9051433049735 3816.023887440395 -1507.4237759525872 2468.826588568216 -1608.4259396171649
39592.16813971145 3146.8268792082795 5105.461363106805 -1367.7158439067557 1939.1213284779649 -1983.3929179177553
47806.37174736391 3810.5579672012523 6388.794442903934 -1142.467371441868 1209.4523928857443 -2368.6883354194842
55558.22756819836 4430.515460839548 7692.706731255257 -832.7947881931505 294.78869360499186 -2747.2904908791497
62085.62487754336 4926.479826709141 8887.932782895821 -433.44666644070605 -596.8117591191882 -3137.578140594083
66343.16181739309 5421.5730128693895 9810.871115572656 -80.53674564300357 -849.6962612513545 -3556.9276744028793
67904.45205407962 5978.955592559842 10308.018798123258 -9.86433952216234 20.425173709941276 -3842.958942340247
66391.37305045199 5422.143031592741 9814.44023823958 60.295901761456165 890.1878518841964 -3557.9199061682057
62191.58640993905 4928.060739694763 8896.32089862376 411.6699640873969 636.1182292717513 -3139.544960575615
55742.23122274042 4434.045726151986 7708.407528279604 808.4223318243081 -257.94741762901475 -2750.282348290041
48102.379210541716 3818.1141780650923 6416.05659019292 1114.5230905563503 -1176.9688279500547 -2372.300839757335
40048.58230302005 3159.4944015996803 5147.154468835614 1334.8235090106027 -1915.1667585791338 -1989.07080812361
31845.519985291066 2419.6261032214998 3881.491204441175 1469.7240163779582 -2453.504576381468 -1608.9696488511725
24075.959555917503 2175.543171134331 2902.4505769191683 1546.0619047648788 -2780.343470579344 -1201.0795744197696
17658.26468347898 641.04040352074 1831.6600350777487 1486.3836826755728 -3056.26911701025 -979.7669863316676
19823.13629978138 11027.3591011159 7071.20609462873 3413.6509985803737 -4086.7147937339846 -719.7978753828469
-305.16261125446823 -38605.63831112954 -8810.182886346309 4451.868649721408 -5352.989456187443 -1492.3263463699686
-8091.308085514356 -35111.935887796775 -10586.364103714664 -4753.807757094696 2522.7488594948786 -2211.7682676080426
7710.594864367664 5622.831334693295 3166.705401316328 -3938.9427734261394 2112.3740667189754 -663.4077895783745
7955.112753966405 -537.4851583809947 51.94369764289001 -3277.298072281373 1916.5957914809414 -1162.95092106879
14396.235186258222 99.97579726185296 988.6354302179535 -3319.322303056336 1694.5983081489965 -1508.0866180730916
19475.92856519961 -120.89113298444396 1358.803577750297 -3244.65747620149 1470.570052295365 -2000.7913647800685
24851.966241528968 -114.23854411401548 1896.2762379267156 -2980.2669862118546 1158.8317509353549 -2492.1074125077826
30089.411448770887 -114.11325884754902 2470.1748040008233 -2589.473205316992 725.1061044357793 -2986.2432310930258
35017.23135157675 -158.79639596873733 3065.9278926148913 -2019.447926782474 189.77024679056836 -3496.2333058113973
39190.74578510126 -207.79260711427793 3642.390075578217 -1192.881667888333 -337.4773930293601 -4076.759577611422
42073.47367281915 190.418342262833 4229.754856908442 -313.9649238673885 -503.29476946558486 -4804.9993859592105
43427.469956254055 1269.436018784672 4810.174280725344 -17.58776819252646 4.892697112121369 -5369.827514969186
42125.73555047023 192.71724205550646 4237.053902164866 277.6693293912241 512.1059629945669 -4805.103506640439
39303.849469117835 -202.99898156552084 3657.842002207411 1153.1696486960457 343.33408179466517 -4076.8348205723755
35209.0172918529 -151.10559673181294 3091.158391426336 1973.8364181221723 -188.87776430012286 -3495.9974022819183
30388.077285256484 -103.11094232767626 2506.9014264796583 2535.195582961832 -731.4252038485033 -2985.1127313134148
25298.02745145622 -99.91641511360804 1946.282046885528 2914.235330621387 -1173.8493181440267 -2489.633635501661
20119.432593556605 -105.64708202928723 1416.1596727117653 3163.6489183947742 -1498.0859096625366 -1994.3526781055718
15328.967583265114 133.45674890102057 1070.0064385389464 3209.9628384947887 -1722.645078380257 -1506.773656461516
9262.171268005679 -510.1133328526872 84.38557018050906 3108.510286920838 -1995.8904482020148 -1117.6686293107032
8997.142875737329 5899.366809229883 3299.0784568742256 3715.2479251921695 -2415.6187250028443 -951.5585376422367
-7501.027858478261 -36260.30839038732 -10178.071563985408 2974.7935390052808 -2987.0445738924154 -898.3439551690112
-6447.839352645204 -24470.420885740034 -6678.940358933143 -5581.266091077993 1536.166227940578 -732.5359457516595
2645.965819401469 1716.0985756602115 1433.0484269507842 -6398.135824427835 1202.210668160648 -1031.0214687556104
2794.25974660915 787.3188054993736 136.1108647961066 -5580.673462320853 947.3810406070944 -1327.7556639284235
6169.588294874435 -130.70544712943433 183.14548842085875 -5675.768461033526 768.290149552738 -1923.4277356391788
9252.870449914797 -87.50701927853157 522.8715529936699 -5483.002875752073 628.3522081795093 -2538.445094797417
12000.887925508914 -111.14629601851576 773.3130416692591 -5061.074713125429 475.5206279432364 -3184.494307692202
14736.850648287773 -93.80253540671362 1075.0724888070251 -4433.687610132705 270.44796705917923 -3836.438915586786
17366.79866381707 -146.28122052160617 1395.4350666049527 -3521.92944150145 -2.630089694486654 -4524.129247618068
19608.157063921695 -225.28649162396107 1688.5569443687068 -2115.135769061404 -349.7544728365636 -5333.908268029082
21132.17492241346 666.0757930558224 2150.9101986580004 -456.5098663259638 -534.6085466396414 -6439.521858997181
22532.33777719793 3554.669019268893 3267.3976245621816 -28.10545939775036 -7.519780907451626 -7480.497438281253
21186.130654941193 668.7747513583489 2161.073819747602 398.4342560361899 518.0841783136643 -6438.941652327416
19723.701429723445 -219.707538830192 1709.6118853010487 2051.3560265898222 328.85000713189953 -5332.574076988779
17559.245815109338 -137.47994413931906 1428.5595487048708 3448.2395352005433 -25.2976071799198 -4521.621993325123
15029.463348920024 -81.34569078247117 1121.445217714963 4345.22118159871 -307.3470114011703 -3832.0799345795976
12424.184496800373 -96.19806284091436 832.0658935875963 4952.100219128321 -522.1362831989703 -3176.7663528172116
9844.07378350845 -71.60542912634143 590.4629772991815 5346.3691812011075 -682.3056765590624 -2527.118486564946
6962.04435173413 -117.05542898641933 244.08531975218892 5493.230974676518 -823.9027060991897 -1900.8775085728655
3587.0699994929523 797.7515079946808 99.6624500416791 5315.416494788883 -1024.5197262745653 -1332.740360746564
3392.4846268824804 2273.0731845152823 1581.5601033679407 6044.538208841655 -1316.4624205053192 -1046.85332135203
-6417.0911576186545 -25388.460435765126 -6823.403155515699 5275.560342570052 -1685.6482041082497 -700.1201825416844
-4717.329696890411 -14787.025946925929 -3532.408294176014 -5161.265271058658 692.9796902269896 -258.3244735998811
-825.2961997710826 -343.20472533131465 551.3468777624735 -6766.206478745957 392.6245849400365 -895.3815951194797
-1910.3134316521873 1002.044515172007 61.50812252936642 -6793.355446733315 61.930349017955166 -1372.8294103274247
-1506.411064703184 76.03580060074573 -238.7317023852429 -6485.40887820735 -102.94071911485071 -2022.5520739723133
-911.7403004683113 -65.57369281365713 -155.7213185092376 -6218.790093761739 -151.70658265942532 -2694.355084920089
-603.1745218571422 -26.674690601009363 -82.42019659801197 -5736.809446180756 -165.00524285486196 -3379.2636715645467
-314.20968751961664 10.034903118305714 -5.427821869217027 -5036.339004951594 -177.07093274761962 -4079.3308034901966
140.98579372272974 2.0197899389857845 115.20725273694006 -4051.5697388587046 -223.11934456679523 -4808.533135421309
555.6837831611697 -215.8108371909604 141.09190868989057 -2440.388063636709 -431.93859814902714 -5644.892133925718
569.1728328286115 1061.3587747721192 393.62201329119614 -151.18419395088947 -702.1619409848497 -6845.095995174953
2565.1545527618496 7528.483451597568 2677.0908851468585 -31.55597813307873 -18.67453024370508 -8391.756299035276
624.1024324608507 1064.5385582213958 406.5865125059624 85.9214902858621 662.8503749054943 -6844.303994030073
672.1341932009622 -209.33751684636485 167.65225373097678 2368.5467828343435 386.9029913400899 -5643.11028078168
331.61316295079257 11.987181101253281 156.27938644320676 3968.309973731626 169.20035600226254 -4805.310412114215
-31.852416707912226 23.50943202676007 50.535357017571215 4935.976514005281 112.48564171329616 -4073.7848559930394
-209.16622153331156 -11.350862045173837 -13.503129874514787 5612.220273965279 90.74727685376877 -3370.0408474999895
-387.8126453875168 -53.13467253683433 -80.97048381457354 6060.153113528643 73.66437636675283 -2679.092164140473
-900.2309081593802 68.324316347797 -194.9249379993151 6278.024956855266 30.309957131961188 -2001.3941467958339
-1376.7087935374657 1103.82817397744 58.948331548749096 6531.678022434648 -121.93151711247623 -1361.1973797012274
-396.3241321066766 52.95427133565338 622.7447991116791 6612.091771176151 -442.97632549800016 -920.4621511891546
-4806.051866477884 -15496.959951807783 -3760.8952214724927 5111.979649388841 -755.567002592616 -404.8873535117426
-3704.073409521801 -7401.524240942743 -1304.3067277204436 -3922.589138345788 -10.173350945258447 -203.9728201886468
-3480.3162108795614 -985.0335023686416 179.10487294170505 -5690.041354137813 -367.84124143205645 -694.7406844785008
-6416.0435116347935 803.3315056878803 -119.81436681554925 -6250.89073546482 -834.4951020535682 -1269.1752703679633
-8925.636299448652 185.60737951634405 -626.1063754964158 -5825.840714896615 -989.872647774753 -1905.448417286204
-11033.615958112116 19.381355229733536 -802.9525894975808 -5488.142884410169 -942.5079619590318 -2544.364292573609
-13218.80340258179 59.09738390208378 -942.1775453743423 -5057.799453848068 -808.9874198567901 -3185.0485911790497
-15391.68301656251 79.11849948412964 -1105.3225438202228 -4441.1742820641975 -636.6835103859295 -3843.3482382635407
-17139.391862310582 227.19702143843818 -1153.8379517198948 -3563.909691835923 -431.89500316861125 -4504.445842924083
-18404.94703977073 -149.41002776503004 -1349.2756708016655 -2265.2767766284296 -384.4398390140132 -5210.001524569631
-20388.024562707335 380.53519479662145 -1825.6400034793799 582.3100577220205 -785.8187391070751 -6186.770221380078
-16670.06572958526 13623.93628398651 2747.281224989541 -28.40361660339125 -30.076674393251913 -8204.036736083619
-20331.855609621532 384.27098539074734 -1809.7784945180067 -641.0841141698824 723.1730009950535 -6186.243774921257
-18287.07676160518 -141.89889989404952 -1316.9988107532247 2200.4987489314453 314.57851045404374 -5208.784371667902
-16949.88740314378 238.46574492703448 -1104.516587861333 3488.7522430184526 351.0351997927872 -4502.148219779704
-15119.120310209897 93.66667676704353 -1039.4144572876937 4350.526891744944 543.1733909086416 -3839.2258878496095
-12854.943969918742 74.98216668736836 -863.0963572261207 4944.853307071211 705.4748706878067 -3177.8007196728427
-10589.528261100304 27.03632310691998 -724.1496453520475 5343.466405474335 838.7821087046754 -2532.2560763051347
-8470.957938116328 186.7624575230477 -577.1008563746548 5640.915443225095 904.2617065150743 -1889.029630095026
-6060.317695111284 901.055099649857 -104.51319335350381 6071.661774794732 786.6186725061738 -1258.1299910172852
-3244.865467518385 -764.7380203597248 201.73831389870122 5647.591650618162 348.315577053593 -725.542642844453
-3777.008271218692 -7827.5166582933225 -1472.3368997825883 3950.6311271115774 -11.01604690919119 -341.0402954379164
-3449.4156893846175 -2961.908265541154 22.254923668124157 -2171.8271263939646 -628.0902107429084 -298.9050122497282
-5581.9070360095175 -920.6700120165175 104.93112246372174 -3278.296703905534 -1145.534835154526 -498.7345804940439
-10841.9468906365 462.17551806234707 -417.3560437362187 -3755.318186041086 -1826.8250733246425 -997.2048660821479
-16327.575117102546 197.63636529654775 -1149.7864634294378 -3492.0887460455474 -1973.147827026201 -1504.703205635892
-21303.560154980067 67.01728273969549 -1647.7023309675794 -3250.7589048058926 -1810.9414666071314 -1999.1217255274246
-26090.138898296278 72.02187721863959 -2073.3649562524324 -2980.301700252293 -1507.7534715717095 -2491.6210367119147
-30709.287952953542 113.08272060147473 -2489.1139849846154 -2597.2702544430495 -1112.1407430725897 -2989.710133406564
-35151.244698482595 66.71304934830782 -2973.5975634370416 -2081.0331246757355 -658.5555201775784 -3495.286659323716
-37682.471648760606 733.6567036894021 -2897.8935217423627 -1207.493772852548 -6.858984870644928 -3917.276806761932
-42540.590875935195 -2566.694704195097 -5336.475484549624 613.7967312933906 -306.8332116269812 -4476.093403649705
-35212.6187066083 21750.13119645428 2962.227241278578 -17.97068954069386 -43.25478008407724 -5948.6583461960545
-42481.85597819564 -2562.39872340447 -5317.453752894723 -650.9727316649099 217.15694297112756 -4476.259673185399
-37560.498320333834 742.2400276757825 -2859.397986318137 1166.5648174889316 -91.955622774422 -3917.5225399446967
-34958.771956714954 79.38570928341782 -2915.361714466209 2033.677433365936 545.9255295560286 -3495.3936348128786
-30440.750360886315 129.0648651853583 -2412.554736352945 2540.4349723797072 983.9301570342614 -2989.2212621526883
-25751.79777935395 88.13601394928031 -1984.9681162818706 2910.069000318039 1368.0430278694191 -2489.694103311271
-20932.992341958106 76.54224453923146 -1564.5324863777587 3161.477592059179 1674.4865707848608 -1994.7115292971698
-16005.764224223261 208.542581295264 -1096.9411459924092 3383.9638302053904 1869.5669559653093 -1497.9342210926902
-10642.554028315904 530.3021806414487 -400.84430918805833 3668.129516609745 1787.3396161643968 -994.3092765310462
-5494.574860214077 -819.1235512800431 98.81822504416516 3277.4543604716487 1153.191518288035 -520.5879800222064
-3506.4236093473905 -3146.4483340595243 -71.8141768758838 2200.4578010535265 643.2019769777312 -387.7740027991791
-3013.053927068277 -1279.002816553142 933.4221382545827 -1070.8546562335744 -1257.4255660767549 -360.75561901102475
-6765.3777687170505 -828.8288661660582 291.95164329250713 -1535.6169069525574 -2034.1860898116292 -417.12079869473666
-15493.980925633474 -653.0535647565797 -1222.8842962748154 -1726.473609600476 -3018.366784408114 -828.141172341096
-24889.952977093504 -1692.5993994890855 -2920.6252709121795 -1659.9985944389525 -3151.3008407991947 -1232.501639199919
-33097.14616300776 -2513.902806108568 -4179.84133854465 -1543.5951524698644 -2840.53173527131 -1615.916867797242
-40855.48914879868 -3188.8996812895207 -5298.252283964506 -1384.8651144330227 -2318.986687214157 -1995.298878309287
-48386.01283156749 -3772.287710252008 -6386.250050036411 -1176.7395215974238 -1637.1685353443438 -2380.096226447718
-55689.04810195996 -4640.2416545924725 -7630.098901334688 -862.5562377951617 -827.5919251589927 -2732.0164596267664
-62198.70529215029 -4326.209283019203 -8524.83891252442 -422.0986637201199 335.1448293830133 -3148.7467360789306
-67960.08103502494 -10273.21352806286 -11983.490194212773 1173.0892091726291 2433.5345176016854 -2827.7922609613333
-54968.49767169709 21728.635081138815 -1309.87873392977 -11.61190599156248 -60.14544570082842 -5831.717648546903
-67895.2982415052 -10266.509769371629 -11959.949848680411 -1197.0777271561874 -2557.932137363001 -2828.1316026752656
-62065.74660740662 -4313.082875490432 -8477.613202517801 395.834253683674 -471.3915006018463 -3149.328668289603
-55483.44267403567 -4621.570967409592 -7559.75712291148 832.5536820526186 673.4427561588235 -2732.6209734046024
-48108.387046127515 -3750.4869681325836 -6296.275002826263 1141.6838105342465 1462.8334893056265 -2380.324641816273
-40527.311524492485 -3170.9148298056216 -5200.395851566633 1343.7864532395554 2129.8243036012914 -1994.5601688454358
-32789.283742609434 -2513.3892182189807 -4102.284228314339 1496.050834061431 2656.93496695463 -1613.810135353918
-24724.933708067212 -1715.0445580681367 -2903.1746443964057 1609.447393018138 3017.1986102894334 -1229.8720542175022
-15526.957310500926 -661.3200568941888 -1271.6427248644213 1690.1073511986115 2985.5936775365567 -829.8362631744658
-6873.836305872857 -821.1492735077304 226.37981158901545 1537.8020059298676 2082.9580502827657 -432.13527528667834
-3145.96400570264 -1391.2848737510171 854.273143339063 1079.5373883745401 1326.094154883096 -420.04412426981435
-1102.4166388088497 -24509.8215506498 -7683.671456837593 -3809.5673909839647 2032.3760706447842 718.9380605317185
14448.583582620284 6947.897862898395 5061.59348753367 -1703.0308867487422 2192.9653443079924 -225.33774962569055
16781.162522485993 840.7660048913782 2212.3218681256203 -608.600106467138 2056.9374163257107 56.29969244671905
23760.585742179723 2060.5260667066523 3372.8665871573876 -661.5289752614623 1827.7772159495812 -38.50741445146069
31411.093404441577 2420.6448751508983 4508.850030287966 -656.9995319367185 1395.0263350830069 -3.951803666802567
39310.101742176164 3091.7044805296305 5929.003060602936 -673.787533928765 834.4047966845882 2.688263064580907
47073.69294710381 3724.4506440445657 7455.1197474931605 -689.3816848716965 129.7356908847994 12.61507224269985
54725.36298297603 4403.9790604384225 9192.57810968886 -726.079924273257 -648.5969471766907 0.9996511370201029
62254.86741113538 5077.853701634029 11208.963172887807 -762.911561532602 -1254.204023719638 -81.86506746896131
68773.05022497165 5374.29554053788 13153.931149103015 -614.291711047839 -1146.0011628350583 -314.46782673256365
71421.0153718395 4990.736765022351 13885.046606648235 2.067818267566004 10.849451623928541 -558.0735793066691
68787.40650538019 5373.496432758821 13149.890705745667 618.3950919315383 1166.4797308560014 -315.8993285894372
62285.603677244966 5076.283021326172 11199.820104850503 766.8634013281034 1270.8394201642736 -84.67745836983309
54777.42400433154 4401.784944927483 9176.10069124007 729.5660839501439 658.1383658110667 -2.920862305953099
47157.40302546593 3722.281276932621 7427.959699882022 691.8203147427969 -132.3029528280444 7.950918003399783
39444.63198837951 3090.508795518217 5885.696261872326 673.9211833686003 -856.6965632240097 -0.2463753169375682
31635.188921703044 2424.4833549624145 4445.054149929858 654.4099403691813 -1454.0781160822035 -8.07575253875342
24128.648978184265 2069.1095707550107 3269.5355003462073 648.8512170381777 -1929.5178897623787 -14.934945937416163
17507.243538229235 897.759289863213 2140.9596545078866 585.0757324716042 -2322.667109619598 -11.117182615251913
16156.702720551919 7166.000699464123 5079.091546434714 1688.750732221998 -1962.4748085686813 265.820516629854
2255.4514301822146 -23215.161539168294 -5468.940657807917 2250.9895914519166 -1657.925287197456 -1324.495730398111
-3627.011340402512 -22379.915627294286 -6781.885445450128 -2444.7022048781673 342.280413333591 -67.36857293176465
7601.534353315204 3703.861234861328 2674.7077977520544 -2123.8688591540945 737.43272587973 -204.791820783352
9569.85974708932 -200.58003793852396 860.7360456606926 -1672.1755680879141 1254.5584911003834 13.445718081081521
15369.402625034356 232.5112172477467 1705.363789563119 -1736.2802966118638 1052.0424556552623 -18.10940955894876
20238.530183790423 119.83884285062682 2235.8203540449354 -1788.0679332226596 783.9590480332596 2.8466632839073513
25310.171318611512 149.07907943421097 2953.4349512506005 -1797.910089998277 427.2258254454846 3.48969029068399
30302.40550832188 189.19629529092356 3773.237333408349 -1813.3833858511705 0.840746555230222 -17.15873841010452
35181.20974560983 274.12954357651284 4735.711060344773 -1861.7862179622405 -457.1791418616119 -98.5217993686326
39846.52481044547 299.75591139589574 5829.300067198275 -1930.251097312573 -811.8158671492373 -334.46088287394133
43579.9244028713 -339.99029003274626 6670.777644454219 -1583.7743728580206 -748.1838057413494 -849.2469846195812
44695.53346018248 -1807.443126888285 6590.220325272038 2.9933455060160696 -4.179959286201077 -1361.9439269153695
43596.167000608715 -339.3495704075547 6672.609361945178 1589.6690802256337 737.9215587846309 -849.5551448118215
39880.771011438825 301.01695624123874 5831.890754859068 1935.7510338142235 795.7784065801472 -334.7361041495953
35237.61997889491 276.0161429890471 4736.714548872636 1866.1947129057464 431.17653409688387 -97.88558897835367
30389.024009591325 191.7667519190441 3768.4970594166152 1815.2834014105101 -41.60967079530265 -13.850740132667102
25442.744936516025 152.69070880998424 2936.895360010717 1794.7885073961468 -489.6568061760601 13.107530706581894
20443.754179989646 123.9225962794915 2196.277568128341 1776.5384860436805 -875.6107096257982 22.937844290432878
15715.469532073288 249.23597127113038 1643.0148739918902 1707.304191699282 -1194.414035741538 27.389932868596677
10165.04345905421 -191.28856512413068 749.262292098364 1598.1447631166645 -1433.8028374135895 54.35526189738812
8212.712970418594 3772.961634889903 2553.1769623097853 1947.2672105431452 -784.9820050271063 149.09572168228567
-3101.9737753840404 -22341.943489100602 -6592.026586401247 1451.1278170545331 -234.75256496986827 -1397.1998057719616
-3368.7969805143575 -16252.430150082495 -4441.572683287754 -3226.5958603559156 -54.27364916238212 -1347.5119387443588
3317.4596656899303 1245.7362757086146 1446.4624941255875 -3688.439626267359 168.56841873089184 -202.51762229853964
4351.83324171659 650.1641582709959 686.679941583958 -3050.23700331983 506.2450118480755 -61.749405850453854
7390.422495563863 62.6310603724318 800.0756485674782 -3136.819587263586 429.9750990970356 0.85665993121063
10121.567138047873 113.98642499546628 1138.8645107387213 -3170.8158229513165 272.5112846341154 -0.6692923331963856
12629.211719448023 118.20306893567074 1468.7483825603147 -3183.2155988554778 91.94842942885947 -20.468697750871932
15104.67603216095 147.15062236607736 1871.2091702053845 -3190.8401809299435 -116.74179767933428 -90.07979014960321
17459.029194921735 257.467163916862 2354.59270469315 -3225.5088973542415 -353.73574021783674 -264.33624489224877
19770.59082367308 398.90301152123214 2945.711591044422 -3337.5995516515613 -613.3947780375348 -673.6353388049068
21790.983576941573 -671.34704791203 3214.6386188644387 -2886.788497019871 -681.7033056032004 -1524.73017594492
21642.221387090864 -4155.279652834133 2181.3578588187397 4.3906851772696385 -17.511092633962104 -2509.062138153395
21808.405645982773 -670.4498755234628 3221.9200926387084 2895.400515324926 644.2384149660628 -1524.0168238688825
19806.73581255899 400.6539450647163 2959.2666151202366 3345.5047004512166 568.6581451512931 -671.584927482424
17516.779911013888 260.0051510195681 2372.0687563189263 3231.514798224269 297.1036177865796 -259.4319884423459
15189.563297011144 150.52308408059253 1888.386634974697 3192.4910119982205 43.92114044517214 -79.18552182248452
12751.480690626116 122.07729157410655 1478.3408647706472 3176.174137486848 -184.72050232272824 1.851266493614757
10302.342874483053 119.24940146433522 1130.8816486230821 3148.161521403637 -389.12115823124515 43.53399198009536
7675.683079566408 70.93231739712525 762.0522879376443 3085.2498904929903 -574.7453850244012 74.30121003611374
4686.449050369422 635.8144152797779 564.8642670060982 2929.5981218362 -652.7362366518333 85.85758590559455
3647.051826946446 1500.635156955421 1367.5912912552328 3444.6423123186223 -198.48593837880944 -64.02241281953746
-3221.0367341481096 -16233.063620675985 -4534.578813716654 2947.0743303151485 121.29417956023688 -1888.3202684658095
-2796.296061233267 -10284.304087173536 -2244.858689558867 -3050.809442315301 -175.22714572931898 -1477.4111557202311
127.18536036717502 -212.71565762985156 787.7362645953342 -4052.2605418796934 -167.336555485912 -363.26723858182476
-470.6054131928055 721.8110337401635 405.83551140774733 -3853.0281145677545 -104.69067603018547 -91.65571059647606
-285.1078050125716 80.6210397486694 84.77888956191218 -3639.4966421388917 -146.3501494597717 -22.673616042121356
-76.6417096668438 -21.402939341968054 50.706231791952234 -3638.9792765939237 -196.58543854278827 -19.429313881498857
-55.61821663777391 -2.946059889847751 44.6970937588489 -3647.0637041832765 -223.09992380698608 -57.592172042498156
-89.24937441322044 -20.162895456775168 39.31841581534758 -3655.6222909824883 -241.38020934538224 -149.97140665281862
-247.81340345669017 54.61224823414772 45.17120095876672 -3630.4321244626326 -288.3020312842519 -347.729537296749
-211.207413480929 413.02969800756784 200.75309209525705 -3746.5937278491306 -488.5394079636278 -772.2695166243976
485.40843650658604 -967.9851038384169 50.492391730618195 -3667.05157293859 -755.1627340026538 -1699.8888151674869
-1371.5380130058984 -8250.214345970247 -2587.690044238502 4.774314481253409 -30.16566177584769 -3221.447072592861
503.92181875624 -966.78889572462 63.312320447416724 3676.4099410170165 691.8931137020869 -1698.879133770692
-173.45035606072423 415.3717509698652 225.48275392342916 3755.1580611275244 416.6667222239087 -769.5358180268572
-189.37274279659675 58.03519486361909 79.58550601693914 3636.859982480629 202.8982620631538 -341.52123463311847
-7.71989022206175 -15.721220602198548 79.07096665725727 3657.1210718093253 139.08325895901112 -136.80636389751004
53.61468202297064 2.297725245690705 82.1829192195304 3638.427410162605 103.22435689338013 -30.837274283417198
72.97237771038256 -15.353297802197492 74.64484131676603 3611.3851471068065 62.01811708041553 31.703417353034165
-92.20342569655165 78.70260804346375 69.73728235272687 3577.5937810959936 5.741431108877215 69.8787137972134
-282.30187345366136 754.4939228537141 328.7546075363065 3728.854431858097 -4.994838503264648 57.77412650647616
301.31374306243407 9.01568873827593 715.3112327077752 3922.1052918462933 158.16443539148239 -273.13596177232535
-2792.6415581242945 -10363.913656349107 -2429.598104575242 2960.310440263536 229.3564869088181 -1800.6905923445156
-2530.324081509796 -5463.181995114254 -503.0853300461957 -2309.8896438535803 -295.6008589430361 -1277.785646658471
-2454.204288497507 -762.3836477409436 522.7437407861777 -3432.8274095533297 -477.26619949405455 -370.4395578584838
-5090.130235463074 479.4496720639373 66.75840776203418 -3548.694269656612 -674.4859000298705 -95.1692164397913
-7764.066743596556 38.77139281418544 -599.8405550839714 -3226.0041303684197 -720.7927597663952 -11.660880906272592
-10247.101707979935 -113.1919397815194 -1018.8946694492352 -3159.242584104391 -670.8915071433619 4.209389520908161
-12772.866879476212 -138.5041657579846 -1395.181305141699 -3175.8096990183453 -542.3247440642235 -20.9707245745909
-15244.719118052592 -144.02502518835195 -1768.645015556212 -3183.3972490629953 -373.6724939778759 -97.91665297378299
-17862.501739069063 -246.67437630506615 -2263.7886182061834 -3154.955900617647 -208.29547547474442 -238.98704173063706
-20271.949157741183 305.34557413383993 -2604.49042893379 -3102.0264822075815 -260.1252557702716 -540.1140898784153
-20495.99199231483 -168.76417717454103 -2752.8945540039035 -3921.7947355510755 -803.715479025005 -1242.4552306191738
-25250.05372410179 -14296.36851589785 -8316.026748824483 4.495671028738096 -43.09055514248446 -3369.3477841589884
-20476.34708046187 -167.29157713080753 -2734.4660761218884 3930.643936597855 714.0570388434609 -1241.8928547233859
-20232.50153353341 308.25160226240354 -2568.413075288415 3110.2521070333346 160.39748526747633 -538.3666775036191
-17803.274962491178 -242.4038154243757 -2212.1275133137838 3161.425368150714 93.18405228803509 -234.53500181801974
-15166.521935596753 -138.49633474022525 -1705.794719423796 3185.671924806989 240.63117704356404 -87.68458469396009
-12676.88322635409 -131.72979169523362 -1329.1135944652892 3169.061391839867 393.92512448684556 0.9010258066716643
-10135.466338560795 -107.56076623030215 -964.199409453205 3134.7960749891445 517.4726516137239 48.438321757497235
-7650.057030499161 43.01360735671046 -580.9759224697433 3169.6378735985504 584.0373625105954 71.04598765597173
-5000.238640600466 522.8558932035522 33.14757831121798 3461.519626485486 593.016930565309 25.973636811476315
-2379.4717425000035 -625.1737314985488 458.70410499914414 3376.9280655549937 480.26467292949496 -308.42575643255765
-2568.2399541103796 -5550.67263939164 -680.6168390733255 2289.0172350033986 340.2108409990565 -1492.178011668335
-2707.8653842785443 -2422.5372897231478 659.2483840928113 -1207.9579900000895 -529.7487191187861 -829.4548776040228
-4629.030716746327 -787.7250537998375 504.47880571356325 -1919.232215410413 -883.053625705501 -252.1111379467037
-9609.351324677498 205.88954238360805 -302.08886728966286 -2047.1647164760375 -1304.0289807736258 -86.89908859983913
-15159.39347967241 21.1127573014612 -1313.8343512252864 -1835.380366670222 -1353.3458268243496 -13.744562751875753
-20404.98509386358 -113.44451289286702 -2134.585623557214 -1775.4354674505464 -1194.1593871189143 6.351302890945614
-25479.724488071566 -159.22218607481173 -2891.4258969224875 -1789.6204707325726 -893.7101517148692 3.573042596139193
-30471.08119527469 -196.65218741765003 -3683.804968888111 -1806.2464926407006 -504.75222248099175 -22.486812752828904
-35121.799384119564 -114.63834236657894 -4455.909010033218 -1772.7146399285161 -108.49465270087933 -91.04546611645749
-40580.42460322857 -658.2783377758042 -5860.93503548424 -1828.6611834179832 242.99958953486922 -142.7996447231895
-41256.42919609376 2950.3690445522625 -5041.6600406540065 -2476.96177076536 -507.18441408004355 -464.338857642821
-51165.79653935971 -22038.40449203068 -15673.732076924645 3.117828665838754 -57.237090632453345 -2480.2662290312246
-41235.493526869686 2952.0521287655492 -5017.574422789835 2483.141845790105 388.55356292725804 -464.88628079162515
-40538.88727829544 -654.9413577935148 -5813.399206033364 1834.5558830397163 -373.60228226452784 -143.55470996607684
-35060.96024636474 -109.72805657695802 -4386.808945832129 1777.702078224221 -40.13816683908242 -91.15276631846571
-30394.45340200623 -190.28090977623486 -3597.529949154184 1808.8991589423376 335.90608940666516 -20.176343368178248
-25395.07421437935 -151.92711889049 -2797.002966929676 1787.0392459813725 709.959784351741 11.862701169407753
-20327.682187513565 -106.75367171523112 -2048.7541324340755 1761.894925966521 1013.4560710383383 27.723136829653594
-15111.750950146408 30.851216093692834 -1260.6472458008645 1803.518469046714 1210.4975798717828 31.296004554253837
-9599.523323030371 241.83648222717807 -299.61230712532074 2004.245755404257 1242.2415313138508 -20.77138169764909
-4630.58684276628 -722.4608666622432 455.0762205142978 1900.2658027991947 902.6580980325031 -219.76314459573607
-2761.338586990535 -2477.528635798966 521.5528505305152 1203.5822534165163 580.2927280553167 -952.151372235294
-2906.8443250320543 -1328.3481205766986 1396.886986940234 -462.6692460286357 -1012.7859403673756 -537.5656209416572
-6378.961507632821 -935.9050971633276 576.6081926215913 -751.0547749427558 -1521.0661621542758 -175.2678651917315
-14507.0763375489 -898.8227950944795 -1118.1533859452666 -737.5951851256028 -2116.8265529320647 -94.32688203041559
-23462.574183509198 -1725.3063880360933 -2956.5253120712005 -668.8124627554014 -2134.3000933951494 -39.075338139791796
-31652.95190598103 -2460.859184590872 -4466.867120529576 -653.9166488599197 -1835.040897661255 -19.44247933409479
-39507.85079014798 -3094.390699496726 -5885.041921936491 -669.1372832798089 -1321.1398548071613 -6.304921876888969
-47280.72508590273 -3774.7066680535777 -7394.035823225425 -677.6610192621398 -664.6753855550829 3.587775578374135
-54594.21335464241 -4122.702408447198 -8843.065976338528 -708.3850853559463 61.36576467584483 1.805530764264489
-61148.03394582704 -5513.762222868844 -10668.920103124048 -729.2913799375024 808.8386938771926 13.199026651398098
-65419.74189039974 -267.1320132973633 -10569.837586002408 -1767.8567145881882 1206.6595649686874 285.88829475554735
-84520.25885430824 -34615.10440445315 -28111.939936682415 1.496703054300852 -73.64052015549424 -2637.2819775602898
-65396.76248293871 -263.94222695430466 -10539.528203969223 1770.8539535549985 -1359.0224016331115 284.86145140203877
-61102.73434094566 -5507.425031741871 -10608.801767856477 732.2533418392236 -975.847707458025 11.321743986876754
-54528.74127194181 -4113.367083904043 -8754.873043562098 711.1038587993619 -250.4551253548152 -0.47664786830708294
-47200.53572367463 -3762.8081987292926 -7282.324854362329 679.5884227245496 450.8148824272632 1.8168707085724591
-39425.86174435022 -3081.539397004903 -5760.255315667002 669.1101197472296 1089.2776016509395 -5.693055006783702
-31596.955627866235 -2450.7969233874933 -4349.871537826437 649.4759401236756 1609.3800973455004 -12.6709526876853
-23473.130858880417 -1719.6719920641776 -2878.7188572324435 656.6704218881661 1964.4646401093946 -20.392566888886474
-14591.25856790326 -885.2781354418692 -1103.0164532657595 719.8719635012848 2066.270195313336 -65.86677913969349
-6467.338428994715 -914.8950133226451 534.4538501774958 742.1686678953263 1584.9802412112995 -162.6353444547023
-2999.794870792066 -1369.5265057300214 1292.2139168375961 455.41808485244485 1117.9791271108757 -611.7973837586017
5075.905718184247 -18611.371162482592 -4060.6396332894997 -239.38914508575567 878.1361183390969 76.19998637623792
16149.259044444998 6629.883518929548 5565.540100920565 -1647.1535784812004 1197.2246450245163 -91.36160958192026
16731.365876869517 818.427932729004 2842.7339313344623 -651.7408376856503 1126.7616463478032 88.25121461213841
23284.3544213564 1776.075162173266 4023.3951064535336 -744.7393334514722 941.8872673738149 101.83272606563403
30652.56615392687 2127.402165223151 5511.551858346185 -780.3971439386805 605.6650504416631 140.5266861542627
38211.95119819706 2720.342009839869 7376.244844508116 -819.4124167076297 184.59033171142352 180.54681316280787
45846.87620001074 3313.46813303854 9550.212456725856 -872.0404276780113 -291.3279354286918 218.03456773389644
53995.49459162853 4041.0666579388526 12232.418728234432 -972.2014096695247 -745.9791743373582 234.89852954876028
63219.15082493641 4854.411105925278 15563.885568726788 -1091.4770055955198 -1000.113757822511 197.8856025115061
72311.72628038222 5120.235538930235 18856.169264477157 -916.8883290141821 -776.2632235742597 85.70214403166646
76227.52300108994 4427.72390366996 20103.563266400404 2.121377205985752 1.0026358411056644 -9.410862625813909
72289.44595728716 5117.741156166688 18845.855171228992 921.2606013972451 777.1153176075117 84.48538890082037
63170.69257972275 4849.151728060111 15539.92718436514 1096.2500980778248 997.379170874896 195.46662758914988
53912.35353605798 4032.452910918835 12187.496664259304 977.7111608227207 736.6654769876278 231.4000857324239
45714.09712159312 3300.3297798576386 9471.530869038072 878.6551993222103 270.76965376809926 213.81872978071132
38006.3011615119 2701.5039474248515 7244.4332726110915 827.8803623745106 -224.8117732288134 176.90641071772177
30335.216867717798 2099.3228920162314 5295.6423066777 790.2655479776621 -681.5926394527753 138.40080986918625
22805.315241440087 1738.3050997704563 3688.941070054893 762.8225244078367 -1071.7709386645424 110.59928893492103
15858.028777658488 719.5445028285782 2251.9303540503797 677.5539571012189 -1327.1871263382782 81.07467981026093
13947.887291765464 6192.983413098129 4428.981693394124 1609.666944879555 -1208.109646303586 65.2557123141187
1344.4986751212073 -19650.594207676113 -6907.911704535511 2067.4423771959837 -1067.917972441303 -637.8024307690359
-2454.623832012412 -19030.26781075654 -6632.391388570789 -408.34210541426097 464.92017953539465 -227.57978143005823
7982.2058686176215 3463.5708376751813 2852.2803815941243 -1869.3460814991556 563.5975195303399 -191.4520299254882
10027.478854033632 -249.38583535750362 1421.2107349221587 -1685.653896743396 705.5089856706479 21.18023969020193
15300.408836952654 47.387736903229374 2328.866149995975 -1857.839801507155 589.8502302785331 53.519567205296475
19932.10780981883 -115.60955546758876 3077.722074553431 -1963.8532155457087 373.6449870778548 78.18752991619678
24783.600904902924 -149.56388195274133 4127.345946305019 -2033.7267852737216 99.89464510429171 90.36674914994285
29691.07886746841 -168.09462125673457 5400.35578436342 -2147.8512910752115 -198.94584110643837 78.7759254549797
34878.93028551422 -97.77572877960921 6993.8992838120375 -2384.0726731645505 -474.86007062659786 14.17617269087244
40524.562844270986 -131.26922696908554 8885.295162813673 -2728.5363751902582 -625.0133484493307 -150.19766967996705
45580.70631877106 -1298.3667886760666 10373.28461039733 -2391.189101965213 -487.44813085436795 -425.18813483378784
47142.26165123957 -3661.2361360184345 10338.267674602937 4.114430657458245 -9.00210303506702 -621.4666141831883
45557.91533486932 -1299.2689135798032 10373.60735263768 2399.7946576968493 467.73987663021575 -425.47704244131893
40475.65745469978 -133.11205221956732 8883.311338743802 2738.336205834784 600.124320762261 -150.47523486395394
34796.836095854596 -100.64944037436914 6983.693788083352 2396.1018519836307 440.9814057760521 14.686970802336141
29564.094472812856 -172.09534110885616 5371.522481068809 2163.535253171153 151.3152832491455 81.72435954216948
24593.17615645937 -154.7112537743069 4062.7558242939467 2055.0900035926684 -168.53260737321875 98.95437136797386
19652.155309045673 -120.68874298641232 2952.8576979518148 1993.1914281669065 -474.13397330435146 97.51992013562003
14868.541990989139 30.47825960484454 2093.233300555671 1903.3914099019923 -738.2870951014548 92.31134503741764
9325.713234159008 -268.0270429845474 1016.9180203031038 1773.5934891440622 -877.4894698157867 81.5903059725798
7243.737817549404 3333.91801104628 2216.0689973377475 2032.1239925002603 -630.8579214661434 -23.65679225608192
-2961.621916537034 -18769.278873782183 -7590.98439196313 1535.611952921571 -412.53697562031493 -825.0196155921531
-2775.453123830948 -13650.280321912467 -4591.1855953807635 -2646.521316518217 163.11136590920765 -784.6121305204163
3626.6874481723435 1728.5427976176047 1632.8226576768004 -3253.7354439061432 205.2026442351669 -289.3750579369616
4685.143677351449 419.53897784959634 946.2326564106621 -3033.036645418935 287.0946036663975 -73.74567322917387
7623.867227999445 -85.03228744133797 1179.1047921767636 -3277.3268631767583 237.00645281052385 -1.0558758635247552
10150.582991904006 -78.1447967941379 1593.702183884874 -3404.3849564654292 115.30228247730669 8.993496470419625
12514.86533035502 -119.91424585779893 2081.9082833076595 -3525.1216044122853 -28.962533055432086 -13.161656086620612
14889.007411392737 -139.23006135487358 2708.074119256763 -3706.435458377444 -178.547912012959 -85.7887220921743
17302.87451086444 0.3838636760589349 3514.7332966630565 -4059.323186162427 -317.84582568842075 -247.633244825924
20079.553847664818 193.46256992277878 4557.753668248419 -4672.367773739005 -413.24026754199446 -556.700577700989
22866.015505351337 -1611.6871548218141 5108.85852616374 -4335.457081450025 -354.86568192918315 -1020.6634291408069
22641.131079413073 -6933.171534626389 3671.5949630224295 6.638858506939579 -18.824533094441367 -1356.0240460508085
22842.338276674127 -1612.8867213014214 5118.999341807229 4349.36227497973 315.07218790871855 -1020.0523134187786
20029.45154344151 191.0604170452475 4575.991172954777 4688.268202469103 367.0472767331319 -554.8526464504793
17220.786541587353 -3.2164546427341634 3536.346411665084 4078.963239601339 261.0688127612208 -243.01287270015922
14766.136434891521 -144.0562304118324 2724.2447669839376 3732.299070347849 106.93051982075255 -75.29038659561981
12338.593237802233 -125.24923510102806 2077.9103416701882 3560.7864039013484 -62.26067875643828 8.80326448150991
9901.183698766929 -83.8648745334872 1544.7945022978545 3455.016157123792 -232.48866749599864 51.94617091177175
7262.339744962811 -92.1948081714419 1044.394188622997 3354.685257642054 -384.3731105289333 73.39003268500547
4288.780866853088 430.97518107299123 712.2969747359157 3172.6598374121904 -434.38523818558787 59.731490777771505
3222.6066363593545 1404.633399526682 1102.1102464164358 3497.067652029439 -247.10647321968483 -175.0371187769305
-2917.8391131083745 -13449.077565907237 -5241.824862218366 2895.648569533548 -111.33661067521656 -1213.6028987144127
-2491.069215896444 -8666.399191420493 -2305.2793703300263 -2851.359745171341 -19.421090951745462 -1006.0441611087729
388.6135541440594 395.0697982468017 929.4293331133647 -3814.149952684948 -62.42527022230794 -339.8873173519399
-127.87788162979237 649.5252938302002 495.86104109443266 -3783.9924777589513 -89.36632323319233 -101.75950698701294
141.78738584449366 24.387282864702932 163.39577780104148 -3770.0001571773696 -114.69267404068246 -19.72743341626253
300.6395202470127 -29.88687757083659 96.82404665483247 -3881.7760363459006 -150.41291619869338 -6.094200173195567
240.5941726572455 -8.163561422702118 72.69609108562534 -4018.9961682989147 -176.82731551457107 -38.75069437409846
87.12879766401917 -28.912681030822775 64.4879460250571 -4227.620694696681 -191.00518203097135 -129.9447627305678
-261.58643958488335 134.2215206910193 92.48801669648299 -4528.677456231059 -209.4718562764755 -316.77850822324865
-212.5658068127947 741.0658596777189 408.6980803334311 -5191.31538802784 -262.49680213987017 -657.388196451212
915.1085952283657 -1501.6721055646485 290.5936311970256 -5421.911867571386 -278.75682485939916 -1186.1603449661563
-1624.4947853309209 -12154.546804882177 -3359.4382635604143 7.523499619045216 -28.618765476124334 -1618.336572025279
890.6578745904353 -1503.2421003421869 310.58378913902783 5437.6717016784505 218.97638905800343 -1185.2756026492098
-263.6091202219252 737.9532545276056 447.2186434770164 5209.339619780736 195.25042936157158 -654.8885199158808
-343.26344485119137 129.62582219915686 145.9524086283201 4550.9372011861415 130.3632477044475 -310.88224207290995
-30.730309401898737 -34.81215277262195 125.76380266876994 4256.943719439781 96.62761116651328 -117.11955653466366
79.85579248533404 -14.573711935224997 128.82816769929653 4059.7152999842756 65.19250082300023 -12.432667556696842
86.02630291520214 -35.54398379949692 124.56534014696767 3940.8248072129854 21.356012219424702 44.32656168012282
-116.86007952334869 30.710836916593447 135.75141205395786 3859.8911325980716 -25.76963832188487 71.08610943164581
-365.70666533363203 607.5551406163055 361.3779705977263 3925.988800251201 -26.893331126015987 40.263331606519294
169.60864594317667 140.62091060583592 550.8819949697183 3932.624763862942 37.91838800405974 -256.62972195811926
-2509.870625662674 -8447.084168313151 -2762.7507901704857 2901.386196665131 60.22954661433874 -1285.0181876835836
-2359.3240923662815 -4594.362829719373 -316.13112624364055 -2274.978277442369 -173.08930933224445 -945.3956707378641
-2254.1628496366147 -285.91340882388494 627.4259942522372 -3341.314542431843 -309.01589064469863 -290.2454957408035
-4711.740225473086 540.6348540805984 8.05780096498632 -3524.7097743996383 -452.8044838794096 -86.74314607470477
-7156.5334387171715 116.89819701435054 -807.4507289713564 -3353.48344607121 -463.55015616388323 -9.883417185187838
-9538.049079239629 55.272787686995166 -1390.117320412962 -3396.1174384616716 -417.7570744452841 9.406470014690846
-12069.5487216628 90.34888205262853 -1953.9299394004713 -3525.1540201886355 -326.5823054789716 -13.351885023016347
-14648.724079441752 145.7900521689215 -2540.883950776904 -3700.154806826614 -205.98496541457644 -86.8186896069634
-17645.38894183408 112.32552069830321 -3323.06767294196 -3928.522014396348 -95.95094339942854 -237.5385787759127
-20562.21345006358 1060.9350840606576 -3836.1796834053034 -4244.564548090676 -83.8489195219672 -511.0669089439355
-20633.72443149037 127.66621299044611 -4018.356375180495 -5631.627075376243 -175.66309298292438 -995.9883800757058
-27058.68505160003 -19703.35684518931 -11475.915438931004 6.66141735262314 -38.60553461988177 -1494.9913250187394
-20659.107260265533 125.71743057532308 -3988.3758180845707 5645.578515741664 95.48506428495479 -995.4560100023397
-20614.55361114601 1057.0823510367775 -3777.079083812477 4260.509445099437 -4.942488812638607 -509.3805420021248
-17727.278993875316 106.69881531309821 -3237.248868322124 3948.1825779366445 -6.121771124771406 -233.18351501690404
-14762.461523661357 138.75670269284456 -2433.718002461153 3726.003776709117 87.9699545265191 -76.75534708029406
-12215.906860314808 82.64677890601592 -1836.489269193296 3561.234837996353 193.47944718262468 8.09934692856843
-9711.892551551486 51.29061380841187 -1281.4490231142458 3449.29478410924 275.90060696516895 52.353910043239146
-7331.2368096889195 117.63003571721573 -737.542577105933 3434.6817870567916 329.61784470551027 69.66523249307171
-4845.943359110245 492.1967862157984 -24.263028433815595 3623.2059681533115 362.242476162282 28.61025766412836
-2359.340120487339 -433.7748056840298 395.83632968019674 3384.969482835015 296.6429312938829 -228.68907313980515
-2356.916171235863 -4441.912174080686 -660.6446160991009 2260.3591671410454 206.26214326723965 -1125.6922101332477
-2617.6700972126723 -2044.9032693344006 1039.2009149841908 -1229.2270056651396 -367.0481464643565 -571.7693332667601
-4506.752475055398 -519.1140345455234 560.0878131287373 -1911.847495740863 -591.2583880078389 -126.26458064968737
-9198.299067873771 302.41798123782286 -501.1374494122336 -2078.7919592767357 -833.1953300291462 -16.98407028490262
-14373.110348405009 144.36758186919386 -1786.2239840657937 -1949.651722618805 -814.4701239061376 44.90354765867048
-19372.0544888174 102.20991329670136 -2901.218007385558 -1954.8167840416725 -679.7047218211782 77.18863318044924
-24367.954967167614 137.65178494260226 -4011.277099327687 -2033.2732194416253 -461.2052493114234 89.90872285151299
-29464.52356770745 174.8346942436791 -5239.458736202012 -2142.623446261501 -191.4310508594081 78.11119131605996
-34449.47482617526 380.6336028124718 -6521.60031785357 -2236.3181323017566 65.38907906245679 24.687318738923587
-41131.19146079921 -212.5407256238015 -8695.278865149709 -2486.253098285861 201.24093466981955 -89.44311913257513
-42057.33998648462 4539.724542690022 -7662.9611112574075 -3377.515973160832 55.21143137034699 -396.35076103869847
-55462.18394114302 -29416.125790108203 -21426.163044900135 4.16218166853761 -49.003563442754476 -961.2963335294143
-42084.08490457549 4537.457441799308 -7622.745874276222 3386.2214534254977 -156.70282213377357 -396.80743104157
-41185.7710846912 -217.01968698073267 -8615.061879182154 2496.1617833730643 -312.797393143341 -90.05750534988022
-34533.211005315774 374.1392935702382 -6402.490358486873 2248.449271495163 -192.2504287717554 24.671869533376867
-29576.98345336326 166.7936579536005 -5084.956154870247 2158.432805325282 46.89033195662607 80.26976603275183
-24502.89230687136 129.58811102347133 -3829.531553750963 2055.1165135249053 302.0218890596335 97.37768000860655
-19509.85633001292 97.64042021266116 -2708.240333450972 1987.130879754643 518.4015896592163 96.16831984894687
-14477.973737945207 140.0711629733173 -1614.8860178812138 1996.8971835262882 678.3636794255096 84.82608720569468
-9247.195972712363 267.86167628429973 -420.2380448654264 2126.9540924070516 761.5288542109789 41.940239843429474
-4527.658251008946 -586.6076939963197 463.24178831223657 1922.4480671241586 595.4650379136508 -95.07993758239496
-2612.3632168780236 -1975.2721619086083 780.5639870153213 1207.4630769633825 406.66141396809337 -672.5539658259503
-2924.4887951052015 -1188.3292138475526 1716.9241525409518 -479.1624705793906 -707.2223840139877 -293.46736571460167
-6321.493131011913 -791.2881067221048 568.8797259417296 -765.4044642808725 -974.5393305954411 -13.38025512946745
-14006.989829543145 -788.117732272057 -1369.548718579034 -793.2209443132856 -1245.4649861792386 35.61980643871299
-22383.00609784497 -1545.886414561891 -3513.6869537497873 -763.8961760360603 -1163.300244233181 87.39113452161821
-30162.006008870063 -2174.222678861729 -5386.279286764703 -774.5972358592169 -919.1438142448778 131.6062110787524
-37831.83801628388 -2722.1289162476087 -7282.158891883784 -815.7365604102054 -553.1056116572711 175.08136848339572
-45677.13708625341 -3363.061803335614 -9430.521963392766 -856.6755719653218 -107.92211125237687 213.99246651445915
-53334.55258177837 -3583.8871580764935 -11631.552854891741 -947.6488557766481 331.7228165812799 242.79178237748894
-60930.78147647257 -5299.27282745145 -14539.637865196546 -1002.4474125063177 616.8442084653534 229.52694045582908
-67512.82058038413 1484.4985760064644 -14897.47418387576 -2207.8115705887694 589.1049818775001 142.01264281115502
-93558.1996986266 -44492.33395064119 -36692.13690614004 2.164674643002442 -59.96300465732312 -673.4837698791312
-67540.86294478875 1483.78867724829 -14845.952131860064 2212.364234122378 -713.1882472440097 141.02197641191378
-60987.49889566097 -5300.415432525082 -14435.987535503731 1007.6956888467962 -752.9614378150114 227.62294789736816
-53420.13785929998 -3584.7935879320657 -11475.245243511006 954.1610452764558 -486.20582868675416 240.1986467990744
-45788.732924307194 -3362.3617193599403 -9222.554483614978 865.2006338686979 -67.86608415000435 211.24158897431602
-37957.039554160794 -2716.497854461255 -7026.875986107344 827.3357904282642 359.8159275742304 173.4051081001498
-30266.422398660627 -2157.1546594700862 -5094.012974533169 791.0817861210767 725.2454962633426 133.79722285358542
-22409.55297462489 -1514.7613482582835 -3212.0197352400123 786.8128560659637 1007.485758147821 98.24736179103813
-13936.06030502461 -762.9574204555943 -1133.399753415811 817.0866642432782 1184.3910645607327 54.50480069211075
-6232.36923378781 -781.7169483157705 621.9067080845102 774.3424504737893 1017.8659598044962 -4.405019920182353
-2868.521777885258 -1124.6316548241193 1559.2139760035388 472.53436460182274 795.2722443891638 -353.8247545277799
6408.696089056828 -17353.061568347908 -3283.3096437873255 544.9061069278048 -1.5150369847560796e-08 -7.151829350959815e-09
16580.137643218954 6484.226198149221 5823.39527670426 -1616.1072375180343 -7.674049840034058e-09 3.991651453816303e-10
16798.06167592095 859.4406775394043 3240.7101060279992 -628.2246897399529 -3.17597148580262e-09 -8.439773324653288e-10
23138.185112365663 1763.5516270380053 4503.216679523281 -747.0402472760104 2.3428015083482023e-10 7.514326938462546e-10
30420.933162455105 2137.9210674780943 6154.938316725816 -798.772176065012 9.70523661436573e-10 1.884133737917182e-09
37974.3303968763 2759.8237079359274 8280.200465485339 -858.6600570833644 -9.104119680358735e-10 -3.9545966501464136e-10
45730.70885211905 3402.026934681273 10816.401237902883 -935.2010234881888 -3.0521425387064482e-09 1.2572876073591033e-10
54240.230526164945 4211.1367092381115 13966.843706578746 -1059.8096305933439 -1.7472903124371442e-09 4.183188906381474e-09
64119.95065051404 5141.302363167079 17828.017576560083 -1191.7275613078482 7.112586075663785e-10 -1.032864460626115e-09
73976.53042735212 5523.049994600295 21565.031391554723 -995.6830098571427 3.0877429502140785e-09 -1.9335288925503846e-10
78234.53137134778 4849.025971416389 22959.000165732712 2.627692699768872 5.057579244294175e-09 1.6192291951711013e-09
73938.7757186799 5519.905270354527 21552.14813612217 1001.181132753285 7.821611802683037e-09 2.894751105486648e-11
64038.233193999265 5134.677639233751 17797.739597214982 1198.0020763737268 1.6476424669065182e-08 2.0382984189382114e-09
54100.45042804188 4200.216350652743 13909.157924628304 1067.5677058297313 1.8168188287148723e-08 9.405773937487538e-10
45506.77154832326 3384.8738153974373 10713.698961606287 945.3673195012361 1.511558112010647e-08 -2.395754705730724e-10
37623.03860505154 2734.3116832275364 8105.811970378634 872.6627779127682 4.059049985016827e-09 4.7494452815044497e-11
29872.362397620065 2097.3138650505252 5869.1060803398195 817.5241892578074 -8.148385965967009e-09 2.942730503718849e-10
22295.559532810443 1710.7477457500386 4060.1860064248385 777.2892821956282 -1.2445326547094737e-08 1.0559997321024639e-10
15417.670649597256 728.5391039429953 2504.130562687506 684.302613074132 -1.660689807891913e-08 1.266482030359839e-09
13397.99480420778 5938.019814599926 4225.741783012918 1542.165289617077 -1.5458470059570573e-08 -1.3283152355825223e-10
1137.3757214238312 -18986.074236709806 -6961.663003528252 1963.1113656400323 -1.368129076695368e-08 -7.066972784741665e-09
-2109.6528877418937 -18400.364056324237 -6192.629076139556 42.782060997433064 -4.6604307080144736e-09 -4.199894654277614e-09
8076.947273742097 3315.842700916579 2855.431030809746 -1775.4383615369593 -4.314234969271524e-09 -1.7517591821558653e-09
10214.425989430685 -213.85473287300854 1702.4881887416518 -1644.0807544763113 -3.3680458422225e-09 -1.7674421926017203e-09
15266.416692479917 53.90039191671185 2635.342342402349 -1865.265065224686 -1.615891864759078e-09 2.2649437880772894e-11
19830.893517970184 -96.96750932604733 3481.3960550689017 -2004.2229413953107 -5.435747130189128e-10 1.4204246667759435e-09
24673.585088618234 -113.88902620691783 4685.816762590997 -2115.2018318858427 -9.702896264229821e-10 -7.990568207105753e-10
29657.33163809771 -110.79775442007943 6176.952948478968 -2282.268405703047 -2.0406354384050474e-09 -9.985203774931506e-10
35058.833704551296 -12.63564303759959 8043.1441107982255 -2580.0080890633194 -1.5713510492787464e-09 2.5578117401892086e-09
41071.86306704825 -17.293807699222913 10227.657353946877 -2964.7829701965093 -1.2524685732984153e-09 -3.5075471416234905e-09
46537.956149987556 -1168.0000305361611 11941.144769758059 -2585.193762121311 1.1851258863160297e-09 -3.4437430684874926e-09
48249.53640157085 -3600.507878983349 11936.144634497898 5.086319482436387 3.703609419147824e-09 -2.224506800985182e-09
46498.72227374312 -1169.4300388139156 11941.204321621868 2596.010071109003 3.5058056457870634e-09 -4.69293315319419e-09
40988.08877638895 -20.157188032839198 10224.353039344785 2977.6896929236914 7.811900681886641e-09 -2.1575159436793e-09
34918.827987650766 -17.0037903495898 8028.760300345469 2596.966047745256 1.0721907806043873e-08 -1.6701662275409035e-10
29440.537316954586 -116.85137503409132 6137.843127366004 2306.156951077885 8.008138430160017e-09 1.432018947866709e-09
24346.192340745914 -121.67589613733371 4600.1070435138145 2150.0047232034285 2.7414939207659472e-09 7.376102395539874e-09
19340.895483664597 -105.5774211279816 3317.505823785783 2055.2158091531696 -2.7033186800196063e-09 2.3268658111419427e-09
14524.249098062382 35.32716200841047 2339.0000216878307 1943.6754640485217 -7.639648469393023e-09 2.884358085708527e-09
9101.08612958681 -230.79798894069935 1204.8073098902412 1795.7163543572751 -9.829944191963591e-09 1.6557804016770206e-09
6969.129115610707 3182.3419935991906 2046.1622202313583 1971.6664191818804 -7.342272650978643e-09 -6.894307347238282e-10
-2962.061637686201 -18139.19548284802 -7605.773321107068 1454.734618730245 -4.9756287978652836e-09 -1.008986316719529e-08
-2716.524549816744 -13470.131281720302 -4475.9810719774005 -2444.116666515782 -1.6443885142436443e-09 -1.865370080622597e-10
3726.384866726307 1787.599962718824 1676.124301733111 -3071.331851563126 -1.9249422056333287e-09 -2.8601965240682148e-09
4846.840913195822 425.291604533461 1100.7713310065903 -2979.1989388258235 -3.2050413989459514e-09 -2.633612439240096e-09
7705.308588722795 -49.69336892186263 1374.7546564822176 -3291.031384985548 -2.16605974823203e-09 -2.2361250628932794e-09
10175.26060973271 -34.98628995351179 1822.8893867866636 -3476.3533213138617 -2.223433770431882e-09 1.193916965291919e-09
12535.146096100048 -56.43550932886671 2387.801752679301 -3660.9951806685617 -2.8576775390476428e-09 6.148805908878785e-10
14946.276336915287 -52.13965038514059 3125.3585416982028 -3927.579739851118 -1.6360895971345712e-09 -2.8051214684410297e-09
17461.395623094722 121.34489583035203 4072.3259638115073 -4381.50556307777 -2.9656945788048006e-09 -2.3928592440825014e-09
20415.8853443323 354.96123665826366 5266.920351951579 -5063.595702268004 -3.3162366186445524e-09 -5.551342496801226e-09
23441.58599555389 -1410.9427416630742 5928.252681885481 -4667.588623916513 5.324738427958664e-10 -4.3176253683441246e-09
23253.560629559604 -6886.715659988136 4399.212598583052 7.9475539328854445 6.231213323104612e-10 -5.9707243593720705e-09
23400.715510806658 -1412.8264841030757 5940.229933260237 4684.5415912542985 4.771849582141385e-10 -6.127681473344637e-09
20329.83996266928 351.1976268117266 5288.30078883304 5083.995061151541 2.4265878195706136e-09 -4.917940721327341e-09
17321.1211344103 115.65308702795018 4097.146349593527 4408.64012223012 3.743469645378639e-09 5.475140341104634e-10
14736.645736462304 -59.91745878957011 3142.5483735637 3966.3798842438036 4.029218014789393e-09 1.6529915214391622e-09
12232.201140304642 -65.81781852138647 2378.8523014332386 3718.765944942619 2.408406390985718e-09 1.1594306847939606e-08
9742.705858231384 -44.0261148682931 1758.7161723719653 3562.9261591796 -1.0760958790712039e-10 6.979040456656094e-09
7089.219970831835 -59.71237636239809 1210.006998741946 3426.9498585270926 -2.8571421895051685e-09 4.786271823320476e-09
4194.375895291038 448.49924273369567 833.4484052959194 3207.88727092097 -4.6567950606757336e-09 2.6617725801258985e-09
3090.4432057731583 1322.133669320665 986.9719016090735 3409.7597676018086 -2.5775050982446146e-09 -2.3034321117165746e-09
-2909.652494026758 -13020.796176703985 -5327.674581206946 2771.230341783147 -1.5176397916150108e-09 -1.4986170526753995e-08
-2454.8988945793185 -8566.270047739326 -2262.1726899236937 -2734.487592409474 -4.160507494077592e-10 4.714024726126809e-10
480.03992541775807 460.15480331584854 945.8135211566529 -3672.329394932107 -1.0456873145159307e-09 -2.449040081842213e-09
30.139477478816456 657.4446360794727 558.0500159213312 -3716.5439766450986 -3.062376352502838e-09 -3.1010483070303962e-09
273.5855117335734 15.422847609817893 211.92030074247145 -3786.592131230989 -3.1888531815127408e-09 -2.2613804162574525e-09
407.6802283995934 -34.82989618722573 120.28523385188748 -3965.983596164776 -3.4585605490633498e-09 3.838120932186939e-10
334.91468540127465 -10.896798735144952 85.1409951336301 -4175.995666639415 -4.240266138211268e-09 1.859802090109497e-09
169.91589395151675 -26.065323570677293 78.74181308226441 -4478.821934966984 -3.127746228681616e-09 -2.5840094508566835e-09
-194.7904439302834 150.31667953120973 114.09533799552256 -4888.1231327811365 -4.029158451324122e-09 -4.536770958907255e-09
-147.58586346851786 778.9104585501692 448.4107188960819 -5620.329428717349 -4.224102179151146e-09 -8.790735250840953e-09
1091.2179167021573 -1425.5230950732687 346.76556223575847 -5803.607629712075 -2.052861325374522e-09 -6.705072053136973e-09
-1524.2685314971304 -12368.435390968778 -3567.93459280448 8.915238815582894 -2.2172051972191298e-09 -5.071782993582019e-09
1048.9796603559296 -1427.8905328760322 370.69418020050773 5822.63609473902 -2.2139158839529216e-09 -8.533097783924859e-09
-235.2661893076135 774.2009079385518 494.51180188432136 5643.260585511039 -1.6222770626850291e-09 -7.335517082651677e-09
-334.1264365773438 143.2852467412272 178.0607763332731 4918.662719272484 -2.3805019344624867e-09 1.9070407475396678e-09
-30.32707133606118 -35.43664821560302 151.95561939250445 4522.621087278475 -5.101523647965678e-10 2.030803081254362e-09
61.07743141857588 -21.543891372275425 152.18075020437618 4241.752374060698 1.2043638308867344e-09 1.282209272090995e-08
40.57442615495112 -44.17004293982508 154.35808066393338 4066.9764122409633 2.1557435836427885e-09 8.052785105405746e-09
-167.94349439565812 24.671077742310136 187.28262892160367 3942.550818583743 8.254980032873505e-10 7.452461314727543e-09
-370.73263940028835 595.2254316013124 411.61322566991646 3948.1574302333484 1.4805412451579514e-10 2.5078779053444578e-09
132.4999394179911 95.89963032085414 465.4770779401561 3846.907053437128 1.0606617806274699e-09 -3.2772193847563358e-09
-2467.5564815929947 -8146.104054592174 -2840.155460330594 2800.9148836560657 1.4015819616020053e-09 -1.5963848909450462e-08
-2269.011958254928 -4502.98344597878 -254.2091389697137 -2216.0530551236316 1.2714740371677635e-10 2.027800150017356e-11
-2136.2965025750123 -223.74546421358804 614.1546971444383 -3240.563821065093 -8.645617555202989e-10 -1.7639165683647207e-09
-4536.062435705567 540.2868129061205 -15.879780670586495 -3459.2254485049857 -3.0652271831854705e-09 -2.7042177386249477e-09
-6975.829645957207 74.05662766633431 -901.2460182274662 -3358.4754905009377 -3.846888585457009e-09 -5.999165608727708e-10
-9355.397327448576 -2.5616043036030822 -1575.0256038133143 -3466.0898826119874 -4.224159466659216e-09 -4.298614797448863e-10
-11901.641968738199 20.707980461152378 -2235.3459281494506 -3661.9020544255914 -6.1076718127495155e-09 2.278433441915695e-09
-14536.889369911314 66.00929528699206 -2928.781151107723 -3920.4591062265963 -5.355231466608323e-09 -1.4710384022009748e-09
-17663.37184475614 16.503642889965906 -3838.4656860357327 -4242.863833340829 -4.95004204292826e-09 -3.4249172387035287e-09
-20773.262716770612 965.5472782404565 -4467.856821607318 -4604.626801595102 -4.92987239919529e-09 -1.0819840134956848e-08
-20845.48591507895 95.20401535683679 -4674.620175970307 -5989.966320302627 -4.412761406280552e-09 -4.475261938807762e-09
-27505.351616231284 -20252.101973894925 -12656.521604511132 8.00708190027703 -4.498038330691401e-09 -6.292827592346839e-09
-20889.302601203286 92.34829741983727 -4638.558179050845 6007.045408926622 -4.679252429973246e-09 -5.577848405380337e-09
-20863.03961098692 959.887727194652 -4396.650897185425 4625.165207642669 -6.0971587778624325e-09 -7.0430701271106955e-09
-17802.621989523926 8.143472604985494 -3734.7355150997664 4270.120234880215 -5.8978781858343154e-09 1.3303571577694129e-09
-14728.804178039154 55.25354187548631 -2798.478193797655 3959.393825321684 -4.9252023570645065e-09 3.263126657770954e-09
-12147.660969041472 8.450711951678063 -2090.8340048206937 3720.6408783820266 -3.45758310871247e-10 1.1788863218953338e-08
-9648.127112080601 -9.739713182429389 -1436.7164390830242 3557.3843179297 3.960813010905895e-09 7.933071977106465e-09
-7271.582351674103 73.77598421950982 -800.3794212094446 3498.376378574314 4.359678840160086e-09 6.889144810173775e-09
-4762.724088422708 465.81019240456357 -34.811501712387354 3622.3934783192785 5.063967911667078e-09 2.6482696036111975e-09
-2302.3836788758854 -438.601324137751 329.6699800241353 3307.4807619504936 4.400853570452057e-09 -2.55298004958604e-09
-2253.6195080853354 -4229.21993957594 -687.9373581899692 2193.5613677599304 3.6168392725244303e-09 -1.416676553844809e-08
-2444.276950845445 -1919.2123243657466 1115.8128048925726 -1212.7474331833307 2.0334578465508457e-10 -2.6557067656085565e-10
-4331.089929693471 -429.14296529228204 504.31882663873023 -1852.2319255421069 -7.28942239902608e-10 -1.1342580208406616e-09
-8966.956622998727 324.1040613836196 -598.9259820893569 -2032.872397439487 -2.9097932952026895e-09 -1.6959926796289437e-09
-14107.70919944089 120.97803326271442 -1997.3262269249362 -1946.3112108687274 -4.818137888662477e-09 -1.3360565986886286e-09
-19072.198562010464 62.97531490760608 -3261.9222298263853 -1993.9249448623525 -6.00058047695029e-09 1.0102230163511194e-09
-24071.369354961185 92.96860363413877 -4546.338575292512 -2115.3961754995516 -5.963288196575434e-09 -8.205285340068258e-10
-29258.6184330232 123.64499832446855 -5988.878685857241 -2276.7201731454506 -5.124803692524438e-09 3.022710970412845e-10
-34460.976996852696 323.6439067852664 -7521.37851323905 -2423.113775284774 -6.162886645455501e-09 4.5138026649738094e-10
-41574.826932318974 -315.38828179292034 -9985.983714536394 -2693.5618740558593 -5.622539100968993e-09 -4.409304921182411e-09
-42591.97932281409 4676.88306500258 -8894.487653713488 -3584.9595873663707 -5.866974128743152e-09 -8.226379577536136e-10
-56548.80421761601 -30345.353541563945 -23567.67054946904 5.190284086789518 -6.036863675618065e-09 -3.1066367256471494e-09
-42638.06600090555 4673.554528275533 -8845.962048377358 3595.9961894527296 -7.790316836064903e-09 -1.0691199037182741e-09
-41668.26113503584 -321.98020660798466 -9888.940965963786 2706.717946882047 -1.125063642248847e-08 -2.1524355631186154e-09
-34602.93980804788 313.9931107156836 -7376.562629463555 2440.33927192914 -1.067380206443147e-08 2.0034134351476496e-09
-29447.159964380866 111.39542031776558 -5799.357572116653 2300.9611085099914 -9.051693894424062e-09 1.9710908460979226e-09
-24295.24030692313 79.9376473309984 -4319.735840631008 2151.4209728224414 -3.073993282143306e-09 6.730394908061044e-09
-19299.311307759686 53.57555079175816 -3013.622555931885 2049.6900591696217 4.817528154177353e-09 4.780397411252579e-09
-14280.247943397822 109.3664571374678 -1763.3149386018947 2027.8554219715077 8.663070705239306e-09 3.2089682022728994e-09
-9046.259689639463 264.40232996097956 -469.9889648949922 2113.4452586539087 1.1101290553483523e-08 1.3438854473690753e-09
-4358.495817719675 -532.3776354842742 398.7277894726483 1868.5438656739743 8.872594214892615e-09 -1.0884844137137861e-09
-2421.6887315412555 -1793.7463355230273 786.7000525943816 1180.8348765169858 6.263968899133943e-09 -8.991758448928522e-09
-2736.7008837743665 -1084.1077031294856 1641.4462544779897 -481.23548875509687 3.098215017871553e-10 -4.128040131945454e-10
-6115.683927244671 -706.4695603354994 386.8594338864559 -731.5879320046447 -8.374172466574237e-10 -4.4081716055188735e-10
-13716.901668135197 -762.3210873607079 -1591.8063835718353 -767.2230240707211 -2.4993305203224736e-09 -1.3323457892511215e-09
-22019.375819019955 -1559.3730085899228 -3889.200325062909 -758.2303147768351 -6.17447071249444e-09 -3.0252067517722026e-10
-29736.41000915743 -2207.1674214347577 -5984.973651162907 -790.6769534321163 -9.035503012455592e-09 3.580495899768721e-10
-37407.20955822263 -2771.834773959725 -8161.847608752785 -853.5226238796631 -5.846276351917368e-09 -2.520266662031645e-09
-45386.55981782373 -3447.0085076698133 -10670.942384101325 -918.469799372775 -3.2844473807358554e-09 3.307370377569896e-09
-53408.51244097145 -3727.2733756373727 -13328.10709040953 -1029.0368003695064 -4.893305316500118e-09 9.06631214547815e-10
-61675.39926864684 -5591.143449882429 -16747.80799855116 -1084.1336527310282 -5.7476867709738144e-09 3.0178028964655823e-09
-68691.17139991354 1439.9519635766803 -17139.27199153442 -2323.5140914513227 -8.909651683097763e-09 -1.9770496351156908e-10
-95520.52532876916 -45858.63200501251 -39562.95886151483 2.998853179493622 -8.248143501532468e-09 -2.386617126148849e-09
-68739.80393350439 1438.2966317313565 -17076.885757152148 2329.8925719381955 -9.821349067351548e-09 4.2881964645857806e-10
-61773.177239470504 -5594.059926335635 -16621.85406939743 1091.7181760063838 -1.6966001936680186e-08 1.9001973328158783e-09
-53554.687015232594 -3730.5087527738133 -13136.862305949206 1038.8718746256102 -1.9179228871735177e-08 1.6804548863547097e-09
-45574.77190718109 -3448.599336437549 -10413.43299738256 931.9934298239416 -1.6214237508194174e-08 3.4482212640796206e-09
-37614.77941731353 -2766.8248116239542 -7838.968794473027 872.7652460923842 -7.363317067188291e-09 6.161045007502253e-10
-29904.435407206547 -2185.702567485096 -5601.311901757163 818.6836304777912 6.489887738325706e-09 1.6314878337198024e-09
-22052.95053347803 -1517.3533302715412 -3469.967196530372 796.8247513133441 1.476452027304731e-08 6.360352244882961e-10
-13586.191823968771 -730.1605753785561 -1237.3432214693803 806.1779218359341 1.9003664419869892e-08 7.348432973230956e-10
-5956.073746544565 -694.1931971515743 493.8127619780755 745.4779414143899 1.5225934291152043e-08 3.0950175755606324e-10
-2628.7691129499294 -976.2376754727405 1442.2451226916428 473.9692712924502 1.09576490103791e-08 -5.49431433682912e-09
5075.905718273976 -18611.371162454354 -4060.639633254113 -239.3891450383885 -878.1361183695399 -76.19998639191283
16149.259044501407 6629.88351892385 5565.540100932303 -1647.1535784832975 -1197.2246450381072 91.3616095813826
16731.36587691126 818.427932741338 2842.733931345958 -651.7408376870977 -1126.7616463522559 -88.25121461406124
23284.354421381413 1776.075162182231 4023.3951064589014 -744.7393334479235 -941.8872673754114 -101.83272606667087
30652.566153915996 2127.4021651867865 5511.5518583274925 -780.3971439358936 -605.6650504410308 -140.5266861564851
38211.95119819997 2720.342009836707 7376.2448445074515 -819.4124167075375 -184.59033170565104 -180.54681316228834
45846.87620003194 3313.46813305605 9550.212456745221 -872.0404276809577 291.3279354426064 -218.03456773467403
53995.49459164653 4041.0666579392505 12232.418728256689 -972.2014096742437 745.9791743458128 -234.8985295499695
63219.15082497705 4854.411105960981 15563.885568769065 -1091.4770055930917 1000.1137578175011 -197.88560251237968
72311.72628038561 5120.2355388635815 18856.169264475917 -916.888329015701 776.2632235725229 -85.70214403320888
76227.52300111578 4427.723903652363 20103.563266421723 2.1213772026774436 -1.0026358306701804 9.410862628282295
72289.44595731546 5117.74115613061 18845.85517124351 921.2606013985456 -777.1153175906526 -84.48538890367385
63170.69257971119 4849.15172795208 15539.927184345957 1096.250098082365 -997.3791708522766 -195.4666275883372
53912.353536045084 4032.452910877962 12187.496664246144 977.7111608303065 -736.6654769656309 -231.40008573266428
45714.0971215586 3300.329779860846 9471.530869025572 878.6551993244824 -270.7696537534468 -213.81872977610732
38006.30116146488 2701.503947478371 7244.433272599763 827.8803623734113 224.8117732335518 -176.90641071685783
30335.216867671734 2099.322892021434 5295.642306660018 790.2655479744519 681.5926394446344 -138.40080986375392
22805.315241424287 1738.3050998020274 3688.9410700569692 762.8225244050611 1071.770938641176 -110.59928893115736
15858.028777624815 719.5445028165585 2251.930354035923 677.5539570983562 1327.187126304715 -81.07467981002334
13947.887291734309 6192.983413085702 4428.981693381896 1609.6669448759599 1208.1096462736662 -65.25571231249546
1344.498675114543 -19650.594207635706 -6907.911704522424 2067.4423771951692 1067.9179724137944 637.8024307527318
-2454.623831997219 -19030.267810759535 -6632.391388568142 -408.34210538842814 -464.9201795446905 227.5797814200556
7982.2058686363625 3463.5708376679177 2852.280381594486 -1869.346081496953 -563.5975195392277 191.4520299223852
10027.478854066218 -249.38583533907808 1421.2107349321948 -1685.6538967417341 -705.5089856771287 -21.180239692122136
15300.40883696863 47.38773689535827 2328.866149993429 -1857.8398015019043 -589.8502302818424 -53.51956720666636
19932.107809827387 -115.60955547540891 3077.7220745499726 -1963.8532155450969 -373.64498707911247 -78.18752991880741
24783.600904918854 -149.56388193033402 4127.345946315403 -2033.726785276194 -99.89464510246306 -90.36674915018193
29691.078867480926 -168.0946212533775 5400.355784370899 -2147.8512910799195 198.94584111159156 -78.77592545618101
34878.930285526054 -97.77572878298527 6993.899283822521 -2384.072673174049 474.8600706284938 -14.176172688597036
40524.56284429395 -131.26922695011902 8885.29516283683 -2728.5363751943737 625.0133484482252 150.1976696828261
45580.70631879176 -1298.366788691224 10373.284610409883 -2391.18910196422 487.4481308545908 425.1881348277496
47142.261651262015 -3661.236136024335 10338.267674616012 4.114430650732761 9.00210304011244 621.4666141829434
45557.9153349033 -1299.2689135505286 10373.607352666157 2399.794657694852 -467.73987661840727 425.47704243945935
40475.65745468947 -133.11205230653718 8883.311338725041 2738.336205850304 -600.124320749746 150.47523486593101
34796.8360958459 -100.6494404165954 6983.693788072288 2396.101851999339 -440.9814057637284 -14.686970799725351
29564.094472777284 -172.09534114267518 5371.522481048407 2163.5352531888248 -151.31528324158694 -81.72435953580974
24593.176156421596 -154.7112537893767 4062.755824274805 2055.0900035969084 168.53260737449483 -98.95437136420381
19652.155309029513 -120.68874295408267 2952.8576979539166 1993.1914281532088 474.1339732989339 -97.51992012843762
14868.541990965483 30.478259607118055 2093.2333005471464 1903.3914098991045 738.2870950856154 -92.31134503164783
9325.713234144918 -268.0270429867956 1016.9180202978517 1773.5934891348243 877.4894697942028 -81.59030596963703
7243.737817535413 3333.91801103909 2216.068997331838 2032.1239924925342 630.8579214516609 23.656792255641445
-2961.621916529571 -18769.278873738625 -7590.98439194543 1535.6119529167488 412.5369756103759 825.0196155711153
-2775.453123825923 -13650.280321921864 -4591.1855953834975 -2646.521316515077 -163.11136591223413 784.6121305188988
3626.687448185502 1728.5427976288752 1632.822657681365 -3253.735443902651 -205.20264424028682 289.37505793134966
4685.143677372236 419.53897786804765 946.232656417498 -3033.0366454170317 -287.0946036732616 73.7456732270976
7623.867228010116 -85.0322874497948 1179.104792172988 -3277.3268631697715 -237.00645281597292 1.055875863066313
10150.58299191629 -78.1447967856741 1593.7021838868957 -3404.3849564619727 -115.30228248103698 -8.993496472735858
12514.865330374914 -119.91424583280758 2081.9082833189336 -3525.121604421585 28.962533053678403 13.161656083490689
14889.007411398266 -139.2300613640084 2708.0741192564346 -3706.4354583880777 178.54791201077373 85.78872209206133
17302.87451087982 0.38386369156295963 3514.7332966737977 -4059.323186174874 317.8458256863993 247.63324483378256
20079.553847663974 193.462569876762 4557.753668241087 -4672.36777374217 413.2402675403265 556.7005777050972
22866.01550537256 -1611.6871548181532 5108.858526177522 -4335.457081449692 354.8656819274237 1020.6634291323367
22641.131079449704 -6933.171534571443 3671.5949630506734 6.638858502733667 18.824533097260595 1356.0240460465798
22842.338276699546 -1612.8867212816606 5118.9993418254535 4349.362274974381 -315.07218790215427 1020.0523134125357
20029.451543445848 191.06041701798952 4575.991172953244 4688.268202485382 -367.0472767287507 554.8526464510934
17220.78654158367 -3.216454678790054 3536.346411658237 4078.9632396189772 -261.068812757834 243.0128727015225
14766.136434861415 -144.05623048285426 2724.2447669566895 3732.29907036629 -106.93051981858186 75.29038660393039
12338.593237766368 -125.24923515725483 2077.9103416438074 3560.786403912837 62.26067875635978 -8.803264473886632
9901.183698755965 -83.86487452331525 1544.7945022962765 3455.016157107517 232.48866749292335 -51.946170901043075
7262.339744954971 -92.19480815285829 1044.3941886249893 3354.68525763385 384.37311051995573 -73.39003267579452
4288.780866837006 430.975181054183 712.2969747255786 3172.6598374021573 434.385238175959 -59.73149077361608
3222.6066363525106 1404.6333995187067 1102.1102464122814 3497.067652016252 247.1064732149775 175.0371187741649
-2917.8391131000653 -13449.077565872798 -5241.824862204105 2895.648569525354 111.33661067227695 1213.6028986841184
-2491.0692158989973 -8666.399191436098 -2305.2793703360226 -2851.359745171625 19.42109095094369 1006.0441611096068
388.61355415504966 395.06979826751325 929.4293331203725 -3814.1499526873476 62.425270219118595 339.88731734732954
-127.87788161839545 649.5252938448317 495.8610410987391 -3783.9924777585948 89.36632322738976 101.75950698361008
141.78738586202064 24.387282885288553 163.39577780897022 -3770.000157171401 114.69267403339329 19.727433415885493
300.63952024667947 -29.88687758759788 96.82404664612517 -3881.776036340895 150.41291619124834 6.094200171414615
240.59417267993956 -8.163561392697359 72.69609109883042 -4018.996168311226 176.82731550859415 38.75069436930315
87.1287976680266 -28.912681043200536 64.48794602194971 -4227.620694709013 191.00518202614046 129.94476273102245
-261.58643957743334 134.22152069017062 92.48801669693479 -4528.677456246539 209.47185627013337 316.77850823031974
-212.56580682646734 741.0658596127009 408.6980803122983 -5191.315388033022 262.496802134947 657.3881964569979
915.1085952408257 -1501.67210556996 290.59363120161754 -5421.911867562253 278.75682485551613 1186.160344959635
-1624.4947853157082 -12154.546804867243 -3359.43826355379 7.523499615058609 28.618765474754134 1618.3365720121083
890.6578745826791 -1503.2421003844775 310.5837891260955 5437.671701671743 -218.97638905697326 1185.275602643966
-263.60912020717524 737.9532545409675 447.2186434867851 5209.339619798626 -195.25042936476956 654.8885199166651
-343.26344485717345 129.62582216659456 145.95240862107408 4550.937201205242 -130.36324770846412 310.88224207517715
-30.730309406547747 -34.81215281227768 125.76380265918077 4256.943719459541 -96.62761116946793 117.11955654205205
79.85579248972823 -14.573711953562935 128.82816769713324 4059.715299993605 -65.19250082458639 12.432667566958628
86.02630291678828 -35.54398379834652 124.56534014755205 3940.824807198715 -21.356012221199336 -44.326561668375874
-116.8600795109827 30.7108369592128 135.75141206873758 3859.8911325855033 25.769638320382146 -71.08610942218876
-365.7066653405796 607.555140599977 361.3779705906283 3925.988800238121 26.89333112703978 -40.26333160162831
169.6086459420153 140.62091059748974 550.8819949668319 3932.6247638518284 -37.918388001794646 256.62972195385447
-2509.870625650475 -8447.084168288553 -2762.7507901587232 2901.386196659369 -60.229546613014115 1285.0181876518343
-2359.3240923748335 -4594.36282973338 -316.1311262495215 -2274.9782774427626 173.08930933222368 945.3956707397582
-2254.162849632751 -285.9134088067897 627.4259942570782 -3341.314542435003 309.01589064211583 290.24549573762084
-4711.74022546312 540.6348540992532 8.057800971383491 -3524.7097744002403 452.80448387356716 86.74314607154763
-7156.533438712759 116.89819700850694 -807.4507289738344 -3353.4834460692855 463.5501561557891 9.883417183823214
-9538.049079233067 55.272787699421 -1390.1173204107765 -3396.1174384543415 417.75707443442906 -9.406470016661242
-12069.54872164463 90.34888208063263 -1953.9299393911556 -3525.1540201953903 326.58230546970435 13.351885018833308
-14648.724079431755 145.79005215937428 -2540.8839507802204 -3700.1548068424845 205.98496540544556 86.81868960675615
-17645.388941818845 112.32552070516024 -3323.06767293875 -3928.5220144070668 95.95094339061171 237.538578781468
-20562.213450054245 1060.9350840600775 -3836.179683404087 -4244.564548091537 83.84891951569618 511.06690895344485
-20633.724431477258 127.66621300491182 -4018.3563751735965 -5631.627075368831 175.66309297444525 995.988380068633
-27058.685051617133 -19703.356845250422 -11475.915438957689 6.661417349432365 38.6055346128013 1494.9913250059535
-20659.107260261786 125.71743057768253 -3988.375818084119 5645.5785157410055 -95.4850642896054 995.4560099971077
-20614.553611155137 1057.0823510108273 -3777.0790838228954 4260.509445116868 4.9424888019806374 509.38054200532963
-17727.278993877386 106.69881528502344 -3237.248868329681 3948.1825779560113 6.12177111405417 233.18351501777926
-14762.461523655877 138.75670266235718 -2433.718002467115 3726.0037767318427 -87.96995453349983 76.75534708647483
-12215.906860308576 82.64677885763395 -1836.4892692024646 3561.2348380066487 -193.4794471857965 -8.099346920431774
-9711.892551522966 51.29061383725378 -1281.4490230966694 3449.294784094815 -275.90060696462916 -52.35391003248954
-7331.236809676254 117.630035726814 -737.5425771006713 3434.681787043897 -329.6178446996607 -69.6652324851197
-4845.9433591033085 492.19678621406786 -24.263028433256647 3623.2059681396127 -362.2424761511714 -28.610257660221926
-2359.3401204871548 -433.774805695263 395.836329675901 3384.969482826338 -296.64293128527254 228.6890731367077
-2356.9161712234127 -4441.912174064574 -660.6446160904635 2260.3591671361237 -206.26214326183617 1125.6922101049
-2617.670097218571 -2044.9032693426163 1039.2009149824678 -1229.227005666836 367.0481464647281 571.7693332684502
-4506.7524750546445 -519.1140345328726 560.0878131329066 -1911.8474957452866 591.2583880061306 126.26458064784745
-9198.299067875229 302.41798124087546 -501.1374494124881 -2078.7919592793605 833.1953300226494 16.98407028311294
-14373.11034840448 144.36758186133562 -1786.223984069534 -1949.651722615892 814.4701238972511 -44.90354765921685
-19372.054488800626 102.20991332231831 -2901.2180073748323 -1954.8167840348992 679.7047218089285 -77.1886331814569
-24367.954967161735 137.6517849373852 -4011.277099331227 -2033.2732194480293 461.2052492979931 -89.90872285200727
-29464.523567676275 174.83469428395685 -5239.458736187736 -2142.623446266614 191.43105084402754 -78.11119131632219
-34449.47482615677 380.6336028317998 -6521.600317851546 -2236.3181323076924 -65.38907907514717 -24.687318736065492
-41131.19146078743 -212.54072559562377 -8695.278865144219 -2486.2530982870835 -201.24093467638315 89.44311913641592
-42057.339986485575 4539.724542679919 -7662.961111266348 -3377.515973158544 -55.21143138235275 396.35076103431476
-55462.18394116387 -29416.12579016654 -21426.163044930447 4.162181666677387 49.003563431118955 961.2963335200099
-42084.08490457817 4537.457441810303 -7622.745874280007 3386.221453420962 156.70282212181056 396.8074310387204
-41185.77108471209 -217.01968702177544 -8615.061879205952 2496.1617833856167 312.79739312477557 90.057505352356
-34533.21100532775 374.1392935237437 -6402.490358507002 2248.4492715038978 192.2504287538946 -24.67186953322205
-29576.983453335062 166.79365796298598 -5084.9561548603815 2158.432805338892 -46.890331969926095 -80.26976602812879
-24502.892306857088 129.58811095733728 -3829.531553763115 2055.116513534223 -302.0218890649424 -97.37768000280904
-19509.85632997337 97.64042021979566 -2708.2403334355154 1987.1308797460215 -518.4015896550454 -96.16831984196882
-14477.97373791861 140.07116297677905 -1614.8860178729215 1996.8971835189623 -678.3636794113075 -84.82608720014701
-9247.195972696372 267.86167628424175 -420.2380448622052 2126.954092396814 -761.5288541903726 -41.94023984068531
-4527.65825100284 -586.6076939956805 463.24178831153284 1922.4480671200881 -595.4650378972308 95.07993758037537
-2612.3632168713384 -1975.2721619026768 780.563987018132 1207.463076961592 -406.661413956888 672.5539658079132
-2924.4887951153264 -1188.3292138570043 1716.9241525388845 -479.1624705790472 707.2223840151034 293.4673657153222
-6321.4931310081 -791.2881067063639 568.8797259495769 -765.40446428778 974.5393305953388 13.380255128461307
-14006.98982955212 -788.1177322823187 -1369.5487185844759 -793.2209443136942 1245.464986173176 -35.61980643936968
-22383.006097837286 -1545.8864145342695 -3513.686953739936 -763.8961760340105 1163.3002442213556 -87.3911345221554
-30162.00600886667 -2174.2226788739713 -5386.279286767103 -774.597235858131 919.1438142332333 -131.60621107844855
-37831.83801626676 -2722.1289162532617 -7282.158891882047 -815.7365604128125 553.1056116388671 -175.08136847909373
-45677.13708620054 -3363.061803249009 -9430.52196336322 -856.6755719662407 107.9221112290463 -213.99246651733122
-53334.5525817809 -3583.8871580909204 -11631.55285491561 -947.6488557857139 -331.7228165972723 -242.79178237367842
-60930.78147647279 -5299.272827423844 -14539.637865207194 -1002.4474125079453 -616.8442084731389 -229.52694045499697
-67512.8205804068 1484.4985759687343 -14897.474183907674 -2207.811570592646 -589.1049818845645 -142.01264281260055
-93558.1996986524 -44492.333950705506 -36692.136906176594 2.16467464035129 59.963004640814574 673.4837698696678
-67540.86294480835 1483.7886772445831 -14845.952131879987 2212.364234123055 713.1882472162118 -141.02197641709733
-60987.49889569601 -5300.41543255069 -14435.98753553882 1007.6956888515613 752.9614377875068 -227.62294789942712
-53420.1378593285 -3584.7935880069967 -11475.245243551348 954.1610452794542 486.2058286627307 -240.19864680063262
-45788.73292423847 -3362.361719285918 -9222.554483577296 865.2006338766473 67.8660841292014 -211.2415889726089
-37957.039554117764 -2716.4978545157674 -7026.875986103876 827.3357904289319 -359.8159275824569 -173.40510809516286
-30266.422398592164 -2157.154659468497 -5094.012974506791 791.0817861193106 -725.2454962553481 -133.79722285146488
-22409.552974574603 -1514.761348242535 -3212.0197352177506 786.8128560662542 -1007.4857581245271 -98.24736178789925
-13936.060305002546 -762.9574204483296 -1133.3997534088164 817.0866642366062 -1184.3910645293886 -54.504800691396994
-6232.369233778172 -781.7169483020465 621.9067080869623 774.3424504706422 -1017.8659597760833 4.405019918743271
-2868.5217778855845 -1124.6316548256218 1559.213976000086 472.5343645984117 -795.2722443660278 353.82475451682194
-1102.416638621324 -24509.821550600853 -7683.671456766651 -3809.5673908930703 -2032.3760706806486 -718.9380605499051
14448.583582752335 6947.897862932482 5061.593487566389 -1703.0308867496947 -2192.965344323376 225.3377496236538
16781.16252254462 840.7660048935643 2212.321868125046 -608.6001064654927 -2056.9374163310836 -56.299692449831554
23760.585742220133 2060.5260667065168 3372.8665871507524 -661.5289752604934 -1827.7772159480037 38.50741444881922
31411.093404483945 2420.6448751498633 4508.850030289726 -656.9995319399159 -1395.0263350729251 3.9518036657135536
39310.10174223338 3091.7044805467285 5929.003060624632 -673.787533929219 -834.4047966673179 -2.6882630624930126
47073.69294711939 3724.4506440328155 7455.119747495706 -689.381684870284 -129.73569086865066 -12.61507224064486
54725.36298297935 4403.979060523056 9192.578109706463 -726.0799242662056 648.5969471868698 -0.9996511350759434
62254.86741112378 5077.853701619826 11208.963172870697 -762.911561535969 1254.2040237231122 81.86506746536674
68773.05022506915 5374.295540600852 13153.931149162161 -614.2917110512562 1146.001162838275 314.4678267326076
71421.01537189787 4990.736765004294 13885.04660666786 2.0678182585415357 -10.849451618627102 558.0735792938735
68787.40650547604 5373.496432869671 13149.890705814785 618.3950919356232 -1166.479730844341 315.8993285908707
62285.60367731363 5076.28302141098 11199.820104899374 766.8634013298162 -1270.839420152081 84.67745836536353
54777.424004341 4401.784944989778 9176.100691262458 729.566083957248 -658.1383658037847 2.9208623056433822
47157.40302541746 3722.281276935032 7427.959699867531 691.820314741602 132.30295283063631 -7.950917999628617
39444.631988317786 3090.5087955289305 5885.696261861263 673.9211833677048 856.6965632262434 0.24637532145350605
31635.188921582398 2424.483354874916 4445.0541498713255 654.4099403694361 1454.0781160780616 8.075752542028216
24128.648978119643 2069.1095707950803 3269.535500345141 648.8512170296323 1929.5178897429414 14.9349459421305
17507.243538157483 897.7592898363638 2140.9596544831875 585.075732468212 2322.667109590304 11.11718261588386
16156.702720479427 7166.000699422284 5079.091546402564 1688.7507322085628 1962.47480854278 -265.8205166278235
2255.451430160991 -23215.16153905771 -5468.940657793263 2250.9895914503463 1657.9252871749136 1324.4957303817837
-3627.0113403749133 -22379.915627307564 -6781.88544544942 -2444.702204823 -342.2804133434007 67.36857291939198
7601.534353360216 3703.8612348666034 2674.707797755525 -2123.8688591460577 -737.4327258884832 204.79182077870456
9569.859747138811 -200.58003793825816 860.7360456613835 -1672.175568081526 -1254.558491105989 -13.445718084696786
15369.40262507488 232.51121724887383 1705.363789562896 -1736.2802966117622 -1052.0424556551382 18.10940955425243
20238.530183822746 119.838842843364 2235.820354044206 -1788.067933226854 -783.9590480285032 -2.8466632854940226
25310.17131864348 149.07907943334067 2953.4349512573194 -1797.9100899978364 -427.2258254382148 -3.489690290632094
30302.405508337848 189.19629529132638 3773.237333413322 -1813.3833858384082 -0.8407465468203131 17.158738413830832
35181.209745631306 274.1295436166677 4735.711060360176 -1861.786217948579 457.17914186776744 98.52179937320237
39846.52481045018 299.7559113676821 5829.300067190014 -1930.2510973312824 811.8158671499159 334.4608828772739
43579.92440292526 -339.990289999916 6670.777644484678 -1583.7743728725018 748.1838057407584 849.2469846228539
44695.533460230276 -1807.4431268955843 6590.220325292906 2.993345507907975 4.179959289556846 1361.9439269064712
43596.16700064739 -339.34957039640705 6672.609361964136 1589.669080235569 -737.9215587757575 849.5551448119298
39880.7710114783 301.01695629808324 5831.890754887004 1935.7510338216573 -795.7784065709677 334.73610415223027
35237.619978880306 276.01614297477596 4736.714548863329 1866.1947129108626 -431.17653409265273 97.88558897742976
30389.024009568504 191.76675193855442 3768.497059415442 1815.2834014133002 41.60967079732288 13.850740135682868
25442.74493648499 152.69070882776538 2936.8953600089317 1794.7885073963362 489.65680617578147 -13.10753070505444
20443.75417992536 123.92259624491156 2196.2775681024887 1776.5384860480792 875.6107096190465 -22.93784428764409
15715.46953203953 249.23597131636785 1643.014873998616 1707.3041916925313 1194.4140357292233 -27.389932862786516
10165.043459008402 -191.28856515742362 749.2622920797055 1598.144763109669 1433.802837396681 -54.35526189491857
8212.712970395081 3772.9616348757327 2553.1769622989445 1947.2672105349445 784.9820050155049 -149.09572168166858
-3101.973775359184 -22341.9434889873 -6592.026586371114 1451.1278170506334 234.7525649635324 1397.1998057530654
-3368.7969805107186 -16252.430150100316 -4441.572683292569 -3226.5958603461686 54.273649160262515 1347.511938742376
3317.4596657159573 1245.736275728123 1446.462494131195 -3688.439626254838 -168.56841873458998 202.5176222924188
4351.833241743157 650.1641582623536 686.6799415793787 -3050.2370033069483 -506.2450118526748 61.74940584657579
7390.422495595526 62.631060370992415 800.0756485677333 -3136.819587266324 -429.97509909892665 -0.856659935982524
10121.567138076101 113.98642498932922 1138.8645107392933 -3170.815822957644 -272.5112846340454 0.6692923286501795
12629.211719467887 118.2030689295509 1468.7483825617328 -3183.215598853663 -91.94842942704514 20.468697750147673
15104.676032177837 147.1506223686163 1871.209170209806 -3190.8401809043107 116.74179768266228 90.07979015602538
17459.029194907536 257.4671638310626 2354.592704662883 -3225.5088973389 353.7357402207772 264.3362448980057
19770.5908236743 398.9030114748757 2945.711591032435 -3337.599551685863 613.3947780363267 673.6353388121616
21790.983576972907 -671.3470479153585 3214.63861887747 -2886.788497037718 681.7033055968004 1524.7301759491256
21642.221387090893 -4155.279652937388 2181.3578587970055 4.390685177488514 17.511092633843134 2509.0621381424703
21808.4056460036 -670.4498755184379 3221.9200926494686 2895.400515333056 -644.2384149591484 1524.0168238677468
19806.735812576237 400.6539451057811 2959.266615133744 3345.5047004652274 -568.6581451453717 671.5849274900793
17516.77991099979 260.0051509855657 2372.068756303784 3231.5147982353583 -297.1036177834109 259.43198844488256
15189.563297002842 150.52308407780652 1888.3866349699456 3192.4910120142085 -43.92114044594344 79.18552182702678
12751.48069061408 122.07729158233721 1478.3408647703523 3176.174137491711 184.72050231837372 -1.8512664913807768
10302.342874469598 119.24940149040712 1130.8816486275389 3148.1615214060525 389.1211582248836 -43.533991975874486
7675.683079539877 70.93231739083653 762.052287929577 3085.2498904827507 574.7453850182268 -74.30121002754956
4686.449050355177 635.8144152604713 564.8642669984422 2929.598121827043 652.7362366448198 -85.85758590170704
3647.0518269364084 1500.635156951691 1367.5912912498038 3444.642312308341 198.48593837517643 64.02241281762048
-3221.036734138568 -16233.063620599836 -4534.578813699971 2947.074330298852 -121.29417956130234 1888.3202684390812
-2796.296061238711 -10284.304087194556 -2244.8586895647086 -3050.809442313293 175.22714572850202 1477.4111557229116
127.18536038627383 -212.715657602091 787.7362646048462 -4052.260541874913 167.3365554842375 363.2672385771302
-470.6054131821288 721.8110337332375 405.8355114025064 -3853.0281145562417 104.6906760262582 91.6557105934122
-285.10780499234227 80.6210397487588 84.77888956204264 -3639.496642137351 146.3501494562887 22.673616038684482
-76.64170964172254 -21.402939340794426 50.706231794990394 -3638.9792766014093 196.58543853986555 19.429313875684223
-55.61821663451495 -2.946059937356077 44.697093744094104 -3647.063704180465 223.09992380501302 57.59217204045241
-89.24937440482609 -20.162895482393004 39.318415807367046 -3655.622290962129 241.38020934304174 149.9714066588308
-247.81340345502443 54.612248187998055 45.17120094392502 -3630.4321244466714 288.30203128328145 347.7295373059228
-211.207413461295 413.0296979927628 200.75309209915608 -3746.5937278787883 488.53940796050057 772.2695166367283
485.40843653167417 -967.9851038494164 50.49239173975545 -3667.0515729702756 755.1627339936015 1699.8888151719268
-1371.538013029456 -8250.214346098232 -2587.6900442735937 4.7743144815088385 30.165661772256687 3221.447072582586
503.92181878222686 -966.7888956802447 63.3123204700824 3676.4099410389845 -691.8931136983579 1698.8791337726607
-173.45035603736775 415.37175103616823 225.48275394458733 3755.1580611377535 -416.6667222213345 769.535818035143
-189.37274279214725 58.03519485336636 79.58550601168946 3636.859982493841 -202.89826206363858 341.52123463442905
-7.719890227583505 -15.721220640336536 79.07096664045768 3657.1210718258617 -139.0832589623796 136.80636390239144
53.61468201984114 2.297725238349237 82.18291921457728 3638.4274101726996 -103.22435689759173 30.837274282434876
72.97237772390528 -15.353297775983311 74.64484132679355 3611.385147108894 -62.018117084490065 -31.703417346689072
-92.2034257055888 78.70260799462756 69.73728233522888 3577.593781082982 -5.741431110077238 -69.87871379086097
-282.3018734490192 754.4939228455859 328.7546075351695 3728.8544318490513 4.994838504043875 -57.774126502824934
301.31374306609086 9.015688752822996 715.3112327101537 3922.1052918314886 -158.16443538995156 273.1359617680937
-2792.6415581154 -10363.91365630397 -2429.5981045654894 2960.3104402500862 -229.3564869071525 1800.6905923178851
-2530.324081518661 -5463.181995128096 -503.0853300488725 -2309.889643852212 295.60085894237886 1277.7856466621358
-2454.204288489603 -762.3836477246143 522.7437407923486 -3432.8274095497136 477.2661994934689 370.4395578555248
-5090.130235454285 479.44967206507744 66.75840776248245 -3548.6942696509486 674.4859000276862 95.1692164361202
-7764.066743587866 38.77139281206201 -599.8405550844868 -3226.0041303615844 720.7927597612983 11.660880902182004
-10247.101707961361 -113.19193977819825 -1018.8946694454359 -3159.242584115987 670.8915071359978 -4.2093895239887615
-12772.866879492918 -138.50416584438315 -1395.18130517325 -3175.8096990197078 542.3247440574376 20.970724572326688
-15244.719118025823 -144.02502517452547 -1768.6450155487894 -3183.3972490371693 373.67249397239294 97.91665297717978
-17862.501739057887 -246.67437634862324 -2263.7886182192674 -3154.9559006027657 208.29547546997432 238.98704173876047
-20271.949157735635 305.3455740945237 -2604.4904289441442 -3102.026482231414 260.1252557638372 540.1140898867465
-20495.991992289484 -168.76417715326403 -2752.894553985543 -3921.7947355899587 803.7154790147594 1242.4552306258522
-25250.05372412479 -14296.368516006156 -8316.026748850987 4.4956710256782415 43.090555137089595 3369.347784145205
-20476.347080447827 -167.29157710184765 -2734.466076107032 3930.6439366250625 -714.0570388455059 1241.8928547256157
-20232.50153350254 308.25160234784374 -2568.4130752594697 3110.2521070405173 -160.3974852702953 538.3666775085599
-17803.27496247783 -242.4038154384251 -2212.1275133197764 3161.425368156885 -93.18405229473979 234.53500181892582
-15166.521935575363 -138.49633474878726 -1705.7947194251508 3185.6719248233 -240.63117704907617 87.6845846969597
-12676.883226319247 -131.7297916669658 -1329.113594452902 3169.061391851519 -393.9251244902744 -0.90102580669625
-10135.466338531494 -107.56076622664023 -964.199409447809 3134.796074994962 -517.4726516151359 -48.438321754105765
-7650.0570304837665 43.01360731161117 -580.9759224807268 3169.6378735864514 -584.0373625064177 -71.04598765095153
-5000.238640577085 522.8558932040146 33.14757831544609 3461.519626476351 -593.0169305585645 -25.973636808572778
-2379.4717424931896 -625.1737314885653 458.70410500010576 3376.928065542541 -480.26467292304307 308.42575642766593
-2568.239954104519 -5550.6726393700355 -680.6168390691893 2289.0172349874624 -340.21084099415975 1492.1780116454959
-2707.865384284272 -2422.5372897291486 659.2483840950681 -1207.9579900008657 529.748719119509 829.4548776070344
-4629.030716752054 -787.7250537937244 504.4788057158564 -1919.2322154046692 883.0536257054172 252.11113794516461
-9609.351324675428 205.88954238600584 -302.08886728711747 -2047.1647164696706 1304.0289807719666 86.8990885973975
-15159.393479672553 21.11275728633762 -1313.8343512277218 -1835.3803666729657 1353.34582681833 13.744562748644235
-20404.985093854943 -113.44451287948755 -2134.5856235518845 -1775.435467457035 1194.1593871075 -6.351302892884196
-25479.724488059976 -159.2221860768806 -2891.425896922449 -1789.620470733159 893.7101517021141 -3.5730425987276524
-30471.081195239458 -196.65218738578022 -3683.8049688749265 -1806.2464926295982 504.75222246901626 22.486812756999157
-35121.79938411853 -114.6383424700163 -4455.90901006861 -1772.7146399251872 108.49465268962471 91.04546611674999
-40580.42460321797 -658.2783378123971 -5860.935035494877 -1828.6611834274213 -242.99958954088353 142.79964472655286
-41256.42919608667 2950.369044575339 -5041.660040642969 -2476.961770787209 507.1844140719721 464.3388576460213
-51165.796539436174 -22038.404492236346 -15673.732076991266 3.117828670343357 57.237090622964956 2480.2662290166936
-41235.49352688206 2952.052128751752 -5017.574422794395 2483.141845809354 -388.55356293652864 464.8862807941067
-40538.887278288 -654.94135776569 -5813.399206028167 1834.555883039804 373.602282252056 143.55470996478968
-35060.960246336 -109.72805657069777 -4386.8089458304 1777.7020782238894 40.13816682772951 91.15276631909153
-30394.45340196807 -190.28090978158062 -3597.5299491531237 1808.8991589500488 -335.90608941353076 20.176343371727192
-25395.07421431161 -151.92711884706964 -2797.0029669049236 1787.039245988784 -709.9597843542765 -11.862701165659931
-20327.682187464066 -106.75367173779529 -2048.7541324323483 1761.8949259661406 -1013.4560710365605 -27.723136828127398
-15111.75095010236 30.85121606750057 -1260.6472458004282 1803.518469041612 -1210.497579862087 -31.29600454921205
-9599.52332299907 241.8364822240279 -299.61230712221965 2004.2457553977233 -1242.2415312998098 20.771381699582083
-4630.586842754591 -722.4608666657546 455.0762205119306 1900.2658027919003 -902.6580980200876 219.76314459332855
-2761.3385869787694 -2477.5286357875775 521.5528505347055 1203.5822534091078 -580.2927280458249 952.1513722203803
-2906.8443250267364 -1328.3481205767366 1396.8869869496073 -462.6692460323292 1012.7859403707048 537.5656209442619
-6378.961507637836 -935.9050971580414 576.6081926269694 -751.0547749369937 1521.0661621560541 175.26786519063836
-14507.076337567432 -898.8227950959514 -1118.1533859460023 -737.5951851169878 2116.826552930056 94.32688202825676
-23462.57418351451 -1725.3063880594548 -2956.5253120730627 -668.8124627675987 2134.3000933883154 39.07533813641783
-31652.951905964732 -2460.8591845603555 -4466.867120514003 -653.9166488544203 1835.0408976459303 19.442479334207107
-39507.85079013832 -3094.3906994388 -5885.0419219239 -669.1372832810077 1321.1398547861993 6.3049218732205645
-47280.72508588042 -3774.7066680583216 -7394.035823227548 -677.6610192694304 664.6753855310834 -3.587775578876503
-54594.21335459647 -4122.702408496089 -8843.0659763476 -708.3850853484098 -61.36576469310765 -1.805530769934819
-61148.03394576571 -5513.762222848147 -10668.920103104443 -729.2913799446956 -808.8386938828106 -13.199026652011057
-65419.74189041035 -267.1320132928207 -10569.837586005628 -1767.8567146021114 -1206.6595649670448 -285.8882947549507
-84520.2588544734 -34615.10440471467 -28111.939936788414 1.496703057375612 73.64052014431103 2637.281977544273
-65396.76248300311 -263.94222705006615 -10539.528204013195 1770.8539535649504 1359.0224016073118 -284.86145139767973
-61102.73434092597 -5507.425031756272 -10608.801767854162 732.2533418407805 975.8477074342934 -11.321743991502075
-54528.74127191712 -4113.3670839086035 -8754.873043569514 711.1038587985202 250.4551253386075 0.4766478705461381
-47200.535723634006 -3762.808198757286 -7282.324854369266 679.5884227252218 -450.81488243519544 -1.816870708183444
-39425.86174425044 -3081.539396974714 -5760.255315640031 669.1101197505991 -1089.2776016509324 5.693055013097599
-31596.955627787615 -2450.7969234249854 -4349.87153782021 649.4759401242939 -1609.3800973403218 12.670952689796152
-23473.13085880588 -1719.6719920671285 -2878.7188572193304 656.6704218858365 -1964.4646400948127 20.392566892649665
-14591.258567865883 -885.278135465872 -1103.016453269215 719.87196349966 -2066.2701952895286 65.86677914035467
-6467.338428965776 -914.8950133135146 534.4538501841502 742.168667895771 -1584.9802411894107 162.6353444533277
-2999.7948707773953 -1369.526505725517 1292.2139168393212 455.4180848486069 -1117.9791270935398 611.7973837492984
-7297.698402831444 -40480.4311935194 -14333.438878905246 -7406.319694095762 -3053.3780192334125 3847.61787843626
16128.124741566337 10374.88606951594 6676.692811530828 -3290.0317011058814 -3178.2046841874458 130.84660566610995
15953.836457137953 462.97185884915194 1564.3969376738642 -1551.0101145817025 -3104.8853020361626 1079.316905986633
23076.53975537008 2145.6177802576954 2841.876544558029 -1599.4350043621162 -2762.6701451717513 1171.0998671983368
31156.786430357944 2393.9051433316 3816.0238874583915 -1507.423775946036 -2468.8265885457117 1608.4259396170753
39592.16813974227 3146.826879199563 5105.461363111612 -1367.7158438987772 -1939.1213284578268 1983.3929179179715
47806.371747349534 3810.557967162513 6388.794442882409 -1142.467371435972 -1209.4523928845115 2368.688335429646
55558.22756817871 4430.515460823137 7692.706731222556 -832.7947881965645 -294.78869360924966 2747.290490885431
62085.62487759385 4926.479826813093 8887.932782910879 -433.4466664403951 596.8117591372402 3137.578140598418
66343.16181742035 5421.573012820377 9810.871115569757 -80.53674564740527 849.6962612657757 3556.9276744080207
67904.45205419819 5978.955592649368 10308.018798176076 -9.864339514970368 -20.425173713318443 3842.9589423513003
66391.37305051599 5422.143031555733 9814.440238244015 60.29590176712003 -890.1878518726112 3557.919906176126
62191.58640998897 4928.060739764469 8896.320898650434 411.669964100095 -636.1182292609386 3139.54496057423
55742.2312226851 4434.04572606982 7708.407528234627 808.4223318327595 257.9474176387006 2750.2823482895274
48102.379210479376 3818.1141780356734 6416.056590167131 1114.5230905720935 1176.9688279631036 2372.3008397560875
40048.58230294205 3159.494401607517 5147.154468831828 1334.8235090189737 1915.16675858579 1989.0708081196613
31845.519985179388 2419.6261031999643 3881.4912044132666 1469.724016383036 2453.504576375613 1608.9696488460238
24075.95955579026 2175.5431710604057 2902.450576873664 1546.0619047590023 2780.3434705619597 1201.0795744195282
17658.264683401627 641.0404035267968 1831.6600350663966 1486.3836826657425 3056.2691169826207 979.7669863276743
19823.136299680627 11027.359101054617 7071.20609458427 3413.6509985647153 4086.714793698837 719.7978753792978
-305.1626112351296 -38605.638310882656 -8810.18288629163 4451.868649691838 5352.9894561488545 1492.3263463568778
-8091.308085482875 -35111.93588784845 -10586.36410372659 -4753.807757006116 -2522.7488595110717 2211.7682675956344
7710.59486443884 5622.831334715463 3166.705401326711 -3938.9427734198957 -2112.3740667297834 663.4077895853446
7955.112754033559 -537.4851583779773 51.943697644710575 -3277.298072277181 -1916.595791483139 1162.9509210674964
14396.235186309503 99.9757972452789 988.6354302128562 -3319.3223030477557 -1694.5983081438733 1508.0866180695502
19475.92856524704 -120.89113298473572 1358.8035777533737 -3244.6574761884976 -1470.5700522843347 2000.7913647803207
24851.96624156292 -114.23854411290502 1896.2762379326575 -2980.2669861973527 -1158.831750925244 2492.1074125098794
30089.41144877459 -114.11325889272001 2470.1748039851423 -2589.4732053052785 -725.1061044317626 2986.2432311025427
35017.231351570874 -158.79639598802783 3065.9278925974036 -2019.4479267793895 -189.77024678797778 3496.233305806202
39190.74578512741 -207.79260706858713 3642.390075587314 -1192.8816678919684 337.4773930327776 4076.759577617155
42073.47367285613 190.41834223598224 4229.754856911456 -313.9649238745968 503.2947694704246 4804.999385967083
43427.46995628778 1269.4360186902147 4810.17428071289 -17.58776819042731 -4.892697112128168 5369.827514983274
42125.73555052908 192.71724205703813 4237.053902179962 277.66932940461913 -512.1059629938633 4805.103506642356
39303.84946913926 -202.99898154510507 3657.842002210878 1153.1696487152792 -343.3340817869917 4076.83482057206
35209.01729183571 -151.10559674415708 3091.1583914106086 1973.8364181384825 188.8777643071603 3495.997402276586
30388.077285228872 -103.11094232834893 2506.9014264712705 2535.195582984047 731.4252038580495 2985.112731307882
25298.027451414797 -99.91641508243939 1946.2820468883363 2914.23533062938 1173.8493181491283 2489.6336355010167
20119.43259349708 -105.64708203130976 1416.1596727031351 3163.6489183932813 1498.0859096584866 1994.352678101939
15328.967583192822 133.45674885211452 1070.006438512691 3209.962838484458 1722.645078370675 1506.773656457704
9262.171267979686 -510.11333282566375 84.38557018955709 3108.510286904032 1995.8904481877269 1117.6686293062023
8997.142875692345 5899.36680920313 3299.078456854172 3715.2479251757104 2415.6187249836844 951.5585376363666
-7501.027858429619 -36260.30839016306 -10178.071563927047 2974.7935389876684 2987.0445738703265 898.3439551582802
-6447.839352642854 -24470.420885792846 -6678.940358947834 -5581.266091062649 -1536.1662279481575 732.5359457572549
2645.9658194389876 1716.098575694023 1433.048426961022 -6398.135824418881 -1202.2106681646085 1031.0214687586242
2794.2597466467555 787.3188055102604 136.1108647984574 -5580.673462317345 -947.3810406083829 1327.7556639250517
6169.588294919162 -130.70544712200706 183.14548842595877 -5675.768461018573 -768.2901495508527 1923.4277356310326
9252.870449943333 -87.5070192992795 522.8715529877524 -5483.0028757299715 -628.3522081747858 2538.4450947961086
12000.88792553362 -111.14629604116142 773.3130416673245 -5061.0747130996515 -475.5206279401341 3184.4943076996155
14736.850648306336 -93.80253543193356 1075.0724888011011 -4433.687610117839 -270.4479670558184 3836.4389155920444
17366.798663836795 -146.28122049980436 1395.4350666119385 -3521.929441497703 2.630089698071041 4524.12924760575
19608.157063938677 -225.2864916031331 1688.5569443757126 -2115.1357690630325 349.75447283511875 5333.908268026508
21132.174922459162 666.0757930610904 2150.910198674719 -456.50986635204737 534.6085466400673 6439.521859013801
22532.337777183293 3554.669019062578 3267.3976245129797 -28.10545939780141 7.519780904069002 7480.497438275067
21186.130654999335 668.7747513735703 2161.0738197711303 398.43425607361166 -518.0841783194243 6438.941652337598
19723.70142972095 -219.70753886281798 1709.611885280686 2051.356026619781 -328.85000712723956 5332.574076986758
17559.245815108596 -137.47994411672911 1428.5595487050143 3448.239535228613 25.297607188008286 4521.621993327287
15029.463348914976 -81.3456907419314 1121.4452177215132 4345.221181622725 307.3470114047937 3832.079934569027
12424.184496775575 -96.1980628326586 832.0658935818623 4952.100219140965 522.1362831994485 3176.766352820835
9844.073783483156 -71.60542913902987 590.4629772929563 5346.369181198504 682.3056765553232 2527.118486559161
6962.044351710367 -117.05542901087753 244.0853197422177 5493.230974659222 823.9027060957502 1900.8775085680545
3587.0699994886404 797.7515080069862 99.66245004784642 5315.416494761167 1024.5197262685083 1332.7403607440665
3392.4846268657434 2273.07318451554 1581.5601033606404 6044.538208808997 1316.4624204954212 1046.8533213435928
-6417.091157585366 -25388.460435612593 -6823.403155478166 5275.560342541987 1685.6482040974722 700.1201825279189
-4717.329696899396 -14787.02594696792 -3532.4082941875204 -5161.265271060652 -692.979690231286 258.3244736049021
-825.2961997612192 -343.20472532193526 551.3468777630408 -6766.206478747852 -392.62458494213337 895.3815951215848
-1910.313431625681 1002.0445151927626 61.508122535583624 -6793.355446728254 -61.93034901951037 1372.8294103250892
-1506.4110646723934 76.03580060452362 -238.7317023806609 -6485.408878192327 102.9407191154151 2022.5520739641788
-911.7403004458666 -65.57369282780267 -155.72131851317783 -6218.79009374022 151.70658266019504 2694.355084917783
-603.1745218298145 -26.674690608158272 -82.42019659350066 -5736.809446152041 165.00524285427835 3379.2636715687017
-314.2096875020304 10.034903090413977 -5.427821878078021 -5036.339004925372 177.0709327457377 4079.3308034962265
140.9857937542198 2.0197899684600458 115.20725275248091 -4051.569738852956 223.1193445688036 4808.533135417557
555.6837831726086 -215.81083717875345 141.09190869569915 -2440.388063641391 431.93859814772907 5644.89213392235
569.1728328705512 1061.358774781924 393.62201331290197 -151.18419398948998 702.161940981067 6845.0959951954155
2565.1545527593926 7528.483451422996 2677.090885115152 -31.55597813149285 18.674530236054466 8391.756299033972
624.1024324860595 1064.5385581706707 406.5865125012625 85.92149033096487 -662.8503749156115 6844.303994033549
672.1341931978849 -209.33751686711227 167.65225371205912 2368.5467828652772 -386.9029913386241 5643.110280777992
331.6131629619963 11.987181153737652 156.27938645129598 3968.3099737597176 -169.20035599805524 4805.310412110801
-31.852416692880297 23.50943207339688 50.53535702707177 4935.976514033869 -112.48564171382348 4073.7848559887784
-209.16622152485542 -11.350862033710342 -13.503129874616846 5612.220273977777 -90.74727685399716 3370.040847498415
-387.812645389813 -53.134672556476715 -80.97048382292165 6060.153113527842 -73.66437636452594 2679.092164130429
-900.2309081527279 68.32431633644387 -194.92493799999363 6278.024956837621 -30.309957131346145 2001.3941467936297
-1376.7087935287539 1103.8281739747458 58.948331549772874 6531.6780223983105 121.93151711159894 1361.1973796981442
-396.3241321110599 52.95427133391041 622.7447991049648 6612.09177113944 442.9763254950725 920.4621511815657
-4806.051866449047 -15496.959951709456 -3760.8952214471274 5111.9796493636195 755.5670025891544 404.8873534982077
-3704.0734095278854 -7401.524240966889 -1304.3067277242005 -3922.589138351945 10.173350943889716 203.97282019239594
-3480.3162108789297 -985.0335023702671 179.10487294110206 -5690.041354144351 367.8412414325989 694.7406844797838
-6416.043511617861 803.3315057116441 -119.81436680640171 -6250.89073545879 834.4951020533913 1269.1752703665034
-8925.636299439966 185.6073795066315 -626.1063754995575 -5825.840714885319 989.8726477729701 1905.4484172798689
-11033.615958100387 19.38135521832325 -802.9525895000877 -5488.142884388661 942.5079619558608 2544.3642925715217
-13218.803402548067 59.097383909658234 -942.1775453620218 -5057.799453822478 808.9874198492262 3185.048591188588
-15391.683016535422 79.11849947156814 -1105.3225438214183 -4441.174282041118 636.6835103806018 3843.348238267419
-17139.391862270677 227.19702147905508 -1153.8379517017725 -3563.9096918293426 431.8950031668177 4504.4458429120705
-18404.947039766364 -149.41002777609228 -1349.275670804597 -2265.2767766274274 384.4398390125738 5210.001524561571
-20388.024562676197 380.5351947828239 -1825.6400034640067 582.310057683521 785.818739104448 6186.770221394526
-16670.065729610928 13623.936283771152 2747.281224943035 -28.4036166066212 30.076674386857498 8204.036736081203
-20331.85560960437 384.27098535536106 -1809.7784945171804 -641.0841141185281 -723.1730010096165 6186.243774925274
-18287.076761624277 -141.89889993389198 -1316.9988107812046 2200.4987489613723 -314.57851045868944 5208.784371663798
-16949.887403093126 238.4657450485962 -1104.5165878223756 3488.752243045859 -351.0351997953648 4502.148219786003
-15119.120310177725 93.66667680187854 -1039.4144572769173 4350.52689177021 -543.173390913814 3839.22588784701
-12854.943969864436 74.98216675611954 -863.0963572026785 4944.853307080224 -705.4748706895951 3177.8007196739372
-10589.528261067077 27.036323101578517 -724.1496453517792 5343.466405467817 -838.7821087007881 2532.2560762951653
-8470.957938070766 186.76245754726398 -577.1008563581684 5640.915443209032 -904.2617065089661 1889.0296300934879
-6060.317695089955 901.0550996431086 -104.51319335361964 6071.661774758204 -786.6186725024944 1258.129991015822
-3244.865467507251 -764.7380203633338 201.73831389536394 5647.591650587028 -348.3155770504639 725.5426428364252
-3777.0082711912246 -7827.516658239216 -1472.3368997660057 3950.6311270936276 11.016046911592525 341.04029542738215
-3449.4156893987965 -2961.908265553925 22.254923666737227 -2171.8271263989373 628.0902107440876 298.9050122527441
-5581.907036014598 -920.67001201944 104.9311224648352 -3278.2967039097475 1145.5348351552386 498.7345804948249
-10841.946890633428 462.1755180759668 -417.3560437292261 -3755.318186040817 1826.8250733277118 997.2048660848654
-16327.575117112432 197.63636528379791 -1149.786463432365 -3492.0887460418803 1973.147827019963 1504.7032056326177
-21303.560154967097 67.01728274454707 -1647.702330964652 -3250.7589047894676 1810.9414665958411 1999.1217255264464
-26090.13889828201 72.02187718373635 -2073.3649562608407 -2980.3017002295305 1507.7534715606241 2491.6210367186454
-30709.287952917377 113.08272061583486 -2489.1139849764063 -2597.270254426091 1112.1407430639333 2989.7101334093545
-35151.24469842743 66.71304939400748 -2973.5975634121587 -2081.033124669444 658.5555201741209 3495.286659325489
-37682.471648739855 733.6567036792026 -2897.8935217360176 -1207.4937728566138 6.858984866664386 3917.2768067576285
-42540.59087591012 -2566.6947041890876 -5336.475484534211 613.7967312721211 306.83321163202356 4476.093403654814
-35212.618706673595 21750.1311962047 2962.2272412226084 -17.970689544833988 43.25478007938982 5948.65834620143
-42481.85597815999 -2562.3987233484045 -5317.4537528563305 -650.972731636548 -217.15694299461222 4476.259673187262
-37560.49832034713 742.240027636871 -2859.3979863383793 1166.564817508377 91.95562275859889 3917.522539939576
-34958.77195665735 79.38570937536738 -2915.361714433636 2033.6774333874919 -545.9255295663905 3495.3936348208344
-30440.750360836308 129.06486521727768 -2412.554736341639 2540.4349723936534 -983.9301570421236 2989.2212621489275
-25751.79777927211 88.13601401584904 -1984.968116255654 2910.0690003236055 -1368.043027870817 2489.6941033126277
-20932.992341897832 76.54224452858892 -1564.5324863754583 3161.4775920552006 -1674.4865707787526 1994.7115292890494
-16005.764224155 208.54258131206632 -1096.9411459764528 3383.9638301937707 -1869.5669559560322 1497.9342210934715
-10642.554028276178 530.3021806326851 -400.844309187201 3668.1295165867095 -1787.3396161517983 994.3092765269948
-5494.5748601916 -819.1235512807422 98.81822504552427 3277.4543604537535 -1153.191518277123 520.5879800182295
-3506.4236093260406 -3146.4483340366323 -71.81417686699496 2200.4578010411506 -643.2019769705186 387.7740027920369
-3013.053927085818 -1279.0028165603776 933.4221382557128 -1070.8546562384831 1257.4255660827746 360.7556190141304
-6765.377768733072 -828.8288661714107 291.9516432928509 -1535.6169069543912 2034.186089814641 417.12079869541355
-15493.98092565591 -653.0535647707048 -1222.8842962775539 -1726.4736096042052 3018.3667844111224 828.1411723444565
-24889.95297711617 -1692.5993995011895 -2920.6252709122764 -1659.9985944344858 3151.300840792953 1232.501639198676
-33097.14616300288 -2513.902806090265 -4179.841338537496 -1543.5951524563427 2840.5317352476886 1615.9168677995676
-40855.48914880467 -3188.8996813357253 -5298.252283987176 -1384.8651144219566 2318.9866871946506 1995.298878306309
-48386.012831527565 -3772.2877102536613 -6386.250050030423 -1176.7395215917359 1637.1685353319037 2380.0962264512145
-55689.04810189515 -4640.241654590846 -7630.098901314892 -862.556237790016 827.5919251516168 2732.0164596305813
-62198.70529208975 -4326.20928303616 -8524.838912505045 -422.098663720215 -335.1448293875536 3148.7467360698483
-67960.08103499221 -10273.213528013086 -11983.49019418034 1173.089209159688 -2433.534517585659 2827.792260969236
-54968.49767187447 21728.635080823096 -1309.8787340279155 -11.611905992174343 60.145445695448984 5831.717648552067
-67895.29824148711 -10266.509769281794 -11959.949848633327 -1197.07772713465 2557.9321373304174 2828.1316026859204
-62065.746607374705 -4313.0828754769345 -8477.613202491968 395.83425369132556 471.3915005710466 3149.328668293486
-55483.4426739685 -4621.570967346762 -7559.757122887295 832.5536820606739 -673.442756185201 2732.620973410568
-48108.3870460375 -3750.486968093336 -6296.275002801409 1141.6838105406086 -1462.8334893150395 2380.324641818168
-40527.311524378514 -3170.9148297503043 -5200.395851541819 1343.7864532419205 -2129.8243036011445 1994.5601688450563
-32789.28374251103 -2513.3892182238365 -4102.284228302411 1496.050834055434 -2656.9349669460257 1613.8101353489726
-24724.9337079764 -1715.044558081333 -2903.1746443901748 1609.4473930136935 -3017.198610275711 1229.8720542149752
-15526.957310435753 -661.3200568908574 -1271.6427248556927 1690.1073511890127 -2985.5936775099312 829.8362631715538
-6873.8363058533305 -821.1492735143124 226.37981158840518 1537.8020059202363 -2082.9580502626136 432.1352752838934
-3145.964005689709 -1391.2848737392599 854.2731433422614 1079.5373883673165 -1326.094154871788 420.04412426538
SCALARS Strain float 6
LOOKUP_TABLE default
0.04344569743856608 -0.16145767754244875 -1.2156616858993718e-17 -0.09146804822393287 0.037709218536826836 -0.047518080799044585
0.052310092616122746 0.016783843817178234 -0.006052499550891852 -0.040631891508538256 0.03925082784942163 -0.0016159555798074593
0.07289172263593979 -0.022764366257999432 -0.01596306639620814 -0.019154974915125012 0.038345333480107865 -0.013329563788951374
0.10250638442478341 -0.026742058770935093 -0.02244266090150393 -0.01975302230392089 0.03411897629299325 -0.014463083359854882
0.13914558667503052 -0.03846520527204783 -0.029683622027020812 -0.018616683633014167 0.03049000836880808 -0.019864060354270553
0.17630328791832708 -0.04874669436527446 -0.03665212642720215 -0.016891290672246036 0.023948148406693886 -0.024494902536282177
0.21254618861557445 -0.059127961476933014 -0.04320735123946101 -0.014109472037303693 0.014936737052133798 -0.02925330094243362
0.2466259893252067 -0.06908763293771272 -0.048943601842916275 -0.01028501563418752 0.003640640366021822 -0.033929037562357295
0.27522118019965097 -0.07773654048925245 -0.05327456848480652 -0.00535306633053948 -0.0073706252251200845 -0.03874909003633732
0.29342378574960243 -0.08276702511835825 -0.055663109334153894 -0.0009946288086927898 -0.010493748826452806 -0.043928056778879815
0.29933720875017295 -0.08305273189973833 -0.05632076660537661 -0.00012182459309803724 0.0002522508953212507 -0.047460542937907996
0.2936468908301458 -0.08283810453632529 -0.05571566928527759 0.0007446543867542419 0.010993819970765737 -0.043940310841178686
0.2757102916126031 -0.07789197940115235 -0.053387972919766144 0.005084124056479116 0.007856060131498966 -0.038773380263107865
0.24747260242044167 -0.06935544302098452 -0.0491362588928429 0.009984015798033714 -0.0031856506077233603 -0.03396598700138138
0.21390260790529325 -0.059552728670233625 -0.043510434275347 0.013764360168377388 -0.014535565025190069 -0.029297915371001612
0.17839379129895844 -0.04939632649229217 -0.037122525577108594 0.01648507033628094 -0.02365230946845562 -0.024565024480326107
0.14228712776669503 -0.03941776695506031 -0.030390749955031274 0.018151091602262952 -0.030300781518304638 -0.019870775163309092
0.10712466679961803 -0.02811040437640847 -0.023621751145679833 0.019093864523841274 -0.0343372418616461 -0.014833332744082094
0.08035315912151159 -0.024728200807221608 -0.01737612458235343 0.01835683848103363 -0.03774492359506816 -0.01210012228119369
0.06836944202001527 0.014055517818265764 -0.010373726996791411 0.04215858983245898 -0.05047092770260558 -0.008889503760976266
0.06611802280293427 -0.17038741464375767 0.013599522604249263 0.05498057782405121 -0.0661094197839044 -0.018430230377665956
0.026686364081711413 -0.14016601259737643 0.011279393169322572 -0.058709525800104835 0.03115594841476274 -0.027315338104956205
0.024100235756934284 0.011208295961192561 -0.00395828167741025 -0.048645943251808946 0.026087819723979725 -0.008193086201292102
0.03847868216289357 -0.013963109945851078 -0.010323386759906369 -0.040474631192672854 0.023669958024788697 -0.014362443875199181
0.06683084613556813 -0.021448555591483762 -0.01596108235798128 -0.040993630442742124 0.02092828910563847 -0.018624869733199212
0.09074663545090708 -0.030263726185377482 -0.021126611346593358 -0.0400715198310853 0.0181615401458446 -0.024709773355032508
0.11550743593357896 -0.038658878617763244 -0.026243949838664616 -0.03680629727971628 0.014311572124047137 -0.030777526544467936
0.13956731667981762 -0.046939448389733004 -0.030981469601636082 -0.031979994085659755 0.008955060389778403 -0.0368801039039983
0.16218918653726988 -0.05502278480382424 -0.0351101123218207 -0.024940181895765377 0.002343662547862575 -0.04317848132677409
0.18126174108667398 -0.06202423348525981 -0.03824935541963573 -0.01473208859843003 -0.004167845803911875 -0.050347980783508134
0.19355025313708235 -0.06507761352912388 -0.04013471055117599 -0.003877466809771364 -0.006215690402899573 -0.05934174241659817
0.1976170376154178 -0.06270882194848937 -0.04084476318098297 -0.00021720893717628795 6.04248093356616e-05 -0.06631736980987554
0.1937848199842259 -0.06515156807024208 -0.04017778919406641 0.0034292162179902345 0.006324508642983789 -0.05934302830700846
0.18177013367389347 -0.062184655509074815 -0.038343962434277803 0.014241645161399762 0.004240175910160601 -0.050348910034065636
0.1630532569038558 -0.05529550193314636 -0.03527452180627211 0.024376879763815227 -0.002332640389109824 -0.04317556791817912
0.1409179656650436 -0.04736512164027998 -0.031248295262894705 0.03130966544958742 -0.009033101267532604 -0.03686614223171746
0.11753455936913135 -0.03929774400692258 -0.026662468504079054 0.03599080633317443 -0.014497039079080584 -0.030746975398448458
0.09369982437766029 -0.031190042619067188 -0.02179288590854282 0.03907106414216682 -0.01850136098432904 -0.024630255574601252
0.07109766097839766 -0.022734618423790032 -0.016951424090274603 0.03964304105540381 -0.021274666717992125 -0.018608654657296008
0.04460197558482966 -0.015741881825463825 -0.012070851099234173 0.0383901020434674 -0.02464924703528944 -0.01380320757198333
0.02962864415555029 0.01049987694486992 -0.005556903630925518 0.045883311876117015 -0.029832891253780414 -0.011751747939880182
0.030544809107203502 -0.14704374817730584 0.014014064225699993 0.03673870020670913 -0.03689000048756433 -0.011094547846334292
0.013760602848594728 -0.09752883811826141 0.012333554134765785 -0.06892863622480723 0.018971652915065338 -0.009046818930034416
0.008080803163436947 0.0023388729333363918 0.0005910382650527079 -0.07901697743167807 0.014847301751783617 -0.01273311513913052
0.01195684651622345 -0.00043601379512919763 -0.004457222828973913 -0.06892131725966248 0.011700155851497 -0.01639778244951446
0.029230817341814038 -0.009673496515057693 -0.007735466988037778 -0.07009574049375886 0.00948838334697561 -0.02375433253513807
0.04333074017655129 -0.014346090695727025 -0.010577003011937638 -0.06771508551552917 0.007760149771016339 -0.03134979692074751
0.05606063003361581 -0.01873118128431864 -0.013269644874095462 -0.062504272707096 0.00587267975509811 -0.03932850469999823
0.06860173089577282 -0.022977552513547918 -0.015759749239021705 -0.054756041985137116 0.0033400323931774673 -0.047380020607497804
0.08071224942246288 -0.027431018863340068 -0.017910920790322242 -0.04349582860254367 -3.24816077288159e-05 -0.05587299620808641
0.09105358565846752 -0.031417928297034124 -0.0195999450797729 -0.026121926747919282 -0.004319467739530351 -0.06587376711016506
0.09636362584327822 -0.030014536280516167 -0.020845683825917498 -0.005637896849142828 -0.006602415550997894 -0.07952809495862152
0.0973071594742424 -0.019879945106014794 -0.021653845968291126 -0.00034710242355673836 -9.286929420589955e-05 -0.09238414336277444
0.09660158639715041 -0.03009308630747708 -0.020878139560174237 0.004920663062068332 0.006398339602176187 -0.07952092940624476
0.09156446809746482 -0.03158608228336242 -0.01967253483934406 0.025334246928396295 0.00406129758807752 -0.0658572898508102
0.08156662918526 -0.02771065237809091 -0.01804035850978387 0.042585758259733826 -0.0003124254486759358 -0.055842031617562134
0.06990780908148606 -0.023401436738667965 -0.015974202878699828 0.053663481592752124 -0.0037957355908064478 -0.04732618719205224
0.05796626470098224 -0.019347097604799645 -0.013615067673849957 0.06115843770623838 -0.006448383097508148 -0.03923306445729839
0.04601997846551377 -0.015209340672501657 -0.011121068262822123 0.06602765938782625 -0.008426475105503258 -0.031209913309075087
0.03288869307639236 -0.010824748069550128 -0.008594703946091494 0.06784140253724671 -0.010175198420323038 -0.023475837230872997
0.015759767607387603 -0.001464274077609667 -0.005774974010471482 0.06564539371063509 -0.012652818619489258 -0.016459343455216588
0.010621449542456684 0.003709083885840581 -0.0005610093902444133 0.07465004687918417 -0.016258310893236823 -0.012928638518695284
0.015420722618885075 -0.10172748267365206 0.012911746031869939 0.0651531702307301 -0.020817755320734287 -0.008646484254386341
0.0036978777333398737 -0.05848249661062571 0.011014767395101873 -0.06374162609757125 0.008558299174302684 -0.003190307248959835
-0.004216759516126981 -0.0012398446614613945 0.0042840114876422425 -0.08356265001250862 0.004848913624010067 -0.011057962699724793
-0.010589551309070935 0.00739425901256539 0.0015864467879979503 -0.08389793976715378 0.000764839810372296 -0.01695444321754064
-0.0069236108972960345 0.002847998495958863 0.0009043091650158547 -0.08009479964585765 -0.0012713178810680155 -0.024978518113554053
-0.00401542103608895 0.001209657766170498 0.000652996177507115 -0.07680205765795109 -0.001873576295842439 -0.03327528529875835
-0.0027096187645609575 0.000850267693435732 0.0005060391939115951 -0.07084959666032638 -0.0020378147492558503 -0.04173390634382164
-0.0014990611064950722 0.0005031492406858089 0.0004076669138928328 -0.06219878671115085 -0.002186826019433621 -0.05037973542310157
0.0005026339843703062 -0.0003554810889952369 0.0003434514937828251 -0.05003688627490942 -0.0027555239054006778 -0.059385384222458835
0.0027459724431277903 -0.002018006837543238 0.00018586761826961263 -0.030138792585924428 -0.005334441687141609 -0.06971441785398702
0.0006302233329493564 0.00366947152445111 -0.0004538029776959112 -0.0018671247953161282 -0.008671699971163276 -0.08453693554041873
-0.002358459304232744 0.028290096646043084 -0.001667252451759476 -0.0003897163299356488 -0.00023063044850865508 -0.10363819029308384
0.0008681333284078047 0.003587826404958981 -0.00047502747731679193 0.0010611304050561132 0.008186202130087252 -0.08452715432627342
0.0032520389176437826 -0.002191048891900249 0.0001368629414160959 0.02925155276801658 0.0047782519430508525 -0.0696924119676476
0.0013353826652633457 -0.0006383077726530179 0.0002526965953301416 0.04900862817559747 0.002089624396626982 -0.059345583589606794
-0.000256812803751879 8.504661218424606e-05 0.00025193169900273606 0.06095930994797547 0.0013891976751590845 -0.050311242971511176
-0.0009581226137971665 0.000263387231035893 0.0002500969771949704 0.06931092038347093 0.0011207288691428676 -0.041620004466629626
-0.0016510102177899433 0.0004156262645621484 0.00024374012992276145 0.07484289095207125 0.000909755048128159 -0.03308678822713113
-0.00409569092790339 0.0018851375834248018 0.00025957343783453905 0.07753360821715125 0.0003743279705790177 -0.024717217712926787
-0.008196323289676928 0.007120992484728743 0.0006688594577291382 0.08066622357705537 -0.0015058542363390567 -0.016810787639307267
-0.0028454108028939796 -7.111666163858401e-05 0.0034473398473784758 0.08165933337401374 -0.005470757619899348 -0.011367707567183766
0.0046136972561544925 -0.06140266017074792 0.011067539539060908 0.06313294866994204 -0.00933125248201913 -0.005000358815867111
-0.005188539564882759 -0.028020298448906623 0.009630019695239732 -0.04844397585857014 -0.00012564088417411093 -0.002519064329330654
-0.015383053704743316 2.5317020309159263e-05 0.007213871487851492 -0.07027201072359987 -0.004542839331686331 -0.008580047453308428
-0.031450218603157096 0.013129422128808335 0.007428996366100131 -0.07719850058298562 -0.010306014510361767 -0.01567431458904251
-0.04176906135310865 0.014492868364500228 0.009480535927295482 -0.07194913282897068 -0.012224927200016793 -0.023532287953481522
-0.0512930867921998 0.016959171617684468 0.011881259508993026 -0.06777856462246276 -0.011639973330191303 -0.031422899013280194
-0.06153092693216215 0.020460110424364405 0.014277237736090645 -0.06246382325501481 -0.009990994635227313 -0.03933535010106134
-0.07164815356548927 0.023884045796085343 0.016570122353690438 -0.05484850238348555 -0.00786304135326312 -0.04746535074255496
-0.0800916480203242 0.027147038336825975 0.01861914737757236 -0.044014284694175246 -0.0053339032891322165 -0.05562990616011756
-0.08528787131845754 0.02744006973068691 0.02003089938493107 -0.02797616819136915 -0.004747832011825905 -0.06434351882843764
-0.09478384232048613 0.033462014182101506 0.019838882332748917 0.007191529212847789 -0.009704861427974186 -0.07640661223404951
-0.10251179716581396 0.08455366526795625 0.0173903202786838 -0.0003507846650511847 -0.00037144692875476113 -0.10131985369063808
-0.09454496594519295 0.03337711577898705 0.019828860240570675 -0.007917388809969238 0.00893118656229629 -0.07640011062027299
-0.08478468537995242 0.0272617879161175 0.020005545966557556 0.027176159549313968 0.0038850446041110405 -0.06432848699009798
-0.07927784271374991 0.02686023797558214 0.018567322070616236 0.04308609020128376 0.004335284717442728 -0.05560153051427876
-0.07046813088625098 0.023470828758331272 0.016474052755538426 0.053729007113059626 0.006708191377722755 -0.04741443971493745
-0.0599379211355917 0.01990437275794262 0.014111737872778873 0.06106893834233367 0.00871261465299444 -0.03924583888796394
-0.04930687275602241 0.016250413551448264 0.011611840196216828 0.06599181010759919 0.010358959042500927 -0.03127336254236464
-0.03968081798768425 0.01378060545538071 0.009063749492064213 0.06966530572382058 0.011167632075458924 -0.0233295159316713
-0.02992158126824787 0.01306489573939856 0.006855511530102584 0.07498502291870271 0.00971474060544838 -0.015537905389061519
-0.014610836389003751 0.0007039505971978996 0.006671941961244267 0.06974775688512323 0.004301697376611196 -0.008960451639126388
-0.004688497968028359 -0.029700387258211988 0.009542847750586194 0.04879029441981984 -0.00013604817932923803 -0.004211847648656643
-0.012195718512407439 -0.00918536017017353 0.009241847523192754 -0.026822065010963604 -0.007756914102674282 -0.0036914769012843735
-0.025351630503430454 0.003431508119722595 0.009764595125139655 -0.04048696429323291 -0.014147355214158105 -0.006159372069101613
-0.051563115481436564 0.01823984039227769 0.012808732998170952 -0.046378179597604936 -0.022561289655560167 -0.012315480096113336
-0.07619916791639703 0.02584401298741593 0.017523677020033754 -0.04312729601365931 -0.024368375663769 -0.01858308458960171
-0.0989394345424271 0.03302388113548917 0.022435487520845537 -0.040146872474347436 -0.022365127112594793 -0.02468915331026248
-0.12107624587927854 0.04047509690951479 0.02722733321283783 -0.03680672599811203 -0.018620755373906464 -0.030771519803391725
-0.14248327322478044 0.047844865684415774 0.031776301027424445 -0.03207628764236703 -0.013734938176940843 -0.03692292014756811
-0.16282610188521646 0.05464478720764065 0.03587086917368985 -0.0257007590897441 -0.008133160674191654 -0.04316679024265009
-0.1759077028658905 0.06131188971048837 0.03888706706845109 -0.01491254809473298 -8.470846315371288e-05 -0.048378368563512825
-0.19080578914173407 0.0560330197187653 0.03892962340007725 0.00758038963146513 -0.0037893901636000767 -0.055279753535076505
-0.20247504963015744 0.14926993102120512 0.03325462409805074 -0.00022193801582924934 -0.0005341965340376673 -0.07346593057552944
-0.1905600261177028 0.055942622430641596 0.038930157623533045 -0.008039513236042793 0.0026818882457033903 -0.055281806963834466
-0.17539541693051858 0.061123992368431614 0.038883877632026276 0.014407075495996523 -0.001135651941256607 -0.04838140336831559
-0.16201290098700413 0.05434772260052948 0.03585515725887422 0.025115916302081345 0.006742180290020709 -0.043168111389937106
-0.1413395911477885 0.04742901787320323 0.03173451683369587 0.03137437190889642 0.012151537439376064 -0.03691688258758275
-0.11961805370609788 0.03994353746753894 0.02714211946335993 0.03593935215392759 0.016895331394187346 -0.030747722175894242
-0.09731132752967128 0.032422548541932834 0.02228891207852512 0.039044248261926304 0.020679909149189633 -0.024634687386815898
-0.07476141211035772 0.025361932413709647 0.01730057039770635 0.04179195330303207 0.023089151906167726 -0.01849948763049363
-0.05073660910131535 0.01825577798898129 0.012505948414291456 0.0453013995301215 0.02207364425962548 -0.01227971956515642
-0.02507279549612793 0.0037981163365367254 0.009466406805338164 0.0404765613518203 0.01424191525085413 -0.006429261553273183
-0.01206948806631547 -0.009846640741414149 0.009139225179193713 0.027175653843006593 0.007943544415673125 -0.004789008934568568
-0.01381955368699965 -0.003111788079566331 0.01054993601636978 -0.01322505500448464 -0.01552920574104931 -0.004455331894787151
-0.03137049435880937 0.005287695114437976 0.012208514760348128 -0.0189648688008646 -0.025122198209172886 -0.005151441863879317
-0.07092319794478555 0.020719528508625226 0.017200823741500722 -0.021321949078564197 -0.03727682978743863 -0.010227543478413953
-0.11165343148586904 0.03159022685583208 0.024007167099797458 -0.020500982641314187 -0.03891856538386785 -0.015221395244117192
-0.14767285886815365 0.04117866886069732 0.030891498422903788 -0.019063400132994124 -0.03508056693059739 -0.01995657331729781
-0.18196938190630182 0.05062180805555753 0.037596555734045786 -0.017103084163248447 -0.028639485587086146 -0.024641941147118568
-0.21535764464152862 0.060132107982595384 0.043990890534420804 -0.0145327330917252 -0.020219031411493494 -0.02939418839663193
-0.24703774319211136 0.06818863662038328 0.049726268121747116 -0.010652569536771178 -0.010220760275708445 -0.03374040327639201
-0.277131106459062 0.08023155639731763 0.0543050184351259 -0.005212918496945265 0.004139038642875367 -0.0388870221905727
-0.2910945821121342 0.06512182474337272 0.05456086632989225 0.014487651733274426 0.030054151292365924 -0.03492323442287441
-0.29019709173535013 0.18340770301337314 0.04114488020538962 -0.00014340703899485717 -0.0007427962544047655 -0.07202171295955723
-0.29082996169142744 0.06502780712402234 0.05457081463427092 -0.014783909930368211 -0.03159046189641986 -0.03492742529304528
-0.27658555447401084 0.08003714407055529 0.05432116930117073 0.004888553032998595 -0.005821685032423917 -0.03889420905337654
-0.2461879601729525 0.06788409761546225 0.04974079810522915 0.010282037973355113 0.008317018038570271 -0.03374786902154425
-0.21419820266047546 0.05971183032112197 0.04399158920689416 0.014099795060100999 0.018065993592931772 -0.029397009326430752
-0.18057561202036643 0.0501001375693107 0.03756809225992756 0.016595762697512572 0.026303330149474433 -0.02463281808523839
-0.14632176311606895 0.040631885572022644 0.03082045888468394 0.018476227800659332 0.0328131468418812 -0.019930555171618604
-0.11086247274979438 0.031223592751436123 0.023886889468356983 0.019876675303772233 0.037262402837065715 -0.015188919869585881
-0.07099857526086521 0.020796734780136255 0.01702799230543103 0.0208728257872962 0.036872081917567856 -0.010248477850202805
-0.03180317596965865 0.005572166455193229 0.012040658555664465 0.018991854773232796 0.025724531920987476 -0.005336870649789305
-0.014178087311249626 -0.003342943671449615 0.010523377084081421 0.01333228674642169 0.01637726281280348 -0.005187544934731395
0.040639248501329356 -0.10390147682928315 8.754932542820448e-18 -0.047048157278640715 0.025099844472468755 0.008878885047568261
0.051517246843080795 0.005200512523800142 -0.006447416994080138 -0.02103243145134461 0.027083122002204817 -0.002782921207876118
0.07535987176275719 -0.023072076733396747 -0.01460271927791683 -0.0075162113148699895 0.025403177091622382 0.0006953012017171887
0.10512019774359357 -0.028877670752442665 -0.02077396803866658 -0.008169882844481302 0.02257304861697476 -0.0004755665684737209
0.13932816343084334 -0.039687856237523834 -0.02679318940455175 -0.00811394421941655 0.017228575238269577 -4.880477528590327e-05
0.17386847502922073 -0.04978012806144327 -0.03225980932949142 -0.008321276044021513 0.010304899239046645 3.320004884545204e-05
0.2076691536908001 -0.06001241753057034 -0.036975535816793435 -0.008513863808168064 0.0016022357824197846 0.00015579614219681456
0.24057038020170615 -0.07016416551996708 -0.04059456639084266 -0.008967087064774448 -0.008010172297634937 1.2345691540423563e-05
0.27250190615670766 -0.08056615349948024 -0.042706552514479176 -0.009421957784930228 -0.015489419692936147 -0.0010110335832417801
0.3002692655358927 -0.09121804464050173 -0.04317879475760971 -0.007586502631438674 -0.01415311436101065 -0.0038836776601472883
0.31235183171161984 -0.0978551386855122 -0.042932775413447595 2.5537555603573304e-05 0.00013399072755494122 -0.006892208704432996
0.30034435422818956 -0.09123654047024948 -0.04321730583455568 0.007637179385356936 0.014406024676067488 -0.0039013567080780965
0.27266317051210837 -0.08060438453816404 -0.04279154304742454 0.009470763006402804 0.015694866839025642 -0.0010457666108677464
0.2408442769890268 -0.07022529420278459 -0.0407438944693041 0.009010141136785188 0.008128008817764694 -3.607264947934967e-05
0.2081085709789893 -0.06010330581818087 -0.03722074155647791 0.00854398088707296 -0.0016339414674249712 9.819383734057169e-05
0.17457090973800843 -0.04991580097789311 -0.03265551837315826 0.008322926614605423 -0.010580202555814289 -3.0427351659145026e-06
0.14047805643360517 -0.03989805044101213 -0.027421025782079063 0.008081962763561736 -0.017957864733610714 -9.973554385404838e-05
0.10700351342004256 -0.029214142420810132 -0.02180151230559206 0.008013312530415147 -0.02382954593855775 -0.00018444658232809826
0.07882923231084954 -0.02373433292280083 -0.016057570671118085 0.0072256852960217955 -0.028684938803793313 -0.0001372972052985937
0.059295081472207335 0.0037774964919949617 -0.00910916752795765 0.020856071542933046 -0.024236563885816895 0.003282883380377991
0.05158823992404733 -0.10569279516166555 0.003890118780715881 0.027799721454429414 -0.020475377296883278 -0.016357522270412598
0.024327262661747565 -0.09147192130980117 0.004845915063079269 -0.03019207223023794 0.004227163104671562 -0.0008320018757059687
0.02701782730677232 0.002949695800320218 -0.003405326673829893 -0.026229780410551386 0.009107294164615752 -0.0025291789866730627
0.044516111487669735 -0.015816354184881042 -0.009262727368652069 -0.020651368265883183 0.01549379736508963 0.000166054618302766
0.07024319058420665 -0.023227113858875156 -0.014132249224827465 -0.02144306166315624 0.012992724327340768 -0.0002236512080513625
0.0927762040174268 -0.031456715012875204 -0.01839052918125025 -0.02208263897530109 0.009681894243207284 3.515629155565728e-05
0.11580223126967686 -0.039567513307239316 -0.022250615798774496 -0.022204189611476986 0.0052762389442483 4.309767509013131e-05
0.13828995824363108 -0.047659108646832836 -0.025527655236457968 -0.022395284815267896 1.038321995371418e-05 -0.00021191041936697877
0.1599717234310614 -0.05557949681650043 -0.028029230950452025 -0.02299305979183955 -0.005646162401993145 -0.001216744222205101
0.1805370880801254 -0.06366420987152142 -0.02951927470943112 -0.023838601051814786 -0.01002592595929176 -0.00413059190349533
0.19798326893359613 -0.07322220429509933 -0.029930712299636043 -0.019559613504797894 -0.009240070000902987 -0.010488200260052476
0.20548832642817905 -0.0816675539970032 -0.029811982179900012 3.696781700518879e-05 -5.162249718499912e-05 -0.016820007497400622
0.198056898049954 -0.07324491677607942 -0.02994607036879641 0.019632413140798118 0.009113331250987068 -0.01049200603842365
0.18069426881601316 -0.06371071247481408 -0.029557566768363738 0.02390652526760594 0.009827863321262278 -0.004133990886249397
0.1602355536638415 -0.05565235002287103 -0.028107537366539516 0.02304750470438712 0.005325030196094806 -0.0012088870238827092
0.13870448811439748 -0.047763575451715314 -0.025677265802922913 0.02241875000742085 -0.0005138794343213823 -0.00017105664063967157
0.11645037830037311 -0.039715706555700024 -0.022523242834537258 0.02216563806634037 -0.006047261556272363 0.00016187800422563082
0.09380154712065994 -0.03167341290874247 -0.01887662095757223 0.021940250302642964 -0.010813792263875946 0.0002832823769866537
0.07195202282283901 -0.023551969415101674 -0.01494538469080319 0.02108520676748329 -0.014751013341403399 0.0003382656709274963
0.047488843869562695 -0.016461506379733388 -0.010653604836382159 0.019737087824487777 -0.017707465042052537 0.0006712874844330947
0.029995639108475542 0.0025801746115873105 -0.004951995741593028 0.02404875005020701 -0.009694527762081883 0.0018413321627760238
0.026496531924514715 -0.09231028105766902 0.0049454558164831125 0.017921428540622064 -0.002899194177375614 -0.017255417601279008
0.013487168380109082 -0.06606926644196874 0.006862778415483292 -0.03984845887539384 -0.0006702795671550981 -0.01664177244349236
0.011921550165013705 -0.0008713417681222897 0.00036814263060315467 -0.04555222938439747 0.0020818199713269316 -0.002501092635384915
0.018766205055860876 -0.0040916015344127634 -0.0038661165724590356 -0.037670426990994633 0.006252125896324042 -0.0007626051622523018
0.03387514979368898 -0.011373962318624808 -0.006820241986513765 -0.038739721902706394 0.005310192473847588 1.0579750153423267e-05
0.04629213132230636 -0.015504679580790914 -0.00917605740132797 -0.039159575413450234 0.003365514365230049 -8.265760314373414e-06
0.057727349848994455 -0.019528128567911796 -0.011188511256285309 -0.03931271264586796 0.0011355631034456028 -0.0002527884172231641
0.06887104844834908 -0.023491670957133844 -0.01284560942422514 -0.03940687623449094 -0.001441761201340504 -0.0011124854083495357
0.07920820336311225 -0.027011442178356004 -0.014061691964051827 -0.03983503488233052 -0.0043686363916915 -0.003264552624420926
0.08914423060379559 -0.030475941636250316 -0.01474939865768977 -0.041219354462908926 -0.0075754255087629565 -0.00831939643424344
0.09988298150187076 -0.03882191010660943 -0.01482594861425981 -0.03565183793819583 -0.008419035824195556 -0.01883041767292175
0.10561339014515954 -0.05368617877639516 -0.014557442141924686 5.422496195148273e-05 -0.00021626199402867806 -0.03098691740618905
0.09995408175903046 -0.038852851086276 -0.014817466532869606 0.03575819636427585 0.007956344424827651 -0.018821607774780324
0.08929410831138918 -0.030538447220378902 -0.014739013982793193 0.04131698305057657 0.007022928092616804 -0.008294073854410503
0.07945399925935585 -0.027106584883607728 -0.01406459212088251 0.039909207758072204 0.0036692296796625484 -0.0032039850572653304
0.06924497931114555 -0.023621094003693468 -0.012889786576925794 0.03942726399817883 0.0005424260844984622 -0.0009779411945083116
0.058288937407678834 -0.019697628581465964 -0.011322701016974048 0.03922575059795996 -0.002281298203684126 2.2863141194958003e-05
0.04715469190741538 -0.015725910288466784 -0.009479081162264806 0.038879794789337535 -0.004805646304153755 0.0005376448009538315
0.03527249156533367 -0.011686844391061 -0.00741917857296858 0.03810283614758589 -0.007098105505049223 0.0009176199439452176
0.020549665866996303 -0.004463003004680656 -0.004901120170270841 0.036180536804676006 -0.00806129252264792 0.0010603411859339842
0.013236273489293796 -1.78494478986486e-05 -0.0008393953185980284 0.0425413325571338 -0.0024513013389769207 -0.0007906767983201577
0.014293965981800962 -0.06605530004249333 0.006182843640468882 0.03639636797938568 0.0014979831175688388 -0.023320755315546355
0.004571650665987221 -0.04166679889419252 0.007976776436074919 -0.037677496612590476 -0.00216405524975672 -0.018246027773145018
-0.00021527390318036883 -0.0023141626893125474 0.003863627930426758 -0.050045417692208875 -0.0020666064602505273 -0.00448635039648422
-0.00384227203950136 0.003520899520310156 0.0015697506699063383 -0.0475848972149079 -0.0012929298489720257 -0.0011319480258650547
-0.0015899569730766464 0.0006684186433206638 0.0006940933659198971 -0.04494778353041478 -0.0018074243458272648 -0.00028001915811849524
-0.00040580531265737186 -6.470590590453503e-05 0.00038056822584906386 -0.044941394065933574 -0.002427830166003186 -0.00023995202643513976
-0.0003236817522929029 1.5688156294406782e-06 0.00029576528940641796 -0.04504123674666408 -0.0027552840590146727 -0.0007112633247234178
-0.0004512311449734242 -2.4622137411369144e-05 0.0003426749596873277 -0.045146935293641284 -0.002981045585413683 -0.0018521468721655263
-0.0013193050815181763 0.0005481733176605878 0.0004898748507464532 -0.044835836737120785 -0.0035605300863605746 -0.004294459785618734
-0.0018778756899293393 0.001976788473519954 0.0006659804320027155 -0.04627043253894501 -0.006033461688349891 -0.009537528530314776
0.003613117188163061 -0.00536158792347019 0.0009275106116696764 -0.04528808692579955 -0.009326259764930027 -0.020993626867320585
0.008929208194273315 -0.0335466181618083 0.001419469401411113 5.896278385577853e-05 -0.0003725459229304945 -0.03978487134651695
0.0036810827588632782 -0.005400555903053816 0.0009603191068064341 0.04540366277158166 0.008544879954219004 -0.020981157302070813
-0.0017371068607630335 0.0018988696501529806 0.0007263050933903198 0.04637620205493051 0.005145834019464069 -0.009503767352632492
-0.0010956300270383835 0.00043211398801217606 0.000565187159384729 0.04491522078363975 0.002505793536479741 -0.004217787247719521
-0.00012694286668290633 -0.00017635108177926667 0.0004089906745459466 0.045165445236842905 0.0017176782481442023 -0.001689558594136538
0.00013428482124532948 -0.00018259738685747704 0.00031069368593478463 0.04493457851550831 0.0012748208076342911 -0.0003808403373994784
0.00026212834461636543 -0.00028328270166668926 0.00027245580738513055 0.04460060656677494 0.000765923745943331 0.00039153720430888704
-0.0006494931158718154 0.0004058516424680287 0.0003504907563310313 0.0441832831965322 7.090667419476858e-05 0.0008630021153951367
-0.002884563054709932 0.003517650987487677 0.0008887107154022375 0.04605135223344437 -6.16862555151457e-05 0.000713510462355392
0.0003990744164850858 -0.0014058660689626505 0.0029555089150453957 0.048438000354294845 0.0019533307770845634 -0.0033732291278865717
0.004965706858225059 -0.041786898348306 0.007207500183891144 0.036559833937250846 0.0028325526133235607 -0.022238528815448137
-0.0035171084488183732 -0.021627506065324334 0.009001090841469824 -0.028527137101586775 -0.0036506706079462723 -0.01578065273623253
-0.011315983502952166 -0.0008689910462799523 0.0070666705778738206 -0.04239541850797992 -0.00589423756375114 -0.004574928539551012
-0.0249564651321998 0.009435690796775593 0.0068873222397131655 -0.04382637423025784 -0.008329900865367846 -0.001175339823029983
-0.036079793475846944 0.012102732016484638 0.00815930323821582 -0.03984115101004548 -0.008901790583113368 -0.00014401187919150585
-0.04706050969474834 0.015516383123869607 0.009923668768175822 -0.03901664591368837 -0.008285510113217738 5.1985960584247796e-05
-0.058485615881478305 0.0195315738757237 0.011771592540035888 -0.03922124978287712 -0.006697710589189681 -0.0002589884484946388
-0.069686861002688 0.023559925020752954 0.013527896580226137 -0.03931495602593618 -0.004614855300624615 -0.0012092706642284944
-0.08126947349339976 0.027508260471673186 0.015052580027928334 -0.03896370537263198 -0.0025724491221121235 -0.002951489965377032
-0.09301547708118216 0.03404931788814256 0.01608108056920542 -0.038310027055260584 -0.003212546908761599 -0.006670409010004341
-0.09319259827156608 0.03232803348692791 0.016371028410005695 -0.04843416498407246 -0.00992588616595724 -0.015344322098151033
-0.0877150919372518 -0.020076085776622572 0.016852524635086793 5.5521537213328075e-05 -0.0005321683560091544 -0.04161144513435932
-0.09312764397630904 0.03228077375676837 0.016428471225492104 0.04854345261700565 0.008818604429717762 -0.015337376755833156
-0.09288365218522233 0.03395549842832101 0.01619209404444111 0.03841161352186592 0.001980908943054816 -0.00664882846717078
-0.08106784892837848 0.02737053040476034 0.0152074865702885 0.03904360329666518 0.0011508230457599041 -0.002896507272452136
-0.06941286444189704 0.02338519364338591 0.013707126117966335 0.03934304827136432 0.0029717950364886686 -0.0010829046209699154
-0.0581334934998986 0.01933282895912281 0.011938983977008993 0.03913790818922593 0.004864975287411897 1.1127668714608471e-05
-0.046616206857810386 0.01530611005133159 0.01001636642942361 0.038714731526121676 0.00639078724742808 0.000598213273703432
-0.03557117459583097 0.011933536592924848 0.008080401246245934 0.0391450277389375 0.007212861427004176 0.0008774179475514125
-0.024543438489757582 0.009561670256481592 0.0065377214120182735 0.04274976738709279 0.007323759092479995 0.00032077441462214143
-0.01106527155911205 -0.0002324813411788536 0.006460464299193213 0.0417050616095992 0.0059312687106778 -0.0038090580919401982
-0.0033195522752116698 -0.02173607410682093 0.008336520460141314 0.028269362852286983 0.004201603886337045 -0.018428398444098198
-0.010349673884799782 -0.008587772900920675 0.01044225363489329 -0.014918281176498599 -0.0065423966811165015 -0.010243767738410065
-0.02158427000102192 0.002135792467673235 0.010115151300167505 -0.02370251786031369 -0.010905712277462955 -0.003113572553641043
-0.04550733475422378 0.015101777599871195 0.011965010920142773 -0.02528248424847491 -0.016104757912553228 -0.0010732037442073943
-0.07016499075709895 0.023574635256207493 0.015331336861058304 -0.022666947528379507 -0.016713820961277756 -0.00016974534998446744
-0.09372023625140836 0.03158002683608657 0.019099480477730767 -0.021926628023013976 -0.01474786843091329 7.843859070416077e-05
-0.1166815178000645 0.0396725839147491 0.02280122600027725 -0.02210181281354295 -0.011037320373673392 4.4127076063759e-05
-0.13920798422981692 0.04773661489370343 0.02620344646811793 -0.02230714418411519 -0.006233689947636452 -0.0002777121374984616
-0.1603155170973978 0.05585370233543735 0.029046355962584484 -0.021893025803127724 -0.001339908960852765 -0.0011244115065395736
-0.18346713780844354 0.06305211538072494 0.030925710272381206 -0.022583965615212722 0.0030010449307552194 -0.001763575612333031
-0.19298794901200658 0.07998903012399709 0.030638250522841814 -0.0305904778689582 -0.006263727513889143 -0.005734584891891977
-0.189297738951199 -0.00943609305897377 0.029865759104344115 3.8505184033028994e-05 -0.0007068780693089724 -0.030631287928528844
-0.19292522498364692 0.07993286943989349 0.03072042548404858 0.03066680179552317 0.004798636502153504 -0.00574134556777721
-0.18334232926844882 0.06294103679065703 0.031087559577768754 0.022656765155539785 -0.004613988185962052 -0.0017729006680795984
-0.160131995941793 0.05569186283014516 0.029280888338988603 0.021954620666068757 -0.0004957063604590122 -0.0011257366640319093
-0.13897602318554567 0.047534741953961845 0.026494979135806635 0.022339904612936036 0.0041484402041731 -0.00024917784059908877
-0.11642437714599983 0.03945205616864163 0.023118712806991595 0.02206993468787007 0.008768003336742557 0.00014650435944109212
-0.093484891769767 0.031379341815271515 0.019387488970337412 0.021759402335686663 0.012516182477320704 0.0003423807398470541
-0.07002835767085414 0.023477210705665455 0.01550220770346979 0.02227345309272563 0.014949645111412708 0.00038650565624506587
-0.04551540523390943 0.015254991563554253 0.011911545289298248 0.024752435079240163 0.015341682911722027 -0.0002565265639659625
-0.021614264382376586 0.002518413520061853 0.00978970503337783 0.02346828266456637 0.011147827510698316 -0.00271407483575597
-0.010329092794196078 -0.008576566345588213 0.009942761832494424 0.014864240829691953 0.0071666151914808 -0.011759069447102229
-0.01390517842846893 -0.004157964365959448 0.01267036242295867 -0.005713965188453486 -0.01250790636353703 -0.0066389354186298915
-0.0297880690722822 0.0038228042623661665 0.013162573826787097 -0.00927552647054043 -0.018785167102604732 -0.002164558135117195
-0.06603442154537466 0.017996544079271735 0.01664217768077682 -0.009109300536294409 -0.026142807928709034 -0.0011649369930750513
-0.1047756171990126 0.02945201143802906 0.021849234582113658 -0.008259833915036598 -0.026358606153425345 -0.000482580426023987
-0.14047951156860655 0.0397816609859802 0.02739456198154959 -0.008075870613420872 -0.02266275508611023 -0.00024011461977622165
-0.1748665997676552 0.04998651629209791 0.03275424499354587 -0.00826384544850055 -0.016316077206860614 -7.786578517831168e-05
-0.20866798610796336 0.05998167762225068 0.03763232008906772 -0.008369113587889448 -0.008208741011597865 4.430902839391268e-05
-0.2408462934862322 0.0708152866065278 0.04166704157479412 -0.008748555804149436 0.0007578671937515547 2.229830493904138e-05
-0.26739283892814114 0.0761487889611428 0.04431568905055204 -0.00900674854222966 0.009989157869381312 0.00016300797914283076
-0.29530109230040685 0.10701627369072016 0.04339706677925856 -0.021833030425171554 0.014902245627357653 0.003530720440230853
-0.31208519137186136 -0.003920862644023037 0.036236177944499424 1.8484282722057064e-05 -0.0009094604239197959 -0.032570432422861624
-0.29523967642989674 0.10695548865078543 0.04350374524274645 0.02187004632641236 -0.01678392666016136 0.003518038924811585
-0.2672723649300553 0.07602867005427168 0.04452766870876351 0.00904332877171376 -0.012051719187099793 0.0001398235382390593
-0.24067427886007345 0.07064065675105204 0.041979357450160584 0.008782132656172332 -0.0030931207981268896 -5.886601174274401e-06
-0.20846323008678777 0.05976473737973052 0.03803172203120361 0.008392917020645211 0.005567563797977345 2.2438353249210866e-05
-0.17467328582009334 0.049752904674747696 0.03321183387700981 0.008263509978877214 0.013452578380385573 -7.030922933688684e-05
-0.14039458667512 0.03958294332500728 0.027856157580858593 0.008021027860527247 0.01987584420221227 -0.00015648626569415966
-0.10494466461942124 0.029382943883146072 0.022225829490740215 0.008109879710319014 0.024261138305344775 -0.0002518482010782892
-0.06647515840862334 0.018159270761816036 0.016814736649253547 0.008890418749240568 0.025518436912112905 -0.0008134547223745887
-0.03017772888023887 0.004108609211533044 0.013058338443644615 0.00916578304850686 0.01957450597895393 -0.002008546504015059
-0.014138855197089352 -0.004071948042832268 0.012364299066521894 0.005624413347925303 0.013807042219815352 -0.007555697689416384
0.05641816754534282 -0.08985076719276039 1.5720931501039814e-18 -0.0029564559418131632 0.010844981061492912 0.0009410698317482017
0.059330501802821 0.0005483579327656843 -0.006023962673435654 -0.020342346694241228 0.014785724366054197 -0.0011283158783361887
0.07425683225883443 -0.02400555954622056 -0.011505470004838647 -0.008048999345418152 0.013915506332394807 0.0010899025004596512
0.10233643836864366 -0.03047718605680862 -0.016599985400874564 -0.00919753076812605 0.01163230775206373 0.0012576341669116476
0.13471417974755898 -0.04142870788268013 -0.02053158352764301 -0.009637904727644244 0.007479963372949803 0.001735504574006345
0.16711913192398434 -0.052041554814113704 -0.023291354810036635 -0.01011974334633632 0.002279690596629201 0.002229753142562191
0.1994419171096372 -0.06320187770392424 -0.024689981505143746 -0.01076969928182609 -0.003597900002549321 0.0026927269115173437
0.233288882634945 -0.07517970985559551 -0.024598110821514977 -0.012006687409421062 -0.009212842803067096 0.002900996839927635
0.27119489365707905 -0.0892073741078296 -0.023076369300020716 -0.013479741019104277 -0.012351404909102607 0.0024438871910172394
0.30931432298697087 -0.10559313234150738 -0.02077374158624905 -0.01132357086332492 -0.009586850811137988 0.0010584214787921226
0.3271236500378342 -0.11624010938874571 -0.019441801323876587 2.6199008499262462e-05 1.2382552634086707e-05 -0.00011622415343071013
0.3092267435305785 -0.10555853361634884 -0.020787429573329415 0.011377568427258145 0.009597374172442899 0.0010433945529251894
0.271006352303476 -0.08912916245554128 -0.023113624012851927 0.013538688711259949 0.012317632760294892 0.002414012850728813
0.23297025115164213 -0.07503813520858739 -0.024680740031707796 0.01207473283615957 0.009097818640795256 0.00285779105879637
0.1989420599028815 -0.06296295343232425 -0.02485578670663473 0.010851391711629549 0.003344005224038645 0.0026406613127906656
0.16635696997861574 -0.051650152818339845 -0.02359756423533205 0.01022432247532631 -0.0027764253993692012 0.002184794172364852
0.13355445471350894 -0.04080219058643573 -0.02106491820090135 0.009759779517523198 -0.008417669097234836 0.0017092500018848738
0.10059142160482946 -0.029497366019960218 -0.017452188903464175 0.009420858176432385 -0.013236371092500619 0.0013659012183453896
0.07109128502281675 -0.02238885537424735 -0.012926372742954731 0.008367791370197969 -0.016390761010270042 0.0010012722956560262
0.05111616435912836 0.0032296329083625 -0.007663077710808671 0.019879386769260782 -0.014920154131842459 0.000805908047078942
0.044232239631722105 -0.08541245891953561 -0.0067263944626528745 0.02553291335836514 -0.013188786959643456 -0.007876860019993628
0.024909826156980393 -0.07744477541175708 -0.0008878885047653335 -0.005043025001871091 0.005741764217263518 -0.0028106103006600566
0.028915389888472 0.0010128185724051105 -0.0027618999938949823 -0.023086424106513712 0.006960429366201078 -0.0023644325695790407
0.04596067407477608 -0.017498965382205318 -0.007183031560732921 -0.020817825624780177 0.00871303597303322 0.0002615759601747379
0.0692907801866896 -0.024896625106111802 -0.010808495905263123 -0.0229443215486145 0.007284650343938999 0.0006609666549861472
0.09045650175693849 -0.03333815297369944 -0.013619330158320586 -0.02425358721198886 0.004614515590409337 0.0009656159944666357
0.11205376485658407 -0.04190852770224631 -0.01549860951275336 -0.025116525798133393 0.0012336988670346174 0.001116029352000485
0.13357665246304798 -0.050803743829830474 -0.016418562575123228 -0.026525963444782034 -0.00245698113766638 0.0009728826793675778
0.15584794279027508 -0.0601332168479935 -0.01634212364523664 -0.029443297513586666 -0.005864521872237392 0.00017507573272869194
0.18001718655171475 -0.07103257648820033 -0.015355291381286901 -0.03369742423360428 -0.0077189148533473965 -0.0018549412205492752
0.2035765971182166 -0.0859016793202815 -0.013829231930995068 -0.029531185409269044 -0.006019984416050806 -0.005251073465195326
0.21441097290090955 -0.09930062593540988 -0.012853689904823795 5.0813218621654745e-05 -0.00011117597248451339 -0.0076751126851619155
0.20346916556497263 -0.08587394716919493 -0.013793936225306013 0.029637464022559387 0.005776587476377085 -0.005254641474147297
0.17979033892652566 -0.07096881277870676 -0.015292398339498381 0.033818452142067905 0.007411535361409708 -0.0018583691505748184
0.15547663325982108 -0.0600153399263914 -0.016269520490661465 0.02959185787199709 0.0054461203613322545 0.00018138408940555575
0.13302026507141262 -0.0506007070295479 -0.016368866977599865 0.026719660376668185 0.001868743748128658 0.00100929584034213
0.1112486232301834 -0.041569581527993595 -0.015526722320929403 0.025380361544373155 -0.0020813777010562336 0.0012220864863945722
0.08931189695713344 -0.032785415064151044 -0.013806265791362994 0.024615914137857495 -0.00585555457030425 0.0012043710136757403
0.06759928548396363 -0.02402575805732174 -0.011288245679456924 0.023506883912287054 -0.009117845624497987 0.0011400451112110988
0.043229968219571806 -0.016011377991784252 -0.008076842225983778 0.021903879590924005 -0.01083699495221863 0.0010076402787609457
0.0264990231464091 0.002355885841255876 -0.004546831818394622 0.025096731307373946 -0.0077910953301028535 -0.0002921613843626264
0.023495671050133445 -0.07411661066084359 -0.005090642235619998 0.01896480761857711 -0.005094831648908191 -0.010188992252557896
0.012810686593944805 -0.05434137135420449 0.0015985385821257962 -0.03268453825899863 0.002014425368979368 -0.009689959811926593
0.012436819605022909 0.0007157763878500835 0.00012470452371410887 -0.04018363273223848 0.002534252656304859 -0.0035737819655203133
0.020308207888596396 -0.006031901130825418 -0.0027795676657107558 -0.03745800257092163 0.003545618355281479 -0.0009107590643791921
0.034654316013746994 -0.012948138494096437 -0.005142092027455386 -0.04047498676023098 0.0029270296922106276 -1.3040066914709597e-05
0.04605559993493791 -0.017106794160272453 -0.006783139054577913 -0.04204415421234778 0.0014239831885940815 0.00011106968141062141
0.05664976881581987 -0.021369995067295512 -0.007773740949696228 -0.043535251814499604 -0.0003576872832360984 -0.00016254645267191678
0.06706218242160568 -0.025737183972610454 -0.008155080657333225 -0.04577447791096894 -0.0022050667133595497 -0.0010594907178425104
0.07717961197312373 -0.02966326777326426 -0.007962160024569512 -0.050132641349113855 -0.003925395947250124 -0.0030582705736062047
0.08860739763701725 -0.034189216003050395 -0.007239718470880361 -0.057703742005684754 -0.0051035173041424405 -0.006875252134612624
0.10363010444626022 -0.04751970948031281 -0.006020339900224879 -0.05354289495590624 -0.004382591171825348 -0.012605193349884723
0.11219311924174927 -0.07042819939993497 -0.004943766276963701 8.198990257108165e-05 -0.0002324829837179388 -0.01674689696872637
0.10350489632998289 -0.047506118032510834 -0.005936721592820686 0.05371462409600363 0.0038911415206698214 -0.012597646070721747
0.08834684631559644 -0.034155218889892064 -0.007078271472157008 0.05790011230049994 0.004533033867653024 -0.006852430183670051
0.07676402588378146 -0.02959419261793788 -0.0077373919184856735 0.05037519600908479 0.003224199837601259 -0.003001208977853641
0.06646237940111871 -0.02560806030713073 -0.007896301648208896 0.04609389351880609 0.0013205919197869511 -0.0009298362744619189
0.05582577580269629 -0.02113845146747718 -0.00753394108091529 0.04397571208818737 -0.0007689193826402806 0.00010872031634551932
0.0449487978495748 -0.016708877090547924 -0.006651905438617673 0.04266944954047281 -0.0028712350435740643 0.0006415352107599002
0.03313922967142667 -0.01227502119417227 -0.005256584138968444 0.04143036293187529 -0.004747007915029439 0.0009063669036603499
0.01874254629552156 -0.00507940381417033 -0.003342241738298997 0.039182348992034495 -0.005364657691589018 0.0007376839111053617
0.011735271827235943 0.0005092870897961329 -0.0013587933806596469 0.04318878550255681 -0.0030517649442617714 -0.002161708416894776
0.01277480017281313 -0.05225559727321223 -0.0015758118279401332 0.035761259833733655 -0.0013750071418380699 -0.014987995799115484
0.0038020631749864737 -0.03433059942387304 0.004949315471358925 -0.03521429285286289 -0.00023985047325401156 -0.012424645389692946
-4.149688000403989e-05 -1.6295726675817826e-06 0.0032980405551312824 -0.047104751915657134 -0.0007709520872448657 -0.0041976083692958225
-0.002239595465009446 0.0025608691434543624 0.0016119923828129413 -0.046732307100321564 -0.0011036740919292522 -0.0012567299112890725
0.0004058992213118088 -0.000319046414588408 0.0005393310416442987 -0.046559501941140176 -0.0014164545244009395 -0.00024363380269114705
0.0013326522552274973 -0.0007083482513010327 7.409170579689878e-05 -0.04793993404887124 -0.0018575995150519353 -7.526337213943225e-05
0.0010508634653531483 -0.0004852155425964105 1.4092811647821388e-05 -0.04963460267849771 -0.002183817346604013 -0.00047857107552366947
0.00036316703628780725 -0.00035338909464970817 0.00022335977741677683 -0.05221111557951506 -0.00235891399808153 -0.0016048178197286768
-0.0015655966788063048 0.0008785174758953082 0.0006208130887322512 -0.0559291665844653 -0.002586977425011742 -0.003912214576563099
-0.0026481011968768247 0.0032405743436927903 0.0011882033062519163 -0.06411274504215188 -0.0032418355064254894 -0.00811874422617725
0.006072552653310045 -0.008851068174076939 0.0022161727504157484 -0.06696061156450085 -0.0034426467870123994 -0.014649080260330002
0.014391078492210791 -0.05063199272852338 0.003677802514141865 9.291522030452381e-05 -0.00035344175363023213 -0.01998645666451011
0.0059301629977689336 -0.008852169347437922 0.0023482055201071617 0.06715524551574024 0.002704358404864217 -0.014638153692717914
-0.00294101327571201 0.003243634388384188 0.0014483481651307467 0.06433534430429988 0.0024113428026164307 -0.008087873220966888
-0.0020232003419726812 0.0008968908820633757 0.00099770755326425 0.05620407443465425 0.0016099861091515568 -0.003839395689608697
-0.00027557507076035896 -0.00030078045358048595 0.0006907760712758549 0.05257325493509302 0.0011933509979065644 -0.001446426523210627
0.00021650241484243821 -0.00036659977495715217 0.000518906831787998 0.05013748395480844 0.0008051273851647479 -0.00015354344432548202
0.00028176950605261113 -0.0004689270144128949 0.0005197480609581242 0.04866918636907237 0.0002637467509104316 0.0005474330367493512
-0.0007922940825190114 0.00011895632649628 0.0007675818779707231 0.047669655487579954 -0.00031825503327440996 0.000877913451480904
-0.003117836343814757 0.002892055307924237 0.0013719112830613276 0.048485961683095616 -0.0003321326394065264 0.000497252145340719
-0.00017975057221479844 -0.0003587498379252396 0.0021746123580236826 0.04856791583370165 0.0004682920918497113 -0.0031693770661817967
0.004052129343941939 -0.03261016428192077 0.0024905943281055207 0.035832119528809395 0.0007438349006872785 -0.015869974617884613
-0.004209335551492925 -0.018010699754646545 0.008407381014314569 -0.028095981726408623 -0.0021376529702530496 -0.011675636533612612
-0.011193928970008815 0.0009600113270093697 0.006599882141004043 -0.04126523459903309 -0.0038163462494612034 -0.0035845318723983226
-0.023162653104435514 0.00927076301180793 0.005982099708817592 -0.043530165713836125 -0.005592135375909572 -0.0010712778540212043
-0.03300949647586608 0.011903943874774418 0.006196089256812249 -0.04141552055898088 -0.005724844428621551 -0.00012206020223731997
-0.04340357966725301 0.0158351828610184 0.006909898943500492 -0.04194205036500187 -0.005159299869395341 0.00011616990468100419
-0.054674753421176864 0.02041261428175826 0.007789192559291641 -0.04353565214933094 -0.0040332914726619986 -0.000164895780035537
-0.06616843057183144 0.025187694190864113 0.00859748222267263 -0.045696911864319546 -0.0025439143228676835 -0.0010722108166515978
-0.07924028990676604 0.03041359689936486 0.009200043928643441 -0.04851724687780716 -0.0011849941509807784 -0.0029336014478857616
-0.09371579033373925 0.03980715186449129 0.009567468175378414 -0.05242037216892613 -0.001035534156094486 -0.0063116763254640225
-0.09246595756846027 0.035735629661216906 0.010133940179254624 -0.06955059438089183 -0.002169439198337033 -0.012300456493933803
-0.08409829099022748 -0.03867913931566115 0.01212531136800272 8.226850431255215e-05 -0.00047677835255471906 -0.01846314286397571
-0.09262647128406039 0.03571982118188187 0.010315295371406723 0.06972289466942087 0.0011792405439188987 -0.012293881723529475
-0.09404313430873755 0.03977921775773594 0.009928270897546498 0.05261729164698631 -6.103973683346097e-05 -0.006290849693731779
-0.07974354139536845 0.03038127157637232 0.009732394629920657 0.048760054837520495 -7.560387338909579e-05 -0.0028798164104658257
-0.0668513723852199 0.025163650162510917 0.009278618858189277 0.0460161466423697 0.0010864289384031323 -0.0009479285364460613
-0.055526332037832485 0.02041723668434022 0.008566571587339254 0.043981250249260424 0.00238947117270476 0.00010002693456464729
-0.044378513886604715 0.015909142159489804 0.007679474901490985 0.04259879058374301 0.0034073724960185956 0.0006465707890326947
-0.03393999947453934 0.012056753295835877 0.00677606241165622 0.042418320070147335 0.00407078038211117 0.0008603656212898675
-0.02368503656061056 0.009277978836773474 0.006088839481313672 0.044746593706687154 0.004473694580601549 0.00035333668215202074
-0.011152803244009036 0.0007375625749001894 0.005860411335774846 0.04180437311300807 0.0036635402014776317 -0.0028243100532758737
-0.003924208387363699 -0.016799058704929155 0.006550268465605054 0.027915435714188433 0.002547337469349176 -0.013902298795138738
-0.011000807106812383 -0.007463971944661908 0.011580371393504216 -0.015180953519966777 -0.004533044608834412 -0.007061351265844645
-0.021465461890993444 0.0031582054791524394 0.009822276888542404 -0.02361131657239918 -0.007302041091895748 -0.001559367571022813
-0.043408745330248584 0.015258182448013318 0.01029622766374759 -0.025673080697064733 -0.010289962325857993 -0.00020975326801820306
-0.06593262878178983 0.023712797437650084 0.011791394518000275 -0.024078198774341357 -0.01005870603023754 0.0005545588135852248
-0.08802867228780273 0.032224910395243826 0.013678742985034726 -0.02414198728291665 -0.008394353314486023 0.0009532796197798381
-0.1102278700210459 0.041094251673229935 0.0154746158128626 -0.02511092426010812 -0.005695884828990635 0.0011103727272152159
-0.13273939768681964 0.05028363958072639 0.016850377647724495 -0.0264613995613357 -0.002364173478109538 0.0009646732127514773
-0.15488412785540154 0.06019179169360065 0.017570497233485305 -0.027618528933927113 0.0008075551264235312 0.00030488838642353083
-0.18267951652195083 0.06999315176776964 0.017612243756189763 -0.030705225763831622 0.002485325543172758 -0.0011046225212884683
-0.19532175282559774 0.09241512064206014 0.01706353672893349 -0.04171232226853724 0.0006818611774260057 -0.004894931898826522
-0.19099511213054354 -0.030160703047927086 0.019177316903756705 5.140294360814443e-05 -0.0006051940085160341 -0.011872009719084501
-0.19550286728045424 0.09238515670840955 0.01729590123164309 0.04181983494981127 -0.0019352798533490154 -0.004900571773363342
-0.18304669642049928 0.0699353434603431 0.018077432923516257 0.030827598024663245 -0.0038630478053155305 -0.0011122101910737896
-0.15544235200774129 0.060110536087883346 0.018264847986423513 0.027768348502967236 -0.0023742927953279047 0.0003046975887347644
-0.13348228984536456 0.05018553381700523 0.017755978722823678 0.026656645145772713 0.0005790955996645479 0.0009913316105021914
-0.1111163190517441 0.04098924752873441 0.016541683598765514 0.025380688942038845 0.0037299703298839682 0.0012026143481052285
-0.08895171269118844 0.03212457974144595 0.014798266087572712 0.024541066364968025 0.00640225963228827 0.0011876787501326643
-0.06666876408698937 0.02359766317617492 0.012760802584398772 0.02466168021654664 0.008377791440900522 0.0010476021769901629
-0.043707044545150946 0.015048436437394975 0.010799420659298788 0.026267883041222042 0.00940488134950028 0.0005179619620657563
-0.021330580276690676 0.00300540691286104 0.009488227466115131 0.023742233628981608 0.007353993218229889 -0.0011742372291418815
-0.010706266130947035 -0.0067722288665116774 0.010245059353093333 0.014912169000496052 0.005022268462503351 -0.008306041477945971
-0.014644569564386293 -0.0039237841501216526 0.014016155387326822 -0.005917656511661841 -0.008734196442572955 -0.003624321966574952
-0.0297101604296905 0.00443885559529535 0.012837891961993721 -0.009452745133868123 -0.012035560732853135 -0.0001652461508488067
-0.06345852699786007 0.018168008202780275 0.014577671862335504 -0.00979627866226368 -0.015381492579311339 0.0004399046095184598
-0.0991093869149141 0.029559827129352415 0.01740865879986715 -0.009434117774043106 -0.014366758016274184 0.0010792805113432292
-0.13249581324111237 0.040328748821675 0.020494299267884087 -0.009566275862863459 -0.011351426105917113 0.001625336706822067
-0.16544512045075713 0.051357333241962635 0.023199148142407422 -0.01007434652107078 -0.00683085430395802 0.0021622549007687497
-0.1987355442921131 0.06255387057990938 0.025087304091545522 -0.010579943313773172 -0.001332838073958917 0.0026428069614537536
-0.2316571227449735 0.07555323624639934 0.025858900568553275 -0.0117034633688457 0.004096776784780273 0.0029984785123600747
-0.2611507642762319 0.08237380163147212 0.025314547523404292 -0.012380225544458317 0.007618025974545614 0.002834657714629656
-0.3015724075156199 0.12448603827510267 0.023327356482825756 -0.027266472896775248 0.007275446526185662 0.0017538561387198048
-0.3287135775975681 -0.025731856603782792 0.022434360146040187 2.673373183768868e-05 -0.000740543107513358 -0.00831752455800359
-0.30177801606492494 0.12444920770116022 0.023613058204907902 0.027322698291417456 -0.008807874853453055 0.0017416214086915635
-0.2615662455249451 0.0823014948598946 0.025889337124020036 0.012445041757261464 -0.009299073757005812 0.002811143406532281
-0.2322850994968636 0.07544815137882915 0.026724612405626152 0.011783888909164654 -0.006004641984277927 0.0029664532879671965
-0.19956297580121257 0.062419866389317694 0.026233176070052194 0.01068522782827797 -0.000838146139253685 0.0026088336238333353
-0.16641163015944052 0.05119871483618114 0.024582129873276095 0.010217597011793172 0.0044437267055366355 0.0021415530850352597
-0.1334325925151694 0.04014213577431596 0.022007035678803247 0.009769860058595517 0.008956781878846352 0.0016523957022416167
-0.09970971358547302 0.029315624707331914 0.018835054167718225 0.009717138772412749 0.012442449113119019 0.0012133549181204911
-0.06349397747609377 0.01784993283611099 0.015562451430083684 0.010091020303400058 0.014627229647317316 0.0006731342885479513
-0.029376024268159148 0.0042817535946281975 0.012949129672898388 0.009563129263349535 0.012570644603578594 -5.4401996014152336e-05
-0.014244758252633813 -0.0034762367427335827 0.013096510027627106 0.005835799402831469 0.009821612218200394 -0.0043697357184152245
0.059848135400297695 -0.08688071813415639 1.8566962203814263e-18 0.006729590420537186 -1.7981970079627985e-13 -8.508782057842917e-14
0.061217293203612334 -0.0011249599696769527 -0.0052055909096033305 -0.01995892438334523 -9.125115756330321e-14 4.3956537628536685e-15
0.07394807809403216 -0.024472906570968178 -0.009768567850046678 -0.007758574918288693 -3.7413133572097856e-14 -8.887828624112859e-15
0.10097623444687691 -0.031012127325005485 -0.014094695625912602 -0.009225947053859393 2.9177777815386774e-15 8.849447867206872e-15
0.1326821078991615 -0.0419654917873036 -0.01716041027320398 -0.009864836374404488 1.224176061085172e-14 2.282217112774959e-14
0.16464603493803237 -0.0528035438661746 -0.01871521738829709 -0.010604451704981845 -1.0269447781301871e-14 -6.7358228370006934e-15
0.19695960690163497 -0.06442000393854952 -0.018636242616145767 -0.011549732640082133 -3.597182908531352e-14 2.1383719447931604e-15
0.2317374729067543 -0.07719218141279216 -0.016950690704194315 -0.013088648937829562 -2.0301157131231984e-14 4.8361664607872445e-14
0.27183848467584093 -0.09235466849853087 -0.014014202055829877 -0.014717835382146322 8.323609813551403e-15 -1.145733356279488e-14
0.312788003554657 -0.10991223811760018 -0.010853002991393412 -0.012296685171733922 3.647180891715521e-14 -7.757466544133784e-17
0.3319875867684638 -0.12116790907610243 -0.00933881842620483 3.245200484126886e-05 6.041251076867662e-14 1.6939046194354435e-14
0.3126315085594948 -0.10985501645890274 -0.01085591676278951 0.01236458698950551 9.344364474903055e-14 -2.7501872307267305e-15
0.2715029131095587 -0.09222654244112363 -0.014032134850579334 0.014795325643220858 1.9408353234013492e-13 2.4716394295826172e-14
0.2311712811909259 -0.07696266423695991 -0.017009950017648916 0.013184461166995341 2.133033604346385e-13 1.070996590024631e-14
0.19606669864730242 -0.0640360198535072 -0.01878052457566756 0.011675286395848467 1.792184903628459e-13 -2.95179462470041e-15
0.16326225716759846 -0.052175631574670575 -0.01900661730149665 0.010777385307223676 4.87706798774426e-14 1.703972791859687e-15
0.13054157296649938 -0.04096935172210826 -0.01767853479269123 0.010096423737334827 -9.759055542846173e-14 2.9308424177171277e-15
0.09768032718398899 -0.02943088560109862 -0.014923104341430979 0.009599522635114955 -1.4789394481209278e-13 1.5825692535956226e-15
0.06862738131063403 -0.022078005983771996 -0.011113728726029642 0.008451137271460851 -1.9720871799727008e-13 1.5129580531111908e-14
0.04915711504338545 0.0030917694825595846 -0.00748154736248985 0.01904574132677165 -1.8298645205420266e-13 -1.5854423893527092e-15
0.0423780602440989 -0.08188424324736734 -0.007633503882476726 0.0242444253656584 -1.6317825454574553e-13 -8.382422360397879e-14
0.025024163996983158 -0.07557097746900315 -0.00018821396636826415 0.0005283584533074083 -5.533125837391996e-14 -5.0102107250309114e-14
0.029571434482560464 0.00017161374536812558 -0.002671428317541699 -0.02192666376498201 -5.120588943640335e-14 -2.0879904250904746e-14
0.046397220775177384 -0.01799741268504241 -0.006163995144070985 -0.020304397317782247 -3.9663283372742483e-14 -2.1029598689607104e-14
0.06868330839286876 -0.025253979763100554 -0.009313575718852772 -0.023036023555525125 -1.8805588325714745e-14 8.872839529078247e-16
0.08937393353266807 -0.03368060831087314 -0.011584213300738565 -0.02475215332623976 -6.355539348517876e-15 1.6847485320888034e-14
0.11068453214658604 -0.04237812051245671 -0.012739937266626106 -0.026122742623797535 -1.1504945284760044e-14 -1.0065475471339458e-14
0.13222805412943195 -0.05159014486937241 -0.012763284278962015 -0.02818601481044217 -2.4039198230759937e-14 -1.3277952955886851e-14
0.15508598553006406 -0.06148033769130397 -0.011735897711361975 -0.03186309989993627 -1.8354773674263483e-14 3.09036108335492e-14
0.18054158151507996 -0.07318396218648934 -0.009921388763321838 -0.03661506968191875 -1.4571379042607746e-14 -4.1248024418814866e-14
0.2057035604590527 -0.08888071895568775 -0.007931749813864741 -0.031927142962192415 1.3770590706141742e-14 -3.950443759007799e-14
0.21730701553085485 -0.10286700790156822 -0.006928178630819753 6.281604561089079e-05 4.368768259481459e-14 -2.680826751994686e-14
0.20551915244727859 -0.08883168808277093 -0.007873520907067146 0.03206072437819555 4.190116474817908e-14 -5.5805498568560485e-14
0.1801524425997271 -0.07307347623057123 -0.009813625576515982 0.03677446770760102 9.290893317821965e-14 -2.631721880350102e-14
0.15444767991459554 -0.06128108131455964 -0.011598488054509568 0.032072530689659234 1.2736098017418571e-13 -1.0980799602933189e-15
0.1312626390084583 -0.0512542361645689 -0.012631497612245385 0.02848103834582064 9.447856442706243e-14 1.600604956734919e-14
0.10926264923352647 -0.04182643712922973 -0.012669427476874825 0.02655255833156819 3.266752306488839e-14 8.790953804748564e-14
0.08729225557361293 -0.03278971461347851 -0.011652175576131728 0.025381915243042907 -3.2325389516833433e-14 2.7391737695333512e-14
0.06560676697902192 -0.023862325976103084 -0.00963714606758359 0.02400439198099707 -9.057669572059071e-14 3.4089532141134277e-14
0.041842195833180884 -0.01578218859872024 -0.006917325878442332 0.02217709697631036 -1.1670273241163286e-13 1.9471864442024978e-14
0.025652744794441344 0.0022693343160208094 -0.004746575784525395 0.024350080276894018 -8.750131560075411e-14 -8.010288938230248e-15
0.022616787766625544 -0.0711020137272422 -0.006058131878497411 0.017965972541316787 -5.905299578327916e-14 -1.1998095659354613e-13
0.012669718492386984 -0.053733803077109475 0.0018050744680479167 -0.030184840831472274 -1.9441891334153437e-14 -2.637254021935209e-15
0.01276452104010427 0.0007925242578564621 0.0001041620512732785 -0.03793094836680374 -2.2680471833036366e-14 -3.416152994165089e-14
0.020847854654533215 -0.006455212326453836 -0.002284125015482458 -0.03679310689450057 -3.7696652440202816e-14 -3.120591350429247e-14
0.03471200346165564 -0.013175133626794247 -0.00437916706992529 -0.04064423760457456 -2.576502616672468e-14 -2.637203199958374e-14
0.04578472598323929 -0.017263548622319002 -0.00579116631844782 -0.04293296351823349 -2.6407298216342672e-14 1.3305356165796423e-14
0.056219747059698975 -0.021533269353819808 -0.006440104260920699 -0.04521329048126829 -3.380476644053096e-14 7.256551587918325e-15
0.06661547568022717 -0.02599974304135806 -0.006378691705236943 -0.048505609787176156 -1.931492956568949e-14 -3.369812838060343e-14
0.076965648234712 -0.03010916500614463 -0.005711856911361794 -0.054111593704017476 -3.5260314633356327e-14 -2.73195230543824e-14
0.08896427412181009 -0.03491193224307216 -0.004580584706140155 -0.06253540692300043 -3.900777135112596e-14 -6.568069655862874e-14
0.10491036681406411 -0.04855399813825648 -0.0032344663978369943 -0.057644719505357545 6.200220187529276e-15 -5.083490594616491e-14
0.11399910485291273 -0.0721171012350654 -0.0024264942383684283 9.81522910743827e-05 6.534572890930755e-15 -7.079773778947279e-14
0.10470184876128469 -0.04852177305729968 -0.003116649680064629 0.05785408865199071 5.854249580223257e-15 -7.298713499900855e-14
0.08853045458038433 -0.03483766184353093 -0.004351049818051309 0.06278733900520972 2.921936035683338e-14 -5.61380504799161e-14
0.07627208619126065 -0.0299716790013195 -0.0053859581049785004 0.054446705509545314 4.489077685287555e-14 6.007333844780527e-15
0.06560631819463987 -0.025762459536042465 -0.005987233021254594 0.048984791570419864 4.787145699514323e-14 1.9503726433368895e-14
0.05480688127829468 -0.02113338579245272 -0.006037547801732349 0.045926759420055356 2.8447190299039785e-14 1.3752191117648305e-13
0.043834419494653554 -0.016598650439237958 -0.005466716815525103 0.04400213806587319 -1.2080705766260788e-15 8.259815357722355e-14
0.03203462502455842 -0.012110032219361494 -0.004269515078094665 0.0423228307528055 -3.367868219820037e-14 5.6408247213826646e-14
0.018096510104189133 -0.005034278225350084 -0.002657217146529735 0.039617407795869454 -5.538467311860676e-14 3.133137602443978e-14
0.011389129788846123 0.00046981840125372463 -0.0015998055143657693 0.042110533129876324 -3.0561902496033765e-14 -2.7381769811610224e-14
0.012325721483393533 -0.050110590757130924 -0.002605564904941883 0.03422469472101622 -1.7788630404845865e-14 -1.7809440987920366e-13
0.0037697611519179647 -0.033967955718842376 0.0049598454656665505 -0.03377092176625723 -5.011043104308178e-15 5.249368105995911e-15
0.0002766847833604452 0.00015389415438172194 0.003152836737048681 -0.045353268027408675 -1.2195283913035877e-14 -2.884160737928049e-14
-0.0015889173610779763 0.0022846919932836248 0.0016709302138058389 -0.04589931811156799 -3.6265939253390944e-14 -3.730297185510975e-14
0.0009755671943325421 -0.0006185872566313812 0.0005947845164624204 -0.04676441282070435 -3.809171199493401e-14 -2.6782707453730514e-14
0.0018147072287254293 -0.0009177927906042156 4.004313739397827e-05 -0.04897989741264366 -4.108653250522315e-14 4.98878011383902e-15
0.0014850467757856237 -0.0006503391387379892 -5.7305761614247344e-05 -0.05157354648301027 -5.010919691607763e-14 2.1984570739395914e-14
0.0007320364987157444 -0.00047814751949318756 0.0001690365493486559 -0.05531345089685636 -3.744232148042729e-14 -3.0761973372241125e-14
-0.0013020417336443559 0.0008289947537297561 0.0006053279697478973 -0.060368320689849084 -4.807259428583118e-14 -5.316747205257738e-14
-0.0024499655293386594 0.003271149259138943 0.001230313366765078 -0.06941106844465011 -5.0322057142755585e-14 -1.0391337855290839e-13
0.006720514588627288 -0.0088203611590901 0.0021235212997990096 -0.0716745542269396 -2.4117799500133347e-14 -7.912736492508149e-14
0.015469051702265632 -0.05149367865497964 0.002849413773692411 0.00011010319938193602 -2.6580313166148836e-14 -5.919194984421033e-14
0.006489158189255009 -0.008805515253959884 0.002300745349294126 0.0719095557700277 -2.6719167277192233e-14 -1.0040349085992106e-13
-0.0029254300107085683 0.003308029314775646 0.0015809490849023181 0.06969426823105107 -1.8986729603737748e-14 -8.770649408563341e-14
-0.002045018656626307 0.0009029984878783073 0.001117737383099797 0.06074548458301945 -2.8110804081290185e-14 2.235439210043072e-14
-0.0003100931227740661 -0.00034164476000394573 0.0008155024924758597 0.05585437042790078 -5.6251153095297074e-15 2.49741633623346e-14
0.00010396027540305323 -0.0004062263928359226 0.0006665232689050492 0.05238564181966425 1.4596193719830508e-14 1.5201464490400413e-13
3.5710570479039166e-05 -0.0004875865261847949 0.0007383246370722898 0.05022715869118355 2.5575319585659922e-14 9.507869616403805e-14
-0.0010997656303748462 8.962935257594891e-05 0.0010937556811086227 0.04869050260950547 9.66608249605011e-15 8.859143345134324e-14
-0.0031957251237629963 0.002769065964673199 0.001635260593045542 0.04875974426337417 2.2080268521776705e-15 2.968004802431784e-14
-0.00017058709703736663 -0.000396594005710229 0.0018855467333377192 0.047509302109941906 1.2806542698323101e-14 -3.8992206273687213e-14
0.003934526521197058 -0.031130504742068438 0.0016337278274933021 0.03459129881315198 1.6681324561691052e-14 -1.8946237807793143e-13
-0.003998807368160025 -0.01779358130485396 0.008442600040926635 -0.027368255230772076 1.8784141451490266e-15 7.444403166828595e-17
-0.01070374154415848 0.0011062611177273922 0.00628029461410955 -0.040020963190150353 -1.0332328119174242e-14 -2.1126546692618042e-14
-0.022293576590535973 0.009052880019641127 0.005618551304303562 -0.04272143428903626 -3.640339914820316e-14 -3.248510943749949e-14
-0.03195644593674435 0.01157660180287481 0.005554107964483609 -0.04147717230768985 -4.582065046940427e-14 -7.275450587037463e-15
-0.04219007553381272 0.01556368505660492 0.005853719859633028 -0.04280621005026187 -4.994195026064227e-14 -4.808246899593027e-15
-0.053376940276051645 0.020243570660268616 0.0063124377745840555 -0.0452244903721717 -7.247793267243716e-14 2.6217282468252168e-14
-0.06497077461253534 0.02520212464507225 0.006709293638576717 -0.0484176699619147 -6.37988270484505e-14 -1.6711282422969542e-14
-0.07845472035111133 0.030718510785110176 0.006914075178988622 -0.05239936834176392 -5.906070208903328e-14 -4.117031422810197e-14
-0.09368220680536694 0.040554944913834746 0.007003674597269576 -0.05686714099968984 -5.857300423492678e-14 -1.2866945464824753e-13
-0.0924903900677539 0.03681837025269267 0.007364705871243913 -0.07397608405573353 -5.211727062962761e-14 -5.4304108952629715e-14
-0.08375563157787105 -0.03896681503644239 0.007935893744500462 9.888746147468624e-05 -5.344426505556467e-14 -7.15639434647683e-14
-0.09274583827438984 0.036815856024602994 0.007602508532399065 0.07418701080024197 -5.5517383699683724e-14 -6.631763822990966e-14
-0.09420205063495021 0.040554525678320644 0.0074778996727722456 0.057120790314377466 -7.273327244845286e-14 -8.57234341020488e-14
-0.07925206078968502 0.030729415938971414 0.007617138189884825 0.05273598490077658 -6.999078813534846e-14 1.6776971522095008e-14
-0.06605272471669639 0.025238831703778566 0.007617038235993762 0.04889851374273368 -5.817758045602826e-14 3.891789776729049e-14
-0.0547339934106061 0.02032999621952059 0.007366913093454238 0.04594991484803046 -3.646324371999257e-15 1.4007276783779832e-13
-0.043767403765401766 0.015749638422787537 0.006938057140355214 0.04393369632644064 4.703870756447848e-14 9.430994938990078e-14
-0.03350460627273844 0.011852981451398837 0.006455071822877795 0.043204948275389274 5.18818149520487e-14 8.160558681710381e-14
-0.02323711255424216 0.009049086629864247 0.005957747668691919 0.044736559457236695 6.03021389875176e-14 3.114554377207576e-14
-0.01078109530929754 0.0007277607312104269 0.005471836034408872 0.04084738741008435 5.227923095243916e-14 -3.0252059537994036e-14
-0.0036977435140884483 -0.01589707617854134 0.005970343761514746 0.027090482891834664 4.291661156227006e-14 -1.680498188522117e-13
-0.010465471201268384 -0.007223197132754218 0.011518083040415126 -0.014977430799810645 2.547028072393681e-15 -3.4248049275015235e-15
-0.020679802768462333 0.003414719736714954 0.009178846301888166 -0.022875064280441865 -8.804656764956065e-15 -1.3305390047114313e-14
-0.04220142272223475 0.01517087700382175 0.009471166485376319 -0.025105974108376547 -3.4821734525795206e-14 -2.0130923837624604e-14
-0.06433782252137142 0.023524321140564946 0.010443792333909643 -0.02403694345423144 -5.747735187106029e-14 -1.625257681258166e-14
-0.08603444381578777 0.03212525487418301 0.011594012535444611 -0.024624973069052754 -7.150751074169043e-14 1.253259106735738e-14
-0.10799295222645133 0.04122183466786581 0.012574112837999534 -0.026125142767425284 -7.112749957430015e-14 -1.0299717350704951e-14
-0.13062047955212946 0.05081499713646111 0.013070163386620854 -0.028117494138355077 -6.034725535042015e-14 4.1901974511676654e-15
-0.15343286892085908 0.061362165159113 0.01291915171545798 -0.02992545512477202 -7.345493096698637e-14 5.039046437060879e-15
-0.1828009728337513 0.07197606083325754 0.012260134036059125 -0.03326548914458631 -6.673742098230531e-14 -5.404047164186271e-14
-0.19630181524445975 0.0955834100003237 0.011780195812240045 -0.04427425090397421 -6.86761591198919e-14 -9.794472362063128e-15
-0.19178076070395586 -0.029974452779330574 0.011877739696850855 6.410000847845691e-05 -7.15082595188158e-14 -3.6977663769519054e-14
-0.19658513278815545 0.09556412397953651 0.012081109118703092 0.04441055293974514 -9.287147060502848e-14 -1.4055895119699513e-14
-0.18337367772050484 0.07193960701254475 0.01286362432351184 0.03342796664398886 -1.335443189950762e-13 -2.692233914101949e-14
-0.1542998025240108 0.061312258249352325 0.013823076553744037 0.030138190008323323 -1.2678433200215625e-13 2.4976467291951132e-14
-0.13176866376449387 0.05075541573602053 0.014256516007733701 0.028416869690104235 -1.0742162723714277e-13 2.3588796931386935e-14
-0.10936067903242849 0.0411560448350844 0.013988061046920512 0.026570049014364154 -3.594290121609889e-14 8.04671203258854e-14
-0.08745366172952719 0.03205041462201533 0.013110466313002445 0.02531367223075017 5.71194635101864e-14 5.6480373763351244e-14
-0.06547430114504667 0.023381567778248177 0.01181776015956179 0.025044014461347398 1.0269283795723283e-13 3.780699711630753e-14
-0.04267677257100226 0.014816565400025766 0.010281699154290508 0.026101048944372297 1.3184767134414438e-13 1.6362501360344534e-14
-0.020512404103600067 0.0031138756717017228 0.008863451670810532 0.02307651674107125 1.0531456417117897e-13 -1.2855161542462551e-14
-0.010067980521647497 -0.0061904362262336894 0.009743820220389702 0.014583310724984306 7.443034361585832e-14 -1.06685873243334e-13
-0.013793536633598178 -0.00358877374311623 0.013241521945107602 -0.005943258286127088 3.309256080968881e-15 -5.4244260992708515e-15
-0.02859405422421983 0.0048078444914388405 0.011559151030761664 -0.00903511096025425 -9.873503924173743e-15 -4.95968283803494e-15
-0.061800651277558655 0.018193883808719565 0.013071812104614468 -0.009475204347273163 -2.95067789646275e-14 -1.6377361706371163e-14
-0.09682781813988207 0.029512699214510392 0.015126015535293684 -0.009364144387497554 -7.384549785896533e-14 -3.0026437065899803e-15
-0.12957414651503762 0.04041892646414313 0.01709097299556737 -0.009764860374886962 -1.0770561959666525e-13 4.42305697276324e-15
-0.16210374800618804 0.05176969128661922 0.018486362031780553 -0.010541004404911403 -6.900087597648541e-14 -2.963677480510851e-14
-0.19546807911389447 0.06350865022631232 0.0189008585393415 -0.011343102022259318 -3.91206977836539e-14 3.99536632077202e-14
-0.22938651693050988 0.0773951342979387 0.018109986109217137 -0.0127086044845622 -5.897707452615086e-14 9.413639572714017e-15
-0.2611251407120634 0.08519513896882017 0.016302735380782165 -0.01338905061122608 -6.791046674656243e-14 3.62515464695512e-14
-0.303911533109754 0.12914815365981955 0.014421445736987988 -0.02869539902941952 -1.0485054258201412e-13 -1.9020700812999447e-15
-0.33199672832685534 -0.02533453705263893 0.013541244608440042 3.7035836771415545e-05 -9.774714132722295e-14 -2.6985900493381454e-14
-0.3042290791804191 0.12912069180990757 0.014789440558549955 0.02877417326343599 -1.1625967658197844e-13 4.759755957428613e-15
-0.2617649144435646 0.08514113496504257 0.017044506131630652 0.013482719473679038 -2.010958944937552e-13 2.2924641785576627e-14
-0.23034875956367618 0.07731554120699816 0.01923130801614539 0.012830067651626144 -2.284262731223896e-13 1.9840845546376107e-14
-0.1967267704834136 0.06340234514093045 0.020394497284585252 0.011510118858328413 -1.9204237267263224e-13 4.191628598035346e-14
-0.16355694634354448 0.05162917334657237 0.020308684252486987 0.01077865078924415 -8.713871096042991e-14 6.700694686612163e-15
-0.13094957256554937 0.040213602719713214 0.019122215080588863 0.010110742836405128 7.672004307887614e-14 1.8911359023904284e-14
-0.09764458328331675 0.02916272944646603 0.01710533882232376 0.009840785678719845 1.7508515253936152e-13 6.686057957283609e-15
-0.061730718253337515 0.017655274706701106 0.014523421867090294 0.009956297334672936 2.258449503800275e-13 8.382996987549296e-15
-0.028005808175962633 0.004486304216536704 0.011822241014162656 0.009206652576465515 1.8079377513309514e-13 3.8039775322740166e-15
-0.013150713898798946 -0.002946332272376752 0.011987799006287487 0.005853520500462011 1.2981694712255187e-13 -6.532491561572762e-14
0.056418167545665816 -0.08985076719280312 1.2197274440461925e-18 -0.0029564559412525167 -0.010844981061854294 -0.000941069831934493
0.05933050180307061 0.0005483579326495381 -0.006023962673451477 -0.020342346694265753 -0.014785724366215024 0.0011283158783294723
0.07425683225899188 -0.024005559546244705 -0.011505470004859993 -0.008048999345434673 -0.013915506332447588 -0.0010899025004845809
0.1023364383687382 -0.030477186056801813 -0.01659998540089671 -0.009197530768082234 -0.011632307752082696 -0.0012576341669230024
0.13471417974758548 -0.04142870788280086 -0.020531583527663638 -0.009637904727611384 -0.0074799633729415544 -0.0017355045740345175
0.1671191319240035 -0.052041554814127464 -0.023291354810039824 -0.010119743346337768 -0.0022796905965612626 -0.002229753142555235
0.19944191710968362 -0.06320187770390888 -0.024689981505108458 -0.01076969928186038 0.0035979000027150957 -0.002692726911525501
0.23328888263499534 -0.07517970985564501 -0.02459811082143929 -0.01200668740947615 0.00921284280316812 -0.002900996839942405
0.27119489365715627 -0.08920737410778525 -0.023076369299932356 -0.013479741019077169 0.012351404909043772 -0.0024438871910269023
0.3093143229870794 -0.105593132341823 -0.020773741586168473 -0.011323570863341716 0.00958685081111903 -0.0010584214788112217
0.3271236500379483 -0.11624010938888527 -0.019441801323791186 2.619900845795089e-05 -1.23825525112434e-05 0.00011622415345933032
0.30922674353073587 -0.10555853361655722 -0.020787429573253583 0.011377568427277187 -0.009597374172243222 -0.0010433945529599612
0.271006352303595 -0.08912916245600017 -0.023113624012776973 0.013538688711318135 -0.012317632760025805 -0.002414012850714981
0.23297025115165873 -0.07503813520873953 -0.02468074003169464 0.012074732836253623 -0.009097818640534253 -0.002857791058801518
0.19894205990273914 -0.0629629534322457 -0.02485578670664866 0.010851391711652078 -0.0033440052238657724 -0.0026406613127359377
0.1663569699783423 -0.0516501528180166 -0.023597564235392447 0.0102243224753156 0.002776425399423837 -0.0021847941723553074
0.13355445471331426 -0.0408021905863267 -0.021064918200925854 0.00975977951748668 0.008417669097138253 -0.0017092500018197618
0.10059142160471257 -0.0294973660198016 -0.01745218890347619 0.00942085817639883 0.013236371092223309 -0.00136590121830207
0.07109128502270026 -0.02238885537423512 -0.012926372742958051 0.008367791370163958 0.016390761009871573 -0.0010012722956531574
0.05111616435901887 0.003229632908367327 -0.007663077710804756 0.019879386769210295 0.014920154131487668 -0.0008059080470592838
0.04423223963161552 -0.08541245891936027 -0.006726394462639475 0.025532913358360065 0.013188786959317206 0.007876860019799587
0.024909826157050216 -0.07744477541179567 -0.0008878885047699188 -0.005043025001563556 -0.005741764217374075 0.0028106103005411413
0.02891538988856729 0.0010128185723462491 -0.0027618999939090392 -0.023086424106488302 -0.006960429366306481 0.0023644325695416977
0.04596067407488608 -0.017498965382182912 -0.007183031560756871 -0.020817825624759742 -0.00871303597310987 -0.000261575960197248
0.06929078018677653 -0.024896625106165 -0.010808495905285974 -0.022944321548550205 -0.007284650343978145 -0.0006609666550027156
0.09045650175699267 -0.033338152973742985 -0.013619330158337484 -0.02425358721198246 -0.004614515590424194 -0.0009656159944977844
0.11205376485661256 -0.04190852770217838 -0.01549860951275859 -0.0251165257981649 -0.0012336988670127867 -0.001116029352003134
0.13357665246309086 -0.050803743829847585 -0.01641856257511067 -0.02652596344483721 0.0024569811377280937 -0.0009728826793813049
0.15584794279031852 -0.06013321684804403 -0.016342123645200414 -0.029443297513696835 0.005864521872260291 -0.00017507573270227837
0.18001718655176135 -0.07103257648817642 -0.015355291381238732 -0.03369742423365322 0.007718914853334248 0.001854941220583316
0.20357659711831502 -0.08590167932040067 -0.01382923193094545 -0.029531185409255565 0.006019984416053712 0.005251073465123311
0.21441097290100197 -0.09930062593549038 -0.012853689904786816 5.0813218545303846e-05 0.000111175972544834 0.007675112685157595
0.20346916556504838 -0.08587394716915132 -0.013793936225262619 0.029637464022536714 -0.005776587476238101 0.005254641474125726
0.17979033892662447 -0.07096881277907115 -0.015292398339451278 0.033818452142250065 -0.007411535361261377 0.0018583691505975834
0.15547663325985475 -0.060015339926554626 -0.016269520490642266 0.029591857872184612 -0.00544612036118617 -0.0001813840893760053
0.13302026507132433 -0.05060070702962072 -0.016368866977597835 0.02671966037687778 -0.00186874374803856 -0.0010092958402678571
0.11124862323005824 -0.041569581527989105 -0.015526722320944118 0.025380361544422442 0.002081377701070621 -0.001222086486349961
0.08931189695701167 -0.03278541506398847 -0.013806265791375193 0.024615914137694726 0.0058555545702397805 -0.0012043710135882673
0.06759928548386382 -0.02402575805727109 -0.011288245679466385 0.023506883912252703 0.009117845624309683 -0.0011400451111434498
0.043229968219517065 -0.01601137799176568 -0.00807684222598536 0.02190387959081368 0.010836994951963375 -0.001007640278725811
0.02649902314636315 0.002355885841249394 -0.004546831818392628 0.025096731307281555 0.007791095329930945 0.00029216138435719834
0.023495671050084713 -0.07411661066067847 -0.005090642235609228 0.018964807618522952 0.005094831648790254 0.01018899225230802
0.012810686593984653 -0.054341371354250434 0.001598538582119346 -0.032684538258961955 -0.002014425369015322 0.009689959811908433
0.012436819605061324 0.0007157763878761727 0.0001247045237015546 -0.040183632732198445 -0.002534252656365901 0.003573781965453245
0.02030820788865675 -0.006031901130776003 -0.0027795676657333727 -0.03745800257089999 -0.0035456183553627296 0.0009107590643546569
0.03465431601381265 -0.012948138494147181 -0.00514209202747571 -0.040474986760147706 -0.0029270296922750136 1.3040066908200643e-05
0.04605559993497932 -0.017106794160254787 -0.006783139054597103 -0.04204415421230515 -0.0014239831886379175 -0.00011106968143847412
0.056649768815861395 -0.02136999506722806 -0.007773740949706125 -0.043535251814608905 0.0003576872832152181 0.00016254645263579282
0.0670621824216439 -0.02573718397265474 -0.008155080657329677 -0.04577447791109972 0.002205066713333973 0.0010594907178419818
0.07717961197315705 -0.029663267773232197 -0.007962160024562329 -0.05013264134926084 0.003925395947226446 0.003058270573698061
0.08860739763708622 -0.034189216003245544 -0.007239718470849611 -0.05770374200571943 0.005103517304122396 0.00687525213466114
0.10363010444633315 -0.04751970948034906 -0.0060203399001960275 -0.053542894955904724 0.004382591171804079 0.012605193349784766
0.11219311924180243 -0.0704281993997741 -0.004943766276959867 8.198990251726348e-05 0.00023248298375195043 0.01674689696867401
0.10350489633004703 -0.04750611803249565 -0.005936721592798832 0.05371462409594223 -0.003891141520592366 0.012597646070646656
0.08834684631565688 -0.034155218890033985 -0.007078271472132435 0.05790011230069878 -0.0045330338676015805 0.006852430183676955
0.0767640258838233 -0.029594192618091722 -0.007737391918462195 0.05037519600928894 -0.0032241998375612023 0.003001208977870375
0.0664623794011141 -0.02560806030737031 -0.007896301648194527 0.046093893519023404 -0.0013205919197615303 0.0009298362745607081
0.05582577580264505 -0.021138451467649477 -0.007533941080909363 0.043975712088321996 0.0007689193826395235 -0.00010872031625521146
0.04494879784951302 -0.01670887709048938 -0.006651905438623563 0.04266944954028181 0.002871235043536979 -0.0006415352106334709
0.033139229671362305 -0.01227502119408086 -0.005256584138973887 0.041430362931779104 0.004747007914922886 -0.0009063669035506994
0.018742546295488625 -0.005079403814217217 -0.003342241738298478 0.03918234899191514 0.005364657691475057 -0.0007376839110551966
0.011735271827222263 0.0005092870897739494 -0.0013587933806583376 0.04318878550240291 0.003051764944205812 0.0021617084168615882
0.012774800172783811 -0.052255597273084986 -0.0015758118279335987 0.03576125983363898 0.001375007141803104 0.014987995798755704
0.0038020631750044043 -0.03433059942393203 0.004949315471356537 -0.03521429285286644 0.00023985047324406517 0.012424645389702888
-4.149687999167528e-05 -1.6295725987298895e-06 0.00329804055511991 -0.04710475191568576 0.0007709520872070969 0.00419760836924068
-0.002239595464982992 0.002560869143503216 0.0016119923827967234 -0.04673230710031686 0.0011036740918598032 0.0012567299112485953
0.00040589922135281817 -0.00031904641452972784 0.0005393310416283083 -0.046559501941068435 0.00141645452431447 0.00024363380268595643
0.0013326522552609857 -0.0007083482513635315 7.409170578061156e-05 -0.047939934048813825 0.0018575995149637886 7.526337211761031e-05
0.001050863465396798 -0.0004852155425122557 1.4092811635920568e-05 -0.04963460267864381 0.00218381734653282 0.0004785710754668115
0.0003631670363264719 -0.00035338909470218063 0.00022335977741412118 -0.052211115579661724 0.002358913998024493 0.0016048178197342203
-0.0015655966787709356 0.0008785174758840235 0.0006208130887252797 -0.055929166584648915 0.0025869774249361074 0.003912214576646101
-0.0026481011968202167 0.003240574343444728 0.0011882033062635175 -0.0641127450422124 0.003241835506367175 0.00811874422624518
0.006072552653367981 -0.008851068174141512 0.002216172750427057 -0.06696061156439637 0.0034426467869660324 0.014649080260252776
0.01439107849224961 -0.05063199272847285 0.0036778025141308663 9.291522025327761e-05 0.00035344175361433345 0.0199864566643526
0.00593016299781004 -0.008852169347606624 0.00234820552011681 0.06715524551565882 -0.002704358404851854 0.014638153692654683
-0.002941013275674714 0.0032436343884033243 0.001448348165137001 0.06433534430451296 -0.0024113428026545478 0.00808787322097466
-0.0020232003419457614 0.0008968908819295155 0.0009977075532843107 0.056204074434881776 -0.001609986109199121 0.003839395689636231
-0.00027557507071465187 -0.0003007804537427611 0.0006907760712929621 0.05257325493532909 -0.0011933509979412103 0.0014464265232970804
0.0002165024148900105 -0.00036659977504164556 0.0005189068317972995 0.05013748395491943 -0.0008051273851832937 0.00015354344444874047
0.0002817695060567453 -0.00046892701441140296 0.0005197480609572204 0.04866918636890441 -0.0002637467509312247 -0.000547433036610514
-0.0007922940825409314 0.0001189563266527899 0.0007675818779631415 0.04766965548743259 0.00031825503325693083 -0.0008779134513687613
-0.0031178363438139423 0.0028920553078680506 0.0013719112830608373 0.04848596168294122 0.0003321326394181747 -0.0004972521452819143
-0.00017975057220484005 -0.0003587498379563122 0.0021746123580234384 0.04856791583357085 -0.0004682920918228857 0.0031693770661309403
0.004052129343948025 -0.032610164281841 0.0024905943281088496 0.03583211952874048 -0.0007438349006707505 0.015869974617507575
-0.004209335551504589 -0.01801069975469119 0.008407381014318704 -0.02809598172641463 0.002137652970252236 0.01167563653363507
-0.011193928970020665 0.0009600113270767765 0.0065998821409973965 -0.041265234599070985 0.003816346249430363 0.003584531872360643
-0.023162653104424558 0.009270763011870641 0.0059820997088075555 -0.04353016571384376 0.0055921353758400585 0.0010712778539830883
-0.033009496475834954 0.011903943874746943 0.006196089256802795 -0.04141552055895828 0.005724844428525254 0.00012206020222126642
-0.043403579667242745 0.015835182861062915 0.006909898943484389 -0.041942050364916335 0.005159299869266727 -0.00011616990470425183
-0.05467475342114554 0.020412614281856242 0.00778919255927086 -0.04353565214941239 0.004033291472551934 0.00016489577998595828
-0.06616843057176873 0.025187694190808137 0.008597482222657023 -0.045696911864504586 0.002543914322759237 0.0010722108166496143
-0.07924028990671018 0.03041359689937286 0.009200043928627857 -0.04851724687793258 0.0011849941508756936 0.002933601447953029
-0.09371579033369788 0.03980715186446319 0.009567468175372448 -0.05242037216893449 0.0010355341560198512 0.006311676325576594
-0.09246595756842978 0.03573562966124893 0.010133940179248683 -0.06955059438080273 0.002169439198235547 0.0123004564938493
-0.08409829099018434 -0.038679139315880955 0.012125311367987562 8.226850427617616e-05 0.00047677835247040494 0.01846314286382381
-0.09262647128404745 0.03571982118188945 0.010315295371400527 0.06972289466941035 -0.0011792405439735084 0.012293881723467234
-0.09404313430872956 0.039779217757639644 0.009928270897546757 0.052617291647192956 6.103973670717496e-05 0.006290849693769629
-0.07974354139532829 0.030381271576261446 0.00973239462992772 0.04876005483775133 7.56038732616681e-05 0.0028798164104764596
-0.06685137238514435 0.02516365016237389 0.00927861885819652 0.04601614664263647 -0.001086428938485669 0.0009479285365201844
-0.05552633203772467 0.02041723668412075 0.008566571587355139 0.04398125024938139 -0.0023894711727424738 -0.00010002693446869425
-0.04437851388653855 0.015909142159559082 0.007679474901492682 0.042598790583570974 -0.003407372496011997 -0.0006465707889056371
-0.03393999947450253 0.012056753295854023 0.006776062411649852 0.0424183200699935 -0.004070780382041456 -0.0008603656211956717
-0.023685036560576956 0.00927797883675634 0.006088839481309116 0.04474659370652394 -0.004473694580469968 -0.0003533366821056594
-0.011152803243986601 0.0007375625748540697 0.005860411335770339 0.041804373112905795 -0.003663540201375409 0.002824310053238914
-0.003924208387341359 -0.016799058704884087 0.006550268465605422 0.02791543571412947 -0.00254733746928503 0.01390229879480206
-0.011000807106825203 -0.007463971944689627 0.011580371393515731 -0.015180953519986249 0.004533044608838191 0.0070613512658646935
-0.021465461891012828 0.0031582054792055982 0.009822276888543017 -0.023611316572450778 0.007302041091875282 0.001559367571001247
-0.0434087453302595 0.015258182448026831 0.01029622766374421 -0.025673080697096694 0.01028996232578014 0.00020975326799695354
-0.06593262878177131 0.02371279743762173 0.011791394517993298 -0.02407819877430631 0.010058706030131486 -0.0005545588135919683
-0.08802867228777582 0.032224910395327676 0.013678742985025565 -0.02414198728283675 0.008394353314340615 -0.0009532796197924297
-0.11022787002100666 0.04109425167320853 0.015474615812845538 -0.025110924260185612 0.0056958848288310125 -0.0011103727272202884
-0.13273939768675133 0.05028363958084534 0.016850377647691876 -0.026461399561398244 0.00236417347792616 -0.0009646732127536299
-0.1548841278553462 0.060191791693660686 0.01757049723344273 -0.027618528934001272 -0.0008075551265736957 -0.0003048883863898136
-0.1826795165219429 0.06999315176786643 0.017612243756160634 -0.030705225763847606 -0.002485325543251315 0.001104622521336451
-0.19532175282557637 0.09241512064203238 0.01706353672890787 -0.04171232226850825 -0.0006818611775692896 0.004894931898773925
-0.190995112130517 -0.030160703048129935 0.019177316903726305 5.140294358587605e-05 0.0006051940083775894 0.011872009718972221
-0.19550286728047647 0.09238515670847379 0.017295901231614463 0.041819834949755774 0.0019352798532082875 0.004900571773330131
-0.18304669642050625 0.06993534346020674 0.018077432923492464 0.030827598024816216 0.0038630478050952362 0.0011122101911027684
-0.15544235200770531 0.06011053608771406 0.018264847986411713 0.02776834850307387 0.002374292795115908 -0.00030469758873398175
-0.1334822898452619 0.05018553381699442 0.01775597872281765 0.02665664514593166 -0.0005790955998224396 -0.0009913316104458408
-0.11111631905157093 0.0409892475284281 0.01654168359878099 0.0253806889421443 -0.0037299703299472665 -0.0012026143480367802
-0.0889517126910395 0.032124579741407276 0.014798266087579299 0.024541066364864778 -0.006402259632238302 -0.0011876787500503226
-0.06666876408688417 0.023597663176141898 0.012760802584395431 0.024661680216462145 -0.008377791440731796 -0.001047602176924082
-0.04370704454508202 0.015048436437369915 0.010799420659291695 0.02626788304110164 -0.009404881349255748 -0.0005179619620338698
-0.021330580276662344 0.0030054069128545783 0.00948822746610273 0.023742233628931977 -0.0073539932180348225 0.0011742372291179194
-0.010706266130927785 -0.00677222886649747 0.010245059353088958 0.014912169000475381 -0.005022268462370308 0.008306041477731865
-0.014644569564415184 -0.003923784150148297 0.014016155387344248 -0.0059176565116569255 0.008734196442585496 0.0036243219665836883
-0.029710160429705392 0.004438855595350783 0.012837891962002673 -0.009452745133948705 0.012035560732851414 0.00016524615083720934
-0.06345852699788139 0.018168008202749726 0.014577671862336985 -0.009796278662267599 0.015381492579238093 -0.0004399046095259788
-0.09910938691493125 0.029559827129456286 0.017408658799863832 -0.00943411777401487 0.014366758016133591 -0.0010792805113498767
-0.13249581324107593 0.04032874882162697 0.0204942992678855 -0.009566275862854795 0.011351426105778537 -0.0016253367068185245
-0.16544512045067392 0.051357333241906895 0.02319914814239973 -0.010074346521100013 0.0068308543037389315 -0.0021622549007185386
-0.19873554429203155 0.06255387058019338 0.02508730409148928 -0.010579943313786196 0.0013328380736813915 -0.002642806961487428
-0.23165712274493103 0.07555323624636508 0.02585890056846796 -0.011703463368954538 -0.004096776784969419 -0.002998478512315341
-0.2611507642762564 0.08237380163161943 0.025314547523318336 -0.012380225544475407 -0.0076180259746378085 -0.002834657714618114
-0.3015724075156299 0.12448603827500375 0.02332735648276316 -0.027266472896822137 -0.00727544652627133 -0.0017538561387387935
-0.32871357759754694 -0.02573185660399093 0.022434360145996292 2.6733731807076068e-05 0.0007405431073167759 0.008317524557888763
-0.301778016064982 0.12444920770120146 0.023613058204848943 0.027322698291422254 0.008807874853123307 -0.0017416214087505517
-0.2615662455250233 0.0823014948598668 0.025889337123942483 0.012445041757316547 0.009299073756679944 -0.0028111434065581226
-0.23228509949683546 0.07544815137857801 0.026724612405583565 0.011783888909202626 0.0060046419839933345 -0.0029664532879854167
-0.19956297580105148 0.06241986638950049 0.02623317607002909 0.010685227828374312 0.0008381461390069133 -0.002608833623813195
-0.16641163015917426 0.05119871483586875 0.02458212987330725 0.010217597011800061 -0.004443726705633524 -0.002141553084976409
-0.1334325925148948 0.04014213577420215 0.022007035678827492 0.009769860058572237 -0.008956781878750686 -0.0016523957022149252
-0.09970971358529535 0.02931562470730247 0.018835054167729307 0.009717138772416862 -0.01244244911284258 -0.001213354918081121
-0.06349397747601232 0.017849932836101454 0.01556245143007547 0.010091020303322986 -0.014627229646945518 -0.0006731342885388167
-0.02937602426813747 0.004281753594671952 0.012949129672877601 0.0095631292633128 -0.01257064460324151 5.440199599651837e-05
-0.014244758252628649 -0.0034762367427353734 0.01309651002761399 0.005835799402790569 -0.009821612217925763 0.004369735718285482
0.04063924850202162 -0.1039014768294135 -4.756937031780151e-18 -0.04704815727756247 -0.025099844472894296 -0.00887888504778429
0.05151724684359238 0.005200512523728762 -0.006447416994158322 -0.021032431451355544 -0.027083122002387598 0.002782921207852076
0.07535987176302224 -0.023072076733456834 -0.014602719278003037 -0.007516211314849197 -0.02540317709168605 -0.0006953012017541148
0.10512019774378761 -0.028877670752492698 -0.02077396803875194 -0.008169882844468705 -0.02257304861695546 0.0004755665684434729
0.13932816343103585 -0.03968785623758226 -0.026793189404600567 -0.008113944219453158 -0.017228575238149933 4.880477527321558e-05
0.17386847502942848 -0.049780128061484755 -0.032259809329494835 -0.008321276044027904 -0.010304899238841408 -3.320004882044304e-05
0.20766915369088434 -0.06001241753065862 -0.036975535816786816 -0.008513863808153067 -0.0016022357822290674 -0.00015579614217241513
0.2405703802015821 -0.07016416551961262 -0.04059456639088317 -0.008967087064691176 0.00801017229775554 -1.2345691515825861e-05
0.2725019061566977 -0.08056615349950756 -0.04270655251452181 -0.009421957784968217 0.0154894196929778 0.001011033583198857
0.30026926553616895 -0.09121804464043723 -0.043178794757560306 -0.007586502631482333 0.014153114361048918 0.003883677660145615
0.31235183171188347 -0.09785513868569716 -0.04293277541341396 2.5537555497312167e-05 -0.0001339907274918234 0.006892208704280617
0.3003443542283825 -0.0912365404699819 -0.04321730583452297 0.007637179385406373 -0.01440602467593052 0.0039013567080963974
0.2726631705122384 -0.08060438453797192 -0.04279154304741221 0.009470763006420309 -0.01569486683888107 0.0010457666108128123
0.24084427698895328 -0.07022529420253229 -0.04074389446930083 0.009010141136863855 -0.008128008817676762 3.607264947725716e-05
0.20810857097878502 -0.06010330581809497 -0.03722074155648101 0.008543980887057476 0.001633941467456727 -9.819383729605633e-05
0.17457090973772715 -0.04991580097773872 -0.03265551837313887 0.00832292661459148 0.010580202555841066 3.042735219968161e-06
0.1404780564332537 -0.0398980504411595 -0.027421025782060987 0.00808196276356413 0.017957864733562055 9.97355438913726e-05
0.10700351341969411 -0.029214142420533096 -0.021801512305563084 0.008013312530318237 0.02382954593832668 0.00018444658238367446
0.07882923231059263 -0.023734332922788696 -0.016057570671095856 0.0072256852959848225 0.02868493880344636 0.00013729720530546906
0.05929508147197785 0.0037774964919450446 -0.009109167527947973 0.020856071542776234 0.02423656388550817 -0.003282883380354111
0.05158823992378018 -0.10569279516115165 0.003890118780660268 0.027799721454407532 0.020475377296616134 0.016357522270218656
0.02432726266189152 -0.09147192130990016 0.00484591506306288 -0.03019207222958336 -0.004227163104788011 0.0008320018755590201
0.027017827306966426 0.002949695800277192 -0.0034053266738829258 -0.02622978041045368 -0.009107294164719707 0.0025291789866180646
0.04451611148789433 -0.015816354184948523 -0.009262727368717054 -0.020651368265807577 -0.01549379736515619 -0.0001660546183453294
0.07024319058439035 -0.023227113858927183 -0.014132249224885625 -0.0214430616631556 -0.01299272432733929 0.00022365120799590344
0.09277620401758523 -0.03145671501295215 -0.018390529181287738 -0.02208263897535057 -0.009681894243150448 -3.5156291575394444e-05
0.11580223126981465 -0.03956751330729901 -0.022250615798786323 -0.022204189611475775 -0.005276238944161597 -4.3097675090018796e-05
0.1382899582436964 -0.04765910864685265 -0.025527655236457655 -0.02239528481511407 -1.0383219854441078e-05 0.00021191041941196135
0.15997172343108365 -0.05557949681637087 -0.028029230950466104 -0.0229930597916749 0.005646162402065281 0.0012167442222603116
0.18053708808019722 -0.06366420987164066 -0.02951927470943693 -0.023838601052035977 0.010025925959300318 0.004130591903533618
0.19798326893375595 -0.07322220429506765 -0.029930712299615858 -0.01955961350497126 0.009240070000895892 0.010488200260091219
0.20548832642837797 -0.08166755399713024 -0.02981198217986058 3.696781702292203e-05 5.1622497224700664e-05 0.0168200074972956
0.1980568980500891 -0.07324491677611022 -0.029946070368778537 0.01963241314091293 -0.009113331250882447 0.010492006038426033
0.18069426881607842 -0.0637107124746599 -0.029557566768368015 0.023906525267697924 -0.009827863321152722 0.004133990886279213
0.16023555366380762 -0.055652350022897486 -0.028107537366542534 0.02304750470444648 -0.005325030196045605 0.0012088870238729928
0.13870448811426772 -0.04776357545159342 -0.02567726580292373 0.022418750007450396 0.0005138794343459218 0.0001710566406756247
0.11645037830020902 -0.03971570655557309 -0.022523242834527397 0.022165638066344688 0.006047261556269136 -0.00016187800420710454
0.09380154712045029 -0.03167341290877731 -0.018876620957554914 0.02194025030269321 0.010813792263795134 -0.00028328237695374094
0.07195202282261434 -0.023551969414855135 -0.01494538469078812 0.02108520676740348 0.014751013341257004 -0.00033826567085766816
0.04748884386942503 -0.016461506379796424 -0.010653604836359005 0.019737087824405277 0.01770746504185252 -0.0006712874844039918
0.029995639108402413 0.002580174611570716 -0.004951995741591047 0.024048750050108494 0.009694527761944448 -0.0018413321627688904
0.02649653192443046 -0.09231028105722747 0.004945455816431387 0.017921428540574418 0.0028991941773005756 0.017255417601054777
0.013487168380156664 -0.06606926644204772 0.00686277841548063 -0.0398484588752766 0.0006702795671296095 0.016641772443468778
0.011921550165097869 -0.0008713417680772485 0.0003681426305664599 -0.04555222938424836 -0.00208181997137101 0.002501092635312441
0.01876620505600025 -0.004091601534490043 -0.0038661165725042204 -0.03767042699084283 -0.006252125896378551 0.0007626051622061485
0.03387514979383524 -0.011373962318672158 -0.006820241986554075 -0.03873972190273803 -0.005310192473870325 -1.0579750208832727e-05
0.04629213132244228 -0.015504679580860742 -0.009176057401355305 -0.039159575413523655 -0.0033655143652289838 8.265760260251241e-06
0.05772734984909248 -0.019528128567968123 -0.01118851125629761 -0.03931271264584598 -0.0011355631034236113 0.0002527884172143567
0.06887104844841745 -0.023491670957138902 -0.012845609424231698 -0.03940687623418727 0.0014417612013799615 0.0011124854084270724
0.07920820336320532 -0.027011442178687388 -0.01406169196405308 -0.03983503488214852 0.004368636391725968 0.0032645526244912963
0.08914423060387996 -0.03047594163644521 -0.014749398657682765 -0.041219354463312464 0.007575425508748835 0.008319396434329015
0.09988298150199962 -0.03882191010668992 -0.014825948614238412 -0.03565183793841373 0.008419035824119923 0.018830417672972014
0.10561339014533032 -0.05368617877683574 -0.014557442141882483 5.4224961948607644e-05 0.00021626199402689883 0.030986917406062176
0.09995408175910504 -0.038852851086289844 -0.014817466532856415 0.03575819636437775 -0.007956344424745458 0.018821607774766515
0.08929410831139431 -0.03053844722023468 -0.014739013982811197 0.04131698305074837 -0.007022928092546369 0.008294073854502287
0.0794539992593582 -0.027106584883722112 -0.014064592120885667 0.03990920775820261 -0.0036692296796259384 0.0032039850572928835
0.06924497931111773 -0.023621094003689114 -0.012889786576932068 0.03942726399836418 -0.000542426084508123 0.000977941194563307
0.058288937407613005 -0.01969762858140774 -0.011322701016970324 0.03922575059801774 0.0022812982036326318 -2.2863141169343333e-05
0.04715469190731265 -0.015725910288338446 -0.009479081162261753 0.03887979478936707 0.0048056463040782255 -0.0005376448009033995
0.03527249156523343 -0.011686844391036861 -0.007419178572960374 0.03810283614746499 0.007098105504975924 -0.0009176199438441721
0.02054966586696734 -0.004463003004741194 -0.00490112017025967 0.03618053680456643 0.008061292522564243 -0.0010603411858883403
0.013236273489259686 -1.784944789311486e-05 -0.0008393953186040077 0.04254133255700916 0.00245130133893372 0.0007906767982975524
0.014293965981718521 -0.06605530004218199 0.006182843640427589 0.03639636797919218 -0.001497983117581857 0.023320755315229064
0.004571650665997745 -0.04166679889427308 0.007976776436084373 -0.03767749661256924 0.00216405524974713 0.01824602777317639
-0.000215273903144958 -0.0023141626892248333 0.003863627930406116 -0.050045417692153135 0.002066606460230463 0.004486350396428632
-0.003842272039435757 0.0035208995202677747 0.001569750669877486 -0.047584897214770466 0.0012929298489254434 0.0011319480258290325
-0.0015899569729843086 0.0006684186432956484 0.0006940933658928607 -0.04494778353039639 0.0018074243457859732 0.0002800191580768274
-0.00040580531254906223 -6.47059059361393e-05 0.0003805682258270288 -0.044941394066021455 0.002427830165968211 0.0002399520263663976
-0.0003236817521924465 1.5688154230776618e-06 0.00029576528939958565 -0.04504123674662874 0.002755284058991505 0.0007112633247010921
-0.0004512311448892201 -2.4622137534697656e-05 0.0003426749596747113 -0.04514693529340217 0.0029810455853864232 0.0018521468722361972
-0.0013193050814271992 0.0005481733174768082 0.0004898748507395731 -0.044835836736933025 0.003560530086349547 0.0042944597857274
-0.001877875689825296 0.001976788473409118 0.0006659804320143961 -0.046270432539297066 0.006033461688312556 0.009537528530461373
0.003613117188279195 -0.005361587923569008 0.0009275106116923071 -0.045288086926177196 0.009326259764821898 0.0209936268673751
0.008929208194390213 -0.033546618162318194 0.0014194694014587647 5.8962783857818845e-05 0.00037254592288803775 0.03978487134639516
0.003681082758891308 -0.005400555902913582 0.0009603191068131013 0.04540366277184434 -0.008544879954174562 0.020981157302094974
-0.0017371068607764258 0.0018988696503875998 0.000726305093364344 0.04637620205505492 -0.0051458340194337334 0.009503767352732341
-0.0010956300269974516 0.0004321139879670033 0.0005651871593691693 0.044915220783794986 -0.00250579353648586 0.004217787247733972
-0.0001269428666326514 -0.00017635108192923926 0.0004089906745292894 0.04516544523703887 -0.001717678248184957 0.0016895585941936473
0.00013428482124797493 -0.00018259738687286122 0.00031069368592648636 0.044934578515629174 -0.0012748208076843297 0.00038084033738614194
0.0002621283446283299 -0.00028328270158148566 0.0002724558073764741 0.04460060656679729 -0.0007659237459918073 -0.00039153720423322697
-0.0006494931158230984 0.0004058516422844984 0.00035049075633042766 0.04418328319637897 -7.090667420892385e-05 -0.000863002115319806
-0.0028845630546757944 0.003517650987445594 0.0008887107154017979 0.046051352233335716 6.168625552389464e-05 -0.0007135104623120552
0.000399074416479944 -0.001405866068907409 0.002955508915031345 0.04843800035411886 -0.001953330777066406 0.0033732291278362097
0.004965706858191476 -0.041786898348125066 0.007207500183861675 0.036559833937091384 -0.0028325526133040173 0.022238528815131803
-0.003517108448836069 -0.021627506065372046 0.009001090841488611 -0.028527137101575176 0.0036506706079386443 0.015780652736275397
-0.011315983502946592 -0.0008689910462244722 0.007066670577868813 -0.04239541850793894 0.005894237563744237 0.0045749285395161035
-0.02495646513216217 0.009435690796769773 0.0068873222397016496 -0.04382637423019209 0.008329900865341876 0.0011753398229869586
-0.036079793475804145 0.012102732016462482 0.008159303238204588 -0.03984115100996446 0.008901790583052772 0.0001440118791424403
-0.04706050969467345 0.01551638312385747 0.009923668768163337 -0.03901664591382728 0.008285510113130085 -5.19859606201762e-05
-0.058485615881392734 0.019531573875394725 0.011771592540032905 -0.039221249782894374 0.0066977105891097505 0.00025898844846746106
-0.06968686100259469 0.023559925020766145 0.013527896580204521 -0.03931495602562868 0.004614855300559608 0.0012092706642684778
-0.08126947349327104 0.027508260471480375 0.015052580027913095 -0.038963705372453306 0.002572449122056421 0.0029514899654746996
-0.09301547708108938 0.034049317887969395 0.01608108056920491 -0.03831002705554981 0.0032125469086846706 0.006670409010102127
-0.09319259827150536 0.03232803348696718 0.01637102841002562 -0.04843416498452927 0.009925886165835219 0.015344322098229559
-0.08771509193717104 -0.020076085777059605 0.016852524635146263 5.552153717959128e-05 0.000532168355944959 0.04161144513419466
-0.09312764397630373 0.032280773756854036 0.01642847122550107 0.048543452617328786 -0.00881860442974098 0.015337376755860372
-0.09288365218523863 0.0339554984286331 0.016192094044413984 0.03841161352194865 -0.0019809089430876466 0.006648828467228383
-0.08106784892829093 0.02737053040467608 0.015207486570262569 0.039043603296736756 -0.0011508230458387974 0.0028965072724629268
-0.06941286444178568 0.023385193643323955 0.01370712611794253 0.03934304827155668 -0.002971795036553937 0.0010829046210064526
-0.058133493499795366 0.019332828959182393 0.011938983976979099 0.03913790818936365 -0.004864975287452898 -1.1127668713944194e-05
-0.04661620685768879 0.015306110051293618 0.010016366429403092 0.038714731526188775 -0.006390787247444995 -0.0005982132736644891
-0.03557117459568384 0.01193353659270998 0.008080401246236612 0.03914502773879673 -0.007212861426954829 -0.0008774179474918062
-0.024543438489657433 0.009561670256444508 0.006537721412004904 0.0427497673869852 -0.007323759092399671 -0.0003207744145869932
-0.011065271559095749 -0.00023248134114382525 0.0064604642991745835 0.04170506160945031 -0.005931268710601306 0.0038090580918821904
-0.0033195522752201985 -0.021736074106736128 0.008336520460122595 0.02826936285209776 -0.004201603886278984 0.01842839844382686
-0.010349673884820925 -0.008587772900942744 0.010442253634919657 -0.014918281176511427 0.006542396681124944 0.010243767738445304
-0.021584270001059447 0.002135792467705654 0.010115151300177386 -0.023702517860246134 0.010905712277461949 0.0031135725536227845
-0.04550733475422114 0.015101777599881825 0.011965010920148048 -0.02528248424840421 0.016104757912533654 0.0010732037441785402
-0.07016499075707601 0.023574635256142482 0.015331336861067977 -0.022666947528409524 0.016713820961206 0.00016974534994563026
-0.09372023625139468 0.031580026836131564 0.019099480477725247 -0.0219266280230931 0.014747868430777284 -7.843859072715473e-05
-0.11668151780000915 0.03967258391472783 0.022801226000264244 -0.022101812813552484 0.011037320373522355 -4.412707609575958e-05
-0.13920798422971725 0.047736614893785126 0.02620344646808617 -0.022307144183983895 0.006233689947494485 0.00027771213754774343
-0.16031551709720346 0.055853702335007714 0.02904635596256325 -0.021893025803083912 0.0013399089607192955 0.0011244115065450553
-0.18346713780833132 0.06305211538055368 0.030925710272368196 -0.022583965615327675 -0.00300104493082693 0.0017635756123734552
-0.1929879490120195 0.0799890301240681 0.0306382505228509 -0.030590477869218206 0.0062637275137922555 0.005734584891930225
-0.1892977389511745 -0.009436093059719996 0.02986575910442677 3.850518408425032e-05 0.0007068780691966451 0.03063128792835706
-0.19292522498367848 0.07993286943985937 0.030720425484064014 0.030666801795751597 -0.0047986365022636215 0.005741345567805942
-0.18334232926846075 0.06294103679077198 0.031087559577743864 0.022656765155539906 0.004613988185814489 0.0017729006680666328
-0.16013199594167316 0.05569186283012157 0.02928088833894889 0.02195462066606459 0.0004957063603243438 0.0011257366640409123
-0.13897602318536498 0.04753474195388916 0.02649497913576623 0.02233990461303009 -0.004148440204253734 0.0002491778406393712
-0.11642437714578362 0.039452056168703245 0.023118712806952404 0.02206993468795638 -0.008768003336772546 -0.00014650435939711487
-0.09348489176951236 0.03137934181509525 0.019387488970308415 0.02175940233568353 -0.012516182477299884 -0.0003423807398285727
-0.07002835767061776 0.023477210705483788 0.015502207703447263 0.022273453092665194 -0.01494964511129726 -0.00038650565618468427
-0.04551540523376639 0.01525499156348886 0.011911545289273885 0.0247524350791637 -0.01534168291155505 0.0002565265639883431
-0.021614264382315177 0.0025184135200350738 0.009789705033355791 0.023468282664479544 -0.011147827510550821 0.0027140748357278276
-0.010329092794163917 -0.008576566345558504 0.00994276183248183 0.014864240829603291 -0.007166615191368204 0.011759069446925037
-0.01390517842845665 -0.004157964365979089 0.012670362422994333 -0.005713965188497263 0.012507906363577306 0.006638935418660274
-0.029788069072319946 0.0038228042623906513 0.01316257382681108 -0.009275526470467988 0.018785167102625944 0.002164558135104176
-0.06603442154545552 0.017996544079299553 0.016642177680800438 -0.009109300536194957 0.02614280792868475 0.0011649369930501392
-0.10477561719900189 0.029452011437933953 0.021849234582144456 -0.008259833915175785 0.026358606153344427 0.0004825804259840892
-0.1404795115685963 0.03978166098607544 0.027394561981556962 -0.008075870613357034 0.02266275508592776 0.0002401146197780345
-0.17486659976770705 0.04998651629233534 0.03275424499351045 -0.008263845448520404 0.016316077206610557 7.786578513598106e-05
-0.20866798610784948 0.059981677622199754 0.0376323200890338 -0.008369113587975952 0.00820874101131267 -4.430902840003956e-05
-0.24084629348594244 0.07081528660625401 0.04166704157475657 -0.008748555804061354 -0.000757867193957419 -2.229830500563904e-05
-0.267392838927917 0.07614878896110358 0.04431568905052884 -0.00900674854231758 -0.009989157869447578 -0.00016300797915069906
-0.29530109230045765 0.10701627369074569 0.04339706677925185 -0.02183303042533226 -0.014902245627337642 -0.0035307204402200134
-0.31208519137211216 -0.003920862644848854 0.03623617794460011 1.8484282762067268e-05 0.0009094604237869501 0.03257043242267372
-0.2952396764299973 0.10695548865052468 0.04350374524276533 0.02187004632653189 0.01678392665985445 -0.0035180389247628377
-0.267272364929949 0.07602867005417453 0.04452766870876706 0.0090433287717314 0.012051719186818034 -0.00013982353829017965
-0.2406742788599451 0.0706406567510066 0.041979357450098724 0.008782132656163358 0.0030931207979353007 5.886601201546206e-06
-0.20846323008655354 0.059764737379558355 0.03803172203115477 0.008392917020655028 -0.005567563798071054 -2.24383532455223e-05
-0.1746732858197162 0.049752904674703995 0.033211833876954804 0.008263509978916138 -0.01345257838038612 7.030922941316539e-05
-0.14039458667471877 0.03958294332472213 0.027856157580830182 0.008021027860536665 -0.019875844202150796 0.00015648626571667588
-0.10494466461909463 0.02938294388301316 0.022225829490701426 0.008109879710290995 -0.024261138305171383 0.00025184820112251246
-0.06647515840841557 0.01815927076165817 0.016814736649219095 0.008890418749222775 -0.025518436911829662 0.0008134547223829383
-0.030177728880128884 0.004108609211525569 0.013058338443622888 0.009165783048511268 -0.019574505978693632 0.0020085465039988196
-0.014138855197030646 -0.00407194804283399 0.012364299066503473 0.005624413347879877 -0.013807042219609428 0.007555697689305964
0.04344569743971934 -0.1614576775427231 1.6967763999398144e-17 -0.09146804822212591 -0.03770921853751394 0.047518080798694226
0.052310092616922016 0.016783843817039817 -0.00605249955101747 -0.04063189150865142 -0.03925082784970684 0.0016159555799721888
0.07289172263634494 -0.022764366258072488 -0.015963066396327663 -0.019154974915085034 -0.038345333480144864 0.013329563788934387
0.10250638442513205 -0.026742058771165058 -0.0224426609016158 -0.01975302230387596 -0.03411897629287185 0.014463083359897069
0.13914558667531277 -0.03846520527205692 -0.02968362202707853 -0.018616683632934387 -0.030490008368542917 0.019864060354269946
0.17630328791847388 -0.04874669436536866 -0.03665212642721165 -0.01689129067215251 -0.023948148406454085 0.024494902536287014
0.21254618861559124 -0.05912796147704982 -0.04320735123948662 -0.014109472037236188 -0.01493673705211753 0.02925330094255446
0.2466259893251831 -0.06908763293772478 -0.048943601843015515 -0.01028501563422668 -0.003640640366072437 0.03392903756243178
0.2752211801997191 -0.0777365404888752 -0.053274568484949034 -0.005353066330541091 0.007370625225332848 0.03874909003639104
0.2934237857497993 -0.08276702511860604 -0.05566310933413785 -0.0009946288087513359 0.01049374882662338 0.043928056778940336
0.2993372087505168 -0.08305273189955485 -0.05632076660542068 -0.00012182459301025329 -0.00025225089535801785 0.047460542938037656
0.29364689083047985 -0.08283810453658476 -0.05571566928529273 0.0007446543868279507 -0.010993819970630246 0.04394031084126847
0.27571029161269933 -0.07789197940093946 -0.053387972919808166 0.005084124056629563 -0.007856060131374203 0.03877338026309186
0.24747260242036503 -0.0693554430212187 -0.04913625889285991 0.009984015798131912 0.003185650607838143 0.03396598700137568
0.2139026079050845 -0.05955272867024878 -0.04351043427533916 0.013764360168560683 0.014535565025345894 0.02929791537098579
0.17839379129859495 -0.04939632649213972 -0.03712252557702995 0.01648507033638027 0.023652309468533528 0.02456502448027989
0.14228712776625382 -0.03941776695496754 -0.030390749954976856 0.018151091602327144 0.03030078151823431 0.019870775163247416
0.10712466679920186 -0.028110404376507882 -0.023621751145611714 0.019093864523769127 0.034337241861439896 0.014833332744081072
0.08035315912116565 -0.024728200807069348 -0.017376124582308177 0.018356838480924616 0.03774492359473833 0.01210012228114693
0.0683694420197009 0.014055517818183942 -0.010373726996772675 0.04215858983227843 0.050470927702189056 0.008889503760934468
0.06611802280261038 -0.17038741464273244 0.013599522604134303 0.054980577823702574 0.0661094197834447 0.01843023037751045
0.026686364081942186 -0.14016601259763892 0.0112793931692957 -0.05870952579905092 -0.03115594841495468 0.027315338104808195
0.024100235757214903 0.011208295961180509 -0.003958281677490746 -0.04864594325173535 -0.026087819724108084 0.008193086201376069
0.03847868216319366 -0.013963109945930292 -0.010323386759994255 -0.040474631192624254 -0.02366995802481493 0.014362443875181648
0.06683084613583228 -0.021448555591623206 -0.015961082358052256 -0.040993630442641024 -0.02092828910557724 0.018624869733157294
0.09074663545111941 -0.030263726185446163 -0.021126611346643613 -0.04007151983093091 -0.01816154014571283 0.024709773355036387
0.11550743593372358 -0.038658878617810116 -0.026243949838685336 -0.03680629727954156 -0.014311572123927732 0.030777526544494314
0.1395673166799179 -0.046939448389915525 -0.030981469601651414 -0.03197999408552099 -0.008955060389730693 0.03688010390411409
0.162189186537293 -0.05502278480387839 -0.035110112321865415 -0.024940181895731158 -0.002343662547831836 0.04317848132671209
0.18126174108671833 -0.06202423348510252 -0.03824935541969282 -0.014732088598470923 0.004167845803951247 0.05034798078357323
0.19355025313728427 -0.06507761352929294 -0.04013471055117623 -0.003877466809857057 0.0062156904029567585 0.05934174241669137
0.1976170376157175 -0.06270882194894116 -0.04084476318095652 -0.00021720893714957754 -6.042480933593779e-05 0.06631736981004532
0.1937848199844713 -0.06515156807034239 -0.04017778919408047 0.003429216218151087 -0.006324508642974745 0.059343028307032766
0.18177013367395786 -0.06218465550900727 -0.03834396243431838 0.014241645161625988 -0.004240175910069661 0.05034891003406178
0.16305325690381595 -0.055295501933163155 -0.03527452180630369 0.024376879764007323 0.0023326403891921017 0.043175567918115214
0.14091796566493145 -0.047365121640229116 -0.03124829526289391 0.03130966544984779 0.009033101267645687 0.03686614223165252
0.11753455936889577 -0.039297744006727864 -0.026662468504052846 0.035990806333270176 0.014497039079141018 0.030746975398439572
0.09369982437740289 -0.03119004261898106 -0.0217928859084985 0.03907106414215325 0.018501360984281585 0.024630255574558266
0.07109766097817301 -0.022734618423880873 -0.01695142409022861 0.03964304105528045 0.021274666717878386 0.01860865465725177
0.04460197558466226 -0.015741881825315718 -0.012070851099194538 0.03839010204326648 0.024649247035121023 0.01380320757193137
0.029628644155407374 0.010499876944835368 -0.005556903630918918 0.04588331187592154 0.029832891253552863 0.011751747939811014
0.030544809107038114 -0.1470437481764291 0.014014064225592641 0.036738700206501516 0.03689000048730348 0.011094547846206714
0.013760602848698372 -0.09752883811848621 0.012333554134767596 -0.06892863622462464 -0.018971652915155398 0.00904681893009992
0.008080803163548192 0.002338872933424561 0.0005910382650017538 -0.0790169774315721 -0.014847301751830168 0.012733115139166577
0.011956846516376816 -0.00043601379513074517 -0.00445722282902926 -0.0689213172596188 -0.011700155851512739 0.01639778244947513
0.029230817342001465 -0.009673496515094776 -0.007735466988086279 -0.07009574049358176 -0.009488383346953245 0.023754332535043807
0.04333074017671832 -0.014346090695842436 -0.010577003011974515 -0.06771508551526997 -0.007760149770959364 0.0313497969207299
0.05606063003376167 -0.018731181284445862 -0.013269644874107069 -0.06250427270678771 -0.005872679755061417 0.039328504700085504
0.06860173089590009 -0.02297755251368413 -0.015759749239040038 -0.054756041984960875 -0.003340032393138841 0.04738002060756145
0.08071224942251332 -0.02743101886327053 -0.01791092079034747 -0.04349582860250502 3.2481607771043755e-05 0.055872996207939965
0.09105358565850724 -0.03141792829696717 -0.01959994507979253 -0.026121926747939034 0.0043194677395131924 0.06587376711013421
0.09636362584345735 -0.030014536280569135 -0.020845683825911118 -0.005637896849450223 0.006602415551004409 0.07952809495881885
0.09730715947452517 -0.019879945106860596 -0.021653845968212918 -0.0003471024235593783 9.286929416568517e-05 0.09238414336270208
0.0966015863973616 -0.030093086307525812 -0.020878139560168006 0.0049206630625130785 -0.0063983396022438315 0.07952092940636632
0.09156446809752448 -0.031586082283467654 -0.01967253483938847 0.025334246928750113 -0.004061297588022561 0.06585728985078383
0.08156662918522531 -0.027710652377989142 -0.018040358509813743 0.04258575826006827 0.0003124254487702633 0.055842031617584886
0.06990780908139962 -0.023401436738485052 -0.015974202878718244 0.053663481593039776 0.0037957355908479137 0.04732618719192602
0.05796626470086645 -0.019347097604718512 -0.01361506767385417 0.061158437706387 0.0064483830975134715 0.039233064457341364
0.046019978465424785 -0.015209340672516978 -0.011121068262798735 0.06602765938779487 0.008426475105459706 0.031209913309008176
0.03288869307633002 -0.010824748069615508 -0.008594703946071066 0.06784140253703892 0.010175198420282744 0.023475837230815387
0.015759767607341785 -0.0014642740775551474 -0.005774974010454059 0.06564539371030273 0.012652818619415482 0.016459343455187427
0.01062144954239046 0.0037090838858739655 -0.0005610093902552276 0.07465004687879453 0.016258310893119136 0.012928638518594134
0.015420722618776752 -0.10172748267305336 0.012911746031786691 0.06515317023039834 0.02081775532060649 0.008646484254223371
0.003697877733372042 -0.05848249661079003 0.011014767395118885 -0.06374162609759201 -0.008558299174353473 0.0031903072490188497
-0.004216759516095367 -0.001239844661430466 0.0042840114876184845 -0.0835626500125309 -0.004848913624034381 0.011057962699750193
-0.010589551308986547 0.007394259012617308 0.0015864467879620485 -0.08389793976709391 -0.0007648398103906331 0.016954443217513725
-0.006923610897167049 0.0028479984959239946 0.0009043091649892879 -0.08009479964567781 0.0012713178810748495 0.024978518113457086
-0.004015421035961362 0.0012096577660884885 0.0006529961774780021 -0.07680205765769582 0.0018735762958515167 0.03327528529873328
-0.002709618764432482 0.0008502676933619473 0.0005060391939044352 -0.07084959665998537 0.002037814749250001 0.04173390634387038
-0.001499061106365137 0.0005031492405430433 0.0004076669138667609 -0.06219878671083705 0.002186826019410661 0.050379735423173054
0.0005026339844517781 -0.00035548108892466336 0.00034345149376995856 -0.05003688627484136 0.0027555239054254635 0.0593853842224155
0.0027459724431556586 -0.0020180068375015145 0.00018586761826389943 -0.030138792585978274 0.005334441687125839 0.06971441785394539
0.0006302233330993177 0.003669471524395988 -0.0004538029776677097 -0.0018671247957695522 0.00867169997111878 0.0845369355406652
-0.002358459303961165 0.02829009664529522 -0.0016672524516614085 -0.0003897163299202014 0.00023063044841795262 0.10363819029307161
0.0008681333285981366 0.003587826404699747 -0.00047502747730382737 0.0010611304055918663 -0.008186202130208233 0.08452715432631792
0.003252038917684368 -0.002191048891970096 0.00013686294136237278 0.029251552768384016 -0.004778251943033915 0.06969241196760576
0.0013353826652318232 -0.000638307772430405 0.0002526965952801332 0.0490086281759287 -0.002089624396576925 0.059345583589565466
-0.0002568128037596317 8.504661236691328e-05 0.000251931698961807 0.06095930994831786 -0.0013891976751666637 0.05031124297145758
-0.0009581226137738595 0.0002633872310817643 0.0002500969771670836 0.06931092038362159 -0.0011207288691460289 0.04162000446660956
-0.0016510102177617724 0.00041562626448396006 0.00024374012991433937 0.07484289095206123 -0.0009097550481020168 0.03308678822701273
-0.004095690927856768 0.001885137583371872 0.000259573437837895 0.07753360821694064 -0.00037432797057100793 0.02471721771290081
-0.008196323289635269 0.007120992484703711 0.0006688594577256918 0.08066622357662545 0.0015058542363285896 0.016810787639270262
-0.002845410802902189 -7.111666163030954e-05 0.003447339847356193 0.08165933337357749 0.005470757619864741 0.011367707567093436
0.0046136972561163486 -0.061402660170373775 0.011067539539002608 0.0631329486696435 0.009331252481976958 0.005000358815706615
-0.005188539564873385 -0.028020298449003448 0.009630019695263873 -0.04844397585864108 0.00012564088415752535 0.002519064329375033
-0.015383053704737472 2.531702030268842e-05 0.00721387148784999 -0.07027201072367419 0.00454283933169273 0.008580047453324177
-0.031450218603124885 0.01312942212888121 0.007428996366086336 -0.07719850058291487 0.010306014510359628 0.015674314589025927
-0.041769061353051855 0.0144928683644513 0.009480535927282468 -0.07194913282883983 0.012224927199995673 0.02353228795340574
-0.05129308679212652 0.01695917161761209 0.011881259508981593 -0.06777856462220624 0.011639973330153517 0.031422899013257226
-0.06153092693203503 0.02046011042433303 0.014277237736090027 -0.062463823254711455 0.009990994635138044 0.039335350101175705
-0.07164815356534704 0.02388404579599639 0.016570122353665024 -0.0548485023832092 0.007863041353201025 0.04746535074260244
-0.08009164802022403 0.02714703833693372 0.018619147377545137 -0.04401428469409747 0.005333903289112398 0.05562990615997694
-0.08528787131841854 0.027440069730646725 0.02003089938492705 -0.02797616819135828 0.004747832011807238 0.06434351882834315
-0.09478384232034484 0.033462014181961534 0.01983888233279495 0.007191529212388385 0.009704861427943707 0.07640661223421834
-0.10251179716557109 0.08455366526706332 0.01739032027880265 -0.0003507846650895978 0.0003714469286790151 0.10131985369060933
-0.09454496594506641 0.033377115778800405 0.01982886024059929 -0.007917388809361867 -0.008931186562468949 0.07640011062032022
-0.08478468537994782 0.027261787915992024 0.02000554596651061 0.027176159549674877 -0.0038850446041653513 0.06432848699004713
-0.07927784271373865 0.026860237976027768 0.018567322070558785 0.043086090201610756 -0.0043352847174729665 0.05560153051435334
-0.07046813088616657 0.0234708287584331 0.016474052755495246 0.05372900711335841 -0.00670819137778402 0.047414439714907705
-0.05993792113547057 0.019904372758152367 0.01411173787271701 0.061068938342438456 -0.008712614653014676 0.03924583888797557
-0.049306872755864345 0.016250413551382084 0.011611840196179671 0.065991810107523 -0.010358959042454187 0.03127336254224692
-0.03968081798753186 0.013780605455410143 0.009063749492044306 0.0696653057236288 -0.011167632075386676 0.02332951593165452
-0.029921581268140537 0.013064895739337714 0.006855511530082029 0.07498502291826756 -0.009714740605404852 0.015537905389043474
-0.014610836388943834 0.000703950597171473 0.006671941961218709 0.06974775688475306 -0.004301697376573769 0.008960451639031778
-0.0046884979680009336 -0.02970038725802502 0.00954284775055016 0.04879029441960653 0.0001360481793580312 0.0042118476485309645
-0.012195718512452061 -0.009185360170211102 0.009241847523223488 -0.02682206501102403 0.007756914102688799 0.003691476901320573
-0.02535163050345164 0.0034315081197147292 0.009764595125155623 -0.040486964293281594 0.014147355214167183 0.006159372069111253
-0.0515631154814519 0.01823984039232516 0.012808732998179733 -0.04637817959760165 0.02256128965559583 0.012315480096144903
-0.07619916791642042 0.02584401298737749 0.017523677020050914 -0.04312729601361992 0.02436837566369543 0.018583084589562815
-0.09893943454237801 0.03302388113548595 0.0224354875208351 -0.04014687247415644 0.022365127112460827 0.02468915331024951
-0.12107624587915392 0.04047509690934478 0.027227333212828022 -0.03680672599783771 0.018620755373775038 0.03077151980347045
-0.14248327322464605 0.04784486568441941 0.03177630102739272 -0.0320762876421678 0.01373493817683891 0.03692292014760192
-0.16282610188506022 0.054644787207738535 0.0358708691736655 -0.02570075908967138 0.008133160674149882 0.04316679024267262
-0.1759077028657904 0.06131188971041118 0.03888706706846516 -0.01491254809477769 8.470846310788729e-05 0.048378368563462726
-0.19080578914164908 0.05603301971874469 0.038929623400105536 0.0075803896312069095 0.0037893901636601958 0.055279753535137484
-0.20247504963003654 0.14926993102022315 0.033254624098226826 -0.00022193801587720198 0.0005341965339824 0.07346593057559084
-0.1905600261176696 0.05594262243079134 0.038930157623583206 -0.008039513235708794 -0.0026818882459827744 0.05528180696385854
-0.17539541693049912 0.06112399236830332 0.038883877632005154 0.014407075496228118 0.0011356519410687777 0.04838140336825447
-0.16201290098691135 0.05434772260083017 0.035855157258818424 0.02511591630233203 -0.006742180290143679 0.04316811139003468
-0.14133959114761818 0.047429017873252766 0.03173451683363462 0.03137437190905718 -0.012151537439469031 0.03691688258753857
-0.1196180537058518 0.03994353746770126 0.027142119463276104 0.035939352153992944 -0.016895331394202698 0.03074772217590994
-0.09731132752938518 0.03242254854180176 0.022288912078467407 0.03904424826188075 -0.0206799091491165 0.02463468738671945
-0.07476141211009152 0.025361932413670643 0.01730057039766293 0.04179195330289275 -0.0230891519060571 0.018499487630502714
-0.0507366091011232 0.018255777988890828 0.012505948414252871 0.04530139952984668 -0.022073644259476208 0.012279719565107894
-0.02507279549602587 0.0037981163364995633 0.009466406805314423 0.04047656135160739 -0.014241915250724204 0.006429261553226036
-0.012069488066261841 -0.009846640741350138 0.009139225179173644 0.027175653842859145 -0.007943544415587358 0.0047890089344835
-0.01381955368706952 -0.003111788079577912 0.010549936016409283 -0.013225055004545128 0.015529205741119038 0.004455331894824011
-0.031370494358875976 0.005287695114435419 0.01220851476037874 -0.018964868800885604 0.02512219820920855 0.00515144186388734
-0.07092319794486696 0.02071952850859588 0.01720082374153776 -0.021321949078610767 0.03727682978747406 0.010227543478452375
-0.11165343148595688 0.031590226855808604 0.02400716709984419 -0.02050098264126511 0.03891856538379396 0.01522139524410317
-0.14767285886816484 0.04117866886077421 0.030891498422904857 -0.019063400132842596 0.0350805669303161 0.019956573317321882
-0.18196938190623563 0.0506218080553876 0.03759655573401367 -0.01710308416311098 0.028639485586855487 0.02464194114708308
-0.21535764464135376 0.06013210798251918 0.04399089053439559 -0.014532733091663717 0.020219031411344256 0.02939418839667248
-0.2470377431918413 0.06818863662026939 0.049726268121746034 -0.010652569536709806 0.010220760275619266 0.03374040327643601
-0.27713110645878763 0.0802315563971305 0.05430501843515495 -0.005212918496944809 -0.004139038642928746 0.03888702219047094
-0.29109458211209804 0.06512182474351691 0.054560866329926676 0.014487651733117035 -0.030054151292175323 0.03492323442296817
-0.2901970917355931 0.1834077030123041 0.041144880205616546 -0.00014340703900208446 0.000742796254343505 0.07202171295961941
-0.29082996169153386 0.06502780712433305 0.05457081463433888 -0.014783909930111402 0.03159046189603367 0.034927425293166385
-0.2765855544739193 0.08003714407054272 0.05432116930122664 0.004888553033091811 0.005821685032054803 0.038894209053422044
-0.246187960172763 0.06788409761561474 0.049740798105160855 0.010282037973449107 -0.008317018038883012 0.03374786902161884
-0.21419820266015246 0.05971183032113387 0.04399158920683052 0.014099795060176947 -0.018065993593042094 0.029397009326448835
-0.18057561201995656 0.050100137569382405 0.037568092259808936 0.016595762697537486 -0.02630333014947487 0.024632818085238335
-0.14632176311562875 0.040631885571846736 0.03082045888460984 0.01847622780058571 -0.032813146841779474 0.01993055517155996
-0.11086247274937006 0.031223592751241962 0.02388688946827876 0.019876675303718633 -0.037262402836902866 0.015188919869554783
-0.0709985752605835 0.020796734780061856 0.017027992305376514 0.0208728257871834 -0.03687208191725093 0.010248477850169324
-0.031803175969559665 0.005572166455134598 0.012040658555643855 0.018991854773117267 -0.025724531920746717 0.00533687064975652
-0.014178087311211646 -0.0033429436714169283 0.01052337708406207 0.013332286746337435 -0.01637726281266886 0.00518754493467842
SCALARS Stress_vm float 1
LOOKUP_TABLE default
31681.935511071246
14531.319872629465
15715.85792381503
21751.483182218068
29020.73176033335
36356.16631368715
43582.12746472811
50446.21397176484
56270.68745179303
59891.76053065502
60840.569587441685
59938.08434811915
56369.236962242096
50613.61999991538
43847.81010629776
36764.45023961752
29628.301838360418
22642.432675339827
17030.002130873927
17108.636231222394
34235.03914897412
26896.652509498366
8460.792026534304
11192.820012321969
16032.638131045664
20894.6195650049
25818.037742346936
30711.952042043453
35424.83966557311
39499.57156467536
42020.174600166065
42491.96389350795
42062.52360742659
39589.688347407384
35576.80586407309
30948.299256945356
26169.071121921894
21394.725241570042
16705.757085300767
11966.551579110801
8944.551472307054
27977.868548048937
19828.9570431328
10470.009322764943
10319.357471228861
12165.59449532004
14132.954124770671
16242.909022024276
18498.18803217215
20904.74459409267
23188.2401195255
24359.132658777973
23937.694684229627
24387.63184925583
23245.025951929383
20997.06279204515
18635.59925254108
16430.931018043877
14358.327657638696
12341.681083206937
10238.209641602332
9808.524582311024
20347.953960133043
13532.876420520979
11507.906181821398
12026.528369954778
11357.108177813301
11052.58329038621
10800.113754486858
10952.052734479927
11872.767271885157
13826.130808007858
15370.573907154389
14548.248130067263
15349.804363374396
13795.58847241882
11808.836093467695
10827.631077258962
10588.92521885361
10734.797862233778
10901.33838135254
11449.332956313927
11154.000030197634
13865.925647900594
8415.355902121471
10365.347218080758
13104.406192197566
13969.145036348866
15338.457716067296
17101.15114292625
18981.106703277517
20674.104662830065
22298.243478665678
25098.142004828806
28517.93543528342
25044.953683778604
22189.02781420795
20492.384593789153
18716.11338016141
16737.042303335944
14863.554309114692
13418.01587603533
12662.293930567215
10225.888984044885
8592.125786018263
5121.092489403255
8172.725611093248
13694.10818432401
18171.712270818538
22490.15074434773
26912.59514955886
31310.68777534749
35475.56479938391
38689.529477459866
41784.95907620246
49181.12193494625
41735.91739208059
38586.02553130712
35303.27756218953
31062.28225101082
26585.042994307416
22105.820398146225
17812.773618126157
13495.518412771484
8140.387135963599
5174.046158362308
4420.721366944835
7875.108357185832
16058.10427770646
23854.940277977086
30790.239386718113
37540.64480305757
44202.1681138804
50516.40581906501
56608.935282033584
59982.46066237543
65477.9874689924
59948.66870737169
56506.08242682511
50344.69267848683
43957.361057627815
37231.72867929487
30468.05209508833
23637.626335528585
16059.71531109753
7978.229772219555
4525.75828729686
20655.352062133155
12200.113622547966
15603.255299842958
21730.483572408586
28588.324053853943
35495.804401730195
42279.20269178368
48873.624832508016
55269.628053705805
60983.87411312307
63783.908005571204
61001.46757903743
55306.1029777731
48933.919035657804
42374.841714875234
35649.14955250174
28842.297996442736
22153.517249550758
16418.9923432831
13217.730420007103
21655.996809121065
17497.053469318875
6643.270587684496
10558.429252328559
15449.526644542168
20217.336207130404
24989.297110472846
29682.000182932163
34203.88200471909
38567.54822074761
42706.11905540736
45180.2374589422
42720.678977242394
38598.7774979036
34256.63957436697
29765.75643127703
25121.706067981235
20429.016274324662
15799.265132409755
11077.884482368574
7026.040858825714
17819.766462999374
13361.69289484714
6170.647900812303
7182.556152412731
9577.361667958006
11995.140583989954
14398.341241059907
16754.92964560703
18937.6682819898
21190.060336195136
24452.25309891804
27789.228426878097
24462.717073379285
21214.473395950256
18978.826602955767
16816.59927382707
14488.137099854835
12126.915702531724
9754.716144447742
7322.71296145661
5839.152380261542
13378.129835845395
9436.289512517633
6857.885647469844
6639.807015558413
6170.241938529693
6325.93888605574
6786.2617734120195
7498.828408327842
8278.174472687066
9064.027149061227
11620.05262481584
18237.9306953845
11612.753534412492
9052.027868207178
8270.775973891547
7488.916919055346
6761.264614963276
6261.476846973508
6031.605489660828
6359.207428976401
6543.035628126328
9477.433476911654
6137.321198564047
6573.286822385522
8657.407482173883
10161.843063630551
12212.188023378832
14559.294652466331
16953.51539973885
19445.914520410493
21687.63831188737
21841.562271485924
23709.344193882174
21824.02162752029
21666.513496880478
19415.256130381717
16904.38335063446
14483.04600757669
12094.106358878074
9989.746548954012
8465.116408894524
6413.414935393435
6193.515487972404
4249.690860039245
6134.164888233083
11078.123402886335
15807.67593813243
20481.785139694028
25203.16467002304
29890.48689396525
34418.816205989766
38879.38532189849
41190.14775846653
38856.56985830916
41176.543284605796
38863.356389384266
34390.33949922585
29847.189301394745
25143.31866558518
20408.07619167344
15737.513881018756
11045.10315453529
6105.543085535867
4272.842503711705
4350.45702989467
7061.473442980626
14371.102360421612
21898.969380108447
28901.763127371873
35744.273356518475
42505.293999885005
49031.745747743604
54368.773599521606
59695.23739890647
59692.26745755963
59695.517868571085
54361.43495190776
49011.65471188908
42472.515936546275
35700.909797581284
28861.775094669247
21897.750489180424
14448.012956723564
7162.561023453223
4438.10015979346
19181.384126447094
12110.817333487765
15040.92943182481
20910.74706707401
27432.691196615477
33900.86295889549
40333.32910188631
47016.823783907785
54539.91109124804
62527.385377422725
66855.03451367005
62511.619138989816
54505.62407000389
46959.06828359018
40244.13463949897
33768.1599985775
27238.460272389562
20636.041622566503
14558.1721048794
11189.67642600003
17618.0795469765
14997.476753815763
6374.9085377124475
10463.570871659891
15152.411261661284
19649.837608196496
24117.76978652684
28577.848510878455
33172.376623285745
38350.87950830715
44222.41020510104
48056.77076984792
44203.94122728926
38310.138478393295
33105.21069591061
28479.127062980468
23980.207659349126
19465.23975185534
14908.404117170965
10162.038336517367
6371.114782778082
14237.209992961807
10797.427986800045
5508.112810736343
7233.97512359762
9728.941845809863
11996.242358888607
14212.721384117447
16406.935245279048
18544.486611370805
21331.64969824521
26241.34267051684
31313.273618349303
26228.768166780956
21297.538269541055
18486.404500833472
16326.348208784044
14111.667026177814
11880.276489797883
9626.313368930754
7258.76775900378
5960.582179397887
10606.445713392906
7794.8770363359845
6374.338952012571
6421.534118049438
6319.634444138532
6528.923985603587
6896.047051351408
7443.55643220511
8096.632882526977
9212.568786977916
11992.533963755213
23867.400857642155
11992.86535782059
9229.765385443388
8121.7987261540775
7482.122855913143
6957.920995850006
6632.238595659982
6493.041314244296
6717.217620614717
6598.04899507534
7615.207234865923
5374.2115938175475
6323.452339816118
8258.392643798757
9624.826798907878
11591.804607030384
13889.558173467396
16331.993998855745
19137.779730071696
22051.981760664934
21998.36562953742
26682.704415980912
22036.480739353912
22120.964299545158
19243.81018333325
16476.922996437566
14072.565689353578
11810.817596950401
9862.980127508798
8442.70250867171
6357.810130116314
5175.246140168186
4110.791226441412
5959.313363586815
10512.380721995687
14814.57632661966
19210.672663150985
23774.106664370902
28440.60674442505
33203.80911276913
38471.22648233546
41835.61992582821
41035.040526366
41874.45328395894
38550.61829923211
33323.91178279104
28600.81364156296
23965.91314446086
19413.557288115193
14983.08997576208
10584.858232844386
5924.090985332596
3911.914532377285
4304.991936834729
6747.165876177929
13515.733625197121
20443.929422049707
27013.895368215555
33572.89377339318
40198.95062007561
46860.14128703137
52623.41630227435
60816.9598120694
64399.900084490444
60864.361801428495
52720.58216853167
47005.3972544547
40389.81762597892
33795.19660582404
27232.656312205883
20595.323338787213
13552.777861171822
6725.318032784378
4173.206674865965
19203.702547383607
12102.22940988331
14790.218223352345
20488.988058248797
26900.415471653934
33269.08514223638
39668.26429680179
46504.353141923406
54465.08318258253
63077.24575279189
67766.50894495625
63047.767497496076
54401.320950203306
46397.04725492728
39500.74158772067
33012.32955614384
26507.950440465404
19893.01530958095
13824.660181967085
10507.828686962672
16749.878432455345
14781.294422881549
6301.2348104215
10356.79389011629
14940.039517429972
19364.24689486477
23778.0885220984
28239.97685224456
32968.96851399024
38467.80420168057
44759.17783775917
48862.08347789286
44727.70594397498
38398.27795768064
32853.1208328723
28065.8448616588
23525.993168392062
19005.467831351943
14435.266496693017
9735.35815527053
6015.172393125674
13530.37851942064
10490.61594584656
5179.387963078767
7149.7753470413145
9659.613557145034
11911.688203564816
14109.68519279494
16322.723521314269
18565.159989912117
21577.63720806201
26753.03694004805
32044.722535206947
26732.379763365345
21522.058773832458
18469.68720044438
16187.604506870353
13933.734626934904
11695.529869062313
9443.649504647978
7101.698462173522
5772.976083381479
9931.238894520742
7426.978922278546
6069.8038040467645
6266.623528505533
6318.56465675257
6604.041855740394
7013.690281279249
7616.258212733544
8398.562996420664
9711.6269567855
11680.859764611329
25087.76274079835
11692.026691274465
9744.894361357383
8443.823640028178
7683.402618441517
7123.010878764969
6786.476248465696
6617.354783277271
6749.373269335868
6438.220751044383
6949.421316820912
5022.859052522854
6054.652467802224
7972.582863172429
9349.515499532017
11320.10844378427
13627.13619004373
16121.27141932805
19067.555828366185
22235.096538756094
22375.340694175597
26950.090388340024
22431.57733592109
22338.43948094052
19227.4109498793
16346.011520772385
13922.65670821259
11691.261494766466
9773.104694817519
8316.155300595143
6154.183692361313
4573.485190268891
3852.6603489178797
5635.299134110626
10115.136616426324
14366.489540462391
18711.36552385033
23247.16242772203
27951.51457962383
32877.46611552298
38497.497207016095
42209.87012328905
41049.46630333767
42267.02162042443
38613.15312545344
33054.79080308592
28193.63088754275
23546.007028293625
19039.925104938266
14653.325907019607
10249.144984153658
5594.863775489516
3476.154341588825
3906.286030332927
6226.581051448924
12941.19205079593
19794.408098284697
26263.788449172287
32746.65725135037
39374.68228207503
46220.868510804285
52407.297239021456
61257.212892330055
64692.98123661917
61321.620629465084
52542.10756567381
46427.507256671044
39653.061801948126
33079.4915431593
26599.814258154
20030.567609088375
12982.308165285387
6137.258193989175
3601.438033286616
19181.38412649758
12110.817333531479
15040.92943185732
20910.74706709124
27432.69119662976
33900.86295890062
40333.32910188907
47016.82378391487
54539.91109125417
62527.38537746456
66855.03451370019
62511.61913904012
54505.62407006918
46959.06828360096
40244.13463947617
33768.15999849125
27238.46027235286
20636.041622527893
14558.172104848214
11189.67642596895
17618.079546932153
14997.476753835932
6374.908537729827
10463.570871678205
15152.41126167764
19649.837608207796
24117.769786526547
28577.848510884483
33172.37662329528
38350.87950831242
44222.41020512729
48056.77076986592
44203.941227302465
38310.138478458
33105.21069592583
28479.127062991287
23980.207659303607
19465.239751826706
14908.404117143247
10162.038336494488
6371.1147827582845
14237.209992921893
10797.427986807936
5508.112810732425
7233.975123601258
9728.94184581875
11996.24235888553
14212.721384117931
16406.935245294433
18544.486611376986
21331.649698276247
26241.34267052176
31313.27361834508
26228.768166773556
21297.538269597524
18486.40450084398
16326.348208835076
14111.66702616853
11880.276489774998
9626.313368909376
7258.767758984339
5960.582179376844
10606.445713358122
7794.87703634232
6374.3389520131095
6421.534118046304
6319.634444127219
6528.923985593378
6896.047051370574
7443.556432211553
8096.632882513851
9212.568787015065
11992.53396374897
23867.40085760538
11992.865357838664
9229.765385481805
8121.798726149061
7482.122855960576
6957.920995853929
6632.2385956525895
6493.04131422273
6717.217620594168
6598.04899505727
7615.207234836701
5374.211593820999
6323.452339819861
8258.392643800014
9624.826798896187
11591.804607031578
13889.558173456255
16331.993998859756
19137.77973005876
22051.981760675222
21998.36562952
26682.70441596182
22036.480739356302
22120.964299555395
19243.810183314272
16476.922996449262
14072.565689297475
11810.817596939289
9862.980127489207
8442.702508649756
6357.810130100022
5175.24614014199
4110.791226445595
5959.313363593639
10512.380721997837
14814.576326617618
19210.672663145906
23774.106664355175
28440.606744434823
33203.8091127543
38471.22648235493
41835.619925810955
41035.04052635412
41874.453283962
38550.61829923305
33323.911782756055
28600.813641563593
23965.913144392336
19413.557288083764
14983.089975733918
10584.858232821207
5924.090985319929
3911.9145323606504
4304.991936840569
6747.165876185751
13515.733625198678
20443.929422060963
27013.895368201982
33572.89377337125
40198.95062008746
46860.14128701415
52623.41630229339
60816.9598120539
64399.90008448108
60864.36180143435
52720.58216854312
47005.39725441797
40389.81762597274
33795.19660574644
27232.656312150197
20595.323338750004
13552.777861148565
6725.318032766945
4173.206674846182
20655.352062186183
12200.1136226325
15603.25529990172
21730.48357245023
28588.32405389519
35495.80440176748
42279.20269180935
48873.62483245398
55269.628053699154
60983.87411317874
63783.908005617755
61001.46757905009
55306.102977769784
48933.91903562372
42374.84171482528
35649.14955244326
28842.29799638732
22153.517249461725
16418.99234322568
13217.73041994703
21655.99680900856
17497.05346933414
6643.270587716014
10558.429252368793
15449.526644578638
20217.336207168264
24989.297110501237
29682.000182955933
34203.88200469363
38567.54822076262
42706.119055457864
45180.23745897554
42720.67897727526
38598.77749789933
34256.63957436392
29765.75643123969
25121.706067941977
20429.016274289155
15799.265132340279
11077.884482339316
7026.040858802369
17819.766462906733
13361.692894854454
6170.647900795654
7182.556152422445
9577.361667985115
11995.140584025428
14398.341241080856
16754.929645625863
18937.668281995437
21190.060336224935
24452.253098993748
27789.228426918937
24462.71707343143
21214.47339593437
18978.826602989448
16816.599273814205
14488.137099841246
12126.915702502372
9754.71614440838
7322.7129614459245
5839.152380244353
13378.129835768774
9436.289512526664
6857.8856474566055
6639.807015538382
6170.241938532565
6325.938886065928
6786.261773397004
7498.828408331072
8278.174472690578
9064.027149037167
11620.052624877968
18237.93069546835
11612.753534425203
9052.027868204375
8270.775973915566
7488.916919055661
6761.264614963486
6261.476846970271
6031.605489641317
6359.207428960225
6543.035628101929
9477.433476856355
6137.321198569472
6573.286822378285
8657.407482164923
10161.843063613447
12212.188023369876
14559.29465243969
16953.51539972622
19445.914520340582
21687.638311851537
21841.562271512175
23709.34419390745
21824.021627547594
21666.513496893
19415.256130388578
16904.38335060856
14483.04600757335
12094.106358847235
9989.746548902416
8465.116408868069
6413.414935370597
6193.515487927969
4249.690860047219
6134.164888234791
11078.123402885292
15807.67593812154
20481.785139691503
25203.164670025486
29890.486893943656
34418.81620591431
38879.385321859496
41190.14775847663
38856.56985832514
41176.54328460458
38863.35638938037
34390.33949921766
29847.18930135168
25143.31866555279
20408.076191603588
15737.513880959435
11045.103154495428
6105.543085511927
4272.842503686098
4350.457029903941
7061.473442990004
14371.102360435792
21898.96938010193
28901.76312737339
35744.27335654965
42505.293999855145
49031.745747669214
54368.77359947599
59695.23739891178
59692.26745762119
59695.51786855319
54361.43495187015
49011.65471186752
42472.51593648537
35700.9097975075
28861.77509456969
21897.750489105645
14448.01295666485
7162.561023419718
4438.100159766242
31681.935511115073
14531.319872740356
15715.8579238948
21751.483182297245
29020.73176037928
36356.16631371753
43582.12746473752
50446.2139717651
56270.68745178703
59891.760530704174
60840.56958749377
59938.08434820266
56369.23696224417
50613.61999992429
43847.810106267076
36764.45023953572
29628.301838274598
22642.432675254575
17030.002130792967
17108.636231126122
34235.03914876023
26896.65250952271
8460.792026557581
11192.820012363783
16032.63813109665
20894.619565036264
25818.037742372464
30711.95204206603
35424.83966557801
39499.57156466753
42020.17460022264
42491.96389359211
42062.5236074941
39589.68834740839
35576.80586407984
30948.29925692791
26169.071121860194
21394.725241515116
16705.75708524873
11966.551579056091
8944.551472256522
27977.868547871723
19828.957043161565
10470.00932274432
10319.35747123309
12165.594495320802
14132.95412477876
16242.90902203422
18498.18803218477
20904.744594078962
23188.240119519458
24359.132658808066
23937.69468436417
24387.63184930075
23245.025951954616
20997.062792047855
18635.599252529923
16430.93101801612
14358.327657619027
12341.681083173935
10238.20964155138
9808.524582254182
20347.953960007268
13532.876420545928
11507.906181821192
12026.528369940386
11357.10817777552
11052.58329034759
10800.113754463662
10952.052734443869
11872.767271846109
13826.130807985612
15370.573907140628
14548.248130126372
15349.804363366296
13795.588472415857
11808.83609349421
10827.631077270427
10588.925218871853
10734.797862230324
10901.338381322723
11449.33295625104
11154.00003013519
13865.925647820128
8415.355902140012
10365.347218090274
13104.406192187776
13969.14503632433
15338.457716035227
17101.15114288628
18981.106703238802
20674.104662801026
22298.243478646225
25098.142004769812
28517.935435219813
25044.953683741034
22189.027814192483
20492.384593826606
18716.113380172486
16737.04230332349
14863.55430907915
13418.015875991932
12662.293930500184
10225.888983989324
8592.125785973827
5121.092489417516
8172.725611102205
13694.10818432872
18171.71227082076
22490.150744332383
26912.59514951623
31310.687775318005
35475.56479934987
38689.529477437995
41784.95907615979
49181.12193484949
41735.917392070776
38586.02553130417
35303.2775621879
31062.282250996814
26585.04299426044
22105.820398087035
17812.773618054533
13495.518412708687
8140.387135921791
5174.046158334788
4420.72136696606
7875.10835720122
16058.104277721743
23854.940277994854
30790.23938671616
37540.64480302599
44202.168113841035
50516.405819001455
56608.93528197958
59982.46066234184
65477.98746892734
59948.66870738286
56506.08242682614
50344.69267845407
43957.36105758135
37231.72867920912
30468.05209499888
23637.62633542236
16059.715311023374
7978.229772180797
4525.7582872749
SCALARS Statev float 1
LOOKUP_TABLE default
0.0
0.0
0.0
0.0
0.0
0.0
0.0
0.0
0.0
0.0
0.0
0.0
0.0
0.0
0.0
0.0
0.0
0.0
0.0
0.0
0.0
0.0
0.0
0.0
0.0
0.0
0.0
0.0
0.0
0.0
0.0
0.0
0.0
0.0
0.0
0.0
0.0
0.0
0.0
0.0
0.0
0.0
0.0
0.0
0.0
0.0
0.0
0.0
0.0
0.0
0.0
0.0
0.0
0.0
0.0
0.0
0.0
0.0
0.0
0.0
0.0
0.0
0.0
0.0
0.0
0.0
0.0
0.0
0.0
0.0
0.0
0.0
0.0
0.0
0.0
0.0
0.0
0.0
0.0
0.0
0.0
0.0
0.0
0.0
0.0
0.0
0.0
0.0
0.0
0.0
0.0
0.0
0.0
0.0
0.0
0.0
0.0
0.0
0.0
0.0
0.0
0.0
0.0
0.0
0.0
0.0
0.0
0.0
0.0
0.0
0.0
0.0
0.0
0.0
0.0
0.0
0.0
0.0
0.0
0.0
0.0
0.0
0.0
0.0
0.0
0.0
0.0
0.0
0.0
0.0
0.0
0.0
0.0
0.0
0.0
0.0
0.0
0.0
0.0
0.0
0.0
0.0
0.0
0.0
0.0
0.0
0.0
0.0
0.0
0.0
0.0
0.0
0.0
0.0
0.0
0.0
0.0
0.0
0.0
0.0
0.0
0.0
0.0
0.0
0.0
0.0
0.0
0.0
0.0
0.0
0.0
0.0
0.0
0.0
0.0
0.0
0.0
0.0
0.0
0.0
0.0
0.0
0.0
0.0
0.0
0.0
0.0
0.0
0.0
0.0
0.0
0.0
0.0
0.0
0.0
0.0
0.0
0.0
0.0
0.0
0.0
0.0
0.0
0.0
0.0
0.0
0.0
0.0
0.0
0.0
0.0
0.0
0.0
0.0
0.0
0.0
0.0
0.0
0.0
0.0
0.0
0.0
0.0
0.0
0.0
0.0
0.0
0.0
0.0
0.0
0.0
0.0
0.0
0.0
0.0
0.0
0.0
0.0
0.0
0.0
0.0
0.0
0.0
0.0
0.0
0.0
0.0
0.0
0.0
0.0
0.0
0.0
0.0
0.0
0.0
0.0
0.0
0.0
0.0
0.0
0.0
0.0
0.0
0.0
0.0
0.0
0.0
0.0
0.0
0.0
0.0
0.0
0.0
0.0
0.0
0.0
0.0
0.0
0.0
0.0
0.0
0.0
0.0
0.0
0.0
0.0
0.0
0.0
0.0
0.0
0.0
0.0
0.0
0.0
0.0
0.0
0.0
0.0
0.0
0.0
0.0
0.0
0.0
0.0
0.0
0.0
0.0
0.0
0.0
0.0
0.0
0.0
0.0
0.0
0.0
0.0
0.0
0.0
0.0
0.0
0.0
0.0
0.0
0.0
0.0
0.0
0.0
0.0
0.0
0.0
0.0
0.0
0.0
0.0
0.0
0.0
0.0
0.0
0.0
0.0
0.0
0.0
0.0
0.0
0.0
0.0
0.0
0.0
0.0
0.0
0.0
0.0
0.0
0.0
0.0
0.0
0.0
0.0
0.0
0.0
0.0
0.0
0.0
0.0
0.0
0.0
0.0
0.0
0.0
0.0
0.0
0.0
0.0
0.0
0.0
0.0
0.0
0.0
0.0
0.0
0.0
0.0
0.0
0.0
0.0
0.0
0.0
0.0
0.0
0.0
0.0
0.0
0.0
0.0
0.0
0.0
0.0
0.0
0.0
0.0
0.0
0.0
0.0
0.0
0.0
0.0
0.0
0.0
0.0
0.0
0.0
0.0
0.0
0.0
0.0
0.0
0.0
0.0
0.0
0.0
0.0
0.0
0.0
0.0
0.0
0.0
0.0
0.0
0.0
0.0
0.0
0.0
0.0
0.0
0.0
0.0
0.0
0.0
0.0
0.0
0.0
0.0
0.0
0.0
0.0
0.0
0.0
0.0
0.0
0.0
0.0
0.0
0.0
0.0
0.0
0.0
0.0
0.0
0.0
0.0
0.0
0.0
0.0
0.0
0.0
0.0
0.0
0.0
0.0
0.0
0.0
0.0
0.0
0.0
0.0
0.0
0.0
0.0
0.0
0.0
0.0
0.0
0.0
0.0
0.0
0.0
0.0
0.0
0.0
0.0
0.0
0.0
0.0
0.0
0.0
0.0
0.0
0.0
0.0
0.0
0.0
0.0
0.0
0.0
0.0
0.0
0.0
0.0
0.0
0.0
0.0
0.0
0.0
0.0
0.0
0.0
0.0
0.0
0.0
0.0
0.0
0.0
0.0
0.0
0.0
0.0
0.0
0.0
0.0
0.0
0.0
0.0
0.0
0.0
0.0
0.0
0.0
0.0
0.0
0.0
0.0
0.0
0.0
0.0
0.0
0.0
0.0
0.0
0.0
0.0
0.0
0.0
0.0
0.0
0.0
0.0
0.0
0.0
0.0
0.0
0.0
0.0
0.0
0.0
0.0
0.0
0.0
0.0
0.0
0.0
0.0
0.0
0.0
0.0
0.0
0.0
0.0
0.0
0.0
0.0
0.0
0.0
0.0
0.0
0.0
0.0
0.0
0.0
0.0
0.0
0.0
0.0
0.0
0.0
0.0
0.0
0.0
0.0
0.0
0.0
0.0
0.0
0.0
0.0
0.0
0.0
0.0
0.0
0.0
0.0
0.0
0.0
0.0
0.0
0.0
0.0
0.0
0.0
0.0
0.0
0.0
0.0
0.0
0.0
0.0
0.0
0.0
0.0
0.0
0.0
0.0
0.0
0.0
0.0
0.0
0.0
0.0
0.0
0.0
0.0
0.0
0.0
0.0
0.0
0.0
0.0
0.0
0.0
0.0
0.0
0.0
0.0
0.0
0.0
0.0
0.0
0.0
0.0
0.0
0.0
0.0
0.0
0.0
0.0
0.0
0.0
0.0
0.0
0.0
0.0
0.0
0.0
0.0
0.0
0.0
0.0
0.0
0.0
0.0
0.0
0.0
0.0
0.0
0.0
0.0
0.0
0.0
0.0
0.0
0.0
0.0
0.0
0.0
0.0
0.0
0.0
0.0
0.0
0.0
0.0
0.0
0.0
0.0
0.0
0.0
0.0
0.0
0.0
0.0
0.0
0.0
0.0
0.0
0.0
0.0
0.0
0.0
0.0
0.0
0.0
0.0
0.0
0.0
0.0
0.0
0.0
0.0
0.0
0.0
0.0
0.0
0.0
0.0
0.0
0.0
0.0
0.0
0.0
0.0
0.0
0.0
0.0
0.0
0.0
0.0
0.0
0.0
0.0
0.0
0.0
0.0
0.0
0.0
0.0
0.0
0.0
0.0
0.0
0.0
0.0
0.0
0.0
0.0
0.0
0.0
0.0
0.0
0.0
0.0
0.0
0.0
0.0
0.0
0.0
0.0
0.0
0.0
0.0
0.0
0.0
0.0
0.0
0.0
0.0
0.0
0.0
0.0
0.0
0.0
0.0
0.0
0.0
0.0
0.0
0.0
0.0
0.0
0.0
0.0
0.0
0.0
0.0
0.0
0.0
0.0
0.0
0.0
0.0
0.0
0.0
0.0
0.0
0.0
0.0
0.0
0.0
0.0
0.0
0.0
0.0
0.0
0.0
0.0
0.0
0.0
0.0
0.0
0.0
0.0
0.0
0.0
0.0
0.0
0.0
0.0
0.0
0.0
0.0
0.0
0.0
0.0
0.0
0.0
0.0
0.0
0.0
0.0
0.0
0.0
0.0
0.0
0.0
0.0
0.0
0.0
0.0
0.0
0.0
0.0
0.0
0.0
0.0
0.0
0.0
0.0
0.0
0.0
0.0
0.0
0.0
0.0
0.0
0.0
0.0
0.0
0.0
0.0
0.0
0.0
0.0
0.0
0.0
0.0
0.0
0.0
0.0
0.0
0.0
0.0
0.0
0.0
0.0
0.0
0.0
0.0
0.0
0.0
0.0
0.0
0.0
0.0
0.0
0.0
0.0
0.0
0.0
0.0
0.0
0.0
0.0
0.0
0.0
0.0
0.0
0.0
0.0
0.0
0.0
0.0
0.0
0.0
0.0
0.0
0.0
0.0
0.0
0.0
0.0
0.0
0.0
0.0
0.0
0.0
0.0
0.0
0.0
0.0
0.0
0.0
0.0
0.0
0.0
0.0
0.0
0.0
0.0
0.0
0.0
0.0
0.0
0.0
0.0
0.0
0.0
0.0
0.0
0.0
0.0
0.0
0.0
0.0
0.0
0.0
0.0
0.0
0.0
0.0
0.0
0.0
0.0
0.0
0.0
0.0
0.0
0.0
0.0
0.0
0.0
0.0
0.0
0.0
0.0
0.0
0.0
0.0
0.0
0.0
0.0
0.0
0.0
0.0
0.0
0.0
0.0
0.0
0.0
0.0
0.0
0.0
0.0
0.0
0.0
0.0
0.0
0.0
0.0
0.0
0.0
0.0
0.0
0.0
0.0
0.0
0.0
0.0
0.0
0.0
0.0
0.0
0.0
0.0
0.0
0.0
0.0
0.0
0.0
0.0
0.0
0.0
SCALARS Wm float 4
LOOKUP_TABLE default
5764.079925831591 5764.079925831591 0.0 0.0
1043.0202206788997 1043.0202206788997 0.0 0.0
1242.6571193494256 1242.6571193494256 0.0 0.0
2601.513729659764 2601.513729659764 0.0 0.0
4589.178826181005 4589.178826181005 0.0 0.0
7232.570694672107 7232.570694672107 0.0 0.0
10414.557703764307 10414.557703764307 0.0 0.0
13974.354719691866 13974.354719691866 0.0 0.0
17397.884514405705 17397.884514405705 0.0 0.0
19763.762382843674 19763.762382843674 0.0 0.0
20524.891440237298 20524.891440237298 0.0 0.0
19793.66083628478 19793.66083628478 0.0 0.0
17457.662972448194 17457.662972448194 0.0 0.0
14065.533118749445 14065.533118749445 0.0 0.0
10539.792210306852 10539.792210306852 0.0 0.0
7392.875890691343 7392.875890691343 0.0 0.0
4780.081073727841 4780.081073727841 0.0 0.0
2810.7083726792844 2810.7083726792844 0.0 0.0
1477.6415695962135 1477.6415695962135 0.0 0.0
1646.5559691294225 1646.5559691294225 0.0 0.0
5522.280726417193 5522.280726417193 0.0 0.0
4279.096268718092 4279.096268718092 0.0 0.0
129.4779331459697 129.4779331459697 0.0 0.0
577.6790023182318 577.6790023182318 0.0 0.0
1234.814892224987 1234.814892224987 0.0 0.0
2119.588115094604 2119.588115094604 0.0 0.0
3269.0000283359504 3269.0000283359504 0.0 0.0
4659.375940511863 4659.375940511863 0.0 0.0
6227.517553880741 6227.517553880741 0.0 0.0
7767.009537203568 7767.009537203568 0.0 0.0
8860.013064345078 8860.013064345078 0.0 0.0
9215.568285022733 9215.568285022733 0.0 0.0
8879.403011408935 8879.403011408935 0.0 0.0
7805.640187239443 7805.640187239443 0.0 0.0
6285.811766158544 6285.811766158544 0.0 0.0
4737.692841044636 4737.692841044636 0.0 0.0
3366.366127134344 3366.366127134344 0.0 0.0
2230.953027785693 2230.953027785693 0.0 0.0
1351.6179413074058 1351.6179413074058 0.0 0.0
660.5871057189182 660.5871057189182 0.0 0.0
149.52713877656467 149.52713877656467 0.0 0.0
4494.475209759119 4494.475209759119 0.0 0.0
2380.48533068705 2380.48533068705 0.0 0.0
353.5231484061432 353.5231484061432 0.0 0.0
496.4383609726504 496.4383609726504 0.0 0.0
646.2103905609313 646.2103905609313 0.0 0.0
893.9866546471416 893.9866546471416 0.0 0.0
1180.5421615745045 1180.5421615745045 0.0 0.0
1532.1072708238487 1532.1072708238487 0.0 0.0
1966.8667338434582 1966.8667338434582 0.0 0.0
2439.7368290526347 2439.7368290526347 0.0 0.0
2754.4908944692042 2754.4908944692042 0.0 0.0
2843.579215656713 2843.579215656713 0.0 0.0
2762.452424035406 2762.452424035406 0.0 0.0
2454.880649457566 2454.880649457566 0.0 0.0
1988.7611942887554 1988.7611942887554 0.0 0.0
1559.9535888090693 1559.9535888090693 0.0 0.0
1212.3413087192148 1212.3413087192148 0.0 0.0
925.9015417112167 925.9015417112167 0.0 0.0
664.9707356524482 664.9707356524482 0.0 0.0
483.0014100798612 483.0014100798612 0.0 0.0
299.16724982111793 299.16724982111793 0.0 0.0
2483.8442234559543 2483.8442234559543 0.0 0.0
1098.0507529851009 1098.0507529851009 0.0 0.0
512.903945697781 512.903945697781 0.0 0.0
639.4042986217879 639.4042986217879 0.0 0.0
585.4006644150847 585.4006644150847 0.0 0.0
577.8183550308656 577.8183550308656 0.0 0.0
569.2232996498198 569.2232996498198 0.0 0.0
559.1472581820117 559.1472581820117 0.0 0.0
578.1344923788012 578.1344923788012 0.0 0.0
668.2405267158058 668.2405267158058 0.0 0.0
767.7526075304929 767.7526075304929 0.0 0.0
832.9176540854074 832.9176540854074 0.0 0.0
764.9372062814115 764.9372062814115 0.0 0.0
661.4999309986911 661.4999309986911 0.0 0.0
566.9448276281886 566.9448276281886 0.0 0.0
542.658411343119 542.658411343119 0.0 0.0
546.2558480992496 546.2558480992496 0.0 0.0
545.9348026008433 545.9348026008433 0.0 0.0
540.3202538292672 540.3202538292672 0.0 0.0
587.8443574720801 587.8443574720801 0.0 0.0
470.38556463408077 470.38556463408077 0.0 0.0
1155.7708228119855 1155.7708228119855 0.0 0.0
416.81713948125247 416.81713948125247 0.0 0.0
471.67190820115565 471.67190820115565 0.0 0.0
755.5611781274816 755.5611781274816 0.0 0.0
889.8398556964149 889.8398556964149 0.0 0.0
1072.9415374181306 1072.9415374181306 0.0 0.0
1326.670330338336 1326.670330338336 0.0 0.0
1627.0126548364683 1627.0126548364683 0.0 0.0
1919.5089671537087 1919.5089671537087 0.0 0.0
2248.1859442569307 2248.1859442569307 0.0 0.0
2763.7646185951626 2763.7646185951626 0.0 0.0
3093.7706928708335 3093.7706928708335 0.0 0.0
2751.131303375119 2751.131303375119 0.0 0.0
2222.2446205169504 2222.2446205169504 0.0 0.0
1880.284791526045 1880.284791526045 0.0 0.0
1575.1129738002364 1575.1129738002364 0.0 0.0
1263.7680183221169 1263.7680183221169 0.0 0.0
1002.2872734053153 1002.2872734053153 0.0 0.0
820.1412564231513 820.1412564231513 0.0 0.0
706.5855948706212 706.5855948706212 0.0 0.0
450.63710299648 450.63710299648 0.0 0.0
438.53000720240874 438.53000720240874 0.0 0.0
145.4372666940824 145.4372666940824 0.0 0.0
359.9479909181719 359.9479909181719 0.0 0.0
894.3466692434872 894.3466692434872 0.0 0.0
1600.5992916713315 1600.5992916713315 0.0 0.0
2480.0149103571894 2480.0149103571894 0.0 0.0
3570.3344044899036 3570.3344044899036 0.0 0.0
4846.677759844026 4846.677759844026 0.0 0.0
6238.355217992852 6238.355217992852 0.0 0.0
7311.662317225211 7311.662317225211 0.0 0.0
8917.5880409121 8917.5880409121 0.0 0.0
9700.672532882132 9700.672532882132 0.0 0.0
8895.191535913882 8895.191535913882 0.0 0.0
7267.782368214439 7267.782368214439 0.0 0.0
6172.720018198339 6172.720018198339 0.0 0.0
4764.100076852924 4764.100076852924 0.0 0.0
3478.0406558138066 3478.0406558138066 0.0 0.0
2391.075532575523 2391.075532575523 0.0 0.0
1534.001645363805 1534.001645363805 0.0 0.0
863.6023967965383 863.6023967965383 0.0 0.0
351.92723013691915 351.92723013691915 0.0 0.0
150.82003101390396 150.82003101390396 0.0 0.0
89.3640973094239 89.3640973094239 0.0 0.0
388.5314543812318 388.5314543812318 0.0 0.0
1410.6118948486921 1410.6118948486921 0.0 0.0
3082.2752979338443 3082.2752979338443 0.0 0.0
5163.637980341705 5163.637980341705 0.0 0.0
7699.6307530028225 7699.6307530028225 0.0 0.0
10683.177812219572 10683.177812219572 0.0 0.0
14021.008708228235 14021.008708228235 0.0 0.0
17429.95457680425 17429.95457680425 0.0 0.0
20691.642248309377 20691.642248309377 0.0 0.0
17791.187743854734 17791.187743854734 0.0 0.0
20662.75844408902 20662.75844408902 0.0 0.0
17361.533482362385 17361.533482362385 0.0 0.0
13920.659681558 13920.659681558 0.0 0.0
10560.577970025239 10560.577970025239 0.0 0.0
7570.884434440844 7570.884434440844 0.0 0.0
5055.887007176738 5055.887007176738 0.0 0.0
3025.767660160034 3025.767660160034 0.0 0.0
1405.3794106071707 1405.3794106071707 0.0 0.0
395.6027222609582 395.6027222609582 0.0 0.0
94.64588588178577 94.64588588178577 0.0 0.0
2145.404442414344 2145.404442414344 0.0 0.0
885.194871816213 885.194871816213 0.0 0.0
1314.8037055865839 1314.8037055865839 0.0 0.0
2649.1180754532893 2649.1180754532893 0.0 0.0
4541.920189636703 4541.920189636703 0.0 0.0
7011.623455109529 7011.623455109529 0.0 0.0
9971.454947310183 9971.454947310183 0.0 0.0
13390.56166617137 13390.56166617137 0.0 0.0
17235.78323195132 17235.78323195132 0.0 0.0
21017.41764254921 21017.41764254921 0.0 0.0
22833.013455794233 22833.013455794233 0.0 0.0
21027.844430587164 21027.844430587164 0.0 0.0
17255.254427769905 17255.254427769905 0.0 0.0
13418.798576491863 13418.798576491863 0.0 0.0
10010.032966759962 10010.032966759962 0.0 0.0
7063.451268859619 7063.451268859619 0.0 0.0
4611.282175409652 4611.282175409652 0.0 0.0
2737.1655561777247 2737.1655561777247 0.0 0.0
1439.3933990088344 1439.3933990088344 0.0 0.0
1057.3685967215815 1057.3685967215815 0.0 0.0
2090.980603465013 2090.980603465013 0.0 0.0
1720.4321236270655 1720.4321236270655 0.0 0.0
149.68898430668906 149.68898430668906 0.0 0.0
554.8371207705156 554.8371207705156 0.0 0.0
1207.4783939530403 1207.4783939530403 0.0 0.0
2067.3616848531324 2067.3616848531324 0.0 0.0
3170.9923159103646 3170.9923159103646 0.0 0.0
4493.178425741411 4493.178425741411 0.0 0.0
5998.572551703142 5998.572551703142 0.0 0.0
7661.928944299351 7661.928944299351 0.0 0.0
9330.667941919852 9330.667941919852 0.0 0.0
10213.546482207003 10213.546482207003 0.0 0.0
9337.403452334855 9337.403452334855 0.0 0.0
7674.797842367717 7674.797842367717 0.0 0.0
6017.399293589237 6017.399293589237 0.0 0.0
4518.478976322013 4518.478976322013 0.0 0.0
3203.9637857553516 3203.9637857553516 0.0 0.0
2109.2162542988644 2109.2162542988644 0.0 0.0
1260.9222742742174 1260.9222742742174 0.0 0.0
607.3905981928415 607.3905981928415 0.0 0.0
172.08236061885003 172.08236061885003 0.0 0.0
1731.0865139243783 1731.0865139243783 0.0 0.0
1033.6872791393264 1033.6872791393264 0.0 0.0
121.5597891659062 121.5597891659062 0.0 0.0
237.39114456993164 237.39114456993164 0.0 0.0
400.41227668480457 400.41227668480457 0.0 0.0
642.9017534901482 642.9017534901482 0.0 0.0
931.6092500884613 931.6092500884613 0.0 0.0
1271.54012495281 1271.54012495281 0.0 0.0
1638.5322487197966 1638.5322487197966 0.0 0.0
2071.849517595951 2071.849517595951 0.0 0.0
2732.000370055981 2732.000370055981 0.0 0.0
3324.2248250725206 3324.2248250725206 0.0 0.0
2735.1799685091933 2735.1799685091933 0.0 0.0
2078.10789445563 2078.10789445563 0.0 0.0
1647.6501963249846 1647.6501963249846 0.0 0.0
1283.2221070317114 1283.2221070317114 0.0 0.0
945.5458067808191 945.5458067808191 0.0 0.0
659.0516758493163 659.0516758493163 0.0 0.0
416.7429697188888 416.7429697188888 0.0 0.0
242.12848261846636 242.12848261846636 0.0 0.0
106.41910265076486 106.41910265076486 0.0 0.0
1024.8228985513592 1024.8228985513592 0.0 0.0
513.9867219417073 513.9867219417073 0.0 0.0
169.5516756907612 169.5516756907612 0.0 0.0
207.41783174416489 207.41783174416489 0.0 0.0
178.95427183128 178.95427183128 0.0 0.0
185.9961896607832 185.9961896607832 0.0 0.0
202.9051303320596 202.9051303320596 0.0 0.0
225.45332425583382 225.45332425583382 0.0 0.0
239.1789264162736 239.1789264162736 0.0 0.0
252.33066838027486 252.33066838027486 0.0 0.0
458.7254679053786 458.7254679053786 0.0 0.0
1122.1368335779161 1122.1368335779161 0.0 0.0
458.05393067970266 458.05393067970266 0.0 0.0
251.97082942058952 251.97082942058952 0.0 0.0
239.04697033184107 239.04697033184107 0.0 0.0
224.90475605849707 224.90475605849707 0.0 0.0
201.15783234118868 201.15783234118868 0.0 0.0
182.0360643904599 182.0360643904599 0.0 0.0
170.69096692278595 170.69096692278595 0.0 0.0
193.22373853571605 193.22373853571605 0.0 0.0
151.0283827573623 151.0283827573623 0.0 0.0
517.4137081070666 517.4137081070666 0.0 0.0
212.9522934221042 212.9522934221042 0.0 0.0
182.16408032194465 182.16408032194465 0.0 0.0
325.3186770547631 325.3186770547631 0.0 0.0
458.5905312517467 458.5905312517467 0.0 0.0
664.587653993489 664.587653993489 0.0 0.0
951.2909147812727 951.2909147812727 0.0 0.0
1300.5664520389826 1300.5664520389826 0.0 0.0
1732.4576779186343 1732.4576779186343 0.0 0.0
2141.2923279265624 2141.2923279265624 0.0 0.0
2259.8014109042265 2259.8014109042265 0.0 0.0
3423.6661509504743 3423.6661509504743 0.0 0.0
2255.087022543144 2255.087022543144 0.0 0.0
2134.738150377504 2134.738150377504 0.0 0.0
1723.9952799594669 1723.9952799594669 0.0 0.0
1289.9266674074286 1289.9266674074286 0.0 0.0
938.3900626192657 938.3900626192657 0.0 0.0
649.3890216763605 649.3890216763605 0.0 0.0
442.1528559108781 442.1528559108781 0.0 0.0
311.31794395549525 311.31794395549525 0.0 0.0
171.33131761315238 171.33131761315238 0.0 0.0
217.50838134021618 217.50838134021618 0.0 0.0
93.80141488309461 93.80141488309461 0.0 0.0
198.3725432113348 198.3725432113348 0.0 0.0
596.6194575149153 596.6194575149153 0.0 0.0
1242.5358537757386 1242.5358537757386 0.0 0.0
2114.5127184161947 2114.5127184161947 0.0 0.0
3221.270534684641 3221.270534684641 0.0 0.0
4549.5691490297695 4549.5691490297695 0.0 0.0
6044.106376899859 6044.106376899859 0.0 0.0
7856.867384552443 7856.867384552443 0.0 0.0
8344.11050785581 8344.11050785581 0.0 0.0
10765.146000178825 10765.146000178825 0.0 0.0
8335.866510454913 8335.866510454913 0.0 0.0
7845.178639602233 7845.178639602233 0.0 0.0
6028.028962318738 6028.028962318738 0.0 0.0
4530.25398433082 4530.25398433082 0.0 0.0
3200.846301864396 3200.846301864396 0.0 0.0
2095.9958876870687 2095.9958876870687 0.0 0.0
1229.91241968766 1229.91241968766 0.0 0.0
591.7861308050924 591.7861308050924 0.0 0.0
195.79451842616893 195.79451842616893 0.0 0.0
95.70974966989156 95.70974966989156 0.0 0.0
87.09795174316785 87.09795174316785 0.0 0.0
307.61259523878897 307.61259523878897 0.0 0.0
1160.3724462806754 1160.3724462806754 0.0 0.0
2653.616074828856 2653.616074828856 0.0 0.0
4630.382319541644 4630.382319541644 0.0 0.0
7096.686982838799 7096.686982838799 0.0 0.0
10069.198051015566 10069.198051015566 0.0 0.0
13382.995271954776 13382.995271954776 0.0 0.0
16699.68267945643 16699.68267945643 0.0 0.0
18949.04151129014 18949.04151129014 0.0 0.0
28431.14672255864 28431.14672255864 0.0 0.0
18943.148608328585 18943.148608328585 0.0 0.0
16684.303949129964 16684.303949129964 0.0 0.0
13359.513791814075 13359.513791814075 0.0 0.0
10041.04184802878 10041.04184802878 0.0 0.0
7068.739374945034 7068.739374945034 0.0 0.0
4609.967854873943 4609.967854873943 0.0 0.0
2648.4833127845136 2648.4833127845136 0.0 0.0
1168.871128717822 1168.871128717822 0.0 0.0
315.1431786042577 315.1431786042577 0.0 0.0
90.84806620318557 90.84806620318557 0.0 0.0
1521.3886446415072 1521.3886446415072 0.0 0.0
989.2344047711381 989.2344047711381 0.0 0.0
1260.447417061025 1260.447417061025 0.0 0.0
2493.4165031346074 2493.4165031346074 0.0 0.0
4256.359006904501 4256.359006904501 0.0 0.0
6530.093930400008 6530.093930400008 0.0 0.0
9315.057660810831 9315.057660810831 0.0 0.0
12812.572904313456 12812.572904313456 0.0 0.0
17460.445994556652 17460.445994556652 0.0 0.0
22934.690875788776 22934.690875788776 0.0 0.0
25842.236546054322 25842.236546054322 0.0 0.0
22922.013689801304 22922.013689801304 0.0 0.0
17435.950077817357 17435.950077817357 0.0 0.0
12776.48397878748 12776.48397878748 0.0 0.0
9266.595402608908 9266.595402608908 0.0 0.0
6468.782424649117 6468.782424649117 0.0 0.0
4183.032375346665 4183.032375346665 0.0 0.0
2412.9805428762893 2412.9805428762893 0.0 0.0
1163.5603926980652 1163.5603926980652 0.0 0.0
771.2078405933112 771.2078405933112 0.0 0.0
1501.3041271067004 1501.3041271067004 0.0 0.0
1287.318749084387 1287.318749084387 0.0 0.0
166.64686099046463 166.64686099046463 0.0 0.0
555.892421528234 555.892421528234 0.0 0.0
1179.6644495260277 1179.6644495260277 0.0 0.0
1981.0011170671721 1981.0011170671721 0.0 0.0
3002.3974490375344 3002.3974490375344 0.0 0.0
4248.6411691801795 4248.6411691801795 0.0 0.0
5783.705205929595 5783.705205929595 0.0 0.0
7785.49318411537 7785.49318411537 0.0 0.0
10196.843671822679 10196.843671822679 0.0 0.0
11618.163006440418 11618.163006440418 0.0 0.0
10188.144826107742 10188.144826107742 0.0 0.0
7768.521922217567 7768.521922217567 0.0 0.0
5759.041672857627 5759.041672857627 0.0 0.0
4216.683004346692 4216.683004346692 0.0 0.0
2963.7311070911146 2963.7311070911146 0.0 0.0
1937.450557040751 1937.450557040751 0.0 0.0
1132.6693009122562 1132.6693009122562 0.0 0.0
517.3862462444656 517.3862462444656 0.0 0.0
155.83550162890631 155.83550162890631 0.0 0.0
1245.317826682798 1245.317826682798 0.0 0.0
714.9447576917944 714.9447576917944 0.0 0.0
115.69954220608315 115.69954220608315 0.0 0.0
239.84163130366113 239.84163130366113 0.0 0.0
423.8507438734985 423.8507438734985 0.0 0.0
656.7550187398658 656.7550187398658 0.0 0.0
924.9399195703496 924.9399195703496 0.0 0.0
1238.7306218158308 1238.7306218158308 0.0 0.0
1593.6041240325328 1593.6041240325328 0.0 0.0
2132.8503589289758 2132.8503589289758 0.0 0.0
3157.814722870905 3157.814722870905 0.0 0.0
4158.4511591381 4158.4511591381 0.0 0.0
3154.3854662968747 3154.3854662968747 0.0 0.0
2125.6210443016603 2125.6210443016603 0.0 0.0
1582.952593436653 1582.952593436653 0.0 0.0
1225.3768080345174 1225.3768080345174 0.0 0.0
910.019251645073 910.019251645073 0.0 0.0
641.6324465673482 641.6324465673482 0.0 0.0
412.4223168997787 412.4223168997787 0.0 0.0
242.2802250722837 242.2802250722837 0.0 0.0
130.60299600523996 130.60299600523996 0.0 0.0
718.1884041486569 718.1884041486569 0.0 0.0
363.6464732702498 363.6464732702498 0.0 0.0
155.44164082474492 155.44164082474492 0.0 0.0
199.67495330903878 199.67495330903878 0.0 0.0
190.95269007914942 190.95269007914942 0.0 0.0
205.6332487841639 205.6332487841639 0.0 0.0
222.5768196665985 222.5768196665985 0.0 0.0
243.5417369209463 243.5417369209463 0.0 0.0
253.25356272203373 253.25356272203373 0.0 0.0
296.4211615631538 296.4211615631538 0.0 0.0
670.8427754011755 670.8427754011755 0.0 0.0
1892.2931695183074 1892.2931695183074 0.0 0.0
672.9270875497933 672.9270875497933 0.0 0.0
299.32954361899976 299.32954361899976 0.0 0.0
256.88102158527477 256.88102158527477 0.0 0.0
248.10647516253215 248.10647516253215 0.0 0.0
228.5913683631685 228.5913683631685 0.0 0.0
214.01456444075393 214.01456444075393 0.0 0.0
203.6357017416337 203.6357017416337 0.0 0.0
216.00043171373224 216.00043171373224 0.0 0.0
168.027169990959 168.027169990959 0.0 0.0
357.10523831705603 357.10523831705603 0.0 0.0
160.90139712898858 160.90139712898858 0.0 0.0
170.49760124740453 170.49760124740453 0.0 0.0
302.0252440500955 302.0252440500955 0.0 0.0
417.318734497961 417.318734497961 0.0 0.0
604.5822337018407 604.5822337018407 0.0 0.0
873.096440165976 873.096440165976 0.0 0.0
1217.6080019459769 1217.6080019459769 0.0 0.0
1694.6670557257178 1694.6670557257178 0.0 0.0
2205.463167079646 2205.463167079646 0.0 0.0
2374.597283472582 2374.597283472582 0.0 0.0
4725.278460876981 4725.278460876981 0.0 0.0
2382.1350852662395 2382.1350852662395 0.0 0.0
2218.525776492729 2218.525776492729 0.0 0.0
1712.3700394168811 1712.3700394168811 0.0 0.0
1238.6748478536501 1238.6748478536501 0.0 0.0
896.3535116746651 896.3535116746651 0.0 0.0
628.5782760690636 628.5782760690636 0.0 0.0
439.4366607412747 439.4366607412747 0.0 0.0
316.68655153715656 316.68655153715656 0.0 0.0
175.02583613483864 175.02583613483864 0.0 0.0
152.95148349390422 152.95148349390422 0.0 0.0
82.86116356421635 82.86116356421635 0.0 0.0
185.28387316921754 185.28387316921754 0.0 0.0
538.8899894979962 538.8899894979962 0.0 0.0
1101.9130671740752 1101.9130671740752 0.0 0.0
1883.6418369324701 1883.6418369324701 0.0 0.0
2910.685441759045 2910.685441759045 0.0 0.0
4195.574200235958 4195.574200235958 0.0 0.0
5744.021443243369 5744.021443243369 0.0 0.0
7916.214897130622 7916.214897130622 0.0 0.0
8545.6260916885 8545.6260916885 0.0 0.0
13751.414415457637 13751.414415457637 0.0 0.0
8558.796403957402 8558.796403957402 0.0 0.0
7940.591424582443 7940.591424582443 0.0 0.0
5776.686916320175 5776.686916320175 0.0 0.0
4233.367629622659 4233.367629622659 0.0 0.0
2948.956154460883 2948.956154460883 0.0 0.0
1916.614429252382 1916.614429252382 0.0 0.0
1123.4402664316835 1123.4402664316835 0.0 0.0
546.9405368548054 546.9405368548054 0.0 0.0
185.4744330934901 185.4744330934901 0.0 0.0
76.2184815648746 76.2184815648746 0.0 0.0
83.01437364196072 83.01437364196072 0.0 0.0
280.7901705790953 280.7901705790953 0.0 0.0
1035.2449727366231 1035.2449727366231 0.0 0.0
2352.0672033679216 2352.0672033679216 0.0 0.0
4126.637706370182 4126.637706370182 0.0 0.0
6404.28924856653 6404.28924856653 0.0 0.0
9250.838049115191 9250.838049115191 0.0 0.0
12583.19272568081 12583.19272568081 0.0 0.0
16264.671150179343 16264.671150179343 0.0 0.0
19828.89118501428 19828.89118501428 0.0 0.0
36999.4206851793 36999.4206851793 0.0 0.0
19849.166435475345 19849.166435475345 0.0 0.0
16303.62593271872 16303.62593271872 0.0 0.0
12635.222315990968 12635.222315990968 0.0 0.0
9309.579728135534 9309.579728135534 0.0 0.0
6460.749670105024 6460.749670105024 0.0 0.0
4169.016727082275 4169.016727082275 0.0 0.0
2370.420311145213 2370.420311145213 0.0 0.0
1035.0390385865103 1035.0390385865103 0.0 0.0
278.04697172000084 278.04697172000084 0.0 0.0
77.92827962979743 77.92827962979743 0.0 0.0
1479.6670890771136 1479.6670890771136 0.0 0.0
1017.7732077560983 1017.7732077560983 0.0 0.0
1240.6732862549452 1240.6732862549452 0.0 0.0
2427.925338346176 2427.925338346176 0.0 0.0
4150.618568964412 4150.618568964412 0.0 0.0
6389.17069540817 6389.17069540817 0.0 0.0
9178.751600740956 9178.751600740956 0.0 0.0
12803.3725987092 12803.3725987092 0.0 0.0
17806.390629432506 17806.390629432506 0.0 0.0
23836.510671003787 23836.510671003787 0.0 0.0
27061.07233453089 27061.07233453089 0.0 0.0
23813.72718509206 23813.72718509206 0.0 0.0
17763.218384924865 17763.218384924865 0.0 0.0
12740.750951601402 12740.750951601402 0.0 0.0
9094.801511431242 9094.801511431242 0.0 0.0
6281.211239022035 6281.211239022035 0.0 0.0
4018.0040124828183 4018.0040124828183 0.0 0.0
2276.7733752187646 2276.7733752187646 0.0 0.0
1070.161473807271 1070.161473807271 0.0 0.0
689.4932757999211 689.4932757999211 0.0 0.0
1380.8861685475993 1380.8861685475993 0.0 0.0
1221.730264349787 1221.730264349787 0.0 0.0
167.00693301451258 167.00693301451258 0.0 0.0
552.7278606551034 552.7278606551034 0.0 0.0
1159.404669404639 1159.404669404639 0.0 0.0
1943.854729137914 1943.854729137914 0.0 0.0
2952.325595332936 2952.325595332936 0.0 0.0
4204.585298668982 4204.585298668982 0.0 0.0
5798.95314251742 5798.95314251742 0.0 0.0
7952.5336258953275 7952.5336258953275 0.0 0.0
10589.746165598757 10589.746165598757 0.0 0.0
12141.368595996599 12141.368595996599 0.0 0.0
10574.499312884906 10574.499312884906 0.0 0.0
7923.2375177470985 7923.2375177470985 0.0 0.0
5756.749327168265 5756.749327168265 0.0 0.0
4149.641112547659 4149.641112547659 0.0 0.0
2884.494974292708 2884.494974292708 0.0 0.0
1864.5193190725406 1864.5193190725406 0.0 0.0
1071.6899513316869 1071.6899513316869 0.0 0.0
479.64107738395023 479.64107738395023 0.0 0.0
136.5505940076472 136.5505940076472 0.0 0.0
1155.692027570932 1155.692027570932 0.0 0.0
681.8141657850099 681.8141657850099 0.0 0.0
101.7759658685915 101.7759658685915 0.0 0.0
234.7708401257025 234.7708401257025 0.0 0.0
421.9667976089096 421.9667976089096 0.0 0.0
654.03848277982 654.03848277982 0.0 0.0
921.7630075107361 921.7630075107361 0.0 0.0
1241.0669522911303 1241.0669522911303 0.0 0.0
1618.7288098419322 1618.7288098419322 0.0 0.0
2212.8434949206317 2212.8434949206317 0.0 0.0
3319.742524874389 3319.742524874389 0.0 0.0
4372.067101257832 4372.067101257832 0.0 0.0
3313.6004297277327 3313.6004297277327 0.0 0.0
2200.3723016088343 2200.3723016088343 0.0 0.0
1600.5917181874354 1600.5917181874354 0.0 0.0
1218.2593611669156 1218.2593611669156 0.0 0.0
895.7244201313886 895.7244201313886 0.0 0.0
626.5170682231146 626.5170682231146 0.0 0.0
399.4353560193789 399.4353560193789 0.0 0.0
233.10949075409948 233.10949075409948 0.0 0.0
120.4493800787871 120.4493800787871 0.0 0.0
656.6382206007287 656.6382206007287 0.0 0.0
338.2013359582555 338.2013359582555 0.0 0.0
139.17593060499567 139.17593060499567 0.0 0.0
188.31090566869247 188.31090566869247 0.0 0.0
187.3388351388662 187.3388351388662 0.0 0.0
207.33848173914856 207.33848173914856 0.0 0.0
228.21437720719572 228.21437720719572 0.0 0.0
254.9241439396594 254.9241439396594 0.0 0.0
276.4811401651348 276.4811401651348 0.0 0.0
343.5849956434591 343.5849956434591 0.0 0.0
745.4065198963888 745.4065198963888 0.0 0.0
2009.9504156780845 2009.9504156780845 0.0 0.0
748.5710462711639 748.5710462711639 0.0 0.0
348.15229017678956 348.15229017678956 0.0 0.0
282.1505641762014 282.1505641762014 0.0 0.0
262.2362395173843 262.2362395173843 0.0 0.0
238.275483116193 238.275483116193 0.0 0.0
221.68154095618476 221.68154095618476 0.0 0.0
208.5235675282264 208.5235675282264 0.0 0.0
214.25112783250228 214.25112783250228 0.0 0.0
159.1004254576292 159.1004254576292 0.0 0.0
312.9960224726924 312.9960224726924 0.0 0.0
142.99433299324178 142.99433299324178 0.0 0.0
155.07293967082634 155.07293967082634 0.0 0.0
280.912003290333 280.912003290333 0.0 0.0
394.9551720775329 394.9551720775329 0.0 0.0
580.4284484582828 580.4284484582828 0.0 0.0
847.3985599039395 847.3985599039395 0.0 0.0
1197.2039102987042 1197.2039102987042 0.0 0.0
1698.0258682987487 1698.0258682987487 0.0 0.0
2259.3902604800514 2259.3902604800514 0.0 0.0
2459.826550029393 2459.826550029393 0.0 0.0
4933.132814833783 4933.132814833783 0.0 0.0
2472.0505383826066 2472.0505383826066 0.0 0.0
2280.4263635057705 2280.4263635057705 0.0 0.0
1726.1853235415538 1726.1853235415538 0.0 0.0
1231.070240043307 1231.070240043307 0.0 0.0
885.7528943777133 885.7528943777133 0.0 0.0
621.2260898539247 621.2260898539247 0.0 0.0
433.36058553117476 433.36058553117476 0.0 0.0
306.62940541978315 306.62940541978315 0.0 0.0
164.02149685470604 164.02149685470604 0.0 0.0
124.44219234312371 124.44219234312371 0.0 0.0
72.30917451048467 72.30917451048467 0.0 0.0
166.5225696781325 166.5225696781325 0.0 0.0
501.3873380674918 501.3873380674918 0.0 0.0
1045.1205940063446 1045.1205940063446 0.0 0.0
1805.6809833583948 1805.6809833583948 0.0 0.0
2815.6300830066302 2815.6300830066302 0.0 0.0
4104.915279762858 4104.915279762858 0.0 0.0
5709.070625899242 5709.070625899242 0.0 0.0
8044.065102766316 8044.065102766316 0.0 0.0
8760.001320856734 8760.001320856734 0.0 0.0
14283.589553531445 14283.589553531445 0.0 0.0
8781.027139555812 8781.027139555812 0.0 0.0
8082.1619831369435 8082.1619831369435 0.0 0.0
5759.824687807779 5759.824687807779 0.0 0.0
4164.242561051729 4164.242561051729 0.0 0.0
2876.894909235046 2876.894909235046 0.0 0.0
1860.045719777533 1860.045719777533 0.0 0.0
1082.0662212880877 1082.0662212880877 0.0 0.0
515.9190447599163 515.9190447599163 0.0 0.0
167.65238145463292 167.65238145463292 0.0 0.0
60.02032965070282 60.02032965070282 0.0 0.0
68.17124287625404 68.17124287625404 0.0 0.0
247.5682350829902 247.5682350829902 0.0 0.0
965.4218710501077 965.4218710501077 0.0 0.0
2237.6284705666485 2237.6284705666485 0.0 0.0
3961.7281012686763 3961.7281012686763 0.0 0.0
6196.640557361754 6196.640557361754 0.0 0.0
9044.221182459123 9044.221182459123 0.0 0.0
12496.421733656587 12496.421733656587 0.0 0.0
16508.453018791246 16508.453018791246 0.0 0.0
20390.82918142163 20390.82918142163 0.0 0.0
38572.02997464587 38572.02997464587 0.0 0.0
20420.658220018544 20420.658220018544 0.0 0.0
16566.673671751654 16566.673671751654 0.0 0.0
12574.966894709289 12574.966894709289 0.0 0.0
9134.188601903734 9134.188601903734 0.0 0.0
6284.698994396321 6284.698994396321 0.0 0.0
4029.3257310654417 4029.3257310654417 0.0 0.0
2267.759716030091 2267.759716030091 0.0 0.0
964.2553570878455 964.2553570878455 0.0 0.0
240.83195136910604 240.83195136910604 0.0 0.0
57.673519218235555 57.673519218235555 0.0 0.0
1521.3886446306747 1521.3886446306747 0.0 0.0
989.2344047556776 989.2344047556776 0.0 0.0
1260.4474170485882 1260.4474170485882 0.0 0.0
2493.4165031249413 2493.4165031249413 0.0 0.0
4256.359006903891 4256.359006903891 0.0 0.0
6530.093930395523 6530.093930395523 0.0 0.0
9315.05766079958 9315.05766079958 0.0 0.0
12812.572904298691 12812.572904298691 0.0 0.0
17460.445994523823 17460.445994523823 0.0 0.0
22934.6908757625 22934.6908757625 0.0 0.0
25842.23654600481 25842.23654600481 0.0 0.0
22922.013689739113 22922.013689739113 0.0 0.0
17435.950077787507 17435.950077787507 0.0 0.0
12776.483978788981 12776.483978788981 0.0 0.0
9266.595402629642 9266.595402629642 0.0 0.0
6468.782424702899 6468.782424702899 0.0 0.0
4183.032375374426 4183.032375374426 0.0 0.0
2412.980542890161 2412.980542890161 0.0 0.0
1163.5603927089874 1163.5603927089874 0.0 0.0
771.2078406019692 771.2078406019692 0.0 0.0
1501.3041271217428 1501.3041271217428 0.0 0.0
1287.3187490800167 1287.3187490800167 0.0 0.0
166.64686098872178 166.64686098872178 0.0 0.0
555.8924215223622 555.8924215223622 0.0 0.0
1179.6644495219641 1179.6644495219641 0.0 0.0
1981.0011170623975 1981.0011170623975 0.0 0.0
3002.397449033349 3002.397449033349 0.0 0.0
4248.641169173976 4248.641169173976 0.0 0.0
5783.70520592246 5783.70520592246 0.0 0.0
7785.4931841022135 7785.4931841022135 0.0 0.0
10196.843671794715 10196.843671794715 0.0 0.0
11618.163006418368 11618.163006418368 0.0 0.0
10188.144826081536 10188.144826081536 0.0 0.0
7768.521922186037 7768.521922186037 0.0 0.0
5759.041672855621 5759.041672855621 0.0 0.0
4216.683004350178 4216.683004350178 0.0 0.0
2963.7311071192034 2963.7311071192034 0.0 0.0
1937.4505570498636 1937.4505570498636 0.0 0.0
1132.6693009218275 1132.6693009218275 0.0 0.0
517.3862462494167 517.3862462494167 0.0 0.0
155.83550163064146 155.83550163064146 0.0 0.0
1245.317826696807 1245.317826696807 0.0 0.0
714.9447576903432 714.9447576903432 0.0 0.0
115.69954220599016 115.69954220599016 0.0 0.0
239.84163130246137 239.84163130246137 0.0 0.0
423.8507438717295 423.8507438717295 0.0 0.0
656.7550187399521 656.7550187399521 0.0 0.0
924.9399195694797 924.9399195694797 0.0 0.0
1238.7306218098963 1238.7306218098963 0.0 0.0
1593.60412402637 1593.60412402637 0.0 0.0
2132.85035892377 2132.85035892377 0.0 0.0
3157.8147228671464 3157.8147228671464 0.0 0.0
4158.451159129555 4158.451159129555 0.0 0.0
3154.385466297023 3154.385466297023 0.0 0.0
2125.621044277441 2125.621044277441 0.0 0.0
1582.952593438532 1582.952593438532 0.0 0.0
1225.376808023707 1225.376808023707 0.0 0.0
910.0192516520135 910.0192516520135 0.0 0.0
641.6324465734028 641.6324465734028 0.0 0.0
412.42231690199486 412.42231690199486 0.0 0.0
242.28022507623822 242.28022507623822 0.0 0.0
130.60299600691286 130.60299600691286 0.0 0.0
718.1884041578082 718.1884041578082 0.0 0.0
363.6464732689619 363.6464732689619 0.0 0.0
155.4416408246716 155.4416408246716 0.0 0.0
199.67495330897734 199.67495330897734 0.0 0.0
190.9526900797162 190.9526900797162 0.0 0.0
205.63324878726888 205.63324878726888 0.0 0.0
222.5768196642895 222.5768196642895 0.0 0.0
243.5417369179771 243.5417369179771 0.0 0.0
253.25356272539287 253.25356272539287 0.0 0.0
296.4211615520944 296.4211615520944 0.0 0.0
670.8427754019534 670.8427754019534 0.0 0.0
1892.293169534131 1892.293169534131 0.0 0.0
672.9270875453266 672.9270875453266 0.0 0.0
299.3295436024053 299.3295436024053 0.0 0.0
256.8810215881525 256.8810215881525 0.0 0.0
248.1064751476849 248.1064751476849 0.0 0.0
228.5913683710586 228.5913683710586 0.0 0.0
214.01456443966472 214.01456443966472 0.0 0.0
203.63570174581778 203.63570174581778 0.0 0.0
216.00043171585563 216.00043171585563 0.0 0.0
168.02716999288472 168.02716999288472 0.0 0.0
357.10523832278545 357.10523832278545 0.0 0.0
160.90139712814633 160.90139712814633 0.0 0.0
170.4976012472814 170.4976012472814 0.0 0.0
302.02524405006255 302.02524405006255 0.0 0.0
417.31873450030565 417.31873450030565 0.0 0.0
604.5822337016266 604.5822337016266 0.0 0.0
873.0964401705703 873.0964401705703 0.0 0.0
1217.6080019451035 1217.6080019451035 0.0 0.0
1694.6670557298944 1694.6670557298944 0.0 0.0
2205.4631670782433 2205.4631670782433 0.0 0.0
2374.5972834780177 2374.5972834780177 0.0 0.0
4725.27846087672 4725.27846087672 0.0 0.0
2382.1350852619175 2382.1350852619175 0.0 0.0
2218.525776489195 2218.525776489195 0.0 0.0
1712.3700394222033 1712.3700394222033 0.0 0.0
1238.6748478477384 1238.6748478477384 0.0 0.0
896.3535116891429 896.3535116891429 0.0 0.0
628.5782760726582 628.5782760726582 0.0 0.0
439.43666074625423 439.43666074625423 0.0 0.0
316.6865515406391 316.6865515406391 0.0 0.0
175.0258361365849 175.0258361365849 0.0 0.0
152.95148349713278 152.95148349713278 0.0 0.0
82.86116356382526 82.86116356382526 0.0 0.0
185.28387316880057 185.28387316880057 0.0 0.0
538.8899894977086 538.8899894977086 0.0 0.0
1101.9130671740652 1101.9130671740652 0.0 0.0
1883.6418369379921 1883.6418369379921 0.0 0.0
2910.6854417676896 2910.6854417676896 0.0 0.0
4195.574200236321 4195.574200236321 0.0 0.0
5744.021443260697 5744.021443260697 0.0 0.0
7916.214897121276 7916.214897121276 0.0 0.0
8545.626091702066 8545.626091702066 0.0 0.0
13751.414415434638 13751.414415434638 0.0 0.0
8558.796403960136 8558.796403960136 0.0 0.0
7940.591424566736 7940.591424566736 0.0 0.0
5776.68691633469 5776.68691633469 0.0 0.0
4233.367629626127 4233.367629626127 0.0 0.0
2948.9561544864387 2948.9561544864387 0.0 0.0
1916.6144292668318 1916.6144292668318 0.0 0.0
1123.440266440746 1123.440266440746 0.0 0.0
546.9405368601705 546.9405368601705 0.0 0.0
185.4744330952921 185.4744330952921 0.0 0.0
76.21848156627146 76.21848156627146 0.0 0.0
83.01437364162243 83.01437364162243 0.0 0.0
280.7901705787155 280.7901705787155 0.0 0.0
1035.24497273414 1035.24497273414 0.0 0.0
2352.0672033673627 2352.0672033673627 0.0 0.0
4126.6377063780465 4126.6377063780465 0.0 0.0
6404.289248581488 6404.289248581488 0.0 0.0
9250.83804913172 9250.83804913172 0.0 0.0
12583.19272569168 12583.19272569168 0.0 0.0
16264.67115016243 16264.67115016243 0.0 0.0
19828.89118501432 19828.89118501432 0.0 0.0
36999.42068512609 36999.42068512609 0.0 0.0
19849.16643546473 19849.16643546473 0.0 0.0
16303.62593268167 16303.62593268167 0.0 0.0
12635.222315995807 12635.222315995807 0.0 0.0
9309.579728168002 9309.579728168002 0.0 0.0
6460.749670152976 6460.749670152976 0.0 0.0
4169.016727121667 4169.016727121667 0.0 0.0
2370.4203111666616 2370.4203111666616 0.0 0.0
1035.0390385949763 1035.0390385949763 0.0 0.0
278.04697172293606 278.04697172293606 0.0 0.0
77.9282796312893 77.9282796312893 0.0 0.0
2145.4044424210433 2145.4044424210433 0.0 0.0
885.1948717836506 885.1948717836506 0.0 0.0
1314.803705566872 1314.803705566872 0.0 0.0
2649.118075433259 2649.118075433259 0.0 0.0
4541.920189609448 4541.920189609448 0.0 0.0
7011.6234550733 7011.6234550733 0.0 0.0
9971.45494729047 9971.45494729047 0.0 0.0
13390.561666198108 13390.561666198108 0.0 0.0
17235.783231959915 17235.783231959915 0.0 0.0
21017.417642440232 21017.417642440232 0.0 0.0
22833.01345572242 22833.01345572242 0.0 0.0
21027.844430500838 21027.844430500838 0.0 0.0
17255.254427734675 17255.254427734675 0.0 0.0
13418.798576500702 13418.798576500702 0.0 0.0
10010.032966808787 10010.032966808787 0.0 0.0
7063.451268906216 7063.451268906216 0.0 0.0
4611.282175468161 4611.282175468161 0.0 0.0
2737.165556216791 2737.165556216791 0.0 0.0
1439.3933990333385 1439.3933990333385 0.0 0.0
1057.368596742434 1057.368596742434 0.0 0.0
2090.9806035079855 2090.9806035079855 0.0 0.0
1720.4321236243354 1720.4321236243354 0.0 0.0
149.68898430188327 149.68898430188327 0.0 0.0
554.8371207615394 554.8371207615394 0.0 0.0
1207.4783939405022 1207.4783939405022 0.0 0.0
2067.3616848371744 2067.3616848371744 0.0 0.0
3170.992315893818 3170.992315893818 0.0 0.0
4493.178425723524 4493.178425723524 0.0 0.0
5998.572551712749 5998.572551712749 0.0 0.0
7661.928944292072 7661.928944292072 0.0 0.0
9330.667941862968 9330.667941862968 0.0 0.0
10213.546482170577 10213.546482170577 0.0 0.0
9337.403452300987 9337.403452300987 0.0 0.0
7674.797842352588 7674.797842352588 0.0 0.0
6017.399293598883 6017.399293598883 0.0 0.0
4518.4789763415665 4518.4789763415665 0.0 0.0
3203.9637857748157 3203.9637857748157 0.0 0.0
2109.21625431941 2109.21625431941 0.0 0.0
1260.9222742933173 1260.9222742933173 0.0 0.0
607.3905982021138 607.3905982021138 0.0 0.0
172.08236062025145 172.08236062025145 0.0 0.0
1731.0865139622356 1731.0865139622356 0.0 0.0
1033.6872791376943 1033.6872791376943 0.0 0.0
121.559789167277 121.559789167277 0.0 0.0
237.39114456948803 237.39114456948803 0.0 0.0
400.41227667981104 400.41227667981104 0.0 0.0
642.9017534811434 642.9017534811434 0.0 0.0
931.6092500813445 931.6092500813445 0.0 0.0
1271.540124947512 1271.540124947512 0.0 0.0
1638.5322487279157 1638.5322487279157 0.0 0.0
2071.8495175895423 2071.8495175895423 0.0 0.0
2732.0003700216403 2732.0003700216403 0.0 0.0
3324.2248250617354 3324.2248250617354 0.0 0.0
2735.1799684794523 2735.1799684794523 0.0 0.0
2078.107894459173 2078.107894459173 0.0 0.0
1647.6501963135554 1647.6501963135554 0.0 0.0
1283.222107039417 1283.222107039417 0.0 0.0
945.5458067832886 945.5458067832886 0.0 0.0
659.0516758539806 659.0516758539806 0.0 0.0
416.74296972764824 416.74296972764824 0.0 0.0
242.12848261958294 242.12848261958294 0.0 0.0
106.4191026522322 106.4191026522322 0.0 0.0
1024.8228985743526 1024.8228985743526 0.0 0.0
513.9867219395231 513.9867219395231 0.0 0.0
169.55167569276333 169.55167569276333 0.0 0.0
207.417831746392 207.417831746392 0.0 0.0
178.95427183254307 178.95427183254307 0.0 0.0
185.99618965785493 185.99618965785493 0.0 0.0
202.9051303334389 202.9051303334389 0.0 0.0
225.4533242566693 225.4533242566693 0.0 0.0
239.1789264180824 239.1789264180824 0.0 0.0
252.33066838453666 252.33066838453666 0.0 0.0
458.72546788200236 458.72546788200236 0.0 0.0
1122.1368335503682 1122.1368335503682 0.0 0.0
458.05393067340924 458.05393067340924 0.0 0.0
251.97082942026702 251.97082942026702 0.0 0.0
239.04697032559952 239.04697032559952 0.0 0.0
224.9047560580812 224.9047560580812 0.0 0.0
201.1578323394321 201.1578323394321 0.0 0.0
182.03606439365058 182.03606439365058 0.0 0.0
170.690966926667 170.690966926667 0.0 0.0
193.22373853700773 193.22373853700773 0.0 0.0
151.0283827596299 151.0283827596299 0.0 0.0
517.4137081194073 517.4137081194073 0.0 0.0
212.95229342090582 212.95229342090582 0.0 0.0
182.16408032347368 182.16408032347368 0.0 0.0
325.318677055877 325.318677055877 0.0 0.0
458.5905312556436 458.5905312556436 0.0 0.0
664.5876539959361 664.5876539959361 0.0 0.0
951.2909147820524 951.2909147820524 0.0 0.0
1300.5664520417897 1300.5664520417897 0.0 0.0
1732.457677948859 1732.457677948859 0.0 0.0
2141.29232793854 2141.29232793854 0.0 0.0
2259.801410896612 2259.801410896612 0.0 0.0
3423.666150917503 3423.666150917503 0.0 0.0
2255.0870225332756 2255.0870225332756 0.0 0.0
2134.738150383514 2134.738150383514 0.0 0.0
1723.9952799553373 1723.9952799553373 0.0 0.0
1289.9266674145472 1289.9266674145472 0.0 0.0
938.3900626220338 938.3900626220338 0.0 0.0
649.3890216843174 649.3890216843174 0.0 0.0
442.15285591941745 442.15285591941745 0.0 0.0
311.31794395903296 311.31794395903296 0.0 0.0
171.33131761595408 171.33131761595408 0.0 0.0
217.5083813463051 217.5083813463051 0.0 0.0
93.80141488231861 93.80141488231861 0.0 0.0
198.3725432111379 198.3725432111379 0.0 0.0
596.6194575157432 596.6194575157432 0.0 0.0
1242.5358537778436 1242.5358537778436 0.0 0.0
2114.5127184199846 2114.5127184199846 0.0 0.0
3221.2705346818475 3221.2705346818475 0.0 0.0
4549.56914905083 4549.56914905083 0.0 0.0
6044.106376930515 6044.106376930515 0.0 0.0
7856.867384575921 7856.867384575921 0.0 0.0
8344.110507859512 8344.110507859512 0.0 0.0
10765.146000087518 10765.146000087518 0.0 0.0
8335.86651045625 8335.86651045625 0.0 0.0
7845.178639611976 7845.178639611976 0.0 0.0
6028.028962327042 6028.028962327042 0.0 0.0
4530.253984359606 4530.253984359606 0.0 0.0
3200.846301890802 3200.846301890802 0.0 0.0
2095.995887715552 2095.995887715552 0.0 0.0
1229.9124197056926 1229.9124197056926 0.0 0.0
591.7861308144838 591.7861308144838 0.0 0.0
195.79451842900957 195.79451842900957 0.0 0.0
95.70974967240386 95.70974967240386 0.0 0.0
87.0979517425173 87.0979517425173 0.0 0.0
307.6125952366329 307.6125952366329 0.0 0.0
1160.3724462768273 1160.3724462768273 0.0 0.0
2653.6160748308994 2653.6160748308994 0.0 0.0
4630.382319545763 4630.382319545763 0.0 0.0
7096.686982831218 7096.686982831218 0.0 0.0
10069.198051046595 10069.198051046595 0.0 0.0
13382.99527202314 13382.99527202314 0.0 0.0
16699.68267951647 16699.68267951647 0.0 0.0
18949.041511287553 18949.041511287553 0.0 0.0
28431.146722263402 28431.146722263402 0.0 0.0
18943.148608316515 18943.148608316515 0.0 0.0
16684.3039491666 16684.3039491666 0.0 0.0
13359.51379183243 13359.51379183243 0.0 0.0
10041.041848080022 10041.041848080022 0.0 0.0
7068.739375013418 7068.739375013418 0.0 0.0
4609.967854933706 4609.967854933706 0.0 0.0
2648.483312823114 2648.483312823114 0.0 0.0
1168.871128734942 1168.871128734942 0.0 0.0
315.1431786102137 315.1431786102137 0.0 0.0
90.84806620570758 90.84806620570758 0.0 0.0
5764.079925888039 5764.079925888039 0.0 0.0
1043.020220622911 1043.020220622911 0.0 0.0
1242.6571193203265 1242.6571193203265 0.0 0.0
2601.513729627514 2601.513729627514 0.0 0.0
4589.178826143325 4589.178826143325 0.0 0.0
7232.570694649199 7232.570694649199 0.0 0.0
10414.55770376656 10414.55770376656 0.0 0.0
13974.354719704314 13974.354719704314 0.0 0.0
17397.884514378475 17397.884514378475 0.0 0.0
19763.762382789286 19763.762382789286 0.0 0.0
20524.891440112173 20524.891440112173 0.0 0.0
19793.660836187 19793.660836187 0.0 0.0
17457.662972412578 17457.662972412578 0.0 0.0
14065.53311877171 14065.53311877171 0.0 0.0
10539.792210350086 10539.792210350086 0.0 0.0
7392.875890757725 7392.875890757725 0.0 0.0
4780.081073791418 4780.081073791418 0.0 0.0
2810.7083727353643 2810.7083727353643 0.0 0.0
1477.6415696259605 1477.6415696259605 0.0 0.0
1646.5559691672374 1646.5559691672374 0.0 0.0
5522.280726567831 5522.280726567831 0.0 0.0
4279.096268704363 4279.096268704363 0.0 0.0
129.4779331426832 129.4779331426832 0.0 0.0
577.6790023086573 577.6790023086573 0.0 0.0
1234.8148922077557 1234.8148922077557 0.0 0.0
2119.588115080281 2119.588115080281 0.0 0.0
3269.0000283190675 3269.0000283190675 0.0 0.0
4659.375940504489 4659.375940504489 0.0 0.0
6227.5175538814165 6227.5175538814165 0.0 0.0
7767.009537200363 7767.009537200363 0.0 0.0
8860.013064298626 8860.013064298626 0.0 0.0
9215.568284973166 9215.568284973166 0.0 0.0
8879.403011346398 8879.403011346398 0.0 0.0
7805.640187235151 7805.640187235151 0.0 0.0
6285.811766157546 6285.811766157546 0.0 0.0
4737.692841056107 4737.692841056107 0.0 0.0
3366.366127163403 3366.366127163403 0.0 0.0
2230.953027810729 2230.953027810729 0.0 0.0
1351.6179413296688 1351.6179413296688 0.0 0.0
660.5871057302327 660.5871057302327 0.0 0.0
149.52713877884304 149.52713877884304 0.0 0.0
4494.475209881408 4494.475209881408 0.0 0.0
2380.485330673773 2380.485330673773 0.0 0.0
353.52314840998594 353.52314840998594 0.0 0.0
496.4383609714409 496.4383609714409 0.0 0.0
646.2103905598347 646.2103905598347 0.0 0.0
893.9866546454348 893.9866546454348 0.0 0.0
1180.5421615740868 1180.5421615740868 0.0 0.0
1532.1072708205186 1532.1072708205186 0.0 0.0
1966.8667338445882 1966.8667338445882 0.0 0.0
2439.7368290500635 2439.7368290500635 0.0 0.0
2754.490894449952 2754.490894449952 0.0 0.0
2843.5792156118373 2843.5792156118373 0.0 0.0
2762.4524240066894 2762.4524240066894 0.0 0.0
2454.8806494539836 2454.8806494539836 0.0 0.0
1988.7611942858025 1988.7611942858025 0.0 0.0
1559.9535888104047 1559.9535888104047 0.0 0.0
1212.3413087277188 1212.3413087277188 0.0 0.0
925.9015417186828 925.9015417186828 0.0 0.0
664.9707356622478 664.9707356622478 0.0 0.0
483.00141009057654 483.00141009057654 0.0 0.0
299.16724982811155 299.16724982811155 0.0 0.0
2483.8442235206917 2483.8442235206917 0.0 0.0
1098.050752975968 1098.050752975968 0.0 0.0
512.9039456990993 512.9039456990993 0.0 0.0
639.4042986244842 639.4042986244842 0.0 0.0
585.4006644207482 585.4006644207482 0.0 0.0
577.8183550383169 577.8183550383169 0.0 0.0
569.2232996550919 569.2232996550919 0.0 0.0
559.1472581933564 559.1472581933564 0.0 0.0
578.1344923894654 578.1344923894654 0.0 0.0
668.2405267207199 668.2405267207199 0.0 0.0
767.7526075393134 767.7526075393134 0.0 0.0
832.9176540774299 832.9176540774299 0.0 0.0
764.9372062839625 764.9372062839625 0.0 0.0
661.4999309979598 661.4999309979598 0.0 0.0
566.9448276170481 566.9448276170481 0.0 0.0
542.6584113383632 542.6584113383632 0.0 0.0
546.2558480985582 546.2558480985582 0.0 0.0
545.9348026025639 545.9348026025639 0.0 0.0
540.3202538394353 540.3202538394353 0.0 0.0
587.8443574856459 587.8443574856459 0.0 0.0
470.3855646454449 470.3855646454449 0.0 0.0
1155.7708228415793 1155.7708228415793 0.0 0.0
416.81713947710455 416.81713947710455 0.0 0.0
471.67190820054174 471.67190820054174 0.0 0.0
755.5611781304144 755.5611781304144 0.0 0.0
889.8398557017306 889.8398557017306 0.0 0.0
1072.9415374279174 1072.9415374279174 0.0 0.0
1326.6703303550728 1326.6703303550728 0.0 0.0
1627.0126548498135 1627.0126548498135 0.0 0.0
1919.5089671677279 1919.5089671677279 0.0 0.0
2248.1859442644572 2248.1859442644572 0.0 0.0
2763.7646186199117 2763.7646186199117 0.0 0.0
3093.770692902251 3093.770692902251 0.0 0.0
2751.131303392322 2751.131303392322 0.0 0.0
2222.2446205146816 2222.2446205146816 0.0 0.0
1880.2847915225145 1880.2847915225145 0.0 0.0
1575.112973798862 1575.112973798862 0.0 0.0
1263.7680183318853 1263.7680183318853 0.0 0.0
1002.2872734149215 1002.2872734149215 0.0 0.0
820.1412564374936 820.1412564374936 0.0 0.0
706.5855948872758 706.5855948872758 0.0 0.0
450.6371030066811 450.6371030066811 0.0 0.0
438.5300072134139 438.5300072134139 0.0 0.0
145.43726669222525 145.43726669222525 0.0 0.0
359.94799091755334 359.94799091755334 0.0 0.0
894.346669242874 894.346669242874 0.0 0.0
1600.5992916695375 1600.5992916695375 0.0 0.0
2480.0149103643325 2480.0149103643325 0.0 0.0
3570.334404509332 3570.334404509332 0.0 0.0
4846.677759867375 4846.677759867375 0.0 0.0
6238.355218031721 6238.355218031721 0.0 0.0
7311.662317245549 7311.662317245549 0.0 0.0
8917.58804094625 8917.58804094625 0.0 0.0
9700.672532953316 9700.672532953316 0.0 0.0
8895.191535934211 8895.191535934211 0.0 0.0
7267.782368201991 7267.782368201991 0.0 0.0
6172.720018224069 6172.720018224069 0.0 0.0
4764.1000768702 4764.1000768702 0.0 0.0
3478.04065585037 3478.04065585037 0.0 0.0
2391.07553260234 2391.07553260234 0.0 0.0
1534.0016453930007 1534.0016453930007 0.0 0.0
863.6023968131265 863.6023968131265 0.0 0.0
351.92723014465935 351.92723014465935 0.0 0.0
150.82003101760503 150.82003101760503 0.0 0.0
89.36409730762365 89.36409730762365 0.0 0.0
388.5314543787233 388.5314543787233 0.0 0.0
1410.6118948411508 1410.6118948411508 0.0 0.0
3082.2752979236457 3082.2752979236457 0.0 0.0
5163.637980348238 5163.637980348238 0.0 0.0
7699.630753013576 7699.630753013576 0.0 0.0
10683.17781226199 10683.17781226199 0.0 0.0
14021.008708306508 14021.008708306508 0.0 0.0
17429.9545768739 17429.9545768739 0.0 0.0
20691.64224836897 20691.64224836897 0.0 0.0
17791.187743860115 17791.187743860115 0.0 0.0
20662.758444103976 20662.758444103976 0.0 0.0
17361.5334823786 17361.5334823786 0.0 0.0
13920.659681618801 13920.659681618801 0.0 0.0
10560.577970083183 10560.577970083183 0.0 0.0
7570.884434527361 7570.884434527361 0.0 0.0
5055.887007240643 5055.887007240643 0.0 0.0
3025.767660214395 3025.767660214395 0.0 0.0
1405.3794106360085 1405.3794106360085 0.0 0.0
395.60272226892994 395.60272226892994 0.0 0.0
94.64588588386482 94.64588588386482 0.0 0.0