# vtk DataFile Version 3.0
Some data
ASCII
DATASET UNSTRUCTURED_GRID
POINTS 1029 float
0.0 0.0 0.0
0.8 0.0 0.0
1.6 0.0 0.0
2.4000000000000004 0.0 0.0
3.2 0.0 0.0
4.0 0.0 0.0
4.800000000000001 0.0 0.0
5.6000000000000005 0.0 0.0
6.4 0.0 0.0
7.2 0.0 0.0
8.0 0.0 0.0
8.8 0.0 0.0
9.600000000000001 0.0 0.0
10.4 0.0 0.0
11.200000000000001 0.0 0.0
12.0 0.0 0.0
12.8 0.0 0.0
13.600000000000001 0.0 0.0
14.4 0.0 0.0
15.200000000000001 0.0 0.0
16.0 0.0 0.0
0.0 0.3333333333333333 0.0
0.8 0.3333333333333333 0.0
1.6 0.3333333333333333 0.0
2.4000000000000004 0.3333333333333333 0.0
3.2 0.3333333333333333 0.0
4.0 0.3333333333333333 0.0
4.800000000000001 0.3333333333333333 0.0
5.6000000000000005 0.3333333333333333 0.0
6.4 0.3333333333333333 0.0
7.2 0.3333333333333333 0.0
8.0 0.3333333333333333 0.0
8.8 0.3333333333333333 0.0
9.600000000000001 0.3333333333333333 0.0
10.4 0.3333333333333333 0.0
11.200000000000001 0.3333333333333333 0.0
12.0 0.3333333333333333 0.0
12.8 0.3333333333333333 0.0
13.600000000000001 0.3333333333333333 0.0
14.4 0.3333333333333333 0.0
15.200000000000001 0.3333333333333333 0.0
16.0 0.3333333333333333 0.0
0.0 0.6666666666666666 0.0
0.8 0.6666666666666666 0.0
1.6 0.6666666666666666 0.0
2.4000000000000004 0.6666666666666666 0.0
3.2 0.6666666666666666 0.0
4.0 0.6666666666666666 0.0
4.800000000000001 0.6666666666666666 0.0
5.6000000000000005 0.6666666666666666 0.0
6.4 0.6666666666666666 0.0
7.2 0.6666666666666666 0.0
8.0 0.6666666666666666 0.0
8.8 0.6666666666666666 0.0
9.600000000000001 0.6666666666666666 0.0
10.4 0.6666666666666666 0.0
11.200000000000001 0.6666666666666666 0.0
12.0 0.6666666666666666 0.0
12.8 0.6666666666666666 0.0
13.600000000000001 0.6666666666666666 0.0
14.4 0.6666666666666666 0.0
15.200000000000001 0.6666666666666666 0.0
16.0 0.6666666666666666 0.0
0.0 1.0 0.0
0.8 1.0 0.0
1.6 1.0 0.0
2.4000000000000004 1.0 0.0
3.2 1.0 0.0
4.0 1.0 0.0
4.800000000000001 1.0 0.0
5.6000000000000005 1.0 0.0
6.4 1.0 0.0
7.2 1.0 0.0
8.0 1.0 0.0
8.8 1.0 0.0
9.600000000000001 1.0 0.0
10.4 1.0 0.0
11.200000000000001 1.0 0.0
12.0 1.0 0.0
12.8 1.0 0.0
13.600000000000001 1.0 0.0
14.4 1.0 0.0
15.200000000000001 1.0 0.0
16.0 1.0 0.0
0.0 1.3333333333333333 0.0
0.8 1.3333333333333333 0.0
1.6 1.3333333333333333 0.0
2.4000000000000004 1.3333333333333333 0.0
3.2 1.3333333333333333 0.0
4.0 1.3333333333333333 0.0
4.800000000000001 1.3333333333333333 0.0
5.6000000000000005 1.3333333333333333 0.0
6.4 1.3333333333333333 0.0
7.2 1.3333333333333333 0.0
8.0 1.3333333333333333 0.0
8.8 1.3333333333333333 0.0
9.600000000000001 1.3333333333333333 0.0
10.4 1.3333333333333333 0.0
11.200000000000001 1.3333333333333333 0.0
12.0 1.3333333333333333 0.0
12.8 1.3333333333333333 0.0
13.600000000000001 1.3333333333333333 0.0
14.4 1.3333333333333333 0.0
15.200000000000001 1.3333333333333333 0.0
16.0 1.3333333333333333 0.0
0.0 1.6666666666666665 0.0
0.8 1.6666666666666665 0.0
1.6 1.6666666666666665 0.0
2.4000000000000004 1.6666666666666665 0.0
3.2 1.6666666666666665 0.0
4.0 1.6666666666666665 0.0
4.800000000000001 1.6666666666666665 0.0
5.6000000000000005 1.6666666666666665 0.0
6.4 1.6666666666666665 0.0
7.2 1.6666666666666665 0.0
8.0 1.6666666666666665 0.0
8.8 1.6666666666666665 0.0
9.600000000000001 1.6666666666666665 0.0
10.4 1.6666666666666665 0.0
11.200000000000001 1.6666666666666665 0.0
12.0 1.6666666666666665 0.0
12.8 1.6666666666666665 0.0
13.600000000000001 1.6666666666666665 0.0
14.4 1.6666666666666665 0.0
15.200000000000001 1.6666666666666665 0.0
16.0 1.6666666666666665 0.0
0.0 2.0 0.0
0.8 2.0 0.0
1.6 2.0 0.0
2.4000000000000004 2.0 0.0
3.2 2.0 0.0
4.0 2.0 0.0
4.800000000000001 2.0 0.0
5.6000000000000005 2.0 0.0
6.4 2.0 0.0
7.2 2.0 0.0
8.0 2.0 0.0
8.8 2.0 0.0
9.600000000000001 2.0 0.0
10.4 2.0 0.0
11.200000000000001 2.0 0.0
12.0 2.0 0.0
12.8 2.0 0.0
13.600000000000001 2.0 0.0
14.4 2.0 0.0
15.200000000000001 2.0 0.0
16.0 2.0 0.0
0.0 0.0 1.6666666666666667
0.8 0.0 1.6666666666666667
1.6 0.0 1.6666666666666667
2.4000000000000004 0.0 1.6666666666666667
3.2 0.0 1.6666666666666667
4.0 0.0 1.6666666666666667
4.800000000000001 0.0 1.6666666666666667
5.6000000000000005 0.0 1.6666666666666667
6.4 0.0 1.6666666666666667
7.2 0.0 1.6666666666666667
8.0 0.0 1.6666666666666667
8.8 0.0 1.6666666666666667
9.600000000000001 0.0 1.6666666666666667
10.4 0.0 1.6666666666666667
11.200000000000001 0.0 1.6666666666666667
12.0 0.0 1.6666666666666667
12.8 0.0 1.6666666666666667
13.600000000000001 0.0 1.6666666666666667
14.4 0.0 1.6666666666666667
15.200000000000001 0.0 1.6666666666666667
16.0 0.0 1.6666666666666667
0.0 0.3333333333333333 1.6666666666666667
0.8 0.3333333333333333 1.6666666666666667
1.6 0.3333333333333333 1.6666666666666667
2.4000000000000004 0.3333333333333333 1.6666666666666667
3.2 0.3333333333333333 1.6666666666666667
4.0 0.3333333333333333 1.6666666666666667
4.800000000000001 0.3333333333333333 1.6666666666666667
5.6000000000000005 0.3333333333333333 1.6666666666666667
6.4 0.3333333333333333 1.6666666666666667
7.2 0.3333333333333333 1.6666666666666667
8.0 0.3333333333333333 1.6666666666666667
8.8 0.3333333333333333 1.6666666666666667
9.600000000000001 0.3333333333333333 1.6666666666666667
10.4 0.3333333333333333 1.6666666666666667
11.200000000000001 0.3333333333333333 1.6666666666666667
12.0 0.3333333333333333 1.6666666666666667
12.8 0.3333333333333333 1.6666666666666667
13.600000000000001 0.3333333333333333 1.6666666666666667
14.4 0.3333333333333333 1.6666666666666667
15.200000000000001 0.3333333333333333 1.6666666666666667
16.0 0.3333333333333333 1.6666666666666667
0.0 0.6666666666666666 1.6666666666666667
0.8 0.6666666666666666 1.6666666666666667
1.6 0.6666666666666666 1.6666666666666667
2.4000000000000004 0.6666666666666666 1.6666666666666667
3.2 0.6666666666666666 1.6666666666666667
4.0 0.6666666666666666 1.6666666666666667
4.800000000000001 0.6666666666666666 1.6666666666666667
5.6000000000000005 0.6666666666666666 1.6666666666666667
6.4 0.6666666666666666 1.6666666666666667
7.2 0.6666666666666666 1.6666666666666667
8.0 0.6666666666666666 1.6666666666666667
8.8 0.6666666666666666 1.6666666666666667
9.600000000000001 0.6666666666666666 1.6666666666666667
10.4 0.6666666666666666 1.6666666666666667
11.200000000000001 0.6666666666666666 1.6666666666666667
12.0 0.6666666666666666 1.6666666666666667
12.8 0.6666666666666666 1.6666666666666667
13.600000000000001 0.6666666666666666 1.6666666666666667
14.4 0.6666666666666666 1.6666666666666667
15.200000000000001 0.6666666666666666 1.6666666666666667
16.0 0.6666666666666666 1.6666666666666667
0.0 1.0 1.6666666666666667
0.8 1.0 1.6666666666666667
1.6 1.0 1.6666666666666667
2.4000000000000004 1.0 1.6666666666666667
3.2 1.0 1.6666666666666667
4.0 1.0 1.6666666666666667
4.800000000000001 1.0 1.6666666666666667
5.6000000000000005 1.0 1.6666666666666667
6.4 1.0 1.6666666666666667
7.2 1.0 1.6666666666666667
8.0 1.0 1.6666666666666667
8.8 1.0 1.6666666666666667
9.600000000000001 1.0 1.6666666666666667
10.4 1.0 1.6666666666666667
11.200000000000001 1.0 1.6666666666666667
12.0 1.0 1.6666666666666667
12.8 1.0 1.6666666666666667
13.600000000000001 1.0 1.6666666666666667
14.4 1.0 1.6666666666666667
15.200000000000001 1.0 1.6666666666666667
16.0 1.0 1.6666666666666667
0.0 1.3333333333333333 1.6666666666666667
0.8 1.3333333333333333 1.6666666666666667
1.6 1.3333333333333333 1.6666666666666667
2.4000000000000004 1.3333333333333333 1.6666666666666667
3.2 1.3333333333333333 1.6666666666666667
4.0 1.3333333333333333 1.6666666666666667
4.800000000000001 1.3333333333333333 1.6666666666666667
5.6000000000000005 1.3333333333333333 1.6666666666666667
6.4 1.3333333333333333 1.6666666666666667
7.2 1.3333333333333333 1.6666666666666667
8.0 1.3333333333333333 1.6666666666666667
8.8 1.3333333333333333 1.6666666666666667
9.600000000000001 1.3333333333333333 1.6666666666666667
10.4 1.3333333333333333 1.6666666666666667
11.200000000000001 1.3333333333333333 1.6666666666666667
12.0 1.3333333333333333 1.6666666666666667
12.8 1.3333333333333333 1.6666666666666667
13.600000000000001 1.3333333333333333 1.6666666666666667
14.4 1.3333333333333333 1.6666666666666667
15.200000000000001 1.3333333333333333 1.6666666666666667
16.0 1.3333333333333333 1.6666666666666667
0.0 1.6666666666666665 1.6666666666666667
0.8 1.6666666666666665 1.6666666666666667
1.6 1.6666666666666665 1.6666666666666667
2.4000000000000004 1.6666666666666665 1.6666666666666667
3.2 1.6666666666666665 1.6666666666666667
4.0 1.6666666666666665 1.6666666666666667
4.800000000000001 1.6666666666666665 1.6666666666666667
5.6000000000000005 1.6666666666666665 1.6666666666666667
6.4 1.6666666666666665 1.6666666666666667
7.2 1.6666666666666665 1.6666666666666667
8.0 1.6666666666666665 1.6666666666666667
8.8 1.6666666666666665 1.6666666666666667
9.600000000000001 1.6666666666666665 1.6666666666666667
10.4 1.6666666666666665 1.6666666666666667
11.200000000000001 1.6666666666666665 1.6666666666666667
12.0 1.6666666666666665 1.6666666666666667
12.8 1.6666666666666665 1.6666666666666667
13.600000000000001 1.6666666666666665 1.6666666666666667
14.4 1.6666666666666665 1.6666666666666667
15.200000000000001 1.6666666666666665 1.6666666666666667
16.0 1.6666666666666665 1.6666666666666667
0.0 2.0 1.6666666666666667
0.8 2.0 1.6666666666666667
1.6 2.0 1.6666666666666667
2.4000000000000004 2.0 1.6666666666666667
3.2 2.0 1.6666666666666667
4.0 2.0 1.6666666666666667
4.800000000000001 2.0 1.6666666666666667
5.6000000000000005 2.0 1.6666666666666667
6.4 2.0 1.6666666666666667
7.2 2.0 1.6666666666666667
8.0 2.0 1.6666666666666667
8.8 2.0 1.6666666666666667
9.600000000000001 2.0 1.6666666666666667
10.4 2.0 1.6666666666666667
11.200000000000001 2.0 1.6666666666666667
12.0 2.0 1.6666666666666667
12.8 2.0 1.6666666666666667
13.600000000000001 2.0 1.6666666666666667
14.4 2.0 1.6666666666666667
15.200000000000001 2.0 1.6666666666666667
16.0 2.0 1.6666666666666667
0.0 0.0 3.3333333333333335
0.8 0.0 3.3333333333333335
1.6 0.0 3.3333333333333335
2.4000000000000004 0.0 3.3333333333333335
3.2 0.0 3.3333333333333335
4.0 0.0 3.3333333333333335
4.800000000000001 0.0 3.3333333333333335
5.6000000000000005 0.0 3.3333333333333335
6.4 0.0 3.3333333333333335
7.2 0.0 3.3333333333333335
8.0 0.0 3.3333333333333335
8.8 0.0 3.3333333333333335
9.600000000000001 0.0 3.3333333333333335
10.4 0.0 3.3333333333333335
11.200000000000001 0.0 3.3333333333333335
12.0 0.0 3.3333333333333335
12.8 0.0 3.3333333333333335
13.600000000000001 0.0 3.3333333333333335
14.4 0.0 3.3333333333333335
15.200000000000001 0.0 3.3333333333333335
16.0 0.0 3.3333333333333335
0.0 0.3333333333333333 3.3333333333333335
0.8 0.3333333333333333 3.3333333333333335
1.6 0.3333333333333333 3.3333333333333335
2.4000000000000004 0.3333333333333333 3.3333333333333335
3.2 0.3333333333333333 3.3333333333333335
4.0 0.3333333333333333 3.3333333333333335
4.800000000000001 0.3333333333333333 3.3333333333333335
5.6000000000000005 0.3333333333333333 3.3333333333333335
6.4 0.3333333333333333 3.3333333333333335
7.2 0.3333333333333333 3.3333333333333335
8.0 0.3333333333333333 3.3333333333333335
8.8 0.3333333333333333 3.3333333333333335
9.600000000000001 0.3333333333333333 3.3333333333333335
10.4 0.3333333333333333 3.3333333333333335
11.200000000000001 0.3333333333333333 3.3333333333333335
12.0 0.3333333333333333 3.3333333333333335
12.8 0.3333333333333333 3.3333333333333335
13.600000000000001 0.3333333333333333 3.3333333333333335
14.4 0.3333333333333333 3.3333333333333335
15.200000000000001 0.3333333333333333 3.3333333333333335
16.0 0.3333333333333333 3.3333333333333335
0.0 0.6666666666666666 3.3333333333333335
0.8 0.6666666666666666 3.3333333333333335
1.6 0.6666666666666666 3.3333333333333335
2.4000000000000004 0.6666666666666666 3.3333333333333335
3.2 0.6666666666666666 3.3333333333333335
4.0 0.6666666666666666 3.3333333333333335
4.800000000000001 0.6666666666666666 3.3333333333333335
5.6000000000000005 0.6666666666666666 3.3333333333333335
6.4 0.6666666666666666 3.3333333333333335
7.2 0.6666666666666666 3.3333333333333335
8.0 0.6666666666666666 3.3333333333333335
8.8 0.6666666666666666 3.3333333333333335
9.600000000000001 0.6666666666666666 3.3333333333333335
10.4 0.6666666666666666 3.3333333333333335
11.200000000000001 0.6666666666666666 3.3333333333333335
12.0 0.6666666666666666 3.3333333333333335
12.8 0.6666666666666666 3.3333333333333335
13.600000000000001 0.6666666666666666 3.3333333333333335
14.4 0.6666666666666666 3.3333333333333335
15.200000000000001 0.6666666666666666 3.3333333333333335
16.0 0.6666666666666666 3.3333333333333335
0.0 1.0 3.3333333333333335
0.8 1.0 3.3333333333333335
1.6 1.0 3.3333333333333335
2.4000000000000004 1.0 3.3333333333333335
3.2 1.0 3.3333333333333335
4.0 1.0 3.3333333333333335
4.800000000000001 1.0 3.3333333333333335
5.6000000000000005 1.0 3.3333333333333335
6.4 1.0 3.3333333333333335
7.2 1.0 3.3333333333333335
8.0 1.0 3.3333333333333335
8.8 1.0 3.3333333333333335
9.600000000000001 1.0 3.3333333333333335
10.4 1.0 3.3333333333333335
11.200000000000001 1.0 3.3333333333333335
12.0 1.0 3.3333333333333335
12.8 1.0 3.3333333333333335
13.600000000000001 1.0 3.3333333333333335
14.4 1.0 3.3333333333333335
15.200000000000001 1.0 3.3333333333333335
16.0 1.0 3.3333333333333335
0.0 1.3333333333333333 3.3333333333333335
0.8 1.3333333333333333 3.3333333333333335
1.6 1.3333333333333333 3.3333333333333335
2.4000000000000004 1.3333333333333333 3.3333333333333335
3.2 1.3333333333333333 3.3333333333333335
4.0 1.3333333333333333 3.3333333333333335
4.800000000000001 1.3333333333333333 3.3333333333333335
5.6000000000000005 1.3333333333333333 3.3333333333333335
6.4 1.3333333333333333 3.3333333333333335
7.2 1.3333333333333333 3.3333333333333335
8.0 1.3333333333333333 3.3333333333333335
8.8 1.3333333333333333 3.3333333333333335
9.600000000000001 1.3333333333333333 3.3333333333333335
10.4 1.3333333333333333 3.3333333333333335
11.200000000000001 1.3333333333333333 3.3333333333333335
12.0 1.3333333333333333 3.3333333333333335
12.8 1.3333333333333333 3.3333333333333335
13.600000000000001 1.3333333333333333 3.3333333333333335
14.4 1.3333333333333333 3.3333333333333335
15.200000000000001 1.3333333333333333 3.3333333333333335
16.0 1.3333333333333333 3.3333333333333335
0.0 1.6666666666666665 3.3333333333333335
0.8 1.6666666666666665 3.3333333333333335
1.6 1.6666666666666665 3.3333333333333335
2.4000000000000004 1.6666666666666665 3.3333333333333335
3.2 1.6666666666666665 3.3333333333333335
4.0 1.6666666666666665 3.3333333333333335
4.800000000000001 1.6666666666666665 3.3333333333333335
5.6000000000000005 1.6666666666666665 3.3333333333333335
6.4 1.6666666666666665 3.3333333333333335
7.2 1.6666666666666665 3.3333333333333335
8.0 1.6666666666666665 3.3333333333333335
8.8 1.6666666666666665 3.3333333333333335
9.600000000000001 1.6666666666666665 3.3333333333333335
10.4 1.6666666666666665 3.3333333333333335
11.200000000000001 1.6666666666666665 3.3333333333333335
12.0 1.6666666666666665 3.3333333333333335
12.8 1.6666666666666665 3.3333333333333335
13.600000000000001 1.6666666666666665 3.3333333333333335
14.4 1.6666666666666665 3.3333333333333335
15.200000000000001 1.6666666666666665 3.3333333333333335
16.0 1.6666666666666665 3.3333333333333335
0.0 2.0 3.3333333333333335
0.8 2.0 3.3333333333333335
1.6 2.0 3.3333333333333335
2.4000000000000004 2.0 3.3333333333333335
3.2 2.0 3.3333333333333335
4.0 2.0 3.3333333333333335
4.800000000000001 2.0 3.3333333333333335
5.6000000000000005 2.0 3.3333333333333335
6.4 2.0 3.3333333333333335
7.2 2.0 3.3333333333333335
8.0 2.0 3.3333333333333335
8.8 2.0 3.3333333333333335
9.600000000000001 2.0 3.3333333333333335
10.4 2.0 3.3333333333333335
11.200000000000001 2.0 3.3333333333333335
12.0 2.0 3.3333333333333335
12.8 2.0 3.3333333333333335
13.600000000000001 2.0 3.3333333333333335
14.4 2.0 3.3333333333333335
15.200000000000001 2.0 3.3333333333333335
16.0 2.0 3.3333333333333335
0.0 0.0 5.0
0.8 0.0 5.0
1.6 0.0 5.0
2.4000000000000004 0.0 5.0
3.2 0.0 5.0
4.0 0.0 5.0
4.800000000000001 0.0 5.0
5.6000000000000005 0.0 5.0
6.4 0.0 5.0
7.2 0.0 5.0
8.0 0.0 5.0
8.8 0.0 5.0
9.600000000000001 0.0 5.0
10.4 0.0 5.0
11.200000000000001 0.0 5.0
12.0 0.0 5.0
12.8 0.0 5.0
13.600000000000001 0.0 5.0
14.4 0.0 5.0
15.200000000000001 0.0 5.0
16.0 0.0 5.0
0.0 0.3333333333333333 5.0
0.8 0.3333333333333333 5.0
1.6 0.3333333333333333 5.0
2.4000000000000004 0.3333333333333333 5.0
3.2 0.3333333333333333 5.0
4.0 0.3333333333333333 5.0
4.800000000000001 0.3333333333333333 5.0
5.6000000000000005 0.3333333333333333 5.0
6.4 0.3333333333333333 5.0
7.2 0.3333333333333333 5.0
8.0 0.3333333333333333 5.0
8.8 0.3333333333333333 5.0
9.600000000000001 0.3333333333333333 5.0
10.4 0.3333333333333333 5.0
11.200000000000001 0.3333333333333333 5.0
12.0 0.3333333333333333 5.0
12.8 0.3333333333333333 5.0
13.600000000000001 0.3333333333333333 5.0
14.4 0.3333333333333333 5.0
15.200000000000001 0.3333333333333333 5.0
16.0 0.3333333333333333 5.0
0.0 0.6666666666666666 5.0
0.8 0.6666666666666666 5.0
1.6 0.6666666666666666 5.0
2.4000000000000004 0.6666666666666666 5.0
3.2 0.6666666666666666 5.0
4.0 0.6666666666666666 5.0
4.800000000000001 0.6666666666666666 5.0
5.6000000000000005 0.6666666666666666 5.0
6.4 0.6666666666666666 5.0
7.2 0.6666666666666666 5.0
8.0 0.6666666666666666 5.0
8.8 0.6666666666666666 5.0
9.600000000000001 0.6666666666666666 5.0
10.4 0.6666666666666666 5.0
11.200000000000001 0.6666666666666666 5.0
12.0 0.6666666666666666 5.0
12.8 0.6666666666666666 5.0
13.600000000000001 0.6666666666666666 5.0
14.4 0.6666666666666666 5.0
15.200000000000001 0.6666666666666666 5.0
16.0 0.6666666666666666 5.0
0.0 1.0 5.0
0.8 1.0 5.0
1.6 1.0 5.0
2.4000000000000004 1.0 5.0
3.2 1.0 5.0
4.0 1.0 5.0
4.800000000000001 1.0 5.0
5.6000000000000005 1.0 5.0
6.4 1.0 5.0
7.2 1.0 5.0
8.0 1.0 5.0
8.8 1.0 5.0
9.600000000000001 1.0 5.0
10.4 1.0 5.0
11.200000000000001 1.0 5.0
12.0 1.0 5.0
12.8 1.0 5.0
13.600000000000001 1.0 5.0
14.4 1.0 5.0
15.200000000000001 1.0 5.0
16.0 1.0 5.0
0.0 1.3333333333333333 5.0
0.8 1.3333333333333333 5.0
1.6 1.3333333333333333 5.0
2.4000000000000004 1.3333333333333333 5.0
3.2 1.3333333333333333 5.0
4.0 1.3333333333333333 5.0
4.800000000000001 1.3333333333333333 5.0
5.6000000000000005 1.3333333333333333 5.0
6.4 1.3333333333333333 5.0
7.2 1.3333333333333333 5.0
8.0 1.3333333333333333 5.0
8.8 1.3333333333333333 5.0
9.600000000000001 1.3333333333333333 5.0
10.4 1.3333333333333333 5.0
11.200000000000001 1.3333333333333333 5.0
12.0 1.3333333333333333 5.0
12.8 1.3333333333333333 5.0
13.600000000000001 1.3333333333333333 5.0
14.4 1.3333333333333333 5.0
15.200000000000001 1.3333333333333333 5.0
16.0 1.3333333333333333 5.0
0.0 1.6666666666666665 5.0
0.8 1.6666666666666665 5.0
1.6 1.6666666666666665 5.0
2.4000000000000004 1.6666666666666665 5.0
3.2 1.6666666666666665 5.0
4.0 1.6666666666666665 5.0
4.800000000000001 1.6666666666666665 5.0
5.6000000000000005 1.6666666666666665 5.0
6.4 1.6666666666666665 5.0
7.2 1.6666666666666665 5.0
8.0 1.6666666666666665 5.0
8.8 1.6666666666666665 5.0
9.600000000000001 1.6666666666666665 5.0
10.4 1.6666666666666665 5.0
11.200000000000001 1.6666666666666665 5.0
12.0 1.6666666666666665 5.0
12.8 1.6666666666666665 5.0
13.600000000000001 1.6666666666666665 5.0
14.4 1.6666666666666665 5.0
15.200000000000001 1.6666666666666665 5.0
16.0 1.6666666666666665 5.0
0.0 2.0 5.0
0.8 2.0 5.0
1.6 2.0 5.0
2.4000000000000004 2.0 5.0
3.2 2.0 5.0
4.0 2.0 5.0
4.800000000000001 2.0 5.0
5.6000000000000005 2.0 5.0
6.4 2.0 5.0
7.2 2.0 5.0
8.0 2.0 5.0
8.8 2.0 5.0
9.600000000000001 2.0 5.0
10.4 2.0 5.0
11.200000000000001 2.0 5.0
12.0 2.0 5.0
12.8 2.0 5.0
13.600000000000001 2.0 5.0
14.4 2.0 5.0
15.200000000000001 2.0 5.0
16.0 2.0 5.0
0.0 0.0 6.666666666666667
0.8 0.0 6.666666666666667
1.6 0.0 6.666666666666667
2.4000000000000004 0.0 6.666666666666667
3.2 0.0 6.666666666666667
4.0 0.0 6.666666666666667
4.800000000000001 0.0 6.666666666666667
5.6000000000000005 0.0 6.666666666666667
6.4 0.0 6.666666666666667
7.2 0.0 6.666666666666667
8.0 0.0 6.666666666666667
8.8 0.0 6.666666666666667
9.600000000000001 0.0 6.666666666666667
10.4 0.0 6.666666666666667
11.200000000000001 0.0 6.666666666666667
12.0 0.0 6.666666666666667
12.8 0.0 6.666666666666667
13.600000000000001 0.0 6.666666666666667
14.4 0.0 6.666666666666667
15.200000000000001 0.0 6.666666666666667
16.0 0.0 6.666666666666667
0.0 0.3333333333333333 6.666666666666667
0.8 0.3333333333333333 6.666666666666667
1.6 0.3333333333333333 6.666666666666667
2.4000000000000004 0.3333333333333333 6.666666666666667
3.2 0.3333333333333333 6.666666666666667
4.0 0.3333333333333333 6.666666666666667
4.800000000000001 0.3333333333333333 6.666666666666667
5.6000000000000005 0.3333333333333333 6.666666666666667
6.4 0.3333333333333333 6.666666666666667
7.2 0.3333333333333333 6.666666666666667
8.0 0.3333333333333333 6.666666666666667
8.8 0.3333333333333333 6.666666666666667
9.600000000000001 0.3333333333333333 6.666666666666667
10.4 0.3333333333333333 6.666666666666667
11.200000000000001 0.3333333333333333 6.666666666666667
12.0 0.3333333333333333 6.666666666666667
12.8 0.3333333333333333 6.666666666666667
13.600000000000001 0.3333333333333333 6.666666666666667
14.4 0.3333333333333333 6.666666666666667
15.200000000000001 0.3333333333333333 6.666666666666667
16.0 0.3333333333333333 6.666666666666667
0.0 0.6666666666666666 6.666666666666667
0.8 0.6666666666666666 6.666666666666667
1.6 0.6666666666666666 6.666666666666667
2.4000000000000004 0.6666666666666666 6.666666666666667
3.2 0.6666666666666666 6.666666666666667
4.0 0.6666666666666666 6.666666666666667
4.800000000000001 0.6666666666666666 6.666666666666667
5.6000000000000005 0.6666666666666666 6.666666666666667
6.4 0.6666666666666666 6.666666666666667
7.2 0.6666666666666666 6.666666666666667
8.0 0.6666666666666666 6.666666666666667
8.8 0.6666666666666666 6.666666666666667
9.600000000000001 0.6666666666666666 6.666666666666667
10.4 0.6666666666666666 6.666666666666667
11.200000000000001 0.6666666666666666 6.666666666666667
12.0 0.6666666666666666 6.666666666666667
12.8 0.6666666666666666 6.666666666666667
13.600000000000001 0.6666666666666666 6.666666666666667
14.4 0.6666666666666666 6.666666666666667
15.200000000000001 0.6666666666666666 6.666666666666667
16.0 0.6666666666666666 6.666666666666667
0.0 1.0 6.666666666666667
0.8 1.0 6.666666666666667
1.6 1.0 6.666666666666667
2.4000000000000004 1.0 6.666666666666667
3.2 1.0 6.666666666666667
4.0 1.0 6.666666666666667
4.800000000000001 1.0 6.666666666666667
5.6000000000000005 1.0 6.666666666666667
6.4 1.0 6.666666666666667
7.2 1.0 6.666666666666667
8.0 1.0 6.666666666666667
8.8 1.0 6.666666666666667
9.600000000000001 1.0 6.666666666666667
10.4 1.0 6.666666666666667
11.200000000000001 1.0 6.666666666666667
12.0 1.0 6.666666666666667
12.8 1.0 6.666666666666667
13.600000000000001 1.0 6.666666666666667
14.4 1.0 6.666666666666667
15.200000000000001 1.0 6.666666666666667
16.0 1.0 6.666666666666667
0.0 1.3333333333333333 6.666666666666667
0.8 1.3333333333333333 6.666666666666667
1.6 1.3333333333333333 6.666666666666667
2.4000000000000004 1.3333333333333333 6.666666666666667
3.2 1.3333333333333333 6.666666666666667
4.0 1.3333333333333333 6.666666666666667
4.800000000000001 1.3333333333333333 6.666666666666667
5.6000000000000005 1.3333333333333333 6.666666666666667
6.4 1.3333333333333333 6.666666666666667
7.2 1.3333333333333333 6.666666666666667
8.0 1.3333333333333333 6.666666666666667
8.8 1.3333333333333333 6.666666666666667
9.600000000000001 1.3333333333333333 6.666666666666667
10.4 1.3333333333333333 6.666666666666667
11.200000000000001 1.3333333333333333 6.666666666666667
12.0 1.3333333333333333 6.666666666666667
12.8 1.3333333333333333 6.666666666666667
13.600000000000001 1.3333333333333333 6.666666666666667
14.4 1.3333333333333333 6.666666666666667
15.200000000000001 1.3333333333333333 6.666666666666667
16.0 1.3333333333333333 6.666666666666667
0.0 1.6666666666666665 6.666666666666667
0.8 1.6666666666666665 6.666666666666667
1.6 1.6666666666666665 6.666666666666667
2.4000000000000004 1.6666666666666665 6.666666666666667
3.2 1.6666666666666665 6.666666666666667
4.0 1.6666666666666665 6.666666666666667
4.800000000000001 1.6666666666666665 6.666666666666667
5.6000000000000005 1.6666666666666665 6.666666666666667
6.4 1.6666666666666665 6.666666666666667
7.2 1.6666666666666665 6.666666666666667
8.0 1.6666666666666665 6.666666666666667
8.8 1.6666666666666665 6.666666666666667
9.600000000000001 1.6666666666666665 6.666666666666667
10.4 1.6666666666666665 6.666666666666667
11.200000000000001 1.6666666666666665 6.666666666666667
12.0 1.6666666666666665 6.666666666666667
12.8 1.6666666666666665 6.666666666666667
13.600000000000001 1.6666666666666665 6.666666666666667
14.4 1.6666666666666665 6.666666666666667
15.200000000000001 1.6666666666666665 6.666666666666667
16.0 1.6666666666666665 6.666666666666667
0.0 2.0 6.666666666666667
0.8 2.0 6.666666666666667
1.6 2.0 6.666666666666667
2.4000000000000004 2.0 6.666666666666667
3.2 2.0 6.666666666666667
4.0 2.0 6.666666666666667
4.800000000000001 2.0 6.666666666666667
5.6000000000000005 2.0 6.666666666666667
6.4 2.0 6.666666666666667
7.2 2.0 6.666666666666667
8.0 2.0 6.666666666666667
8.8 2.0 6.666666666666667
9.600000000000001 2.0 6.666666666666667
10.4 2.0 6.666666666666667
11.200000000000001 2.0 6.666666666666667
12.0 2.0 6.666666666666667
12.8 2.0 6.666666666666667
13.600000000000001 2.0 6.666666666666667
14.4 2.0 6.666666666666667
15.200000000000001 2.0 6.666666666666667
16.0 2.0 6.666666666666667
0.0 0.0 8.333333333333334
0.8 0.0 8.333333333333334
1.6 0.0 8.333333333333334
2.4000000000000004 0.0 8.333333333333334
3.2 0.0 8.333333333333334
4.0 0.0 8.333333333333334
4.800000000000001 0.0 8.333333333333334
5.6000000000000005 0.0 8.333333333333334
6.4 0.0 8.333333333333334
7.2 0.0 8.333333333333334
8.0 0.0 8.333333333333334
8.8 0.0 8.333333333333334
9.600000000000001 0.0 8.333333333333334
10.4 0.0 8.333333333333334
11.200000000000001 0.0 8.333333333333334
12.0 0.0 8.333333333333334
12.8 0.0 8.333333333333334
13.600000000000001 0.0 8.333333333333334
14.4 0.0 8.333333333333334
15.200000000000001 0.0 8.333333333333334
16.0 0.0 8.333333333333334
0.0 0.3333333333333333 8.333333333333334
0.8 0.3333333333333333 8.333333333333334
1.6 0.3333333333333333 8.333333333333334
2.4000000000000004 0.3333333333333333 8.333333333333334
3.2 0.3333333333333333 8.333333333333334
4.0 0.3333333333333333 8.333333333333334
4.800000000000001 0.3333333333333333 8.333333333333334
5.6000000000000005 0.3333333333333333 8.333333333333334
6.4 0.3333333333333333 8.333333333333334
7.2 0.3333333333333333 8.333333333333334
8.0 0.3333333333333333 8.333333333333334
8.8 0.3333333333333333 8.333333333333334
9.600000000000001 0.3333333333333333 8.333333333333334
10.4 0.3333333333333333 8.333333333333334
11.200000000000001 0.3333333333333333 8.333333333333334
12.0 0.3333333333333333 8.333333333333334
12.8 0.3333333333333333 8.333333333333334
13.600000000000001 0.3333333333333333 8.333333333333334
14.4 0.3333333333333333 8.333333333333334
15.200000000000001 0.3333333333333333 8.333333333333334
16.0 0.3333333333333333 8.333333333333334
0.0 0.6666666666666666 8.333333333333334
0.8 0.6666666666666666 8.333333333333334
1.6 0.6666666666666666 8.333333333333334
2.4000000000000004 0.6666666666666666 8.333333333333334
3.2 0.6666666666666666 8.333333333333334
4.0 0.6666666666666666 8.333333333333334
4.800000000000001 0.6666666666666666 8.333333333333334
5.6000000000000005 0.6666666666666666 8.333333333333334
6.4 0.6666666666666666 8.333333333333334
7.2 0.6666666666666666 8.333333333333334
8.0 0.6666666666666666 8.333333333333334
8.8 0.6666666666666666 8.333333333333334
9.600000000000001 0.6666666666666666 8.333333333333334
10.4 0.6666666666666666 8.333333333333334
11.200000000000001 0.6666666666666666 8.333333333333334
12.0 0.6666666666666666 8.333333333333334
12.8 0.6666666666666666 8.333333333333334
13.600000000000001 0.6666666666666666 8.333333333333334
14.4 0.6666666666666666 8.333333333333334
15.200000000000001 0.6666666666666666 8.333333333333334
16.0 0.6666666666666666 8.333333333333334
0.0 1.0 8.333333333333334
0.8 1.0 8.333333333333334
1.6 1.0 8.333333333333334
2.4000000000000004 1.0 8.333333333333334
3.2 1.0 8.333333333333334
4.0 1.0 8.333333333333334
4.800000000000001 1.0 8.333333333333334
5.6000000000000005 1.0 8.333333333333334
6.4 1.0 8.333333333333334
7.2 1.0 8.333333333333334
8.0 1.0 8.333333333333334
8.8 1.0 8.333333333333334
9.600000000000001 1.0 8.333333333333334
10.4 1.0 8.333333333333334
11.200000000000001 1.0 8.333333333333334
12.0 1.0 8.333333333333334
12.8 1.0 8.333333333333334
13.600000000000001 1.0 8.333333333333334
14.4 1.0 8.333333333333334
15.200000000000001 1.0 8.333333333333334
16.0 1.0 8.333333333333334
0.0 1.3333333333333333 8.333333333333334
0.8 1.3333333333333333 8.333333333333334
1.6 1.3333333333333333 8.333333333333334
2.4000000000000004 1.3333333333333333 8.333333333333334
3.2 1.3333333333333333 8.333333333333334
4.0 1.3333333333333333 8.333333333333334
4.800000000000001 1.3333333333333333 8.333333333333334
5.6000000000000005 1.3333333333333333 8.333333333333334
6.4 1.3333333333333333 8.333333333333334
7.2 1.3333333333333333 8.333333333333334
8.0 1.3333333333333333 8.333333333333334
8.8 1.3333333333333333 8.333333333333334
9.600000000000001 1.3333333333333333 8.333333333333334
10.4 1.3333333333333333 8.333333333333334
11.200000000000001 1.3333333333333333 8.333333333333334
12.0 1.3333333333333333 8.333333333333334
12.8 1.3333333333333333 8.333333333333334
13.600000000000001 1.3333333333333333 8.333333333333334
14.4 1.3333333333333333 8.333333333333334
15.200000000000001 1.3333333333333333 8.333333333333334
16.0 1.3333333333333333 8.333333333333334
0.0 1.6666666666666665 8.333333333333334
0.8 1.6666666666666665 8.333333333333334
1.6 1.6666666666666665 8.333333333333334
2.4000000000000004 1.6666666666666665 8.333333333333334
3.2 1.6666666666666665 8.333333333333334
4.0 1.6666666666666665 8.333333333333334
4.800000000000001 1.6666666666666665 8.333333333333334
5.6000000000000005 1.6666666666666665 8.333333333333334
6.4 1.6666666666666665 8.333333333333334
7.2 1.6666666666666665 8.333333333333334
8.0 1.6666666666666665 8.333333333333334
8.8 1.6666666666666665 8.333333333333334
9.600000000000001 1.6666666666666665 8.333333333333334
10.4 1.6666666666666665 8.333333333333334
11.200000000000001 1.6666666666666665 8.333333333333334
12.0 1.6666666666666665 8.333333333333334
12.8 1.6666666666666665 8.333333333333334
13.600000000000001 1.6666666666666665 8.333333333333334
14.4 1.6666666666666665 8.333333333333334
15.200000000000001 1.6666666666666665 8.333333333333334
16.0 1.6666666666666665 8.333333333333334
0.0 2.0 8.333333333333334
0.8 2.0 8.333333333333334
1.6 2.0 8.333333333333334
2.4000000000000004 2.0 8.333333333333334
3.2 2.0 8.333333333333334
4.0 2.0 8.333333333333334
4.800000000000001 2.0 8.333333333333334
5.6000000000000005 2.0 8.333333333333334
6.4 2.0 8.333333333333334
7.2 2.0 8.333333333333334
8.0 2.0 8.333333333333334
8.8 2.0 8.333333333333334
9.600000000000001 2.0 8.333333333333334
10.4 2.0 8.333333333333334
11.200000000000001 2.0 8.333333333333334
12.0 2.0 8.333333333333334
12.8 2.0 8.333333333333334
13.600000000000001 2.0 8.333333333333334
14.4 2.0 8.333333333333334
15.200000000000001 2.0 8.333333333333334
16.0 2.0 8.333333333333334
0.0 0.0 10.0
0.8 0.0 10.0
1.6 0.0 10.0
2.4000000000000004 0.0 10.0
3.2 0.0 10.0
4.0 0.0 10.0
4.800000000000001 0.0 10.0
5.6000000000000005 0.0 10.0
6.4 0.0 10.0
7.2 0.0 10.0
8.0 0.0 10.0
8.8 0.0 10.0
9.600000000000001 0.0 10.0
10.4 0.0 10.0
11.200000000000001 0.0 10.0
12.0 0.0 10.0
12.8 0.0 10.0
13.600000000000001 0.0 10.0
14.4 0.0 10.0
15.200000000000001 0.0 10.0
16.0 0.0 10.0
0.0 0.3333333333333333 10.0
0.8 0.3333333333333333 10.0
1.6 0.3333333333333333 10.0
2.4000000000000004 0.3333333333333333 10.0
3.2 0.3333333333333333 10.0
4.0 0.3333333333333333 10.0
4.800000000000001 0.3333333333333333 10.0
5.6000000000000005 0.3333333333333333 10.0
6.4 0.3333333333333333 10.0
7.2 0.3333333333333333 10.0
8.0 0.3333333333333333 10.0
8.8 0.3333333333333333 10.0
9.600000000000001 0.3333333333333333 10.0
10.4 0.3333333333333333 10.0
11.200000000000001 0.3333333333333333 10.0
12.0 0.3333333333333333 10.0
12.8 0.3333333333333333 10.0
13.600000000000001 0.3333333333333333 10.0
14.4 0.3333333333333333 10.0
15.200000000000001 0.3333333333333333 10.0
16.0 0.3333333333333333 10.0
0.0 0.6666666666666666 10.0
0.8 0.6666666666666666 10.0
1.6 0.6666666666666666 10.0
2.4000000000000004 0.6666666666666666 10.0
3.2 0.6666666666666666 10.0
4.0 0.6666666666666666 10.0
4.800000000000001 0.6666666666666666 10.0
5.6000000000000005 0.6666666666666666 10.0
6.4 0.6666666666666666 10.0
7.2 0.6666666666666666 10.0
8.0 0.6666666666666666 10.0
8.8 0.6666666666666666 10.0
9.600000000000001 0.6666666666666666 10.0
10.4 0.6666666666666666 10.0
11.200000000000001 0.6666666666666666 10.0
12.0 0.6666666666666666 10.0
12.8 0.6666666666666666 10.0
13.600000000000001 0.6666666666666666 10.0
14.4 0.6666666666666666 10.0
15.200000000000001 0.6666666666666666 10.0
16.0 0.6666666666666666 10.0
0.0 1.0 10.0
0.8 1.0 10.0
1.6 1.0 10.0
2.4000000000000004 1.0 10.0
3.2 1.0 10.0
4.0 1.0 10.0
4.800000000000001 1.0 10.0
5.6000000000000005 1.0 10.0
6.4 1.0 10.0
7.2 1.0 10.0
8.0 1.0 10.0
8.8 1.0 10.0
9.600000000000001 1.0 10.0
10.4 1.0 10.0
11.200000000000001 1.0 10.0
12.0 1.0 10.0
12.8 1.0 10.0
13.600000000000001 1.0 10.0
14.4 1.0 10.0
15.200000000000001 1.0 10.0
16.0 1.0 10.0
0.0 1.3333333333333333 10.0
0.8 1.3333333333333333 10.0
1.6 1.3333333333333333 10.0
2.4000000000000004 1.3333333333333333 10.0
3.2 1.3333333333333333 10.0
4.0 1.3333333333333333 10.0
4.800000000000001 1.3333333333333333 10.0
5.6000000000000005 1.3333333333333333 10.0
6.4 1.3333333333333333 10.0
7.2 1.3333333333333333 10.0
8.0 1.3333333333333333 10.0
8.8 1.3333333333333333 10.0
9.600000000000001 1.3333333333333333 10.0
10.4 1.3333333333333333 10.0
11.200000000000001 1.3333333333333333 10.0
12.0 1.3333333333333333 10.0
12.8 1.3333333333333333 10.0
13.600000000000001 1.3333333333333333 10.0
14.4 1.3333333333333333 10.0
15.200000000000001 1.3333333333333333 10.0
16.0 1.3333333333333333 10.0
0.0 1.6666666666666665 10.0
0.8 1.6666666666666665 10.0
1.6 1.6666666666666665 10.0
2.4000000000000004 1.6666666666666665 10.0
3.2 1.6666666666666665 10.0
4.0 1.6666666666666665 10.0
4.800000000000001 1.6666666666666665 10.0
5.6000000000000005 1.6666666666666665 10.0
6.4 1.6666666666666665 10.0
7.2 1.6666666666666665 10.0
8.0 1.6666666666666665 10.0
8.8 1.6666666666666665 10.0
9.600000000000001 1.6666666666666665 10.0
10.4 1.6666666666666665 10.0
11.200000000000001 1.6666666666666665 10.0
12.0 1.6666666666666665 10.0
12.8 1.6666666666666665 10.0
13.600000000000001 1.6666666666666665 10.0
14.4 1.6666666666666665 10.0
15.200000000000001 1.6666666666666665 10.0
16.0 1.6666666666666665 10.0
0.0 2.0 10.0
0.8 2.0 10.0
1.6 2.0 10.0
2.4000000000000004 2.0 10.0
3.2 2.0 10.0
4.0 2.0 10.0
4.800000000000001 2.0 10.0
5.6000000000000005 2.0 10.0
6.4 2.0 10.0
7.2 2.0 10.0
8.0 2.0 10.0
8.8 2.0 10.0
9.600000000000001 2.0 10.0
10.4 2.0 10.0
11.200000000000001 2.0 10.0
12.0 2.0 10.0
12.8 2.0 10.0
13.600000000000001 2.0 10.0
14.4 2.0 10.0
15.200000000000001 2.0 10.0
16.0 2.0 10.0
CELLS 720 6480
8 0 1 22 21 147 148 169 168
8 1 2 23 22 148 149 170 169
8 2 3 24 23 149 150 171 170
8 3 4 25 24 150 151 172 171
8 4 5 26 25 151 152 173 172
8 5 6 27 26 152 153 174 173
8 6 7 28 27 153 154 175 174
8 7 8 29 28 154 155 176 175
8 8 9 30 29 155 156 177 176
8 9 10 31 30 156 157 178 177
8 10 11 32 31 157 158 179 178
8 11 12 33 32 158 159 180 179
8 12 13 34 33 159 160 181 180
8 13 14 35 34 160 161 182 181
8 14 15 36 35 161 162 183 182
8 15 16 37 36 162 163 184 183
8 16 17 38 37 163 164 185 184
8 17 18 39 38 164 165 186 185
8 18 19 40 39 165 166 187 186
8 19 20 41 40 166 167 188 187
8 21 22 43 42 168 169 190 189
8 22 23 44 43 169 170 191 190
8 23 24 45 44 170 171 192 191
8 24 25 46 45 171 172 193 192
8 25 26 47 46 172 173 194 193
8 26 27 48 47 173 174 195 194
8 27 28 49 48 174 175 196 195
8 28 29 50 49 175 176 197 196
8 29 30 51 50 176 177 198 197
8 30 31 52 51 177 178 199 198
8 31 32 53 52 178 179 200 199
8 32 33 54 53 179 180 201 200
8 33 34 55 54 180 181 202 201
8 34 35 56 55 181 182 203 202
8 35 36 57 56 182 183 204 203
8 36 37 58 57 183 184 205 204
8 37 38 59 58 184 185 206 205
8 38 39 60 59 185 186 207 206
8 39 40 61 60 186 187 208 207
8 40 41 62 61 187 188 209 208
8 42 43 64 63 189 190 211 210
8 43 44 65 64 190 191 212 211
8 44 45 66 65 191 192 213 212
8 45 46 67 66 192 193 214 213
8 46 47 68 67 193 194 215 214
8 47 48 69 68 194 195 216 215
8 48 49 70 69 195 196 217 216
8 49 50 71 70 196 197 218 217
8 50 51 72 71 197 198 219 218
8 51 52 73 72 198 199 220 219
8 52 53 74 73 199 200 221 220
8 53 54 75 74 200 201 222 221
8 54 55 76 75 201 202 223 222
8 55 56 77 76 202 203 224 223
8 56 57 78 77 203 204 225 224
8 57 58 79 78 204 205 226 225
8 58 59 80 79 205 206 227 226
8 59 60 81 80 206 207 228 227
8 60 61 82 81 207 208 229 228
8 61 62 83 82 208 209 230 229
8 63 64 85 84 210 211 232 231
8 64 65 86 85 211 212 233 232
8 65 66 87 86 212 213 234 233
8 66 67 88 87 213 214 235 234
8 67 68 89 88 214 215 236 235
8 68 69 90 89 215 216 237 236
8 69 70 91 90 216 217 238 237
8 70 71 92 91 217 218 239 238
8 71 72 93 92 218 219 240 239
8 72 73 94 93 219 220 241 240
8 73 74 95 94 220 221 242 241
8 74 75 96 95 221 222 243 242
8 75 76 97 96 222 223 244 243
8 76 77 98 97 223 224 245 244
8 77 78 99 98 224 225 246 245
8 78 79 100 99 225 226 247 246
8 79 80 101 100 226 227 248 247
8 80 81 102 101 227 228 249 248
8 81 82 103 102 228 229 250 249
8 82 83 104 103 229 230 251 250
8 84 85 106 105 231 232 253 252
8 85 86 107 106 232 233 254 253
8 86 87 108 107 233 234 255 254
8 87 88 109 108 234 235 256 255
8 88 89 110 109 235 236 257 256
8 89 90 111 110 236 237 258 257
8 90 91 112 111 237 238 259 258
8 91 92 113 112 238 239 260 259
8 92 93 114 113 239 240 261 260
8 93 94 115 114 240 241 262 261
8 94 95 116 115 241 242 263 262
8 95 96 117 116 242 243 264 263
8 96 97 118 117 243 244 265 264
8 97 98 119 118 244 245 266 265
8 98 99 120 119 245 246 267 266
8 99 100 121 120 246 247 268 267
8 100 101 122 121 247 248 269 268
8 101 102 123 122 248 249 270 269
8 102 103 124 123 249 250 271 270
8 103 104 125 124 250 251 272 271
8 105 106 127 126 252 253 274 273
8 106 107 128 127 253 254 275 274
8 107 108 129 128 254 255 276 275
8 108 109 130 129 255 256 277 276
8 109 110 131 130 256 257 278 277
8 110 111 132 131 257 258 279 278
8 111 112 133 132 258 259 280 279
8 112 113 134 133 259 260 281 280
8 113 114 135 134 260 261 282 281
8 114 115 136 135 261 262 283 282
8 115 116 137 136 262 263 284 283
8 116 117 138 137 263 264 285 284
8 117 118 139 138 264 265 286 285
8 118 119 140 139 265 266 287 286
8 119 120 141 140 266 267 288 287
8 120 121 142 141 267 268 289 288
8 121 122 143 142 268 269 290 289
8 122 123 144 143 269 270 291 290
8 123 124 145 144 270 271 292 291
8 124 125 146 145 271 272 293 292
8 147 148 169 168 294 295 316 315
8 148 149 170 169 295 296 317 316
8 149 150 171 170 296 297 318 317
8 150 151 172 171 297 298 319 318
8 151 152 173 172 298 299 320 319
8 152 153 174 173 299 300 321 320
8 153 154 175 174 300 301 322 321
8 154 155 176 175 301 302 323 322
8 155 156 177 176 302 303 324 323
8 156 157 178 177 303 304 325 324
8 157 158 179 178 304 305 326 325
8 158 159 180 179 305 306 327 326
8 159 160 181 180 306 307 328 327
8 160 161 182 181 307 308 329 328
8 161 162 183 182 308 309 330 329
8 162 163 184 183 309 310 331 330
8 163 164 185 184 310 311 332 331
8 164 165 186 185 311 312 333 332
8 165 166 187 186 312 313 334 333
8 166 167 188 187 313 314 335 334
8 168 169 190 189 315 316 337 336
8 169 170 191 190 316 317 338 337
8 170 171 192 191 317 318 339 338
8 171 172 193 192 318 319 340 339
8 172 173 194 193 319 320 341 340
8 173 174 195 194 320 321 342 341
8 174 175 196 195 321 322 343 342
8 175 176 197 196 322 323 344 343
8 176 177 198 197 323 324 345 344
8 177 178 199 198 324 325 346 345
8 178 179 200 199 325 326 347 346
8 179 180 201 200 326 327 348 347
8 180 181 202 201 327 328 349 348
8 181 182 203 202 328 329 350 349
8 182 183 204 203 329 330 351 350
8 183 184 205 204 330 331 352 351
8 184 185 206 205 331 332 353 352
8 185 186 207 206 332 333 354 353
8 186 187 208 207 333 334 355 354
8 187 188 209 208 334 335 356 355
8 189 190 211 210 336 337 358 357
8 190 191 212 211 337 338 359 358
8 191 192 213 212 338 339 360 359
8 192 193 214 213 339 340 361 360
8 193 194 215 214 340 341 362 361
8 194 195 216 215 341 342 363 362
8 195 196 217 216 342 343 364 363
8 196 197 218 217 343 344 365 364
8 197 198 219 218 344 345 366 365
8 198 199 220 219 345 346 367 366
8 199 200 221 220 346 347 368 367
8 200 201 222 221 347 348 369 368
8 201 202 223 222 348 349 370 369
8 202 203 224 223 349 350 371 370
8 203 204 225 224 350 351 372 371
8 204 205 226 225 351 352 373 372
8 205 206 227 226 352 353 374 373
8 206 207 228 227 353 354 375 374
8 207 208 229 228 354 355 376 375
8 208 209 230 229 355 356 377 376
8 210 211 232 231 357 358 379 378
8 211 212 233 232 358 359 380 379
8 212 213 234 233 359 360 381 380
8 213 214 235 234 360 361 382 381
8 214 215 236 235 361 362 383 382
8 215 216 237 236 362 363 384 383
8 216 217 238 237 363 364 385 384
8 217 218 239 238 364 365 386 385
8 218 219 240 239 365 366 387 386
8 219 220 241 240 366 367 388 387
8 220 221 242 241 367 368 389 388
8 221 222 243 242 368 369 390 389
8 222 223 244 243 369 370 391 390
8 223 224 245 244 370 371 392 391
8 224 225 246 245 371 372 393 392
8 225 226 247 246 372 373 394 393
8 226 227 248 247 373 374 395 394
8 227 228 249 248 374 375 396 395
8 228 229 250 249 375 376 397 396
8 229 230 251 250 376 377 398 397
8 231 232 253 252 378 379 400 399
8 232 233 254 253 379 380 401 400
8 233 234 255 254 380 381 402 401
8 234 235 256 255 381 382 403 402
8 235 236 257 256 382 383 404 403
8 236 237 258 257 383 384 405 404
8 237 238 259 258 384 385 406 405
8 238 239 260 259 385 386 407 406
8 239 240 261 260 386 387 408 407
8 240 241 262 261 387 388 409 408
8 241 242 263 262 388 389 410 409
8 242 243 264 263 389 390 411 410
8 243 244 265 264 390 391 412 411
8 244 245 266 265 391 392 413 412
8 245 246 267 266 392 393 414 413
8 246 247 268 267 393 394 415 414
8 247 248 269 268 394 395 416 415
8 248 249 270 269 395 396 417 416
8 249 250 271 270 396 397 418 417
8 250 251 272 271 397 398 419 418
8 252 253 274 273 399 400 421 420
8 253 254 275 274 400 401 422 421
8 254 255 276 275 401 402 423 422
8 255 256 277 276 402 403 424 423
8 256 257 278 277 403 404 425 424
8 257 258 279 278 404 405 426 425
8 258 259 280 279 405 406 427 426
8 259 260 281 280 406 407 428 427
8 260 261 282 281 407 408 429 428
8 261 262 283 282 408 409 430 429
8 262 263 284 283 409 410 431 430
8 263 264 285 284 410 411 432 431
8 264 265 286 285 411 412 433 432
8 265 266 287 286 412 413 434 433
8 266 267 288 287 413 414 435 434
8 267 268 289 288 414 415 436 435
8 268 269 290 289 415 416 437 436
8 269 270 291 290 416 417 438 437
8 270 271 292 291 417 418 439 438
8 271 272 293 292 418 419 440 439
8 294 295 316 315 441 442 463 462
8 295 296 317 316 442 443 464 463
8 296 297 318 317 443 444 465 464
8 297 298 319 318 444 445 466 465
8 298 299 320 319 445 446 467 466
8 299 300 321 320 446 447 468 467
8 300 301 322 321 447 448 469 468
8 301 302 323 322 448 449 470 469
8 302 303 324 323 449 450 471 470
8 303 304 325 324 450 451 472 471
8 304 305 326 325 451 452 473 472
8 305 306 327 326 452 453 474 473
8 306 307 328 327 453 454 475 474
8 307 308 329 328 454 455 476 475
8 308 309 330 329 455 456 477 476
8 309 310 331 330 456 457 478 477
8 310 311 332 331 457 458 479 478
8 311 312 333 332 458 459 480 479
8 312 313 334 333 459 460 481 480
8 313 314 335 334 460 461 482 481
8 315 316 337 336 462 463 484 483
8 316 317 338 337 463 464 485 484
8 317 318 339 338 464 465 486 485
8 318 319 340 339 465 466 487 486
8 319 320 341 340 466 467 488 487
8 320 321 342 341 467 468 489 488
8 321 322 343 342 468 469 490 489
8 322 323 344 343 469 470 491 490
8 323 324 345 344 470 471 492 491
8 324 325 346 345 471 472 493 492
8 325 326 347 346 472 473 494 493
8 326 327 348 347 473 474 495 494
8 327 328 349 348 474 475 496 495
8 328 329 350 349 475 476 497 496
8 329 330 351 350 476 477 498 497
8 330 331 352 351 477 478 499 498
8 331 332 353 352 478 479 500 499
8 332 333 354 353 479 480 501 500
8 333 334 355 354 480 481 502 501
8 334 335 356 355 481 482 503 502
8 336 337 358 357 483 484 505 504
8 337 338 359 358 484 485 506 505
8 338 339 360 359 485 486 507 506
8 339 340 361 360 486 487 508 507
8 340 341 362 361 487 488 509 508
8 341 342 363 362 488 489 510 509
8 342 343 364 363 489 490 511 510
8 343 344 365 364 490 491 512 511
8 344 345 366 365 491 492 513 512
8 345 346 367 366 492 493 514 513
8 346 347 368 367 493 494 515 514
8 347 348 369 368 494 495 516 515
8 348 349 370 369 495 496 517 516
8 349 350 371 370 496 497 518 517
8 350 351 372 371 497 498 519 518
8 351 352 373 372 498 499 520 519
8 352 353 374 373 499 500 521 520
8 353 354 375 374 500 501 522 521
8 354 355 376 375 501 502 523 522
8 355 356 377 376 502 503 524 523
8 357 358 379 378 504 505 526 525
8 358 359 380 379 505 506 527 526
8 359 360 381 380 506 507 528 527
8 360 361 382 381 507 508 529 528
8 361 362 383 382 508 509 530 529
8 362 363 384 383 509 510 531 530
8 363 364 385 384 510 511 532 531
8 364 365 386 385 511 512 533 532
8 365 366 387 386 512 513 534 533
8 366 367 388 387 513 514 535 534
8 367 368 389 388 514 515 536 535
8 368 369 390 389 515 516 537 536
8 369 370 391 390 516 517 538 537
8 370 371 392 391 517 518 539 538
8 371 372 393 392 518 519 540 539
8 372 373 394 393 519 520 541 540
8 373 374 395 394 520 521 542 541
8 374 375 396 395 521 522 543 542
8 375 376 397 396 522 523 544 543
8 376 377 398 397 523 524 545 544
8 378 379 400 399 525 526 547 546
8 379 380 401 400 526 527 548 547
8 380 381 402 401 527 528 549 548
8 381 382 403 402 528 529 550 549
8 382 383 404 403 529 530 551 550
8 383 384 405 404 530 531 552 551
8 384 385 406 405 531 532 553 552
8 385 386 407 406 532 533 554 553
8 386 387 408 407 533 534 555 554
8 387 388 409 408 534 535 556 555
8 388 389 410 409 535 536 557 556
8 389 390 411 410 536 537 558 557
8 390 391 412 411 537 538 559 558
8 391 392 413 412 538 539 560 559
8 392 393 414 413 539 540 561 560
8 393 394 415 414 540 541 562 561
8 394 395 416 415 541 542 563 562
8 395 396 417 416 542 543 564 563
8 396 397 418 417 543 544 565 564
8 397 398 419 418 544 545 566 565
8 399 400 421 420 546 547 568 567
8 400 401 422 421 547 548 569 568
8 401 402 423 422 548 549 570 569
8 402 403 424 423 549 550 571 570
8 403 404 425 424 550 551 572 571
8 404 405 426 425 551 552 573 572
8 405 406 427 426 552 553 574 573
8 406 407 428 427 553 554 575 574
8 407 408 429 428 554 555 576 575
8 408 409 430 429 555 556 577 576
8 409 410 431 430 556 557 578 577
8 410 411 432 431 557 558 579 578
8 411 412 433 432 558 559 580 579
8 412 413 434 433 559 560 581 580
8 413 414 435 434 560 561 582 581
8 414 415 436 435 561 562 583 582
8 415 416 437 436 562 563 584 583
8 416 417 438 437 563 564 585 584
8 417 418 439 438 564 565 586 585
8 418 419 440 439 565 566 587 586
8 441 442 463 462 588 589 610 609
8 442 443 464 463 589 590 611 610
8 443 444 465 464 590 591 612 611
8 444 445 466 465 591 592 613 612
8 445 446 467 466 592 593 614 613
8 446 447 468 467 593 594 615 614
8 447 448 469 468 594 595 616 615
8 448 449 470 469 595 596 617 616
8 449 450 471 470 596 597 618 617
8 450 451 472 471 597 598 619 618
8 451 452 473 472 598 599 620 619
8 452 453 474 473 599 600 621 620
8 453 454 475 474 600 601 622 621
8 454 455 476 475 601 602 623 622
8 455 456 477 476 602 603 624 623
8 456 457 478 477 603 604 625 624
8 457 458 479 478 604 605 626 625
8 458 459 480 479 605 606 627 626
8 459 460 481 480 606 607 628 627
8 460 461 482 481 607 608 629 628
8 462 463 484 483 609 610 631 630
8 463 464 485 484 610 611 632 631
8 464 465 486 485 611 612 633 632
8 465 466 487 486 612 613 634 633
8 466 467 488 487 613 614 635 634
8 467 468 489 488 614 615 636 635
8 468 469 490 489 615 616 637 636
8 469 470 491 490 616 617 638 637
8 470 471 492 491 617 618 639 638
8 471 472 493 492 618 619 640 639
8 472 473 494 493 619 620 641 640
8 473 474 495 494 620 621 642 641
8 474 475 496 495 621 622 643 642
8 475 476 497 496 622 623 644 643
8 476 477 498 497 623 624 645 644
8 477 478 499 498 624 625 646 645
8 478 479 500 499 625 626 647 646
8 479 480 501 500 626 627 648 647
8 480 481 502 501 627 628 649 648
8 481 482 503 502 628 629 650 649
8 483 484 505 504 630 631 652 651
8 484 485 506 505 631 632 653 652
8 485 486 507 506 632 633 654 653
8 486 487 508 507 633 634 655 654
8 487 488 509 508 634 635 656 655
8 488 489 510 509 635 636 657 656
8 489 490 511 510 636 637 658 657
8 490 491 512 511 637 638 659 658
8 491 492 513 512 638 639 660 659
8 492 493 514 513 639 640 661 660
8 493 494 515 514 640 641 662 661
8 494 495 516 515 641 642 663 662
8 495 496 517 516 642 643 664 663
8 496 497 518 517 643 644 665 664
8 497 498 519 518 644 645 666 665
8 498 499 520 519 645 646 667 666
8 499 500 521 520 646 647 668 667
8 500 501 522 521 647 648 669 668
8 501 502 523 522 648 649 670 669
8 502 503 524 523 649 650 671 670
8 504 505 526 525 651 652 673 672
8 505 506 527 526 652 653 674 673
8 506 507 528 527 653 654 675 674
8 507 508 529 528 654 655 676 675
8 508 509 530 529 655 656 677 676
8 509 510 531 530 656 657 678 677
8 510 511 532 531 657 658 679 678
8 511 512 533 532 658 659 680 679
8 512 513 534 533 659 660 681 680
8 513 514 535 534 660 661 682 681
8 514 515 536 535 661 662 683 682
8 515 516 537 536 662 663 684 683
8 516 517 538 537 663 664 685 684
8 517 518 539 538 664 665 686 685
8 518 519 540 539 665 666 687 686
8 519 520 541 540 666 667 688 687
8 520 521 542 541 667 668 689 688
8 521 522 543 542 668 669 690 689
8 522 523 544 543 669 670 691 690
8 523 524 545 544 670 671 692 691
8 525 526 547 546 672 673 694 693
8 526 527 548 547 673 674 695 694
8 527 528 549 548 674 675 696 695
8 528 529 550 549 675 676 697 696
8 529 530 551 550 676 677 698 697
8 530 531 552 551 677 678 699 698
8 531 532 553 552 678 679 700 699
8 532 533 554 553 679 680 701 700
8 533 534 555 554 680 681 702 701
8 534 535 556 555 681 682 703 702
8 535 536 557 556 682 683 704 703
8 536 537 558 557 683 684 705 704
8 537 538 559 558 684 685 706 705
8 538 539 560 559 685 686 707 706
8 539 540 561 560 686 687 708 707
8 540 541 562 561 687 688 709 708
8 541 542 563 562 688 689 710 709
8 542 543 564 563 689 690 711 710
8 543 544 565 564 690 691 712 711
8 544 545 566 565 691 692 713 712
8 546 547 568 567 693 694 715 714
8 547 548 569 568 694 695 716 715
8 548 549 570 569 695 696 717 716
8 549 550 571 570 696 697 718 717
8 550 551 572 571 697 698 719 718
8 551 552 573 572 698 699 720 719
8 552 553 574 573 699 700 721 720
8 553 554 575 574 700 701 722 721
8 554 555 576 575 701 702 723 722
8 555 556 577 576 702 703 724 723
8 556 557 578 577 703 704 725 724
8 557 558 579 578 704 705 726 725
8 558 559 580 579 705 706 727 726
8 559 560 581 580 706 707 728 727
8 560 561 582 581 707 708 729 728
8 561 562 583 582 708 709 730 729
8 562 563 584 583 709 710 731 730
8 563 564 585 584 710 711 732 731
8 564 565 586 585 711 712 733 732
8 565 566 587 586 712 713 734 733
8 588 589 610 609 735 736 757 756
8 589 590 611 610 736 737 758 757
8 590 591 612 611 737 738 759 758
8 591 592 613 612 738 739 760 759
8 592 593 614 613 739 740 761 760
8 593 594 615 614 740 741 762 761
8 594 595 616 615 741 742 763 762
8 595 596 617 616 742 743 764 763
8 596 597 618 617 743 744 765 764
8 597 598 619 618 744 745 766 765
8 598 599 620 619 745 746 767 766
8 599 600 621 620 746 747 768 767
8 600 601 622 621 747 748 769 768
8 601 602 623 622 748 749 770 769
8 602 603 624 623 749 750 771 770
8 603 604 625 624 750 751 772 771
8 604 605 626 625 751 752 773 772
8 605 606 627 626 752 753 774 773
8 606 607 628 627 753 754 775 774
8 607 608 629 628 754 755 776 775
8 609 610 631 630 756 757 778 777
8 610 611 632 631 757 758 779 778
8 611 612 633 632 758 759 780 779
8 612 613 634 633 759 760 781 780
8 613 614 635 634 760 761 782 781
8 614 615 636 635 761 762 783 782
8 615 616 637 636 762 763 784 783
8 616 617 638 637 763 764 785 784
8 617 618 639 638 764 765 786 785
8 618 619 640 639 765 766 787 786
8 619 620 641 640 766 767 788 787
8 620 621 642 641 767 768 789 788
8 621 622 643 642 768 769 790 789
8 622 623 644 643 769 770 791 790
8 623 624 645 644 770 771 792 791
8 624 625 646 645 771 772 793 792
8 625 626 647 646 772 773 794 793
8 626 627 648 647 773 774 795 794
8 627 628 649 648 774 775 796 795
8 628 629 650 649 775 776 797 796
8 630 631 652 651 777 778 799 798
8 631 632 653 652 778 779 800 799
8 632 633 654 653 779 780 801 800
8 633 634 655 654 780 781 802 801
8 634 635 656 655 781 782 803 802
8 635 636 657 656 782 783 804 803
8 636 637 658 657 783 784 805 804
8 637 638 659 658 784 785 806 805
8 638 639 660 659 785 786 807 806
8 639 640 661 660 786 787 808 807
8 640 641 662 661 787 788 809 808
8 641 642 663 662 788 789 810 809
8 642 643 664 663 789 790 811 810
8 643 644 665 664 790 791 812 811
8 644 645 666 665 791 792 813 812
8 645 646 667 666 792 793 814 813
8 646 647 668 667 793 794 815 814
8 647 648 669 668 794 795 816 815
8 648 649 670 669 795 796 817 816
8 649 650 671 670 796 797 818 817
8 651 652 673 672 798 799 820 819
8 652 653 674 673 799 800 821 820
8 653 654 675 674 800 801 822 821
8 654 655 676 675 801 802 823 822
8 655 656 677 676 802 803 824 823
8 656 657 678 677 803 804 825 824
8 657 658 679 678 804 805 826 825
8 658 659 680 679 805 806 827 826
8 659 660 681 680 806 807 828 827
8 660 661 682 681 807 808 829 828
8 661 662 683 682 808 809 830 829
8 662 663 684 683 809 810 831 830
8 663 664 685 684 810 811 832 831
8 664 665 686 685 811 812 833 832
8 665 666 687 686 812 813 834 833
8 666 667 688 687 813 814 835 834
8 667 668 689 688 814 815 836 835
8 668 669 690 689 815 816 837 836
8 669 670 691 690 816 817 838 837
8 670 671 692 691 817 818 839 838
8 672 673 694 693 819 820 841 840
8 673 674 695 694 820 821 842 841
8 674 675 696 695 821 822 843 842
8 675 676 697 696 822 823 844 843
8 676 677 698 697 823 824 845 844
8 677 678 699 698 824 825 846 845
8 678 679 700 699 825 826 847 846
8 679 680 701 700 826 827 848 847
8 680 681 702 701 827 828 849 848
8 681 682 703 702 828 829 850 849
8 682 683 704 703 829 830 851 850
8 683 684 705 704 830 831 852 851
8 684 685 706 705 831 832 853 852
8 685 686 707 706 832 833 854 853
8 686 687 708 707 833 834 855 854
8 687 688 709 708 834 835 856 855
8 688 689 710 709 835 836 857 856
8 689 690 711 710 836 837 858 857
8 690 691 712 711 837 838 859 858
8 691 692 713 712 838 839 860 859
8 693 694 715 714 840 841 862 861
8 694 695 716 715 841 842 863 862
8 695 696 717 716 842 843 864 863
8 696 697 718 717 843 844 865 864
8 697 698 719 718 844 845 866 865
8 698 699 720 719 845 846 867 866
8 699 700 721 720 846 847 868 867
8 700 701 722 721 847 848 869 868
8 701 702 723 722 848 849 870 869
8 702 703 724 723 849 850 871 870
8 703 704 725 724 850 851 872 871
8 704 705 726 725 851 852 873 872
8 705 706 727 726 852 853 874 873
8 706 707 728 727 853 854 875 874
8 707 708 729 728 854 855 876 875
8 708 709 730 729 855 856 877 876
8 709 710 731 730 856 857 878 877
8 710 711 732 731 857 858 879 878
8 711 712 733 732 858 859 880 879
8 712 713 734 733 859 860 881 880
8 735 736 757 756 882 883 904 903
8 736 737 758 757 883 884 905 904
8 737 738 759 758 884 885 906 905
8 738 739 760 759 885 886 907 906
8 739 740 761 760 886 887 908 907
8 740 741 762 761 887 888 909 908
8 741 742 763 762 888 889 910 909
8 742 743 764 763 889 890 911 910
8 743 744 765 764 890 891 912 911
8 744 745 766 765 891 892 913 912
8 745 746 767 766 892 893 914 913
8 746 747 768 767 893 894 915 914
8 747 748 769 768 894 895 916 915
8 748 749 770 769 895 896 917 916
8 749 750 771 770 896 897 918 917
8 750 751 772 771 897 898 919 918
8 751 752 773 772 898 899 920 919
8 752 753 774 773 899 900 921 920
8 753 754 775 774 900 901 922 921
8 754 755 776 775 901 902 923 922
8 756 757 778 777 903 904 925 924
8 757 758 779 778 904 905 926 925
8 758 759 780 779 905 906 927 926
8 759 760 781 780 906 907 928 927
8 760 761 782 781 907 908 929 928
8 761 762 783 782 908 909 930 929
8 762 763 784 783 909 910 931 930
8 763 764 785 784 910 911 932 931
8 764 765 786 785 911 912 933 932
8 765 766 787 786 912 913 934 933
8 766 767 788 787 913 914 935 934
8 767 768 789 788 914 915 936 935
8 768 769 790 789 915 916 937 936
8 769 770 791 790 916 917 938 937
8 770 771 792 791 917 918 939 938
8 771 772 793 792 918 919 940 939
8 772 773 794 793 919 920 941 940
8 773 774 795 794 920 921 942 941
8 774 775 796 795 921 922 943 942
8 775 776 797 796 922 923 944 943
8 777 778 799 798 924 925 946 945
8 778 779 800 799 925 926 947 946
8 779 780 801 800 926 927 948 947
8 780 781 802 801 927 928 949 948
8 781 782 803 802 928 929 950 949
8 782 783 804 803 929 930 951 950
8 783 784 805 804 930 931 952 951
8 784 785 806 805 931 932 953 952
8 785 786 807 806 932 933 954 953
8 786 787 808 807 933 934 955 954
8 787 788 809 808 934 935 956 955
8 788 789 810 809 935 936 957 956
8 789 790 811 810 936 937 958 957
8 790 791 812 811 937 938 959 958
8 791 792 813 812 938 939 960 959
8 792 793 814 813 939 940 961 960
8 793 794 815 814 940 941 962 961
8 794 795 816 815 941 942 963 962
8 795 796 817 816 942 943 964 963
8 796 797 818 817 943 944 965 964
8 798 799 820 819 945 946 967 966
8 799 800 821 820 946 947 968 967
8 800 801 822 821 947 948 969 968
8 801 802 823 822 948 949 970 969
8 802 803 824 823 949 950 971 970
8 803 804 825 824 950 951 972 971
8 804 805 826 825 951 952 973 972
8 805 806 827 826 952 953 974 973
8 806 807 828 827 953 954 975 974
8 807 808 829 828 954 955 976 975
8 808 809 830 829 955 956 977 976
8 809 810 831 830 956 957 978 977
8 810 811 832 831 957 958 979 978
8 811 812 833 832 958 959 980 979
8 812 813 834 833 959 960 981 980
8 813 814 835 834 960 961 982 981
8 814 815 836 835 961 962 983 982
8 815 816 837 836 962 963 984 983
8 816 817 838 837 963 964 985 984
8 817 818 839 838 964 965 986 985
8 819 820 841 840 966 967 988 987
8 820 821 842 841 967 968 989 988
8 821 822 843 842 968 969 990 989
8 822 823 844 843 969 970 991 990
8 823 824 845 844 970 971 992 991
8 824 825 846 845 971 972 993 992
8 825 826 847 846 972 973 994 993
8 826 827 848 847 973 974 995 994
8 827 828 849 848 974 975 996 995
8 828 829 850 849 975 976 997 996
8 829 830 851 850 976 977 998 997
8 830 831 852 851 977 978 999 998
8 831 832 853 852 978 979 1000 999
8 832 833 854 853 979 980 1001 1000
8 833 834 855 854 980 981 1002 1001
8 834 835 856 855 981 982 1003 1002
8 835 836 857 856 982 983 1004 1003
8 836 837 858 857 983 984 1005 1004
8 837 838 859 858 984 985 1006 1005
8 838 839 860 859 985 986 1007 1006
8 840 841 862 861 987 988 1009 1008
8 841 842 863 862 988 989 1010 1009
8 842 843 864 863 989 990 1011 1010
8 843 844 865 864 990 991 1012 1011
8 844 845 866 865 991 992 1013 1012
8 845 846 867 866 992 993 1014 1013
8 846 847 868 867 993 994 1015 1014
8 847 848 869 868 994 995 1016 1015
8 848 849 870 869 995 996 1017 1016
8 849 850 871 870 996 997 1018 1017
8 850 851 872 871 997 998 1019 1018
8 851 852 873 872 998 999 1020 1019
8 852 853 874 873 999 1000 1021 1020
8 853 854 875 874 1000 1001 1022 1021
8 854 855 876 875 1001 1002 1023 1022
8 855 856 877 876 1002 1003 1024 1023
8 856 857 878 877 1003 1004 1025 1024
8 857 858 879 878 1004 1005 1026 1025
8 858 859 880 879 1005 1006 1027 1026
8 859 860 881 880 1006 1007 1028 1027
CELL_TYPES 720
12
12
12
12
12
12
12
12
12
12
12
12
12
12
12
12
12
12
12
12
12
12
12
12
12
12
12
12
12
12
12
12
12
12
12
12
12
12
12
12
12
12
12
12
12
12
12
12
12
12
12
12
12
12
12
12
12
12
12
12
12
12
12
12
12
12
12
12
12
12
12
12
12
12
12
12
12
12
12
12
12
12
12
12
12
12
12
12
12
12
12
12
12
12
12
12
12
12
12
12
12
12
12
12
12
12
12
12
12
12
12
12
12
12
12
12
12
12
12
12
12
12
12
12
12
12
12
12
12
12
12
12
12
12
12
12
12
12
12
12
12
12
12
12
12
12
12
12
12
12
12
12
12
12
12
12
12
12
12
12
12
12
12
12
12
12
12
12
12
12
12
12
12
12
12
12
12
12
12
12
12
12
12
12
12
12
12
12
12
12
12
12
12
12
12
12
12
12
12
12
12
12
12
12
12
12
12
12
12
12
12
12
12
12
12
12
12
12
12
12
12
12
12
12
12
12
12
12
12
12
12
12
12
12
12
12
12
12
12
12
12
12
12
12
12
12
12
12
12
12
12
12
12
12
12
12
12
12
12
12
12
12
12
12
12
12
12
12
12
12
12
12
12
12
12
12
12
12
12
12
12
12
12
12
12
12
12
12
12
12
12
12
12
12
12
12
12
12
12
12
12
12
12
12
12
12
12
12
12
12
12
12
12
12
12
12
12
12
12
12
12
12
12
12
12
12
12
12
12
12
12
12
12
12
12
12
12
12
12
12
12
12
12
12
12
12
12
12
12
12
12
12
12
12
12
12
12
12
12
12
12
12
12
12
12
12
12
12
12
12
12
12
12
12
12
12
12
12
12
12
12
12
12
12
12
12
12
12
12
12
12
12
12
12
12
12
12
12
12
12
12
12
12
12
12
12
12
12
12
12
12
12
12
12
12
12
12
12
12
12
12
12
12
12
12
12
12
12
12
12
12
12
12
12
12
12
12
12
12
12
12
12
12
12
12
12
12
12
12
12
12
12
12
12
12
12
12
12
12
12
12
12
12
12
12
12
12
12
12
12
12
12
12
12
12
12
12
12
12
12
12
12
12
12
12
12
12
12
12
12
12
12
12
12
12
12
12
12
12
12
12
12
12
12
12
12
12
12
12
12
12
12
12
12
12
12
12
12
12
12
12
12
12
12
12
12
12
12
12
12
12
12
12
12
12
12
12
12
12
12
12
12
12
12
12
12
12
12
12
12
12
12
12
12
12
12
12
12
12
12
12
12
12
12
12
12
12
12
12
12
12
12
12
12
12
12
12
12
12
12
12
12
12
12
12
12
12
12
12
12
12
12
12
12
12
12
12
12
12
12
12
12
12
12
12
12
12
12
12
12
12
12
12
12
12
12
12
12
12
12
12
12
12
12
12
12
12
12
12
12
12
12
12
12
12
12
12
12
12
12
12
12
12
12
12
12
12
12
12
12
12
12
12
12
12
12
12
12
12
12
12
12
12
12
12
12
12
12
12
12
12
12
12
12
12
12
12
12
12
12
12
12
12
12
12
12
12
12
12
12
12
12
12
12
12
12
12
12
12
12
12
12
12
12
12
12
12
12
12
12
12
12
12
12
12
12
12
12
12
12
POINT_DATA 1029
VECTORS Disp float
0.0 0.0 0.0
0.031097972903411146 -1.1276588618737144 0.02699186168953253
0.07488602732415037 -2.12496021089511 0.05811913235943424
0.13544822846644286 -3.0856084537508948 0.08297585429400164
0.22163200923752935 -3.9835587477625194 0.10549959775389305
0.3346461209696442 -4.79764016131683 0.12412212392960878
0.47402408457322864 -5.505483275566608 0.13806880195070884
0.6389227699350846 -6.085455943065323 0.14634885958347765
0.8270886587651012 -6.516470319109309 0.14826879126593512
1.0329236173788194 -6.780522082328735 0.14496316426323175
1.2471479731014232 -6.8685077367444 0.14197142783242694
1.461448463589648 -6.781810421952651 0.14508236695859095
1.6675266799740835 -6.519077046680992 0.14854901368918327
1.8561495126350478 -6.08943593142327 0.1468825931789032
2.021803247649631 -5.510902269729993 0.13901527462178975
2.1623679828994278 -4.804540800215557 0.12573685252569541
2.2771880436144007 -3.991900988867113 0.10814473403902135
2.366063239491692 -3.095166699757457 0.08727580633076945
2.430545461348548 -2.1352935220899214 0.06446410448547636
2.4810951304445594 -1.1379356416614805 0.03832438606003349
2.5284217151876955 0.0 -0.00021881338354350693
0.44257791490692755 -0.048154044179321315 -0.014172059185675124
0.46167973340752216 -1.1226531540685936 0.014139946342738553
0.4770793050431752 -2.1317495832878457 0.03681760070008747
0.5167650047144058 -3.0935841554895904 0.056037479022900016
0.5727529374056739 -3.995030826527862 0.07212365072545718
0.6466759775704415 -4.8121786491099785 0.0853596377793677
0.73811095095269 -5.523117930743942 0.09516807989249515
0.8464776098699677 -6.10606102657305 0.1010968520526182
0.970297575890258 -6.5396549013604846 0.10283499553393939
1.1059681023730092 -6.80520698455703 0.10109508465013718
1.2473800435391662 -6.8932778497671325 0.09924442375676487
1.3888724930645935 -6.806516523305592 0.10105405683722847
1.5247983121481834 -6.5423079879058985 0.10278850043061222
1.6490907896924785 -6.110120888113741 0.101125488365902
1.7582219220315802 -5.528663609859709 0.09541776286739938
1.8508259826445155 -4.819273037941328 0.08606758977720685
1.9264819228126178 -4.003657164976515 0.07367474537973248
1.9849646785956567 -3.103550504571475 0.05894513707118705
2.028263837476399 -2.142668599523655 0.04208921967925851
2.0488159278539224 -1.1337436451191913 0.02184733715105965
2.0706795806885427 -0.05081729910426099 -0.005715548759336317
0.8603962077638244 -0.08360779698789944 -0.023159713340662833
0.8702459024343979 -1.1209732116512494 -0.001253298623975131
0.871964515450431 -2.133289083494387 0.014936674449518772
0.8873630721839416 -3.0984023290159888 0.02687140944970654
0.9138107381713461 -4.00161079496081 0.03600313851350229
0.9493944475945844 -4.82069984329935 0.04297290834589262
0.9940659559036832 -5.533482244781545 0.047823550825009366
1.047603241298011 -6.118276551544798 0.0504560609001641
1.1096119129716313 -6.553467230311038 0.05082013108379781
1.1779536376090831 -6.819340307942616 0.04904106856455183
1.2475640510209764 -6.905912998959316 0.047035389023146794
1.3172565185406653 -6.820672760801566 0.048840079531873505
1.3858568483895468 -6.556169648212721 0.05044687037763913
1.4483382833959815 -6.122419213278128 0.04997872104176258
1.502625917538961 -5.539155149304896 0.04737155306637201
1.5484168311336721 -4.827981559798631 0.04277281992846796
1.5856092017424557 -4.010505575692516 0.036423065382209185
1.6142980634632342 -3.108727700220767 0.02849419541954582
1.6326919623570688 -2.144683416512125 0.018579892741447522
1.6368594149853815 -1.13167255716805 0.0048891346093832624
1.6478974059125808 -0.08771030593029192 -0.014554568458161362
1.2659337669221224 -0.10632914060073459 -0.031186646644136097
1.268580668878618 -1.121258036880284 -0.01622469948819875
1.2598971427727204 -2.1320096616919573 -0.007173450562608442
1.253420890162478 -3.099354311305588 -0.0029570623881220387
1.2499854471723846 -4.003588143784972 -0.001194741492926514
1.2476724979423943 -4.82335163443747 -0.0007966510437393652
1.2461064139936509 -5.536823839260801 -0.0012740850856092245
1.2455264736215264 -6.122423388702074 -0.0023637123175677703
1.246825974223908 -6.5583954199938095 -0.003820935257366272
1.249457549961157 -6.823110392162958 -0.005932914289987853
1.2477281886795097 -6.905136062637433 -0.008482631036411711
1.2460812292730212 -6.824466785313558 -0.006295045665371993
1.2489709900759849 -6.5611488089170384 -0.004523728740004222
1.2507367797235425 -6.126650049181369 -0.003352447276412018
1.2508826957862502 -5.542622361598557 -0.002435896958575134
1.2503691319202737 -4.830813411951213 -0.001920568501421257
1.2495110676233427 -4.012729403272392 -0.0019135979215875228
1.2480055804505954 -3.110007371841027 -0.0026763624842767687
1.2436477627160292 -2.143542026166436 -0.00508908723104564
1.2362718965832706 -1.1315312091171106 -0.011626455930566845
1.239574332513992 -0.11149685017273402 -0.02393231397820793
1.6681489671666558 -0.11849209321177832 -0.039435200816309114
1.6644350651623196 -1.12171276811598 -0.030441386674442884
1.6461269113367112 -2.1288784728553147 -0.028919677923295962
1.61941159431991 -3.096703522895588 -0.03261720574552366
1.5863312024522638 -4.000889244714333 -0.0383261382225
1.5459814911226588 -4.820192666078715 -0.04452154285399047
1.4982448228441274 -5.533182120673071 -0.05035144522729991
1.443411502860497 -6.118488592896128 -0.05520412271945062
1.383587305678189 -6.554670953687816 -0.05840519364189785
1.3213151818151128 -6.817151500366622 -0.059808330330189285
1.2478967524614968 -6.889038204468727 -0.062096143093361006
1.1745614511356541 -6.818532653823193 -0.060334269011744136
1.1125481696347042 -6.557476589657013 -0.05944346420756552
1.0531854804864584 -6.122799958265321 -0.05671455198578683
0.9990556790129204 -5.539104419746751 -0.05223964368814285
0.9523047878493119 -4.82782445162574 -0.04659324366938591
0.913249812966193 -4.01025765827155 -0.04021959912388153
0.8817181068512322 -3.1076032321885525 -0.033725426613060654
0.8564435893206812 -2.140435806959829 -0.028382827930314634
0.8388830010356453 -1.1317149776328885 -0.027427806911256614
0.8355270235427443 -0.12433645410230365 -0.033766450844142634
2.073054589356478 -0.12304300283341464 -0.048319652216975095
2.0643250224212815 -1.1212429354997497 -0.04385574836305328
2.036761728846309 -2.124178076562494 -0.04980878960862632
1.9905083518373343 -3.090709442456586 -0.061299116048754806
1.927676604250206 -3.9934721466796876 -0.07425267976755426
1.8488687402818702 -4.811147358044001 -0.08675452651418528
1.7543463996230457 -5.522577215452623 -0.09764122434178552
1.6448926859811428 -6.10623041846607 -0.10589488437721747
1.5212479800821042 -6.542027659101812 -0.1105172305162452
1.3930669218783842 -6.8031505942297725 -0.10894419706998526
1.2480944293107699 -6.854700543003952 -0.10678573547451711
1.1032079034604783 -6.804557628533131 -0.10963801065723693
0.9752927077106901 -6.544887391563559 -0.11189988062830246
0.8521155171178475 -6.11062815284506 -0.10794232499650623
0.7433584494556305 -5.528622218128673 -0.10027983006771234
0.6497767340010367 -4.818940628200864 -0.08980993625091321
0.5721157620448256 -4.003036174136445 -0.07737303090696473
0.510467886169118 -3.101787361569401 -0.06385763023325224
0.46508889839213213 -2.1357489304622357 -0.05085801977974165
0.4378344247188337 -1.131111308760889 -0.0424147938219327
0.42919521220821066 -0.12921287064253872 -0.04418410930568284
2.4839831178908356 -0.12397107997995103 -0.057534929425213356
2.4740912268306667 -1.1196659036235164 -0.056494129617074076
2.4390737785982295 -2.117998568059922 -0.06912761815147805
2.3725590697728793 -3.0812877958504625 -0.08772072279781815
2.2792330766816256 -3.981190789300182 -0.10718961827210627
2.1611537139195303 -4.796049625816908 -0.12525548108131104
2.0187295404789354 -5.504643077984125 -0.1404222349302713
1.8528522436958834 -6.085893456667007 -0.15127624363240488
1.665075508119711 -6.518098949299105 -0.15648069554416943
1.4561171860281827 -6.783728295622094 -0.15093551298569519
1.2483506326749438 -6.800000000000002 -0.12826589548000197
1.0406771389122604 -6.785163370268059 -0.15180244103211854
0.8320045822535242 -6.521016664384628 -0.15821906494345414
0.6447230819810736 -6.090382018468513 -0.15387985873699145
0.4795670813743826 -5.510813426629394 -0.1438407897300798
0.33808144448822625 -4.803998481908263 -0.12933771790673007
0.2210588367979127 -3.990917892474616 -0.11159535211818086
0.12861028886948356 -3.0924750619768675 -0.09179552304335165
0.062350454756141926 -2.1295463955278153 -0.07180694893385574
0.026970223232902855 -1.1294494345549544 -0.056575579329532756
0.016821697578536323 -0.130209888930515 -0.05475252205284009
0.0 0.0 0.0
0.02908914629569132 -1.0658090434605156 0.01796620446451285
0.07375100600693699 -2.038329972283649 0.03431455966332933
0.13697275218763166 -2.9724843332828876 0.04950872838824521
0.22423886803985923 -3.846300857008281 0.06123454736272029
0.3364320177307223 -4.640355216803933 0.06946544416974874
0.47314531650273534 -5.334603008786198 0.07363678694449638
0.6337268061722835 -5.909791838618045 0.07336278665983127
0.8175408081599198 -6.347085071205277 0.06882425931490191
1.0238347981440166 -6.626688435600205 0.06195677315089766
1.2473999672429317 -6.725647210220884 0.05798431973668674
1.4709911045943755 -6.627193896284437 0.06199759697176797
1.6773666217169807 -6.348094433412071 0.06893536986145954
1.8613299592222257 -5.911301440605933 0.07360922465449081
2.0221542182486085 -5.336604584756896 0.07413129368487284
2.1592538082026316 -4.642826540522726 0.07037870034932339
2.2720662574524555 -3.849182903270328 0.06282519463240707
2.360359236360172 -2.9756332356217676 0.052050387955642624
2.4252502345589986 -2.041463140057097 0.038552339757411506
2.4732095057735655 -1.0688066746549036 0.022854793170083564
2.51013582487708 0.0 0.020061176464888808
0.4300551948851013 -0.0309881597560973 0.00264808852296007
0.44746839342192923 -1.0642580134095563 0.008237245595720113
0.46873334766110986 -2.0452111179760712 0.02142307658443462
0.5111967214463815 -2.9810969719283493 0.03223586498029494
0.5692920204974445 -3.858137586061579 0.040619054857728085
0.6440131819344822 -4.655201921664359 0.046223923107673724
0.735072056841396 -5.352501449102323 0.04896764276725044
0.8419861747885182 -5.93071799324681 0.048739667011306526
0.9640842082795559 -6.371113573126181 0.0457964830660591
1.100439269303243 -6.6538938173350894 0.04124507768785968
1.2475128880160986 -6.7548320761446465 0.03833556638162025
1.3946120313478234 -6.654404794319423 0.04113980979344422
1.5310469736455177 -6.372134337572562 0.04560890732686221
1.653290142494948 -5.932245826596238 0.04852313128637448
1.760436818890576 -5.354530132106172 0.04881942782624266
1.8518565675850076 -4.657713709235428 0.0463077683237649
1.9271447288784513 -3.8610823218229147 0.04117658218279146
1.9861408876735012 -2.984346225466565 0.03366669763832824
2.0301497299721705 -2.048541800753371 0.024088827689177153
2.054124916792012 -1.067680052894136 0.01356072647336426
2.073090855432715 -0.03152241259206437 0.015182617191259644
0.8430489051352937 -0.05456219867601289 -0.004767571209874181
0.8527028782915816 -1.0640495757901498 -0.00037192577258275526
0.8601155453715243 -2.0477642888149874 0.008289938651923826
0.8795681823715525 -2.9863391029530946 0.015336063941228295
0.9086104966551217 -3.865064511577366 0.020230414723767708
0.9458390230013808 -4.6639568914082465 0.02318484142838012
0.9912517553863079 -5.363031249031676 0.024322170380855126
1.0444333660432241 -5.942944520929648 0.023746793054947743
1.104644551779826 -6.385060213935672 0.021592142806943406
1.1720503698549876 -6.670364838162199 0.017955399701344153
1.24763492529831 -6.774361189798056 0.014744566087987937
1.3232442757470249 -6.670883846642105 0.01770601176670649
1.390727084448085 -6.3860973145373805 0.021110634213701945
1.451075841329637 -5.944497579216066 0.023076432035945275
1.5044717570719965 -5.365095138535106 0.023550373334978014
1.5502054959224232 -4.666516611099805 0.0224696488358881
1.587916972729292 -3.8680758162334414 0.019839016218355956
1.6177111601267091 -2.989681778781649 0.01567753164028958
1.6384123290754404 -2.0512822842134315 0.00996808939250039
1.6471296291573527 -1.0672676231322051 0.004052541659017752
1.6573610995443182 -0.05506227291157247 0.004699789659531549
1.247525419642264 -0.07039789763375609 -0.014761116318108093
1.250797759066341 -1.0647777611308942 -0.009836261304874035
1.2472172380545572 -2.047651722400103 -0.004807696580508408
1.2452972433045295 -2.9878814406798178 -0.0016085311771340317
1.2449410891246815 -3.8673859914255573 -0.00022097526331336348
1.2447163009622033 -4.666850279055738 -4.203119317111103e-05
1.244477713142451 -5.3665140247609635 -0.0006661607403313276
1.2440703279546634 -5.9468300815637365 -0.0018515478092940966
1.242589023762596 -6.389292204979389 -0.0035437642476651827
1.2413820006511904 -6.6770507461706154 -0.006609638028650265
1.2477614862635549 -6.7868554108533905 -0.010968884692527816
1.254164867118794 -6.677580179177911 -0.007003419973644952
1.2530312468446678 -6.390350253458392 -0.004319634880000169
1.2516780615075904 -5.948414666702248 -0.0029756190202209973
1.2514627659638553 -5.368619907476795 -0.0020602093372594685
1.2514963327721293 -4.669463171898059 -0.001547616868763751
1.2516550052868984 -3.8704626893634 -0.0015501257980189628
1.2518715901917916 -2.9913173256296597 -0.002289279287506868
1.25072520461576 -2.051203942896514 -0.004091665232678926
1.2477421104503144 -1.0676906999332327 -0.0064856859827241604
1.2512965111488303 -0.07092381963494143 -0.007428088349789654
1.6492244951578592 -0.07941607871815899 -0.025074645130425798
1.6467069859523888 -1.065429953534651 -0.019683859017121417
1.633024771406266 -2.045664103136205 -0.017841350008937204
1.6109798358684029 -2.985940397095677 -0.018479564450434034
1.5813736986408502 -3.8651031080826432 -0.020608470533653084
1.543609000936982 -4.66395595562348 -0.023230925177363103
1.497646922221055 -5.363045935920653 -0.02564161364723616
1.4438467578173466 -5.942617540354215 -0.02743872750728389
1.3813032549041875 -6.383881076951455 -0.028534554208226738
1.3106877590484909 -6.673562978327075 -0.03022403211467613
1.2478906931680505 -6.794371453263026 -0.036163209344430264
1.1851166800646438 -6.674105230864974 -0.030764916021412052
1.114571118633544 -6.384964655447815 -0.029610632503053198
1.0521463990415867 -5.94423982701269 -0.02902644012609972
0.9985160927992424 -5.365200330408448 -0.027673073789536422
0.9527764036300409 -4.66662552883934 -0.025549424034546516
0.9152934073678236 -3.8682447918800396 -0.02290369707689632
0.8860416232862418 -2.9894396918370236 -0.020209308949460977
0.8643704626832774 -2.049184036255982 -0.018159696701217077
0.8509057534482836 -1.0681062099101786 -0.017478419776070658
0.848529652872342 -0.07998779122458977 -0.01953588840906167
2.052187461612961 -0.083298515286755 -0.0345379497701089
2.0447792739901574 -1.0652961066672706 -0.02929451001854702
2.021287875085183 -2.0420234156090467 -0.03070804741837194
1.979631931605173 -2.9806622671963034 -0.035167316983792135
1.9208411514750308 -3.8581306050007984 -0.04079625100840151
1.8454640144452694 -4.655199866568473 -0.04615236295117722
1.753802347045478 -5.352460736152087 -0.05025551228334744
1.6461767949162742 -5.930421645492909 -0.05240323736382226
1.5242980278323621 -6.368982085537345 -0.05252774453697358
1.3835291028957548 -6.657767357774901 -0.05089124989442357
1.2480205429309434 -6.798830619913167 -0.057195506556345976
1.11253444502877 -6.658324980796671 -0.051584266832660215
0.9718328524280357 -6.370096096501144 -0.053915150826159386
0.8500654262865731 -5.932088385408177 -0.054474108031522486
0.7425912582376999 -5.354670844601794 -0.05295642777185548
0.6511102773051864 -4.657931309010151 -0.04933484582310627
0.5759205709550319 -3.8613327289818993 -0.04413517956180338
0.5172792743506027 -2.9841990757321244 -0.03805853402615293
0.4756694483946782 -2.0455004904628202 -0.032208798460188745
0.4521203784368117 -1.0678293730139352 -0.02829822227011516
0.4447269225420213 -0.0838891971723399 -0.03055544017881732
2.4586571974486255 -0.08453860992221736 -0.04180256869904784
2.4487040170998293 -1.0641559720627043 -0.03828844971129088
2.4160132248819965 -2.0366560252696195 -0.043477266958010706
2.354170529413824 -2.9718783339604014 -0.05192056133320722
2.266018657102369 -3.846265899092694 -0.06112334869409144
2.153063018115629 -4.640291607323469 -0.06919044182878248
2.015683314277111 -5.334571463878787 -0.07482178413332453
1.854338322213711 -5.909301296855871 -0.0771230367841869
1.6708928309705042 -6.346271043215593 -0.0754995277023149
1.4715443633271004 -6.625850223516258 -0.06957281758146072
1.2481460040983114 -6.800000000000002 -0.06690949517368597
1.0247697735736503 -6.626425975409608 -0.07042491043714066
0.8254870988933948 -6.347420879116536 -0.0772138124767896
0.6421482827264419 -5.911020119359614 -0.0797049843695473
0.48094286810427145 -5.336846273804336 -0.07823929705313874
0.3437167112338142 -4.643092723405405 -0.07331512418580481
0.23088426945659948 -3.8495272897446253 -0.06563501869366276
0.14273077662526756 -2.975435741591543 -0.05617472295896911
0.08064769694883826 -2.040084567604034 -0.04641432882926975
0.047566339324529014 -1.066603998336811 -0.038620211307930565
0.03744589560450906 -0.08510363781669325 -0.03905976675201886
0.0 0.0 0.0
0.04038353045349658 -1.0386692136303222 0.007762723286129262
0.0849362973177031 -1.9939716747677052 0.014567162583185874
0.14668804821349532 -2.914298176103669 0.021018405757620415
0.23143898803489962 -3.777549380814331 0.025590085494702156
0.3395420318520826 -4.565125933006551 0.027908657508320712
0.4706832189997433 -5.2583271786332135 0.02779088811115251
0.6250588816090388 -5.839187926096539 0.025277345786233002
0.8046546720350518 -6.289207919939321 0.02089837148591168
1.0132957820023625 -6.584988025983004 0.016184302705462162
1.247462544942751 -6.692575913364826 0.013926308178294646
1.4815991125828645 -6.584868175439109 0.01618864780290261
1.690145040944432 -6.288931374384981 0.02092511337230011
1.8695661011436249 -5.838682582837052 0.02536571493711688
2.023660347856244 -5.2574907523305825 0.028006045418261807
2.154367365846668 -4.563840554784168 0.02834320123734532
2.2618134838255837 -3.7757123212561345 0.026362727320555692
2.3455611115417603 -2.911879900426349 0.022253752086033706
2.4058180452808884 -1.9910678843005765 0.0165731042382897
2.447333898521765 -1.0352039189984268 0.01115669343279306
2.4789948700476203 0.0 0.011383295260686072
0.43189708899489754 -0.026797597232923784 0.00028066994982078625
0.44972728034936416 -1.0385056682819562 0.003983708894470001
0.4732917524141743 -2.001131227614819 0.009191922583051688
0.5155236137616626 -2.9233878631732453 0.013888665545342509
0.5724869745761586 -3.789905311235482 0.017274704044534468
0.6450192373294787 -4.58064709847743 0.018998152063726754
0.7329007853182075 -5.277176861457195 0.019032967783765224
0.8362447608555265 -5.861609944825401 0.017500900095135295
0.9560094192074551 -6.315813628006572 0.01479505341809944
1.093953575287474 -6.616480714576088 0.011828047967020984
1.247445389818819 -6.727244016164982 0.010331494448304246
1.4008998101772119 -6.6163505451141615 0.011741215386436523
1.5387275636802566 -6.315513756169967 0.014634353928473866
1.6582838743246553 -5.861062377548383 0.01729599095692557
1.761304638662729 -5.276269177038466 0.018836443806053826
1.8487128853742385 -4.579244986326467 0.01889300588473621
1.920565825602755 -3.7878813956415622 0.017376051295756
1.9765699168075834 -2.920677360467383 0.014371182730202657
2.017339539558726 -1.9977452622192107 0.010315310518125162
2.038457029206114 -1.034240695148565 0.007078227044554625
2.055274983220942 -0.025473891256696864 0.009034056307357327
0.8400819390309658 -0.04619512919297053 -0.0026917777155397982
0.8492516936455774 -1.0380650762362564 -0.0001553293748107939
0.8578862281497317 -2.004409654118488 0.0034061513386728043
0.8783244965176666 -2.9291487945880164 0.006530336858348953
0.9074966173904572 -3.797435296623203 0.008635949772698718
0.9442567237929403 -4.590124002162278 0.009603664248199952
0.9885952338004713 -5.288631166180831 0.009512084121182308
1.0402615323122926 -5.875056862462009 0.008517681358259994
1.0990839414672617 -6.3315782287217575 0.006830696490695032
1.1671100173505593 -6.636227624174057 0.004823327083435173
1.2474386173061296 -6.751807865677173 0.0036184563191745144
1.3277233248966474 -6.6360912316452865 0.004647635486479555
1.3956140478416887 -6.331263648674041 0.0064884076219369835
1.454198810148446 -5.874481206652795 0.008031691909307748
1.505507811212149 -5.287673630207855 0.008928329942208588
1.5493449532910968 -4.588636445520153 0.009003360755041243
1.585426816571787 -3.7952685337505314 0.008152121564932262
1.6136927060020543 -2.926211054355271 0.006366820728240055
1.6328682401013987 -2.00061853082199 0.003962516795027796
1.6405241406987923 -1.0337986537597827 0.002385674887247309
1.6496682081909095 -0.044209908113473945 0.003885491522175614
1.2389593378326207 -0.05921174856700647 -0.00739626078215943
1.2416808146315588 -1.0380787139453418 -0.004701598643068872
1.2388999317728253 -2.0047292037279414 -0.002491738038329077
1.2384746569132286 -2.931111314204811 -0.0008869593669592719
1.239481008552806 -3.8001093638924894 -5.971345092230702e-05
1.2403824538259725 -4.593394113078975 8.545595975373464e-05
1.2409854025663671 -5.292528865932084 -0.0002520720479468452
1.240902356109501 -5.879303823848047 -0.0009026820609541765
1.2387441273209159 -6.336207195446997 -0.001834677828580903
1.237111390185551 -6.644825804441541 -0.003166654570962687
1.2474374658561844 -6.769253819315805 -0.00424912580411408
1.257713355184932 -6.644687527800214 -0.0034309360485730127
1.255926962358254 -6.335887044630592 -0.002357555654456959
1.253503062495489 -5.878715053846802 -0.0016668013624585004
1.253030591342376 -5.291544160379565 -0.0012161002099330045
1.2531085550257703 -4.591853887201803 -0.0009939382100375227
1.2533405316415223 -3.7978480942569717 -0.0011010104258793699
1.2535119303186475 -2.927999302934081 -0.0016310391759216099
1.2522063001128627 -2.0007750820381927 -0.0024385465008996106
1.2490485014475017 -1.0339369098669322 -0.002811780219031356
1.2519489729779028 -0.05664389664772706 -0.002436260798188627
1.6347993933901557 -0.06667303060369935 -0.012589842166311531
1.6317863953111917 -1.038066048262056 -0.009365351617628293
1.6187744003383553 -2.002882118138183 -0.008378541418890155
1.5986272287616885 -2.9293391029756677 -0.00828244170172361
1.5715187001202782 -3.7978578201415294 -0.00872923137004832
1.5364915778696235 -4.5904134289771665 -0.009413284401250138
1.4932474741699646 -5.288841959675881 -0.010005087005574159
1.441766245682582 -5.874532834493934 -0.01031046298703536
1.379808743356063 -6.32964525455185 -0.010444076154790063
1.307604693204797 -6.6415072086989335 -0.01098245612489661
1.247436425152788 -6.782009405199451 -0.011834227515009052
1.1872113503135286 -6.641371473010424 -0.011337074128687823
1.1148343188935022 -6.329328849214279 -0.011151253899583581
1.052581179092601 -5.87394621910911 -0.011358890284930177
1.0006751438432955 -5.287853043109998 -0.011358741231055276
0.9568781617832384 -4.588855119070129 -0.010985747597612618
0.9211848158733575 -3.795548244601236 -0.010346225562449303
0.8933468155876911 -2.926140097949993 -0.009625984299700706
0.8725970271519241 -1.9988934451997216 -0.008884360561141455
0.8594398158798772 -1.0340126448911793 -0.00815975549261449
0.8566309088236601 -0.06366158505356101 -0.008903144208638476
2.031694512570767 -0.06995497298205676 -0.017176088744486024
2.023820250641679 -1.0375060756099326 -0.013687753257291945
2.0009650092320843 -1.99919927491388 -0.014123669320482453
1.9616772046952282 -2.924010716104067 -0.01557407628770511
1.9065772459234296 -3.7906638162210053 -0.01728931693923669
1.835657210683226 -4.5812181677179336 -0.01875087002212697
1.7487773477880422 -5.277504627291918 -0.019490594524592696
1.6456302834684116 -5.861162380083524 -0.019265401681793286
1.5270484910687216 -6.312462578545359 -0.018282656019669444
1.3841101335001231 -6.6235098148190525 -0.017566958668516455
1.2474299817604837 -6.792325586626925 -0.017712418847494672
1.1106855519237624 -6.623380967796985 -0.018015689038131184
0.9675521928116207 -6.312159090178616 -0.019182597677059376
0.8486397549428427 -5.860592891853875 -0.020613359774965482
0.7450241941479145 -5.276534263791407 -0.021259716855664065
0.6575493189537044 -4.5796751846181785 -0.020859389282706305
0.585952411084392 -3.788358430512712 -0.01955069538140847
0.5302079197326608 -2.9208075553541133 -0.017622975679052525
0.49051081197040747 -1.9952408490478375 -0.015332358390613365
0.4676378349101437 -1.0334969602608526 -0.0132174279329159
0.45997440231115116 -0.06666438780505074 -0.014530258226317299
2.4320366733049816 -0.07112522439525086 -0.019746129216388183
2.42155424456416 -1.0361822063973003 -0.0172373304845511
2.389504233110911 -1.9937807461516488 -0.01949305313863484
2.3307083532830344 -2.915194627311103 -0.022556338956427408
2.2476213213169456 -3.778635943765424 -0.025486538678010172
2.1410301364326094 -4.565901068329978 -0.027567381977750376
2.010773569934822 -5.258848209750536 -0.028185490804975604
1.8565245151302232 -5.838628958746875 -0.027006119637409693
1.6791381100051583 -6.287894953497381 -0.02431109662147403
1.4826665789031632 -6.586382399894902 -0.02150566469666957
1.2474134002985553 -6.800000000000002 -0.020193084066544492
1.0120871415003132 -6.586264537429969 -0.022054428904610967
0.8153943457213997 -6.287613030308133 -0.025417245987479395
0.6376344110646132 -5.838090811618082 -0.028678266341775102
0.48285988749432696 -5.257917812412143 -0.030412846830005297
0.351944256233427 -4.564405392474062 -0.030284880027948574
0.2446285011608531 -3.7763862145800235 -0.028515583894583033
0.16092496589596567 -2.9120642988624517 -0.025507961404313467
0.10188617434378691 -1.9899171848686488 -0.021657734365913145
0.07002832445652578 -1.0322199460308752 -0.017629657655509983
0.059832076444117505 -0.0677011601669188 -0.017876542380761674
0.0 0.0 0.0
0.04283866533913684 -1.0313840521635187 -1.1717787339678197e-13
0.0876373881651347 -1.9813269858774274 -2.2067588604585258e-13
0.14870117713688122 -2.8974360924166795 -3.215641489437472e-13
0.23219283958378975 -3.7579709762332474 -4.156802705755981e-13
0.3386460894977547 -4.544600021406483 -5.201122018317139e-13
0.467896636968748 -5.238992865600761 -6.440265773104227e-13
0.620609316220103 -5.823375285868689 -7.945320343734126e-13
0.7996471244984482 -6.278763104167981 -9.164610832837353e-13
1.009767567966603 -6.579969192577284 -1.0420904291087752e-12
1.247427845376711 -6.690045706361051 -1.1620477836814522e-12
1.4850340079719806 -6.579607693628593 -1.2897960314534464e-12
1.6949845313144973 -6.277987151524258 -1.4041675893907617e-12
1.8737118625288265 -5.822080964312871 -1.4632722839154324e-12
2.0259244707036204 -5.2370329120879004 -1.5693263792828939e-12
2.154396820592325 -4.541808534201853 -1.6653952679264208e-12
2.2596472809645785 -3.754218379858812 -1.8558341171480144e-12
2.3412773882074784 -2.8927338015876978 -2.05676916188162e-12
2.3994843809332007 -1.9758989521491146 -2.2777841320593992e-12
2.4395229025047915 -1.025618425368952 -2.504529728879093e-12
2.469856671942667 0.0 -2.6721805614876545e-12
0.4317504258952966 -0.025911793127727397 -2.319782886456121e-14
0.44966245907207864 -1.0317195665404366 -1.0590721555511969e-13
0.4740842689440008 -1.9886259229249117 -2.0538636941551842e-13
0.5160837435502098 -2.9066853233732566 -3.1015335888878145e-13
0.5724098472748245 -3.770487000099632 -4.1327763855860037e-13
0.6440295852390604 -4.560348446770081 -5.260155015261574e-13
0.7308634932951897 -5.25820584923156 -6.457423686989958e-13
0.8333244837822533 -5.846397515412865 -7.828312743378186e-13
0.9528813252119268 -6.306307478983327 -9.149065871578383e-13
1.0917840110038535 -6.612750035524644 -1.0528549451828504e-12
1.2473622117638437 -6.726183503804793 -1.1714903089508841e-12
1.4028761595532917 -6.612371470467208 -1.3110955221704647e-12
1.5415791036883693 -6.305493313304946 -1.4481958674130159e-12
1.6607786036960563 -5.845034741366003 -1.550124057735801e-12
1.7626831507239955 -5.256131374149472 -1.676663359372733e-12
1.848691434276577 -4.557369687478518 -1.8100814300021287e-12
1.919101259100396 -3.766437309319795 -1.9728813740361277e-12
1.9736571896240445 -2.9015114341353954 -2.1565679021651743e-12
2.013022525512447 -1.9824836206004108 -2.3527106556405183e-12
2.0335575962904824 -1.0246963186811713 -2.5500915688974894e-12
2.0497464549023814 -0.024421616407105908 -2.694851481748279e-12
0.8384883056932516 -0.04507742515694133 -2.5047198891808838e-14
0.8475571568246403 -1.0312816860697895 -1.0226096528635756e-13
0.8567617252875007 -1.9920622846720146 -1.9562068572084206e-13
0.8774025066458593 -2.9124998698192273 -3.034396236738463e-13
0.9064546986641734 -3.7780611636467434 -4.086801949351999e-13
0.9429469564744841 -4.569878198554262 -5.320950253449318e-13
0.9869377049812104 -5.269765934470219 -6.571113092727057e-13
1.0383122690272324 -5.860047768000347 -7.776997122194271e-13
1.0971201066645926 -6.322416695647641 -9.319270502169432e-13
1.1656716509279312 -6.632985761778927 -1.068031324451578e-12
1.2473075791563053 -6.751404974232159 -1.1962344706790169e-12
1.328870369454214 -6.632595016344643 -1.3478641876045223e-12
1.39719654159352 -6.321574839100381 -1.4938816530384243e-12
1.455608704432445 -5.858634591763668 -1.6348403231357834e-12
1.5063860544567906 -5.267605614361504 -1.7785828363292453e-12
1.549529328374236 -4.566757637050878 -1.925701033966338e-12
1.584846431865708 -3.773777156996682 -2.0816377422947483e-12
1.6122817604928894 -2.906967469713793 -2.2474102188510646e-12
1.6307065266377012 -1.9853128892079956 -2.4258951530163884e-12
1.6381883433788822 -1.024264787355887 -2.5995475090650787e-12
1.6470109650722553 -0.04241172748641801 -2.746988617155357e-12
1.2355823172126659 -0.0579635353140664 -2.070681814837137e-14
1.2382806725635123 -1.0312468327725972 -9.798687472901136e-14
1.23597841332358 -1.9924764004529718 -1.8972226519587963e-13
1.2360060119202811 -2.9145441750102887 -3.0065702963233134e-13
1.2373750147807299 -3.780784555418207 -4.103738606466173e-13
1.2386039085845597 -4.573192853051301 -5.354579673975568e-13
1.2395009764807936 -5.273714467887815 -6.666217340178828e-13
1.2396518766248266 -5.864357368223543 -7.926620782290463e-13
1.2376370009463131 -6.327132140321293 -9.44456907147046e-13
1.2361445575512395 -6.641712069501859 -1.0896943353979271e-12
1.2472579481468702 -6.769200722085384 -1.2263390611499056e-12
1.2582897263039579 -6.64131428246632 -1.3919963846467274e-12
1.2565476903967563 -6.32627367300108 -1.5364433355547068e-12
1.2541017422886278 -5.862912584980824 -1.7091859465142894e-12
1.2536200847409462 -5.271498455276237 -1.8715525819732694e-12
1.2536578195023385 -4.56997556672314 -2.0258451048692406e-12
1.2537689120825768 -3.776338258704609 -2.179594897627573e-12
1.2537089420032344 -2.908734962125888 -2.332318012042036e-12
1.252194510759095 -1.9854865234014953 -2.4963533540158155e-12
1.249134009194479 -1.0244160761260368 -2.6544926739687916e-12
1.2519503018622813 -0.05431214422714261 -2.8098581089609877e-12
1.62941366164461 -0.06533901277870369 -1.5132328593789038e-14
1.6265513574231891 -1.031189889556649 -9.39176757519184e-14
1.614090410591918 -1.9906994859391771 -1.8581264578198566e-13
1.5946363425146364 -2.9128688516916026 -2.9474239284739584e-13
1.568342235356166 -3.7786086189955346 -4.090631392772058e-13
1.534237918592551 -4.570266120145768 -5.329629670588198e-13
1.4919289313820256 -5.270051145271332 -6.744730947789496e-13
1.4412271254630222 -5.8595532799016325 -8.082143712079293e-13
1.3796148054056903 -6.320465483808844 -9.610988769886149e-13
1.307113650457431 -6.638247029838745 -1.1120164242835692e-12
1.2472075101507905 -6.78212050185093 -1.2628220230907438e-12
1.187210851567001 -6.637847428952276 -1.427392917533691e-12
1.114434520621141 -6.319601628631929 -1.5977530008325513e-12
1.0523531790790746 -5.858095961086677 -1.777156608893708e-12
1.0009789388590618 -5.267809402463961 -1.956366151155281e-12
0.9577934889583323 -4.566999947530823 -2.1317383962999846e-12
0.9226229061870441 -3.77406799808248 -2.275687376961053e-12
0.8951369951468188 -2.906914006591204 -2.418126121106202e-12
0.8746584172071336 -1.9836611656501195 -2.5641803642072853e-12
0.8618712340165419 -1.0245013522013973 -2.7090494076504946e-12
0.8592244281327739 -0.0609808004904546 -2.8732744364483833e-12
2.0241331236882187 -0.06857725047836521 -1.0121372902140758e-14
2.0166420495652027 -1.030586957719913 -9.006487327142924e-14
1.9945283534091576 -1.9870764369324818 -1.8108549230609335e-13
1.9562273812470674 -2.907638833584016 -2.874303635177445e-13
1.9024236811680495 -3.7715009538054978 -4.093905972023639e-13
1.8330622827318432 -4.561117740727615 -5.452052767094265e-13
1.747823244296503 -5.2586816216082894 -6.722813901737389e-13
1.6460687541098369 -5.84603404600084 -8.108345122277244e-13
1.528171979315045 -6.302941471425318 -9.816710686166878e-13
1.384374729842555 -6.619750234614286 -1.1213348907087118e-12
1.247150433280853 -6.792444085440452 -1.2866480152534224e-12
1.109825430308465 -6.619353947293753 -1.4500021363919258e-12
0.9657232958157063 -6.302083254175413 -1.6438650600671499e-12
0.8473115337822699 -5.844582757929497 -1.846306821917365e-12
0.7448309469392307 -5.25644371355819 -2.039362002925255e-12
0.6586742888141587 -4.557848902311499 -2.2307385940329326e-12
0.5882725011665034 -3.766943737540142 -2.3797628064832703e-12
0.5334774678119091 -2.9016647626636525 -2.5104843291867247e-12
0.49454087005361436 -1.9800888226047342 -2.6338938933585346e-12
0.47238229865764514 -1.0239819732337354 -2.7576417611550707e-12
0.46517574417899243 -0.06379461071960306 -2.9276484194750315e-12
2.4221545115881224 -0.0696475865070128 -4.9461688639060936e-15
2.412281243260917 -1.0291530391873807 -8.453014274118814e-14
2.3812198655408254 -1.981650190884267 -1.729416881311853e-13
2.3238087319583216 -2.898836800484956 -2.7795005890418497e-13
2.242603199572175 -3.7594461862635593 -4.111193914649271e-13
2.138313111684189 -4.545677657361438 -5.637074150474545e-13
2.0105388866370135 -5.239740445225002 -6.656194483545335e-13
1.8584851247421752 -5.822951286648822 -8.100896266037844e-13
1.682153978189087 -6.277532394890757 -9.59883298700901e-13
1.4846638706701394 -6.581232364224502 -1.1207253232703445e-12
1.2470806255266875 -6.800000000000002 -1.2940031535730894e-12
1.0093843438022114 -6.580844267280272 -1.4639533681591206e-12
0.8115526805947242 -6.276690284098119 -1.6581960696852718e-12
0.6346472031251084 -5.821523736867768 -1.9050872202561934e-12
0.4817902458509313 -5.237534242200367 -2.121400082068335e-12
0.3530173001172847 -4.542450727804633 -2.3531011853853956e-12
0.2476455647696675 -3.754950206904443 -2.499010351606126e-12
0.16555264886558727 -2.8929671065129563 -2.618483286106408e-12
0.1078596350167443 -1.9748232143588764 -2.707639112084937e-12
0.07718025220819626 -1.0226439526779263 -2.7992286958799584e-12
0.06776710962800343 -0.0646733413973291 -2.9595897723865356e-12
0.0 0.0 0.0
0.04038353045370775 -1.0386692136304254 -0.00776272328636489
0.08493629731802929 -1.9939716747678757 -0.01456716258361134
0.14668804821391065 -2.914298176103761 -0.021018405758245467
0.2314389880353492 -3.777549380814293 -0.025590085495534425
0.3395420318525348 -4.565125933006522 -0.027908657509374494
0.4706832190002197 -5.258327178633189 -0.02779088811240099
0.6250588816095517 -5.839187926096527 -0.025277345787640744
0.8046546720355928 -6.289207919939362 -0.020898371487581544
1.0132957820029722 -6.584988025982886 -0.016184302707440232
1.2474625449434307 -6.692575913364697 -0.01392630818053679
1.4815991125836274 -6.584868175438921 -0.01618864780538766
1.690145040945313 -6.288931374384475 -0.020925113374998416
1.8695661011445366 -5.838682582836151 -0.025365714940037754
2.0236603478571498 -5.2574907523295185 -0.028006045421417665
2.1543673658474014 -4.563840554782714 -0.02834320124078582
2.2618134838261312 -3.775712321254956 -0.0263627273243109
2.345561111542234 -2.9118799004253457 -0.022253752090165578
2.405818045281286 -1.9910678842997895 -0.016573104242853916
2.447333898522091 -1.035203918997974 -0.011156693437791906
2.4789948700478734 0.0 -0.01138329526599913
0.43189708899509205 -0.026797597232935684 -0.0002806699498714821
0.44972728034960446 -1.0385056682820886 -0.003983708894685411
0.47329175241449395 -2.0011312276150015 -0.009191922583470097
0.5155236137620466 -2.92338786317333 -0.013888665545964228
0.572486974576591 -3.7899053112354726 -0.017274704045374196
0.6450192373299328 -4.580647098477399 -0.01899815206478905
0.7329007853186787 -5.277176861457173 -0.019032967785046134
0.836244760856038 -5.8616099448254 -0.017500900096623424
0.9560094192079803 -6.3158136280066035 -0.014795053419858725
1.0939535752880456 -6.616480714576057 -0.01182804796904876
1.247445389819473 -6.727244016164887 -0.010331494450615208
1.4008998101779035 -6.616350545114021 -0.01174121538900576
1.5387275636810074 -6.315513756169591 -0.014634353931285255
1.6582838743254786 -5.861062377547526 -0.017295990960008698
1.7613046386635243 -5.27626917703738 -0.018836443809396513
1.8487128853749457 -4.579244986324927 -0.018893005888387004
1.9205658256033884 -3.787881395640357 -0.01737605129972094
1.9765699168081308 -2.92067736046634 -0.014371182734519936
2.017339539559228 -1.997745262218419 -0.010315310522844758
2.038457029206588 -1.0342406951481098 -0.007078227049645259
2.055274983221385 -0.02547389125664917 -0.009034056312723391
0.8400819390312345 -0.04619512919299212 0.0026917777154821013
0.8492516936458723 -1.0380650762363908 0.00015532937460278665
0.8578862281500504 -2.0044096541186516 -0.0034061513390788705
0.8783244965180399 -2.929148794588136 -0.006530336858968488
0.9074966173908613 -3.797435296623187 -0.008635949773543103
0.9442567237933674 -4.590124002162207 -0.009603664249272894
0.9885952338009311 -5.288631166180824 -0.009512084122493557
1.040261532312769 -5.875056862462031 -0.008517681359824867
1.0990839414677622 -6.331578228721786 -0.006830696492519828
1.167110017351126 -6.636227624174007 -0.004823327085542961
1.247438617306726 -6.751807865677092 -0.0036184563215632894
1.3277233248972828 -6.636091231645082 -0.004647635489139313
1.3956140478423689 -6.331263648673743 -0.00648840762486773
1.454198810149164 -5.874481206651981 -0.008031691912546437
1.5055078112128841 -5.287673630206824 -0.00892832994573405
1.5493449532918049 -4.588636445518702 -0.00900336075889151
1.585426816572454 -3.795268533749273 -0.008152121569086672
1.613692706002682 -2.926211054354243 -0.006366820732743864
1.6328682401019807 -2.000618530821191 -0.003962516799886261
1.6405241406993787 -1.0337986537593342 -0.002385674892441096
1.6496682081914762 -0.04420990811338316 -0.0038854915276523875
1.2389593378329287 -0.059211748567043164 0.007396260782109495
1.241680814631878 -1.0380787139454617 0.0047015986428656205
1.2388999317731502 -2.004729203728094 0.0024917380379343955
1.2384746569135834 -2.9311113142049265 0.0008869593663501316
1.2394810085531842 -3.8001093638924694 5.971345007814313e-05
1.2403824538263712 -4.593394113078914 -8.545596084837371e-05
1.2409854025667997 -5.292528865932079 0.00025207204660548504
1.240902356109948 -5.879303823848032 0.0009026820593500119
1.2387441273213962 -6.336207195447131 0.0018346778266836545
1.2371113901860744 -6.644825804441535 0.0031666545687909844
1.2474374658567409 -6.769253819315625 0.0042491258016342254
1.2577133551855026 -6.644687527800083 0.0034309360458167474
1.255926962358866 -6.335887044630313 0.002357555651397995
1.2535030624961119 -5.878715053846034 0.0016668013590689017
1.253030591343023 -5.291544160378603 0.0012161002062253943
1.253108555026453 -4.591853887200358 0.0009939382059962797
1.2533405316422295 -3.7978480942557415 0.0011010104215302679
1.2535119303193338 -2.9279993029329883 0.001631039171244245
1.2522063001135424 -2.0007750820374235 0.002438546495902247
1.2490485014481898 -1.0339369098664892 0.002811780213729029
1.2519489729785958 -0.05664389664760933 0.0024362607925792613
1.6347993933904905 -0.06667303060375236 0.012589842166274966
1.6317863953115193 -1.0380660482621544 0.009365351617433461
1.6187744003386757 -2.002882118138317 0.008378541418504162
1.5986272287620296 -2.929339102975755 0.008282441701119527
1.5715187001206385 -3.7978578201415427 0.008729231369204057
1.536491577869979 -4.590413428977056 0.009413284400135247
1.493247474170364 -5.288841959675892 0.010005087004207958
1.4417662456830171 -5.874532834493958 0.010310462985380376
1.3798087433565367 -6.329645254552011 0.010444076152848668
1.3076046932052856 -6.641507208698937 0.010982456122665726
1.247436425153301 -6.782009405199332 0.011834227512438502
1.1872113503140755 -6.641371473010314 0.011337074125830042
1.1148343188940306 -6.329328849213985 0.011151253896397425
1.0525811790931585 -5.8739462191083724 0.011358890281387327
1.0006751438438783 -5.287853043109054 0.011358741227167101
0.9568781617838962 -4.5888551190687235 0.010985747593388247
0.9211848158740821 -3.7955482445999786 0.010346225557906789
0.8933468155884333 -2.9261400979488825 0.009625984294846238
0.8725970271526946 -1.9988934451989533 0.008884360556009213
0.8594398158806645 -1.0340126448907456 0.008159755487199985
0.8566309088244606 -0.06366158505342678 0.008903144202895156
2.0316945125711072 -0.06995497298211831 0.017176088744467712
2.0238202506420113 -1.037506075610014 0.013687753257108
2.000965009232401 -1.999199274913999 0.014123669320108657
1.9616772046955455 -2.924010716104196 0.01557407628710769
1.9065772459237698 -3.79066381622096 0.01728931693839415
1.8356572106835791 -4.581218167717811 0.018750870021015654
1.7487773477884343 -5.2775046272919495 0.019490594523204046
1.6456302834688548 -5.861162380083502 0.019265401680080937
1.527048491069187 -6.312462578545521 0.018282656017683925
1.3841101335005772 -6.6235098148190374 0.017566958666219483
1.2474299817609753 -6.792325586626867 0.017712418844850007
1.1106855519242518 -6.623380967796846 0.018015689035178833
0.9675521928120842 -6.312159090178397 0.019182597673747515
0.8486397549433223 -5.860592891853161 0.02061335977127175
0.7450241941484236 -5.276534263790516 0.021259716851597065
0.6575493189543189 -4.579675184616855 0.020859389278277556
0.5859524110851282 -3.788358430511445 0.019550695376666493
0.5302079197334674 -2.9208075553530106 0.017622975674025314
0.49051081197128005 -1.9952408490470779 0.015332358385339978
0.4676378349110411 -1.033496960260435 0.013217427927394875
0.459974402312062 -0.0666643878049083 0.014530258220457358
2.4320366733053227 -0.07112522439531993 0.019746129216383274
2.4215542445644855 -1.0361822063973671 0.017237330484382217
2.389504233111234 -1.9937807461517778 0.01949305313827905
2.330708353283327 -2.9151946273112026 0.022556338955841426
2.2476213213172427 -3.778635943765388 0.025486538677172602
2.1410301364329527 -4.565901068329874 0.027567381976658572
2.010773569935228 -5.258848209750491 0.028185490803549908
1.8565245151306713 -5.838628958746863 0.027006119635659513
1.6791381100056233 -6.287894953497501 0.02431109661942777
1.4826665789035793 -6.586382399894909 0.02150566469432371
1.2474134002990052 -6.800000000000002 0.020193084063867807
1.0120871415007593 -6.586264537429817 0.022054428901564508
0.8153943457217756 -6.287613030307927 0.02541724598401527
0.6376344110649533 -5.838090811617438 0.02867826633792362
0.48285988749473974 -5.25791781241121 0.030412846825746916
0.35194425623397807 -4.564405392472822 0.03028488002331446
0.24462850116161214 -3.776386214578781 0.0285155838896283
0.16092496589687513 -2.91206429886136 0.025507961399107618
0.10188617434477873 -1.9899171848678925 0.021657734360495996
0.07002832445754201 -1.0322199460304469 0.01762965764988593
0.05983207644513672 -0.06770116016677709 0.017876542374831342
0.0 0.0 0.0
0.029089146296143002 -1.0658090434607377 -0.017966204464789956
0.07375100600760483 -2.0383299722837958 -0.034314559663827605
0.13697275218842778 -2.972484333282944 -0.04950872838894991
0.22423886804078003 -3.8463008570082935 -0.061234547363608345
0.3364320177317696 -4.640355216803825 -0.06946544417079992
0.4731453165039268 -5.33460300878589 -0.0736367869456903
0.6337268061734415 -5.90979183861729 -0.07336278666121847
0.8175408081609514 -6.347085071204402 -0.0688242593164952
1.0238347981451639 -6.626688435599759 -0.061956773152765154
1.2473999672443181 -6.7256472102201235 -0.05798431973878256
1.4709911045958648 -6.627193896283692 -0.06199759697414693
1.6773666217186236 -6.348094433410884 -0.06893536986407142
1.8613299592238821 -5.911301440604347 -0.07360922465738386
2.0221542182501535 -5.336604584754874 -0.07413129368804816
2.159253808204024 -4.642826540520601 -0.07037870035281713
2.2720662574536337 -3.8491829032680456 -0.06282519463618413
2.3603592363611057 -2.9756332356198087 -0.05205038795978793
2.4252502345597247 -2.041463140055539 -0.038552339761975744
2.4732095057741637 -1.0688066746539269 -0.02285479317508149
2.5101358248775063 0.0 -0.020061176470197263
0.4300551948854859 -0.03098815975613273 -0.0026480885230187336
0.44746839342240896 -1.0642580134097985 -0.008237245595970014
0.46873334766174946 -2.0452111179762302 -0.02142307658490964
0.5111967214471537 -2.9810969719284204 -0.032235864980978066
0.5692920204983228 -3.858137586061605 -0.0406190548586015
0.6440131819354606 -4.655201921664275 -0.04622392310874044
0.7350720568424544 -5.352501449102043 -0.04896764276850786
0.8419861747895816 -5.930717993245957 -0.04873966701277434
0.9640842082806435 -6.371113573125316 -0.04579648306775858
1.100439269304401 -6.653893817334635 -0.041245077689831766
1.2475128880173938 -6.754832076143936 -0.0383355663838631
1.394612031349237 -6.654404794318612 -0.041139809795948085
1.5310469736469887 -6.372134337571346 -0.04560890732963219
1.6532901424964492 -5.932245826594574 -0.04852313128942292
1.760436818892004 -5.354530132104136 -0.0488194278295898
1.8518565675863385 -4.657713709233257 -0.04630776832742286
1.9271447288796641 -3.861082321820667 -0.04117658218676829
1.9861408876745619 -2.9843462254645274 -0.03366669764266616
2.030149729973092 -2.0485418007518077 -0.02408882769388716
2.0541249167928957 -1.067680052893174 -0.01356072647845912
2.073090855433541 -0.031522412591924724 -0.015182617196620741
0.843048905135822 -0.05456219867606637 0.004767571209806894
0.8527028782921409 -1.0640495757903956 0.0003719257723446844
0.8601155453721618 -2.0477642888151717 -0.008289938652376526
0.8795681823722933 -2.986339102953182 -0.015336063941890639
0.9086104966559497 -3.8650645115774207 -0.02023041472463692
0.9458390230022969 -4.663956891408179 -0.02318484142947081
0.9912517553872663 -5.363031249031369 -0.024322170382159572
1.0444333660442315 -5.942944520928824 -0.02374679305648134
1.1046445517809025 -6.385060213934854 -0.02159214280872414
1.172050369856103 -6.670364838161742 -0.01795539970340194
1.2476349252995527 -6.774361189797368 -0.014744566090368684
1.3232442757483607 -6.6708838466413765 -0.017706011769339332
1.3907270844494273 -6.386097314536127 -0.021110634216621228
1.4510758413309834 -5.944497579214486 -0.023076432039149525
1.5044717570733406 -5.365095138533018 -0.023550373338494846
1.5502054959237321 -4.666516611097611 -0.02246964883972147
1.5879169727305502 -3.8680758162311766 -0.019839016222533423
1.6177111601278846 -2.989681778779552 -0.015677531644798324
1.6384123290765702 -2.051282284211906 -0.009968089397351498
1.6471296291584885 -1.0672676231312361 -0.004052541664213469
1.6573610995454022 -0.055062272911333185 -0.0046997896650076264
1.2475254196428744 -0.07039789763383347 0.014761116318060825
1.2507977590669568 -1.0647777611311124 0.009836261304647608
1.2472172380552116 -2.047651722400313 0.004807696580084057
1.2452972433052312 -2.9878814406799137 0.0016085311764895912
1.2449410891254566 -3.867385991425623 0.0002209752624487543
1.244716300963044 -4.666850279055682 4.203119206781233e-05
1.244477713143359 -5.366514024760672 0.0006661607389911784
1.2440703279556133 -5.946830081563067 0.0018515478076891276
1.2425890237636221 -6.389292204978624 0.0035437642458092814
1.241382000652275 -6.6770507461702095 0.006609638026502305
1.24776148626473 -6.786855410852915 0.010968884690045595
1.2541648671200343 -6.6775801791771 0.007003419970888908
1.2530312468458829 -6.3903502534571 0.00431963487694493
1.2516780615088132 -5.948414666700652 0.002975619016858684
1.2514627659651216 -5.368619907474752 0.0020602093335636835
1.2514963327734177 -4.6694631718958535 0.0015476168647378826
1.2516550052881688 -3.870462689361084 0.0015501257936586309
1.2518715901930948 -2.991317325627602 0.0022892792828233138
1.250725204617091 -2.0512039428949858 0.0040916652276848315
1.2477421104516622 -1.0676906999322664 0.00648568597741407
1.2512965111501584 -0.07092381963463319 0.007428088344179365
1.6492244951585138 -0.07941607871825615 0.025074645130407
1.646706985953032 -1.0654299535348495 0.01968385901691535
1.6330247714069288 -2.0456641031364162 0.01784135000853848
1.6109798358690939 -2.985940397095778 0.018479564449818575
1.581373698641567 -3.8651031080827143 0.02060847053279049
1.54360900093777 -4.663955955623529 0.02323092517624086
1.4976469222218836 -5.363045935920417 0.025641613645846283
1.443846757818257 -5.94261754035348 0.027438727505625017
1.3813032549051838 -6.383881076950713 0.028534554206290662
1.3106877590495216 -6.673562978326674 0.030224032112437554
1.2478906931691247 -6.7943714532626185 0.03616320934186026
1.1851166800657824 -6.674105230864167 0.030764916018540672
1.1145711186346292 -6.384964655446442 0.02961063249985654
1.0521463990427018 -5.944239827011137 0.029026440122565788
0.9985160928004386 -5.365200330406449 0.027673073785643845
0.9527764036313021 -4.666625528837144 0.02554942403032569
0.9152934073691544 -3.8682447918777307 0.022903697072349523
0.8860416232876626 -2.9894396918350217 0.02020930894460814
0.8643704626848008 -2.0491840362544798 0.01815969669607643
0.8509057534498337 -1.0681062099091836 0.017478419770640248
0.8485296528738872 -0.07998779122425156 0.019535888403316593
2.0521874616136584 -0.08329851528685867 0.03453794977011982
2.0447792739908395 -1.0652961066674587 0.029294510018368143
2.021287875085831 -2.042023415609258 0.030708047418000428
1.97963193160586 -2.980662267196413 0.035167316983198686
1.9208411514757082 -3.858130605000867 0.04079625100755777
1.8454640144459735 -4.655199866568595 0.04615236295004192
1.753802347046227 -5.352460736151791 0.05025551228191475
1.6461767949171104 -5.930421645492338 0.052403237362085756
1.5242980278333635 -6.368982085536674 0.05252774453493449
1.383529102896735 -6.657767357774473 0.05089124989211234
1.2480205429319315 -6.798830619912939 0.0571955065536876
1.1125344450297838 -6.658324980795822 0.051584266829682354
0.9718328524289827 -6.370096096499678 0.05391515082280719
0.8500654262875701 -5.932088385406636 0.05447410802779762
0.742591258238802 -5.354670844599781 0.05295642776776251
0.6511102773064192 -4.657931309007919 0.04933484581868592
0.5759205709564166 -3.8613327289796127 0.044135179557061345
0.5172792743521681 -2.9841990757301886 0.03805853402112275
0.4756694483963712 -2.0455004904613134 0.03220879845490203
0.45212037843856345 -1.06782937301295 0.028298222264566544
0.44472692254379326 -0.08388919717198576 0.030555440172950674
2.458657197449341 -0.08453860992232597 0.041802568699085114
2.4487040171005536 -1.0641559720628857 0.03828844971114505
2.4160132248826605 -2.0366560252698194 0.04347726695766836
2.3541705294144433 -2.9718783339605355 0.05192056133264304
2.2660186571030465 -3.8462658990927365 0.06112334869327389
2.1530630181162578 -4.640291607323524 0.06919044182763606
2.015683314277723 -5.334571463878503 0.07482178413183932
1.854338322214495 -5.909301296855375 0.07712303678233833
1.670892830971495 -6.346271043214945 0.07549952770016365
1.4715443633281737 -6.625850223515832 0.06957281757905152
1.2481460040992347 -6.800000000000002 0.06690949517097729
1.0247697735743975 -6.626425975408815 0.07042491043405347
0.8254870988941921 -6.347420879115097 0.07721381247325985
0.6421482827273273 -5.911020119358089 0.07970498436562033
0.4809428681052336 -5.336846273802367 0.07823929704883528
0.3437167112350067 -4.64309272340319 0.07331512418118111
0.23088426945805357 -3.8495272897424124 0.06563501868872952
0.1427307766269815 -2.9754357415896426 0.05617472295376173
0.08064769695071805 -2.0400845676025714 0.0464143288238322
0.04756633932651241 -1.0666039983358284 0.03862021130227572
0.0374458956065309 -0.08510363781633955 0.03905976674606509
0.0 0.0 0.0
0.03109797290416254 -1.127658861874154 -0.0269918616899805
0.07488602732519382 -2.124960210895612 -0.05811913236009565
0.13544822846772456 -3.085608453751275 -0.08297585429485761
0.22163200923902546 -3.9835587477626606 -0.10549959775486013
0.33464612097129265 -4.797640161316575 -0.12412212393067568
0.47402408457491924 -5.505483275565881 -0.13806880195193671
0.6389227699367551 -6.085455943064424 -0.14634885958499685
0.8270886587667586 -6.516470319108404 -0.14826879126772108
1.032923617380578 -6.780522082327589 -0.14496316426507988
1.2471479731033388 -6.868507736743218 -0.14197142783458316
1.4614484635918505 -6.781810421951154 -0.14508236696098697
1.6675266799764281 -6.5190770466790635 -0.14854901369185272
1.856149512637377 -6.089435931420812 -0.14688259318182034
2.0218032476518815 -5.510902269727097 -0.13901527462495478
2.1623679829014875 -4.804540800212315 -0.12573685252908315
2.277188043616175 -3.991900988863842 -0.1081447340427255
2.3660632394931778 -3.0951666997543783 -0.0872758063348215
2.430545461349782 -2.135293522087663 -0.06446410448998077
2.4810951304455933 -1.1379356416599935 -0.038324386065006426
2.5284217151885198 0.0 0.0002188133780788487
0.4425779149076028 -0.04815404417939572 0.014172059185579726
0.46167973340834756 -1.1226531540690696 -0.014139946343097813
0.47707930504421686 -2.1317495832883693 -0.0368176007006821
0.5167650047156227 -3.0935841554900376 -0.05603747902368015
0.572752937407061 -3.9950308265280055 -0.07212365072639787
0.6466759775719341 -4.812178649109753 -0.08535963778046139
0.7381109509542636 -5.523117930743241 -0.09516807989377477
0.8464776098715912 -6.106061026572162 -0.10109685205414394
0.9702975758918608 -6.539654901359485 -0.10283499553571719
1.1059681023746906 -6.805206984555941 -0.1010950846521103
1.2473800435410332 -6.893277849765894 -0.09924442375897113
1.3888724930666654 -6.806516523304163 -0.10105405683975242
1.5247983121503694 -6.5423079879039125 -0.10278850043343524
1.6490907896946314 -6.110120888111345 -0.10112548836899449
1.758221922033714 -5.528663609856818 -0.09541776287074454
1.8508259826465254 -4.819273037938039 -0.0860675897808315
1.9264819228144452 -4.003657164973217 -0.07367474538365075
1.984964678597332 -3.1035505045684233 -0.05894513707546257
2.02826383747794 -2.142668599521355 -0.04208921968391552
2.04881592785538 -1.1337436451177267 -0.021847337156145643
2.070679580689894 -0.05081729910398289 0.005715548753829524
0.8603962077647337 -0.08360779698804187 0.023159713340597222
0.8702459024353758 -1.1209732116516977 0.0012532986236678226
0.871964515451486 -2.1332890834949296 -0.014936674450045803
0.8873630721851186 -3.0984023290164453 -0.026871409450435653
0.9138107381726468 -4.001610794960989 -0.03600313851441929
0.9493944475959792 -4.820699843299117 -0.04297290834699937
0.9940659559051721 -5.533482244780906 -0.04782355082633976
1.0476032412995708 -6.118276551543927 -0.050456060901732804
1.1096119129731852 -6.553467230310056 -0.05082013108560453
1.177953637610696 -6.819340307941549 -0.0490410685666019
1.2475640510227655 -6.905912998958366 -0.04703538902542009
1.317256518542647 -6.820672760800136 -0.04884007953450024
1.385856848391609 -6.556169648210745 -0.050446870380618146
1.448338283398036 -6.122419213275687 -0.04997872104500878
1.5026259175409769 -5.539155149301967 -0.04737155306991339
1.5484168311356177 -4.827981559795281 -0.042772819932309
1.5856092017443244 -4.010505575689196 -0.03642306538635608
1.6142980634650657 -3.1087277002177425 -0.02849419542402662
1.6326919623588538 -2.144683416509786 -0.01857989274627462
1.6368594149871523 -1.131672557166584 -0.004889134614593588
1.64789740591428 -0.08771030592981613 0.014554568452571883
1.2659337669231518 -0.10632914060093149 0.031186646644110947
1.268580668879667 -1.121258036880714 0.016224699487940045
1.2598971427737913 -2.132009661692476 0.007173450562136384
1.2534208901636386 -3.099354311306056 0.0029570623874411203
1.249985447173623 -4.003588143785169 0.0011947414920234966
1.2476724979437208 -4.8233516344373015 0.0007966510426253356
1.2461064139950553 -5.536823839260178 0.0012740850842339667
1.2455264736230216 -6.1224233887011374 0.0023637123159439386
1.246825974225418 -6.558395419992774 0.003820935255503039
1.2494575499626879 -6.823110392161886 0.0059329142878774025
1.2477281886812195 -6.905136062636642 0.008482631034064657
1.246081229274907 -6.824466785312164 0.006295045662631738
1.2489709900779407 -6.561148808915094 0.004523728736876234
1.2507367797254811 -6.1266500491789175 0.0033524472729827945
1.2508826957881647 -5.542622361595568 0.0024358969548239273
1.2503691319222034 -4.830813411947876 0.0019205684973571057
1.2495110676252876 -4.012729403269106 0.0019135979172142555
1.248005580452563 -3.110007371838011 0.002676362479597815
1.2436477627180347 -2.143542026164105 0.005089087226047042
1.2362718965852921 -1.13153120911563 0.011626455925226613
1.2395743325159883 -0.1114968501721313 0.023932313972518514
1.6681489671677516 -0.11849209321201037 0.03943520081632265
1.6644350651634194 -1.1217127681164087 0.03044138667423451
1.6461269113378136 -2.128878472855826 0.028919677922878927
1.6194115943210514 -3.0967035228960653 0.03261720574488995
1.5863312024534393 -4.000889244714545 0.038326138221623327
1.5459814911238985 -4.82019266607852 0.04452154285286575
1.4982448228454701 -5.5331821206725165 0.05035144522587499
1.443411502861922 -6.118488592895219 0.05520412271775486
1.3835873056796588 -6.5546709536867995 0.05840519363995732
1.3213151818165878 -6.817151500365601 0.05980833032801168
1.2478967524631535 -6.88903820446818 0.062096143090956964
1.1745614511374496 -6.818532653821896 0.0603342690089111
1.1125481696365276 -6.557476589655086 0.05944346420430621
1.0531854804882572 -6.122799958262743 0.05671455198217595
0.9990556790147589 -5.53910441974372 0.05223964368418981
0.952304787851221 -4.827824451622359 0.04659324366508037
0.913249812968187 -4.010257658268277 0.04021959911928356
0.8817181068533443 -3.1076032321855487 0.033725426608181716
0.856443589322874 -2.1404358069575027 0.028382827925145897
0.8388830010378989 -1.1317149776314164 0.027427806905791594
0.8355270235450142 -0.12433645410162573 0.03376645083834856
2.0730545893576338 -0.1230430028336636 0.04831965221702802
2.064325022422409 -1.1212429355001825 0.04385574836289582
2.0367617288474364 -2.124178076562972 0.04980878960826572
1.9905083518384394 -3.090709442457076 0.061299116048183305
1.9276766042513043 -3.993472146679933 0.0742526797666984
1.8488687402830417 -4.811147358043855 0.08675452651303733
1.7543463996243067 -5.522577215452044 0.09764122434031035
1.644892685982488 -6.106230418465076 0.1058948843754486
1.5212479800835708 -6.542027659100782 0.11051723051422456
1.3930669218798604 -6.803150594228795 0.10894419706771384
1.2480944293123466 -6.85470054300366 0.10678573547209977
1.103207903462115 -6.804557628531842 0.10963801065432818
0.9752927077123095 -6.5448873915616925 0.1118998806249219
0.852115517119506 -6.110628152842349 0.10794232499270687
0.7433584494573735 -5.528622218125626 0.10027983006353391
0.6497767340029228 -4.818940628197415 0.08980993624637898
0.5721157620468876 -4.0030361741331895 0.0773730309021438
0.5104678861713744 -3.101787361566364 0.06385763022816378
0.46508889839453915 -2.135748930459939 0.05085801977440221
0.4378344247213406 -1.131111308759422 0.04241479381635173
0.4291952122107516 -0.12921287064183423 0.04418410929978874
2.4839831178920497 -0.12397107998020357 0.05753492942530495
2.474091226831838 -1.1196659036239491 0.05649412961696908
2.439073778599356 -2.1179985680604068 0.06912761815118383
2.372559069773939 -3.0812877958509577 0.08772072279731535
2.279233076682636 -3.981190789300401 0.10718961827129123
2.16115371392058 -4.796049625816809 0.12525548108012205
2.018729540480029 -5.5046430779835696 0.1404222349287524
1.852852243697158 -6.085893456666048 0.15127624363055367
1.6650755081211654 -6.5180989492981265 0.15648069554205923
1.4561171860298177 -6.783728295621075 0.15093551298333102
1.248350632676445 -6.800000000000002 0.12826589547760045
1.0406771389135796 -6.785163370266686 0.15180244102912469
0.8320045822548843 -6.521016664382761 0.15821906494000035
0.6447230819825109 -6.090382018465768 0.1538798587329697
0.4795670813759937 -5.5108134266263535 0.14384078972569053
0.33808144449008315 -4.803998481904783 0.1293377179019455
0.221058836800055 -3.99091789247141 0.1115953521131451
0.1286102888719166 -3.092475061973883 0.09179552303803687
0.06235045475883872 -2.129546395525532 0.07180694892834331
0.026970223235704076 -1.129449434553504 0.05657557932384989
0.016821697581361657 -0.13020988892980115 0.05475252204685952
SCALARS Stress float 6
LOOKUP_TABLE default
-6567.928562815302 -36432.388074218674 -12900.094991110194 -6665.687724818525 2748.040217259464 -3462.856090617976
14515.312267229416 9337.397462523228 6009.023530335362 -2961.0285309864894 2860.384215747599 -117.761945087353
14358.45281133855 416.6746729506468 1407.9572438995901 -1395.9091031264234 2794.3967718297663 -971.3852153890623
20768.885779780565 1931.0560022679085 2557.6888901187044 -1439.4915039294067 2486.4031306631528 -1053.9898804751956
28041.107787256846 2154.5146289803424 3434.421498698712 -1356.6813983573306 2221.9439297098897 -1447.5833456549353
35632.95132573958 2832.144191289183 4594.915226796813 -1230.9442595157682 1745.2091956287713 -1785.0536261257305
43025.73457262297 3429.5021704746227 5749.914998610342 -1028.2206342970999 1088.5071535963705 -2131.8195018780616
50002.40481138378 3987.4639147679 6923.436058134952 -749.5153093741912 265.3098242444678 -2472.561441791011
55877.062389794766 4433.831844044487 7999.139504609043 -390.1019997961942 -537.1305832071381 -2823.8203265349302
59708.84563565928 4879.415711579061 8829.78400401613 -72.48307107899112 -764.7266351261113 -3201.2349069634242
61114.00684868016 5381.060033304581 9277.21691831337 -8.87790556978338 18.382656339571305 -3458.663048107187
59752.23574541077 4879.928728432454 8832.996214415673 54.266311585375675 801.1690666950981 -3202.1279155514103
55972.42776894332 4435.254665725184 8006.688808760531 370.50296767868 572.5064063433562 -2825.5904645178334
50168.008100459476 3990.641153531569 6937.566775448389 727.5800986423702 -232.15267586689296 -2475.254113460828
43292.141289481864 3436.30276025826 5774.450931172375 1003.070781501907 -1059.2719451561522 -2135.0707557813844
36043.72407271058 2843.544961438689 4632.439021951707 1201.3411581094106 -1723.650082721777 -1790.1637273111946
28660.96798675292 2177.6634928974936 3493.3420839951314 1322.7516147395122 -2208.1541187422395 -1448.0726839655074
21668.36360031694 1957.9888540153147 2612.2055192241382 1391.4557142878346 -2502.3091235200923 -1080.971616977467
15892.43821512481 576.9363631650373 1648.4940315678105 1337.7453144065464 -2750.642205307834 -881.7902876980448
17840.822669797755 9924.623191002109 6364.085485163838 3072.2858987208742 -3678.0433143590344 -647.8180878442867
-274.6463501291496 -34745.07448000474 -7929.164597709408 4006.6817847475863 -4817.690510566909 -1343.0937117324395
-7282.177276961096 -31600.742299013164 -9527.72769334194 -4278.426981382744 2270.473973545555 -1990.591440846743
6939.535377931323 5060.548201223713 2850.034861184334 -3545.0484960829676 1901.1366600471401 -597.0670106203589
7159.601478570916 -483.73664254142494 46.74932787902605 -2949.568265052752 1724.9362123326953 -1046.6558289618504
12956.611667632727 89.97821753627761 889.7718871962544 -2987.3900727499904 1525.1384773337832 -1357.2779562651772
17528.335708680694 -108.80201968350802 1222.9232199760859 -2920.191728580855 1323.5130470653205 -1800.712228302081
22366.76961737623 -102.81468970141572 1706.6486141343119 -2682.2402875908533 1042.948575841135 -2242.896671256578
27080.47030389154 -102.70193296763173 2223.157323598931 -2330.5258847843693 652.5954939916328 -2687.6189079834944
31515.508216419952 -142.9167563710772 2759.3351033538474 -1817.5031341042875 170.79322211132907 -3146.609975230844
35271.671206594205 -187.01334639979095 3278.151068021895 -1073.5935011009085 -303.72965372632075 -3669.0836198514976
37866.12630553977 171.3765080315099 3806.7793712171297 -282.56843148226045 -452.96529251899284 -4324.4994473637
39084.722960631174 1142.4924168980062 4329.156852651873 -15.828991373212666 4.403427401093804 -4832.844763473449
37913.16199542671 173.4455178512456 3813.348511949588 249.9023964535106 460.89536669524665 -4324.593155976068
35373.464522204886 -182.69908340952873 3292.0578019857644 1037.852683826939 309.00067361459503 -3669.15133851466
31688.11556266451 -135.99503705942763 2782.0425522826604 1776.4527763109545 -169.98998787068965 -3146.3976620534113
27349.26955672635 -92.79984809656153 2256.2112838300604 2281.6760246672734 -658.2826834642407 -2686.601458181409
22768.22470630586 -89.92477360276288 1751.6538421965708 2622.811797559181 -1056.4643863299004 -2240.6702719521577
18107.489334196187 -95.08237382622806 1274.5437054403656 2847.2840265537957 -1348.2773186958675 -1794.9174102947004
13796.070824933788 120.11107400978447 963.0057946841347 2888.966554644254 -1550.3805705414736 -1356.096290814757
8335.95414120287 -459.1019995675832 75.94701316233866 2797.6592582279854 -1796.3014033809616 -1005.9017663789995
8097.428588161598 5309.430128305982 2969.17061118601 3343.7231326718866 -2174.056852501777 -856.402683877793
-6750.925072628565 -32634.277551337324 -9160.264407584104 2677.3141851036808 -2688.3401165021164 -808.5095596515959
-5803.055417379573 -22023.378797163452 -6011.046323039022 -5023.139481969171 1382.5496051463758 -659.2823511767127
2381.369237462172 1544.4887180956562 1289.74358425613 -5758.322241984222 1081.9896013444802 -927.9193218799077
2514.8337719490296 708.586924950339 122.49977831671461 -5022.606116088729 852.6429365462974 -1194.9800975352828
5552.629465388174 -117.63490241452925 164.8309395796173 -5108.191614929277 691.4611345973715 -1731.0849620742779
8327.583404920822 -78.75631735618288 470.5843976914853 -4934.702588175399 565.5169873614444 -2284.6005853176935
10800.799132957893 -100.03166641773316 695.9817375017595 -4554.967241812684 427.9685651487016 -2866.04487692297
13263.165583458975 -84.42228186773237 967.5652399260993 -3990.3188491190595 243.40317035266844 -3452.7950240280556
15630.118797432884 -131.65309847585303 1255.891559941971 -3169.7364973515637 -2.367080725254417 -4071.7163228568024
17647.341357528338 -202.7578424651464 1519.7012499303785 -1903.622192157276 -314.7790255526704 -4800.517441227245
19018.95743017385 599.4682137470361 1935.8191787920496 -410.85887969622013 -481.1476919753679 -5795.569673098469
20279.10399947719 3199.202117325809 2940.657862102378 -25.294913457017387 -6.767802816498502 -6732.447694453088
19067.517589451396 601.8972762255578 1944.9664377756424 358.59083043624224 466.27576048275785 -5795.047487094929
17751.331286747747 -197.73678495396732 1538.6506967673158 1846.2204239326347 295.96500641848314 -4799.316669289702
15803.321233597602 -123.73194972341105 1285.7035938348515 3103.415581681484 -22.767846462657687 -4069.459793992025
13526.517014026631 -73.21112170183913 1009.3006959438127 3910.699063440335 -276.61231026136545 -3448.8719411207644
11181.76604711649 -86.57825656010075 748.8593042271675 4456.8901972161375 -469.92265487924163 -2859.089717536432
8859.666405154852 -64.4448862146692 531.4166795687271 4811.732263079842 -614.0751089029646 -2274.406637908126
6265.839916559869 -105.3498860862064 219.67678777761648 4943.907877207462 -741.5124354889558 -1710.7897577152837
3228.3629995430592 717.9763571960108 89.69620503772687 4783.874845308814 -922.0677536467937 -1199.4663246713674
3053.2361641932025 2045.7658660632635 1423.4040930305596 5440.084387955689 -1184.816178454193 -942.1679892164585
-5775.382041854354 -22849.61439218049 -6141.062839961967 4748.004308311471 -1517.0833836970069 -630.1081642869354
-4245.59672720133 -13308.323352232037 -3179.167464758148 -4645.138743952353 623.6817212042013 -232.49202624010167
-742.7665797940251 -308.8842527982561 496.2121899860026 -6089.585830870764 353.3621264460939 -805.8434356073857
-1719.28208848687 901.8400636538844 55.35731027588362 -6114.019902059432 55.73731411621979 -1235.5464692941973
-1355.7699582310358 68.43222054377856 -214.85853214533844 -5836.8679903861575 -92.6466472032325 -1820.296866574513
-820.5662704236456 -59.01632353768217 -140.14918666099655 -5596.911084384667 -136.5359243932408 -2424.9195764273
-542.8570696721794 -24.0072215445582 -74.1781769398495 -5163.128501561619 -148.5047185691503 -3041.3373044079067
-282.78871876703533 9.031412804817666 -4.885039682601235 -4532.705104456236 -159.36383947301246 -3671.3977231409613
126.88721435071966 1.8178109451657747 103.68652746356467 -3646.4127649737393 -200.80741011018847 -4327.679821879882
500.11540484431634 -194.22975347176123 126.98271782079644 -2196.3492572746536 -388.7447383342918 -5080.402920533749
512.2555495489769 955.2228972980529 354.25981196481763 -136.06577455932154 -631.9457468863599 -6160.586395658738
2308.6390974862206 6775.635106427257 2409.3817966313945 -28.400380318384904 -16.807077219184656 -7552.580669131429
561.6921892150906 958.0847023933447 365.9278612545498 77.32934126114273 596.5653374157044 -6159.873594627432
604.920773879891 -188.40376516356093 150.8870283566037 2131.692104552794 348.2126922062355 -5078.79925270223
298.45184665450347 10.788462990662076 140.6514477979478 3571.478976360362 152.2803204018593 -4324.779370902097
-28.667175038186315 21.15848882315943 45.48182131460716 4442.378862606445 101.23707754193346 -3666.4063703933107
-188.24959938107952 -10.215775843799193 -12.15281688853075 5050.998246568587 81.67254916819395 -3033.036762750699
-349.0313808488501 -47.82120528341043 -72.87343543327746 5454.137802174636 66.29793872984234 -2411.1829477259002
-810.2078173442693 61.49188471092717 -175.43244420034 5650.222461167959 27.278961418671777 -1801.2547321159595
-1239.0379141827166 993.445356581085 53.05349839437255 5878.510220189123 -109.73836540122234 -1225.0776417305774
-356.6917188961288 47.65884420153178 560.4703191999961 5950.882594056519 -398.6786929480446 -828.4159360698535
-4325.4466798279955 -13947.263956621817 -3384.805699323817 4600.781684448347 -680.0103023334058 -364.3986181600809
-3333.666068569018 -6661.371816847697 -1173.8760549480503 -3530.330224511213 -9.1560158507251 -183.57553816992288
-3132.284589791174 -886.5301521322029 161.19438564740832 -5121.0372187236 -331.0571172888863 -625.266616030458
-5774.439160470923 722.9983551184836 -107.8329301342224 -5625.801661917545 -751.045591848302 -1142.2577433309025
-8033.072669503198 167.04664156518834 -563.4957379464994 -5243.2566434066985 -890.8853829969963 -1714.9035755571197
-9930.254362300635 17.443219706630828 -722.6573305481569 -4939.328595968724 -848.2571657626936 -2289.9278633155736
-11896.923062323285 53.1876455086684 -847.9597908377049 -4552.0195084618035 -728.0886778704196 -2866.5437320612186
-13852.514714906598 71.20664953085303 -994.7902894398596 -3997.05685385667 -573.0151593468635 -3459.013414437038
-15425.452676079447 204.47731929509538 -1038.4541565480588 -3207.518722652624 -388.7055028517813 -4054.0012586326698
-16564.452335794682 -134.46902498674808 -1214.3481037210597 -2038.7490989669293 -345.9958551130857 -4689.001372113213
-18349.222106434816 342.4816753190305 -1643.076003128935 524.079051946661 -707.2368651966566 -5568.093199243122
-15003.059156628022 12261.542655575548 2472.5531024886545 -25.563254942869264 -27.069006953622356 -7383.633062475976
-18298.670048661173 345.84388684359783 -1628.800645068199 -576.9757027481576 650.8557008966947 -5567.619397428432
-16458.36908544442 -127.70900990315484 -1185.2989296779556 1980.4488740399934 283.12065940925703 -4687.90593450109
-15254.89866282981 214.61917043183624 -994.0649290766505 3139.877018717568 315.931679813829 -4051.9333978014797
-13607.208279185941 84.30000909302353 -935.4730115576943 3915.474202572041 488.85605181796313 -3455.3032990637867
-11569.449572925505 67.483950017365 -776.7867215042461 4450.367976364854 634.9273836190705 -2860.020647706308
-9530.575434988947 24.332690794540618 -651.7346808175874 4809.119764925341 754.903897833938 -2279.0304686738955
-7623.862144303288 168.08621176919584 -519.3907707378548 5076.823898900959 813.8355358631698 -1700.1266670851642
-5454.285925598693 810.9495896851572 -94.06187401800382 5464.495597313211 707.9568052551062 -1132.3169919152685
-2920.378920766175 -688.2642183243591 181.5644825083886 5082.83248555456 313.48401934811926 -652.9883785595333
-3399.3074440946193 -7044.764992461134 -1325.1032098032924 3555.5680143990116 -9.914442218412518 -306.9362658938834
-3104.474120445562 -2665.717438986355 20.029431301658057 -1954.6444137544881 -565.2811896685217 -269.0145110247979
-5023.716332408026 -828.6030108156517 94.4380102172249 -2950.467033514872 -1030.9813516389954 -448.8611224446575
-9757.752201572344 415.9579662562294 -375.6204393624791 -3379.786367436549 -1644.1425659922907 -897.4843794737359
-14694.817605392182 177.87272876681885 -1034.807817086458 -3142.8798714405193 -1775.8330443227949 -1354.2328850720573
-19173.20413948022 60.315554466536426 -1482.932097870433 -2925.683014324486 -1629.8473199459029 -1799.2095529744818
-23481.125008464245 64.81968949583948 -1866.0284606262119 -2682.2715302264473 -1356.9781244137719 -2242.4589330405897
-27638.359157656963 101.77444854116112 -2240.202586486064 -2337.5432289979294 -1000.9266687644116 -2690.7391200655475
-31636.120228634354 60.041744414194994 -2676.237807093374 -1872.9298122079015 -592.6999681595796 -3145.7579933915554
-33914.224483886916 660.2910333181785 -2608.1041695691993 -1086.7443955680333 -6.173086383848582 -3525.5491260861136
-38286.53178834308 -2310.025233776083 -4802.8279360942415 552.4170581629558 -276.1498904653531 -4028.4840632853593
-31691.356835956325 19575.118076784303 2666.004517144022 -16.173620586887626 -38.92930207554052 -5353.792511577766
-38233.67038037346 -2306.158851058891 -4785.708377601727 -585.875458495425 195.4412486756427 -4028.633705865937
-33804.4484883013 668.0160249043057 -2573.458187688009 1049.9083357412783 -82.76006049570942 -3525.7702859499555
-31462.894761040137 71.44713835631183 -2623.8255430188233 1830.3096900313801 491.33297660100493 -3145.8542713312067
-27396.675324791948 116.15837867248166 -2171.2992627148465 2286.391475142927 885.5371413313927 -2690.29913593702
-23176.618001414172 79.32241255505744 -1786.4713046534503 2619.0621002862645 1231.2387250825132 -2240.72469298004
-18839.693107759234 68.88802008250718 -1408.0792377409311 2845.329832852515 1507.0379137057648 -1795.240376366775
-14405.187801796263 187.68832316735964 -987.2470313921519 3045.567447184107 1682.6102603681509 -1348.1407989831675
-9578.298625483556 477.2719625728451 -360.75987827095304 3301.316564947311 1608.6056545471647 -894.8783488776596
-4945.117374191177 -737.21119615137 88.93640254007816 2949.7089244238305 1037.8723664587317 -468.52918201979503
-3155.7812484117126 -2831.803500653113 -64.63275918817622 1980.4120209475611 578.8817792796671 -348.9966025190512
-2711.748534361765 -1151.1025348971025 840.0799244292384 -963.769190610469 -1131.6830094691363 -324.68005711010363
-6088.839991845197 -745.9459795511965 262.75647896289763 -1382.055216257279 -1830.7674808304205 -375.40871882510845
-13944.582833067603 -587.7482082796699 -1100.595866646055 -1553.8262486400058 -2716.530105967019 -745.327055107227
-22400.957679382667 -1523.339459540149 -2628.5627438204374 -1493.998734993767 -2836.1707567189437 -1109.2514752796922
-29787.431546705928 -2262.5125254973377 -3761.857204689713 -1389.2356372214638 -2556.478561743691 -1454.3251810177505
-36769.94023391646 -2870.0097131610373 -4768.427055566881 -1246.3786029898947 -2087.08801849137 -1795.768990478174
-43547.41154840469 -3395.0589392196466 -5747.62504502844 -1059.0655694372542 -1473.4516818083798 -2142.0866038033655
-50120.143291761655 -4176.217489130426 -6867.089011199843 -776.3006140159011 -744.8327326421874 -2458.8148136645095
-55978.83476293392 -3893.588354717207 -7672.355021271522 -379.8887973486696 301.6303464439739 -2833.8720624707003
-61164.07293152549 -9245.892175255225 -10785.141174790824 1055.780288254262 2190.181065838962 -2545.0130348653415
-49471.64790454747 19555.771572992326 -1178.8908605481668 -10.450715392214732 -54.13090113067152 -5248.5458836929865
-61105.76841734965 -9239.858792421845 -10763.954863805593 -1077.369954438747 -2302.138923624538 -2545.318442408638
-55859.17194666194 -3881.7745879423264 -7629.851882264358 356.2508283162249 -424.25235054021937 -2834.3958014607356
-49935.09840662473 -4159.413870662106 -6803.781410616442 749.2983138483531 606.0984805443045 -2459.3588760639595
-43297.54834150951 -3375.438271321646 -5666.647502543517 1027.515429481198 1316.5501403762078 -2142.2921776347257
-36474.58037203426 -2853.823346821147 -4680.356266408485 1209.4078079161977 1916.8418732408952 -1795.1041519604396
-29510.35536834114 -2262.0502963963236 -3692.0558054819057 1346.4457506556134 2391.24147025781 -1452.4291218182418
-22252.440337253705 -1543.5401022586173 -2612.8571799551664 1448.5026537160813 2715.4787492590435 -1106.884848795689
-13974.2615794497 -595.1880512107159 -1144.4784523798533 1521.0966160776777 2687.0343097815044 -746.8526368567483
-6186.452675283593 -739.0343461556566 203.74183043079535 1384.0218053368096 1874.6622452537226 -388.921747757851
-2831.3676051321454 -1252.1563863760923 768.8458290049131 971.5836495363782 1193.4847393943292 -378.0397118426735
-992.1749749251615 -22058.839395580304 -6915.304311151639 -3428.6106518838383 1829.1384635812346 647.0442544788158
13003.72522435879 6253.108076609936 4555.434138780466 -1532.7277980734732 1973.6688098773823 -202.80397466293604
15103.04627023353 756.6894043957826 1991.089681309618 -547.7400958206049 1851.2436746931135 50.66972320209535
21384.527167960783 1854.4734600383956 3035.579928441588 -595.3760777355956 1644.999494354184 -34.656673005983706
28269.984063993936 2178.580387631883 4057.9650272568306 -591.2995787428476 1255.52370157377 -3.5566233002937206
35379.091567958 2782.534032477842 5336.102754542972 -606.4087805361128 750.9643170147991 2.4194367578587332
42366.323652396706 3352.0055796498195 6709.60777274787 -620.4435163848183 116.76212179513067 11.353565018506035
49252.82668467861 3963.5811543933596 8273.320298719951 -653.4719318459715 -583.7372524595002 0.8996860232095241
56029.380670024446 4570.068331467902 10088.066855599043 -686.6204053797405 -1128.7836213474611 -73.67856072207043
61895.745202483995 4836.8659864886085 11838.538034197878 -552.8625399426079 -1031.401046551186 -283.02104405924496
64278.91383465731 4491.663088509696 12496.54194598148 1.8610364407074016 9.764506461415756 -502.2662213753408
61908.665854843726 4836.146789483722 11834.901635172037 556.5555827386846 1049.8317577697273 -284.3093957302927
56057.04330952391 4568.654719205663 10079.838094369981 690.1770611950723 1143.7554781473668 -76.20971253294448
49299.681603892794 3961.6064504319384 8258.490622113435 656.6094755553002 592.324529229694 -2.6287760754981377
42441.66272291536 3350.053149243997 6685.163729894181 622.6382832682575 -119.07265754507613 7.155826202661919
35500.16878953526 2781.457915964667 5297.126635683705 606.529065032571 -771.0269069012746 -0.22173778549842638
28471.670029524037 2182.03501945921 4000.54873493311 588.9689463328681 -1308.6703044732494 -7.2681772848654145
21715.784080360827 1862.1986136820797 2942.5819503116004 583.966095333203 -1736.566100784819 -13.441451343811423
15756.519184400335 807.9833608740556 1926.8636890549637 526.568159223981 -2090.4003986562366 -10.005464353805372
14541.03244849123 6449.4006295138 4571.182391788545 1519.8756589980317 -1766.22732771076 239.2384649667799
2029.9062871625567 -20893.645385244276 -4922.046592026087 2025.8906323064546 -1492.132758476849 -1192.046157357634
-3264.3102063615015 -20141.924064561517 -6103.6969009041195 -2200.231984389145 308.05237200049953 -60.631715638363254
6841.380917983032 3333.475111374683 2407.237017976242 -1911.4819732384 663.6894532919454 -184.31263870478904
8612.873772378864 -180.52203414757412 774.6624410930868 -1504.958011278719 1129.1026419903271 12.101146273193496
13832.462362530096 209.26009552234726 1534.827410606245 -1562.6522669507076 946.8382100894395 -16.298468602838774
18214.677165409754 107.85495856337084 2012.238318639242 -1609.2611399005693 705.5631432293454 2.5619969553886506
22779.154186750024 134.17117149207675 2658.091456125973 -1618.1190809980026 384.5032429003764 3.140721261625672
27272.16495748913 170.27666576192442 3395.913600067643 -1632.0450472670789 0.7566718991453114 -15.442864569338992
31663.088771049544 246.71658921735371 4262.139954310404 -1675.6075961671158 -411.4612276758221 -88.6696194322638
35861.8723294025 269.78032025288013 5246.370060478335 -1737.2259875821317 -730.6342804340767 -301.014794586918
39221.931962588154 -305.99126102968546 6003.699880010487 -1425.3969355723407 -673.3654251668114 -764.3222861578049
40225.980114167294 -1626.6988142030173 5931.198292745555 2.694010956370194 -3.7619633576549805 -1225.7495342231246
39236.55030054916 -305.41461336782453 6005.348425751012 1430.702172205141 664.1294029056274 -764.59963033015
35892.693910296955 270.91526062545995 5248.701679376212 1742.1759304329682 716.200565921725 -301.26249373499775
31713.857981001867 248.41452868866 4263.043093983896 1679.5752416156279 388.05888068694424 -88.09703008049054
27350.121608629128 172.5900767282729 3391.647353474543 1633.7550612696893 -37.44870371570112 -12.465666119560463
22898.47044286046 137.42163792873328 2643.2058240089355 1615.3096566562226 -440.6911255581525 11.796777635757035
18399.378761984768 111.53033664778671 1976.6498113133166 1598.884637440007 -788.0496386627707 20.644059861433462
14143.922578861593 224.31237414356374 1478.713386591709 1536.573772528923 -1074.9726321666074 24.65093958180482
9148.539113144647 -172.15970861443824 674.3360628868899 1438.3302868044607 -1290.4225536713843 48.91973570767929
7391.441673374415 3395.6654713990006 2297.8592660775826 1752.5404894886324 -706.483804523871 134.18614951400716
-2791.7763978431553 -20107.749140182787 -5932.8239277587 1306.0150353489835 -211.27730847254387 -1257.4798251939737
-3031.9172824619723 -14627.18713507151 -3997.4154149580363 -2903.936274320066 -48.84628424609681 -1212.7607448698357
2985.713699120615 1121.162648136926 1301.8162447124869 -3319.5956636398805 151.71157685786838 -182.26586006836916
3916.649917546003 585.1477424461847 618.0119474263557 -2745.213302986976 455.62051066330355 -55.574465265263015
6651.380246005626 56.36795433083381 720.0680837088418 -2823.1376285374145 386.9775891872009 0.7709939385519129
9109.410424243488 102.58778249666557 1024.9780596651242 -2853.7342406564544 245.2601561705034 -0.6023630997901108
11366.290547503742 106.38276204543963 1321.873544305455 -2864.894038970237 82.7535864858485 -18.421827975703305
13594.208428943884 132.43556012822194 1684.088253184401 -2871.7561628378885 -105.06761791154021 -81.07181113491522
15713.126275429393 231.7204475208193 2119.1334342228315 -2902.9580076196958 -318.3621661962259 -237.9026204032787
17793.53174130804 359.01271036904353 2651.1404319410913 -3003.839596488394 -552.0553002336932 -606.271804924882
19611.885219249765 -604.2123431214159 2893.1747569790623 -2598.1096473178904 -613.5329750422222 -1372.2571583507322
19477.999248382952 -3739.7516875548467 1963.2220729368476 3.9516166615259474 -15.759983370425712 -2258.1559243371817
19627.565081384553 -603.4048879731484 2899.728083374672 2605.8604637946087 579.8145734689288 -1371.6151414818892
17826.06223130384 360.58855056279407 2663.33995360954 3010.954230406801 511.7923306358802 -604.4264347346735
15765.101919910796 234.00463591652087 2134.8618806862887 2908.36331840217 267.3932560076676 -233.48878959849137
13670.60696730835 135.47077567229599 1699.5479714767012 2873.2419107985247 39.52902640071415 -71.26696964033088
11476.33262156134 109.86956241552953 1330.506778292889 2858.5567237376526 -166.2484520902294 1.6661398440655315
9272.108587033128 107.32446131875255 1017.7934837608099 2833.345369263618 -350.20904240778543 39.18059278205851
6908.114771606124 63.839085653699094 685.8470591419384 2776.7249014433855 -517.2708465216386 66.87108903236403
4217.804145331872 572.2329737514116 508.3778403053152 2636.638309652379 -587.4626129862592 77.27182731504702
3282.346644250866 1350.5716412595777 1230.8321621292484 3100.1780810867294 -178.6373445407058 -57.62017153742582
-2898.9330607339825 -14609.757258604057 -4081.1209323444564 2652.366897282727 109.16476160421377 -1699.4882416181604
-2516.6664551084373 -9255.873678454142 -2020.3728206019857 -2745.728498083105 -157.70443115631775 -1329.670040148224
114.46682433135365 -191.44409186603508 708.9626381361473 -3647.034487690851 -150.6028999372332 -326.9405147234155
-423.54487187301476 649.6299303669533 365.25196026718385 -3467.725303110428 -94.22160842706154 -82.49013953660133
-256.5970245116064 72.55893577214236 76.30100060501552 -3275.5469779249584 -131.71513451365482 -20.406254437643632
-68.97753869959497 -19.262645407864582 45.63560861276071 -3275.0813489341836 -176.92689468847485 -17.486382493116874
-50.056394973278145 -2.651453898823034 40.22738438379695 -3282.3573337651137 -200.78993142602553 -51.832954838034766
-80.3244369702931 -18.14660590771028 35.38657423523628 -3290.0600618853937 -217.2421884105514 -134.97426598801508
-223.03206311319366 49.15102340451783 40.65408086050482 -3267.38891201748 -259.47182815583665 -312.95658356766705
-190.08667212933517 371.7267282129616 180.67778288895593 -3371.9343550657563 -439.6854671671256 -695.0425649626119
436.8675928583468 -871.1865934525886 45.44315255946263 -3300.3464156461464 -679.6464606019441 -1529.8999336508668
-1234.384211708164 -7425.192911384992 -2328.921039817761 4.296883035067709 -27.1490955980569 -2899.3023653329633
453.52963688215675 -870.1100061505572 56.981088404154754 3308.7689469189004 622.7038023315428 -1528.991220393933
-156.10532045541984 373.83457587322226 202.93447853070236 3379.6422550158286 375.00005000134297 -692.582236224294
-170.43546851718628 52.231675376574835 71.62695541487217 3273.1739842331867 182.60843585679112 -307.3691111699293
-6.947901199668117 -14.149098541453476 71.1638699914825 3291.4089646279867 125.17493306319774 -123.12572750809093
48.253213819128675 2.067952718764733 73.96462729637578 3274.584669146376 92.90192120421345 -27.753546854908688
65.67513994148527 -13.817968017135128 67.180357187048 3250.2466323970043 55.816305372410945 28.53307561749559
-82.98308312704012 70.83234723730543 62.76355411684283 3219.834402985888 5.167287998010763 62.89084241737429
-254.07168610782784 679.0445305687173 295.8791467828623 3355.968988671738 -4.4953546529251165 51.996713855861785
271.18236875630635 8.114119865978658 643.7801094372682 3529.8947626605486 142.34799185226356 -245.82236559482266
-2513.377402311875 -9327.522290711846 -2186.6382941174606 2664.2793962366572 206.4208382178818 -1620.6215331089816
-2277.2916733587303 -4916.8637956022 -452.77679704137535 -2078.9006794672446 -266.04077304866786 -1150.0070819927091
-2208.783859647415 -686.1452829663399 470.46936670767826 -3089.544668597352 -429.53957954458065 -333.395602072396
-4581.117211916387 431.5047048567174 60.082566985577586 -3193.8248426907116 -607.0373100266994 -85.65229479564859
-6987.660069236328 34.89425353184976 -539.8564995757825 -2903.4037173309466 -648.7134837894763 -10.49479281546656
-9222.391537181471 -101.8727458049005 -917.0052025048127 -2843.3183256939005 -603.8023564285829 3.7884505690186243
-11495.580191529138 -124.65374918535836 -1255.6631746285436 -2858.2287291167017 -488.0922696572167 -18.873652116926586
-13720.247206245782 -129.62252266647752 -1591.780513999309 -2865.0575241578867 -336.3052445797162 -88.12498767681149
-16076.251565161401 -222.00693867243976 -2037.4097563848595 -2839.460310556605 -187.46592792713093 -215.08833755810707
-18244.754241969153 274.81101671716226 -2344.0413860418034 -2791.823833986257 -234.1127301930616 -486.1026808914577
-18446.39279308208 -151.88775945460313 -2477.6050986015857 -3529.6152619986083 -723.3439311222457 -1118.2097075580882
-22725.04835169649 -12866.731664323104 -7484.424073946496 4.046103927509122 -38.78149962813822 -3032.4130057423563
-18428.71237241371 -150.56241941350183 -2461.0194685072333 3537.5795429418254 642.6513349592781 -1117.70356925102
-18209.25138017982 277.426442037073 -2311.5717677592997 2799.2268963306105 144.35773674097942 -484.5300097534403
-16022.94746623955 -218.16343387878024 -1990.91476198101 2845.282831336231 83.86564705970305 -211.0815016360925
-13649.869742035742 -124.64670126683164 -1535.2152474815437 2867.10473232592 216.56805933932554 -78.9161262245048
-11409.194903714551 -118.55681252078753 -1196.2022350165391 2852.1552526565006 354.53261203806596 0.8109232263326467
-9121.919704700931 -96.80468960289093 -867.7794685058631 2821.31646749122 465.7253864521415 43.5944895815264
-6885.051327447351 38.71224662158297 -522.8783302223634 2852.674086237975 525.6336262592506 63.94138889041414
-4500.214776538025 470.57030388552573 29.832820481240155 3115.3676638364777 533.7152375085042 23.376273130397493
-2141.524568249353 -562.6563583482457 412.83369449927994 3039.235258998598 432.2382056363272 -277.58318078898094
-2311.415958699149 -4995.605375451308 -612.5551551659094 2060.1155115022475 306.189756898931 -1342.960210500567
-2437.078845850801 -2180.283560751033 593.3235456834387 -1087.1621909996418 -476.77384720680493 -746.5093898436808
-4166.127645071589 -708.9525484194444 454.0309251422719 -1727.3089938686114 -794.7482631349325 -226.90002415192066
-8648.416192209 185.30058814363886 -271.879980561008 -1842.4482448277454 -1173.62608269611 -78.20917973972053
-13643.454131704422 19.00148156926228 -1182.4509161032418 -1651.8423300035138 -1218.0112441414108 -12.370106476444665
-18364.4865844752 -102.10006160131535 -1921.1270612003668 -1597.8919207053957 -1074.7434484061482 5.716172602011002
-22931.75203926455 -143.29996747262325 -2602.283307231654 -1610.658423658813 -804.3391365425397 3.215738336775428
-27423.97307574501 -176.98696867280321 -3315.424471997784 -1625.6218433770866 -454.27700023230074 -20.238131477685403
-31609.619445704655 -103.17450812341032 -4010.318109027279 -1595.4431759373765 -97.64518743028464 -81.94091950499512
-36522.38214290881 -592.4505040020948 -5274.841531937886 -1645.7950650762823 218.6996305813307 -128.51968025127914
-37130.78627648542 2655.332140100937 -4537.49403658701 -2229.265593689858 -456.46597267212104 -417.90497187897705
-46049.216885432026 -19834.56404284646 -14106.358869238267 2.806045800783023 -51.513381568930484 -2232.23960612706
-37111.94417418429 2656.846915885256 -4515.816980511666 2234.8276612133936 349.6982066348441 -418.3976527125265
-36484.9985504635 -589.4472220102873 -5232.059285427986 1651.1002947356922 -336.2420540373304 -129.19923896918075
-31554.864221723292 -98.75525091481512 -3948.1280512463745 1599.9318704017408 -36.124350154580355 -82.03748968637457
-27355.00806180199 -171.25281879884557 -3237.776954238148 1628.0092430478237 302.3154804661515 -18.15870903174257
-22855.56679293587 -136.73440699684934 -2517.3026702345396 1608.3353213832488 638.9638059163451 10.676431052375765
-18294.91396875893 -96.07830454600162 -1843.8787191911213 1585.7054333698322 912.1104639340492 24.95082314682005
-13600.575855128212 27.766094483660954 -1134.582521220431 1623.1666221418243 1089.4478218839777 28.16640409879215
-8639.570990723772 217.652834007577 -269.6510764112299 1803.8211798634775 1118.0173781818032 -18.69424352788895
-4167.528158488764 -650.2147799965251 409.5685984626801 1710.2392225186375 812.3922882287538 -197.78683013594116
-2485.2047282904286 -2229.775772218065 469.39756547783855 1083.2240280744827 522.2634552493979 -856.9362350111703
-2616.1598925278927 -1195.5133085191678 1257.1982882464936 -416.4023214257221 -911.5073463306502 -483.8090588475534
-5741.06535686796 -842.3145874456743 518.9473733603127 -675.9492974482351 -1368.9595459387529 -157.74107867244138
-13056.368703795562 -808.9405155897954 -1006.3380473526084 -663.8356666120541 -1905.1438976385366 -84.8941938272983
-21116.316765157324 -1552.77574923386 -2660.8727808642852 -601.9312164808937 -1920.8700840549043 -35.16780432539582
-28487.656715376834 -2214.7732661252344 -4020.180408472764 -588.5249839740466 -1651.5368078941233 -17.498231400739016
-35557.06571113305 -2784.9516295529406 -5296.53772974435 -602.2235549511045 -1189.0258693251208 -5.674429689172705
-42552.65257731165 -3397.2360012487866 -6654.6322409024815 -609.8949173360888 -598.2078469983571 3.2289980207653777
-49134.79201917708 -3710.43216759947 -7958.759378703723 -637.5465768209979 55.2291882090703 1.6249776879088245
-55033.23055124236 -4962.386000574563 -9602.028092809047 -656.3622419440553 727.954824489147 11.879123985991392
-58877.76770136245 -240.41881196298903 -9512.85382740093 -1591.0710431304906 1085.9936084708718 257.299465279819
-76068.23296889321 -31153.593964029893 -25300.745943022997 1.3470327491459955 -66.27646813977265 -2373.553779802939
-58857.08623465174 -237.5480042719432 -9485.575383577216 1593.7685582009804 -1223.1201614686215 256.3753062613407
-54992.46090684503 -4956.682528563655 -9547.92159106697 659.0280076552826 -878.262936711145 10.18956958829164
-49075.86714474113 -3702.0303755102277 -7879.385739202767 639.9934729193932 -225.40961281851267 -0.4289830815934792
-42480.48215130216 -3386.527378856842 -6554.092368925126 611.6295804515881 405.73339418463155 1.6351836375074669
-35483.27556990985 -2773.3854573049593 -5184.229784100104 602.1991077722264 980.3498414852573 -5.123749506678287
-28437.260065075512 -2205.7172310543747 -3914.8843840452637 584.5283461112967 1448.442087610202 -11.403857419066128
-21125.81777298778 -1547.7047928606778 -2590.8469715094257 591.0033796994509 1768.0181760974253 -18.353310200030375
-13132.1327111083 -796.750321896125 -992.7148079376941 647.884767151186 1859.6431757808914 -59.280101225610764
-5820.604586092813 -823.4055119889595 481.00846516058965 667.9518011056589 1426.4822170892517 -146.3718100091419
-2699.81538371227 -1232.5738551568024 1162.992525153793 409.8762763667918 1006.1812143991411 -550.6176453823472
4568.315146363228 -16750.234046232163 -3654.5756699606795 -215.45023057783015 790.3225065060127 68.57998773888612
14534.333139995962 5966.895167032774 5008.986090826165 -1482.4382206327864 1077.502180522278 -82.22544862362808
15058.22928918142 736.5851394591189 2558.4605382018012 -586.5667539171047 1014.0854817128951 79.42609315087108
20955.918979216753 1598.4676459529678 3621.055595806485 -670.2654001063327 847.6985406359605 91.6494534593038
27587.30953852996 1914.6619486987404 4960.396672510249 -702.3574295449928 545.0985453967521 126.47401753906558
34390.75607837443 2448.307808854576 6638.620360057068 -737.4711750363629 166.1312985391361 162.49213184677325
41262.188580008726 2982.1213197304387 8595.191211053305 -784.8363849106912 -262.1951418866534 196.2311109611354
48595.94513246971 3636.9599921459403 11009.17685541459 -874.9812687031701 -671.3812569037052 211.4086765938042
56897.23574244874 4368.969995334029 14007.497011858419 -982.3293050360796 -900.1023820393266 178.09704226052088
65080.553652351104 4608.211985040506 16970.55233803455 -825.1994961126661 -698.6369012161435 77.13192962866208
68604.77070098477 3984.9515133027326 18093.206939763295 1.9092394862402884 0.9023722564107615 -8.469776363441893
65060.501361560506 4605.967040549468 16961.26965410853 829.1345412578144 699.4037858451587 76.03685001059134
56853.62332175097 4364.236555254884 13985.934465930868 986.6250882701003 897.6412537857796 175.91996483064005
48521.118182450795 3629.207619827382 10968.746997834138 879.9400447405059 662.9989292884558 208.26007715929666
41142.68740942918 2970.2968018708393 8524.377782133297 790.7896793897721 243.69268839176578 192.4368568024543
34205.671045356714 2431.35355268918 6519.989945350952 745.0923261370834 -202.33059590476034 159.21576964609184
27301.69518093998 1889.3906028131232 4766.078076007946 711.2389931795946 -613.4333755063947 124.56072888223125
20524.78371729304 1564.4745897969333 3320.046963049591 686.5402719663472 -964.5938447970174 99.53936004136128
14272.225899888384 647.5900525450155 2026.737318643864 609.7985613907877 -1194.468413703083 72.96721182915718
12553.09856258478 5573.685071785452 3986.083524052573 1448.7002503912552 -1087.298681672051 58.73014108261387
1210.0488076083836 -17685.534786903772 -6217.120534080713 1860.698139475446 -961.1261751961437 -574.0221876914675
-2209.161448810908 -17127.241029678164 -5969.152249712749 -367.5078948736153 418.42816158208166 -204.82180328685703
7183.9852817540705 3117.213753906649 2567.0523434339448 -1682.4114733491065 507.2377675775222 -172.3068269328196
9024.730968629287 -224.4472518196783 1279.089661430402 -1517.0885070689953 634.9580871036902 19.062215721299886
13770.36795325512 42.6489632119238 2095.9795349956726 -1672.0558213566933 530.8652072505417 48.16761048490847
17938.89702883573 -104.04859991996186 2769.949867098466 -1767.4678939910848 336.28048836973494 70.36877692486749
22305.24081441134 -134.60749375784758 3714.611351674777 -1830.3541067469419 89.90518059331232 81.33007423466356
26721.970980722013 -151.2851591308124 4860.320205928222 -1933.06616196812 -179.0512569961029 70.89833290933561
31391.037256965854 -87.99815589986792 6294.509355433565 -2145.665405848812 -427.3740635637409 12.758555421179938
36472.10655984769 -118.14230427087695 7996.765646535268 -2455.6827376719066 -562.51201360412 -135.17790271219025
41022.6356868971 -1168.530109809682 9335.95614935945 -2152.070191768464 -438.70331776881676 -382.66932135002736
42428.03548611945 -3295.1125224133225 9304.440907145803 3.702987592218655 -8.1018927318171 -559.3199527648305
41002.12380138485 -1169.3420222177901 9336.246617376975 2159.8151919276547 420.96588896620784 -382.92933819684487
36428.091709228254 -119.80084700081872 7994.980204869208 2464.5025852524714 540.1118886853657 -135.4277113783229
31317.152486267696 -90.58449633756308 6285.324409275229 2156.4916667851153 396.8832651980992 13.218273721690805
26607.685025529285 -154.88580699777984 4834.370232961915 1947.1817278546864 136.1837549244894 73.55192358731955
22133.858540811154 -139.24012839369738 3656.4802418650647 1849.5810032340273 -151.67934663537264 89.05893423125704
17686.939778138214 -108.61986868582433 2657.5719281564798 1793.8722853495804 -426.72057597317803 87.76792812222506
13381.687791888475 27.430433646807312 1883.9099705003457 1713.0522689113488 -664.4583855904987 83.08021053349029
8393.141910740882 -241.22433868648253 915.226218272054 1596.234140228849 -789.7405228331984 73.43127537527144
6519.364035792497 3000.526209940799 1994.4620976031047 1828.9115932495215 -567.7721293188777 -21.29111303046684
-2665.4597248824866 -16892.35098639945 -6831.885952765204 1382.0507576286577 -371.2832780578455 -742.5176540320851
-2497.9078114476847 -12285.25228971964 -4132.067035842142 -2381.8691848661656 146.80022931840614 -706.1509174682732
3264.0187033547218 1555.6885178563846 1469.5403919091589 -2928.3618995151724 184.68237981175133 -260.43755214308976
4216.629309615108 377.58508006411773 851.6093907691229 -2729.7329808767104 258.38514329998753 -66.37110590603177
6861.480505198658 -76.52905869694433 1061.194312959042 -2949.594176858655 213.30580752959614 -0.9502882772002987
9135.524692712255 -70.33031711598808 1434.3319654958236 -3063.94646081881 103.77205422945215 8.094146823574563
11263.378797318974 -107.9228212729269 1873.7174549768517 -3172.6094439724475 -26.066279750115843 -11.845490478377162
13400.106670254474 -125.30705521778793 2437.2667073323464 -3335.7919125408584 -160.69312081157005 -77.20984988360797
15572.587059779435 0.3454773104943598 3163.259966998298 -3653.3908675474345 -286.0612431193187 -222.86992034426345
18071.59846289873 174.11631292724982 4101.978301423564 -4205.1309963664835 -371.91624078758423 -501.0305199318152
20579.413954818203 -1450.5184393395296 4597.972673548835 -3901.9113733047957 -319.37911373631204 -918.5970862260921
20377.01797147537 -6239.8543811573845 3304.4354667235148 5.974972657825993 -16.942079785246637 -1220.4216414455304
20558.104449009763 -1451.5980491661796 4607.099407629428 3914.4260474822263 283.5649691174213 -918.0470820768513
18026.506389099035 171.95437534506576 4118.392055661733 4219.4413822233755 330.3425490596441 -499.36738180662945
15498.707887428163 -2.8948091781433565 3182.7117704990724 3671.0669156426147 234.96193148512606 -218.7115854313242
13289.52279140206 -129.65060737083394 2451.8202902857806 3359.069163314619 96.23746783882389 -67.7613479369522
11104.733914020555 -112.72431159074596 1870.1193075030058 3204.707763512183 -56.03461088052115 7.922938033187428
8911.065328888792 -75.47838707931018 1390.3150520679305 3109.5145414106214 -209.23980074614656 46.75155382056649
6536.105770465247 -82.97532735386 939.9547697604552 3019.216731877068 -345.9357994755414 66.05102941660886
3859.9027801653 387.87766296310946 641.067277260848 2855.3938536700152 -390.9467143665664 53.75834170002043
2900.3459727222853 1264.1700595736575 991.8992217743013 3147.360886825455 -222.39582589750614 -157.53340689918585
-2626.0552017966716 -12104.169809313184 -4717.642375995324 2606.0837125791404 -100.20294960753303 -1092.2426088417606
-2241.9622943064523 -7799.759272277555 -2074.751433296689 -2566.223770653781 -17.47898185655484 -905.4397449978094
349.75219873006387 355.5628184233397 836.4863998024256 -3432.734957416136 -56.182743199957685 -305.89858561665466
-115.09009346757463 584.5727644457804 446.27493698432727 -3405.5932299829237 -80.42969090977144 -91.58355628822073
127.60864725925592 21.948554577249695 147.05620002038543 -3393.000141459576 -103.2234066363592 -17.754690074686565
270.57556822035787 -26.898189817159082 87.14164198773918 -3493.5984327111682 -135.3716245784868 -5.484780155901127
216.5347553909035 -7.347205283199557 65.42648197618726 -3617.0965514699406 -159.1445839629664 -34.87562493730966
78.41591789857058 -26.02141292607388 58.03915142333716 -3804.858625228919 -171.90466382772559 -116.95028645841994
-235.4277956276357 120.79936862000899 83.23921502596576 -4075.80971061 -188.5246706483875 -285.10065740197444
-191.30922613378502 666.9592737045872 367.82827229806236 -4672.183849226401 -236.24712192557695 -591.6493768068525
823.5977357088568 -1351.5048950020646 261.5342680804356 -4879.720680813228 -250.88114237330916 -1067.5443104691753
-1462.0453067974195 -10939.092124395132 -3023.494437204545 6.771149658726362 -25.756888928503784 -1456.5029148224526
801.5920871324612 -1352.9178903055763 279.5254102263875 4893.904531512352 197.07875015182424 -1066.7480423844554
-237.24820819589206 664.1579290848924 402.4967791337416 4688.405657803761 175.72538642556182 -589.399667925215
-308.9371003663028 116.66323997867069 131.3571677654985 4095.8434810685917 117.32692293427002 -279.79401786689874
-27.657278462583598 -31.330937498461353 113.18742240092197 3831.2493474978437 86.96485004989623 -105.40760088241771
71.87021323716792 -13.116340741703196 115.94535092958002 3653.7437699862385 58.67325074081879 -11.189400801269327
77.4236726232493 -31.989585421120267 112.10880613160492 3546.742326490303 19.220410997547877 39.89390551206025
-105.17407157126253 27.639753224428354 122.17627084823398 3473.9020193370848 -23.192674489564883 63.977498488497304
-329.13599880080704 546.7996265534832 325.24017353741885 3533.3899202250727 -24.203998013456438 36.23699844588659
152.64778134850016 126.5588195441687 495.7937954722603 3539.3622874758057 34.12654920360672 -230.96674976213447
-2258.883563095053 -7602.375751479149 -2486.4757111523177 2611.2475769975827 54.206591952921464 -1156.5163689139797
-2123.391683129602 -4134.926546746789 -284.51801361914846 -2047.480449697435 -155.78037839899207 -850.8561036640706
-2028.746564672744 -257.3220679413636 564.6833948269914 -3007.183088188647 -278.11430158009523 -261.22094616661104
-4240.566202924823 486.5713686733833 7.25202086885476 -3172.2387969598085 -407.52403549125313 -78.06883146699242
-6440.880094844501 105.20837731348344 -726.7056560739069 -3018.135101464352 -417.1951405471023 -8.895075466706999
-8584.24417131542 49.745508918328845 -1251.1055883717745 -3056.5056946155655 -375.98136700011406 8.465823013052319
-10862.593849497835 81.31399384369209 -1758.536945462191 -3172.6386181697876 -293.924074930561 -12.016696520922215
-13183.851671497618 131.21104695163368 -2286.7955556997103 -3330.1393261457833 -185.3864688727326 -78.1368206472721
-15880.850047653861 101.09296862316081 -2990.7609056506326 -3535.6698129587094 -86.35584905914492 -213.78472089896474
-18505.99210505669 954.841575659839 -3452.561715063262 -3820.1080932825225 -75.46402756947218 -459.96021805059166
-18570.351988340943 114.89959169417222 -3616.5207376616727 -5068.464367837736 -158.09678368425995 -896.3895420677786
-24352.81654644352 -17733.021160680182 -10328.32389504179 5.995275618520667 -34.7449811577819 -1345.4921925160854
-18593.196534238967 113.14568751742632 -3589.5382362762334 5081.020664169327 85.93655785642207 -895.9104090021175
-18553.098250032075 951.3741159309386 -3399.3711754319897 3834.4585005908966 -4.448239930935733 -458.44248780281254
-15954.551094486284 96.02893378390065 -2913.523981488986 3553.364320143266 -5.50959401200555 -209.8651635163449
-13286.215371295742 124.88103242077382 -2190.3462022161843 3353.403399040224 79.17295907395595 -69.07981237299812
-10994.316174284475 74.38210100897744 -1652.8403422762758 3205.111354197675 174.13150246425954 7.289412235248793
-8740.703296393778 46.16155242913549 -1153.3041208016896 3104.365305697199 248.3105462684232 47.11851903862675
-6598.113128718408 105.86703214484815 -663.7883193951876 3091.2136083504665 296.65606023467575 62.69870924384803
-4361.349023198291 442.97710759379777 -21.83672559040501 3260.885371336979 326.01822854562715 25.74923189771072
-2123.406108438652 -390.39732511616563 356.2526967118832 3046.4725345508546 266.9786381641798 -205.8201658257083
-2121.2245541114594 -3997.7209566714732 -594.5801544887261 2034.32325042614 185.63592894036088 -1013.1229891187976
-2355.903087491956 -1840.4129424007479 935.2808234855637 -1106.3043050989843 -330.3433318178874 -514.5923999400877
-4056.0772275499867 -467.202631091996 504.0790318153382 -1720.6627461667872 -532.1325492069205 -113.6381225846117
-8278.469161084386 272.17618311532084 -451.02370447025294 -1870.9127633485778 -749.8757970258899 -15.285663256375637
-12935.799313562353 129.93082368339412 -1607.6015856585327 -1754.6865503567728 -733.0231115150365 40.413192892914964
-17434.849039934892 91.98892196547301 -2611.0962066476286 -1759.3351056377937 -611.7342496381572 69.46976986257208
-21931.159470451064 123.88660644692897 -3610.149389396049 -1829.945897498013 -415.08472437940264 80.91785056625324
-26518.071210937906 157.35122481701367 -4715.512862583617 -1928.3611016365005 -172.28794577277347 70.30007218415668
-31004.5273435597 342.5702425300643 -5869.440286070096 -2012.6863190717754 58.85017115657021 22.218586864735936
-37018.072314722325 -191.2866530605866 -7825.750978636194 -2237.627788457514 181.11684120292563 -80.4988072195329
-37851.60598783897 4085.7520884194514 -6896.665000133475 -3039.764375845093 49.690288233702226 -356.7156849346464
-49915.96554703539 -26474.513211111687 -19283.546740416667 3.7459635018553428 -44.10320709818731 -865.1667001758941
-37875.67641411893 4083.7116976177545 -6860.471286849757 3047.599308084066 -141.03253991988942 -357.1266879374971
-37067.19397622593 -195.31771829326965 -7753.555691268686 2246.5456050368325 -281.5176538282127 -81.05175481521782
-31079.889904781197 336.72536421810605 -5762.241322636313 2023.6043443459346 -173.0253858940648 22.20468257961495
-26619.285108026423 150.1142921547913 -4576.460539384709 1942.589524793751 42.20129876097232 72.24278942924325
-22052.603076183368 116.62929991430077 -3446.578398377907 1849.6048621735408 271.8197001532392 87.63991200753618
-17558.870697006932 87.87637819346041 -2437.416300104079 1788.4177917789134 466.56143069280927 86.55148786371457
-13030.176364147226 126.06404667691551 -1453.3974160919613 1797.2074651732328 610.5273114822246 76.34347848509114
-8322.476375439732 241.07550865427555 -378.2142403791222 1914.2586831654482 685.3759687890238 37.7462158590067
-4074.892425906916 -527.9469245960231 416.91760948134373 1730.2032604114966 535.9185341216797 -85.57194382404695
-2351.126895189891 -1777.7449457177236 702.5075883137356 1086.7167692667658 365.9952725708466 -605.2985692426209
-2632.0399155936775 -1069.4962924623383 1545.2317372871437 -431.2462235222928 -636.5001456125461 -264.120629143076
-5689.343817908381 -712.1592960488261 511.99175334838026 -688.8640178527597 -877.0853975357753 -12.042229616509816
-12606.290846585292 -709.3059590440627 -1232.5938467201493 -713.898849881027 -1120.9184875609842 32.057825794907274
-20144.70548805829 -1391.2977731059987 -3162.318258374746 -687.506558431991 -1046.970219808908 78.65202106970689
-27145.80540798399 -1956.8004109803321 -4847.651358090522 -697.1375122733692 -827.2294328191595 118.44558997088247
-34048.65421465329 -2449.9160246216243 -6553.943002695239 -734.162904369967 -497.79505049003825 157.57323163500158
-41109.42337762643 -3026.7556229999723 -8487.46976705371 -771.0080147691492 -97.1299001258893 192.5932198630318
-48001.09732360283 -3225.498442266519 -10468.397569404318 -852.8839701994327 298.55053492339687 218.5126041394201
-54837.70332883569 -4769.345544717842 -13085.674078685075 -902.2026712564742 555.1597876185389 206.57424641022487
-60761.538522351606 1336.0487184029228 -13407.726765491894 -1987.0304135305716 530.1944836895432 127.81137853026088
-84202.37972877402 -40043.10055559468 -33022.92321553485 1.9482071783180288 -53.966704190852134 -606.1353928903566
-60786.776650309235 1335.4098095257798 -13361.356918674026 1991.1278107110704 -641.8694225179298 126.91977877130802
-54888.74900609859 -4770.373889284405 -12992.388781959005 906.9261199626903 -677.6652940319277 204.8606531074516
-48078.124073366715 -3226.3142291362874 -10327.720719159059 858.7449407487322 -437.5852458174899 216.17878211896428
-41209.85963187585 -3026.1255474299505 -8300.299035256076 778.6805704816438 -61.07947573520965 190.11743007688048
-34161.33559873968 -2444.848069017567 -6324.18838749599 744.6022113861335 323.8343348159807 156.064597289924
-27239.780158787158 -1941.4391935210372 -4584.6116770772105 711.9736075089643 652.7209466360193 120.41750056821202
-20168.59767715646 -1363.2852134294837 -2890.8177617134347 708.1315704589882 906.7371823319746 88.42262561209242
-12542.454274519425 -686.6616784104924 -1020.0597780737542 735.3779978180936 1065.9519581034006 49.05432062295007
-5609.1323104070325 -703.545253483013 559.7160372767416 696.90820542611 916.0793638229131 -3.9645179281180587
-2581.669600095932 -1012.1684893416359 1403.2925784032084 425.2809281415059 715.7450199493071 -318.44227907454734
5767.826480143805 -15617.755411513877 -2954.9786794110205 490.41549623152264 -1.2445122266058206e-08 -5.90678084222418e-09
14922.123878891953 5835.803578334598 5241.055749032842 -1454.4965137657414 -6.334538227292796e-09 2.581073133001155e-10
15118.255508323287 773.4966097816238 2916.63909542294 -565.4022207659647 -2.5611806009351312e-09 -4.5413273142003163e-10
20824.366601125366 1587.1964643358035 4052.8950115712164 -672.3362225485132 1.9737811385311943e-10 5.186748808228003e-10
27378.839846206705 1924.1289607331655 5539.444485054607 -718.8949584587912 8.99140983889879e-10 1.6581971351570246e-09
34176.89735718657 2483.841337141043 7452.180418937925 -772.7940513754612 -6.255489459761066e-10 -6.800373597570797e-10
41157.63796690884 3061.824241212736 9734.761114115498 -841.6809211397566 -2.4658119990306204e-09 4.4716230718222505e-11
48816.20747355297 3790.023038312033 12570.159335924096 -953.8286675342044 -1.3632668327545616e-09 3.1957672064208964e-09
57707.95558547095 4627.172126856669 16045.21581891064 -1072.5548051761493 5.908162847845233e-10 -7.265672508083298e-10
66578.87738461787 4970.744995135657 19408.528252399734 -896.1147088712987 2.4775703710844255e-09 1.6058265828178264e-10
70411.07823421608 4364.1233742818795 20663.100149164035 2.364923429427911 4.180228607708614e-09 8.65574278918757e-10
66544.89814681183 4967.914743323584 19396.933322513105 901.0630194785348 6.569888633123355e-09 -5.743991948747862e-10
57634.40987460141 4621.20987531162 16017.965637497231 1078.2018687371963 1.3295418099801282e-08 1.6819612369545212e-09
48690.405385238846 3780.1947155855337 12518.242132168001 960.810935246641 1.4535756598377247e-08 7.612293018155469e-10
40956.09439349143 3046.386433860083 9642.329065448479 850.8305875524441 1.2427930573544188e-08 -3.1095837016437144e-10
33860.73474453994 2460.8805148970987 7295.230773337591 785.3965001215935 3.4177922714206943e-09 2.0587975768648903e-10
26885.126157847975 1887.5824785379916 5282.195472300691 735.7717703325203 -6.8244956352714325e-09 1.085105338916037e-10
20066.003579522374 1539.6729711709213 3654.167405778928 699.5603539758768 -1.0278525586215892e-08 7.264144841201414e-11
13875.903584636091 655.6851935500472 2253.717506418554 615.8723517659278 -1.3672644350037899e-08 1.0224843194350797e-09
12058.195323784967 5344.217833139015 3803.167604710654 1387.9487606556288 -1.260253279511403e-08 -9.36388744321448e-11
1023.6381492804926 -17087.466813036743 -6265.496703175085 1766.800229076531 -1.1388824106006723e-08 -5.8141083059126686e-09
-1898.6875989682967 -16560.327650689254 -5573.366168524845 38.50385489593462 -3.828579009379496e-09 -3.48299522556772e-09
7269.252546365715 2984.258430824485 2569.8879277282463 -1597.894525383337 -3.5439122747504825e-09 -1.4582175467126035e-09
9192.983390484607 -192.46925958690622 1532.2393698665876 -1479.6726790286912 -2.7120135026592607e-09 -1.4927503677597542e-09
13739.775023229317 48.51035272525636 2371.8081081619503 -1678.7385587022845 -1.2752741085364505e-09 1.2018386286172245e-10
17847.80416617146 -87.2707583908164 3133.256449563163 -1803.8006472570146 -4.4966103063259766e-10 1.2243122071708967e-09
22206.226579754937 -102.50012358683166 4217.235086332443 -1903.6816486984744 -7.763572007490893e-10 -8.305258702989704e-10
26691.598474288552 -99.71797897959834 5559.257653632263 -2054.0415651344315 -1.6295793603404718e-09 -9.714788973269606e-10
31552.950334099354 -11.372078732180515 7238.829699721303 -2322.0072801577767 -1.2581955477486417e-09 2.204630256130713e-09
36964.67676034609 -15.564426928299476 9204.89161855449 -2668.3046731754 -9.735823258694154e-10 -2.863338011138694e-09
41884.160534990326 -1051.2000274832753 10747.030292783613 -2326.674385908112 9.579081972077574e-10 -2.6595152746722306e-09
43424.5827614155 -3240.4570910834072 10742.530171050119 4.577687534574627 3.0036040321590463e-09 -1.9675248097428266e-09
41848.85004636754 -1052.4870349365763 10747.083889459402 2336.409063997931 2.9110935884091305e-09 -3.6982354956194285e-09
36889.279898752065 -18.141469225147944 9201.917735413797 2679.9207236301554 6.445386890874261e-09 -1.8888330899358152e-09
31426.94518888418 -15.303411317766582 7225.884270311061 2337.269442971355 8.829072362104284e-09 -1.418793971197374e-10
26496.48358525834 -105.16623753023073 5524.058814630508 2075.541255971244 6.478389102948512e-09 1.0192540145226303e-09
21911.57310666701 -109.50830652856418 4140.096339160418 1935.0042508840006 2.2948999367500278e-09 6.089340587323022e-09
17406.805935293614 -95.01967901877259 2985.7552414049896 1849.694228238175 -2.2424868628689865e-09 1.888389000725965e-09
13071.824188252094 31.794445806012547 2105.100019517417 1749.3079176433027 -6.2393388233772384e-09 2.327912973498769e-09
8190.977516626812 -207.71819004574297 1084.3265789009777 1616.1447189212731 -8.067683854307006e-09 1.352647771568627e-09
6272.2162040490575 2864.107794238968 1841.545998207869 1774.4997772634601 -6.068408886505949e-09 -5.315694551200068e-10
-2665.8554739167917 -16325.275934560388 -6845.19598899531 1309.2611568568823 -4.10127620753542e-09 -8.333508105806686e-09
-2444.8720948352984 -12123.11815354579 -4028.382964778866 -2199.70499986457 -1.3394759745821716e-09 -2.0516388588021073e-10
3353.7463800518644 1608.8399664444826 1508.5118715586486 -2764.198666406633 -1.5508384576534695e-09 -2.387433806205763e-09
4362.15682187519 382.7624440800245 990.6941979057854 -2681.279044943516 -2.589319758605768e-09 -2.1722375009858297e-09
6934.777729848537 -44.724032029783466 1237.279190833586 -2961.928246487477 -1.7860930581758971e-09 -1.822912487625672e-09
9157.734548757695 -31.487660958306385 1640.600448107821 -3128.717989183705 -1.8554091596456601e-09 7.971197035772093e-10
11281.631486489652 -50.791958395537605 2149.0215774120497 -3294.895662603732 -2.3215332989323656e-09 5.394342750264514e-10
13451.648703223571 -46.92568534835995 2812.8226875286405 -3534.821765868377 -1.323384513085557e-09 -2.4338655535416365e-09
15715.256060787455 109.21040625004336 3665.0933674325643 -3943.3550067712563 -2.4455082403562756e-09 -1.8279875391158384e-09
18374.296809901043 319.4651129959563 4740.228316758688 -4557.236132039652 -2.657846831510824e-09 -4.472234138575004e-09
21097.42739599779 -1269.8484674987278 5335.4274136966915 -4200.829761522969 4.2204773009757446e-10 -3.453438424116939e-09
20928.204566600674 -6198.044093999673 3959.2913387213734 7.152798540208091 3.7709868561108806e-10 -4.982606327530448e-09
21060.643959723926 -1271.5438357005771 5346.206939932023 4216.0874321288775 4.4122328013429524e-10 -5.0317172650693465e-09
18296.855966403342 316.0778641335162 4759.470709951838 4575.595555034551 2.057880754691155e-09 -3.7029694865964302e-09
15589.009020968177 104.08777832499077 3687.431714634535 3967.7761100078383 3.1509033160403987e-09 5.021965066021039e-10
13262.981162814154 -53.92571291235808 2828.2935362068624 3569.7418958210433 3.2914544423334746e-09 1.283542161445439e-09
11008.981026272759 -59.23603666968107 2140.967071289729 3346.8893504506773 1.964824046518654e-09 9.489967922604592e-09
8768.435272405975 -39.62350338388488 1582.8445551335728 3206.6335432624774 -6.274736286115967e-11 5.66435387483466e-09
6380.297973748138 -53.74113872514953 1089.0062988679242 3084.254872673732 -2.304677559905599e-09 3.839973228281224e-09
3774.9383057618247 403.6493184611268 750.1035647664908 2887.0985438281377 -3.8314306172182455e-09 2.104837637517676e-09
2781.3988851950116 1189.9203023882753 888.2747114477593 3068.783790840576 -2.09581813015447e-09 -1.890485989974877e-09
-2618.6872446244492 -11718.716559031473 -4794.9071230858 2494.1073076038906 -1.2396852433482763e-09 -1.2330573895269481e-08
-2209.409005120605 -7709.643042963756 -2035.9554209305861 -2461.038833168648 -3.6269251491027887e-10 3.4361136158622685e-10
432.0359328755493 414.13932298398294 851.2321690407622 -3305.0964554384805 -8.288999486794069e-10 -1.9901427172897e-09
27.125529730528452 591.7001724720603 502.24501432927167 -3344.8895789806957 -2.4867634618175316e-09 -2.64331534438611e-09
246.22696056021576 13.880562848761215 190.7282706682146 -3407.932918108193 -2.6591753243820904e-09 -1.8578729665819083e-09
366.91220555775504 -31.346906572418334 108.25671046501085 -3569.3852365497864 -2.859830705581601e-09 4.1872727507552554e-10
301.423216863778 -9.807118852645807 76.62689562384959 -3758.3960999776846 -3.449855290327264e-09 1.4708829709775273e-09
152.9243045539129 -23.458791219244446 70.86763177185621 -4030.9397414725204 -2.6350052695356396e-09 -2.1698944863146608e-09
-175.31139953715007 135.28501157811306 102.68580419621316 -4399.310819503438 -3.3451693637331914e-09 -3.5673970444349834e-09
-132.82727712076468 701.0194126998067 403.5696470081339 -5058.296485844075 -3.4857272623867175e-09 -7.139043134429812e-09
982.096125029899 -1282.9707855692566 312.0890060107204 -5223.2468667401445 -1.6324211982166048e-09 -5.469946273706228e-09
-1371.8416783493892 -11131.591851876674 -3211.14113352616 8.023714935565147 -1.875247679361536e-09 -3.81868936472074e-09
944.081694320423 -1285.1014795903757 333.6247621801141 5240.372485265255 -1.861616583109793e-09 -6.883831282777919e-09
-211.7395703789607 696.7808171392517 445.06062169400855 5078.934526958259 -1.2636157745160581e-09 -6.055154599948764e-09
-300.7137929191546 128.9567220711204 160.25469870139602 4426.7964473457105 -1.9703754461364298e-09 1.295489937547245e-09
-27.294364202289046 -31.892983393069812 136.76005745375508 4070.358978552316 -3.714715757219267e-10 1.893652346041108e-09
54.969688275972416 -19.389502237231042 136.96267518314787 3817.577136656968 1.0546257200871878e-09 1.0648066428586844e-08
36.51698353842035 -39.75303864806046 138.92227259664014 3660.278771018269 1.7810947161578383e-09 6.581895917179281e-09
-151.1491449558351 22.203969967999843 168.55436602950286 3548.2957367249014 6.645930472615191e-10 6.195939761255431e-09
-333.6593754599842 535.702888441933 370.45190310319714 3553.3416872087587 1.9659651684378332e-10 2.058437420515702e-09
119.24994547583478 86.30966728897286 418.92937014602967 3462.2163480923145 9.096585151802117e-10 -2.7038336014584274e-09
-2220.800833433743 -7331.4936491314775 -2556.1399142971977 2520.8233952904193 1.1772853802938243e-09 -1.3101519868996547e-08
-2042.110762429898 -4052.6851013810883 -228.78822507305154 -1994.4477496103887 1.838177388080453e-10 -5.524469770534779e-13
-1922.6668523171363 -201.37091779045528 552.7392274305229 -2916.5074389580845 -7.022193937444854e-10 -1.4948882132159724e-09
-4082.4561921340082 486.25813161647244 -14.291802603094993 -3113.3029036544 -2.496302720089716e-09 -2.2963089207905796e-09
-6278.246681360651 66.6509648984648 -811.1214164050187 -3022.6279414514734 -3.1629650010245314e-09 -4.5722003960690927e-10
-8419.857594703204 -2.305443873489665 -1417.5230434321657 -3119.480894351364 -3.453210384307681e-09 -3.100444345705e-10
-10711.477771861828 18.637182422448827 -2011.8113353318843 -3295.7118489856553 -5.004439529443516e-09 1.7189769607739436e-09
-13083.200432919793 59.4083657611729 -2635.903035996503 -3528.4131956066108 -4.450324761484659e-09 -1.157812512531109e-09
-15897.03466028076 14.853278603223508 -3454.6191174319647 -3818.5774500073485 -4.1063211719816195e-09 -2.772615026458425e-09
-18695.93644509531 868.9925504170099 -4021.071139447436 -4144.16412143411 -4.018844423914203e-09 -8.988449984315139e-09
-18760.93732357288 85.68361382064604 -4207.158158374442 -5390.969688271493 -3.6005932402272123e-09 -3.9084309122472405e-09
-24754.816454609037 -18226.89177650578 -11390.869444061063 7.206373711474313 -3.653913976942036e-09 -4.782778617595795e-09
-18800.372341083024 83.11346767638543 -4174.702361146576 5406.340868033502 -3.8457437234740155e-09 -4.571305112222035e-09
-18776.735649887512 863.8989544763583 -3956.985807466751 4162.6486868766 -5.091890242781005e-09 -6.1201399503829634e-09
-16022.35979057045 7.329125348775733 -3361.2619635885158 3843.108211393272 -4.8459795065625144e-09 1.2828049733570879e-09
-13255.923760234073 49.72818769014242 -2518.630374417141 3563.454442791413 -3.986858454485542e-09 2.8405375829265722e-09
-10932.894872136847 7.605640754973093 -1881.7506043391134 3348.576790545898 -2.0515367182838418e-10 9.52868628445458e-09
-8683.314400871895 -8.76574186567206 -1293.0447951750566 3201.6458861382343 3.2441163089202973e-09 6.61791466072259e-09
-6544.424116505669 66.39838579666119 -720.3414790885006 3148.538740716317 3.601118070406528e-09 5.6216014066023945e-09
-4286.451679579313 419.22917316454544 -31.3303515407166 3260.154130486181 4.205524817280093e-09 2.1500921043582366e-09
-2072.145310987544 -394.7411917231935 296.70298202209835 2976.7326857547982 3.6399325775704483e-09 -2.107805485707104e-09
-2028.2575572760422 -3806.2979456170856 -619.1436223704528 1974.2052309839794 2.9492239761452765e-09 -1.1611071215611446e-08
-2199.8492557620393 -1727.2910919296316 1004.2315244026055 -1091.472689864438 1.9597123923631443e-10 -2.722453373849021e-10
-3897.980936724025 -386.2286687629811 453.886943974693 -1667.0087329873393 -6.206422042964732e-10 -9.033627179633186e-10
-8070.2609606973465 291.69365524521083 -539.033383880313 -1829.5851576952716 -2.4044166657688493e-09 -1.4104006851312079e-09
-12696.938279495575 108.8802299351354 -1797.5936042328105 -1751.680089782313 -4.0119498834201295e-09 -1.1858092285876864e-09
-17164.97870580713 56.677783419928545 -2935.7300068428362 -1794.5324503764673 -4.948061516074631e-09 9.153762192681825e-10
-21664.232419467084 83.67174326530204 -4091.704717766387 -1903.856557950528 -4.973947143049884e-09 -7.983480543316546e-10
-26332.756589719815 111.28049849905894 -5389.990817270353 -2049.0481558324454 -4.113324791887862e-09 3.327427222643564e-10
-31014.879297170468 291.279516106623 -6769.240661917214 -2180.8023977571224 -5.126675972633166e-09 3.1249136611677386e-10
-37417.34423908955 -283.8494536126027 -8987.385343084214 -2424.2056866499456 -4.6288817223683054e-09 -3.950566540567024e-09
-38332.78139053373 4209.19475850725 -8005.038888341943 -3226.4636286296295 -4.683845755693028e-09 -6.479807801440529e-10
-50893.92379585583 -27310.818187407986 -21210.90349452384 4.67125567923617 -4.914146867207592e-09 -2.5571811335112216e-09
-38374.25940081535 4206.199075446909 -7961.365843540983 3236.396570508181 -6.491851056722453e-09 -1.005556526934015e-09
-37501.43502153057 -289.7821859429799 -8900.046869366772 2436.0461521931747 -9.250343602218436e-09 -2.0893304863989215e-09
-31142.645827243687 282.5937996424109 -6638.9063665189615 2196.305344735912 -8.803358264586336e-09 1.8394841205804369e-09
-26502.443967941454 100.25587828779508 -5219.4218149049475 2070.8649976597617 -7.413789526733439e-09 1.5487895410615238e-09
-21865.71627622982 71.94388259633288 -3887.762256568485 1936.2788755412882 -2.4134754195159758e-09 5.545062187195526e-09
-17369.380176981416 48.217995710833875 -2712.2603003386826 1844.7210532534991 3.916012847327011e-09 3.863882547250341e-09
-12852.22314905557 98.42981142275363 -1586.983444741328 1825.0698797741597 7.082721520390578e-09 2.6314967982443704e-09
-8141.633720673226 237.96209696566842 -422.9900684046159 1902.1007327878765 9.127125277785808e-09 1.1505947306034159e-09
-3922.6462359467064 -479.13987193539276 358.85501052574676 1681.6894791061845 7.2888455271424846e-09 -8.794618366891882e-10
-2179.5198583868173 -1614.3717019699695 708.0300473351742 1062.751388865168 5.144114467725558e-09 -7.373778032615519e-09
-2463.03079539598 -975.6969328154736 1477.3016290304454 -433.1119398801193 2.283258027091506e-10 -4.2316372628192767e-10
-5504.115534519825 -635.822604303248 348.17349049721525 -658.4291388035501 -6.743476888004807e-10 -3.143476590139471e-10
-12345.211501319156 -686.0889786236488 -1432.6257452140119 -690.500721663524 -2.0673631695444783e-09 -1.2271677007902326e-09
-19817.438237115355 -1403.4357077324942 -3500.280292556973 -682.4072832998272 -5.156273630291253e-09 -1.0359357816014381e-10
-26762.769008237174 -1986.4506792890384 -5386.476286045767 -711.6092580888037 -7.544027624817318e-09 3.969944373238832e-10
-33666.48860240219 -2494.651296571185 -7345.662847881821 -768.1703614912562 -4.813581533369415e-09 -2.0247057364031207e-09
-40847.90383604588 -3102.3076569053933 -9603.848145695665 -826.6228194364247 -2.7231505939084855e-09 2.8414106623131374e-09
-48067.661196882706 -3354.5460380784025 -11995.296381374706 -926.133120332279 -4.14911127677442e-09 4.79111861295678e-10
-55507.85934178686 -5032.029104894425 -15073.027198699212 -975.720287457702 -4.652106255775834e-09 2.617817074224149e-09
-61822.05425991967 1295.9567672308424 -15425.344792378184 -2091.1626823053375 -7.183129646648467e-09 -2.277324995247909e-10
-85968.47279589121 -41272.76880450427 -35606.66297536244 2.698967862364995 -6.766439852867734e-09 -1.8053327721645474e-09
-61865.82354015382 1294.4669685575745 -15369.197181438683 2096.903314744188 -8.006519891523567e-09 3.3217517625416804e-10
-55595.859515525255 -5034.653933705083 -14959.668662461356 982.5463584058208 -1.3858819869483341e-08 1.7078463088182616e-09
-48199.21831371428 -3357.4578775044984 -11823.176075360323 934.9846871631215 -1.5888764082205853e-08 1.384726999731356e-09
-41017.294716460696 -3103.739402790689 -9372.08969764444 838.7940868419713 -1.3264482401353916e-08 2.9925288913545955e-09
-33853.301475581866 -2490.1423304674036 -7055.071915028245 785.4887214838387 -6.026493082345041e-09 4.6263082253972243e-10
-26913.991866480883 -1967.1323107371677 -5041.180711580173 736.8152674306943 5.264297442408861e-09 1.1928698029350926e-09
-19847.655480125282 -1365.617997245068 -3122.9704768760976 717.1422761819605 1.209428290849246e-08 4.035385359202337e-10
-12227.572641568464 -657.144517839028 -1113.60889932094 725.5601296522447 1.5649710860543564e-08 5.39035482916006e-10
-5360.466371889261 -624.7738774363368 444.43148578046817 670.9301472725482 1.2516720104827073e-08 2.6972912792189163e-10
-2365.8922016547103 -878.613907925035 1298.020610422625 426.5723441631684 8.964562425717304e-09 -4.544943976725335e-09
4568.315146437086 -16750.234046209094 -3654.575669931598 -215.450230539168 -790.3225065310452 -68.57998775180923
14534.333140043358 5966.895167030105 5008.986090836752 -1482.4382206344656 -1077.5021805333897 82.2254486231741
15058.229289213194 736.585139463774 2558.4605382089453 -586.5667539182679 -1014.0854817165566 -79.42609315277451
20955.918979239574 1598.4676459656118 3621.0555958131054 -670.2654001032051 -847.6985406372665 -91.64945345993202
27587.309538522924 1914.6619486723193 4960.396672496531 -702.3574295428464 -545.0985453960717 -126.47401754115981
34390.7560783786 2448.307808855706 6638.620360057998 -737.471175036653 -166.1312985345513 -162.49213184619668
41262.188580023685 2982.1213197392062 8595.19121106671 -784.8363849130377 262.19514189816334 -196.23111096146732
48595.94513248634 3636.95999215171 11009.176855434842 -874.9812687065947 671.3812569107648 -211.40867659485494
56897.235742479235 4368.96999535855 14007.497011890757 -982.329305034028 900.102382035325 -178.09704226082818
65080.5536523515 4608.211984980368 16970.552338031055 -825.1994961137455 698.6369012150371 -77.13192963005147
68604.77070100872 3984.9515132929946 18093.20693978275 1.909239483354078 -0.9023722479540259 8.469776365523408
65060.50136158623 4605.967040527816 16961.269654123083 829.1345412594734 -699.4037858313375 -76.03685001324371
56853.623321737265 4364.23655515985 13985.934465911356 986.6250882743439 -897.6412537671131 -175.91996482932876
48521.11818244049 3629.2076197931465 10968.74699782303 879.9400447473887 -662.998929270488 -208.26007716002664
41142.68740940291 2970.296801874804 8524.377782124187 790.7896793911688 -243.69268837991447 -192.43685679855503
34205.67104531743 2431.3535527326494 6519.989945341288 745.0923261366117 202.33059590846125 -159.21576964550354
27301.695180899715 1889.3906028136896 4766.078075991685 711.2389931775265 613.433375499715 -124.5607288777374
20524.783717279843 1564.474589820839 3320.04696305068 686.5402719639507 964.593844777865 -99.53936003840165
14272.225899861947 647.590052536705 2026.737318632868 609.7985613883226 1194.4684136756152 -72.96721182895475
12553.098562559566 5573.685071777167 3986.0835240432257 1448.7002503869476 1087.2986816475272 -58.73014108122497
1210.0488076013628 -17685.534786871463 -6217.120534070763 1860.6981394757174 961.1261751736268 574.0221876779831
-2209.16144879856 -17127.24102968089 -5969.15224971068 -367.5078948522312 -418.4281615897641 204.82180327861815
7183.985281769832 3117.213753901095 2567.0523434344773 -1682.411473347435 -507.2377675848357 172.30682693017425
9024.730968655156 -224.44725180706098 1279.0896614376697 -1517.0885070673794 -634.9580871089848 -19.06221572283105
13770.367953268329 42.648963206027034 2095.979534993715 -1672.0558213518834 -530.865207253214 -48.16761048602503
17938.89702884249 -104.04859992671845 2769.949867095415 -1767.467893990793 -336.2804883707597 -70.36877692706209
22305.240814425746 -134.6074937372528 3714.61135168434 -1830.3541067492217 -89.90518059181457 -81.33007423498684
26721.970980731214 -151.28515913142698 4860.320205933095 -1933.0661619718367 179.0512570004176 -70.89833291016566
31391.037256973686 -87.99815590564299 6294.50935544069 -2145.665405856269 427.37406356538696 -12.758555419557123
36472.106559866384 -118.14230425516688 7996.765646554218 -2455.6827376755236 562.5120136031852 135.1779027145958
41022.63568691346 -1168.5301098240052 9335.956149368936 -2152.070191767429 438.70331776902304 382.66932134498677
42428.035486136614 -3295.112522420893 9304.440907155276 3.7029875869837667 8.101892736040693 559.3199527643085
41002.12380141123 -1169.3420221967194 9336.246617398978 2159.8151919262377 -420.9658889566741 382.92933819529685
36428.091709218315 -119.80084707670014 7994.980204851816 2464.5025852651247 -540.1118886751059 135.42771137981134
31317.15248626145 -90.58449637068925 6285.324409266828 2156.4916667982543 -396.88326518805184 -13.218273719665516
26607.685025500814 -154.88580702337043 4834.370232946119 1947.1817278693934 -136.18375491819828 -73.5519235823835
22133.85854077891 -139.2401284091037 3656.480241848206 1849.5810032371212 151.67934663632366 -89.05893422804611
17686.93977812326 -108.61986866299432 2657.571928156762 1793.8722853382917 426.7205759687151 -87.76792811592499
13381.68779186801 27.4304336465168 1883.9099704924618 1713.0522689090246 664.4583855774239 -83.08021052888033
8393.141910729315 -241.22433868723002 915.2262182680691 1596.2341402210864 789.7405228156329 -73.43127537276446
6519.364035780825 3000.526209934608 1994.4620975980877 1828.911593243001 567.7721293069849 21.29111303008135
-2665.459724875808 -16892.35098636298 -6831.88595275036 1382.0507576252091 371.28327804964107 742.5176540147777
-2497.90781144339 -12285.252289727285 -4132.0670358443 -2381.869184863702 -146.80022932089398 706.1509174670188
3264.0187033653324 1555.688517865136 1469.540391912724 -2928.3618995125207 -184.68237981598566 260.43755213840046
4216.629309632916 377.5850800810305 851.6093907754432 -2729.732980875303 -258.3851433056144 66.37110590441023
6861.480505206576 -76.52905870564639 1061.1943129551278 -2949.5941768528896 -213.30580753399073 0.9502882766121319
9135.52469272205 -70.3303171093805 1434.3319654972802 -3063.9464608157728 -103.7720542324538 -8.09414682546044
11263.378797334894 -107.9228212539127 1873.717454985575 -3172.609443979854 26.066279748644938 11.845490475841528
13400.106670260146 -125.30705522256908 2437.266707333284 -3335.7919125503768 160.69312080984676 77.20984988386249
15572.587059790378 0.3454773202098522 3163.259967005925 -3653.3908675574526 286.06124311769634 222.86992035054047
18071.598462898994 174.11631289170026 4101.978301418496 -4205.130996368541 371.91624078619884 501.03051993509445
20579.413954835374 -1450.5184393373008 4597.972673559817 -3901.9113733048307 319.37911373477016 918.5970862192808
20377.017971505265 -6239.854381112503 3304.4354667466923 5.97497265405344 16.94207978766272 1220.421641441709
20558.104449026487 -1451.5980491599214 4607.099407640353 3914.426047478136 -283.5649691120809 918.0470820715826
18026.506389100246 171.95437531561853 4118.392055657702 4219.441382237439 -330.3425490561188 499.367381806897
15498.707887424149 -2.894809210129278 3182.7117704925677 3671.066915656189 -234.96193148232402 218.71158543243337
13289.522791377442 -129.65060742700442 2451.8202902642256 3359.069163329609 -96.23746783707037 67.76134794390924
11104.733913990429 -112.7243116379781 1870.1193074809642 3204.7077635211836 56.03461088049322 -7.922938026944937
8911.06532887883 -75.47838707314453 1390.3150520658342 3109.5145413974337 209.23980074350587 -46.75155381180352
6536.10577045813 -82.97532733971755 939.9547697616333 3019.216731870621 345.9357994681676 -66.051029408917
3859.9027801531774 387.8776629495756 641.067277253209 2855.393853661801 390.9467143587091 -53.75834169644303
2900.345972716981 1264.1700595666864 991.8992217708513 3147.360886815047 222.39582589359367 157.5334068968681
-2626.0552017895507 -12104.169809284242 -4717.64237598333 2606.08371257276 100.20294960514056 1092.2426088168188
-2241.96229430836 -7799.759272290105 -2074.751433301437 -2566.2237706540795 17.478981855848943 905.4397449985257
349.752198739111 355.56281843994043 836.4863998080825 -3432.73495741806 56.18274319735304 305.8985856127879
-115.09009345710231 584.5727644599775 446.27493698875054 -3405.593229982495 80.42969090491617 91.58355628541763
127.60864727377717 21.948554594582472 147.05620002707258 -3393.000141454534 103.22340663037087 17.75469007428567
270.5755682208202 -26.898189829353907 87.14164198130828 -3493.598432707465 135.3716245724244 5.4847801543339685
216.534755408151 -7.347205260808169 65.42648198592238 -3617.096551480079 159.14458395803086 34.87562493334711
78.41591790339405 -26.02141293162773 58.03915142271258 -3804.8586252389623 171.9046638238188 116.95028645884523
-235.42779562018865 120.7993686216638 83.23921502743715 -4075.809710622572 188.52467064312629 285.1006574077342
-191.30922614444017 666.9592736512162 367.828272281026 -4672.183849230513 236.24712192156528 591.6493768114858
823.5977357160148 -1351.504895013944 261.5342680810914 -4879.720680806327 250.88114237003492 1067.544310463859
-1462.0453067829353 -10939.092124376968 -3023.4944371966913 6.771149654718977 25.756888927433874 1456.5029148114286
801.592087125345 -1352.9178903429777 279.5254102148368 4893.904531506501 -197.07875015099285 1066.7480423798258
-237.24820818504406 664.1579290911748 402.4967791399701 4688.405657818826 -175.72538642822954 589.3996679256295
-308.93710037180176 116.66323995097812 131.35716775924317 4095.8434810843396 -117.32692293752665 279.7940178689019
-27.65727846683852 -31.33093753152896 113.18742239284954 3831.249347514288 -86.96485005222218 105.40760088820655
71.87021324060328 -13.116340756925274 115.94535092774788 3653.743769994024 -58.6732507420608 11.189400809774781
77.42367262450725 -31.989585419599173 112.10880613235129 3546.742326478907 -19.22041099898553 -39.89390550257117
-105.17407156151263 27.639753258207854 122.17627086001883 3473.902019327195 23.19267448838352 -63.977498480717834
-329.1359988063215 546.7996265398714 325.24017353159206 3533.3899202144244 24.20399801419723 -36.236998441786284
152.64778134778143 126.55881953796964 495.7937954701274 3539.3622874667976 -34.12654920175125 230.96674975861345
-2258.8835630850067 -7602.375751458878 -2486.47571114261 2611.2475769929 -54.206591951668386 1156.5163688878492
-2123.391683136624 -4134.926546758517 -284.51801362402307 -2047.480449697909 155.7803783988883 850.856103665639
-2028.7465646689393 -257.32206792644536 564.6833948313903 -3007.183088191217 278.114301577944 261.22094616401586
-4240.566202916859 486.571368688333 7.252020873914673 -3172.2387969603465 407.5240354864579 78.06883146431915
-6440.880094840726 105.2083773093629 -726.7056560757331 -3018.135101462807 417.19514054040894 8.895075465613214
-8584.244171309545 49.745508929143696 -1251.1055883696754 -3056.5056946098025 375.9813669912592 -8.465823014727466
-10862.59384948135 81.31399387091899 -1758.5369454528109 -3172.6386181757275 293.9240749229005 12.016696517449159
-13183.851671490229 131.21104694241416 -2286.7955557030236 -3330.1393261581593 185.38646886523222 78.13682064708891
-15880.85004764043 101.09296863010906 -2990.760905647325 -3535.669812967172 86.35584905180805 213.78472090359728
-18505.992105052126 954.8415756524673 -3452.561715065082 -3820.1080932830882 75.46402756429677 459.9602180584146
-18570.35198833171 114.89959170285506 -3616.5207376572957 -5068.464367831631 158.09678367716808 896.3895420620238
-24352.81654645802 -17733.021160732605 -10328.323895064721 5.995275616300994 34.744981151848286 1345.492192505358
-18593.19653423493 113.14568752197866 -3589.5382362747914 5081.0206641685045 -85.93655786010918 895.9104089977283
-18553.098250041458 951.3741159053105 -3399.3711754425412 3834.458500605029 4.448239922222606 458.44248780542597
-15954.551094485905 96.02893376468245 -2913.523981493311 3553.3643201595587 5.509594003180654 209.86516351711342
-13286.215371291168 124.88103239498585 -2190.346202221188 3353.4033990585176 -79.17295907964831 69.079812378142
-10994.316174279867 74.3821009673884 -1652.840342284533 3205.1113542058224 -174.13150246687192 -7.289412228594999
-8740.703296370519 46.161552452898896 -1153.3041207872627 3104.3653056854137 -248.31054626798004 -47.118519029997415
-6598.113128708858 105.86703215145374 -663.7883193914334 3091.2136083396986 -296.6560602297878 -62.698709237382204
-4361.349023192251 442.9771075929616 -21.836725589652165 3260.8853713255903 -326.0182285365686 -25.74923189453204
-2123.4061084384516 -390.3973251255634 356.252696708313 3046.4725345438187 -266.9786381571165 205.8201658231394
-2121.2245541015886 -3997.720956658207 -594.580154481702 2034.3232504222394 -185.6359289358662 1013.1229890954774
-2355.9030874966716 -1840.4129424077857 935.2808234840961 -1106.3043051002905 330.3433318180486 514.5923999415127
-4056.077227548793 -467.2026310803954 504.07903181926866 -1720.6627461702546 532.132549205459 113.63812258313072
-8278.469161086548 272.1761831159901 -451.02370447133103 -1870.9127633507794 749.875797020434 15.28566325486456
-12935.799313560872 129.93082367888587 -1607.601585660703 -1754.6865503542092 733.0231115076152 -40.41319289337297
-17434.84903992006 91.98892198869854 -2611.0962066378383 -1759.335105632292 611.7342496281029 -69.46976986347718
-21931.159470444465 123.8866064462147 -3610.149389397336 -1829.9458975036443 415.08472436832574 -80.91785056645054
-26518.071210912134 157.35122484977813 -4715.5128625719135 -1928.3611016407153 172.2879457600279 -70.30007218423657
-31004.5273435441 342.5702425466024 -5869.440286068105 -2012.686319077047 -58.85017116689187 -22.218586862306765
-37018.07231471436 -191.28665304181456 -7825.750978633315 -2237.6277884586984 -181.11684120840548 80.4988072230898
-37851.60598783897 4085.7520884134856 -6896.665000139841 -3039.7643758427116 -49.69028824369172 356.71568493096913
-49915.96554705439 -26474.51321116397 -19283.546740443664 3.7459635004863854 44.103207088531974 865.1667001680947
-37875.676414119494 4083.7116976305674 -6860.471286851268 3047.599308079979 141.03253991023834 357.12668793512427
-37067.19397624655 -195.31771833457753 -7753.555691291523 2246.5456050478247 281.5176538129997 81.05175481733384
-31079.889904791817 336.72536417854985 -5762.24132265349 2023.6043443534202 173.02538587938864 -22.204682579664947
-26619.285108004056 150.114292159814 -4576.460539377447 1942.5895248042532 -42.201298771922275 -72.2427894251142
-22052.60307617095 116.62929986085372 -3446.5783983875026 1849.6048621801617 -271.819700157665 -87.63991200277266
-17558.870696973998 87.87637820123945 -2437.416300090684 1788.4177917717311 -466.5614306892773 -86.55148785814657
-13030.176364125926 126.06404667873615 -1453.3974160856176 1797.2074651675362 -610.5273114705325 -76.34347848050655
-8322.476375425698 241.07550865581243 -378.2142403757235 1914.258683157212 -685.3759687720973 -37.74621585681843
-4074.892425902048 -527.9469245962721 416.91760948051495 1730.2032604079623 -535.9185341081723 85.57194382238191
-2351.126895184105 -1777.744945712724 702.5075883162021 1086.7167692653704 -365.99527256164635 605.2985692278049
-2632.0399156012923 -1069.49629246993 1545.231737285708 -431.24622352204995 636.5001456134488 264.12062914372365
-5689.343817905344 -712.1592960362841 511.9917533546178 -688.8640178582168 877.085397535641 12.04222961571551
-12606.290846594478 -709.3059590548519 -1232.5938467258889 -713.8988498812979 1120.9184875557978 -32.05782579536889
-20144.7054880516 -1391.2977730811203 -3162.318258365829 -687.5065584297294 1046.970219799173 -78.6520210701003
-27145.80540797952 -1956.8004109870853 -4847.651358090901 -697.1375122734275 827.2294328096181 -118.4455899706739
-34048.65421464021 -2449.9160246285155 -6553.943002694677 -734.1629043719835 497.79505047484986 -157.57323163133313
-41109.423377581435 -3026.755622924804 -8487.4697670278 -771.0080147702173 97.12990010661626 -192.59321986540738
-48001.09732360493 -3225.498442279999 -10468.397569424245 -852.8839702072648 -298.55053493642794 -218.51260413628768
-54837.703328834024 -4769.34554469072 -13085.674078691905 -902.2026712575665 -555.1597876249753 -206.57424640936995
-60761.53852237148 1336.0487183706134 -13407.726765518726 -1987.0304135339902 -530.194483695615 -127.81137853198103
-84202.37972879517 -40043.1005556481 -33022.923215565235 1.9482071759659618 53.96670417721316 606.135392882253
-60786.77665032422 1335.4098095250392 -13361.356918689356 1991.1278107110595 641.86942249513 -126.91977877515203
-54888.74900613079 -4770.373889311641 -12992.388781990896 906.9261199665395 677.6652940094207 -204.86065310942115
-48078.1240733914 -3226.314229200737 -10327.72071919355 858.7449407518288 437.5852457978451 -216.1787821201964
-41209.85963182177 -3026.125547374836 -8300.299035227412 778.6805704889442 61.07947571812892 -190.11743007555035
-34161.335598704216 -2444.8480690613906 -6324.188387493046 744.6022113864817 -323.83433482262143 -156.06459728587217
-27239.780158728492 -1941.4391935142014 -4584.611677053277 711.9736075071858 -652.7209466293626 -120.41750056617502
-20168.597677115886 -1363.285213418583 -2890.8177616960293 708.1315704595165 -906.7371823128469 -88.42262560927242
-12542.454274501566 -686.6616784054494 -1020.059778068369 735.3779978131402 -1065.9519580776728 -49.05432062224203
-5609.132310399712 -703.5452534729657 559.7160372782251 696.9082054236317 -916.0793637996087 3.964517926879971
-2581.669600096295 -1012.1684893430873 1403.2925784003455 425.28092813854545 -715.7450199303121 318.4422790655927
-992.1749747708491 -22058.839395539966 -6915.304311093242 -3428.610651809228 -1829.1384636106686 -647.0442544937707
13003.725224467096 6253.108076637245 4555.434138807102 -1532.7277980741874 -1973.668809890053 202.80397466131285
15103.046270283747 756.6894044028867 1991.0896813112238 -547.7400958190098 -1851.243674697529 -50.6697232046814
21384.527167993412 1854.4734600366373 3035.5799284355235 -595.3760777347017 -1644.9994943528118 34.65667300404344
28269.984064031254 2178.580387637007 4057.965027260672 -591.2995787450244 -1255.5237015654984 3.5566232993163585
35379.0915680012 2782.534032483406 5336.102754556775 -606.4087805364948 -750.9643170005664 -2.4194367559881496
42366.323652408515 3352.0055796368347 6709.607772748901 -620.4435163840471 -116.76212178197301 -11.353565016647249
49252.8266846812 3963.5811544619382 8273.320298734014 -653.4719318401085 583.7372524677842 -0.8996860211470015
56029.38067001442 4570.068331454293 10088.06685558444 -686.6204053822044 1128.7836213503792 73.67856071900678
61895.74520256136 4836.865986535245 11838.538034243787 -552.8625399459772 1031.4010465538506 283.0210440590241
64278.91383470627 4491.663088498083 12496.541945998533 1.8610364332776825 -9.764506457122708 502.266221364625
61908.66585492018 4836.146789567819 11834.901635226091 556.5555827421332 -1049.8317577603714 284.3093957316667
56057.0433095712 4568.654719254839 10079.838094400906 690.1770611961653 -1143.7554781373044 76.20971252921952
49299.681603903526 3961.6064504909805 8258.490622134766 656.6094755602581 -592.3245292234533 2.6287760755445664
42441.66272287201 3350.053149237285 6685.163729878637 622.6382832672523 119.07265754730393 -7.1558261998512
35500.16878948703 2781.457915979475 5297.1266356772085 606.5290650311657 771.0269069031339 0.2217377893939556
28471.670029426794 2182.0350193920567 4000.5487348872043 588.9689463326818 1308.670304469886 7.268177287289964
21715.784080309386 1862.1986137181116 2942.581950312319 583.9660953270284 1736.5661007688273 13.44145134768403
15756.519184341949 807.98336085377 1926.8636890353303 526.5681592218788 2090.4003986322728 10.005464354221257
14541.032448430477 6449.400629477221 4571.18239176106 1519.8756589877414 1766.2273276892624 -239.23846496516617
2029.9062871459525 -20893.64538515299 -4922.04659201375 2025.8906323045705 1492.13275845844 1192.046157344225
-3264.310206338277 -20141.924064572013 -6103.696900903259 -2200.2319843437926 -308.0523720085673 60.63171562819566
6841.380918020258 3333.4751113790226 2407.2370179791833 -1911.4819732314024 -663.6894532991375 184.31263870100568
8612.873772419376 -180.5220341476471 774.6624410935555 -1504.958011273543 -1129.102641994949 -12.10114627614036
13832.462362562886 209.26009552225494 1534.8274106055724 -1562.652266950577 -946.8382100893709 16.298468598935138
18214.677165436606 107.85495855829862 2012.2383186390152 -1609.261139904052 -705.5631432253829 -2.5619969568143706
22779.154186775322 134.17117148907366 2658.091456130534 -1618.1190809985312 -384.5032428943195 -3.14072126181855
27272.164957504297 170.27666576706406 3395.913600073811 -1632.0450472562152 -0.7566718923461496 15.442864572720433
31663.088771066577 246.71658924892333 4262.139954322496 -1675.6075961553158 411.461227680713 88.66961943613803
35861.872329407466 269.7803202322723 5246.370060472542 -1737.2259875972702 730.6342804347471 301.0147945894526
39221.9319626319 -305.991261003853 6003.699880035021 -1425.3969355848055 673.3654251662532 764.3222861604604
40225.98011420605 -1626.6988142089558 5931.198292762447 2.6940109572672952 3.7619633603603897 1225.749534216019
39236.55030057979 -305.41461336104834 6005.348425765356 1430.702172212675 -664.1294028984572 764.5996303305043
35892.69391032612 270.9152606632541 5248.701679395539 1742.1759304394539 -716.2005659140639 301.26249373684027
31713.85798099181 248.41452868090064 4263.043093977993 1679.575241619218 -388.05888068362515 88.09703007990882
27350.121608610414 172.59007674521604 3391.647353473887 1633.7550612712012 37.44870371739834 12.46566612206711
22898.470442835212 137.42163794437596 2643.2058240078422 1615.3096566570528 440.6911255579553 -11.796777634569638
18399.378761932563 111.5303366195331 1976.6498112922868 1598.8846374431062 788.0496386571523 -20.644059859092636
14143.922578835049 224.31237418306372 1478.713386598365 1536.5737725234414 1074.9726321564654 -24.65093957688974
9148.53911310785 -172.15970864048404 674.3360628721846 1438.3302867989028 1290.422553657578 -48.919735705769405
7391.441673355321 3395.665471387935 2297.859266068849 1752.5404894816454 706.4838045144338 -134.18614951352941
-2791.776397823763 -20107.7491400903 -5932.823927734492 1306.015035345411 211.27730846732175 1257.4798251784896
-3031.9172824588236 -14627.187135085644 -3997.41541496184 -2903.9362743116812 48.84628424429977 1212.7607448682131
2985.713699141644 1121.162648152423 1301.8162447168643 -3319.595663629589 -151.71157686092926 182.2658600633556
3916.649917565525 585.1477424335629 618.011947420378 -2745.213302976606 -455.6205106670722 55.57446526207848
6651.380246032777 56.367954332261164 720.0680837101474 -2823.137628539623 -386.97758918881794 -0.7709939422868128
9109.410424265505 102.58778248949531 1024.9780596647356 -2853.734240661359 -245.26015617039647 0.602363095976628
11366.290547520854 106.3827620410109 1321.8735443070195 -2864.8940389688682 -82.75358648426977 18.421827975219863
13594.208428961827 132.4355601388691 1684.0882531916577 -2871.756162816902 105.06761791427964 81.0718111403784
15713.126275416687 231.72044744912768 2119.1334341972215 -2902.958007607075 318.3621661985885 237.9026204084235
17793.531741309154 359.01271033260883 2651.140431931717 -3003.839596515978 552.0553002326884 606.2718049307214
19611.8852192739 -604.2123431271473 2893.174756988412 -2598.1096473336606 613.5329750370538 1372.2571583543054
19477.999248383137 -3739.7516876392106 1963.222072919257 3.951616660750112 15.759983370278576 2258.155924328596
19627.565081403824 -603.4048879647835 2899.7280833852583 2605.8604638021707 -579.8145734632024 1371.6151414810342
17826.062231317068 360.58855059315135 2663.339953619471 3010.9542304191245 -511.7923306310467 604.4264347411655
15765.101919899005 234.00463588862664 2134.861880673853 2908.3633184111977 -267.39325600521227 233.48878960011592
13670.606967302247 135.4707756722061 1699.5479714737753 2873.2419108109625 -39.529026401452604 71.2669696442535
11476.332621551684 109.86956242327982 1330.5067782929382 2858.5567237417704 166.24845208664223 -1.6661398424668263
9272.108587021075 107.32446133750979 1017.7934837633185 2833.345369265763 350.2090424025549 -39.18059277846176
6908.114771586656 63.83908565274292 685.8470591373159 2776.7249014349113 517.2708465165413 -66.87108902547939
4217.8041453195665 572.2329737349817 508.3778402987448 2636.638309644687 587.462612980439 -77.27182731187528
3282.346644242436 1350.57164125721 1230.8321621249104 3100.1780810777377 178.63734453773685 57.620171535835325
-2898.933060725858 -14609.757258541507 -4081.1209323307253 2652.366897269153 -109.164761605183 1699.4882415962193
-2516.666455113765 -9255.873678471815 -2020.3728206072233 -2745.7284980819736 157.70443115565953 1329.670040150364
114.46682434641126 -191.44409184383977 708.9626381436417 -3647.0344876871636 150.60289993583416 326.94051471958915
-423.54487186533186 649.629930358797 365.25196026189246 -3467.72530310065 94.22160842381436 82.49013953412792
-256.5970244942728 72.55893577367809 76.30100060590017 -3275.5469779236305 131.7151345108144 20.40625443466009
-68.97753867919315 -19.262645406915652 45.63560861526635 -3275.08134894032 176.926894686008 17.486382488464667
-50.05639497145407 -2.6514539405403728 40.22738437060025 -3282.3573337623316 200.78993142446075 51.83295483661271
-80.3244369645758 -18.14660593150571 35.386574227507474 -3290.0600618691756 217.24218840868494 134.9742659929201
-223.0320631100505 49.15102337097021 40.65408085005416 -3267.388912004749 259.4718281551115 312.9565835751511
-190.08667211581417 371.72672819522563 180.67778288986392 -3371.9343550898748 439.6854671645579 695.0425649727482
436.8675928775317 -871.1865934641096 45.443152565842475 -3300.346415672422 679.6464605943872 1529.8999336550512
-1234.384211728175 -7425.192911492918 -2328.921039847451 4.296883035104663 27.149095595133865 2899.3023653243217
453.52963690549427 -870.1100061101577 56.98108842439017 3308.768946937247 -622.703802328493 1528.9912203957826
-156.10532043851606 373.8345759223196 202.93447854595215 3379.642255024471 -375.00004999922714 692.5822362312862
-170.43546851333423 52.23167536915444 71.62695541111052 3273.1739842438596 -182.60843585726414 307.3691111709182
-6.9479012056741425 -14.149098576627123 71.16386997622502 3291.408964641538 -125.1749330660922 123.12572751201245
48.2532138186442 2.0679527172368317 73.96462729423067 3274.584669154716 -92.90192120766564 27.753546853875108
65.67513995176172 -13.817967997455646 67.18035719442277 3250.246632398407 -55.816305375806486 -28.53307561228977
-82.98308313399086 70.83234719915687 62.76355410318374 3219.834402975459 -5.1672879989909966 -62.890842412219826
-254.07168610404884 679.0445305617374 295.87914678182466 3355.9689886640613 4.495354653485761 -51.99671385286043
271.18236875937646 8.114119876381842 643.7801094387902 3529.8947626484196 -142.34799185104478 245.82236559129382
-2513.3774023034675 -9327.522290673985 -2186.638294108881 2664.279396225446 -206.4208382165583 1620.621533087063
-2277.2916733658776 -4916.863795613859 -452.776797043663 -2078.9006794671545 266.0407730481961 1150.0070819955988
-2208.783859640464 -686.14528295253 470.4693667130002 -3089.544668594775 429.5395795440806 333.3956020700242
-4581.11721190903 431.5047048582341 60.082566986178215 -3193.824842686383 607.0373100249175 85.65229479265328
-6987.6600692298525 34.894253528815575 -539.8564995766955 -2903.40371732526 648.7134837852884 10.494792812040265
-9222.391537165311 -101.87274580008138 -917.0052025006905 -2843.31832570358 603.8023564224823 -3.7884505714238284
-11495.580191542702 -124.6537492560557 -1255.6631746544042 -2858.2287291177904 488.09226965174764 18.873652115010472
-13720.247206224625 -129.62252265734978 -1591.780513994061 -2865.0575241366782 336.3052445752422 88.1249876794588
-16076.251565151138 -222.00693870565752 -2037.4097563944877 -2839.460310544083 187.46592792334914 215.08833756514693
-18244.754241964984 274.81101668412543 -2344.0413860504327 -2791.8238340069206 234.1127301876957 486.10268089822773
-18446.392793061324 -151.88775943682236 -2477.605098586485 -3529.61526202996 723.3439311137721 1118.20970756328
-22725.048351717123 -12866.731664417719 -7484.4240739701645 4.0461039249971265 38.78149962372639 3032.413005730954
-18428.712372402817 -150.5624193924666 -2461.019468495962 3537.579542964089 -642.6513349608047 1117.7035692528937
-18209.251380153222 277.42644211120523 -2311.5717677338935 2799.226896336191 -144.35773674317994 484.53000975732965
-16022.947466231075 -218.16343389548152 -1990.9147619880323 2845.282831341025 -83.86564706507507 211.08150163692656
-13649.869742016883 -124.6467012711588 -1535.2152474814811 2867.1047323391995 -216.5680593437993 78.91612622707893
-11409.194903687212 -118.556812500324 -1196.2022350076122 2852.155252666014 -354.53261204093565 -0.810923226053756
-9121.919704678478 -96.8046896040292 -867.7794685031892 2821.3164674955988 -465.7253864533307 -43.59448957892249
-6885.051327435296 38.71224658269193 -522.8783302320755 2852.674086228348 -525.6336262558715 -63.94138888627668
-4500.21477651956 470.57030388434265 29.8328204840219 3115.367663829017 -533.715237502927 -23.376273127881344
-2141.5245682436275 -562.6563583401756 412.83369450007734 3039.2352589883662 -432.23820563101003 277.5831807849816
-2311.415958693939 -4995.605375433378 -612.5551551623263 2060.1155114890353 -306.1897568949412 1342.9602104817652
-2437.078845855772 -2180.2835607559664 593.3235456852076 -1087.16219100086 476.77384720737496 746.5093898460696
-4166.127645076093 -708.9525484141686 454.0309251442515 -1727.3089938639553 794.7482631348959 226.90002415064245
-8648.416192205974 185.3005881485011 -271.8799805577566 -1842.4482448232975 1173.6260826947466 78.20917973777799
-13643.454131704366 19.001481557675458 -1182.450916104959 -1651.8423300052343 1218.0112441364379 12.370106473782764
-18364.48658446724 -102.10006158823809 -1921.127061194972 -1597.8919207111137 1074.7434483967293 -5.71617260360414
-22931.75203925411 -143.29996747178606 -2602.2833072306275 -1610.6584236594333 804.3391365320881 -3.2157383391188574
-27423.97307571494 -176.9869686447633 -3315.4244719860435 -1625.621843368109 454.277000222467 20.23813148109324
-31609.61944570523 -103.17450821114367 -4010.3181090575126 -1595.4431759340143 97.64518742101467 81.9409195056094
-36522.38214290167 -592.4505040348264 -5274.841531947897 -1645.7950650843625 -218.69963058630773 128.51968025401575
-37130.78627648174 2655.3321401133035 -4537.494036580548 -2229.265593707674 456.4659726653433 417.9049718817348
-46049.216885494854 -19834.564043016573 -14106.35886929315 2.8060458042859224 51.513381561151476 2232.23960611524
-37111.94417419343 2656.8469158763037 -4515.81698051414 2234.827661229589 -349.69820664243747 418.3976527143242
-36484.998550456 -589.4472219833197 -5232.05928542216 1651.1002947355785 336.24205402709873 129.1992389685628
-31554.864221702235 -98.75525091522002 -3948.128051247229 1599.9318704014008 36.12435014527678 82.03748968724263
-27355.008061769153 -171.25281879995822 -3237.776954236012 1628.009243054621 -302.3154804716446 18.158709034256074
-22855.56679288281 -136.73440696751337 -2517.30267021684 1608.3353213890962 -638.9638059184005 -10.676431049310924
-18294.913968718807 -96.07830456601111 -1843.8787191903302 1585.7054333698609 -912.1104639326352 -24.950823145514857
-13600.575855092258 27.766094461614784 -1134.5825212203322 1623.1666221377138 -1089.4478218759655 -28.166404094611785
-8639.570990699227 217.6528340023711 -269.6510764097987 1803.8211798582752 -1118.017378170227 18.694243529367714
-4167.528158478838 -650.2147799985156 409.5685984610845 1710.2392225126773 -812.3922882185223 197.7868301340292
-2485.204728280983 -2229.7757722090187 469.397565481141 1083.2240280682713 -522.2634552416145 856.9362349988799
-2616.159892523101 -1195.51330851871 1257.1982882544792 -416.4023214286892 911.5073463334193 483.8090588496144
-5741.065356872273 -842.3145874410003 518.9473733646709 -675.9492974425457 1368.9595459402449 157.74107867154748
-13056.368703808552 -808.9405155862855 -1006.338047351354 -663.8356666050919 1905.1438976368377 84.89419382557813
-21116.31676516095 -1552.7757492513306 -2660.872780865088 -601.9312164899928 1920.8700840492927 35.16780432269741
-28487.656715364275 -2214.773266100423 -4020.180408460115 -588.5249839698719 1651.5368078814256 17.498231401011495
-35557.065711124 -2784.9516295032813 -5296.5377297331725 -602.2235549526325 1189.025869307851 5.674429686136278
-42552.65257729244 -3397.2360012531904 -6654.632240904217 -609.8949173423324 598.2078469785986 -3.228998021226353
-49134.79201913987 -3710.432167641133 -7958.759378711828 -637.5465768149561 -55.229188223435344 -1.6249776924602202
-55033.230551197084 -4962.386000568656 -9602.028092797898 -656.3622419503781 -727.9548244936556 -11.879123986489034
-58877.76770137604 -240.41881197053436 -9512.853827408464 -1591.0710431412635 -1085.993608469465 -257.29946527880827
-76068.23296902918 -31153.593964245316 -25300.74594311022 1.347032752085795 66.27646813056452 2373.553779790126
-58857.08623469821 -237.54800433721144 -9485.575383607267 1593.7685582090803 1223.1201614472752 -256.3753062580396
-54992.46090682935 -4956.682528576752 -9547.92159106546 659.0280076561382 878.2629366916212 -10.18956959155281
-49075.867144721065 -3702.0303755137656 -7879.385739209082 639.9934729188267 225.40961280528614 0.42898308342154223
-42480.48215126836 -3386.52737887984 -6554.0923689306555 611.629580452342 -405.7333941911127 -1.6351836373002087
-35483.27556982988 -2773.3854572847786 -5184.229784080025 602.1991077748398 -980.3498414853553 5.123749512007713
-28437.260065010276 -2205.7172310831456 -3914.8843840395757 584.5283461121368 -1448.4420876059085 11.403857420269574
-21125.817772926068 -1547.7047928622126 -2590.8469714984885 591.0033796973372 -1768.0181760853825 18.35331020319752
-13132.132711078695 -796.7503219176788 -992.7148079415866 647.8847671500507 -1859.6431757612297 59.280101226251354
-5820.60458606948 -823.4055119817981 481.00846516583437 667.9518011060109 -1426.4822170711768 146.37181000802977
-2699.8153837002037 -1232.5738551530935 1162.9925251552283 409.8762763636264 -1006.1812143848722 550.6176453747179
-6567.928562564435 -36432.3880741653 -12900.094991018921 -6665.687724693301 -2748.040217307004 3462.8560905936956
14515.312267396115 9337.3974625604 6009.02353037392 -2961.028530994341 -2860.384215767419 117.76194509879792
14358.452811416679 416.6746729620225 1407.9572439048256 -1395.909103123749 -2794.3967718323042 971.3852153878815
20768.88577982824 1931.05600223408 2557.68889010274 -1439.491503926593 -2486.4031306546594 1053.9898804781237
28041.107787317313 2154.514628999465 3434.4214987121163 -1356.6813983516163 -2221.9439296916835 1447.5833456553034
35632.95132576321 2832.1441912773703 4594.915226798345 -1230.9442595094515 -1745.2091956119855 1785.0536261262116
43025.73457261429 3429.5021704506353 5749.914998596075 -1028.220634292663 -1088.5071535949664 2131.8195018863626
50002.40481136366 3987.463914746614 6923.436058105051 -749.5153093764391 -265.3098242479739 2472.5614417965094
55877.0623898342 4433.831844124847 7999.139504619499 -390.1019997966557 537.1305832216577 2823.8203265384213
59708.84563568503 4879.4157115456155 8829.78400401662 -72.4830710838138 764.7266351376193 3201.2349069671654
61114.00684877759 5381.060033380263 9277.2169183573 -8.877905563765182 -18.38265634192409 3458.6630481161474
59752.23574546329 4879.92872840417 8832.996214420691 54.266311591152544 -801.1690666859749 3202.1279155570073
55972.42776898405 4435.25466578173 8006.688808782099 370.5029676889949 -572.5064063351111 2825.590464516766
50168.00810041505 3990.64115346449 6937.566775411799 727.5800986487817 232.15267587481526 2475.2541134604194
43292.141289430365 3436.3027602322377 5774.450931150586 1003.0707815140553 1059.2719451670396 2135.0707557800974
36043.7240726476 2843.5449614492304 4632.4390219502 1201.3411581163793 1723.6500827271148 1790.163727307863
28660.967986662203 2177.663492881446 3493.3420839729065 1322.7516147441852 2208.1541187374355 1448.0726839613926
21668.363600213583 1957.9888539556175 2612.2055191876184 1391.4557142823173 2502.309123505666 1080.9716169775263
15892.438215061757 576.9363631718918 1648.4940315589536 1337.7453143998268 2750.642205284828 881.7902876948623
17840.822669714773 9924.623190951232 6364.085485126997 3072.285898709313 3678.043314330323 647.8180878413722
-274.6463501127894 -34745.07447980185 -7929.164597664344 4006.6817847237685 4817.690510534977 1343.093711721705
-7282.1772769351255 -31600.74229905556 -9527.727693351726 -4278.426981309672 -2270.4739735587978 1990.5914408364056
6939.53537798954 5060.5482012408565 2850.0348611924624 -3545.0484960778326 -1901.1366600560216 597.0670106263619
7159.60147862663 -483.73664253776747 46.74932788099021 -2949.5682650495987 -1724.936212334523 1046.6558289604222
12956.611667674913 89.97821752220923 889.7718871918851 -2987.390072743161 -1525.1384773295815 1357.2779562623166
17528.3357087195 -108.80201968374455 1222.9232199785988 -2920.1917285700824 -1323.513047056085 1800.7122283021765
22366.76961740428 -102.81468969932594 1706.648614139705 -2682.2402875782 -1042.9485758328735 2242.8966712584725
27080.470303896887 -102.70193299931837 2223.157323588072 -2330.5258847750224 -652.595493988331 2687.618907992075
31515.508216415248 -142.9167563865931 2759.3351033399977 -1817.5031341025092 -170.79322210921754 3146.609975226307
35271.67120661454 -187.0133463651513 3278.1510680280758 -1073.593501103446 303.7296537288973 3669.08361985572
37866.126305573474 171.37650801627422 3806.7793712226166 -282.5684314878959 452.9652925229174 4324.499447370136
39084.72296066057 1142.4924168245602 4329.156852643521 -15.828991371284133 -4.403427401079881 4832.844763485145
37913.16199547331 173.44551784895054 3813.348511960408 249.90239646477713 -460.8953666945727 4324.593155978303
35373.46452222463 -182.69908338746183 3292.0578019912514 1037.8526838425028 -309.00067360834527 3669.151338514229
31688.11556264892 -135.995037073141 2782.042552268121 1776.4527763242077 169.9899878762276 3146.397662048895
27349.26955670592 -92.79984809371032 2256.2112838250287 2281.6760246847807 658.2826834720402 2686.601458177175
22768.224706271933 -89.92477357616465 1751.6538421989699 2622.811797565908 1056.4643863340857 2240.6702719512186
18107.48933414753 -95.08237382686306 1274.5437054334186 2847.2840265532864 1348.2773186924755 1794.9174102917254
13796.070824875367 120.11107396849079 963.005794662521 2888.966554635484 1550.3805705336367 1356.0962908117774
8335.95414118245 -459.10199954380533 75.94701317039899 2797.659258213907 1796.3014033694571 1005.9017663755061
8097.428588123068 5309.430128282465 2969.1706111685553 3343.7231326584647 2174.0568524860173 856.4026838730366
-6750.925072589078 -32634.277551153435 -9160.264407536424 2677.314185089267 2688.3401164841275 808.5095596427686
-5803.055417377489 -22023.378797207166 -6011.046323051264 -5023.139481956635 -1382.5496051526286 659.2823511811564
2381.3692374930547 1544.4887181230615 1289.7435842644627 -5758.322241976818 -1081.9896013476766 927.9193218823261
2514.8337719808837 708.5869249617301 122.49977831979551 -5022.606116085494 -852.6429365473895 1194.9800975326912
5552.629465424271 -117.63490241024323 164.83093958293315 -5108.19161491703 -691.4611345958311 1731.084962067995
8327.583404947312 -78.75631736677252 470.5843976898533 -4934.7025881576665 -565.5169873574042 2284.600585316225
10800.799132979662 -100.03166643223472 695.9817375018354 -4554.967241790658 -427.96856514625426 2866.0448769289546
13263.165583472964 -84.42228189099981 967.5652399197465 -3990.3188491069814 -243.40317035015687 3452.7950240327264
15630.1187974509 -131.65309845320587 1255.891559949449 -3169.7364973492695 2.3670807281953703 4071.7163228466748
17647.34135754307 -202.75784244677712 1519.7012499368373 -1903.6221921583979 314.77902555146477 4800.517441224951
19018.957430215116 599.4682137595087 1935.8191788091822 -410.8588797171676 481.14769197599054 5795.569673112073
20279.10399946688 3199.2021171606602 2940.65786206396 -25.294913457498524 6.767802813752983 6732.447694448541
19067.517589496667 601.8972762339152 1944.966437792765 358.59083046707536 -466.2757604872903 5795.0474871031765
17751.33128674757 -197.73678497462063 1538.650696753287 1846.2204239569714 -295.96500641472386 4799.316669287736
15803.321233597086 -123.73194970434551 1285.7035938348554 3103.41558170475 22.767846468886507 4069.459793993238
13526.517014022747 -73.21112166952611 1009.3006959491162 3910.699063460196 276.6123102641537 3448.871941111953
11181.766047097386 -86.57825655148655 748.8593042230997 4456.890197226146 469.92265487954614 2859.089717539628
8859.66640513409 -64.44488622604214 531.4166795631863 4811.732263077663 614.0751089000539 2274.4066379036562
6265.839916539597 -105.349886107148 219.6767877689508 4943.907877192991 741.5124354862899 1710.789757711315
3228.3629995396627 717.97635720706 89.69620504322344 4783.874845285434 922.0677536415047 1199.46632466936
3053.236164179558 2045.7658660628706 1423.4040930243798 5440.084387928455 1184.8161784460187 942.1679892093186
-5775.382041827142 -22849.614392055482 -6141.062839931322 4748.004308288663 1517.0833836881122 630.1081642757401
-4245.596727209138 -13308.323352267076 -3179.1674647680347 -4645.138743953453 -623.6817212076699 232.4920262441089
-742.766579785034 -308.88425278867845 496.2121899873052 -6089.585830872162 -353.3621264477813 805.8434356092267
-1719.28208846403 901.8400636725321 55.357310281965994 -6114.019902055405 -55.73731411747295 1235.546469292423
-1355.7699582070686 68.43222054414147 -214.85853214280507 -5836.86799037347 92.64664720383246 1820.2968665675883
-820.5662704033631 -59.01632354472747 -140.1491866621104 -5596.911084366921 136.53592439384684 2424.9195764258407
-542.8570696498035 -24.007221550379626 -74.1781769361481 -5163.128501538056 148.5047185687535 3041.3373044112604
-282.78871875422135 9.031412778611823 -4.885039691437569 -4532.705104434205 159.36383947121072 3671.3977231458603
126.8872143764645 1.8178109695601705 103.68652747613041 -3646.4127649689335 200.80741011205367 4327.6798218773565
500.11540485558567 -194.22975345781896 126.98271782732799 -2196.3492572786427 388.74473833311447 5080.402920530578
512.2555495818625 955.2228973008112 354.25981198051335 -136.06577459043945 631.9457468835072 6160.58639567629
2308.639097484714 6775.6351062848 2409.381796605946 -28.40038031793074 16.807077212862946 7552.58066913081
561.6921892346594 958.0847023500424 365.92786124962015 77.32934129838634 -596.5653374241625 6159.873594630702
604.9207738756076 -188.40376518483447 150.88702833937117 2131.6921045786166 -348.2126922049895 5078.799252699612
298.45184666704597 10.788463041691003 140.65144780811488 3571.4789763832764 -152.28032039838743 4324.779370899511
-28.66717502496806 21.158488863054586 45.4818213233151 4442.378862630529 -101.23707754262895 3666.406370389172
-188.24959937314162 -10.215775831929918 -12.152816887627964 5050.998246579404 -81.67254916852144 3033.036762749285
-349.03138085172014 -47.82120530174327 -72.87343544131673 5454.137802173897 -66.29793872807636 2411.1829477176743
-810.2078173372281 61.49188470532818 -175.43244419931932 5650.22246115323 -27.278961418012905 1801.2547321141114
-1239.0379141756869 993.4453565789983 53.05349839529792 5878.510220159494 109.73836540046557 1225.0776417280592
-356.69171889937354 47.65884420071029 560.4703191947665 5950.882594026209 398.6786929457315 828.4159360635604
-4325.446679804651 -13947.263956541503 -3384.805699303205 4600.781684427871 680.0103023303961 364.398618149017
-3333.6660685746815 -6661.371816867712 -1173.8760549514498 -3530.330224515983 9.156015849613691 183.57553817299646
-3132.2845897907364 -886.5301521331724 161.1943856469571 -5121.037218728546 331.05711728932584 625.2666160316166
-5774.439160456814 722.9983551388432 -107.83293012629645 -5625.801661912765 751.0455918481296 1142.2577433297986
-8033.072669495437 167.04664155921174 -563.4957379482961 -5243.2566433978145 890.8853829955522 1714.9035755518073
-9930.254362292502 17.44321969267041 -722.6573305518485 -4939.328595950816 848.2571657600026 2289.9278633142408
-11896.923062296444 53.18764551240276 -847.9597908287241 -4552.019508440931 728.0886778642998 2866.5437320690535
-13852.51471488359 71.20664952196367 -994.7902894401986 -3997.0568538373177 573.0151593426742 3459.013414440827
-15425.452676047445 204.4773193280145 -1038.4541565334835 -3207.5187226472 388.7055028505639 4054.0012586228654
-16564.45233578826 -134.4690249885303 -1214.348103720276 -2038.7490989662097 345.9958551116854 4689.001372106849
-18349.222106412664 342.48167529875445 -1643.0760031202246 524.0790519148666 707.2368651946036 5568.093199254367
-15003.059156650463 12261.542655393541 2472.553102449051 -25.563254945484175 27.0690069484645 7383.6330624743405
-18298.670048646818 345.8438868141859 -1628.8006450675516 -576.9757027065034 -650.8557009086692 5567.619397431633
-16458.3690854618 -127.70900993907705 -1185.2989297022418 1980.4488740655602 -283.12065941293145 4687.905934497188
-15254.89866278446 214.61917054044574 -994.0649290406926 3139.8770187404325 -315.93167981587305 4051.9333978065347
-13607.208279159348 84.300009122413 -935.4730115488155 3915.474202592655 -488.8560518221671 3455.303299062051
-11569.44957288098 67.48395007440261 -776.7867214850132 4450.3679763716855 -634.9273836203869 2860.020647706814
-9530.57543496094 24.33269079250941 -651.7346808165956 4809.119764920271 -754.9038978305906 2279.0304686658064
-7623.862144264524 168.08621179200264 -519.3907707229179 5076.823898887766 -813.8355358582472 1700.1266670841524
-5454.285925581027 810.9495896794643 -94.06187401809828 5464.495597283069 -707.9568052520991 1132.3169919139352
-2920.3789207570685 -688.2642183270052 181.56448250573203 5082.832485528766 -313.48401934552464 652.9883785530551
-3399.307444072767 -7044.764992416978 -1325.1032097899706 3555.568014384293 9.914442220398143 306.93626588512143
-3104.4741204571123 -2665.7174389969646 20.029431300576647 -1954.6444137585324 565.2811896695528 269.0145110273426
-5023.716332412437 -828.6030108181359 94.43801021799788 -2950.467033518128 1030.9813516397137 448.8611224453273
-9757.752201570023 415.9579662675783 -375.6204393568791 -3379.786367436291 1644.14256599473 897.4843794758988
-14694.817605399392 177.87272875761676 -1034.8078170884148 -3142.879871438202 1775.8330443178463 1354.2328850693993
-19173.20413946973 60.31555446938295 -1482.9320978681426 -2925.6830143116126 1629.8473199366192 1799.209552973445
-23481.125008453288 64.81968946543503 -1866.0284606337527 -2682.271530206961 1356.9781244048079 2242.4589330458907
-27638.359157628056 101.77444855102638 -2240.2025864800644 -2337.543228984254 1000.9266687574362 2690.739120067788
-31636.12022858866 60.04174445141667 -2676.2378070727773 -1872.929812203044 592.6999681565974 3145.7579933933607
-33914.22448386752 660.2910333147977 -2608.104169561894 -1086.7443955706744 6.173086380699175 3525.5491260828844
-38286.53178832081 -2310.0252337675197 -4802.827936079782 552.4170581439977 276.149890469596 4028.484063289384
-31691.356836012146 19575.118076573195 2666.0045170957737 -16.173620590268285 38.92930207180842 5353.792511581622
-38233.670380344745 -2306.15885101419 -4785.708377570475 -585.8754584725507 -195.44124869502426 4028.633705868121
-33804.44848831222 668.0160248733315 -2573.458187704384 1049.9083357572194 82.76006048271499 3525.7702859457054
-31462.89476099121 71.44713843483885 -2623.8255429904734 1830.3096900480425 -491.3329766095387 3145.854271338311
-27396.675324753778 116.15837869053796 -2171.299262709219 2286.391475153499 -885.5371413377306 2690.299135933951
-23176.61800134553 79.32241261387455 -1786.471304630285 2619.062100290618 -1231.2387250833965 2240.724692981188
-18839.693107709245 68.8880200757482 -1408.0792377384169 2845.329832849613 -1507.0379137007058 1795.240376360219
-14405.18780174042 187.68832318094064 -987.247031379089 3045.5674471743646 -1682.6102603604645 1348.1407989838513
-9578.298625449184 477.2719625695857 -360.75987826858164 3301.3165649281577 -1608.6056545368558 894.8783488742604
-4945.117374173041 -737.2111961529305 88.93640254075525 2949.7089244089275 -1037.8723664496754 468.5291820165592
-3155.781248394311 -2831.8035006338882 -64.63275918078875 1980.4120209372477 -578.8817792737153 348.9966025131188
-2711.7485343755357 -1151.1025349032852 840.0799244304462 -963.7691906145142 1131.683009473894 324.6800571126366
-6088.839991858433 -745.9459795552941 262.7564789631482 -1382.055216258722 1830.7674808327292 375.4087188257563
-13944.582833087228 -587.7482082915647 -1100.5958666490487 -1553.8262486435299 2716.530105969508 745.3270551097306
-22400.957679402232 -1523.339459551258 -2628.5627438214165 -1493.9987349909754 2836.1707567136627 1109.2514752786103
-29787.431546697637 -2262.5125254751583 -3761.8572046803115 -1389.2356372117813 2556.4785617242087 1454.325181019218
-36769.9402339218 -2870.009713198796 -4768.427055585595 -1246.378602979672 2087.0880184754783 1795.768990475781
-43547.41154837549 -3395.0589392267207 -5747.625045026413 -1059.0655694336922 1473.451681797946 2142.0866038059803
-50120.14329170737 -4176.217489130404 -6867.089011183881 -776.3006140115297 744.8327326359799 2458.814813667229
-55978.83476288369 -3893.5883547309313 -7672.355021255136 -379.88879734797047 -301.6303464475019 2833.8720624641696
-61164.07293149772 -9245.89217521061 -10785.141174763043 1055.780288243105 -2190.1810658259765 2545.013034872035
-49471.64790469439 19555.771572730213 -1178.8908606301661 -10.450715392623806 54.13090112651264 5248.5458836971375
-61105.768417337924 -9239.858792354438 -10763.954863769517 -1077.3699544209474 2302.138923597908 2545.3184424165584
-55859.17194663671 -3881.7745879330073 -7629.851882243804 356.25082832297426 424.25235051448715 2834.3958014635978
-49935.09840657101 -4159.413870614995 -6803.7814105986745 749.2983138548268 -606.0984805659488 2459.3588760694533
-43297.54834143771 -3375.4382712943902 -5666.647502525201 1027.515429486642 -1316.5501403837652 2142.2921776355533
-36474.580371938144 -2853.8233467690925 -4680.3562663854045 1209.4078079175622 -1916.8418732411076 1795.1041519609648
-29510.35536826097 -2262.050296402047 -3692.0558054729945 1346.445750650181 -2391.2414702507704 1452.4291218140975
-22252.44033717981 -1543.5401022710776 -2612.8571799508914 1448.5026537123206 -2715.478749247796 1106.884848793403
-13974.261579392656 -595.1880512003896 -1144.4784523695798 1521.0966160699356 -2687.034309759515 746.8526368544772
-6186.452675268318 -739.0343461628436 203.7418304294822 1384.0218053285703 -1874.662245236904 388.9217477555827
-2831.3676051215725 -1252.1563863658535 768.845829007671 971.5836495306139 -1193.4847393849413 378.0397118390134
SCALARS Strain float 6
LOOKUP_TABLE default
0.03887246612926395 -0.14446213253796414 -9.134403303190375e-18 -0.08183983262136003 0.03373982711191567 -0.042516177557025345
0.04680376707759402 0.015017123415362894 -0.005415394335011791 -0.036354850297110816 0.0351191617600145 -0.0014458549924627711
0.06521890972689477 -0.020368117178207534 -0.014282743617662946 -0.017138661766162917 0.03430898258746517 -0.011926451811163842
0.09171623869586187 -0.02392710521608711 -0.02008027554345384 -0.017673756798242343 0.030527505104250036 -0.0129406535325004
0.12449868281450084 -0.03441623629602901 -0.026559030234703643 -0.01665703272427579 0.027280533803652442 -0.01777310663276366
0.1577450470848121 -0.04361546337944812 -0.032794007855916005 -0.015113260075162801 0.02142729067965665 -0.021916491742985978
0.19017290560340022 -0.05290396553200537 -0.03865920900372746 -0.012624264454424028 0.013364448941372016 -0.02617400610639535
0.22066535886992053 -0.06181525052318118 -0.04379164375418783 -0.009202382409539484 0.00325741506433601 -0.030357559924210156
0.24625052965233432 -0.06955374675352796 -0.04766671917061987 -0.004789585664162185 -0.006594769938262672 -0.034670238453568696
0.2625370714602014 -0.07405470668488374 -0.04980383466740044 -0.00088993103936191 -0.009389143686824263 -0.03930405080216758
0.26782802888176777 -0.07431033906819721 -0.05039226485744411 -0.00010900095171793443 0.00022569816950465064 -0.04246469631287612
0.2627366917954124 -0.07411830405882308 -0.04985086199209375 0.0006662697144663931 0.00983657576330921 -0.0393150149631597
0.24668815565337485 -0.06969282367472056 -0.047768186296634214 0.004548953103164129 0.0070291064334334135 -0.03469197181436002
0.22142285479721702 -0.0620548700714153 -0.04396402111464739 0.008933066766665661 -0.002850318964813965 -0.030390619948601608
0.1913865439152376 -0.05328402038914888 -0.03893038856215021 0.012315480150669744 -0.013005505548868309 -0.02621392427931338
0.1596154974779815 -0.044196713177309714 -0.033214891305823196 0.014749799774564802 -0.021162592682308433 -0.02197923242976576
0.12730953537016473 -0.03526852832820815 -0.027191723643968553 0.016240450380963573 -0.02711122556899552 -0.017779114619795793
0.09584838608384173 -0.025151414442054414 -0.02113525102507611 0.017083984047639025 -0.030722795349877503 -0.013271929297333179
0.07189493184554233 -0.02212523230120128 -0.015547058836838936 0.016424539693537993 -0.03377177374293948 -0.010826425198957998
0.06117265864946713 0.012575989626867587 -0.009281755733969945 0.037720843534291296 -0.04515819847073404 -0.007953766522975683
0.059158230928919905 -0.15245189731278264 0.012167993909059345 0.049193148579393005 -0.05915053349083994 -0.01649020612737843
0.023877273125743254 -0.1254116954818492 0.010092088625181121 -0.05252957571585318 0.02787637489742135 -0.024440039357059906
0.021563368835154747 0.01002847533369739 -0.0035416204482110604 -0.04352531764634809 0.023341733437245896 -0.007330656074839043
0.034428294566802194 -0.012493308898915787 -0.00923671446939171 -0.03621414369870162 0.021178383495861725 -0.012850607677808379
0.05979602022656172 -0.019190812897641196 -0.014280968425563048 -0.03667851144876182 0.018725311305041507 -0.0166643571296981
0.0811943580350224 -0.027078070797437563 -0.01890275752063746 -0.035853465112017854 0.016249799077854656 -0.02210874458081687
0.10334875846688493 -0.03458952297378075 -0.023481428803016378 -0.03293195019763891 0.012805090847823223 -0.0275377869082025
0.12487602018720377 -0.04199845382240748 -0.02772026227514681 -0.028613678918736802 0.008012422454005111 -0.03299798770357689
0.1451166405859802 -0.04923091271921238 -0.031414311024787006 -0.022314899590949004 0.0020969612270330695 -0.038633378029225736
0.16218155781440094 -0.05549536680259461 -0.03422310748072818 -0.013181342430192285 -0.0037291251929720015 -0.04504819333262442
0.17317654228056747 -0.05822733842082009 -0.0359100041773665 -0.003469312408759549 -0.005561407202593932 -0.05309524321485537
0.17681524418224 -0.056107893322374106 -0.036545314425086774 -0.00019434483852166318 5.406430309145465e-05 -0.05933659404042909
0.1733864178806354 -0.05829350827337171 -0.035948548226270555 0.0030682460897976916 0.0056587708910924754 -0.05309639374837451
0.16263643539242795 -0.05563890229759473 -0.03430775586225 0.012742524618101329 0.0037938416038214968 -0.045049024767314885
0.1458897561771228 -0.04947492278228785 -0.03156141424771652 0.021810892420267885 -0.0020870992955262916 -0.03863077129520939
0.12608449559502294 -0.04237931936235339 -0.027959001024694025 0.0280139111917541 -0.008082248502536997 -0.032985495681003334
0.10516250048814861 -0.03516113937460919 -0.023855892872065177 0.03220230040336395 -0.012971034965496389 -0.02751045167230171
0.08383668496946343 -0.027906880238106484 -0.01949889791816459 0.03495832054823941 -0.01655384930176251 -0.022037597093059202
0.06361369666486331 -0.02034150069496516 -0.015167063659715287 0.035470089365349164 -0.01903522811608921 -0.01664984890388892
0.03990703078641631 -0.01408484163330559 -0.01080023519404882 0.03434903867045915 -0.022054589452616895 -0.01235023835387258
0.02650983950759021 0.009394626740145856 -0.0049719664066172325 0.04105348957335534 -0.026692586911267933 -0.010514721840942527
0.02732956604327568 -0.13156545889543786 0.012538899570357588 0.032871468605992146 -0.033006842541492186 -0.009926700704608863
0.012312118338217024 -0.08726264463211987 0.011035285278473195 -0.06167299030639505 0.016974636818741267 -0.008094522200559532
0.007230192304129209 0.0020926757824638654 0.0005288237108354234 -0.07069940085991139 0.013284427883173675 -0.011392787229746305
0.010698231093464865 -0.0003901176061673885 -0.003988041478556968 -0.06166644175864394 0.010468560498707053 -0.014671700086403821
0.026153889200571948 -0.00865523372399639 -0.006921207305086943 -0.06271724149440622 0.008489606152556338 -0.021253876478796657
0.03876960963165162 -0.012835975885664723 -0.00946363427384075 -0.060587181777034975 0.006943291900381722 -0.028049818297508907
0.05015951108271059 -0.016759477991236907 -0.011872840150507494 -0.05592487558002864 0.005254502938769772 -0.03518866209999908
0.06138049606464165 -0.020558862775291634 -0.014100828266492546 -0.04899224809196292 0.0029884500359943955 -0.04239265001723511
0.07221622316746776 -0.02454354319353558 -0.016025560707129807 -0.03891732032859652 -2.9062491129226677e-05 -0.04999162818618841
0.08146899769442016 -0.028110777949987478 -0.017536792966112644 -0.023372250248161763 -0.0038647869248409 -0.0589396863617392
0.08622008628084069 -0.02685511140889112 -0.018651401317924605 -0.005044434022951248 -0.005907424440364199 -0.07115671654193766
0.08706430058223899 -0.017787319305449557 -0.01937449376109532 -0.000310565326328435 -8.309357902373795e-05 -0.08265949669300783
0.08643299835535644 -0.02692539301194996 -0.018680440659100215 0.004402698529263834 0.005724830170373674 -0.07115030525822505
0.08192610303457246 -0.028261231516708125 -0.01760174169836231 0.022667484093850516 0.0036337925788036286 -0.058924943550720615
0.07298066821838371 -0.02479374160144116 -0.016141373403490384 0.03810304686398766 -0.0002795385593487327 -0.04996392302623375
0.0625490923360566 -0.020938127608270924 -0.014292707838836398 0.0480146940566921 -0.003396184475987789 -0.042344483277088514
0.05186455262718418 -0.017310561014827232 -0.012181902655547916 0.054720707421376 -0.005769605929351073 -0.0351032681986468
0.04117577020597622 -0.013608357443815592 -0.009950429498311932 0.05907737945225127 -0.007539477725974292 -0.02792465927653577
0.029426725384133254 -0.009685300904327366 -0.007689998267553747 0.060700202270150584 -0.00910412490239113 -0.021004696469724467
0.01410084470134196 -0.0013101399641720138 -0.005167082009368288 0.05873535226739504 -0.011320942975328523 -0.014726780986239762
0.009503402222194845 0.003318654003121381 -0.0005019557702193037 0.06679214720766874 -0.014546909746572979 -0.011567729200933264
0.013797488658999255 -0.09101932660270964 0.011552614870615756 0.058294941785372936 -0.01862641265538854 -0.007736328017075861
0.0033086274456196585 -0.05232644433581833 0.009855318195616806 -0.05703198124518929 0.007657425577006789 -0.002854485433282313
-0.003772890093376325 -0.0011093346970960005 0.0038330629099948264 -0.07476658159013197 0.004338501663588367 -0.009893966626067745
-0.00947486169758761 0.006615915958608432 0.0014194523892600186 -0.07506657768639427 0.0006843303566500262 -0.01516976498410963
-0.006194809750209846 0.002548209180601627 0.0008091187265928001 -0.07166376810418132 -0.0011374949462178226 -0.022349200417383457
-0.0035927451375521776 0.0010823253697168586 0.0005842597377678858 -0.06871763053605003 -0.0016763577383828213 -0.029772623688353917
-0.002424395736708467 0.0007607658309513333 0.0004527719103409484 -0.0633917443802803 -0.0018233079335413151 -0.03734086357078574
-0.0013412652005425523 0.000450186162708982 0.000364754607166735 -0.05565154600471042 -0.0019566338068626775 -0.045076605378561826
0.00044972514391072513 -0.0003180620269954379 0.000307298704964201 -0.04476984561440181 -0.0024654687574659105 -0.05313429114641934
0.0024569227122692595 -0.0018055850651667621 0.00016630260582065222 -0.026966288103215552 -0.0047729215095498176 -0.06237605807989119
0.000563884034751041 0.003283211363989728 -0.00040603424319745045 -0.0016705853432189533 -0.007758889447883149 -0.07563831074670668
-0.0021102004300848813 0.025312191735886287 -0.0014917521936696635 -0.0003486935583450811 -0.0002063535591881553 -0.0927289071043371
0.0007767508727971848 0.003210160467558354 -0.00042502458496377976 0.0009494324677293211 0.007324496642718292 -0.07562955913403835
0.0029097190315760008 -0.001960412166437767 0.0001224563160024289 0.02617244195035464 0.004275278054309678 -0.062356368602618555
0.0011948160689158483 -0.0005711174807890783 0.00022609695371460914 0.043849825209766706 0.0018696639338220424 -0.053098680053851426
-0.00022977987704300218 7.609433721726425e-05 0.00022541257278940074 0.05454254047978781 0.0012429663409320513 -0.04501532265871429
-0.0008572676018170802 0.00023566225933562693 0.00022377097959450283 0.06201503402731477 0.00100275740923068 -0.03723895136488816
-0.0014772196685487874 0.00037187613144949017 0.0002180832741411355 0.06696469190447057 0.0008139913588485843 -0.02960396841374211
-0.003664565567070939 0.0016867020483219222 0.00023224991806193996 0.06937217577321768 0.00033492502630644484 -0.022115405322089204
-0.007333552417077884 0.00637141432844447 0.0005984531990200268 0.07217504214786721 -0.0013473432640927967 -0.015041231045689099
-0.002545893876273105 -6.36306972573839e-05 0.003084461968705611 0.07306361407146143 -0.004894888396750172 -0.010171106770633587
0.004128044913401707 -0.05493922225801792 0.009902535377050978 0.056487375125718005 -0.00834901537864857 -0.0044740052562963865
-0.004642377505420293 -0.025070793349019974 0.008616333411529982 -0.043344609978718474 -0.00011241552794523271 -0.0022538996630869796
-0.01376378489371542 2.2652070800955077e-05 0.006454516594392877 -0.06287495696321518 -0.00406464571782514 -0.007676884563484342
-0.028139669276505894 0.011747377694195494 0.0066469967486152476 -0.06907234262687174 -0.009221170877692652 -0.014024386737561179
-0.037372318052779574 0.0129673032735034 0.008482584777053768 -0.0643755398996016 -0.010938092757906638 -0.021055205011002623
-0.04589381449828219 0.015173995657926782 0.010630600613308146 -0.060643978872722465 -0.010414712979639824 -0.02811522543292773
-0.05505398725508539 0.018306414590204656 0.012774370605976419 -0.05588868396499604 -0.0089393109894059 -0.03519478693252804
-0.06410624266385118 0.021369935712267706 0.01482589894803824 -0.04907497581678969 -0.0070353527897559776 -0.04246899803281296
-0.07166094822871157 0.02428945535400613 0.016659237127300035 -0.03938120209479179 -0.004772439785013923 -0.04977412656432751
-0.07631020065336497 0.024551641337994517 0.017922383660202646 -0.025031308381765167 -0.004248060221112672 -0.05757051684650226
-0.08480659576043259 0.029939696899776186 0.017750578929307887 0.006434526137771804 -0.008683297067137776 -0.06836381094626842
-0.09172108167466175 0.07565327945022127 0.015559760249358436 -0.0003138599634673264 -0.0003323472520397184 -0.09065460593373749
-0.08459286426674545 0.029863735170639692 0.017741611794199245 -0.007083979461493821 0.007991061661015866 -0.06835799371286601
-0.07585998165574742 0.024392126030217346 0.017899699022707383 0.024315511175728062 0.0034760925405272316 -0.05755706730692923
-0.07093280663861481 0.024032844504462914 0.01661286711581226 0.038550712285371554 0.003878938957716105 -0.04974873782856242
-0.06305043289821656 0.02100021520482689 0.014739941939163845 0.04807332215380877 0.0060020659695437985 -0.04242344606072413
-0.0536286662792047 0.017809175625523595 0.012626291780903628 0.054640629043146066 0.007795497321100655 -0.03511469795239734
-0.04411667562379987 0.014539843703921076 0.010389541228191116 0.059045303780464534 0.009268542301181624 -0.02798142964315971
-0.035503889778444805 0.01233001540743902 0.008109670598159806 0.06233211564760789 0.00999209185698483 -0.020873777412545345
-0.026771941134741746 0.011689643556301216 0.006133878737458534 0.06709186261144515 0.008692136331185285 -0.013902336400735417
-0.013072853611210532 0.0006298505343325155 0.005969632281111574 0.06240588773929952 0.0038488871264403704 -0.008017246203423074
-0.004194971866126161 -0.02657403070470718 0.00853833746104858 0.043654473954559916 -0.00012172731834887945 -0.0037684952645842583
-0.010911958668995397 -0.008218480152259011 0.008269021468119727 -0.02399868974665018 -0.006940396828708078 -0.0033029003853605
-0.022683037818855604 0.0030702967386950653 0.008736743006703759 -0.03622517857815315 -0.012658159928456453 -0.005511017114459369
-0.04613541911496705 0.016319857193089923 0.011460445314152624 -0.04149626595574457 -0.020186417060238986 -0.011019113770204755
-0.06817820287256436 0.023123590567687743 0.015679079438977613 -0.03858758064379351 -0.021803283488626844 -0.01662697042227228
-0.08852475722216503 0.029547683121226194 0.02007385725549165 -0.03592088589809166 -0.02001090320599966 -0.022090295067075542
-0.10833137789197507 0.036214560392712807 0.02436129813780484 -0.03293233378777625 -0.016660675860854776 -0.0275324124556642
-0.12748503393795463 0.0428085640334197 0.02843142723506284 -0.028699836311580382 -0.012289155210935827 -0.03303629697413541
-0.1456865122130887 0.04889270434368142 0.03209498820803712 -0.02299541602766349 -0.0072770384979583495 -0.03862291758553474
-0.15739110256422437 0.05485800658306488 0.03479369158756297 -0.013342806190031418 -7.579178282515718e-05 -0.043285908714727026
-0.17072096923208396 0.050134807116791254 0.034831768305337 0.0067824538807687695 -0.0033905069884974754 -0.049460832110336535
-0.18116188651119117 0.1335573067030871 0.02975413735090267 -0.0001985761194288372 -0.00047796531992813103 -0.06573267472548994
-0.17050107600004963 0.05005392533270145 0.03483224629474603 -0.007193248684844869 0.002399584219859164 -0.049462669388684266
-0.15693274146414415 0.05468988790857925 0.03479083788128587 0.01289054123327465 -0.001016109631635784 -0.04328862406638465
-0.14495891140941233 0.04862690969521094 0.032080930178990254 0.02247213563872531 0.006032477101604254 -0.038624099664676476
-0.12646173944800682 0.04243648967603591 0.028394041377514122 0.02807180644481568 0.010872428235237364 -0.03303089494677862
-0.10702667963175318 0.0357389545762189 0.024285054256684164 0.03215626245351547 0.015116875457957145 -0.027511119841587897
-0.08706802989494923 0.029009648695401496 0.019942710807096812 0.0349343273922419 0.018503076607161967 -0.022041562398722535
-0.06689178978293339 0.022692255317527277 0.015479457724259592 0.037392800323755845 0.020658714863405404 -0.01655217314307026
-0.04539591340642779 0.01633411714802034 0.011189532791731753 0.04053283115851243 0.019750102758602398 -0.010987117505661993
-0.02243355386495098 0.0033983146169012505 0.008469942931090525 0.03621587068319911 0.012742766277073667 -0.005752497179242308
-0.01079901563827888 -0.00881015224231695 0.008177201476119323 0.024315058701628568 0.007107381845598854 -0.004284902730926977
-0.012364863825211358 -0.0027842314396091536 0.009439416435699304 -0.011832943951384784 -0.013894552505150877 -0.003986349590074576
-0.028068337057878954 0.004731095628700179 0.0109234079434699 -0.016968566821824765 -0.02247775629241775 -0.004609184825575112
-0.06345759816111717 0.018538525507716543 0.015390210716080415 -0.019077533386078923 -0.03335295296770498 -0.009150959954373327
-0.09990043869787754 0.028264939818369438 0.02148009687876655 -0.018342984468529895 -0.03482187429082554 -0.013619143113154117
-0.13212834740834317 0.0368440721385159 0.0276397617468089 -0.017056726434770325 -0.031387875674737165 -0.01785588138916293
-0.16281471012668128 0.04529319668127943 0.03363902355151713 -0.01530275951448369 -0.02562480289369415 -0.022048052605314606
-0.192688418889779 0.05380241240549562 0.03936027047816805 -0.013002971713644609 -0.018090712315528338 -0.02630006330225445
-0.22103377022451529 0.06101088539718733 0.0444919241089308 -0.009531246427641644 -0.009144890772989633 -0.030188781878881167
-0.24795941104231292 0.07178612940812089 0.04858870070511271 -0.004664190234110022 0.0037033503646695543 -0.0347936514336652
-0.2604530471529793 0.05826689582303547 0.048817617242540655 0.012962635761335453 0.026890556419454918 -0.031247104483627792
-0.2596500294474513 0.1641016290118524 0.03681384018378961 -0.0001283115612059492 -0.0006646071749940145 -0.06444048001645504
-0.26021628151338705 0.058182774795219855 0.04882651835698672 -0.013227708885044868 -0.028265150117823615 -0.031250854209576115
-0.24747128558199172 0.07161218153679556 0.04860315147999871 0.004373968503218568 -0.0052088760816233586 -0.03480008178460005
-0.22027343804946342 0.060738403129639795 0.04450492462046644 0.009199718186698555 0.0074415424555798575 -0.03019546175611654
-0.19165102343302964 0.0534263744978365 0.03936089560616463 0.012615606106412245 0.016164310056846633 -0.02630258729206906
-0.16156765286029384 0.04482643887780762 0.03361355623255518 0.014848840308306126 0.023534558554789545 -0.022039889865735365
-0.1309194722617139 0.036354844985486176 0.027576200054710856 0.016531361716382174 0.029359131384823666 -0.017832601995655718
-0.0991927387761065 0.027936898777599164 0.021372480050629517 0.017784393692845974 0.03334004464367348 -0.013590086199102675
-0.063525041022863 0.018607604803261346 0.015235572062751588 0.018675686230726518 0.0329908101367546 -0.00916969070807275
-0.028455473236003545 0.004985622617803923 0.01077322081296129 0.016992712165521992 0.023016686455610467 -0.004775094791914708
-0.012685657067958182 -0.0029910548639287 0.009415653180492752 0.011928888141528263 0.014653340411449407 -0.004641487573178705
0.03636143286961414 -0.0929644792682918 7.846913223363838e-18 -0.04209571967034095 0.022457755580641062 0.007944265568880162
0.046094378754335585 0.004653090152877714 -0.0057687415210209815 -0.018818491298566605 0.024232267054606436 -0.0024899821333605352
0.06742725368246269 -0.020643437077265854 -0.013065590932874498 -0.0067250311764636824 0.022729158450398534 0.0006221116015373637
0.09405491377057638 -0.025837915936385965 -0.018587234560914358 -0.00730989517664478 0.020196938236235085 -0.0004255069296831581
0.12466204096443168 -0.035510187159892494 -0.02397285367775725 -0.007259844827897596 0.01541504100265074 -4.366743052004946e-05
0.15556653028929737 -0.04454011458128027 -0.028864039926386403 -0.007445352249917898 0.009220173003341567 2.9705306858606058e-05
0.18580924277597555 -0.053695320948374384 -0.033083374151866865 -0.007617667617837305 0.0014335793842560145 0.00013939654828080226
0.21524718228574025 -0.06277846388629607 -0.03632145413917337 -0.008023183163219795 -0.007166996266310368 1.1046145061009824e-05
0.2438174949823331 -0.07208550576271217 -0.038211125934006995 -0.008430172754942136 -0.013858954462098255 -0.0009046089955320716
0.26866197442688244 -0.0816161452046528 -0.03863365846733087 -0.006787923407074995 -0.01266331284932138 -0.003474869485394045
0.27947269153147425 -0.08755459777128972 -0.03841353589623964 2.28493918550892e-05 0.00011988644044233653 -0.0061667130513280875
0.26872915904628036 -0.0816326941049569 -0.03866811574670648 0.006833265765850234 0.012889601025947977 -0.003490687580909208
0.24396178414240627 -0.07211971248147374 -0.0382871700950649 0.00847384058467453 0.014042775592806409 -0.0009356859149888179
0.21549224783226736 -0.06283315797091124 -0.03645506347253586 0.008061705227651704 0.007272428942206588 -3.227552848397758e-05
0.18620240561275378 -0.05377664204782957 -0.03330276876105837 0.007644614477905406 -0.0014619476287459526 8.785764393281605e-05
0.15619502450240452 -0.044661506138108924 -0.029218095386505022 0.007446829076233196 -0.00946649702361905 -2.7224472578364037e-06
0.12569089259846286 -0.03569825565775808 -0.024534602015539676 0.007231229841086233 -0.01606756318269568 -8.923706555369591e-05
0.09573998569158929 -0.026138969534390523 -0.019506616273420718 0.007169805948254877 -0.02132117268185136 -0.0001650311526106574
0.07053141838337074 -0.021235982088821877 -0.014367300074156 0.006465086843806108 -0.02566547156127226 -0.00012284486789888437
0.05305349394880108 0.00337986528230322 -0.008150307788172127 0.018660695591026486 -0.02168534663466518 0.0029373167087578915
0.046157898879393464 -0.09456723777619307 0.0034806325932688767 0.024873434985536725 -0.018320074423516235 -0.014635677820887578
0.02176649817103488 -0.08184329801401927 0.004335818740648767 -0.027013959363883226 0.0037821985673410605 -0.0007444227308920415
0.024173845485005348 0.002639201505548607 -0.003046871234480562 -0.023468750893647677 0.008148631620974222 -0.0022629496196521844
0.03983020501528268 -0.014151474797007001 -0.008287703435110734 -0.018477540027364302 0.013862871326658975 0.0001485751847998368
0.06284917052270916 -0.020782154505310665 -0.012644644043267253 -0.019185897277560735 0.011625069134985492 -0.0002001089756221401
0.08301028780506295 -0.028145481853627537 -0.01645468400427682 -0.01975815066211263 0.008662747480757134 3.145562928540163e-05
0.10361252271496961 -0.03540251190646999 -0.019908445714692274 -0.01986690649447683 0.004720845371162687 3.8561077711647575e-05
0.12373312053377257 -0.04264236036821625 -0.022840533632618974 -0.020037886413672688 9.290249425722363e-06 -0.0001896040594374934
0.14313259464885011 -0.049729023467404786 -0.025078785587244887 -0.020572737708501144 -0.0050518295175769595 -0.0010886658830308962
0.16153318407170303 -0.05696271409559154 -0.026411982634751977 -0.021329274625315954 -0.008970565331995141 -0.0036957927557637487
0.17714292483533925 -0.06551460384299043 -0.02678011100493485 -0.017500706820084387 -0.008267431053434726 -0.009384179180048014
0.18385797627786285 -0.0730709693657606 -0.026673878792538182 3.3076467858973615e-05 -4.6188550113846375e-05 -0.015049480392402923
0.17720880351838683 -0.06553492553650078 -0.026793852435237568 0.017565843336527366 0.008154033224561666 -0.009387584350163533
0.16167381946695294 -0.05700432168796417 -0.02644624395064151 0.02139004892364858 0.008793351392703331 -0.0036988339508572323
0.1433686532781614 -0.04979420791519986 -0.025148849222692927 0.020621451577611815 0.0047645007017658655 -0.0010816357582108661
0.12410401568128732 -0.042735830667315726 -0.022974395718403658 0.020058881585588266 -0.00045978686228645893 -0.00015305067846887348
0.10419244374242229 -0.03553510586562056 -0.0201523751677412 0.019832413006723525 -0.005410707708240047 0.00014483821430554198
0.08392770005530845 -0.028339369444668538 -0.01688960822519294 0.019630750270793366 -0.009675498341356703 0.0002534631794084874
0.06437812568357455 -0.021072814739821435 -0.013372186302295325 0.018865711318270084 -0.013198275094930751 0.0003026587581986651
0.04249001819906923 -0.014728716234501697 -0.009532172748340012 0.017659499632431002 -0.015843521353404517 0.0006006256439669962
0.026838203412840118 0.0023085772840479636 -0.0044307330319515005 0.02151730267649911 -0.008674051155540775 0.0016475077245888259
0.02370742330087869 -0.0825934093673588 0.004424881520008089 0.01603496237844932 -0.0025940158429112 -0.015439057853766706
0.012067466445359965 -0.05911460681648811 0.0061403806875369015 -0.03565388425692713 -0.000599723823243236 -0.01489000692312359
0.010666650147644128 -0.0007796215820068075 0.0003293907747493026 -0.04075725787024098 0.0018626810269775954 -0.0022378197263933333
0.01679081504998175 -0.0036609066360477026 -0.00345915693325379 -0.033705118886669216 0.005594007380922116 -0.0006823309346447796
0.030309344552248332 -0.010176703127202444 -0.0061023217774072765 -0.03466185643926486 0.004751224845019998 9.466092248161116e-06
0.04141927539364267 -0.01387260804596828 -0.00821015662224107 -0.03503751484361543 0.0030112496952032822 -7.395680279736242e-06
0.051650786706991435 -0.017472536087067884 -0.0100107732293078 -0.03517453236736148 0.0010160301451864516 -0.00022617911014586898
0.061621464401152196 -0.021018863487959564 -0.01149344001114812 -0.03525878399929238 -0.0012899968643588521 -0.000995381681158702
0.07087049774594886 -0.02416813247538982 -0.012581513862571234 -0.03564187331577942 -0.0039087799294102755 -0.002920915506064449
0.07976062738235214 -0.027267947779810984 -0.013196830377930827 -0.03688047504578397 -0.006778012297313151 -0.0074436704938023145
0.08936898344905256 -0.03473539325328875 -0.013265322444334995 -0.03189901289206937 -0.007532821526904351 -0.016848268444197248
0.09449619118252323 -0.04803500206311808 -0.013025079811191683 4.851707124366271e-05 -0.00019349757360265343 -0.027725136626579733
0.08943259946860913 -0.03476307728772958 -0.013257733213618183 0.031994175694378804 0.007118834485366062 -0.016840385903749974
0.07989472848913265 -0.027323873828744367 -0.013187538826710648 0.03696782693999983 0.006283672503916742 -0.007421013448688954
0.07109042038994473 -0.024253260159017208 -0.012584108739736446 0.03570823852038428 0.0032829949765370778 -0.0028667234722936355
0.061956034120491464 -0.021134663055933336 -0.011532966937249027 0.03527702568258194 0.0004853286019205979 -0.0008750000161407595
0.052153259785810015 -0.017624193993946047 -0.010130837752028018 0.03509672421922291 -0.0020411615506614835 2.0456494750749492e-05
0.04219104012767883 -0.014070551310727207 -0.008481283145183073 0.034787184811516915 -0.004299788798449693 0.00048105061137911325
0.031559597716342626 -0.010456650244642474 -0.00663821240739173 0.03409201128994222 -0.006350936504513861 0.000821028370896552
0.01838654314415229 -0.0039932132147143615 -0.004385212783925919 0.03237205924628707 -0.0072127354149959305 0.0009487263242569026
0.011842981543048848 -1.597055864508413e-05 -0.0007510379166407845 0.03806329755111753 -0.0021932696190821886 -0.0007074476616528147
0.012789337983707095 -0.05910211056431556 0.005532017994101086 0.03256517134996619 0.001340300684140759 -0.0208659389665286
0.004090424280096132 -0.03728082006321901 0.007137115758592996 -0.03371144433757385 -0.0019362599603079465 -0.01632539327070899
-0.000192613492316828 -0.002070566616751803 0.003456930253538963 -0.04477747898775576 -0.0018490689381179702 -0.004014102986325299
-0.003437822351132147 0.0031502785181735824 0.0014045137572838082 -0.042575960665964065 -0.0011568319701311342 -0.0010127956020867684
-0.0014225930811722705 0.0005980587861259241 0.0006210309063488283 -0.04021643789563305 -0.0016171691515279387 -0.00025054345726047204
-0.00036308896395383534 -5.789475791645799e-05 0.0003405084126012597 -0.040210721006357274 -0.0021722690958968158 -0.00021469391838603713
-0.0002896099888940771 1.4036771482684742e-06 0.00026463210104792756 -0.040300053931226515 -0.0024652541580627027 -0.0006363935010664623
-0.0004037331297124302 -2.2030333463705004e-05 0.00030660391129871175 -0.040394626315377644 -0.0026672513132619804 -0.0016571840435219776
-0.001180430862409266 0.0004904708631494882 0.0004383090769840766 -0.04011627497533255 -0.003185737445691193 -0.0038424113871392777
-0.0016802045646705942 0.00176870547632533 0.0005958772286356096 -0.041399860692757195 -0.005398360457995347 -0.008533578158711646
0.0032327890630993897 -0.004797210247312936 0.0008298779157075433 -0.04052091988099662 -0.008344548210720984 -0.018783771407605242
0.007989291542252312 -0.030015395197455934 0.0012700515696892876 5.275617505020997e-05 -0.00033333056261930115 -0.03559699015213939
0.003293600363195511 -0.004832076334302857 0.0008592328850396923 0.04062432984830314 0.007645418906402988 -0.018772614428174367
-0.0015542535070022377 0.0016989886343471683 0.0006498519256641755 0.04149449657547813 0.004604167280570868 -0.008503370789198848
-0.0009803005505077693 0.00038662830506491487 0.0005056937741860539 0.04018730280642192 0.0022420257957970102 -0.0037738096426980857
-0.00011358045966319017 -0.0001577878100132347 0.0003659390245926346 0.04041118784348664 0.0015368700114985897 -0.0015117103210735318
0.00012014957690186011 -0.00016337660930031443 0.00027798908741511976 0.040204622882298396 0.0011406291436742986 -0.0003407518808286674
0.00023453588728884967 -0.00025346346989710115 0.0002437762487124442 0.03990580587554577 0.0006853001937394218 0.00035032276174707007
-0.0005811254194615509 0.0003631304169378136 0.00031359699250654545 0.03953241128110228 6.344281375330153e-05 0.0007721597874578701
-0.0025809248384233807 0.0031473719361738532 0.0007951622190438054 0.04120384147202329 -5.5192965460822735e-05 0.0006384040978973437
0.0003570665831688885 -0.001257880166960324 0.0026444027134606466 0.04333926347488054 0.0017477170110749398 -0.0030181523775795385
0.004443000873144977 -0.0373882774695258 0.0064488159540057885 0.032711430364901976 0.0025343891803413943 -0.01989763104538779
-0.003146886506837838 -0.01935092647949828 0.008053607594999262 -0.025524280564568486 -0.003266389491319356 -0.014119531395577568
-0.010124827344745676 -0.0007775183045648202 0.006322810517044374 -0.037932742875553885 -0.005273791504408016 -0.004093357114332316
-0.022329468802491273 0.008442460186584583 0.00616234095132174 -0.03921307167970156 -0.007453069195326966 -0.0010516198416559714
-0.032281920478384955 0.010828760225270795 0.007300429213140012 -0.03564734564055886 -0.007964759995413837 -0.0001288527340109817
-0.042106771832138026 0.013883079637138217 0.0088790720557355 -0.03490963055435314 -0.007413351153926277 4.651375420880473e-05
-0.05232923526237189 0.01747561873089743 0.010532477535822093 -0.03509269717415591 -0.005992688421899904 -0.0002317265065449035
-0.0623514019497721 0.021079932913314954 0.01210390746651772 -0.03517653960216719 -0.004129081058449307 -0.0010819790153672136
-0.07271479207304227 0.024612654106240812 0.013468097919724566 -0.03486226270183533 -0.0023016650039936475 -0.0026408068111340908
-0.08322437423053479 0.03046517916306589 0.014388335246132327 -0.03427739262838796 -0.002874384076257955 -0.005968260693172609
-0.08338285108508574 0.028925082593573747 0.014647762261587796 -0.04333583182788532 -0.008881056043221855 -0.013729130298354028
-0.07848192436490449 -0.017962813589664433 0.015078574673505575 4.967716489620999e-05 -0.0004761506343225528 -0.03723129301494423
-0.08332473408406636 0.028882797571859055 0.014699158464916888 0.04343361549947135 0.007890330279223059 -0.013722916044692467
-0.08310642563941065 0.03038123543587191 0.014487663092394572 0.03436828578272972 0.0017723922122096065 -0.005948951786418777
-0.07253439114643873 0.024489421941106825 0.013606698510256983 0.034933750318077765 0.0010296837777906925 -0.002591611770088014
-0.06210624713221624 0.0209235943124996 0.012264270737126267 0.035201674769110104 0.002658974506333235 -0.0009689146608680885
-0.05201417839463669 0.017297794331861134 0.01068224882153198 0.03501812837984073 0.0043528726255779885 9.956335168935694e-06
-0.041709237714874337 0.013694940572251324 0.008962012068429658 0.03463949662864667 0.00571807280032784 0.0005352434554173149
-0.03182684042784135 0.010677374846302734 0.007229832694007981 0.03502449850325173 0.006453612855737151 0.0007850581635991556
-0.021959918648723986 0.00855517865054058 0.00584954021075195 0.0382497918726566 0.006552837082741763 0.00028700868676777416
-0.009900506131834637 -0.00020800962105382647 0.0057804154255926355 0.037315055124367336 0.005306924635866771 -0.0034081046085741454
-0.0029701257199268236 -0.019448066306097675 0.007458991990651243 0.025293640446773645 0.003759329793035826 -0.016488567028918714
-0.009260234528504673 -0.0076837968060875965 0.00934306904174672 -0.013347935789494437 -0.005853723346261011 -0.009165476397525688
-0.01931224157986132 0.0019109722079197796 0.009050398531728397 -0.021207515980271506 -0.009757742564045054 -0.0027858280743091207
-0.04071708899061521 0.013512116799878217 0.01070553608644316 -0.02262117011704932 -0.014409520237545789 -0.0009602349290258876
-0.06277920225634516 0.021093094702912863 0.013717511928314895 -0.02028095305171217 -0.014954471386400447 -0.00015187741840424403
-0.08385494822493975 0.02825581348492459 0.017089008848495263 -0.01961856191532815 -0.013195461227648553 7.018189694741814e-05
-0.10439925276847024 0.03549652245001673 0.020401096947617485 -0.019775306201585147 -0.009875497176434603 3.94821206912388e-05
-0.12455451220562172 0.042711708062797074 0.023445188945157843 -0.019959023743688537 -0.005577512058404371 -0.00024847928092084194
-0.1434401995081974 0.04997436524751473 0.025988844808627252 -0.019588496771240613 -0.0011988659123357767 -0.0010060524005908668
-0.16415480751282452 0.05641505060379547 0.027670372348972714 -0.020206706076769713 0.0026851454643595464 -0.0015779360741970314
-0.1726734280633866 0.07156913221622543 0.027413171520440635 -0.027370427566974363 -0.005604387775586071 -0.005130944376960789
-0.16937166116686553 -0.008442820105464051 0.026721994988106724 3.4452006785180383e-05 -0.0006324698514838674 -0.02740694183077596
-0.17261730656431706 0.07151888318304818 0.027486696485731724 0.027438717396022837 0.004293516870351973 -0.005136993402748966
-0.16404313671387294 0.0563156644969205 0.02781518488537292 0.020271842507585108 -0.004128305219009816 -0.0015862795451217597
-0.1432759963689597 0.049829561479612816 0.026198689566462218 0.019643607964376832 -0.0004435267435616171 -0.001007238067815217
-0.12434696811336657 0.04253108490616803 0.023706033963614467 0.019988335706310287 0.0037117622879454487 -0.000222948594224288
-0.10416917955166746 0.03529920815090057 0.020685164090462078 0.019746783668095017 0.007845055617082894 0.00013108284791901677
-0.08364437684661469 0.028076253203121206 0.017346700657666872 0.0194689389319297 0.011198689584965851 0.0003063406619696702
-0.062656951600221 0.021005925368220855 0.013870396366259917 0.019928879082962533 0.013375998257572023 0.0003458208503242759
-0.04072430994611937 0.013649202977922412 0.010657698416738486 0.02214691559721067 0.01372676892100629 -0.00022952376775890978
-0.01933907865791055 0.002253317360051544 0.008759209766705045 0.02099793712092021 0.009974371983250218 -0.002428382747779287
-0.009241819868487995 -0.0076737698881552754 0.008896155323809662 0.013299583900246133 0.006412234645004518 -0.010521272663189451
-0.012441475435994803 -0.0037202839063871533 0.011336640062647542 -0.005112495168615105 -0.01119128464105993 -0.005940100111406733
-0.026652482854142904 0.0034204038136987393 0.011777039739756896 -0.008299155263110869 -0.016807781091803576 -0.0019367099103668696
-0.05908342980375334 0.0161021710182817 0.014890369503852965 -0.008150426795621096 -0.023390933409893337 -0.0010423120464341548
-0.09374660486226732 0.02635179970770551 0.01954931515241722 -0.00739037771346668 -0.02358401603200375 -0.00043178248643757167
-0.1256921945613718 0.03559411772431386 0.02451092387822882 -0.00722577896990394 -0.02027720191913863 -0.00021483939664238233
-0.15645958926578593 0.04472477773501125 0.02930642973106818 -0.007393966980230767 -0.014598595395596721 -6.966938673796399e-05
-0.1867029349386986 0.05366781681989791 0.03367102323758871 -0.007488154262851206 -0.007344663010361863 3.964492014595349e-05
-0.21549405206662936 0.06336104591111302 0.037281037198498554 -0.007827655193193206 0.0006780916996828126 1.995111494620147e-05
-0.2392462243041317 0.06813312696526096 0.039650879676808616 -0.00805866974831609 0.00893766756733809 0.00014584924449373703
-0.26421676679512074 0.09575140277592704 0.03882895448670768 -0.019534816696219134 0.013333588192887129 0.003159065657045242
-0.27923411859590636 -0.0035081402605065303 0.03242184342403726 1.653856875934634e-05 -0.0008137277477164538 -0.029141965852019298
-0.26416181575307274 0.09569701616118713 0.03892440363825225 0.0195679361868068 -0.015017197538023962 0.003147719037985471
-0.23913843177950536 0.06802565215382562 0.03984054568679243 0.008091399427324026 -0.010783117167391538 0.00012510527105721164
-0.2153401442432023 0.06320479814568784 0.037560477718564904 0.007857697639731938 -0.002767529135156378 -5.266958946129399e-06
-0.18651973218289242 0.05347371239237525 0.03402838287002235 0.0075094520710970065 0.004981504450822405 2.007642132623215e-05
-0.1562866241547951 0.04451575681423812 0.029715851363634437 0.007393666823203068 0.01203651749823262 -6.290825783576638e-05
-0.1256162091303417 0.03541631771182099 0.024923930467079327 0.007176709138366263 0.01778365007565446 -0.0001400140272007797
-0.09389785781735076 0.026290002421744504 0.01988626849171145 0.007256208161864458 0.021707334273190187 -0.00022533786412305202
-0.05947777331296165 0.016247768576358578 0.015044764370382793 0.007954585196689408 0.022832285658192515 -0.0007278279094922412
-0.027001125840205833 0.0036761240313729683 0.011683776502206826 0.008200963780242002 0.017514031665368676 -0.0017971205562228416
-0.012650554650024983 -0.0036433219330600968 0.011062793901623534 0.005032369837612573 0.012353669354563973 -0.006760361090525783
0.050479413066870676 -0.0803927916987714 8.402566836762659e-19 -0.002645250053209758 0.009703404107661568 0.0008420098494622993
0.053085185823564404 0.0004906360450981446 -0.005389861339389004 -0.018201047042212884 0.01322933232752481 -0.0010095457858786253
0.0664403235999992 -0.021478658541341268 -0.010294367899065002 -0.007201736256427463 0.012450716192141272 0.0009751759214639038
0.0915641816982478 -0.027269061208727855 -0.014852618516570026 -0.008229369634639034 0.010407854304472539 0.001125251623028749
0.12053373977411708 -0.03706779126345355 -0.018370364208940785 -0.008623388440524434 0.0066925988073668445 0.0015528198820075486
0.14952764435302718 -0.04656349641263631 -0.02083963325108065 -0.009054507204612913 0.002039723165391174 0.0019950422854530473
0.1784480310980975 -0.05654904847194223 -0.022091036083542116 -0.00963604672584992 -0.0032191736865010384 0.002409281973469396
0.20873215814706786 -0.06726605618658378 -0.02200883599818773 -0.010742825576854699 -0.008243069876429664 0.0025956287515132596
0.24264806274582715 -0.0798171242017529 -0.020647277794745504 -0.012060820911831407 -0.011051257023923296 0.0021866359077526306
0.27675492056731194 -0.09447806577925137 -0.018587031945581898 -0.010131616035605405 -0.008577708620484736 0.0009470086915535613
0.2926895816128138 -0.10400430840046453 -0.01739529592135463 2.3441218137568143e-05 1.1079126034156442e-05 -0.00010399003202077004
0.2766765600010504 -0.09444710902515922 -0.018599279091917314 0.010179929645446251 0.008587124259535018 0.0009335635473546981
0.24247936785047527 -0.07974714535495968 -0.020680610958859112 0.012113563583759219 0.011021039838138905 0.0021599062348657333
0.20844706681988243 -0.06713938413399609 -0.02208276739678621 0.010803708327090641 0.008140153520706283 0.002556970947344616
0.1780007904394019 -0.056335274123651066 -0.022239388105932636 0.009709139952508848 0.0029920046741463567 0.0023626969640743473
0.14884570998083724 -0.046213294626899284 -0.021113610105296627 0.009148078004240917 -0.0024841700941580767 0.001954815838434641
0.11949609105943243 -0.03650722315628486 -0.018847558390278855 0.008732434305148733 -0.007531598665933008 0.001529328949054532
0.0900028509095655 -0.026392380123101186 -0.015615116387309816 0.008429188894693901 -0.011843068872224577 0.001222122142728604
0.063607991862503 -0.02003213375590274 -0.011565701927906786 0.0074869712259640585 -0.014665417746014518 0.0008958752119016599
0.04573551547920743 0.0028896715495853485 -0.006856437951776425 0.01778681974091094 -0.013349611591634359 0.0007210756210697354
0.03957621440731906 -0.07642167377009045 -0.006018352940268293 0.022845238267999526 -0.01180049359545776 -0.007047716859986325
0.02228773919308331 -0.06929269378945578 -0.0007944265568949789 -0.0045121802648415334 0.005137367983870129 -0.00251475658479872
0.02587166463704803 0.0009062060910987147 -0.0024711736787478063 -0.020656274200563294 0.006227752590814121 -0.002115544930674178
0.04112270838268647 -0.015656969026174423 -0.0064269229753920005 -0.01862647555901249 0.007795874291662608 0.00023404164857845715
0.0619970138512401 -0.02227592772652054 -0.009670759494181528 -0.02052912980665751 0.0065178450445752415 0.0005913912176205294
0.08093476472988513 -0.029828873713308272 -0.012185716457442408 -0.02170057803177939 0.004128777107204101 0.0008639722055788856
0.10025863171378042 -0.03749710373359166 -0.013867176932459924 -0.022472680977284054 0.0011038358283927052 0.0009985525781020866
0.11951595220377963 -0.04545598132142597 -0.014690292830368863 -0.023733756766388805 -0.0021983515442315117 0.0008704739762736392
0.1394428961807798 -0.05380340454820466 -0.014621900103626805 -0.026344003038480283 -0.005247203780420521 0.00015664670822352852
0.16106800901996735 -0.06355546317365554 -0.013738944920092202 -0.03015032694586499 -0.006906397500360259 -0.001659684249968253
0.18214748163210254 -0.0768593972865794 -0.012373523306673765 -0.026422639576710313 -0.005386301845938801 -0.0046983288899064115
0.19184139680608617 -0.08884792846851894 -0.011500669914837525 4.546445877268214e-05 -9.947323854183632e-05 -0.006867206086724314
0.18205135866339825 -0.0768345843092667 -0.012341942938426595 0.026517730967559047 0.00516852563674637 -0.004701521318969899
0.16086504009215197 -0.0634984114335905 -0.013682672198493123 0.03025861507449567 0.006631373744411275 -0.0016627513452597128
0.13911067186404508 -0.053697935723614434 -0.014556939386377383 0.026476925464419553 0.00487284453381995 0.00016229102735695314
0.11901813190598957 -0.04527431681590856 -0.014645828348375805 0.023907064547556284 0.0016720338799075805 0.0009030541729305589
0.09953824183751635 -0.03719383610397927 -0.013892330497672495 0.02270874453970818 -0.0018622853114652375 0.0010934458036171825
0.07991064464584045 -0.029334318741596553 -0.012352974655429304 0.022024765281231765 -0.005239180405000075 0.0010775951175003733
0.06048357122248181 -0.021496730893382145 -0.010100009292145443 0.021032475079409623 -0.008158072400856435 0.0010200403626604785
0.03867944524908178 -0.01432596978212046 -0.007226648307458961 0.01959820805502748 -0.009696258641447122 0.000901572880995894
0.023709652288884952 0.0021078978579658026 -0.0040682179427743055 0.02245497011711448 -0.006970980032188869 -0.000261407554429596
0.02102244251853458 -0.06631486217021085 -0.004554785158186348 0.01696851207977056 -0.004558533580596628 -0.009116466752278242
0.011462193268264333 -0.04862122700112399 0.00143027136295474 -0.02924406054752265 0.001802380593298648 -0.00866996404224889
0.011127680699228634 0.0006404315049217071 0.00011157773174414746 -0.03595377665515672 0.002267489218800513 -0.0031975943902002564
0.018170501795055846 -0.0053969641696840764 -0.0024869815956358346 -0.03351505493187333 0.003172395370517761 -0.0008148896891791676
0.03100649327545349 -0.01158517654734813 -0.0046008191824595205 -0.03621446183809708 0.0026189213035582334 -1.166742829237783e-05
0.0412076420470461 -0.015306078985510797 -0.006069124417252915 -0.03761845376894231 0.0012740902213723363 9.937813600148504e-05
0.050686635256258813 -0.0191205219023194 -0.006955452428673664 -0.03895259372877697 -0.000320035990266802 -0.0001454362997644194
0.06000300532459521 -0.023028006712335566 -0.0072966511144536735 -0.04095611181509177 -0.0019729544277418323 -0.0009479653791303796
0.06905544229174407 -0.026540818533969546 -0.007124037916717631 -0.04485552120711724 -0.003512196373852073 -0.0027363473553440416
0.07928030314891665 -0.03059035116063828 -0.006477642842362599 -0.05162966389983891 -0.004566304956335416 -0.00615154138361135
0.09272167239929238 -0.04251763479817978 -0.0053866199107236576 -0.04790680075001919 -0.0039212657853173755 -0.011278330891993944
0.10038331721630507 -0.06301470472623481 -0.00442336982675525 7.335938652994367e-05 -0.0002080110906985396 -0.014984065708858286
0.09260964408472455 -0.04250547402907897 -0.005311803530416303 0.04806045313853703 0.003481547676383367 -0.011271578063275759
0.07904717828237416 -0.030559932690939075 -0.006333190264558747 0.051805363637303946 0.004055872407898277 -0.006131121743296857
0.0686836021065377 -0.026479014447626837 -0.006922929611274037 0.045072543797617194 0.0028848103810121426 -0.0026852922433566943
0.059466339464156824 -0.02291247501164785 -0.007065112001026977 0.041241904727371714 0.001181582244021698 -0.0008319587718992731
0.049949378349773865 -0.018913351313004798 -0.006740894651344142 0.039346689763126 -0.000687980500253805 9.727607251781628e-05
0.04021734544434835 -0.01495004792311438 -0.0059517048661312764 0.03817792853620274 -0.002568999775825876 0.000574005188574538
0.029650889706007214 -0.010982913700046693 -0.004703259492761097 0.03706927209693266 -0.0042473228713360844 0.0008109598611707325
0.016769646685461333 -0.004544729728472766 -0.0029904268184778875 0.03505789120338687 -0.004799956881942275 0.0006600329730942409
0.010499980055944281 0.00045567792244908655 -0.0012157624984851904 0.038642597554906045 -0.002730526529073845 -0.0019341601624839905
0.011430084365146444 -0.046755008086545306 -0.001409936898683562 0.031996916693328874 -0.0012302695479583148 -0.01341031203077261
0.0034018459986726577 -0.030716852116093284 0.0044283348954262175 -0.03150752518413455 -0.0002146030550162725 -0.01111678798025068
-3.712878737207802e-05 -1.4580386993752527e-06 0.0029508783914328133 -0.042146356977162736 -0.0006897992359546177 -0.0037557548567371114
-0.002003848573956383 0.0022913039704574806 0.0014423089740956045 -0.041813116879232975 -0.00098749787172468 -0.0011244425522050467
0.0003631729874879955 -0.0002854625814768008 0.0004825593530500114 -0.04165850173680914 -0.0012673540481452157 -0.0002179881392501193
0.0011923730704649581 -0.00063378527748922 6.629257887089563e-05 -0.042893625201621106 -0.0016620627239897557 -6.734091191548807e-05
0.0009402462584757219 -0.0004341402223329529 1.2609357790693815e-05 -0.044409907659721845 -0.001953941836433404 -0.00042819517284399067
0.00032493892720534764 -0.00031619024257614254 0.00019984822189941052 -0.04671520867642971 -0.002110607261439775 -0.0014358896281898759
-0.0014007970284069804 0.0007860419521117673 0.0005554643425504289 -0.05004188589138712 -0.0023146640118473076 -0.0035004025158853844
-0.0023693537024686347 0.002899461254860841 0.0010631292740162165 -0.05736403503773198 -0.0029005896636401787 -0.007264139570798372
0.0054333365845427905 -0.007919376787315652 0.0019828914082681676 -0.05991212613664731 -0.0030802629146934723 -0.013107071811871178
0.012876228124613068 -0.045302309283417164 0.0032906654073904416 8.313467081688531e-05 -0.0003162373585118003 -0.017882619120873425
0.005305935313793541 -0.007920362047705892 0.002101025991675886 0.06008627230357875 0.0024196890990848706 -0.013097295409274696
-0.0026314329309017957 0.002902199189640347 0.0012958904635391147 0.0575632027986009 0.002157517244448148 -0.007236518145087219
-0.0018102318849236754 0.0008024813155284903 0.0008926857055535411 0.05028785607312445 0.0014405138871386805 -0.0034352487749291136
-0.00024656716857418694 -0.000269119353213861 0.0006180628006163737 0.047039228099844704 0.0010677351033904971 -0.0012941710997288948
0.0001937126869663056 -0.00032801032496522075 0.00046428506002136997 0.04485985406483372 0.0007203771340961371 -0.00013738097650494428
0.00025210955804824047 -0.00041956627605692907 0.0004650377387518088 0.043546114119680915 0.00023598393502591655 0.0004898085065644416
-0.0007088947054121748 0.00010643460791667436 0.0006867837855523649 0.04265179701519072 -0.00028475450345478173 0.0007855015092207656
-0.002789643044466043 0.0025876284334028616 0.0012274995690547703 0.04338217624275744 -0.00029717130894308736 0.0004449098142521721
-0.00016082945934999687 -0.00032098669709459943 0.0019457057940208992 0.04345550364066984 0.0004189981874438287 -0.002835758427634178
0.0036255894130011353 -0.029177515410130722 0.002228426504093938 0.032060317473133 0.0006655364900886315 -0.014199450973881578
-0.0037662475987049705 -0.016114836622575474 0.007522393539123196 -0.025138509965725916 -0.0019126368681207419 -0.010446622161653322
-0.010015620657375273 0.0008589575031139399 0.005905157705108249 -0.03692152569387102 -0.003414625591621523 -0.003207212727934005
-0.02072447909343952 0.008294893221092094 0.005352405002625415 -0.038948043007118335 -0.005003489546863801 -0.000958511764121721
-0.02953481263629824 0.01065089715111556 0.005543869335041786 -0.037055992079091264 -0.005122229225603755 -0.00010921175989637214
-0.038834781807540665 0.014168321507226427 0.006182541159973202 -0.037527097695001316 -0.004616215672609324 0.00010394149366097635
-0.04891951621894599 0.018263918041562223 0.006969277553049039 -0.03895295192308803 -0.0036087344755330163 -0.00014753832950749714
-0.05920333261690094 0.022536357960248554 0.007692484093968505 -0.04088671061546602 -0.0022761338678245133 -0.0009593465201729525
-0.07089920675868845 0.02721216564678383 0.008231618251942699 -0.04341016825911517 -0.0010602579245573792 -0.002624801295484411
-0.08385097029861541 0.03561692535245643 0.008560366262179682 -0.04690243825641619 -0.0009265305607123208 -0.0056472893438492735
-0.08273269887704679 0.031973984433731215 0.00906720963406923 -0.0622294791828918 -0.001941077177454883 -0.011005671599831119
-0.07524583930704278 -0.034607650966678956 0.01084896280295023 7.360866176655623e-05 -0.0004265911575474986 -0.016519654141442405
-0.08287631641205359 0.03195984000484544 0.009229474805995388 0.06238364259897709 0.0010551099603480242 -0.010999788910527313
-0.08414385701307982 0.03559193167796376 0.008883189750436627 0.047078629368372066 -5.461450137237479e-05 -0.005628654989138073
-0.07134948440637918 0.027183242989391804 0.008707932037296764 0.04362741748620584 -6.764557092349359e-05 -0.0025766778409566926
-0.05981438581835156 0.022514844882236623 0.008301922136274011 0.04117234173266946 0.0009720679975192968 -0.0008481465852504306
-0.049681454981211216 0.018268053875437576 0.007664827209724428 0.03935164495987734 0.0021379478913660654 8.949778355261327e-05
-0.039707091372217014 0.014234495616389495 0.006871109122386189 0.03811470736438868 0.0030487017069610383 0.0005785107059735578
-0.03036736795089593 0.010787621369951558 0.006062792684112853 0.037953233746965166 0.003642277183990567 0.0007698008190498073
-0.02119187481738376 0.008301349485532301 0.0054479090095958665 0.0400364259480763 0.004002779361585614 0.00031614334718872673
-0.009978823955164964 0.0006599244091194447 0.0052435259320084806 0.03740391278531457 0.0032779043907918133 -0.0025270142581928843
-0.0035111338202712165 -0.015030736735985605 0.005860766521856519 0.02497696879689622 0.0022791966830996847 -0.012438898921952503
-0.00984282741135989 -0.006678290687327246 0.010361384931029626 -0.013582958412605503 -0.004055882018430259 -0.006318051132598013
-0.01920593958667674 0.0028257627971337604 0.008788353005537089 -0.021125914827937006 -0.006533405187484419 -0.0013952236161770151
-0.03883940371653187 0.013652057979801084 0.009212414225457254 -0.022970651150000094 -0.00920680839681588 -0.00018767397664733878
-0.05899235206790904 0.021216713496846992 0.010550195095051411 -0.021543651534934524 -0.00899989486915335 0.0004961842016303686
-0.07876249625750134 0.028832814564158964 0.01223887530239763 -0.021600725463665548 -0.007510737176108054 0.0008529343966472666
-0.09862493633461733 0.036768540970781825 0.013845708885189607 -0.022467669074841608 -0.005096318004875479 0.0009934913875071776
-0.11876682950925921 0.04499062488801758 0.01507665368480255 -0.023675989081208 -0.0021153131119840143 0.0008631286640369723
-0.1385805354495753 0.0538558136205899 0.01572097120890343 -0.02471131536193882 0.00072254932364585 0.0002727948720594703
-0.16345009373018016 0.06262545158170274 0.015758323360797563 -0.027473096736063515 0.0022237123281029065 -0.0009883464664179617
-0.1747615683176487 0.08268721320604822 0.01526737496799067 -0.037321551503429834 0.0006100863166492641 -0.004379675909474662
-0.17089036348522527 -0.026985892200825527 0.017158651966517793 4.599210744228097e-05 -0.0005414893760363951 -0.010622324485488971
-0.17492361809303905 0.08266040337068331 0.01547528004936306 0.03741774706037008 -0.0017315661845694386 -0.004384722113009655
-0.16377862311307487 0.06257372835921866 0.01617454524735466 0.02758258770629101 -0.0034564111942202076 -0.000995135434123608
-0.13907999916481661 0.05378311123654131 0.01634223240890285 0.024845364450024682 -0.0021243672379188806 0.0002726241583365254
-0.11943152249321155 0.04490284604678307 0.015886928330944832 0.02385068249885884 0.0005181381681212547 0.0008869809146567473
-0.09941986441470164 0.036674589894102265 0.014800453746262656 0.022709037474467852 0.0033373418741013978 0.0010760233640918684
-0.0795883745131522 0.02874304503181887 0.01324055386782708 0.0219577962212827 0.0057283375657252765 0.0010626599343260578
-0.059650999446240305 0.021113698631312038 0.011417560207092739 0.022065713877957627 0.007495918657638914 0.000937328263622797
-0.03910630301407322 0.013464390496608844 0.009662639537266454 0.023502842721082964 0.008414893839016287 0.0004634396502687545
-0.019085256037035238 0.002689048290456161 0.008489466680207254 0.021243051141716544 0.006579888668935156 -0.0010506333102836365
-0.009579290748740693 -0.006059362670036687 0.009166632052766903 0.013342467000440192 0.0044936086243396985 -0.0074317213223637855
-0.013103035926027035 -0.0035107542395822963 0.01254077060971286 -0.005294745299917074 -0.007814807343354482 -0.0032428143911452014
-0.02658277512129419 0.003971607637896756 0.011486534913361905 -0.0084577193303059 -0.010768659603077735 -0.00014785181918024938
-0.05677868205070351 0.016255586286693515 0.013043180087351334 -0.008765091434645838 -0.01376238809727417 0.0003935988611488557
-0.08867681987122836 0.026448266378892332 0.015576168399878782 -0.00844105274519183 -0.012854467698760185 0.0009656720364668944
-0.11854888553151566 0.03608361736674527 0.018337004608104092 -0.008559299456249484 -0.010156539147384826 0.0014542486324201813
-0.14802984461382718 0.045951298163865166 0.020757132548465628 -0.009013888992544659 -0.006111817008785414 0.0019346491217396343
-0.17781601331399116 0.055969252624147245 0.022446535239797675 -0.009466265070222236 -0.0011925393293162887 0.002364616754986743
-0.20727216245603988 0.0676002640099492 0.02313691103501305 -0.01047151985634351 0.003665537123227771 0.0026828491952652846
-0.23366121014191252 0.07370287514393273 0.022649858310406508 -0.011077043908206831 0.006816128503537371 0.002536272692036741
-0.269827943566627 0.11138224477245497 0.020871845274102012 -0.024396317855017294 0.0065096100497425875 0.0015692397030668953
-0.29411214837678135 -0.02302324011923101 0.020072848551717593 2.3919654797244488e-05 -0.0006625912014504798 -0.0074419956571490625
-0.27001190911072204 0.1113492911010479 0.021127473130703015 0.024446624787069385 -0.007880730132015948 0.0015582928393617459
-0.23403295652231249 0.0736381796114474 0.023164143742539417 0.011135037361766504 -0.008320223887828897 0.0025152335742646237
-0.20783403639192044 0.06750624070737694 0.02391149531029267 0.010543479550305318 -0.0053725744069787465 0.0026541950471257914
-0.17855634676949134 0.055849354137794835 0.02347178911530521 0.00956046700424977 -0.0007499202298605057 0.002334219558167325
-0.14889461645842125 0.045809376432349266 0.021994537255035515 0.009142060484242895 0.003975965999680036 0.0019161264445050827
-0.11938705646091324 0.03591664779806542 0.019690505607349126 0.008741453736638833 0.008013962733692323 0.0014784593125306866
-0.08921395426066635 0.026229769474984583 0.016852416886905194 0.008694282059523854 0.011132717627514535 0.001085633347793368
-0.05681040089964999 0.015970992537566172 0.013924298647968633 0.009028807639874762 0.013087521263373945 0.0006022780476483946
-0.02628381118729343 0.0038310426899323255 0.011586063391539402 0.008556484077729607 0.011247418855819816 -4.8675470117011215e-05
-0.012745310015510386 -0.003110317085604154 0.011717930024717795 0.005221504728847188 0.00878775830048371 -0.003909763537524009
0.05354833167392104 -0.0777353793831822 1.0570971181733668e-18 0.006021212481491412 -1.4646981815347876e-13 -6.96445532537629e-14
0.05477336760320918 -0.0010065431307538439 -0.004657633971748244 -0.01785798497456654 -7.458068179960059e-14 2.839864302918438e-15
0.06616406987359018 -0.02189681114245258 -0.008740297550039158 -0.006941882821626713 -2.989257875517931e-14 -5.144756148878216e-15
0.09034715713665939 -0.027747692869731812 -0.012611043454759758 -0.008254794732401404 2.7366143747799276e-15 6.348843976586305e-15
0.11871557022554595 -0.03754807159915212 -0.015354051297070966 -0.008826432545523347 1.0769058306778559e-14 1.8772350752864486e-14
0.14731487336559884 -0.04724527609079603 -0.016745194505308553 -0.009488193630778928 -7.0690032468031724e-15 -9.01896287687498e-15
0.1762270167014675 -0.05763895089239629 -0.016674532867066046 -0.010333971309552931 -2.854811385118866e-14 1.8559508313878426e-15
0.20734405470606265 -0.06906668863252825 -0.015166407472162118 -0.011710896418060559 -1.6310615510127524e-14 3.76694796232549e-14
0.24322390734156246 -0.08263312444603943 -0.01253902289204797 -0.013168589552436888 7.381350034234985e-15 -7.161439952337034e-15
0.2798629505489142 -0.09834252884207981 -0.00971058162387072 -0.011002297258917753 2.971395983539411e-14 2.28526778663779e-15
0.297041525003361 -0.1084133923312296 -0.008355784907649428 2.903600432999868e-05 4.900841153255078e-14 1.0260658967441161e-14
0.2797229287111159 -0.09829133051584374 -0.009713188682487073 0.011063051516929313 7.768269263529887e-14 -8.130662484430451e-15
0.24292365909802838 -0.08251848534206561 -0.012555068024189554 0.013237922943942515 1.5576794276097802e-13 1.9874157658125724e-14
0.20683746211820175 -0.06886133115939747 -0.015219428963146384 0.011796623149413465 1.7047009691437826e-13 9.77829742090236e-15
0.1754280987896865 -0.05729538618471424 -0.016803627251903836 0.010446308880512414 1.4564829021529923e-13 -3.130010356802715e-15
0.1460767564130991 -0.04668345982999244 -0.017005920743439346 0.009642923695937299 4.0662446825455445e-14 2.5735300392473737e-15
0.11680035475947102 -0.03665678838294845 -0.01581763639345997 0.009033642291300948 -8.04346687996102e-14 1.6926022215757452e-15
0.08739818748038891 -0.02633289764309119 -0.013352251252859776 0.008589046568256879 -1.212731900578773e-13 1.5766332467012645e-15
0.06140344643582083 -0.019754005353889277 -0.009943862544343087 0.007561543874456405 -1.6100418524442328e-13 1.1808330463609906e-14
0.043982681880916516 0.0027663200633419116 -0.006694016061175489 0.017040926450271804 -1.4828835384552048e-13 -1.1547566288599986e-15
0.03791721179734427 -0.07326484922131768 -0.006829977158005558 0.02169238059033403 -1.3394748634917852e-13 -6.807418127460774e-14
0.022390041470977496 -0.06761613773541204 -0.0001684019699076805 0.0004727417739909803 -4.502819693713925e-14 -4.1165286240527066e-14
0.02645865190544011 0.00015354914059359715 -0.002390225336746624 -0.019618593894984774 -4.173727064914895e-14 -1.726446270016238e-14
0.041513302798832 -0.016102948191880757 -0.005515153549956534 -0.018167092336963345 -3.176640536988601e-14 -1.7396078067638543e-14
0.0614534864567648 -0.0225956661038221 -0.008333199327392023 -0.02061117897073315 -1.4683434725265912e-14 1.7296412782932813e-15
0.07996615105553166 -0.030135281120243093 -0.010364822426972597 -0.022146663502440028 -5.175175219596486e-15 1.3535769456240326e-14
0.09903352876272822 -0.03791726572167036 -0.011398891238554743 -0.02337298024236044 -9.043602218277661e-15 -9.003811151514496e-15
0.11830931158949554 -0.04615960330418624 -0.011419780670643403 -0.025219065883046635 -1.914014601108946e-14 -1.2786362138354768e-14
0.13876114494796074 -0.055008723197486876 -0.010500540057527616 -0.028509089384160604 -1.4820952218318542e-14 2.5569390355029142e-14
0.16153720451350015 -0.06548038721949037 -0.008877032051387448 -0.03276085182064512 -1.119491597947192e-14 -3.23379560976389e-14
0.18405055409494814 -0.07952485380246434 -0.007096828780820921 -0.028566391071424037 1.1102548730639733e-14 -3.003675053906557e-14
0.1944325928433987 -0.09203890180666136 -0.006198896669675836 5.6203830288872625e-05 3.487951403125921e-14 -2.2792382673060552e-14
0.18388555745282842 -0.07948098407407587 -0.007044729232632685 0.028685911285753905 3.461552266072025e-14 -4.4360714645912125e-14
0.16118902758922832 -0.06538153136418633 -0.008780612357927738 0.03290347110678645 7.588243930239068e-14 -2.206180659165835e-14
0.13819002939726657 -0.054830441176195906 -0.010377594575080282 0.028696474827598236 1.0427651174179167e-13 -4.636455065362699e-16
0.11744551911282534 -0.045859053410405845 -0.011301866284635104 0.02548303430943288 7.599585299062153e-14 1.196479438962672e-14
0.09776131773525011 -0.037423654273536194 -0.011335803531936965 0.023757552191415017 2.7217796091483053e-14 7.154986238905314e-14
0.07810359709216692 -0.029338165706804403 -0.010425630778643082 0.02271013469114585 -2.653103024817874e-14 2.2744210215284305e-14
0.058700791507531866 -0.021350502189142622 -0.008622709639416776 0.02147761387773036 -7.32096370017251e-14 2.7276825817577205e-14
0.03743775416652364 -0.014120905588321889 -0.006189186312290977 0.01984266571564165 -9.515963524434588e-14 1.5802666792318065e-14
0.02295245586870896 0.002030457019597493 -0.0042469362282599645 0.021786913931953474 -7.183952944580575e-14 -6.324679820667034e-15
0.020236073264873887 -0.06361759122962703 -0.005420433786024217 0.016074817536965703 -4.780737979971639e-14 -9.794817951505608e-14
0.011336063914235861 -0.04807761327950854 0.0016150666293065683 -0.02700748916500612 -1.5851239049645416e-14 -2.7616120111192966e-15
0.01142088724640569 0.0007091006517591235 9.319762482407388e-05 -0.033938216959770215 -1.8191924813890266e-14 -2.8356948679388733e-14
0.01865334363826181 -0.00577571629208993 -0.002043690803325502 -0.032920148274029414 -3.018443793319941e-14 -2.5526659236906057e-14
0.031058108360420323 -0.01178827745554852 -0.0039182021151952335 -0.036365896804098796 -2.116729331842483e-14 -2.1458976631229254e-14
0.04096528114289047 -0.015446332977862598 -0.005181569863872547 -0.038413704200539085 -2.1666772447915573e-14 9.091834815393163e-15
0.05030187894814809 -0.019266609421830703 -0.0057621985492418565 -0.040453996746423186 -2.713648685777727e-14 7.153159358244676e-15
0.05960332034546774 -0.02326292798438223 -0.005707250473102761 -0.04339975612539652 -1.552230566304047e-14 -2.891537378459097e-14
0.06886400105211395 -0.02693977921601708 -0.005110608815425459 -0.04841563647202934 -2.882926610923899e-14 -2.1453433647622422e-14
0.07959961368793673 -0.031236992006950216 -0.0040984178949644585 -0.05595273251003362 -3.129014584869923e-14 -5.2563950913263324e-14
0.09386717030732054 -0.043443050965821996 -0.002893996250693441 -0.05157685429424427 4.840542571805939e-15 -3.9963692077815693e-14
0.10199919907892693 -0.06452582742088454 -0.0021710737922213414 8.782047096756506e-05 4.05249022273485e-15 -5.815842057076137e-14
0.09368060152325905 -0.043414217998669645 -0.0027885812926856613 0.05176418458336075 4.700639833973841e-15 -5.979869648498753e-14
0.07921145936139429 -0.03117053954420245 -0.003893044574041414 0.0561781454256906 2.4621867112978486e-14 -4.330302121654389e-14
0.0682434455395442 -0.026816765422232252 -0.004819015146556256 0.04871547335065554 3.759440370500796e-14 6.390328262211031e-15
0.058700389963619426 -0.02305062169014867 -0.00535699796638279 0.04382849772092091 3.877607395873402e-14 1.6579158835725027e-14
0.049037735880573544 -0.018908818866932846 -0.005402016454179827 0.04109236369165689 2.3038136047816586e-14 1.1193030145318153e-13
0.03922027007415839 -0.014851424077220511 -0.004891272940205682 0.03937033405894843 -9.490572187181336e-16 6.678097202832134e-14
0.028662559232495673 -0.01083529198573937 -0.003820092438295177 0.037867795936713446 -2.689060759274945e-14 4.519187758386667e-14
0.01619161430374552 -0.004504354201626564 -0.0023775100784742174 0.035447154343663245 -4.5348856505915414e-14 2.477676402804288e-14
0.010190274021596231 0.0004203638327017259 -0.0014314049339065218 0.03767784543198226 -2.4733521090261417e-14 -2.2317014230534282e-14
0.011028277116716265 -0.04483579173005504 -0.0023312949149484007 0.03062209527668797 -1.4550535255841712e-14 -1.4529284893260996e-13
0.0033729441885578908 -0.03039238143264349 0.004437756469280676 -0.03021608789612581 -4.251222575127312e-15 3.859285395597933e-15
0.00024756006932128674 0.0001376947697109064 0.002820959185780347 -0.04057923981399229 -9.807157527481208e-15 -2.34535020527879e-14
-0.0014216629020195406 0.0020441980992566937 0.0014950428228790403 -0.04106781094193035 -2.918600928156819e-14 -3.1118052470739677e-14
0.0008728759107185871 -0.0005534728085634752 0.00053217561999282 -0.041841843050106346 -3.1411554469160975e-14 -2.1853836286184897e-14
0.001623685415174138 -0.0008211830231856547 3.582807030013415e-05 -0.04382411873764445 -3.353585380856845e-14 5.8234667088541414e-15
0.0013287260625398521 -0.0005818823872595404 -5.127357618063392e-05 -0.04614475211640398 -4.0480626121129626e-14 1.690227818818002e-14
0.0006549800251667502 -0.0004278162016695019 0.00015124322836569776 -0.049490982381427365 -3.1059010039151316e-14 -2.4572940795879183e-14
-0.0011649847090503505 0.0007417321480715684 0.0005416092360912556 -0.05401376061723906 -3.957852713845785e-14 -4.154993406627061e-14
-0.0021920744209918564 0.0029268177581937113 0.0011008066965793666 -0.062104640187300775 -4.151921472237254e-14 -8.402767414164569e-14
0.006013092000348221 -0.007891902089724649 0.0018999927419260988 -0.0641298643083066 -1.913468264857967e-14 -6.4172015683088e-14
0.013840730470448927 -0.04607329142815696 0.0025494754817244887 9.851338893989285e-05 -2.2068349074142943e-14 -4.5442761966579814e-14
0.00580608890617879 -0.007878618911450601 0.002058561628316927 0.06434012884686972 -2.2551852844611116e-14 -7.957253833710404e-14
-0.002617490009581279 0.002959815702678736 0.0014145333917564853 0.06235802946986663 -1.465287213540264e-14 -7.185474003995607e-14
-0.0018297535348813765 0.0008079460154855917 0.0010000808164582198 0.05435122304797011 -2.2647173273813905e-14 1.616218823271426e-14
-0.0002774517414309543 -0.0003056821536837806 0.0007296601248475189 0.049974963014458626 -3.869929211613131e-15 2.2402788174905042e-14
9.301708851906744e-05 -0.0003634657199171566 0.0005963629248101394 0.04687136373341219 1.2335378080314055e-14 1.250035028287945e-13
3.19515630599199e-05 -0.0004362616286972998 0.00066060625422289 0.044940089355285893 2.070892895643557e-14 7.72509768827423e-14
-0.0009840008271760911 8.019468388338681e-05 0.000978623504149755 0.04356518654534006 7.884692586877275e-15 7.229113141438148e-14
-0.002859333005472156 0.0024775853368145754 0.001463127899040557 0.0436271396040558 2.5352051865159056e-15 2.4016392715688062e-14
-0.0001526305605085857 -0.00035484726826542223 0.0016870681298281143 0.0425083229404619 1.0478899547400073e-14 -3.177121651702641e-14
0.0035203658347530294 -0.027853609506054942 0.0014617564772303666 0.0309501094643972 1.385054045196718e-14 -1.5417062158157302e-13
-0.0035778802767759037 -0.015920572746448206 0.007553905299775945 -0.024487386259101632 2.1300320583944946e-15 -6.131163285405528e-17
-0.00957703190793238 0.0009898125790264738 0.005619210970518527 -0.03580823022276008 -8.283240223285263e-15 -1.7615540916140343e-14
-0.019946884317845352 0.008099945280735205 0.005027124851218294 -0.038224441205978704 -2.9314671892190225e-14 -2.7099328369414172e-14
-0.028592609522344783 0.010358012139408469 0.004969465020852938 -0.03711115417004377 -3.7144546200787096e-14 -6.096455263358835e-15
-0.037749014951303304 0.013925402419065234 0.0052375388217757125 -0.03830029320287424 -4.05960733237086e-14 -2.909463306128429e-15
-0.04775831498383775 0.018112668485528883 0.005647970640415615 -0.040464017701447835 -5.916530049362382e-14 1.8554859797063894e-14
-0.05813174570595544 0.02254926941928842 0.006003052202934633 -0.04332107312385092 -5.2231599960474444e-14 -1.2377238448567363e-14
-0.07019632873520955 0.027484983334055028 0.006186277791724719 -0.046883645358429385 -4.860479694505232e-14 -3.380906936790301e-14
-0.08382092187849442 0.03628600334396219 0.006266445692291617 -0.050881126157597316 -4.770312571401891e-14 -1.043717656789081e-13
-0.08275455953431254 0.03294275233136155 0.006589473674268703 -0.06618912783932933 -4.203909686385939e-14 -4.844307463849895e-14
-0.07493924930651874 -0.03486504503260123 0.007100536508234265 8.847825501674951e-05 -4.31740977197741e-14 -5.479042783709809e-14
-0.08298311845603072 0.03294050275885052 0.006802244476355358 0.06637785176863463 -4.528411947182266e-14 -5.414454149789416e-14
-0.084286045304954 0.036285628238501046 0.006690752338794303 0.051108075544423835 -6.00627488418987e-14 -7.264731893309728e-14
-0.07090973860129952 0.027494740576990837 0.00681533416989525 0.04718482859544341 -5.685967596416467e-14 1.5645227084346014e-14
-0.05909980632546391 0.022582112577070837 0.006815244737466709 0.0437513017698364 -4.673049938002695e-14 3.1957401135096486e-14
-0.04897252042001099 0.018189996617460215 0.006591448557300257 0.04111308170615618 -2.2832874236071096e-15 1.1397864396007693e-13
-0.0391603086321959 0.014091781746700194 0.006207735336106826 0.039309096713150395 3.8314017486006796e-14 7.697259442242949e-14
-0.029977805612444116 0.010605299193353263 0.005775590578364081 0.038657058983236514 4.2284813075044864e-14 6.623485939404039e-14
-0.020791100706423093 0.00809655119514178 0.005330616335145197 0.04002744793540832 4.938471777782977e-14 2.4906332963918476e-14
-0.00964624317147475 0.0006511543384522066 0.0048958532939443414 0.03654766241954155 4.298198387107325e-14 -2.4921633767077678e-14
-0.003308507354709951 -0.014223699738690749 0.005341886523460087 0.024238853113746676 3.478210016012728e-14 -1.365186718012279e-13
-0.009363842653770013 -0.006462860592463689 0.01030565324668612 -0.01340085913666615 2.128241430743999e-15 -3.22993313952441e-15
-0.018502981424413027 0.003055275553902568 0.008212651954319982 -0.020467162777231044 -7.437017039528537e-15 -1.0315797424175627e-14
-0.037759167698834334 0.013573942582365063 0.008474201592177334 -0.022463239991702594 -2.832269466700177e-14 -1.6425168245914196e-14
-0.057565420150692624 0.021048076809969975 0.009344445772443836 -0.02150673888010758 -4.7498388956821597e-14 -1.3527936095544119e-14
-0.07697818657201523 0.028743649097963585 0.01037359016328925 -0.02203287064073576 -5.901780325838664e-14 1.0696670871106206e-14
-0.09662527304471648 0.03688269417649517 0.011250522012942786 -0.023375127739287155 -5.875165449493102e-14 -9.494981840704741e-15
-0.11687095538875378 0.04546605006949495 0.011694356714339015 -0.025157757913283913 -4.8337309022507095e-14 4.313166306318256e-15
-0.1372820406134113 0.0549029898792165 0.011559241008562267 -0.02677540721691377 -6.04977256713022e-14 3.589197081904638e-15
-0.1635587651670512 0.06439963337713042 0.010969593611206007 -0.029763858708308985 -5.4428178950611736e-14 -4.7115455525763295e-14
-0.17563846627137011 0.08552199842136342 0.010540175200420785 -0.039613803440396014 -5.459265496127663e-14 -8.342244538390997e-15
-0.17159331220880647 -0.026819247223607387 0.010627451307703402 5.735263917823466e-05 -5.787062249220688e-14 -3.009760138599632e-14
-0.17589196091571654 0.0855047425080076 0.010809413421993002 0.03973575789346475 -7.638961213802045e-14 -1.2959671855626576e-14
-0.16407118532887188 0.06436701680071401 0.011509558605242068 0.0299092333130347 -1.0856968807055473e-13 -2.4965665927807745e-14
-0.1380577180477972 0.054858336328364135 0.012368015863871169 0.0269657489548142 -1.0334100620319666e-13 2.2375608581693546e-14
-0.11789827810506956 0.045412740395390935 0.01275583011217834 0.025425620249052486 -8.748888496873668e-14 1.947027202008414e-14
-0.09784902860795461 0.03682382958928231 0.012515633568295161 0.023773201749708865 -2.831658925351796e-14 6.513128388398529e-14
-0.07824801312640592 0.028676686767055697 0.01173041722742249 0.022649075153838627 4.609281570788423e-14 4.476584034018849e-14
-0.05858226944555562 0.020920350117372154 0.01057378540592335 0.02240780241278181 8.317872351179881e-14 3.06840869986752e-14
-0.03818448072141494 0.013256926936864592 0.009199415032785997 0.02335357010811492 1.0736011824561201e-13 1.3329754102809135e-14
-0.018353203671638712 0.002786099285206262 0.007930456758093231 0.02064740971569028 8.57516606279831e-14 -1.0329878499890782e-14
-0.009008193098315905 -0.005538811360311781 0.008718154934032395 0.013048225385511543 6.074082751529597e-14 -8.679363651398209e-14
-0.012341585409006752 -0.00321100808594274 0.011847677529831435 -0.005317652150750492 2.6195408689422273e-15 -5.147629284635302e-15
-0.025584153779560536 0.004301755597596805 0.01034239829068 -0.008084046648641083 -7.182297291630224e-15 -3.4718321967330823e-15
-0.055295319564122106 0.016278738144644058 0.011695831883074166 -0.008477814415980781 -2.4301144863764224e-14 -1.4155939875165613e-14
-0.08663541623040648 0.02640609929718072 0.013533803373680656 -0.008378444978296347 -6.099472055903776e-14 -1.1777146098623792e-15
-0.11593476267133278 0.03616430262581656 0.015291923206554831 -0.008736980335424773 -8.945822598319109e-14 5.245424320593495e-15
-0.1450401955844758 0.046320250098530226 0.01654042918632269 -0.009431424993864141 -5.610481290706584e-14 -2.392639038284461e-14
-0.1748924918387586 0.05682352914986236 0.016911294482557657 -0.010149091283082778 -3.238669098529212e-14 3.323139289787558e-14
-0.2052405677799541 0.06924827805605485 0.016203671781920764 -0.01137085664408177 -4.960975749125629e-14 5.210675640965334e-15
-0.23363828379502233 0.07622722960368314 0.014586657972270548 -0.011979676862674708 -5.45240393633184e-14 2.976823431852238e-14
-0.2719208454139998 0.11555361116934963 0.012903398817297983 -0.025674830710524163 -8.406667153853728e-14 -1.0137290312739466e-15
-0.29704970429245503 -0.02266774367865033 0.012115850439123695 3.313732764740067e-05 -7.960507795480576e-14 -2.19319462764489e-14
-0.2722049655824768 0.11552904004044434 0.013232657341852645 0.025745312919915903 -9.383363227047359e-14 3.696695727306576e-15
-0.23421071292318948 0.0761789102318812 0.0152503475914484 0.012063485844870053 -1.6293116487063608e-13 1.9443973341137788e-14
-0.2061015217148707 0.06917706318518795 0.01720695980390962 0.011479534214612192 -1.875088490510199e-13 1.6662290037300354e-14
-0.1760186893798899 0.05672841407347252 0.01824770809672567 0.010298527399562352 -1.5623512886523382e-13 3.3993153344263893e-14
-0.14634042567579 0.04619452352059565 0.01817092801537891 0.009644055969331013 -7.084277283721241e-14 5.571010232990892e-15
-0.1171654070323109 0.03598059190709709 0.017109350335263403 0.009046454116790312 6.19467855917516e-14 1.3753375608521745e-14
-0.08736620609557699 0.026092968452089263 0.015304776841026328 0.008804913502013186 1.424036669833706e-13 4.053777712814677e-15
-0.05523274791086943 0.015796824737573417 0.012994640617922746 0.008908266036284928 1.8450085209620326e-13 6.0269443515753585e-15
-0.025057828367963084 0.004014061667426899 0.010577794591618778 0.008237531252622665 1.473898314594685e-13 3.279169470682408e-15
-0.011766428225241037 -0.00263619203317815 0.01072592542667792 0.005237360447781609 1.0528643928919834e-13 -5.3407365335766954e-14
0.05047941306713466 -0.08039279169880684 8.538092108323347e-19 -0.002645250052755098 -0.009703404107956124 -0.00084200984961451
0.053085185823768276 0.0004906360450098447 -0.00538986133940183 -0.0182010470422322 -0.013229332327655236 0.0010095457858727637
0.06644032360012675 -0.021478658541376327 -0.010294367899082077 -0.007201736256440472 -0.012450716192184316 -0.0009751759214867663
0.09156418169832489 -0.027269061208708607 -0.014852618516588494 -0.008229369634602888 -0.010407854304487943 -0.0011252516230355809
0.12053373977414007 -0.0370677912635389 -0.018370364208957792 -0.00862338844050055 -0.006692598807358553 -0.0015528198820330087
0.14952764435304391 -0.04656349641263008 -0.020839633251083935 -0.009054507204615665 -0.0020397231653371288 -0.001995042285446325
0.1784480310981353 -0.05654904847195077 -0.022091036083513867 -0.009636046725876002 0.0032191736866372745 -0.0024092819734734235
0.2087321581471082 -0.06726605618661642 -0.022008835998127176 -0.010742825576899094 0.008243069876513753 -0.002595628751527244
0.24264806274588768 -0.0798171242017244 -0.02064727779467361 -0.012060820911810984 0.011051257023876259 -0.0021866359077579605
0.2767549205673986 -0.0944780657795139 -0.018587031945516915 -0.010131616035615031 0.008577708620471542 -0.0009470086915677206
0.2926895816129093 -0.1040043084005689 -0.017395295921286143 2.3441218104639297e-05 -1.1079125935220307e-05 0.0001039900320434917
0.27667656000117596 -0.09444710902530248 -0.018599279091857133 0.01017992964546633 -0.008587124259373252 -0.0009335635473843469
0.2424793678505681 -0.0797471453553497 -0.020680610958800163 0.012113563583814668 -0.011021039837918427 -0.0021599062348486315
0.20844706681989805 -0.0671393841341231 -0.022082767396776157 0.010803708327173799 -0.008140153520495222 -0.0025569709473557867
0.1780007904392906 -0.056335274123586514 -0.022239388105943638 0.009709139952521395 -0.0029920046740078365 -0.0023626969640280137
0.14884570998061333 -0.04621329462663996 -0.021113610105345494 0.009148078004235952 0.0024841700942011334 -0.0019548158384275157
0.11949609105927027 -0.036507223156203264 -0.018847558390298474 0.0087324343051267 0.0075315986658544 -0.0015293289490006263
0.0900028509094716 -0.0263923801229829 -0.015615116387319343 0.008429188894668087 0.011843068871998824 -0.0012221221426959054
0.06360799186241049 -0.02003213375588859 -0.011565701927909382 0.007486971225935054 0.014665417745690764 -0.0008958752118993448
0.04573551547911725 0.002889671549593131 -0.006856437951773088 0.017786819740860663 0.013349611591345617 -0.0007210756210529109
0.039576214407228305 -0.07642167376994749 -0.006018352940257523 0.022845238268005 0.011800493595193069 0.00704771685982712
0.022287739193140487 -0.06929269378948806 -0.0007944265568986601 -0.004512180264589299 -0.005137367983960621 0.0025147565847015337
0.025871664637126198 0.0009062060910517389 -0.002471173678759233 -0.020656274200544226 -0.006227752590900048 0.002115544930642912
0.04112270838277632 -0.015656969026163505 -0.006426922975411273 -0.018626475558993678 -0.007795874291724688 -0.00023404164859685403
0.06199701385131065 -0.022275927726562516 -0.009670759494200369 -0.02052912980660051 -0.006517845044606876 -0.000591391217633445
0.08093476472992896 -0.02982887371334041 -0.012185716457456466 -0.021700578031774984 -0.004128777107216078 -0.0008639722056050231
0.10025863171380477 -0.0374971037335275 -0.01386717693246433 -0.02247268097731291 -0.001103835828374857 -0.000998552578105773
0.11951595220381574 -0.045455981321451885 -0.014690292830358631 -0.023733756766433006 0.0021983515442828977 -0.0008704739762840579
0.13944289618081349 -0.05380340454825573 -0.014621900103597449 -0.026344003038568316 0.0052472037804405704 -0.0001566467082043111
0.1610680090200047 -0.06355546317363667 -0.013738944920053101 -0.03015032694590694 0.0069063975003492055 0.001659684249995622
0.18214748163218306 -0.0768593972866802 -0.012373523306633667 -0.026422639576697538 0.005386301845941388 0.0046983288898484205
0.19184139680616116 -0.08884792846859334 -0.011500669914807485 4.54644587144411e-05 9.947323859207803e-05 0.00686720608671745
0.1820513586634586 -0.07683458430924203 -0.012341942938391099 0.026517730967542442 -0.00516852563663507 0.004701521318951343
0.16086504009223437 -0.06349841143390209 -0.013682672198455198 0.030258615074643728 -0.006631373744290967 0.0016627513452763664
0.13911067186407292 -0.053697935723743546 -0.014556939386361841 0.026476925464573014 -0.004872844533701765 -0.00016229102733444445
0.11901813190591683 -0.045274316815960565 -0.014645828348373935 0.02390706454772632 -0.0016720338798337931 -0.000903054172873326
0.0995382418374152 -0.03719383610398189 -0.013892330497683836 0.022708744539745147 0.0018622853114755862 -0.0010934458035796973
0.07991064464574074 -0.029334318741475844 -0.012352974655438623 0.02202476528110039 0.005239180404947313 -0.001077595117426124
0.06048357122239987 -0.021496730893345875 -0.010100009292152868 0.021032475079382225 0.008158072400702758 -0.0010200403626067713
0.03867944524903567 -0.014325969782101669 -0.007226648307460329 0.01959820805493683 0.009696258641240253 -0.000901572880966939
0.023709652288847975 0.002107897857959901 -0.004068217942772709 0.022454970117039383 0.006970980032049868 0.00026140755442501335
0.021022442518496293 -0.06631486217007482 -0.004554785158177765 0.01696851207973192 0.004558533580499908 0.00911646675207441
0.011462193268297227 -0.04862122700116118 0.001430271362949581 -0.029244060547493286 -0.001802380593328024 0.008669964042233962
0.01112768069925993 0.0006404315049405061 0.0001115777317340839 -0.03595377665512669 -0.002267489218850383 0.003197594390144758
0.018170501795104765 -0.005396964169639207 -0.0024869815956542717 -0.033515054931856435 -0.0031723953705837405 0.0008148896891597521
0.031006493275506822 -0.011585176547394278 -0.004600819182476158 -0.036214461838028636 -0.002618921303609944 1.1667428284915367e-05
0.04120764204707971 -0.015306078985495152 -0.006069124417268471 -0.03761845376890501 -0.00127409022140727 -9.937813602416239e-05
0.05068663525629356 -0.01912052190227302 -0.0069554524286816145 -0.03895259372886556 0.0003200359902497191 0.00014543629973541518
0.06000300532462598 -0.023028006712358325 -0.007296651114450738 -0.040956111815208515 0.001972954427721774 0.0009479653791331536
0.0690554422917695 -0.026540818533948813 -0.0071240379167110904 -0.044855521207236376 0.0035121963738332694 0.0027363473554165045
0.07928030314897301 -0.030590351160792274 -0.006477642842337666 -0.051629663899860866 0.004566304956319097 0.006151541383649755
0.09272167239935236 -0.04251763479821456 -0.005386619910700175 -0.04790680075002205 0.0039212657852994645 0.011278330891915206
0.10038331721634806 -0.06301470472610853 -0.004423369826751734 7.335938648022516e-05 0.00020801109072648787 0.014984065708811374
0.09260964408477668 -0.042505474029091134 -0.005311803530397441 0.048060453138490514 -0.003481547676321252 0.011271578063214075
0.07904717828242575 -0.03055993269108284 -0.006333190264538203 0.05180536363747555 -0.0040558724078571294 0.006131121743300824
0.06868360210657211 -0.02647901444776151 -0.006922929611254407 0.04507254379777419 -0.0028848103809797397 0.002685292243370346
0.05946633946415054 -0.022912475011835586 -0.007065112001014879 0.04124190472754813 -0.0011815822440009892 0.0008319587719791859
0.04994937834973114 -0.018913351313146084 -0.006740894651338728 0.03934668976323045 0.0006879805002535795 -9.727607244480552e-05
0.04021734544429808 -0.014950047923076915 -0.005951704866135535 0.038177928536047706 0.002568999775794807 -0.0005740051884718972
0.02965088970595412 -0.010982913699972457 -0.0047032594927652735 0.03706927209685587 0.0042473228712488365 -0.0008109598610807874
0.016769646685435364 -0.004544729728506551 -0.0029904268184776793 0.03505789120329089 0.004799956881849993 -0.000660032973052219
0.010499980055934808 0.00045567792243085304 -0.0012157624984841765 0.03864259755478467 0.0027305265290279287 0.0019341601624563102
0.011430084365122226 -0.0467550080864403 -0.0014099368986781916 0.03199691669325582 0.001230269547930117 0.013410312030479401
0.0034018459986869124 -0.030716852116140458 0.004428334895424457 -0.03150752518413896 0.00021460305500770808 0.011116787980259123
-3.7128787361487506e-05 -1.4580386453114402e-06 0.002950878391423677 -0.04214635697718598 0.0006897992359238366 0.003755754856691435
-0.002003848573934172 0.002291303970502006 0.001442308974082133 -0.0418131168792275 0.000987497871667301 0.0011244425521721036
0.00036317298752127627 -0.00028546258142888805 0.0004825593530370728 -0.04165850173674949 0.0012673540480748614 0.0002179881392446145
0.0011923730704924303 -0.0006337852775344666 6.629257885773722e-05 -0.04289362520157686 0.001662062723918748 6.734091189614203e-05
0.0009402462585096645 -0.0004341402222740663 1.2609357780979154e-05 -0.04440990765983811 0.0019539418363750316 0.00042819517279788844
0.0003249389272353835 -0.0003161902426016579 0.00019984822189733826 -0.04671520867654866 0.002110607261393621 0.0014358896281948083
-0.0014007970283771974 0.0007860419521102853 0.0005554643425445351 -0.0500418858915369 0.002314664011784957 0.0035004025159517307
-0.002369353702420887 0.0028994612546634417 0.001063129274026118 -0.057364035037778045 0.0029005896635933524 0.007264139570853688
0.005433336584590544 -0.007919376787394898 0.0019828914082775993 -0.05991212613656849 0.0030802629146547667 0.013107071811807426
0.012876228124642673 -0.04530230928335979 0.0032906654073815763 8.313467076930075e-05 0.00031623735849895234 0.01788261912074369
0.005305935313828177 -0.00792036204784702 0.002101025991684271 0.0600862723035079 -0.0024196890990746517 0.013097295409219705
-0.0026314329308692506 0.002902199189636609 0.0012958904635444108 0.057563202798773826 -0.0021575172444795168 0.007236518145091768
-0.001810231884901845 0.0008024813154134747 0.0008926857055703598 0.05028785607331052 -0.0014405138871772078 0.0034352487749526885
-0.0002465671685369147 -0.00026911935334687797 0.000618062800630569 0.047039228100038626 -0.0010677351034177312 0.0012941710997973455
0.00019371268700397957 -0.0003280103250321499 0.00046428506002911746 0.044859854064925604 -0.0007203771341105486 0.0001373809766058416
0.00025210955805059383 -0.0004195662760581295 0.00046503773875146686 0.04354611411954734 -0.00023598393504248432 -0.0004898085064529787
-0.0007088947054294503 0.00010643460804074046 0.0006867837855466885 0.04265179701507453 0.0002847545034407471 -0.0007855015091288104
-0.0027896430444649366 0.0025876284333561095 0.0012274995690543546 0.04338217624263356 0.00029717130895166795 -0.0004449098142035404
-0.0001608294593416764 -0.00032098669711710546 0.0019457057940205677 0.04345550364056465 -0.00041899818742198 0.0028357584275924093
0.003625589413007224 -0.029177515410065444 0.0022284265040967664 0.03206031747307731 -0.0006655364900739251 0.014199450973574085
-0.003766247598714211 -0.01611483662261275 0.0075223935391266344 -0.025138509965734024 0.0019126368681191453 0.0104466221616716
-0.010015620657384183 0.0008589575031715184 0.005905157705102782 -0.03692152569390258 0.003414625591596138 0.0032072127279033132
-0.0207244790934309 0.00829489322114241 0.005352405002617283 -0.03894804300712355 0.005003489546807063 0.0009585117640898024
-0.029534812636273163 0.010650897151095864 0.005543869335033992 -0.03705599207907255 0.005122229225524802 0.00010921175988376524
-0.038834781807531575 0.014168321507264414 0.006182541159959863 -0.03752709769493482 0.004616215672505185 -0.00010394149367988183
-0.04891951621892155 0.018263918041654267 0.006969277553032146 -0.03895295192315576 0.0036087344754431264 0.00014753832946760138
-0.05920333261685114 0.022536357960193234 0.007692484093956224 -0.040886710615609966 0.0022761338677355163 0.0009593465201721643
-0.07089920675864214 0.027212165646795624 0.008231618251929968 -0.04341016825921347 0.0010602579244708683 0.002624801295541431
-0.08385097029858211 0.03561692535241501 0.008560366262175522 -0.046902438256425934 0.0009265305606514601 0.0056472893439399605
-0.0827326988770222 0.03197398443374508 0.009067209634064871 -0.062229479182821845 0.0019410771773707676 0.011005671599763496
-0.07524583930700617 -0.03460765096686179 0.010848962802936924 7.360866174088433e-05 0.0004265911574778955 0.016519654141317265
-0.08287631641204384 0.03195984000485386 0.009229474805990422 0.062383642598964985 -0.00105510996039108 0.010999788910475945
-0.08414385701307314 0.035591931677875006 0.00888318975043628 0.04707862936854032 5.461450126976774e-05 0.005628654989169981
-0.07134948440634518 0.027183242989310474 0.008707932037302876 0.04362741748639732 6.764557081919585e-05 0.002576677840966086
-0.05981438581828889 0.022514844882129008 0.008301922136280058 0.04117234173288228 -0.0009720679975863991 0.0008481465853112792
-0.04968145498112258 0.018268053875255125 0.007664827209737228 0.03935164495997172 -0.0021379478913968017 -8.949778347405233e-05
-0.0397070913721642 0.014234495616445372 0.0068711091223875595 0.038114707364247456 -0.003048701706955681 -0.0005785107058718558
-0.030367367950867113 0.010787621369965904 0.006062792684107874 0.03795323374683982 -0.0036422771839328665 -0.0007698008189734639
-0.02119187481735557 0.00830134948551874 0.00544790900959218 0.04003642594794237 -0.004002779361478924 -0.0003161433471508496
-0.009978823955146286 0.0006599244090813754 0.0052435259320047865 0.037403912785232855 -0.0032779043907087296 0.002527014258162442
-0.0035111338202548368 -0.015030736735948454 0.005860766521856961 0.024976968796848846 -0.0022791966830471725 0.012438898921678045
-0.009842827411369949 -0.006678290687351258 0.010361384931038971 -0.013582958412620931 0.004055882018432114 0.006318051132614421
-0.019205939586691485 0.0028257627971809015 0.008788353005537455 -0.02112591482797608 0.006533405187466723 0.0013952236161595217
-0.038839403716541 0.013652057979808212 0.009212414225454449 -0.022970651150026306 0.009206808396751594 0.0001876739766295611
-0.058992352067894195 0.021216713496828975 0.010550195095045832 -0.0215436515349041 0.008999894869066133 -0.0004961842016361529
-0.07876249625747883 0.028832814564232156 0.012238875302390147 -0.021600725463603015 0.007510737175990034 -0.000852934396657731
-0.09862493633458466 0.03676854097077263 0.013845708885176129 -0.02246766907490775 0.005096318004745119 -0.0009934913875091038
-0.11876682950920267 0.04499062488810117 0.015076653684776103 -0.02367598908125991 0.0021153131118330564 -0.0008631286640376001
-0.13858053544952945 0.05385581362064206 0.015720971208868974 -0.02471131536200111 -0.0007225493237678606 -0.0002727948720304736
-0.1634500937301734 0.06262545158176337 0.015758323360774852 -0.027473096736079797 -0.00222371232816784 0.0009883464664620202
-0.1747615683176324 0.08268721320604273 0.015267374967970098 -0.03732155150340123 -0.0006100863167672452 0.004379675909430754
-0.1708903634852033 -0.026985892201004454 0.01715865196649226 4.5992107425617483e-05 0.0005414893759231894 0.010622324485397835
-0.1749236180930567 0.082660403370746 0.015475280049339705 0.03741774706031944 0.0017315661844565081 0.004384722112981034
-0.1637786231130809 0.0625737283590872 0.016174545247335307 0.027582587706421916 0.0034564111940410687 0.0009951354341468626
-0.13907999916478792 0.05378311123640141 0.016342232408893178 0.024845364450117452 0.0021243672377460406 -0.0002726241583369316
-0.1194315224931272 0.044902846046766656 0.015886928330940554 0.023850682498982912 -0.0005181381682499449 -0.000886980914607878
-0.0994198644145596 0.03667458989385352 0.014800453746274983 0.02270903747454303 -0.003337341874153371 -0.0010760233640357442
-0.07958837451303209 0.02874304503179651 0.013240553867832329 0.02195779622119715 -0.005728337565683515 -0.0010626599342597643
-0.05965099944615505 0.02111369863128343 0.011417560207089962 0.022065713877891663 -0.007495918657501283 -0.000937328263568248
-0.03910630301401642 0.01346439049659166 0.00966263953726077 0.02350284272098663 -0.008414893838816878 -0.0004634396502430891
-0.019085256037011375 0.002689048290448233 0.008489466680197249 0.021243051141674258 -0.006579888668776092 0.0010506333102641367
-0.009579290748724038 -0.006059362670025504 0.009166632052763498 0.013342467000424312 -0.004493608624231538 0.007431721322189439
-0.013103035926046403 -0.003510754239604838 0.01254077060972701 -0.005294745299912506 0.007814807343364602 0.0032428143911527336
-0.026582775121305375 0.003971607637940752 0.011486534913368878 -0.008457719330364146 0.010768659603075815 0.00014785181917098783
-0.0567786820507239 0.016255586286663373 0.013043180087352387 -0.008765091434649534 0.013762388097212358 -0.0003935988611542202
-0.08867681987124464 0.02644826637898057 0.015576168399876305 -0.008441052745161976 0.012854467698645127 -0.0009656720364727367
-0.11854888553148425 0.03608361736671496 0.018337004608105504 -0.008559299456251352 0.010156539147272279 -0.0014542486324178247
-0.14802984461375918 0.04595129816380977 0.020757132548459935 -0.009013888992569137 0.006111817008606716 -0.0019346491216972361
-0.1778160133139258 0.055969252624376215 0.022446535239751486 -0.009466265070236955 0.00119253932908848 -0.002364616755012892
-0.207272162456003 0.06760026400991608 0.023136911034944516 -0.01047151985643343 -0.0036655371233806065 -0.0026828491952296998
-0.23366121014193247 0.07370287514405942 0.022649858310337074 -0.011077043908219918 -0.006816128503612561 -0.002536272692025397
-0.2698279435666364 0.11138224477238827 0.02087184527405167 -0.024396317855057588 -0.006509610049814777 -0.0015692397030865393
-0.2941121483767626 -0.02302324011940562 0.020072848551681382 2.391965477090702e-05 0.0006625912012895651 0.007441995657053524
-0.2700119091107683 0.11134929110109096 0.02112747313065522 0.024446624787067713 0.00788073013174801 -0.0015582928394056357
-0.23403295652237874 0.07363817961140894 0.023164143742475413 0.011135037361810936 0.008320223887564804 -0.0025152335742898036
-0.2078340363918975 0.0675062407071679 0.023911495310257627 0.01054347955034126 0.005372574406747892 -0.0026541950471407833
-0.17855634676935972 0.05584935413791822 0.023471789115287 0.009560467004334803 0.0007499202296599437 -0.002334219558150623
-0.14889461645820493 0.045809376432100944 0.02199453725506026 0.009142060484247306 -0.003975965999757636 -0.0019161264444559874
-0.1193870564606893 0.03591664779799151 0.019690505607368555 0.008741453736615468 -0.00801396273361347 -0.0014784593125059745
-0.08921395426052081 0.02622976947495262 0.01685241688691406 0.00869428205952863 -0.011132717627289491 -0.0010856333477588611
-0.056810400899583266 0.01597099253755642 0.013924298647961946 0.009028807639817714 -0.013087521263071477 -0.0006022780476398499
-0.0262838111872763 0.0038310426899644664 0.011586063391522489 0.008556484077701723 -0.011247418855545605 4.8675470102210175e-05
-0.012745310015506623 -0.003110317085606417 0.011717930024707408 0.005221504728813586 -0.00878775830026005 0.003909763537418731
0.03636143287017872 -0.09296447926839829 -3.706616177184818e-18 -0.04209571966946421 -0.02245775558098744 -0.007944265569056235
0.04609437875475299 0.004653090152817843 -0.00576874152108467 -0.018818491298574325 -0.024232267054755827 0.0024899821333412876
0.06742725368267793 -0.020643437077302724 -0.013065590932945282 -0.00672503117644455 -0.022729158450450614 -0.0006221116015670553
0.09405491377073448 -0.02583791593642937 -0.01858723456098363 -0.0073098951766327296 -0.020196938236218757 0.00042550692966134755
0.12466204096458865 -0.03551018715993522 -0.0239728536777977 -0.007259844827922123 -0.015415041002553387 4.366743051005572e-05
0.15556653028946668 -0.044540114581347094 -0.028864039926390347 -0.007445352249923579 -0.009220173003173866 -2.9705306837280886e-05
0.18580924277604474 -0.053695320948461085 -0.03308337415186069 -0.0076176676178316945 -0.0014335793841017451 -0.00013939654826037538
0.21524718228564038 -0.06277846388600097 -0.03632145413920681 -0.008023183163150371 0.007166996266407931 -1.104614503708945e-05
0.2438174949823263 -0.07208550576274024 -0.03821112593404184 -0.008430172754966488 0.013858954462132967 0.000904608995497478
0.2686619744271041 -0.08161614520462758 -0.03863365846729187 -0.006787923407114456 0.012663312849352293 0.003474869485389324
0.27947269153168797 -0.08755459777143595 -0.038413535896213914 2.284939176910156e-05 -0.00011988644039125512 0.006166713051201646
0.2687291590464404 -0.0816326941047608 -0.038668115746679776 0.006833265765891578 -0.012889601025838322 0.0034906875809266537
0.24396178414251063 -0.0721197124813836 -0.038287170095056285 0.008473840584685819 -0.014042775592688612 0.0009356859149423674
0.21549224783220616 -0.06283315797068229 -0.03645506347253476 0.00806170522770808 -0.0072724289421332 3.227552848458724e-05
0.18620240561258863 -0.053776642047782756 -0.03330276876106112 0.007644614477892994 0.0014619476287734844 -8.785764389853025e-05
0.15619502450217512 -0.04466150613796955 -0.029218095386489198 0.007446829076212513 0.009466497023640772 2.722447302706219e-06
0.125690892598176 -0.03569825565786434 -0.024534602015524376 0.007231229841084077 0.0160675631826561 8.923706558101466e-05
0.095739985691307 -0.026138969534156516 -0.019506616273396758 0.007169805948184177 0.021321172681663378 0.00016503115265612383
0.07053141838316128 -0.021235982088806282 -0.01436730007413804 0.0064650868437795056 0.025665471560990506 0.0001228448679043249
0.053053493948613285 0.0033798652822587894 -0.008150307788164357 0.018660695590908584 0.02168534663441211 -0.0029373167087392476
0.046157898879177935 -0.09456723777577414 0.0034806325932233762 0.024873434985515912 0.018320074423299443 0.01463567782072948
0.021766498171153826 -0.08184329801409963 0.004335818740635365 -0.027013959363349077 -0.0037821985674358614 0.0007444227307723317
0.024173845485164724 0.0026392015055132826 -0.003046871234523721 -0.023468750893564042 -0.008148631621058907 0.0022629496196076493
0.03983020501546542 -0.014151474797063442 -0.0082877034351636 -0.01847754002730284 -0.013862871326713164 -0.00014857518483386107
0.06284917052285839 -0.020782154505356885 -0.012644644043314777 -0.019185897277560385 -0.011625069134984593 0.0002001089755766227
0.08301028780519186 -0.028145481853691267 -0.0164546840043071 -0.019758150662154625 -0.008662747480710492 -3.145562930236235e-05
0.10361252271508213 -0.0354025119065286 -0.019908445714701704 -0.01986690649448273 -0.004720845371091155 -3.856107771329481e-05
0.12373312053382544 -0.042642360368219924 -0.022840533632618596 -0.020037886413542278 -9.290249345766817e-06 0.000189604059476148
0.1431325946488682 -0.04972902346730091 -0.025078785587256156 -0.020572737708361016 0.005051829517634312 0.001088665883077516
0.1615331840717621 -0.05696271409567731 -0.026411982634757532 -0.021329274625496806 0.008970565332003182 0.0036957927557922173
0.17714292483546903 -0.06551460384297515 -0.02678011100491845 -0.0175007068202296 0.008267431053428179 0.009384179180079527
0.1838579762780225 -0.07307096936586599 -0.026673878792506756 3.307646786630624e-05 4.618855014532525e-05 0.015049480392319306
0.17720880351849663 -0.0655349255365265 -0.026793852435223985 0.017565843336613117 -0.008154033224477055 0.009387584350168371
0.16167381946700785 -0.05700432168786513 -0.02644624395064498 0.021390048923729008 -0.008793351392613094 0.003698833950878827
0.14336865327813478 -0.049794207915208895 -0.02514884922269573 0.020621451577658635 -0.004764500701727702 0.001081635758205524
0.12410401568118089 -0.042735830667215584 -0.022974395718404414 0.020058881585603892 0.0004597868623068588 0.0001530506784987623
0.10419244374228771 -0.03553510586551577 -0.02015237516773333 0.019832413006731622 0.0054107077082375075 -0.00014483821429013392
0.0839277000551395 -0.028339369444696186 -0.016889608225178942 0.01963075027082968 0.009675498341290133 -0.0002534631793824193
0.06437812568339221 -0.021072814739615066 -0.013372186302282783 0.018865711318205358 0.013198275094811033 -0.0003026587581402246
0.042490018198958784 -0.014728716234550417 -0.009532172748321218 0.017659499632365214 0.015843521353242854 -0.000600625643943909
0.02683820341278092 0.0023085772840360057 -0.0044307330319501214 0.02151730267641485 0.008674051155429146 -0.0016475077245832336
0.023707423300806874 -0.08259340936699976 0.004424881519965874 0.01603496237840774 0.002594015842850511 0.01543905785358425
0.01206746644539856 -0.05911460681655111 0.00614038068753454 -0.03565388425682866 0.0005997238232220755 0.014890006923104394
0.010666650147712387 -0.0007796215819708623 0.00032939077471950864 -0.04075725787011922 -0.0018626810270135677 0.0022378197263343918
0.016790815050095272 -0.0036609066361242815 -0.003459156933290079 -0.03370511888654833 -0.005594007380966354 0.0006823309346073143
0.030309344552367497 -0.01017670312723916 -0.006102321777440149 -0.03466185643929044 -0.004751224845039105 -9.466092291441505e-06
0.04141927539375238 -0.013872608046027456 -0.008210156622262856 -0.03503751484367269 -0.0030112496952019877 7.395680234727615e-06
0.051650786707072856 -0.017472536087108994 -0.010010773229317944 -0.03517453236734241 -0.0010160301451680443 0.00022617911013969664
0.061621464401209095 -0.02101886348794391 -0.011493440011153863 -0.03525878399904579 0.0012899968643906921 0.000995381681223712
0.0708704977460227 -0.024168132475663382 -0.012581513862572377 -0.035641873315630526 0.003908779929437798 0.0029209155061267387
0.07976062738241964 -0.02726794777996248 -0.01319683037792541 -0.03688047504610632 0.0067780122973014455 0.00744367049387098
0.08936898344915646 -0.03473539325336292 -0.013265322444317676 -0.031899012892259944 0.007532821526843256 0.016848268444238316
0.09449619118266123 -0.04803500206346978 -0.01302507981115704 4.851707123217075e-05 0.00019349757360101214 0.02772513662648032
0.08943259946867159 -0.03476307728773001 -0.01325773321360828 0.0319941756944711 -0.00711883448529851 0.01684038590373937
0.07989472848913919 -0.02732387382863288 -0.013187538826725121 0.036967826940147316 -0.006283672503859623 0.007421013448765131
0.07109042038994602 -0.024253260159114172 -0.012584108739738706 0.03570823852048958 -0.0032829949765092164 0.002866723472310918
0.06195603412046806 -0.02113466305592501 -0.011532966937253804 0.03527702568272407 -0.0004853286019295983 0.0008750000161874093
0.05215325978575591 -0.017624193993894213 -0.01013083775202525 0.03509672421927093 0.0020411615506195835 -2.045649473270052e-05
0.04219104012759533 -0.014070551310626284 -0.008481283145180823 0.034787184811543546 0.004299788798388109 -0.0004810506113368257
0.031559597716262495 -0.010456650244612004 -0.006638212407384825 0.03409201128984249 0.006350936504453834 -0.0008210283708157023
0.018386543144127344 -0.003993213214766583 -0.004385212783916502 0.032372059246196204 0.007212735414927363 -0.0009487263242197898
0.01184298154301985 -1.5970558638766456e-05 -0.0007510379166457511 0.038063297551009595 0.0021932696190470353 0.000707447661634465
0.012789337983641916 -0.05910211056406258 0.0055320179940672835 0.03256517134980664 -0.001340300684151945 0.020865938966270186
0.004090424280102829 -0.0372808200632846 0.007137115758600433 -0.03371144433756062 0.0019362599603003085 0.01632539327073364
-0.00019261349228929554 -0.002070566616680938 0.0034569302535223246 -0.044777478987712636 0.0018490689381012438 0.004014102986280276
-0.0034378223510784203 0.003150278518133002 0.0014045137572605939 -0.042575960665849844 0.0011568319700935759 0.0010127956020580487
-0.001422593081096697 0.000598058786106781 0.0006210309063272942 -0.04021643789561818 0.0016171691514945085 0.0002505434572251199
-0.0003630889638669251 -5.789475793988904e-05 0.0003405084125836037 -0.04021072100642945 0.0021722690958679625 0.00021469391833152203
-0.00028960998881097236 1.4036769742606391e-06 0.00026463210104211044 -0.0403000539311955 0.002465254158044019 0.0006363935010506653
-0.00040373312964402846 -2.2030333571973053e-05 0.00030660391128854063 -0.0403946263151889 0.002667251313240006 0.0016571840435791664
-0.0011804308623355067 0.0004904708630147812 0.00043830907697817504 -0.0401162749751815 0.0031857374456833597 0.003842411387227751
-0.0016802045645864909 0.0017687054762125962 0.0005958772286458103 -0.041399860693042 0.0053983604579649 0.00853357815882934
0.003232789063192357 -0.004797210247398787 0.0008298779157259236 -0.04052091988130431 0.008344548210631677 0.018783771407653985
0.0079892915423495 -0.030015395197877423 0.0012700515697291253 5.275617505181939e-05 0.00033333056258519144 0.03559699015203827
0.0032936003632205034 -0.004832076334184394 0.0008592328850444949 0.04062432984851728 -0.007645418906366546 0.018772614428195222
-0.0015542535070131468 0.0016989886345269794 0.0006498519256434693 0.04149449657558274 -0.004604167280546451 0.008503370789282339
-0.0009803005504757396 0.00038662830502410675 0.0005056937741741657 0.04018730280654504 -0.002242025795802465 0.0037738096427083006
-0.00011358045962215821 -0.00015778781014583843 0.0003659390245795589 0.04041118784364541 -0.0015368700115331079 0.0015117103211190939
0.00012014957690457769 -0.00016337660929854666 0.0002779890874082464 0.04020462288239748 -0.0011406291437154954 0.0003407518808161212
0.00023453588729824252 -0.0002534634698323794 0.00024377624870519394 0.03990580587556212 -0.0006853001937792556 -0.0003503227616857825
-0.0005811254194236779 0.00036313041679547484 0.00031359699250607144 0.039532411280977425 -6.344281376498645e-05 -0.0007721597873967521
-0.0025809248383953853 0.003147371936139572 0.0007951622190434384 0.041203841471931256 5.5192965466992326e-05 -0.0006384040978619299
0.00035706658316729734 -0.0012578801669210953 0.0026444027134492724 0.043339263474739584 -0.0017477170110603091 0.003018152377537942
0.004443000873120469 -0.03738827746937756 0.0064488159539817765 0.03271143036477016 -0.0025343891803256855 0.01989763104512967
-0.0031468865068519734 -0.019350926479537792 0.0080536075950143 -0.025524280564565478 0.003266389491313939 0.014119531395611094
-0.010124827344740454 -0.0007775183045194261 0.006322810517040312 -0.03793274287552495 0.005273791504402232 0.004093357114304515
-0.022329468802461238 0.008442460186582167 0.006162340951312429 -0.03921307167965087 0.00745306919530585 0.001051619841621913
-0.0322819204783512 0.010828760225251154 0.007300429213131129 -0.03564734564049302 0.007964759995364121 0.00012885273397059225
-0.04210677183207742 0.013883079637135042 0.008879072055725778 -0.03490963055446735 0.007413351153854135 -4.651375423732324e-05
-0.052329235262302036 0.01747561873062959 0.01053247753581915 -0.035092697174168935 0.00599268842183575 0.000231726506522124
-0.06235140194969562 0.021079932913322344 0.012103907466500101 -0.035176539601916815 0.004129081058396877 0.0010819790153977274
-0.07271479207293734 0.024612654106092233 0.013468097919712332 -0.03486226270168926 0.0023016650039492984 0.0026408068112167256
-0.08322437423045963 0.030465179162925984 0.014388335246132592 -0.03427739262863387 0.0028743840761945886 0.0059682606932514055
-0.08338285108503694 0.02892508259360485 0.014647762261603789 -0.04333583182825141 0.008881056043121565 0.01372913029841547
-0.07848192436483707 -0.01796281359003723 0.015078574673555525 4.967716486910451e-05 0.0004761506342703275 0.037231293014808514
-0.08332473408405958 0.02888279757191792 0.014699158464924297 0.043433615499734124 -0.007890330279240229 0.0137229160447156
-0.0831064256394253 0.030381235436133247 0.01448766309237263 0.034368285782793176 -0.0017723922122351446 0.005948951786463081
-0.07253439114636913 0.02448942194102469 0.013606698510236579 0.0349337503181316 -0.0010296837778533598 0.002591611770097749
-0.062106247132124766 0.020923594312456294 0.012264270737106807 0.03520167476926673 -0.0026589745063858965 0.0009689146608986752
-0.05201417839455263 0.017297794331901054 0.01068224882150764 0.03501812837995068 -0.00435287262561159 -9.956335167239297e-06
-0.0417092377147747 0.01369494057220771 0.008962012068413027 0.0346394966286967 -0.005718072800342059 -0.00053524345538627
-0.031826840427721007 0.010677374846120073 0.00722983269400064 0.03502449850314027 -0.0064536128556973915 -0.0007850581635502566
-0.021959918648643002 0.00855517865050824 0.005849540210741004 0.03824979187256931 -0.00655283708267617 -0.00028700868673827904
-0.00990050613182094 -0.00020800962102531897 0.00578041542557748 0.037315055124245926 -0.005306924635804534 0.0034081046085271665
-0.0029701257199330915 -0.019448066306028817 0.007458991990636024 0.025293640446618828 -0.003759329792988635 0.01648856702869724
-0.00926023452852385 -0.007683796806104858 0.009343069041768086 -0.01334793578950933 0.00585372334626801 0.009165476397553574
-0.01931224157989215 0.0019109722079458965 0.00905039853173634 -0.02120751598021695 0.009757742564044877 0.0027858280742939978
-0.04071708899061229 0.013512116799895134 0.010705536086447115 -0.022621170116998834 0.014409520237529668 0.0009602349290030831
-0.06277920225632688 0.021093094702863437 0.013717511928322667 -0.02028095305173204 0.014954471386341296 0.00015187741837258237
-0.08385494822492887 0.02825581348496713 0.017089008848491263 -0.01961856191539486 0.013195461227537406 -7.018189696672602e-05
-0.10439925276842556 0.035496522450008575 0.02040109694760649 -0.019775306201594543 0.009875497176311749 -3.948212072048489e-05
-0.12455451220553926 0.04271170806287166 0.02344518894513187 -0.01995902374358009 0.005577512058289036 0.0002484792809611929
-0.1434401995080396 0.04997436524715944 0.025988844808610287 -0.01958849677119533 0.00119886591222702 0.0010060524005977966
-0.16415480751273462 0.05641505060365077 0.02767037234896218 -0.020206706076867673 -0.002685145464418227 0.001577936074231262
-0.1726734280633949 0.07156913221626279 0.027413171520448292 -0.02737042756718728 0.00560438777550553 0.005130944376994014
-0.16937166116684427 -0.008442820106076053 0.026721994988174916 3.445200682248781e-05 0.0006324698513926362 0.02740694183063751
-0.17261730656434265 0.07151888318302989 0.02748669648574479 0.027438717396211294 -0.004293516870441247 0.0051369934027702515
-0.1640431367138834 0.05631566449701775 0.02781518488535231 0.020271842507585822 0.0041283052188896075 0.0015862795451161591
-0.1432759963688628 0.04982956147957399 0.026198689566430507 0.019643607964374414 0.0004435267434521634 0.0010072380678262712
-0.12434696811321924 0.04253108490612206 0.023706033963581036 0.019988335706390893 -0.0037117622880097614 0.00022294859425371985
-0.104169179551491 0.03529920815092983 0.02068516409043041 0.019746783668162182 -0.007845055617107043 -0.00013108284788507205
-0.08364437684640698 0.028076253202977314 0.01734670065764318 0.019468938931930198 -0.011198689584949035 -0.00030634066195379706
-0.06265695160002833 0.021005925368068022 0.013870396366241532 0.01992887908291523 -0.013375998257477418 -0.00034582085027519855
-0.04072430994600297 0.01364920297786242 0.010657698416718663 0.022146915597151158 -0.01372676892086986 0.00022952376777579352
-0.019339078657861223 0.002253317360032655 0.00875920976668705 0.020997937120849835 -0.009974371983129681 0.002428382747756808
-0.00924181986846267 -0.007673769888131884 0.008896155323799417 0.013299583900172735 -0.006412234644912844 0.010521272663044876
-0.012441475435984043 -0.003720283906402047 0.011336640062676491 -0.005112495168651813 0.011191284641092819 0.005940100111430769
-0.026652482854175326 0.0034204038137191643 0.011777039739776063 -0.008299155263041707 0.01680778109182044 0.0019367099103561316
-0.059083429803819115 0.016102171018316375 0.01489036950387143 -0.008150426795541878 0.023390933409873024 0.0010423120464150188
-0.09374660486225869 0.026351799707632108 0.019549315152442192 -0.007390377713573511 0.02358401603193742 0.00043178248640643035
-0.12569219456136593 0.03559411772439203 0.024510923878235592 -0.007225778969853982 0.02027720191898844 0.0002148393966449326
-0.15645958926582718 0.044724777735214376 0.02930642973103906 -0.007393966980250357 0.014598595395391597 6.966938670200046e-05
-0.18670293493860177 0.0536678168198638 0.03367102323756074 -0.0074881542629195805 0.007344663010129407 -3.964492015021853e-05
-0.2154940520663926 0.06336104591088994 0.03728103719846825 -0.007827655193123579 -0.0006780916998513758 -1.9951114998190806e-05
-0.23924622430395096 0.06813312696518545 0.03965087967678945 -0.008058669748391393 -0.008937667567391342 -0.00014584924449990348
-0.2642167667951628 0.09575140277592151 0.0388289544867022 -0.019534816696343653 -0.013333588192870002 -0.0031590656570326487
-0.27923411859611 -0.003508140261188771 0.03242184342411978 1.6538568793848796e-05 0.000813727747608136 0.02914196585186953
-0.2641618157531512 0.09569701616102297 0.03892440363826806 0.019567936186905735 0.015017197537772699 -0.0031477190379469817
-0.23913843177941893 0.06802565215374218 0.03984054568679551 0.008091399427331586 0.010783117167161812 -0.0001251052710915531
-0.21534014424309925 0.06320479814563972 0.037560477718513834 0.007857697639728756 0.002767529135001906 5.266958968291034e-06
-0.18651973218270043 0.05347371239224153 0.03402838286998308 0.007509452071108112 -0.004981504450898316 -2.0076421324148044e-05
-0.15628662415448766 0.04451575681418694 0.029715851363589306 0.007393666823234223 -0.012036517498234684 6.290825789796755e-05
-0.12561620913001567 0.03541631771159905 0.02492393046705505 0.007176709138377413 -0.017783650075604153 0.00014001402721463088
-0.09389785781708462 0.026290002421637284 0.019886268491678773 0.007256208161840543 -0.021707334273048426 0.00022533786416026108
-0.05947777331279323 0.016247768576226125 0.015044764370354197 0.007954585196676005 -0.02283228565796082 0.000727827909499371
-0.027001125840117036 0.003676124031364508 0.011683776502189195 0.008200963780244453 -0.01751403166515584 0.001797120556209897
-0.012650554649976931 -0.0036433219330612642 0.011062793901608463 0.0050323698375766834 -0.012353669354395833 0.00676036109043596
0.038872466130203114 -0.144462132538187 1.599198204416119e-17 -0.08183983261988395 -0.03373982711247555 0.04251617755673916
0.046803767078246114 0.015017123415253115 -0.00541539433511433 -0.036354850297202194 -0.03511916176024805 0.0014458549925981793
0.06521890972722622 -0.020368117178273155 -0.014282743617760819 -0.017138661766131134 -0.034308982587494784 0.011926451811150969
0.0917162386961447 -0.02392710521628842 -0.0200802755435446 -0.017673756798211343 -0.03052750510414969 0.012940653532533772
0.12449868281473006 -0.03441623629603577 -0.02655903023475105 -0.016657032724206332 -0.027280533803439047 0.017773106632767002
0.15774504708493342 -0.043615463379535695 -0.032794007855925414 -0.015113260075088453 -0.021427290679458994 0.021916491742992823
0.19017290560341382 -0.05290396553208054 -0.03865920900374782 -0.012624264454371377 -0.013364448941355392 0.02617400610649105
0.2206653588698995 -0.061815250523212115 -0.04379164375426698 -0.009202382409567604 -0.003257415064377025 0.03035755992427771
0.24625052965238925 -0.06955374675324401 -0.0476667191707355 -0.004789585664171516 0.006594769938432404 0.034670238453610454
0.2625370714603628 -0.07405470668505909 -0.049803834667388816 -0.0008899310394223526 0.009389143686959785 0.03930405080221069
0.2678280288820454 -0.07431033906803329 -0.05039226485748033 -0.00010900095164658678 -0.00022569816952935234 0.04246469631297921
0.26273669179568004 -0.07411830405902882 -0.04985086199210399 0.0006662697145392677 -0.009836575763202 0.03931501496322483
0.2466881556534535 -0.06969282367454593 -0.04776818629666876 0.004548953103286924 -0.007029106433338331 0.034691971814344615
0.22142285479715842 -0.06205487007159841 -0.04396402111466186 0.008933066766742293 0.0028503189649079492 0.030390619948597288
0.19138654391506918 -0.05328402038916343 -0.038930388562143925 0.012315480150809218 0.013005505548997584 0.02621392427929816
0.15961549747768355 -0.04419671317717138 -0.03321489130575957 0.014749799774648392 0.021162592682371206 0.021979232429725687
0.1273095353698065 -0.035268528328124625 -0.02719172364392482 0.01624045038102191 0.02711122556893841 0.017779114619746218
0.09584838608350411 -0.025151414442135103 -0.0211352510250201 0.01708398404757515 0.030722795349708863 0.013271929297335141
0.07189493184525934 -0.022125232301074 -0.015547058836802987 0.016424539693464385 0.03377177374266848 0.01082642519892155
0.06117265864921121 0.012575989626800588 -0.009281755733954969 0.037720843534151345 0.04515819847039511 0.00795376652294198
0.05915823092865827 -0.15245189731194875 0.012167993908965665 0.049193148579116136 0.05915053349046442 0.01649020612725203
0.02387727312593107 -0.1254116954820627 0.010092088625159062 -0.052529575714991464 -0.027876374897576727 0.024440039356937997
0.021563368835383782 0.010028475333684868 -0.0035416204482766763 -0.043525317646288274 -0.023341733437350465 0.007330656074909895
0.03442829456704691 -0.012493308898977415 -0.009236714469463468 -0.03621414369866616 -0.021178383495883534 0.01285060767779123
0.059796020226777616 -0.01919081289775576 -0.014280968425621241 -0.03667851144868139 -0.018725311304990975 0.016664357129662785
0.08119435803519462 -0.02707807079749245 -0.018902757520677816 -0.035853465111890095 -0.016249799077745382 0.022108744580821096
0.10334875846700159 -0.0345895229738157 -0.02348142880303256 -0.03293195019749201 -0.012805090847726533 0.02753778690822716
0.12487602018728568 -0.04199845382253818 -0.027720262275160133 -0.028613678918626654 -0.008012422453966111 0.032997987703677414
0.14511664058599832 -0.04923091271925419 -0.03141431102482174 -0.022314899590929922 -0.0020969612270082313 0.038633378029173215
0.1621815578144372 -0.05549536680247774 -0.03422310748077516 -0.013181342430221957 0.0037291251930013864 0.04504819333267292
0.1731765422807328 -0.05822733842094025 -0.0359100041773671 -0.0034693124088281476 0.00556140720264015 0.05309524321493316
0.17681524418248412 -0.05610789332272332 -0.0365453144250648 -0.00019434483849882327 -5.406430309268088e-05 0.05933659404056885
0.173386417880835 -0.05829350827347176 -0.03594854822628258 0.0030682460899321283 -0.005658770891083055 0.05309639374840058
0.16263643539247893 -0.0556389022975225 -0.03430775586228181 0.012742524618282439 -0.0037938416037477394 0.04504902476731168
0.14588975617709035 -0.04947492278231087 -0.031561414247742926 0.021810892420422886 0.0020870992955912436 0.03863077129515617
0.12608449559493362 -0.042379319362305407 -0.027959001024692825 0.028013911191959052 0.008082248502627754 0.0329854956809529
0.10516250048795678 -0.03516113937444834 -0.023855892872045183 0.03220230040344487 0.012971034965545596 0.027510451672292713
0.08383668496925409 -0.027906880238031107 -0.019498897918129476 0.03495832054823435 0.01655384930172402 0.02203759709302415
0.0636136966646845 -0.020341500695046724 -0.015167063659677842 0.0354700893652459 0.019035228115996682 0.01664984890385508
0.03990703078627993 -0.014084841633183624 -0.01080023519401701 0.03434903867029324 0.022054589452482228 0.012350238353831504
0.026509839507471246 0.009394626740114615 -0.004971966406611919 0.04105348957319716 0.02669258691108111 0.010514721840887241
0.027329566043142624 -0.13156545889472426 0.012538899570270145 0.03287146860582127 0.03300684254128096 0.009926700704504535
0.012312118338302477 -0.08726264463230361 0.011035285278474182 -0.06167299030624608 -0.01697463681881462 0.008094522200611446
0.007230192304220254 0.002092675782533859 0.0005288237107938871 -0.07069940085982551 -0.01328442788321089 0.011392787229775499
0.010698231093589342 -0.0003901176061598876 -0.003988041478601565 -0.06166644175860504 -0.010468560498720136 0.014671700086373196
0.026153889200725436 -0.008655233724027989 -0.006921207305127008 -0.06271724149426285 -0.008489606152538251 0.021253876478723874
0.038769609631787896 -0.012835975885744965 -0.00946363427386942 -0.06058718177682717 -0.006943291900334174 0.028049818297491546
0.050159511082828276 -0.016759477991325402 -0.011872840150517136 -0.055924875579768024 -0.005254502938740788 0.035188662100067554
0.06138049606474471 -0.02055886277540462 -0.014100828266508113 -0.04899224809181853 -0.0029884500359650254 0.04239265001729044
0.07221622316750817 -0.024543543193463586 -0.016025560707150874 -0.038917320328572674 2.906249116312192e-05 0.04999162818607011
0.08146899769445325 -0.02811077794993229 -0.01753679296612823 -0.023372250248176945 0.003864786924826563 0.058939686361709806
0.08622008628098783 -0.026855111408914542 -0.018651401317919966 -0.005044434023197291 0.005907424440370991 0.07115671654209774
0.0870643005824693 -0.01778731930612331 -0.01937449376103084 -0.0003105653263367077 8.309357899122688e-05 0.08265949669295478
0.08643299835552679 -0.026925393011999404 -0.018680440659096544 0.004402698529625964 -0.005724830170426844 0.0711503052583195
0.08192610303461799 -0.02826123151677308 -0.017601741698398142 0.022667484094137096 -0.003633792578758779 0.058924943550696815
0.07298066821835479 -0.024793741601358894 -0.01614137340351555 0.038103046864260325 0.0002795385594218691 0.04996392302624511
0.06254909233598853 -0.020938127608125193 -0.01429270783885112 0.04801469405692934 0.003396184476019314 0.04234448327698344
0.05186455262709241 -0.01731056101475565 -0.01218190265555251 0.054720707421497414 0.005769605929354498 0.0351032681986825
0.04117577020590514 -0.01360835744383306 -0.009950429498293594 0.059077379452225263 0.007539477725941073 0.027924659276484663
0.029426725384081028 -0.009685300904382306 -0.0076899982675369735 0.060700202269978645 0.009104124902359697 0.02100469646967681
0.01410084470130419 -0.0013101399641255423 -0.005167082009353866 0.05873535226711741 0.01132094297526574 0.014726780986216405
0.009503402222141568 0.0033186540031454347 -0.000501955770228078 0.06679214720735055 0.014546909746477299 0.011567729200849317
0.01379748865891001 -0.09101932660222273 0.011552614870547694 0.05829494178510344 0.018626412655283333 0.0077363280169436815
0.0033086274456440227 -0.05232644433595267 0.009855318195630056 -0.057031981245201535 -0.007657425577047271 0.0028544854333293047
-0.003772890093350307 -0.0011093346970665577 0.0038330629099754634 -0.07476658159014911 -0.004338501663608013 0.009893966626089322
-0.009474861697517852 0.0066159159586558595 0.0014194523892313968 -0.07506657768634648 -0.0006843303566640747 0.015169764984089144
-0.006194809750105427 0.0025482091805692835 0.000809118726570916 -0.071663768104033 0.001137494946223866 0.022349200417302924
-0.003592745137448774 0.001082325369665126 0.0005842597377448415 -0.06871763053584032 0.0016763577383897812 0.02977262368833682
-0.0024243957366047717 0.0007607658308946697 0.00045277191033450876 -0.06339174438000106 0.0018233079335376523 0.037340863570825236
-0.0013412652004370492 0.0004501861625851982 0.00036475460714566936 -0.05565154600444989 0.0019566338068417216 0.04507660537861935
0.0004497251439765683 -0.0003180620269352327 0.0003072987049528832 -0.04476984561434656 0.002465468757488131 0.05313429114638913
0.002456922712291488 -0.0018055850651176532 0.00016630260581625004 -0.0269662881032581 0.004772921509535585 0.06237605807985229
0.0005638840348759925 0.003283211363923744 -0.00040603424317494697 -0.0016705853435805252 0.00775888944784906 0.07563831074691431
-0.0021102004298629894 0.025312191735276407 -0.0014917521935885656 -0.0003486935583431562 0.00020635355911511737 0.09272890710432892
0.000776750872950789 0.0032101604673579528 -0.0004250245849543045 0.0009494324681702489 -0.007324496642819113 0.07562955913407918
0.0029097190316088152 -0.0019604121665111286 0.00012245631595877635 0.026172441950656922 -0.004275278054295761 0.06235636860258933
0.0011948160688901185 -0.0005711174805842945 0.00022609695367446282 0.04384982521003581 -0.0018696639337819599 0.05309868005381792
-0.00022977987704856468 7.609433737142238e-05 0.00022541257275613953 0.054542540480074196 -0.0012429663409403453 0.04501532265866538
-0.0008572676017982598 0.0002356622593828311 0.00022377097957153173 0.06201503402744323 -0.001002757409234747 0.037238951364870806
-0.0014772196685253565 0.0003718761313793102 0.00021808327413337127 0.0669646919044598 -0.0008139913588280667 0.029603968413645734
-0.0036645655670331555 0.001686702048290451 0.0002322499180646979 0.06937217577304383 -0.0003349250262986641 0.022115405322067384
-0.007333552417044283 0.00637141432842499 0.0005984531990173263 0.07217504214751841 0.0013473432640841601 0.015041231045659832
-0.0025458938762790042 -6.36306972483854e-05 0.003084461968687522 0.07306361407110462 0.0048948883967229306 0.010171106770559317
0.004128044913370183 -0.05493922225771448 0.009902535377003481 0.05648737512547727 0.00834901537861286 0.00447400525616605
-0.0046423775054151364 -0.025070793349098133 0.008616333411549378 -0.0433446099787752 0.00011241552793247669 0.0022538996631231408
-0.013763784893711285 2.265207079718849e-05 0.006454516594391497 -0.06287495696327082 0.004064645717830061 0.00767688456349813
-0.028139669276480112 0.011747377694256076 0.00664699674860426 -0.0690723426268167 0.00922117087769082 0.014024386737548517
-0.0373723180527339 0.012967303273469169 0.008482584777042822 -0.06437553989949744 0.010938092757889723 0.021055205010940915
-0.04589381449822058 0.015173995657854517 0.010630600613299698 -0.06064397887251244 0.010414712979608215 0.02811522543291376
-0.055053987254980674 0.018306414590170225 0.012774370605974927 -0.055888683964750586 0.008939310989334192 0.03519478693262325
-0.06410624266373506 0.02136993571220037 0.01482589894801722 -0.04907497581655959 0.00703535278970785 0.04246899803285565
-0.071660948228632 0.02428945535409345 0.016659237127277893 -0.039381202094727605 0.0047724397850004196 0.04977412656421372
-0.07631020065333391 0.02455164133798724 0.01792238366019999 -0.025031308381759435 0.004248060221095633 0.057570516846430365
-0.08480659576031593 0.029939696899636655 0.017750578929344465 0.006434526137395886 0.008683297067114517 0.06836381094639772
-0.09172108167446148 0.07565327944947406 0.015559760249458014 -0.00031385996349340105 0.00033234725197924073 0.0906546059337166
-0.08459286426664095 0.02986373517048087 0.017741611794222244 -0.007083979461004379 -0.00799106166115638 0.06835799371290617
-0.07585998165574513 0.02439212603010304 0.01789969902266979 0.024315511176024575 -0.0034760925405703446 0.0575570673068824
-0.07093280663860557 0.0240328445048542 0.016612867115766088 0.03855071228564076 -0.003878938957739485 0.04974873782862233
-0.06305043289814763 0.02100021520491201 0.014739941939127577 0.04807332215405224 -0.0060020659695926475 0.04242344606070256
-0.053628666279107236 0.017809175625691856 0.012626291780852802 0.05464062904322911 -0.007795497321115088 0.035114697952403656
-0.04411667562367279 0.01453984370387537 0.010389541228160416 0.05904530378040564 -0.009268542301142052 0.027981429643065988
-0.03550388977832059 0.012330015407471 0.008109670598144141 0.062332115647451856 -0.0099920918569272 0.02087377741253319
-0.026771941134653362 0.011689643556249718 0.0061338787374416795 0.06709186261108971 -0.008692136331149902 0.0139023364007196
-0.013072853611162482 0.0006298505343119378 0.005969632281090805 0.06240588773899651 -0.0038488871264092256 0.008017246203347624
-0.00419497186610605 -0.026574030704554406 0.008538337461019169 0.04365447395438529 0.00012172731837233378 0.003768495264480869
-0.010911958669030749 -0.008218480152289613 0.008269021468144908 -0.023998689746701114 0.006940396828719854 0.003302900385390475
-0.022683037818873267 0.0030702967386891885 0.008736743006716598 -0.03622517857818973 0.012658159928465314 0.005511017114467332
-0.046135419114980813 0.016319857193128957 0.011460445314159167 -0.041496265955744384 0.0201864170602676 0.011019113770229145
-0.06817820287258233 0.023123590567660543 0.01567907943899076 -0.03858758064376879 0.021803283488568297 0.016626970422240695
-0.08852475722212383 0.029547683121217146 0.02007385725548437 -0.03592088589794241 0.02001090320589124 0.022090295067061835
-0.1083313778918738 0.03621456039256557 0.024361298137797218 -0.032932333787547306 0.0166606758607484 0.027532412455728218
-0.12748503393784613 0.04280856403341979 0.02843142723503735 -0.028699836311423182 0.012289155210854733 0.03303629697416438
-0.14568651221295978 0.04889270434375598 0.03209498820801769 -0.022995416027607105 0.007277038497922704 0.038622917585554965
-0.15739110256414204 0.054858006583011855 0.03479369158757401 -0.013342806190063918 7.579178278988821e-05 0.043285908714688466
-0.1707209692320151 0.050134807116788076 0.03483176830536089 0.006782453880544177 0.0033905069885472963 0.04946083211038614
-0.18116188651109083 0.13355730670226962 0.029754137351047278 -0.00019857611946818166 0.00047796531988307414 0.0657326747255322
-0.170501076000023 0.05005392533281394 0.03483224629478747 -0.007193248684575837 -0.002399584220087488 0.049462669388709066
-0.15693274146413064 0.05468988790848956 0.03479083788126878 0.01289054123346812 0.001016109631482772 0.043288624066332694
-0.14495891140933506 0.04862690969546161 0.03208093017894551 0.022472135638921163 -0.006032477101706078 0.038624099664763316
-0.1264617394478644 0.04243648967604824 0.028394041377462827 0.02807180644493536 -0.010872428235311881 0.03303089494674347
-0.10702667963155357 0.03573895457636449 0.024285054256615795 0.03215626245356547 -0.01511687545796668 0.027511119841600207
-0.08706802989471765 0.029009648695301316 0.01994271080704947 0.03493432739220903 -0.01850307660710173 0.02204156239864561
-0.06689178978271784 0.02269225531749775 0.015479457724224597 0.03739280032363983 -0.0206587148633147 0.016552173143078025
-0.04539591340627114 0.016334117147956805 0.011189532791700093 0.040532831158285876 -0.01975010275848163 0.010987117505621412
-0.0224335538648673 0.0033983146168682786 0.008469942931071102 0.03621587068302475 -0.012742766276967053 0.005752497179203968
-0.0107990156382363 -0.008810152242263083 0.008177201476102838 0.024315058701508727 -0.007107381845528595 0.004284902730857222
-0.012364863825264992 -0.0027842314396197094 0.00943941643573189 -0.011832943951434591 0.013894552505205205 0.0039863495901042555
-0.02806833705793338 0.004731095628699934 0.010923407943494421 -0.01696856682184064 0.02247775629244489 0.004609184825581969
-0.06345759816118648 0.01853852550769557 0.015390210716109283 -0.019077533386121615 0.033352952967733926 0.0091509599544018
-0.09990043869795001 0.028264939818354234 0.0214800968788034 -0.01834298446849772 0.034821874290764054 0.013619143113142485
-0.13212834740834947 0.036844072138596355 0.02763976174681039 -0.017056726434663997 0.03138787567450822 0.017855881389179495
-0.16281471012662924 0.0452931966811352 0.0336390235514916 -0.015302759514366368 0.025624802893506694 0.022048052605283874
-0.19268841888963872 0.05380241240542273 0.03936027047814785 -0.013002971713605791 0.018090712315403802 0.02630006330228586
-0.22103377022428994 0.0610108853970856 0.044491924108929215 -0.009531246427588833 0.009144890772914714 0.030188781878911573
-0.24795941104208793 0.07178612940796708 0.048588700705137364 -0.004664190234107621 -0.003703350364711755 0.034793651433595044
-0.2604530471529508 0.05826689582315819 0.0488176172425677 0.012962635761201529 -0.0268905564193006 0.031247104483705455
-0.259650029447649 0.16410162901097727 0.036813840183973934 -0.00012831156120982068 0.000664607174947162 0.06444048001650252
-0.2602162815134753 0.058182774795466206 0.04882651835704273 -0.013227708884831244 0.028265150117509213 0.031250854209667264
-0.24747128558191797 0.071612181536798 0.04860315148004432 0.0043739685032983516 0.0052088760813183005 0.034800081784636366
-0.22027343804930666 0.06073840312974077 0.044504924620409635 0.009199718186769623 -0.007441542455833264 0.030195461756181846
-0.1916510234327674 0.053426374497818396 0.039360895606113167 0.01261560610647693 -0.01616431005693426 0.02630258729207801
-0.16156765285996183 0.044826438877897 0.03361355623245865 0.014848840308320626 -0.023534558554795002 0.022039889865744483
-0.1309194722613542 0.036354844985339106 0.027576200054649374 0.016531361716315234 -0.02935913138474207 0.01783260199560515
-0.09919273877576029 0.027936898777440697 0.02137248005056509 0.017784393692800795 -0.03334004464354008 0.01359008619907527
-0.06352504102263284 0.018607604803222016 0.015235572062706666 0.018675686230636247 -0.03299081013649457 0.009169690708047722
-0.028455473235923224 0.004985622617753832 0.010773220812944509 0.016992712165424098 -0.023016686455412414 0.004775094791888696
-0.012685657067928059 -0.002991054863900734 0.009415653180476685 0.01192888814146065 -0.014653340411339567 0.004641487573135398
SCALARS Stress_vm float 1
LOOKUP_TABLE default
28513.74195996094
13078.187885367639
14144.27213143361
19576.334863996122
26118.658584297653
32720.54968231638
39223.91471825524
45401.59257458438
50643.61870661527
53902.584477596276
54756.51262870508
53944.27591331155
50732.31326601651
45552.25799992119
39463.029095663514
33088.005215648285
26665.47165451721
20378.189407800444
15327.00191778246
15397.772608094765
30811.53523406562
24206.987258545265
7614.712823880641
10073.538011089036
14429.374317940617
18805.157608502766
23236.23396811149
27640.756837840177
31882.355699014854
35549.614408209
37818.15714015552
38242.76750416525
37856.27124668646
35630.71951266533
32019.12527766454
27853.46933124821
23552.164009724595
19255.252717407933
15035.181376766132
10769.89642119733
8050.09632507361
25180.081693234923
17846.061338817228
9423.008390486837
9287.421724105609
10949.035045787083
12719.658712292576
14618.618119822275
16648.369228955333
18814.27013468512
20869.416107573998
21923.219392905674
21543.92521581761
21948.868664331203
20920.523356737067
18897.356512839193
16772.039327286024
14787.837916237484
12922.49489187228
11107.512974882637
9214.388677439716
8827.67212407687
18313.158564113422
12179.58877846758
10357.115563638157
10823.87553295799
10221.397360030553
9947.324961345874
9720.102379036014
9856.847461030962
10685.490544698157
12443.517727208255
13833.516516440242
13093.423317068035
13814.82392703167
12416.029625178113
10627.952484120642
9744.867969531675
9530.032696968814
9661.318076009085
9811.204543214168
10304.399660679022
10038.600027174443
12479.333083106241
7573.820311909159
9328.81249627179
11793.965572976127
12572.230532713116
13804.611944459735
15391.036028630135
17082.996032946197
18606.694196547403
20068.419130800805
22588.32780434569
25666.141891752046
22540.458315396452
19970.12503278583
18443.14613440869
16844.502042146243
15063.338072999717
13377.1988781991
12076.214288428093
11396.064537506481
9203.300085637253
7732.9132074136305
4608.983240462702
7355.453049983065
12324.697365891041
16354.541043735924
20241.135669911466
24221.33563460008
28179.618997811263
31928.00831944546
34820.57652971473
37606.46316858197
44263.00974144329
37562.325652872576
34727.42297817393
31772.949805969096
27956.0540259077
23926.538694872364
19895.238358326264
16031.496256309385
12145.966571489194
7326.348422365541
4656.641542524687
3978.6492302509446
7087.597521466422
14452.29384993449
21469.44625017773
27711.21544804503
33786.580322749796
39781.95130249163
45464.76523715806
50948.041753829486
53984.214596138736
58930.18872208743
53953.80183663579
50855.47418413957
45310.2234106357
39561.624951858874
33508.55581135881
27421.246885573
21273.863701969967
14453.743779982218
7180.40679499603
4073.1824585658915
18589.816855917492
10980.102260292631
14042.929769859735
19557.435215165653
25729.491648467974
31946.22396155577
38051.28242260139
43986.262349258126
49742.66524833905
54885.48670181641
57405.51720502266
54901.32082113405
49775.49267999078
44040.52713208899
38137.357543380676
32084.234597247407
25958.0681967943
19938.165524588996
14777.093108950749
11895.957378002347
19490.39712820207
15747.34812238441
5978.943528915399
9502.586327096576
13904.573980087169
18195.602586417735
22490.36739942426
26713.800164637778
30783.49380424926
34710.79339867649
38435.50714987084
40662.213713054014
38448.611079519695
34738.89974810873
30830.975616929056
26789.18078814458
22609.535461180105
18386.114646889084
14219.3386191645
9970.09603412925
6323.436772942347
16037.789816694096
12025.52360536078
5553.583110730193
6464.300537170178
8619.625501163306
10795.626525591295
12958.507116951823
15079.436681047528
17043.90145379326
19071.054302578294
22007.02778903095
25010.30558419415
22016.44536604359
19093.026056352577
17080.943942660506
15134.939346441866
13039.323389868237
10914.224132276171
8779.244530001377
6590.4416653101225
5255.2371422351125
12040.316852255723
8492.66056126453
6172.0970827213405
5975.826314001626
5553.217744677215
5693.344997449789
6107.635596069765
6748.945567494322
7450.357025420958
8157.624434155153
10458.047362337637
16414.13762585493
10451.47818097151
8146.8250813838
7443.698376504831
6740.025227146847
6085.138153466433
5635.3291622768165
5428.444940693838
5723.28668607786
5888.732065311745
8529.690129217734
5523.5890787061735
5915.958140145822
7791.6667339555825
9145.658757265881
10990.96922103982
13103.365187218082
15258.163859765036
17501.323068373495
19518.87448069555
19657.406044339237
21338.409774499636
19641.61946476887
19499.862147192238
17473.730517344884
15213.945015567453
13034.74140682097
10884.695722988155
8990.771894056788
7618.604768004063
5772.0734418523225
5574.163939173011
3824.721774034797
5520.748399409059
9970.311062595274
14226.908344317253
18433.60662572433
22682.848203017456
26901.438204568014
30976.93458539332
34991.44678970932
37071.13298262266
34970.91287248295
37058.8889561425
34977.02075044622
30951.305549302288
26862.47037125123
22628.986799025035
18367.2685725004
14163.762492913162
9940.592839079849
5494.988776980578
3845.5582533391935
3915.411326904763
6355.326098682
12933.992124377222
19709.072442095858
26011.58681463357
32169.846020862897
38254.76459989487
44128.57117297049
48931.896239573245
53725.71365902037
53723.04071181299
53725.9660817101
48925.291456714396
44110.489240697236
38225.26434288647
32130.81881781775
25975.59758519396
19707.9754402561
13003.211661047488
6446.304921105996
3994.2901438128424
17263.2457137992
10899.735600137095
13536.836488639343
18819.672360364675
24689.42207695167
30510.776663003635
36299.996191699385
42315.14140551934
49085.9199821269
56274.64683968414
60169.531062305665
56260.45722509246
49055.06166300277
42263.16145522891
36219.721175546125
30391.343998710618
24514.614245146407
18572.43746030428
13102.354894388001
10070.708783397115
15856.271592274012
13497.729078432081
5737.417683940606
9417.213784491489
13637.170135493852
17684.853847375085
21705.992807872724
25720.06365979133
29855.138960958167
34515.79155747912
39800.16918459458
43251.09369286376
39783.54710455966
34479.12463055504
29794.68962631768
25631.21435668183
21582.186893408318
17518.715776666573
13417.563705449747
9145.834502863428
5734.003304498258
12813.488993661826
9717.68518811865
4957.301529661824
6510.577611236795
8756.047661227583
10796.618122998989
12791.449245705855
14766.241720751921
16690.03795023428
19198.48472842379
23617.2084034687
28181.9462565122
23605.89135010096
19167.78444258823
16637.764050749414
14693.713387907708
12700.500323557637
10692.248840816093
8663.6820320352
6532.89098310195
5364.523961456221
9545.801142050552
7015.3893327013875
5736.905056810744
5779.380706244227
5687.670999724478
5876.031587043425
6206.442346216832
6699.2007889882925
7286.969594275495
8291.311908284955
10793.280567380853
21480.660771876068
10793.578822040803
8306.788846898526
7309.6188535395595
6733.910570325485
6262.1288962647795
5969.014736092824
5843.737182818015
6045.495858551643
5938.244095566524
6853.686511376613
4836.790434434572
5691.1071058342095
7432.553379418697
8662.344119016698
10432.624146327376
12500.602356118421
14698.794598970488
17224.001757064903
19846.783584604134
19798.529066583993
24014.433974382366
19832.832665419544
19908.867869589252
17319.42916500064
14829.230696796154
12665.309120412807
10629.735837254251
8876.682114755306
7598.43225780226
5722.029117103586
4657.721526149341
3699.7121037976567
5363.3820272276835
9461.14264979482
13333.118693956063
17289.605396834024
21396.695997932457
25596.546069981992
29883.42820149366
34624.103834104724
37652.05793324608
36931.53647372959
37687.00795556247
34695.5564693046
29991.52060451214
25740.73227740493
21569.32183000862
17472.20155930081
13484.780978182916
9526.37240955706
5331.681886798395
3520.723079138553
3874.4927431510523
6072.449288558814
12164.160262674532
18399.536479841823
24312.50583139121
30215.604396052237
36179.05555806761
42174.12715833144
47361.0746720474
54735.2638308645
57959.91007604283
54777.92562128576
47448.52395167359
42304.85752900653
36350.835863377106
30415.67694523488
24509.390680980243
18535.791004904793
12197.500075051566
6052.786229504185
3755.8860073781375
17283.332292639963
10892.00646889103
13311.196401014435
18440.08925241937
24210.3739244829
29942.176628011443
35701.43786712199
41853.917827736266
49018.574864327034
56769.521177515155
60989.858050459006
56742.99074774098
48961.188855183886
41757.34252943611
35550.66742894666
29711.096600529036
23857.15539641473
17903.713778619538
12442.194163768336
9457.045818265527
15074.890589207489
13303.164980590347
5671.111329377856
9321.114501102953
13446.035565684295
17427.822205374356
21400.279669888227
25415.97916702085
29672.071662594037
34621.023781514035
40283.26005398364
43975.87513010476
40254.935349576146
34558.45016191175
29567.808749586282
25259.2603754914
21173.393851553155
17104.921048214277
12991.73984702136
8761.822339741513
5413.655153812669
12177.340667476137
9441.554351260214
4661.449166770823
6434.797812336345
8693.652201429757
10720.51938320656
12698.71667351632
14690.451169184676
16708.643990922144
19419.873487256773
24077.73324604034
28840.250281692857
24059.141787030163
19369.852896446613
16622.71848040157
14568.844056182808
12540.36116424269
10525.976882154753
8499.284554181577
6391.5286159546495
5195.678475041452
8938.115005066069
6684.28103005016
5462.82342364151
5639.961175655447
5686.708191077481
5943.637670168192
6312.321253155806
6854.6323914605055
7558.7066967806095
8740.464261104406
10512.773788149647
22578.986466725644
10522.824022142797
8770.404925219209
7599.441276026295
6915.062356599389
6410.709790889853
6107.828623621494
5955.6193049488675
6074.435942400321
5794.398675938035
6254.479185137907
4520.573147269102
5449.187221021353
7175.324576854451
8414.56394957787
10188.0975994063
12264.422571040925
14509.144277400637
17160.800245532646
20011.586884881726
20137.806624757617
24255.081349508433
20188.419602325153
20104.595532847594
17304.66985489429
14711.410368696337
12530.391037392053
10522.135345288196
8795.794225333802
7484.539770533623
5538.765323124092
4116.136671241695
3467.3943140255938
5071.769220698641
9103.622954781857
12929.840586414179
16840.228971465174
20922.44618494713
25156.363121665512
29589.719503973974
34647.747486317196
37988.8831109642
36944.519673007395
38040.31945838032
34751.837812909034
29749.311722776514
25374.267798788314
21191.406325462787
17135.932594440706
13187.993316314565
9224.230485736389
5035.377397939754
3128.538907429662
3515.6574272993084
5603.92294630268
11647.072845714145
17814.96728845295
23637.409604252058
29471.991526210648
35437.21405386872
41598.78165972745
47166.56751512311
55131.491603103095
58223.68311296164
55189.45856651732
47287.89680910501
41784.75653100228
35687.75562175225
29771.5423888392
23939.832832333108
18027.51084817474
11684.077348754887
5523.532374589491
3241.294229957848
17263.245713840734
10899.73560017286
13536.836488667444
18819.67236037725
24689.422076962495
30510.776663006884
36299.996191703525
42315.141405523034
49085.91998213299
56274.64683971995
60169.531062329996
56260.45722513035
49055.06166305719
42263.16145523847
36219.72117552858
30391.343998639568
24514.614245116645
18572.43746027377
13102.354894362205
10070.708783370625
15856.271592237594
13497.72907844869
5737.417683954642
9417.213784507767
13637.170135506243
17684.853847384602
21705.992807871717
25720.063659798347
29855.13896096576
34515.79155748361
39800.16918461683
43251.093692879826
39783.54710457098
34479.12463060981
29794.689626330237
25631.21435669006
21582.186893371494
17518.715776644192
13417.563705427685
9145.834502843782
5734.003304482254
12813.488993629217
9717.685188125433
4957.301529659035
6510.577611239777
8756.047661235249
10796.618122996693
12791.449245705928
14766.24172076461
16690.03795024078
19198.484728447685
23617.208403472665
28181.946256509513
23605.891350099075
19167.784442636603
16637.764050758033
14693.713387948424
12700.500323549963
10692.248840798338
8663.682032018236
6532.890983085623
5364.523961439918
9545.801142021874
7015.3893327066025
5736.905056811125
5779.3807062414035
5687.6709997148455
5876.031587035278
6206.442346233313
6699.200788992341
7286.969594264361
8291.311908314592
10793.280567377125
21480.660771842533
10793.578822057434
8306.788846931622
7309.618853538098
6733.910570364504
6262.128896267376
5969.014736087283
5843.737182800883
6045.495858534798
5938.244095551845
6853.6865113525355
4836.790434437671
5691.107105837209
7432.553379419815
8662.344119007385
10432.624146328246
12500.602356112182
14698.794598972341
17224.001757054768
19846.78358460915
19798.529066570605
24014.43397436415
19832.832665422233
19908.86786959621
17319.4291649861
14829.230696804383
12665.309120366408
10629.735837245094
8876.682114739
7598.432257784366
5722.029117090263
4657.721526127963
3699.712103800839
5363.382027233215
9461.142649796251
13333.118693954719
17289.605396830473
21396.695997920393
25596.546069990076
29883.428201481085
34624.103834119865
37652.05793323236
36931.53647371886
37687.00795556574
34695.55646930391
29991.520604482233
25740.732277403975
21569.32182995221
17472.201559276244
13484.780978159613
9526.37240953823
5331.681886787505
3520.7230791249485
3874.4927431556152
6072.449288564948
12164.160262675881
18399.536479852035
24312.505831380888
30215.604396033785
36179.05555807872
42174.127158316216
47361.07467206488
54735.26383085182
57959.91007603502
54777.92562129092
47448.523951682255
42304.85752897518
36350.83586336999
30415.676945171745
24509.39068093584
18535.791004873823
12197.500075032065
6052.7862294898305
3755.886007361916
18589.816855961242
10980.102260362608
14042.929769906246
19557.435215200367
25729.49164850042
31946.223961588265
38051.28242262446
43986.2623492139
49742.66524833481
54885.486701863105
57405.51720505964
54901.3208211481
49775.49267999333
44040.52713205883
38137.35754334221
32084.234597197526
25958.068196746895
19938.165524515527
14777.093108902991
11895.957377953455
19490.39712810965
15747.348122396876
5978.943528941565
9502.586327128918
13904.573980117855
18195.60258644798
22490.367399448576
26713.800164656488
30783.493804227986
34710.79339868837
38435.50714991223
40662.213713080775
38448.611079547845
34738.899748108954
30830.975616924243
26789.180788114463
22609.535461146897
18386.114646859816
14219.338619107066
9970.096034104983
6323.436772922834
16037.789816617465
12025.523605366252
5553.583110716543
6464.300537179355
8619.625501185097
10795.626525620555
12958.50711696932
15079.436681060237
17043.90145379884
19071.05430260071
22007.027789093245
25010.305584228285
22016.445366086937
19093.026056339844
17080.943942688267
15134.939346429306
13039.32338985752
10914.224132252728
8779.244529968515
6590.441665301134
5255.237142219873
12040.316852192971
8492.660561272392
6172.0970827109
5975.826313984575
5553.217744679059
5693.344997457817
6107.635596057368
6748.945567495092
7450.357025426586
8157.6244341337415
10458.047362389705
16414.137625923857
10451.478180981492
8146.825081382435
7443.698376523409
6740.025227148849
6085.138153465914
5635.329162273768
5428.444940677711
5723.286686064153
5888.73206529191
8529.690129172152
5523.589078712052
5915.9581401403875
7791.666733948873
9145.658757251502
10990.969221033127
13103.365187196161
15258.163859755185
17501.32306831477
19518.874480668135
19657.40604435984
21338.409774519994
19641.619464789062
19499.862147205065
17473.73051734799
15213.945015547728
13034.741406816507
10884.695722962007
8990.771894014015
7618.604767981976
5772.073441833564
5574.163939136342
3824.721774042087
5520.748399410571
9970.311062595785
14226.908344308695
18433.60662572266
22682.84820302063
26901.438204550606
30976.93458533071
34991.44678967631
37071.13298262811
34970.91287249582
37058.88895614321
34977.020750443626
30951.305549295026
26862.47037121602
22628.986798996462
18367.268572442877
14163.762492864094
9940.592839046563
5494.988776961035
3845.5582533181014
3915.4113269123463
6355.326098689479
12933.992124389813
19709.072442091005
26011.586814635088
32169.84602088912
38254.76459986918
44128.5711729088
48931.896239532274
53725.71365902108
53723.04071186322
53725.966081699306
48925.29145668276
44110.48924068051
38225.264342835406
32130.818817756022
25975.597585112795
19707.975440194634
13003.211660999
6446.304921078557
3994.2901437904784
28513.741959996503
13078.187885458126
14144.272131500105
19576.334864061784
26118.658584336292
32720.549682343262
39223.9147182604
45401.59257458641
50643.61870661109
53902.58447763545
54756.5126287468
53944.275913377875
50732.31326601826
45552.25799992922
39463.02909563922
33088.00521557967
26665.47165444626
20378.189407730635
15327.001917715726
15397.77260801584
30811.535233890158
24206.987258565354
7614.712823899459
10073.538011123774
14429.374317983002
18805.15760852829
23236.233968132423
27640.75683785613
31882.35569901965
35549.614408203546
37818.15714019996
38242.76750423344
37856.27124674208
35630.71951266504
32019.12527767038
27853.469331233955
23552.16400967369
19255.252717362207
15035.181376724633
10769.896421152112
8050.0963250313125
25180.08169308912
17846.061338841144
9423.008390469895
9287.421724108191
10949.035045787867
12719.658712298513
14618.618119828512
16648.369228965916
18814.27013467266
20869.416107570105
21923.21939292728
21543.92521592709
21948.868664370024
20920.523356753478
18897.35651284265
16772.039327275892
14787.83791621546
12922.494891855918
11107.512974855823
9214.388677396459
8827.672124029668
18313.158564010755
12179.588778487438
10357.115563637566
10823.875532946471
10221.397359999004
9947.324961313981
9720.10237901686
9856.847461002182
10685.490544664479
12443.517727192668
13833.516516425065
13093.423317116563
13814.823927027322
12416.029625174138
10627.952484141864
9744.867969543588
9530.03269698392
9661.318076006157
9811.2045431894
10304.399660627829
10038.600027122828
12479.333083040496
7573.8203119239315
9328.81249627894
11793.96557296857
12572.230532694342
13804.61194443127
15391.036028596987
17082.99603291452
18606.694196524222
20068.419130786064
22588.32780429637
25666.14189169582
22540.458315366504
19970.125032773354
18443.14613444156
16844.502042154763
15063.33807298946
13377.198878171312
12076.214288392795
11396.064537451251
9203.300085591265
7732.913207377107
4608.983240474404
7355.45304999038
12324.697365894906
16354.541043737889
20241.13566989903
24221.335634564442
28179.618997786274
31928.00831941738
34820.57652969719
37606.46316854831
44263.00974136145
37562.32565286394
34727.42297817237
31772.949805967422
27956.054025893718
23926.538694835217
19895.238358278708
16031.49625625024
12145.966571438687
7326.348422330658
4656.641542501991
3978.649230267978
7087.597521479063
14452.293849947535
21469.44625019245
27711.215448044906
33786.58032272423
39781.95130245856
45464.76523710424
50948.04175378455
53984.214596113256
58930.188722032915
53953.80183664331
50855.47418414039
45310.22341060609
39561.62495182015
33508.5558112898
27421.246885499153
21273.86370188225
14453.743779922821
7180.406794963562
4073.182458548037
SCALARS Statev float 1
LOOKUP_TABLE default
0.0
0.0
0.0
0.0
0.0
0.0
0.0
0.0
0.0
0.0
0.0
0.0
0.0
0.0
0.0
0.0
0.0
0.0
0.0
0.0
0.0
0.0
0.0
0.0
0.0
0.0
0.0
0.0
0.0
0.0
0.0
0.0
0.0
0.0
0.0
0.0
0.0
0.0
0.0
0.0
0.0
0.0
0.0
0.0
0.0
0.0
0.0
0.0
0.0
0.0
0.0
0.0
0.0
0.0
0.0
0.0
0.0
0.0
0.0
0.0
0.0
0.0
0.0
0.0
0.0
0.0
0.0
0.0
0.0
0.0
0.0
0.0
0.0
0.0
0.0
0.0
0.0
0.0
0.0
0.0
0.0
0.0
0.0
0.0
0.0
0.0
0.0
0.0
0.0
0.0
0.0
0.0
0.0
0.0
0.0
0.0
0.0
0.0
0.0
0.0
0.0
0.0
0.0
0.0
0.0
0.0
0.0
0.0
0.0
0.0
0.0
0.0
0.0
0.0
0.0
0.0
0.0
0.0
0.0
0.0
0.0
0.0
0.0
0.0
0.0
0.0
0.0
0.0
0.0
0.0
0.0
0.0
0.0
0.0
0.0
0.0
0.0
0.0
0.0
0.0
0.0
0.0
0.0
0.0
0.0
0.0
0.0
0.0
0.0
0.0
0.0
0.0
0.0
0.0
0.0
0.0
0.0
0.0
0.0
0.0
0.0
0.0
0.0
0.0
0.0
0.0
0.0
0.0
0.0
0.0
0.0
0.0
0.0
0.0
0.0
0.0
0.0
0.0
0.0
0.0
0.0
0.0
0.0
0.0
0.0
0.0
0.0
0.0
0.0
0.0
0.0
0.0
0.0
0.0
0.0
0.0
0.0
0.0
0.0
0.0
0.0
0.0
0.0
0.0
0.0
0.0
0.0
0.0
0.0
0.0
0.0
0.0
0.0
0.0
0.0
0.0
0.0
0.0
0.0
0.0
0.0
0.0
0.0
0.0
0.0
0.0
0.0
0.0
0.0
0.0
0.0
0.0
0.0
0.0
0.0
0.0
0.0
0.0
0.0
0.0
0.0
0.0
0.0
0.0
0.0
0.0
0.0
0.0
0.0
0.0
0.0
0.0
0.0
0.0
0.0
0.0
0.0
0.0
0.0
0.0
0.0
0.0
0.0
0.0
0.0
0.0
0.0
0.0
0.0
0.0
0.0
0.0
0.0
0.0
0.0
0.0
0.0
0.0
0.0
0.0
0.0
0.0
0.0
0.0
0.0
0.0
0.0
0.0
0.0
0.0
0.0
0.0
0.0
0.0
0.0
0.0
0.0
0.0
0.0
0.0
0.0
0.0
0.0
0.0
0.0
0.0
0.0
0.0
0.0
0.0
0.0
0.0
0.0
0.0
0.0
0.0
0.0
0.0
0.0
0.0
0.0
0.0
0.0
0.0
0.0
0.0
0.0
0.0
0.0
0.0
0.0
0.0
0.0
0.0
0.0
0.0
0.0
0.0
0.0
0.0
0.0
0.0
0.0
0.0
0.0
0.0
0.0
0.0
0.0
0.0
0.0
0.0
0.0
0.0
0.0
0.0
0.0
0.0
0.0
0.0
0.0
0.0
0.0
0.0
0.0
0.0
0.0
0.0
0.0
0.0
0.0
0.0
0.0
0.0
0.0
0.0
0.0
0.0
0.0
0.0
0.0
0.0
0.0
0.0
0.0
0.0
0.0
0.0
0.0
0.0
0.0
0.0
0.0
0.0
0.0
0.0
0.0
0.0
0.0
0.0
0.0
0.0
0.0
0.0
0.0
0.0
0.0
0.0
0.0
0.0
0.0
0.0
0.0
0.0
0.0
0.0
0.0
0.0
0.0
0.0
0.0
0.0
0.0
0.0
0.0
0.0
0.0
0.0
0.0
0.0
0.0
0.0
0.0
0.0
0.0
0.0
0.0
0.0
0.0
0.0
0.0
0.0
0.0
0.0
0.0
0.0
0.0
0.0
0.0
0.0
0.0
0.0
0.0
0.0
0.0
0.0
0.0
0.0
0.0
0.0
0.0
0.0
0.0
0.0
0.0
0.0
0.0
0.0
0.0
0.0
0.0
0.0
0.0
0.0
0.0
0.0
0.0
0.0
0.0
0.0
0.0
0.0
0.0
0.0
0.0
0.0
0.0
0.0
0.0
0.0
0.0
0.0
0.0
0.0
0.0
0.0
0.0
0.0
0.0
0.0
0.0
0.0
0.0
0.0
0.0
0.0
0.0
0.0
0.0
0.0
0.0
0.0
0.0
0.0
0.0
0.0
0.0
0.0
0.0
0.0
0.0
0.0
0.0
0.0
0.0
0.0
0.0
0.0
0.0
0.0
0.0
0.0
0.0
0.0
0.0
0.0
0.0
0.0
0.0
0.0
0.0
0.0
0.0
0.0
0.0
0.0
0.0
0.0
0.0
0.0
0.0
0.0
0.0
0.0
0.0
0.0
0.0
0.0
0.0
0.0
0.0
0.0
0.0
0.0
0.0
0.0
0.0
0.0
0.0
0.0
0.0
0.0
0.0
0.0
0.0
0.0
0.0
0.0
0.0
0.0
0.0
0.0
0.0
0.0
0.0
0.0
0.0
0.0
0.0
0.0
0.0
0.0
0.0
0.0
0.0
0.0
0.0
0.0
0.0
0.0
0.0
0.0
0.0
0.0
0.0
0.0
0.0
0.0
0.0
0.0
0.0
0.0
0.0
0.0
0.0
0.0
0.0
0.0
0.0
0.0
0.0
0.0
0.0
0.0
0.0
0.0
0.0
0.0
0.0
0.0
0.0
0.0
0.0
0.0
0.0
0.0
0.0
0.0
0.0
0.0
0.0
0.0
0.0
0.0
0.0
0.0
0.0
0.0
0.0
0.0
0.0
0.0
0.0
0.0
0.0
0.0
0.0
0.0
0.0
0.0
0.0
0.0
0.0
0.0
0.0
0.0
0.0
0.0
0.0
0.0
0.0
0.0
0.0
0.0
0.0
0.0
0.0
0.0
0.0
0.0
0.0
0.0
0.0
0.0
0.0
0.0
0.0
0.0
0.0
0.0
0.0
0.0
0.0
0.0
0.0
0.0
0.0
0.0
0.0
0.0
0.0
0.0
0.0
0.0
0.0
0.0
0.0
0.0
0.0
0.0
0.0
0.0
0.0
0.0
0.0
0.0
0.0
0.0
0.0
0.0
0.0
0.0
0.0
0.0
0.0
0.0
0.0
0.0
0.0
0.0
0.0
0.0
0.0
0.0
0.0
0.0
0.0
0.0
0.0
0.0
0.0
0.0
0.0
0.0
0.0
0.0
0.0
0.0
0.0
0.0
0.0
0.0
0.0
0.0
0.0
0.0
0.0
0.0
0.0
0.0
0.0
0.0
0.0
0.0
0.0
0.0
0.0
0.0
0.0
0.0
0.0
0.0
0.0
0.0
0.0
0.0
0.0
0.0
0.0
0.0
0.0
0.0
0.0
0.0
0.0
0.0
0.0
0.0
0.0
0.0
0.0
0.0
0.0
0.0
0.0
0.0
0.0
0.0
0.0
0.0
0.0
0.0
0.0
0.0
0.0
0.0
0.0
0.0
0.0
0.0
0.0
0.0
0.0
0.0
0.0
0.0
0.0
0.0
0.0
0.0
0.0
0.0
0.0
0.0
0.0
0.0
0.0
0.0
0.0
0.0
0.0
0.0
0.0
0.0
0.0
0.0
0.0
0.0
0.0
0.0
0.0
0.0
0.0
0.0
0.0
0.0
0.0
0.0
0.0
0.0
0.0
0.0
0.0
0.0
0.0
0.0
0.0
0.0
0.0
0.0
0.0
0.0
0.0
0.0
0.0
0.0
0.0
0.0
0.0
0.0
0.0
0.0
0.0
0.0
0.0
0.0
0.0
0.0
0.0
0.0
0.0
0.0
0.0
0.0
0.0
0.0
0.0
0.0
0.0
0.0
0.0
0.0
0.0
0.0
0.0
0.0
0.0
0.0
0.0
0.0
0.0
0.0
0.0
0.0
0.0
0.0
0.0
0.0
0.0
0.0
0.0
0.0
0.0
0.0
0.0
0.0
0.0
0.0
0.0
0.0
0.0
0.0
0.0
0.0
0.0
0.0
0.0
0.0
0.0
0.0
0.0
0.0
0.0
0.0
0.0
0.0
0.0
0.0
0.0
0.0
0.0
0.0
0.0
0.0
0.0
0.0
0.0
0.0
0.0
0.0
0.0
0.0
0.0
0.0
0.0
0.0
0.0
0.0
0.0
0.0
0.0
0.0
0.0
0.0
0.0
0.0
0.0
0.0
0.0
0.0
0.0
0.0
0.0
0.0
0.0
0.0
0.0
0.0
0.0
0.0
0.0
0.0
0.0
0.0
0.0
0.0
0.0
0.0
0.0
0.0
0.0
0.0
0.0
0.0
0.0
0.0
0.0
0.0
0.0
0.0
0.0
0.0
0.0
0.0
0.0
0.0
0.0
0.0
0.0
0.0
0.0
0.0
0.0
0.0
0.0
0.0
0.0
0.0
0.0
0.0
0.0
0.0
0.0
0.0
0.0
0.0
0.0
0.0
0.0
SCALARS Wm float 4
LOOKUP_TABLE default
4665.610226804017 4665.610226804017 0.0 0.0
844.2502309063896 844.2502309063896 0.0 0.0
1005.8420145170178 1005.8420145170178 0.0 0.0
2105.7392018196715 2105.7392018196715 0.0 0.0
3714.6118616558074 3714.6118616558074 0.0 0.0
5854.24842009399 5854.24842009399 0.0 0.0
8429.839203391593 8429.839203391593 0.0 0.0
11311.240151418811 11311.240151418811 0.0 0.0
14082.342535049536 14082.342535049536 0.0 0.0
15997.351369125252 15997.351369125252 0.0 0.0
16613.43087526587 16613.43087526587 0.0 0.0
16021.552027682179 16021.552027682179 0.0 0.0
14130.728919146091 14130.728919146091 0.0 0.0
11385.042540808103 11385.042540808103 0.0 0.0
8531.207574756962 8531.207574756962 0.0 0.0
5984.004004963489 5984.004004963489 0.0 0.0
3869.1335702344945 3869.1335702344945 0.0 0.0
2275.0672955413497 2275.0672955413497 0.0 0.0
1196.0451116870795 1196.0451116870795 0.0 0.0
1332.7692307246043 1332.7692307246043 0.0 0.0
4469.891077850083 4469.891077850083 0.0 0.0
3463.6222206645193 3463.6222206645193 0.0 0.0
104.80312153939806 104.80312153939806 0.0 0.0
467.5898141077513 467.5898141077513 0.0 0.0
999.4942928436504 999.4942928436504 0.0 0.0
1715.6549030599047 1715.6549030599047 0.0 0.0
2646.021595788523 2646.021595788523 0.0 0.0
3771.4314024547816 3771.4314024547816 0.0 0.0
5040.729823457643 5040.729823457643 0.0 0.0
6286.83841908176 6286.83841908176 0.0 0.0
7171.546559796593 7171.546559796593 0.0 0.0
7459.343067676393 7459.343067676393 0.0 0.0
7187.241334418882 7187.241334418882 0.0 0.0
6318.107165910882 6318.107165910882 0.0 0.0
5087.914816810107 5087.914816810107 0.0 0.0
3834.8233291404645 3834.8233291404645 0.0 0.0
2724.8324853268555 2724.8324853268555 0.0 0.0
1805.7968306984176 1805.7968306984176 0.0 0.0
1094.0380027417732 1094.0380027417732 0.0 0.0
534.6979909710379 534.6979909710379 0.0 0.0
121.03151879198998 121.03151879198998 0.0 0.0
3637.9560610917556 3637.9560610917556 0.0 0.0
1926.8325294776669 1926.8325294776669 0.0 0.0
286.1516907882838 286.1516907882838 0.0 0.0
401.8313284569046 401.8313284569046 0.0 0.0
523.0610688364068 523.0610688364068 0.0 0.0
723.6182239339782 723.6182239339782 0.0 0.0
955.5644010981872 955.5644010981872 0.0 0.0
1240.1311993038296 1240.1311993038296 0.0 0.0
1592.0378735614413 1592.0378735614413 0.0 0.0
1974.7923774091257 1974.7923774091257 0.0 0.0
2229.5632698010527 2229.5632698010527 0.0 0.0
2301.6738907058793 2301.6738907058793 0.0 0.0
2236.007558265362 2236.007558265362 0.0 0.0
1987.0502163489898 1987.0502163489898 0.0 0.0
1609.7598725422588 1609.7598725422588 0.0 0.0
1262.6708010517943 1262.6708010517943 0.0 0.0
981.3035351905212 981.3035351905212 0.0 0.0
749.4510412081717 749.4510412081717 0.0 0.0
538.2462257132688 538.2462257132688 0.0 0.0
390.9550782481534 390.9550782481534 0.0 0.0
242.15448055059923 242.15448055059923 0.0 0.0
2010.4941568948448 2010.4941568948448 0.0 0.0
888.793508867468 888.793508867468 0.0 0.0
415.1590410274931 415.1590410274931 0.0 0.0
517.552024450622 517.552024450622 0.0 0.0
473.83994701919517 473.83994701919517 0.0 0.0
467.702610157309 467.702610157309 0.0 0.0
460.7455278819048 460.7455278819048 0.0 0.0
452.58969334725106 452.58969334725106 0.0 0.0
467.9585007171526 467.9585007171526 0.0 0.0
540.8928875928235 540.8928875928235 0.0 0.0
621.44079600518 621.44079600518 0.0 0.0
674.1872380261235 674.1872380261235 0.0 0.0
619.1619301643212 619.1619301643212 0.0 0.0
535.4368577127244 535.4368577127244 0.0 0.0
458.9012678246694 458.9012678246694 0.0 0.0
439.2431517597093 439.2431517597093 0.0 0.0
442.1550193844336 442.1550193844336 0.0 0.0
441.89515602780205 441.89515602780205 0.0 0.0
437.350580570884 437.350580570884 0.0 0.0
475.81794168096553 475.81794168096553 0.0 0.0
380.74345413998594 380.74345413998594 0.0 0.0
935.5137749902127 935.5137749902127 0.0 0.0
337.3836472935978 337.3836472935978 0.0 0.0
381.7846572070576 381.7846572070576 0.0 0.0
611.5727063130631 611.5727063130631 0.0 0.0
720.261686924936 720.261686924936 0.0 0.0
868.4693956626196 868.4693956626196 0.0 0.0
1073.8446968928797 1073.8446968928797 0.0 0.0
1316.9503163063785 1316.9503163063785 0.0 0.0
1553.705150312147 1553.705150312147 0.0 0.0
1819.7456434027838 1819.7456434027838 0.0 0.0
2237.069685864607 2237.069685864607 0.0 0.0
2504.185988010755 2504.185988010755 0.0 0.0
2226.8439212248054 2226.8439212248054 0.0 0.0
1798.747998179145 1798.747998179145 0.0 0.0
1521.9559869942086 1521.9559869942086 0.0 0.0
1274.9412384077207 1274.9412384077207 0.0 0.0
1022.9297765572563 1022.9297765572563 0.0 0.0
811.279824910046 811.279824910046 0.0 0.0
663.8456583932888 663.8456583932888 0.0 0.0
571.9304763230937 571.9304763230937 0.0 0.0
364.7584876291068 364.7584876291068 0.0 0.0
354.9586599584359 354.9586599584359 0.0 0.0
117.72106000900976 117.72106000900976 0.0 0.0
291.35214104475557 291.35214104475557 0.0 0.0
723.9096299872984 723.9096299872984 0.0 0.0
1295.570588943555 1295.570588943555 0.0 0.0
2007.3946019591738 2007.3946019591738 0.0 0.0
2889.9302100290483 2889.9302100290483 0.0 0.0
3923.038822029619 3923.038822029619 0.0 0.0
5049.502137022399 5049.502137022399 0.0 0.0
5918.267428810168 5918.267428810168 0.0 0.0
7218.149383314745 7218.149383314745 0.0 0.0
7852.000242646491 7852.000242646491 0.0 0.0
7200.021015198931 7200.021015198931 0.0 0.0
5882.749750104693 5882.749750104693 0.0 0.0
4996.3751395963745 4996.3751395963745 0.0 0.0
3856.198096846588 3856.198096846588 0.0 0.0
2815.2250249477133 2815.2250249477133 0.0 0.0
1935.4045400816137 1935.4045400816137 0.0 0.0
1241.6645599369929 1241.6645599369929 0.0 0.0
699.0243414795403 699.0243414795403 0.0 0.0
284.85990915232014 284.85990915232014 0.0 0.0
122.07802253969486 122.07802253969486 0.0 0.0
72.33384194529935 72.33384194529935 0.0 0.0
314.4884093071412 314.4884093071412 0.0 0.0
1141.789386568898 1141.789386568898 0.0 0.0
2494.881288407743 2494.881288407743 0.0 0.0
4179.595439091428 4179.595439091428 0.0 0.0
6232.30011485133 6232.30011485133 0.0 0.0
8647.267958935556 8647.267958935556 0.0 0.0
11349.003216619423 11349.003216619423 0.0 0.0
14108.300955661642 14108.300955661642 0.0 0.0
16748.403721857263 16748.403721857263 0.0 0.0
14400.693354813653 14400.693354813653 0.0 0.0
16725.02434925255 16725.02434925255 0.0 0.0
14052.91897587962 14052.91897587962 0.0 0.0
11267.777860435863 11267.777860435863 0.0 0.0
8548.032159836903 8548.032159836903 0.0 0.0
6128.089182973582 6128.089182973582 0.0 0.0
4092.378736898456 4092.378736898456 0.0 0.0
2449.1423992786526 2449.1423992786526 0.0 0.0
1137.5540650101916 1137.5540650101916 0.0 0.0
320.21209464185546 320.21209464185546 0.0 0.0
76.60907183408086 76.60907183408086 0.0 0.0
1736.5513726307154 1736.5513726307154 0.0 0.0
716.5019048651048 716.5019048651048 0.0 0.0
1064.239513322148 1064.239513322148 0.0 0.0
2144.2715132108574 2144.2715132108574 0.0 0.0
3676.3593771659953 3676.3593771659953 0.0 0.0
5675.40744048433 5675.40744048433 0.0 0.0
8071.1792301333535 8071.1792301333535 0.0 0.0
10838.701450378172 10838.701450378172 0.0 0.0
13951.13314674699 13951.13314674699 0.0 0.0
17012.09559123771 17012.09559123771 0.0 0.0
18481.690479414516 18481.690479414516 0.0 0.0
17020.53533003767 17020.53533003767 0.0 0.0
13966.89368642845 13966.89368642845 0.0 0.0
10861.557208682196 10861.557208682196 0.0 0.0
8102.405376275255 8102.405376275255 0.0 0.0
5717.358346960359 5717.358346960359 0.0 0.0
3732.502941164807 3732.502941164807 0.0 0.0
2215.5396482509386 2215.5396482509386 0.0 0.0
1165.085954606683 1165.085954606683 0.0 0.0
855.8642145581144 855.8642145581144 0.0 0.0
1692.4991695320248 1692.4991695320248 0.0 0.0
1392.566691267065 1392.566691267065 0.0 0.0
121.16252116670117 121.16252116670117 0.0 0.0
449.10094554237384 449.10094554237384 0.0 0.0
977.3673536719859 977.3673536719859 0.0 0.0
1673.3813450631067 1673.3813450631067 0.0 0.0
2566.6913659375755 2566.6913659375755 0.0 0.0
3636.906407215222 3636.906407215222 0.0 0.0
4855.415227322663 4855.415227322663 0.0 0.0
6201.78319861199 6201.78319861199 0.0 0.0
7552.508003491408 7552.508003491408 0.0 0.0
8267.135003737712 8267.135003737712 0.0 0.0
7557.959917189268 7557.959917189268 0.0 0.0
6212.199650715655 6212.199650715655 0.0 0.0
4870.654127658005 4870.654127658005 0.0 0.0
3657.385392426385 3657.385392426385 0.0 0.0
2593.379411366132 2593.379411366132 0.0 0.0
1707.2596239509435 1707.2596239509435 0.0 0.0
1020.6263503909339 1020.6263503909339 0.0 0.0
491.6392248302558 491.6392248302558 0.0 0.0
139.28835683850915 139.28835683850915 0.0 0.0
1401.1906577950465 1401.1906577950465 0.0 0.0
836.6958825909235 836.6958825909235 0.0 0.0
98.39395060410354 98.39395060410354 0.0 0.0
192.15114400032135 192.15114400032135 0.0 0.0
324.10508477884525 324.10508477884525 0.0 0.0
520.3829638908513 520.3829638908513 0.0 0.0
754.0710226990503 754.0710226990503 0.0 0.0
1029.2207407072879 1029.2207407072879 0.0 0.0
1326.2746032188963 1326.2746032188963 0.0 0.0
1677.0139245204832 1677.0139245204832 0.0 0.0
2211.358799691812 2211.358799691812 0.0 0.0
2690.72211689812 2690.72211689812 0.0 0.0
2213.9324571124075 2213.9324571124075 0.0 0.0
1682.0796327461044 1682.0796327461044 0.0 0.0
1333.6549293326777 1333.6549293326777 0.0 0.0
1038.6764692488346 1038.6764692488346 0.0 0.0
765.3516680521313 765.3516680521313 0.0 0.0
533.4551703655209 533.4551703655209 0.0 0.0
337.32361217894095 337.32361217894095 0.0 0.0
195.98568015020655 195.98568015020655 0.0 0.0
86.13864832614505 86.13864832614505 0.0 0.0
829.520800834618 829.520800834618 0.0 0.0
416.03547091441334 416.03547091441334 0.0 0.0
137.23994848327035 137.23994848327035 0.0 0.0
167.8898921352907 167.8898921352907 0.0 0.0
144.85067721614078 144.85067721614078 0.0 0.0
150.5506057849048 150.5506057849048 0.0 0.0
164.23718326755466 164.23718326755466 0.0 0.0
182.48833271758514 182.48833271758514 0.0 0.0
193.59822547064203 193.59822547064203 0.0 0.0
204.2436194635875 204.2436194635875 0.0 0.0
371.3054402231175 371.3054402231175 0.0 0.0
908.2894675182015 908.2894675182015 0.0 0.0
370.761878894649 370.761878894649 0.0 0.0
203.95235557678515 203.95235557678515 0.0 0.0
193.49141646341454 193.49141646341454 0.0 0.0
182.0443060177481 182.0443060177481 0.0 0.0
162.82287057821713 162.82287057821713 0.0 0.0
147.34516776271298 147.34516776271298 0.0 0.0
138.1621232085683 138.1621232085683 0.0 0.0
156.40078940151358 156.40078940151358 0.0 0.0
122.2466683665176 122.2466683665176 0.0 0.0
418.80937098346817 418.80937098346817 0.0 0.0
172.3696428216 172.3696428216 0.0 0.0
147.44878749814202 147.44878749814202 0.0 0.0
263.3221895195302 263.3221895195302 0.0 0.0
371.1962186600168 371.1962186600168 0.0 0.0
537.9361485218972 537.9361485218972 0.0 0.0
770.001921863489 770.001921863489 0.0 0.0
1052.7154753815112 1052.7154753815112 0.0 0.0
1402.3005169233745 1402.3005169233745 0.0 0.0
1733.2229102102335 1733.2229102102335 0.0 0.0
1829.1475324597818 1829.1475324597818 0.0 0.0
2771.212754244802 2771.212754244802 0.0 0.0
1825.3315724411932 1825.3315724411932 0.0 0.0
1727.9177724949113 1727.9177724949113 0.0 0.0
1395.4508113396696 1395.4508113396696 0.0 0.0
1044.1033310987882 1044.1033310987882 0.0 0.0
759.5596052128647 759.5596052128647 0.0 0.0
525.6339432650659 525.6339432650659 0.0 0.0
357.8910967392197 357.8910967392197 0.0 0.0
251.98959795766294 251.98959795766294 0.0 0.0
138.68044126976557 138.68044126976557 0.0 0.0
176.05746996152007 176.05746996152007 0.0 0.0
75.92553299016326 75.92553299016326 0.0 0.0
160.56837834179757 160.56837834179757 0.0 0.0
482.9207572254975 482.9207572254975 0.0 0.0
1005.7438587136853 1005.7438587136853 0.0 0.0
1711.546732640794 1711.546732640794 0.0 0.0
2607.3879861645223 2607.3879861645223 0.0 0.0
3682.5506624417358 3682.5506624417358 0.0 0.0
4892.271600454563 4892.271600454563 0.0 0.0
6359.571916350624 6359.571916350624 0.0 0.0
6753.960357921078 6753.960357921078 0.0 0.0
8713.615341482375 8713.615341482375 0.0 0.0
6747.287431962494 6747.287431962494 0.0 0.0
6350.110713756874 6350.110713756874 0.0 0.0
4879.258083841846 4879.258083841846 0.0 0.0
3666.916418799633 3666.916418799633 0.0 0.0
2590.8560312410855 2590.8560312410855 0.0 0.0
1696.5586832188624 1696.5586832188624 0.0 0.0
995.5260921442717 995.5260921442717 0.0 0.0
479.00852512351867 479.00852512351867 0.0 0.0
158.48165175989863 158.48165175989863 0.0 0.0
77.47019344129569 77.47019344129569 0.0 0.0
70.49955927312277 70.49955927312277 0.0 0.0
248.9903833231637 248.9903833231637 0.0 0.0
939.2384598971422 939.2384598971422 0.0 0.0
2147.9123218323075 2147.9123218323075 0.0 0.0
3747.963141043473 3747.963141043473 0.0 0.0
5744.260279100612 5744.260279100612 0.0 0.0
8150.295278164585 8150.295278164585 0.0 0.0
10832.576995705746 10832.576995705746 0.0 0.0
13517.198112453523 13517.198112453523 0.0 0.0
15337.893124416481 15337.893124416481 0.0 0.0
23012.978760667465 23012.978760667465 0.0 0.0
15333.123241168198 15333.123241168198 0.0 0.0
13504.750130758852 13504.750130758852 0.0 0.0
10813.570417859602 10813.570417859602 0.0 0.0
8127.504846688658 8127.504846688658 0.0 0.0
5721.6386904249175 5721.6386904249175 0.0 0.0
3731.4390927427517 3731.4390927427517 0.0 0.0
2143.757718257495 2143.757718257495 0.0 0.0
946.1175351726797 946.1175351726797 0.0 0.0
255.08585167527986 255.08585167527986 0.0 0.0
73.53500857331088 73.53500857331088 0.0 0.0
1231.4552384273172 1231.4552384273172 0.0 0.0
800.7144618040363 800.7144618040363 0.0 0.0
1020.2419874559994 1020.2419874559994 0.0 0.0
2018.2422323057722 2018.2422323057722 0.0 0.0
3445.2180342864617 3445.2180342864617 0.0 0.0
5285.643748118606 5285.643748118606 0.0 0.0
7539.872597999966 7539.872597999966 0.0 0.0
10370.86090808464 10370.86090808464 0.0 0.0
14132.981576376016 14132.981576376016 0.0 0.0
18563.991074939146 18563.991074939146 0.0 0.0
20917.441233271664 20917.441233271664 0.0 0.0
18553.72980006334 18553.72980006334 0.0 0.0
14113.15388469945 14113.15388469945 0.0 0.0
10341.649505378462 10341.649505378462 0.0 0.0
7500.6458679132575 7500.6458679132575 0.0 0.0
5236.016471624246 5236.016471624246 0.0 0.0
3385.865373241238 3385.865373241238 0.0 0.0
1953.1350784139443 1953.1350784139443 0.0 0.0
941.8188743967423 941.8188743967423 0.0 0.0
624.2375599168571 624.2375599168571 0.0 0.0
1215.1982587170078 1215.1982587170078 0.0 0.0
1041.992407836887 1041.992407836887 0.0 0.0
134.88870884965436 134.88870884965436 0.0 0.0
449.9551359898762 449.9551359898762 0.0 0.0
954.8539560039104 954.8539560039104 0.0 0.0
1603.478645337015 1603.478645337015 0.0 0.0
2430.2258857242277 2430.2258857242277 0.0 0.0
3438.9709969269784 3438.9709969269784 0.0 0.0
4681.4954866623875 4681.4954866623875 0.0 0.0
6301.799608578684 6301.799608578684 0.0 0.0
8253.615273973435 8253.615273973435 0.0 0.0
9404.07156682123 9404.07156682123 0.0 0.0
8246.574180853859 8246.574180853859 0.0 0.0
6288.062586528074 6288.062586528074 0.0 0.0
4661.532121547529 4661.532121547529 0.0 0.0
3413.1031493985715 3413.1031493985715 0.0 0.0
2398.928248856405 2398.928248856405 0.0 0.0
1568.2275834416607 1568.2275834416607 0.0 0.0
916.8147461389559 916.8147461389559 0.0 0.0
418.78714257043026 418.78714257043026 0.0 0.0
126.13768709938311 126.13768709938311 0.0 0.0
1007.995666707901 1007.995666707901 0.0 0.0
578.6966204503948 578.6966204503948 0.0 0.0
93.65050004488535 93.65050004488535 0.0 0.0
194.1346376562141 194.1346376562141 0.0 0.0
343.076846729934 343.076846729934 0.0 0.0
531.5961907816683 531.5961907816683 0.0 0.0
748.6726768967258 748.6726768967258 0.0 0.0
1002.6637957402629 1002.6637957402629 0.0 0.0
1289.9085013061958 1289.9085013061958 0.0 0.0
1726.3897404055353 1726.3897404055353 0.0 0.0
2556.0250473469555 2556.0250473469555 0.0 0.0
3365.9686377260377 3365.9686377260377 0.0 0.0
2553.249309547909 2553.249309547909 0.0 0.0
1720.5381275387183 1720.5381275387183 0.0 0.0
1281.2868495064424 1281.2868495064424 0.0 0.0
991.8548390723516 991.8548390723516 0.0 0.0
736.5954639242757 736.5954639242757 0.0 0.0
519.3555507683794 519.3555507683794 0.0 0.0
333.82635290443085 333.82635290443085 0.0 0.0
196.10850480835722 196.10850480835722 0.0 0.0
105.71377941573006 105.71377941573006 0.0 0.0
581.3221201451868 581.3221201451868 0.0 0.0
294.3457978482676 294.3457978482676 0.0 0.0
125.81888496237445 125.81888496237445 0.0 0.0
161.6225861163647 161.6225861163647 0.0 0.0
154.5625381901308 154.5625381901308 0.0 0.0
166.4453999324144 166.4453999324144 0.0 0.0
180.16000809250968 180.16000809250968 0.0 0.0
197.12960837520978 197.12960837520978 0.0 0.0
204.99063639151737 204.99063639151737 0.0 0.0
239.9317186112881 239.9317186112881 0.0 0.0
542.9992216879058 542.9992216879058 0.0 0.0
1531.6759096714225 1531.6759096714225 0.0 0.0
544.6863232198967 544.6863232198967 0.0 0.0
242.28584576513458 242.28584576513458 0.0 0.0
207.92680476345402 207.92680476345402 0.0 0.0
200.82443733126053 200.82443733126053 0.0 0.0
185.02835486755876 185.02835486755876 0.0 0.0
173.2294751952378 173.2294751952378 0.0 0.0
164.82852854497645 164.82852854497645 0.0 0.0
174.8368926462904 174.8368926462904 0.0 0.0
136.00597021179476 136.00597021179476 0.0 0.0
289.0511362399815 289.0511362399815 0.0 0.0
130.23816699479056 130.23816699479056 0.0 0.0
138.0056075315009 138.0056075315009 0.0 0.0
244.46782236250567 244.46782236250567 0.0 0.0
337.7896525659395 337.7896525659395 0.0 0.0
489.366054737795 489.366054737795 0.0 0.0
706.7090901990236 706.7090901990236 0.0 0.0
985.5665464748249 985.5665464748249 0.0 0.0
1371.7117125257448 1371.7117125257448 0.0 0.0
1785.1646124851163 1785.1646124851163 0.0 0.0
1922.0665765993995 1922.0665765993995 0.0 0.0
3824.7747767513465 3824.7747767513465 0.0 0.0
1928.167887750959 1928.167887750959 0.0 0.0
1795.7378600583165 1795.7378600583165 0.0 0.0
1386.0410110135049 1386.0410110135049 0.0 0.0
1002.6186507085969 1002.6186507085969 0.0 0.0
725.5340253281992 725.5340253281992 0.0 0.0
508.7891338964101 508.7891338964101 0.0 0.0
355.6925311184844 355.6925311184844 0.0 0.0
256.33510162175753 256.33510162175753 0.0 0.0
141.670889636016 141.670889636016 0.0 0.0
123.80328079723185 123.80328079723185 0.0 0.0
67.07018242355552 67.07018242355552 0.0 0.0
149.97403655790373 149.97403655790373 0.0 0.0
436.19288394240056 436.19288394240056 0.0 0.0
891.9197758194242 891.9197758194242 0.0 0.0
1524.6732750240396 1524.6732750240396 0.0 0.0
2355.9915786731526 2355.9915786731526 0.0 0.0
3396.0170829987396 3396.0170829987396 0.0 0.0
4649.37432050697 4649.37432050697 0.0 0.0
6407.609480917739 6407.609480917739 0.0 0.0
6917.072802730595 6917.072802730595 0.0 0.0
11130.785928566182 11130.785928566182 0.0 0.0
6927.733228058906 6927.733228058906 0.0 0.0
6427.340535529534 6427.340535529534 0.0 0.0
4675.814683451083 4675.814683451083 0.0 0.0
3426.608159619946 3426.608159619946 0.0 0.0
2386.9689819861846 2386.9689819861846 0.0 0.0
1551.3622290150463 1551.3622290150463 0.0 0.0
909.3445031493358 909.3445031493358 0.0 0.0
442.709225937145 442.709225937145 0.0 0.0
150.12828118043518 150.12828118043518 0.0 0.0
61.69340669052187 61.69340669052187 0.0 0.0
67.19419501791462 67.19419501791462 0.0 0.0
227.27954995363024 227.27954995363024 0.0 0.0
837.956724090646 837.956724090646 0.0 0.0
1903.830088992834 1903.830088992834 0.0 0.0
3340.2179242601624 3340.2179242601624 0.0 0.0
5183.813860660564 5183.813860660564 0.0 0.0
7487.891417840669 7487.891417840669 0.0 0.0
10185.194067753533 10185.194067753533 0.0 0.0
13165.087408587593 13165.087408587593 0.0 0.0
16050.068473922543 16050.068473922543 0.0 0.0
29948.38339427645 29948.38339427645 0.0 0.0
16066.479838301202 16066.479838301202 0.0 0.0
13196.618517491559 13196.618517491559 0.0 0.0
10227.308297921803 10227.308297921803 0.0 0.0
7535.438603501224 7535.438603501224 0.0 0.0
5229.514531636847 5229.514531636847 0.0 0.0
3374.520708921453 3374.520708921453 0.0 0.0
1918.6856164059238 1918.6856164059238 0.0 0.0
837.790035133106 837.790035133106 0.0 0.0
225.05912677857458 225.05912677857458 0.0 0.0
63.07736587224736 63.07736587224736 0.0 0.0
1197.6846247616515 1197.6846247616515 0.0 0.0
823.8145806063728 823.8145806063728 0.0 0.0
1004.2362435914094 1004.2362435914094 0.0 0.0
1965.231820908642 1965.231820908642 0.0 0.0
3359.62871648091 3359.62871648091 0.0 0.0
5171.576473750419 5171.576473750419 0.0 0.0
7429.542596330054 7429.542596330054 0.0 0.0
10363.413919061604 10363.413919061604 0.0 0.0
14412.999002770373 14412.999002770373 0.0 0.0
19293.94966563896 19293.94966563896 0.0 0.0
21904.001585088456 21904.001585088456 0.0 0.0
19275.508064176105 19275.508064176105 0.0 0.0
14378.054160227679 14378.054160227679 0.0 0.0
10312.726176890661 10312.726176890661 0.0 0.0
7361.59100644271 7361.59100644271 0.0 0.0
5084.191019305004 5084.191019305004 0.0 0.0
3252.2867228074842 3252.2867228074842 0.0 0.0
1842.885123076816 1842.885123076816 0.0 0.0
866.2191331092689 866.2191331092689 0.0 0.0
558.0954671475376 558.0954671475376 0.0 0.0
1117.7285382792095 1117.7285382792095 0.0 0.0
988.9032229064094 988.9032229064094 0.0 0.0
135.18016138682015 135.18016138682015 0.0 0.0
447.39365041680435 447.39365041680435 0.0 0.0
938.4551137704043 938.4551137704043 0.0 0.0
1573.4113024770404 1573.4113024770404 0.0 0.0
2389.6963032532667 2389.6963032532667 0.0 0.0
3403.3109223527013 3403.3109223527013 0.0 0.0
4693.8376001965735 4693.8376001965735 0.0 0.0
6437.006892914654 6437.006892914654 0.0 0.0
8571.641726887487 8571.641726887487 0.0 0.0
9827.569051372735 9827.569051372735 0.0 0.0
8559.300490675581 8559.300490675581 0.0 0.0
6413.293789777482 6413.293789777482 0.0 0.0
4659.676631749713 4659.676631749713 0.0 0.0
3358.8375354542572 3358.8375354542572 0.0 0.0
2334.7922694294066 2334.7922694294066 0.0 0.0
1509.1949652110084 1509.1949652110084 0.0 0.0
867.4563262887921 867.4563262887921 0.0 0.0
388.2351293933228 388.2351293933228 0.0 0.0
110.52793439277296 110.52793439277296 0.0 0.0
935.4499958796573 935.4499958796573 0.0 0.0
551.8797771017566 551.8797771017566 0.0 0.0
82.38036136003007 82.38036136003007 0.0 0.0
190.0301950596756 190.0301950596756 0.0 0.0
341.5519270423172 341.5519270423172 0.0 0.0
529.3973493159164 529.3973493159164 0.0 0.0
746.1011939214649 746.1011939214649 0.0 0.0
1004.5548880736504 1004.5548880736504 0.0 0.0
1310.2451365658692 1310.2451365658692 0.0 0.0
1791.13845974331 1791.13845974331 0.0 0.0
2687.094015644607 2687.094015644607 0.0 0.0
3538.875456675451 3538.875456675451 0.0 0.0
2682.122429145056 2682.122429145056 0.0 0.0
1781.0439211885482 1781.0439211885482 0.0 0.0
1295.5644587482286 1295.5644587482286 0.0 0.0
986.0937751535648 986.0937751535648 0.0 0.0
725.0248207391821 725.0248207391821 0.0 0.0
507.1207336434648 507.1207336434648 0.0 0.0
323.3143374085969 323.3143374085969 0.0 0.0
188.68545162838333 188.68545162838333 0.0 0.0
97.4951539082156 97.4951539082156 0.0 0.0
531.5016510467086 531.5016510467086 0.0 0.0
273.7497800288187 273.7497800288187 0.0 0.0
112.65295650136174 112.65295650136174 0.0 0.0
152.42420275390717 152.42420275390717 0.0 0.0
151.6373812208349 151.6373812208349 0.0 0.0
167.8256639840796 167.8256639840796 0.0 0.0
184.72320750180816 184.72320750180816 0.0 0.0
206.3428523399775 206.3428523399775 0.0 0.0
223.7916981825038 223.7916981825038 0.0 0.0
278.1074672935764 278.1074672935764 0.0 0.0
603.3532371346269 603.3532371346269 0.0 0.0
1626.9110309676498 1626.9110309676498 0.0 0.0
605.9146947862198 605.9146947862198 0.0 0.0
281.8043653863022 281.8043653863022 0.0 0.0
228.38069122020073 228.38069122020073 0.0 0.0
212.26147046303166 212.26147046303166 0.0 0.0
192.86695276969036 192.86695276969036 0.0 0.0
179.43534404213963 179.43534404213963 0.0 0.0
168.78490612692073 168.78490612692073 0.0 0.0
173.42095633363257 173.42095633363257 0.0 0.0
128.78040930307193 128.78040930307193 0.0 0.0
253.34788243527677 253.34788243527677 0.0 0.0
115.74367999271449 115.74367999271449 0.0 0.0
125.52044776240034 125.52044776240034 0.0 0.0
227.37816481489344 227.37816481489344 0.0 0.0
319.68794910613394 319.68794910613394 0.0 0.0
469.815294009379 469.815294009379 0.0 0.0
685.9084950472785 685.9084950472785 0.0 0.0
969.0508943856046 969.0508943856046 0.0 0.0
1374.4304309485838 1374.4304309485838 0.0 0.0
1828.8147356127097 1828.8147356127097 0.0 0.0
1991.0535689370054 1991.0535689370054 0.0 0.0
3993.018002381001 3993.018002381001 0.0 0.0
2000.9480127715979 2000.9480127715979 0.0 0.0
1845.8419556844026 1845.8419556844026 0.0 0.0
1397.2234949008662 1397.2234949008662 0.0 0.0
996.4632648664606 996.4632648664606 0.0 0.0
716.9535841962002 716.9535841962002 0.0 0.0
502.83806527200835 502.83806527200835 0.0 0.0
350.7743830350176 350.7743830350176 0.0 0.0
248.1945615213996 248.1945615213996 0.0 0.0
132.76366445090596 132.76366445090596 0.0 0.0
100.72704971346946 100.72704971346946 0.0 0.0
58.52910237688385 58.52910237688385 0.0 0.0
134.7881039264668 134.7881039264668 0.0 0.0
405.8371712707912 405.8371712707912 0.0 0.0
845.950332815937 845.950332815937 0.0 0.0
1461.5695428749439 1461.5695428749439 0.0 0.0
2279.0510678520986 2279.0510678520986 0.0 0.0
3322.635174357497 3322.635174357497 0.0 0.0
4621.0841349183165 4621.0841349183165 0.0 0.0
6511.09507351812 6511.09507351812 0.0 0.0
7090.59421021396 7090.59421021396 0.0 0.0
11561.543620798515 11561.543620798515 0.0 0.0
7107.613105863467 7107.613105863467 0.0 0.0
6541.931771997589 6541.931771997589 0.0 0.0
4662.165916116812 4662.165916116812 0.0 0.0
3370.6563631486424 3370.6563631486424 0.0 0.0
2328.6405606201456 2328.6405606201456 0.0 0.0
1505.5739067088616 1505.5739067088616 0.0 0.0
875.8551743004198 875.8551743004198 0.0 0.0
417.59954796047646 417.59954796047646 0.0 0.0
135.70260571121244 135.70260571121244 0.0 0.0
48.58216184327072 48.58216184327072 0.0 0.0
55.17974282622167 55.17974282622167 0.0 0.0
200.38877050593013 200.38877050593013 0.0 0.0
781.4399197632816 781.4399197632816 0.0 0.0
1811.2001239383399 1811.2001239383399 0.0 0.0
3206.7353997382966 3206.7353997382966 0.0 0.0
5015.737104311313 5015.737104311313 0.0 0.0
7320.649849623183 7320.649849623183 0.0 0.0
10114.959158968404 10114.959158968404 0.0 0.0
13362.411386386377 13362.411386386377 0.0 0.0
16504.917070161908 16504.917070161908 0.0 0.0
31221.298079407632 31221.298079407632 0.0 0.0
16529.061542369524 16529.061542369524 0.0 0.0
13409.536838742446 13409.536838742446 0.0 0.0
10178.53584621847 10178.53584621847 0.0 0.0
7393.472037670644 7393.472037670644 0.0 0.0
5087.0141076972195 5087.0141076972195 0.0 0.0
3261.4508438261673 3261.4508438261673 0.0 0.0
1835.5892109740357 1835.5892109740357 0.0 0.0
780.4957101859657 780.4957101859657 0.0 0.0
194.93623088276598 194.93623088276598 0.0 0.0
46.682586734093434 46.682586734093434 0.0 0.0
1231.4552384201793 1231.4552384201793 0.0 0.0
800.7144617937448 800.7144617937448 0.0 0.0
1020.2419874478285 1020.2419874478285 0.0 0.0
2018.2422322993596 2018.2422322993596 0.0 0.0
3445.2180342859815 3445.2180342859815 0.0 0.0
5285.643748115524 5285.643748115524 0.0 0.0
7539.872597992684 7539.872597992684 0.0 0.0
10370.860908074623 10370.860908074623 0.0 0.0
14132.981576354676 14132.981576354676 0.0 0.0
18563.99107492299 18563.99107492299 0.0 0.0
20917.441233238533 20917.441233238533 0.0 0.0
18553.72980002125 18553.72980002125 0.0 0.0
14113.153884680147 14113.153884680147 0.0 0.0
10341.649505378873 10341.649505378873 0.0 0.0
7500.645867927142 7500.645867927142 0.0 0.0
5236.016471659419 5236.016471659419 0.0 0.0
3385.8653732600255 3385.8653732600255 0.0 0.0
1953.1350784233293 1953.1350784233293 0.0 0.0
941.8188744039034 941.8188744039034 0.0 0.0
624.2375599225131 624.2375599225131 0.0 0.0
1215.1982587269945 1215.1982587269945 0.0 0.0
1041.9924078339934 1041.9924078339934 0.0 0.0
134.88870884851985 134.88870884851985 0.0 0.0
449.9551359859855 449.9551359859855 0.0 0.0
954.8539560012497 954.8539560012497 0.0 0.0
1603.478645333823 1603.478645333823 0.0 0.0
2430.225885721645 2430.225885721645 0.0 0.0
3438.970996922792 3438.970996922792 0.0 0.0
4681.495486657376 4681.495486657376 0.0 0.0
6301.799608569883 6301.799608569883 0.0 0.0
8253.615273955194 8253.615273955194 0.0 0.0
9404.071566806413 9404.071566806413 0.0 0.0
8246.574180837157 8246.574180837157 0.0 0.0
6288.062586507481 6288.062586507481 0.0 0.0
4661.532121546385 4661.532121546385 0.0 0.0
3413.1031494006907 3413.1031494006907 0.0 0.0
2398.9282488745694 2398.9282488745694 0.0 0.0
1568.2275834480265 1568.2275834480265 0.0 0.0
916.8147461451676 916.8147461451676 0.0 0.0
418.7871425737284 418.7871425737284 0.0 0.0
126.13768710042733 126.13768710042733 0.0 0.0
1007.9956667172269 1007.9956667172269 0.0 0.0
578.6966204494208 578.6966204494208 0.0 0.0
93.65050004481934 93.65050004481934 0.0 0.0
194.13463765539998 194.13463765539998 0.0 0.0
343.0768467287793 343.0768467287793 0.0 0.0
531.596190781688 531.596190781688 0.0 0.0
748.6726768962491 748.6726768962491 0.0 0.0
1002.6637957361137 1002.6637957361137 0.0 0.0
1289.908501302197 1289.908501302197 0.0 0.0
1726.389740401948 1726.389740401948 0.0 0.0
2556.0250473442893 2556.0250473442893 0.0 0.0
3365.968637720259 3365.968637720259 0.0 0.0
2553.249309547327 2553.249309547327 0.0 0.0
1720.538127522939 1720.538127522939 0.0 0.0
1281.2868495081443 1281.2868495081443 0.0 0.0
991.8548390651794 991.8548390651794 0.0 0.0
736.595463929049 736.595463929049 0.0 0.0
519.3555507722809 519.3555507722809 0.0 0.0
333.8263529059936 333.8263529059936 0.0 0.0
196.10850481095113 196.10850481095113 0.0 0.0
105.71377941681934 105.71377941681934 0.0 0.0
581.3221201511968 581.3221201511968 0.0 0.0
294.34579784738946 294.34579784738946 0.0 0.0
125.8188849623119 125.8188849623119 0.0 0.0
161.62258611636818 161.62258611636818 0.0 0.0
154.5625381905576 154.5625381905576 0.0 0.0
166.4453999343373 166.4453999343373 0.0 0.0
180.16000809098819 180.16000809098819 0.0 0.0
197.1296083735745 197.1296083735745 0.0 0.0
204.99063639346366 204.99063639346366 0.0 0.0
239.93171860391803 239.93171860391803 0.0 0.0
542.999221688753 542.999221688753 0.0 0.0
1531.6759096809064 1531.6759096809064 0.0 0.0
544.6863232179376 544.6863232179376 0.0 0.0
242.2858457532842 242.2858457532842 0.0 0.0
207.92680476537151 207.92680476537151 0.0 0.0
200.8244373213704 200.8244373213704 0.0 0.0
185.0283548727427 185.0283548727427 0.0 0.0
173.2294751945904 173.2294751945904 0.0 0.0
164.82852854769519 164.82852854769519 0.0 0.0
174.83689264767227 174.83689264767227 0.0 0.0
136.00597021306652 136.00597021306652 0.0 0.0
289.0511362437939 289.0511362437939 0.0 0.0
130.23816699420325 130.23816699420325 0.0 0.0
138.0056075314066 138.0056075314066 0.0 0.0
244.46782236250533 244.46782236250533 0.0 0.0
337.7896525673568 337.7896525673568 0.0 0.0
489.3660547378518 489.3660547378518 0.0 0.0
706.7090902017383 706.7090902017383 0.0 0.0
985.5665464745495 985.5665464745495 0.0 0.0
1371.7117125284794 1371.7117125284794 0.0 0.0
1785.1646124849 1785.1646124849 0.0 0.0
1922.0665766016948 1922.0665766016948 0.0 0.0
3824.7747767523274 3824.7747767523274 0.0 0.0
1928.1678877478948 1928.1678877478948 0.0 0.0
1795.7378600561797 1795.7378600561797 0.0 0.0
1386.0410110170649 1386.0410110170649 0.0 0.0
1002.6186507045143 1002.6186507045143 0.0 0.0
725.5340253379837 725.5340253379837 0.0 0.0
508.7891338986328 508.7891338986328 0.0 0.0
355.6925311217686 355.6925311217686 0.0 0.0
256.335101624071 256.335101624071 0.0 0.0
141.67088963715995 141.67088963715995 0.0 0.0
123.80328079936548 123.80328079936548 0.0 0.0
67.07018242329399 67.07018242329399 0.0 0.0
149.9740365576829 149.9740365576829 0.0 0.0
436.1928839421537 436.1928839421537 0.0 0.0
891.9197758194828 891.9197758194828 0.0 0.0
1524.6732750276055 1524.6732750276055 0.0 0.0
2355.991578679124 2355.991578679124 0.0 0.0
3396.0170829987146 3396.0170829987146 0.0 0.0
4649.3743205186665 4649.3743205186665 0.0 0.0
6407.609480911597 6407.609480911597 0.0 0.0
6917.072802738996 6917.072802738996 0.0 0.0
11130.785928550986 11130.785928550986 0.0 0.0
6927.7332280607925 6927.7332280607925 0.0 0.0
6427.340535518907 6427.340535518907 0.0 0.0
4675.814683460482 4675.814683460482 0.0 0.0
3426.608159622837 3426.608159622837 0.0 0.0
2386.9689820029744 2386.9689820029744 0.0 0.0
1551.362229024536 1551.362229024536 0.0 0.0
909.3445031553309 909.3445031553309 0.0 0.0
442.70922594069407 442.70922594069407 0.0 0.0
150.12828118165407 150.12828118165407 0.0 0.0
61.69340669143041 61.69340669143041 0.0 0.0
67.19419501774527 67.19419501774527 0.0 0.0
227.27954995338462 227.27954995338462 0.0 0.0
837.9567240888895 837.9567240888895 0.0 0.0
1903.8300889923676 1903.8300889923676 0.0 0.0
3340.2179242657935 3340.2179242657935 0.0 0.0
5183.8138606701405 5183.8138606701405 0.0 0.0
7487.891417850728 7487.891417850728 0.0 0.0
10185.19406776159 10185.19406776159 0.0 0.0
13165.087408576135 13165.087408576135 0.0 0.0
16050.068473923176 16050.068473923176 0.0 0.0
29948.383394240846 29948.383394240846 0.0 0.0
16066.47983829437 16066.47983829437 0.0 0.0
13196.61851746677 13196.61851746677 0.0 0.0
10227.30829792548 10227.30829792548 0.0 0.0
7535.438603522359 7535.438603522359 0.0 0.0
5229.514531668851 5229.514531668851 0.0 0.0
3374.5207089475134 3374.5207089475134 0.0 0.0
1918.6856164200178 1918.6856164200178 0.0 0.0
837.7900351387268 837.7900351387268 0.0 0.0
225.0591267805019 225.0591267805019 0.0 0.0
63.07736587321722 63.07736587321722 0.0 0.0
1736.5513726350669 1736.5513726350669 0.0 0.0
716.5019048435521 716.5019048435521 0.0 0.0
1064.2395133091675 1064.2395133091675 0.0 0.0
2144.2715131976643 2144.2715131976643 0.0 0.0
3676.3593771480737 3676.3593771480737 0.0 0.0
5675.407440460565 5675.407440460565 0.0 0.0
8071.179230120628 8071.179230120628 0.0 0.0
10838.701450395518 10838.701450395518 0.0 0.0
13951.13314675198 13951.13314675198 0.0 0.0
17012.095591168352 17012.095591168352 0.0 0.0
18481.69047936709 18481.69047936709 0.0 0.0
17020.535329980416 17020.535329980416 0.0 0.0
13966.89368640646 13966.89368640646 0.0 0.0
10861.557208687773 10861.557208687773 0.0 0.0
8102.405376307351 8102.405376307351 0.0 0.0
5717.358346991367 5717.358346991367 0.0 0.0
3732.502941203418 3732.502941203418 0.0 0.0
2215.5396482767005 2215.5396482767005 0.0 0.0
1165.085954622758 1165.085954622758 0.0 0.0
855.8642145717338 855.8642145717338 0.0 0.0
1692.4991695604774 1692.4991695604774 0.0 0.0
1392.5666912652841 1392.5666912652841 0.0 0.0
121.16252116351428 121.16252116351428 0.0 0.0
449.1009455364708 449.1009455364708 0.0 0.0
977.3673536637939 977.3673536637939 0.0 0.0
1673.3813450524299 1673.3813450524299 0.0 0.0
2566.6913659264446 2566.6913659264446 0.0 0.0
3636.906407203337 3636.906407203337 0.0 0.0
4855.415227329075 4855.415227329075 0.0 0.0
6201.783198607137 6201.783198607137 0.0 0.0
7552.508003453564 7552.508003453564 0.0 0.0
8267.135003713849 8267.135003713849 0.0 0.0
7557.959917166243 7557.959917166243 0.0 0.0
6212.199650704777 6212.199650704777 0.0 0.0
4870.654127664341 4870.654127664341 0.0 0.0
3657.385392439301 3657.385392439301 0.0 0.0
2593.3794113790186 2593.3794113790186 0.0 0.0
1707.2596239646687 1707.2596239646687 0.0 0.0
1020.6263504035105 1020.6263504035105 0.0 0.0
491.6392248363416 491.6392248363416 0.0 0.0
139.2883568395435 139.2883568395435 0.0 0.0
1401.190657819997 1401.190657819997 0.0 0.0
836.6958825898773 836.6958825898773 0.0 0.0
98.39395060501941 98.39395060501941 0.0 0.0
192.15114399997705 192.15114399997705 0.0 0.0
324.1050847755893 324.1050847755893 0.0 0.0
520.3829638849356 520.3829638849356 0.0 0.0
754.0710226943024 754.0710226943024 0.0 0.0
1029.220740704125 1029.220740704125 0.0 0.0
1326.2746032238392 1326.2746032238392 0.0 0.0
1677.0139245164867 1677.0139245164867 0.0 0.0
2211.3587996694996 2211.3587996694996 0.0 0.0
2690.7221168907645 2690.7221168907645 0.0 0.0
2213.9324570932113 2213.9324570932113 0.0 0.0
1682.0796327485598 1682.0796327485598 0.0 0.0
1333.6549293254536 1333.6549293254536 0.0 0.0
1038.6764692539684 1038.6764692539684 0.0 0.0
765.3516680536117 765.3516680536117 0.0 0.0
533.4551703685016 533.4551703685016 0.0 0.0
337.32361218468293 337.32361218468293 0.0 0.0
195.98568015100108 195.98568015100108 0.0 0.0
86.13864832715163 86.13864832715163 0.0 0.0
829.5208008498288 829.5208008498288 0.0 0.0
416.03547091298583 416.03547091298583 0.0 0.0
137.23994848459552 137.23994848459552 0.0 0.0
167.88989213677448 167.88989213677448 0.0 0.0
144.85067721692542 144.85067721692542 0.0 0.0
150.55060578294777 150.55060578294777 0.0 0.0
164.23718326854194 164.23718326854194 0.0 0.0
182.4883327179015 182.4883327179015 0.0 0.0
193.59822547203976 193.59822547203976 0.0 0.0
204.24361946681216 204.24361946681216 0.0 0.0
371.30544020690604 371.30544020690604 0.0 0.0
908.2894675011141 908.2894675011141 0.0 0.0
370.76187888962716 370.76187888962716 0.0 0.0
203.95235557653723 203.95235557653723 0.0 0.0
193.49141645932085 193.49141645932085 0.0 0.0
182.044306017391 182.044306017391 0.0 0.0
162.82287057717127 162.82287057717127 0.0 0.0
147.34516776481172 147.34516776481172 0.0 0.0
138.16212321123191 138.16212321123191 0.0 0.0
156.40078940238035 156.40078940238035 0.0 0.0
122.24666836797556 122.24666836797556 0.0 0.0
418.8093709916588 418.8093709916588 0.0 0.0
172.369642820851 172.369642820851 0.0 0.0
147.44878749913198 147.44878749913198 0.0 0.0
263.3221895202684 263.3221895202684 0.0 0.0
371.19621866251515 371.19621866251515 0.0 0.0
537.9361485235347 537.9361485235347 0.0 0.0
770.0019218639502 770.0019218639502 0.0 0.0
1052.7154753834227 1052.7154753834227 0.0 0.0
1402.3005169434668 1402.3005169434668 0.0 0.0
1733.2229102173899 1733.2229102173899 0.0 0.0
1829.147532455307 1829.147532455307 0.0 0.0
2771.212754222288 2771.212754222288 0.0 0.0
1825.3315724350014 1825.3315724350014 0.0 0.0
1727.9177724992876 1727.9177724992876 0.0 0.0
1395.4508113368042 1395.4508113368042 0.0 0.0
1044.1033311036076 1044.1033311036076 0.0 0.0
759.5596052149282 759.5596052149282 0.0 0.0
525.6339432701855 525.6339432701855 0.0 0.0
357.89109674491266 357.89109674491266 0.0 0.0
251.98959796001307 251.98959796001307 0.0 0.0
138.68044127162716 138.68044127162716 0.0 0.0
176.0574699655353 176.0574699655353 0.0 0.0
75.92553298964206 75.92553298964206 0.0 0.0
160.5683783416539 160.5683783416539 0.0 0.0
482.92075722600464 482.92075722600464 0.0 0.0
1005.7438587150481 1005.7438587150481 0.0 0.0
1711.5467326433575 1711.5467326433575 0.0 0.0
2607.387986162556 2607.387986162556 0.0 0.0
3682.550662455586 3682.550662455586 0.0 0.0
4892.27160047491 4892.27160047491 0.0 0.0
6359.571916367081 6359.571916367081 0.0 0.0
6753.960357923146 6753.960357923146 0.0 0.0
8713.615341422537 8713.615341422537 0.0 0.0
6747.287431962216 6747.287431962216 0.0 0.0
6350.110713763349 6350.110713763349 0.0 0.0
4879.258083847447 4879.258083847447 0.0 0.0
3666.9164188183927 3666.9164188183927 0.0 0.0
2590.856031258599 2590.856031258599 0.0 0.0
1696.5586832376616 1696.5586832376616 0.0 0.0
995.5260921562084 995.5260921562084 0.0 0.0
479.0085251296979 479.0085251296979 0.0 0.0
158.48165176177716 158.48165176177716 0.0 0.0
77.47019344294834 77.47019344294834 0.0 0.0
70.49955927266919 70.49955927266919 0.0 0.0
248.99038332170554 248.99038332170554 0.0 0.0
939.2384598947166 939.2384598947166 0.0 0.0
2147.9123218335926 2147.9123218335926 0.0 0.0
3747.9631410459792 3747.9631410459792 0.0 0.0
5744.260279095808 5744.260279095808 0.0 0.0
8150.295278185305 8150.295278185305 0.0 0.0
10832.57699575155 10832.57699575155 0.0 0.0
13517.198112491533 13517.198112491533 0.0 0.0
15337.893124415306 15337.893124415306 0.0 0.0
23012.978760470272 23012.978760470272 0.0 0.0
15333.123241162504 15333.123241162504 0.0 0.0
13504.750130782768 13504.750130782768 0.0 0.0
10813.57041787093 10813.57041787093 0.0 0.0
8127.504846723182 8127.504846723182 0.0 0.0
5721.638690469757 5721.638690469757 0.0 0.0
3731.4390927825452 3731.4390927825452 0.0 0.0
2143.757718282885 2143.757718282885 0.0 0.0
946.1175351839809 946.1175351839809 0.0 0.0
255.08585167920222 255.08585167920222 0.0 0.0
73.53500857497932 73.53500857497932 0.0 0.0
4665.610226841447 4665.610226841447 0.0 0.0
844.2502308694244 844.2502308694244 0.0 0.0
1005.8420144978099 1005.8420144978099 0.0 0.0
2105.7392017984776 2105.7392017984776 0.0 0.0
3714.6118616308113 3714.6118616308113 0.0 0.0
5854.248420079059 5854.248420079059 0.0 0.0
8429.839203392623 8429.839203392623 0.0 0.0
11311.24015142685 11311.24015142685 0.0 0.0
14082.342535032692 14082.342535032692 0.0 0.0
15997.351369088956 15997.351369088956 0.0 0.0
16613.430875182556 16613.430875182556 0.0 0.0
16021.552027618323 16021.552027618323 0.0 0.0
14130.72891912252 14130.72891912252 0.0 0.0
11385.042540822225 11385.042540822225 0.0 0.0
8531.20757478543 8531.20757478543 0.0 0.0
5984.00400500755 5984.00400500755 0.0 0.0
3869.1335702762367 3869.1335702762367 0.0 0.0
2275.0672955784844 2275.0672955784844 0.0 0.0
1196.0451117068317 1196.0451117068317 0.0 0.0
1332.7692307496172 1332.7692307496172 0.0 0.0
4469.891077949553 4469.891077949553 0.0 0.0
3463.622220655497 3463.622220655497 0.0 0.0
104.80312153723395 104.80312153723395 0.0 0.0
467.5898141013089 467.5898141013089 0.0 0.0
999.4942928322452 999.4942928322452 0.0 0.0
1715.6549030505491 1715.6549030505491 0.0 0.0
2646.0215957772916 2646.0215957772916 0.0 0.0
3771.4314024498553 3771.4314024498553 0.0 0.0
5040.729823458141 5040.729823458141 0.0 0.0
6286.838419078997 6286.838419078997 0.0 0.0
7171.5465597665625 7171.5465597665625 0.0 0.0
7459.343067643005 7459.343067643005 0.0 0.0
7187.241334378266 7187.241334378266 0.0 0.0
6318.107165908207 6318.107165908207 0.0 0.0
5087.914816809641 5087.914816809641 0.0 0.0
3834.8233291480924 3834.8233291480924 0.0 0.0
2724.8324853457952 2724.8324853457952 0.0 0.0
1805.7968307148967 1805.7968307148967 0.0 0.0
1094.0380027565288 1094.0380027565288 0.0 0.0
534.6979909785484 534.6979909785484 0.0 0.0
121.03151879351185 121.03151879351185 0.0 0.0
3637.95606117275 3637.95606117275 0.0 0.0
1926.8325294689005 1926.8325294689005 0.0 0.0
286.1516907907967 286.1516907907967 0.0 0.0
401.83132845614415 401.83132845614415 0.0 0.0
523.0610688355977 523.0610688355977 0.0 0.0
723.6182239329231 723.6182239329231 0.0 0.0
955.5644010976973 955.5644010976973 0.0 0.0
1240.1311993019463 1240.1311993019463 0.0 0.0
1592.0378735625388 1592.0378735625388 0.0 0.0
1974.7923774075841 1974.7923774075841 0.0 0.0
2229.5632697878023 2229.5632697878023 0.0 0.0
2301.6738906766163 2301.6738906766163 0.0 0.0
2236.0075582454306 2236.0075582454306 0.0 0.0
1987.050216346876 1987.050216346876 0.0 0.0
1609.759872540028 1609.759872540028 0.0 0.0
1262.6708010527493 1262.6708010527493 0.0 0.0
981.3035351957777 981.3035351957777 0.0 0.0
749.4510412133034 749.4510412133034 0.0 0.0
538.2462257196481 538.2462257196481 0.0 0.0
390.95507825532536 390.95507825532536 0.0 0.0
242.1544805551748 242.1544805551748 0.0 0.0
2010.49415693759 2010.49415693759 0.0 0.0
888.793508861429 888.793508861429 0.0 0.0
415.1590410283848 415.1590410283848 0.0 0.0
517.55202445245 517.55202445245 0.0 0.0
473.8399470228364 473.8399470228364 0.0 0.0
467.70261016222446 467.70261016222446 0.0 0.0
460.745527885695 460.745527885695 0.0 0.0
452.5896933547008 452.5896933547008 0.0 0.0
467.9585007242011 467.9585007242011 0.0 0.0
540.8928875953065 540.8928875953065 0.0 0.0
621.440796012285 621.440796012285 0.0 0.0
674.1872380211705 674.1872380211705 0.0 0.0
619.1619301658222 619.1619301658222 0.0 0.0
535.4368577125516 535.4368577125516 0.0 0.0
458.90126781739565 458.90126781739565 0.0 0.0
439.2431517566116 439.2431517566116 0.0 0.0
442.15501938411035 442.15501938411035 0.0 0.0
441.89515602903333 441.89515602903333 0.0 0.0
437.3505805777002 437.3505805777002 0.0 0.0
475.81794168991786 475.81794168991786 0.0 0.0
380.7434541475102 380.7434541475102 0.0 0.0
935.5137750097856 935.5137750097856 0.0 0.0
337.3836472908467 337.3836472908467 0.0 0.0
381.7846572067358 381.7846572067358 0.0 0.0
611.5727063149736 611.5727063149736 0.0 0.0
720.2616869284324 720.2616869284324 0.0 0.0
868.4693956691364 868.4693956691364 0.0 0.0
1073.8446969039644 1073.8446969039644 0.0 0.0
1316.9503163153295 1316.9503163153295 0.0 0.0
1553.7051503213956 1553.7051503213956 0.0 0.0
1819.7456434081942 1819.7456434081942 0.0 0.0
2237.0696858795236 2237.0696858795236 0.0 0.0
2504.185988032254 2504.185988032254 0.0 0.0
2226.843921237201 2226.843921237201 0.0 0.0
1798.7479981768388 1798.7479981768388 0.0 0.0
1521.9559869922466 1521.9559869922466 0.0 0.0
1274.9412384064835 1274.9412384064835 0.0 0.0
1022.9297765637344 1022.9297765637344 0.0 0.0
811.2798249161966 811.2798249161966 0.0 0.0
663.8456584028337 663.8456584028337 0.0 0.0
571.9304763341407 571.9304763341407 0.0 0.0
364.75848763584884 364.75848763584884 0.0 0.0
354.9586599657544 354.9586599657544 0.0 0.0
117.72106000780171 117.72106000780171 0.0 0.0
291.352141044374 291.352141044374 0.0 0.0
723.909629986763 723.909629986763 0.0 0.0
1295.570588942309 1295.570588942309 0.0 0.0
2007.3946019638715 2007.3946019638715 0.0 0.0
2889.930210041768 2889.930210041768 0.0 0.0
3923.038822044831 3923.038822044831 0.0 0.0
5049.502137048201 5049.502137048201 0.0 0.0
5918.267428824214 5918.267428824214 0.0 0.0
7218.149383337035 7218.149383337035 0.0 0.0
7852.000242693834 7852.000242693834 0.0 0.0
7200.021015212084 7200.021015212084 0.0 0.0
5882.749750095788 5882.749750095788 0.0 0.0
4996.375139614227 4996.375139614227 0.0 0.0
3856.1980968584335 3856.1980968584335 0.0 0.0
2815.2250249717436 2815.2250249717436 0.0 0.0
1935.404540099181 1935.404540099181 0.0 0.0
1241.6645599562344 1241.6645599562344 0.0 0.0
699.0243414904631 699.0243414904631 0.0 0.0
284.859909157444 284.859909157444 0.0 0.0
122.0780225421272 122.0780225421272 0.0 0.0
72.33384194414757 72.33384194414757 0.0 0.0
314.48840930545884 314.48840930545884 0.0 0.0
1141.7893865637575 1141.7893865637575 0.0 0.0
2494.881288401073 2494.881288401073 0.0 0.0
4179.595439095689 4179.595439095689 0.0 0.0
6232.3001148581225 6232.3001148581225 0.0 0.0
8647.267958964305 8647.267958964305 0.0 0.0
11349.003216671257 11349.003216671257 0.0 0.0
14108.300955707724 14108.300955707724 0.0 0.0
16748.40372189684 16748.40372189684 0.0 0.0
14400.693354817453 14400.693354817453 0.0 0.0
16725.024349261617 16725.024349261617 0.0 0.0
14052.918975891833 14052.918975891833 0.0 0.0
11267.77786047598 11267.77786047598 0.0 0.0
8548.032159874376 8548.032159874376 0.0 0.0
6128.089183030624 6128.089183030624 0.0 0.0
4092.378736940997 4092.378736940997 0.0 0.0
2449.1423993147523 2449.1423993147523 0.0 0.0
1137.5540650292992 1137.5540650292992 0.0 0.0
320.2120946471435 320.2120946471435 0.0 0.0
76.60907183546769 76.60907183546769 0.0 0.0