# vtk DataFile Version 3.0
Some data
ASCII
DATASET UNSTRUCTURED_GRID
POINTS 1029 float
0.0 0.0 0.0
0.8 0.0 0.0
1.6 0.0 0.0
2.4000000000000004 0.0 0.0
3.2 0.0 0.0
4.0 0.0 0.0
4.800000000000001 0.0 0.0
5.6000000000000005 0.0 0.0
6.4 0.0 0.0
7.2 0.0 0.0
8.0 0.0 0.0
8.8 0.0 0.0
9.600000000000001 0.0 0.0
10.4 0.0 0.0
11.200000000000001 0.0 0.0
12.0 0.0 0.0
12.8 0.0 0.0
13.600000000000001 0.0 0.0
14.4 0.0 0.0
15.200000000000001 0.0 0.0
16.0 0.0 0.0
0.0 0.3333333333333333 0.0
0.8 0.3333333333333333 0.0
1.6 0.3333333333333333 0.0
2.4000000000000004 0.3333333333333333 0.0
3.2 0.3333333333333333 0.0
4.0 0.3333333333333333 0.0
4.800000000000001 0.3333333333333333 0.0
5.6000000000000005 0.3333333333333333 0.0
6.4 0.3333333333333333 0.0
7.2 0.3333333333333333 0.0
8.0 0.3333333333333333 0.0
8.8 0.3333333333333333 0.0
9.600000000000001 0.3333333333333333 0.0
10.4 0.3333333333333333 0.0
11.200000000000001 0.3333333333333333 0.0
12.0 0.3333333333333333 0.0
12.8 0.3333333333333333 0.0
13.600000000000001 0.3333333333333333 0.0
14.4 0.3333333333333333 0.0
15.200000000000001 0.3333333333333333 0.0
16.0 0.3333333333333333 0.0
0.0 0.6666666666666666 0.0
0.8 0.6666666666666666 0.0
1.6 0.6666666666666666 0.0
2.4000000000000004 0.6666666666666666 0.0
3.2 0.6666666666666666 0.0
4.0 0.6666666666666666 0.0
4.800000000000001 0.6666666666666666 0.0
5.6000000000000005 0.6666666666666666 0.0
6.4 0.6666666666666666 0.0
7.2 0.6666666666666666 0.0
8.0 0.6666666666666666 0.0
8.8 0.6666666666666666 0.0
9.600000000000001 0.6666666666666666 0.0
10.4 0.6666666666666666 0.0
11.200000000000001 0.6666666666666666 0.0
12.0 0.6666666666666666 0.0
12.8 0.6666666666666666 0.0
13.600000000000001 0.6666666666666666 0.0
14.4 0.6666666666666666 0.0
15.200000000000001 0.6666666666666666 0.0
16.0 0.6666666666666666 0.0
0.0 1.0 0.0
0.8 1.0 0.0
1.6 1.0 0.0
2.4000000000000004 1.0 0.0
3.2 1.0 0.0
4.0 1.0 0.0
4.800000000000001 1.0 0.0
5.6000000000000005 1.0 0.0
6.4 1.0 0.0
7.2 1.0 0.0
8.0 1.0 0.0
8.8 1.0 0.0
9.600000000000001 1.0 0.0
10.4 1.0 0.0
11.200000000000001 1.0 0.0
12.0 1.0 0.0
12.8 1.0 0.0
13.600000000000001 1.0 0.0
14.4 1.0 0.0
15.200000000000001 1.0 0.0
16.0 1.0 0.0
0.0 1.3333333333333333 0.0
0.8 1.3333333333333333 0.0
1.6 1.3333333333333333 0.0
2.4000000000000004 1.3333333333333333 0.0
3.2 1.3333333333333333 0.0
4.0 1.3333333333333333 0.0
4.800000000000001 1.3333333333333333 0.0
5.6000000000000005 1.3333333333333333 0.0
6.4 1.3333333333333333 0.0
7.2 1.3333333333333333 0.0
8.0 1.3333333333333333 0.0
8.8 1.3333333333333333 0.0
9.600000000000001 1.3333333333333333 0.0
10.4 1.3333333333333333 0.0
11.200000000000001 1.3333333333333333 0.0
12.0 1.3333333333333333 0.0
12.8 1.3333333333333333 0.0
13.600000000000001 1.3333333333333333 0.0
14.4 1.3333333333333333 0.0
15.200000000000001 1.3333333333333333 0.0
16.0 1.3333333333333333 0.0
0.0 1.6666666666666665 0.0
0.8 1.6666666666666665 0.0
1.6 1.6666666666666665 0.0
2.4000000000000004 1.6666666666666665 0.0
3.2 1.6666666666666665 0.0
4.0 1.6666666666666665 0.0
4.800000000000001 1.6666666666666665 0.0
5.6000000000000005 1.6666666666666665 0.0
6.4 1.6666666666666665 0.0
7.2 1.6666666666666665 0.0
8.0 1.6666666666666665 0.0
8.8 1.6666666666666665 0.0
9.600000000000001 1.6666666666666665 0.0
10.4 1.6666666666666665 0.0
11.200000000000001 1.6666666666666665 0.0
12.0 1.6666666666666665 0.0
12.8 1.6666666666666665 0.0
13.600000000000001 1.6666666666666665 0.0
14.4 1.6666666666666665 0.0
15.200000000000001 1.6666666666666665 0.0
16.0 1.6666666666666665 0.0
0.0 2.0 0.0
0.8 2.0 0.0
1.6 2.0 0.0
2.4000000000000004 2.0 0.0
3.2 2.0 0.0
4.0 2.0 0.0
4.800000000000001 2.0 0.0
5.6000000000000005 2.0 0.0
6.4 2.0 0.0
7.2 2.0 0.0
8.0 2.0 0.0
8.8 2.0 0.0
9.600000000000001 2.0 0.0
10.4 2.0 0.0
11.200000000000001 2.0 0.0
12.0 2.0 0.0
12.8 2.0 0.0
13.600000000000001 2.0 0.0
14.4 2.0 0.0
15.200000000000001 2.0 0.0
16.0 2.0 0.0
0.0 0.0 1.6666666666666667
0.8 0.0 1.6666666666666667
1.6 0.0 1.6666666666666667
2.4000000000000004 0.0 1.6666666666666667
3.2 0.0 1.6666666666666667
4.0 0.0 1.6666666666666667
4.800000000000001 0.0 1.6666666666666667
5.6000000000000005 0.0 1.6666666666666667
6.4 0.0 1.6666666666666667
7.2 0.0 1.6666666666666667
8.0 0.0 1.6666666666666667
8.8 0.0 1.6666666666666667
9.600000000000001 0.0 1.6666666666666667
10.4 0.0 1.6666666666666667
11.200000000000001 0.0 1.6666666666666667
12.0 0.0 1.6666666666666667
12.8 0.0 1.6666666666666667
13.600000000000001 0.0 1.6666666666666667
14.4 0.0 1.6666666666666667
15.200000000000001 0.0 1.6666666666666667
16.0 0.0 1.6666666666666667
0.0 0.3333333333333333 1.6666666666666667
0.8 0.3333333333333333 1.6666666666666667
1.6 0.3333333333333333 1.6666666666666667
2.4000000000000004 0.3333333333333333 1.6666666666666667
3.2 0.3333333333333333 1.6666666666666667
4.0 0.3333333333333333 1.6666666666666667
4.800000000000001 0.3333333333333333 1.6666666666666667
5.6000000000000005 0.3333333333333333 1.6666666666666667
6.4 0.3333333333333333 1.6666666666666667
7.2 0.3333333333333333 1.6666666666666667
8.0 0.3333333333333333 1.6666666666666667
8.8 0.3333333333333333 1.6666666666666667
9.600000000000001 0.3333333333333333 1.6666666666666667
10.4 0.3333333333333333 1.6666666666666667
11.200000000000001 0.3333333333333333 1.6666666666666667
12.0 0.3333333333333333 1.6666666666666667
12.8 0.3333333333333333 1.6666666666666667
13.600000000000001 0.3333333333333333 1.6666666666666667
14.4 0.3333333333333333 1.6666666666666667
15.200000000000001 0.3333333333333333 1.6666666666666667
16.0 0.3333333333333333 1.6666666666666667
0.0 0.6666666666666666 1.6666666666666667
0.8 0.6666666666666666 1.6666666666666667
1.6 0.6666666666666666 1.6666666666666667
2.4000000000000004 0.6666666666666666 1.6666666666666667
3.2 0.6666666666666666 1.6666666666666667
4.0 0.6666666666666666 1.6666666666666667
4.800000000000001 0.6666666666666666 1.6666666666666667
5.6000000000000005 0.6666666666666666 1.6666666666666667
6.4 0.6666666666666666 1.6666666666666667
7.2 0.6666666666666666 1.6666666666666667
8.0 0.6666666666666666 1.6666666666666667
8.8 0.6666666666666666 1.6666666666666667
9.600000000000001 0.6666666666666666 1.6666666666666667
10.4 0.6666666666666666 1.6666666666666667
11.200000000000001 0.6666666666666666 1.6666666666666667
12.0 0.6666666666666666 1.6666666666666667
12.8 0.6666666666666666 1.6666666666666667
13.600000000000001 0.6666666666666666 1.6666666666666667
14.4 0.6666666666666666 1.6666666666666667
15.200000000000001 0.6666666666666666 1.6666666666666667
16.0 0.6666666666666666 1.6666666666666667
0.0 1.0 1.6666666666666667
0.8 1.0 1.6666666666666667
1.6 1.0 1.6666666666666667
2.4000000000000004 1.0 1.6666666666666667
3.2 1.0 1.6666666666666667
4.0 1.0 1.6666666666666667
4.800000000000001 1.0 1.6666666666666667
5.6000000000000005 1.0 1.6666666666666667
6.4 1.0 1.6666666666666667
7.2 1.0 1.6666666666666667
8.0 1.0 1.6666666666666667
8.8 1.0 1.6666666666666667
9.600000000000001 1.0 1.6666666666666667
10.4 1.0 1.6666666666666667
11.200000000000001 1.0 1.6666666666666667
12.0 1.0 1.6666666666666667
12.8 1.0 1.6666666666666667
13.600000000000001 1.0 1.6666666666666667
14.4 1.0 1.6666666666666667
15.200000000000001 1.0 1.6666666666666667
16.0 1.0 1.6666666666666667
0.0 1.3333333333333333 1.6666666666666667
0.8 1.3333333333333333 1.6666666666666667
1.6 1.3333333333333333 1.6666666666666667
2.4000000000000004 1.3333333333333333 1.6666666666666667
3.2 1.3333333333333333 1.6666666666666667
4.0 1.3333333333333333 1.6666666666666667
4.800000000000001 1.3333333333333333 1.6666666666666667
5.6000000000000005 1.3333333333333333 1.6666666666666667
6.4 1.3333333333333333 1.6666666666666667
7.2 1.3333333333333333 1.6666666666666667
8.0 1.3333333333333333 1.6666666666666667
8.8 1.3333333333333333 1.6666666666666667
9.600000000000001 1.3333333333333333 1.6666666666666667
10.4 1.3333333333333333 1.6666666666666667
11.200000000000001 1.3333333333333333 1.6666666666666667
12.0 1.3333333333333333 1.6666666666666667
12.8 1.3333333333333333 1.6666666666666667
13.600000000000001 1.3333333333333333 1.6666666666666667
14.4 1.3333333333333333 1.6666666666666667
15.200000000000001 1.3333333333333333 1.6666666666666667
16.0 1.3333333333333333 1.6666666666666667
0.0 1.6666666666666665 1.6666666666666667
0.8 1.6666666666666665 1.6666666666666667
1.6 1.6666666666666665 1.6666666666666667
2.4000000000000004 1.6666666666666665 1.6666666666666667
3.2 1.6666666666666665 1.6666666666666667
4.0 1.6666666666666665 1.6666666666666667
4.800000000000001 1.6666666666666665 1.6666666666666667
5.6000000000000005 1.6666666666666665 1.6666666666666667
6.4 1.6666666666666665 1.6666666666666667
7.2 1.6666666666666665 1.6666666666666667
8.0 1.6666666666666665 1.6666666666666667
8.8 1.6666666666666665 1.6666666666666667
9.600000000000001 1.6666666666666665 1.6666666666666667
10.4 1.6666666666666665 1.6666666666666667
11.200000000000001 1.6666666666666665 1.6666666666666667
12.0 1.6666666666666665 1.6666666666666667
12.8 1.6666666666666665 1.6666666666666667
13.600000000000001 1.6666666666666665 1.6666666666666667
14.4 1.6666666666666665 1.6666666666666667
15.200000000000001 1.6666666666666665 1.6666666666666667
16.0 1.6666666666666665 1.6666666666666667
0.0 2.0 1.6666666666666667
0.8 2.0 1.6666666666666667
1.6 2.0 1.6666666666666667
2.4000000000000004 2.0 1.6666666666666667
3.2 2.0 1.6666666666666667
4.0 2.0 1.6666666666666667
4.800000000000001 2.0 1.6666666666666667
5.6000000000000005 2.0 1.6666666666666667
6.4 2.0 1.6666666666666667
7.2 2.0 1.6666666666666667
8.0 2.0 1.6666666666666667
8.8 2.0 1.6666666666666667
9.600000000000001 2.0 1.6666666666666667
10.4 2.0 1.6666666666666667
11.200000000000001 2.0 1.6666666666666667
12.0 2.0 1.6666666666666667
12.8 2.0 1.6666666666666667
13.600000000000001 2.0 1.6666666666666667
14.4 2.0 1.6666666666666667
15.200000000000001 2.0 1.6666666666666667
16.0 2.0 1.6666666666666667
0.0 0.0 3.3333333333333335
0.8 0.0 3.3333333333333335
1.6 0.0 3.3333333333333335
2.4000000000000004 0.0 3.3333333333333335
3.2 0.0 3.3333333333333335
4.0 0.0 3.3333333333333335
4.800000000000001 0.0 3.3333333333333335
5.6000000000000005 0.0 3.3333333333333335
6.4 0.0 3.3333333333333335
7.2 0.0 3.3333333333333335
8.0 0.0 3.3333333333333335
8.8 0.0 3.3333333333333335
9.600000000000001 0.0 3.3333333333333335
10.4 0.0 3.3333333333333335
11.200000000000001 0.0 3.3333333333333335
12.0 0.0 3.3333333333333335
12.8 0.0 3.3333333333333335
13.600000000000001 0.0 3.3333333333333335
14.4 0.0 3.3333333333333335
15.200000000000001 0.0 3.3333333333333335
16.0 0.0 3.3333333333333335
0.0 0.3333333333333333 3.3333333333333335
0.8 0.3333333333333333 3.3333333333333335
1.6 0.3333333333333333 3.3333333333333335
2.4000000000000004 0.3333333333333333 3.3333333333333335
3.2 0.3333333333333333 3.3333333333333335
4.0 0.3333333333333333 3.3333333333333335
4.800000000000001 0.3333333333333333 3.3333333333333335
5.6000000000000005 0.3333333333333333 3.3333333333333335
6.4 0.3333333333333333 3.3333333333333335
7.2 0.3333333333333333 3.3333333333333335
8.0 0.3333333333333333 3.3333333333333335
8.8 0.3333333333333333 3.3333333333333335
9.600000000000001 0.3333333333333333 3.3333333333333335
10.4 0.3333333333333333 3.3333333333333335
11.200000000000001 0.3333333333333333 3.3333333333333335
12.0 0.3333333333333333 3.3333333333333335
12.8 0.3333333333333333 3.3333333333333335
13.600000000000001 0.3333333333333333 3.3333333333333335
14.4 0.3333333333333333 3.3333333333333335
15.200000000000001 0.3333333333333333 3.3333333333333335
16.0 0.3333333333333333 3.3333333333333335
0.0 0.6666666666666666 3.3333333333333335
0.8 0.6666666666666666 3.3333333333333335
1.6 0.6666666666666666 3.3333333333333335
2.4000000000000004 0.6666666666666666 3.3333333333333335
3.2 0.6666666666666666 3.3333333333333335
4.0 0.6666666666666666 3.3333333333333335
4.800000000000001 0.6666666666666666 3.3333333333333335
5.6000000000000005 0.6666666666666666 3.3333333333333335
6.4 0.6666666666666666 3.3333333333333335
7.2 0.6666666666666666 3.3333333333333335
8.0 0.6666666666666666 3.3333333333333335
8.8 0.6666666666666666 3.3333333333333335
9.600000000000001 0.6666666666666666 3.3333333333333335
10.4 0.6666666666666666 3.3333333333333335
11.200000000000001 0.6666666666666666 3.3333333333333335
12.0 0.6666666666666666 3.3333333333333335
12.8 0.6666666666666666 3.3333333333333335
13.600000000000001 0.6666666666666666 3.3333333333333335
14.4 0.6666666666666666 3.3333333333333335
15.200000000000001 0.6666666666666666 3.3333333333333335
16.0 0.6666666666666666 3.3333333333333335
0.0 1.0 3.3333333333333335
0.8 1.0 3.3333333333333335
1.6 1.0 3.3333333333333335
2.4000000000000004 1.0 3.3333333333333335
3.2 1.0 3.3333333333333335
4.0 1.0 3.3333333333333335
4.800000000000001 1.0 3.3333333333333335
5.6000000000000005 1.0 3.3333333333333335
6.4 1.0 3.3333333333333335
7.2 1.0 3.3333333333333335
8.0 1.0 3.3333333333333335
8.8 1.0 3.3333333333333335
9.600000000000001 1.0 3.3333333333333335
10.4 1.0 3.3333333333333335
11.200000000000001 1.0 3.3333333333333335
12.0 1.0 3.3333333333333335
12.8 1.0 3.3333333333333335
13.600000000000001 1.0 3.3333333333333335
14.4 1.0 3.3333333333333335
15.200000000000001 1.0 3.3333333333333335
16.0 1.0 3.3333333333333335
0.0 1.3333333333333333 3.3333333333333335
0.8 1.3333333333333333 3.3333333333333335
1.6 1.3333333333333333 3.3333333333333335
2.4000000000000004 1.3333333333333333 3.3333333333333335
3.2 1.3333333333333333 3.3333333333333335
4.0 1.3333333333333333 3.3333333333333335
4.800000000000001 1.3333333333333333 3.3333333333333335
5.6000000000000005 1.3333333333333333 3.3333333333333335
6.4 1.3333333333333333 3.3333333333333335
7.2 1.3333333333333333 3.3333333333333335
8.0 1.3333333333333333 3.3333333333333335
8.8 1.3333333333333333 3.3333333333333335
9.600000000000001 1.3333333333333333 3.3333333333333335
10.4 1.3333333333333333 3.3333333333333335
11.200000000000001 1.3333333333333333 3.3333333333333335
12.0 1.3333333333333333 3.3333333333333335
12.8 1.3333333333333333 3.3333333333333335
13.600000000000001 1.3333333333333333 3.3333333333333335
14.4 1.3333333333333333 3.3333333333333335
15.200000000000001 1.3333333333333333 3.3333333333333335
16.0 1.3333333333333333 3.3333333333333335
0.0 1.6666666666666665 3.3333333333333335
0.8 1.6666666666666665 3.3333333333333335
1.6 1.6666666666666665 3.3333333333333335
2.4000000000000004 1.6666666666666665 3.3333333333333335
3.2 1.6666666666666665 3.3333333333333335
4.0 1.6666666666666665 3.3333333333333335
4.800000000000001 1.6666666666666665 3.3333333333333335
5.6000000000000005 1.6666666666666665 3.3333333333333335
6.4 1.6666666666666665 3.3333333333333335
7.2 1.6666666666666665 3.3333333333333335
8.0 1.6666666666666665 3.3333333333333335
8.8 1.6666666666666665 3.3333333333333335
9.600000000000001 1.6666666666666665 3.3333333333333335
10.4 1.6666666666666665 3.3333333333333335
11.200000000000001 1.6666666666666665 3.3333333333333335
12.0 1.6666666666666665 3.3333333333333335
12.8 1.6666666666666665 3.3333333333333335
13.600000000000001 1.6666666666666665 3.3333333333333335
14.4 1.6666666666666665 3.3333333333333335
15.200000000000001 1.6666666666666665 3.3333333333333335
16.0 1.6666666666666665 3.3333333333333335
0.0 2.0 3.3333333333333335
0.8 2.0 3.3333333333333335
1.6 2.0 3.3333333333333335
2.4000000000000004 2.0 3.3333333333333335
3.2 2.0 3.3333333333333335
4.0 2.0 3.3333333333333335
4.800000000000001 2.0 3.3333333333333335
5.6000000000000005 2.0 3.3333333333333335
6.4 2.0 3.3333333333333335
7.2 2.0 3.3333333333333335
8.0 2.0 3.3333333333333335
8.8 2.0 3.3333333333333335
9.600000000000001 2.0 3.3333333333333335
10.4 2.0 3.3333333333333335
11.200000000000001 2.0 3.3333333333333335
12.0 2.0 3.3333333333333335
12.8 2.0 3.3333333333333335
13.600000000000001 2.0 3.3333333333333335
14.4 2.0 3.3333333333333335
15.200000000000001 2.0 3.3333333333333335
16.0 2.0 3.3333333333333335
0.0 0.0 5.0
0.8 0.0 5.0
1.6 0.0 5.0
2.4000000000000004 0.0 5.0
3.2 0.0 5.0
4.0 0.0 5.0
4.800000000000001 0.0 5.0
5.6000000000000005 0.0 5.0
6.4 0.0 5.0
7.2 0.0 5.0
8.0 0.0 5.0
8.8 0.0 5.0
9.600000000000001 0.0 5.0
10.4 0.0 5.0
11.200000000000001 0.0 5.0
12.0 0.0 5.0
12.8 0.0 5.0
13.600000000000001 0.0 5.0
14.4 0.0 5.0
15.200000000000001 0.0 5.0
16.0 0.0 5.0
0.0 0.3333333333333333 5.0
0.8 0.3333333333333333 5.0
1.6 0.3333333333333333 5.0
2.4000000000000004 0.3333333333333333 5.0
3.2 0.3333333333333333 5.0
4.0 0.3333333333333333 5.0
4.800000000000001 0.3333333333333333 5.0
5.6000000000000005 0.3333333333333333 5.0
6.4 0.3333333333333333 5.0
7.2 0.3333333333333333 5.0
8.0 0.3333333333333333 5.0
8.8 0.3333333333333333 5.0
9.600000000000001 0.3333333333333333 5.0
10.4 0.3333333333333333 5.0
11.200000000000001 0.3333333333333333 5.0
12.0 0.3333333333333333 5.0
12.8 0.3333333333333333 5.0
13.600000000000001 0.3333333333333333 5.0
14.4 0.3333333333333333 5.0
15.200000000000001 0.3333333333333333 5.0
16.0 0.3333333333333333 5.0
0.0 0.6666666666666666 5.0
0.8 0.6666666666666666 5.0
1.6 0.6666666666666666 5.0
2.4000000000000004 0.6666666666666666 5.0
3.2 0.6666666666666666 5.0
4.0 0.6666666666666666 5.0
4.800000000000001 0.6666666666666666 5.0
5.6000000000000005 0.6666666666666666 5.0
6.4 0.6666666666666666 5.0
7.2 0.6666666666666666 5.0
8.0 0.6666666666666666 5.0
8.8 0.6666666666666666 5.0
9.600000000000001 0.6666666666666666 5.0
10.4 0.6666666666666666 5.0
11.200000000000001 0.6666666666666666 5.0
12.0 0.6666666666666666 5.0
12.8 0.6666666666666666 5.0
13.600000000000001 0.6666666666666666 5.0
14.4 0.6666666666666666 5.0
15.200000000000001 0.6666666666666666 5.0
16.0 0.6666666666666666 5.0
0.0 1.0 5.0
0.8 1.0 5.0
1.6 1.0 5.0
2.4000000000000004 1.0 5.0
3.2 1.0 5.0
4.0 1.0 5.0
4.800000000000001 1.0 5.0
5.6000000000000005 1.0 5.0
6.4 1.0 5.0
7.2 1.0 5.0
8.0 1.0 5.0
8.8 1.0 5.0
9.600000000000001 1.0 5.0
10.4 1.0 5.0
11.200000000000001 1.0 5.0
12.0 1.0 5.0
12.8 1.0 5.0
13.600000000000001 1.0 5.0
14.4 1.0 5.0
15.200000000000001 1.0 5.0
16.0 1.0 5.0
0.0 1.3333333333333333 5.0
0.8 1.3333333333333333 5.0
1.6 1.3333333333333333 5.0
2.4000000000000004 1.3333333333333333 5.0
3.2 1.3333333333333333 5.0
4.0 1.3333333333333333 5.0
4.800000000000001 1.3333333333333333 5.0
5.6000000000000005 1.3333333333333333 5.0
6.4 1.3333333333333333 5.0
7.2 1.3333333333333333 5.0
8.0 1.3333333333333333 5.0
8.8 1.3333333333333333 5.0
9.600000000000001 1.3333333333333333 5.0
10.4 1.3333333333333333 5.0
11.200000000000001 1.3333333333333333 5.0
12.0 1.3333333333333333 5.0
12.8 1.3333333333333333 5.0
13.600000000000001 1.3333333333333333 5.0
14.4 1.3333333333333333 5.0
15.200000000000001 1.3333333333333333 5.0
16.0 1.3333333333333333 5.0
0.0 1.6666666666666665 5.0
0.8 1.6666666666666665 5.0
1.6 1.6666666666666665 5.0
2.4000000000000004 1.6666666666666665 5.0
3.2 1.6666666666666665 5.0
4.0 1.6666666666666665 5.0
4.800000000000001 1.6666666666666665 5.0
5.6000000000000005 1.6666666666666665 5.0
6.4 1.6666666666666665 5.0
7.2 1.6666666666666665 5.0
8.0 1.6666666666666665 5.0
8.8 1.6666666666666665 5.0
9.600000000000001 1.6666666666666665 5.0
10.4 1.6666666666666665 5.0
11.200000000000001 1.6666666666666665 5.0
12.0 1.6666666666666665 5.0
12.8 1.6666666666666665 5.0
13.600000000000001 1.6666666666666665 5.0
14.4 1.6666666666666665 5.0
15.200000000000001 1.6666666666666665 5.0
16.0 1.6666666666666665 5.0
0.0 2.0 5.0
0.8 2.0 5.0
1.6 2.0 5.0
2.4000000000000004 2.0 5.0
3.2 2.0 5.0
4.0 2.0 5.0
4.800000000000001 2.0 5.0
5.6000000000000005 2.0 5.0
6.4 2.0 5.0
7.2 2.0 5.0
8.0 2.0 5.0
8.8 2.0 5.0
9.600000000000001 2.0 5.0
10.4 2.0 5.0
11.200000000000001 2.0 5.0
12.0 2.0 5.0
12.8 2.0 5.0
13.600000000000001 2.0 5.0
14.4 2.0 5.0
15.200000000000001 2.0 5.0
16.0 2.0 5.0
0.0 0.0 6.666666666666667
0.8 0.0 6.666666666666667
1.6 0.0 6.666666666666667
2.4000000000000004 0.0 6.666666666666667
3.2 0.0 6.666666666666667
4.0 0.0 6.666666666666667
4.800000000000001 0.0 6.666666666666667
5.6000000000000005 0.0 6.666666666666667
6.4 0.0 6.666666666666667
7.2 0.0 6.666666666666667
8.0 0.0 6.666666666666667
8.8 0.0 6.666666666666667
9.600000000000001 0.0 6.666666666666667
10.4 0.0 6.666666666666667
11.200000000000001 0.0 6.666666666666667
12.0 0.0 6.666666666666667
12.8 0.0 6.666666666666667
13.600000000000001 0.0 6.666666666666667
14.4 0.0 6.666666666666667
15.200000000000001 0.0 6.666666666666667
16.0 0.0 6.666666666666667
0.0 0.3333333333333333 6.666666666666667
0.8 0.3333333333333333 6.666666666666667
1.6 0.3333333333333333 6.666666666666667
2.4000000000000004 0.3333333333333333 6.666666666666667
3.2 0.3333333333333333 6.666666666666667
4.0 0.3333333333333333 6.666666666666667
4.800000000000001 0.3333333333333333 6.666666666666667
5.6000000000000005 0.3333333333333333 6.666666666666667
6.4 0.3333333333333333 6.666666666666667
7.2 0.3333333333333333 6.666666666666667
8.0 0.3333333333333333 6.666666666666667
8.8 0.3333333333333333 6.666666666666667
9.600000000000001 0.3333333333333333 6.666666666666667
10.4 0.3333333333333333 6.666666666666667
11.200000000000001 0.3333333333333333 6.666666666666667
12.0 0.3333333333333333 6.666666666666667
12.8 0.3333333333333333 6.666666666666667
13.600000000000001 0.3333333333333333 6.666666666666667
14.4 0.3333333333333333 6.666666666666667
15.200000000000001 0.3333333333333333 6.666666666666667
16.0 0.3333333333333333 6.666666666666667
0.0 0.6666666666666666 6.666666666666667
0.8 0.6666666666666666 6.666666666666667
1.6 0.6666666666666666 6.666666666666667
2.4000000000000004 0.6666666666666666 6.666666666666667
3.2 0.6666666666666666 6.666666666666667
4.0 0.6666666666666666 6.666666666666667
4.800000000000001 0.6666666666666666 6.666666666666667
5.6000000000000005 0.6666666666666666 6.666666666666667
6.4 0.6666666666666666 6.666666666666667
7.2 0.6666666666666666 6.666666666666667
8.0 0.6666666666666666 6.666666666666667
8.8 0.6666666666666666 6.666666666666667
9.600000000000001 0.6666666666666666 6.666666666666667
10.4 0.6666666666666666 6.666666666666667
11.200000000000001 0.6666666666666666 6.666666666666667
12.0 0.6666666666666666 6.666666666666667
12.8 0.6666666666666666 6.666666666666667
13.600000000000001 0.6666666666666666 6.666666666666667
14.4 0.6666666666666666 6.666666666666667
15.200000000000001 0.6666666666666666 6.666666666666667
16.0 0.6666666666666666 6.666666666666667
0.0 1.0 6.666666666666667
0.8 1.0 6.666666666666667
1.6 1.0 6.666666666666667
2.4000000000000004 1.0 6.666666666666667
3.2 1.0 6.666666666666667
4.0 1.0 6.666666666666667
4.800000000000001 1.0 6.666666666666667
5.6000000000000005 1.0 6.666666666666667
6.4 1.0 6.666666666666667
7.2 1.0 6.666666666666667
8.0 1.0 6.666666666666667
8.8 1.0 6.666666666666667
9.600000000000001 1.0 6.666666666666667
10.4 1.0 6.666666666666667
11.200000000000001 1.0 6.666666666666667
12.0 1.0 6.666666666666667
12.8 1.0 6.666666666666667
13.600000000000001 1.0 6.666666666666667
14.4 1.0 6.666666666666667
15.200000000000001 1.0 6.666666666666667
16.0 1.0 6.666666666666667
0.0 1.3333333333333333 6.666666666666667
0.8 1.3333333333333333 6.666666666666667
1.6 1.3333333333333333 6.666666666666667
2.4000000000000004 1.3333333333333333 6.666666666666667
3.2 1.3333333333333333 6.666666666666667
4.0 1.3333333333333333 6.666666666666667
4.800000000000001 1.3333333333333333 6.666666666666667
5.6000000000000005 1.3333333333333333 6.666666666666667
6.4 1.3333333333333333 6.666666666666667
7.2 1.3333333333333333 6.666666666666667
8.0 1.3333333333333333 6.666666666666667
8.8 1.3333333333333333 6.666666666666667
9.600000000000001 1.3333333333333333 6.666666666666667
10.4 1.3333333333333333 6.666666666666667
11.200000000000001 1.3333333333333333 6.666666666666667
12.0 1.3333333333333333 6.666666666666667
12.8 1.3333333333333333 6.666666666666667
13.600000000000001 1.3333333333333333 6.666666666666667
14.4 1.3333333333333333 6.666666666666667
15.200000000000001 1.3333333333333333 6.666666666666667
16.0 1.3333333333333333 6.666666666666667
0.0 1.6666666666666665 6.666666666666667
0.8 1.6666666666666665 6.666666666666667
1.6 1.6666666666666665 6.666666666666667
2.4000000000000004 1.6666666666666665 6.666666666666667
3.2 1.6666666666666665 6.666666666666667
4.0 1.6666666666666665 6.666666666666667
4.800000000000001 1.6666666666666665 6.666666666666667
5.6000000000000005 1.6666666666666665 6.666666666666667
6.4 1.6666666666666665 6.666666666666667
7.2 1.6666666666666665 6.666666666666667
8.0 1.6666666666666665 6.666666666666667
8.8 1.6666666666666665 6.666666666666667
9.600000000000001 1.6666666666666665 6.666666666666667
10.4 1.6666666666666665 6.666666666666667
11.200000000000001 1.6666666666666665 6.666666666666667
12.0 1.6666666666666665 6.666666666666667
12.8 1.6666666666666665 6.666666666666667
13.600000000000001 1.6666666666666665 6.666666666666667
14.4 1.6666666666666665 6.666666666666667
15.200000000000001 1.6666666666666665 6.666666666666667
16.0 1.6666666666666665 6.666666666666667
0.0 2.0 6.666666666666667
0.8 2.0 6.666666666666667
1.6 2.0 6.666666666666667
2.4000000000000004 2.0 6.666666666666667
3.2 2.0 6.666666666666667
4.0 2.0 6.666666666666667
4.800000000000001 2.0 6.666666666666667
5.6000000000000005 2.0 6.666666666666667
6.4 2.0 6.666666666666667
7.2 2.0 6.666666666666667
8.0 2.0 6.666666666666667
8.8 2.0 6.666666666666667
9.600000000000001 2.0 6.666666666666667
10.4 2.0 6.666666666666667
11.200000000000001 2.0 6.666666666666667
12.0 2.0 6.666666666666667
12.8 2.0 6.666666666666667
13.600000000000001 2.0 6.666666666666667
14.4 2.0 6.666666666666667
15.200000000000001 2.0 6.666666666666667
16.0 2.0 6.666666666666667
0.0 0.0 8.333333333333334
0.8 0.0 8.333333333333334
1.6 0.0 8.333333333333334
2.4000000000000004 0.0 8.333333333333334
3.2 0.0 8.333333333333334
4.0 0.0 8.333333333333334
4.800000000000001 0.0 8.333333333333334
5.6000000000000005 0.0 8.333333333333334
6.4 0.0 8.333333333333334
7.2 0.0 8.333333333333334
8.0 0.0 8.333333333333334
8.8 0.0 8.333333333333334
9.600000000000001 0.0 8.333333333333334
10.4 0.0 8.333333333333334
11.200000000000001 0.0 8.333333333333334
12.0 0.0 8.333333333333334
12.8 0.0 8.333333333333334
13.600000000000001 0.0 8.333333333333334
14.4 0.0 8.333333333333334
15.200000000000001 0.0 8.333333333333334
16.0 0.0 8.333333333333334
0.0 0.3333333333333333 8.333333333333334
0.8 0.3333333333333333 8.333333333333334
1.6 0.3333333333333333 8.333333333333334
2.4000000000000004 0.3333333333333333 8.333333333333334
3.2 0.3333333333333333 8.333333333333334
4.0 0.3333333333333333 8.333333333333334
4.800000000000001 0.3333333333333333 8.333333333333334
5.6000000000000005 0.3333333333333333 8.333333333333334
6.4 0.3333333333333333 8.333333333333334
7.2 0.3333333333333333 8.333333333333334
8.0 0.3333333333333333 8.333333333333334
8.8 0.3333333333333333 8.333333333333334
9.600000000000001 0.3333333333333333 8.333333333333334
10.4 0.3333333333333333 8.333333333333334
11.200000000000001 0.3333333333333333 8.333333333333334
12.0 0.3333333333333333 8.333333333333334
12.8 0.3333333333333333 8.333333333333334
13.600000000000001 0.3333333333333333 8.333333333333334
14.4 0.3333333333333333 8.333333333333334
15.200000000000001 0.3333333333333333 8.333333333333334
16.0 0.3333333333333333 8.333333333333334
0.0 0.6666666666666666 8.333333333333334
0.8 0.6666666666666666 8.333333333333334
1.6 0.6666666666666666 8.333333333333334
2.4000000000000004 0.6666666666666666 8.333333333333334
3.2 0.6666666666666666 8.333333333333334
4.0 0.6666666666666666 8.333333333333334
4.800000000000001 0.6666666666666666 8.333333333333334
5.6000000000000005 0.6666666666666666 8.333333333333334
6.4 0.6666666666666666 8.333333333333334
7.2 0.6666666666666666 8.333333333333334
8.0 0.6666666666666666 8.333333333333334
8.8 0.6666666666666666 8.333333333333334
9.600000000000001 0.6666666666666666 8.333333333333334
10.4 0.6666666666666666 8.333333333333334
11.200000000000001 0.6666666666666666 8.333333333333334
12.0 0.6666666666666666 8.333333333333334
12.8 0.6666666666666666 8.333333333333334
13.600000000000001 0.6666666666666666 8.333333333333334
14.4 0.6666666666666666 8.333333333333334
15.200000000000001 0.6666666666666666 8.333333333333334
16.0 0.6666666666666666 8.333333333333334
0.0 1.0 8.333333333333334
0.8 1.0 8.333333333333334
1.6 1.0 8.333333333333334
2.4000000000000004 1.0 8.333333333333334
3.2 1.0 8.333333333333334
4.0 1.0 8.333333333333334
4.800000000000001 1.0 8.333333333333334
5.6000000000000005 1.0 8.333333333333334
6.4 1.0 8.333333333333334
7.2 1.0 8.333333333333334
8.0 1.0 8.333333333333334
8.8 1.0 8.333333333333334
9.600000000000001 1.0 8.333333333333334
10.4 1.0 8.333333333333334
11.200000000000001 1.0 8.333333333333334
12.0 1.0 8.333333333333334
12.8 1.0 8.333333333333334
13.600000000000001 1.0 8.333333333333334
14.4 1.0 8.333333333333334
15.200000000000001 1.0 8.333333333333334
16.0 1.0 8.333333333333334
0.0 1.3333333333333333 8.333333333333334
0.8 1.3333333333333333 8.333333333333334
1.6 1.3333333333333333 8.333333333333334
2.4000000000000004 1.3333333333333333 8.333333333333334
3.2 1.3333333333333333 8.333333333333334
4.0 1.3333333333333333 8.333333333333334
4.800000000000001 1.3333333333333333 8.333333333333334
5.6000000000000005 1.3333333333333333 8.333333333333334
6.4 1.3333333333333333 8.333333333333334
7.2 1.3333333333333333 8.333333333333334
8.0 1.3333333333333333 8.333333333333334
8.8 1.3333333333333333 8.333333333333334
9.600000000000001 1.3333333333333333 8.333333333333334
10.4 1.3333333333333333 8.333333333333334
11.200000000000001 1.3333333333333333 8.333333333333334
12.0 1.3333333333333333 8.333333333333334
12.8 1.3333333333333333 8.333333333333334
13.600000000000001 1.3333333333333333 8.333333333333334
14.4 1.3333333333333333 8.333333333333334
15.200000000000001 1.3333333333333333 8.333333333333334
16.0 1.3333333333333333 8.333333333333334
0.0 1.6666666666666665 8.333333333333334
0.8 1.6666666666666665 8.333333333333334
1.6 1.6666666666666665 8.333333333333334
2.4000000000000004 1.6666666666666665 8.333333333333334
3.2 1.6666666666666665 8.333333333333334
4.0 1.6666666666666665 8.333333333333334
4.800000000000001 1.6666666666666665 8.333333333333334
5.6000000000000005 1.6666666666666665 8.333333333333334
6.4 1.6666666666666665 8.333333333333334
7.2 1.6666666666666665 8.333333333333334
8.0 1.6666666666666665 8.333333333333334
8.8 1.6666666666666665 8.333333333333334
9.600000000000001 1.6666666666666665 8.333333333333334
10.4 1.6666666666666665 8.333333333333334
11.200000000000001 1.6666666666666665 8.333333333333334
12.0 1.6666666666666665 8.333333333333334
12.8 1.6666666666666665 8.333333333333334
13.600000000000001 1.6666666666666665 8.333333333333334
14.4 1.6666666666666665 8.333333333333334
15.200000000000001 1.6666666666666665 8.333333333333334
16.0 1.6666666666666665 8.333333333333334
0.0 2.0 8.333333333333334
0.8 2.0 8.333333333333334
1.6 2.0 8.333333333333334
2.4000000000000004 2.0 8.333333333333334
3.2 2.0 8.333333333333334
4.0 2.0 8.333333333333334
4.800000000000001 2.0 8.333333333333334
5.6000000000000005 2.0 8.333333333333334
6.4 2.0 8.333333333333334
7.2 2.0 8.333333333333334
8.0 2.0 8.333333333333334
8.8 2.0 8.333333333333334
9.600000000000001 2.0 8.333333333333334
10.4 2.0 8.333333333333334
11.200000000000001 2.0 8.333333333333334
12.0 2.0 8.333333333333334
12.8 2.0 8.333333333333334
13.600000000000001 2.0 8.333333333333334
14.4 2.0 8.333333333333334
15.200000000000001 2.0 8.333333333333334
16.0 2.0 8.333333333333334
0.0 0.0 10.0
0.8 0.0 10.0
1.6 0.0 10.0
2.4000000000000004 0.0 10.0
3.2 0.0 10.0
4.0 0.0 10.0
4.800000000000001 0.0 10.0
5.6000000000000005 0.0 10.0
6.4 0.0 10.0
7.2 0.0 10.0
8.0 0.0 10.0
8.8 0.0 10.0
9.600000000000001 0.0 10.0
10.4 0.0 10.0
11.200000000000001 0.0 10.0
12.0 0.0 10.0
12.8 0.0 10.0
13.600000000000001 0.0 10.0
14.4 0.0 10.0
15.200000000000001 0.0 10.0
16.0 0.0 10.0
0.0 0.3333333333333333 10.0
0.8 0.3333333333333333 10.0
1.6 0.3333333333333333 10.0
2.4000000000000004 0.3333333333333333 10.0
3.2 0.3333333333333333 10.0
4.0 0.3333333333333333 10.0
4.800000000000001 0.3333333333333333 10.0
5.6000000000000005 0.3333333333333333 10.0
6.4 0.3333333333333333 10.0
7.2 0.3333333333333333 10.0
8.0 0.3333333333333333 10.0
8.8 0.3333333333333333 10.0
9.600000000000001 0.3333333333333333 10.0
10.4 0.3333333333333333 10.0
11.200000000000001 0.3333333333333333 10.0
12.0 0.3333333333333333 10.0
12.8 0.3333333333333333 10.0
13.600000000000001 0.3333333333333333 10.0
14.4 0.3333333333333333 10.0
15.200000000000001 0.3333333333333333 10.0
16.0 0.3333333333333333 10.0
0.0 0.6666666666666666 10.0
0.8 0.6666666666666666 10.0
1.6 0.6666666666666666 10.0
2.4000000000000004 0.6666666666666666 10.0
3.2 0.6666666666666666 10.0
4.0 0.6666666666666666 10.0
4.800000000000001 0.6666666666666666 10.0
5.6000000000000005 0.6666666666666666 10.0
6.4 0.6666666666666666 10.0
7.2 0.6666666666666666 10.0
8.0 0.6666666666666666 10.0
8.8 0.6666666666666666 10.0
9.600000000000001 0.6666666666666666 10.0
10.4 0.6666666666666666 10.0
11.200000000000001 0.6666666666666666 10.0
12.0 0.6666666666666666 10.0
12.8 0.6666666666666666 10.0
13.600000000000001 0.6666666666666666 10.0
14.4 0.6666666666666666 10.0
15.200000000000001 0.6666666666666666 10.0
16.0 0.6666666666666666 10.0
0.0 1.0 10.0
0.8 1.0 10.0
1.6 1.0 10.0
2.4000000000000004 1.0 10.0
3.2 1.0 10.0
4.0 1.0 10.0
4.800000000000001 1.0 10.0
5.6000000000000005 1.0 10.0
6.4 1.0 10.0
7.2 1.0 10.0
8.0 1.0 10.0
8.8 1.0 10.0
9.600000000000001 1.0 10.0
10.4 1.0 10.0
11.200000000000001 1.0 10.0
12.0 1.0 10.0
12.8 1.0 10.0
13.600000000000001 1.0 10.0
14.4 1.0 10.0
15.200000000000001 1.0 10.0
16.0 1.0 10.0
0.0 1.3333333333333333 10.0
0.8 1.3333333333333333 10.0
1.6 1.3333333333333333 10.0
2.4000000000000004 1.3333333333333333 10.0
3.2 1.3333333333333333 10.0
4.0 1.3333333333333333 10.0
4.800000000000001 1.3333333333333333 10.0
5.6000000000000005 1.3333333333333333 10.0
6.4 1.3333333333333333 10.0
7.2 1.3333333333333333 10.0
8.0 1.3333333333333333 10.0
8.8 1.3333333333333333 10.0
9.600000000000001 1.3333333333333333 10.0
10.4 1.3333333333333333 10.0
11.200000000000001 1.3333333333333333 10.0
12.0 1.3333333333333333 10.0
12.8 1.3333333333333333 10.0
13.600000000000001 1.3333333333333333 10.0
14.4 1.3333333333333333 10.0
15.200000000000001 1.3333333333333333 10.0
16.0 1.3333333333333333 10.0
0.0 1.6666666666666665 10.0
0.8 1.6666666666666665 10.0
1.6 1.6666666666666665 10.0
2.4000000000000004 1.6666666666666665 10.0
3.2 1.6666666666666665 10.0
4.0 1.6666666666666665 10.0
4.800000000000001 1.6666666666666665 10.0
5.6000000000000005 1.6666666666666665 10.0
6.4 1.6666666666666665 10.0
7.2 1.6666666666666665 10.0
8.0 1.6666666666666665 10.0
8.8 1.6666666666666665 10.0
9.600000000000001 1.6666666666666665 10.0
10.4 1.6666666666666665 10.0
11.200000000000001 1.6666666666666665 10.0
12.0 1.6666666666666665 10.0
12.8 1.6666666666666665 10.0
13.600000000000001 1.6666666666666665 10.0
14.4 1.6666666666666665 10.0
15.200000000000001 1.6666666666666665 10.0
16.0 1.6666666666666665 10.0
0.0 2.0 10.0
0.8 2.0 10.0
1.6 2.0 10.0
2.4000000000000004 2.0 10.0
3.2 2.0 10.0
4.0 2.0 10.0
4.800000000000001 2.0 10.0
5.6000000000000005 2.0 10.0
6.4 2.0 10.0
7.2 2.0 10.0
8.0 2.0 10.0
8.8 2.0 10.0
9.600000000000001 2.0 10.0
10.4 2.0 10.0
11.200000000000001 2.0 10.0
12.0 2.0 10.0
12.8 2.0 10.0
13.600000000000001 2.0 10.0
14.4 2.0 10.0
15.200000000000001 2.0 10.0
16.0 2.0 10.0
CELLS 720 6480
8 0 1 22 21 147 148 169 168
8 1 2 23 22 148 149 170 169
8 2 3 24 23 149 150 171 170
8 3 4 25 24 150 151 172 171
8 4 5 26 25 151 152 173 172
8 5 6 27 26 152 153 174 173
8 6 7 28 27 153 154 175 174
8 7 8 29 28 154 155 176 175
8 8 9 30 29 155 156 177 176
8 9 10 31 30 156 157 178 177
8 10 11 32 31 157 158 179 178
8 11 12 33 32 158 159 180 179
8 12 13 34 33 159 160 181 180
8 13 14 35 34 160 161 182 181
8 14 15 36 35 161 162 183 182
8 15 16 37 36 162 163 184 183
8 16 17 38 37 163 164 185 184
8 17 18 39 38 164 165 186 185
8 18 19 40 39 165 166 187 186
8 19 20 41 40 166 167 188 187
8 21 22 43 42 168 169 190 189
8 22 23 44 43 169 170 191 190
8 23 24 45 44 170 171 192 191
8 24 25 46 45 171 172 193 192
8 25 26 47 46 172 173 194 193
8 26 27 48 47 173 174 195 194
8 27 28 49 48 174 175 196 195
8 28 29 50 49 175 176 197 196
8 29 30 51 50 176 177 198 197
8 30 31 52 51 177 178 199 198
8 31 32 53 52 178 179 200 199
8 32 33 54 53 179 180 201 200
8 33 34 55 54 180 181 202 201
8 34 35 56 55 181 182 203 202
8 35 36 57 56 182 183 204 203
8 36 37 58 57 183 184 205 204
8 37 38 59 58 184 185 206 205
8 38 39 60 59 185 186 207 206
8 39 40 61 60 186 187 208 207
8 40 41 62 61 187 188 209 208
8 42 43 64 63 189 190 211 210
8 43 44 65 64 190 191 212 211
8 44 45 66 65 191 192 213 212
8 45 46 67 66 192 193 214 213
8 46 47 68 67 193 194 215 214
8 47 48 69 68 194 195 216 215
8 48 49 70 69 195 196 217 216
8 49 50 71 70 196 197 218 217
8 50 51 72 71 197 198 219 218
8 51 52 73 72 198 199 220 219
8 52 53 74 73 199 200 221 220
8 53 54 75 74 200 201 222 221
8 54 55 76 75 201 202 223 222
8 55 56 77 76 202 203 224 223
8 56 57 78 77 203 204 225 224
8 57 58 79 78 204 205 226 225
8 58 59 80 79 205 206 227 226
8 59 60 81 80 206 207 228 227
8 60 61 82 81 207 208 229 228
8 61 62 83 82 208 209 230 229
8 63 64 85 84 210 211 232 231
8 64 65 86 85 211 212 233 232
8 65 66 87 86 212 213 234 233
8 66 67 88 87 213 214 235 234
8 67 68 89 88 214 215 236 235
8 68 69 90 89 215 216 237 236
8 69 70 91 90 216 217 238 237
8 70 71 92 91 217 218 239 238
8 71 72 93 92 218 219 240 239
8 72 73 94 93 219 220 241 240
8 73 74 95 94 220 221 242 241
8 74 75 96 95 221 222 243 242
8 75 76 97 96 222 223 244 243
8 76 77 98 97 223 224 245 244
8 77 78 99 98 224 225 246 245
8 78 79 100 99 225 226 247 246
8 79 80 101 100 226 227 248 247
8 80 81 102 101 227 228 249 248
8 81 82 103 102 228 229 250 249
8 82 83 104 103 229 230 251 250
8 84 85 106 105 231 232 253 252
8 85 86 107 106 232 233 254 253
8 86 87 108 107 233 234 255 254
8 87 88 109 108 234 235 256 255
8 88 89 110 109 235 236 257 256
8 89 90 111 110 236 237 258 257
8 90 91 112 111 237 238 259 258
8 91 92 113 112 238 239 260 259
8 92 93 114 113 239 240 261 260
8 93 94 115 114 240 241 262 261
8 94 95 116 115 241 242 263 262
8 95 96 117 116 242 243 264 263
8 96 97 118 117 243 244 265 264
8 97 98 119 118 244 245 266 265
8 98 99 120 119 245 246 267 266
8 99 100 121 120 246 247 268 267
8 100 101 122 121 247 248 269 268
8 101 102 123 122 248 249 270 269
8 102 103 124 123 249 250 271 270
8 103 104 125 124 250 251 272 271
8 105 106 127 126 252 253 274 273
8 106 107 128 127 253 254 275 274
8 107 108 129 128 254 255 276 275
8 108 109 130 129 255 256 277 276
8 109 110 131 130 256 257 278 277
8 110 111 132 131 257 258 279 278
8 111 112 133 132 258 259 280 279
8 112 113 134 133 259 260 281 280
8 113 114 135 134 260 261 282 281
8 114 115 136 135 261 262 283 282
8 115 116 137 136 262 263 284 283
8 116 117 138 137 263 264 285 284
8 117 118 139 138 264 265 286 285
8 118 119 140 139 265 266 287 286
8 119 120 141 140 266 267 288 287
8 120 121 142 141 267 268 289 288
8 121 122 143 142 268 269 290 289
8 122 123 144 143 269 270 291 290
8 123 124 145 144 270 271 292 291
8 124 125 146 145 271 272 293 292
8 147 148 169 168 294 295 316 315
8 148 149 170 169 295 296 317 316
8 149 150 171 170 296 297 318 317
8 150 151 172 171 297 298 319 318
8 151 152 173 172 298 299 320 319
8 152 153 174 173 299 300 321 320
8 153 154 175 174 300 301 322 321
8 154 155 176 175 301 302 323 322
8 155 156 177 176 302 303 324 323
8 156 157 178 177 303 304 325 324
8 157 158 179 178 304 305 326 325
8 158 159 180 179 305 306 327 326
8 159 160 181 180 306 307 328 327
8 160 161 182 181 307 308 329 328
8 161 162 183 182 308 309 330 329
8 162 163 184 183 309 310 331 330
8 163 164 185 184 310 311 332 331
8 164 165 186 185 311 312 333 332
8 165 166 187 186 312 313 334 333
8 166 167 188 187 313 314 335 334
8 168 169 190 189 315 316 337 336
8 169 170 191 190 316 317 338 337
8 170 171 192 191 317 318 339 338
8 171 172 193 192 318 319 340 339
8 172 173 194 193 319 320 341 340
8 173 174 195 194 320 321 342 341
8 174 175 196 195 321 322 343 342
8 175 176 197 196 322 323 344 343
8 176 177 198 197 323 324 345 344
8 177 178 199 198 324 325 346 345
8 178 179 200 199 325 326 347 346
8 179 180 201 200 326 327 348 347
8 180 181 202 201 327 328 349 348
8 181 182 203 202 328 329 350 349
8 182 183 204 203 329 330 351 350
8 183 184 205 204 330 331 352 351
8 184 185 206 205 331 332 353 352
8 185 186 207 206 332 333 354 353
8 186 187 208 207 333 334 355 354
8 187 188 209 208 334 335 356 355
8 189 190 211 210 336 337 358 357
8 190 191 212 211 337 338 359 358
8 191 192 213 212 338 339 360 359
8 192 193 214 213 339 340 361 360
8 193 194 215 214 340 341 362 361
8 194 195 216 215 341 342 363 362
8 195 196 217 216 342 343 364 363
8 196 197 218 217 343 344 365 364
8 197 198 219 218 344 345 366 365
8 198 199 220 219 345 346 367 366
8 199 200 221 220 346 347 368 367
8 200 201 222 221 347 348 369 368
8 201 202 223 222 348 349 370 369
8 202 203 224 223 349 350 371 370
8 203 204 225 224 350 351 372 371
8 204 205 226 225 351 352 373 372
8 205 206 227 226 352 353 374 373
8 206 207 228 227 353 354 375 374
8 207 208 229 228 354 355 376 375
8 208 209 230 229 355 356 377 376
8 210 211 232 231 357 358 379 378
8 211 212 233 232 358 359 380 379
8 212 213 234 233 359 360 381 380
8 213 214 235 234 360 361 382 381
8 214 215 236 235 361 362 383 382
8 215 216 237 236 362 363 384 383
8 216 217 238 237 363 364 385 384
8 217 218 239 238 364 365 386 385
8 218 219 240 239 365 366 387 386
8 219 220 241 240 366 367 388 387
8 220 221 242 241 367 368 389 388
8 221 222 243 242 368 369 390 389
8 222 223 244 243 369 370 391 390
8 223 224 245 244 370 371 392 391
8 224 225 246 245 371 372 393 392
8 225 226 247 246 372 373 394 393
8 226 227 248 247 373 374 395 394
8 227 228 249 248 374 375 396 395
8 228 229 250 249 375 376 397 396
8 229 230 251 250 376 377 398 397
8 231 232 253 252 378 379 400 399
8 232 233 254 253 379 380 401 400
8 233 234 255 254 380 381 402 401
8 234 235 256 255 381 382 403 402
8 235 236 257 256 382 383 404 403
8 236 237 258 257 383 384 405 404
8 237 238 259 258 384 385 406 405
8 238 239 260 259 385 386 407 406
8 239 240 261 260 386 387 408 407
8 240 241 262 261 387 388 409 408
8 241 242 263 262 388 389 410 409
8 242 243 264 263 389 390 411 410
8 243 244 265 264 390 391 412 411
8 244 245 266 265 391 392 413 412
8 245 246 267 266 392 393 414 413
8 246 247 268 267 393 394 415 414
8 247 248 269 268 394 395 416 415
8 248 249 270 269 395 396 417 416
8 249 250 271 270 396 397 418 417
8 250 251 272 271 397 398 419 418
8 252 253 274 273 399 400 421 420
8 253 254 275 274 400 401 422 421
8 254 255 276 275 401 402 423 422
8 255 256 277 276 402 403 424 423
8 256 257 278 277 403 404 425 424
8 257 258 279 278 404 405 426 425
8 258 259 280 279 405 406 427 426
8 259 260 281 280 406 407 428 427
8 260 261 282 281 407 408 429 428
8 261 262 283 282 408 409 430 429
8 262 263 284 283 409 410 431 430
8 263 264 285 284 410 411 432 431
8 264 265 286 285 411 412 433 432
8 265 266 287 286 412 413 434 433
8 266 267 288 287 413 414 435 434
8 267 268 289 288 414 415 436 435
8 268 269 290 289 415 416 437 436
8 269 270 291 290 416 417 438 437
8 270 271 292 291 417 418 439 438
8 271 272 293 292 418 419 440 439
8 294 295 316 315 441 442 463 462
8 295 296 317 316 442 443 464 463
8 296 297 318 317 443 444 465 464
8 297 298 319 318 444 445 466 465
8 298 299 320 319 445 446 467 466
8 299 300 321 320 446 447 468 467
8 300 301 322 321 447 448 469 468
8 301 302 323 322 448 449 470 469
8 302 303 324 323 449 450 471 470
8 303 304 325 324 450 451 472 471
8 304 305 326 325 451 452 473 472
8 305 306 327 326 452 453 474 473
8 306 307 328 327 453 454 475 474
8 307 308 329 328 454 455 476 475
8 308 309 330 329 455 456 477 476
8 309 310 331 330 456 457 478 477
8 310 311 332 331 457 458 479 478
8 311 312 333 332 458 459 480 479
8 312 313 334 333 459 460 481 480
8 313 314 335 334 460 461 482 481
8 315 316 337 336 462 463 484 483
8 316 317 338 337 463 464 485 484
8 317 318 339 338 464 465 486 485
8 318 319 340 339 465 466 487 486
8 319 320 341 340 466 467 488 487
8 320 321 342 341 467 468 489 488
8 321 322 343 342 468 469 490 489
8 322 323 344 343 469 470 491 490
8 323 324 345 344 470 471 492 491
8 324 325 346 345 471 472 493 492
8 325 326 347 346 472 473 494 493
8 326 327 348 347 473 474 495 494
8 327 328 349 348 474 475 496 495
8 328 329 350 349 475 476 497 496
8 329 330 351 350 476 477 498 497
8 330 331 352 351 477 478 499 498
8 331 332 353 352 478 479 500 499
8 332 333 354 353 479 480 501 500
8 333 334 355 354 480 481 502 501
8 334 335 356 355 481 482 503 502
8 336 337 358 357 483 484 505 504
8 337 338 359 358 484 485 506 505
8 338 339 360 359 485 486 507 506
8 339 340 361 360 486 487 508 507
8 340 341 362 361 487 488 509 508
8 341 342 363 362 488 489 510 509
8 342 343 364 363 489 490 511 510
8 343 344 365 364 490 491 512 511
8 344 345 366 365 491 492 513 512
8 345 346 367 366 492 493 514 513
8 346 347 368 367 493 494 515 514
8 347 348 369 368 494 495 516 515
8 348 349 370 369 495 496 517 516
8 349 350 371 370 496 497 518 517
8 350 351 372 371 497 498 519 518
8 351 352 373 372 498 499 520 519
8 352 353 374 373 499 500 521 520
8 353 354 375 374 500 501 522 521
8 354 355 376 375 501 502 523 522
8 355 356 377 376 502 503 524 523
8 357 358 379 378 504 505 526 525
8 358 359 380 379 505 506 527 526
8 359 360 381 380 506 507 528 527
8 360 361 382 381 507 508 529 528
8 361 362 383 382 508 509 530 529
8 362 363 384 383 509 510 531 530
8 363 364 385 384 510 511 532 531
8 364 365 386 385 511 512 533 532
8 365 366 387 386 512 513 534 533
8 366 367 388 387 513 514 535 534
8 367 368 389 388 514 515 536 535
8 368 369 390 389 515 516 537 536
8 369 370 391 390 516 517 538 537
8 370 371 392 391 517 518 539 538
8 371 372 393 392 518 519 540 539
8 372 373 394 393 519 520 541 540
8 373 374 395 394 520 521 542 541
8 374 375 396 395 521 522 543 542
8 375 376 397 396 522 523 544 543
8 376 377 398 397 523 524 545 544
8 378 379 400 399 525 526 547 546
8 379 380 401 400 526 527 548 547
8 380 381 402 401 527 528 549 548
8 381 382 403 402 528 529 550 549
8 382 383 404 403 529 530 551 550
8 383 384 405 404 530 531 552 551
8 384 385 406 405 531 532 553 552
8 385 386 407 406 532 533 554 553
8 386 387 408 407 533 534 555 554
8 387 388 409 408 534 535 556 555
8 388 389 410 409 535 536 557 556
8 389 390 411 410 536 537 558 557
8 390 391 412 411 537 538 559 558
8 391 392 413 412 538 539 560 559
8 392 393 414 413 539 540 561 560
8 393 394 415 414 540 541 562 561
8 394 395 416 415 541 542 563 562
8 395 396 417 416 542 543 564 563
8 396 397 418 417 543 544 565 564
8 397 398 419 418 544 545 566 565
8 399 400 421 420 546 547 568 567
8 400 401 422 421 547 548 569 568
8 401 402 423 422 548 549 570 569
8 402 403 424 423 549 550 571 570
8 403 404 425 424 550 551 572 571
8 404 405 426 425 551 552 573 572
8 405 406 427 426 552 553 574 573
8 406 407 428 427 553 554 575 574
8 407 408 429 428 554 555 576 575
8 408 409 430 429 555 556 577 576
8 409 410 431 430 556 557 578 577
8 410 411 432 431 557 558 579 578
8 411 412 433 432 558 559 580 579
8 412 413 434 433 559 560 581 580
8 413 414 435 434 560 561 582 581
8 414 415 436 435 561 562 583 582
8 415 416 437 436 562 563 584 583
8 416 417 438 437 563 564 585 584
8 417 418 439 438 564 565 586 585
8 418 419 440 439 565 566 587 586
8 441 442 463 462 588 589 610 609
8 442 443 464 463 589 590 611 610
8 443 444 465 464 590 591 612 611
8 444 445 466 465 591 592 613 612
8 445 446 467 466 592 593 614 613
8 446 447 468 467 593 594 615 614
8 447 448 469 468 594 595 616 615
8 448 449 470 469 595 596 617 616
8 449 450 471 470 596 597 618 617
8 450 451 472 471 597 598 619 618
8 451 452 473 472 598 599 620 619
8 452 453 474 473 599 600 621 620
8 453 454 475 474 600 601 622 621
8 454 455 476 475 601 602 623 622
8 455 456 477 476 602 603 624 623
8 456 457 478 477 603 604 625 624
8 457 458 479 478 604 605 626 625
8 458 459 480 479 605 606 627 626
8 459 460 481 480 606 607 628 627
8 460 461 482 481 607 608 629 628
8 462 463 484 483 609 610 631 630
8 463 464 485 484 610 611 632 631
8 464 465 486 485 611 612 633 632
8 465 466 487 486 612 613 634 633
8 466 467 488 487 613 614 635 634
8 467 468 489 488 614 615 636 635
8 468 469 490 489 615 616 637 636
8 469 470 491 490 616 617 638 637
8 470 471 492 491 617 618 639 638
8 471 472 493 492 618 619 640 639
8 472 473 494 493 619 620 641 640
8 473 474 495 494 620 621 642 641
8 474 475 496 495 621 622 643 642
8 475 476 497 496 622 623 644 643
8 476 477 498 497 623 624 645 644
8 477 478 499 498 624 625 646 645
8 478 479 500 499 625 626 647 646
8 479 480 501 500 626 627 648 647
8 480 481 502 501 627 628 649 648
8 481 482 503 502 628 629 650 649
8 483 484 505 504 630 631 652 651
8 484 485 506 505 631 632 653 652
8 485 486 507 506 632 633 654 653
8 486 487 508 507 633 634 655 654
8 487 488 509 508 634 635 656 655
8 488 489 510 509 635 636 657 656
8 489 490 511 510 636 637 658 657
8 490 491 512 511 637 638 659 658
8 491 492 513 512 638 639 660 659
8 492 493 514 513 639 640 661 660
8 493 494 515 514 640 641 662 661
8 494 495 516 515 641 642 663 662
8 495 496 517 516 642 643 664 663
8 496 497 518 517 643 644 665 664
8 497 498 519 518 644 645 666 665
8 498 499 520 519 645 646 667 666
8 499 500 521 520 646 647 668 667
8 500 501 522 521 647 648 669 668
8 501 502 523 522 648 649 670 669
8 502 503 524 523 649 650 671 670
8 504 505 526 525 651 652 673 672
8 505 506 527 526 652 653 674 673
8 506 507 528 527 653 654 675 674
8 507 508 529 528 654 655 676 675
8 508 509 530 529 655 656 677 676
8 509 510 531 530 656 657 678 677
8 510 511 532 531 657 658 679 678
8 511 512 533 532 658 659 680 679
8 512 513 534 533 659 660 681 680
8 513 514 535 534 660 661 682 681
8 514 515 536 535 661 662 683 682
8 515 516 537 536 662 663 684 683
8 516 517 538 537 663 664 685 684
8 517 518 539 538 664 665 686 685
8 518 519 540 539 665 666 687 686
8 519 520 541 540 666 667 688 687
8 520 521 542 541 667 668 689 688
8 521 522 543 542 668 669 690 689
8 522 523 544 543 669 670 691 690
8 523 524 545 544 670 671 692 691
8 525 526 547 546 672 673 694 693
8 526 527 548 547 673 674 695 694
8 527 528 549 548 674 675 696 695
8 528 529 550 549 675 676 697 696
8 529 530 551 550 676 677 698 697
8 530 531 552 551 677 678 699 698
8 531 532 553 552 678 679 700 699
8 532 533 554 553 679 680 701 700
8 533 534 555 554 680 681 702 701
8 534 535 556 555 681 682 703 702
8 535 536 557 556 682 683 704 703
8 536 537 558 557 683 684 705 704
8 537 538 559 558 684 685 706 705
8 538 539 560 559 685 686 707 706
8 539 540 561 560 686 687 708 707
8 540 541 562 561 687 688 709 708
8 541 542 563 562 688 689 710 709
8 542 543 564 563 689 690 711 710
8 543 544 565 564 690 691 712 711
8 544 545 566 565 691 692 713 712
8 546 547 568 567 693 694 715 714
8 547 548 569 568 694 695 716 715
8 548 549 570 569 695 696 717 716
8 549 550 571 570 696 697 718 717
8 550 551 572 571 697 698 719 718
8 551 552 573 572 698 699 720 719
8 552 553 574 573 699 700 721 720
8 553 554 575 574 700 701 722 721
8 554 555 576 575 701 702 723 722
8 555 556 577 576 702 703 724 723
8 556 557 578 577 703 704 725 724
8 557 558 579 578 704 705 726 725
8 558 559 580 579 705 706 727 726
8 559 560 581 580 706 707 728 727
8 560 561 582 581 707 708 729 728
8 561 562 583 582 708 709 730 729
8 562 563 584 583 709 710 731 730
8 563 564 585 584 710 711 732 731
8 564 565 586 585 711 712 733 732
8 565 566 587 586 712 713 734 733
8 588 589 610 609 735 736 757 756
8 589 590 611 610 736 737 758 757
8 590 591 612 611 737 738 759 758
8 591 592 613 612 738 739 760 759
8 592 593 614 613 739 740 761 760
8 593 594 615 614 740 741 762 761
8 594 595 616 615 741 742 763 762
8 595 596 617 616 742 743 764 763
8 596 597 618 617 743 744 765 764
8 597 598 619 618 744 745 766 765
8 598 599 620 619 745 746 767 766
8 599 600 621 620 746 747 768 767
8 600 601 622 621 747 748 769 768
8 601 602 623 622 748 749 770 769
8 602 603 624 623 749 750 771 770
8 603 604 625 624 750 751 772 771
8 604 605 626 625 751 752 773 772
8 605 606 627 626 752 753 774 773
8 606 607 628 627 753 754 775 774
8 607 608 629 628 754 755 776 775
8 609 610 631 630 756 757 778 777
8 610 611 632 631 757 758 779 778
8 611 612 633 632 758 759 780 779
8 612 613 634 633 759 760 781 780
8 613 614 635 634 760 761 782 781
8 614 615 636 635 761 762 783 782
8 615 616 637 636 762 763 784 783
8 616 617 638 637 763 764 785 784
8 617 618 639 638 764 765 786 785
8 618 619 640 639 765 766 787 786
8 619 620 641 640 766 767 788 787
8 620 621 642 641 767 768 789 788
8 621 622 643 642 768 769 790 789
8 622 623 644 643 769 770 791 790
8 623 624 645 644 770 771 792 791
8 624 625 646 645 771 772 793 792
8 625 626 647 646 772 773 794 793
8 626 627 648 647 773 774 795 794
8 627 628 649 648 774 775 796 795
8 628 629 650 649 775 776 797 796
8 630 631 652 651 777 778 799 798
8 631 632 653 652 778 779 800 799
8 632 633 654 653 779 780 801 800
8 633 634 655 654 780 781 802 801
8 634 635 656 655 781 782 803 802
8 635 636 657 656 782 783 804 803
8 636 637 658 657 783 784 805 804
8 637 638 659 658 784 785 806 805
8 638 639 660 659 785 786 807 806
8 639 640 661 660 786 787 808 807
8 640 641 662 661 787 788 809 808
8 641 642 663 662 788 789 810 809
8 642 643 664 663 789 790 811 810
8 643 644 665 664 790 791 812 811
8 644 645 666 665 791 792 813 812
8 645 646 667 666 792 793 814 813
8 646 647 668 667 793 794 815 814
8 647 648 669 668 794 795 816 815
8 648 649 670 669 795 796 817 816
8 649 650 671 670 796 797 818 817
8 651 652 673 672 798 799 820 819
8 652 653 674 673 799 800 821 820
8 653 654 675 674 800 801 822 821
8 654 655 676 675 801 802 823 822
8 655 656 677 676 802 803 824 823
8 656 657 678 677 803 804 825 824
8 657 658 679 678 804 805 826 825
8 658 659 680 679 805 806 827 826
8 659 660 681 680 806 807 828 827
8 660 661 682 681 807 808 829 828
8 661 662 683 682 808 809 830 829
8 662 663 684 683 809 810 831 830
8 663 664 685 684 810 811 832 831
8 664 665 686 685 811 812 833 832
8 665 666 687 686 812 813 834 833
8 666 667 688 687 813 814 835 834
8 667 668 689 688 814 815 836 835
8 668 669 690 689 815 816 837 836
8 669 670 691 690 816 817 838 837
8 670 671 692 691 817 818 839 838
8 672 673 694 693 819 820 841 840
8 673 674 695 694 820 821 842 841
8 674 675 696 695 821 822 843 842
8 675 676 697 696 822 823 844 843
8 676 677 698 697 823 824 845 844
8 677 678 699 698 824 825 846 845
8 678 679 700 699 825 826 847 846
8 679 680 701 700 826 827 848 847
8 680 681 702 701 827 828 849 848
8 681 682 703 702 828 829 850 849
8 682 683 704 703 829 830 851 850
8 683 684 705 704 830 831 852 851
8 684 685 706 705 831 832 853 852
8 685 686 707 706 832 833 854 853
8 686 687 708 707 833 834 855 854
8 687 688 709 708 834 835 856 855
8 688 689 710 709 835 836 857 856
8 689 690 711 710 836 837 858 857
8 690 691 712 711 837 838 859 858
8 691 692 713 712 838 839 860 859
8 693 694 715 714 840 841 862 861
8 694 695 716 715 841 842 863 862
8 695 696 717 716 842 843 864 863
8 696 697 718 717 843 844 865 864
8 697 698 719 718 844 845 866 865
8 698 699 720 719 845 846 867 866
8 699 700 721 720 846 847 868 867
8 700 701 722 721 847 848 869 868
8 701 702 723 722 848 849 870 869
8 702 703 724 723 849 850 871 870
8 703 704 725 724 850 851 872 871
8 704 705 726 725 851 852 873 872
8 705 706 727 726 852 853 874 873
8 706 707 728 727 853 854 875 874
8 707 708 729 728 854 855 876 875
8 708 709 730 729 855 856 877 876
8 709 710 731 730 856 857 878 877
8 710 711 732 731 857 858 879 878
8 711 712 733 732 858 859 880 879
8 712 713 734 733 859 860 881 880
8 735 736 757 756 882 883 904 903
8 736 737 758 757 883 884 905 904
8 737 738 759 758 884 885 906 905
8 738 739 760 759 885 886 907 906
8 739 740 761 760 886 887 908 907
8 740 741 762 761 887 888 909 908
8 741 742 763 762 888 889 910 909
8 742 743 764 763 889 890 911 910
8 743 744 765 764 890 891 912 911
8 744 745 766 765 891 892 913 912
8 745 746 767 766 892 893 914 913
8 746 747 768 767 893 894 915 914
8 747 748 769 768 894 895 916 915
8 748 749 770 769 895 896 917 916
8 749 750 771 770 896 897 918 917
8 750 751 772 771 897 898 919 918
8 751 752 773 772 898 899 920 919
8 752 753 774 773 899 900 921 920
8 753 754 775 774 900 901 922 921
8 754 755 776 775 901 902 923 922
8 756 757 778 777 903 904 925 924
8 757 758 779 778 904 905 926 925
8 758 759 780 779 905 906 927 926
8 759 760 781 780 906 907 928 927
8 760 761 782 781 907 908 929 928
8 761 762 783 782 908 909 930 929
8 762 763 784 783 909 910 931 930
8 763 764 785 784 910 911 932 931
8 764 765 786 785 911 912 933 932
8 765 766 787 786 912 913 934 933
8 766 767 788 787 913 914 935 934
8 767 768 789 788 914 915 936 935
8 768 769 790 789 915 916 937 936
8 769 770 791 790 916 917 938 937
8 770 771 792 791 917 918 939 938
8 771 772 793 792 918 919 940 939
8 772 773 794 793 919 920 941 940
8 773 774 795 794 920 921 942 941
8 774 775 796 795 921 922 943 942
8 775 776 797 796 922 923 944 943
8 777 778 799 798 924 925 946 945
8 778 779 800 799 925 926 947 946
8 779 780 801 800 926 927 948 947
8 780 781 802 801 927 928 949 948
8 781 782 803 802 928 929 950 949
8 782 783 804 803 929 930 951 950
8 783 784 805 804 930 931 952 951
8 784 785 806 805 931 932 953 952
8 785 786 807 806 932 933 954 953
8 786 787 808 807 933 934 955 954
8 787 788 809 808 934 935 956 955
8 788 789 810 809 935 936 957 956
8 789 790 811 810 936 937 958 957
8 790 791 812 811 937 938 959 958
8 791 792 813 812 938 939 960 959
8 792 793 814 813 939 940 961 960
8 793 794 815 814 940 941 962 961
8 794 795 816 815 941 942 963 962
8 795 796 817 816 942 943 964 963
8 796 797 818 817 943 944 965 964
8 798 799 820 819 945 946 967 966
8 799 800 821 820 946 947 968 967
8 800 801 822 821 947 948 969 968
8 801 802 823 822 948 949 970 969
8 802 803 824 823 949 950 971 970
8 803 804 825 824 950 951 972 971
8 804 805 826 825 951 952 973 972
8 805 806 827 826 952 953 974 973
8 806 807 828 827 953 954 975 974
8 807 808 829 828 954 955 976 975
8 808 809 830 829 955 956 977 976
8 809 810 831 830 956 957 978 977
8 810 811 832 831 957 958 979 978
8 811 812 833 832 958 959 980 979
8 812 813 834 833 959 960 981 980
8 813 814 835 834 960 961 982 981
8 814 815 836 835 961 962 983 982
8 815 816 837 836 962 963 984 983
8 816 817 838 837 963 964 985 984
8 817 818 839 838 964 965 986 985
8 819 820 841 840 966 967 988 987
8 820 821 842 841 967 968 989 988
8 821 822 843 842 968 969 990 989
8 822 823 844 843 969 970 991 990
8 823 824 845 844 970 971 992 991
8 824 825 846 845 971 972 993 992
8 825 826 847 846 972 973 994 993
8 826 827 848 847 973 974 995 994
8 827 828 849 848 974 975 996 995
8 828 829 850 849 975 976 997 996
8 829 830 851 850 976 977 998 997
8 830 831 852 851 977 978 999 998
8 831 832 853 852 978 979 1000 999
8 832 833 854 853 979 980 1001 1000
8 833 834 855 854 980 981 1002 1001
8 834 835 856 855 981 982 1003 1002
8 835 836 857 856 982 983 1004 1003
8 836 837 858 857 983 984 1005 1004
8 837 838 859 858 984 985 1006 1005
8 838 839 860 859 985 986 1007 1006
8 840 841 862 861 987 988 1009 1008
8 841 842 863 862 988 989 1010 1009
8 842 843 864 863 989 990 1011 1010
8 843 844 865 864 990 991 1012 1011
8 844 845 866 865 991 992 1013 1012
8 845 846 867 866 992 993 1014 1013
8 846 847 868 867 993 994 1015 1014
8 847 848 869 868 994 995 1016 1015
8 848 849 870 869 995 996 1017 1016
8 849 850 871 870 996 997 1018 1017
8 850 851 872 871 997 998 1019 1018
8 851 852 873 872 998 999 1020 1019
8 852 853 874 873 999 1000 1021 1020
8 853 854 875 874 1000 1001 1022 1021
8 854 855 876 875 1001 1002 1023 1022
8 855 856 877 876 1002 1003 1024 1023
8 856 857 878 877 1003 1004 1025 1024
8 857 858 879 878 1004 1005 1026 1025
8 858 859 880 879 1005 1006 1027 1026
8 859 860 881 880 1006 1007 1028 1027
CELL_TYPES 720
12
12
12
12
12
12
12
12
12
12
12
12
12
12
12
12
12
12
12
12
12
12
12
12
12
12
12
12
12
12
12
12
12
12
12
12
12
12
12
12
12
12
12
12
12
12
12
12
12
12
12
12
12
12
12
12
12
12
12
12
12
12
12
12
12
12
12
12
12
12
12
12
12
12
12
12
12
12
12
12
12
12
12
12
12
12
12
12
12
12
12
12
12
12
12
12
12
12
12
12
12
12
12
12
12
12
12
12
12
12
12
12
12
12
12
12
12
12
12
12
12
12
12
12
12
12
12
12
12
12
12
12
12
12
12
12
12
12
12
12
12
12
12
12
12
12
12
12
12
12
12
12
12
12
12
12
12
12
12
12
12
12
12
12
12
12
12
12
12
12
12
12
12
12
12
12
12
12
12
12
12
12
12
12
12
12
12
12
12
12
12
12
12
12
12
12
12
12
12
12
12
12
12
12
12
12
12
12
12
12
12
12
12
12
12
12
12
12
12
12
12
12
12
12
12
12
12
12
12
12
12
12
12
12
12
12
12
12
12
12
12
12
12
12
12
12
12
12
12
12
12
12
12
12
12
12
12
12
12
12
12
12
12
12
12
12
12
12
12
12
12
12
12
12
12
12
12
12
12
12
12
12
12
12
12
12
12
12
12
12
12
12
12
12
12
12
12
12
12
12
12
12
12
12
12
12
12
12
12
12
12
12
12
12
12
12
12
12
12
12
12
12
12
12
12
12
12
12
12
12
12
12
12
12
12
12
12
12
12
12
12
12
12
12
12
12
12
12
12
12
12
12
12
12
12
12
12
12
12
12
12
12
12
12
12
12
12
12
12
12
12
12
12
12
12
12
12
12
12
12
12
12
12
12
12
12
12
12
12
12
12
12
12
12
12
12
12
12
12
12
12
12
12
12
12
12
12
12
12
12
12
12
12
12
12
12
12
12
12
12
12
12
12
12
12
12
12
12
12
12
12
12
12
12
12
12
12
12
12
12
12
12
12
12
12
12
12
12
12
12
12
12
12
12
12
12
12
12
12
12
12
12
12
12
12
12
12
12
12
12
12
12
12
12
12
12
12
12
12
12
12
12
12
12
12
12
12
12
12
12
12
12
12
12
12
12
12
12
12
12
12
12
12
12
12
12
12
12
12
12
12
12
12
12
12
12
12
12
12
12
12
12
12
12
12
12
12
12
12
12
12
12
12
12
12
12
12
12
12
12
12
12
12
12
12
12
12
12
12
12
12
12
12
12
12
12
12
12
12
12
12
12
12
12
12
12
12
12
12
12
12
12
12
12
12
12
12
12
12
12
12
12
12
12
12
12
12
12
12
12
12
12
12
12
12
12
12
12
12
12
12
12
12
12
12
12
12
12
12
12
12
12
12
12
12
12
12
12
12
12
12
12
12
12
12
12
12
12
12
12
12
12
12
12
12
12
12
12
12
12
12
12
12
12
12
12
12
12
12
12
12
12
12
12
12
12
12
12
12
12
12
12
12
12
12
12
12
12
12
12
12
12
12
12
12
12
12
12
12
12
12
12
12
12
12
12
12
12
12
12
12
12
12
12
12
12
12
12
12
12
12
12
12
12
12
12
12
12
12
12
12
12
12
12
12
12
12
12
12
12
POINT_DATA 1029
VECTORS Disp float
0.0 0.0 0.0
0.0274393878559657 -0.9949931134179573 0.023816348549599964
0.06607590646250056 -1.8749648919662285 0.05128158737599028
0.11951314276452461 -2.722595694486028 0.07321398908296883
0.19555765520960375 -3.5149047774374362 0.09308788037111052
0.2952759890908788 -4.233211907044163 0.10951952111438945
0.4182565452116821 -4.857779360793942 0.12182541348595065
0.5637553852368415 -5.36951994976341 0.1291313466913415
0.7297841106750945 -5.749826752155176 0.13082540405823267
0.9114031918048648 -5.982813602054669 0.12790867434997388
1.1004246821483645 -6.0604480030096575 0.12526890691104436
1.289513350226231 -5.983950372311012 0.12801385319884678
1.471347070565443 -5.752126805894789 0.13107265913761604
1.6377789817368695 -5.373031704196761 0.12960228809914193
1.7839440420438395 -4.862560826232076 0.12266053643111112
1.9079717496171693 -4.239300706072256 0.11094428164044397
2.009283567895057 -3.5222655784118873 0.09542182415222174
2.087702858375001 -2.7310294409622293 0.07700806440966787
2.1445989364839786 -1.8840825194909376 0.056880092193257376
2.1892015856863267 -1.0040608602894356 0.03381563475906604
2.2309603369302553 0.0 -0.00019307063230098817
0.39050992491788195 -0.04248886251116109 -0.012504758105003181
0.40736447065370174 -0.9905763124134404 0.012476423243603457
0.42095232797928145 -1.8809555146657004 0.032486118264801384
0.455969121806838 -2.7296330783731086 0.04944483443199504
0.5053702388873698 -3.525027199877444 0.06363851534602283
0.5705964507974581 -4.246039984508706 0.0753173274524186
0.6512743684876758 -4.873339350656298 0.08397183519930149
0.7468920087088022 -5.387700905799632 0.08920310475235933
0.8561449199031783 -5.770283736494447 0.09073676076530217
0.975854207976204 -6.004594398138475 0.08920154527960346
1.1006294501816567 -6.082303985088541 0.08756860919722761
1.225475729174694 -6.005749873504784 0.08916534426824
1.345410275424923 -5.7726246952108875 0.09069573567418054
1.4550801085522358 -5.39128313657071 0.08922837208768108
1.5513722841455528 -4.878232596934765 0.08419214370666082
1.6330817493922472 -4.252299739359698 0.07594199098003106
1.6998369907170248 -3.532638674979005 0.06500712827639304
1.7514394222902832 -2.7384269157981285 0.052010415062989306
1.7896445624791613 -1.8905899407559965 0.03713754677601336
1.807778759871091 -1.0003620398109465 0.01927706219232975
1.8270702182545708 -0.04483879332727332 -0.005043131257998523
0.7591731244974933 -0.07377158557755045 -0.020435041182933874
0.767864031559765 -0.9890940102804893 -0.0011058517270266695
0.7693804548092071 -1.8823138972008846 0.01317941863194689
0.7829674166328936 -2.733884407955227 0.02371006716153144
0.8063035925041344 -3.530833054377108 0.03176747515900629
0.8377009831716979 -4.253558685264028 0.03791727206994718
0.8771170199150218 -4.882484333630662 0.04219725072800026
0.9243558011453142 -5.39847931018648 0.04452005373549785
0.979069334974979 -5.782471085568467 0.04484129213283038
1.0393708567139102 -6.017064977596341 0.04327153108644704
1.1007918097244187 -6.093452646140489 0.04150181384403858
1.162285163418276 -6.018240671295343 0.043094187822343935
1.2228148662261127 -5.784855571952198 0.04451194445097833
1.2779455441729637 -5.402134599951047 0.04409887150756875
1.3258463978285275 -4.887489837621692 0.041798429176355595
1.3662501451179716 -4.2599837292337845 0.037740723466453636
1.3990669427139502 -3.5386813903166527 0.03213799886682825
1.4243806442322802 -2.7429950296063237 0.02514193713508228
1.440610555020952 -1.8923677204517004 0.01639402300736535
1.444287719104755 -0.9985346092658216 0.004313942302621076
1.454027122864047 -0.07739144640905397 -0.012842266286370108
1.1170003825783397 -0.09381982994181512 -0.02751762939188188
1.119335884304661 -0.9893453266590475 -0.01431591131310606
1.111673949505339 -1.881184995610506 -0.006329515202282844
1.105959608966893 -2.7347243923284026 -0.00260917269537508
1.1029283357403399 -3.5325777739278394 -0.0010541836701929892
1.1008874981844676 -4.2558985009741415 -0.0007029273914892438
1.099505659406169 -4.885432799347662 -0.0011241927225375625
1.0989939473131216 -5.402138284148782 -0.0020856285154342807
1.100140565491691 -5.786819488229737 -0.0033714134623067287
1.1024625440833797 -6.020391522496639 -0.005234924373437336
1.100936637070173 -6.092767114091781 -0.007484674443802754
1.0994834375938731 -6.021588339982399 -0.005554452057571509
1.1020332265376667 -5.789248949044246 -0.003991525358698243
1.1035912762266862 -5.4058676904539045 -0.002958041714337351
1.103720025693777 -4.8905491425866865 -0.002149320845641774
1.103266881106152 -4.262482422309598 -0.0016946192657868848
1.1025097655500369 -3.540643591122426 -0.001688468754155272
1.1011813945152595 -2.7441241516241996 -0.0023614963094550794
1.0973362612200557 -1.8913606113231523 -0.004490371086002051
1.0908281440440928 -0.9984098903973447 -0.010258637585564103
1.0937420581006105 -0.09837957368178982 -0.021116747627583678
1.471896147499982 -0.104551846951559 -0.03479576542615298
1.4686191751432158 -0.9897465601023092 -0.026860047065674363
1.45246492176768 -1.8784221819311153 -0.025517362873477865
1.4288925832234465 -2.732385461378402 -0.0287798874224933
1.399704002163759 -3.5301963923949238 -0.03381718078451973
1.3641013156964639 -4.253111175951719 -0.03928371428288429
1.321980726038943 -4.882219518240843 -0.04442774578873096
1.2735983848769197 -5.398666405496478 -0.04870952004649825
1.2208123285395838 -5.783533194430325 -0.05153399438982801
1.1658663368956868 -6.015133676793987 -0.05277205617360901
1.1010853698189782 -6.078563121589991 -0.054790714494049104
1.0363777510020666 -6.016352341608574 -0.05323611971612904
0.9816601496776997 -5.78600875557951 -0.05245011547712568
0.9292813063115997 -5.402470551410327 -0.050042251752009
0.8815197167761306 -4.887445076246854 -0.04609380325407145
0.8402689304553039 -4.259845104375358 -0.041111685590445535
0.8058086584996177 -3.5384626396510934 -0.035487881579695436
0.777986564868776 -2.7420028519308417 -0.029757729364252816
0.7556855199888848 -1.888619829670263 -0.025043671702995464
0.7401908832667968 -0.9985720390877387 -0.02420100609793168
0.7372297266554163 -0.10970863597258208 -0.029793927215169123
1.8291658141380556 -0.1085673554412377 -0.042634987250270664
1.821463255077588 -0.9893320019115188 -0.038696248555625125
1.797142701923204 -1.8742747734374487 -0.04394893200759241
1.7563308986799926 -2.7270965668733966 -0.054087455337107765
1.7008911213972344 -3.523651894129061 -0.06551707038309415
1.6313547708369442 -4.245130021803443 -0.076548111630112
1.547952705549755 -4.872862248928692 -0.08615402147797753
1.4513758993951358 -5.387850369234657 -0.09343666268569696
1.342277629484218 -5.772377346266203 -0.09751520339659549
1.229176695775045 -6.00277993608501 -0.09612723270871507
1.101259790568327 -6.0482651850034514 -0.09422270777153988
0.9734187383474853 -6.004021436940866 -0.09673942116803072
0.8605523891564929 -5.774900639614704 -0.09873518878953202
0.7518666327510513 -5.391730723098336 -0.09524322793792564
0.6559045142255747 -4.878196074819137 -0.08848220300073516
0.5733324123538858 -4.252006436647524 -0.07924406139766035
0.5048080253337127 -3.5320907418848253 -0.06827032138828444
0.4504128407375139 -2.736871201384531 -0.0563449678526465
0.41037255740489126 -1.8844843504076845 -0.0448747233348345
0.3863244923990457 -0.9980393900830328 -0.03742481807793492
0.3787016578308507 -0.11401135644925943 -0.038985978798877205
2.1917498099036594 -0.10938624704112228 -0.05076611419871658
2.183021670732922 -0.9879405031971964 -0.049847761426820986
2.1521239222925392 -1.8688222659351803 -0.06099495719246258
2.093434473328999 -2.7187833492797644 -0.0774006377627517
2.0110880088367193 -3.5128154023236164 -0.09457907494593419
1.906900335811348 -4.231808493367778 -0.11051954213051372
1.7812319474814182 -4.857038009985898 -0.12390197199722797
1.6348696267904932 -5.369905991176666 -0.13347903849908851
1.4691842718703465 -5.75126377879323 -0.1380712019506347
1.284809281789588 -5.985642613784106 -0.13317839381080462
1.1014858523602333 -6.000000000000001 -0.11317579012932266
0.9182445343343173 -5.986908856118729 -0.13394333032233322
0.734121690223679 -5.753838233280359 -0.13960505730289763
0.5688733076303532 -5.373866486883731 -0.13577634594422375
0.4231474247421124 -4.862482435260949 -0.1269183438792811
0.29830715690140897 -4.238822189918754 -0.11412151579983283
0.19505191482174503 -3.5213981404185084 -0.09846648716287382
0.11347966664962184 -2.7286544664499455 -0.0809960497438993
0.055015107137864366 -1.87901152546555 -0.06335907258845755
0.023797255793837943 -0.9965730304895626 -0.049919628819930326
0.014842674334104508 -0.11489107846806167 -0.04831104886989498
0.0 0.0 0.0
0.025666893790318238 -0.9404197442298365 0.01585253335104845
0.06507441706494406 -1.798526446132579 0.030277552644128684
0.1208583107537892 -2.6227802940730696 0.04368417210729728
0.19785782474104308 -3.393794873830767 0.054030482967132684
0.29685178035062376 -4.094431073650456 0.06129303897333933
0.4174811616200424 -4.7070026548112915 0.06497363553929533
0.5591707113284683 -5.214522210545272 0.0647318705822447
0.7213595366116812 -5.600369180475185 0.060727287630845866
0.9033836454211956 -5.84707803141191 0.054667741015561266
1.100647029920264 -5.934394597253639 0.05116263506185821
1.2979333275833107 -5.847524026133213 0.05470376203399978
1.4800293721032571 -5.601259794186969 0.06082532634844616
1.6423499640196413 -5.215854212299165 0.06494931587172091
1.7842537219840753 -4.7087687512558665 0.06540996501618652
1.90522394841408 -4.0966116534022 0.0620988532495443
2.004764344810968 -3.396337855826551 0.055433995264043814
2.0826699144354026 -2.6255587373131464 0.04592681290221219
2.139926677551996 -1.8012910059325944 0.034016770374381125
2.182243681564837 -0.9430647129307129 0.020165993973818047
2.214825727832633 0.0 0.017701038057483614
0.37946046607508366 -0.027342493902434414 0.0023365486967304003
0.39482505301934223 -0.9390511883025197 0.007268157878584683
0.4135882479362656 -1.8045980452729538 0.01890271463334008
0.45105593068797567 -2.630379681113182 0.02844341027675398
0.5023164886742055 -3.4042390465248484 0.035840342521553645
0.5682469252362945 -4.107531107350829 0.040785814506805594
0.6485929913306266 -4.722795396266687 0.04320674361820428
0.7429289777545585 -5.23298646462948 0.04300558853943798
0.8506625367172465 -5.621570799817167 0.04040866152893544
0.9709758258558016 -5.871082780001506 0.0363927156070085
1.1007466658965712 -5.960145949539322 0.03382549974857435
1.2305400276598686 -5.871533642046433 0.0362998321707833
1.3509238002754798 -5.622471474328569 0.040243153523810984
1.458785419848501 -5.23433455287884 0.04281452760574574
1.5533266049034549 -4.7245854106817005 0.04307596572917145
1.63399108904559 -4.10974739050164 0.04085979557994349
1.700421819598617 -3.4068373427847156 0.03633227839674662
1.7524772538295288 -2.6332466695291377 0.029705909681061175
1.79130858526952 -1.8075368830175407 0.021254847961239602
1.8124631618752562 -0.942070634906509 0.011965346888481216
1.8291978136170508 -0.02781389346357631 0.013396426933695447
0.743866681001716 -0.048143116478826777 -0.004206680479299078
0.752384892610205 -0.9388672727559855 -0.00032816979932905293
0.7589254812101556 -1.8068508430719974 0.007314651751713951
0.7760895726807692 -2.635005090840901 0.013531821124637874
0.8017151441074475 -3.410351039627013 0.017850365932767894
0.8345638438247349 -4.115256080654257 0.020457213025081432
0.8746339018114313 -4.7320863962043545 0.021460738571391753
0.921558852391064 -5.243774577290809 0.020953052695600813
0.9746863692174842 -5.633876659354956 0.019051890712077177
1.0341620910485134 -5.885616033672492 0.015842999736561166
1.100854345851456 -5.9773775204099815 0.01300991125420331
1.1675684786003293 -5.886073982331162 0.01562295155896643
1.2271121333365544 -5.634791748121055 0.018627030188680036
1.2803610364673332 -5.245144922837516 0.020361557678906878
1.32747507976941 -4.733907475177812 0.020779741178067423
1.367828378755075 -4.117514656852562 0.019826160737709295
1.4011032112317185 -3.4130080731469428 0.017505014310490664
1.4273922001117862 -2.637954510689506 0.013833116153388147
1.445657937419485 -1.8099549566587712 0.008795372993590104
1.4533496727858795 -0.9417067262930395 0.0035757720522976905
1.4623774407743722 -0.048584358451370456 0.0041468732292342225
1.1007577232137424 -0.0621157920297745 -0.013024514398328732
1.1036450815291055 -0.939509789233113 -0.008679054092526603
1.1004857982834162 -1.8067515197647457 -0.004242085218078653
1.0987916852686839 -2.6363659770703634 -0.001419292215092028
1.0984774315805854 -3.412399404198946 -0.0001949781734768248
1.098279089084282 -4.1178090697549825 -3.708634687078406e-05
1.098068570419795 -4.735159433612536 -0.0005877888884719092
1.0977091129011598 -5.247203013144425 -0.0016337186551931965
1.0964020797905139 -5.637610769099417 -0.0031268508066868944
1.0953370593980989 -5.891515364268151 -0.0058320335546028276
1.1009660172913691 -5.988401833105886 -0.009678427669774215
1.1066160592224663 -5.891982511039217 -0.0061794882119243465
1.10561580603941 -5.638544341286648 -0.0038114425410482947
1.1044218189772814 -5.248601176501793 -0.002625546194170835
1.1042318523210461 -4.737017565420479 -0.0018178317680131735
1.1042614700930522 -4.120114563439259 -0.001365544295796279
1.1044014752531413 -3.4151141376733722 -0.0013677580568889705
1.1045925795809908 -2.6393976402612846 -0.002019952312306255
1.1035810628962581 -1.8098858319673716 -0.0036102928521497156
1.1009489209855707 -0.9420800293527698 -0.005722664102175415
1.104085156896024 -0.06257984085433799 -0.006554195602513938
1.455198083962791 -0.07007301063365824 -0.022124686879785672
1.4529767523109054 -0.9400852531187809 -0.017368110897450342
1.4409042100643286 -1.8049977380613087 -0.015742367654926582
1.4214527963544519 -2.6346532915549434 -0.016305498044473187
1.3953297340948503 -3.4103850953669683 -0.01818394458847967
1.3620079420032054 -4.115255254961816 -0.02049787515644694
1.3214531666656242 -4.732099355224035 -0.02262495321808747
1.273982433368236 -5.243486065018376 -0.02421064191811876
1.2187969896213289 -5.632836244368876 -0.025177547830704135
1.1564891991604165 -5.888437922053265 -0.026668263630500334
1.1010800233835603 -5.995033635232044 -0.031908714127330894
1.0456911882923248 -5.888916380174857 -0.027145514136417616
0.9834451046766426 -5.633792343042031 -0.02612702867902762
0.9283644697425641 -5.244917494422769 -0.025611564816993105
0.8810436112934423 -4.734000291536648 -0.024417418049421567
0.8406850620265057 -4.117610760740388 -0.022543609442063503
0.8076118300304389 -3.4131571693056997 -0.02020914447941795
0.7818014323114011 -2.637740904561899 -0.017831743190492633
0.7626798200146734 -1.8081035614021994 -0.016023261794970624
0.7507991942190939 -0.9424466558030133 -0.015422135096299354
0.7487026348873811 -0.07057746284520225 -0.017237548595983282
1.8107536425996393 -0.07349868995889 -0.03047466156185924
1.804217006461872 -0.9399671529416802 -0.025848097075178576
1.7834893015457198 -1.8017853667138153 -0.02709533595736851
1.7467340572986596 -2.6299961181143243 -0.031029985573905634
1.6948598395367702 -3.404232886765342 -0.03599669206619651
1.6283506009811042 -4.107529294030933 -0.04072267319216024
1.5474726591577652 -4.722759473075287 -0.04434309907347457
1.4525089366908204 -5.2327249813172205 -0.046238150615055436
1.3449688480873685 -5.6196900754740895 -0.04634800988547128
1.220760973143293 -5.874500609801338 -0.044904044024388856
1.1011945967037478 -5.998968194041012 -0.05046662343195521
0.9816480397312437 -5.874992630114586 -0.04551552955810079
0.8574995756717679 -5.620673026324362 -0.047572191905288136
0.7500577290763654 -5.234195634183495 -0.04806538943941276
0.6552275807979591 -4.7247095687660705 -0.04672625979851432
0.5745090682104592 -4.109939390302862 -0.043530746314310545
0.5081652096662169 -3.4070582902779307 -0.03894280549550156
0.4564228891329117 -2.6331168315281643 -0.033581059434623396
0.41970833681886943 -1.804853373937641 -0.028419528052879936
0.3989297456795805 -0.9422023879533891 -0.024969019649862787
0.3924061081253562 -0.07401987985792169 -0.02696068251046829
2.1694034095134542 -0.07459289110782805 -0.03688461944033495
2.1606211915586364 -0.9389611518200037 -0.033783926215835196
2.131776374895846 -1.7970494340613823 -0.038362294374696036
2.077209290659225 -2.6222455887885276 -0.04581225999985891
1.9994282268550085 -3.393764028611128 -0.05393236649474394
1.899761486572598 -4.094374947638288 -0.06105038984886636
1.7785441008327367 -4.706974821069439 -0.06601922129403501
1.6361808725415046 -5.214089379578658 -0.0680497383388963
1.4743172037974939 -5.599650920484296 -0.06661723032546805
1.2984214970533103 -5.846338432514301 -0.06138778021882497
1.1013052977337696 -6.000000000000001 -0.05903778985901583
0.9042086237413998 -5.846846448890721 -0.06213962685616478
0.7283709696117735 -5.6006654815732375 -0.06812983453818594
0.5666014259350661 -5.215605987670051 -0.07032792738471752
0.42436135420963594 -4.708982006297731 -0.06903467387022208
0.30327945108866106 -4.096846520651618 -0.06468981545785797
0.20372141422643036 -3.3966417262450483 -0.057913251788308126
0.12593892055174763 -2.625384477874714 -0.049565932022394024
0.07115973260197145 -1.8000746184740082 -0.040953819555003663
0.0419702994040609 -0.941121175002985 -0.03407665703616626
0.03304049612169183 -0.07509144513235112 -0.03446450007505409
0.0 0.0 0.0
0.035632526870721715 -0.9164728355561378 0.00684946172306215
0.0749437917508974 -1.7593867718538174 0.012853378749884504
0.12943063077658848 -2.571439567150242 0.018545652139097892
0.2042108717954656 -3.3331318066008224 0.022579487201235014
0.2995959104576758 -4.0280522938292505 0.024625286036784585
0.4153087226467832 -4.639700451735162 0.024521371862818456
0.551522542596166 -5.152224640673407 0.02230354039966212
0.7099894165014817 -5.549301105828815 0.018439739546449743
0.8940845135314794 -5.810283552337946 0.014280267093127581
1.1007022455377198 -5.905214041204237 0.012287918980934048
1.3072933346319444 -5.81017780185798 0.014284101002654565
1.4913044478921516 -5.549057095045472 0.0184633353285966
1.6496171480679027 -5.151778749561972 0.022381513179915297
1.7855826598731501 -4.638962428526832 0.024711216545647258
1.9009123816293858 -4.026918136574079 0.02500870697426751
1.9957177798460557 -3.3315108716964263 0.023261229988885013
2.0696127454779654 -2.569305794493695 0.019635663605501515
2.122780628188948 -1.7568246037945194 0.01462332726927521
2.1594122634014745 -0.9134152226456067 0.009844141264443444
2.18734841474781 0.0 0.010044084053773996
0.3810856667601891 -0.023644938734928574 0.000247649955725252
0.39681818854353834 -0.9163285308369934 0.003515037259833739
0.41761036977719007 -1.7657040243659734 0.008110519926237448
0.45487377684849706 -2.579459879270456 0.012254704892972208
0.5051355658024579 -3.3440340981488976 0.01524238592167825
0.5691346211730315 -4.041747439832972 0.01676307535038424
0.6466771635160246 -4.656332524815143 0.016793795103367145
0.7378630242842492 -5.172008774845925 0.01544197067223254
0.8435377228300757 -5.57277673059404 0.013054458898390487
0.9652531546653972 -5.838071218743611 0.010436512912155397
1.1006871086636507 -5.935803543674962 0.009116024513301662
1.2360880678034134 -5.83795636333597 0.010359895929309686
1.3577007914825687 -5.5725121377969336 0.01291266523111497
1.4631916538158594 -5.1715256272484424 0.015261168491526166
1.554092328231803 -4.655531626798492 0.016620391593712498
1.63121725180077 -4.040510282052569 0.016670299310211925
1.6946169049435684 -3.3422482902718076 0.015331809967011258
1.744032279536054 -2.5770682592357765 0.01268045535036324
1.7800054760811725 -1.762716407840373 0.009101744575018573
1.7986385551818034 -0.912565319248669 0.006245494451295999
1.813477926371352 -0.0224769628735505 0.007971226153780299
0.7412487697331804 -0.040760408111438294 -0.002375097984298133
0.7493397296872484 -0.9159397731496088 -0.00013705533070757094
0.7569584366026773 -1.768596753633916 0.0030054276517859687
0.7749922028096748 -2.584543054048194 0.005762061933861863
0.8007323094621344 -3.35067820290277 0.007619955681826599
0.8331676974643231 -4.050109413672544 0.008473821395512258
0.8722899121768515 -4.666439264277174 0.008393015401093253
0.9178778226284582 -5.1838737021723515 0.007515601198526466
0.9697799483534335 -5.586686672401555 0.006027085138922299
1.0298029564857618 -5.8554949625065245 0.004255876838411186
1.1006811329171502 -5.957477528538656 0.0031927555758404134
1.1715205807911377 -5.85537461615754 0.004100854841119668
1.231424159860295 -5.586409101771121 0.005725065548886333
1.2831165971897813 -5.183365770575866 0.007086786978934242
1.3283892451871662 -4.6655943795950146 0.007877938184447947
1.3670690764332933 -4.048796863694062 0.007944141842845124
1.398906014622131 -3.3487663533091254 0.00719304843982225
1.4238465052958906 -2.581950930313327 0.005617782995698522
1.4407660942070741 -1.7652516448428246 0.0034963383487617546
1.447521300616536 -0.9121752827291562 0.0021050072536761694
1.4555895954625204 -0.039008742453054746 0.0034283748727427493
1.093199415734633 -0.05224566050029214 -0.0065261124548445845
1.0956007187925203 -0.9159518064223315 -0.004148469390934575
1.0931469986230495 -1.7688787091716676 -0.0021985923867443658
1.0927717560998758 -2.5862746890041897 -0.0007826112061153684
1.093659713428913 -3.3530376740227297 -5.268833901363238e-05
1.094455106317001 -4.0529948056578675 7.540231747560334e-05
1.094987119911468 -4.669878411116521 -0.00022241651283870333
1.0949138436259966 -5.187621021042379 -0.00079648417136357
1.093009524106657 -5.5907710548061855 -0.0016188333780792037
1.0915688736931004 -5.863081592154307 -0.002794106974286661
1.100680116931897 -5.9728710170433175 -0.003749228650583031
1.1097470781043226 -5.862959583353076 -0.00302729651333074
1.108170849139607 -5.590488568791593 -0.0020801961655689824
1.1060321139665779 -5.187101518099988 -0.0014707070843785108
1.105615227655007 -4.669009553275939 -0.0010730295968425507
1.1056840191403559 -4.0516357828249285 -0.000877004302802064
1.1058887043895513 -3.351042436108927 -0.0009714797873551765
1.106039938516425 -2.5835287967063927 -0.001439152213848145
1.1048879118642625 -1.7653897782688872 -0.0021516586770502924
1.1021016189242374 -0.9122972734119356 -0.0024809825459768454
1.104660858509885 -0.04997990880680454 -0.0021496418805140023
1.442470052991276 -0.05882914465031422 -0.01110868426439022
1.4398115252745423 -0.9159406308194316 -0.008263545544957333
1.4283303532396885 -1.7672489277689396 -0.007392830663709561
1.4105534371426314 -2.5847109732137685 -0.007308036795611879
1.3866341471649182 -3.351051017771884 -0.007702262973534534
1.3557278628261056 -4.050364790273921 -0.008305839177523646
1.3175713007381735 -4.666625258537508 -0.008828017946032902
1.2721466873669516 -5.183411324553466 -0.00909746734142857
1.2174783029611982 -5.584981106957532 -0.009215361312964007
1.153768846945369 -5.860153419440233 -0.009690402463045714
1.1006791986641853 -5.984125945764192 -0.0104419654543068
1.0475394267471936 -5.860033652656197 -0.010003300701658538
0.9836773402001091 -5.5847019257772 -0.009839341675964558
0.928748099199318 -5.182893722743202 -0.010022550251255117
0.8829486563322845 -4.66575268509691 -0.010022418733115775
0.8443042603969446 -4.048989810944048 -0.009693306703593736
0.8128101316529388 -3.3490131570009214 -0.009129022554907397
0.7882471902244137 -2.581888321720436 -0.00849351555835123
0.7699385533693306 -1.763729510470235 -0.007839141671375388
0.7583292493057605 -0.9123640984333312 -0.007199784257956994
0.7558508019032171 -0.05617198681195032 -0.007855715477963985
1.7926716287388664 -0.06172497616062866 -0.015155372421603043
1.785723750566142 -0.915446537302853 -0.012077429344660542
1.76555736108709 -1.7639993602180841 -0.01246206116511402
1.7308916512016355 -2.5800094553858854 -0.013741832018535769
1.6822740405206427 -3.344703367253773 -0.01525527965222708
1.6196975388381118 -4.042251324456954 -0.016544885313587745
1.5430388362835399 -4.656621729963431 -0.017197583403984307
1.4520267207073951 -5.171613864779575 -0.016998883836795084
1.347395727413543 -5.569819922245913 -0.016131755311381366
1.2212736472059442 -5.844273366016814 -0.015500257648586657
1.100673513318027 -5.993228458788443 -0.01562860486531696
0.9800166634620945 -5.844159677467865 -0.015896196209982876
0.8537225230690284 -5.5695521383928 -0.016925821479608798
0.7487997837730521 -5.171111375165047 -0.01818825862480492
0.6573742889539996 -4.655765526874626 -0.01875857369599354
0.580190575547354 -4.040889868780566 -0.01840534348454797
0.517016833309739 -3.3426692033934007 -0.017250613571626734
0.4678305174111622 -2.5771831370770144 -0.01554968442247789
0.4328036576209477 -1.760506631512692 -0.013528551520903475
0.4126216190383662 -0.9119090825830425 -0.011662436411159546
0.40585976674513835 -0.05882151865149991 -0.012820816081793173
2.145914711739634 -0.06275755093697641 -0.017423055190928245
2.1366655099094984 -0.9142784174093538 -0.015209409251065599
2.108386088038993 -1.7592183054278827 -0.01719975276936627
2.056507370543817 -2.5722305535097387 -0.01990265202034801
1.9831952835149216 -3.334090538616502 -0.022488122362907644
1.889144238028745 -4.0287362367616995 -0.024324160568546326
1.7742119734718829 -4.640160185073965 -0.024869550710195344
1.6381098662913518 -5.151731434188413 -0.023828929091743365
1.4815924500045177 -5.548142606027109 -0.021450967607082875
1.308235216679211 -5.8115138822602095 -0.018975586496951583
1.1006588826163097 -6.000000000000001 -0.01781742711741644
0.8930180660296251 -5.811409885967555 -0.01945979020980808
0.7194655991658793 -5.547893850271794 -0.022426981753494578
0.5626185979981331 -5.15125659848641 -0.025304352654328628
0.42605284190671083 -4.639339246245863 -0.026834864849809698
0.31053904961769435 -4.027416522771061 -0.026721952965631825
0.21584867749485684 -3.332105483452796 -0.02516080931853644
0.14199261696703205 -2.569468498996135 -0.022507024768288485
0.08989956559747382 -1.7558092807663501 -0.01910976561675013
0.06178969804989697 -0.910782305321297 -0.015555580284031935
0.05279300862718672 -0.05973631779432479 -0.01577341974747645
0.0 0.0 0.0
0.03779882235804167 -0.9100447519089576 -9.348477590614259e-14
0.07732710720449872 -1.7482296934212103 -1.764789358089735e-13
0.13120692100308587 -2.556561258014667 -2.559874871757087e-13
0.20487603492681344 -3.3158567437351727 -3.308058425733355e-13
0.29880537308618194 -4.009941195358644 -4.1373528638216735e-13
0.412849973795882 -4.622640763765384 -5.121691045785112e-13
0.5475964554882601 -5.1382723110606445 -6.324572985531346e-13
0.7055709922044677 -5.540085091912975 -7.311146359256998e-13
0.8909713834999065 -5.805855169921137 -8.290376315788889e-13
1.1006716282735385 -5.90298150561269 -9.25816873028648e-13
1.3103241246811212 -5.805536200260469 -1.02728735593324e-12
1.4955745864539225 -5.539400427815485 -1.1181911269336966e-12
1.653275172819517 -5.137130262628964 -1.1662631184124201e-12
1.787580415326686 -4.620911393018657 -1.2510217572485716e-12
1.9009383711108299 -4.007478118413294 -1.3279207260730458e-12
1.9938064243804505 -3.312545629287062 -1.4786592169503816e-12
2.065832989594753 -2.552412177871395 -1.6396309126574245e-12
2.1171921008233214 -1.7434402518962036 -1.8150592119819938e-12
2.152520208092367 -0.9049574341490344 -1.9962875100278495e-12
2.1792852987728404 0.0 -2.129304585444453e-12
0.3809562581428845 -0.022863346877403313 -1.8585169850812337e-14
0.3967609932988637 -0.9103407940062355 -8.455459716399466e-14
0.4183096490681999 -1.754669931992522 -1.6411221635142213e-13
0.45536800901484703 -2.5647223441528215 -2.4705371153582504e-13
0.5050675123012617 -3.3269002942055073 -3.289901685635313e-13
0.5682613987402841 -4.0238368647971186 -4.1889475715680666e-13
0.6448795529074572 -4.639593396380798 -5.13848239250083e-13
0.7352863092195777 -5.1585860430114 -6.238178318494498e-13
0.8407776398928262 -5.564388952044155 -7.291611127738781e-13
0.9633388332386467 -5.834779443109985 -8.386675755676006e-13
1.1006137162621739 -5.934867797474814 -9.343096069711006e-13
1.237831905488153 -5.834445415118067 -1.0453259524599988e-12
1.3602168561955787 -5.563670570563157 -1.1541742711949958e-12
1.4653928856141207 -5.157383595322906 -1.2351900818219281e-12
1.555308662403479 -4.63776297719063 -1.3362570759302057e-12
1.6311983243616315 -4.021208547775066 -1.4424104273976734e-12
1.6933246403826416 -3.3233270376349875 -1.572250545561449e-12
1.7414622261387898 -2.5601571477664207 -1.7188628547534637e-12
1.7761963460403152 -1.749250253470872 -1.874650881188305e-12
1.7943155261385797 -0.9041438106009937 -2.032277353365173e-12
1.8085998131490781 -0.021548485065090113 -2.147206587358176e-12
0.7398426226704802 -0.03977419866788239 -2.021424735680417e-14
0.7478445501393495 -0.9099544288850793 -8.182610500854959e-14
0.755966228194813 -1.757702015887024 -1.5627773080801526e-13
0.7741786823345356 -2.5698528263110307 -2.4172765044465873e-13
0.7998129694095129 -3.333583379688252 -3.2625702984728234e-13
0.8320120204186053 -4.032245469312566 -4.237606737198557e-13
0.8708273867480695 -4.649793471591382 -5.23555968007072e-13
0.9161578844357391 -5.170630383529761 -6.197634526753782e-13
0.9680471529392938 -5.578602966747965 -7.426265943714816e-13
1.0285338096422394 -5.852634495687296 -8.511657289804554e-13
1.1005655110202168 -5.957122036087194 -9.535231478356197e-13
1.1725326789301416 -5.852289720304055 -1.0751791646143413e-12
1.2328204778765879 -5.577860152147359 -1.1911185677310563e-12
1.2843606215579904 -5.169383463320847 -1.3024296111593195e-12
1.3291641656971152 -4.647887306789491 -1.4170221790591562e-12
1.3672317603301507 -4.029492032691853 -1.534317130242448e-12
1.3983939104696803 -3.3298033738204813 -1.6588291622208252e-12
1.4226015533760148 -2.5649712968061813 -1.7909797227724627e-12
1.4388586999743755 -1.7517466669481538 -1.932859470351039e-12
1.4454603029812974 -0.903763047666919 -2.071414044483888e-12
1.4532449691813307 -0.03742211248800954 -2.1889459538257487e-12
1.0902196916581897 -0.05114429586534366 -1.6941412680772216e-14
1.092600593438347 -0.9099236759757927 -7.845467060496719e-14
1.0905691882266417 -1.7580674121643398 -1.5145403419468827e-13
1.0905935399296103 -2.5716566250090223 -2.396409128867555e-13
1.0918014836300078 -3.33598637242778 -3.272849800385658e-13
1.0928858016922072 -4.035170164457007 -4.265953865731728e-13
1.0936773321888815 -4.653277471665735 -5.311896585396292e-13
1.0938104793747974 -5.174432971961994 -6.31117619667997e-13
1.092032647893751 -5.58276365322471 -7.528227987629276e-13
1.0907157860745667 -5.860334178972248 -8.686325419001267e-13
1.100521718953063 -5.972824166545939 -9.771735284529382e-13
1.1102556408563775 -5.859983190411421 -1.1092915271786983e-12
1.1087185503500245 -5.582006182059743 -1.2247537534468498e-12
1.1065603608428507 -5.173158163218332 -1.361592040900401e-12
1.1061353688890094 -4.6513221664201385 -1.490690860098816e-12
1.1061686642667103 -4.032331382402673 -1.6142462523839793e-12
1.1062666871316256 -3.3320631694451235 -1.7368775048634477e-12
1.1062137723557366 -2.5665308489345002 -1.858747264375111e-12
1.1048775094932612 -1.7518998735894764 -1.989053769924784e-12
1.1021770669362465 -0.9038965377582266 -2.115018567370538e-12
1.1046620310548951 -0.047922480200411344 -2.239077962650841e-12
1.4377179367451927 -0.05765207009884667 -1.2603797247901364e-14
1.4351923741968793 -0.9098734319617182 -7.507487383864838e-14
1.4241974211104638 -1.756499546416871 -1.4851003412642146e-13
1.407032066924631 -2.570178398551359 -2.3497859805191107e-13
1.3838313841377479 -3.3340664285254267 -3.2594071438168653e-13
1.3537393399345592 -4.032587753069762 -4.2498604080414824e-13
1.3164078806311506 -4.650045128180607 -5.381603987389717e-13
1.2716709930555605 -5.170194070501487 -6.44162030791839e-13
1.2173071812402605 -5.576881309243135 -7.66572092498288e-13
1.1533355739329676 -5.8572767910342005 -8.867866611325079e-13
1.100477214838868 -5.984223972221413 -1.0058379132422967e-12
1.0475389866767018 -5.8569242020166845 -1.1377647748077592e-12
0.9833245770185923 -5.576119084086964 -1.2727430274290355e-12
0.9285469227167684 -5.168908200958786 -1.4160775705525188e-12
0.8832167107579314 -4.648067119821065 -1.558277630711905e-12
0.845111902021997 -4.02970583605652 -1.698494178203991e-12
0.814079034870864 -3.330059998307952 -1.8130605234460882e-12
0.7898267604236117 -2.5649241234627205 -1.9268259450860357e-12
0.7717574269474214 -1.7502892638088505 -2.0430376422165063e-12
0.7604746182498437 -0.9039717813541324 -2.158637989282805e-12
0.7581392012935777 -0.05380658866803836 -2.2895711303027764e-12
1.7859998150189582 -0.06050933865737193 -8.613545929613168e-15
1.7793900437339427 -0.9093414332822437 -7.180268493978609e-14
1.7598779588903772 -1.753302738469787 -1.4472917572460553e-13
1.7260829834532458 -2.5655636766917267 -2.2941412790726095e-13
1.6786091304423523 -3.3277949592400957 -3.2637011135910237e-13
1.6174078965280558 -4.024515653583156 -4.357964113232667e-13
1.5421969802615803 -4.6400131955367305 -5.365895860661144e-13
1.4524136065674536 -5.158265334706664 -6.46964912292408e-13
1.3483870405720422 -5.561418945375316 -7.835753859193381e-13
1.2215071145668968 -5.840956089365554 -8.94181213276736e-13
1.1004268528948 -5.993333016565111 -1.0256136074728136e-12
0.979257732625046 -5.840606424082688 -1.1559471553360233e-12
0.8521087904255538 -5.560661694860626 -1.3098675284541e-12
0.747627823925463 -5.156984786408328 -1.4705707998138806e-12
0.6572037767110188 -4.638038570786565 -1.6248399202724325e-12
0.5811831960124295 -4.021631384392406 -1.7775504188598986e-12
0.5190639716174474 -3.3237738860647132 -1.8959073847681793e-12
0.47071541277516843 -2.560292437644293 -2.0003133142742797e-12
0.4363595912237389 -1.7471371964158622 -2.0987310159787223e-12
0.41680791058024097 -0.9035135057944317 -2.1973608138738584e-12
0.41044918604025393 -0.05628936239963869 -2.3329096034318376e-12
2.137195157283571 -0.0614537528002953 -4.5193822175807696e-15
2.1284834499360374 -0.9080762110476586 -6.732213757044295e-14
2.101076351947728 -1.7485148743095973 -1.380468007876957e-13
2.0504194693749365 -2.557797176898442 -2.2165637670031265e-13
1.978767529034232 -3.3171583996442653 -3.281588986467747e-13
1.8867468632507258 -4.010892050613005 -4.504060771459186e-13
1.7740048999738076 -4.623300392845592 -5.309497461190206e-13
1.6398398159489356 -5.137898194101937 -6.470547061084101e-13
1.4842535101667782 -5.538999171962471 -7.66558983603504e-13
1.3099975329441704 -5.806969733139275 -8.937587099371592e-13
1.1003652578175893 -6.000000000000001 -1.0315101394096288e-12
0.8906332445312858 -5.8066272946590285 -1.167079015360793e-12
0.7160758946423315 -5.538256133027716 -1.3202897671105406e-12
0.5599828262867825 -5.136638591353866 -1.5177710452196595e-12
0.4251090404566306 -4.621353743117893 -1.6902837776829838e-12
0.3114858530445929 -4.00804475982753 -1.8754021384729977e-12
0.21851079244376745 -3.313191359033218 -1.991341813039807e-12
0.146075866646069 -2.552618035158388 -2.0865415066737657e-12
0.09517026619121897 -1.7424910714930484 -2.1575429673953762e-12
0.06810022253662272 -0.9023328994216593 -2.230393934431877e-12
0.05979450849527595 -0.05706471299763218 -2.3583662131816853e-12
0.0 0.0 0.0
0.035632526870890635 -0.9164728355562204 -0.006849461723249961
0.07494379175115774 -1.7593867718539538 -0.012853378750223146
0.1294306307769195 -2.5714395671503127 -0.018545652139596146
0.20421087179582426 -3.3331318066007944 -0.022579487201897386
0.2995959104580365 -4.028052293829227 -0.02462528603762418
0.4153087226471629 -4.639700451735136 -0.024521371863812744
0.5515225425965768 -5.152224640673393 -0.022303540400781502
0.7099894165019165 -5.549301105828844 -0.018439739547777327
0.8940845135319646 -5.810283552337841 -0.01428026709470407
1.1007022455382587 -5.905214041204127 -0.012287918982716937
1.3072933346325541 -5.810177801857831 -0.014284101004634142
1.4913044478928505 -5.5490570950450575 -0.018463335330745744
1.6496171480686281 -5.151778749561254 -0.022381513182240742
1.785582659873872 -4.6389624285259865 -0.024711216548160796
1.900912381629973 -4.026918136572926 -0.025008706977009378
1.9957177798464913 -3.3315108716954835 -0.02326122999187801
2.0696127454783406 -2.5693057944928936 -0.019635663608793492
2.122780628189263 -1.7568246037938942 -0.01462332727291254
2.1594122634017343 -0.9134152226452483 -0.009844141268426719
2.1873484147480102 0.0 -0.010044084058007684
0.381085666760344 -0.023644938734938087 -0.00024764995576573854
0.3968181885437305 -0.9163285308370981 -0.0035150372600056146
0.4176103697774446 -1.7657040243661202 -0.00811051992657083
0.4548737768488032 -2.5794598792705212 -0.012254704893467578
0.5051355658028027 -3.3440340981488887 -0.015242385922347381
0.5691346211733932 -4.041747439832941 -0.016763075351231133
0.6466771635164007 -4.6563325248151255 -0.016793795104387825
0.737863024284658 -5.172008774845927 -0.015441970673417108
0.8435377228304946 -5.57277673059406 -0.01305445889979041
0.9652531546658524 -5.8380712187435755 -0.010436512913771344
1.1006871086641725 -5.935803543674882 -0.009116024515140705
1.2360880678039654 -5.83795636333585 -0.010359895931355908
1.3577007914831662 -5.572512137796625 -0.01291266523335491
1.4631916538165184 -5.171525627247756 -0.01526116849398242
1.5540923282324346 -4.65553162679763 -0.016620391596374986
1.6312172518013364 -4.0405102820513505 -0.01667029931312133
1.6946169049440734 -3.3422482902708395 -0.015331809970170888
1.74403227953649 -2.57706825923495 -0.012680455353803733
1.7800054760815716 -1.762716407839744 -0.009101744578779599
1.7986385551821804 -0.9125653192483089 -0.0062454944553522115
1.8134779263717058 -0.022476962873512012 -0.007971226158056573
0.7412487697333945 -0.04076040811145579 0.0023750979842520766
0.7493397296874836 -0.9159397731497161 0.00013705533054151538
0.756958436602931 -1.7685967536340474 -0.0030054276521099066
0.7749922028099717 -2.584543054048287 -0.0057620619343557835
0.8007323094624567 -3.350678202902755 -0.0076199556824992415
0.8331676974646638 -4.050109413672482 -0.008473821396367185
0.872289912177219 -4.666439264277169 -0.008393015402138045
0.9178778226288375 -5.18387370217237 -0.0075156011997732745
0.9697799483538321 -5.586686672401576 -0.006027085140375802
1.029802956486213 -5.855494962506478 -0.004255876840089757
1.1006811329176265 -5.957477528538591 -0.0031927555777427575
1.1715205807916436 -5.855374616157381 -0.004100854843238549
1.2314241598608366 -5.586409101770879 -0.005725065551221336
1.2831165971903555 -5.183365770575211 -0.0070867869815152106
1.3283892451877528 -4.665594379594194 -0.007877938187257414
1.3670690764338576 -4.048796863692908 -0.007944141845913256
1.398906014622662 -3.348766353308122 -0.007193048443132578
1.4238465052963918 -2.5819509303125088 -0.005617782999287367
1.4407660942075362 -1.7652516448421884 -0.003496338352633802
1.4475213006170042 -0.9121752827288008 -0.0021050072578147035
1.4555895954629723 -0.03900874245298214 -0.003428374877106963
1.0931994157348783 -0.05224566050032113 0.006526112454804708
1.0956007187927743 -0.9159518064224281 0.004148469390772133
1.0931469986233078 -1.7688787091717892 0.0021985923864294783
1.0927717561001578 -2.586274689004281 0.0007826112056289465
1.093659713429214 -3.3530376740227124 5.2688338340740706e-05
1.0944551063173187 -4.052994805657819 -7.540231834791682e-05
1.0949871199118113 -4.669878411116506 0.00022241651176937064
1.0949138436263517 -5.187621021042367 0.0007964841700845389
1.0930095241070397 -5.590771054806288 0.0016188333765665172
1.0915688736935172 -5.863081592154298 0.0027941069725566604
1.1006801169323404 -5.972871017043178 0.00374922864860635
1.109747078104776 -5.862959583352965 0.0030272965111350896
1.1081708491400954 -5.59048856879138 0.0020801961631315793
1.1060321139670743 -5.187101518099377 0.0014707070816767902
1.1056152276555242 -4.669009553275172 0.0010730295938875195
1.1056840191409 -4.0516357828237775 0.0008770042995820366
1.1058887043901142 -3.3510424361079494 0.0009714797838896341
1.1060399385169724 -2.583528796705524 0.001439152210121189
1.1048879118648043 -1.765389778268275 0.0021516586730681944
1.1021016189247852 -0.9122972734115831 0.002480982541751573
1.104660858510439 -0.0499799088067105 0.0021496418760442977
1.4424700529915424 -0.05882914465035624 0.011108684264361159
1.439811525274803 -0.9159406308195112 0.008263545544801389
1.4283303532399443 -1.767248927769047 0.0073928306634012024
1.4105534371429027 -2.5847109732138405 0.007308036795129652
1.386634147165206 -3.3510510177718915 0.007702262972861319
1.3557278628263896 -4.050364790273834 0.008305839176635224
1.3175713007384915 -4.6666252585375085 0.008828017944944316
1.2721466873672973 -5.183411324553478 0.009097467340108745
1.2174783029615748 -5.584981106957648 0.009215361311416674
1.1537688469457572 -5.860153419440246 0.009690402461267485
1.1006791986645938 -5.984125945764092 0.010441965452257018
1.0475394267476283 -5.86003365265611 0.010003300699381476
0.9836773402005298 -5.5847019257769706 0.009839341673425952
0.9287480991997625 -5.182893722742612 0.010022550248431718
0.8829486563327499 -4.665752685096161 0.010022418730017236
0.8443042603974689 -4.048989810942922 0.009693306700227647
0.8128101316535168 -3.3490131569999257 0.009129022551287329
0.7882471902250043 -2.581888321719551 0.008493515554483189
0.7699385533699447 -1.763729510469624 0.007839141667285995
0.7583292493063892 -0.9123640984329859 0.007199784253642641
0.7558508019038553 -0.05617198681184269 0.007855715473387603
1.7926716287391355 -0.061724976160678034 0.015155372421588218
1.7857237505664054 -0.9154465373029171 0.012077429344513056
1.765557361087343 -1.763999360218179 0.01246206116481538
1.7308916512018866 -2.5800094553859854 0.013741832018058812
1.6822740405209122 -3.344703367253735 0.015255279651555228
1.6196975388383934 -4.042251324456853 0.01654488531270291
1.5430388362838516 -4.656621729963456 0.017197583402877616
1.4520267207077475 -5.171613864779551 0.01699888383543031
1.3473957274139146 -5.569819922246041 0.016131755309798372
1.2212736472063062 -5.844273366016805 0.015500257646755769
1.1006735133184173 -5.993228458788396 0.015628604863208634
0.9800166634624843 -5.8441596774677596 0.01589619620763018
0.8537225230693977 -5.569552138392633 0.016925821476970197
0.7487997837734344 -5.171111375164477 0.01818825862186075
0.6573742889544044 -4.6557655268739095 0.018758573692752925
0.5801905755478446 -4.040889868779511 0.01840534348101883
0.5170168333103256 -3.3426692033923953 0.017250613567848346
0.4678305174118049 -2.5771831370761364 0.01554968441847192
0.43280365762164263 -1.7605066315120872 0.013528551516701522
0.4126216190390815 -0.9119090825827106 0.011662436406760363
0.40585976674586444 -0.058821518651385844 0.012820816077124025
2.145914711739904 -0.062757550937032 0.017423055190923905
2.1366655099097596 -0.914278417409406 0.015209409250930265
2.10838608803925 -1.7592183054279857 0.01719975276908167
2.0565073705440486 -2.572230553509818 0.019902652019879837
1.9831952835151558 -3.3340905386164663 0.022488122362238953
1.8891442380290213 -4.028736236761616 0.024324160567676303
1.774211973472203 -4.640160185073937 0.02486955070905959
1.6381098662917075 -5.151731434188398 0.023828929090346854
1.481592450004889 -5.548142606027206 0.021450967605452453
1.3082352166795412 -5.811513882260208 0.018975586495081444
1.1006588826166686 -6.000000000000001 0.01781742711528267
0.8930180660299805 -5.811409885967432 0.01945979020738069
0.7194655991661769 -5.547893850271639 0.022426981750733512
0.5626185979984027 -5.151256598485892 0.02530435265125934
0.42605284190703835 -4.639339246245125 0.026834864846416208
0.3105390496181343 -4.027416522770069 0.02672195296194014
0.21584867749546183 -3.3321054834518047 0.025160809314589073
0.1419926169677566 -2.569468498995267 0.022507024764141258
0.08989956559826491 -1.755809280765749 0.01910976561243393
0.061789698050707 -0.9107823053209572 0.015555580279550894
0.05279300862799912 -0.059736317794211374 0.015773419742751354
0.0 0.0 0.0
0.025666893790678373 -0.940419744230014 -0.015852533351269165
0.06507441706547758 -1.7985264461326949 -0.03027755264452621
0.12085831075442303 -2.6227802940731126 -0.043684172107859534
0.19785782474177685 -3.3937948738307715 -0.05403048296784146
0.2968517803514589 -4.094431073650364 -0.06129303897417754
0.4174811616209934 -4.707002654811039 -0.06497363554024696
0.5591707113293906 -5.21452221054467 -0.06473187058335104
0.7213595366125057 -5.600369180474484 -0.06072728763211561
0.9033836454221107 -5.847078031411534 -0.05466774101704836
1.1006470299213642 -5.934394597253028 -0.05116263506352923
1.2979333275844964 -5.847524026132616 -0.0547037620358951
1.4800293721045665 -5.601259794186008 -0.060825326350527426
1.6423499640209582 -5.215854212297898 -0.06494931587402641
1.7842537219853063 -4.708768751254251 -0.06540996501871715
1.905223948415189 -4.096611653400507 -0.062098853252326724
2.004764344811907 -3.3963378558247332 -0.05543399526705312
2.082669914436146 -2.6255587373115876 -0.0459268129055157
2.1399266775525754 -1.8012910059313536 -0.034016770378017855
2.182243681565316 -0.943064712929936 -0.02016599397780044
2.2148257278329746 0.0 -0.017701038061713446
0.3794604660753894 -0.02734249390246295 -0.0023365486967771984
0.3948250530197247 -0.9390511883027127 -0.00726815787878383
0.4135882479367765 -1.804598045273078 -0.01890271463371874
0.4510559306885907 -2.6303796811132356 -0.02844341027729839
0.5023164886749055 -3.404239046524872 -0.03584034252225044
0.5682469252370743 -4.107531107350763 -0.04078581450765588
0.6485929913314705 -4.722795396266465 -0.043206743619206296
0.7429289777554055 -5.232986464628794 -0.04300558854060818
0.8506625367181143 -5.621570799816473 -0.04040866153028909
0.9709758258567254 -5.871082780001137 -0.03639271560857875
1.1007466658976046 -5.960145949538754 -0.03382549975036197
1.2305400276609932 -5.87153364204579 -0.036299832172777935
1.3509238002766524 -5.622471474327601 -0.0402431535260177
1.4587854198496955 -5.234334552877512 -0.04281452760817435
1.5533266049045942 -4.724585410680075 -0.04307596573183896
1.6339910890466491 -4.109747390499913 -0.040859795582856955
1.7004218195995822 -3.406837342782924 -0.036332278399914965
1.752477253830375 -2.633246669527516 -0.029705909684517768
1.7913085852702553 -1.807536883016295 -0.02125484796499257
1.8124631618759641 -0.9420706349057429 -0.011965346892541253
1.8291978136177105 -0.027813893463465345 -0.013396426937967252
0.7438666810021376 -0.04814311647886975 0.004206680479245356
0.7523848926106509 -0.9388672727561821 0.00032816979913929186
0.7589254812106638 -1.8068508430721433 -0.007314651752074787
0.7760895726813597 -2.635005090840971 -0.013531821125165438
0.8017151441081081 -3.410351039627059 -0.01785036593346106
0.8345638438254646 -4.115256080654202 -0.020457213025949866
0.8746339018121959 -4.732086396204102 -0.02146073857243173
0.921558852391866 -5.243774577290153 -0.020953052696822502
0.9746863692183406 -5.6338766593542955 -0.019051890713495733
1.0341620910494025 -5.88561603367212 -0.015842999738199484
1.1008543458524427 -5.977377520409429 -0.013009911256100095
1.1675684786013905 -5.886073982330572 -0.015622951561063131
1.227112133337624 -5.634791748120049 -0.018627030191004923
1.2803610364684064 -5.245144922836249 -0.02036155768145912
1.3274750797704808 -4.7339074751761485 -0.020779741180869414
1.367828378756118 -4.117514656850815 -0.01982616074076311
1.4011032112327204 -3.41300807314514 -0.017505014313818668
1.427392200112722 -2.6379545106878384 -0.013833116156980692
1.4456579374203862 -1.809954956657557 -0.008795372997455617
1.4533496727867825 -0.9417067262922687 -0.0035757720564381216
1.4623774407752366 -0.048584358451180365 -0.0041468732335975715
1.100757723214229 -0.06211579202983629 0.013024514398290868
1.1036450815295962 -0.9395097892332867 0.008679054092345897
1.1004857982839367 -1.8067515197649122 0.004242085217740063
1.098791685269244 -2.6363659770704415 0.0014192922145786688
1.0984774315812031 -3.412399404198998 0.00019497817278746232
1.098279089084951 -4.117809069754934 3.708634599210413e-05
1.098068570420519 -4.735159433612305 0.0005877888874033451
1.0977091129019145 -5.247203013143887 0.0016337186539145392
1.096402079791331 -5.637610769098802 0.0031268508052087057
1.0953370593989618 -5.891515364267824 0.0058320335528915445
1.1009660172923024 -5.9884018331054945 0.009678427667795881
1.1066160592234555 -5.891982511038571 0.006179488209728862
1.1056158060403805 -5.638544341285618 0.003811442538614431
1.1044218189782564 -5.248601176500517 0.0026255461914920933
1.1042318523220565 -4.737017565418853 0.001817831765069322
1.1042614700940796 -4.120114563437499 0.0013655442925887096
1.1044014752541556 -3.4151141376715257 0.0013677580534150915
1.1045925795820284 -2.639397640259644 0.002019952308574387
1.103581062897317 -1.809885831966157 0.0036102928481703224
1.1009489209866448 -0.942080029352001 0.0057226640979440345
1.1040851568970826 -0.06257984085409336 0.006554195598043589
1.455198083963313 -0.07007301063373597 0.022124686879770043
1.4529767523114177 -0.9400852531189383 0.01736811089728582
1.440904210064857 -1.8049977380614761 0.015742367654608506
1.421452796355002 -2.6346532915550256 0.01630549804398265
1.3953297340954196 -3.410385095367021 0.018183944587791323
1.3620079420038318 -4.115255254961854 0.02049787515555252
1.3214531666662834 -4.732099355223845 0.022624953216980083
1.2739824333689602 -5.243486065017785 0.024210641916796737
1.2187969896221227 -5.632836244368289 0.025177547829161307
1.1564891991612367 -5.888437922052939 0.026668263628716618
1.101080023384415 -5.995033635231718 0.031908714125280964
1.0456911882932312 -5.888916380174212 0.027145514134129876
0.9834451046775088 -5.633792343040931 0.026127028676479962
0.9283644697434523 -5.244917494421532 0.025611564814177503
0.8810436112943942 -4.734000291535056 0.024417418046320263
0.8406850620275109 -4.117610760738636 0.02254360943870052
0.8076118300314985 -3.4131571693038634 0.0202091444757952
0.7818014323125333 -2.637740904560302 0.01783174318662577
0.762679820015886 -1.808103561401002 0.016023261790874356
0.7507991942203287 -0.9424466558022236 0.015422135091972107
0.7487026348886108 -0.07057746284493353 0.017237548591405638
1.8107536426001962 -0.07349868995897224 0.0304746615618671
1.8042170064624146 -0.93996715294183 0.02584809707503549
1.783489301546235 -1.8017853667139823 0.02709533595707205
1.7467340572992058 -2.6299961181144114 0.031029985573432565
1.6948598395373085 -3.4042328867653926 0.035996692065522945
1.628350600981664 -4.107529294031028 0.040722673191254034
1.5474726591583592 -4.722759473075049 0.04434309907233164
1.4525089366914863 -5.232724981316759 0.04623815061367135
1.3449688480881643 -5.6196900754735415 0.04634800988384675
1.220760973144072 -5.874500609800999 0.044904044022546476
1.1011945967045356 -5.998968194040824 0.05046662342983581
0.981648039732051 -5.8749926301139155 0.04551552955572761
0.8574995756725228 -5.6206730263232 0.047572191902616315
0.7500577290771608 -5.23419563418227 0.048065389436445415
0.6552275807988376 -4.724709568764465 0.04672625979525368
0.574509068211441 -4.109939390301085 0.04353074631078878
0.5081652096673206 -3.407058290276112 0.03894280549172326
0.45642288913415885 -2.6331168315266233 0.03358105943061486
0.41970833682021913 -1.804853373936442 0.028419528048667448
0.3989297456809764 -0.942202387952604 0.024969019645441504
0.39240610812676724 -0.07401987985764089 0.02696068250579385
2.169403409514024 -0.07459289110791387 0.03688461944036362
2.160621191559213 -0.9389611518201486 0.03378392621571835
2.1317763748963725 -1.7970494340615377 0.03836229437442289
2.0772092906597166 -2.6222455887886356 0.045812259999408945
1.999428226855546 -3.3937640286111574 0.05393236649409165
1.8997614865730958 -4.094374947638326 0.06105038984795106
1.7785441008332232 -4.706974821069206 0.06601922129284904
1.6361808725421314 -5.214089379578251 0.06804973833742359
1.4743172037982823 -5.599650920483789 0.06661723032375313
1.2984214970541639 -5.84633843251396 0.06138778021690535
1.101305297734501 -6.000000000000001 0.059037789856857203
0.9042086237419975 -5.8468464488900755 0.062139626853704825
0.7283709696124115 -5.600665481572096 0.06812983453537311
0.5666014259357715 -5.215605987668845 0.07032792738158898
0.42436135421040294 -4.708982006296153 0.06903467386679434
0.3032794510896115 -4.096846520649857 0.06468981545417347
0.20372141422759005 -3.3966417262432858 0.05791325178437724
0.12593892055311373 -2.625384477873203 0.049565932018243546
0.07115973260346936 -1.800074618472844 0.04095381955067047
0.04197029940564058 -0.9411211750022039 0.034076657031660254
0.03304049612330271 -0.0750914451320702 0.03446450007031036
0.0 0.0 0.0
0.027439387856564502 -0.9949931134183067 -0.023816348549957247
0.06607590646333338 -1.8749648919666266 -0.05128158737651797
0.11951314276554696 -2.722595694486329 -0.07321398908365086
0.195557655210795 -3.5149047774375517 -0.09308788037188163
0.2952759890921924 -4.233211907043958 -0.10951952111524113
0.41825654521302946 -4.8577793607933675 -0.12182541348692962
0.5637553852381754 -5.369519949762693 -0.12913134669255377
0.7297841106764172 -5.7498267521544495 -0.13082540405965615
0.9114031918062675 -5.9828136020537555 -0.12790867435144845
1.1004246821498918 -6.0604480030087196 -0.1252689069127631
1.2895133502279834 -5.983950372309811 -0.12801385320075606
1.4713470705673073 -5.752126805893256 -0.13107265913974475
1.6377789817387236 -5.373031704194809 -0.12960228810146812
1.7839440420456332 -4.862560826229771 -0.12266053643363357
1.9079717496188087 -4.239300706069673 -0.11094428164314403
2.009283567896472 -3.522265578409284 -0.09542182415517386
2.0877028583761863 -2.7310294409597766 -0.07700806441289693
2.144598936484961 -1.8840825194891382 -0.056880092196846976
2.189201585687149 -1.0040608602882508 -0.033815634763028644
2.2309603369309126 0.0 0.00019307062794712975
0.39050992491842074 -0.04248886251122005 0.012504758104926995
0.40736447065436 -0.9905763124138189 -0.012476423243890061
0.42095232798011234 -1.8809555146661188 -0.032486118265275345
0.4559691218078087 -2.7296330783734657 -0.04944483443261741
0.5053702388884757 -3.525027199877558 -0.06363851534677094
0.5705964507986473 -4.246039984508526 -0.07531732745328977
0.65127436848893 -4.873339350655742 -0.08397183520032059
0.7468920087100959 -5.3877009057989245 -0.08920310475357417
0.8561449199044547 -5.770283736493655 -0.09073676076671963
0.9758542079775443 -6.004594398137597 -0.08920154528117617
1.1006294501831426 -6.0823039850875515 -0.08756860919898522
1.2254757291763456 -6.005749873503635 -0.08916534427025272
1.345410275426665 -5.772624695209308 -0.09069573567642882
1.4550801085539498 -5.391283136568798 -0.08922837209014575
1.5513722841472506 -4.878232596932462 -0.08419214370932612
1.6330817493938476 -4.252299739357078 -0.07594199098292018
1.6998369907184827 -3.5326386749763783 -0.06500712827951578
1.7514394222916174 -2.738426915795696 -0.05201041506639628
1.7896445624803912 -1.890589940754163 -0.03713754677972455
1.8077787598722501 -1.0003620398097788 -0.019277062196382345
1.8270702182556484 -0.044838793327052345 0.0050431312536111305
0.7591731244982187 -0.07377158557766382 0.02043504118288105
0.7678640315605444 -0.989094010280845 0.001105851726781313
0.7693804548100479 -1.8823138972013158 -0.013179418632366546
0.7829674166338317 -2.7338844079555886 -0.023710067162112828
0.8063035925051714 -3.5308330543772484 -0.03176747515973625
0.8377009831728083 -4.253558685263844 -0.03791727207082906
0.8771170199162079 -4.882484333630148 -0.042197250729058625
0.9243558011465551 -5.39847931018578 -0.04452005373674622
0.9790693349762153 -5.7824710855676855 -0.044841292134269656
1.0393708567151938 -6.017064977595484 -0.04327153108807991
1.1007918097258451 -6.093452646139724 -0.04150181384584932
1.162285163419855 -6.018240671294212 -0.04309418782443893
1.2228148662277554 -5.78485557195062 -0.0445119444533522
1.2779455441745988 -5.4021345999491075 -0.04409887151015442
1.3258463978301325 -4.887489837619362 -0.04179842917917715
1.3662501451195226 -4.259983729231119 -0.037740723469514445
1.3990669427154416 -3.538681390314005 -0.03213799887013289
1.4243806442337403 -2.7429950296039185 -0.025141937138652436
1.4406105550223738 -1.8923677204498393 -0.01639402301121183
1.4442877191061665 -0.9985346092646541 -0.004313942306772652
1.4540271228653996 -0.07739144640867547 0.012842266281916374
1.117000382579161 -0.09381982994197162 0.027517629391861045
1.1193358843054952 -0.9893453266593895 0.014315911312899422
1.1116739495061936 -1.881184995610916 0.00632951520190662
1.105959608967817 -2.7347243923287747 0.0026091726948320017
1.1029283357413275 -3.5325777739279927 0.0010541836694733695
1.1008874981855243 -4.255898500974 0.0007029273906002033
1.099505659407287 -4.885432799347159 0.0011241927214440794
1.0989939473143124 -5.40213828414803 0.002085628514140465
1.1001405654928915 -5.786819488228914 0.0033714134608233007
1.102462544084597 -6.020391522495773 0.005234924371754624
1.1009366370715366 -6.092767114091145 0.007484674441934542
1.0994834375953746 -6.0215883399812835 0.005554452055387369
1.1020332265392245 -5.7892489490426895 0.003991525356205875
1.1035912762282296 -5.405867690451952 0.0029580417116058743
1.1037200256953033 -4.890549142584305 0.0021493208426524115
1.1032668811076896 -4.26248242230694 0.0016946192625480897
1.1025097655515872 -3.540643591119809 0.0016884687506698805
1.101181394516828 -2.7441241516217976 0.0023614963057269076
1.0973362612216526 -1.891360611321296 0.0044903710820186505
1.0908281440457035 -0.998409890396166 0.010258637581308886
1.0937420581022017 -0.09837957368131058 0.021116747623050307
1.4718961475008554 -0.10455184695174348 0.03479576542616261
1.468619175144091 -0.9897465601026497 0.026860047065507837
1.4524649217685588 -1.878422181931519 0.02551736287314497
1.4288925832243549 -2.732385461378779 0.028779887421987217
1.3997040021646956 -3.5301963923950845 0.033817180783821545
1.3641013156974529 -4.253111175951554 0.03928371428198604
1.3219807260400132 -4.882219518240392 0.04442774578759476
1.2735983848780545 -5.3986664054957405 0.04870952004514733
1.2208123285407533 -5.783533194429506 0.051533994388282045
1.1658663368968618 -6.015133676793184 0.0527720561718728
1.1010853698202963 -6.078563121589555 0.054790714492134955
1.036377751003499 -6.016352341607529 0.05323611971387108
0.9816601496791534 -5.786008755577979 0.05245011547452798
0.9292813063130335 -5.402470551408271 0.05004225174913253
0.8815197167775968 -4.887445076244443 0.046093803250920766
0.8402689304568267 -4.259845104372666 0.0411116855870152
0.8058086585012072 -3.5384626396484875 0.03548788157603151
0.7779865648704579 -2.742002851928447 0.029757729360365772
0.7556855199906326 -1.88861982966841 0.025043671698876536
0.7401908832685928 -0.9985720390865653 0.024201006093576914
0.7372297266572241 -0.10970863597204297 0.02979392721055225
1.8291658141389746 -0.10856735544143563 0.042634987250311826
1.8214632550784866 -0.9893320019118619 0.03869624855549906
1.7971427019241013 -1.8742747734378287 0.04394893200730395
1.7563308986808701 -2.727096566873786 0.054087455336651095
1.7008911213981084 -3.5236518941292556 0.06551707038241215
1.631354770837877 -4.245130021803324 0.07654811162919639
1.5479527055507576 -4.87286224892822 0.0861540214768009
1.4513758993962051 -5.387850369233859 0.09343666268428652
1.3422776294853884 -5.772377346265369 0.09751520339498489
1.2291766957762202 -6.002779936084225 0.09612723270690524
1.1012597905695827 -6.048265185003222 0.09422270776961456
0.9734187383487899 -6.004021436939842 0.09673942116571113
0.8605523891577814 -5.774900639613217 0.09873518878683803
0.7518666327523695 -5.391730723096162 0.09524322793489813
0.6559045142269653 -4.878196074816715 0.08848220299740547
0.5733324123553902 -4.252006436644782 0.0792440613940479
0.5048080253353576 -3.5320907418822296 0.06827032138444311
0.45041284073931304 -2.73687120138211 0.056344967848592054
0.41037255740680834 -1.884484350405857 0.044874723330579555
0.3863244924010434 -0.9980393900818648 0.03742481807348785
0.37870165783287557 -0.1140113564486982 0.03898597879418026
2.191749809904623 -0.10938624704132302 0.05076611419878855
2.1830216707338552 -0.9879405031975392 0.04984776142673613
2.1521239222934354 -1.8688222659355647 0.060994957192226675
2.0934344733298405 -2.718783349280151 0.07740063776234889
2.01108800883752 -3.512815402323788 0.09457907494528427
1.906900335812179 -4.2318084933677005 0.11051954212956547
1.7812319474822844 -4.857038009985441 0.12390197199601542
1.6348696267915068 -5.369905991175896 0.13347903849761175
1.469184271871504 -5.751263778792438 0.13807120194895264
1.2848092817908918 -5.985642613783292 0.1331783938089193
1.1014858523614317 -6.000000000000001 0.11317579012740918
0.9182445343353678 -5.986908856117639 0.1339433303199474
0.7341216902247618 -5.753838233278855 0.13960505730014156
0.568873307631499 -5.373866486881545 0.1357763459410184
0.4231474247433987 -4.86248243525854 0.12691834387578638
0.2983071569028865 -4.238822189915981 0.11412151579602127
0.19505191482345155 -3.5213981404159513 0.09846648715885944
0.11347966665156059 -2.728654466447563 0.08099604973966341
0.05501510714001405 -1.8790115254637292 0.0633590725840652
0.02379725579606969 -0.9965730304884066 0.04991962881540215
0.014842674336355732 -0.11489107846749319 0.04831104886512884
SCALARS Stress float 6
LOOKUP_TABLE default
-5838.1587224952955 -32384.34495485448 -11466.751103204933 -5925.055755390461 2442.702415343028 -3078.094302770456
12902.49979309445 8299.908855575419 5341.354249186638 -2632.0253608766943 2542.563747331558 -104.67728452232278
12763.069165634546 370.3774870678824 1251.5175501327114 -1240.8080916677563 2483.908241626448 -863.4535247900297
18461.231804251172 1716.494224241288 2273.501235661983 -1279.548003492581 2210.1361161445966 -936.8798937556729
24925.429144228045 1915.1241146486761 3052.819109953878 -1205.9390207620456 1975.0612708519768 -1286.7407516932224
31673.734511767754 2517.46150336906 4084.369090486384 -1094.1726751244723 1551.2970627797818 -1586.7143343335242
38245.09739788494 3048.4463737549013 5111.035554320002 -913.9738971527369 967.56191430686 -1894.9506683367422
44446.58205456499 3544.4123686882012 6154.165385011502 -666.2358305550233 235.830954884208 -2197.8323927026363
49668.49990204445 3941.183861376606 7110.3462263210495 -346.7573331516288 -477.44940729467703 -2510.0625124756643
53074.529453921634 4337.258410281658 7848.696892456157 -64.42939651509764 -679.7570090007658 -2845.5421395240955
54323.56164327823 4783.164474048397 8246.415038502533 -7.891471617826994 16.340138968805064 -3074.3671538738513
53113.09844036949 4337.714425275203 7851.552190593196 48.23672140935243 712.1502815063661 -2846.335924934606
49753.269127945314 3942.4485917490097 7117.056718894716 329.3359712696808 508.8945834154698 -2511.6359684606423
44593.784978180396 3547.2365809130915 6166.726022618101 646.737865460185 -206.35793410448042 -2200.2258786318866
38481.903368423154 3054.4913424514716 5132.8452721519825 891.6184724472423 -941.5750623621329 -1897.8406718052008
32038.865842401487 2527.5955212757626 4117.723575067097 1067.85880720834 -1532.1334068641486 -1591.2566464989764
25476.415988217264 1935.7008825738485 3105.19296354999 1175.7792131012457 -1962.8036611030982 -1287.175719079921
19260.76764472095 1740.4345369004984 2321.9604615316666 1236.8495238107946 -2224.2747764609903 -960.8636595353332
14126.611746773355 512.8323228121551 1465.3280280592355 1189.1069461375637 -2445.0152936058043 -783.8135890647366
15858.509039814518 8821.887280887624 5656.964875698796 2730.9207988622074 -3269.3718349846445 -575.838300305771
-244.13008900424478 -30884.510648882428 -7048.146309073129 3561.4949197744813 -4282.391564946945 -1193.8610770949886
-6473.046468408132 -28089.548710230563 -8469.091282969523 -3803.046205671456 2018.1990875961937 -1769.4146140855228
6168.475891494947 4498.265067754081 2533.364321052462 -3151.154218739782 1689.8992533753026 -530.7262316625502
6364.090203174618 -429.9881267032986 41.554958114516715 -2621.838457824361 1533.2766331844853 -930.3607368547958
11516.988149007288 79.98063781072072 790.9083441746137 -2655.4578424441934 1355.6786465187492 -1206.4692944575636
15580.74285216001 -96.71290638671658 1087.042862200028 -2595.725980960371 1176.4560418353985 -1600.63309182356
19881.572993224458 -91.39083528679208 1517.0209903428445 -2384.213588968872 927.0654007470041 -1993.6859300053513
24071.529159013342 -91.29060708464641 1976.1398431981713 -2071.5785642519863 580.0848835475512 -2388.994584874477
28013.785081261474 -127.03711677652328 2452.742314091533 -1615.55834142634 151.81619743219332 -2796.9866446502265
31352.59662808631 -166.2340856871122 2913.912060464944 -954.305334313466 -269.9819144232146 -3261.4076620908277
33658.778938260984 152.3346738029189 3383.803885526878 -251.1719390962527 -402.6358155723956 -3843.9995087677994
34741.975965007114 1015.5488150122627 3848.1394245780284 -14.070214553096392 3.914157689890522 -4295.862011977243
33700.58844038311 154.17379364923184 3389.6431217353143 222.1354635153864 409.68477039591573 -3844.0828053123905
31443.079575291984 -162.39918525450463 2926.2736017640277 922.5357189577741 274.6672654348709 -3261.467856456679
28167.213833477283 -120.88447738700984 2472.926713139362 1579.0691344997244 -151.10221144105805 -2796.7979218249675
24310.46182819841 -82.48875386313074 2005.5211411818514 2028.1564663718564 -585.140163079924 -2388.0901850499813
20238.421961156335 -79.93313209131767 1557.0256375078716 2331.388264496756 -939.0794545157468 -1991.706908402035
16095.546074836393 -84.51766562419986 1132.927738168544 2530.919134713727 -1198.468727729112 -1595.4821424835836
12263.17406660453 106.76539911992859 856.0051508302058 2567.970270794118 -1378.1160627029453 -1205.418925168073
7409.737014400732 -408.0906662814984 67.50845614450438 2486.8082295348854 -1596.7123585600652 -894.1349034475008
7197.714300585918 4719.493447381977 2639.262765497739 2972.198340151878 -1932.4949800009397 -761.2468301133133
-6000.822286779627 -29008.246712290023 -8142.457251183623 2379.8348312027388 -2389.6356591120402 -718.6751641344007
-5158.271482114324 -19576.336708587838 -5343.152287145273 -4465.012872860793 1228.9329823522792 -586.0287566016833
2116.7726555226554 1372.8788605305692 1146.438741561359 -5118.508659540528 961.7685345283998 -824.8171750041447
2235.407797287816 629.8550443993688 108.88869183645177 -4464.538769856446 757.9048324855881 -1062.2045311421937
4935.670635900603 -104.56435770232773 146.51639073715847 -4540.614768825542 614.6321196420399 -1538.7421885097533
7402.296359928751 -70.005615430227 418.2972423911751 -4386.402300599122 502.68176654342807 -2030.7560758374684
9600.710340406902 -88.91703681660088 618.650433334356 -4048.859770499281 380.4165023543863 -2547.5954461538245
11789.48051862864 -75.0420283317979 860.0579910432955 -3546.9500881061444 216.35837364647418 -3069.151132469727
13893.438931049468 -117.02497642821712 1116.3480532795586 -2817.543553201806 -2.1040717561853692 -3619.303398095159
15686.525651136322 -180.22919330346576 1350.8455554934 -1692.1086152522644 -279.80357826901496 -4267.126614424761
16905.739937937145 532.8606344467624 1720.728158929631 -365.2078930656155 -427.6868373114353 -5151.6174871997455
18025.87022175665 2843.7352153879747 2613.918099643825 -22.484367516470805 -6.015824725551421 -5984.397950624996
16948.904523960216 535.0198010919693 1728.8590558030526 318.74740483549664 414.4673426516293 -5151.153321862702
15778.961143774752 -175.7660310716658 1367.6895082367964 1641.0848212752994 263.0800057051877 -4266.059261590496
14047.396652086116 -109.98395530810228 1142.847638964652 2758.5916281628947 -20.2380857449473 -3617.2975946593765
12023.5706791327 -65.0765526240439 897.1561741717074 3476.176945281555 -245.87760912136304 -3065.6639476619252
9939.347597434376 -76.95845027719396 665.6527148677328 3961.680175303181 -417.70902655934907 -2541.4130822556253
7875.2590268030535 -57.28434330185085 472.3703818389806 4277.095344958792 -545.844541246915 -2021.6947892511027
5569.635481385663 -93.64434318684353 195.26825580265856 4394.584779738836 -659.1221648789115 -1520.7020068576837
2869.6559995931525 638.201206397453 79.7299600338626 4252.333195828895 -819.6157810190988 -1066.1922885962429
2713.987701504505 1818.4585476119769 1265.2480826935835 4835.630567070109 -1053.1699364031074 -837.4826570809488
-5133.672926090547 -20310.768348597583 -5458.722524408685 4220.448274053367 -1348.518563285839 -560.0961460324235
-3773.8637575113457 -11829.620757538505 -2825.926635340104 -4129.012216845902 554.3837521814596 -206.65957888028018
-660.2369598164835 -274.56378026448004 441.07750220995115 -5412.965182995649 314.09966795211346 -716.3052760953119
-1528.2507453214394 801.635612136407 49.20649802269969 -5434.684357385819 49.54427921455893 -1098.2635282611081
-1205.1288517602284 60.8286404838464 -190.9853619066486 -5188.327102564652 -82.35257529187486 -1618.0416591767485
-729.3922403773324 -52.45895425750056 -124.5770548106533 -4975.032075007634 -121.36526612720768 -2155.484067934753
-482.5396174885219 -21.33975249069754 -65.93615728258989 -4589.447556942869 -132.0041942833154 -2703.410937251564
-251.36775001524325 8.027922490257168 -4.342257496947219 -4029.071203960709 -141.65674619812646 -3263.4646427916678
112.78863497861343 1.615831951559116 92.16580218994304 -3241.2557910882538 -178.4954756538715 -3846.82650833835
444.5470265281075 -172.64866975184339 112.87352695219442 -1952.3104509124232 -345.55087851955005 -4515.913707141944
455.3382662699495 849.0870198258993 314.89761063922003 -120.94735516693812 -561.7295527879429 -5476.0767961422835
2052.1236422104985 6022.786761260209 2141.672708116072 -25.244782503947565 -14.939624194294986 -6713.405039228211
499.2819459665012 851.6308465601969 325.2692100005206 68.73719223568077 530.2802999256294 -5475.443195224715
537.7073545604775 -167.47001347758476 134.12180298412568 1894.8374262710938 309.5223930721794 -4514.4882246234865
265.29053035937864 9.58974488260288 125.02350915400892 3174.6479789883156 135.36028480146373 -3844.2483296905157
-25.481933368145675 18.807545620139148 40.4282856122838 3948.781211207125 89.98851337070735 -3259.027884793312
-167.3329772289527 -9.080689642518076 -10.802503902560643 4489.776219172254 72.59782148267368 -2696.0326780012215
-310.25011631016434 -42.507738029961835 -64.77638705196162 4848.122490820841 58.93150109303252 -2143.2737313115217
-720.1847265284156 54.65945307574194 -155.93995040072215 5022.419965480851 24.247965705396545 -1601.1153174362191
-1101.367034828864 883.0625391835305 47.15866523955209 5225.342417944162 -97.54521369002104 -1088.9579037600004
-317.0593056861063 42.36341706715549 498.1958392881707 5289.67341693739 -354.3810603981222 -736.3697209506562
-3844.8414931787897 -12397.56796143682 -3008.7161771754604 4089.5837195081267 -604.4536020740238 -323.9098828085736
-2963.258727616363 -5921.219392753066 -1043.445382175795 -3138.0713106762178 -8.138680756219575 -163.17825615115342
-2784.2529687031893 -788.0268018957122 143.28389835304984 -4552.033083309552 -294.2729931457164 -555.7925475825517
-5132.834809306627 642.6652045506883 -95.85149345220536 -5000.712588370335 -667.5960816429094 -1015.340216293855
-7140.509039556987 148.48590361558252 -500.8851003958011 -4660.6725719165925 -791.8981182193986 -1524.35873382784
-8826.8927664893 15.505084182988263 -642.3620715986996 -4390.5143075270125 -754.0063695664857 -2035.4914340578453
-10575.042722065353 47.27790711516232 -753.742036301145 -4046.2395630760348 -647.1899358842893 -2548.038872942976
-12313.346413250543 63.29479957895042 -884.2580350590414 -3552.939425649204 -509.34680830791206 -3074.67859061102
-13711.513489848327 181.75761715199783 -923.0703613761776 -2851.127753469063 -345.51600253503494 -3603.5566743409595
-14723.957631818272 -119.52802220819814 -1079.4205366401545 -1812.221421304508 -307.5518712119506 -4168.001219656259
-16310.41965016281 304.42815584017535 -1460.5120027793241 465.848046172019 -628.6549912860714 -4949.4161771060935
-13336.052583671295 10899.149027165684 2197.8249799874066 -22.722893282887977 -24.061339513968143 -6563.229388868381
-16265.484487700456 307.4167882977936 -1447.8227956181458 -512.8672913275107 578.5384007980975 -4948.995019935419
-14629.66140928293 -113.5191199117944 -1053.599048601802 1760.3989991493102 251.66280836415348 -4167.027497334346
-13559.90992251472 190.7725959393566 -883.6132702904225 2791.0017944166975 280.82815983480987 -3601.7185758234455
-12095.296248163513 74.93334141690467 -831.5315658286285 3480.4215133986354 434.5387127272519 -3071.380710278442
-10283.9551759319 59.985733349693724 -690.4770857814725 3955.882645657524 564.3798965503155 -2542.240575739526
-8471.622608877376 21.629058483547965 -579.3197162824348 4274.773124376878 671.025686963218 -2025.8048610429544
-6776.766350490121 149.409966017075 -461.6806851003848 4512.732354576972 723.4093652113648 -1511.2237040756816
-4848.254156086857 720.8440797194088 -83.6105546828936 4857.329419832066 629.2949380041646 -1006.5039928132861
-2595.892374013871 -611.7904162887229 161.39065111827782 4518.073320491441 278.65246164272565 -580.4341142747114
-3021.6066169712667 -6262.013326629739 -1177.8695198243297 3160.5049016870294 -8.812837527584314 -272.8322363498511
-2759.532551507205 -2369.5266124320206 17.8039389349035 -1737.4617011148446 -502.4721685942498 -239.12400979989647
-4465.52562880688 -736.5360096146352 83.94489797070828 -2622.6373631239717 -916.4278681235704 -398.98766439519
-8673.557512507692 369.7404144503849 -333.88483498850627 -3004.2545488317246 -1461.4600586598933 -797.7638928655022
-13062.060093681152 158.10909223753305 -919.8291707432069 -2793.6709968355053 -1578.5182616198138 -1203.762564508343
-17042.84812398142 53.61382619203286 -1318.1618647738715 -2600.607123843338 -1448.7531732847583 -1599.2973804218116
-20872.11111863316 57.617501772475165 -1658.6919650005643 -2384.2413602008332 -1206.2027772561776 -1993.2968293692613
-24567.43036236146 90.46617647806201 -1991.2911879885853 -2077.816203552941 -889.7125944563926 -2391.768106724474
-28120.995758786154 53.37043947892434 -2378.878050749934 -1664.8264997404242 -526.8444161417065 -2796.229327459982
-30145.977319012534 586.9253629480157 -2318.3148173955383 -965.9950182828411 -5.48718789700362 -3133.8214454104864
-34032.47270074951 -2053.3557633544606 -4269.180387637829 491.0373850321969 -245.4665693035018 -3580.874722920208
-28170.094965303113 17400.104957118092 2369.781793010061 -14.376551632948239 -34.60382406726807 -4758.9266769594
-33985.4847825498 -2049.918978709961 -4253.963002307401 -520.7781853266422 173.7255543796589 -3581.0077385468776
-30048.398656269674 593.7920221311936 -2287.5183890583544 933.2518539932419 -73.56449821739965 -3134.0180319552733
-27967.017565365917 63.50856742951929 -2332.2893715711193 1626.9419466955592 436.74042364583863 -2796.3149078495744
-24352.60028870041 103.25189215531996 -1930.0437890789424 2032.347977905903 787.1441256282741 -2391.37700972131
-20601.438223474768 70.50881116298577 -1587.9744930242935 2328.0552002545055 1094.4344222954937 -1991.7552826489339
-16746.393873559773 61.23379562935557 -1251.625989102571 2529.1820736462214 1339.5892566267848 -1595.7692234365884
-12804.611379370714 166.8340650378828 -877.5529167925691 2707.1710641629015 1495.6535647711114 -1198.3473768738763
-8514.043222649962 424.24174450818083 -320.6754473520977 2934.503613285284 1429.871692930079 -795.44742122409
-4395.659888168927 -655.2988410235541 79.05458003559797 2621.96348837607 922.5532146294905 -416.4703840174925
-2805.1388874763766 -2517.158667246779 -57.45134150049985 1760.3662408414136 514.5615815816839 -310.21920223893966
-2410.443141654333 -1023.2022532411894 746.7377106041797 -856.6837249872069 -1005.9404528617926 -288.6044952090828
-5412.3022149736225 -663.0630929354736 233.56131463342513 -1228.4935255617672 -1627.348871849302 -333.6966389556651
-12395.18474050413 -522.4428518049039 -978.3074370186399 -1381.1788876799299 -2414.693427526004 -662.5129378733265
-19911.962381673715 -1354.079519594229 -2336.500216730159 -1327.9988755493841 -2521.0406726386905 -986.001311359358
-26477.716930403705 -2011.1222448864405 -3343.873070834817 -1234.8761219738915 -2272.425388215885 -1292.7334942379466
-32684.3913190357 -2551.1197450344357 -4238.601827170433 -1107.8920915461902 -1855.1893497693054 -1596.2391026472303
-38708.81026524646 -3017.830168193526 -5109.000040023495 -941.3916172771414 -1309.7348282729413 -1904.0769811589707
-44551.2384815656 -3712.193323673242 -6104.079121067003 -690.0449902366829 -662.0735401253278 -2185.6131677018325
-49758.96423371922 -3460.9674264185537 -6819.871130019969 -337.6789309758327 268.11586350520747 -2518.997388862267
-54368.064828022536 -8218.5708224411 -9586.792155366133 938.4713673356458 1946.8276140770367 -2262.2338087699786
-43974.79813739486 17382.908064850228 -1047.9029871656542 -9.289524793512783 -48.1163565607019 -4665.3741188388185
-54316.23859319581 -8213.207815475625 -9567.959878932492 -957.6621817220033 -2046.345709886703 -2262.505282141402
-49652.59728592035 -3450.4663003994006 -6782.090562013209 316.6674029484234 -377.11320047857055 -2519.462934631553
-44386.75413921524 -3697.2567739155106 -6047.805698322299 666.0429456438354 538.7542049296777 -2186.0967787229706
-38486.70963689032 -3000.389574504276 -5037.020002258378 913.3470484283602 1170.2667914464146 -1904.2597134529499
-32421.849219578213 -2536.7318638375714 -4160.316681250943 1075.0291625924947 1703.8594428805745 -1595.6481350757213
-26231.4269940739 -2010.7113745724787 -3281.827382648952 1196.8406672494261 2125.5479735610975 -1291.0481082826645
-19779.946966443124 -1372.0356464523263 -2322.539715515409 1287.557914413949 2413.7588882291266 -983.8976433739241
-12421.565848396307 -529.0560455203256 -1017.3141798926645 1352.0858809570946 2388.474942026808 -663.8690105390117
-5499.069044695617 -656.919418806218 181.10384927137642 1230.2416047434658 1666.366440224747 -345.7082202289883
-2516.7712045613134 -1113.0278990006157 683.4185146711328 863.6299106987108 1060.8753239055468 -336.03529941559674
-881.9333110420832 -19607.857240511734 -6146.937165466146 -3047.6539127838887 1625.9008565174474 575.1504484258464
11558.866866096521 5558.318290319854 4049.2747900266513 -1362.424709398318 1754.372275446681 -180.27019970019433
13424.930017983066 672.6128039042482 1769.857494495564 -486.8800851738376 1645.5499330605064 45.03975395748114
19008.46859374142 1648.420853367545 2698.2932697250817 -529.2231802097418 1462.221772758887 -30.805931560742785
25128.874723550292 1936.5159001210384 3607.0800242293813 -525.5996255489727 1116.0210680647622 -3.1614429334816476
31448.081393740413 2473.363584427504 4743.202448483567 -539.0300271437277 667.5238373454064 2.1506104511832786
37658.95435768926 2979.5605152528447 5964.095798002028 -551.5053478980997 103.78855270573483 10.092057793849893
43780.29038638025 3523.183248345289 7354.062487750047 -580.8639394185194 -518.8775577421308 0.7997209092597766
49803.89392891187 4062.28296129998 8967.170538309427 -610.3292492268735 -1003.3632189753281 -65.49205397522624
55018.440179995334 4299.436432441385 10523.144919292617 -491.433368838101 -916.8009302674384 -251.57426138595042
57136.81229747619 3992.589412003571 11108.037285316834 1.6542546140037544 8.679561298944643 -446.4588634443589
55029.92520430765 4298.797146209588 10519.912564598786 494.71607354593925 933.1837846837876 -252.71946287126207
49828.48294180188 4061.026417080936 8959.856083887724 613.490721062598 1016.671536130518 -67.74196669617183
43821.939203455804 3521.4279559391816 7340.880552988131 583.6528671604028 526.5106926482235 -2.336689845347305
37725.92242036146 2977.825021545444 5942.367759902337 553.4562517944702 -105.84236226201585 6.360734402456092
31555.705590694324 2472.4070364147306 4708.557009497026 539.1369466956031 -685.3572505785804 -0.1971002542484399
25308.151137348515 1939.58668396127 3556.043319938988 523.5279522956413 -1163.262492864479 -6.4606020310692776
19302.919182538393 1655.2876566088537 2615.6284002772345 519.0809736289712 -1543.614311807587 -11.947956750104254
14005.794830573233 718.2074318867121 1712.7677236029706 468.06058597705646 -1858.1336876933046 -8.893746092194288
12925.362176431412 5732.800559563388 4063.27323714255 1351.0005857753704 -1569.9798468530794 212.6564133036593
1804.361144143782 -18572.12923132173 -4375.1525262443265 1800.7916731603857 -1326.3402297563005 -1059.596584317334
-2901.609072320504 -17903.932501829328 -5425.508356358246 -1955.7617639005011 273.824330667378 -53.894858345014526
6081.22748265093 2963.088987887962 2139.7662382005033 -1699.0950873227166 589.9461807040983 -163.83345662630344
7655.887797669177 -160.4640303551448 688.5888365262014 -1337.7404544695612 1003.6467928802911 10.756574465229637
12295.522100025977 186.0089737967195 1364.291031649396 -1389.0242372893856 841.6339645236856 -14.487527646669182
16190.824147031071 95.87107428083353 1788.656283235541 -1430.4543465782292 627.1672384255584 2.277330627016725
20248.137054888328 119.26326354948881 2362.7479610011037 -1438.3280719984232 341.78066035539706 2.791752232502832
24241.92440665723 151.3570362342389 3018.589866727553 -1450.7067086827406 0.6725972432620755 -13.726990728754593
28144.96779648908 219.30363485810068 3788.568848275893 -1489.4289743714091 -365.7433134898678 -78.81743949561536
31877.219848358553 239.8047291099209 4663.440053758065 -1544.2008778510387 -649.4526937190085 -267.56870629979875
34863.93952230447 -271.9922320253667 5336.622115566859 -1267.0194982868504 -598.5470445923698 -679.3975876957038
35756.42676815152 -1445.9545015169083 5272.176260218891 2.394676406579867 -3.3439674291006996 -1089.5551415312752
34876.93360048856 -271.47965632948626 5338.087489556122 1271.7352641838468 590.3372470269143 -679.6441158487496
31904.61680915395 240.81356500558897 4665.51260389171 1548.600827051611 636.6227252633821 -267.7888833199533
28190.09598310974 220.8129143887551 3789.3716390955906 1492.955770324396 344.94122727699994 -78.30847118264964
24311.219207666876 153.4134015358403 3014.797647532024 1452.2267211284284 -33.287736636083565 -11.08059210643294
20354.195949206172 122.15256704775584 2349.5162880075377 1435.830805916588 -391.72544494032536 10.48602456512727
16355.003343982298 99.13807701919475 1757.0220544997803 1421.230788835967 -700.4885676997947 18.350275432139277
12572.375625651328 199.3887770170338 1314.411899192241 1365.8433533587036 -955.5312285919101 21.911946294889834
8132.0347672369335 -153.03085210253928 599.4098336764989 1278.515810492592 -1147.0422699293074 43.48420951802731
6570.170376330917 3018.3693079085683 2042.5415698456861 1557.8137684344374 -627.9856040208231 119.27657734579839
-2481.579020302861 -17873.554791266703 -5273.621269116773 1160.9022536431414 -187.80205197532536 -1117.7598446162528
-2695.0375844097966 -13001.944120061089 -3553.2581466285224 -2581.2766882840847 -43.418919329773814 -1078.0095509953258
2653.9677325514153 996.5890205655542 1157.1699952995798 -2950.7517010125607 134.85473498483722 -162.01409783828345
3481.466593374643 520.1313266193321 549.3439532679641 -2440.1896026543027 404.9960094785504 -49.39952468007374
5912.3379964488 50.10484829247143 640.0605188515665 -2509.455669810977 343.9800792774087 0.6853279457598118
8097.253710438711 91.18913999730593 911.0916085913201 -2536.6526583612476 218.00902770690996 -0.535433866280556
10103.36937555862 94.56245515240057 1174.9987060494948 -2546.572479085495 73.55874354282459 -16.374958200616334
12083.740825728377 117.72049789404076 1496.9673361646935 -2552.6721447456052 -93.39343814365834 -72.06383212028888
13967.22335593739 205.97373112721928 1883.6741637530845 -2580.4071178848026 -282.98859217457283 -211.46899591429457
15816.472658941599 319.1224092152397 2356.569272836746 -2670.0796413245403 -490.71582242985926 -538.9082710447917
17432.786861557903 -537.0776383300432 2571.7108950938537 -2309.4307976159907 -545.3626444815291 -1219.7841407564945
17313.777109673185 -3324.223722279175 1745.08628705316 3.512548145316427 -14.008874106918492 -2007.2497105211417
17446.724516786227 -536.3599004219869 2577.5360741107806 2316.320412263859 515.3907319719825 -1219.2134590949472
15845.388650047513 320.52315605759435 2367.413292097699 2676.4037603625534 454.92651612053544 -537.2679419868028
14013.423928808632 208.004120814959 1897.6550050543817 2585.2118385800563 237.68289422876734 -207.54559075436666
12151.650637606355 120.41846726560462 1510.709307979461 2553.9928095987243 35.136912356324125 -63.3484174582684
10201.184552496035 97.6618332553209 1182.6726918143547 2540.939309988756 -147.7764018576937 1.4810131946005831
8241.87429958385 95.39952117340508 904.7053188987232 2518.5292171237047 -311.29692658445964 34.827193583969375
6140.546463647112 56.74585391163679 609.641830346956 2468.1999123938594 -459.7963080189703 59.44096802860358
3749.159240294717 508.6515322241059 451.89141360494705 2343.678497468709 -522.1889893207798 68.68606872445925
2917.6414615554 1200.508125563801 1094.0730330033243 2755.7138498545196 -158.78875070268893 -51.21793025527703
-2576.8293873193156 -12986.450896532737 -3627.6630509721736 2357.659464250446 97.03534364821263 -1510.656214770798
-2237.0368489842294 -8227.443269735339 -1795.886951645463 -2440.647553851373 -140.18171658333932 -1181.92892457624
101.74828829504013 -170.17252610299616 630.1890116766389 -3241.808433502406 -133.86924438859876 -290.61379086507856
-376.48433055423413 577.4488269921326 324.6684091258806 -3082.422491653272 -83.75254082388425 -73.32456847672437
-228.0862440100388 64.49683179794839 67.82311164903666 -2911.5973137109672 -117.08011956755166 -18.138892833177117
-61.31336773312363 -17.122351475442066 40.56498543296221 -2911.183421274634 -157.26835083411385 -15.543451104763106
-44.49457330898375 -2.356847909004875 35.75767500834901 -2917.650963346664 -178.4799390451754 -46.07373763368126
-71.39949952833724 -16.1303163603664 31.454732654168645 -2924.497832788001 -193.1041674758735 -119.97712532314793
-198.2507227687576 43.68979857764164 36.13696076316196 -2904.3456995722763 -230.64162502740982 -278.1836298384684
-168.96593077899655 330.4237584160551 160.60247368150084 -2997.274982281596 -390.83152637061096 -617.8156133007967
388.326749209008 -774.388083069047 40.393913387330535 -2933.641258353381 -604.1301872012926 -1359.9110521346167
-1097.230410409938 -6600.171476797686 -2070.1520353967044 3.8194515881986684 -24.132529420289174 -2577.157658073054
403.13745500862484 -773.4311165732378 50.64985636184964 2941.127952820223 553.5144909612098 -1359.1033070175158
-138.7602848513788 332.2974007732327 180.38620313686377 3004.1264489040705 333.33337777874783 -615.6286544217086
-151.4981942363017 46.42815589299934 63.66840481435794 2909.4879859856437 162.31860965044973 -273.21698770668024
-6.175912177699793 -12.576976482299232 63.25677332522436 2925.696857446912 111.26660716736495 -109.44509111854576
42.891745616068356 1.8381801926518229 65.74633537365204 2910.7419281302155 82.57948551493415 -24.669819426481702
58.37790217170359 -12.282638234458013 59.71587305641179 2889.1081176869247 49.61449366441578 25.36273388198995
-73.7627405571951 62.96208643216532 55.78982588133813 2862.075024875904 4.593144887100678 55.9029710377111
-225.8414987623137 603.5951382832604 263.0036860292111 2983.0835454856187 -3.995870802568102 46.219301205258766
241.05099444997288 7.21255099291805 572.2489861665312 3137.6842334749 126.53154831309709 -218.5087694173973
-2234.113246499471 -8291.130925074865 -1943.6784836596692 2368.24835220974 183.48518952691614 -1440.5524738737047
-2024.2592652074559 -4370.54559609028 -402.4682640365126 -1847.9117150817247 -236.4806871542782 -1022.2285173269214
-1963.363430797253 -609.9069181919003 418.19499262918526 -2746.2619276417154 -381.8129595951277 -296.35164628642315
-4072.10418836982 383.55973764958355 53.40672620913362 -2838.955415724905 -539.5887200235566 -76.13537315142486
-6211.25339487635 31.0171142492944 -479.8724440676645 -2580.803304293484 -576.6342078126426 -9.328704724609542
-8197.681366383535 -90.55355182906008 -815.1157355606861 -2527.3940672834638 -536.7132057139287 3.3675116169292862
-10218.29350358181 -110.8033326119339 -1116.1450441150805 -2540.6477592149276 -433.85979525040597 -16.77657965917778
-12195.77529443956 -115.22002014634504 -1414.916012443056 -2546.7177992524926 -298.9379951817107 -78.33332237964764
-14290.001391254169 -197.33950104113987 -1811.0308945640852 -2523.964720495057 -166.63638037957358 -191.18963338569804
-16217.55932619642 244.27645930177212 -2083.592343149238 -2481.6211857658827 -208.10020461583454 -432.09127190443286
-16396.793593849758 -135.01134173570273 -2202.3156431998887 -3137.4357884454485 -642.9723832195625 -993.9641844963658
-20200.042979289166 -11437.09481274347 -6652.821399066866 3.5965368258986476 -34.472444113769015 -2695.478227326057
-16381.077664365837 -133.83326169620085 -2187.572860892776 3144.5151492847017 571.2456310750295 -993.514283778575
-16186.001226825736 246.6012818141661 -2054.730460229153 2488.201685627764 128.317988214366 -430.6933420032686
-14242.619969989455 -193.92305233621943 -1769.7020106493972 2529.140294521886 74.54724183118455 -187.6280014544694
-12133.217548474746 -110.79706779310987 -1364.6357755390889 2548.537539844834 192.5049416350242 -70.14766775532362
-10141.50658107591 -105.3838333472664 -1063.2908755682602 2535.249113472821 315.1400995893313 0.7208206459667257
-8108.373070843413 -86.0486129795849 -771.3595275603286 2507.836859992975 413.97812129059304 38.750657405782306
-6120.045624395335 34.410885887761566 -464.7807379744707 2535.710298877627 467.22989000797577 56.83679012483471
-4000.190912476407 418.2847145659603 26.51806265064868 2769.2157011875356 474.41354445175057 20.77890944930006
-1903.5773939987268 -500.13898519811266 366.96328399942604 2701.5424524425202 384.21173834317125 -246.74060514549217
-2054.591963287495 -4440.538111510989 -544.4934712582888 1831.2137880013836 272.168672798876 -1193.7424093330355
-2166.2923074226264 -1938.0298317787976 527.3987072742824 -966.3663919993329 -423.7989752949039 -663.5639020833553
-3703.22457339643 -630.1800430391124 403.5830445710974 -1535.3857723269964 -706.4429005643273 -201.68891035716433
-7687.481059740189 164.71163390511873 -241.67109383185746 -1637.7317731798112 -1043.2231846186417 -69.51927087963256
-12127.51478373656 16.89020583790919 -1051.0674809809507 -1468.304293336791 -1082.6766614586165 -10.99565020108297
-16323.988075087687 -90.7556103111389 -1707.6684988441389 -1420.348373960417 -955.3275096935946 5.081042312948011
-20383.77959045747 -127.37774886887624 -2313.1407175404147 -1431.6963765850396 -714.9681213704371 2.8584340773263515
-24376.864956215566 -157.32174992857338 -2947.0439751076697 -1444.9971941134693 -403.8017779837535 -17.989450202543335
-28097.43950729174 -91.71067388405035 -3564.7272080229486 -1418.1717119458942 -86.79572215978948 -72.836372893446
-32464.339682589107 -526.6226702281507 -4688.748028391477 -1462.928946734482 194.39967162780687 -114.2397157790755
-33005.14335687619 2360.2952356497785 -4033.328032519987 -1981.56941661401 -405.7475312642241 -371.47108611496117
-40932.63723150166 -17630.72359365682 -12538.985661550043 2.4942629355183517 -45.78967250552313 -1984.2129832230899
-32988.39482149886 2361.641703005371 -4014.05953823334 1986.513476636517 310.8428503423938 -371.90902463342223
-32431.10982263075 -523.9530862237566 -4650.71936482133 1467.6447064311817 -298.8818258102537 -114.84376797262279
-28048.7681970837 -87.78244525467838 -3509.4471566616953 1422.1616625792312 -32.11053347022376 -72.92221305437921
-24315.56272159912 -152.22472782279135 -2878.023959322933 1447.1193271537422 268.7248715254489 -16.14107469502349
-20316.05937149336 -121.54169510389065 -2237.602373539683 1429.6313967852168 567.9678274809911 9.490160935166365
-16262.145750005355 -85.4029373767776 -1639.0033059482969 1409.515940773162 810.7648568299275 22.178509463956456
-12089.400760110417 24.68097287496382 -1008.5177966396412 1442.8147752370533 968.398063896309 25.03680364336898
-7679.618658418689 193.46918578569202 -239.68984569814785 1603.3966043227324 993.7932250498884 -16.617105358109086
-3704.469474211488 -577.968693330934 364.06097641101127 1520.2126422382344 722.1264784250957 -175.8105156762389
-2209.0708695904336 -1982.022908637369 417.24228042512686 962.8658027325399 464.23418244359266 -761.7210977871779
-2325.475460024393 -1062.678496461771 1117.5095895525685 -370.1353968227077 -810.2287522939747 -430.0524967534795
-5103.169206103649 -748.7240777289281 461.28655409857777 -600.8438199534532 -1216.8529297233306 -140.214292153232
-11605.661070040467 -719.0582360817975 -894.5227087584815 -590.0761480986591 -1693.4612423450428 -75.46150562408405
-18770.059346804417 -1380.2451104283903 -2365.2202496559976 -535.0499702063445 -1707.4400747148989 -31.260270511099687
-25322.361524775213 -1968.6873476622375 -3573.4936964175804 -523.1333190881328 -1468.0327181270652 -15.553983467348317
-31606.28063211781 -2475.5125596066164 -4708.0335375514915 -535.3098266226793 -1056.911883843538 -5.043937501246216
-37824.580068721225 -3019.7653344469386 -5915.228658580575 -542.1288154103804 -531.740308441848 2.87022046343969
-43675.37068371217 -3298.1619267528963 -7074.452781069293 -566.7080682858483 49.09261174215894 1.4444246115391906
-48918.427156658094 -4411.0097782812145 -8535.136082494391 -583.4331039507558 647.0709551013038 10.559221320661498
-52335.793512325086 -213.70561063212563 -8455.870068800794 -1414.285371672343 965.3276519732442 228.71063580405678
-67616.20708347336 -27692.08352359841 -22489.551949360426 1.1973624449249414 -58.912416124289194 -2109.825582045973
-52317.40998636347 -211.15378158692846 -8431.622563184006 1416.6831628463683 -1087.2179213042143 227.8891611209737
-48882.18747274604 -4405.94002538815 -8487.041414278814 585.8026734715037 -780.678165964377 9.057395189913745
-43622.99301753982 -3290.6936671122585 -7003.898434842355 568.883087039296 -200.36410028241562 -0.38131829484880697
-37760.428578932464 -3010.2465589879025 -5825.859883489793 543.6707381786002 360.6519059418812 1.4534965666082122
-31540.6893954705 -2465.231517603934 -4608.204252532946 535.2880957974523 871.4220813197245 -4.554444006569732
-25277.5645022848 -1960.6375387176229 -3479.8972302627353 519.5807520988685 1287.504077875057 -10.136762150297983
-18778.504687095476 -1375.737593655035 -2302.975085785724 525.3363375104325 1571.571712085623 -16.31405351121921
-11673.006854315496 -708.2225083528742 -882.413162611058 575.8975708010225 1653.0161562486694 -52.69342331171641
-5173.870743191701 -731.916010655912 427.56308014332114 593.7349343162319 1267.9841929674108 -130.1082755635662
-2399.83589663262 -1095.6212045835307 1033.7711334700446 364.3344678812764 894.3833016876009 -489.4379070062068
4060.7245745427904 -14889.096929982154 -3248.5117066318076 -191.51131606982156 702.5088946727392 60.9599891014908
12919.407235548188 5303.906815137174 4452.432080732466 -1317.7228627845382 957.7797160200072 -73.08928766539442
13385.092701493555 654.7423461881849 2274.187145068892 -521.3926701487285 901.4093170780728 70.60097168974598
18627.483537078802 1420.8601297351236 3218.7160851606295 -595.7914667612099 753.509813898265 81.46618085278631
24522.052923133982 1701.9217321740146 4409.241486674489 -624.3177151510185 484.5320403519345 112.42134892365043
30569.560958550945 2176.2736078659714 5900.995875604516 -655.5299333656835 147.67226536712792 144.43745053073013
36677.50096000932 2650.7745064300702 7640.1699653835185 -697.6323421431188 -233.06234834428042 174.42765418796404
43196.39567331287 3232.853326360258 9785.934982597053 -777.7611277358837 -596.7833394700633 187.9188236390078
50575.320659958525 3883.5288847398187 12451.108454987805 -873.1816044763408 -800.0910062565484 158.30848200904887
57849.381024317714 4096.188431147479 15084.935411589835 -733.5106632113627 -621.0105788583576 68.56171522573861
60982.018400879984 3542.1791229375276 16082.8506131264 1.697101765578978 0.8021086719147761 -7.5286901012201985
57831.5567658343 4094.1929249353 15076.684136988504 737.0084811184864 621.6922540831445 67.58831112095744
50536.55406377828 3879.321382449459 12431.941747495623 877.0000784619638 797.9033366970591 156.3733020719254
43129.88282884399 3225.9623287365594 9749.997331408995 782.1689286578531 589.3323815894181 185.1200685860833
36571.27769726762 2640.263823887062 7577.2246952300575 702.9241594576781 216.61572301539294 171.05498382425532
30405.040929203104 2161.203157953191 5795.546618091013 662.3042898997212 -179.84941858100768 141.52512857466118
24268.17349416239 1679.4583136068084 4236.513845337208 632.2124383818892 -545.2741115601742 110.72064789533414
18244.25219314734 1390.6440798231067 2951.1528560445786 610.2580195247886 -857.4167509297613 88.4794311476604
12686.423022118379 575.6356022599897 1801.544283236952 542.0431656805018 -1061.7497010683246 64.8597438480106
11158.309833405792 4954.386730475351 3543.1853547122423 1287.7335559025432 -966.4877170407806 52.20456985118433
1075.59894009603 -15720.475366132925 -5526.32936362629 1653.9539017551692 -854.3343779511619 -510.24194461407166
-1963.6990656098176 -15224.214248600629 -5305.91311085509 -326.6736843328352 371.93614362870113 -182.0638251437027
6385.764694891185 2770.8566701388254 2281.824305274142 -1495.4768651990846 450.87801562467047 -153.1616239401177
8021.983083225093 -199.50866828281193 1136.9685879383633 -1348.5231173944276 564.4071885367213 16.944191752303748
12240.327069558114 37.910189521275186 1863.092919995656 -1486.2718412060128 471.88018422257903 42.8156537644554
15945.686247852027 -92.48764437508108 2462.17765964242 -1571.0825724365293 298.915989661651 62.55002393337644
19826.88072391996 -119.65110556398768 3301.8767570441373 -1626.9814282197592 79.91571608245391 72.29339931944477
23752.863093976197 -134.47569700291842 4320.2846274936455 -1718.2810328609032 -159.15667288567295 63.02074036352292
27903.144228416433 -78.22058302045188 5595.119427054362 -1907.2581385329945 -379.88805650092974 11.340938151632503
32419.650275423915 -105.01538157270826 7108.236130256301 -2182.829100153522 -500.01067875898394 -120.15813574452564
36464.565055022846 -1038.6934309419848 8298.627688321569 -1912.951281571505 -389.95850468328746 -340.1505078662137
37713.80932099895 -2928.988908807825 8270.61413968839 3.2915445266496164 -7.201682428453119 -497.1732913465878
36446.332267900936 -1039.4151308542387 8298.88588211656 1919.8357261584263 374.19190130237814 -340.3816339522985
32380.525963757278 -106.48964178040522 7106.649070994904 2190.6689646700834 480.09945660859563 -120.3801878925227
27837.468876682044 -80.5195522995626 5586.955030467648 1916.8814815870894 352.7851246203349 11.749576640884047
23651.275578245546 -137.6762728882994 4297.217984854406 1730.8282025386932 121.05222659976857 65.37948763278844
19674.54092516248 -123.76900301570687 3250.204659435201 1644.0720028748667 -134.82608589771982 79.16349709448944
15721.724247231014 -96.55099438707592 2362.2861583606937 1594.5531425321788 -379.3071786421848 78.01593610861002
11894.833592787496 24.38260768674026 1674.5866404443343 1522.7131279209345 -590.6296760796922 73.84907602956407
7460.570587323002 -214.42163438872987 813.5344162409656 1418.8747913137602 -701.9915758509027 65.27224477793453
5794.990254035796 2667.1344088355836 1772.8551978685643 1625.6991939987502 -504.6863371717003 -18.925433804848694
-2369.297533228856 -15015.423099017991 -6072.787513567973 1228.489562335907 -330.0295804954759 -660.0156924722072
-2220.362499064373 -10920.224257527274 -3672.948476303655 -2117.217053214232 130.48909272755398 -627.6897044161625
2901.34995853746 1382.8342380952572 1306.2581261416353 -2602.9883551242415 164.1621153883281 -231.50004634924503
3748.1149418797045 335.6311822800998 756.9861251282399 -2426.429316334646 229.67568293352412 -58.99653858304571
6099.093782397555 -68.02582995354572 943.283833740877 -2621.861490540894 189.6051622486148 -0.8447006909037036
8120.4663935207345 -62.51583743782095 1274.9617471067802 -2723.5079651722367 92.24182598167718 7.1947971766546335
10011.892264283593 -95.9313966867908 1665.5266266465676 -2820.0972835316857 -23.170026444813054 -10.529324870089539
11911.20592911442 -111.3840490846983 2166.4592954061336 -2965.1483667041916 -142.83832961026812 -68.63097767501729
13842.299608693356 0.30709094261973746 2811.7866373324523 -3247.458548932165 -254.27666055023823 -198.1065958625059
16063.643078133156 154.7700559337939 3646.202934599294 -3737.894218993276 -330.59221403320595 -445.360462162291
18292.81240428449 -1289.349723857186 4087.086820933507 -3468.3656651596243 -283.8925455432583 -816.5307433114511
18112.904863537933 -5546.537227687202 2937.275970425013 5.311086808543467 -15.059626476091267 -1084.819236840323
18273.87062134292 -1290.3093770364753 4095.1994734490713 3479.4898199852005 252.05775032616708 -816.0418507347529
16023.561234756442 152.84833364434888 3660.7929383682595 3750.614561977334 293.6378213862125 -443.88211716212794
13776.62923326897 -2.573163713476532 2829.077129333016 3263.17059168305 208.85505020904841 -194.4102981621271
11812.909147911421 -115.24498433209124 2179.395813586616 2985.8392562810495 85.54441585682635 -60.23230927845256
9870.874590238172 -100.19938808287434 1662.328273334876 2848.6291231226596 -49.80854300465586 7.0426115849734225
7920.946959011195 -67.09189962449796 1235.8356018383972 2764.012925697442 -185.99093399630303 41.556936729294286
5809.871795967563 -73.75584653759208 835.5153508975098 2683.748206112506 -307.49848842226174 58.71202614820002
3431.0246934790525 344.780144855389 569.8375797868558 2538.1278699278314 -347.50819054760683 47.78519262218709
2578.0853090854007 1123.7067196201865 881.6881971320812 2797.6541216216388 -197.68517857539183 -140.0296950214781
-2334.2712904849286 -10759.262052719567 -4193.459889772409 2316.518855625131 -89.0692885398973 -970.8823189693429
-1992.855372716042 -6933.119353134423 -1844.223496263172 -2281.087796136096 -15.536872761319518 -804.8353288869089
310.89084331577556 316.05583859873025 743.5434664910629 -3051.3199621472945 -49.940216177671154 -271.9098538813587
-102.30230530419644 519.6202350637342 396.6888328752286 -3027.1939822066893 -71.49305858633191 -81.40760558945568
113.42990867423657 19.50982629015804 130.71662223988253 -3016.0001257419203 -91.75413923211713 -15.781946733070786
240.5116161949172 -23.909502061132862 77.45923732170634 -3105.4208290766855 -120.3303329583726 -4.875360138742002
192.47533812450388 -6.530849142868121 58.15687286691796 -3215.1969346411665 -141.46185241141112 -31.000555500239194
69.70303813267945 -23.130144821793877 51.590356821439215 -3382.0965557603495 -152.8041456245503 -103.95581018610211
-209.26915166967095 107.37721654978306 73.99041335594862 -3622.941964988027 -167.57748502040027 -253.42280658045343
-170.05264545468054 592.8526877313398 326.958464262659 -4153.052310424666 -209.99744171133815 -525.910557162159
732.086876188244 -1201.3376844414938 232.4749049628606 -4337.529494055403 -223.0054598872004 -948.9282759725089
-1299.5958282635288 -9723.637443906266 -2687.550610847974 6.018799697579566 -22.895012381004012 -1294.6692576195908
712.5262996723492 -1202.5936802742558 248.46703131148902 4350.137361345942 175.18111124582973 -948.2204821192704
-210.88729617102393 590.362603638506 357.77491478885946 4167.471695827345 156.20034348952544 -523.9108159344977
-274.61075588140056 103.70065775852463 116.76192690281454 3640.7497609507254 104.2905981639844 -248.70579366070794
-24.584247522722208 -27.849722221832792 100.61104213395616 3405.5549755553925 77.30208893326126 -93.69564522987928
63.884633988222255 -11.658969550458353 103.06253415892965 3247.772239988125 52.15400065862824 -9.946134045637171
68.82104233236572 -28.435187040125086 99.65227211741968 3152.659845768287 17.084809775698396 35.46124934395695
-93.48806361960445 24.56866953181153 108.60112964231887 3087.9129060768596 -20.615710657312253 56.86888754543903
-292.5653322675973 486.04411249150064 289.10237647745686 3140.7910401990525 -21.514664900869796 32.210665285211064
135.68691675369976 112.49672848270325 440.70559597482077 3146.099811088658 30.33471040311076 -205.3037775661854
-2007.896500528155 -6757.667334646052 -2210.2006321346344 2321.108957330496 48.18363729150814 -1028.01455014465
-1887.4592738928263 -3675.4902637742384 -252.90490099462127 -1819.9826219527215 -138.471447465705 -756.3165365902978
-1803.3302797088086 -228.73072705892133 501.94079540174755 -2673.0516339452624 -247.21271251551522 -232.19639659246076
-3769.3921803769585 432.5078832654315 6.4462407724077595 -2819.7678195198364 -362.24358710312987 -69.3945168593892
-5725.2267509719695 93.51855761293326 -645.9605831764126 -2682.7867568574256 -370.84012493036477 -7.906733748146954
-7630.439263391114 44.218230149789974 -1112.093856330464 -2716.893950769291 -334.2056595551312 7.525176011668161
-9655.63897733216 72.27910563652063 -1563.1439515231464 -2820.123216151565 -261.26584438217924 -10.68150801867358
-11718.979263552592 116.63204173676935 -2032.707160621459 -2960.12384546452 -164.78797233100957 -69.45495168722711
-14116.311153472125 89.86041655037548 -2658.454138358054 -3142.817611520508 -76.76075471887997 -190.0308630217144
-16449.7707600509 848.7480672547335 -3068.9437467227995 -3395.651638473673 -67.07913561704245 -408.85352715706017
-16506.979545191618 102.13297039730779 -3214.685100143002 -4505.301660299676 -140.53047438568507 -796.7907040600682
-21646.948041286658 -15762.685476169234 -9180.732351151979 5.3291338841508065 -30.88442769568519 -1195.993060013444
-16527.285808211112 100.57394446341368 -3190.7006544663727 4516.4628125965455 76.38805142789447 -796.3648080022255
-16491.64288891845 845.6658808243069 -3021.663267051921 3408.40755608168 -3.9539910493747024 -407.50443360299636
-14181.823195097375 85.3590522542221 -2589.7990946559753 3158.546062349813 -4.897416899276553 -186.54681201549792
-11809.96921892968 111.00536214994936 -1946.974401970609 2980.8030213706456 70.37596362132807 -61.40427766546322
-9772.725488253605 66.11742311373327 -1469.191415358563 2848.987870398974 154.78355774589357 6.479477542013276
-7769.514041236223 41.03249105059571 -1025.1592184889298 2759.435827285553 220.72048557171118 41.883128034177425
-5864.989447748992 94.10402857152245 -590.0340616849929 2747.745429644134 263.69427576387335 55.73218599458096
-3876.7546872864173 393.75742897235176 -19.410422746820885 2898.5647745208994 289.79398092905615 22.88820613130406
-1887.4720963898885 -347.0198445479469 316.66906374370956 2707.975586266686 237.31434503454568 -182.95125851163743
-1885.53293698751 -3553.529739262586 -528.5156928785779 1808.2873337117135 165.00971461340188 -900.5537681046
-2094.136077770484 -1635.9226154670368 831.3607319872061 -983.3816045326703 -293.638517171448 -457.41546661345063
-3605.401980044242 -415.29122763750183 448.07025050237235 -1529.4779965927376 -473.0067104060177 -101.0116645195408
-7358.639254296183 241.9343849910796 -400.90995952910623 -1663.0335674206153 -666.5562640226984 -13.587256227812846
-11498.488278719446 115.49406549836449 -1428.9791872509118 -1559.7213780947598 -651.5760991239174 35.92283812714118
-15497.643591052913 81.76793063419892 -2320.974405909748 -1563.8534272337833 -543.7637774553855 61.75090654476302
-19494.363973734264 110.12142795205148 -3209.021679464038 -1626.6185755546558 -368.96419944750966 71.92697828100965
-23571.618854165787 139.86775539568987 -4191.566988962693 -1714.0987570108432 -153.14484068629227 62.488953052305575
-27559.57986094379 304.50688224815826 -5217.280254286195 -1789.0545058419177 52.31126325048934 19.74985499049943
-32904.95316864442 -170.0325804961119 -6956.223092121861 -1989.0024786292593 160.99274773597395 -71.55449530612087
-33645.87198919392 3631.779634146698 -6130.368889010338 -2702.012778528791 44.169145096986654 -317.08060883072613
-44369.74715292609 -23532.90063211161 -17140.930435931677 3.3297453354533033 -39.202850753553356 -769.0370668223038
-33667.26792366075 3629.9659534400985 -6098.196699421562 2708.9771627421314 -125.36225770614156 -317.44594483336647
-32948.616867759425 -173.61574960231937 -6892.049503353742 1996.9294267004564 -250.2379145133304 -72.04600428077902
-27626.568804248032 299.3114348629624 -5121.992286787025 1798.759417196363 -153.80034301650005 19.737495625958132
-23661.58676268867 133.43492635899264 -4067.9649238977804 1726.7462442615035 37.512265565398486 64.21581282562103
-19602.31384549478 103.67048880818149 -3063.6252430037375 1644.093210821689 241.61751124697162 77.9021440066089
-15607.885064002758 78.11233617209018 -2166.592266758335 1589.7047038030673 414.72127172640705 76.93465587869638
-11582.37899034996 112.05693038059476 -1291.9088143028684 1597.5177468201757 542.6909435391037 67.860869764604
-7397.756778166859 214.2893410257344 -336.19043589227795 1701.5632739241807 609.2230833672961 33.55219187464865
-3622.1266008050407 -469.2861551954586 370.5934306505222 1537.9584536987531 476.37203032985417 -76.06395006573032
-2089.89057350204 -1580.2177295268405 624.451189612075 965.9704615702161 325.32913117370055 -538.0431726594672
-2339.591036083069 -950.6633710775623 1373.5393220329863 -383.3299764649504 -565.7779072111646 -234.77389257157205
-5057.194504805775 -633.0304853758015 455.1037807547403 -612.3235714252072 -779.6314644762431 -10.704204103500942
-11205.591863629194 -630.4941858173855 -1095.6389748621182 -634.5767554489496 -996.3719889427258 28.495845150998534
-17906.40487827113 -1236.7091316479227 -2810.949562998735 -611.1169408284466 -930.6401953849595 69.912907617574
-24129.6048070981 -1739.3781430992449 -4309.023429416333 -619.6777886881877 -735.3150513938502 105.28496886294703
-30265.47041302388 -2177.7031329971837 -5825.7271135073615 -652.589248329244 -442.4844893230565 140.065094786481
-36541.70966899629 -2690.4494426559586 -7544.417570710915 -685.3404575727287 -86.33768899952722 171.19397321190237
-42667.642065428314 -2867.1097264611194 -9305.242283918213 -758.1190846228078 265.3782532654688 194.23342590123747
-48744.625181193405 -4239.418261974521 -11631.710292168893 -801.9579300060644 493.4753667717664 183.62155236468513
-54010.25646431927 1187.598860797957 -11917.979347108409 -1766.2492564723825 471.2839855015759 113.61011424926525
-74846.55975891901 -35593.8671605445 -29353.709524927843 1.7317397135317094 -47.97040372454986 -538.7870159018203
-54032.690355829494 1187.0309418029863 -11876.761705487783 1769.8913872996804 -570.5505977920878 112.81758113068595
-48789.99911653479 -4240.332346038658 -11548.79002841223 806.1565510781684 -602.3691502493756 182.09835831776772
-42736.11028743576 -2867.8348703441134 -9180.196194808801 763.3288362216385 -388.9646629484629 192.15891743875028
-36630.986339442476 -2689.889375492954 -7378.043586894236 692.1605070953877 -54.29286732023706 168.99327117962946
-30365.63164332126 -2173.198283576146 -5621.5007888862265 661.8686323434529 287.8527420578469 138.72408647995806
-24213.13791891649 -1725.7237275747648 -4075.210379622985 632.8654288969402 580.1963970088863 107.0377782825961
-17927.6423796889 -1211.8090786002474 -2569.615788187014 629.4502848523226 805.9886065163431 78.59788943308766
-11148.848244014727 -610.3659363649964 -906.71980273168 653.6693313932944 947.5128516463864 43.60384055378192
-4985.895387026522 -625.3735586502644 497.5253664689622 619.4739603784026 814.2927678416281 -3.5240159360730097
-2294.8174223064866 -899.7053238589556 1247.3711808030039 378.02749168105856 636.2177955096622 -283.0598036214288
5126.956871232829 -13882.449254679363 -2626.6477150339606 435.9248855361691 -1.0024866270441635e-08 -4.7751633758252865e-09
13264.110114566007 5187.380958519569 4658.716221361524 -1292.8857900136893 -5.111464140838962e-09 1.7486545544898036e-10
13438.449340726915 687.5525420247609 2592.5680848184124 -502.5797517919271 -2.0100756614738202e-09 -3.405222770425098e-10
18510.54808988534 1410.8413016319275 3602.5733436184437 -597.6321978209492 2.159432632709013e-10 4.5630521583461814e-10
24336.746529958727 1710.3368539873525 4923.950653382864 -639.0177408525283 7.557268144608997e-10 1.1943548372528312e-09
30379.464317495786 2207.858966342189 6624.160372388476 -686.9280456674434 -4.4483927652549937e-10 -6.976339506081786e-10
36584.56708169836 2721.6215477444684 8653.120990327512 -748.1608187913516 -1.9151635832770353e-09 2.715054847612919e-10
43392.184420936304 3368.9093673788143 11173.474965265172 -847.8477044750659 -1.1552971912465182e-09 2.5202480102848313e-09
51295.96052042781 4113.041890549363 14262.414061261685 -953.3820490448537 5.80181236387034e-10 -2.6145841047764407e-10
59181.22434188607 4418.439995677847 17252.02511324724 -796.5464078853307 2.050866587666178e-09 1.6835155491889964e-10
62587.62509708324 3879.220777143626 18367.200132593647 2.102154159857335 3.333171072483765e-09 7.452509720451417e-10
59151.02057494319 4415.924216289882 17241.718508902708 800.9449062029539 5.375969003296177e-09 -8.363230108443531e-10
51230.5865552012 4107.742111385225 14238.191677776957 958.4016611000853 1.0579782383501879e-08 1.4406715820314275e-09
43280.36034243655 3360.1730805206257 11127.326339708072 854.0541646633087 1.1588168202791849e-08 6.973461808001957e-10
36405.41723865868 2707.8990523207917 8570.959169289403 756.2938556037034 9.943137146972703e-09 -5.3574922276311554e-11
30098.4308840287 2187.449346566218 6484.649576296325 698.1302223301485 2.8505380278431858e-09 2.645332841666459e-10
23897.88991808001 1677.8510920301076 4695.284864264133 654.0193514059888 -5.5116551322953455e-09 1.9487611524482418e-10
17836.44762623646 1368.5981965944366 3248.1488051344077 621.8314257557691 -8.31128321721053e-09 1.992983555965111e-10
12334.136519675369 582.8312831588222 2003.3044501502757 547.4420904582174 -1.1056119575414414e-08 7.874123575390968e-10
10718.395843362045 4750.415851677585 3380.5934264082243 1233.732231693974 -1.01867150270607e-08 -6.31583674248759e-11
909.900577137415 -15188.859389363963 -5569.330402821966 1570.4890925132988 -9.05873243084443e-09 -4.639566952846508e-09
-1687.722310194461 -14720.291245054736 -4954.103260910242 34.2256487948629 -3.0919278248831006e-09 -2.8383633221551463e-09
6461.557818989716 2652.6741607320664 2284.3448246467146 -1420.3506892297148 -2.845155888664408e-09 -1.1979590652799743e-09
8171.540791539211 -171.08378630085173 1361.9905509916418 -1315.2646035810287 -2.1816446427180836e-09 -1.1568879187962011e-09
12213.133353978947 43.1203135332481 2108.273873921302 -1492.2120521797106 -9.5766394814234e-10 1.2346168531962576e-10
15864.714814372708 -77.57400745675521 2785.1168440568167 -1603.3783531185145 -3.376257329268384e-10 9.128351408094204e-10
19738.868070892826 -91.11122096493037 3748.6534100745075 -1692.161465510948 -6.011224851221186e-10 -4.873950132378013e-10
23725.865310479036 -88.63820353963004 4941.562358784937 -1825.814724565087 -1.3101062457110402e-09 -1.051719600297929e-09
28047.066963645655 -10.10851442975952 6434.515288642641 -2064.0064712516505 -1.0452723131493258e-09 1.704323793205731e-09
32857.49045364395 -13.835046155814073 8182.1258831623545 -2371.8263761544704 -7.500498000467815e-10 -2.233413454177935e-09
37230.36491999334 -934.4000244289269 9552.91581580951 -2068.1550096954456 7.409489688470217e-10 -1.969756802111533e-09
38599.62912125992 -2880.406303182765 9548.915707602373 4.069055586944744 2.346691507781884e-09 -1.5646248741063573e-09
37198.97781899133 -935.5440310605081 9552.963457296099 2076.808056887267 2.3979063179524474e-09 -2.990184988505007e-09
32790.471021114376 -16.12575041999842 8179.482431481581 2382.151754336653 5.208324438399359e-09 -1.6092238652731794e-09
27935.06239011824 -13.603032284174862 6423.008240277073 2077.5728381976433 7.169122961947494e-09 1.2862599874097214e-10
23552.42985356108 -93.48110002908417 4910.274501893564 1844.925560864634 5.144982204163817e-09 8.597460521286848e-10
19476.953872588976 -97.3407169189388 3680.0856348073794 1720.0037785644188 1.871441668299667e-09 4.87591567122081e-09
15472.716386923474 -84.46193690915538 2654.0046590245274 1644.1726473227357 -1.8226449238767373e-09 1.6653975976055335e-09
11619.399278443714 28.261729605671757 1871.2000173481151 1554.940371238182 -4.997411373608429e-09 1.821866657536475e-09
7280.868903667628 -184.6383911505806 963.8458479120479 1436.5730834852375 -6.520138429166877e-09 1.0798930638600268e-09
5575.303292487499 2545.8735948786425 1636.929776184387 1577.333135344757 -4.915792467530267e-09 -4.398224007218232e-10
-2369.6493101472556 -14511.356386273172 -6084.6186568836565 1163.7876949839656 -3.259355674245512e-09 -6.692161491628212e-09
-2173.219639853595 -10776.105025371935 -3580.784857580484 -1955.2933332132727 -1.0795950800002174e-09 -2.262297016386583e-10
2981.107893378051 1430.0799701710596 1340.8994413846244 -2457.0654812503 -1.251389269985026e-09 -1.945188454754998e-09
3877.4727305545925 340.23328362620936 880.6170648048266 -2383.359151061001 -2.0428998770416484e-09 -1.8025567705137746e-09
6164.246870975208 -39.754695136878624 1099.8037251854587 -2632.825107989237 -1.4577021603678908e-09 -1.4205756571072925e-09
8140.208487782902 -27.989031963370063 1458.311509428848 -2781.0826570531176 -1.4630876510324242e-09 6.315108436183436e-10
10028.116876881508 -45.14840745696024 1910.2414021468235 -2928.796144538557 -1.8273087487585826e-09 5.395888180714792e-10
11957.021069531374 -41.711720312531966 2500.286833358513 -3142.0637918850125 -1.0420323492965622e-09 -2.077327643235094e-09
13969.116498479849 97.07591666965477 3257.8607710534 -3505.204450464077 -1.9794856864763233e-09 -1.5088854610212366e-09
16332.708275469055 283.9689893317385 4213.536281564914 -4050.8765618117336 -2.1570282227045823e-09 -3.524403879850979e-09
18753.26879644055 -1128.7541933374916 4742.60214550659 -3734.07089913001 3.1130753530561606e-10 -2.699419354712518e-09
18602.84850364261 -5509.372528007681 3519.3700788608994 6.358043147034351 2.6918967055422627e-10 -3.853315888591169e-09
18720.5724086407 -1130.2611872980415 4752.183946603535 3747.6332730034214 3.150926186634706e-10 -4.151849530842355e-09
16263.871970137912 280.9581014557632 4230.640631070809 4067.1960489175935 1.7586815337367057e-09 -2.9159359371533355e-09
13856.896907527109 92.5224696232546 3277.717079676051 3526.9120977854955 2.625015094182004e-09 4.084919069669013e-10
11789.316589165848 -47.93396703632994 2514.038698849474 3173.1039073977217 2.635590218291739e-09 1.3529692921565584e-09
9785.7609122407 -52.654254818699066 1903.0818411459102 2975.012755958112 1.5465013367133018e-09 7.65855645568081e-09
7794.164686581042 -35.22089189930716 1406.9729378953116 2850.3409273449856 -5.1836535064353484e-11 4.638755157770902e-09
5671.375976664687 -47.76990108823508 968.0055989938357 2741.5598868205507 -1.8385590827563192e-09 3.0287279351171037e-09
3355.5007162315783 358.7993941869376 666.758724236256 2566.309816735398 -3.140002924340024e-09 1.676097483027661e-09
2472.354564617245 1057.7069354564762 789.5775212867276 2727.807814079667 -1.680674321935527e-09 -1.5024861355072971e-09
-2327.7219952213377 -10416.636941359237 -4262.139664964507 2216.9842734250064 -1.0076218748267252e-09 -9.960672286979388e-09
-1963.9191156626782 -6853.016038189074 -1809.73815193798 -2187.590073927593 -2.8244098726482036e-10 2.4861623870719995e-10
384.0319403338025 368.12384265294065 756.6508169252633 -2937.863515944974 -6.980404032574938e-10 -1.6022867477261116e-09
24.111581982459207 525.9557088644615 446.44001273719596 -2973.235181316262 -1.986492859096245e-09 -2.120158271168293e-09
218.86840938735497 12.338278089022358 169.53624059453585 -3029.273704985143 -2.180969294052204e-09 -1.5126078167781998e-09
326.1441827161685 -27.863916956721802 96.2281870784652 -3172.786876933994 -2.2507363750534637e-09 4.701306011156703e-10
267.93174832530923 -8.71743897328166 68.11279611284684 -3340.796533315301 -2.764500295349137e-09 1.1039800185130844e-09
135.93271515782862 -20.85225886529393 62.993450462620544 -3583.0575479780246 -2.1072985023629087e-09 -1.541529570658895e-09
-155.83235514496695 120.25334362299978 91.27627039601639 -3910.498506225627 -2.7186783935206904e-09 -2.850774727392036e-09
-118.0686907738781 623.1283668468146 358.7285751192154 -4496.263542971454 -2.871394400028038e-09 -5.63390578633971e-09
872.974333357796 -1140.4184760656315 277.4124497855785 -4642.886103768567 -1.2945716165724264e-09 -4.465290359689789e-09
-1219.4148252012878 -9894.748312783895 -2854.3476742474336 7.132191055418957 -1.4781730284241235e-09 -3.031321860191838e-09
839.1837282829721 -1142.312426308298 296.55534415808995 4658.1088757917805 -1.6197505281478897e-09 -5.2278199547117765e-09
-188.2129514488205 619.3607263438249 395.6094415051896 4514.608468405752 -9.696508491974232e-10 -4.993514934881205e-09
-267.3011492606971 114.62819740065024 142.44862106947656 3934.930175418867 -1.5199567438006767e-09 1.1057217363941163e-09
-24.261657068545865 -28.349318570455353 121.56449551495959 3618.096869825992 -2.495662565493717e-10 1.5345058557159064e-09
48.8619451322767 -17.235113104901487 121.74460016077117 3393.401899252862 8.248932648058371e-10 8.505155690841093e-09
32.45954092277342 -35.33603435454598 123.48646453010355 3253.581129795015 1.3886227723247657e-09 5.290804239166391e-09
-134.35479551607628 19.736862193567955 149.82610313729236 3154.040654865696 5.508613565297082e-10 4.9368584775777435e-09
-296.5861115200777 476.1803452816107 329.2905805360687 3158.525944184411 1.826502282753495e-10 1.6040022643437624e-09
105.99995153394808 76.71970425724759 372.38166235201686 3077.5256427479217 7.111566335815667e-10 -2.186467895626265e-09
-1974.045185274089 -6516.883243671034 -2272.124368263761 2240.731906924438 9.39241129316315e-10 -1.054625187180136e-08
-1815.2095666046994 -3602.386756783331 -203.367311176284 -1772.8424440974873 1.5331524938488883e-10 -1.4457768315878639e-11
-1709.037202059122 -178.99637136764994 491.32375771657934 -2592.4510568512105 -5.638005617925046e-10 -1.1859482285103695e-09
-3628.8499485625075 432.2294503271228 -12.703824535467795 -2767.3803588038604 -1.9881991608627914e-09 -1.894306933536427e-09
-5580.663716764703 59.2453021308085 -720.9968145826427 -2686.7803924015084 -2.5062611985759986e-09 -4.63867166899945e-10
-7484.3178619583405 -2.0492834439347005 -1260.0204830512548 -2772.8719060907733 -2.758756112442029e-09 -8.557243802442827e-11
-9521.313574986842 16.56638438005739 -1788.2767425157194 -2929.521643544897 -4.060629388291659e-09 1.154838891181953e-09
-11629.511495927738 52.80743623569393 -2343.024920884873 -3136.367284986016 -3.565712849984415e-09 -7.219425057769513e-10
-14130.697475805893 13.202914314795494 -3070.7725488287588 -3394.291066674111 -3.3195959314724632e-09 -2.2955042311423313e-09
-16618.61017342035 772.4378225923266 -3574.285457287847 -3683.7014412732115 -3.32631389099447e-09 -7.130996237947329e-09
-16676.388732065254 76.16321228758821 -3739.696140777074 -4791.973056240539 -2.8537016638630064e-09 -3.5357405892000315e-09
-22004.281292985597 -16201.68157911374 -10125.217283609505 6.405665521892132 -2.9655579658616205e-09 -3.649675228700744e-09
-16711.442080963137 73.8786379327044 -3710.846543242414 4805.636327140948 -3.1021712976198046e-09 -3.6616150111967727e-09
-16690.43168878867 767.9101817566738 -3517.320717748497 3700.1321661117327 -4.119183660833414e-09 -5.1272568413196495e-09
-14242.097591617074 6.514778091773701 -2987.788412077482 3416.0961879058054 -3.868205533663627e-09 1.1233112218178576e-09
-11783.043342429824 44.20283350307891 -2238.782555037408 3167.5150602602343 -3.174524754179231e-09 2.055202230621944e-09
-9718.128775231822 6.760569559911021 -1672.6672038569075 2976.512702709003 -1.6371082267596648e-10 7.898821152707569e-09
-7718.5016896628995 -7.791770547796666 -1149.3731512666984 2845.9074543466168 2.6254360907529417e-09 5.208179665316948e-09
-5817.265881336991 59.02078737529498 -640.3035369670663 2798.7011028584648 2.882809324589175e-09 4.555850363630043e-09
-3810.1792707361974 372.6481539245333 -27.84920136913627 2897.9147826534977 3.3795848342066392e-09 1.6502204047696978e-09
-1841.9069430997004 -350.88105930971443 263.7359840195964 2645.984609559271 2.9478272045579956e-09 -1.7126771112430106e-09
-1802.895606467168 -3383.375951658555 -550.349886551173 1754.8490942078547 2.411022492765369e-09 -9.323628091806313e-09
-1955.4215606783198 -1535.3698594933085 892.6502439128417 -970.1979465455828 1.7881829350585576e-10 -2.5001778425348675e-10
-3464.871943754646 -343.31437223406925 403.45506131057795 -1481.785540432777 -5.350084819610856e-10 -6.581792888482596e-10
-7173.5652983956 259.28324910784926 -479.1407856707287 -1626.297917951296 -1.9559540653801832e-09 -1.0732588151540767e-09
-11286.167359551146 96.78242660634803 -1597.8609815412435 -1557.0489686959431 -3.2446818565290414e-09 -8.845169041649115e-10
-15257.758849603919 50.38025193221541 -2609.5377838591726 -1595.1399558905605 -4.119271146407755e-09 7.111959909877896e-10
-19257.095483971614 74.37488289944675 -3637.070860238701 -1692.3169404013515 -4.010910492624475e-09 -6.494405013768301e-10
-23406.894746416627 98.91599867202422 -4791.102948683724 -1821.3761385190528 -3.304450824082039e-09 3.813855897760732e-10
-27568.78159748657 258.9151254302122 -6017.102810594021 -1938.4910202297667 -4.185249258270574e-09 1.8976464843944996e-10
-33259.86154586053 -252.3106254352598 -7988.7869716327905 -2154.8494992436827 -3.7179908041196086e-09 -3.40044881141921e-09
-34073.58345825335 3741.506452009151 -7115.590122970973 -2867.9676698928024 -3.678196303091852e-09 -6.20832274478289e-10
-45239.0433740948 -24276.28283325079 -18854.136439577655 4.152227271190537 -3.972680850949928e-09 -1.983339270594797e-09
-34110.452800723666 3738.843622622093 -7076.769638702855 2876.79695156339 -5.23743448610503e-09 -1.056831511192513e-09
-33334.60890802611 -257.58416527962834 -7911.152772770225 2165.3743575044386 -7.400682733305075e-09 -1.764671075932256e-09
-27682.351846439353 251.1944885699476 -5901.250103573827 1952.2714175432886 -7.036765059531547e-09 1.6322250218081535e-09
-23557.727971503362 89.1163362548236 -4639.486057694408 1840.7688868099196 -6.020512921534049e-09 1.396275095544297e-09
-19436.192245535163 63.95011786585361 -3455.788672504318 1721.1367782600928 -1.9225381286958054e-09 4.474375092655691e-09
-15439.449046203708 42.86044063036539 -2410.898044745502 1639.7520473371872 3.1597187089005274e-09 2.9418130154112987e-09
-11424.198354713644 87.49316570863212 -1410.65195088066 1622.284337576944 5.67516522664846e-09 2.070802196385557e-09
-7237.0077517077225 211.52186396988287 -375.99117191459817 1690.7562069220817 7.342118024666888e-09 8.702674136884525e-10
-3486.796654174223 -425.90210838717275 318.9822315784991 1494.8350925384318 5.867692998151597e-09 -7.265072987650001e-10
-1937.3509852322802 -1434.9970684170592 629.3600420759456 944.6679012135381 4.166031075669707e-09 -5.9245905958960066e-09
-2189.360707018076 -867.2861625018392 1313.1570035827026 -384.98839100448686 2.1232793301351194e-10 -3.7847058820261736e-10
-4892.547141795125 -565.1756482711787 309.48754710796345 -585.2703456026238 -4.3999648369208444e-10 -1.8429702208777599e-10
-10973.521334503786 -609.856869886566 -1273.4451068562782 -613.7784192566702 -1.6437766703347734e-09 -9.722604943362967e-10
-17615.500655212418 -1247.4984068765457 -3111.3602600518498 -606.5842518228941 -4.145274346001315e-09 -5.222133836468856e-11
-23789.12800731682 -1765.7339371414857 -4787.978920927699 -632.5415627456504 -6.22239149095094e-09 4.3091930024274916e-10
-29925.76764658014 -2217.467819178979 -6529.478087008881 -682.818099103291 -3.822395289176939e-09 -1.6836949612297758e-09
-36309.24785426626 -2757.6068061393016 -8536.753907288452 -734.775839499345 -2.2494264229067085e-09 2.3251658376466366e-09
-42726.80995279106 -2981.8187005149225 -10662.485672337218 -823.2294402956808 -3.4564173745366134e-09 3.842863804948138e-10
-49340.31941492896 -4472.914759912152 -13398.246398849298 -867.306922184858 -3.7036826938674494e-09 1.886185430066689e-09
-54952.93711993011 1151.9615708740414 -13711.417593226115 -1858.8112731600645 -5.732632146759897e-09 2.112443553414778e-11
-76416.42026301374 -36686.90560399957 -31650.367089210762 2.399082544795675 -5.404515945883759e-09 -1.5208314607662032e-09
-54991.843146802974 1150.6373053849106 -13661.508605724632 1863.9140575507972 -6.39367492283327e-09 9.899281394609716e-11
-49418.541791577925 -4475.247941069073 -13297.483255522586 873.3745408049629 -1.1145935729928169e-08 1.3065815096524602e-09
-42843.749612194166 -2984.4070022329847 -10509.489844769681 831.0974997002623 -1.2821047334909963e-08 1.2640519742035394e-09
-36459.81752574225 -2758.8794691473804 -8330.746397907682 745.5947438597663 -1.0718221643557513e-08 2.1663346672085027e-09
-30091.82353384984 -2213.4598493079807 -6271.175035582367 698.2121968747259 -4.845439605105639e-09 3.228528555609955e-10
-23923.54832575676 -1748.5620539905165 -4481.049521404072 654.9469043833512 4.242902917894753e-09 9.316991622654314e-10
-17642.360426773943 -1213.8826642190043 -2775.973757222356 637.4598010508471 9.74495861782998e-09 2.687627898012579e-10
-10868.953459169752 -584.128460301774 -989.8745771736585 644.9423374685525 1.2656325765192378e-08 4.311324630634772e-10
-4764.858997234145 -555.3545577209458 395.0502095828267 596.3823531309491 1.0089289403936164e-08 2.467999138389132e-10
-2103.0152903597473 -780.9901403776889 1153.7960981533952 379.1754170340612 7.199972174021241e-09 -3.6537244341161568e-09
4060.7245746025856 -14889.096929963438 -3248.511706608257 -191.51131603877946 -702.5088946928863 -60.959989111906964
12919.407235587098 5303.906815136543 4452.432080741677 -1317.7228627858567 -957.7797160289115 73.08928766494203
13385.092701518231 654.7423461900931 2274.1871450738663 -521.3926701495045 -901.4093170810069 -70.60097169133999
18627.483537097178 1420.8601297455048 3218.716085165884 -595.7914667587913 -753.509813899305 -81.46618085325065
24522.052923130334 1701.9217321572967 4409.241486665268 -624.3177151495426 -484.5320403513322 -112.42134892548728
30569.560958556984 2176.2736078728926 5900.995875607711 -655.5299333656939 -147.67226536344566 -144.43745053021487
36677.500960018304 2650.7745064295545 7640.169965390968 -697.6323421448292 233.06234835368036 -174.42765418824973
43196.39567332358 3232.85332635796 9785.934982610177 -777.7611277393729 596.7833394759416 -187.9188236400386
50575.32065998384 3883.5288847620086 12451.10845501489 -873.1816044755839 800.0910062532595 -158.30848200962885
57849.38102431744 4096.1884310998985 15084.935411586928 -733.5106632115044 621.010578857497 -68.5617152264398
60982.01840089874 3542.1791229280066 16082.850613141287 1.697101763872375 -0.8021086651365525 7.528690102755899
57831.55676585695 4094.192924923187 15076.68413700227 737.0084811200117 -621.6922540722393 -67.58831112278837
50536.55406376427 3879.321382366966 12431.941747477029 877.0000784661656 -797.9033366818709 -156.373302070581
43129.88282883609 3225.9623287082154 9749.997331399922 782.1689286638924 -589.3323815750364 -185.12006858707838
36571.27769724744 2640.263823891434 7577.224695223398 702.9241594580424 -216.6157230059908 -171.05498382116818
30405.04092916907 2161.2031579831923 5795.546618081297 662.3042898997775 179.8494185839161 -141.5251285742384
24268.173494130155 1679.4583136095373 4236.51384532488 632.2124383806472 545.2741115548059 -110.72064789159003
18244.252193134966 1390.644079838317 2951.152856043813 610.2580195232832 857.416750914296 -88.47943114560005
12686.423022098046 575.6356022542243 1801.5442832286683 542.043165678665 1061.7497010460868 -64.85974384789125
11158.309833385087 4954.38673046782 3543.1853547044366 1287.7335558991765 966.4877170211456 -52.20456984999497
1075.5989400894032 -15720.47536610697 -5526.329363618564 1653.9539017557056 854.3343779330693 510.2419446031282
-1963.699065599614 -15224.214248602786 -5305.913110853331 -326.6736843155395 -371.9361436349169 182.06382513702977
6385.764694903895 2770.8566701345076 2281.8243052746543 -1495.4768651978634 -450.8780156305222 153.16162393797072
8021.983083245393 -199.50866827366926 1136.968587943804 -1348.5231173931843 -564.4071885409436 -16.94419175359353
12240.327069568739 37.91018951632485 1863.0929199939994 -1486.2718412020263 -471.8801842247531 -42.81565376526331
15945.686247858435 -92.48764437796108 2462.1776596409036 -1571.0825724360636 -298.91598966246505 -62.55002393524957
19826.880723932405 -119.65110554538258 3301.876757052641 -1626.981428222048 -79.9157160812405 -72.29339931971587
23752.86309398232 -134.47569700678758 4320.284627496051 -1718.2810328640412 159.15667288927273 -63.02074036427728
27903.14422842083 -78.2205830297701 5595.119427058059 -1907.258138538805 379.8880565023969 -11.340938150317104
32419.650275438795 -105.01538156001502 7108.236130271562 -2182.8291001562825 500.0106787582368 120.15813574627728
36464.565055035695 -1038.6934309541864 8298.627688328903 -1912.9512815706823 389.9585046835145 340.150507862522
37713.809321011366 -2928.9889088172963 8270.614139694673 3.2915445227971922 7.201682431977968 497.17329134598367
36446.33226792042 -1039.4151308408855 8298.885882132805 1919.8357261573472 -374.191901294894 340.38163395094364
32380.525963748358 -106.48964184476505 7106.649070979644 2190.66896468004 -480.09945660043644 120.38018789357747
27837.468876676707 -80.51955232643812 5586.955030460717 1916.8814815975127 -352.7851246122506 -11.749576639550744
23651.275578223846 -137.67627290575004 4297.217984842999 1730.8282025499936 -121.0522265947877 -65.37948762896481
19674.540925137164 -123.76900302794216 3250.2046594220196 1644.072002877641 134.82608589836943 -79.16349709201006
15721.72424721844 -96.55099436947144 2362.286158360581 1594.5531425232964 379.3071786385241 -78.01593610345304
11894.83359277048 24.382607685636266 1674.5866404376031 1522.7131279189812 590.6296760691774 -73.84907602598678
7460.570587313962 -214.42163438859413 813.5344162380412 1418.8747913077516 701.9915758367985 -65.27224477600377
5794.990254026618 2667.134408830467 1772.8551978645844 1625.6991939937652 504.68633716222683 18.92543380454446
-2369.297533223081 -15015.423098988382 -6072.787513555837 1228.4895623334946 330.0295804888641 660.0156924582456
-2220.3624990607136 -10920.224257533146 -3672.9484763052205 -2117.217053212231 -130.48909272957272 627.6897044151156
2901.349958545613 1382.83423810141 1306.2581261441737 -2602.988355122371 -164.16211539176038 231.50004634542327
3748.114941894064 335.631182294048 756.9861251334939 -2426.429316333478 -229.67568293801742 58.99653858168603
6099.093782403736 -68.02582996120802 943.2838337374726 -2621.861490536213 -189.60516225213917 0.8447006903249381
8120.466393529209 -62.515837431556335 1274.9617471084566 -2723.507965169595 -92.24182598404545 -7.194797178319261
10011.892264294902 -95.93139667543366 1665.526626651958 -2820.097283537904 23.17002644362384 10.52932486815221
11911.205929121523 -111.38404908255193 2166.4592954093996 -2965.14836671259 142.83832960890274 68.63097767519186
13842.299608702137 0.3070909508574573 2811.7866373387023 -3247.458548940516 254.27666054897162 198.10659586734994
16063.64307813361 154.77005590583582 3646.202934595487 -3737.8942189947365 330.5922140321328 445.3604621648468
18292.81240429691 -1289.3497238590319 4087.0868209409205 -3468.365665159986 283.89254554205996 816.5307433061263
18112.904863560787 -5546.537227653769 2937.2759704425816 5.311086804600642 15.059626477941041 1084.8192368369153
18273.870621355658 -1290.3093770327741 4095.1994734575114 3479.489819981916 -252.05775032196703 816.0418507306139
16023.561234755081 152.84833361438797 3660.792938362619 3750.6145619894965 -293.6378213834731 443.8821171625707
13776.62923326462 -2.573163742351186 2829.0771293265448 3263.1705916936135 -208.85505020686853 194.4102981631403
11812.909147892127 -115.24498437563001 2179.3958135698845 2985.8392562930962 -85.54441585536931 60.232309283629995
9870.874590214575 -100.19938811895658 1662.3282733179738 2848.6291231296673 49.80854300468227 -7.042611579943917
7920.946959001826 -67.09189962333824 1235.8356018352315 2764.012925686806 185.99093399412158 -41.556936722437875
5809.871795962122 -73.75584652511449 835.5153508988948 2683.748206107296 307.498488416303 -58.71202614204025
3431.0246934694883 344.7801448450705 569.8375797809177 2538.127869921379 347.5081905413104 -47.7851926192962
2578.085309081884 1123.7067196155854 881.6881971298144 2797.6541216132655 197.68517857225342 140.02969501947726
-2334.271290479584 -10759.262052696484 -4193.45988976291 2316.518855620408 89.06928853792338 970.8823189492982
-1992.855372717672 -6933.119353144276 -1844.2234962668974 -2281.087796136589 15.536872760730578 804.8353288874894
310.89084332269937 316.0558386113675 743.5434664953301 -3051.319962148945 49.940216175540776 271.9098538782132
-102.30230529570446 519.6202350753358 396.6888328788685 -3027.1939822062677 71.49305858235437 81.40760558722448
113.42990868569669 19.509826303190565 130.71662224494898 -3016.000125737567 91.75413922732425 15.78194673255297
240.5116161960529 -23.9095020695394 77.45923731719641 -3105.4208290735864 120.33033295356334 4.875360137425124
192.47533813686448 -6.5308491278816305 58.15687287337349 -3215.1969346488722 141.4618524073917 31.000555497262198
69.70303813847828 -23.130144821565104 51.59035682283381 -3382.0965557686377 152.80414562138068 103.95581018655041
-209.26915166215383 107.37721655416875 73.99041335841966 -3622.941964998507 167.57748501608512 253.42280658489034
-170.05264546110567 592.8526876929648 326.9584642510028 -4153.052310427903 209.9974417081793 525.9105571659228
732.0868761897956 -1201.3376844608802 232.4749049592881 -4337.529494050353 223.00545988452376 948.9282759680784
-1299.5958282503318 -9723.637443887374 -2687.5506108399395 6.018799694556648 22.895012380087994 1294.6692576107134
712.5262996677902 -1202.5936803020393 248.46703130329956 4350.137361340912 -175.18111124507627 948.2204821155663
-210.88729616460503 590.3626036376941 357.77491479155395 4167.471695838635 -156.2003434917007 523.9108159346277
-274.6107558865382 103.70065773407937 116.76192689690421 3640.7497609634884 -104.29059816666162 248.70579366227628
-24.584247526444962 -27.849722249804813 100.61104212698974 3405.5549755687325 -77.30208893508396 93.69564523456621
63.884633991543446 -11.658969560340328 103.06253415837057 3247.772239994482 -52.1540006595598 9.946134052587713
68.82104233200003 -28.43518704190956 99.65227211674636 3152.6598457591735 -17.084809776807766 -35.461249336360275
-93.48806361139044 24.56866955929 108.60112965205153 3087.9129060688783 20.615710656364673 -56.868887539173706
-292.56533227229454 486.0441124805641 289.1023764727031 3140.7910401907466 21.514664901417593 -32.21066528181732
135.6869167536119 112.49672847864865 440.70559597349603 3146.0998110815526 -30.334710401614174 205.30377756330648
-2007.896500519024 -6757.667334629153 -2210.2006321263066 2321.1089573267213 -48.183637290484675 1028.0145501236057
-1887.4592738985182 -3675.4902637838954 -252.90490099859002 -1819.982621953483 138.47144746558723 756.3165365915372
-1803.330279705402 -228.73072704610829 501.94079540565457 -2673.051633947605 247.21271251374588 232.19639659033757
-3769.392180370718 432.5078832775047 6.446240776482999 -2819.7678195202134 362.2435870992799 69.39451685714101
-5725.22675096861 93.51855761024281 -645.9605831775788 -2682.786756855999 370.84012492493014 7.906733747308715
-7630.439263386484 44.21823015817687 -1112.0938563290035 -2716.8939507648342 334.2056595480013 -7.52517601293214
-9655.638977318144 72.27910566067409 -1563.1439515147117 -2820.1232161558582 261.2658443760415 10.681508016058023
-11718.9792635491 116.63204172420106 -2032.7071606262884 -2960.123845474029 164.78797232488182 69.45495168719025
-14116.311153460976 89.86041655709474 -2658.454138354937 -3142.817611527307 76.76075471294948 190.03086302592664
-16449.770760048075 848.7480672465455 -3068.9437467250577 -3395.651638475013 67.07913561286213 408.8535271632262
-16506.979545185834 102.1329704004086 -3214.685100140999 -4505.301660294871 140.53047437987547 796.7907040554321
-21646.948041297586 -15762.685476209457 -9180.732351169798 5.329133882572906 30.884427690915324 1195.9930600049913
-16527.285808209446 100.57394446344513 -3190.7006544667156 4516.4628125953095 -76.38805143079162 796.3648079985365
-16491.64288892632 845.6658808026629 -3021.663267060904 3408.4075560934943 3.9539910424010927 407.5044336054294
-14181.82319509638 85.35905223971389 -2589.799094658921 3158.546062363071 4.897416892103136 186.54681201619024
-11809.96921892422 111.00536213317994 -1946.9744019729767 2980.803021384752 -70.37596362591573 61.404277669770394
-9772.725488249705 66.11742308049784 -1469.1914153650973 2848.9878704052453 -154.78355774800204 -6.479477536565326
-7769.514041217898 41.03249106941148 -1025.1592184775398 2759.435827275756 -220.72048557133377 -41.88312802737226
-5864.98944774121 94.10402857748866 -590.0340616817452 2747.745429635678 -263.6942757599069 -55.73218598933147
-3876.7546872810285 393.7574289720306 -19.4104227459597 2898.5647745117144 -289.793980921762 -22.888206128667
-1887.4720963897496 -347.01984455575297 316.6690637407424 2707.9755862612506 -237.31434502885097 182.95125850953096
-1885.5329369799038 -3553.529739252013 -528.5156928730305 1808.2873337084511 -165.00971460987373 900.5537680858182
-2094.136077774503 -1635.9226154730507 831.360731985888 -983.3816045337999 293.63851717148145 457.4154666145547
-3605.4019800421725 -415.2912276267606 448.0702505062663 -1529.477996595291 473.00671040481774 101.01166451833586
-7358.639254298011 241.93438499125216 -400.90995953008314 -1663.0335674224164 666.5562640182343 13.587256226653032
-11498.488278718713 115.49406549485916 -1428.9791872527371 -1559.721378092542 651.5760991179346 -35.92283812762846
-15497.643591040529 81.7679306537157 -2320.9744059015925 -1563.8534272297738 543.7637774473134 -61.75090654537461
-19494.36397372859 110.12142795194976 -3209.021679464712 -1626.618575559049 368.96419943862344 -71.92697828111196
-23571.618854148866 139.86775541331772 -4191.566988957009 -1714.0987570145421 153.14484067582458 -62.48895305233896
-27559.579860931095 304.5068822613615 -5217.280254284446 -1789.0545058460953 -52.31126325889541 -19.749854988485076
-32904.95316863997 -170.0325804861379 -6956.223092121409 -1989.0024786306135 -160.99274774044994 71.55449530951974
-33645.87198919112 3631.7796341490616 -6130.368889012352 -2702.012778526716 -44.16914510509317 317.0806088277384
-44369.747152942924 -23532.90063215731 -17140.930435954953 3.329745334290825 39.20285074581249 769.0370668161693
-33667.26792366022 3629.965953452331 -6098.196699421867 2708.977162738449 125.36225769847353 317.4459448313517
-32948.61686777646 -173.61574963700005 -6892.049503372722 1996.9294267096234 250.23791450105497 72.04600428209471
-27626.5688042567 299.3114348311134 -5121.992286800899 1798.7594172031222 153.80034300466107 -19.73749562605007
-23661.58676267059 133.43492636338777 -4067.964923891775 1726.7462442699996 -37.51226557417376 -64.215812822194
-19602.31384548526 103.67048876385526 -3063.625243011961 1644.093210826413 -241.61751125050463 -77.90214400278379
-15607.885063974894 78.11233618184671 -2166.5922667461396 1589.7047037970333 -414.72127172355016 -76.93465587408835
-11582.378990332683 112.05693038231092 -1291.9088142976705 1597.517746815901 -542.6909435296838 -67.86086976079581
-7397.756778155684 214.28934102666744 -336.19043588964706 1701.5632739176929 -609.2230833536229 -33.55219187290815
-3622.1266008012535 -469.28615519639055 370.59343064959535 1537.9584536957786 -476.3720303189604 76.06395006441596
-2089.8905734970904 -1580.217729522794 624.4511896141785 965.9704615691804 -325.3291311663053 538.0431726475315
-2339.5910360875355 -950.6633710830605 1373.5393220325495 -383.32997646448183 565.7779072118643 234.77389257209197
-5057.194504802845 -633.0304853655525 455.10378075990593 -612.323571428563 779.6314644760572 10.704204102883377
-11205.591863637776 -630.4941858279325 -1095.6389748676788 -634.57675544944 996.3719889384214 -28.495845151422504
-17906.40487826702 -1236.709131629933 -2810.9495629925877 -611.1169408258432 930.6401953770466 -69.91290761805031
-24129.604807092117 -1739.378143100442 -4309.023429414707 -619.6777886885019 735.3150513861766 -105.28496886280186
-30265.4704130148 -2177.703133006325 -5825.7271135083565 -652.5892483309254 442.4844893107596 -140.06509478364865
-36541.70966896444 -2690.4494426047095 -7544.417570694248 -685.3404575738818 86.33768898392603 -171.19397321360083
-42667.642065429354 -2867.1097264719665 -9305.242283933774 -758.1190846287421 -265.37825327583244 -194.23342589908827
-48744.62518119227 -4239.418261953237 -11631.710292174328 -801.9579300071168 -493.4753667768743 -183.62155236370734
-54010.25646433181 1187.598860779674 -11917.979347126437 -1766.2492564750896 -471.2839855066435 -113.61011425059874
-74846.5597589367 -35593.86716058953 -29353.70952495301 1.7317397119813727 47.97040371350667 538.7870158952142
-54032.690355839455 1187.0309418077597 -11876.761705497776 1769.8913872993057 570.5505977738371 -112.81758113353324
-48789.99911656145 -4240.332346062027 -11548.790028438683 806.156551081192 602.3691502313553 -182.09835831971708
-42736.11028745472 -2867.834870394364 -9180.196194835782 763.3288362236254 388.9646629326297 -192.15891743990176
-36630.986339402145 -2689.8893754567357 -7378.043586874485 692.1605071010647 54.29286730655839 -168.99327117847363
-30365.631643291457 -2173.198283608717 -5621.500788882625 661.8686323439998 -287.85274206306167 -138.7240864764389
-24213.137918866978 -1725.723727563816 -4075.2103796013903 632.8654288951342 -580.1963970034551 -107.03777828088275
-17927.6423796563 -1211.8090785920006 -2569.6157881732083 629.4502848525849 -805.9886065009596 -78.59788943057927
-11148.848244000694 -610.3659363618639 -906.7198027277398 653.6693313895591 -947.5128516256998 -43.603840553088034
-4985.895387021159 -625.3735586429841 497.5253664697283 619.4739603766624 -814.292767822858 3.5240159349628897
-2294.817422307027 -899.7053238603193 1247.3711808005974 378.02749167893666 -636.217795494365 283.05980361425446
-881.933310917798 -19607.85724047936 -6146.937165419147 -3047.6539127240653 -1625.900856541139 -575.1504484378993
11558.866866183947 5558.3182903419465 4049.2747900481504 -1362.4247093987954 -1754.3722754569333 180.27019969890935
13424.93001802366 672.6128039106989 1769.8574944970167 -486.8800851724498 -1645.5499330640835 -45.03975395943087
19008.46859376823 1648.4208533674791 2698.293269720809 -529.2231802087904 -1462.2217727577613 30.8059315591949
25128.874723577406 1936.5159001179804 3607.0800242293517 -525.5996255506695 -1116.0210680581154 3.161442932953504
31448.0813937721 2473.3635844246332 4743.202448491429 -539.03002714405 -667.5238373338846 -2.150610449661974
37658.954357695584 2979.5605152355315 5964.095797999782 -551.5053478979803 -103.78855269520584 -10.092057792648998
43780.29038638586 3523.1832484087345 7354.0624877646615 -580.8639394138485 518.8775577487938 -0.7997209076517429
49803.89392890341 4062.2829612879914 8967.170538296894 -610.3292492278639 1003.3632189777029 65.49205397289109
55018.4401800515 4299.436432467146 10523.144919324011 -491.43336884088876 916.8009302695605 251.57426138542587
57136.8122975142 3992.5894119919103 11108.037285329032 1.6542546081596328 -8.679561295409115 446.45886343580196
55029.92520436896 4298.797146274717 10519.91256464147 494.71607354887504 -933.183784676276 252.71946287234576
49828.48294183232 4061.0264171039 8959.856083905179 613.4907210632412 -1016.6715361224993 67.74196669273354
43821.93920346485 3521.427955988755 7340.880553005704 583.6528671641918 -526.510692643229 2.336689845122459
37725.92242032607 2977.825021537322 5942.367759888702 553.4562517932916 105.84236226396368 -6.360734399896742
31555.705590654932 2472.4070364248087 4708.557009491013 539.1369466937933 685.3572505799237 0.1971002571998426
25308.151137270896 1939.5866839087482 3556.043319902683 523.5279522955478 1163.2624928618156 6.460602032897909
19302.919182497586 1655.2876566389023 2615.6284002782018 519.080973624572 1543.6143117948156 11.947956753180364
14005.794830527104 718.20743187156 1712.7677235877836 468.06058597502164 1858.1336876740252 8.893746092571124
12925.362176383212 5732.8005595351015 4063.2732371210127 1351.0005857673248 1569.9798468357446 -212.6564133024267
1804.3611441304854 -18572.129231248284 -4375.152526234342 1800.7916731594266 1326.3402297414557 1059.596584306503
-2901.6090723014895 -17903.932501837753 -5425.508356357454 -1955.7617638638644 -273.82433067384477 53.894858336814934
6081.227482681232 2963.0889878913936 2139.7662382029325 -1699.0950873169224 -589.9461807099068 163.83345662322682
7655.887797701632 -160.4640303553998 688.5888365264458 -1337.7404544653339 -1003.646792883968 -10.756574467497336
12295.522100051725 186.00897379549798 1364.2910316482569 -1389.0242372895277 -841.6339645236433 14.487527643651681
16190.82414705123 95.87107427294544 1788.656283233923 -1430.4543465812499 -627.167238422363 -2.2773306281388486
20248.13705490786 119.26326354486797 2362.747961003947 -1438.3280719988497 -341.7806603504737 -2.791752232635222
24241.924406669692 151.35703623919736 3018.589866732852 -1450.7067086734196 -0.6725972378114214 13.726990731314187
28144.96779650336 219.3036348845509 3788.5688482860774 -1489.4289743618203 365.74331349377957 78.81743949897884
31877.21984836415 239.80472909658587 4663.440053754591 -1544.2008778639672 649.4526937195809 267.5687063016336
34863.939522337445 -271.9922320099331 5336.622115584267 -1267.0194982966932 598.547044591892 679.3975876979683
35756.426768181605 -1445.954501522959 5272.176260231535 2.3946764067860045 3.343967431206712 1089.5551415255015
34876.93360051433 -271.4796563209354 5338.087489568684 1271.7352641893706 -590.3372470210857 679.6441158492133
31904.616809175357 240.81356503126764 4665.512603905279 1548.600827057273 -636.6227252571985 267.7888833213769
28190.095983102598 220.8129143848783 3789.37163909178 1492.9557703282878 -344.941227274509 78.30847118257849
24311.21920765118 153.41340154785973 3014.7976475307305 1452.2267211293733 33.28773663751342 11.080592108556749
20354.195949184792 122.15256705916376 2349.5162880059174 1435.8308059170854 391.7254449400849 -10.486024563899797
16355.00334394052 99.13807699646524 1757.0220544828785 1421.2307888384078 700.4885676951753 -18.350275430545715
12572.375625630399 199.38877704911053 1314.4118991978296 1365.8433533543619 955.5312285836891 -21.911946290834013
8132.034767207276 -153.0308521241047 599.4098336644994 1278.5158104880993 1147.0422699182616 -43.48420951637119
6570.170376315604 3018.369307899883 2042.5415698387337 1557.8137684283672 627.985604013092 -119.27657734541825
-2481.579020288213 -17873.554791192935 -5273.62126909771 1160.9022536402733 187.80205197126887 1117.7598446037546
-2695.0375844073023 -13001.944120072501 -3553.258146631633 -2581.27668827732 43.418919328339314 1078.009550994003
2653.967732568447 996.5890205781885 1157.1699953031757 -2950.7517010041693 -134.85473498729317 162.01409783425672
3481.4665933899782 520.1313266082883 549.3439532628223 -2440.189602646201 -404.996009481577 49.39952467752925
5912.337996469648 50.104848291207745 640.0605188515834 -2509.4556698127635 -343.98007927872067 -0.6853279486960737
8097.253710457076 91.18913999335913 911.0916085918052 -2536.652658365195 -218.0090277068042 0.5354338632623108
10103.3693755736 94.56245515150216 1174.998706051911 -2546.5724790837976 -73.55874354158492 16.374958200139837
12083.740825743502 117.72049790393055 1496.9673361712553 -2552.672144728923 93.39343814578464 72.06383212473142
13967.22335592582 205.97373106723182 1883.674163731499 -2580.407117874435 282.9885921764324 211.46899591877758
15816.472658942876 319.12240918683915 2356.569272829579 -2670.0796413463568 490.7158224290834 538.9082710494224
17432.786861576573 -537.0776383358304 2571.7108951007745 -2309.430797629328 545.3626444773104 1219.784140759266
17313.77710967426 -3324.223722343792 1745.0862870402507 3.5125481442352786 14.008874106790282 2007.249710514549
17446.72451680278 -536.3599004137086 2577.5360741198483 2316.320412270573 -515.3907319673638 1219.2134590942173
15845.388650059813 320.5231560843437 2367.4132921067944 2676.4037603727993 -454.92651611658306 537.2679419919616
14013.423928797907 208.00412078977337 1897.6550050432832 2585.2118385872304 -237.68289422700542 207.5455907553887
12151.650637601291 120.41846726492287 1510.7093079769115 2553.9928096081067 -35.136912356973276 63.34841746144798
10201.184552489445 97.66183326400164 1182.6726918154895 2540.9393099922186 147.77640185486877 -1.481013193437029
8241.874299574587 95.39952118999855 904.7053189012953 2518.529217125548 311.29692658026823 -34.82719358105567
6140.546463632194 56.74585391200683 609.6418303438527 2468.199912387022 459.7963080148275 -59.4409680231384
3749.1592402836727 508.651532208547 451.8914135986915 2343.678497462402 522.1889893160917 -68.6860687220001
2917.64146154856 1200.5081255618743 1094.0730329998191 2755.7138498468357 158.78875070026646 51.21793025408829
-2576.8293873120942 -12986.450896482474 -3627.663050960935 2357.6594642394793 -97.0353436489911 1510.6562147531035
-2237.0368489887173 -8227.4432697497 -1795.8869516498155 -2440.6475538503128 140.18171658283836 1181.9289245778782
101.7482883072487 -170.17252608449877 630.1890116828888 -3241.8084334994587 133.8692443874354 290.6137908620064
-376.4843305478351 577.4488269854008 324.6684091216732 -3082.422491645507 83.75254082135763 73.32456847483604
-228.08624399627172 64.49683179855207 67.82311164952846 -2911.597313710029 117.08011956526676 18.13889283068277
-61.313367716077984 -17.12235147208271 40.564985435928115 -2911.183421279495 157.26835083214272 15.543451100981173
-44.49457330759098 -2.356847942856647 35.757674997518585 -2917.650963344531 178.47993904384342 46.073737632691056
-71.39949952445406 -16.13031638142556 31.454732647342432 -2924.4978327754357 193.10416747438939 119.97712532693069
-198.250722764069 43.68979855574058 36.1369607570003 -2904.3456995617266 230.64162502694117 278.18362984445406
-168.96593077143893 330.4237583940071 160.6024736791175 -2997.274982301076 390.831526368545 617.8156133088352
388.3267492242796 -774.3880830775411 40.393913392587486 -2933.6412583743686 604.1301871951064 1359.9110521379225
-1097.2304104260174 -6600.171476885542 -2070.1520354206277 3.8194515882560154 24.1325294179565 2577.1576580660917
403.1374550273718 -773.4311165429648 50.64985637733077 2941.127952834756 -553.514490958671 1359.1033070188507
-138.76028483700452 332.2974008143521 180.3862031498011 3004.1264489113687 -333.33337777713894 615.6286544275354
-151.4981942357063 46.42815588166316 63.66840480911789 2909.4879859938246 -162.3186096507665 273.21698770733855
-6.175912182972233 -12.576976511220101 63.256773312676344 2925.696857457495 -111.26660716974902 109.44509112163176
42.89174561689228 1.838180194322832 65.74633537315489 2910.7419281371617 -82.57948551780498 24.669819425542755
58.37790217945936 -12.282638219386135 59.715873061966064 2889.108117688026 -49.61449366715681 -25.362733877889525
-73.76274056302822 62.96208640241455 55.789825870595294 2862.075024867336 -4.593144887942058 -55.90297103342934
-225.84149875895721 603.5951382785269 263.0036860287165 2983.083545479231 3.995870802971902 -46.2193012028447
241.05099445259768 7.212551000712551 572.2489861676437 3137.6842334653365 -126.53154831207917 218.50876941452313
-2234.113246492394 -8291.130925044301 -1943.6784836526538 2368.248352200846 -183.4851895258515 1440.5524738560173
-2024.2592652137657 -4370.545596099706 -402.4682640385983 -1847.9117150813665 236.48068715395442 1022.2285173291702
-1963.3634307917796 -609.9069181809946 418.19499263338986 -2746.2619276398214 381.81295959474267 296.3516462845302
-4072.1041883634525 383.5597376517243 53.40672621003655 -2838.955415721415 539.588720022128 76.13537314918516
-6211.253394870969 31.017114247913884 -479.8724440680767 -2580.80330428899 576.6342078091959 9.32870472196187
-8197.681366370016 -90.55355182382276 -815.1157355567557 -2527.394067291399 536.7132057089157 -3.3675116189346
-10218.29350359335 -110.8033326702798 -1116.1450441366576 -2540.6477592159213 433.85979524608024 16.776579657712126
-12195.775294421788 -115.22002013726797 -1414.9160124381788 -2546.717799235367 298.9379951781279 78.33332238177807
-14290.001391244878 -197.33950106558888 -1811.0308945707454 -2523.964720485249 166.6363803765584 191.18963339132296
-16217.559326191897 244.27645927821467 -2083.592343154834 -2481.6211857828744 208.1002046115042 432.09127190959083
-16396.79359383391 -135.01134172287004 -2202.315643188436 -3137.435788470177 642.9723832126342 993.9641845007208
-20200.042979306465 -11437.09481282167 -6652.82139908648 3.5965368241881066 34.47244411017905 2695.478227316457
-16381.077664357681 -133.83326168243133 -2187.5728608848863 3144.5151493028234 -571.2456310761384 993.5142837802998
-16186.001226804821 246.60128187223387 -2054.73046020941 2488.201685632035 -128.31798821607043 430.69334200624627
-14242.619969984733 -193.92305235348888 -1769.7020106567195 2529.1402945253835 -74.54724183543031 187.62800145496658
-12133.217548458755 -110.79706779479972 -1364.6357755382542 2548.537539855608 -192.5049416385985 70.14766775746895
-10141.506581054342 -105.383833332233 -1063.2908755615924 2535.249113480131 -315.14009959160717 -0.7208206459118998
-8108.373070826404 -86.04861298348217 -771.3595275593175 2507.8368599961805 -413.9781212915561 -38.75065740356967
-6120.045624386388 34.41088585479801 -464.7807379829462 2535.7102988702018 -467.22989000527724 -56.83679012149977
-4000.1909124613567 418.284714565945 26.518062653181428 2769.2157011817285 -474.41354444726966 -20.778909447263434
-1903.5773939939602 -500.1389851910507 366.9632840002731 2701.542452434098 -384.21173833892806 246.74060514227452
-2054.5919632838136 -4440.538111496918 -544.4934712556836 1831.2137879908917 -272.16867279562763 1193.7424093178552
-2166.292307427 -1938.0298317825368 527.3987072756147 -966.3663920004768 423.7989752953534 663.5639020852586
-3703.2245734007333 -630.1800430355821 403.5830445723015 -1535.3857723232054 706.4429005643271 201.68891035611662
-7687.481059736961 164.71163391078056 -241.6710938285018 -1637.7317731765347 1043.223184617477 69.51927087805362
-12127.514783736075 16.890205829789338 -1051.067480981888 -1468.3042933381762 1082.676661454506 10.99565019894425
-16323.98807508067 -90.75561029911124 -1707.6684988391012 -1420.3483739650194 955.3275096859142 -5.081042314342672
-20383.77959044851 -127.37774886678928 -2313.1407175391437 -1431.6963765858156 714.9681213620514 -2.8584340794221186
-24376.864956189875 -157.3217499026581 -2947.0439750968253 -1444.9971941059018 403.80177797589215 17.989450205211547
-28097.43950729251 -91.71067395580522 -3564.7272080477865 -1418.1717119422542 86.79572215241402 72.83637289401717
-32464.33968258342 -526.6226702544724 -4688.748028399538 -1462.9289467413357 -194.39967163187512 114.2397157816305
-33005.14335687467 2360.295235655724 -4033.3280325163187 -1981.5694166287487 405.7475312586205 371.4710861174104
-40932.63723155234 -17630.723593794268 -12538.985661594259 2.4942629377269654 45.78967249932447 1984.212983213661
-32988.39482150456 2361.6417030018847 -4014.059538233831 1986.5134766492054 -310.8428503484944 371.9090246348691
-32431.1098226263 -523.953086205971 -4650.719364818366 1467.6447064313036 298.8818258020989 114.8437679723478
-28048.76819706916 -87.78244526044351 -3509.4471566646366 1422.1616625792542 32.11053346276355 72.92221305534166
-24315.562721571077 -152.22472781966192 -2878.0239593195183 1447.1193271594555 -268.72487152981455 16.14107469700627
-20316.059371452324 -121.54169508440178 -2237.6023735271046 1429.631396789542 -567.9678274826546 -9.490160932972195
-16262.145749972338 -85.4029373912683 -1639.0033059469558 1409.5159407732806 -810.7648568287341 -22.17850946278991
-12089.40076008231 24.680972855046072 -1008.5177966404462 1442.8147752338737 -968.3980638898007 -25.036803640060423
-7679.618658399106 193.46918578095966 -239.68984569723918 1603.3966043187995 -993.793225040548 16.61710535919197
-3704.469474203429 -577.9686933317261 364.06097640998547 1520.2126422334238 -722.1264784168403 175.8105156747296
-2209.0708695832795 -1982.0229086304034 417.2422804275107 962.8658027275212 -464.23418243729384 761.7210977772822
-2325.475460020498 -1062.6784964611866 1117.5095895590273 -370.1353968252784 810.2287522962572 430.05249675511595
-5103.169206107707 -748.7240777254452 461.28655410179704 -600.8438199484118 1216.8529297244254 140.21429215248753
-11605.661070050719 -719.0582360775084 -894.5227087570022 -590.0761480934387 1693.4612423436402 75.46150562287225
-18770.05934680717 -1380.245110442313 -2365.2202496565933 -535.0499702136901 1707.4400747102698 31.26027050906086
-25322.361524764336 -1968.6873476406515 -3573.493696406559 -523.1333190846668 1468.0327181167966 15.553983467423436
-31606.280632109178 -2475.5125595638647 -4708.0335375413215 -535.3098266244258 1056.9118838293475 5.043937498785297
-37824.5800687026 -3019.7653344449946 -5915.2286585794345 -542.128815414502 531.7403084260075 -2.8702204633547765
-43675.37068368145 -3298.161926785056 -7074.452781075109 -566.7080682808737 -49.09261175367084 -1.4444246150047917
-48918.42715662962 -4411.009778293148 -8535.1360824929 -583.4331039558501 -647.0709551049795 -10.559221321158518
-52335.79351233732 -213.70561063962697 -8455.870068807679 -1414.2853716809957 -965.3276519719759 -228.7106358031946
-67616.20708358458 -27692.08352377774 -22489.551949432862 1.1973624468081994 58.912416116859845 2109.8255820358922
-52317.40998639259 -211.15378162289872 -8431.622563200752 1416.6831628536347 1087.2179212870285 -227.88916111833777
-48882.18747273345 -4405.9400253976 -8487.041414277452 585.8026734718674 780.678165948693 -9.057395191608514
-43622.99301752704 -3290.6936671217545 -7003.898434850423 568.8830870394736 200.36410027194933 0.38131829616365565
-37760.42857890286 -3010.246559001456 -5825.859883491787 543.6707381796555 -360.6519059470524 -1.4534965662811672
-31540.68939540766 -2465.2315175916206 -4608.204252518451 535.2880957996133 -871.422081319954 4.5544440106447865
-25277.564502231344 -1960.6375387378828 -3479.897230257247 519.5807520998699 -1287.5040778716168 10.136762151185927
-18778.50468704668 -1375.7375936577682 -2302.975085777829 525.3363375089239 -1571.5717120759182 16.314053513713684
-11673.006854291418 -708.2225083695148 -882.4131626139152 575.8975708001437 -1653.0161562327703 52.69342331212077
-5173.870743173565 -731.9160106516075 427.56308014691166 593.7349343161868 -1267.9841929528334 130.10827556272858
-2399.835896622617 -1095.6212045802176 1033.7711334713097 364.3344678789587 -894.383301676062 489.43790700005803
-5838.158722293256 -32384.344954811353 -11466.751103131384 -5925.055755289154 -2442.7024153813713 3078.0943027508483
12902.499793229192 8299.908855606016 5341.354249217946 -2632.025360882855 -2542.563747347585 104.67728453168492
12763.069165696923 370.37748707537094 1251.517550136198 -1240.8080916657566 -2483.9082416284173 863.4535247892037
18461.231804287778 1716.4942242108123 2273.5012356477814 -1279.5480034906734 -2210.136116137623 936.8798937577689
24925.4291442788 1915.1241146691773 3052.819109966909 -1205.9390207570855 -1975.0612708375006 1286.7407516934375
31673.734511787345 2517.4615033601876 4084.3690904878754 -1094.1726751197948 -1551.297062766297 1586.7143343342348
38245.09739787921 3048.446373737666 5111.035554309413 -913.9738971490739 -967.5619143057621 1894.9506683429727
44446.582054548366 3544.4123686696885 6154.165384986825 -666.2358305570074 -235.83095488694465 2197.8323927078613
49668.4999020724 3941.1838614325525 7110.346226325635 -346.7573331530755 477.44940730621704 2510.0625124785115
53074.529453946205 4337.258410264206 7848.696892460101 -64.42939651969164 679.7570090099954 2845.5421395265785
54323.56164335896 4783.164474116368 8246.415038540616 -7.891471612683972 -16.340138970280442 3074.367153880602
53113.09844041107 4337.714425252711 7851.552190597184 48.2367214150035 -712.150281499049 2846.3359249390205
49753.26912797898 3942.4485917965453 7117.056718912755 329.3359712783324 -508.89458340928013 2511.6359684592567
44593.78497814911 3547.2365808679865 6166.726022592487 646.7378654653322 206.35793411106346 2200.2258786316474
38481.90336838262 3054.491342433331 5132.845272135427 891.6184724565106 941.575062370995 1897.840671803982
32038.86584235244 2527.5955212889057 4117.723575067488 1067.8588072142388 1532.1334068685137 1591.2566464960928
25476.415988144556 1935.7008825610271 3105.1929635320466 1175.7792131053764 1962.8036610991542 1287.1757190765306
19260.767644637683 1740.4345368527388 2321.9604615022395 1236.8495238060898 2224.274776449464 960.8636595355676
14126.611746721732 512.8323228166828 1465.3280280514482 1189.1069461331672 2445.0152935872848 783.8135890622484
15858.509039748162 8821.887280847215 5656.964875669448 2730.9207988524554 3269.3718349612363 575.8383003035507
-244.13008899030206 -30884.510648719133 -7048.146309036568 3561.494919755514 4282.391564921132 1193.8610770863324
-6473.046468387429 -28089.548710264622 -8469.091282977466 -3803.046205612407 -2018.1990876068012 1769.414614077164
6168.475891541869 4498.265067768009 2533.3643210589926 -3151.1542187357 -1689.899253382461 530.7262316674143
6364.090203219702 -429.98812670015377 41.55495811621381 -2621.838457822046 -1533.2766331860214 930.3607368536105
11516.988149041308 79.98063779967275 790.9083441710794 -2655.4578424386136 -1355.6786465151567 1206.4692944550102
15580.742852192077 -96.71290638490404 1087.0428622032625 -2595.7259809513525 -1176.456041827861 1600.6330918242309
19881.572993247224 -91.39083528458299 1517.0209903475406 -2384.21358895901 -927.065400740465 1993.6859300072242
24071.52915901932 -91.29060710648173 1976.139843191019 -2071.5785642444635 -580.0848835449292 2388.994584881327
28013.785081258167 -127.03711678754686 2452.74231408118 -1615.558341425151 -151.81619743052508 2796.9866446464143
31352.59662810079 -166.23408566296962 2913.9120604680543 -954.3053343152633 269.98191442508005 3261.4076620940887
33658.77893828901 152.3346737934323 3383.8038855321647 -251.17193910108824 402.63581557553465 3843.9995087736334
34741.975965033576 1015.5488149594896 3848.1394245740476 -14.070214551543785 -3.914157690175916 4295.862011986938
33700.58844041729 154.1737936390881 3389.6431217401673 222.13546352461063 -409.6847703951243 3844.0828053140613
31443.079575309526 -162.3991852322406 2926.2736017704083 922.5357189702457 -274.6672654297268 3261.4678564566957
28167.213833464342 -120.88447739836114 2472.92671312732 1579.0691345102703 151.1022114454949 2796.7979218214
24310.461828181822 -82.48875386127227 2005.5211411776802 2028.1564663858337 585.1401630860909 2388.0901850464406
20238.42196112931 -79.93313207051602 1557.0256375093654 2331.388264502532 939.0794545190258 1991.7069084016273
16095.546074798427 -84.51766562279371 1132.9277381636948 2530.9191347134847 1198.4687277265791 1595.4821424811503
12263.174066556805 106.76539908467751 856.0051508119341 2567.970270786921 1378.116062696686 1205.4189251659063
7409.737014383446 -408.09066626380564 67.50845615025176 2486.8082295235263 1596.7123585509005 894.1349034447514
7197.714300554553 4719.49344736233 2639.2627654834196 2972.198340141053 1932.494979988066 761.2468301096045
-6000.822286746483 -29008.246712141532 -8142.4572511446295 2379.8348311908494 2389.635659097535 718.67516412718
-5158.271482112531 -19576.33670862282 -5343.152287155086 -4465.012872850472 -1228.9329823572502 586.0287566052081
2116.772655547161 1372.8788605521963 1146.4387415677734 -5118.5086595347075 -961.7685345309178 824.8171750062187
2235.4077973143553 629.8550444108765 108.88869183995732 -4464.5387698537015 -757.9048324864827 1062.204531140086
4935.670635930255 -104.56435769770043 146.51639074026048 -4540.614768815881 -614.6321196408007 1538.7421885049926
7402.296359950512 -70.00561543748368 418.29724239051365 -4386.40230058507 -502.6817665401826 2030.7560758362174
9600.71034042601 -88.91703682401905 618.6504333361031 -4048.8597704814197 -380.4165023523509 2547.595446158269
11789.480518640326 -75.04202834946064 860.0579910388634 -3546.95008809595 -216.3583736445004 3069.1511324734574
13893.438931065151 -117.02497640738281 1116.3480532868862 -2817.543553200751 2.1040717584590407 3619.303398087361
15686.525651148697 -180.22919328765153 1350.8455554991249 -1692.1086152536272 279.8035782680191 4267.126614422643
16905.739937970306 532.8606344561183 1720.7281589431568 -365.20789308249493 427.6868373118754 5151.6174872105785
18025.870221750174 2843.7352152587832 2613.918099614682 -22.484367517381088 6.015824723365984 5984.397950621591
16948.904523994945 535.0198010951929 1728.8590558148096 318.74740486014775 -414.4673426552881 5151.153321868887
15778.961143776742 -175.76603108225214 1367.6895082277379 1641.0848212949707 -263.0800057019943 4266.059261588653
14047.396652084566 -109.98395529507684 1142.847638963583 2758.5916281811315 20.23808574979898 3617.2975946597694
12023.570679130089 -65.07655259777081 897.1561741761645 3476.1769452981134 245.8776091234863 3065.6639476546793
9939.347597419219 -76.95845027024941 665.6527148643753 3961.680175311859 417.7090265595755 2541.413082257858
7875.259026785828 -57.2843433114797 472.3703818340572 4277.095344956979 545.844541244735 2021.694789247862
5569.635481368641 -93.64434320410678 195.2682557953707 4394.5847797267115 659.1221648767961 1520.7020068544134
2869.655999590482 638.2012064062543 79.72996003824719 4252.333195809633 819.6157810146939 1066.1922885946638
2713.9877014929193 1818.4585476106274 1265.2480826881992 4835.630567048618 1053.1699363966684 837.4826570752308
-5133.672926069686 -20310.76834849758 -5458.722524384552 4220.448274035023 1348.5185632786022 560.0961460233129
-3773.8637575186185 -11829.620757567018 -2825.926635348527 -4129.0122168468 -554.3837521841959 206.65957888347742
-660.2369598092865 -274.5637802568426 441.0775022109404 -5412.965182996776 -314.0996679534309 716.3052760967855
-1528.2507453022304 801.6356121531503 49.20649802844254 -5434.684357382449 -49.54427921542868 1098.2635282597737
-1205.128851740546 60.82864048489243 -190.98536190439344 -5188.327102554732 82.35257529215522 1618.0416591712171
-729.3922403589861 -52.45895425923837 -124.57705480981181 -4975.032074993243 121.36526612768449 2155.4840679337617
-482.5396174687462 -21.33975249061497 -65.93615727792245 -4589.447556923726 132.0041942832127 2703.4109372541093
-251.36775000513563 8.02792246840312 -4.342257503943479 -4029.071203942889 141.65674619677003 3263.464642795573
112.78863500021066 1.615831973597949 92.16580220099604 -3241.2557910844666 178.49547565538344 3846.8265083362144
444.5470265395513 -172.64866973415994 112.87352696021887 -1952.3104509148493 345.55087851854597 4515.913707139045
455.3382662935795 849.0870198204127 314.8976106485089 -120.94735519112405 561.7295527855706 5476.076796156573
2052.123642209195 6022.786761144243 2141.67270809558 -25.24478250397138 14.93962418952616 6713.405039227502
499.2819459853656 851.6308465334232 325.26920999971657 68.73719226639753 -530.2802999326948 5475.443195227539
537.707354555404 -167.47001349823364 134.1218029685898 1894.837426291847 -309.52239307129395 4514.488224621996
265.2905303719954 9.589744928711298 125.02350916450132 3174.6479790068943 -135.36028479884772 3844.248329687956
-25.481933356359264 18.807545654390125 40.42828561998196 3948.7812112271063 -89.98851337127093 3259.0278847899917
-167.33297722123166 -9.08068962981556 -10.802503900645235 4489.776219181116 -72.59782148299612 2696.032678000278
-310.25011631284235 -42.507738046062585 -64.7763870590469 4848.122490819972 -58.93150109156558 2143.273731304638
-720.1847265217122 54.65945307400508 -155.93995039872553 5022.419965468953 -24.247965704889012 1601.1153174347842
-1101.3670348228022 883.0625391825007 47.15866524050325 5225.342417920358 97.54521368943095 1088.9579037580713
-317.0593056879836 42.3634170674635 498.19583928449515 5289.673416913054 354.3810603963013 736.3697209455828
-3844.841493160123 -12397.5679613725 -3008.716177159028 4089.583719491782 604.4536020715889 323.9098827996445
-2963.258727621441 -5921.219392769338 -1043.4453821787758 -3138.0713106802295 8.138680755364948 163.1782561536409
-2784.252968702643 -788.026801896162 143.28389835281757 -4552.033083313035 294.27299314612696 555.7925475834755
-5132.8348092957895 642.6652045658021 -95.85149344638458 -5000.712588366805 667.5960816427421 1015.3402162930569
-7140.509039550814 148.4859036110208 -500.8851003973822 -4660.67257190948 791.8981182182189 1524.3587338237662
-8826.892766482908 15.505084170385611 -642.3620716019681 -4390.514307512695 754.0063695643162 2035.4914340570112
-10575.042722044163 47.27790711661562 -753.7420362947454 -4046.2395630592655 647.1899358794419 2548.0388729499296
-12313.346413231466 63.29479957363457 -884.2580350587345 -3552.9394256333962 509.3468083046788 3074.6785906138266
-13711.513489822199 181.7576171801743 -923.0703613637779 -2851.127753464678 345.5160025341524 3603.5566743331788
-14723.957631810083 -119.52802220331525 -1079.4205366367278 -1812.2214213045195 307.5518712106859 4168.001219651757
-16310.419650146181 304.42815582089406 -1460.5120027737569 465.8480461458938 628.6549912845858 4949.416177114469
-13336.052583691051 10899.14902701425 2197.824979954048 -22.722893284338056 24.06133950990182 6563.229388866806
-16265.484487690283 307.4167882701257 -1447.8227956193405 -512.8672912941387 -578.5384008076912 4948.995019938473
-14629.661409299315 -113.51911994570992 -1053.599048623563 1760.3989991688886 -251.66280836710496 4167.027497330758
-13559.909922474928 190.77259603422976 -883.6132702581713 2791.0017944350957 -280.8281598363791 3601.7185758277196
-12095.296248142013 74.93334144066966 -831.5315658216433 3480.421513415297 -434.5387127305221 3071.380710276801
-10283.955175897458 59.98573339278752 -690.4770857672352 3955.8826456635998 -564.3798965511902 2542.2405757397005
-8471.622608854626 21.629058483654063 -579.3197162810798 4274.773124373049 -671.025686960468 2025.8048610367205
-6776.766350458726 149.40996603588087 -461.6806850880643 4512.7323545663285 -723.4093652074991 1511.2237040747355
-4848.2541560729005 720.8440797135628 -83.61055468351394 4857.329419807595 -629.2949380017033 1006.5039928121304
-2595.8923740067116 -611.7904162907786 161.390651116141 4518.073320470705 -278.65246164052496 580.434114269683
-3021.606616953864 -6262.01332659386 -1177.86951981361 3160.5049016749003 8.812837529210611 272.8322363427341
-2759.5325515159266 -2369.526612440324 17.803938934249402 -1737.461701118733 502.4721685951124 239.1240098019399
-4465.525628810215 -736.5360096161581 83.9448979715417 -2622.637363126344 916.4278681241772 398.9876643957715
-8673.557512506812 369.7404144585601 -333.8848349846768 -3004.2545488321384 1461.4600586618308 797.7638928670526
-13062.06009368697 158.10909223076254 -919.8291707447147 -2793.670996833935 1578.5182616157174 1203.7625645061285
-17042.84812397344 53.61382619225542 -1318.1618647725616 -2600.6071238334553 1448.7531732773878 1599.2973804207174
-20872.111118626093 57.61750174387393 -1658.6919650083264 -2384.2413601851053 1206.2027772488498 1993.2968293738227
-24567.43036233757 90.46617648857466 -1991.2911879827973 -2077.8162035424784 889.7125944509148 2391.7681067267067
-28120.995758749872 53.37043950726276 -2378.87805073418 -1664.8264997365186 526.8444161392276 2796.229327461266
-30145.977318997 586.925362945223 -2318.3148173898253 -965.9950182851741 5.487187894759884 3133.8214454076942
-34032.47270072993 -2053.3557633435576 -4269.180387624402 491.03738501664157 245.46656930697452 3580.8747229238584
-28170.094965348366 17400.10495694614 2369.7817929707835 -14.37655163563852 34.60382406410996 4758.9266769616925
-33985.48478252895 -2049.9189786789398 -4253.9630022845795 -520.7781853084521 -173.7255543953082 3581.0077385485347
-30048.398656275127 593.792022115154 -2287.518389067732 933.2518540072065 73.56449820693071 3134.0180319516894
-27967.017565326016 63.50856749273193 -2332.2893715482023 1626.9419467091088 -436.7404236529335 2796.3149078560295
-24352.60028867077 103.25189216553142 -1930.0437890761914 2032.3479779132692 -787.1441256332967 2391.3770097187403
-20601.43822341816 70.50881121339849 -1587.9744930043198 2328.055200258091 -1094.4344222960885 1991.7552826495519
-16746.393873519424 61.23379562445149 -1251.6259891003835 2529.182073644018 -1339.5892566226305 1595.76922343146
-12804.611379325786 166.8340650498818 -877.5529167816874 2707.1710641548575 -1495.653564764834 1198.3473768743077
-8514.043222622235 424.2417445060514 -320.67544735010677 2934.5036132697574 -1429.8716929218858 795.4474212213303
-4395.659888154112 -655.2988410247532 79.0545800362475 2621.9634883641916 -922.5532146221894 416.4703840148262
-2805.138887462304 -2517.158667230864 -57.45134149449626 1760.3662408334267 -514.5615815768736 310.21920223417476
-2410.443141663974 -1023.20225324562 746.7377106057345 -856.6837249910949 1005.9404528652074 288.6044952110639
-5412.3022149836925 -663.0630929380651 233.5613146339339 -1228.4935255627388 1627.348871851082 333.6966389561065
-12395.184740519562 -522.4428518128223 -978.3074370205861 -1381.178887682825 2414.693427527999 662.5129378751153
-19911.962381688307 -1354.0795195995913 -2336.5002167296902 -1327.9988755470097 2521.0406726347064 986.0013113587228
-26477.71693039655 -2011.1222448665078 -3343.873070826255 -1234.876121967314 2272.425388200209 1292.7334942390667
-32684.391319041482 -2551.1197450682357 -4238.601827186838 -1107.892091538312 1855.1893497562457 1596.2391026446198
-38708.810265220585 -3017.8301681957532 -5109.00004002003 -941.3916172748836 1309.7348282641938 1904.0769811612172
-44551.23848152225 -3712.193323675572 -6104.079121055193 -690.044990233027 662.0735401201562 2185.613167703833
-49758.96423367792 -3460.9674264287078 -6819.871130006204 -337.6789309762512 -268.11586350811285 2518.997388858187
-54368.064828001305 -8218.57082240902 -9586.792155345498 938.4713673263682 -1946.827614066286 2262.2338087748735
-43974.79813751292 17382.908064639756 -1047.9029872314654 -9.289524793689907 48.11635655767736 4665.374118841744
-54316.23859318506 -8213.207815417112 -9567.959878901807 -957.662181706781 2046.3457098650251 2262.5052821476747
-49652.5972858936 -3450.466300376618 -6782.090561990463 316.667402953796 377.11320045760266 2519.4629346343945
-44386.75413917533 -3697.256773887152 -6047.805698311997 666.0429456483337 -538.7542049467947 2186.096778727714
-38486.709636836895 -3000.3895744919346 -5037.020002247723 913.3470484329745 -1170.266791452222 1904.259713453398
-32421.849219496493 -2536.731863784294 -4160.316681227496 1075.029162593334 -1703.859442881184 1595.648135076848
-26231.426994009744 -2010.7113745786776 -3281.8273826427185 1196.8406672443643 -2125.547973555669 1291.0481082789388
-19779.946966381976 -1372.0356464591264 -2322.5397155106425 1287.557914410846 -2413.7588882198843 983.8976433721797
-12421.565848348944 -529.0560455084498 -1017.3141798828411 1352.0858809509778 -2388.4749420089224 663.8690105373771
-5499.069044682986 -656.9194188108085 181.1038492708414 1230.2416047366742 -1666.3664402112129 345.7082202273206
-2516.771204552929 -1113.027898992568 683.4185146731247 863.6299106940514 -1060.875323898099 336.03529941259336
SCALARS Strain float 6
LOOKUP_TABLE default
0.03429923481995712 -0.12746658753348308 -7.630072788866737e-18 -0.07221161701880108 0.02977043568699994 -0.03751427431500952
0.041297441539062854 0.013250403013550184 -0.0047782891191308985 -0.03207780908568457 0.030987495670605467 -0.001275754405117104
0.05754609681784931 -0.017971868098415656 -0.012602420839116944 -0.015122348617200873 0.03027263169482164 -0.010523339833377067
0.08092609296693952 -0.021112151661242685 -0.017717890185402912 -0.015594491292564225 0.026936033915508906 -0.011418223705146389
0.10985177895397139 -0.030367267320025673 -0.023434438442386695 -0.014697381815536705 0.024071059238501454 -0.015682152911261227
0.13918680625129887 -0.0384842323936292 -0.02893588928463007 -0.013335229478077528 0.01890643295262204 -0.019338080949688346
0.16779962259122658 -0.04667996958706804 -0.034111066767993185 -0.01113905687154745 0.011792160830611206 -0.02309471127035662
0.1947047284146329 -0.05454286810866925 -0.03863968566545807 -0.00811974918488867 0.00287418976265237 -0.02678608228606314
0.21727987910501448 -0.06137095301781399 -0.04205886985643205 -0.004226104997786162 -0.00581891465140277 -0.030591386870796548
0.2316503571707937 -0.06534238825141483 -0.04394456000064759 -0.0007852332700339841 -0.008284538547194215 -0.03468004482545554
0.23631884901335404 -0.06556794623664881 -0.04446376310951167 -9.617731033866798e-05 0.00019914544368516968 -0.03746884968784029
0.23182649276067394 -0.06539850358131491 -0.043986054698908185 0.0005878850421815044 0.008679331555855384 -0.034689719085140534
0.21766601969414912 -0.0614936679482984 -0.04214839967350191 0.004013782149848728 0.00620215273537285 -0.030610563365614938
0.19537310717399778 -0.05475429712184404 -0.03879178333645262 0.007882117735294594 -0.0025149873219024333 -0.026815252895825082
0.16887047992518756 -0.047015312108068155 -0.03435034284895477 0.010866600132955331 -0.01147544607254501 -0.023129933187625074
0.14083720365701147 -0.03899709986232634 -0.029307257034539812 0.013014529212852465 -0.01867287589615924 -0.019393440379204895
0.11233194297364449 -0.031119289701354094 -0.02399269733290673 0.014329809159668154 -0.023921669619688425 -0.01568745407628427
0.08457210536807544 -0.02219242450769651 -0.018648750904473422 0.015074103571439235 -0.02710834883811157 -0.01171052585058573
0.06343670456957874 -0.01952226379517595 -0.013717993091325782 0.014492240906045024 -0.02979862389081564 -0.009552728116725355
0.05397587527892303 0.01109646143546726 -0.008189784471148785 0.03328309723613086 -0.039845469238868024 -0.007018029284975595
0.05219843905491054 -0.13451637998181967 0.01073646521387072 0.04340571933474209 -0.05219164719778262 -0.01455018187709257
0.021068182169774827 -0.1106573783663258 0.008904784081040153 -0.04634962563160924 0.024596801380079386 -0.021564740609164905
0.019026501913374728 0.008848654706201895 -0.0031249592190112636 -0.03840469204088819 0.02059564715051212 -0.0064682259483874105
0.030377906970710158 -0.011023507851983924 -0.008150042178876785 -0.031953656204733116 0.018686808966935115 -0.011338771480417032
0.05276119431755517 -0.01693307020379864 -0.012600854493144636 -0.03236339245478675 0.016522333504446013 -0.014703844526199925
0.07164208061913754 -0.02389241540950847 -0.016678903694681516 -0.03163541039295323 0.01433805800986622 -0.01950771580659854
0.0911900810001912 -0.030520167329797183 -0.020718907767367793 -0.029057603115554838 0.011298609571601075 -0.024298047271937635
0.11018472369459006 -0.03705745925507867 -0.024459054948658326 -0.025247363751818682 0.007069784518233394 -0.029115871503158718
0.12804409463468927 -0.0434390406346045 -0.0277185097277528 -0.019689617286134328 0.0018502599062041564 -0.03408827473167445
0.14310137454212613 -0.048966500119937556 -0.03019685954182003 -0.011630596261950142 -0.0032904045820316475 -0.039748405881735914
0.15280283142404896 -0.05137706331250672 -0.03168529780355698 -0.0030611580077404797 -0.004907124002287942 -0.04684874401310853
0.1560134507490563 -0.049506964696246825 -0.03224586566919197 -0.00017148073986133946 4.770379684661167e-05 -0.05235581827097753
0.15298801577704127 -0.05143544847649639 -0.031719307258473994 0.002707275961600669 0.004993033139200265 -0.04684975918974474
0.14350273711096348 -0.049093149086114306 -0.03027154929022174 0.011243404074800997 0.0033475072974847265 -0.039749139500564974
0.1287262554503935 -0.04365434363142884 -0.027848306689161193 0.019244905076718312 -0.001841558201940484 -0.03408597467223855
0.11125102552500715 -0.03739351708442438 -0.02466970678649362 0.024718156933914652 -0.0071313957375398985 -0.02910484913029435
0.09279044160717004 -0.031024534742293067 -0.02104931724005252 0.028413794473555246 -0.011445030851911828 -0.02427392794615102
0.07397354556127242 -0.02462371785714887 -0.017204909927787854 0.030845576954318707 -0.014606337619195813 -0.019444938611517013
0.05612973235133517 -0.01794838296614092 -0.013382703229156873 0.031297137675297404 -0.016795789514189665 -0.014691043150483633
0.035212085988004835 -0.012427801441144234 -0.009529619288864262 0.030307975297450277 -0.019459931869946778 -0.010897269135764012
0.023391034859630937 0.008289376535421084 -0.004387029182309117 0.036223667270596074 -0.02355228256875837 -0.009277695742005116
0.024114322979349578 -0.11608716961358102 0.011063734915016393 0.029004237005280126 -0.02912368459542242 -0.008758853562885575
0.010863633827839453 -0.07699645114598107 0.009737016422180882 -0.054417344387986955 0.014977620722417772 -0.007142225471083836
0.006379581444821104 0.0018464786315890885 0.000466609156618568 -0.06238182428814504 0.011721554014564447 -0.010052459320362191
0.009439615670705323 -0.00034422141720790095 -0.0035188601281397626 -0.054411566257624604 0.00923696514591801 -0.012945617723293784
0.023076961059329448 -0.007636970932939726 -0.006106947622136139 -0.05533874249505727 0.00749082895813748 -0.018753420422459435
0.03420847908675277 -0.011325861075593916 -0.008350265535743041 -0.053459278038546346 0.0061264340297477 -0.024749839674266947
0.044258392131804644 -0.014787774698153384 -0.010476035426919456 -0.049345478452956365 0.004636326122443472 -0.031048819499999394
0.05415926123351009 -0.01814017303704304 -0.012441907293965094 -0.04322845419879216 0.002636867678814793 -0.03740527942697452
0.06372019691247331 -0.02165606752372293 -0.014140200623938226 -0.03433881205464994 -2.5643374531231297e-05 -0.04411026016428747
0.07188440973037237 -0.02480362760293544 -0.015473640852451925 -0.020622573748394327 -0.003410106110153598 -0.0520056056133059
0.07607654671839967 -0.02369568653724569 -0.016457118809931524 -0.004450971196749643 -0.005212433329732956 -0.06278533812525192
0.07682144169022868 -0.0156946935048602 -0.017095141553901162 -0.00027402822910193496 -7.331786384214055e-05 -0.07293485002324096
0.07626441031355863 -0.02375769971642299 -0.01648274175802651 0.0038847339964506503 0.005051320738569222 -0.06277968111020739
0.07228773797167976 -0.02493638075003506 -0.01553094855737897 0.020000721259300507 0.0032062875695307276 -0.051992597250632794
0.06439470725150938 -0.021876830824793726 -0.014242388297197126 0.0336203354682413 -0.00024665167001752147 -0.044085814434909415
0.0551903755906301 -0.018474818477881422 -0.012611212798972902 0.04236590652062592 -0.002996633361167651 -0.037362779362124746
0.04576284055338916 -0.01527402442485039 -0.010748737637246618 0.048282977136508774 -0.005090828761192511 -0.030973471939993787
0.03633156194644298 -0.012007374215131346 -0.00877979073380254 0.05212709951667987 -0.006652480346445888 -0.024639405243996527
0.02596475769187635 -0.008545853739106718 -0.006785292589016486 0.053559002003058735 -0.008033051384460789 -0.018533555708575636
0.012441921795296775 -0.0011560058507338721 -0.004559190008265153 0.0518253108241573 -0.009989067331168673 -0.012994218517265217
0.00838535490193435 0.0029282241204027287 -0.00044290215019402997 0.05893424753615786 -0.01283550859990981 -0.010206819883171918
0.01217425469911508 -0.08031117053177478 0.010193483709362607 0.051436713340020236 -0.016435069990044168 -0.006826171779767708
0.0029193771579016665 -0.046170392061012804 0.008695868996131893 -0.05032233639280694 0.006756551979711345 -0.0025186636176043153
-0.0033290206706254326 -0.0009788247327299844 0.00338211433234767 -0.06597051316775568 0.0038280897031661263 -0.008729970552410827
-0.008360172086104942 0.005837572904654447 0.0012524579905225125 -0.06623521560563717 0.0006038209029282059 -0.013385086750681018
-0.00546600860312448 0.002248419865238247 0.0007139282881698274 -0.06323273656250326 -0.001003672011369277 -0.01971988272121385
-0.0031700692390159374 0.0009549929732753207 0.0005155232980296975 -0.06063320341415041 -0.0014791391809241825 -0.026269962077952624
-0.002139172708856787 0.0006712639684631958 0.0003995046267710737 -0.055933892100238816 -0.0016088011178266315 -0.03294782079775211
-0.001183469294591222 0.0003972230847305982 0.0003218423004393894 -0.04910430529826797 -0.0017264415942898695 -0.039773475334022
0.0003968163034512006 -0.0002806429649970305 0.00027114591614464635 -0.039502804953890115 -0.0021754136095327426 -0.04688319807037961
0.0021678729814113727 -0.0015931632927878687 0.0001467375933718974 -0.023793783620503887 -0.004211401331958195 -0.05503769830579613
0.0004975447365514283 0.0028969512035313164 -0.0003582655086992973 -0.0014740458911118783 -0.0068460789246034895 -0.06673968595299161
-0.001861941555941598 0.022334286825745446 -0.0013162519355828786 -0.00030767078676071497 -0.00018207666986617076 -0.08181962391559525
0.0006853684171835298 0.0028324945301555758 -0.00037502169261170455 0.0008377345303954492 0.006462791155346387 -0.06673196394180082
0.002567399145508167 -0.0017297754409674056 0.00010804969058996752 0.023093331132689163 0.003772304165567255 -0.05502032523759762
0.0010542494725689006 -0.0005039271889206372 0.0001994973120999094 0.038691022243927106 0.001649703471017511 -0.046851776518099617
-0.00020274695033396686 6.714206225627856e-05 0.0001988934465771572 0.04812577101159596 0.001096735006705721 -0.03971940234591584
-0.0007564125898375068 0.00020793728764053105 0.00019744498199436447 0.0547191476711624 0.0008847859493191271 -0.032857898263144364
-0.00130342911930775 0.00032812599833826077 0.00019242641835978024 0.0590864928568739 0.0007182276695701524 -0.026121148600354516
-0.0032334402062384015 0.0014882665132232038 0.0002049263982892945 0.06121074332928888 0.00029552208203455156 -0.019513592931253328
-0.006470781544479401 0.005621836172156321 0.0005280469403113979 0.06368386071868527 -0.0011888322918468391 -0.013271674452072389
-0.0022463769496532523 -5.61447328756728e-05 0.0027215840900332157 0.06446789476891596 -0.004319019173601712 -0.008974505974084447
0.003642392570647305 -0.04847578434529224 0.008737531215041852 0.0498418015814985 -0.007366778275276491 -0.0039476516967274725
-0.004096215445957971 -0.02212128824913397 0.007602647127820378 -0.03824524409886419 -9.919017171649685e-05 -0.001988734996842756
-0.012144516082688914 1.9987121293189112e-05 0.005695161700934414 -0.05547790320283223 -0.0035864521039639732 -0.006773721673661717
-0.02482911994985589 0.010365333259586173 0.0058649971311307645 -0.06094618467075975 -0.008136327245022794 -0.012374458886080235
-0.03297557475245048 0.011441738182509154 0.007484633626812062 -0.05680194697023088 -0.009651258315797983 -0.018578122068524133
-0.040494542204364055 0.013388819698166979 0.009379941717624022 -0.05350939312298134 -0.009189452629089328 -0.02480755185257866
-0.04857704757801035 0.016152718756047964 0.011271503475862404 -0.049313544674983806 -0.007887627343587174 -0.031054223763992576
-0.0565643317622154 0.01885582562845596 0.013081675542386083 -0.04330144925009454 -0.006207664226250269 -0.03747264532307501
-0.06323024843709948 0.02143187237118676 0.014699326877027689 -0.034748119495404815 -0.0042109762808959774 -0.04391834696853339
-0.06733252998827051 0.02166321294530023 0.01581386793547432 -0.02208644857215286 -0.0037482884303970884 -0.050797514864562965
-0.07482934920037852 0.02641737961744464 0.015662275525865188 0.005677523062706466 -0.007661732706300393 -0.06032100965848432
-0.08093036618351261 0.06675289363249355 0.013729200220030923 -0.0002769352618857497 -0.00029324757532572137 -0.07998935817683683
-0.074640762588299 0.026350354562299682 0.015654363347826848 -0.006250570113031196 0.007050936759731901 -0.060315876805459134
-0.06693527793154179 0.021522464144310575 0.015793852078858826 0.021454862802143957 0.0030671404769407563 -0.05078564762376324
-0.06258777056348051 0.02120545103335409 0.014658412161009536 0.03401533436945783 0.00342259319798777 -0.043895945142848024
-0.05563273491018469 0.018529601651323464 0.013005831122789926 0.04241763719455335 0.005295940561364124 -0.03743245240651651
-0.047319411422820604 0.015713978493110712 0.011140845689029209 0.04821231974395147 0.006878379989206163 -0.03098355701682897
-0.038926478491579944 0.012829273856400786 0.009167242260166483 0.052098797453334546 0.008178125559863064 -0.02468949674395797
-0.031326961569207966 0.01087942535950304 0.007155591704256113 0.05499892557139896 0.008816551638512431 -0.018418038893421296
-0.02362230100123693 0.01031439137320176 0.0054122459448149056 0.05919870230419411 0.007669532056923895 -0.012266767412410232
-0.01153487083341786 0.0005557504714677893 0.005267322600979393 0.055064018593481485 0.0033960768762696767 -0.007074040767721283
-0.0037014457642258673 -0.023447674151204464 0.0075338271715115045 0.038518653489306665 -0.00010740645736801628 -0.0033251428805124534
-0.009628198825584433 -0.007251600134344856 0.007296195413046849 -0.02117531448233627 -0.006123879554742714 -0.0029143238694367174
-0.020014445134282185 0.0027090853576690623 0.007708890888267926 -0.03196339286307251 -0.011168964642755816 -0.0048626621598167
-0.04070772274849704 0.014399873993902605 0.010112157630134344 -0.036614352313883894 -0.01781154446491721 -0.00972274744429718
-0.060157237828730926 0.02040316814795739 0.013834481857921275 -0.034047865273929806 -0.019238191313488705 -0.014670856254944173
-0.07811007990190513 0.02607148510696108 0.01771222699013858 -0.03169489932183858 -0.017656679299406258 -0.019491436823890325
-0.09558650990467447 0.03195402387591207 0.021495263062771067 -0.029057941577443822 -0.014700596347806067 -0.024293305107938045
-0.11248679465113016 0.03777226238241826 0.025086553442701765 -0.02532338498079621 -0.010843372244934174 -0.02914967380070272
-0.1285469225409607 0.043140621479717846 0.02831910724238492 -0.020290072965584435 -0.006420916321725532 -0.03407904492842319
-0.13887450226255682 0.04840412345564306 0.030700316106674497 -0.011773064285325796 -6.687510249587728e-05 -0.0381934488659423
-0.1506361493224319 0.04423659451482235 0.03073391321059575 0.005984518130071323 -0.0029916238133915383 -0.0436419106855905
-0.15984872339222483 0.1178446823849871 0.026253650603750803 -0.0001752142230274158 -0.00042173410581982154 -0.057999418875447
-0.15044212588239617 0.044165228234764965 0.030734334965957944 -0.006346984133656827 0.0021172801940099544 -0.04364353181353724
-0.13847006599777126 0.04825578344872607 0.03069779813054633 0.011374006970549726 -0.0008965673220192303 -0.03819584476445353
-0.1279049218318239 0.04290609678989367 0.028306703099107742 0.01982835497535874 0.0053227739131864555 -0.03408008793941683
-0.11158388774822857 0.03744396147885808 0.02505356592133251 0.024769240980730713 0.00959331903109647 -0.029144907305974785
-0.094435305557414 0.031534371684904756 0.021427989050009897 0.02837317275310363 0.013338419521725719 -0.02427451750728294
-0.07682473226023236 0.025596748848877755 0.01759650953566972 0.03082440652256033 0.016326244065136247 -0.01944843741063149
-0.059022167455513294 0.020022578221344553 0.013658345050813862 0.03299364734448058 0.018228277820644935 -0.014604858655649327
-0.04005521771154272 0.01441245630706985 0.00987311716917275 0.03576426278690752 0.017426561257581692 -0.009694515446166447
-0.019794312233775372 0.002998512897263957 0.007473479056843281 0.03195518001457891 0.011243617303294259 -0.005075732805212115
-0.009528543210243674 -0.007773663743219437 0.0072151777730453575 0.021454463560250877 0.006271219275525526 -0.0037807965272862406
-0.010910173963421596 -0.0024566747996535923 0.008328896855028965 -0.0104408328982818 -0.012259899269253633 -0.0035173672853611965
-0.024766179756950196 0.004174496142967042 0.009638301126591467 -0.014972264842784138 -0.01983331437566239 -0.004066927787271975
-0.055991998377452175 0.01635752250680544 0.013579597690659936 -0.016833117693598736 -0.0294290761479729 -0.008074376430331608
-0.08814744590988767 0.02493965278089785 0.018953026657735662 -0.016184986295754406 -0.030725183197783626 -0.01201689098219001
-0.11658383594853204 0.0325094754163354 0.024388025070714144 -0.015050052736553788 -0.02769518441887754 -0.01575518946102592
-0.14366003834706317 0.03996458530699625 0.0296814913689884 -0.013502434865715176 -0.0226101202003086 -0.01945416406351261
-0.1700191931380343 0.04747271682838262 0.03472965042191576 -0.011473210335565164 -0.01596239321956846 -0.023205938207875948
-0.19502979725692007 0.05383313417397423 0.03925758009611529 -0.008409923318509586 -0.008069021270272638 -0.026637160481369503
-0.21878771562556565 0.06334070241891969 0.042872382975100015 -0.004115461971264311 0.0032676620864659626 -0.030700280676756276
-0.22981151219382057 0.051411966902710854 0.04307436815518777 0.011437619789395635 0.02372696154655327 -0.027570974544386277
-0.2291029671595441 0.1447955550103536 0.0324828001621841 -0.00011321608342102375 -0.0005864180955836148 -0.05685924707334904
-0.2296026013353463 0.05133774246640984 0.04308222207970104 -0.011671507839726317 -0.02493983833923473 -0.027574283126102977
-0.21835701668997756 0.06318721900303606 0.04288513365882702 0.0038593839734336645 -0.004596067130824902 -0.030705954515823735
-0.19435891592597904 0.053592708643811736 0.039269051135703725 0.00811739840003659 0.0065660668725880085 -0.026643054490686
-0.1691038442055902 0.047140918674564075 0.0347302020054354 0.01113141715272359 0.01426262652075847 -0.023208165257706897
-0.1425596937002298 0.03955274018631012 0.02965902020518491 0.013101917919096519 0.020765786960105795 -0.019446961646234887
-0.11551718140736679 0.03207780439894952 0.024331941224739397 0.014586495632100845 0.025905115927769663 -0.01573464881969279
-0.08752300480242522 0.024650204803757517 0.01885807063290318 0.01569211208192116 0.029417686450285554 -0.01199125252861916
-0.05605150678486498 0.01641847482640405 0.013443151820072337 0.01647854667416036 0.02910953835594477 -0.008090903565943422
-0.02510777050234997 0.0043990787804103265 0.009505783070258428 0.014993569557808468 0.0203088409902354 -0.004213318934040087
-0.011193226824666846 -0.0026391660564068116 0.008307929276904536 0.010525489536639059 0.012929418010096578 -0.004095430211627046
0.032083617237897794 -0.08202748170730333 7.792703114739563e-18 -0.03714328206204484 0.019815666688810542 0.007009646090191184
0.04067151066559001 0.004105667781951026 -0.0050900660479613466 -0.01660455114578993 0.02138141210700722 -0.0021970430588454264
0.05949463560216929 -0.01821479742112402 -0.011528462587831719 -0.005933851038056042 0.02005513980917456 0.0005489220013573518
0.08298962979756179 -0.02279816112033716 -0.016400501083161274 -0.006449907508808224 0.017820827855496654 -0.0003754472908945003
0.10999591849802161 -0.03133251808224326 -0.021152517950962634 -0.00640574543637922 0.013601506767034786 -3.8530085752768315e-05
0.13726458554937448 -0.03930010110112052 -0.025468270523281437 -0.006569428455814916 0.008135446767640787 2.6210564872373074e-05
0.16394933186115265 -0.04737822436618736 -0.029191212486939636 -0.006721471427507576 0.0012649229860961244 0.00012299695436120513
0.1899239843697744 -0.05539276225262336 -0.03204834188750381 -0.007079279261663138 -0.00632382023498358 9.74659858047275e-06
0.21513308380795462 -0.06360485802594591 -0.03371569935353486 -0.007438387724952763 -0.012228489231261028 -0.0007981844078234501
0.23705468331786425 -0.07201424576879176 -0.03408852217705386 -0.005989344182714843 -0.011173511337632773 -0.0030660613106418344
0.24659355135132166 -0.07725405685704798 -0.03389429637903307 2.016122810716617e-05 0.00010578215333063985 -0.005441217398224913
0.23711396386437042 -0.0720288477396621 -0.03411892565885764 0.006029352146341867 0.011373177375831399 -0.0030800184537409306
0.21526039777270653 -0.06363504042480042 -0.03378279714270581 0.007476918162948522 0.012390684346588165 -0.0008256052191102129
0.1901402186755112 -0.05544102173902608 -0.032166232475767956 0.007113269318518526 0.0064168490666479 -2.8478407489793272e-05
0.164296240246524 -0.04744997827750124 -0.029384795965639164 0.006745248068742953 -0.001289953790067243 7.752145052889607e-05
0.13781913926680783 -0.039407211298319776 -0.025780672399852916 0.0065707315378518 -0.008352791491424427 -2.4021593491996832e-06
0.11090372876332658 -0.03149846087449377 -0.021648178249000997 0.006380496918604892 -0.014177261631782956 -7.873858725386879e-05
0.08447645796314235 -0.023063796647975202 -0.0172117202412499 0.006326299366099899 -0.01881279942514972 -0.0001456157228921263
0.0622336044558965 -0.018737631254838946 -0.012677029477194646 0.005704488391594537 -0.022646004318755596 -0.00010839253049860544
0.04681190642539827 0.0029822340726118465 -0.0071914480483867725 0.016465319639130487 -0.01913412938351684 0.002591750037137817
0.040727557834744944 -0.08344168039072883 0.0030711464058224983 0.021947148516644893 -0.0161647715501513 -0.01291383337136453
0.01920573368032317 -0.0722146747182401 0.0038257224182185255 -0.023835846497532513 0.0033372340300100176 -0.0006568435860788904
0.0213298636632387 0.0023287072107767213 -0.0026884157951309134 -0.020707721376744002 0.007189969077332029 -0.0019967202526321873
0.03514429854289595 -0.012486595409127688 -0.0073126795015691845 -0.01630371178884607 0.012231945288228439 0.00013109575129604476
0.05545515046121254 -0.01833719515174755 -0.011157038861706846 -0.016928732891964185 0.010257413942631162 -0.00017656674319310993
0.07324437159269934 -0.024834248694368587 -0.014518838827303364 -0.017433662348923348 0.007643600718308665 2.7754967016816027e-05
0.09142281416026314 -0.031237510505701605 -0.017566275630610303 -0.01752962337748169 0.004165451798078614 3.4024480333487955e-05
0.10917628282391494 -0.03762561208959532 -0.020153412028780304 -0.017680488012072212 8.197278899851662e-06 -0.00016729769950911766
0.12629346586663737 -0.04387855011830578 -0.022128340224038038 -0.018152415625156015 -0.0044574966331589125 -0.0009605875438537458
0.14252928006327684 -0.0502612183196565 -0.02330469056007351 -0.018819948198812286 -0.007915204704699181 -0.0032609936080304136
0.15630258073707812 -0.0578070033908746 -0.023629509710234416 -0.01544180013537068 -0.007294792105967783 -0.008280158100041077
0.16222762612754188 -0.06447438473451474 -0.02353577540517778 2.9185118708280414e-05 -4.07546030425284e-05 -0.0132789532874089
0.15636070898681753 -0.05782493429692392 -0.023641634501679082 0.015499273532247811 0.007194735198138687 -0.00828316266190606
0.1426533701178953 -0.05029793090112844 -0.023334921132919673 0.018873572579691758 0.007758839464145122 -0.0032636770154627352
0.12650175289248464 -0.04393606580752698 -0.022190161078846478 0.018195398450830035 0.004203971207437296 -0.0009543844925404622
0.10950354324818073 -0.037708085882919615 -0.02027152563388448 0.01769901316375179 -0.0004056942902514129 -0.00013504471629680135
0.09193450918447649 -0.03135450517554188 -0.01778150750094574 0.017499187947107836 -0.004774153860208678 0.00012779842438656475
0.07405385298996175 -0.025005325980587568 -0.01490259549281453 0.017321250238939764 -0.008537204418838408 0.0002236439818287653
0.05680422854431456 -0.01859366006454006 -0.011798987913787817 0.016646215869058317 -0.011645536848460402 0.0002670518454695144
0.03749119252857984 -0.012995926089265534 -0.008410740660298443 0.015581911440376904 -0.01397957766475922 0.0005299638035010493
0.023680767717206907 0.0020369799565101436 -0.003909470322310124 0.018985855302792468 -0.00765357454900137 0.0014536832864023162
0.02091831467724349 -0.07287653767705564 0.0039043072235336387 0.014148496216275943 -0.0022888375084478057 -0.013622698106257332
0.010647764510611201 -0.05215994719101 0.005417982959590713 -0.03145930963846022 -0.0005291680793312893 -0.013138241402755059
0.009411750130274704 -0.0006879013958900962 0.0002906389188957315 -0.03596228635608671 0.0016435420826281118 -0.001974546817402766
0.014815425044102633 -0.0032302117376880983 -0.0030521972940482757 -0.029739810782346186 0.0049358888655203405 -0.000602056707037479
0.02674353931080753 -0.008979443935772564 -0.005384401568300876 -0.030583990975822557 0.004192257216193089 8.35243434093986e-06
0.0365464194649786 -0.012240536511146028 -0.00724425584315391 -0.03091545427377754 0.0026569850251771843 -6.525600244226247e-06
0.045574223564989844 -0.01541694360622901 -0.008833035202330477 -0.031036352088856623 0.0008964971869274439 -0.00019956980306996567
0.05437188035395577 -0.018546056018776912 -0.010141270598072105 -0.031110691764091886 -0.001138232527376533 -0.0008782779539678248
0.06253279212878307 -0.02132482277241817 -0.011101335761091412 -0.0314487117492245 -0.0034489234671283863 -0.002577278387708154
0.07037702416090585 -0.024059953923373376 -0.011644262098172426 -0.03254159562865058 -0.005980599085863481 -0.0065679445533603255
0.07885498539623244 -0.030648876399968043 -0.011704696274410757 -0.028146187845944574 -0.006646607229615763 -0.01486611921547188
0.08337899221988497 -0.04238382534984821 -0.011492717480459446 4.2809180528142365e-05 -0.00017073315317727792 -0.02446335584697302
0.07891111717818651 -0.030673303489175997 -0.011697999894367279 0.028230155024475144 0.00628132454590644 -0.014859164032719906
0.07049534866687739 -0.024109300437117672 -0.011636063670627599 0.03261867082942445 0.005544416915217468 -0.006547953042966093
0.06272684152053452 -0.021399935434427853 -0.01110362535859035 0.03150726928269741 0.002896760273412353 -0.00252946188732006
0.05466708892983851 -0.018648232108169373 -0.010176147297572297 0.031126787366984633 0.00042823111934328753 -0.000772058837773204
0.046017582163942965 -0.015550759406428681 -0.008938974487082554 0.0309676978404872 -0.0018010248976390638 1.804984830774204e-05
0.03722738834794457 -0.012415192332984805 -0.007483485128101799 0.030694574833696416 -0.0037939312927465366 0.0004244564218045492
0.02784670386735395 -0.009226456098219897 -0.005857246241815128 0.03008118643229912 -0.005603767503979795 0.0007244367978480438
0.016223420421308147 -0.0035234234247466583 -0.003869305397581081 0.028563581687899013 -0.006364178307344794 0.0008371114625791665
0.010449689596804533 -1.4091669391411426e-05 -0.0006626805146834713 0.03358526254509877 -0.0019352378991881426 -0.0006242185249854643
0.011284709985616119 -0.05214892108614243 0.004881192347733856 0.028733974720547506 0.001182618250712586 -0.018411122617514413
0.0036091978942037655 -0.032894841232247195 0.006297455081111185 -0.02974539206256059 -0.001708464670859331 -0.014404758768273027
-0.00016995308145396578 -0.001826970544193078 0.0030502325766514466 -0.03950954028330644 -0.0016315314159858724 -0.003541855576167097
-0.0030333726627635414 0.002779657516033065 0.0012392768446615428 -0.037567024117021626 -0.0010207340912902461 -0.000893643178309071
-0.0012552291892692245 0.0005276989289363681 0.0005479684467779119 -0.03548509226085125 -0.001426913957229012 -0.00022106775640304586
-0.000320372615251214 -5.108360993212424e-05 0.00030044859935380566 -0.03548004794678239 -0.0019167080257897805 -0.0001894358103381799
-0.00025553822549404177 1.2385386613059665e-06 0.0002334989126894523 -0.035558871115787545 -0.0021752242571119566 -0.0005615236774103889
-0.00035623511445142213 -1.9438529522903755e-05 0.0002705328629096553 -0.03564231733711145 -0.0023534570411117314 -0.0014622212148767606
-0.0010415566433007463 0.00043276840864830783 0.00038674330322121105 -0.035396713213542604 -0.002810944805021825 -0.003390362988658789
-0.0014825334394130852 0.001560622479121059 0.0005257740252682572 -0.036529288846561696 -0.004763259227641171 -0.007529627787106603
0.0028524609380345036 -0.004232832571160752 0.0007322452197451969 -0.03575375283618854 -0.00736283665651332 -0.016573915947893054
0.00704937489022968 -0.02648417223309434 0.0011206337379659158 4.6549566239943224e-05 -0.00029411520230879175 -0.03140910895776233
0.002906117967525534 -0.004263596765544747 0.000758146663272227 0.035844996925015485 0.006745957858588594 -0.016564071554279643
-0.0013714001532405655 0.0014991076185363872 0.0005733987579387749 0.03661279109602271 0.004062500541677962 -0.007502974225765731
-0.0008649710739773548 0.0003411426221211185 0.0004462003889876486 0.03545938482920204 0.001978258055114579 -0.0033298320376753234
-0.00010021805264320014 -0.0001392245382538115 0.00032288737463976685 0.035656930450132795 0.0013560617748529348 -0.0013338620480088373
0.00010601433255951197 -0.00014415583173975197 0.0002452844888954456 0.035474667249088196 0.0010064374797139424 -0.00030066342425830276
0.00020694342996164698 -0.00022364423813477384 0.0002150966900400274 0.03521100518431396 0.0006046766415355829 0.00030910831918629685
-0.0005127577230519785 0.0003204091914103431 0.00027670322868207913 0.03488153936567189 5.597895331173077e-05 0.0006813174595214159
-0.0022772866221375124 0.002777092884858133 0.0007016137226855259 0.03635633071060473 -4.869967540609537e-05 0.0005632977334387854
0.00031505874985358087 -0.001109894264960943 0.0023332965118761776 0.038240526595469386 0.001542103245065732 -0.002663075627273222
0.003920294888066283 -0.03298965659074766 0.005690131724120899 0.02886302679255391 0.002236225747359098 -0.01755673327533072
-0.002776664564857111 -0.017074346893673223 0.007106124348528816 -0.022521424027557056 -0.002882108374692537 -0.012458410054922335
-0.008933671186539104 -0.0006860455628509246 0.00557895045621511 -0.03347006724313098 -0.004653345445065169 -0.0036117856891147194
-0.019702472472783603 0.007449229576395476 0.005437359662930487 -0.03459976912914565 -0.006576237525286595 -0.0009278998602820423
-0.02848404748092397 0.00955478843405916 0.006441555188064422 -0.0314535402710733 -0.007027729407715195 -0.00011369358883023904
-0.037153033969528966 0.012249776150406809 0.007834475343295554 -0.030802615195018448 -0.006541192194636003 4.1041547832298116e-05
-0.04617285464326618 0.015419663586073922 0.009293362531608187 -0.03096414456543271 -0.005287666254612197 -0.00020446456459497002
-0.05501594289685581 0.018599940805872812 0.010679918352809405 -0.03103812317839413 -0.0036433068162757313 -0.0009546873665028452
-0.06416011065268457 0.02171704774080613 0.011883615811520896 -0.030760820031035245 -0.0020308808858758133 -0.0023301236568905536
-0.07343327137988713 0.026881040437991756 0.012695589923059188 -0.03024475820152314 -0.0025362212437541856 -0.005266112376338768
-0.07357310389860532 0.025522131700219636 0.012924496113168977 -0.038237498671688734 -0.007836225920487086 -0.012113938498552468
-0.06924875679255733 -0.015849541402689085 0.013304624711922685 4.383279257279241e-05 -0.0004201329126361205 -0.032851140895531934
-0.07352182419182347 0.02548482138694464 0.012969845704341138 0.03832377838192446 0.006962056128727591 -0.012108455333551652
-0.07332919909360038 0.02680697244342816 0.012783232140348325 0.03032495804359185 0.001563875481363201 -0.005249075105666756
-0.06400093336450025 0.021608313477447138 0.012005910450226162 0.03082389733948951 0.0009085445098192217 -0.002286716267725729
-0.054799629822536694 0.01846199498161371 0.010821415356286692 0.031060301266857684 0.002346153976177141 -0.0008549247007686541
-0.04589486328937724 0.015262759704595879 0.009425513666055539 0.03089834857045323 0.0038407699637444596 8.785001622209899e-06
-0.03680226857194036 0.01208377109316178 0.007907657707436408 0.03056426173116807 0.005045358353228083 0.0004722736371323414
-0.02808250625985341 0.009421213099680633 0.00637926414177047 0.030903969267568235 0.005694364284470863 0.0006926983796464473
-0.019376398807692003 0.007548687044596464 0.0051613590094860195 0.033749816358221094 0.005781915073004403 0.0002532429589136026
-0.008735740704557658 -0.00018353790092886046 0.0051003665519924034 0.032925048639139545 0.004682580561056181 -0.003007151125209253
-0.002620699164640897 -0.017160058505375584 0.006581463521161539 0.02231791804126344 0.0033170556997353363 -0.014548735613742047
-0.008170795172208839 -0.006779820711254611 0.008243884448600284 -0.011777590402492375 -0.0051650500114061165 -0.008087185056641211
-0.017040213158699587 0.0016861519481655917 0.00798564576328937 -0.018712514100231788 -0.008609772850627242 -0.0024580835949775033
-0.03592684322700775 0.011922455999889602 0.009446061252743516 -0.019959855985626714 -0.01271428256253876 -0.0008472661138446998
-0.05539341375559352 0.018611554149623368 0.012103686995571595 -0.017894958575043984 -0.013195121811524596 -0.00013400948682498065
-0.07398966019847204 0.024931600133760553 0.015078537219260115 -0.017310495807643884 -0.011643054024386751 6.192520318980491e-05
-0.0921169877368779 0.03132046098529263 0.018000967894957257 -0.017448799589627233 -0.008713673979198656 3.4837165317663515e-05
-0.10990104018142724 0.03768680123189375 0.02068693142219797 -0.01761090330326036 -0.00492133416917417 -0.0002192464243436622
-0.12656488191899792 0.04409502815957766 0.02293133365467055 -0.017283967739348538 -0.0010578228638200918 -0.0008876932946413492
-0.14484247721720475 0.04977798582687105 0.024415034425564232 -0.017829446538325845 0.002369245997964109 -0.0013922965360591661
-0.15235890711476296 0.06314923430844814 0.024188092518038523 -0.024150377264986013 -0.004945048037282757 -0.0045273038620278665
-0.14944558338253067 -0.007449547151936721 0.02357823087186687 3.039882953377071e-05 -0.0005580616336599066 -0.024182595733025634
-0.1523093881449872 0.06310489692620352 0.02425296748741435 0.024210632996518426 0.0037883972385497648 -0.004532641237720248
-0.14474394415929903 0.04969029220318939 0.024542810192976963 0.01788691985962831 -0.003642622252059251 -0.0013996584221661493
-0.12641999679613045 0.04396726012907826 0.023116490793936215 0.017332595262685768 -0.00039134712666609103 -0.0008887394715999675
-0.10971791304119119 0.03752742785837569 0.020917088791422483 0.01763676679968662 0.003275084371716403 -0.00019671934784768678
-0.09191398195733878 0.031146360133154662 0.018251615373933713 0.017423632648320777 0.006922107897423473 0.00011566133639646399
-0.07380386192346715 0.024773164590975734 0.015305912344997308 0.017178475528172785 0.009881196692612504 0.00027030058409151215
-0.05528554552959211 0.0185346400307781 0.01223858502905059 0.017584305073200576 0.011802351403733057 0.0003051360444033232
-0.035933214658331984 0.012043414392286915 0.009403851544179307 0.019541396115182196 0.0121118549302924 -0.00020252097155136538
-0.017063892933445787 0.001988221200042467 0.007728714500032614 0.018527591577276507 0.008800916455803486 -0.0021426906598035703
-0.008154546942780453 -0.0067709734307232735 0.007849548815125207 0.011734926970801569 0.0056578540985295165 -0.009283475879278432
-0.01097777244352242 -0.003282603446814084 0.010002917702336491 -0.004511025148775282 -0.00987466291858276 -0.00524126480418332
-0.023516896636005234 0.0030180033650295045 0.010391505652726613 -0.007322784055678985 -0.014830395081002631 -0.001708861685617159
-0.05213243806213208 0.014207797957299222 0.013138561326928892 -0.00719155305495015 -0.02063905889107876 -0.0009196870997931503
-0.08271759252552337 0.023251587977388386 0.017249395722721095 -0.006520921511895683 -0.02080942591058442 -0.0003809845468521407
-0.11090487755414181 0.0314065744626414 0.021627285774907964 -0.006375687326385529 -0.017891648752168702 -0.0001895641735080103
-0.1380525787639198 0.03946303917793535 0.025858614468590217 -0.006524088511962926 -0.01288111358433788 -6.14729882953546e-05
-0.16473788376943335 0.04735395601754669 0.02970972638610977 -0.006607194937816638 -0.006480585009129067 3.49808118987681e-05
-0.19014181064702665 0.05590680521568782 0.03289503282220355 -0.006906754582234574 0.0005983162056118414 1.7603924953653533e-05
-0.21109960968012134 0.060117464969380405 0.034986070303065525 -0.007110590954401589 0.007886177265296033 0.00012869050984468973
-0.23313244128982796 0.08448653186111418 0.03426084219415591 -0.017236602967263197 0.011764930758419473 0.0027874108738602825
-0.2463830458199443 -0.0030954178769691224 0.02860750890357189 1.4592854802049468e-05 -0.0007179950715144273 -0.02571349928118103
-0.2330839550762473 0.08443854367159477 0.03434506203375753 0.017265826047195187 -0.013250468415888995 0.002777399151160004
-0.21100449862895845 0.060022634253374146 0.03515342266482093 0.007139470082936366 -0.009514515147685419 0.00011038700387616359
-0.19000600962633604 0.05576893954033235 0.033141597986968536 0.006933262623293164 -0.002441937472188678 -4.647316718093793e-06
-0.16457623427900325 0.04718268740501712 0.03002504370884143 0.006625987121550404 0.004395445103666727 1.7714489403066413e-05
-0.1378999624895036 0.03927860895373149 0.02621986885026032 0.006523823667532217 0.010620456616081733 -5.5507286333984784e-05
-0.11083783158557087 0.031249692098646604 0.02199170335330121 0.006332390416205239 0.015691455949098602 -0.00012354178870652757
-0.08285105101528685 0.02319706096035053 0.017546707492683243 0.006402536613408209 0.019153530241038254 -0.00019882752716857463
-0.052480388217304275 0.014336266390898378 0.013274792091512229 0.00701875164413761 0.02014613440427519 -0.0006422010966108042
-0.02382452280017481 0.0032436388512120224 0.010309214560769511 0.007236144511978921 0.01545355735178616 -0.0015856946084309316
-0.011162254102961346 -0.0032146958232881833 0.009761288736725573 0.004440326327301382 0.010900296489314872 -0.005965024491636416
0.044540658588402116 -0.0709348162047858 1.2536087619363645e-18 -0.0023340441646045084 0.008561827153827684 0.0007429498671757505
0.04683986984431084 0.0004329141574333559 -0.004755760005342574 -0.016059747390185845 0.011672940288994849 -0.0008907756934215039
0.05862381494116672 -0.01895175753646711 -0.009083265793291547 -0.006354473167437049 0.010985926051888724 0.0008604493424694216
0.08079192502785511 -0.024060936360643364 -0.013105251632265976 -0.007261208501152308 0.00918340085688305 0.0009928690791434986
0.10635329980067953 -0.03270687464422432 -0.016209144890239034 -0.007608872153403529 0.005905234241785275 0.001370135190008429
0.13193615678207338 -0.04108543801116427 -0.018387911692125912 -0.007989271062894305 0.0017997557341570733 0.0017603314283427382
0.15745414508655628 -0.04989621923994634 -0.01949209066194223 -0.008502394169872873 -0.0028404473704497337 0.002125837035418248
0.1841754336591865 -0.059352402517554186 -0.019419561174863133 -0.009478963744282719 -0.007273296949792886 0.00229026066309989
0.21410123183457083 -0.07042687429567492 -0.01821818628947309 -0.010641900804555364 -0.009751109138748194 0.0019293846244851339
0.24419551814764884 -0.08336299921699356 -0.016400322304917087 -0.008939661207886567 -0.0075685664298339745 0.0008355959043152414
0.25825551318779055 -0.09176850741217638 -0.015348790518835203 2.068342777133839e-05 9.775699436797814e-06 -9.175591061145312e-05
0.24412637647151958 -0.08333568443396709 -0.016411128610508117 0.008982290863634633 0.007576874346632138 0.000823732541787973
0.2139523833974739 -0.07036512825438326 -0.018247597904869305 0.010688438456256034 0.009724446915987608 0.0019057996190008366
0.18392388248812394 -0.05924063305941298 -0.01948479476186614 0.009532683818019414 0.0071824884006194915 0.0022561508358935316
0.15705952097592696 -0.04970759481497836 -0.019622989505231246 0.008566888193391395 0.002640004124253358 0.0020847326153581075
0.13133444998306612 -0.04077643643547017 -0.01862965597526166 0.008071833533155538 -0.00219191478895134 0.0017248375045051613
0.10543772740536213 -0.03221225572614343 -0.01663019857965675 0.007705089092777799 -0.00664552823463393 0.00134940789622463
0.07941428021430767 -0.02328739422624441 -0.013778043871155539 0.007437519612958311 -0.010449766651951275 0.001078343067111252
0.05612469870219331 -0.017675412137561148 -0.010205031112858852 0.006606151081728717 -0.012940074481763628 0.0007904781281478476
0.0403548665992889 0.002549710190812911 -0.006049798192744301 0.015694252712562983 -0.0117790690514291 0.0006362431950608764
0.03492018918291953 -0.06743088862065137 -0.00531031141788387 0.020157563177637523 -0.010412200231274604 -0.006218573699981131
0.019665652229186537 -0.061140612167157486 -0.0007009646090246949 -0.00398133552781011 0.004532971750475834 -0.0022189028689378874
0.022827939385625606 0.0007995936097934469 -0.0021804473636007726 -0.018226124294612848 0.005495075815426604 -0.0018666572917692675
0.0362847426905992 -0.013814972670147507 -0.005670814390051258 -0.01643512549324404 0.006878712610291837 0.00020650733698159346
0.054703247515792384 -0.01965523034692884 -0.008533023083100307 -0.018113938064698118 0.005751039745211914 0.0005218157802542602
0.07141302770283407 -0.02631959445292095 -0.010752102756564786 -0.019147568851569534 0.0036430386239993703 0.0007623284166893897
0.0884634985709791 -0.03308567976494096 -0.01223574435216735 -0.019828836156432116 0.0009739727897524349 0.0008810758042050471
0.10545525194451105 -0.040108218813018515 -0.012962023085615438 -0.02094155008799354 -0.0019397219507955967 0.000768065273178653
0.12303784957128197 -0.04747359224841646 -0.012901676562018537 -0.023244708563372445 -0.004629885688604595 0.00013821768372014237
0.1421188314882175 -0.0560783498591108 -0.012122598458899375 -0.026603229658125928 -0.006093880147374257 -0.001464427279387175
0.1607183661459845 -0.06781711525286785 -0.010917814682354147 -0.02331409374415212 -0.004752619275826955 -0.004145584314618084
0.16927182071126012 -0.07839523100162932 -0.010147649924852595 4.011569892090148e-05 -8.777050459781261e-05 -0.006059299488288088
0.16063355176182342 -0.06779522144933872 -0.010889949651548589 0.02339799791255717 0.00456046379711863 -0.004148401163792322
0.14193974125777864 -0.05602801008847327 -0.012072946057489545 0.026698778006921078 0.005851212127414918 -0.0014671335399422108
0.12274471046827164 -0.04738053152084099 -0.01284435828209427 0.023361993056844912 0.004299568706309365 0.00014319796530853332
0.10501599874056916 -0.039947926602273136 -0.012922789719152313 0.021094468718445964 0.001475324011685813 0.0007968125055225796
0.08782786044485326 -0.03281809067997486 -0.012257938674415774 0.02003712753503965 -0.0016431929218757686 0.0009648051208390655
0.0705093923345524 -0.02588322241904894 -0.010899683519495653 0.019433616424607857 -0.00462280623969814 0.0009508192213237772
0.053367856961002456 -0.018967703729447668 -0.008911772904834015 0.018558066246534853 -0.007198299177217108 0.0009000356141107108
0.034128922278593335 -0.012640561572457631 -0.006376454388934278 0.01729253651913177 -0.008555522330678657 0.0007955054832309097
0.020920281431362243 0.0018599098746758683 -0.0035896040671540464 0.019813208926857517 -0.006150864734276864 -0.0002306537244966555
0.01854921398693574 -0.05851311367958211 -0.004018928080752797 0.01497221654096601 -0.004022235512286596 -0.008043941252001082
0.010113699942584932 -0.04290108264804534 0.0012620041437836579 -0.025803582836047567 0.0015903358176175063 -0.007649968272571473
0.009818541793435488 0.0005650866219927648 9.845093977416758e-05 -0.03172392057807571 0.002000725781295899 -0.002821406814880528
0.01603279570151654 -0.004762027208541209 -0.0021943955255610686 -0.02957210729282655 0.0027991723857531533 -0.0007190203139807978
0.027358670537160734 -0.01022221460060114 -0.004059546337463881 -0.031953936915965715 0.0023108129149053097 -1.0294789670152246e-05
0.03635968415915519 -0.013505363810748485 -0.0053551097799282455 -0.033192753325536874 0.001124197254151128 8.768659059088388e-05
0.04472350169669812 -0.016871048737343613 -0.0061371639076515565 -0.034369935643048105 -0.00028238469729724403 -0.00012832614685597858
0.052943828227584346 -0.020318829452065035 -0.006438221571574598 -0.03613774571921377 -0.0017408421421246938 -0.0008364400404170459
0.060931272610363754 -0.023418369294681003 -0.006285915808866173 -0.03957840106511715 -0.0030989968004543618 -0.0024144241370799317
0.06995320866081473 -0.026991486318219172 -0.005715567213845942 -0.04555558579398554 -0.004029092608529186 -0.005427830632606409
0.08181324035232296 -0.037515560116044504 -0.0047528999212237 -0.04227070654413308 -0.00345994039880828 -0.009951468434104795
0.08857351519085999 -0.05560121005253386 -0.0039029733765470493 6.472887048467824e-05 -0.00018353919767894974 -0.013221234448990997
0.08171439183946554 -0.03750483002565869 -0.004686885468012483 0.04240628218107404 0.003071953832097466 -0.009945510055828331
0.06974751024915228 -0.026964646491989614 -0.005588109056961346 0.04571061497410433 0.003578710948144206 -0.005409813302917554
0.06060317832929446 -0.023363836277317408 -0.006108467304062793 0.0397698915861436 0.0025454209244231496 -0.002369375508855894
0.05247029952719488 -0.02021688971617039 -0.006233922353845333 0.036389915935932875 0.0010425725682558222 -0.0007340812693363585
0.044072980896852944 -0.016688251158538534 -0.005947848221773086 0.03471766743806079 -0.0006070416178682954 8.583182869181661e-05
0.035485893039123244 -0.013191218755679798 -0.0052515042936448495 0.0336864075319333 -0.0022667645080781005 0.0005064751663880442
0.026162549740589458 -0.009690806205924463 -0.004149934846553737 0.032708181261993534 -0.0037476378276440872 0.0007155528186808749
0.014796747075403384 -0.0040100556427711915 -0.002638611898656891 0.03093343341474222 -0.00423525607229676 0.000582382035082464
0.009264688284653901 0.000402068755100514 -0.001072731616310732 0.0340964096072587 -0.0024092881138865476 -0.0017066119080735992
0.010085368557480523 -0.04125441889988115 -0.001244061969426952 0.028232573552927857 -0.0010855319540791042 -0.01183262826243323
0.003001628822359013 -0.027103104808313905 0.003907354319493535 -0.027800757515405783 -0.0001893556367783401 -0.009808930570808881
-3.2760694739650674e-05 -1.2865047340339575e-06 0.0026037162277344427 -0.03718796203866863 -0.0006086463846649789 -0.0033139013441784693
-0.0017681016829027547 0.002021738797464642 0.0012726255653781598 -0.036893926658143915 -0.0008713216515203237 -0.0009921551931213063
0.00032044675366470503 -0.00025187874836236825 0.0004257876644557152 -0.036757501532478754 -0.001118253571890459 -0.00019234247580850547
0.0010520938857032426 -0.0005592223036716994 5.849345194486017e-05 -0.03784731635437327 -0.0014665259329288806 -5.9418451691723256e-05
0.0008296290515969301 -0.00038306490206498577 1.1125903933255229e-05 -0.03918521264094508 -0.0017240663262630283 -0.00037781927016121127
0.00028671081812237326 -0.0002789913905001121 0.00017633666638221522 -0.0412193017733359 -0.0018623005247984323 -0.0012669614366484644
-0.0012359973780068007 0.0006935664283284587 0.0004901155963686216 -0.04415460519829994 -0.0020423505986840707 -0.003088590455203561
-0.002090606208060137 0.002558348166033005 0.0009380552417802198 -0.050615325033307325 -0.002559343820855741 -0.006409534915416853
0.00479412051577485 -0.0069876854005623415 0.0017496100661202562 -0.05286364070879682 -0.0027178790423745955 -0.011565063363414297
0.01136137775701387 -0.03997262583830475 0.0029035283006391094 7.335412132043016e-05 -0.00027903296339436355 -0.01577878157723631
0.004681707629818833 -0.006988554747985823 0.0018538464632445143 0.05301729909141111 0.0021350197933070678 -0.011556437125828552
-0.0023218525860903946 0.0025607639908828378 0.001143432761947059 0.05079106129290156 0.0019036916862795205 -0.00638516306920521
-0.0015972634278748367 0.0007080717489967818 0.000787663857842772 0.044371637711589244 0.001271041665124776 -0.0030311018602458897
-0.00021755926638869277 -0.00023745825284229264 0.0005453495299567433 0.04150520126458968 0.0009421192088743172 -0.0011419156762437742
0.00017092295909018382 -0.0002894208749779418 0.0004096632882546082 0.03958222417485994 0.0006356268830271057 -0.00012121850868217546
0.00022244961004320987 -0.00037020553769499446 0.000410327416545627 0.0384230418702961 0.0002082211191415472 0.0004321839763791294
-0.0006254953283055369 9.391288933676825e-05 0.0006059856931342515 0.03763393854280868 -0.00025125397363562357 0.0006930895669608298
-0.0024614497451172406 0.002283201558883819 0.0010830878550481978 0.0382783908024211 -0.00026220997847945914 0.0003925674831634124
-0.0001419083464858975 -0.00028322355626241675 0.0017167992300181193 0.03834309144763963 0.0003697042830378575 -0.0025021397890870956
0.0031990494820595757 -0.025744866538343375 0.0019662586800824576 0.02828851541746078 0.0005872380794900622 -0.012528927329882164
-0.0033231596459170447 -0.014218973490504841 0.006637406063931916 -0.02218103820504604 -0.0016876207659882818 -0.009217607789694212
-0.008837312344742155 0.0007579036792179949 0.005210433269212578 -0.032577816788707886 -0.00301290493378231 -0.0028298935834701437
-0.018286305082444183 0.007319023430375423 0.00472271029643342 -0.0343659203003988 -0.004414843717818457 -0.0008457456742231575
-0.02606012879673134 0.009397850427456193 0.004891649413271461 -0.03269646359919992 -0.00451961402258674 -9.63633175552164e-05
-0.034265983947828586 0.012501460153434714 0.005455183376446115 -0.03311214502500073 -0.004073131475825584 9.171308264255574e-05
-0.04316427901671537 0.01611522180137019 0.006149362546806585 -0.03437025169684802 -0.0031841774784052874 -0.00013018087897846472
-0.05223823466197126 0.01988502172963508 0.006787485965264788 -0.03607650936660741 -0.0020083534127826306 -0.0008464822236905657
-0.0625581236106096 0.024010734394207006 0.007263192575242377 -0.03830308964041741 -0.0009355216981345055 -0.0023160011430807593
-0.07398615026348904 0.03142669884040704 0.007553264348981264 -0.0413845043439 -0.0008175269653312527 -0.004982902362231395
-0.07299944018563306 0.028212339206241256 0.008000479088884061 -0.0549083639848969 -0.0017127151565739368 -0.009710886705730589
-0.06639338762385963 -0.03053616261768886 0.009572614237897516 6.494881921747763e-05 -0.00037640396254064895 -0.014576165418911631
-0.07312616154004749 0.02819985882781678 0.008143654240583952 0.05504439052852719 0.0009309793767770943 -0.009705696097526438
-0.07424457971742228 0.0314046455981902 0.007838108603326462 0.04153996708975311 -4.818926591289176e-05 -0.004966460284539606
-0.06295542741739048 0.02398521440241162 0.007683469444673106 0.038494780134891965 -5.9687268458308216e-05 -0.0022735392714445073
-0.05277739925148345 0.01986603960196931 0.007325225414358983 0.03632853682296079 0.0008577070566351158 -0.0007483646340510424
-0.04383657792459114 0.016118871066544815 0.006763082832109497 0.0347220396704905 0.0018864246100275567 7.896863254185315e-05
-0.035035668857831825 0.012559849073288335 0.006062743343281464 0.03363062414503803 0.002690030917904119 0.0005104506229163962
-0.026794736427255095 0.009518489444067654 0.005349522956569743 0.03348814742378384 0.003213773985870588 0.000679236016809316
-0.018698713074158137 0.007324720134292384 0.004806978537878275 0.035326258189468454 0.003531864142570798 0.0002789500122254002
-0.008804844666320887 0.0005822862433395717 0.004626640528242209 0.03300345245762172 0.0028922685801071064 -0.002229718463110132
-0.0030980592531793362 -0.013262414767043 0.005171264578108112 0.022038501879607576 0.002011055896850099 -0.010975499048769596
-0.008684847715905721 -0.00589260942999337 0.009142398468555187 -0.011984963305242981 -0.0035787194280265605 -0.005574750999351632
-0.016946417282360286 0.0024933201151168083 0.007754429122532032 -0.01864051308347535 -0.005764769283072957 -0.0012310796613314316
-0.034270062102816454 0.01204593351158565 0.008128600787167133 -0.020268221602938275 -0.00812365446777501 -0.00016559468527632923
-0.052052075354029524 0.018720629556044612 0.009308995672102862 -0.01900910429552793 -0.007941083708069948 0.0004378095896748727
-0.06949632022720238 0.025440718733074314 0.010799007619761042 -0.019059463644413174 -0.00662712103773293 0.0007525891735145217
-0.08702200264818916 0.0324428302683325 0.012216801957517329 -0.0198244138895765 -0.004496751180762729 0.0008766100477993094
-0.10479426133169789 0.039697610195314446 0.013302929721881393 -0.020890578601074024 -0.0018664527458604554 0.0007615841153234051
-0.12227694304374817 0.04751983554758063 0.013871445184322541 -0.021804101789950806 0.0006375435208667494 0.00024070135769474786
-0.1442206709384067 0.055257751395632736 0.01390440296540631 -0.024240967708295355 0.001962099113032441 -0.0008720704115453742
-0.15420138380969772 0.07295930577003602 0.0134712132070484 -0.0329307807383184 0.0005383114558712919 -0.0038644199201235633
-0.15078561483990613 -0.02381108135371188 0.01513998702927887 4.0581271279158706e-05 -0.00047778474355695725 -0.009372639251893961
-0.15434436890562372 0.07293565003296408 0.013654658867083454 0.0330156591709234 -0.0015278525157916604 -0.0038688724526556436
-0.14451054980565142 0.055212113258109576 0.014271657571193478 0.024337577387917485 -0.0030497745831281394 -0.0008780606771738298
-0.12271764632189296 0.047455686385189565 0.01441961683138266 0.021922380397081376 -0.001874441680511118 0.00024055072793987485
-0.10538075514106125 0.039620158276568805 0.01401787793906684 0.021044719851940855 0.000457180736578566 0.0007826302188108188
-0.08772340977766288 0.03235993225948124 0.013059223893759901 0.020037386006891318 0.002944713418320417 0.0009494323800797526
-0.07022503633511981 0.02536151032218856 0.011682841648081695 0.019374526077595874 0.005054415499163047 0.0009376411185210616
-0.052633234805494596 0.018629734086450557 0.010074317829786923 0.01946974753936968 0.0066140458743791306 0.0008270543502560035
-0.03450556148299755 0.011880344555827286 0.008525858415234358 0.02073780240094804 0.007424906328534844 0.0004089173384719767
-0.01683993179738088 0.002372689668051239 0.007490705894299628 0.018743868654451466 0.0058057841196421656 -0.0009270293914255419
-0.008452315366534804 -0.005346496473561659 0.008088204752440615 0.011772765000384428 0.003964948786177385 -0.006557401166783822
-0.011561502287669733 -0.003097724329043339 0.011065385832099124 -0.004671834088168755 -0.006895418244136585 -0.0028613068157158196
-0.02345538981290094 0.0035043596804975596 0.010135177864730359 -0.007462693526747668 -0.009501758473303586 -0.00013045748751151624
-0.05009883710355108 0.01434316437060427 0.011508688312367397 -0.007733904207031588 -0.012143283615236979 0.00034729311277847735
-0.0782442528275447 0.023336705628440087 0.013743677999891176 -0.007447987716343285 -0.011342177381249785 0.0008520635615892459
-0.1046019578219199 0.03183848591181518 0.016179709948324728 -0.007552323049639994 -0.00896165218885699 0.0012831605580169323
-0.1306145687768991 0.04054526308576428 0.018315116954524792 -0.00795343146401421 -0.005392779713616642 0.0017070433427095182
-0.15689648233587083 0.04938463466839786 0.01980576638805122 -0.008352586826668137 -0.001052240584676485 0.0020864265485213106
-0.18288720216710347 0.05964729177348745 0.020414921501474777 -0.009239576343844796 0.0032342974616744813 0.002367219878170689
-0.20617165600758805 0.06503194865640918 0.019985169097410452 -0.00977386227194946 0.006014231032530291 0.002237887669443344
-0.23808347961763002 0.09827845126981183 0.01841633406537937 -0.02152616281325849 0.005743773573299638 0.0013846232674127668
-0.2595107191559912 -0.020314623634670136 0.017711336957395296 2.1105577756938857e-05 -0.0005846392953893768 -0.006566466756298664
-0.23824580215651883 0.09824937450093013 0.018641888056499304 0.02157055128272091 -0.006953585410583047 0.001374964270032639
-0.20649966751968266 0.06497486436302041 0.020438950361059697 0.009825032966268686 -0.007341374018657909 0.0022193237419992694
-0.1833829732869804 0.0595643300359153 0.02109837821495993 0.009303070191449929 -0.004740506829682091 0.0023419368062843693
-0.15754971773777426 0.04927884188628729 0.020710402160559548 0.008435706180227253 -0.000661694320466158 0.0020596054925034824
-0.1313776027574089 0.04042003802851452 0.019406944636794765 0.008066523956688656 0.003508205293825293 0.0016906998039750644
-0.10534152040666389 0.0316911598218156 0.017373975535895043 0.007713047414681406 0.007071143588540735 0.0013045229228193758
-0.07871819493586436 0.02314391424263736 0.01486977960609225 0.007671425346637662 0.009822986141912808 0.0009579117774661133
-0.050126824323209467 0.014092052239025725 0.012286145865853845 0.007966594976353249 0.011547812879434552 0.0005314218067486625
-0.02319159810642948 0.0033803317852362986 0.01022299711018076 0.007549838892110331 0.009924193108064597 -4.2948944220002746e-05
-0.01124586177838784 -0.0027443974284745427 0.010339350021808733 0.004607210054862333 0.007753904382769576 -0.003449791356634134
0.047248527947552084 -0.06859004063220989 1.5585406229479126e-18 0.005312834542456532 -1.1686380758501452e-13 -5.579159367569836e-14
0.04832944200281169 -0.0008881262918336643 -0.00410967703389363 -0.015757045565789867 -5.96289104247763e-14 2.100445197546902e-15
0.0583800616531526 -0.019320715713935555 -0.007712027250032293 -0.006125190724964358 -2.3444320215639664e-14 -3.837763982474096e-15
0.07971807982644669 -0.024483258414463645 -0.011127391283608208 -0.007283642410942615 2.8264405247703517e-15 5.444402524298897e-15
0.10474903255193505 -0.033130651411004686 -0.013547692320939716 -0.007788028716641295 8.994549693269217e-15 1.3766372482064415e-14
0.12998371179316784 -0.04168700831542222 -0.014775171622322628 -0.008371935556574962 -5.111477918446489e-15 -8.561809030846468e-15
0.15549442650129866 -0.05085789784624335 -0.014712823117989353 -0.009118209979023788 -2.2726619035035728e-14 2.880481226805176e-15
0.18295063650536605 -0.06094119585226722 -0.01338212424013309 -0.01033314389829223 -1.3539902977022927e-14 2.978937626088585e-14
0.21460933000727886 -0.07291158039353689 -0.011063843728268118 -0.011619343722731922 7.506073941652286e-15 -2.162752941146928e-15
0.24693789754316925 -0.08677281956654358 -0.008568160256349497 -0.009707909346100736 2.38683652378259e-14 2.4261869640065936e-15
0.26209546323825916 -0.09565887558637214 -0.007372751389095292 2.5620003824028078e-05 3.796443343614779e-14 7.849488203523491e-15
0.24681434886273962 -0.086727644572796 -0.008570460602186608 0.00976151604434968 6.275431292234596e-14 -9.985434245955715e-15
0.21434440508649721 -0.07281042824301337 -0.011078001197802698 0.011680520244659468 1.2298290912125115e-13 1.6670760366772897e-14
0.18250364304547717 -0.06075999808182531 -0.01342890790864681 0.010408785131829742 1.348035994896274e-13 8.104302819111897e-15
0.15478949893207058 -0.050554752515919024 -0.014826729928142416 0.009217331365173758 1.1554895368231046e-13 -8.89113544073894e-16
0.1288912556586029 -0.04119128808531367 -0.015005224185383062 0.00850846208465177 3.378301802257726e-14 2.8388343108545766e-15
0.10305913655245186 -0.032344225043778 -0.013956737994228906 0.00797086084525991 -6.422939030680322e-14 1.6983078355084502e-15
0.0771160477767941 -0.02323490968507641 -0.0117813981642885 0.007578570501395625 -9.719346638278892e-14 2.839498384685224e-15
0.05417951156100867 -0.017430004724006014 -0.008773996362656323 0.0066719504774573855 -1.2876773757518334e-13 9.173258398546824e-15
0.03880824871844923 0.0024408706441223517 -0.00590648475986105 0.015036111573767868 -1.1860307115758861e-13 -6.778974083465616e-16
0.03345636335059138 -0.06464545519527036 -0.006026450433534498 0.019140335815006872 -1.0567398735575328e-13 -5.3813778520123146e-14
0.019755918944973992 -0.05966129800182353 -0.0001485899734472966 0.0004171250946798291 -3.597765328385884e-14 -3.3203095221173706e-14
0.0233458693283221 0.00013548453581757735 -0.0021090223559518066 -0.017310524024987395 -3.322621244437017e-14 -1.3902609261300797e-14
0.03662938482248957 -0.014208483698720674 -0.0048663119558424815 -0.016029787356144624 -2.526147354991147e-14 -1.3705237032063389e-14
0.054223664520663614 -0.01993735244454571 -0.007352822935931935 -0.018186334385940865 -1.1144227833842328e-14 1.7101866255607445e-15
0.0705583685783982 -0.026589953929618826 -0.009145431553207689 -0.019541173678636555 -3.9360350509486455e-15 9.676619585913954e-15
0.08738252537887209 -0.03345641093088268 -0.010057845210484612 -0.020623217860921337 -7.023173682159031e-15 -5.557884610440239e-15
0.10439056904955837 -0.04072906173899888 -0.01007627706232649 -0.022252116955644396 -1.5267430061079862e-14 -1.1869221968122123e-14
0.12243630436585569 -0.04853710870367366 -0.009265182403694892 -0.025155078868379668 -1.1972580316477882e-14 1.8691618348595784e-14
0.14253282751191815 -0.057776812252484676 -0.007832675339454266 -0.028906633959376562 -8.686607477163127e-15 -2.4152798901513894e-14
0.16239754773084228 -0.0701689886492372 -0.006261907747778028 -0.02520563918066268 8.381606159449904e-15 -2.2551025716938122e-14
0.1715581701559414 -0.08121079571175563 -0.005469614708532709 4.9591614966839665e-05 2.7265992266181822e-14 -1.755949444008642e-14
0.1622519624583779 -0.07013028006538148 -0.006215937558199679 0.02531109819331659 2.8205004521178467e-14 -3.4734029346304707e-14
0.14222561257872993 -0.05768958649780954 -0.0077475991393409615 0.029032474505972915 6.05635282728426e-14 -1.722943619372752e-14
0.12193237887993771 -0.04837980103782525 -0.00915670109565258 0.02532041896553861 8.391645702160531e-14 1.7661788915060428e-15
0.10362839921719423 -0.04046387065624931 -0.009972234957026246 0.022485030273043258 5.999642362102984e-14 9.660193923000798e-15
0.0862599862369766 -0.03302087141783798 -0.010002179586999976 0.020962546051257632 2.2424631460548836e-14 5.601106330046374e-14
0.06891493861072377 -0.02588661680012903 -0.009199085981154645 0.02003835413924743 -2.1424681961260822e-14 1.977160568513575e-14
0.05179481603604594 -0.018838678402179117 -0.0076082732112500925 0.01895083577446357 -5.832815580899577e-14 2.1115047373326118e-14
0.03303331249986876 -0.01245962257792568 -0.005461046746139452 0.017508234454973966 -7.592086071687813e-14 1.2543626212594208e-14
0.020252166942976966 0.0017915797231732246 -0.0037472966719944638 0.019223747587010995 -5.730920058443726e-14 -5.066571619714855e-15
0.017855358763123337 -0.05613316873201434 -0.004782735693551062 0.014183662532616189 -3.761038044045907e-14 -7.792502537337653e-14
0.010002409336086664 -0.04242142348191048 0.0014250587905650616 -0.023830137498538406 -1.2701430144733579e-14 -2.799288036613168e-15
0.010077253452708037 0.0006256770456640967 8.22331983747256e-05 -0.029945485552738727 -1.4481449554597757e-14 -2.2905973179419142e-14
0.016458832621991337 -0.0050962202577263475 -0.0018032565911687626 -0.029047189653556543 -2.3822619105927064e-14 -2.0645113494189432e-14
0.02740421325918745 -0.01040142128430152 -0.003457237160465294 -0.03208755600362218 -1.7175188868593126e-14 -1.6658847695402712e-14
0.036145836302543644 -0.013629117333408321 -0.004571973409297755 -0.033894444882840435 -1.706222596070889e-14 7.097106105927176e-15
0.044384010836597945 -0.01699994948983339 -0.005084292837563836 -0.035694703011571655 -2.1151904317959994e-14 6.9596021654017015e-15
0.05259116501070866 -0.020526112927407882 -0.005035809240969389 -0.03829390246361003 -1.2244061152336463e-14 -2.428715865573916e-14
0.060762353869515215 -0.02377039342589012 -0.004509360719489922 -0.04271967924003547 -2.3065293300534098e-14 -1.6864412427305964e-14
0.07023495325406268 -0.02756205177083372 -0.00361625108378943 -0.04937005809707299 -2.5104245600176232e-14 -4.144499684850117e-14
0.082823973800577 -0.03833210379339187 -0.0025535261035502833 -0.04550898908313853 3.507008627999606e-15 -3.113637548745468e-14
0.08999929330493886 -0.056934553606687185 -0.0019156533460749517 7.748865085842067e-05 2.9012597920342713e-15 -4.447977359697819e-14
0.08265935428523169 -0.038306662940031905 -0.0024605129053074655 0.045674280514732074 3.340719966827589e-15 -4.856922156126764e-14
0.06989246414240542 -0.027503417244877447 -0.0034350393300323 0.049568951846173506 2.0403087382038672e-14 -3.303606032397516e-14
0.06021480488782957 -0.02366185184314168 -0.004252072188134837 0.042984241191763785 3.105526445945856e-14 6.4784196887254786e-15
0.051794461732600404 -0.020338783844261507 -0.004726762911511607 0.03867220387141742 3.09266086251001e-14 1.4917436047274385e-14
0.043268590482853385 -0.01668425194141124 -0.004766485106627514 0.036257967963248816 1.8146577210993112e-14 8.877383691433677e-14
0.03460612065366509 -0.013104197715203325 -0.004315829064886448 0.034738530052020114 -9.501100806715707e-16 5.3630927823733465e-14
0.02529049344043447 -0.009560551752119275 -0.0033706697984957684 0.033412761120623795 -2.1144409770442688e-14 3.5813833723728067e-14
0.014286718503301557 -0.003974430177906494 -0.0020978030104186664 0.03127690089145882 -3.6675668571735636e-14 1.9700570114047217e-14
0.00899141825434695 0.00037090926415044847 -0.0012630043534472626 0.0332451577340919 -1.9542848132345493e-14 -1.768101995109489e-14
0.009730832750041581 -0.039560992702981766 -0.0020570249249549145 0.027019495832364276 -1.1495350095533548e-14 -1.16081623480202e-13
0.0029761272251965917 -0.02681680714644633 0.003915667472894787 -0.026661254025992332 -3.3157718819156346e-15 2.7344798517528468e-15
0.00021843535528259615 0.00012149538504136633 0.0024890816345120117 -0.03580521160057771 -7.956458300366342e-15 -1.888590060164161e-14
-0.0012544084429602935 0.0018037042052297901 0.001319155431952153 -0.036236303772291735 -2.317383040832937e-14 -2.4777583955935822e-14
0.0007701846271039032 -0.0004883583604926355 0.0004695667235232936 -0.03691927327950671 -2.533064734258194e-14 -1.7385832357108555e-14
0.0014326636016231027 -0.0007245732557611116 3.161300320631085e-05 -0.03866834006263807 -2.6521567196092014e-14 5.661534338129853e-15
0.0011724053492960084 -0.0005134256357943378 -4.524139074705694e-05 -0.04071595774979086 -3.208888944763056e-14 1.2635292118146069e-14
0.000577923551618864 -0.00037748488383804803 0.00013344990738242132 -0.0436685138659948 -2.4741872199846634e-14 -1.757456485028397e-14
-0.0010279276844565094 0.0006544695424116127 0.00047789050243443175 -0.04765920054462748 -3.201743205413429e-14 -3.272746928063147e-14
-0.0019341833126441984 0.0025824862572428964 0.000971300026393715 -0.054798211929958915 -3.3679392011810166e-14 -6.644554698120864e-14
0.005305669412069988 -0.006963443020355149 0.0016764641840529948 -0.056585174389676 -1.5009031649091623e-14 -5.0943068665397495e-14
0.012212409238631853 -0.04065290420132879 0.002249537189756813 8.692357849412755e-05 -1.7311994801030503e-14 -3.66913666333471e-14
0.005123019623101041 -0.006951722568943513 0.0018163779073397481 0.056770701923712995 -1.8903732339247206e-14 -6.010068744760622e-14
-0.0023095500084542525 0.0026116020905927444 0.0012481176986101669 0.055021790708687145 -1.1095456576711932e-14 -5.900995295703149e-14
-0.0016144884131344853 0.0007128935430903077 0.0008824242498165895 0.047956961512919914 -1.724836568603276e-14 1.3238569311971315e-14
-0.00024481036008781046 -0.0002697195473620124 0.0006438177572190199 0.0440955556010118 -2.786531720427518e-15 1.8144231776762165e-14
8.207390163505286e-05 -0.00032070504699988436 0.0005262025807152291 0.041357085647154346 9.415818141454355e-15 9.909508923069271e-14
2.819255564141232e-05 -0.0003849367312058286 0.0005828878713734422 0.03965302001938269 1.605887901226944e-14 6.15600235717717e-14
-0.0008682360239777055 7.076001519077253e-05 0.0008634913271907991 0.03843987048117336 6.550976530987282e-15 5.716178127623123e-14
-0.002522940887181301 0.0021861047089547624 0.0012909952050355457 0.03849453494474098 2.2417675625985983e-15 1.885882942864736e-14
-0.00013467402397883082 -0.0003131005308201754 0.001488589526318524 0.03750734377098659 8.19363260779523e-15 -2.547576949743502e-14
0.0031062051483107585 -0.024576714270043175 0.0012897851269674898 0.027308920115641323 1.1073678459665517e-14 -1.2274881631968437e-13
-0.0031569531853916865 -0.01404756418804238 0.006665210558625412 -0.021606517287436067 1.8934659206217355e-15 -1.1500674544639988e-16
-0.008450322271705562 0.0008733640403233257 0.0049581273269276175 -0.031595497255370815 -6.660504667330841e-15 -1.3841419601191146e-14
-0.017600192045155266 0.007147010541829653 0.004435698398133226 -0.03372744812292164 -2.3102684722957692e-14 -2.203098814490545e-14
-0.025228773107947505 0.009139422475942778 0.004384822077222456 -0.03274513603239369 -2.947906404659334e-14 -6.175988268974225e-15
-0.03330795436879486 0.012287119781526804 0.004621357783918754 -0.03379437635548519 -3.2289461767342695e-14 -1.0268953114060675e-15
-0.042139689691623246 0.01598176631077629 0.004983503506247659 -0.0357035450307144 -4.7325897473376836e-14 1.2435588854237817e-14
-0.0512927167993742 0.019896414193505553 0.005296810767293162 -0.03822447628577925 -4.1594398319682896e-14 -8.607724992851229e-15
-0.06193793711930639 0.024251455882995633 0.005458480404461194 -0.041367922375096074 -3.895193324517706e-14 -2.6860864877839563e-14
-0.07395963695162061 0.032017061774090354 0.0055292167873142025 -0.044895111315509245 -3.8782806176598794e-14 -8.129042957435301e-14
-0.07301872900087039 0.02906713441003956 0.005814241477293957 -0.0584021716229278 -3.309076891148889e-14 -4.194139881317366e-14
-0.06612286703516615 -0.030763275028757406 0.006265179271969143 7.806904855287079e-05 -3.427484135065336e-14 -4.246050126083256e-14
-0.07322039863767213 0.02906514949309781 0.006001980420312003 0.05856869273703252 -3.628491617954123e-14 -4.339958297253088e-14
-0.07437003997495827 0.03201673079867651 0.00590360500481715 0.045095360774480356 -4.773587666644097e-14 -5.913118031244252e-14
-0.06256741641291305 0.024260065215005202 0.006013530149906052 0.04163367229010531 -4.515624883700631e-14 1.3556213443455256e-14
-0.0521468879342321 0.019925393450360308 0.0060134512389398995 0.03860408979692973 -3.686037765841159e-14 2.3787104284998112e-14
-0.04321104742941708 0.016049997015400896 0.005815984021146414 0.03627624856427458 -1.977295077345599e-15 9.280383671825612e-14
-0.0345532134989908 0.012433925070616043 0.005477413531858419 0.03468449709985641 3.061692406222151e-14 5.980510683033236e-14
-0.026451004952151646 0.00935761693531071 0.0050961093338503256 0.03410916969108523 3.347915003494746e-14 5.329877571192895e-14
-0.018345088858605026 0.0071440157604209355 0.0047034850015984135 0.035318336413584776 3.932251862993029e-14 1.9095700498281132e-14
-0.008511391033652328 0.0005745479456926014 0.0043198705534798895 0.03224793742900042 3.445257723859105e-14 -2.009339688992945e-14
-0.002919271195332548 -0.012550323298841062 0.004713429285405477 0.021387223335657166 2.784449374629988e-14 -1.08537148452853e-13
-0.008262214106269372 -0.005702524052172984 0.009093223452957376 -0.011824287473522745 1.747723737651266e-15 -2.731389875561263e-15
-0.01632616008036306 0.0026958313710893126 0.007246457606752082 -0.01805926127402217 -6.1736978918848495e-15 -7.617130125432692e-15
-0.03331691267543541 0.011977008160911047 0.007477236698978823 -0.019820505875030828 -2.2825254327677597e-14 -1.2617822910641896e-14
-0.050793017780015506 0.018571832479374623 0.008245099210978369 -0.01897653430598426 -3.8131681785649046e-14 -9.922489533579354e-15
-0.06792192932824376 0.02536204332174197 0.00915316779113469 -0.019440768212417373 -4.833538625771683e-14 8.396854446566376e-15
-0.08525759386298255 0.032543553685135375 0.009926931187887192 -0.020625112711147153 -4.690866683125126e-14 -7.726681978698774e-15
-0.10312143122537629 0.040117103002520124 0.010318550042058578 -0.022198021688207243 -3.84787213485345e-14 3.493617884136463e-15
-0.12113121230596115 0.048443814599323516 0.010199330301667616 -0.02362535930905318 -4.865068580200277e-14 2.4133933783712647e-15
-0.14431655750034786 0.05682320592099733 0.009679053186353918 -0.026262228272028867 -4.310077346566209e-14 -3.8601575007204264e-14
-0.15497511729827626 0.07546058684238759 0.009300154588602729 -0.03495335597681688 -4.2735757322537055e-14 -7.819164424011787e-15
-0.15140586371365658 -0.023664041667880966 0.009377162918557672 5.0605269873381286e-05 -4.6494126365766164e-14 -2.3922690542931002e-14
-0.15519878904327875 0.07544536103648332 0.009537717725283914 0.03506096284717959 -6.073935367796775e-14 -1.2471977389651862e-14
-0.14476869293723943 0.05679442658887458 0.010155492886973701 0.0263904999820833 -8.580749026360253e-14 -2.1060938908655513e-14
-0.12181563357158441 0.0484044144073783 0.010912955173999693 0.023793307901309818 -8.220088496056592e-14 1.8893503569376163e-14
-0.104027892445646 0.04007006505475814 0.011255144216623943 0.02243437080800091 -7.037117665591674e-14 1.7137001182259554e-14
-0.08633737818348225 0.03249161434348544 0.011043206089670035 0.020976354485051824 -2.2241343695158372e-14 5.1633414069936906e-14
-0.06904236452328813 0.025302958912101485 0.010350368141842523 0.01998447807692537 3.687969593883962e-14 3.392711187943237e-14
-0.05169023774606777 0.018459132456499012 0.00932981065228494 0.01977159036421729 6.607830737659706e-14 2.405269993593917e-14
-0.03369218887182966 0.011697288473703304 0.008117130911281497 0.02060609127186013 8.539654037078084e-14 1.0029273283173809e-14
-0.016194003239678123 0.002458322898709775 0.006997461845375971 0.018218302690309603 6.833407131161609e-14 -8.448177866906409e-15
-0.0079484056749838 -0.004887186494390767 0.00769248964767516 0.01151314004603982 4.843345234421814e-14 -6.900049650572504e-14
-0.010889634184416417 -0.0028332424287701922 0.010453833114555642 -0.004692046015367113 2.508003570447781e-15 -4.3818572902087904e-15
-0.02257425333490179 0.0037956667037553305 0.009125645550598761 -0.0071329823370302305 -4.969332237370061e-15 -2.1318396267039352e-15
-0.048789987850688186 0.014363592480569282 0.010319851661534383 -0.007480424484689164 -1.9345419363658856e-14 -1.1007579396593581e-14
-0.07644301432093496 0.023299499379853688 0.01194159121206836 -0.0073927455690956205 -4.9031850628267204e-14 -6.725848177013827e-16
-0.10229537882763165 0.03190967878749181 0.013492873417543983 -0.007709100295963017 -7.263154379148762e-14 5.219349258345218e-15
-0.127976643162765 0.040870808910453194 0.014594496340866795 -0.00832184558282019 -4.396611248897245e-14 -1.930031655328346e-14
-0.1543169045636188 0.05013840807341445 0.014921730425776485 -0.008955080543900804 -2.6763340892424492e-14 2.5615956838337395e-14
-0.1810946186293934 0.061101421814179165 0.01429735745462707 -0.010033108803603776 -4.054108394477285e-14 4.317293050837279e-15
-0.20615142687797813 0.0672593202385348 0.0128705805637606 -0.010570303114128595 -4.265001980058303e-14 2.2166947097335132e-14
-0.23993015771824328 0.1019590686788387 0.011385351897609907 -0.022654262391634754 -6.67786071123326e-14 2.018377869353327e-15
-0.26210268025805306 -0.02000095030466943 0.01069045626980974 2.9238818521629497e-05 -6.32121986048409e-14 -1.793264972280162e-14
-0.24018085198453581 0.10193738827098092 0.011675874125156638 0.022716452576398007 -7.388444782201187e-14 2.5415867327405195e-15
-0.20665651140281452 0.06721668549873076 0.013456189051268424 0.010644252216060161 -1.2987302747992369e-13 1.5229083185491765e-14
-0.18185428386606306 0.06103858516338509 0.015182611591676397 0.010129000777597595 -1.5036901574155132e-13 1.3933515799480212e-14
-0.15531060827636856 0.05005448300601509 0.01610091890886777 0.009086935940794984 -1.252949329846268e-13 2.4674598302076856e-14
-0.1291239050080396 0.04075987369462957 0.016033171778271592 0.008509461149412482 -5.621138320435759e-14 4.163282132235713e-15
-0.10338124149907739 0.03174758109448585 0.015096485589937654 0.007982165397173346 4.953546253738672e-14 1.036697854298052e-14
-0.07708782890784276 0.02302320745771488 0.013504214859728924 0.007769041325307215 1.1344923481551583e-13 2.481196671733077e-15
-0.048734777568403984 0.01393837476844191 0.011465859368755223 0.007860234737896913 1.4736069352608294e-13 4.5242943506190736e-15
-0.02210984855996445 0.0035418191183171992 0.009333348169074855 0.007268409928782144 1.1747154356027412e-13 2.646293557548307e-15
-0.010382142551683494 -0.0023260517939805024 0.00946405184706835 0.004621200395101966 8.37481126114703e-14 -4.245844127670484e-14
0.044540658588613266 -0.07093481620481429 1.2468324983583301e-18 -0.0023340441642431533 -0.00856182715406246 -0.0007429498672972029
0.04683986984447356 0.0004329141573672289 -0.004755760005352701 -0.016059747390201273 -0.01167294028909845 0.0008907756934160788
0.058623814941268 -0.018951757536499157 -0.00908326579330491 -0.006354473167446834 -0.010985926051922694 -0.0008604493424883238
0.08079192502791659 -0.024060936360625472 -0.01310525163228106 -0.0072612085011241985 -0.00918340085689524 -0.0009928690791484176
0.1063532998006981 -0.03270687464428376 -0.016209144890253182 -0.007608872153386454 -0.005905234241778525 -0.0013701351900293735
0.13193615678208642 -0.0410854380111398 -0.01838791169212913 -0.007989271062893367 -0.0017997557341139906 -0.0017603314283367877
0.1574541450865875 -0.04989621923996968 -0.01949209066192043 -0.008502394169889776 0.0028404473705600525 -0.002125837035421675
0.18417543365922107 -0.05935240251760195 -0.019419561174815556 -0.009478963744324376 0.007273296949861314 -0.002290260663114128
0.21410123183461727 -0.0704268742956485 -0.01821818628941534 -0.010641900804546698 0.00975110913870966 -0.0019293846244920593
0.2441955181477139 -0.08336299921720393 -0.016400322304865787 -0.008939661207888956 0.0075685664298241855 -0.0008355959043208783
0.2582555131878684 -0.09176850741226239 -0.01534879051878102 2.0683427747838958e-05 -9.775699358619688e-06 9.175591062705261e-05
0.24412637647161942 -0.0833356844340568 -0.01641112861046033 0.008982290863651944 -0.007576874346505372 -0.0008237325418090518
0.21395238339754605 -0.07036512825470331 -0.01824759790482277 0.010688438456307878 -0.009724446915810956 -0.0019057996189850888
0.18392388248813835 -0.05924063305950769 -0.01948479476185804 0.00953268381809057 -0.007182488400452036 -0.002256150835905361
0.15705952097584047 -0.04970759481492903 -0.01962298950523983 0.008566888193392887 -0.0026400041241443233 -0.0020847326153205785
0.13133444998288726 -0.04077643643527508 -0.018629655975299624 0.008071833533155453 0.00219191478898446 -0.0017248375044997064
0.10543772740522975 -0.03221225572606745 -0.01663019857967233 0.007705089092764874 0.006645528234571904 -0.001349407896180322
0.07941428021423214 -0.023287394226168837 -0.013778043871162817 0.007437519612940799 0.01044976665177137 -0.0010783430670882098
0.05612469870212123 -0.01767541213754861 -0.01020503111286083 0.006606151081705387 0.012940074481505304 -0.0007904781281457301
0.040354866599217075 0.002549710190818175 -0.006049798192741245 0.01569425271252355 0.011779069051200243 -0.0006362431950472066
0.03492018918284469 -0.06743088862053592 -0.0053103114178752395 0.020157563177648594 0.01041220023106393 0.006218573699853234
0.019665652229233197 -0.06114061216718365 -0.0007009646090275835 -0.003981335527608158 -0.004532971750548341 0.00221890286886018
0.02282793938568788 0.0007995936097565232 -0.002180447363609782 -0.01822612429459922 -0.005495075815494841 0.001866657291744082
0.0362847426906704 -0.013814972670140702 -0.005670814390066386 -0.016435125493229258 -0.00687871261034078 -0.00020650733699684453
0.05470324751584881 -0.019655230346961757 -0.008533023083115402 -0.018113938064651863 -0.005751039745237211 -0.0005218157802637601
0.07141302770286875 -0.02631959445294129 -0.01075210275657643 -0.01914756885156381 -0.0036430386240091242 -0.0007623284167115931
0.08846349857099868 -0.0330856797648818 -0.0122357443521711 -0.019828836156457242 -0.0009739727897382484 -0.0008810758042078513
0.1054552519445405 -0.040108218813048886 -0.012962023085607729 -0.02094155008803233 0.0019397219508377474 -0.0007680652731878969
0.12303784957130871 -0.047473592248466256 -0.0129016765619953 -0.0232447085634428 0.004629885688621718 -0.00013821768370572566
0.14211883148824658 -0.056078349859096994 -0.012122598458867982 -0.02660322965815625 0.006093880147365108 0.001464427279407181
0.1607183661460489 -0.06781711525295524 -0.010917814682322023 -0.02331409374414111 0.004752619275829745 0.00414558431457586
0.16927182071132063 -0.07839523100169546 -0.010147649924828295 4.011569887885463e-05 8.777050463886885e-05 0.006059299488279099
0.16063355176187077 -0.0677952214493247 -0.010889949651519784 0.023397997912544415 -0.004560463797031784 0.0041484011637760495
0.14193974125784548 -0.05602801008873051 -0.012072946057459058 0.02669877800703867 -0.005851212127319532 0.0014671335399536144
0.12274471046829277 -0.047380531520937026 -0.012844358282081745 0.023361993056964382 -0.004299568706215058 -0.0001431979652934847
0.10501599874051125 -0.03994792660231162 -0.012922789719150809 0.021094468718575676 -0.0014753240116275716 -0.0007968125054784929
0.0878278604447742 -0.03281809067997345 -0.01225793867442436 0.020037127535071857 0.0016431929218829239 -0.0009648051208094894
0.07050939233447112 -0.025883222418956388 -0.010899683519502818 0.01943361642450507 0.004622806239655631 -0.0009508192212632359
0.053367856960936405 -0.01896770372942287 -0.00891177290483967 0.01855806624651144 0.007198299177095119 -0.0009000356140689629
0.03412892227855637 -0.012640561572441008 -0.006376454388935371 0.017292536519061923 0.008555522330514362 -0.0007955054832083418
0.020920281431333922 0.0018599098746711908 -0.0035896040671526924 0.019813208926801256 0.006150864734167196 0.00023065372449291297
0.018549213986906933 -0.05851311367947322 -0.004018928080746014 0.014972216540940393 0.004022235512209381 0.008043941251838448
0.010113699942611458 -0.042901082648074566 0.0012620041437796704 -0.02580358283602377 -0.0015903358176410033 0.007649968272559419
0.009818541793460369 0.0005650866220048113 9.845093976633545e-05 -0.031723920578053906 -0.0020007257813358173 0.0028214068148357738
0.016032795701555053 -0.004762027208503783 -0.002194395525575552 -0.029572107292812667 -0.002799172385805517 0.0007190203139646426
0.027358670537203564 -0.010222214600640349 -0.004059546337477113 -0.03195393691591088 -0.002310812914946124 1.0294789662914532e-05
0.03635968415918264 -0.013505363810735086 -0.005355109779940439 -0.03319275332550538 -0.0011241972541785818 -8.768659060984308e-05
0.044723501696726425 -0.01687104873731642 -0.006137163907657829 -0.03436993564311993 0.0002823846972835873 0.00012832614683383183
0.05294382822760859 -0.02031882945206929 -0.0064382215715724535 -0.03613774571931383 0.001740842142109096 0.0008364400404196691
0.06093127261038314 -0.02341836929466105 -0.0062859158088608225 -0.03957840106521448 0.0030989968004394445 0.002414424137135168
0.06995320866085955 -0.02699148631834242 -0.005715567213825932 -0.04555558579400057 0.004029092608516248 0.0054278306326360415
0.08181324035237146 -0.03751556011608299 -0.004752899921204496 -0.04227070654413758 0.0034599403987945402 0.00995146843404504
0.08857351519089408 -0.05560121005244675 -0.0039029733765439728 6.47288704371862e-05 0.00018353919769983137 0.013221234448950119
0.08171439183950625 -0.03750483002567066 -0.004686885467996385 0.04240628218103557 -0.003071953832049405 0.00994551005578097
0.06974751024919491 -0.02696464649213133 -0.005588109056944138 0.045710614974250455 -0.0035787109481120734 0.005409813302922957
0.060603178329322646 -0.023363836277431858 -0.006108467304047008 0.03976989158626207 -0.002545420924397694 0.0023693755088682175
0.05247029952718882 -0.020216889716314128 -0.006233922353835718 0.03638991593607387 -0.0010425725682388974 0.0007340812693967839
0.044072980896818284 -0.016688251158640886 -0.005947848221768636 0.03471766743814179 0.0006070416178683211 -8.583182863294365e-05
0.03548589303908387 -0.013191218755663425 -0.005251504293647952 0.03368640753181028 0.0022667645080530854 -0.0005064751663078604
0.026162549740546402 -0.009690806205862264 -0.0041499348465569115 0.03270818126193229 0.0037476378275740226 -0.0007155528186094032
0.014796747075382683 -0.004010055642796347 -0.002638611898656827 0.03093343341466686 0.004235256072223518 -0.000582382035048872
0.009264688284647452 0.0004020687550886906 -0.0010727316163100119 0.03409640960716241 0.002409288113849852 0.0017066119080503981
0.010085368557460122 -0.04125441889979779 -0.001244061969422588 0.02823257355287434 0.0010855319540564283 0.011832628262200013
0.003001628822369943 -0.0271031048083507 0.003907354319492339 -0.02780075751541189 0.0001893556367711023 0.00980893057081583
-3.2760694731606246e-05 -1.2865046927541828e-06 0.0026037162277273047 -0.037187962038688106 0.0006086463846402227 0.003313901344141653
-0.0017681016828853268 0.0020217387975005768 0.0012726255653674543 -0.03689392665813807 0.0008713216514738922 0.0009921551930950285
0.00032044675369148065 -0.00025187874832957287 0.0004257876644454918 -0.03675750153242971 0.001118253571834704 0.0001923424758023324
0.0010520938857256144 -0.0005592223037043671 5.8493451934422804e-05 -0.037847316354337225 0.0014665259328730384 5.941845167574136e-05
0.0008296290516232962 -0.00038306490202761755 1.1125903925608524e-05 -0.039185212641032266 0.0017240663262160802 0.00037781927012591116
0.0002867108181457173 -0.0002789913905087636 0.00017633666638035923 -0.041219301773433685 0.0018623005247615997 0.00126696143665261
-0.0012359973779822425 0.0006935664283357998 0.0004901155963636957 -0.04415460519842393 0.0020423505986334346 0.0030885904552553542
-0.0020906062080215393 0.0025583481658900675 0.0009380552417884554 -0.050615325033342456 0.0025593438208190177 0.006409534915460923
0.004794120515812988 -0.0069876854006522245 0.001749610066128051 -0.052863640708739855 0.002717879042343359 0.011565063363362356
0.011361377757036746 -0.039972625838252486 0.002903528300631915 7.335412128463539e-05 0.0002790329633833382 0.01577878157713358
0.0046817076298469 -0.006988554748092743 0.0018538464632514445 0.053017299091351035 -0.002135019793298248 0.011556437125784687
-0.0023218525860635433 0.002560763990861688 0.0011434327619517536 0.05079106129303227 -0.0019036916863046 0.006385163069208382
-0.0015972634278570643 0.0007080717488982862 0.0007876638578561046 0.04437163771174039 -0.0012710416651558027 0.003031101860264443
-0.000217559266359049 -0.00023745825294898567 0.0005453495299680022 0.041505201264745405 -0.0009421192088952836 0.0011419156762983182
0.00017092295911867757 -0.00028942087502275394 0.0004096632882608856 0.039582224174931825 -0.000635626883037917 0.00012121850876348915
0.00022244961004514908 -0.00037020553770456834 0.0004103274165455892 0.03842304187018989 -0.00020822111915415423 -0.00043218397629108714
-0.0006254953283187054 9.3912889435186e-05 0.0006059856931299395 0.03763393854271514 0.00025125397362424053 -0.0006930895668871762
-0.002461449745117034 0.0022832015588470987 0.0010830878550478127 0.038278390802325875 0.0002622099784857335 -0.00039256748312401266
-0.0001419083464784248 -0.00028322355627773924 0.001716799230017715 0.03834309144755661 -0.0003697042830204178 0.0025021397890535252
0.003199049482067198 -0.025744866538290872 0.0019662586800848003 0.02828851541741715 -0.0005872380794779268 0.012528927329637157
-0.00332315964592428 -0.014218973490535379 0.006637406063934792 -0.02218103820505681 0.0016876207659863598 0.009217607789708492
-0.008837312344748825 0.000757903679266485 0.005210433269208269 -0.032577816788734615 0.0030129049337615007 0.0028298935834453975
-0.018286305082437677 0.0073190234304152686 0.004722710296427101 -0.03436592030040287 0.0044148437177733025 0.0008457456741970894
-0.026060128796711428 0.009397850427443823 0.0048916494132652845 -0.032696463599184156 0.004519614022523861 9.636331754493803e-05
-0.03426598394782076 0.012501460153466313 0.005455183376435177 -0.033112145024948886 0.004073131475742578 -9.171308265681032e-05
-0.0431642790166965 0.016115221801449517 0.006149362546793253 -0.034370251696897766 0.0031841774783335636 0.00013018087894850545
-0.05223823466193257 0.019885021729575243 0.006787485965255471 -0.036076509366716324 0.0020083534127108976 0.0008464822236912142
-0.06255812361057292 0.024010734394221887 0.007263192575232271 -0.038303089640493664 0.0009355216980652213 0.0023160011431291173
-0.07398615026346246 0.03142669884037101 0.007553264348978363 -0.04138450434391781 0.0008175269652828908 0.004982902362301923
-0.0729994401856131 0.028212339206239216 0.00800047908888102 -0.054908363984844 0.0017127151565059333 0.009710886705676896
-0.06639338762383054 -0.03053616261782721 0.009572614237886037 6.494881919964668e-05 0.0003764039624851951 0.014576165418812067
-0.07312616154004 0.028199858827809416 0.008143654240580287 0.05504439052851316 -0.0009309793768105931 0.009705696097484123
-0.07424457971741619 0.03140464559811971 0.00783810860332581 0.041539967089889454 4.818926583145997e-05 0.004966460284567827
-0.06295542741736242 0.023985214402349273 0.007683469444678072 0.03849478013504534 5.968726837474227e-05 0.002273539271452149
-0.0527773992514335 0.019866039601895057 0.007325225414363559 0.0363285368231263 -0.0008577070566887154 0.0007483646341010883
-0.043836577924520684 0.016118871066398612 0.006763082832119703 0.03472203967056387 -0.001886424610052063 -7.896863247876407e-05
-0.03503566885779032 0.01255984907333269 0.006062743343282473 0.03363062414492339 -0.0026900309178998663 -0.0005104506228362489
-0.026794736427232582 0.009518489444081525 0.005349522956565778 0.03348814742368652 -0.003213773985824427 -0.000679236016748075
-0.018698713074134357 0.007324720134281894 0.004806978537875217 0.03532625818936149 -0.0035318641424860234 -0.00027895001219476183
-0.008804844666305893 0.0005822862433085888 0.004626640528239221 0.03300345245755881 -0.0028922685800409228 0.002229718463085388
-0.0030980592531675848 -0.01326241476701301 0.005171264578108563 0.022038501879568954 -0.002011055896808968 0.010975499048550984
-0.008684847715912755 -0.005892609430013627 0.009142398468562705 -0.011984963305256622 0.003578719428027321 0.00557475099936402
-0.016946417282370434 0.0024933201151580617 0.007754429122532184 -0.01864051308350316 0.005764769283058504 0.00123107966131747
-0.034270062102824426 0.012045933511591271 0.008128600787165033 -0.02026822160295885 0.008123654467723168 0.00016559468526236093
-0.05205207535401939 0.018720629556033073 0.009308995672098589 -0.01900910429550384 0.007941083708000389 -0.0004378095896802066
-0.06949632022718338 0.02544071873313742 0.010799007619754792 -0.019059463644367253 0.0066271210376394295 -0.0007525891735224914
-0.08702200264816282 0.03244283026832785 0.012216801957506938 -0.01982441388962773 0.004496751180658889 -0.0008766100478002855
-0.10479426133165358 0.03969761019535619 0.013302929721860462 -0.02089057860111843 0.0018664527457382782 -0.0007615841153227824
-0.12227694304371069 0.047519835547621486 0.01387144518429548 -0.021804101789999697 -0.0006375435209647929 -0.00024070135767111057
-0.14422067093840085 0.05525775139566424 0.013904402965389088 -0.024240967708312834 -0.0019620991130848498 0.000872070411585267
-0.15420138380968593 0.07295930577005585 0.013471213207032196 -0.03293078073829531 -0.0005383114559659554 0.003864419920087818
-0.15078561483988867 -0.023811081353863502 0.015139987029258417 4.0581271265146505e-05 0.00047778474346710795 0.009372639251824131
-0.154344368905637 0.0729356500330184 0.013654658867065062 0.033015659170879244 0.00152785251570242 0.0038688724526312135
-0.1445105498056561 0.05521211325799777 0.014271657571177857 0.024337577388022665 0.0030497745829848387 0.0008780606771886612
-0.12271764632187075 0.04745568638507871 0.014419616831374793 0.021922380397162728 0.0018744416803735823 -0.00024055072794081184
-0.10538075514099352 0.03962015827655434 0.014017877939063552 0.021044719852036865 -0.0004571807366805244 -0.0007826302187716344
-0.08772340977754928 0.03235993225928039 0.01305922389376989 0.020037386006944935 -0.0029447134183618975 -0.0009494323800345858
-0.07022503633502472 0.025361510322181598 0.011682841648085751 0.01937452607752629 -0.005054415499129803 -0.0009376411184673346
-0.05263323480542677 0.01862973408642695 0.01007431782978454 0.019469747539320018 -0.006614045874269578 -0.0008270543502115826
-0.03450556148295215 0.011880344555812406 0.008525858415229848 0.02073780240087233 -0.007424906328375616 -0.00040891733845160286
-0.016839931797361388 0.002372689668042947 0.0074907058942916575 0.018743868654416556 -0.005805784119515277 0.0009270293914103993
-0.008452315366521329 -0.005346496473552992 0.008088204752438027 0.01177276500037327 -0.0039649487860913 0.006557401166644898
-0.011561502287680391 -0.003097724329061765 0.011065385832110435 -0.004671834088162837 0.006895418244144045 0.002861306815721559
-0.023455389812908647 0.003504359680533824 0.010135177864735704 -0.007462693526784454 0.009501758473301506 0.00013045748750441498
-0.05009883710356919 0.014343164370578507 0.01150868831236828 -0.007733904207036854 0.012143283615186904 -0.0003472931127830572
-0.0782442528275587 0.023336705628502024 0.01374367799988918 -0.007447987716314554 0.011342177381157812 -0.0008520635615951656
-0.10460195782189215 0.031838485911804874 0.01617970994832594 -0.007552323049642702 0.0089616521887674 -0.0012831605580163551
-0.13061456877684555 0.04054526308571052 0.018315116954520434 -0.007953431464035697 0.0053927797134739365 -0.0017070433426765105
-0.15689648233582093 0.04938463466855485 0.019805766388014 -0.008352586826684277 0.0010522405844938815 -0.0020864265485385463
-0.18288720216707147 0.05964729177346239 0.020414921501421195 -0.009239576343912865 -0.0032342974617958044 -0.002367219878144954
-0.206171656007604 0.06503194865650595 0.019985169097355905 -0.009773862271959283 -0.006014231032589559 -0.0022378876694337706
-0.2380834796176377 0.09827845126978832 0.01841633406533973 -0.02152616281329179 -0.005743773573358118 -0.0013846232674282906
-0.25951071915597534 -0.020314623634812477 0.01771133695736661 2.1105577738572256e-05 0.0005846392952605626 0.0065664667562224666
-0.23824580215655708 0.09824937450098138 0.018641888056461574 0.021570551282714723 0.006953585410370335 -0.0013749642700636028
-0.20649966751973617 0.06497486436298452 0.020438950361008016 0.009825032966300001 0.00734137401844819 -0.002219323742023767
-0.18338297328696165 0.05956433003575283 0.021098378214932025 0.009303070191475754 0.00474050682949834 -0.0023419368062981773
-0.15754971773766788 0.04927884188635465 0.02071040216054539 0.008435706180291904 0.0006616943203071022 -0.0020596054924883374
-0.1313776027572355 0.04042003802832804 0.019406944636814666 0.008066523956694832 -0.0035082052938864286 -0.0016906998039335633
-0.105341520406486 0.031691159821770225 0.017373975535910576 0.007713047414659294 -0.007071143588477462 -0.001304522922798718
-0.07871819493574803 0.02314391424260886 0.014869779606099021 0.007671425346639626 -0.009822986141733598 -0.0009579117774361119
-0.05012682432315604 0.014092052239014528 0.012286145865848402 0.007966594976311234 -0.011547812879193908 -0.0005314218067408904
-0.023191598106416154 0.0033803317852600543 0.010222997110167192 0.007549838892089771 -0.009924193107846268 4.294894420774694e-05
-0.011245861778384865 -0.002744397428476566 0.010339350021800624 0.004607210054838203 -0.007753904382591475 0.0034497913565505905
0.03208361723834798 -0.0820274817073888 -2.927345865710862e-18 -0.03714328206134919 -0.01981566668908644 -0.007009646090331582
0.040671510665923484 0.004105667781903698 -0.0050900660480121766 -0.016604551145795402 -0.02138141210712672 0.0021970430588301657
0.05949463560234036 -0.018214797421149852 -0.011528462587888443 -0.005933851038039737 -0.0200551398092163 -0.0005489220013792589
0.08298962979768698 -0.022798161120368744 -0.0164005010832164 -0.006449907508794671 -0.017820827855483758 0.00037544729087811554
0.10999591849814737 -0.031332518082300864 -0.02115251795099525 -0.00640574543639658 -0.01360150676695754 3.853008574604088e-05
0.13726458554951013 -0.03930010110119554 -0.025468270523285073 -0.006569428455820467 -0.008135446767506715 -2.6210564854407966e-05
0.16394933186120708 -0.04737822436627469 -0.029191212486935045 -0.0067214714275089784 -0.0012649229859734998 -0.00012299695434728487
0.1899239843696951 -0.05539276225237266 -0.03204834188753167 -0.007079279261608555 0.006323820235061652 -9.74659856190101e-06
0.21513308380795 -0.063604858025966 -0.033715699353563645 -0.007438387724963363 0.012228489231289321 0.0007981844077980663
0.23705468331803667 -0.07201424576881006 -0.03408852217702329 -0.005989344182746113 0.01117351133765749 0.0030660613106343938
0.24659355135149086 -0.07725405685717925 -0.03389429637901383 2.0161228043694048e-05 -0.00010578215328932634 0.005441217398124258
0.237113963864501 -0.072028847739522 -0.03411892565883655 0.006029352146377352 -0.011373177375744746 0.003080018453756669
0.2152603977727886 -0.06363504042477702 -0.033782797142699675 0.007476918162956661 -0.01239068434649515 0.0008256052190697861
0.19014021867546227 -0.05544102173884236 -0.03216623247576822 0.007113269318561333 -0.006416849066589952 2.847840748931312e-05
0.1642962402463942 -0.04744997827747189 -0.02938479596564182 0.006745248068733319 0.0012899537900907668 -7.752145050027434e-05
0.13781913926662553 -0.03940721129821765 -0.02578067239984037 0.0065707315378299635 0.008352791491440388 2.402159385317995e-06
0.11090372876309829 -0.031498460874573385 -0.021648178248988754 0.006380496918600164 0.01417726163175107 7.873858727411092e-05
0.08447645796291785 -0.02306379664778565 -0.017211720241231025 0.006326299366048354 0.01881279942500086 0.0001456157229287263
0.06223360445573111 -0.01873763125482477 -0.012677029477180319 0.005704488391572225 0.02264600431853158 0.00010839253050310571
0.04681190642524963 0.002982234072579153 -0.007191448048380576 0.016465319639042 0.01913412938331492 -0.002591750037123614
0.04072755783457375 -0.08344168039039593 0.0030711464057864273 0.021947148516629544 0.016164771549978856 0.01291383337123849
0.019205733680419078 -0.07221467471830467 0.003825722418207822 -0.023835846497105618 -0.00333723403008527 0.0006568435859834223
0.021329863663366942 0.002328707210747819 -0.0026884157951653333 -0.020707721376675724 -0.0071899690773996406 0.0019967202525963345
0.03514429854304125 -0.012486595409172628 -0.007312679501611351 -0.016303711788797005 -0.012231945288271241 -0.000131095751322314
0.0554551504613306 -0.01833719515178695 -0.011157038861744946 -0.016928732891966114 -0.010257413942630668 0.00017656674315773513
0.07324437159280231 -0.024834248694430575 -0.014518838827327062 -0.01743366234895812 -0.007643600718271576 -2.7754967030036118e-05
0.09142281416035308 -0.0312375105057567 -0.01756627563061759 -0.017529623377486432 -0.004165451798021172 -3.402448033458703e-05
0.10917628282395683 -0.03762561208959479 -0.02015341202877982 -0.017680488011964653 -8.19727883639415e-06 0.00016729769953761708
0.12629346586665235 -0.04387855011822398 -0.02212834022404711 -0.018152415625042162 0.004457496633204617 0.0009605875438940773
0.14252928006332494 -0.050261218319717624 -0.023304690560078768 -0.018819948198962294 0.00791520470470642 0.0032609936080510936
0.15630258073718148 -0.057807003390879845 -0.023629509710221437 -0.015441800135487963 0.007294792105962046 0.008280158100067405
0.16222762612766747 -0.06447438473460376 -0.02353577540515335 2.9185118709549554e-05 4.075460306668724e-05 0.013278953287342628
0.1563607089869047 -0.057824934296934964 -0.023641634501669045 0.01549927353231125 -0.007194735198070767 0.008283162661912001
0.1426533701179389 -0.050297930901060627 -0.023334921132922168 0.018873572579760134 -0.007758839464073152 0.0032636770154789644
0.12650175289246365 -0.04393606580752733 -0.022190161078848997 0.018195398450875935 -0.0042039712074088435 0.0009543844925384065
0.10950354324809601 -0.03770808588284548 -0.020271525633885346 0.017699013163761695 0.0004056942902681724 0.00013504471632242153
0.09193450918436726 -0.031354505175462816 -0.017781507500939653 0.017499187947113044 0.004774153860205833 -0.00012779842437249508
0.07405385298982835 -0.025005325980611174 -0.014902595492803471 0.017321250238967984 0.008537204418784852 -0.00022364398181041776
0.05680422854417065 -0.018593660064375597 -0.011798987913777759 0.016646215869006203 0.011645536848364594 -0.00026705184542116605
0.037491192528493276 -0.012995926089305625 -0.008410740660283484 0.015581911440324607 0.013979577664631189 -0.0005299638034817017
0.023680767717159594 0.0020369799565010506 -0.003909470322309045 0.018985855302720452 0.007653574548911556 -0.0014536832863977628
0.020918314677182945 -0.07287653767677052 0.0039043072235003147 0.01414849621624109 0.00228883750840064 0.013622698106111653
0.01064776451064168 -0.05215994719106002 0.005417982959588697 -0.031459309638381186 0.0005291680793146863 0.013138241402739647
0.009411750130328906 -0.000687901395860983 0.00029063891887193743 -0.03596228635598874 -0.0016435420826568143 0.0019745468173559748
0.014815425044192988 -0.003230211737751204 -0.0030521972940769923 -0.029739810782251942 -0.004935888865555404 0.0006020567070078065
0.02674353931090266 -0.008979443935808308 -0.005384401568327112 -0.030583990975842062 -0.004192257216208402 -8.35243437476694e-06
0.036546419465065545 -0.012240536511188988 -0.007244255843171097 -0.03091545427382333 -0.0026569850251758633 6.52560020901794e-06
0.045574223565054896 -0.015416943606256742 -0.008833035202338564 -0.031036352088836483 -0.0008964971869132525 0.0001995698030636882
0.05437188035400091 -0.018546056018761813 -0.010141270598076173 -0.03111069176389599 0.00113823252740133 0.000878277954020485
0.06253279212884051 -0.021324822772638526 -0.011101335761091884 -0.031448711749106524 0.0034489234671502664 0.0025772783877607494
0.07037702416096034 -0.024059953923492455 -0.011644262098168155 -0.032541595628903616 0.005980599085854271 0.0065679445534140325
0.07885498539631391 -0.03064887640003212 -0.011704696274397042 -0.028146187846103104 0.00664660722956659 0.014866119215503206
0.0833789922199925 -0.042383825350110954 -0.011492717480431965 4.280918051467763e-05 0.0001707331531758752 0.02446335584689699
0.07891111717823827 -0.030673303489173354 -0.011697999894360114 0.02823015502455622 -0.006281324545852093 0.014859164032710776
0.07049534866688503 -0.024109300437023515 -0.011636063670639265 0.03261867082954424 -0.005544416915171878 0.006547953043026115
0.06272684152053547 -0.021399935434508983 -0.01110362535859176 0.03150726928277939 -0.002896760273392221 0.0025294618873304905
0.05466708892981977 -0.018648232108166043 -0.010176147297575922 0.031126787367090434 -0.0004282311193512453 0.0007720588378120637
0.04601758216389983 -0.015550759406379674 -0.008938974487080356 0.030967697840526533 0.0018010248976062363 -1.8049848295272964e-05
0.03722738834787742 -0.012415192332903294 -0.007483485128100095 0.030694574833720286 0.0037939312926980515 -0.0004244564217702687
0.027846703867291017 -0.009226456098191569 -0.005857246241809516 0.03008118643221904 0.005603767503931509 -0.0007244367977845402
0.016223420421287812 -0.0035234234247932595 -0.0038693053975734056 0.028563581687824736 0.006364178307290472 -0.00083711146255049
0.010449689596781568 -1.409166938697796e-05 -0.0006626805146873888 0.033585262545008154 0.0019352378991599477 0.0006242185249716589
0.011284709985567735 -0.05214892108594204 0.004881192347707005 0.028733974720419758 -0.001182618250721366 0.01841112261730821
0.0036091978942089003 -0.03289484123229936 0.0062974550811169035 -0.02974539206254945 0.0017084646708535088 0.014404758768291852
-0.00016995308143277814 -0.0018269705441341995 0.003050232576638185 -0.03950954028327221 0.0016315314159720293 0.0035418555761314086
-0.0030333726627201443 0.0027796575160006273 0.0012392768446431405 -0.03756702411693152 0.001020734091261202 0.0008936431782870496
-0.0012552291892085814 0.0005276989289184394 0.0005479684467609149 -0.03548509226084012 0.0014269139572023345 0.0002210677563738915
-0.0003203726151832598 -5.108360994429896e-05 0.0003004485993397876 -0.03548004794684018 0.0019167080257673564 0.00018943581029477264
-0.0002555382254274607 1.2385385227483984e-06 0.0002334989126844333 -0.03555887111576493 0.0021752242570966945 0.0005615236773989926
-0.0003562351143977438 -1.943852961527992e-05 0.00027053286290240944 -0.03564231733696385 0.0023534570410942567 0.0014622212149218604
-0.0010415566432425856 0.00043276840855273606 0.0003867433032167754 -0.035396713213419036 0.0028109448050165206 0.0033903629887293576
-0.0014825334393455234 0.001560622479011337 0.0005257740252770319 -0.03652928884678856 0.0047632592276163335 0.007529627787198592
0.002852460938107115 -0.004232832571228897 0.0007322452197593865 -0.035753752836431764 0.007362836656440905 0.016573915947931284
0.007049374890308574 -0.026484172233432555 0.0011206337379984542 4.6549566241195755e-05 0.00029411520228213675 0.0314091089576817
0.002906117967548758 -0.0042635967654597725 0.0007581466632756798 0.0358449969251835 -0.00674595785855874 0.016564071554293326
-0.0013714001532494444 0.0014991076186790695 0.0005733987579222858 0.03661279109611041 -0.004062500541659322 0.007502974225834811
-0.0008649710739525335 0.00034114262207484265 0.000446200388978723 0.03545938482929657 -0.0019782580551189768 0.0033298320376825147
-0.0001002180526105232 -0.00013922453836073912 0.00032288737462946563 0.03565693045025609 -0.0013560617748808606 0.0013338620480447408
0.00010601433256196755 -0.00014415583173048158 0.0002452844888898152 0.03547466724916946 -0.0010064374797470932 0.00030066342424752004
0.00020694342996802835 -0.00022364423808486086 0.00021509669003407262 0.03521100518432584 -0.0006046766415671981 -0.0003091083191378402
-0.0005127577230240701 0.00032040919130333105 0.0002767032286817144 0.03488153936557223 -5.5978953321384994e-05 -0.0006813174594718199
-0.0022772866221147715 0.0027770928848324617 0.0007016137226851365 0.03635633071052789 4.869967541060034e-05 -0.0005632977334109401
0.0003150587498535066 -0.0011098942649324295 0.002333296511867191 0.03824052659536024 -0.0015421032450537615 0.002663075627240055
0.003920294888047359 -0.03298965659062981 0.005690131724101805 0.02886302679244767 -0.0022362257473467254 0.017556733275124737
-0.0027766645648692446 -0.017074346893703955 0.0071061243485404345 -0.022521424027551265 0.002882108374688711 0.012458410054948185
-0.008933671186534889 -0.0006860455628149149 0.005578950456211931 -0.03347006724310955 0.004653345445060489 0.003611785689092828
-0.01970247247275946 0.00744922957639478 0.0054373596629231314 -0.03459976912910584 0.006576237525269809 0.0009278998602562454
-0.028484047480898257 0.00955478843404571 0.006441555188057265 -0.03145354027102239 0.007027729407675059 0.00011369358879956576
-0.03715303396948146 0.012249776150407904 0.007834475343288063 -0.030802615195109895 0.006541192194578162 -4.10415478546966e-05
-0.04617285464321018 0.01541966358585852 0.009293362531605249 -0.030964144565445027 0.005287666254561965 0.00020446456457712644
-0.05501594289679479 0.0185999408058819 0.01067991835279513 -0.03103812317819662 0.003643306816234068 0.0009546873665275334
-0.06416011065260055 0.021717047740691758 0.011883615811511568 -0.030760820030920174 0.002030880885840501 0.002330123656956426
-0.0734332713798271 0.026881040437891406 0.012695589923059613 -0.03024475820172103 0.0025362212437034723 0.0052661123763995885
-0.07357310389856721 0.025522131700237545 0.012924496113181595 -0.038237498671976705 0.0078362259204061 0.012113938498600986
-0.06924875679250335 -0.015849541402994757 0.013304624711963383 4.3832792554141615e-05 0.0004201329125939859 0.03285114089542076
-0.07352182419181613 0.025484821386984227 0.012969845704346878 0.03832377838213444 -0.006962056128739455 0.012108455333572611
-0.07332919909361167 0.026806972443628823 0.012783232140330605 0.03032495804363862 -0.0015638754813831846 0.005249075105700123
-0.06400093336444654 0.021608313477371247 0.012005910450210242 0.03082389733952883 -0.0009085445098685893 0.002286716267732547
-0.054799629822463364 0.018461994981582148 0.010821415356271053 0.0310603012669825 -0.0023461539762190315 0.0008549247007924084
-0.04589486328930989 0.01526275970462212 0.009425513666036266 0.03089834857053732 -0.003840769963770853 -8.785001623028228e-06
-0.03680226857186097 0.012083771093119977 0.007907657707423256 0.030564261731204752 -0.005045358353239574 -0.000472273637106598
-0.028082506259757715 0.009421213099530847 0.006379264141764772 0.030903969267482963 -0.005694364284439447 -0.0006926983796076657
-0.019376398807627784 0.007548687044572547 0.00516135900947716 0.0337498163581525 -0.005781915072952203 -0.0002532429588895915
-0.008735740704546918 -0.0001835379009047217 0.00510036655198028 0.0329250486390414 -0.004682580561006896 0.003007151125172056
-0.0026206991646473433 -0.0171600585053213 0.006581463521149396 0.022317918041140847 -0.003317055699697502 0.014548735613565287
-0.008170795172226842 -0.006779820711266874 0.00824388444861708 -0.011777590402505173 0.005165050011411838 0.008087185056663108
-0.017040213158725642 0.001686151948184532 0.007985645763295792 -0.01871251410018867 0.008609772850627462 0.0024580835949653992
-0.03592684322700535 0.011922455999907265 0.00944606125274656 -0.019959855985590195 0.012714282562525565 0.0008472661138266787
-0.05539341375557897 0.01861155414958543 0.012103686995577677 -0.017894958575059444 0.01319512181147666 0.0001340094867994044
-0.07398966019846352 0.024931600133795584 0.015078537219257062 -0.017310495807696325 0.011643054024297229 -6.192520320567237e-05
-0.09211698773684303 0.031320460985291496 0.01800096789494802 -0.017448799589638568 0.008713673979100509 -3.4837165343785245e-05
-0.10990104018136088 0.03768680123195755 0.020686931422176973 -0.017610903303171693 0.0049213341690825755 0.0002192464243744815
-0.12656488191887175 0.044095028159299283 0.02293133365465685 -0.01728396773930107 0.0010578228637341924 0.0008876932946475131
-0.14484247721713386 0.049777985826751206 0.024415034425555933 -0.01782944653840995 -0.002369245998010913 0.001392296536090085
-0.15235890711476807 0.06314923430846787 0.024188092518044813 -0.024150377265159947 0.004945048037217297 0.004527303862057204
-0.14944558338251313 -0.007449547152424946 0.023578230871921766 3.039882955675413e-05 0.0005580616335879611 0.024182595732916368
-0.15230938814500775 0.0631048969262057 0.024252967487424275 0.02421063299666416 -0.0037883972386204695 0.004532641237737208
-0.14474394415930641 0.049690292203252565 0.024542810192960347 0.01788691985963205 0.003642622251963824 0.0013996584221643567
-0.1264199967960533 0.04396726012903031 0.023116490793911197 0.01733259526268748 0.0003913471265788959 0.0008887394716121787
-0.10971791304107488 0.037527427858353724 0.020917088791395762 0.017636766799754316 -0.0032750843717670726 0.00019671934786933779
-0.09191398195719812 0.031146360133168828 0.018251615373908715 0.017423632648371285 -0.006922107897442829 -0.00011566133637113058
-0.07380386192330128 0.02477316459086536 0.015305912344978427 0.01717847552817531 -0.009881196692598931 -0.00027030058407800364
-0.05528554552943841 0.0185346400306492 0.012238585029036032 0.017584305073164202 -0.011802351403657388 -0.0003051360443650155
-0.0359332146582391 0.012043414392236855 0.0094038515441634 0.019541396115137475 -0.012111854930183543 0.00020252097156385354
-0.01706389293340745 0.0019882212000295334 0.007728714500018244 0.01852759157722008 -0.008800916455707365 0.002142690659785707
-0.008154546942761395 -0.006770973430704995 0.00784954881511687 0.011734926970743348 -0.005657854098456157 0.009283475879163344
-0.010977772443513655 -0.0032826034468250278 0.010002917702359388 -0.004511025148809751 0.009874662918609594 0.005241264804202231
-0.023516896636032073 0.003018003365044366 0.010391505652741766 -0.00732278405562029 0.014830395081015833 0.0017088616856084917
-0.05213243806218527 0.014207797957333245 0.013138561326943497 -0.00719155305489257 0.020639058891062417 0.0009196870997791897
-0.08271759252551653 0.023251587977327775 0.017249395722740726 -0.00652092151198018 0.020809425910530675 0.00038098454682895664
-0.11090487755413808 0.03140657446270449 0.0216272857749136 -0.006375687326344276 0.017891648752048184 0.0001895641735095896
-0.1380525787639519 0.03946303917810708 0.025858614468566753 -0.006524088511984704 0.01288111358417072 6.147298826535749e-05
-0.16473788376935275 0.04735395601752955 0.029709726386086755 -0.006607194937861209 0.006480585008944673 -3.498081189799219e-05
-0.1901418106468381 0.055906805215522416 0.03289503282217947 -0.006906754582179072 -0.0005983162057452534 -1.760392499274531e-05
-0.2110996096799798 0.060117464969258017 0.03498607030305005 -0.007110590954464038 -0.007886177265339267 -0.00012869050985009605
-0.2331324412898637 0.08448653186111738 0.03426084219415136 -0.01723660296735766 -0.011764930758404677 -0.0027874108738492323
-0.24638304582010429 -0.0030954178775317556 0.028607508903637942 1.4592854823186532e-05 0.0007179950714284475 0.025713499281064263
-0.23308395507630572 0.08443854367152218 0.03434506203377003 0.017265826047280164 0.013250468415688691 -0.002777399151130579
-0.21100449862889126 0.060022634253308504 0.035153422664822395 0.0071394700829359855 0.009514515147503002 -0.00011038700389392358
-0.1900060096262554 0.05576893954027349 0.03314159798692772 0.0069332626232968785 0.0024419374720671817 4.64731673431671e-06
-0.16457623427885001 0.047182687404934774 0.030025043708811056 0.006625987121564855 -0.0043954451037265686 -1.7714489401939168e-05
-0.13789996248925826 0.039278608953683875 0.02621986885022434 0.0065238236675546615 -0.010620456616085096 5.550728638047304e-05
-0.11083783158531112 0.031249692098478714 0.02199170335328111 0.006332390416216721 -0.015691455949059213 0.00012354178871739024
-0.08285105101507541 0.023197060960261 0.017546707492656646 0.0064025366133906554 -0.01915353024092559 0.00019882752719744282
-0.05248038821717077 0.014336266390793587 0.013274792091489379 0.007018751644126618 -0.02014613440408987 0.0006422010966155066
-0.023824522800104213 0.0032436388512005385 0.010309214560755375 0.007236144511978085 -0.015453557351616295 0.00158569460842105
-0.011162254102922379 -0.0032146958232879457 0.009761288736713246 0.004440326327275739 -0.010900296489180419 0.005965024491564897
0.0342992348207056 -0.12746658753366022 1.5287250632045613e-17 -0.07221161701762015 -0.02977043568744649 0.03751427431478092
0.04129744153958331 0.013250403013463634 -0.004778289119212858 -0.0320778090857549 -0.03098749567079204 0.0012757544052260969
0.05754609681811399 -0.017971868098476437 -0.012602420839195045 -0.015122348617176947 -0.030272631694845013 0.010523339833368785
0.08092609296716341 -0.02111215166141086 -0.017717890185474785 -0.015594491292543247 -0.0269360339154279 0.011418223705170587
0.10985177895415338 -0.030367267320019285 -0.023434438442424082 -0.014697381815476772 -0.024071059238332998 0.015682152911263736
0.13918680625139643 -0.03848423239370367 -0.028935889284638125 -0.013335229478020653 -0.01890643295246496 0.019338080949697162
0.16779962259123926 -0.046679969587125184 -0.034111066768009575 -0.011139056871506726 -0.011792160830598754 0.023094711270430432
0.19470472841461728 -0.054542868108695214 -0.03863968566552162 -0.008119749184915101 -0.002874189762683158 0.02678608228612509
0.21727987910505753 -0.06137095301761486 -0.04205886985652428 -0.004226104997802904 0.005818914651537693 0.03059138687083093
0.2316503571709217 -0.06534238825152386 -0.04394456000064003 -0.0007852332700877531 0.008284538547302343 0.03468004482548244
0.23631884901357242 -0.0655679462364957 -0.0444637631095403 -9.617731028125579e-05 -0.00019914544370077498 0.03746884968791831
0.2318264927608842 -0.06539850358147711 -0.04398605469891655 0.0005878850422511659 -0.008679331555771523 0.03468971908519294
0.21766601969421223 -0.06149366794815617 -0.042148399673530346 0.004013782149949123 -0.006202152735300617 0.030610563365598576
0.19537310717395354 -0.05475429712196659 -0.038791783336465 0.007882117735356147 0.0025149873219788305 0.026815252895821436
0.16887047992505305 -0.04701531210807438 -0.03435034284894981 0.010866600133061736 0.011475446072648457 0.023129933187610374
0.1408372036567739 -0.03899709986221327 -0.029307257034490337 0.01301452921292073 0.01867287589620924 0.019393440379172424
0.11233194297336066 -0.03111928970128283 -0.023992697332872442 0.014329809159717944 0.023921669619643197 0.015687454076243453
0.08457210536780554 -0.02219242450775885 -0.018648750904428715 0.015074103571384872 0.0271083488379785 0.011710525850588963
0.06343670456935183 -0.01952226379507485 -0.013717993091297447 0.014492240905996046 0.02979862389059884 0.009552728116696827
0.05397587527871986 0.01109646143541601 -0.00818978447113693 0.033283097236015156 0.03984546923859603 0.007018029284949851
0.052198439054704365 -0.134516379981157 0.01073646521379635 0.043405719334523266 0.05219164719748241 0.014550181876991905
0.021068182169924024 -0.11065737836649554 0.008904784081022504 -0.04634962563092035 -0.02459680138020254 0.021564740609067285
0.019026501913557255 0.008848654706192558 -0.003124959219063733 -0.03840469204084138 -0.020595647150595264 0.006468225948444061
0.030377906970905467 -0.011023507852033838 -0.00815004217893396 -0.031953656204706936 -0.018686808966953104 0.011338771480402809
0.052761194317727154 -0.01693307020388911 -0.012600854493191403 -0.03236339245472174 -0.016522333504403942 0.014703844526169048
0.0716420806192742 -0.02389241540954557 -0.016678903694712286 -0.031635410392847646 -0.014338058009778177 0.019507715806606946
0.09119008100028392 -0.030520167329829047 -0.020718907767380314 -0.02905760311544059 -0.011298609571524714 0.02429804727196031
0.11018472369465532 -0.037057459255171565 -0.02445905494866857 -0.025247363751730735 -0.007069784518202068 0.029115871503239795
0.1280440946347029 -0.04343904063463054 -0.027718509727779575 -0.019689617286124582 -0.0018502599061851514 0.03408827473163251
0.1431013745421552 -0.04896650011985369 -0.03019685954185833 -0.011630596261972654 0.003290404582053084 0.03974840588177106
0.15280283142418005 -0.05137706331259313 -0.031685297803558436 -0.0030611580077965646 0.004907124002325304 0.04684874401317709
0.15601345074925074 -0.04950696469650596 -0.032245865669173944 -0.00017148073984464204 -4.770379684996049e-05 0.05235581827109186
0.15298801577720123 -0.051435448476601246 -0.031719307258484854 0.0027072759617091944 -0.004993033139190822 0.046849759189767685
0.1435027371110027 -0.04909314908604601 -0.030271549290246665 0.011243404074946277 -0.0033475072974253634 0.039749139500564634
0.12872625545036634 -0.043654343631448066 -0.02784830668918283 0.019244905076842275 0.001841558201991643 0.03408597467219914
0.11125102552493646 -0.037393517084384945 -0.024669706786492294 0.024718156934073796 0.007131395737609948 0.02910484913025223
0.09279044160702017 -0.031024534742169742 -0.02104931724003791 0.028413794473622942 0.011445030851950384 0.024273927946146124
0.07397354556110629 -0.024623717857080996 -0.01720490992776049 0.030845576954318343 0.01460633761916763 0.019444938611488643
0.05612973235119296 -0.01794838296621356 -0.013382703229127102 0.031297137675214984 0.016795789514115412 0.014691043150458955
0.03521208598789541 -0.012427801441051291 -0.009529619288839178 0.030307975297318303 0.01945993186984029 0.010897269135732192
0.023391034859535892 0.008289376535394924 -0.00438702918230466 0.03622366727047085 0.023552282568606697 0.009277695741962006
0.02411432297924806 -0.11608716961301319 0.011063734914947014 0.029004237005140994 0.029123684595254468 0.008758853562801618
0.010863633827907124 -0.07699645114612724 0.009737016422181407 -0.05441734438786592 -0.014977620722475929 0.007142225471124606
0.006379581444893169 0.0018464786316442984 0.00046660915658521516 -0.06238182428807909 -0.011721554014593748 0.010052459320386552
0.00943961567080438 -0.00034422141719542363 -0.0035188601281750526 -0.05441156625759256 -0.009236965145928436 0.01294561772326938
0.023076961059452002 -0.007636970932962468 -0.0061069476221684285 -0.0553387424949456 -0.0074908289581228195 0.018753420422403678
0.03420847908686034 -0.011325861075653056 -0.008350265535765114 -0.05345927803838278 -0.006126434029709774 0.02474983967425265
0.04425839213189783 -0.014787774698212122 -0.010476035426927516 -0.049345478452746803 -0.004636326122420186 0.031048819500050107
0.05415926123359161 -0.018140173037126 -0.01244190729397613 -0.04322845419867438 -0.002636867678791035 0.03740527942701956
0.06372019691250454 -0.021656067523656834 -0.014140200623954234 -0.034338812054637013 2.5643374556672866e-05 0.044110260164195274
0.07188440973039921 -0.024803627602889598 -0.015473640852464344 -0.02062257374841061 0.003410106110141206 0.05200560561328114
0.07607654671851857 -0.02369568653726482 -0.016457118809928253 -0.004450971196945602 0.0052124333297373865 0.06278533812537786
0.07682144169041322 -0.01569469350539001 -0.017095141553849533 -0.00027402822911440144 7.331786381712486e-05 0.07293485002320277
0.07626441031369381 -0.023757699716470924 -0.016482741758025478 0.003884733996733894 -0.005051320738610512 0.0627796811102761
0.07228773797171482 -0.024936380750071947 -0.015530948557408362 0.02000072125952997 -0.003206287569493285 0.0519925972506101
0.06439470725148559 -0.021876830824732664 -0.014242388297217178 0.03362033546845612 0.00024665167007491376 0.044085814434912066
0.05519037559057718 -0.01847481847776314 -0.012611212798984639 0.042365906520821034 0.0029966333611909715 0.03736277936204052
0.0457628405533181 -0.015274024424793808 -0.010748737637250799 0.04828297713661013 0.005090828761195499 0.030973471940020737
0.036331561946385954 -0.012007374215145404 -0.008779790733788533 0.052127099516656714 0.0066524803464214155 0.024639405243959137
0.02596475769183274 -0.008545853739152254 -0.0067852925890030434 0.05355900200291902 0.008033051384436779 0.01853355570853695
0.012441921795266628 -0.0011560058506996367 -0.004559190008253723 0.05182531082393242 0.00998906733111739 0.012994218517246185
0.008385354901891217 0.002928224120419351 -0.0004429021502007232 0.0589342475359087 0.012835508599835545 0.010206819883105397
0.01217425469904139 -0.08031117053138734 0.010193483709308355 0.051436713339805304 0.016435069989959368 0.006826171779661592
0.0029193771579177287 -0.046170392061119475 0.008695868996142097 -0.05032233639281678 -0.0067565519797428255 0.0025186636176410975
-0.0033290206706045834 -0.0009788247327070132 0.003382114332332117 -0.06597051316777004 -0.003828089703182069 0.008729970552428086
-0.008360172086048688 0.0058375729046955425 0.0012524579904999332 -0.06623521560559852 -0.000603820902937898 0.013385086750665059
-0.005466008603041072 0.00224841986521454 0.0007139282881519979 -0.06323273656238766 0.0010036720113729052 0.019719882721149915
-0.0031700692389328104 0.000954992973244709 0.0005155232980115419 -0.06063320341398057 0.0014791391809297022 0.02626996207794055
-0.002139172708775408 0.0006712639684343737 0.0003995046267648577 -0.05593389210001201 0.0016088011178258198 0.03294782079778241
-0.001183469294507506 0.0003972230846327774 0.00032184230042443633 -0.04910430529805994 0.001726441594273394 0.03977347533406767
0.00039681630350283693 -0.00028064296493937255 0.0002711459161355526 -0.03950280495384744 0.0021754136095507013 0.04688319807035455
0.0021678729814278725 -0.001593163292732781 0.00014673759336875233 -0.023793783620530737 0.004211401331945109 0.05503769830576045
0.0004975447366532344 0.002896951203450548 -0.00035826550868215496 -0.0014740458913921222 0.006846078924575749 0.06673968595315945
-0.0018619415557639962 0.022334286825251754 -0.0013162519355168075 -0.0003076707867672658 0.00018207666981111584 0.08181962391558618
0.0006853684173049493 0.0028324945300227857 -0.00037502169260489803 0.0008377345307504936 -0.006462791155429063 0.06673196394183696
0.002567399145534415 -0.0017297754410386204 0.00010804969055486203 0.023093331132929367 -0.0037723041655570375 0.05502032523757821
0.001054249472549253 -0.0005039271887450063 0.0001994973120682626 0.03869102224414252 -0.0016497034709869638 0.04685177651806921
-0.00020274695033754972 6.714206237622432e-05 0.00019889344654984838 0.04812577101182915 -0.0010967350067130188 0.0397194023458761
-0.0007564125898225406 0.0002079372876809104 0.0001974449819756234 0.05471914767126609 -0.0008847859493231338 0.03285789826313111
-0.0013034291192883698 0.00032812599827521154 0.00019242641835286905 0.059086492856862224 -0.0007182276695540415 0.026121148600276096
-0.0032334402062089863 0.001488266513207683 0.0002049263982915116 0.06121074332914803 -0.0002955220820273171 0.019513592931235904
-0.006470781544452831 0.0056218361721435085 0.0005280469403089968 0.06368386071840765 0.0011888322918400683 0.013271674452049739
-0.002246376949656882 -5.614473286681427e-05 0.0027215840900189046 0.06446789476863249 0.004319019173580012 0.008974505974025073
0.0036423925706227634 -0.048475784345051155 0.008737531215004021 0.049841801581307174 0.007366778275248215 0.00394765169662345
-0.004096215445955547 -0.022121288249195865 0.007602647127835538 -0.038245244098911925 9.919017170685834e-05 0.001988734996871749
-0.012144516082685467 1.998712129139133e-05 0.005695161700933205 -0.055477903202871715 0.003586452103967917 0.006773721673672613
-0.02482911994983517 0.01036533325963072 0.0058649971311218775 -0.06094618467071879 0.008136327245020754 0.012374458886070194
-0.0329755747524145 0.011441738182482635 0.007484633626802735 -0.056801946970148606 0.009651258315784563 0.01857812206847667
-0.04049454220431384 0.01338881969810559 0.00937994171761813 -0.05350939312281367 0.009189452629064744 0.02480755185256973
-0.04857704757792646 0.016152718756014605 0.011271503475860109 -0.049313544674788455 0.007887627343530884 0.031054223764074275
-0.05656433176212377 0.018855825628406712 0.013081675542368798 -0.043301449249909106 0.006207664226213674 0.03747264532310681
-0.06323024843703735 0.02143187237125903 0.014699326877010348 -0.03474811949535583 0.00421097628088629 0.04391834696844547
-0.06733252998824543 0.02166321294531487 0.015813867935472434 -0.022086448572156903 0.003748288430381809 0.05079751486451264
-0.07482934920028582 0.02641737961732307 0.015662275525893696 0.005677523062402669 0.007661732706283096 0.060321009658578326
-0.08093036618335184 0.06675289363188384 0.013729200220112384 -0.0002769352618975187 0.00029324757527770834 0.07998935817681807
-0.07464076258821414 0.026350354562161154 0.015654363347844716 -0.006250570112642994 -0.007050936759843512 0.060315876805495515
-0.06693527793154083 0.021522464144207876 0.01579385207882881 0.021454862802370387 -0.003067140476974881 0.05078564762371982
-0.0625877705634729 0.021205451033684774 0.014658412160973005 0.03401533436966947 -0.0034225931980057926 0.04389594514289574
-0.05563273491012931 0.018529601651385636 0.013005831122760297 0.042417637194746505 -0.005295940561401878 0.03743245240649679
-0.04731941142274343 0.015713978493237215 0.011140845688988802 0.04821231974402275 -0.006878379989216344 0.030983557016830827
-0.03892647849148041 0.012829273856367724 0.009167242260141786 0.05209879745329277 -0.008178125559830749 0.024689496743885545
-0.031326961569109114 0.01087942535953106 0.007155591704243993 0.05499892557127536 -0.008816551638467122 0.01841803889341059
-0.023622301001165694 0.010314391373158793 0.0054122459448013045 0.05919870230390869 -0.0076695320568950735 0.01226676741239709
-0.011534870833380366 0.0005557504714517821 0.005267322600962884 0.05506401859324063 -0.003396076876244177 0.007074040767662928
-0.0037014457642109383 -0.023447674151081333 0.00753382717148796 0.038518653489164695 0.00010740645738711819 0.003325142880429258
-0.009628198825610145 -0.007251600134369181 0.007296195413066822 -0.021175314482381566 0.0061238795547514545 0.0029143238694608557
-0.020014445134295785 0.0027090853576656696 0.007708890888278139 -0.0319633928630982 0.011168964642763214 0.004862662159823193
-0.04070772274851015 0.014399873993931833 0.01011215763013913 -0.03661435231388865 0.01781154446493963 0.009722747444315087
-0.06015723782874559 0.02040316814794089 0.013834481857931109 -0.03404786527391382 0.019238191313441046 0.014670856254917545
-0.07811007990187077 0.026071485106945434 0.0177122269901335 -0.03169489932172494 0.017656679299320674 0.019491436823876555
-0.09558650990459432 0.03195402387578124 0.021495263062765398 -0.02905794157726336 0.014700596347720552 0.024293305107991794
-0.11248679465104505 0.03777226238242449 0.025086553442681545 -0.025323384980676787 0.010843372244870222 0.029149673800728745
-0.12854692254085584 0.04314062147977043 0.02831910724236907 -0.02029007296553914 0.006420916321696284 0.034079044928436816
-0.13887450226249057 0.048404123455599884 0.03070031610668285 -0.011773064285352654 6.687510247102406e-05 0.03819344886590972
-0.1506361493223786 0.04423659451483776 0.030733913210615228 0.005984518129886546 0.002991623813432393 0.04364191068563447
-0.15984872339214387 0.11784468238433252 0.02625365060386723 -0.0001752142230578165 0.00042173410578183446 0.05799941887547179
-0.15044212588237535 0.044165228234834576 0.030734334965990092 -0.006346984133444457 -0.002117280194192007 0.04364353181355821
-0.13847006599776257 0.04825578344868442 0.030697798130532996 0.011374006970713437 0.0008965673218970756 0.038195844764410125
-0.12790492183176014 0.042906096790088784 0.028306703099071608 0.019828354975513315 -0.005322773913270174 0.03408008793949309
-0.11158388774811205 0.037443961478855176 0.025053565921291064 0.024769240980815586 -0.00959331903115472 0.029144907305947942
-0.09443530555725481 0.03153437168502729 0.02142798904995544 0.02837317275314225 -0.01333841952173193 0.024274517507290424
-0.07682473226004827 0.025596748848804533 0.0175965095356319 0.03082440652253686 -0.016326244065087564 0.019448437410571097
-0.0590221674553433 0.020022578221324538 0.013658345050786298 0.03299364734438732 -0.018228277820572094 0.01460485865565527
-0.04005521771141846 0.014412456307021185 0.009873117169147249 0.03576426278672578 -0.01742656125748659 0.009694515446134476
-0.019794312233707992 0.0029985128972381332 0.007473479056827803 0.03195518001444115 -0.011243617303209285 0.005075732805181208
-0.009528543210209827 -0.007773663743175285 0.00721517777303184 0.021454463560157906 -0.0062712192754693485 0.003780796527230453
-0.010910173963459883 -0.002456674799662063 0.008328896855054956 -0.010440832898325886 0.01225989926929369 0.0035173672853846157
-0.02476617975699257 0.004174496142967544 0.009638301126610665 -0.014972264842794451 0.019833314375684207 0.0040669277872769334
-0.0559919983775095 0.01635752250679289 0.013579597690682264 -0.016833117693631133 0.029429076147995746 0.008074376430351958
-0.088147445909947 0.024939652780903203 0.018953026657763966 -0.016184986295728166 0.030725183197735362 0.012016890982183758
-0.11658383594853836 0.0325094754164034 0.024388025070715573 -0.015050052736483643 0.027695184418695017 0.01575518946103774
-0.14366003834702207 0.039964585306871844 0.029681491368968655 -0.013502434865627227 0.022610120200156666 0.01945416406348203
-0.1700191931379199 0.04747271682833522 0.034729650421899835 -0.011473210335541575 0.01596239321946564 0.023205938207902992
-0.1950297972567378 0.053833134173891906 0.039257580096112896 -0.008409923318468189 0.008069021270211042 0.026637160481389
-0.21878771562538452 0.06334070241879118 0.04287238297511973 -0.004115461971275179 -0.0032676620864997654 0.030700280676712786
-0.22981151219379556 0.05141196690279785 0.043074368155208376 0.011437619789287715 -0.023726961546427852 0.02757097454444256
-0.22910296715970252 0.1447955550096648 0.032482800162331224 -0.00011321608341999245 0.0005864180955506742 0.0568592470733842
-0.22960260133541835 0.051337742466608924 0.04308222207974553 -0.011671507839550264 0.024939838338979933 0.02757428312617126
-0.21835701668991814 0.06318721900308402 0.042885133658861097 0.0038593839734993637 0.00459606713057947 0.030705954515855984
-0.19435891592585214 0.053592708643853876 0.03926905113565766 0.00811739840008551 -0.006566066872785492 0.02664305449074032
-0.16910384420538296 0.04714091867452237 0.03473020200539523 0.011131417152778208 -0.014262626520825713 0.023208165257710044
-0.142559693699967 0.03955274018640344 0.02965902020510869 0.013101917919106467 -0.020765786960114392 0.01944696164624681
-0.11551718140707867 0.03207780439883571 0.024331941224689336 0.014586495632043296 -0.025905115927706744 0.015734648819649075
-0.08752300480214856 0.02465020480363863 0.018858070632851918 0.015692112081882585 -0.029417686450178386 0.011991252528598844
-0.05605150678468184 0.016418474826383353 0.013443151820036836 0.016478546674090176 -0.02910953835573654 0.008090903565926158
-0.02510777050228651 0.00439907878037434 0.009505783070245152 0.014993569557728289 -0.02030884099007782 0.004213318934020929
-0.011193226824642463 -0.002639166056384965 0.008307929276891116 0.010525489536583901 -0.01292941801000985 0.004095430211591856
SCALARS Stress_vm float 1
LOOKUP_TABLE default
25345.548408851355
11625.05589810524
12572.686339052014
17401.186545774053
23216.585408264284
29084.93305094659
34865.70197177999
40356.97117740569
45016.54996143774
47913.408424539324
48672.45566996662
47950.46747850193
45095.38956979322
40490.895999927445
35078.24808503037
29411.560191680936
23702.64147067582
18113.9461402623
13624.001704691944
13686.908984968339
27388.031319159414
21517.322007593193
6768.633621226861
8954.256009856435
12826.110504835848
16715.69565200232
20654.43019387564
24569.561633635185
28339.87173245784
31599.657251742767
33616.13968014443
33993.57111482037
33650.01888594421
31671.75067792489
28461.44469125601
24758.63940555162
20935.256897527936
17115.78019324735
13364.6056682326
9573.241263283506
7155.641177840776
22382.294838422982
15863.165634502639
8376.007458208664
8255.485976982356
9732.475596254646
11306.363299815159
12994.327217618833
14798.550425739648
16723.795675278077
18550.59209562162
19487.306127029533
19150.155747402892
19510.1054794054
18596.020761543903
16797.65023363406
14908.479402030924
13144.744814430944
11486.662126106721
9873.34486655955
8190.567713277147
7846.8196658433335
16278.363168095208
10826.301136414573
9206.324945455057
9621.22269596179
9085.686542247486
8842.066632305387
8640.091003586344
8761.64218758287
9498.213817509852
11060.904646408533
12296.459125724972
11638.598504067935
12279.843490689796
11036.470777937198
9447.068874773166
8662.104861806207
8471.140175084489
8587.838289784242
8721.070705076296
9159.466365045017
8923.200024152151
11092.740518312621
6732.2847216963655
8292.277774463215
10483.5249537552
11175.316029077805
12270.766172851489
13680.920914335025
15184.88536261568
16539.283730264837
17838.594782935757
20078.513603861935
22814.348348220352
20035.962947017368
17751.222251363364
16393.907675029663
14972.89070412938
13389.633842664847
11890.843447285093
10734.412700821595
10129.835144446528
8180.7111872304695
6873.700628809946
4096.873991522099
6538.180488873024
10955.286547457392
14537.369816653178
17992.120595475084
21530.076119641777
25048.550220274337
28380.45183950636
30951.623581969467
33427.967260962214
39344.897547941575
33388.73391366593
30868.820425040103
28242.622049749363
24849.825800804883
21268.034395438986
17684.656318508536
14250.218894492917
10796.414730208973
6512.309708767533
4139.236926687039
3536.577093556698
6300.086685747514
12846.483422162955
19083.952222378386
24632.19150937153
30032.515842441735
35361.73449110315
40413.124655249834
45287.14822562452
47985.968529903475
52382.389975183105
47958.93496589977
45204.86594145294
40275.75414278522
35165.888846093345
29785.38294342402
24374.44167605941
18910.101068412587
12847.772248869265
6382.583817772097
3620.6066298353685
16524.281649702305
9760.090898037599
12482.604239875507
17384.386857923797
22870.65924308024
28396.643521380458
33823.36215342065
39098.89986600935
44215.70244297185
48787.09929050788
51027.12640446995
48801.17406323102
44244.882382210104
39147.13522852013
33899.873371889764
28519.31964199322
23073.8383971456
17722.813799628468
13135.193874619126
10574.184335998983
17324.797447284487
13997.642775450557
5314.616470146639
8446.74340186392
12359.621315632723
16173.868965703283
19991.437688375685
23745.600146343582
27363.10560377926
30854.03857660404
34164.89524433309
36144.18996716401
34176.543181797286
30879.021998315875
27405.31165949058
23812.605145014175
20097.3648543795
16343.213019453624
12639.412105919937
8862.307585890514
5620.83268705932
14255.81317038988
10689.354315874578
4936.518320648229
5746.0449219281745
7661.8893343679165
9596.112467191953
11518.672992845204
13403.943716486952
15150.134625595632
16952.04826896051
19561.802479143087
22231.382741510522
19570.17365870805
16971.578716755597
15183.061282365414
13453.279419055707
11590.509679882896
9701.532562020991
7803.772915555638
5858.170369163761
4671.321904208185
10702.503868667101
7549.031610012164
5486.308517973548
5311.845612445116
4936.193550824528
5060.75110884403
5429.009418727921
5999.062726659504
6622.539578155006
7251.22171925038
9296.04209985618
14590.34455632589
9290.202827529662
7241.622294560467
6616.620779117039
5991.133535239361
5409.011691970218
5009.181477579607
4825.284391727117
5087.365943179694
5234.428502497357
7581.94678152413
4909.85695884946
5258.629457906678
6925.9259857376355
8129.474450900983
9769.750418701022
11647.435721969901
13562.812319791474
15556.731616334338
17350.110649505037
17473.249817192125
18967.475355115974
17459.21730201678
17333.21079750709
15532.20490430628
13523.506680501392
11586.436806064514
9675.285087098131
7991.797239160423
6772.093127113372
5130.73194831178
4954.812390374231
3399.752688030593
4907.331910584979
8862.498722305312
12646.140750502707
16385.428111754514
20162.53173601301
23912.389515170467
27535.052964796047
31103.50825752042
32952.11820677776
31085.255886656792
32941.23462767972
31090.68511150927
27512.271599379623
23877.751441107866
20114.65493246521
16326.460953328713
12590.011104808793
8836.082523624342
4884.4344684255775
3418.274002967061
3480.3656239152338
5649.178754383235
11496.881888333604
17519.175504084542
23121.41050189577
28595.418685208766
34004.23519990334
39225.396598197214
43495.018879624266
47756.18991913221
47753.81396606486
47756.41429485001
43489.147961520604
39209.32376950741
33978.012749226764
28560.72783805595
23089.42007572132
17518.200391333477
11558.410365371854
5730.048818759335
3550.4801278326267
15345.107301151911
9688.653866786904
12032.743545454712
16728.597653655415
21946.152957288778
27120.690367113282
32266.66328150975
37613.45902712731
43631.928873005745
50021.90830194559
53484.02761094106
50009.29531119325
43604.499256000956
37567.25462686788
32195.307711593152
27014.52799884559
21790.768217905745
16508.83329804354
11646.537683897692
8951.741140794498
14094.463637573052
11997.98140304882
5099.926830168796
8370.856697323914
12121.929009326139
15719.870086555131
19294.215829219705
22862.278808702835
26537.9012986299
30680.703606650794
35377.92816408695
38445.416615878945
35363.1529818297
30648.11078271564
26484.16855672587
22783.301650383586
19184.166127468798
15572.191801479617
11926.723293729716
8129.630669210092
5096.8918262184925
11389.767994362614
8637.942389437756
4406.4902485874445
5787.180098876198
7783.15347664579
9596.99388711017
11370.177107293539
13125.548196225449
14835.589289098814
17065.319758601163
20993.074136418883
25050.61889467555
20983.014533422753
17038.0306156343
14789.123600664987
13061.078567032244
11289.333620937987
9504.221191834797
7701.050695140813
5807.01420720001
4768.465743515107
8485.156570708912
6235.901629066829
5099.471161608913
5137.227294438659
5055.707555310684
5223.139188482993
5516.837641082654
5954.845145771927
6477.30630602151
7370.055029590923
9594.027171007274
19093.92068610829
9594.292286263944
7383.812308354156
6497.438980924388
5985.698284737089
5566.3367966791175
5305.790876526591
5194.433051392904
5373.774096488669
5278.439196057649
6092.165787888244
4299.369275051959
5058.761871852082
6606.714115038359
7699.861439125814
9273.443685623995
11111.646538770927
13065.595199085905
15310.223784058246
17641.585408540665
17598.69250363006
21346.163532784434
17629.184591486097
17696.771439633063
15395.0481466678
13181.538397153348
11258.052551474637
9448.654077558058
7890.384102002414
6754.1620069336
5086.248104090854
4140.196912131321
3288.6329811534547
4767.450690868644
8409.904577594032
11851.6610612929
15368.538130517349
19019.28533149448
22752.485395540814
26563.04729021758
30776.981185874432
33468.495940663204
32828.03242109179
33499.56262716741
30840.494639378892
26659.129426231924
22880.650913248137
19172.730515558073
15530.845830486345
11986.471980604689
8467.886586270639
4739.272788264347
3129.53162590004
3443.993549467706
5397.732700940532
10812.586900152757
16355.143537635191
21611.11629456711
26858.31501871148
32159.160496062545
37488.113029629596
42098.733041822605
48653.567849658895
51519.920067594714
48691.489441142825
42176.46573481774
37604.31780355889
32311.85410077767
27036.157284646793
21786.12504975505
16476.25867102354
10842.222288932124
5380.254426224362
3338.5653398903846
15362.962037897627
9681.783527899619
11832.174578677272
16391.190446591278
21520.33237731337
26615.268113788243
31734.61143744245
37203.48251355002
43572.066546069495
50461.79660223572
54213.20715596343
50438.21399798764
43521.05676016533
37117.63780394442
31600.59327017335
26409.86364491468
21206.36035236447
15914.412247658289
11059.728145568706
8406.262949568556
13399.902745960326
11825.0355382998
5040.987848334736
8285.435112090092
11952.031613939422
15491.397515884539
19022.47081767818
22591.98148179723
26375.174811198132
30774.24336134618
35807.34227020723
39089.666782316526
35782.164755178135
30718.622366143816
26282.496666299892
22452.675889325
18820.794534714463
15204.374265077113
11548.213197350002
7788.286524212737
4812.137914499779
10824.302815532332
8392.492756674423
4143.510370463096
5719.820277631434
7727.690845714572
9529.350562848478
11287.7481542358
13058.178817055255
14852.127991931338
17262.10976645145
21402.42955203501
25635.778028176122
21385.903810695054
17217.647019061344
14775.749760358045
12950.083605496142
11146.987701549771
9356.423895247992
7554.919603715503
5681.358769736188
4618.380866701902
7944.991115612434
5941.583137821639
4855.843043236323
5013.2988228052
5054.851725402059
5283.2334845948335
5610.9522250297905
6093.006570189027
6718.850397139405
7769.301565424481
9344.687811689419
20070.210192651717
9353.621353011891
7795.915489081556
6755.058912024173
6146.722094757098
5698.408703014468
5429.180998776174
5293.883826619931
5399.498615465062
5150.576600832425
5559.537053454781
4018.2872420159115
4843.721974240548
6378.066290536972
7479.612399623642
9056.086755028195
10901.708952037405
12897.01713547146
15254.044662698785
17788.07723100694
17900.272555340627
21560.072310676034
17945.26186873191
17870.751584753358
15381.928759908484
13076.809216619002
11138.125366572287
9353.009195810537
7818.483755850799
6652.9242404729
4923.3469538870595
3658.7881522143425
3082.1282791333847
4508.239307286847
8092.109293137911
11493.19163236589
14969.09241908041
18597.729942173428
22361.211663705883
26301.97289242539
30797.99776561655
33767.896098636906
32839.57304267627
33813.617296337776
30890.52250036494
26443.832642467518
22554.904710033214
18836.805622633372
15231.94008394408
11722.660725610354
8199.31598731947
4475.891020390092
2780.923473270676
3125.0288242656143
4981.264841156485
10352.953640633159
15835.526478621685
21011.030759333073
26197.325801072824
31499.745825662
36976.694808651366
41925.8377912225
49005.77031387186
51754.38498930207
49057.2965035703
42033.68605253863
37142.005805333254
31722.449441555964
26463.593234520584
21279.85140651303
16024.454087262055
10385.846532224248
4909.806555190136
2881.150426629185
15345.107301185411
9688.653866815468
12032.743545477833
16728.597653665136
21946.152957296395
27120.69036711401
32266.663281515768
37613.459027132856
43631.92887301005
50021.908301973344
53484.02761096113
50009.295311222144
43604.49925604614
37567.25462687669
32195.30771157888
27014.52799878992
21790.768217880297
16508.83329802029
11646.537683877144
8951.741140773282
14094.463637543258
11997.98140306235
5099.926830179853
8370.856697337491
12121.929009336107
15719.870086561867
19294.215829217865
22862.278808710496
26537.9012986376
30680.703606654293
35377.92816410453
38445.41661589384
35363.15298183921
30648.11078276135
26484.168556735945
22783.301650388734
19184.166127440472
15572.191801460674
11926.72329371254
8129.630669194027
5096.891826206213
11389.767994336493
8637.942389443235
4406.490248585749
5787.180098878585
7783.1534766522
9596.993887108176
11370.17710729464
13125.548196234544
14835.589289104408
17065.319758620248
20993.074136422732
25050.618894674393
20983.014533423102
17038.030615675205
14789.123600672538
13061.078567063827
11289.333620931377
9504.221191821256
7701.050695126998
5807.014207186698
4768.465743501988
8485.156570686037
6235.901629071135
5099.471161609444
5137.227294436178
5055.707555302547
5223.139188476422
5516.837641096172
5954.845145772677
6477.306306014255
7370.055029613926
9594.027171005439
19093.9206860819
9594.292286273792
7383.812308381616
6497.438980925143
5985.698284768872
5566.33679668198
5305.790876522283
5194.4330513790355
5373.774096475628
5278.439196046072
6092.165787868901
4299.369275054988
5058.761871854995
6606.714115039355
7699.861439118368
9273.44368562439
11111.64653876713
13065.59519908479
15310.223784051082
17641.58540854264
17598.69250362116
21346.163532766623
17629.184591487767
17696.771439639026
15395.048146654784
13181.538397162076
11258.052551435821
9448.654077551422
7890.384101989607
6754.162006919034
5086.248104080412
4140.196912113945
3288.6329811562473
4767.450690872846
8409.904577595164
11851.661061292121
15368.538130514897
19019.285331484578
22752.4853955447
26563.047290206785
30776.98118588515
33468.49594065496
32828.032421081974
33499.562627170555
30840.49463937813
26659.129426208045
22880.650913247024
19172.730515511987
15530.845830468164
11986.47198058599
8467.886586255405
4739.272788255207
3129.5316258892262
3443.993549470684
5397.732700944629
10812.586900153694
16355.143537643024
21611.11629455933
26858.315018695434
32159.160496068944
37488.11302961632
42098.733041837026
48653.567849651205
51519.920067588566
48691.48944114874
42176.46573482499
37604.31780353309
32311.854100769717
27036.157284596487
21786.12504972109
16476.25867099842
10842.222288916208
5380.254426212942
3338.5653398775676
16524.28164973782
9760.090898094131
12482.604239912627
17384.386857951362
22870.65924310863
28396.643521409187
33823.36215344091
39098.899865971725
44215.70244296886
48787.099290547914
51027.12640450078
48801.17406324431
44244.88238221662
39147.13522849537
33899.8733718601
28519.31964195395
23073.83839710711
17722.813799569278
13135.193874580511
10574.184335959808
17324.797447210283
13997.64277546062
5314.616470167957
8446.74340188977
12359.621315657572
16173.868965729276
19991.437688395974
23745.60014635879
27363.105603761043
30854.03857661358
34164.89524436828
36144.189967185106
34176.54318181945
30879.021998318036
27405.31165948605
23812.6051449902
20097.36485435305
16343.213019429953
12639.412105874113
8862.307585871013
5620.832687043069
14255.813170327849
10689.35431587899
4936.518320637037
5746.044921935951
7661.889334385989
9596.112467215213
11518.672992858337
13403.943716495842
15150.134625601919
16952.048268976974
19561.802479193408
22231.382741537564
19570.17365874237
16971.578716745702
15183.06128238737
13453.279419046099
11590.509679874118
9701.532562001552
7803.772915529238
5858.1703691566645
4671.321904195225
10702.503868617358
7549.0316100181335
5486.308517965139
5311.845612431536
4936.193550826135
5060.75110884993
5429.0094187172535
5999.0627266619185
6622.539578159862
7251.2217192324015
9296.042099899234
14590.34455637927
9290.202827538866
7241.622294560725
6616.620779131655
5991.133535241852
5409.011691969738
5009.181477576407
4825.2843917136815
5087.365943168452
5234.428502481729
7581.946781487604
4909.856958853681
5258.629457902538
6925.925985732297
8129.474450890233
9769.750418695585
11647.43572195215
13562.81231978423
15556.731616286092
17350.110649486254
17473.249817207186
18967.475355133232
17459.217302031164
17333.21079751566
15532.204904308192
13523.506680486247
11586.436806059473
9675.285087076663
7991.797239125639
6772.093127096067
5130.731948296421
4954.812390344832
3399.752688036622
4907.331910586422
8862.49872230608
12646.14075049636
16385.428111753492
20162.53173601621
23912.38951515752
27535.052964745057
31103.50825749312
32952.11820678128
31085.255886665786
32941.23462768228
31090.68511150582
27512.27159937231
23877.75144108056
20114.65493244089
16326.460953283078
12590.011104768557
8836.082523597655
4884.434468409973
3418.2740029500455
3480.3656239214074
5649.178754389298
11496.88188834428
17519.175504080795
23121.410501897248
28595.41868523083
34004.235199883726
39225.39659814738
43495.01887958704
47756.189919132405
47753.81396610408
47756.41429484559
43489.14796149595
39209.32376949284
33978.012749186426
28560.727838005325
23089.42007565675
17518.2003912838
11558.410365332822
5730.048818736937
3550.4801278145806
25345.54840887951
11625.055898178072
12572.68633910617
17401.18654582736
23216.585408294006
29084.93305096801
34865.7019717842
40356.971177407606
45016.54996143713
47913.408424567955
48672.45566999787
47950.46747855398
45095.3895697941
40490.89599993198
35078.248085009385
29411.560191624358
23702.641470618837
18113.946140206135
13624.001704638304
13686.908984904572
27388.031319018868
21517.322007609066
6768.633621241957
8954.256009884815
12826.110504869956
16715.695652021906
20654.430193892258
24569.56163364738
28339.87173246078
31599.657251739995
33616.13968017835
33993.57111487425
33650.01888599092
31671.750677923512
28461.444691260334
24758.639405540085
20935.25689748763
17115.780193210678
13364.60566819974
9573.241263247302
7155.641177806605
22382.29483830594
15863.165634521565
8376.007458195314
8255.485976984004
9732.475596255357
11306.363299819677
12994.327217623053
14798.550425747106
16723.79567526653
18550.592095619646
19487.30612704659
19150.15574748955
19510.10547943978
18596.020761553365
16797.650233637858
14908.479402023537
13144.744814414038
11486.662126093202
9873.344866537489
8190.567713241757
7846.819665806138
16278.363168012547
10826.30113643026
9206.32494545453
9621.222695952443
9085.686542222767
8842.06663227978
8640.091003570227
8761.64218756025
9498.213817482547
11060.904646398023
12296.459125709589
11638.59850410605
12279.843490687248
11036.470777931629
9447.068874790626
8662.104861815817
8471.140175096187
8587.838289781486
8721.070705056318
9159.466365003962
8923.200024110663
11092.740518259816
6732.284721708499
8292.277774468115
10483.524953749273
11175.316029062848
12270.766172827867
13680.920914307946
15184.885362590914
16539.283730246698
17838.59478292435
20078.513603822965
22814.34834817324
20035.962946989494
17751.222251353676
16393.907675057697
14972.890704136495
13389.633842656105
11890.84344726368
10734.412700793324
10129.835144401393
8180.71118719355
6873.700628780037
4096.873991532164
6538.180488878635
10955.286547461186
14537.369816655264
17992.12059546468
21530.076119612062
25048.5502202551
28380.45183948354
30951.623581954762
33427.96726093684
39344.897547874345
33388.733913658056
30868.82042504316
28242.62204974581
24849.82580079174
21268.034395410672
17684.656318470214
14250.218894446016
10796.41473016867
6512.309708739579
4139.236926669102
3536.577093569933
6300.086685757391
12846.483422174178
19083.9522223914
24632.191509372467
30032.515842420762
35361.73449107615
40413.124655205625
45287.148225587975
47985.96852988158
52382.38997513917
47958.93496590767
45204.8659414576
40275.754142757796
35165.888846060116
29785.38294337199
24374.44167599934
18910.101068342363
12847.772248822552
6382.5838177461965
3620.6066298209917
SCALARS Statev float 1
LOOKUP_TABLE default
0.0
0.0
0.0
0.0
0.0
0.0
0.0
0.0
0.0
0.0
0.0
0.0
0.0
0.0
0.0
0.0
0.0
0.0
0.0
0.0
0.0
0.0
0.0
0.0
0.0
0.0
0.0
0.0
0.0
0.0
0.0
0.0
0.0
0.0
0.0
0.0
0.0
0.0
0.0
0.0
0.0
0.0
0.0
0.0
0.0
0.0
0.0
0.0
0.0
0.0
0.0
0.0
0.0
0.0
0.0
0.0
0.0
0.0
0.0
0.0
0.0
0.0
0.0
0.0
0.0
0.0
0.0
0.0
0.0
0.0
0.0
0.0
0.0
0.0
0.0
0.0
0.0
0.0
0.0
0.0
0.0
0.0
0.0
0.0
0.0
0.0
0.0
0.0
0.0
0.0
0.0
0.0
0.0
0.0
0.0
0.0
0.0
0.0
0.0
0.0
0.0
0.0
0.0
0.0
0.0
0.0
0.0
0.0
0.0
0.0
0.0
0.0
0.0
0.0
0.0
0.0
0.0
0.0
0.0
0.0
0.0
0.0
0.0
0.0
0.0
0.0
0.0
0.0
0.0
0.0
0.0
0.0
0.0
0.0
0.0
0.0
0.0
0.0
0.0
0.0
0.0
0.0
0.0
0.0
0.0
0.0
0.0
0.0
0.0
0.0
0.0
0.0
0.0
0.0
0.0
0.0
0.0
0.0
0.0
0.0
0.0
0.0
0.0
0.0
0.0
0.0
0.0
0.0
0.0
0.0
0.0
0.0
0.0
0.0
0.0
0.0
0.0
0.0
0.0
0.0
0.0
0.0
0.0
0.0
0.0
0.0
0.0
0.0
0.0
0.0
0.0
0.0
0.0
0.0
0.0
0.0
0.0
0.0
0.0
0.0
0.0
0.0
0.0
0.0
0.0
0.0
0.0
0.0
0.0
0.0
0.0
0.0
0.0
0.0
0.0
0.0
0.0
0.0
0.0
0.0
0.0
0.0
0.0
0.0
0.0
0.0
0.0
0.0
0.0
0.0
0.0
0.0
0.0
0.0
0.0
0.0
0.0
0.0
0.0
0.0
0.0
0.0
0.0
0.0
0.0
0.0
0.0
0.0
0.0
0.0
0.0
0.0
0.0
0.0
0.0
0.0
0.0
0.0
0.0
0.0
0.0
0.0
0.0
0.0
0.0
0.0
0.0
0.0
0.0
0.0
0.0
0.0
0.0
0.0
0.0
0.0
0.0
0.0
0.0
0.0
0.0
0.0
0.0
0.0
0.0
0.0
0.0
0.0
0.0
0.0
0.0
0.0
0.0
0.0
0.0
0.0
0.0
0.0
0.0
0.0
0.0
0.0
0.0
0.0
0.0
0.0
0.0
0.0
0.0
0.0
0.0
0.0
0.0
0.0
0.0
0.0
0.0
0.0
0.0
0.0
0.0
0.0
0.0
0.0
0.0
0.0
0.0
0.0
0.0
0.0
0.0
0.0
0.0
0.0
0.0
0.0
0.0
0.0
0.0
0.0
0.0
0.0
0.0
0.0
0.0
0.0
0.0
0.0
0.0
0.0
0.0
0.0
0.0
0.0
0.0
0.0
0.0
0.0
0.0
0.0
0.0
0.0
0.0
0.0
0.0
0.0
0.0
0.0
0.0
0.0
0.0
0.0
0.0
0.0
0.0
0.0
0.0
0.0
0.0
0.0
0.0
0.0
0.0
0.0
0.0
0.0
0.0
0.0
0.0
0.0
0.0
0.0
0.0
0.0
0.0
0.0
0.0
0.0
0.0
0.0
0.0
0.0
0.0
0.0
0.0
0.0
0.0
0.0
0.0
0.0
0.0
0.0
0.0
0.0
0.0
0.0
0.0
0.0
0.0
0.0
0.0
0.0
0.0
0.0
0.0
0.0
0.0
0.0
0.0
0.0
0.0
0.0
0.0
0.0
0.0
0.0
0.0
0.0
0.0
0.0
0.0
0.0
0.0
0.0
0.0
0.0
0.0
0.0
0.0
0.0
0.0
0.0
0.0
0.0
0.0
0.0
0.0
0.0
0.0
0.0
0.0
0.0
0.0
0.0
0.0
0.0
0.0
0.0
0.0
0.0
0.0
0.0
0.0
0.0
0.0
0.0
0.0
0.0
0.0
0.0
0.0
0.0
0.0
0.0
0.0
0.0
0.0
0.0
0.0
0.0
0.0
0.0
0.0
0.0
0.0
0.0
0.0
0.0
0.0
0.0
0.0
0.0
0.0
0.0
0.0
0.0
0.0
0.0
0.0
0.0
0.0
0.0
0.0
0.0
0.0
0.0
0.0
0.0
0.0
0.0
0.0
0.0
0.0
0.0
0.0
0.0
0.0
0.0
0.0
0.0
0.0
0.0
0.0
0.0
0.0
0.0
0.0
0.0
0.0
0.0
0.0
0.0
0.0
0.0
0.0
0.0
0.0
0.0
0.0
0.0
0.0
0.0
0.0
0.0
0.0
0.0
0.0
0.0
0.0
0.0
0.0
0.0
0.0
0.0
0.0
0.0
0.0
0.0
0.0
0.0
0.0
0.0
0.0
0.0
0.0
0.0
0.0
0.0
0.0
0.0
0.0
0.0
0.0
0.0
0.0
0.0
0.0
0.0
0.0
0.0
0.0
0.0
0.0
0.0
0.0
0.0
0.0
0.0
0.0
0.0
0.0
0.0
0.0
0.0
0.0
0.0
0.0
0.0
0.0
0.0
0.0
0.0
0.0
0.0
0.0
0.0
0.0
0.0
0.0
0.0
0.0
0.0
0.0
0.0
0.0
0.0
0.0
0.0
0.0
0.0
0.0
0.0
0.0
0.0
0.0
0.0
0.0
0.0
0.0
0.0
0.0
0.0
0.0
0.0
0.0
0.0
0.0
0.0
0.0
0.0
0.0
0.0
0.0
0.0
0.0
0.0
0.0
0.0
0.0
0.0
0.0
0.0
0.0
0.0
0.0
0.0
0.0
0.0
0.0
0.0
0.0
0.0
0.0
0.0
0.0
0.0
0.0
0.0
0.0
0.0
0.0
0.0
0.0
0.0
0.0
0.0
0.0
0.0
0.0
0.0
0.0
0.0
0.0
0.0
0.0
0.0
0.0
0.0
0.0
0.0
0.0
0.0
0.0
0.0
0.0
0.0
0.0
0.0
0.0
0.0
0.0
0.0
0.0
0.0
0.0
0.0
0.0
0.0
0.0
0.0
0.0
0.0
0.0
0.0
0.0
0.0
0.0
0.0
0.0
0.0
0.0
0.0
0.0
0.0
0.0
0.0
0.0
0.0
0.0
0.0
0.0
0.0
0.0
0.0
0.0
0.0
0.0
0.0
0.0
0.0
0.0
0.0
0.0
0.0
0.0
0.0
0.0
0.0
0.0
0.0
0.0
0.0
0.0
0.0
0.0
0.0
0.0
0.0
0.0
0.0
0.0
0.0
0.0
0.0
0.0
0.0
0.0
0.0
0.0
0.0
0.0
0.0
0.0
0.0
0.0
0.0
0.0
0.0
0.0
0.0
0.0
0.0
0.0
0.0
0.0
0.0
0.0
0.0
0.0
0.0
0.0
0.0
0.0
0.0
0.0
0.0
0.0
0.0
0.0
0.0
0.0
0.0
0.0
0.0
0.0
0.0
0.0
0.0
0.0
0.0
0.0
0.0
0.0
0.0
0.0
0.0
0.0
0.0
0.0
0.0
0.0
0.0
0.0
0.0
0.0
0.0
0.0
0.0
0.0
0.0
0.0
0.0
0.0
0.0
0.0
0.0
0.0
0.0
0.0
0.0
0.0
0.0
0.0
0.0
0.0
0.0
0.0
0.0
0.0
0.0
0.0
0.0
0.0
0.0
0.0
0.0
0.0
0.0
0.0
0.0
0.0
0.0
0.0
0.0
0.0
0.0
0.0
0.0
0.0
0.0
0.0
0.0
0.0
0.0
0.0
0.0
0.0
0.0
0.0
0.0
0.0
0.0
0.0
0.0
0.0
0.0
0.0
0.0
0.0
0.0
0.0
0.0
0.0
0.0
0.0
0.0
0.0
0.0
0.0
0.0
0.0
0.0
0.0
0.0
0.0
0.0
0.0
0.0
0.0
0.0
0.0
0.0
0.0
0.0
0.0
0.0
0.0
0.0
0.0
0.0
0.0
0.0
0.0
0.0
0.0
0.0
0.0
0.0
0.0
0.0
0.0
0.0
0.0
0.0
0.0
0.0
0.0
0.0
0.0
0.0
0.0
0.0
0.0
0.0
0.0
0.0
0.0
0.0
0.0
0.0
0.0
0.0
0.0
0.0
0.0
0.0
0.0
0.0
0.0
0.0
0.0
0.0
0.0
0.0
0.0
0.0
0.0
0.0
0.0
0.0
0.0
0.0
0.0
0.0
0.0
0.0
0.0
0.0
0.0
0.0
0.0
0.0
0.0
0.0
0.0
0.0
0.0
0.0
0.0
0.0
0.0
0.0
0.0
0.0
0.0
0.0
0.0
0.0
0.0
0.0
0.0
0.0
0.0
0.0
0.0
0.0
0.0
0.0
0.0
0.0
0.0
0.0
0.0
0.0
0.0
0.0
0.0
0.0
0.0
SCALARS Wm float 4
LOOKUP_TABLE default
3681.267249749683 3681.267249749683 0.0 0.0
666.1316686432225 666.1316686432225 0.0 0.0
793.6310764205151 793.6310764205151 0.0 0.0
1661.4737158333276 1661.4737158333276 0.0 0.0
2930.9089973406803 2930.9089973406803 0.0 0.0
4619.128459756808 4619.128459756808 0.0 0.0
6651.32522253619 6651.32522253619 0.0 0.0
8924.812811018335 8924.812811018335 0.0 0.0
11111.272449655926 11111.272449655926 0.0 0.0
12622.255785410292 12622.255785410292 0.0 0.0
13108.355823546512 13108.355823546512 0.0 0.0
12641.350627769561 12641.350627769561 0.0 0.0
11149.450351899697 11149.450351899697 0.0 0.0
8983.044490441525 8983.044490441525 0.0 0.0
6731.307057182374 6731.307057182374 0.0 0.0
4721.508419046491 4721.508419046491 0.0 0.0
3052.8299632040234 3052.8299632040234 0.0 0.0
1795.0772394023277 1795.0772394023277 0.0 0.0
943.7054286243166 943.7054286243166 0.0 0.0
1051.5837118925374 1051.5837118925374 0.0 0.0
3526.840613543717 3526.840613543717 0.0 0.0
2732.872749030345 2732.872749030345 0.0 0.0
82.69192672314828 82.69192672314828 0.0 0.0
368.9384636333385 368.9384636333385 0.0 0.0
788.6225869045344 788.6225869045344 0.0 0.0
1353.688777989622 1353.688777989622 0.0 0.0
2087.7681951938735 2087.7681951938735 0.0 0.0
2975.7408423771835 2975.7408423771835 0.0 0.0
3977.2447143770137 3977.2447143770137 0.0 0.0
4960.451313233517 4960.451313233517 0.0 0.0
5658.505146634025 5658.505146634025 0.0 0.0
5885.582807979679 5885.582807979679 0.0 0.0
5670.888662832596 5670.888662832596 0.0 0.0
4985.123029914518 4985.123029914518 0.0 0.0
4014.4746933667684 4014.4746933667684 0.0 0.0
3025.758441848416 3025.758441848416 0.0 0.0
2149.9516894191534 2149.9516894191534 0.0 0.0
1424.8127060341512 1424.8127060341512 0.0 0.0
863.2196162337065 863.2196162337065 0.0 0.0
421.888264767852 421.888264767852 0.0 0.0
95.49648270176715 95.49648270176715 0.0 0.0
2870.4259148785977 2870.4259148785977 0.0 0.0
1520.312486834635 1520.312486834635 0.0 0.0
225.77986513049353 225.77986513049353 0.0 0.0
317.0535980206003 317.0535980206003 0.0 0.0
412.70648183640924 412.70648183640924 0.0 0.0
570.9504093985287 570.9504093985287 0.0 0.0
753.9609533982623 753.9609533982623 0.0 0.0
978.4903040455824 978.4903040455824 0.0 0.0
1256.1522714908817 1256.1522714908817 0.0 0.0
1558.153842819851 1558.153842819851 0.0 0.0
1759.173580164744 1759.173580164744 0.0 0.0
1816.0704177008847 1816.0704177008847 0.0 0.0
1764.2582629654612 1764.2582629654612 0.0 0.0
1567.8255425239836 1567.8255425239836 0.0 0.0
1270.1353114964886 1270.1353114964886 0.0 0.0
996.2745366976324 996.2745366976324 0.0 0.0
774.2696861833728 774.2696861833728 0.0 0.0
591.3330602373577 591.3330602373577 0.0 0.0
424.6878986242684 424.6878986242684 0.0 0.0
308.47200167121633 308.47200167121633 0.0 0.0
191.06511587931706 191.06511587931706 0.0 0.0
1586.323318025736 1586.323318025736 0.0 0.0
701.277277125334 701.277277125334 0.0 0.0
327.5694511279377 327.5694511279377 0.0 0.0
408.3597268165306 408.3597268165306 0.0 0.0
373.8699535083825 373.8699535083825 0.0 0.0
369.0274621533993 369.0274621533993 0.0 0.0
363.53817395968673 363.53817395968673 0.0 0.0
357.1030443392827 357.1030443392827 0.0 0.0
369.2293653320105 369.2293653320105 0.0 0.0
426.7761720154847 426.7761720154847 0.0 0.0
490.3302116512405 490.3302116512405 0.0 0.0
531.9482937667326 531.9482937667326 0.0 0.0
488.53213727876926 488.53213727876926 0.0 0.0
422.4712465865596 422.4712465865596 0.0 0.0
362.0830129359791 362.0830129359791 0.0 0.0
346.57233473054436 346.57233473054436 0.0 0.0
348.8698611853494 348.8698611853494 0.0 0.0
348.66482338410424 348.66482338410424 0.0 0.0
345.0790551828568 345.0790551828568 0.0 0.0
375.4306340234302 375.4306340234302 0.0 0.0
300.41480967078917 300.41480967078917 0.0 0.0
738.1405762915365 738.1405762915365 0.0 0.0
266.20298546298176 266.20298546298176 0.0 0.0
301.23634138102176 301.23634138102176 0.0 0.0
482.54407572578094 482.54407572578094 0.0 0.0
568.3020291944598 568.3020291944598 0.0 0.0
685.2411127903569 685.2411127903569 0.0 0.0
847.286661726861 847.286661726861 0.0 0.0
1039.1022467137514 1039.1022467137514 0.0 0.0
1225.90692483088 1225.90692483088 0.0 0.0
1435.8186205598417 1435.8186205598417 0.0 0.0
1765.0963045859658 1765.0963045859658 0.0 0.0
1975.8568369006184 1975.8568369006184 0.0 0.0
1757.027955401541 1757.027955401541 0.0 0.0
1419.2510249145857 1419.2510249145857 0.0 0.0
1200.8561491668245 1200.8561491668245 0.0 0.0
1005.9561768221349 1005.9561768221349 0.0 0.0
807.113689780359 807.113689780359 0.0 0.0
640.1173061278483 640.1173061278483 0.0 0.0
523.7885640540574 523.7885640540574 0.0 0.0
451.2654999615617 451.2654999615617 0.0 0.0
287.8023258059833 287.8023258059833 0.0 0.0
280.0700500900004 280.0700500900004 0.0 0.0
92.8844592132613 92.8844592132613 0.0 0.0
229.8831327164872 229.8831327164872 0.0 0.0
571.180335069148 571.180335069148 0.0 0.0
1022.2331800053344 1022.2331800053344 0.0 0.0
1583.877702225272 1583.877702225272 0.0 0.0
2280.2173604460495 2280.2173604460495 0.0 0.0
3095.3623712601097 3095.3623712601097 0.0 0.0
3984.1662592692232 3984.1662592692232 0.0 0.0
4669.640840490986 4669.640840490986 0.0 0.0
5695.275781052658 5695.275781052658 0.0 0.0
6195.397800742785 6195.397800742785 0.0 0.0
5680.9721070248415 5680.9721070248415 0.0 0.0
4641.616624784876 4641.616624784876 0.0 0.0
3942.2479107179165 3942.2479107179165 0.0 0.0
3042.6235952808993 3042.6235952808993 0.0 0.0
2221.273355728198 2221.273355728198 0.0 0.0
1527.0759883646203 1527.0759883646203 0.0 0.0
979.700158708975 979.700158708975 0.0 0.0
551.5453048959737 551.5453048959737 0.0 0.0
224.76062151645425 224.76062151645425 0.0 0.0
96.32219676394261 96.32219676394261 0.0 0.0
57.07296376185962 57.07296376185962 0.0 0.0
248.13814813677394 248.13814813677394 0.0 0.0
900.8964895386416 900.8964895386416 0.0 0.0
1968.5152279228982 1968.5152279228982 0.0 0.0
3297.791083944035 3297.791083944035 0.0 0.0
4917.419413129868 4917.419413129868 0.0 0.0
6822.881207289856 6822.881207289856 0.0 0.0
8954.608685176347 8954.608685176347 0.0 0.0
11131.754204247602 11131.754204247602 0.0 0.0
13214.852315037348 13214.852315037348 0.0 0.0
11362.458123077175 11362.458123077175 0.0 0.0
13196.405485046103 13196.405485046103 0.0 0.0
11088.056625911133 11088.056625911133 0.0 0.0
8890.520124620896 8890.520124620896 0.0 0.0
6744.582018235165 6744.582018235165 0.0 0.0
4835.194736848476 4835.194736848476 0.0 0.0
3228.9752219700235 3228.9752219700235 0.0 0.0
1932.4262564083785 1932.4262564083785 0.0 0.0
897.5547293441363 897.5547293441363 0.0 0.0
252.65425950231042 252.65425950231042 0.0 0.0
60.44621249254411 60.44621249254411 0.0 0.0
1370.1765438624168 1370.1765438624168 0.0 0.0
565.3354799348386 565.3354799348386 0.0 0.0
839.7079644095637 839.7079644095637 0.0 0.0
1691.8765418501614 1691.8765418501614 0.0 0.0
2900.726960795495 2900.726960795495 0.0 0.0
4478.019063741197 4478.019063741197 0.0 0.0
6368.334756299479 6368.334756299479 0.0 0.0
8551.969568694149 8551.969568694149 0.0 0.0
11007.745408060611 11007.745408060611 0.0 0.0
13422.910895915284 13422.910895915284 0.0 0.0
14582.453007079728 14582.453007079728 0.0 0.0
13429.570032144555 13429.570032144555 0.0 0.0
11020.180814316538 11020.180814316538 0.0 0.0
8570.003255706133 8570.003255706133 0.0 0.0
6392.972860121772 6392.972860121772 0.0 0.0
4511.11923512572 4511.11923512572 0.0 0.0
2945.025445539522 2945.025445539522 0.0 0.0
1748.108639846635 1748.108639846635 0.0 0.0
919.2779849462149 919.2779849462149 0.0 0.0
675.2953526182646 675.2953526182646 0.0 0.0
1335.4184040575142 1335.4184040575142 0.0 0.0
1098.7651999305692 1098.7651999305692 0.0 0.0
95.59984640486839 95.59984640486839 0.0 0.0
354.3503469612956 354.3503469612956 0.0 0.0
771.1639539394399 771.1639539394399 0.0 0.0
1320.3340275886367 1320.3340275886367 0.0 0.0
2025.1749302471685 2025.1749302471685 0.0 0.0
2869.5977152888145 2869.5977152888145 0.0 0.0
3831.0274950865078 3831.0274950865078 0.0 0.0
4893.340907023507 4893.340907023507 0.0 0.0
5959.091954772841 5959.091954772841 0.0 0.0
6522.948094463582 6522.948094463582 0.0 0.0
5963.393632449397 5963.393632449397 0.0 0.0
4901.559712740768 4901.559712740768 0.0 0.0
3843.051316627166 3843.051316627166 0.0 0.0
2885.7560769854767 2885.7560769854767 0.0 0.0
2046.232374574427 2046.232374574427 0.0 0.0
1347.064721429989 1347.064721429989 0.0 0.0
805.2962367801132 805.2962367801132 0.0 0.0
387.91396818011975 387.91396818011975 0.0 0.0
109.90152228207671 109.90152228207671 0.0 0.0
1105.5696958071458 1105.5696958071458 0.0 0.0
660.1711246443997 660.1711246443997 0.0 0.0
77.63495241229307 77.63495241229307 0.0 0.0
151.61140323003852 151.61140323003852 0.0 0.0
255.72591281123468 255.72591281123468 0.0 0.0
410.59339918499387 410.59339918499387 0.0 0.0
594.978325427934 594.978325427934 0.0 0.0
812.0773963835013 812.0773963835013 0.0 0.0
1046.4593104976987 1046.4593104976987 0.0 0.0
1323.2002112456667 1323.2002112456667 0.0 0.0
1744.8098600167882 1744.8098600167882 0.0 0.0
2123.037871912074 2123.037871912074 0.0 0.0
1746.8405313162634 1746.8405313162634 0.0 0.0
1327.1971644604148 1327.1971644604148 0.0 0.0
1052.282547222894 1052.282547222894 0.0 0.0
819.5381704553569 819.5381704553569 0.0 0.0
603.8789982821446 603.8789982821446 0.0 0.0
420.9076524640543 420.9076524640543 0.0 0.0
266.1556164610246 266.1556164610246 0.0 0.0
154.63693508116978 154.63693508116978 0.0 0.0
67.96525419100746 67.96525419100746 0.0 0.0
654.509830152276 654.509830152276 0.0 0.0
328.2609732403577 328.2609732403577 0.0 0.0
108.28528384268618 108.28528384268618 0.0 0.0
132.46875144668783 132.46875144668783 0.0 0.0
114.29031321039176 114.29031321039176 0.0 0.0
118.78767997401872 118.78767997401872 0.0 0.0
129.58668524861415 129.58668524861415 0.0 0.0
143.98723640378284 143.98723640378284 0.0 0.0
152.75318176678547 152.75318176678547 0.0 0.0
161.15262757731585 161.15262757731585 0.0 0.0
292.96801281995556 292.96801281995556 0.0 0.0
716.6600096233185 716.6600096233185 0.0 0.0
292.539131191463 292.539131191463 0.0 0.0
160.92281407978214 160.92281407978214 0.0 0.0
152.6689071532545 152.6689071532545 0.0 0.0
143.63688974691817 143.63688974691817 0.0 0.0
128.47076198581027 128.47076198581027 0.0 0.0
116.25852013500679 116.25852013500679 0.0 0.0
109.01289962050448 109.01289962050448 0.0 0.0
123.40360121618959 123.40360121618959 0.0 0.0
96.45526196416694 96.45526196416694 0.0 0.0
330.44964031373104 330.44964031373104 0.0 0.0
136.00337150418665 136.00337150418665 0.0 0.0
116.34027834424272 116.34027834424272 0.0 0.0
207.76689549436713 207.76689549436713 0.0 0.0
292.8818346489654 292.8818346489654 0.0 0.0
424.44324102134016 424.44324102134016 0.0 0.0
607.5481489888036 607.5481489888036 0.0 0.0
830.6152495457261 830.6152495457261 0.0 0.0
1106.4453986294543 1106.4453986294543 0.0 0.0
1367.5503151132984 1367.5503151132984 0.0 0.0
1443.2369141139034 1443.2369141139034 0.0 0.0
2186.5467234345133 2186.5467234345133 0.0 0.0
1440.2260392325463 1440.2260392325463 0.0 0.0
1363.3644468604582 1363.3644468604582 0.0 0.0
1101.0408329658637 1101.0408329658637 0.0 0.0
823.8200816786405 823.8200816786405 0.0 0.0
599.3089355890024 599.3089355890024 0.0 0.0
414.7365353374407 414.7365353374407 0.0 0.0
282.38380605267594 282.38380605267594 0.0 0.0
198.82523595941467 198.82523595941467 0.0 0.0
109.42186376708452 109.42186376708452 0.0 0.0
138.9131467777787 138.9131467777787 0.0 0.0
59.906885579593364 59.906885579593364 0.0 0.0
126.69191891317064 126.69191891317064 0.0 0.0
381.03490891388856 381.03490891388856 0.0 0.0
793.5536293720767 793.5536293720767 0.0 0.0
1350.4473427896985 1350.4473427896985 0.0 0.0
2057.285442684926 2057.285442684926 0.0 0.0
2905.612018615009 2905.612018615009 0.0 0.0
3860.1079696143906 3860.1079696143906 0.0 0.0
5017.83961367799 5017.83961367799 0.0 0.0
5329.020613174772 5329.020613174772 0.0 0.0
6875.230725256558 6875.230725256558 0.0 0.0
5323.755530455123 5323.755530455123 0.0 0.0
5010.374520466066 5010.374520466066 0.0 0.0
3849.8400239071693 3849.8400239071693 0.0 0.0
2893.276262671994 2893.276262671994 0.0 0.0
2044.2413731486765 2044.2413731486765 0.0 0.0
1338.6214480443953 1338.6214480443953 0.0 0.0
785.4915908381965 785.4915908381965 0.0 0.0
377.948073278493 377.948073278493 0.0 0.0
125.04544656527706 125.04544656527706 0.0 0.0
61.12565604154532 61.12565604154532 0.0 0.0
55.6256751116352 55.6256751116352 0.0 0.0
196.45879082724593 196.45879082724593 0.0 0.0
741.079433137593 741.079433137593 0.0 0.0
1694.749218496996 1694.749218496996 0.0 0.0
2957.2238771930215 2957.2238771930215 0.0 0.0
4532.3454406846395 4532.3454406846395 0.0 0.0
6430.75902716653 6430.75902716653 0.0 0.0
8547.137241664954 8547.137241664954 0.0 0.0
10665.361292673153 10665.361292673153 0.0 0.0
12101.928985532484 12101.928985532484 0.0 0.0
18157.737340294574 18157.737340294574 0.0 0.0
12098.16544462198 12098.16544462198 0.0 0.0
10655.53956624016 10655.53956624016 0.0 0.0
8532.140641195136 8532.140641195136 0.0 0.0
6412.776884444901 6412.776884444901 0.0 0.0
4514.496518578936 4514.496518578936 0.0 0.0
2944.186046154442 2944.186046154442 0.0 0.0
1691.47114653625 1691.47114653625 0.0 0.0
746.5071721246971 746.5071721246971 0.0 0.0
201.26824702432648 201.26824702432648 0.0 0.0
58.020710177628445 58.020710177628445 0.0 0.0
971.644783507429 971.644783507429 0.0 0.0
631.781006417207 631.781006417207 0.0 0.0
804.9929661210635 804.9929661210635 0.0 0.0
1592.4367168866531 1592.4367168866531 0.0 0.0
2718.351448432572 2718.351448432572 0.0 0.0
4170.48709126745 4170.48709126745 0.0 0.0
5949.122346910221 5949.122346910221 0.0 0.0
8182.833275103257 8182.833275103257 0.0 0.0
11151.227747102166 11151.227747102166 0.0 0.0
14647.38995470368 14647.38995470368 0.0 0.0
16504.312965977766 16504.312965977766 0.0 0.0
14639.293587183118 14639.293587183118 0.0 0.0
11135.583270086328 11135.583270086328 0.0 0.0
8159.784847387015 8159.784847387015 0.0 0.0
5918.171609547719 5918.171609547719 0.0 0.0
4131.33009813041 4131.33009813041 0.0 0.0
2671.5209168065976 2671.5209168065976 0.0 0.0
1541.0657661019861 1541.0657661019861 0.0 0.0
743.1154359179327 743.1154359179327 0.0 0.0
492.5369187904723 492.5369187904723 0.0 0.0
958.8176753535715 958.8176753535715 0.0 0.0
822.1545176275046 822.1545176275046 0.0 0.0
106.43010498313873 106.43010498313873 0.0 0.0
355.0243216759864 355.0243216759864 0.0 0.0
753.4003968731569 753.4003968731569 0.0 0.0
1265.1792875524452 1265.1792875524452 0.0 0.0
1917.500718598931 1917.500718598931 0.0 0.0
2713.4224010121266 2713.4224010121266 0.0 0.0
3693.8010629042356 3693.8010629042356 0.0 0.0
4972.256014918255 4972.256014918255 0.0 0.0
6512.280735643865 6512.280735643865 0.0 0.0
7420.0156014498425 7420.0156014498425 0.0 0.0
6506.725161082074 6506.725161082074 0.0 0.0
4961.417207793223 4961.417207793223 0.0 0.0
3678.049536606773 3678.049536606773 0.0 0.0
2693.0121105483945 2693.0121105483945 0.0 0.0
1892.8062070595179 1892.8062070595179 0.0 0.0
1237.3654382676605 1237.3654382676605 0.0 0.0
723.3866386139001 723.3866386139001 0.0 0.0
330.4321016154131 330.4321016154131 0.0 0.0
99.52535979347701 99.52535979347701 0.0 0.0
795.3303545215737 795.3303545215737 0.0 0.0
456.6041338311753 456.6041338311753 0.0 0.0
73.89226745882678 73.89226745882678 0.0 0.0
153.17642256945555 153.17642256945555 0.0 0.0
270.6950427958822 270.6950427958822 0.0 0.0
419.44087741643756 419.44087741643756 0.0 0.0
590.7189139813237 590.7189139813237 0.0 0.0
791.1233931532859 791.1233931532859 0.0 0.0
1017.7656705521657 1017.7656705521657 0.0 0.0
1362.158796534429 1362.158796534429 0.0 0.0
2016.7589744759996 2016.7589744759996 0.0 0.0
2655.821962694775 2655.821962694775 0.0 0.0
2014.5688573960945 2014.5688573960945 0.0 0.0
1357.5417475831723 1357.5417475831723 0.0 0.0
1010.9630010493044 1010.9630010493044 0.0 0.0
782.5948928601372 782.5948928601372 0.0 0.0
581.189732069932 581.189732069932 0.0 0.0
409.7827480390747 409.7827480390747 0.0 0.0
263.39620334988564 263.39620334988564 0.0 0.0
154.73384638979815 154.73384638979815 0.0 0.0
83.41045545876798 83.41045545876798 0.0 0.0
458.6757098037541 458.6757098037541 0.0 0.0
232.24519259981284 232.24519259981284 0.0 0.0
99.27381802073904 99.27381802073904 0.0 0.0
127.523711618964 127.523711618964 0.0 0.0
121.95318130255939 121.95318130255939 0.0 0.0
131.32901589639914 131.32901589639914 0.0 0.0
142.1501379806241 142.1501379806241 0.0 0.0
155.5395191595586 155.5395191595586 0.0 0.0
161.74204006926462 161.74204006926462 0.0 0.0
189.3113086941494 189.3113086941494 0.0 0.0
428.43811511442686 428.43811511442686 0.0 0.0
1208.525378119012 1208.525378119012 0.0 0.0
429.76927466577894 429.76927466577894 0.0 0.0
191.16876587017342 191.16876587017342 0.0 0.0
164.0587403385988 164.0587403385988 0.0 0.0
158.45481901594692 158.45481901594692 0.0 0.0
145.9913687474284 145.9913687474284 0.0 0.0
136.68179781958025 136.68179781958025 0.0 0.0
130.0532694463888 130.0532694463888 0.0 0.0
137.95008491041352 137.95008491041352 0.0 0.0
107.31164833163434 107.31164833163434 0.0 0.0
228.0675902224751 228.0675902224751 0.0 0.0
102.76072700431295 102.76072700431295 0.0 0.0
108.88940537045275 108.88940537045275 0.0 0.0
192.89039253848674 192.89039253848674 0.0 0.0
266.5233323929824 266.5233323929824 0.0 0.0
386.1203878739143 386.1203878739143 0.0 0.0
557.6087376311185 557.6087376311185 0.0 0.0
777.6332941694809 777.6332941694809 0.0 0.0
1082.3101712173104 1082.3101712173104 0.0 0.0
1408.5334401874297 1408.5334401874297 0.0 0.0
1516.5520470635017 1516.5520470635017 0.0 0.0
3017.8299169521483 3017.8299169521483 0.0 0.0
1521.366113354602 1521.366113354602 0.0 0.0
1416.875960915298 1416.875960915298 0.0 0.0
1093.61629724946 1093.61629724946 0.0 0.0
791.0877727479174 791.0877727479174 0.0 0.0
572.4620180820634 572.4620180820634 0.0 0.0
401.4456168842114 401.4456168842114 0.0 0.0
280.64909028731137 280.64909028731137 0.0 0.0
202.25393221678857 202.25393221678857 0.0 0.0
111.78139212397306 111.78139212397306 0.0 0.0
97.68346279613209 97.68346279613209 0.0 0.0
52.91982270009241 52.91982270009241 0.0 0.0
118.33275439966134 118.33275439966134 0.0 0.0
344.1656075351737 344.1656075351737 0.0 0.0
703.7439692803482 703.7439692803482 0.0 0.0
1203.0001481186052 1203.0001481186052 0.0 0.0
1858.9282468167078 1858.9282468167078 0.0 0.0
2679.53083508523 2679.53083508523 0.0 0.0
3668.456768965032 3668.456768965032 0.0 0.0
5055.742289768354 5055.742289768354 0.0 0.0
5457.719855483522 5457.719855483522 0.0 0.0
8782.430531227383 8782.430531227383 0.0 0.0
5466.131161344065 5466.131161344065 0.0 0.0
5071.310518066734 5071.310518066734 0.0 0.0
3689.318786463492 3689.318786463492 0.0 0.0
2703.6678553314578 2703.6678553314578 0.0 0.0
1883.3700871693752 1883.3700871693752 0.0 0.0
1224.0583093206783 1224.0583093206783 0.0 0.0
717.4924555319141 717.4924555319141 0.0 0.0
349.3071421273659 349.3071421273659 0.0 0.0
118.45445673874205 118.45445673874205 0.0 0.0
48.67743050433727 48.67743050433727 0.0 0.0
53.01767131583538 53.01767131583538 0.0 0.0
179.3284743280349 179.3284743280349 0.0 0.0
661.1659558228877 661.1659558228877 0.0 0.0
1502.1630644219013 1502.1630644219013 0.0 0.0
2635.504093537492 2635.504093537492 0.0 0.0
4090.1411104580316 4090.1411104580316 0.0 0.0
5908.1080729317455 5908.1080729317455 0.0 0.0
8036.3381275354495 8036.3381275354495 0.0 0.0
10387.538341452262 10387.538341452262 0.0 0.0
12663.8507198312 12663.8507198312 0.0 0.0
23629.92140633933 23629.92140633933 0.0 0.0
12676.799640832192 12676.799640832192 0.0 0.0
10412.417067482997 10412.417067482997 0.0 0.0
8069.5671648450325 8069.5671648450325 0.0 0.0
5945.623829476527 5945.623829476527 0.0 0.0
4126.199927032184 4126.199927032184 0.0 0.0
2662.5697316055625 2662.5697316055625 0.0 0.0
1513.8843964429368 1513.8843964429368 0.0 0.0
661.0344346351217 661.0344346351217 0.0 0.0
177.57651248017265 177.57651248017265 0.0 0.0
49.76940419331389 49.76940419331389 0.0 0.0
944.9990398545063 944.9990398545063 0.0 0.0
650.0074991334355 650.0074991334355 0.0 0.0
792.3640884762506 792.3640884762506 0.0 0.0
1550.6103572292814 1550.6103572292814 0.0 0.0
2650.819627889726 2650.819627889726 0.0 0.0
4080.485547848488 4080.485547848488 0.0 0.0
5862.069592378357 5862.069592378357 0.0 0.0
8176.957439900792 8176.957439900792 0.0 0.0
11372.167545118442 11372.167545118442 0.0 0.0
15223.343050444098 15223.343050444098 0.0 0.0
17282.730394032333 17282.730394032333 0.0 0.0
15208.792228546685 15208.792228546685 0.0 0.0
11344.595309525963 11344.595309525963 0.0 0.0
8136.963716437472 8136.963716437472 0.0 0.0
5808.454320153418 5808.454320153418 0.0 0.0
4011.536536699338 4011.536536699338 0.0 0.0
2566.1244762123965 2566.1244762123965 0.0 0.0
1454.0761698568676 1454.0761698568676 0.0 0.0
683.4656070286046 683.4656070286046 0.0 0.0
440.3493788743189 440.3493788743189 0.0 0.0
881.9119605056732 881.9119605056732 0.0 0.0
780.2660039499729 780.2660039499729 0.0 0.0
106.66006733068335 106.66006733068335 0.0 0.0
353.00325422888614 353.00325422888614 0.0 0.0
740.4613561234534 740.4613561234534 0.0 0.0
1241.4555045590726 1241.4555045590726 0.0 0.0
1885.522002558483 1885.522002558483 0.0 0.0
2685.28583188782 2685.28583188782 0.0 0.0
3703.5392570800445 3703.5392570800445 0.0 0.0
5078.937482842315 5078.937482842315 0.0 0.0
6763.210476614232 6763.210476614232 0.0 0.0
7754.164264633873 7754.164264633873 0.0 0.0
6753.472974667613 6753.472974667613 0.0 0.0
5060.227332247132 5060.227332247132 0.0 0.0
3676.585515075881 3676.585515075881 0.0 0.0
2650.1953689672755 2650.1953689672755 0.0 0.0
1842.201533902139 1842.201533902139 0.0 0.0
1190.7874273338903 1190.7874273338903 0.0 0.0
684.4417791717356 684.4417791717356 0.0 0.0
306.3259032714967 306.3259032714967 0.0 0.0
87.20892772490275 87.20892772490275 0.0 0.0
738.090253194641 738.090253194641 0.0 0.0
435.4450651645142 435.4450651645142 0.0 0.0
64.99988459263635 64.99988459263635 0.0 0.0
149.9379287016788 149.9379287016788 0.0 0.0
269.4918482228075 269.4918482228075 0.0 0.0
417.70594400370493 417.70594400370493 0.0 0.0
588.689958367554 588.689958367554 0.0 0.0
792.6155058532302 792.6155058532302 0.0 0.0
1033.811715059248 1033.811715059248 0.0 0.0
1413.2469347149631 1413.2469347149631 0.0 0.0
2120.1752216581262 2120.1752216581262 0.0 0.0
2792.2491777654095 2792.2491777654095 0.0 0.0
2116.2525325185984 2116.2525325185984 0.0 0.0
1405.2821257465973 1405.2821257465973 0.0 0.0
1022.228343147402 1022.228343147402 0.0 0.0
778.0492889856829 778.0492889856829 0.0 0.0
572.060244660609 572.060244660609 0.0 0.0
400.12921304583625 400.12921304583625 0.0 0.0
255.10199605587013 255.10199605587013 0.0 0.0
148.87689708698662 148.87689708698662 0.0 0.0
76.92578240460625 76.92578240460625 0.0 0.0
419.36628352387424 419.36628352387424 0.0 0.0
215.99448965033412 215.99448965033412 0.0 0.0
88.88561607078204 88.88561607078204 0.0 0.0
120.26598845367188 120.26598845367188 0.0 0.0
119.645169268248 119.645169268248 0.0 0.0
132.41807404770677 132.41807404770677 0.0 0.0
145.750600882981 145.750600882981 0.0 0.0
162.80896766034382 162.80896766034382 0.0 0.0
176.57648393895184 176.57648393895184 0.0 0.0
219.43279903164512 219.43279903164512 0.0 0.0
476.0587369971656 476.0587369971656 0.0 0.0
1283.6679459695006 1283.6679459695006 0.0 0.0
478.0797824152954 478.0797824152954 0.0 0.0
222.34973148284215 222.34973148284215 0.0 0.0
180.19729857183063 180.19729857183063 0.0 0.0
167.47888520685578 167.47888520685578 0.0 0.0
152.17619181022815 152.17619181022815 0.0 0.0
141.57836239181205 141.57836239181205 0.0 0.0
133.17493681909698 133.17493681909698 0.0 0.0
136.83288057466214 136.83288057466214 0.0 0.0
101.61052469692014 101.61052469692014 0.0 0.0
199.89695175222326 199.89695175222326 0.0 0.0
91.32426366749183 91.32426366749183 0.0 0.0
99.03834462359342 99.03834462359342 0.0 0.0
179.4062835835805 179.4062835835805 0.0 0.0
252.240697352372 252.240697352372 0.0 0.0
370.69441534754367 370.69441534754367 0.0 0.0
541.1966187470172 541.1966187470172 0.0 0.0
764.6020879190082 764.6020879190082 0.0 0.0
1084.4552987787035 1084.4552987787035 0.0 0.0
1442.974330212645 1442.974330212645 0.0 0.0
1570.9842741915243 1570.9842741915243 0.0 0.0
3150.577456158068 3150.577456158068 0.0 0.0
1578.7912041062286 1578.7912041062286 0.0 0.0
1456.409174650125 1456.409174650125 0.0 0.0
1102.4395185866665 1102.4395185866665 0.0 0.0
786.2310403574883 786.2310403574883 0.0 0.0
565.6918646833071 565.6918646833071 0.0 0.0
396.75009519182737 396.75009519182737 0.0 0.0
276.7685652135054 276.7685652135054 0.0 0.0
195.8308702355991 195.8308702355991 0.0 0.0
104.75339904997917 104.75339904997917 0.0 0.0
79.4758180063207 79.4758180063207 0.0 0.0
46.180726049351556 46.180726049351556 0.0 0.0
106.35072552554597 106.35072552554597 0.0 0.0
320.21429453054384 320.21429453054384 0.0 0.0
667.4730857748195 667.4730857748195 0.0 0.0
1153.2099403634124 1153.2099403634124 0.0 0.0
1798.220521804236 1798.220521804236 0.0 0.0
2621.630924059971 2621.630924059971 0.0 0.0
3646.1352014439963 3646.1352014439963 0.0 0.0
5137.394657700018 5137.394657700018 0.0 0.0
5594.631994184563 5594.631994184563 0.0 0.0
9122.30765510483 9122.30765510483 0.0 0.0
5608.0602704761595 5608.0602704761595 0.0 0.0
5161.725478899137 5161.725478899137 0.0 0.0
3678.5496142117177 3678.5496142117177 0.0 0.0
2659.5206793131606 2659.5206793131606 0.0 0.0
1837.347702769921 1837.347702769921 0.0 0.0
1187.930333957904 1187.930333957904 0.0 0.0
691.0686516744045 691.0686516744045 0.0 0.0
329.49506381516414 329.49506381516414 0.0 0.0
107.07228718776834 107.07228718776834 0.0 0.0
38.332375106716164 38.332375106716164 0.0 0.0
43.538009015126114 43.538009015126114 0.0 0.0
158.1110684821616 158.1110684821616 0.0 0.0
616.5729764018131 616.5729764018131 0.0 0.0
1429.0760211146935 1429.0760211146935 0.0 0.0
2530.18349836512 2530.18349836512 0.0 0.0
3957.5249191095863 3957.5249191095863 0.0 0.0
5776.1508630576545 5776.1508630576545 0.0 0.0
7980.921267370141 7980.921267370141 0.0 0.0
10543.23122228824 10543.23122228824 0.0 0.0
13022.736087347328 13022.736087347328 0.0 0.0
24634.278588871635 24634.278588871635 0.0 0.0
13041.78659746314 13041.78659746314 0.0 0.0
10580.414222150255 10580.414222150255 0.0 0.0
8031.084646922858 8031.084646922858 0.0 0.0
5833.609142447697 5833.609142447697 0.0 0.0
4013.764014420276 4013.764014420276 0.0 0.0
2573.355165648115 2573.355165648115 0.0 0.0
1448.319537610371 1448.319537610371 0.0 0.0
615.8279746498492 615.8279746498492 0.0 0.0
153.80889694033064 153.80889694033064 0.0 0.0
36.8335693132369 36.8335693132369 0.0 0.0
971.6447835029159 971.6447835029159 0.0 0.0
631.7810064106743 631.7810064106743 0.0 0.0
804.9929661159155 804.9929661159155 0.0 0.0
1592.4367168825813 1592.4367168825813 0.0 0.0
2718.3514484322986 2718.3514484322986 0.0 0.0
4170.487091265519 4170.487091265519 0.0 0.0
5949.122346905649 5949.122346905649 0.0 0.0
8182.833275096591 8182.833275096591 0.0 0.0
11151.22774708913 11151.22774708913 0.0 0.0
14647.389954694347 14647.389954694347 0.0 0.0
16504.31296595647 16504.31296595647 0.0 0.0
14639.293587155875 14639.293587155875 0.0 0.0
11135.583270074203 11135.583270074203 0.0 0.0
8159.784847386823 8159.784847386823 0.0 0.0
5918.171609556754 5918.171609556754 0.0 0.0
4131.330098152242 4131.330098152242 0.0 0.0
2671.5209168187585 2671.5209168187585 0.0 0.0
1541.0657661081038 1541.0657661081038 0.0 0.0
743.1154359224502 743.1154359224502 0.0 0.0
492.5369187939909 492.5369187939909 0.0 0.0
958.8176753599187 958.8176753599187 0.0 0.0
822.1545176256657 822.1545176256657 0.0 0.0
106.43010498242678 106.43010498242678 0.0 0.0
355.0243216735342 355.0243216735342 0.0 0.0
753.4003968714861 753.4003968714861 0.0 0.0
1265.1792875503806 1265.1792875503806 0.0 0.0
1917.5007185973936 1917.5007185973936 0.0 0.0
2713.422401009555 2713.422401009555 0.0 0.0
3693.8010629007917 3693.8010629007917 0.0 0.0
4972.2560149125675 4972.2560149125675 0.0 0.0
6512.2807356323565 6512.2807356323565 0.0 0.0
7420.015601440405 7420.015601440405 0.0 0.0
6506.725161071723 6506.725161071723 0.0 0.0
4961.417207780629 4961.417207780629 0.0 0.0
3678.0495366062046 3678.0495366062046 0.0 0.0
2693.01211054949 2693.01211054949 0.0 0.0
1892.8062070708336 1892.8062070708336 0.0 0.0
1237.3654382718778 1237.3654382718778 0.0 0.0
723.3866386177502 723.3866386177502 0.0 0.0
330.43210161749386 330.43210161749386 0.0 0.0
99.52535979408071 99.52535979408071 0.0 0.0
795.3303545275213 795.3303545275213 0.0 0.0
456.604133830549 456.604133830549 0.0 0.0
73.89226745879228 73.89226745879228 0.0 0.0
153.17642256892444 153.17642256892444 0.0 0.0
270.69504279516957 270.69504279516957 0.0 0.0
419.44087741642875 419.44087741642875 0.0 0.0
590.718913981068 590.718913981068 0.0 0.0
791.1233931505691 791.1233931505691 0.0 0.0
1017.7656705497976 1017.7656705497976 0.0 0.0
1362.1587965320903 1362.1587965320903 0.0 0.0
2016.7589744740533 2016.7589744740533 0.0 0.0
2655.8219626911696 2655.8219626911696 0.0 0.0
2014.568857395538 2014.568857395538 0.0 0.0
1357.5417475733398 1357.5417475733398 0.0 0.0
1010.9630010507186 1010.9630010507186 0.0 0.0
782.5948928554898 782.5948928554898 0.0 0.0
581.1897320731309 581.1897320731309 0.0 0.0
409.7827480414381 409.7827480414381 0.0 0.0
263.39620335095026 263.39620335095026 0.0 0.0
154.7338463914226 154.7338463914226 0.0 0.0
83.4104554594338 83.4104554594338 0.0 0.0
458.6757098075398 458.6757098075398 0.0 0.0
232.24519259924188 232.24519259924188 0.0 0.0
99.2738180206944 99.2738180206944 0.0 0.0
127.52371161899701 127.52371161899701 0.0 0.0
121.95318130288075 121.95318130288075 0.0 0.0
131.32901589745353 131.32901589745353 0.0 0.0
142.1501379797595 142.1501379797595 0.0 0.0
155.53951915862115 155.53951915862115 0.0 0.0
161.74204007033939 161.74204007033939 0.0 0.0
189.31130868939766 189.31130868939766 0.0 0.0
428.4381151152655 428.4381151152655 0.0 0.0
1208.5253781241313 1208.5253781241313 0.0 0.0
429.76927466505924 429.76927466505924 0.0 0.0
191.16876586203733 191.16876586203733 0.0 0.0
164.0587403399287 164.0587403399287 0.0 0.0
158.45481900964128 158.45481900964128 0.0 0.0
145.99136875070505 145.99136875070505 0.0 0.0
136.6817978192564 136.6817978192564 0.0 0.0
130.0532694480584 130.0532694480584 0.0 0.0
137.9500849112845 137.9500849112845 0.0 0.0
107.31164833244468 107.31164833244468 0.0 0.0
228.06759022488677 228.06759022488677 0.0 0.0
102.7607270039311 102.7607270039311 0.0 0.0
108.88940537039231 108.88940537039231 0.0 0.0
192.89039253850024 192.89039253850024 0.0 0.0
266.52333239374775 266.52333239374775 0.0 0.0
386.1203878741117 386.1203878741117 0.0 0.0
557.6087376326152 557.6087376326152 0.0 0.0
777.6332941694487 777.6332941694487 0.0 0.0
1082.3101712191315 1082.3101712191315 0.0 0.0
1408.5334401876146 1408.5334401876146 0.0 0.0
1516.5520470643871 1516.5520470643871 0.0 0.0
3017.829916953397 3017.829916953397 0.0 0.0
1521.3661133526289 1521.3661133526289 0.0 0.0
1416.8759609141814 1416.8759609141814 0.0 0.0
1093.6162972515801 1093.6162972515801 0.0 0.0
791.0877727452702 791.0877727452702 0.0 0.0
572.4620180882646 572.4620180882646 0.0 0.0
401.4456168855545 401.4456168855545 0.0 0.0
280.6490902894003 280.6490902894003 0.0 0.0
202.2539322182501 202.2539322182501 0.0 0.0
111.78139212469384 111.78139212469384 0.0 0.0
97.68346279747568 97.68346279747568 0.0 0.0
52.91982269993621 52.91982269993621 0.0 0.0
118.33275439954295 118.33275439954295 0.0 0.0
344.1656075349829 344.1656075349829 0.0 0.0
703.7439692804619 703.7439692804619 0.0 0.0
1203.0001481208114 1203.0001481208114 0.0 0.0
1858.9282468206616 1858.9282468206616 0.0 0.0
2679.530835085 2679.530835085 0.0 0.0
3668.456768972495 3668.456768972495 0.0 0.0
5055.742289764573 5055.742289764573 0.0 0.0
5457.719855488415 5457.719855488415 0.0 0.0
8782.430531217899 8782.430531217899 0.0 0.0
5466.131161345326 5466.131161345326 0.0 0.0
5071.310518059829 5071.310518059829 0.0 0.0
3689.318786469314 3689.318786469314 0.0 0.0
2703.66785533368 2703.66785533368 0.0 0.0
1883.3700871799056 1883.3700871799056 0.0 0.0
1224.0583093266707 1224.0583093266707 0.0 0.0
717.4924555356765 717.4924555356765 0.0 0.0
349.3071421296104 349.3071421296104 0.0 0.0
118.45445673953061 118.45445673953061 0.0 0.0
48.67743050490119 48.67743050490119 0.0 0.0
53.017671315762804 53.017671315762804 0.0 0.0
179.3284743278743 179.3284743278743 0.0 0.0
661.1659558217043 661.1659558217043 0.0 0.0
1502.1630644215704 1502.1630644215704 0.0 0.0
2635.5040935412917 2635.5040935412917 0.0 0.0
4090.1411104638164 4090.1411104638164 0.0 0.0
5908.108072937614 5908.108072937614 0.0 0.0
8036.338127541109 8036.338127541109 0.0 0.0
10387.538341444837 10387.538341444837 0.0 0.0
12663.850719831844 12663.850719831844 0.0 0.0
23629.921406316695 23629.921406316695 0.0 0.0
12676.799640827807 12676.799640827807 0.0 0.0
10412.417067467384 10412.417067467384 0.0 0.0
8069.567164847594 8069.567164847594 0.0 0.0
5945.623829489776 5945.623829489776 0.0 0.0
4126.199927052625 4126.199927052625 0.0 0.0
2662.569731621988 2662.569731621988 0.0 0.0
1513.8843964517553 1513.8843964517553 0.0 0.0
661.0344346386959 661.0344346386959 0.0 0.0
177.57651248138936 177.57651248138936 0.0 0.0
49.76940419391747 49.76940419391747 0.0 0.0
1370.1765438651444 1370.1765438651444 0.0 0.0
565.3354799212123 565.3354799212123 0.0 0.0
839.7079644013887 839.7079644013887 0.0 0.0
1691.876541841872 1691.876541841872 0.0 0.0
2900.7269607841854 2900.7269607841854 0.0 0.0
4478.019063726278 4478.019063726278 0.0 0.0
6368.334756291495 6368.334756291495 0.0 0.0
8551.969568705203 8551.969568705203 0.0 0.0
11007.74540806304 11007.74540806304 0.0 0.0
13422.910895873181 13422.910895873181 0.0 0.0
14582.45300704971 14582.45300704971 0.0 0.0
13429.570032108566 13429.570032108566 0.0 0.0
11020.180814303154 11020.180814303154 0.0 0.0
8570.003255709464 8570.003255709464 0.0 0.0
6392.97286014191 6392.97286014191 0.0 0.0
4511.119235145547 4511.119235145547 0.0 0.0
2945.0254455638983 2945.0254455638983 0.0 0.0
1748.1086398629097 1748.1086398629097 0.0 0.0
919.2779849562772 919.2779849562772 0.0 0.0
675.295352626769 675.295352626769 0.0 0.0
1335.4184040755295 1335.4184040755295 0.0 0.0
1098.7651999294599 1098.7651999294599 0.0 0.0
95.59984640285955 95.59984640285955 0.0 0.0
354.35034695756684 354.35034695756684 0.0 0.0
771.1639539343076 771.1639539343076 0.0 0.0
1320.3340275818457 1320.3340275818457 0.0 0.0
2025.1749302400442 2025.1749302400442 0.0 0.0
2869.5977152813925 2869.5977152813925 0.0 0.0
3831.0274950904004 3831.0274950904004 0.0 0.0
4893.340907020653 4893.340907020653 0.0 0.0
5959.091954748851 5959.091954748851 0.0 0.0
6522.948094448459 6522.948094448459 0.0 0.0
5963.393632434374 5963.393632434374 0.0 0.0
4901.559712733395 4901.559712733395 0.0 0.0
3843.051316631062 3843.051316631062 0.0 0.0
2885.756076993614 2885.756076993614 0.0 0.0
2046.23237458256 2046.23237458256 0.0 0.0
1347.0647214387923 1347.0647214387923 0.0 0.0
805.2962367880535 805.2962367880535 0.0 0.0
387.91396818391024 387.91396818391024 0.0 0.0
109.90152228281086 109.90152228281086 0.0 0.0
1105.5696958228502 1105.5696958228502 0.0 0.0
660.171124643769 660.171124643769 0.0 0.0
77.63495241287976 77.63495241287976 0.0 0.0
151.61140322977124 151.61140322977124 0.0 0.0
255.72591280922853 255.72591280922853 0.0 0.0
410.5933991813115 410.5933991813115 0.0 0.0
594.9783254248798 594.9783254248798 0.0 0.0
812.0773963816428 812.0773963816428 0.0 0.0
1046.4593105005558 1046.4593105005558 0.0 0.0
1323.2002112431173 1323.2002112431173 0.0 0.0
1744.809860003019 1744.809860003019 0.0 0.0
2123.0378719073024 2123.0378719073024 0.0 0.0
1746.8405313044063 1746.8405313044063 0.0 0.0
1327.1971644621474 1327.1971644621474 0.0 0.0
1052.2825472184127 1052.2825472184127 0.0 0.0
819.5381704586865 819.5381704586865 0.0 0.0
603.8789982829878 603.8789982829878 0.0 0.0
420.90765246583896 420.90765246583896 0.0 0.0
266.1556164646376 266.1556164646376 0.0 0.0
154.63693508171107 154.63693508171107 0.0 0.0
67.96525419166963 67.96525419166963 0.0 0.0
654.5098301619239 654.5098301619239 0.0 0.0
328.2609732394507 328.2609732394507 0.0 0.0
108.28528384353135 108.28528384353135 0.0 0.0
132.46875144763106 132.46875144763106 0.0 0.0
114.29031321085935 114.29031321085935 0.0 0.0
118.7876799727528 118.7876799727528 0.0 0.0
129.58668524925335 129.58668524925335 0.0 0.0
143.98723640389355 143.98723640389355 0.0 0.0
152.75318176791333 152.75318176791333 0.0 0.0
161.1526275796294 161.1526275796294 0.0 0.0
292.96801280915093 292.96801280915093 0.0 0.0
716.6600096133209 716.6600096133209 0.0 0.0
292.53913118760227 292.53913118760227 0.0 0.0
160.92281407972507 160.92281407972507 0.0 0.0
152.66890715069516 152.66890715069516 0.0 0.0
143.63688974663953 143.63688974663953 0.0 0.0
128.47076198525676 128.47076198525676 0.0 0.0
116.25852013626601 116.25852013626601 0.0 0.0
109.01289962224575 109.01289962224575 0.0 0.0
123.40360121676451 123.40360121676451 0.0 0.0
96.4552619650675 96.4552619650675 0.0 0.0
330.4496403189428 330.4496403189428 0.0 0.0
136.003371503739 136.003371503739 0.0 0.0
116.34027834486365 116.34027834486365 0.0 0.0
207.76689549483748 207.76689549483748 0.0 0.0
292.88183465051947 292.88183465051947 0.0 0.0
424.4432410223694 424.4432410223694 0.0 0.0
607.5481489890699 607.5481489890699 0.0 0.0
830.6152495469789 830.6152495469789 0.0 0.0
1106.4453986419844 1106.4453986419844 0.0 0.0
1367.5503151176256 1367.5503151176256 0.0 0.0
1443.236914111404 1443.236914111404 0.0 0.0
2186.546723419921 2186.546723419921 0.0 0.0
1440.2260392287185 1440.2260392287185 0.0 0.0
1363.3644468633715 1363.3644468633715 0.0 0.0
1101.0408329639938 1101.0408329639938 0.0 0.0
823.8200816818893 823.8200816818893 0.0 0.0
599.3089355903717 599.3089355903717 0.0 0.0
414.7365353406019 414.7365353406019 0.0 0.0
282.3838060563088 282.3838060563088 0.0 0.0
198.82523596092165 198.82523596092165 0.0 0.0
109.42186376826345 109.42186376826345 0.0 0.0
138.91314678031384 138.91314678031384 0.0 0.0
59.906885579259836 59.906885579259836 0.0 0.0
126.69191891307536 126.69191891307536 0.0 0.0
381.034908914146 381.034908914146 0.0 0.0
793.5536293729167 793.5536293729167 0.0 0.0
1350.4473427913576 1350.4473427913576 0.0 0.0
2057.2854426836184 2057.2854426836184 0.0 0.0
2905.612018623751 2905.612018623751 0.0 0.0
3860.1079696272986 3860.1079696272986 0.0 0.0
5017.839613688952 5017.839613688952 0.0 0.0
5329.020613175758 5329.020613175758 0.0 0.0
6875.230725218905 6875.230725218905 0.0 0.0
5323.755530454223 5323.755530454223 0.0 0.0
5010.374520470217 5010.374520470217 0.0 0.0
3849.8400239108128 3849.8400239108128 0.0 0.0
2893.276262683576 2893.276262683576 0.0 0.0
2044.2413731597965 2044.2413731597965 0.0 0.0
1338.6214480562655 1338.6214480562655 0.0 0.0
785.4915908457667 785.4915908457667 0.0 0.0
377.94807328238824 377.94807328238824 0.0 0.0
125.04544656646934 125.04544656646934 0.0 0.0
61.12565604258306 61.12565604258306 0.0 0.0
55.62567511132356 55.62567511132356 0.0 0.0
196.45879082630964 196.45879082630964 0.0 0.0
741.0794331361773 741.0794331361773 0.0 0.0
1694.749218497762 1694.749218497762 0.0 0.0
2957.2238771943344 2957.2238771943344 0.0 0.0
4532.345440681735 4532.345440681735 0.0 0.0
6430.75902717954 6430.75902717954 0.0 0.0
8547.137241694354 8547.137241694354 0.0 0.0
10665.361292696312 10665.361292696312 0.0 0.0
12101.92898553226 12101.92898553226 0.0 0.0
18157.737340168438 18157.737340168438 0.0 0.0
12098.16544461985 12098.16544461985 0.0 0.0
10655.539566255013 10655.539566255013 0.0 0.0
8532.140641201982 8532.140641201982 0.0 0.0
6412.7768844670845 6412.7768844670845 0.0 0.0
4514.496518606997 4514.496518606997 0.0 0.0
2944.186046179826 2944.186046179826 0.0 0.0
1691.4711465522348 1691.4711465522348 0.0 0.0
746.5071721318134 746.5071721318134 0.0 0.0
201.2682470267967 201.2682470267967 0.0 0.0
58.020710178684254 58.020710178684254 0.0 0.0
3681.2672497733565 3681.2672497733565 0.0 0.0
666.1316686199344 666.1316686199344 0.0 0.0
793.6310764083833 793.6310764083833 0.0 0.0
1661.4737158199853 1661.4737158199853 0.0 0.0
2930.908997324899 2930.908997324899 0.0 0.0
4619.128459747604 4619.128459747604 0.0 0.0
6651.325222536579 6651.325222536579 0.0 0.0
8924.812811023092 8924.812811023092 0.0 0.0
11111.272449646242 11111.272449646242 0.0 0.0
12622.25578538707 12622.25578538707 0.0 0.0
13108.355823493508 13108.355823493508 0.0 0.0
12641.35062772954 12641.35062772954 0.0 0.0
11149.450351884874 11149.450351884874 0.0 0.0
8983.04449045023 8983.04449045023 0.0 0.0
6731.307057200174 6731.307057200174 0.0 0.0
4721.508419074575 4721.508419074575 0.0 0.0
3052.829963230167 3052.829963230167 0.0 0.0
1795.0772394258538 1795.0772394258538 0.0 0.0
943.7054286368677 943.7054286368677 0.0 0.0
1051.5837119083403 1051.5837119083403 0.0 0.0
3526.8406136065805 3526.8406136065805 0.0 0.0
2732.8727490246665 2732.8727490246665 0.0 0.0
82.69192672177631 82.69192672177631 0.0 0.0
368.9384636292004 368.9384636292004 0.0 0.0
788.622586897356 788.622586897356 0.0 0.0
1353.6887779837164 1353.6887779837164 0.0 0.0
2087.7681951867035 2087.7681951867035 0.0 0.0
2975.7408423740885 2975.7408423740885 0.0 0.0
3977.2447143773484 3977.2447143773484 0.0 0.0
4960.451313231359 4960.451313231359 0.0 0.0
5658.505146615287 5658.505146615287 0.0 0.0
5885.582807958245 5885.582807958245 0.0 0.0
5670.888662807316 5670.888662807316 0.0 0.0
4985.123029913039 4985.123029913039 0.0 0.0
4014.4746933664474 4014.4746933664474 0.0 0.0
3025.758441853227 3025.758441853227 0.0 0.0
2149.951689430912 2149.951689430912 0.0 0.0
1424.8127060445786 1424.8127060445786 0.0 0.0
863.2196162430572 863.2196162430572 0.0 0.0
421.8882647726139 421.8882647726139 0.0 0.0
95.49648270272543 95.49648270272543 0.0 0.0
2870.42591492986 2870.42591492986 0.0 0.0
1520.3124868290738 1520.3124868290738 0.0 0.0
225.7798651320858 225.7798651320858 0.0 0.0
317.05359802016255 317.05359802016255 0.0 0.0
412.70648183581824 412.70648183581824 0.0 0.0
570.9504093979835 570.9504093979835 0.0 0.0
753.9609533977667 753.9609533977667 0.0 0.0
978.4903040445292 978.4903040445292 0.0 0.0
1256.1522714918162 1256.1522714918162 0.0 0.0
1558.1538428191461 1558.1538428191461 0.0 0.0
1759.1735801558812 1759.1735801558812 0.0 0.0
1816.0704176827696 1816.0704176827696 0.0 0.0
1764.2582629524625 1764.2582629524625 0.0 0.0
1567.8255425225743 1567.8255425225743 0.0 0.0
1270.135311494995 1270.135311494995 0.0 0.0
996.2745366983721 996.2745366983721 0.0 0.0
774.2696861865063 774.2696861865063 0.0 0.0
591.3330602406954 591.3330602406954 0.0 0.0
424.6878986282279 424.6878986282279 0.0 0.0
308.4720016757979 308.4720016757979 0.0 0.0
191.0651158821871 191.0651158821871 0.0 0.0
1586.32331805277 1586.32331805277 0.0 0.0
701.2772771215077 701.2772771215077 0.0 0.0
327.5694511285175 327.5694511285175 0.0 0.0
408.35972681770505 408.35972681770505 0.0 0.0
373.8699535106493 373.8699535106493 0.0 0.0
369.0274621564847 369.0274621564847 0.0 0.0
363.538173962279 363.538173962279 0.0 0.0
357.1030443440169 357.1030443440169 0.0 0.0
369.229365336419 369.229365336419 0.0 0.0
426.77617201661263 426.77617201661263 0.0 0.0
490.3302116565009 490.3302116565009 0.0 0.0
531.9482937637872 531.9482937637872 0.0 0.0
488.53213727965 488.53213727965 0.0 0.0
422.47124658642844 422.47124658642844 0.0 0.0
362.08301293153215 362.08301293153215 0.0 0.0
346.572334728688 346.572334728688 0.0 0.0
348.8698611852174 348.8698611852174 0.0 0.0
348.6648233849658 348.6648233849658 0.0 0.0
345.07905518725903 345.07905518725903 0.0 0.0
375.430634029059 375.430634029059 0.0 0.0
300.4148096755523 300.4148096755523 0.0 0.0
738.1405763039411 738.1405763039411 0.0 0.0
266.2029854612477 266.2029854612477 0.0 0.0
301.2363413808519 301.2363413808519 0.0 0.0
482.5440757269738 482.5440757269738 0.0 0.0
568.3020291966689 568.3020291966689 0.0 0.0
685.2411127944496 685.2411127944496 0.0 0.0
847.2866617338805 847.2866617338805 0.0 0.0
1039.1022467195512 1039.1022467195512 0.0 0.0
1225.9069248367061 1225.9069248367061 0.0 0.0
1435.81862056345 1435.81862056345 0.0 0.0
1765.0963045944577 1765.0963045944577 0.0 0.0
1975.8568369146624 1975.8568369146624 0.0 0.0
1757.027955409831 1757.027955409831 0.0 0.0
1419.2510249126751 1419.2510249126751 0.0 0.0
1200.8561491659739 1200.8561491659739 0.0 0.0
1005.9561768210289 1005.9561768210289 0.0 0.0
807.1136897844917 807.1136897844917 0.0 0.0
640.1173061316231 640.1173061316231 0.0 0.0
523.7885640601359 523.7885640601359 0.0 0.0
451.2654999685539 451.2654999685539 0.0 0.0
287.8023258102401 287.8023258102401 0.0 0.0
280.07005009464297 280.07005009464297 0.0 0.0
92.8844592125287 92.8844592125287 0.0 0.0
229.883132716259 229.883132716259 0.0 0.0
571.1803350687605 571.1803350687605 0.0 0.0
1022.233180004525 1022.233180004525 0.0 0.0
1583.8777022282445 1583.8777022282445 0.0 0.0
2280.217360454 2280.217360454 0.0 0.0
3095.362371269515 3095.362371269515 0.0 0.0
3984.166259285662 3984.166259285662 0.0 0.0
4669.6408405003085 4669.6408405003085 0.0 0.0
5695.275781066457 5695.275781066457 0.0 0.0
6195.397800772807 6195.397800772807 0.0 0.0
5680.972107033226 5680.972107033226 0.0 0.0
4641.616624778994 4641.616624778994 0.0 0.0
3942.247910729442 3942.247910729442 0.0 0.0
3042.6235952885745 3042.6235952885745 0.0 0.0
2221.273355743434 2221.273355743434 0.0 0.0
1527.075988375551 1527.075988375551 0.0 0.0
979.7001587211262 979.7001587211262 0.0 0.0
551.5453049028583 551.5453049028583 0.0 0.0
224.76062151969745 224.76062151969745 0.0 0.0
96.32219676547173 96.32219676547173 0.0 0.0
57.0729637611595 57.0729637611595 0.0 0.0
248.1381481356772 248.1381481356772 0.0 0.0
900.8964895352527 900.8964895352527 0.0 0.0
1968.515227918746 1968.515227918746 0.0 0.0
3297.7910839466686 3297.7910839466686 0.0 0.0
4917.419413134018 4917.419413134018 0.0 0.0
6822.881207308349 6822.881207308349 0.0 0.0
8954.608685209172 8954.608685209172 0.0 0.0
11131.7542042765 11131.7542042765 0.0 0.0
13214.852315062713 13214.852315062713 0.0 0.0
11362.458123079716 11362.458123079716 0.0 0.0
13196.405485050951 13196.405485050951 0.0 0.0
11088.05662591991 11088.05662591991 0.0 0.0
8890.520124646184 8890.520124646184 0.0 0.0
6744.582018258516 6744.582018258516 0.0 0.0
4835.194736884239 4835.194736884239 0.0 0.0
3228.9752219971633 3228.9752219971633 0.0 0.0
1932.4262564312849 1932.4262564312849 0.0 0.0
897.5547293562504 897.5547293562504 0.0 0.0
252.65425950566348 252.65425950566348 0.0 0.0
60.4462124934322 60.4462124934322 0.0 0.0