# vtk DataFile Version 3.0
Some data
ASCII
DATASET UNSTRUCTURED_GRID
POINTS 1029 float
0.0 0.0 0.0
0.8 0.0 0.0
1.6 0.0 0.0
2.4000000000000004 0.0 0.0
3.2 0.0 0.0
4.0 0.0 0.0
4.800000000000001 0.0 0.0
5.6000000000000005 0.0 0.0
6.4 0.0 0.0
7.2 0.0 0.0
8.0 0.0 0.0
8.8 0.0 0.0
9.600000000000001 0.0 0.0
10.4 0.0 0.0
11.200000000000001 0.0 0.0
12.0 0.0 0.0
12.8 0.0 0.0
13.600000000000001 0.0 0.0
14.4 0.0 0.0
15.200000000000001 0.0 0.0
16.0 0.0 0.0
0.0 0.3333333333333333 0.0
0.8 0.3333333333333333 0.0
1.6 0.3333333333333333 0.0
2.4000000000000004 0.3333333333333333 0.0
3.2 0.3333333333333333 0.0
4.0 0.3333333333333333 0.0
4.800000000000001 0.3333333333333333 0.0
5.6000000000000005 0.3333333333333333 0.0
6.4 0.3333333333333333 0.0
7.2 0.3333333333333333 0.0
8.0 0.3333333333333333 0.0
8.8 0.3333333333333333 0.0
9.600000000000001 0.3333333333333333 0.0
10.4 0.3333333333333333 0.0
11.200000000000001 0.3333333333333333 0.0
12.0 0.3333333333333333 0.0
12.8 0.3333333333333333 0.0
13.600000000000001 0.3333333333333333 0.0
14.4 0.3333333333333333 0.0
15.200000000000001 0.3333333333333333 0.0
16.0 0.3333333333333333 0.0
0.0 0.6666666666666666 0.0
0.8 0.6666666666666666 0.0
1.6 0.6666666666666666 0.0
2.4000000000000004 0.6666666666666666 0.0
3.2 0.6666666666666666 0.0
4.0 0.6666666666666666 0.0
4.800000000000001 0.6666666666666666 0.0
5.6000000000000005 0.6666666666666666 0.0
6.4 0.6666666666666666 0.0
7.2 0.6666666666666666 0.0
8.0 0.6666666666666666 0.0
8.8 0.6666666666666666 0.0
9.600000000000001 0.6666666666666666 0.0
10.4 0.6666666666666666 0.0
11.200000000000001 0.6666666666666666 0.0
12.0 0.6666666666666666 0.0
12.8 0.6666666666666666 0.0
13.600000000000001 0.6666666666666666 0.0
14.4 0.6666666666666666 0.0
15.200000000000001 0.6666666666666666 0.0
16.0 0.6666666666666666 0.0
0.0 1.0 0.0
0.8 1.0 0.0
1.6 1.0 0.0
2.4000000000000004 1.0 0.0
3.2 1.0 0.0
4.0 1.0 0.0
4.800000000000001 1.0 0.0
5.6000000000000005 1.0 0.0
6.4 1.0 0.0
7.2 1.0 0.0
8.0 1.0 0.0
8.8 1.0 0.0
9.600000000000001 1.0 0.0
10.4 1.0 0.0
11.200000000000001 1.0 0.0
12.0 1.0 0.0
12.8 1.0 0.0
13.600000000000001 1.0 0.0
14.4 1.0 0.0
15.200000000000001 1.0 0.0
16.0 1.0 0.0
0.0 1.3333333333333333 0.0
0.8 1.3333333333333333 0.0
1.6 1.3333333333333333 0.0
2.4000000000000004 1.3333333333333333 0.0
3.2 1.3333333333333333 0.0
4.0 1.3333333333333333 0.0
4.800000000000001 1.3333333333333333 0.0
5.6000000000000005 1.3333333333333333 0.0
6.4 1.3333333333333333 0.0
7.2 1.3333333333333333 0.0
8.0 1.3333333333333333 0.0
8.8 1.3333333333333333 0.0
9.600000000000001 1.3333333333333333 0.0
10.4 1.3333333333333333 0.0
11.200000000000001 1.3333333333333333 0.0
12.0 1.3333333333333333 0.0
12.8 1.3333333333333333 0.0
13.600000000000001 1.3333333333333333 0.0
14.4 1.3333333333333333 0.0
15.200000000000001 1.3333333333333333 0.0
16.0 1.3333333333333333 0.0
0.0 1.6666666666666665 0.0
0.8 1.6666666666666665 0.0
1.6 1.6666666666666665 0.0
2.4000000000000004 1.6666666666666665 0.0
3.2 1.6666666666666665 0.0
4.0 1.6666666666666665 0.0
4.800000000000001 1.6666666666666665 0.0
5.6000000000000005 1.6666666666666665 0.0
6.4 1.6666666666666665 0.0
7.2 1.6666666666666665 0.0
8.0 1.6666666666666665 0.0
8.8 1.6666666666666665 0.0
9.600000000000001 1.6666666666666665 0.0
10.4 1.6666666666666665 0.0
11.200000000000001 1.6666666666666665 0.0
12.0 1.6666666666666665 0.0
12.8 1.6666666666666665 0.0
13.600000000000001 1.6666666666666665 0.0
14.4 1.6666666666666665 0.0
15.200000000000001 1.6666666666666665 0.0
16.0 1.6666666666666665 0.0
0.0 2.0 0.0
0.8 2.0 0.0
1.6 2.0 0.0
2.4000000000000004 2.0 0.0
3.2 2.0 0.0
4.0 2.0 0.0
4.800000000000001 2.0 0.0
5.6000000000000005 2.0 0.0
6.4 2.0 0.0
7.2 2.0 0.0
8.0 2.0 0.0
8.8 2.0 0.0
9.600000000000001 2.0 0.0
10.4 2.0 0.0
11.200000000000001 2.0 0.0
12.0 2.0 0.0
12.8 2.0 0.0
13.600000000000001 2.0 0.0
14.4 2.0 0.0
15.200000000000001 2.0 0.0
16.0 2.0 0.0
0.0 0.0 1.6666666666666667
0.8 0.0 1.6666666666666667
1.6 0.0 1.6666666666666667
2.4000000000000004 0.0 1.6666666666666667
3.2 0.0 1.6666666666666667
4.0 0.0 1.6666666666666667
4.800000000000001 0.0 1.6666666666666667
5.6000000000000005 0.0 1.6666666666666667
6.4 0.0 1.6666666666666667
7.2 0.0 1.6666666666666667
8.0 0.0 1.6666666666666667
8.8 0.0 1.6666666666666667
9.600000000000001 0.0 1.6666666666666667
10.4 0.0 1.6666666666666667
11.200000000000001 0.0 1.6666666666666667
12.0 0.0 1.6666666666666667
12.8 0.0 1.6666666666666667
13.600000000000001 0.0 1.6666666666666667
14.4 0.0 1.6666666666666667
15.200000000000001 0.0 1.6666666666666667
16.0 0.0 1.6666666666666667
0.0 0.3333333333333333 1.6666666666666667
0.8 0.3333333333333333 1.6666666666666667
1.6 0.3333333333333333 1.6666666666666667
2.4000000000000004 0.3333333333333333 1.6666666666666667
3.2 0.3333333333333333 1.6666666666666667
4.0 0.3333333333333333 1.6666666666666667
4.800000000000001 0.3333333333333333 1.6666666666666667
5.6000000000000005 0.3333333333333333 1.6666666666666667
6.4 0.3333333333333333 1.6666666666666667
7.2 0.3333333333333333 1.6666666666666667
8.0 0.3333333333333333 1.6666666666666667
8.8 0.3333333333333333 1.6666666666666667
9.600000000000001 0.3333333333333333 1.6666666666666667
10.4 0.3333333333333333 1.6666666666666667
11.200000000000001 0.3333333333333333 1.6666666666666667
12.0 0.3333333333333333 1.6666666666666667
12.8 0.3333333333333333 1.6666666666666667
13.600000000000001 0.3333333333333333 1.6666666666666667
14.4 0.3333333333333333 1.6666666666666667
15.200000000000001 0.3333333333333333 1.6666666666666667
16.0 0.3333333333333333 1.6666666666666667
0.0 0.6666666666666666 1.6666666666666667
0.8 0.6666666666666666 1.6666666666666667
1.6 0.6666666666666666 1.6666666666666667
2.4000000000000004 0.6666666666666666 1.6666666666666667
3.2 0.6666666666666666 1.6666666666666667
4.0 0.6666666666666666 1.6666666666666667
4.800000000000001 0.6666666666666666 1.6666666666666667
5.6000000000000005 0.6666666666666666 1.6666666666666667
6.4 0.6666666666666666 1.6666666666666667
7.2 0.6666666666666666 1.6666666666666667
8.0 0.6666666666666666 1.6666666666666667
8.8 0.6666666666666666 1.6666666666666667
9.600000000000001 0.6666666666666666 1.6666666666666667
10.4 0.6666666666666666 1.6666666666666667
11.200000000000001 0.6666666666666666 1.6666666666666667
12.0 0.6666666666666666 1.6666666666666667
12.8 0.6666666666666666 1.6666666666666667
13.600000000000001 0.6666666666666666 1.6666666666666667
14.4 0.6666666666666666 1.6666666666666667
15.200000000000001 0.6666666666666666 1.6666666666666667
16.0 0.6666666666666666 1.6666666666666667
0.0 1.0 1.6666666666666667
0.8 1.0 1.6666666666666667
1.6 1.0 1.6666666666666667
2.4000000000000004 1.0 1.6666666666666667
3.2 1.0 1.6666666666666667
4.0 1.0 1.6666666666666667
4.800000000000001 1.0 1.6666666666666667
5.6000000000000005 1.0 1.6666666666666667
6.4 1.0 1.6666666666666667
7.2 1.0 1.6666666666666667
8.0 1.0 1.6666666666666667
8.8 1.0 1.6666666666666667
9.600000000000001 1.0 1.6666666666666667
10.4 1.0 1.6666666666666667
11.200000000000001 1.0 1.6666666666666667
12.0 1.0 1.6666666666666667
12.8 1.0 1.6666666666666667
13.600000000000001 1.0 1.6666666666666667
14.4 1.0 1.6666666666666667
15.200000000000001 1.0 1.6666666666666667
16.0 1.0 1.6666666666666667
0.0 1.3333333333333333 1.6666666666666667
0.8 1.3333333333333333 1.6666666666666667
1.6 1.3333333333333333 1.6666666666666667
2.4000000000000004 1.3333333333333333 1.6666666666666667
3.2 1.3333333333333333 1.6666666666666667
4.0 1.3333333333333333 1.6666666666666667
4.800000000000001 1.3333333333333333 1.6666666666666667
5.6000000000000005 1.3333333333333333 1.6666666666666667
6.4 1.3333333333333333 1.6666666666666667
7.2 1.3333333333333333 1.6666666666666667
8.0 1.3333333333333333 1.6666666666666667
8.8 1.3333333333333333 1.6666666666666667
9.600000000000001 1.3333333333333333 1.6666666666666667
10.4 1.3333333333333333 1.6666666666666667
11.200000000000001 1.3333333333333333 1.6666666666666667
12.0 1.3333333333333333 1.6666666666666667
12.8 1.3333333333333333 1.6666666666666667
13.600000000000001 1.3333333333333333 1.6666666666666667
14.4 1.3333333333333333 1.6666666666666667
15.200000000000001 1.3333333333333333 1.6666666666666667
16.0 1.3333333333333333 1.6666666666666667
0.0 1.6666666666666665 1.6666666666666667
0.8 1.6666666666666665 1.6666666666666667
1.6 1.6666666666666665 1.6666666666666667
2.4000000000000004 1.6666666666666665 1.6666666666666667
3.2 1.6666666666666665 1.6666666666666667
4.0 1.6666666666666665 1.6666666666666667
4.800000000000001 1.6666666666666665 1.6666666666666667
5.6000000000000005 1.6666666666666665 1.6666666666666667
6.4 1.6666666666666665 1.6666666666666667
7.2 1.6666666666666665 1.6666666666666667
8.0 1.6666666666666665 1.6666666666666667
8.8 1.6666666666666665 1.6666666666666667
9.600000000000001 1.6666666666666665 1.6666666666666667
10.4 1.6666666666666665 1.6666666666666667
11.200000000000001 1.6666666666666665 1.6666666666666667
12.0 1.6666666666666665 1.6666666666666667
12.8 1.6666666666666665 1.6666666666666667
13.600000000000001 1.6666666666666665 1.6666666666666667
14.4 1.6666666666666665 1.6666666666666667
15.200000000000001 1.6666666666666665 1.6666666666666667
16.0 1.6666666666666665 1.6666666666666667
0.0 2.0 1.6666666666666667
0.8 2.0 1.6666666666666667
1.6 2.0 1.6666666666666667
2.4000000000000004 2.0 1.6666666666666667
3.2 2.0 1.6666666666666667
4.0 2.0 1.6666666666666667
4.800000000000001 2.0 1.6666666666666667
5.6000000000000005 2.0 1.6666666666666667
6.4 2.0 1.6666666666666667
7.2 2.0 1.6666666666666667
8.0 2.0 1.6666666666666667
8.8 2.0 1.6666666666666667
9.600000000000001 2.0 1.6666666666666667
10.4 2.0 1.6666666666666667
11.200000000000001 2.0 1.6666666666666667
12.0 2.0 1.6666666666666667
12.8 2.0 1.6666666666666667
13.600000000000001 2.0 1.6666666666666667
14.4 2.0 1.6666666666666667
15.200000000000001 2.0 1.6666666666666667
16.0 2.0 1.6666666666666667
0.0 0.0 3.3333333333333335
0.8 0.0 3.3333333333333335
1.6 0.0 3.3333333333333335
2.4000000000000004 0.0 3.3333333333333335
3.2 0.0 3.3333333333333335
4.0 0.0 3.3333333333333335
4.800000000000001 0.0 3.3333333333333335
5.6000000000000005 0.0 3.3333333333333335
6.4 0.0 3.3333333333333335
7.2 0.0 3.3333333333333335
8.0 0.0 3.3333333333333335
8.8 0.0 3.3333333333333335
9.600000000000001 0.0 3.3333333333333335
10.4 0.0 3.3333333333333335
11.200000000000001 0.0 3.3333333333333335
12.0 0.0 3.3333333333333335
12.8 0.0 3.3333333333333335
13.600000000000001 0.0 3.3333333333333335
14.4 0.0 3.3333333333333335
15.200000000000001 0.0 3.3333333333333335
16.0 0.0 3.3333333333333335
0.0 0.3333333333333333 3.3333333333333335
0.8 0.3333333333333333 3.3333333333333335
1.6 0.3333333333333333 3.3333333333333335
2.4000000000000004 0.3333333333333333 3.3333333333333335
3.2 0.3333333333333333 3.3333333333333335
4.0 0.3333333333333333 3.3333333333333335
4.800000000000001 0.3333333333333333 3.3333333333333335
5.6000000000000005 0.3333333333333333 3.3333333333333335
6.4 0.3333333333333333 3.3333333333333335
7.2 0.3333333333333333 3.3333333333333335
8.0 0.3333333333333333 3.3333333333333335
8.8 0.3333333333333333 3.3333333333333335
9.600000000000001 0.3333333333333333 3.3333333333333335
10.4 0.3333333333333333 3.3333333333333335
11.200000000000001 0.3333333333333333 3.3333333333333335
12.0 0.3333333333333333 3.3333333333333335
12.8 0.3333333333333333 3.3333333333333335
13.600000000000001 0.3333333333333333 3.3333333333333335
14.4 0.3333333333333333 3.3333333333333335
15.200000000000001 0.3333333333333333 3.3333333333333335
16.0 0.3333333333333333 3.3333333333333335
0.0 0.6666666666666666 3.3333333333333335
0.8 0.6666666666666666 3.3333333333333335
1.6 0.6666666666666666 3.3333333333333335
2.4000000000000004 0.6666666666666666 3.3333333333333335
3.2 0.6666666666666666 3.3333333333333335
4.0 0.6666666666666666 3.3333333333333335
4.800000000000001 0.6666666666666666 3.3333333333333335
5.6000000000000005 0.6666666666666666 3.3333333333333335
6.4 0.6666666666666666 3.3333333333333335
7.2 0.6666666666666666 3.3333333333333335
8.0 0.6666666666666666 3.3333333333333335
8.8 0.6666666666666666 3.3333333333333335
9.600000000000001 0.6666666666666666 3.3333333333333335
10.4 0.6666666666666666 3.3333333333333335
11.200000000000001 0.6666666666666666 3.3333333333333335
12.0 0.6666666666666666 3.3333333333333335
12.8 0.6666666666666666 3.3333333333333335
13.600000000000001 0.6666666666666666 3.3333333333333335
14.4 0.6666666666666666 3.3333333333333335
15.200000000000001 0.6666666666666666 3.3333333333333335
16.0 0.6666666666666666 3.3333333333333335
0.0 1.0 3.3333333333333335
0.8 1.0 3.3333333333333335
1.6 1.0 3.3333333333333335
2.4000000000000004 1.0 3.3333333333333335
3.2 1.0 3.3333333333333335
4.0 1.0 3.3333333333333335
4.800000000000001 1.0 3.3333333333333335
5.6000000000000005 1.0 3.3333333333333335
6.4 1.0 3.3333333333333335
7.2 1.0 3.3333333333333335
8.0 1.0 3.3333333333333335
8.8 1.0 3.3333333333333335
9.600000000000001 1.0 3.3333333333333335
10.4 1.0 3.3333333333333335
11.200000000000001 1.0 3.3333333333333335
12.0 1.0 3.3333333333333335
12.8 1.0 3.3333333333333335
13.600000000000001 1.0 3.3333333333333335
14.4 1.0 3.3333333333333335
15.200000000000001 1.0 3.3333333333333335
16.0 1.0 3.3333333333333335
0.0 1.3333333333333333 3.3333333333333335
0.8 1.3333333333333333 3.3333333333333335
1.6 1.3333333333333333 3.3333333333333335
2.4000000000000004 1.3333333333333333 3.3333333333333335
3.2 1.3333333333333333 3.3333333333333335
4.0 1.3333333333333333 3.3333333333333335
4.800000000000001 1.3333333333333333 3.3333333333333335
5.6000000000000005 1.3333333333333333 3.3333333333333335
6.4 1.3333333333333333 3.3333333333333335
7.2 1.3333333333333333 3.3333333333333335
8.0 1.3333333333333333 3.3333333333333335
8.8 1.3333333333333333 3.3333333333333335
9.600000000000001 1.3333333333333333 3.3333333333333335
10.4 1.3333333333333333 3.3333333333333335
11.200000000000001 1.3333333333333333 3.3333333333333335
12.0 1.3333333333333333 3.3333333333333335
12.8 1.3333333333333333 3.3333333333333335
13.600000000000001 1.3333333333333333 3.3333333333333335
14.4 1.3333333333333333 3.3333333333333335
15.200000000000001 1.3333333333333333 3.3333333333333335
16.0 1.3333333333333333 3.3333333333333335
0.0 1.6666666666666665 3.3333333333333335
0.8 1.6666666666666665 3.3333333333333335
1.6 1.6666666666666665 3.3333333333333335
2.4000000000000004 1.6666666666666665 3.3333333333333335
3.2 1.6666666666666665 3.3333333333333335
4.0 1.6666666666666665 3.3333333333333335
4.800000000000001 1.6666666666666665 3.3333333333333335
5.6000000000000005 1.6666666666666665 3.3333333333333335
6.4 1.6666666666666665 3.3333333333333335
7.2 1.6666666666666665 3.3333333333333335
8.0 1.6666666666666665 3.3333333333333335
8.8 1.6666666666666665 3.3333333333333335
9.600000000000001 1.6666666666666665 3.3333333333333335
10.4 1.6666666666666665 3.3333333333333335
11.200000000000001 1.6666666666666665 3.3333333333333335
12.0 1.6666666666666665 3.3333333333333335
12.8 1.6666666666666665 3.3333333333333335
13.600000000000001 1.6666666666666665 3.3333333333333335
14.4 1.6666666666666665 3.3333333333333335
15.200000000000001 1.6666666666666665 3.3333333333333335
16.0 1.6666666666666665 3.3333333333333335
0.0 2.0 3.3333333333333335
0.8 2.0 3.3333333333333335
1.6 2.0 3.3333333333333335
2.4000000000000004 2.0 3.3333333333333335
3.2 2.0 3.3333333333333335
4.0 2.0 3.3333333333333335
4.800000000000001 2.0 3.3333333333333335
5.6000000000000005 2.0 3.3333333333333335
6.4 2.0 3.3333333333333335
7.2 2.0 3.3333333333333335
8.0 2.0 3.3333333333333335
8.8 2.0 3.3333333333333335
9.600000000000001 2.0 3.3333333333333335
10.4 2.0 3.3333333333333335
11.200000000000001 2.0 3.3333333333333335
12.0 2.0 3.3333333333333335
12.8 2.0 3.3333333333333335
13.600000000000001 2.0 3.3333333333333335
14.4 2.0 3.3333333333333335
15.200000000000001 2.0 3.3333333333333335
16.0 2.0 3.3333333333333335
0.0 0.0 5.0
0.8 0.0 5.0
1.6 0.0 5.0
2.4000000000000004 0.0 5.0
3.2 0.0 5.0
4.0 0.0 5.0
4.800000000000001 0.0 5.0
5.6000000000000005 0.0 5.0
6.4 0.0 5.0
7.2 0.0 5.0
8.0 0.0 5.0
8.8 0.0 5.0
9.600000000000001 0.0 5.0
10.4 0.0 5.0
11.200000000000001 0.0 5.0
12.0 0.0 5.0
12.8 0.0 5.0
13.600000000000001 0.0 5.0
14.4 0.0 5.0
15.200000000000001 0.0 5.0
16.0 0.0 5.0
0.0 0.3333333333333333 5.0
0.8 0.3333333333333333 5.0
1.6 0.3333333333333333 5.0
2.4000000000000004 0.3333333333333333 5.0
3.2 0.3333333333333333 5.0
4.0 0.3333333333333333 5.0
4.800000000000001 0.3333333333333333 5.0
5.6000000000000005 0.3333333333333333 5.0
6.4 0.3333333333333333 5.0
7.2 0.3333333333333333 5.0
8.0 0.3333333333333333 5.0
8.8 0.3333333333333333 5.0
9.600000000000001 0.3333333333333333 5.0
10.4 0.3333333333333333 5.0
11.200000000000001 0.3333333333333333 5.0
12.0 0.3333333333333333 5.0
12.8 0.3333333333333333 5.0
13.600000000000001 0.3333333333333333 5.0
14.4 0.3333333333333333 5.0
15.200000000000001 0.3333333333333333 5.0
16.0 0.3333333333333333 5.0
0.0 0.6666666666666666 5.0
0.8 0.6666666666666666 5.0
1.6 0.6666666666666666 5.0
2.4000000000000004 0.6666666666666666 5.0
3.2 0.6666666666666666 5.0
4.0 0.6666666666666666 5.0
4.800000000000001 0.6666666666666666 5.0
5.6000000000000005 0.6666666666666666 5.0
6.4 0.6666666666666666 5.0
7.2 0.6666666666666666 5.0
8.0 0.6666666666666666 5.0
8.8 0.6666666666666666 5.0
9.600000000000001 0.6666666666666666 5.0
10.4 0.6666666666666666 5.0
11.200000000000001 0.6666666666666666 5.0
12.0 0.6666666666666666 5.0
12.8 0.6666666666666666 5.0
13.600000000000001 0.6666666666666666 5.0
14.4 0.6666666666666666 5.0
15.200000000000001 0.6666666666666666 5.0
16.0 0.6666666666666666 5.0
0.0 1.0 5.0
0.8 1.0 5.0
1.6 1.0 5.0
2.4000000000000004 1.0 5.0
3.2 1.0 5.0
4.0 1.0 5.0
4.800000000000001 1.0 5.0
5.6000000000000005 1.0 5.0
6.4 1.0 5.0
7.2 1.0 5.0
8.0 1.0 5.0
8.8 1.0 5.0
9.600000000000001 1.0 5.0
10.4 1.0 5.0
11.200000000000001 1.0 5.0
12.0 1.0 5.0
12.8 1.0 5.0
13.600000000000001 1.0 5.0
14.4 1.0 5.0
15.200000000000001 1.0 5.0
16.0 1.0 5.0
0.0 1.3333333333333333 5.0
0.8 1.3333333333333333 5.0
1.6 1.3333333333333333 5.0
2.4000000000000004 1.3333333333333333 5.0
3.2 1.3333333333333333 5.0
4.0 1.3333333333333333 5.0
4.800000000000001 1.3333333333333333 5.0
5.6000000000000005 1.3333333333333333 5.0
6.4 1.3333333333333333 5.0
7.2 1.3333333333333333 5.0
8.0 1.3333333333333333 5.0
8.8 1.3333333333333333 5.0
9.600000000000001 1.3333333333333333 5.0
10.4 1.3333333333333333 5.0
11.200000000000001 1.3333333333333333 5.0
12.0 1.3333333333333333 5.0
12.8 1.3333333333333333 5.0
13.600000000000001 1.3333333333333333 5.0
14.4 1.3333333333333333 5.0
15.200000000000001 1.3333333333333333 5.0
16.0 1.3333333333333333 5.0
0.0 1.6666666666666665 5.0
0.8 1.6666666666666665 5.0
1.6 1.6666666666666665 5.0
2.4000000000000004 1.6666666666666665 5.0
3.2 1.6666666666666665 5.0
4.0 1.6666666666666665 5.0
4.800000000000001 1.6666666666666665 5.0
5.6000000000000005 1.6666666666666665 5.0
6.4 1.6666666666666665 5.0
7.2 1.6666666666666665 5.0
8.0 1.6666666666666665 5.0
8.8 1.6666666666666665 5.0
9.600000000000001 1.6666666666666665 5.0
10.4 1.6666666666666665 5.0
11.200000000000001 1.6666666666666665 5.0
12.0 1.6666666666666665 5.0
12.8 1.6666666666666665 5.0
13.600000000000001 1.6666666666666665 5.0
14.4 1.6666666666666665 5.0
15.200000000000001 1.6666666666666665 5.0
16.0 1.6666666666666665 5.0
0.0 2.0 5.0
0.8 2.0 5.0
1.6 2.0 5.0
2.4000000000000004 2.0 5.0
3.2 2.0 5.0
4.0 2.0 5.0
4.800000000000001 2.0 5.0
5.6000000000000005 2.0 5.0
6.4 2.0 5.0
7.2 2.0 5.0
8.0 2.0 5.0
8.8 2.0 5.0
9.600000000000001 2.0 5.0
10.4 2.0 5.0
11.200000000000001 2.0 5.0
12.0 2.0 5.0
12.8 2.0 5.0
13.600000000000001 2.0 5.0
14.4 2.0 5.0
15.200000000000001 2.0 5.0
16.0 2.0 5.0
0.0 0.0 6.666666666666667
0.8 0.0 6.666666666666667
1.6 0.0 6.666666666666667
2.4000000000000004 0.0 6.666666666666667
3.2 0.0 6.666666666666667
4.0 0.0 6.666666666666667
4.800000000000001 0.0 6.666666666666667
5.6000000000000005 0.0 6.666666666666667
6.4 0.0 6.666666666666667
7.2 0.0 6.666666666666667
8.0 0.0 6.666666666666667
8.8 0.0 6.666666666666667
9.600000000000001 0.0 6.666666666666667
10.4 0.0 6.666666666666667
11.200000000000001 0.0 6.666666666666667
12.0 0.0 6.666666666666667
12.8 0.0 6.666666666666667
13.600000000000001 0.0 6.666666666666667
14.4 0.0 6.666666666666667
15.200000000000001 0.0 6.666666666666667
16.0 0.0 6.666666666666667
0.0 0.3333333333333333 6.666666666666667
0.8 0.3333333333333333 6.666666666666667
1.6 0.3333333333333333 6.666666666666667
2.4000000000000004 0.3333333333333333 6.666666666666667
3.2 0.3333333333333333 6.666666666666667
4.0 0.3333333333333333 6.666666666666667
4.800000000000001 0.3333333333333333 6.666666666666667
5.6000000000000005 0.3333333333333333 6.666666666666667
6.4 0.3333333333333333 6.666666666666667
7.2 0.3333333333333333 6.666666666666667
8.0 0.3333333333333333 6.666666666666667
8.8 0.3333333333333333 6.666666666666667
9.600000000000001 0.3333333333333333 6.666666666666667
10.4 0.3333333333333333 6.666666666666667
11.200000000000001 0.3333333333333333 6.666666666666667
12.0 0.3333333333333333 6.666666666666667
12.8 0.3333333333333333 6.666666666666667
13.600000000000001 0.3333333333333333 6.666666666666667
14.4 0.3333333333333333 6.666666666666667
15.200000000000001 0.3333333333333333 6.666666666666667
16.0 0.3333333333333333 6.666666666666667
0.0 0.6666666666666666 6.666666666666667
0.8 0.6666666666666666 6.666666666666667
1.6 0.6666666666666666 6.666666666666667
2.4000000000000004 0.6666666666666666 6.666666666666667
3.2 0.6666666666666666 6.666666666666667
4.0 0.6666666666666666 6.666666666666667
4.800000000000001 0.6666666666666666 6.666666666666667
5.6000000000000005 0.6666666666666666 6.666666666666667
6.4 0.6666666666666666 6.666666666666667
7.2 0.6666666666666666 6.666666666666667
8.0 0.6666666666666666 6.666666666666667
8.8 0.6666666666666666 6.666666666666667
9.600000000000001 0.6666666666666666 6.666666666666667
10.4 0.6666666666666666 6.666666666666667
11.200000000000001 0.6666666666666666 6.666666666666667
12.0 0.6666666666666666 6.666666666666667
12.8 0.6666666666666666 6.666666666666667
13.600000000000001 0.6666666666666666 6.666666666666667
14.4 0.6666666666666666 6.666666666666667
15.200000000000001 0.6666666666666666 6.666666666666667
16.0 0.6666666666666666 6.666666666666667
0.0 1.0 6.666666666666667
0.8 1.0 6.666666666666667
1.6 1.0 6.666666666666667
2.4000000000000004 1.0 6.666666666666667
3.2 1.0 6.666666666666667
4.0 1.0 6.666666666666667
4.800000000000001 1.0 6.666666666666667
5.6000000000000005 1.0 6.666666666666667
6.4 1.0 6.666666666666667
7.2 1.0 6.666666666666667
8.0 1.0 6.666666666666667
8.8 1.0 6.666666666666667
9.600000000000001 1.0 6.666666666666667
10.4 1.0 6.666666666666667
11.200000000000001 1.0 6.666666666666667
12.0 1.0 6.666666666666667
12.8 1.0 6.666666666666667
13.600000000000001 1.0 6.666666666666667
14.4 1.0 6.666666666666667
15.200000000000001 1.0 6.666666666666667
16.0 1.0 6.666666666666667
0.0 1.3333333333333333 6.666666666666667
0.8 1.3333333333333333 6.666666666666667
1.6 1.3333333333333333 6.666666666666667
2.4000000000000004 1.3333333333333333 6.666666666666667
3.2 1.3333333333333333 6.666666666666667
4.0 1.3333333333333333 6.666666666666667
4.800000000000001 1.3333333333333333 6.666666666666667
5.6000000000000005 1.3333333333333333 6.666666666666667
6.4 1.3333333333333333 6.666666666666667
7.2 1.3333333333333333 6.666666666666667
8.0 1.3333333333333333 6.666666666666667
8.8 1.3333333333333333 6.666666666666667
9.600000000000001 1.3333333333333333 6.666666666666667
10.4 1.3333333333333333 6.666666666666667
11.200000000000001 1.3333333333333333 6.666666666666667
12.0 1.3333333333333333 6.666666666666667
12.8 1.3333333333333333 6.666666666666667
13.600000000000001 1.3333333333333333 6.666666666666667
14.4 1.3333333333333333 6.666666666666667
15.200000000000001 1.3333333333333333 6.666666666666667
16.0 1.3333333333333333 6.666666666666667
0.0 1.6666666666666665 6.666666666666667
0.8 1.6666666666666665 6.666666666666667
1.6 1.6666666666666665 6.666666666666667
2.4000000000000004 1.6666666666666665 6.666666666666667
3.2 1.6666666666666665 6.666666666666667
4.0 1.6666666666666665 6.666666666666667
4.800000000000001 1.6666666666666665 6.666666666666667
5.6000000000000005 1.6666666666666665 6.666666666666667
6.4 1.6666666666666665 6.666666666666667
7.2 1.6666666666666665 6.666666666666667
8.0 1.6666666666666665 6.666666666666667
8.8 1.6666666666666665 6.666666666666667
9.600000000000001 1.6666666666666665 6.666666666666667
10.4 1.6666666666666665 6.666666666666667
11.200000000000001 1.6666666666666665 6.666666666666667
12.0 1.6666666666666665 6.666666666666667
12.8 1.6666666666666665 6.666666666666667
13.600000000000001 1.6666666666666665 6.666666666666667
14.4 1.6666666666666665 6.666666666666667
15.200000000000001 1.6666666666666665 6.666666666666667
16.0 1.6666666666666665 6.666666666666667
0.0 2.0 6.666666666666667
0.8 2.0 6.666666666666667
1.6 2.0 6.666666666666667
2.4000000000000004 2.0 6.666666666666667
3.2 2.0 6.666666666666667
4.0 2.0 6.666666666666667
4.800000000000001 2.0 6.666666666666667
5.6000000000000005 2.0 6.666666666666667
6.4 2.0 6.666666666666667
7.2 2.0 6.666666666666667
8.0 2.0 6.666666666666667
8.8 2.0 6.666666666666667
9.600000000000001 2.0 6.666666666666667
10.4 2.0 6.666666666666667
11.200000000000001 2.0 6.666666666666667
12.0 2.0 6.666666666666667
12.8 2.0 6.666666666666667
13.600000000000001 2.0 6.666666666666667
14.4 2.0 6.666666666666667
15.200000000000001 2.0 6.666666666666667
16.0 2.0 6.666666666666667
0.0 0.0 8.333333333333334
0.8 0.0 8.333333333333334
1.6 0.0 8.333333333333334
2.4000000000000004 0.0 8.333333333333334
3.2 0.0 8.333333333333334
4.0 0.0 8.333333333333334
4.800000000000001 0.0 8.333333333333334
5.6000000000000005 0.0 8.333333333333334
6.4 0.0 8.333333333333334
7.2 0.0 8.333333333333334
8.0 0.0 8.333333333333334
8.8 0.0 8.333333333333334
9.600000000000001 0.0 8.333333333333334
10.4 0.0 8.333333333333334
11.200000000000001 0.0 8.333333333333334
12.0 0.0 8.333333333333334
12.8 0.0 8.333333333333334
13.600000000000001 0.0 8.333333333333334
14.4 0.0 8.333333333333334
15.200000000000001 0.0 8.333333333333334
16.0 0.0 8.333333333333334
0.0 0.3333333333333333 8.333333333333334
0.8 0.3333333333333333 8.333333333333334
1.6 0.3333333333333333 8.333333333333334
2.4000000000000004 0.3333333333333333 8.333333333333334
3.2 0.3333333333333333 8.333333333333334
4.0 0.3333333333333333 8.333333333333334
4.800000000000001 0.3333333333333333 8.333333333333334
5.6000000000000005 0.3333333333333333 8.333333333333334
6.4 0.3333333333333333 8.333333333333334
7.2 0.3333333333333333 8.333333333333334
8.0 0.3333333333333333 8.333333333333334
8.8 0.3333333333333333 8.333333333333334
9.600000000000001 0.3333333333333333 8.333333333333334
10.4 0.3333333333333333 8.333333333333334
11.200000000000001 0.3333333333333333 8.333333333333334
12.0 0.3333333333333333 8.333333333333334
12.8 0.3333333333333333 8.333333333333334
13.600000000000001 0.3333333333333333 8.333333333333334
14.4 0.3333333333333333 8.333333333333334
15.200000000000001 0.3333333333333333 8.333333333333334
16.0 0.3333333333333333 8.333333333333334
0.0 0.6666666666666666 8.333333333333334
0.8 0.6666666666666666 8.333333333333334
1.6 0.6666666666666666 8.333333333333334
2.4000000000000004 0.6666666666666666 8.333333333333334
3.2 0.6666666666666666 8.333333333333334
4.0 0.6666666666666666 8.333333333333334
4.800000000000001 0.6666666666666666 8.333333333333334
5.6000000000000005 0.6666666666666666 8.333333333333334
6.4 0.6666666666666666 8.333333333333334
7.2 0.6666666666666666 8.333333333333334
8.0 0.6666666666666666 8.333333333333334
8.8 0.6666666666666666 8.333333333333334
9.600000000000001 0.6666666666666666 8.333333333333334
10.4 0.6666666666666666 8.333333333333334
11.200000000000001 0.6666666666666666 8.333333333333334
12.0 0.6666666666666666 8.333333333333334
12.8 0.6666666666666666 8.333333333333334
13.600000000000001 0.6666666666666666 8.333333333333334
14.4 0.6666666666666666 8.333333333333334
15.200000000000001 0.6666666666666666 8.333333333333334
16.0 0.6666666666666666 8.333333333333334
0.0 1.0 8.333333333333334
0.8 1.0 8.333333333333334
1.6 1.0 8.333333333333334
2.4000000000000004 1.0 8.333333333333334
3.2 1.0 8.333333333333334
4.0 1.0 8.333333333333334
4.800000000000001 1.0 8.333333333333334
5.6000000000000005 1.0 8.333333333333334
6.4 1.0 8.333333333333334
7.2 1.0 8.333333333333334
8.0 1.0 8.333333333333334
8.8 1.0 8.333333333333334
9.600000000000001 1.0 8.333333333333334
10.4 1.0 8.333333333333334
11.200000000000001 1.0 8.333333333333334
12.0 1.0 8.333333333333334
12.8 1.0 8.333333333333334
13.600000000000001 1.0 8.333333333333334
14.4 1.0 8.333333333333334
15.200000000000001 1.0 8.333333333333334
16.0 1.0 8.333333333333334
0.0 1.3333333333333333 8.333333333333334
0.8 1.3333333333333333 8.333333333333334
1.6 1.3333333333333333 8.333333333333334
2.4000000000000004 1.3333333333333333 8.333333333333334
3.2 1.3333333333333333 8.333333333333334
4.0 1.3333333333333333 8.333333333333334
4.800000000000001 1.3333333333333333 8.333333333333334
5.6000000000000005 1.3333333333333333 8.333333333333334
6.4 1.3333333333333333 8.333333333333334
7.2 1.3333333333333333 8.333333333333334
8.0 1.3333333333333333 8.333333333333334
8.8 1.3333333333333333 8.333333333333334
9.600000000000001 1.3333333333333333 8.333333333333334
10.4 1.3333333333333333 8.333333333333334
11.200000000000001 1.3333333333333333 8.333333333333334
12.0 1.3333333333333333 8.333333333333334
12.8 1.3333333333333333 8.333333333333334
13.600000000000001 1.3333333333333333 8.333333333333334
14.4 1.3333333333333333 8.333333333333334
15.200000000000001 1.3333333333333333 8.333333333333334
16.0 1.3333333333333333 8.333333333333334
0.0 1.6666666666666665 8.333333333333334
0.8 1.6666666666666665 8.333333333333334
1.6 1.6666666666666665 8.333333333333334
2.4000000000000004 1.6666666666666665 8.333333333333334
3.2 1.6666666666666665 8.333333333333334
4.0 1.6666666666666665 8.333333333333334
4.800000000000001 1.6666666666666665 8.333333333333334
5.6000000000000005 1.6666666666666665 8.333333333333334
6.4 1.6666666666666665 8.333333333333334
7.2 1.6666666666666665 8.333333333333334
8.0 1.6666666666666665 8.333333333333334
8.8 1.6666666666666665 8.333333333333334
9.600000000000001 1.6666666666666665 8.333333333333334
10.4 1.6666666666666665 8.333333333333334
11.200000000000001 1.6666666666666665 8.333333333333334
12.0 1.6666666666666665 8.333333333333334
12.8 1.6666666666666665 8.333333333333334
13.600000000000001 1.6666666666666665 8.333333333333334
14.4 1.6666666666666665 8.333333333333334
15.200000000000001 1.6666666666666665 8.333333333333334
16.0 1.6666666666666665 8.333333333333334
0.0 2.0 8.333333333333334
0.8 2.0 8.333333333333334
1.6 2.0 8.333333333333334
2.4000000000000004 2.0 8.333333333333334
3.2 2.0 8.333333333333334
4.0 2.0 8.333333333333334
4.800000000000001 2.0 8.333333333333334
5.6000000000000005 2.0 8.333333333333334
6.4 2.0 8.333333333333334
7.2 2.0 8.333333333333334
8.0 2.0 8.333333333333334
8.8 2.0 8.333333333333334
9.600000000000001 2.0 8.333333333333334
10.4 2.0 8.333333333333334
11.200000000000001 2.0 8.333333333333334
12.0 2.0 8.333333333333334
12.8 2.0 8.333333333333334
13.600000000000001 2.0 8.333333333333334
14.4 2.0 8.333333333333334
15.200000000000001 2.0 8.333333333333334
16.0 2.0 8.333333333333334
0.0 0.0 10.0
0.8 0.0 10.0
1.6 0.0 10.0
2.4000000000000004 0.0 10.0
3.2 0.0 10.0
4.0 0.0 10.0
4.800000000000001 0.0 10.0
5.6000000000000005 0.0 10.0
6.4 0.0 10.0
7.2 0.0 10.0
8.0 0.0 10.0
8.8 0.0 10.0
9.600000000000001 0.0 10.0
10.4 0.0 10.0
11.200000000000001 0.0 10.0
12.0 0.0 10.0
12.8 0.0 10.0
13.600000000000001 0.0 10.0
14.4 0.0 10.0
15.200000000000001 0.0 10.0
16.0 0.0 10.0
0.0 0.3333333333333333 10.0
0.8 0.3333333333333333 10.0
1.6 0.3333333333333333 10.0
2.4000000000000004 0.3333333333333333 10.0
3.2 0.3333333333333333 10.0
4.0 0.3333333333333333 10.0
4.800000000000001 0.3333333333333333 10.0
5.6000000000000005 0.3333333333333333 10.0
6.4 0.3333333333333333 10.0
7.2 0.3333333333333333 10.0
8.0 0.3333333333333333 10.0
8.8 0.3333333333333333 10.0
9.600000000000001 0.3333333333333333 10.0
10.4 0.3333333333333333 10.0
11.200000000000001 0.3333333333333333 10.0
12.0 0.3333333333333333 10.0
12.8 0.3333333333333333 10.0
13.600000000000001 0.3333333333333333 10.0
14.4 0.3333333333333333 10.0
15.200000000000001 0.3333333333333333 10.0
16.0 0.3333333333333333 10.0
0.0 0.6666666666666666 10.0
0.8 0.6666666666666666 10.0
1.6 0.6666666666666666 10.0
2.4000000000000004 0.6666666666666666 10.0
3.2 0.6666666666666666 10.0
4.0 0.6666666666666666 10.0
4.800000000000001 0.6666666666666666 10.0
5.6000000000000005 0.6666666666666666 10.0
6.4 0.6666666666666666 10.0
7.2 0.6666666666666666 10.0
8.0 0.6666666666666666 10.0
8.8 0.6666666666666666 10.0
9.600000000000001 0.6666666666666666 10.0
10.4 0.6666666666666666 10.0
11.200000000000001 0.6666666666666666 10.0
12.0 0.6666666666666666 10.0
12.8 0.6666666666666666 10.0
13.600000000000001 0.6666666666666666 10.0
14.4 0.6666666666666666 10.0
15.200000000000001 0.6666666666666666 10.0
16.0 0.6666666666666666 10.0
0.0 1.0 10.0
0.8 1.0 10.0
1.6 1.0 10.0
2.4000000000000004 1.0 10.0
3.2 1.0 10.0
4.0 1.0 10.0
4.800000000000001 1.0 10.0
5.6000000000000005 1.0 10.0
6.4 1.0 10.0
7.2 1.0 10.0
8.0 1.0 10.0
8.8 1.0 10.0
9.600000000000001 1.0 10.0
10.4 1.0 10.0
11.200000000000001 1.0 10.0
12.0 1.0 10.0
12.8 1.0 10.0
13.600000000000001 1.0 10.0
14.4 1.0 10.0
15.200000000000001 1.0 10.0
16.0 1.0 10.0
0.0 1.3333333333333333 10.0
0.8 1.3333333333333333 10.0
1.6 1.3333333333333333 10.0
2.4000000000000004 1.3333333333333333 10.0
3.2 1.3333333333333333 10.0
4.0 1.3333333333333333 10.0
4.800000000000001 1.3333333333333333 10.0
5.6000000000000005 1.3333333333333333 10.0
6.4 1.3333333333333333 10.0
7.2 1.3333333333333333 10.0
8.0 1.3333333333333333 10.0
8.8 1.3333333333333333 10.0
9.600000000000001 1.3333333333333333 10.0
10.4 1.3333333333333333 10.0
11.200000000000001 1.3333333333333333 10.0
12.0 1.3333333333333333 10.0
12.8 1.3333333333333333 10.0
13.600000000000001 1.3333333333333333 10.0
14.4 1.3333333333333333 10.0
15.200000000000001 1.3333333333333333 10.0
16.0 1.3333333333333333 10.0
0.0 1.6666666666666665 10.0
0.8 1.6666666666666665 10.0
1.6 1.6666666666666665 10.0
2.4000000000000004 1.6666666666666665 10.0
3.2 1.6666666666666665 10.0
4.0 1.6666666666666665 10.0
4.800000000000001 1.6666666666666665 10.0
5.6000000000000005 1.6666666666666665 10.0
6.4 1.6666666666666665 10.0
7.2 1.6666666666666665 10.0
8.0 1.6666666666666665 10.0
8.8 1.6666666666666665 10.0
9.600000000000001 1.6666666666666665 10.0
10.4 1.6666666666666665 10.0
11.200000000000001 1.6666666666666665 10.0
12.0 1.6666666666666665 10.0
12.8 1.6666666666666665 10.0
13.600000000000001 1.6666666666666665 10.0
14.4 1.6666666666666665 10.0
15.200000000000001 1.6666666666666665 10.0
16.0 1.6666666666666665 10.0
0.0 2.0 10.0
0.8 2.0 10.0
1.6 2.0 10.0
2.4000000000000004 2.0 10.0
3.2 2.0 10.0
4.0 2.0 10.0
4.800000000000001 2.0 10.0
5.6000000000000005 2.0 10.0
6.4 2.0 10.0
7.2 2.0 10.0
8.0 2.0 10.0
8.8 2.0 10.0
9.600000000000001 2.0 10.0
10.4 2.0 10.0
11.200000000000001 2.0 10.0
12.0 2.0 10.0
12.8 2.0 10.0
13.600000000000001 2.0 10.0
14.4 2.0 10.0
15.200000000000001 2.0 10.0
16.0 2.0 10.0
CELLS 720 6480
8 0 1 22 21 147 148 169 168
8 1 2 23 22 148 149 170 169
8 2 3 24 23 149 150 171 170
8 3 4 25 24 150 151 172 171
8 4 5 26 25 151 152 173 172
8 5 6 27 26 152 153 174 173
8 6 7 28 27 153 154 175 174
8 7 8 29 28 154 155 176 175
8 8 9 30 29 155 156 177 176
8 9 10 31 30 156 157 178 177
8 10 11 32 31 157 158 179 178
8 11 12 33 32 158 159 180 179
8 12 13 34 33 159 160 181 180
8 13 14 35 34 160 161 182 181
8 14 15 36 35 161 162 183 182
8 15 16 37 36 162 163 184 183
8 16 17 38 37 163 164 185 184
8 17 18 39 38 164 165 186 185
8 18 19 40 39 165 166 187 186
8 19 20 41 40 166 167 188 187
8 21 22 43 42 168 169 190 189
8 22 23 44 43 169 170 191 190
8 23 24 45 44 170 171 192 191
8 24 25 46 45 171 172 193 192
8 25 26 47 46 172 173 194 193
8 26 27 48 47 173 174 195 194
8 27 28 49 48 174 175 196 195
8 28 29 50 49 175 176 197 196
8 29 30 51 50 176 177 198 197
8 30 31 52 51 177 178 199 198
8 31 32 53 52 178 179 200 199
8 32 33 54 53 179 180 201 200
8 33 34 55 54 180 181 202 201
8 34 35 56 55 181 182 203 202
8 35 36 57 56 182 183 204 203
8 36 37 58 57 183 184 205 204
8 37 38 59 58 184 185 206 205
8 38 39 60 59 185 186 207 206
8 39 40 61 60 186 187 208 207
8 40 41 62 61 187 188 209 208
8 42 43 64 63 189 190 211 210
8 43 44 65 64 190 191 212 211
8 44 45 66 65 191 192 213 212
8 45 46 67 66 192 193 214 213
8 46 47 68 67 193 194 215 214
8 47 48 69 68 194 195 216 215
8 48 49 70 69 195 196 217 216
8 49 50 71 70 196 197 218 217
8 50 51 72 71 197 198 219 218
8 51 52 73 72 198 199 220 219
8 52 53 74 73 199 200 221 220
8 53 54 75 74 200 201 222 221
8 54 55 76 75 201 202 223 222
8 55 56 77 76 202 203 224 223
8 56 57 78 77 203 204 225 224
8 57 58 79 78 204 205 226 225
8 58 59 80 79 205 206 227 226
8 59 60 81 80 206 207 228 227
8 60 61 82 81 207 208 229 228
8 61 62 83 82 208 209 230 229
8 63 64 85 84 210 211 232 231
8 64 65 86 85 211 212 233 232
8 65 66 87 86 212 213 234 233
8 66 67 88 87 213 214 235 234
8 67 68 89 88 214 215 236 235
8 68 69 90 89 215 216 237 236
8 69 70 91 90 216 217 238 237
8 70 71 92 91 217 218 239 238
8 71 72 93 92 218 219 240 239
8 72 73 94 93 219 220 241 240
8 73 74 95 94 220 221 242 241
8 74 75 96 95 221 222 243 242
8 75 76 97 96 222 223 244 243
8 76 77 98 97 223 224 245 244
8 77 78 99 98 224 225 246 245
8 78 79 100 99 225 226 247 246
8 79 80 101 100 226 227 248 247
8 80 81 102 101 227 228 249 248
8 81 82 103 102 228 229 250 249
8 82 83 104 103 229 230 251 250
8 84 85 106 105 231 232 253 252
8 85 86 107 106 232 233 254 253
8 86 87 108 107 233 234 255 254
8 87 88 109 108 234 235 256 255
8 88 89 110 109 235 236 257 256
8 89 90 111 110 236 237 258 257
8 90 91 112 111 237 238 259 258
8 91 92 113 112 238 239 260 259
8 92 93 114 113 239 240 261 260
8 93 94 115 114 240 241 262 261
8 94 95 116 115 241 242 263 262
8 95 96 117 116 242 243 264 263
8 96 97 118 117 243 244 265 264
8 97 98 119 118 244 245 266 265
8 98 99 120 119 245 246 267 266
8 99 100 121 120 246 247 268 267
8 100 101 122 121 247 248 269 268
8 101 102 123 122 248 249 270 269
8 102 103 124 123 249 250 271 270
8 103 104 125 124 250 251 272 271
8 105 106 127 126 252 253 274 273
8 106 107 128 127 253 254 275 274
8 107 108 129 128 254 255 276 275
8 108 109 130 129 255 256 277 276
8 109 110 131 130 256 257 278 277
8 110 111 132 131 257 258 279 278
8 111 112 133 132 258 259 280 279
8 112 113 134 133 259 260 281 280
8 113 114 135 134 260 261 282 281
8 114 115 136 135 261 262 283 282
8 115 116 137 136 262 263 284 283
8 116 117 138 137 263 264 285 284
8 117 118 139 138 264 265 286 285
8 118 119 140 139 265 266 287 286
8 119 120 141 140 266 267 288 287
8 120 121 142 141 267 268 289 288
8 121 122 143 142 268 269 290 289
8 122 123 144 143 269 270 291 290
8 123 124 145 144 270 271 292 291
8 124 125 146 145 271 272 293 292
8 147 148 169 168 294 295 316 315
8 148 149 170 169 295 296 317 316
8 149 150 171 170 296 297 318 317
8 150 151 172 171 297 298 319 318
8 151 152 173 172 298 299 320 319
8 152 153 174 173 299 300 321 320
8 153 154 175 174 300 301 322 321
8 154 155 176 175 301 302 323 322
8 155 156 177 176 302 303 324 323
8 156 157 178 177 303 304 325 324
8 157 158 179 178 304 305 326 325
8 158 159 180 179 305 306 327 326
8 159 160 181 180 306 307 328 327
8 160 161 182 181 307 308 329 328
8 161 162 183 182 308 309 330 329
8 162 163 184 183 309 310 331 330
8 163 164 185 184 310 311 332 331
8 164 165 186 185 311 312 333 332
8 165 166 187 186 312 313 334 333
8 166 167 188 187 313 314 335 334
8 168 169 190 189 315 316 337 336
8 169 170 191 190 316 317 338 337
8 170 171 192 191 317 318 339 338
8 171 172 193 192 318 319 340 339
8 172 173 194 193 319 320 341 340
8 173 174 195 194 320 321 342 341
8 174 175 196 195 321 322 343 342
8 175 176 197 196 322 323 344 343
8 176 177 198 197 323 324 345 344
8 177 178 199 198 324 325 346 345
8 178 179 200 199 325 326 347 346
8 179 180 201 200 326 327 348 347
8 180 181 202 201 327 328 349 348
8 181 182 203 202 328 329 350 349
8 182 183 204 203 329 330 351 350
8 183 184 205 204 330 331 352 351
8 184 185 206 205 331 332 353 352
8 185 186 207 206 332 333 354 353
8 186 187 208 207 333 334 355 354
8 187 188 209 208 334 335 356 355
8 189 190 211 210 336 337 358 357
8 190 191 212 211 337 338 359 358
8 191 192 213 212 338 339 360 359
8 192 193 214 213 339 340 361 360
8 193 194 215 214 340 341 362 361
8 194 195 216 215 341 342 363 362
8 195 196 217 216 342 343 364 363
8 196 197 218 217 343 344 365 364
8 197 198 219 218 344 345 366 365
8 198 199 220 219 345 346 367 366
8 199 200 221 220 346 347 368 367
8 200 201 222 221 347 348 369 368
8 201 202 223 222 348 349 370 369
8 202 203 224 223 349 350 371 370
8 203 204 225 224 350 351 372 371
8 204 205 226 225 351 352 373 372
8 205 206 227 226 352 353 374 373
8 206 207 228 227 353 354 375 374
8 207 208 229 228 354 355 376 375
8 208 209 230 229 355 356 377 376
8 210 211 232 231 357 358 379 378
8 211 212 233 232 358 359 380 379
8 212 213 234 233 359 360 381 380
8 213 214 235 234 360 361 382 381
8 214 215 236 235 361 362 383 382
8 215 216 237 236 362 363 384 383
8 216 217 238 237 363 364 385 384
8 217 218 239 238 364 365 386 385
8 218 219 240 239 365 366 387 386
8 219 220 241 240 366 367 388 387
8 220 221 242 241 367 368 389 388
8 221 222 243 242 368 369 390 389
8 222 223 244 243 369 370 391 390
8 223 224 245 244 370 371 392 391
8 224 225 246 245 371 372 393 392
8 225 226 247 246 372 373 394 393
8 226 227 248 247 373 374 395 394
8 227 228 249 248 374 375 396 395
8 228 229 250 249 375 376 397 396
8 229 230 251 250 376 377 398 397
8 231 232 253 252 378 379 400 399
8 232 233 254 253 379 380 401 400
8 233 234 255 254 380 381 402 401
8 234 235 256 255 381 382 403 402
8 235 236 257 256 382 383 404 403
8 236 237 258 257 383 384 405 404
8 237 238 259 258 384 385 406 405
8 238 239 260 259 385 386 407 406
8 239 240 261 260 386 387 408 407
8 240 241 262 261 387 388 409 408
8 241 242 263 262 388 389 410 409
8 242 243 264 263 389 390 411 410
8 243 244 265 264 390 391 412 411
8 244 245 266 265 391 392 413 412
8 245 246 267 266 392 393 414 413
8 246 247 268 267 393 394 415 414
8 247 248 269 268 394 395 416 415
8 248 249 270 269 395 396 417 416
8 249 250 271 270 396 397 418 417
8 250 251 272 271 397 398 419 418
8 252 253 274 273 399 400 421 420
8 253 254 275 274 400 401 422 421
8 254 255 276 275 401 402 423 422
8 255 256 277 276 402 403 424 423
8 256 257 278 277 403 404 425 424
8 257 258 279 278 404 405 426 425
8 258 259 280 279 405 406 427 426
8 259 260 281 280 406 407 428 427
8 260 261 282 281 407 408 429 428
8 261 262 283 282 408 409 430 429
8 262 263 284 283 409 410 431 430
8 263 264 285 284 410 411 432 431
8 264 265 286 285 411 412 433 432
8 265 266 287 286 412 413 434 433
8 266 267 288 287 413 414 435 434
8 267 268 289 288 414 415 436 435
8 268 269 290 289 415 416 437 436
8 269 270 291 290 416 417 438 437
8 270 271 292 291 417 418 439 438
8 271 272 293 292 418 419 440 439
8 294 295 316 315 441 442 463 462
8 295 296 317 316 442 443 464 463
8 296 297 318 317 443 444 465 464
8 297 298 319 318 444 445 466 465
8 298 299 320 319 445 446 467 466
8 299 300 321 320 446 447 468 467
8 300 301 322 321 447 448 469 468
8 301 302 323 322 448 449 470 469
8 302 303 324 323 449 450 471 470
8 303 304 325 324 450 451 472 471
8 304 305 326 325 451 452 473 472
8 305 306 327 326 452 453 474 473
8 306 307 328 327 453 454 475 474
8 307 308 329 328 454 455 476 475
8 308 309 330 329 455 456 477 476
8 309 310 331 330 456 457 478 477
8 310 311 332 331 457 458 479 478
8 311 312 333 332 458 459 480 479
8 312 313 334 333 459 460 481 480
8 313 314 335 334 460 461 482 481
8 315 316 337 336 462 463 484 483
8 316 317 338 337 463 464 485 484
8 317 318 339 338 464 465 486 485
8 318 319 340 339 465 466 487 486
8 319 320 341 340 466 467 488 487
8 320 321 342 341 467 468 489 488
8 321 322 343 342 468 469 490 489
8 322 323 344 343 469 470 491 490
8 323 324 345 344 470 471 492 491
8 324 325 346 345 471 472 493 492
8 325 326 347 346 472 473 494 493
8 326 327 348 347 473 474 495 494
8 327 328 349 348 474 475 496 495
8 328 329 350 349 475 476 497 496
8 329 330 351 350 476 477 498 497
8 330 331 352 351 477 478 499 498
8 331 332 353 352 478 479 500 499
8 332 333 354 353 479 480 501 500
8 333 334 355 354 480 481 502 501
8 334 335 356 355 481 482 503 502
8 336 337 358 357 483 484 505 504
8 337 338 359 358 484 485 506 505
8 338 339 360 359 485 486 507 506
8 339 340 361 360 486 487 508 507
8 340 341 362 361 487 488 509 508
8 341 342 363 362 488 489 510 509
8 342 343 364 363 489 490 511 510
8 343 344 365 364 490 491 512 511
8 344 345 366 365 491 492 513 512
8 345 346 367 366 492 493 514 513
8 346 347 368 367 493 494 515 514
8 347 348 369 368 494 495 516 515
8 348 349 370 369 495 496 517 516
8 349 350 371 370 496 497 518 517
8 350 351 372 371 497 498 519 518
8 351 352 373 372 498 499 520 519
8 352 353 374 373 499 500 521 520
8 353 354 375 374 500 501 522 521
8 354 355 376 375 501 502 523 522
8 355 356 377 376 502 503 524 523
8 357 358 379 378 504 505 526 525
8 358 359 380 379 505 506 527 526
8 359 360 381 380 506 507 528 527
8 360 361 382 381 507 508 529 528
8 361 362 383 382 508 509 530 529
8 362 363 384 383 509 510 531 530
8 363 364 385 384 510 511 532 531
8 364 365 386 385 511 512 533 532
8 365 366 387 386 512 513 534 533
8 366 367 388 387 513 514 535 534
8 367 368 389 388 514 515 536 535
8 368 369 390 389 515 516 537 536
8 369 370 391 390 516 517 538 537
8 370 371 392 391 517 518 539 538
8 371 372 393 392 518 519 540 539
8 372 373 394 393 519 520 541 540
8 373 374 395 394 520 521 542 541
8 374 375 396 395 521 522 543 542
8 375 376 397 396 522 523 544 543
8 376 377 398 397 523 524 545 544
8 378 379 400 399 525 526 547 546
8 379 380 401 400 526 527 548 547
8 380 381 402 401 527 528 549 548
8 381 382 403 402 528 529 550 549
8 382 383 404 403 529 530 551 550
8 383 384 405 404 530 531 552 551
8 384 385 406 405 531 532 553 552
8 385 386 407 406 532 533 554 553
8 386 387 408 407 533 534 555 554
8 387 388 409 408 534 535 556 555
8 388 389 410 409 535 536 557 556
8 389 390 411 410 536 537 558 557
8 390 391 412 411 537 538 559 558
8 391 392 413 412 538 539 560 559
8 392 393 414 413 539 540 561 560
8 393 394 415 414 540 541 562 561
8 394 395 416 415 541 542 563 562
8 395 396 417 416 542 543 564 563
8 396 397 418 417 543 544 565 564
8 397 398 419 418 544 545 566 565
8 399 400 421 420 546 547 568 567
8 400 401 422 421 547 548 569 568
8 401 402 423 422 548 549 570 569
8 402 403 424 423 549 550 571 570
8 403 404 425 424 550 551 572 571
8 404 405 426 425 551 552 573 572
8 405 406 427 426 552 553 574 573
8 406 407 428 427 553 554 575 574
8 407 408 429 428 554 555 576 575
8 408 409 430 429 555 556 577 576
8 409 410 431 430 556 557 578 577
8 410 411 432 431 557 558 579 578
8 411 412 433 432 558 559 580 579
8 412 413 434 433 559 560 581 580
8 413 414 435 434 560 561 582 581
8 414 415 436 435 561 562 583 582
8 415 416 437 436 562 563 584 583
8 416 417 438 437 563 564 585 584
8 417 418 439 438 564 565 586 585
8 418 419 440 439 565 566 587 586
8 441 442 463 462 588 589 610 609
8 442 443 464 463 589 590 611 610
8 443 444 465 464 590 591 612 611
8 444 445 466 465 591 592 613 612
8 445 446 467 466 592 593 614 613
8 446 447 468 467 593 594 615 614
8 447 448 469 468 594 595 616 615
8 448 449 470 469 595 596 617 616
8 449 450 471 470 596 597 618 617
8 450 451 472 471 597 598 619 618
8 451 452 473 472 598 599 620 619
8 452 453 474 473 599 600 621 620
8 453 454 475 474 600 601 622 621
8 454 455 476 475 601 602 623 622
8 455 456 477 476 602 603 624 623
8 456 457 478 477 603 604 625 624
8 457 458 479 478 604 605 626 625
8 458 459 480 479 605 606 627 626
8 459 460 481 480 606 607 628 627
8 460 461 482 481 607 608 629 628
8 462 463 484 483 609 610 631 630
8 463 464 485 484 610 611 632 631
8 464 465 486 485 611 612 633 632
8 465 466 487 486 612 613 634 633
8 466 467 488 487 613 614 635 634
8 467 468 489 488 614 615 636 635
8 468 469 490 489 615 616 637 636
8 469 470 491 490 616 617 638 637
8 470 471 492 491 617 618 639 638
8 471 472 493 492 618 619 640 639
8 472 473 494 493 619 620 641 640
8 473 474 495 494 620 621 642 641
8 474 475 496 495 621 622 643 642
8 475 476 497 496 622 623 644 643
8 476 477 498 497 623 624 645 644
8 477 478 499 498 624 625 646 645
8 478 479 500 499 625 626 647 646
8 479 480 501 500 626 627 648 647
8 480 481 502 501 627 628 649 648
8 481 482 503 502 628 629 650 649
8 483 484 505 504 630 631 652 651
8 484 485 506 505 631 632 653 652
8 485 486 507 506 632 633 654 653
8 486 487 508 507 633 634 655 654
8 487 488 509 508 634 635 656 655
8 488 489 510 509 635 636 657 656
8 489 490 511 510 636 637 658 657
8 490 491 512 511 637 638 659 658
8 491 492 513 512 638 639 660 659
8 492 493 514 513 639 640 661 660
8 493 494 515 514 640 641 662 661
8 494 495 516 515 641 642 663 662
8 495 496 517 516 642 643 664 663
8 496 497 518 517 643 644 665 664
8 497 498 519 518 644 645 666 665
8 498 499 520 519 645 646 667 666
8 499 500 521 520 646 647 668 667
8 500 501 522 521 647 648 669 668
8 501 502 523 522 648 649 670 669
8 502 503 524 523 649 650 671 670
8 504 505 526 525 651 652 673 672
8 505 506 527 526 652 653 674 673
8 506 507 528 527 653 654 675 674
8 507 508 529 528 654 655 676 675
8 508 509 530 529 655 656 677 676
8 509 510 531 530 656 657 678 677
8 510 511 532 531 657 658 679 678
8 511 512 533 532 658 659 680 679
8 512 513 534 533 659 660 681 680
8 513 514 535 534 660 661 682 681
8 514 515 536 535 661 662 683 682
8 515 516 537 536 662 663 684 683
8 516 517 538 537 663 664 685 684
8 517 518 539 538 664 665 686 685
8 518 519 540 539 665 666 687 686
8 519 520 541 540 666 667 688 687
8 520 521 542 541 667 668 689 688
8 521 522 543 542 668 669 690 689
8 522 523 544 543 669 670 691 690
8 523 524 545 544 670 671 692 691
8 525 526 547 546 672 673 694 693
8 526 527 548 547 673 674 695 694
8 527 528 549 548 674 675 696 695
8 528 529 550 549 675 676 697 696
8 529 530 551 550 676 677 698 697
8 530 531 552 551 677 678 699 698
8 531 532 553 552 678 679 700 699
8 532 533 554 553 679 680 701 700
8 533 534 555 554 680 681 702 701
8 534 535 556 555 681 682 703 702
8 535 536 557 556 682 683 704 703
8 536 537 558 557 683 684 705 704
8 537 538 559 558 684 685 706 705
8 538 539 560 559 685 686 707 706
8 539 540 561 560 686 687 708 707
8 540 541 562 561 687 688 709 708
8 541 542 563 562 688 689 710 709
8 542 543 564 563 689 690 711 710
8 543 544 565 564 690 691 712 711
8 544 545 566 565 691 692 713 712
8 546 547 568 567 693 694 715 714
8 547 548 569 568 694 695 716 715
8 548 549 570 569 695 696 717 716
8 549 550 571 570 696 697 718 717
8 550 551 572 571 697 698 719 718
8 551 552 573 572 698 699 720 719
8 552 553 574 573 699 700 721 720
8 553 554 575 574 700 701 722 721
8 554 555 576 575 701 702 723 722
8 555 556 577 576 702 703 724 723
8 556 557 578 577 703 704 725 724
8 557 558 579 578 704 705 726 725
8 558 559 580 579 705 706 727 726
8 559 560 581 580 706 707 728 727
8 560 561 582 581 707 708 729 728
8 561 562 583 582 708 709 730 729
8 562 563 584 583 709 710 731 730
8 563 564 585 584 710 711 732 731
8 564 565 586 585 711 712 733 732
8 565 566 587 586 712 713 734 733
8 588 589 610 609 735 736 757 756
8 589 590 611 610 736 737 758 757
8 590 591 612 611 737 738 759 758
8 591 592 613 612 738 739 760 759
8 592 593 614 613 739 740 761 760
8 593 594 615 614 740 741 762 761
8 594 595 616 615 741 742 763 762
8 595 596 617 616 742 743 764 763
8 596 597 618 617 743 744 765 764
8 597 598 619 618 744 745 766 765
8 598 599 620 619 745 746 767 766
8 599 600 621 620 746 747 768 767
8 600 601 622 621 747 748 769 768
8 601 602 623 622 748 749 770 769
8 602 603 624 623 749 750 771 770
8 603 604 625 624 750 751 772 771
8 604 605 626 625 751 752 773 772
8 605 606 627 626 752 753 774 773
8 606 607 628 627 753 754 775 774
8 607 608 629 628 754 755 776 775
8 609 610 631 630 756 757 778 777
8 610 611 632 631 757 758 779 778
8 611 612 633 632 758 759 780 779
8 612 613 634 633 759 760 781 780
8 613 614 635 634 760 761 782 781
8 614 615 636 635 761 762 783 782
8 615 616 637 636 762 763 784 783
8 616 617 638 637 763 764 785 784
8 617 618 639 638 764 765 786 785
8 618 619 640 639 765 766 787 786
8 619 620 641 640 766 767 788 787
8 620 621 642 641 767 768 789 788
8 621 622 643 642 768 769 790 789
8 622 623 644 643 769 770 791 790
8 623 624 645 644 770 771 792 791
8 624 625 646 645 771 772 793 792
8 625 626 647 646 772 773 794 793
8 626 627 648 647 773 774 795 794
8 627 628 649 648 774 775 796 795
8 628 629 650 649 775 776 797 796
8 630 631 652 651 777 778 799 798
8 631 632 653 652 778 779 800 799
8 632 633 654 653 779 780 801 800
8 633 634 655 654 780 781 802 801
8 634 635 656 655 781 782 803 802
8 635 636 657 656 782 783 804 803
8 636 637 658 657 783 784 805 804
8 637 638 659 658 784 785 806 805
8 638 639 660 659 785 786 807 806
8 639 640 661 660 786 787 808 807
8 640 641 662 661 787 788 809 808
8 641 642 663 662 788 789 810 809
8 642 643 664 663 789 790 811 810
8 643 644 665 664 790 791 812 811
8 644 645 666 665 791 792 813 812
8 645 646 667 666 792 793 814 813
8 646 647 668 667 793 794 815 814
8 647 648 669 668 794 795 816 815
8 648 649 670 669 795 796 817 816
8 649 650 671 670 796 797 818 817
8 651 652 673 672 798 799 820 819
8 652 653 674 673 799 800 821 820
8 653 654 675 674 800 801 822 821
8 654 655 676 675 801 802 823 822
8 655 656 677 676 802 803 824 823
8 656 657 678 677 803 804 825 824
8 657 658 679 678 804 805 826 825
8 658 659 680 679 805 806 827 826
8 659 660 681 680 806 807 828 827
8 660 661 682 681 807 808 829 828
8 661 662 683 682 808 809 830 829
8 662 663 684 683 809 810 831 830
8 663 664 685 684 810 811 832 831
8 664 665 686 685 811 812 833 832
8 665 666 687 686 812 813 834 833
8 666 667 688 687 813 814 835 834
8 667 668 689 688 814 815 836 835
8 668 669 690 689 815 816 837 836
8 669 670 691 690 816 817 838 837
8 670 671 692 691 817 818 839 838
8 672 673 694 693 819 820 841 840
8 673 674 695 694 820 821 842 841
8 674 675 696 695 821 822 843 842
8 675 676 697 696 822 823 844 843
8 676 677 698 697 823 824 845 844
8 677 678 699 698 824 825 846 845
8 678 679 700 699 825 826 847 846
8 679 680 701 700 826 827 848 847
8 680 681 702 701 827 828 849 848
8 681 682 703 702 828 829 850 849
8 682 683 704 703 829 830 851 850
8 683 684 705 704 830 831 852 851
8 684 685 706 705 831 832 853 852
8 685 686 707 706 832 833 854 853
8 686 687 708 707 833 834 855 854
8 687 688 709 708 834 835 856 855
8 688 689 710 709 835 836 857 856
8 689 690 711 710 836 837 858 857
8 690 691 712 711 837 838 859 858
8 691 692 713 712 838 839 860 859
8 693 694 715 714 840 841 862 861
8 694 695 716 715 841 842 863 862
8 695 696 717 716 842 843 864 863
8 696 697 718 717 843 844 865 864
8 697 698 719 718 844 845 866 865
8 698 699 720 719 845 846 867 866
8 699 700 721 720 846 847 868 867
8 700 701 722 721 847 848 869 868
8 701 702 723 722 848 849 870 869
8 702 703 724 723 849 850 871 870
8 703 704 725 724 850 851 872 871
8 704 705 726 725 851 852 873 872
8 705 706 727 726 852 853 874 873
8 706 707 728 727 853 854 875 874
8 707 708 729 728 854 855 876 875
8 708 709 730 729 855 856 877 876
8 709 710 731 730 856 857 878 877
8 710 711 732 731 857 858 879 878
8 711 712 733 732 858 859 880 879
8 712 713 734 733 859 860 881 880
8 735 736 757 756 882 883 904 903
8 736 737 758 757 883 884 905 904
8 737 738 759 758 884 885 906 905
8 738 739 760 759 885 886 907 906
8 739 740 761 760 886 887 908 907
8 740 741 762 761 887 888 909 908
8 741 742 763 762 888 889 910 909
8 742 743 764 763 889 890 911 910
8 743 744 765 764 890 891 912 911
8 744 745 766 765 891 892 913 912
8 745 746 767 766 892 893 914 913
8 746 747 768 767 893 894 915 914
8 747 748 769 768 894 895 916 915
8 748 749 770 769 895 896 917 916
8 749 750 771 770 896 897 918 917
8 750 751 772 771 897 898 919 918
8 751 752 773 772 898 899 920 919
8 752 753 774 773 899 900 921 920
8 753 754 775 774 900 901 922 921
8 754 755 776 775 901 902 923 922
8 756 757 778 777 903 904 925 924
8 757 758 779 778 904 905 926 925
8 758 759 780 779 905 906 927 926
8 759 760 781 780 906 907 928 927
8 760 761 782 781 907 908 929 928
8 761 762 783 782 908 909 930 929
8 762 763 784 783 909 910 931 930
8 763 764 785 784 910 911 932 931
8 764 765 786 785 911 912 933 932
8 765 766 787 786 912 913 934 933
8 766 767 788 787 913 914 935 934
8 767 768 789 788 914 915 936 935
8 768 769 790 789 915 916 937 936
8 769 770 791 790 916 917 938 937
8 770 771 792 791 917 918 939 938
8 771 772 793 792 918 919 940 939
8 772 773 794 793 919 920 941 940
8 773 774 795 794 920 921 942 941
8 774 775 796 795 921 922 943 942
8 775 776 797 796 922 923 944 943
8 777 778 799 798 924 925 946 945
8 778 779 800 799 925 926 947 946
8 779 780 801 800 926 927 948 947
8 780 781 802 801 927 928 949 948
8 781 782 803 802 928 929 950 949
8 782 783 804 803 929 930 951 950
8 783 784 805 804 930 931 952 951
8 784 785 806 805 931 932 953 952
8 785 786 807 806 932 933 954 953
8 786 787 808 807 933 934 955 954
8 787 788 809 808 934 935 956 955
8 788 789 810 809 935 936 957 956
8 789 790 811 810 936 937 958 957
8 790 791 812 811 937 938 959 958
8 791 792 813 812 938 939 960 959
8 792 793 814 813 939 940 961 960
8 793 794 815 814 940 941 962 961
8 794 795 816 815 941 942 963 962
8 795 796 817 816 942 943 964 963
8 796 797 818 817 943 944 965 964
8 798 799 820 819 945 946 967 966
8 799 800 821 820 946 947 968 967
8 800 801 822 821 947 948 969 968
8 801 802 823 822 948 949 970 969
8 802 803 824 823 949 950 971 970
8 803 804 825 824 950 951 972 971
8 804 805 826 825 951 952 973 972
8 805 806 827 826 952 953 974 973
8 806 807 828 827 953 954 975 974
8 807 808 829 828 954 955 976 975
8 808 809 830 829 955 956 977 976
8 809 810 831 830 956 957 978 977
8 810 811 832 831 957 958 979 978
8 811 812 833 832 958 959 980 979
8 812 813 834 833 959 960 981 980
8 813 814 835 834 960 961 982 981
8 814 815 836 835 961 962 983 982
8 815 816 837 836 962 963 984 983
8 816 817 838 837 963 964 985 984
8 817 818 839 838 964 965 986 985
8 819 820 841 840 966 967 988 987
8 820 821 842 841 967 968 989 988
8 821 822 843 842 968 969 990 989
8 822 823 844 843 969 970 991 990
8 823 824 845 844 970 971 992 991
8 824 825 846 845 971 972 993 992
8 825 826 847 846 972 973 994 993
8 826 827 848 847 973 974 995 994
8 827 828 849 848 974 975 996 995
8 828 829 850 849 975 976 997 996
8 829 830 851 850 976 977 998 997
8 830 831 852 851 977 978 999 998
8 831 832 853 852 978 979 1000 999
8 832 833 854 853 979 980 1001 1000
8 833 834 855 854 980 981 1002 1001
8 834 835 856 855 981 982 1003 1002
8 835 836 857 856 982 983 1004 1003
8 836 837 858 857 983 984 1005 1004
8 837 838 859 858 984 985 1006 1005
8 838 839 860 859 985 986 1007 1006
8 840 841 862 861 987 988 1009 1008
8 841 842 863 862 988 989 1010 1009
8 842 843 864 863 989 990 1011 1010
8 843 844 865 864 990 991 1012 1011
8 844 845 866 865 991 992 1013 1012
8 845 846 867 866 992 993 1014 1013
8 846 847 868 867 993 994 1015 1014
8 847 848 869 868 994 995 1016 1015
8 848 849 870 869 995 996 1017 1016
8 849 850 871 870 996 997 1018 1017
8 850 851 872 871 997 998 1019 1018
8 851 852 873 872 998 999 1020 1019
8 852 853 874 873 999 1000 1021 1020
8 853 854 875 874 1000 1001 1022 1021
8 854 855 876 875 1001 1002 1023 1022
8 855 856 877 876 1002 1003 1024 1023
8 856 857 878 877 1003 1004 1025 1024
8 857 858 879 878 1004 1005 1026 1025
8 858 859 880 879 1005 1006 1027 1026
8 859 860 881 880 1006 1007 1028 1027
CELL_TYPES 720
12
12
12
12
12
12
12
12
12
12
12
12
12
12
12
12
12
12
12
12
12
12
12
12
12
12
12
12
12
12
12
12
12
12
12
12
12
12
12
12
12
12
12
12
12
12
12
12
12
12
12
12
12
12
12
12
12
12
12
12
12
12
12
12
12
12
12
12
12
12
12
12
12
12
12
12
12
12
12
12
12
12
12
12
12
12
12
12
12
12
12
12
12
12
12
12
12
12
12
12
12
12
12
12
12
12
12
12
12
12
12
12
12
12
12
12
12
12
12
12
12
12
12
12
12
12
12
12
12
12
12
12
12
12
12
12
12
12
12
12
12
12
12
12
12
12
12
12
12
12
12
12
12
12
12
12
12
12
12
12
12
12
12
12
12
12
12
12
12
12
12
12
12
12
12
12
12
12
12
12
12
12
12
12
12
12
12
12
12
12
12
12
12
12
12
12
12
12
12
12
12
12
12
12
12
12
12
12
12
12
12
12
12
12
12
12
12
12
12
12
12
12
12
12
12
12
12
12
12
12
12
12
12
12
12
12
12
12
12
12
12
12
12
12
12
12
12
12
12
12
12
12
12
12
12
12
12
12
12
12
12
12
12
12
12
12
12
12
12
12
12
12
12
12
12
12
12
12
12
12
12
12
12
12
12
12
12
12
12
12
12
12
12
12
12
12
12
12
12
12
12
12
12
12
12
12
12
12
12
12
12
12
12
12
12
12
12
12
12
12
12
12
12
12
12
12
12
12
12
12
12
12
12
12
12
12
12
12
12
12
12
12
12
12
12
12
12
12
12
12
12
12
12
12
12
12
12
12
12
12
12
12
12
12
12
12
12
12
12
12
12
12
12
12
12
12
12
12
12
12
12
12
12
12
12
12
12
12
12
12
12
12
12
12
12
12
12
12
12
12
12
12
12
12
12
12
12
12
12
12
12
12
12
12
12
12
12
12
12
12
12
12
12
12
12
12
12
12
12
12
12
12
12
12
12
12
12
12
12
12
12
12
12
12
12
12
12
12
12
12
12
12
12
12
12
12
12
12
12
12
12
12
12
12
12
12
12
12
12
12
12
12
12
12
12
12
12
12
12
12
12
12
12
12
12
12
12
12
12
12
12
12
12
12
12
12
12
12
12
12
12
12
12
12
12
12
12
12
12
12
12
12
12
12
12
12
12
12
12
12
12
12
12
12
12
12
12
12
12
12
12
12
12
12
12
12
12
12
12
12
12
12
12
12
12
12
12
12
12
12
12
12
12
12
12
12
12
12
12
12
12
12
12
12
12
12
12
12
12
12
12
12
12
12
12
12
12
12
12
12
12
12
12
12
12
12
12
12
12
12
12
12
12
12
12
12
12
12
12
12
12
12
12
12
12
12
12
12
12
12
12
12
12
12
12
12
12
12
12
12
12
12
12
12
12
12
12
12
12
12
12
12
12
12
12
12
12
12
12
12
12
12
12
12
12
12
12
12
12
12
12
12
12
12
12
12
12
12
12
12
12
12
12
12
12
12
12
12
12
12
12
12
12
12
12
12
12
12
12
12
12
12
12
12
12
12
12
12
12
12
12
12
12
12
12
12
12
12
12
12
12
12
12
12
12
12
12
12
12
12
12
12
12
12
12
12
12
12
12
12
POINT_DATA 1029
VECTORS Disp float
0.0 0.0 0.0
0.020122217761062294 -0.7296616165064659 0.017465322269724724
0.04845566473918959 -1.374974254108506 0.03760649740908782
0.08764297136067599 -1.9965701759563452 0.05369025866088183
0.14340894715373823 -2.5775968367873405 0.06826444560552172
0.21653572533333512 -3.1043553984989125 0.08031431548392591
0.30672146648857884 -3.5623715312487167 0.08933863655640978
0.4134206158403555 -3.937647963159686 0.09469632090704118
0.5351750144950825 -4.216539618246993 0.09593862964278341
0.6683623406569376 -4.387396641506623 0.09379969452340577
0.806978100242204 -4.444328535540271 0.09186386506821592
0.9456431234993363 -4.388230273027858 0.09387682567928445
1.078987851748097 -4.218226324322561 0.09611995003439754
1.2010379199404588 -3.9402232497439567 0.09504167793952817
1.3082256308322175 -3.565877939236476 0.08995106004965402
1.3991792830526268 -3.108820517785913 0.08135913986983762
1.4734746164563723 -2.582994757501669 0.06997600437850368
1.5309820961416376 -2.002754923371975 0.05647258056732786
1.572705886754869 -1.3816605142931169 0.04171206760866085
1.605414496169903 -0.7363112975454351 0.024798132156952438
1.6360375804154308 0.0 -0.00014158513001544191
0.28637394493978746 -0.03115849917484466 -0.009170155943663083
0.29873394514605667 -0.7264226291031559 0.009149377045324673
0.30869837385148763 -1.3793673774214523 0.023823153394214397
0.33437735599169577 -2.0017309241402006 0.03625954525016503
0.37060484185075404 -2.5850199465766797 0.04666824458712741
0.41843739725148316 -3.113762655306241 0.05523270679849024
0.4776012035576404 -3.573782190481121 0.061579345812881325
0.5477208063864679 -3.950980664252906 0.0654156101518002
0.6278396079290122 -4.231541406762463 0.06654029122797728
0.7156264191825774 -4.403369225301426 0.06541446653847792
0.807128263466603 -4.460356255731445 0.0642169800780848
0.8986822013948513 -4.404216573903299 0.06538791913018345
0.9866342019783585 -4.233258109821038 0.06651020616122419
1.0670587462717076 -3.953607633484852 0.0654341395311393
1.1376730083734623 -3.5773705710851154 0.061740905385073146
1.1975932828876863 -3.1183531421966943 0.05569079338556118
1.2465471265258325 -2.59060169498422 0.04767189406958292
1.2843889096795387 -2.008179738251634 0.038140971046445975
1.3124060124846986 -1.386432623220825 0.027234200969358083
1.3257044239054427 -0.7335988291945456 0.014136512274686838
1.3398514933866486 -0.032881781773311775 -0.0036982962555240284
0.5567269579648317 -0.054099162756859574 -0.014985696867479442
0.563100289810499 -0.7253356075389905 -0.0008109579331381011
0.5642123335267579 -1.380363524613922 0.009664906996787048
0.5741761055307946 -2.0048485658337523 0.01738738258515984
0.5912893011697061 -2.589277573209769 0.023296148449986082
0.6143140543259208 -3.1192763691934764 0.0278059995180211
0.6432191479376927 -3.580488511328997 0.030944650533939064
0.6778609208399127 -3.9588848274699364 0.03264803940611435
0.7179841789816671 -4.240478796083415 0.03288361423083812
0.7622052949235514 -4.412514316903858 0.031732456130173774
0.8072473271312803 -4.468531940502907 0.03043466348575002
0.8523424531734634 -4.413376492283038 0.031602404403199114
0.89673090189921 -4.242227419431325 0.03264209259755522
0.937160065726896 -3.961565373297098 0.03233917243907137
0.9722873584076358 -3.5841592142555276 0.030652181396201638
1.0019167730865508 -3.123988068104354 0.02767653054229246
1.0259824246569238 -2.5950330195651596 0.02356786583592191
1.044545805770359 -2.01152968837764 0.01843742056599698
1.056447740348711 -1.3877363283309998 0.012022283539028416
1.0591443273434973 -0.7322587134614549 0.0031635576889087495
1.0662865567669744 -0.05675372736660121 -0.009417661942991448
0.8191336138907794 -0.06880120862398438 -0.020179594887375907
0.820846315156749 -0.7255199062165977 -0.010498334962929338
0.8152275629705793 -1.3795356634476403 -0.004641644481648213
0.811037046575723 -2.0054645543740786 -0.0019133933099032407
0.8088141128762494 -2.5905570342136373 -0.0007730680247560826
0.8073174986686142 -3.1209922340475695 -0.0005154800870261246
0.8063041502312005 -3.582650719521473 -0.0008244079964450131
0.8059288946963035 -3.9615680750422833 -0.0015294609112248491
0.8067697480272514 -4.243667624701671 -0.002472369872252247
0.8084725323278197 -4.414953783164079 -0.0038389445404028396
0.8073535338514869 -4.468029217000542 -0.005488761258662805
0.8062878542355512 -4.415831449320216 -0.004073264842063076
0.8081576994610031 -4.245449229298825 -0.0029271185961954574
0.8093002692329464 -3.9643029729991937 -0.0021692305903086976
0.809394685508809 -3.5864027045631817 -0.0015761686199088389
0.8090623794778852 -3.125820443026625 -0.0012427207946633417
0.808507161403402 -2.59647196682273 -0.0012382104194468004
0.8075330226445634 -2.0123577111907474 -0.0017317639599804687
0.8047132582280828 -1.3869977816367332 -0.0032929387960949586
0.7999406389657111 -0.7321672529579044 -0.007523000895751644
0.8020775092738232 -0.07214502069993108 -0.015485614926542289
1.079390508166643 -0.07667135443112887 -0.025516894645842166
1.0769873951050153 -0.725814144074991 -0.019697367848146158
1.0651409426296237 -1.3775096000827527 -0.018712732773857557
1.0478545610305228 -2.00374933834408 -0.021105250776454913
1.026449601586752 -2.588810687756165 -0.024799265908592594
1.0003409648440764 -3.118948195697799 -0.028808057140711732
0.9694525324285674 -3.5802943133764744 -0.03258034691164624
0.9339721489097549 -3.9590220306972643 -0.03572031470065826
0.8952623742623701 -4.241257675915426 -0.037791595885757846
0.8549686470568367 -4.411098029648801 -0.03869950786052074
0.8074626045339338 -4.457612955832576 -0.04017985729550504
0.7600103507348768 -4.411991717179436 -0.03903982112499683
0.7198841097636759 -4.24307308742468 -0.038463418016361585
0.6814729579618679 -3.9618117377005566 -0.036697651284583736
0.6464477923025308 -3.584126389247304 -0.03380212238607336
0.6161972156672658 -3.123886409874846 -0.030148569432724513
0.5909263495664372 -2.5948726024104176 -0.026024446491490914
0.5705234809038283 -2.0108020914156204 -0.021822334866815646
0.5541693813252515 -1.3849878750912823 -0.0183653592485442
0.5428066477290583 -0.7322861619975272 -0.01774740447147983
0.540635132880715 -0.08045299971317277 -0.021848879957432413
1.3413882637012213 -0.07961606065689289 -0.03126565731686286
1.335739720390213 -0.7255101347350771 -0.028377248940777377
1.3179046480770018 -1.3744681671873977 -0.03222921680554032
1.2879759923653153 -1.9998708157070697 -0.03966413391383768
1.247320155691296 -2.584011389027873 -0.048045851614209975
1.1963268319470934 -3.113095349322402 -0.05613528186200828
1.1351653174031648 -3.5734323158809023 -0.0631796157504199
1.0643423262231124 -3.951090270771922 -0.06852021930272605
0.9843369282884384 -4.23307672059507 -0.07151114915737293
0.9013962435683665 -4.402038619795556 -0.07049330398625513
0.8075905130834422 -4.435394469002484 -0.06909665236566442
0.7138404081214936 -4.402949053756448 -0.07094224218971708
0.6310717520480974 -4.2349271357171725 -0.0724058051121136
0.5513688640174504 -3.9539358636050927 -0.06984503382090573
0.4809966437654478 -3.577343788200306 -0.06488694886693938
0.4204437690595596 -3.1181380535411036 -0.05811231169132743
0.37019255191145123 -2.5901998773818167 -0.050064902351104
0.33030274987425884 -2.0070388810149926 -0.04131964309162271
0.30093987543035144 -1.3819551902987284 -0.03290813044521429
0.2833046277594064 -0.7318955527274102 -0.02744486659014149
0.2777145490760664 -0.08360832806273447 -0.028589717785479432
1.6072831939293224 -0.0802165811634743 -0.03722848374572401
1.6008825585374478 -0.7244897023445763 -0.03655502504632212
1.5782242096811718 -1.3704696616857324 -0.04472963527444623
1.5351852804412498 -1.9937744561384145 -0.056760467692642605
1.474797873146915 -2.57606462837055 -0.0693579882936266
1.3983935795949847 -3.103326228469591 -0.08104766422896639
1.3062367614863766 -3.5618278739895177 -0.09086144613119913
1.1989043929797094 -3.9379310601960644 -0.09788462823253079
1.0774017993716078 -4.217593437781554 -0.10125221476365183
0.9421934733123852 -4.389471250108218 -0.09766415546111115
0.8077562917308214 -4.3999999999999995 -0.08299557942803985
0.6733793251784588 -4.390399827820192 -0.09822510890286426
0.5383559061640051 -4.2194813710719865 -0.10237704202190903
0.41717375892891645 -3.9408354237143888 -0.09956932035884124
0.3103081114775631 -3.5658204525243 -0.09307345217785379
0.21875858172774726 -3.108469605939995 -0.0836891115862273
0.14303807086935943 -2.582358636306529 -0.07220875725245007
0.08321842220983373 -2.0010132753963 -0.059397103145191664
0.04034441190123155 -1.3779417853411635 -0.04646331989786199
0.017451320915622327 -0.7308202223588661 -0.03660772780093159
0.010884627845154086 -0.08425345754318908 -0.03542810250422092
0.0 0.0 0.0
0.018822388779570057 -0.6896411457685048 0.01162519112411348
0.04772123918095932 -1.3189193938304842 0.022203538605716125
0.08862942788610695 -1.92337221565349 0.03203505954538359
0.1450957381434192 -2.4887829074758 0.03962235417593616
0.2176913055904392 -3.002582787343566 0.04494822858049509
0.3061528518546727 -3.4518019468615204 0.047647332728865927
0.4100585216408529 -3.823982954399777 0.04747003842703913
0.528996993515215 -4.106937399015053 0.044533344262692474
0.6624813399755515 -4.287857223035347 0.04008967674483547
0.8071411552749042 -4.351889371319214 0.03751926571213817
0.9518177735611468 -4.288184285830865 0.04011609215839088
1.0853548728757787 -4.107590515736895 0.04460523932233534
1.2043899736144452 -3.824959755685786 0.047629498306088744
1.3084527294550008 -3.453097084253998 0.04796730767871323
1.3971642288369837 -3.004181879161331 0.0455391590498677
1.4701605195280116 -2.490647760939176 0.040651596527187195
1.5272912705859019 -1.9254097406960535 0.03367966279520498
1.569279563538044 -1.320946737683705 0.024945631608157572
1.600312033147445 -0.6915807894824059 0.01478839558110688
1.6242055337438104 0.0 0.01298076124248144
0.27827100845505326 -0.02005116219511252 0.0017134690442702886
0.2895383722141745 -0.6886375380884717 0.005329982444306998
0.30329804848658415 -1.3233718998667605 0.013861990731138495
0.33077434917117116 -1.928945099482905 0.020858500869653098
0.3683654250277369 -2.4964419674514544 0.0262829178491814
0.4167144118399309 -3.0121894787238386 0.029909597305041676
0.4756348603091037 -3.463383290595476 0.03168494532007675
0.5448145836866538 -3.8375234073948636 0.031537431595659166
0.6238191935926354 -4.122485253199183 0.029633018454638286
0.7120489389609213 -4.305460705334373 0.026687991445244124
0.8072142216575066 -4.370773696328726 0.024805366482411054
0.902396020283938 -4.305791337500555 0.026619876925379524
0.9906774535353846 -4.123145747840719 0.029511645917616985
1.0697759745555913 -3.83851200544421 0.03139732024438687
1.139106176929208 -3.4646959678329448 0.03158904153491839
1.1982601319667576 -3.013814753034244 0.029963850092173828
1.2469760010389621 -2.4983473847084974 0.026643670824517674
1.285149986141611 -1.9310475576544408 0.021784333766373832
1.3136262958642557 -1.3255270475459988 0.01558688850519611
1.3291396520417875 -0.6908517989313249 0.008774587718532165
1.3414117299857669 -0.020396855206608725 0.009824046418373216
0.5455022327345724 -0.03530495208446121 -0.003084899018150352
0.5517489212474639 -0.6885026666876831 -0.00024065785282916902
0.5565453528874297 -1.3250239515860582 0.005364077951280516
0.5691323532992131 -1.9323370666165727 0.009923335491436598
0.5879244390121112 -2.5009240957263748 0.013090268350742387
0.6120134854714534 -3.0178544591463456 0.015001956218451075
0.6413981946616945 -3.470196690549759 0.015737874952423788
0.6758098250867579 -3.8454346900131786 0.015365571976856599
0.7147700040928087 -4.131509550193566 0.013971386522287101
0.7583855334355689 -4.316118424693107 0.011618199806926228
0.8072931869577427 -4.383410181633885 0.009540601586554119
0.856216884306928 -4.316454253709362 0.01145683114339495
0.8998822311134869 -4.132180615288548 0.01365982213853552
0.9389314267427198 -3.8464396100805756 0.014931808964719708
0.9734817251642356 -3.471532148463418 0.015238476864124648
1.003074144420383 -3.0195107483582517 0.014539184541216653
1.0274756882365792 -2.5028725869741257 0.012837010494612378
1.0467542800819536 -1.934499974505377 0.010144285179424947
1.0601491541075923 -1.3273003015495717 0.0064499401955954985
1.0657897600429485 -0.6905849326147787 0.0026222328386707227
1.0724101232345038 -0.03562852953098155 0.003041040368441774
0.8072223303567169 -0.04555158082182023 -0.009551310558771852
0.8093397264546507 -0.6889738454375762 -0.006364639667839726
0.8070229187411484 -1.3249511144940758 -0.0031108624932333372
0.8057805691970101 -1.93333504985151 -0.0010408142910297172
0.8055501164924075 -2.5024262297457884 -0.00014298399383304771
0.8054046653284516 -3.0197266511535403 -2.719665430751536e-05
0.8052502849744967 -3.472450251315756 -0.0004310451848000702
0.8049866827941644 -3.847948876305845 -0.0011980603470480974
0.8040281918463607 -4.134247897339509 -0.0022930239247958366
0.8032471768919243 -4.320444600463256 -0.00427682460658301
0.8073750793469983 -4.391494677610917 -0.007097513624353258
0.8115184434298109 -4.320787174761922 -0.004531624688580446
0.8107849244288989 -4.134932516943308 -0.0027950578632528465
0.8099093339166672 -3.8489741961010453 -0.0019254005421892296
0.8097700250354317 -3.473812881308041 -0.0013330766296526845
0.8097917447349012 -3.0214173465218317 -0.001001399150005247
0.8098944151856312 -2.504417034293499 -0.0010030225747853134
0.8100345583593901 -1.9355582695246865 -0.0014812983620724508
0.8092927794572546 -1.3272496101092102 -0.0026475480912709023
0.8073625420560844 -0.690858688191915 -0.004196620341269148
0.8096624483904142 -0.04589188329315094 -0.00480641010816528
1.0671452615726795 -0.05138687446466734 -0.016224770378507163
1.0655162850279614 -0.6893958522870658 -0.012736614658116534
1.056663087380475 -1.3236650079115577 -0.011544402946920527
1.042398717326569 -1.9320790804735344 -0.01195736523257483
1.0232418050028658 -2.500949069935678 -0.013334892698164055
0.9988058241356638 -3.0178538536385533 -0.015031775114656403
0.9690656555547739 -3.47020619383086 -0.016591632359842512
0.9342537844700247 -3.8452231143467337 -0.017754470739850703
0.8937844590556224 -4.130746579203772 -0.018463535075730394
0.8480920793842817 -4.318187809505673 -0.01955672666223047
0.8074586838145893 -4.396357999170117 -0.023399723693221474
0.7668402047476928 -4.318538678794729 -0.01990671036653114
0.7211930767628522 -4.131447718230596 -0.01915982103109158
0.6808006111445308 -3.846272829243094 -0.018781814198909688
0.6460986482818478 -3.471600213793239 -0.017906106569334588
0.6165023788194351 -3.019581224542658 -0.016531980257251444
0.5922486753556637 -2.5029819241572064 -0.01482003928462619
0.5733210503617115 -1.9343433300118051 -0.013076611672730725
0.5592985346774513 -1.3259426116947521 -0.011750391982663248
0.5505860757606968 -0.6911275475887576 -0.01130956573695251
0.5490485989174407 -0.05175680608644849 -0.01264086897003431
1.3278860045730245 -0.05389903930316997 -0.0223480851453614
1.3230924714053287 -0.6893092454905251 -0.018955271188450334
1.3078921544668192 -1.3213092689233947 -0.019869913035377107
1.2809383086856525 -1.9286638199504142 -0.022755322754156877
1.2428972156602665 -2.4964374502944824 -0.02639757418181923
1.1941237740527884 -3.012188148955916 -0.029863293674172352
1.1348132833823465 -3.463356946921765 -0.032518272653785235
1.065173220239921 -3.837331652965886 -0.03390797711759133
0.9863104885973902 -4.121106055347605 -0.03398854058254578
0.8952247136383862 -4.307967113854252 -0.03292963228440633
0.8075427042493794 -4.399243342296715 -0.03700885718326967
0.7198752291362122 -4.308327928750531 -0.03337805500908992
0.6288330221592564 -4.1218268859709575 -0.03488627406366881
0.5500423346559713 -3.8384101317342965 -0.035247952255334
0.48050022591848857 -3.464787017094808 -0.034265923851985826
0.4213066500210047 -3.0139555528884676 -0.03192254729688311
0.3726544870885771 -2.4985094128701832 -0.02855805736307261
0.33471011869750683 -1.9309523431204 -0.024626110251746932
0.3077861136672221 -1.3235591408874048 -0.020840987238453835
0.29254848016508356 -0.6909484178323672 -0.01831061440955845
0.2877644792919887 -0.05428124522910767 -0.019771167173982484
1.5908958336431447 -0.05470145347905868 -0.02704872092291037
1.5844555404762821 -0.6885715113346271 -0.024774879224932267
1.5633026749235712 -1.317836251644948 -0.02813234920808286
1.5232868131500514 -1.9229800984448353 -0.03359565733318719
1.4662473663603075 -2.4887602876480543 -0.039550402096084576
1.39315842348655 -3.0025416282679784 -0.04477028588908398
1.3042656739439973 -3.4517815354508077 -0.0484140956155198
1.1998659731970949 -3.8236655450242805 -0.04990314144839365
1.0811659494514818 -4.106410675021745 -0.048852635571862514
0.9521757645057423 -4.287314850510427 -0.04501770549364809
0.8076238850047137 -4.3999999999999995 -0.043294379229776046
0.6630863240769493 -4.287687395853047 -0.04556905969432775
0.5341387110485705 -4.107154686486799 -0.04996187866111308
0.41550771235233974 -3.8247777242910996 -0.05157381341520838
0.3111983264203784 -3.4532534712846994 -0.05062542750455371
0.22240493079835497 -3.0043541151442255 -0.047439198002137146
0.1493957037660771 -2.4908705992460782 -0.042469717977782886
0.09235520840467239 -1.9252819504412075 -0.03634835014943318
0.05218380390819057 -1.3200547202140755 -0.03003280100666784
0.03077821956306978 -0.690155528335405 -0.024989548492841688
0.024229697156001043 -0.05506705976368933 -0.025273966721340056
0.0 0.0 0.0
0.026130519705181512 -0.6720800794077939 0.005022938596921966
0.054958780617300876 -1.2902169660260752 0.009425811083269123
0.09491579590279575 -1.8857223492434312 0.013600144902035465
0.1497546393166278 -2.4442966581738568 0.016558290614278298
0.21970366766890168 -2.953905015474703 0.018058543093687058
0.3045597299409066 -3.4024469979390712 0.01798233936611997
0.40444986457046106 -3.778298069827151 0.01635592962648149
0.5206589054343723 -4.069487477607797 0.013522475667475404
0.6556619765897275 -4.260874605047826 0.010472195868397711
0.8071816467276575 -4.33049029688307 0.009011140586137965
0.9586817787300984 -4.260797054695768 0.010475007402080195
1.093623261787585 -4.069308536366539 0.013539779241110127
1.2097192419164564 -3.7779710830119178 0.016413109665423798
1.3094272839069667 -3.401905780919465 0.01812155880031638
1.3940024131948432 -2.953073300154063 0.018339718447996495
1.4635263718870393 -2.4431079725771516 0.01705823532541007
1.5177160133504226 -1.8841575826285089 0.014399486644287845
1.5567057940051283 -1.2883380427824969 0.010723773331082051
1.5835689931609618 -0.6698378299400221 0.007219036927564762
1.6040555041482645 0.0 0.007365661639759205
0.27946282229078506 -0.017339621738941983 0.0001816099675333541
0.2910000049319029 -0.6719742559470898 0.002577693990555192
0.3062476045032409 -1.2948496178683186 0.005947714612596089
0.3335741030221912 -1.891603911464923 0.008986783588212569
0.3704327482550877 -2.452291671975778 0.011177749675940913
0.4173653888601697 -2.9639481225440996 0.012292921923667849
0.4742299199116946 -3.414643851531066 0.012315449742533907
0.5410995511417301 -3.792806434886989 0.011324111826381225
0.618594330075345 -4.086702935768963 0.009573269858914804
0.7078523134212602 -4.281252227078649 0.007653442802359148
0.8071705463533244 -4.352922598694939 0.006685084643218707
0.9064645830558221 -4.281167999779635 0.0075972570149704394
0.9956472470872005 -4.086508901050955 0.009469287836307454
1.0730072127982797 -3.7924521266486706 0.011191523560626304
1.1396677073699657 -3.414056526318674 0.012188287168916423
1.1962259846538583 -2.9630408735049496 0.012224886161037837
1.242719063625228 -2.45098207953243 0.01124332730938131
1.2789570049930374 -1.889850056772695 0.009299000590530203
1.3053373491261124 -1.2926586990827889 0.006674612688636289
1.3190016071332362 -0.6692145674489342 0.004580029264595613
1.3298838126722312 -0.016483106107262366 0.005845565846433775
0.5435824311376317 -0.029890965948379106 -0.0017417385218162747
0.549515801770613 -0.6716891669763386 -0.00010050724250755693
0.5551028535085918 -1.2969709526648103 0.002203980277999049
0.5683276153937185 -1.8953315729685967 0.004225512084866976
0.587203693605518 -2.457164015461949 0.005587967500054158
0.6109896448071206 -2.970080236693123 0.006214135690101215
0.6396792689296422 -3.422055460469887 0.00615487796087365
0.6731104032608196 -3.8015073815930474 0.005511440879008604
0.7111719621258056 -4.096903559761145 0.004419862435315635
0.7551888347561885 -4.294029639171451 0.00312097634829107
0.8071661641392107 -4.368816854261648 0.0023413540890893274
0.8591150925801374 -4.29394138518211 0.0030072935503092004
0.9030443838975232 -4.096700007965364 0.004198381402686522
0.9409521712724739 -3.801134898422119 0.005196977118075971
0.9741521131372239 -3.421435878369463 0.005777154668804409
1.0025173227177093 -2.969117700042048 0.005825704018317895
1.0258644107228472 -2.4557619924264555 0.005274902189454437
1.0441541038835978 -1.893430682229568 0.004119707530454548
1.05656180241846 -1.2945178728845848 0.0025639814560559733
1.061515620452062 -0.6689285406679594 0.0015436719863472892
1.0674323700057815 -0.028606411132225826 0.0025141415736801612
0.8016795715386856 -0.03831348436686956 -0.004785815800216605
0.8034405271144693 -0.6716979913763356 -0.0030422108866729534
0.8016411323235245 -1.2971777200591585 -0.0016123010835888067
0.8013659544731958 -1.8966014386029975 -0.0005739148844485774
0.8020171231811548 -2.4588942942832523 -3.863811522608491e-05
0.8026004112990868 -2.972196190815699 5.5295032880764624e-05
0.8029905546016977 -3.4245775014854054 -0.00016310544266875878
0.8029368186590162 -3.8042554154310593 -0.0005840883922373911
0.8015403176781682 -4.099898773524548 -0.0011871444771419301
0.8004838407082262 -4.299593167579834 -0.002049011781011457
0.8071654190833478 -4.380105412498377 -0.002749434343609066
0.8138145239431291 -4.299503694458844 -0.002220017442942814
0.8126586227023381 -4.099691617113693 -0.0015254771879003475
0.8110902169087806 -3.8038744466064744 -0.0010785185283380399
0.8107845002802954 -3.4239403390688152 -0.0007868883707930995
0.8108349473695536 -2.9711995740713433 -0.000643136488475189
0.8109850498856316 -2.457431119812982 -0.0007124185104622486
0.8110959549120051 -1.8945877842511447 -0.0010553782898690286
0.810251135367086 -1.2946191707303687 -0.001577883029531045
0.8082078538777336 -0.6690180005019974 -0.001819387200058098
0.810084629573876 -0.036651933124971704 -0.001576404045366635
1.0578113721935487 -0.04314137274355109 -0.008146368460549691
1.0558617852012762 -0.6716897959342083 -0.006059933399622562
1.047442259042386 -1.2959825470304929 -0.005421409153362325
1.034405853904548 -1.8954547136900162 -0.005359226983411002
1.0168650412542264 -2.4574374130326393 -0.00564832618053814
0.9942004327390992 -2.9702675128674696 -0.006090948730112766
0.9662189538746183 -3.4221918562607883 -0.006473879827003189
0.9329075707357183 -3.801168304672534 -0.006671476050275706
0.8928174221714977 -4.095652811768881 -0.006757931629383725
0.8460971544265461 -4.297445840922839 -0.007106295139426603
0.8071647456870128 -4.3883590268937 -0.007657441332996049
0.7681955796145564 -4.2973580119477965 -0.007335753847704602
0.7213633828133574 -4.095448078903136 -0.0072155172288432086
0.6810819394127814 -3.8007887300114955 -0.007349870184033559
0.647495681310292 -3.4215519690708605 -0.0073497737373779334
0.6191564576243834 -2.9692591946920426 -0.007108424915708906
0.5960607632121222 -2.4559429818004404 -0.006694616539986728
0.5780479394978758 -1.8933847692614445 -0.006228578075826886
0.5646216058041551 -1.2934016410113551 -0.0057487038920278535
0.5561081161575386 -0.6690670055176888 -0.005279841788836765
0.5542905880623428 -0.041192790328742575 -0.005760858016821769
1.3146258610751047 -0.045264982517780265 -0.011113939775839203
1.3095307504151055 -0.6713274606887178 -0.008856781519404753
1.294742064797138 -1.2935995308265313 -0.009138844854391455
1.2693205442144808 -1.892006933949572 -0.010077343480219969
1.2336676297150935 -2.452782469319355 -0.011187205078242042
1.1877781951479078 -2.9643176379350367 -0.012132915896555125
1.1315618132745593 -3.414855935306476 -0.012611561162825018
1.0648195951853854 -3.792516834171684 -0.012465848146868009
0.9880902001032152 -4.084534609647014 -0.011829953894881716
0.8956006746176275 -4.285800468412335 -0.011366855608813672
0.8071605764331538 -4.395034203111502 -0.01146097690106214
0.7186788865387996 -4.285717096809679 -0.011657210553798184
0.6260631835838859 -4.0843382348212565 -0.012412269084833349
0.5491198414335093 -3.792148341787512 -0.013338056324621747
0.48207447856620544 -3.4142280530411875 -0.01375628737680442
0.4254730887346809 -2.963319237105491 -0.013497251888393607
0.37914567776044783 -2.4512907491549263 -0.012650449952234619
0.34307571276817195 -1.88993430052294 -0.011403101909509581
0.317389348922028 -1.2910381964424935 -0.009920937781673292
0.3025891872948067 -0.6687333272274777 -0.008552453367845431
0.29763049561310867 -0.04313578034441182 -0.009401931792955944
1.573670788608985 -0.0460222040204358 -0.012776907140010913
1.5668880406002215 -0.6704708394334841 -0.011153566784101775
1.5461497978951946 -1.2900934239803883 -0.012613152030843455
1.5081054050654135 -1.8863024059070612 -0.01459527814821343
1.4543432079108984 -2.444999728318692 -0.016491289732737793
1.3853724412210437 -2.954406573625179 -0.017837717750186638
1.301088780546021 -3.402784135720861 -0.01823767052070019
1.2012805686136292 -3.7779363850714893 -0.017474548000485753
1.0865011300032643 -4.068637911086565 -0.01573070957838528
0.9593724922313488 -4.261776846990821 -0.01391543009760717
0.8071498472518732 -4.3999999999999995 -0.013066113219263414
0.6548799150883019 -4.261700583042784 -0.014270512820323445
0.5276081060548931 -4.068455490199196 -0.016446453285662202
0.4125869718652185 -3.777588172223175 -0.018556525279585106
0.3124387507315176 -3.402182113913432 -0.01967890088958217
0.22772863638625884 -2.9534387833652023 -0.019596098841171975
0.15828903016287507 -2.44354402119848 -0.01845126016662277
0.10412791910916165 -1.8842768992636285 -0.016505151496426975
0.06592634810483568 -1.2875934725618432 -0.014013828118619367
0.04531244523662083 -0.6679070239021966 -0.0114074255412786
0.03871487299330383 -0.04380663304914995 -0.011567174481119397
0.0 0.0 0.0
0.027719136395868153 -0.6673661513998611 -5.439589948852127e-14
0.05670654528325338 -1.2820351085088189 -1.0252650708701831e-13
0.09621840873553325 -1.8748115892106871 -1.4843916912155707e-13
0.15024242561291204 -2.431628278739059 -1.9158376400737804e-13
0.21912394026309984 -2.9406235432629795 -2.3940153860979774e-13
0.3027566474502094 -3.3899365600946196 -2.9677948308250467e-13
0.40157073402463034 -3.76806636144453 -3.665300885803013e-13
0.5174187276165436 -4.062729067402926 -4.248393204404546e-13
0.6533790145665467 -4.257627124608847 -4.788005943760613e-13
0.8071591940672184 -4.328853104115974 -5.356915440808802e-13
0.9609043580994346 -4.257393213524271 -5.95104509706626e-13
1.0967546967328134 -4.0622269803979725 -6.479560067320891e-13
1.2124017934009301 -3.7672288592611847 -6.764387257327049e-13
1.3108923045728493 -3.3886683548802328 -7.253970607895853e-13
1.3940214721478754 -2.938817286836275 -7.692012360816516e-13
1.4621247112122455 -2.429200128143672 -8.56717404111123e-13
1.5149441923693714 -1.8717689304388772 -9.510303585286441e-13
1.5526075406036415 -1.278522851390444 -1.0530677434543952e-12
1.5785148192676006 -0.663635451709235 -1.1582471554328476e-12
1.598142552433275 0.0 -1.2347529885742902e-12
0.27936792263808097 -0.016766454376757733 -1.1060946205102561e-14
0.2909580617524584 -0.6675832489378603 -4.917128237116166e-14
0.3067604093166285 -1.2867579501277842 -9.557638738830304e-14
0.3339365399441584 -1.8807963857119974 -1.432371168230409e-13
0.37038284235418184 -2.4397268824173026 -1.910420187446922e-13
0.4167250257427857 -2.950813700851196 -2.4258954858119877e-13
0.4729116721320453 -3.4023684906792626 -2.980706012423844e-13
0.539209960094276 -3.782963098208426 -3.616086211085557e-13
0.6165702692546678 -4.080551898165779 -4.2228117665994203e-13
0.7064484777082745 -4.278838258280672 -4.860170269463924e-13
0.8071167252588687 -4.352236384814866 -5.419461830282489e-13
0.907743397357915 -4.278593304419841 -6.059424565055887e-13
0.9974923612100315 -4.080025085079606 -6.693651094643383e-13
1.0746214494502884 -3.782081303236735 -7.165987055690549e-13
1.1405596857624833 -3.401026183273015 -7.751056017804063e-13
1.1962121045317866 -2.9488862683682444 -8.357814893626134e-13
1.241771402947184 -2.4371064942654823 -9.11719565583412e-13
1.2770722991683425 -1.8774485750285619 -9.972890105056735e-13
1.3025439870961186 -1.2827835192118628 -1.0875782137410505e-12
1.3158313858348427 -0.6630387944406734 -1.1789039935635744e-12
1.32630652964254 -0.01580222238106098 -1.2450363404946913e-12
0.5425512566249672 -0.029167745689770427 -1.2170770159280009e-14
0.5484193367688015 -0.6672999145156838 -4.782437493072686e-14
0.5543752340094713 -1.2889814783170854 -9.104672638154056e-14
0.5677310337119272 -1.8845587392946803 -1.4042292776764674e-13
0.586529510900236 -2.444627811771314 -1.9017503116125468e-13
0.6101421483068963 -2.956980010829187 -2.455791349637698e-13
0.6386067502818364 -3.409848545833696 -3.0392135953051254e-13
0.6718491152528006 -3.7917956145885547 -3.6009278827460136e-13
0.7099012454887405 -4.090975508948576 -4.304230202955309e-13
0.7542581270708998 -4.291931963504027 -4.936543770802784e-13
0.8070813747480845 -4.368556159797276 -5.529648818619502e-13
0.8598572978820369 -4.291679128222912 -6.240616941565245e-13
0.9040683504427635 -4.090430778241348 -6.917325325634219e-13
0.941864455809121 -3.7908812064352317 -7.55297690219916e-13
0.9747203881778085 -3.4084506916455233 -8.217396577059271e-13
1.002636624242029 -2.954960823973892 -8.898194390354927e-13
1.0254888676776797 -2.441855807468187 -9.6185046699979e-13
1.0432411391423186 -1.8809789509910517 -1.0387510719117377e-12
1.0551630466477806 -1.2846142224285382 -1.1210989446251439e-12
1.0600042221861872 -0.6627595682890183 -1.2014991696861326e-12
1.0657129773995415 -0.0274428824911981 -1.26960112063474e-12
0.7994944405492748 -0.03750581696790553 -1.033952413893313e-14
0.8012404351880544 -0.6672773623822081 -4.5959773484065206e-14
0.7997507380328043 -1.289249435587116 -8.823932863914992e-14
0.7997685959483107 -1.8858815250065355 -1.391559403757019e-13
0.8006544213286041 -2.4463900064469715 -1.9044736360779477e-13
0.801449587907547 -2.959124787268438 -2.4798332833014465e-13
0.802030043605103 -3.412403479221569 -3.0787404268383673e-13
0.80212768487478 -3.7945841794388597 -3.6587883540604336e-13
0.8008239417886728 -4.094026679031511 -4.3754312246388424e-13
0.7998582431212693 -4.297578397913009 -5.040957176405925e-13
0.8070492605654969 -4.380071055467031 -5.670113646230665e-13
0.814187469961263 -4.297321006301653 -6.437485180601535e-13
0.8130602702566059 -4.093471200177094 -7.112193706595259e-13
0.8114775979513434 -3.7936493196933823 -7.89963794657577e-13
0.811165937185188 -3.410969588708002 -8.642730964173986e-13
0.8111903537955031 -2.957043013761821 -9.365316189411484e-13
0.8112622372297739 -2.443512990926258 -1.0072948639939155e-12
0.8112234330607907 -1.8821226225518153 -1.0782604381947868e-12
0.8102435069616417 -1.2847265739655063 -1.1536020971202895e-12
0.8082631824198315 -0.6628574610226438 -1.2266469052914066e-12
0.8100854894401731 -0.03514315214695603 -1.2987904511545533e-12
1.0543264869464024 -0.04227818473914024 -7.776511279453044e-15
1.0524744077443045 -0.6672405167718827 -4.378642456154871e-14
1.0444114421475992 -1.2880996673723015 -8.680848436310166e-14
1.0318235157446614 -1.8847974922709174 -1.3633895031040935e-13
1.0148096817009504 -2.4449820475852473 -1.896019920162852e-13
0.9927421826186132 -2.957231018917782 -2.474866868606324e-13
0.9653657791294401 -3.4100330939991332 -3.1248690782044273e-13
0.9325587282406752 -3.791475651701151 -3.734326867147503e-13
0.8926919329094466 -4.089712960111681 -4.4534877156654894e-13
0.84577942088409 -4.295336313425092 -5.145948820118158e-13
0.8070166242150767 -4.388430912962376 -5.832691084168338e-13
0.768195256896158 -4.295077748145515 -6.61078081570822e-13
0.7211046898135457 -4.089153994997063 -7.37779886067473e-13
0.6809344099922084 -3.790532680703042 -8.21719481763861e-13
0.6476922545557251 -3.4085825545353425 -9.035704156969249e-13
0.6197487281493778 -2.955117613107979 -9.854186168544303e-13
0.5969912922385529 -2.4420439987589964 -1.0515092480900254e-12
0.5792062909772405 -1.880944357205844 -1.1180439748719979e-12
0.5659554464280387 -1.28354546012638 -1.1848095993602786e-12
0.5576813867164865 -0.6629126396596395 -1.2520585852138113e-12
0.5559687476152245 -0.039458165023214725 -1.3280763347882298e-12
1.3097331976804845 -0.04437351501539223 -5.317823216349321e-15
1.304886032071475 -0.6668503844069341 -4.17393676635924e-14
1.2905771698528632 -1.2857553415444394 -8.468947834831481e-14
1.2657941878656436 -1.8814133629071956 -1.3371659194767408e-13
1.2309800289909967 -2.440382970109331 -1.899989150195056e-13
1.186099124120516 -2.9513114792942674 -2.5396148666944504e-13
1.1309444521917666 -3.402676343393616 -3.12367814434247e-13
1.06510331148273 -3.782727912118277 -3.755348435522914e-13
0.988817163086084 -4.078373893275277 -4.547653502827411e-13
0.8957718840156345 -4.283367798868087 -5.190872107086016e-13
0.8069796921227537 -4.395110878814422 -5.954287770700803e-13
0.718122337258269 -4.283111377660587 -6.718756832856119e-13
0.6248797796453059 -4.07781857623108 -7.592327788852346e-13
0.5482604042119087 -3.7817888433660363 -8.527901473626329e-13
0.48194943625465136 -3.4012282852433753 -9.425083770669396e-13
0.4262010104090243 -2.9491963485543042 -1.0309100309522783e-12
0.3806469125193835 -2.4374341831139525 -1.0999304151392837e-12
0.345191302701725 -1.8775477876056659 -1.1603017100140393e-12
0.31999703356402004 -1.2812339440381875 -1.2174457546192179e-12
0.3056591344254608 -0.6625765709158595 -1.2746532516521817e-12
0.30099606976280485 -0.04127886575972029 -1.3533716312858588e-12
1.5672764486745225 -0.04506608538686857 -2.843771214626484e-15
1.5608878632863321 -0.6659225547682401 -3.9159293813446943e-14
1.5407893247615827 -1.2822442411603012 -8.061067951308823e-14
1.5036409442082108 -1.875717929725454 -1.2913409376436496e-13
1.45109618795838 -2.4325828264057225 -1.9160491395118624e-13
1.3836143663838232 -2.941320837116163 -2.6260441924518663e-13
1.3009369266474162 -3.390420288086771 -3.08709892129322e-13
1.202549198362491 -3.767792009008139 -3.761235535199152e-13
1.0884525741222153 -4.061932726105855 -4.4513759826088597e-13
0.9606648574922954 -4.258444470968818 -5.186932512585374e-13
0.8069345223994588 -4.3999999999999995 -5.991670225058569e-13
0.6531310459894993 -4.258193349416571 -6.774512960255359e-13
0.5251223227376063 -4.061387830886938 -7.658407092224959e-13
0.41065407261019665 -3.7668683003261054 -8.808351530401746e-13
0.3117466296680902 -3.3889927449530046 -9.820313260146472e-13
0.22842295889926956 -2.9392328238733985 -1.0877806046057178e-12
0.1602412477920147 -2.4296736632908593 -1.1554828529501547e-12
0.1071223022070634 -1.8719198924493385 -1.210577191152451e-12
0.06979152854018938 -1.2778267857614578 -1.2520813482860364e-12
0.049940163193492725 -0.6617107929091601 -1.2939316921046052e-12
0.04384930622983775 -0.04184745619824916 -1.3682178962412127e-12
0.0 0.0 0.0
0.02613051970527971 -0.6720800794078421 -0.0050229385970313855
0.05495878061745213 -1.2902169660261533 -0.009425811083465812
0.09491579590298792 -1.8857223492434736 -0.013600144902324507
0.1497546393168356 -2.4442966581738395 -0.016558290614661964
0.21970366766911067 -2.9539050154746875 -0.018058543094174644
0.30455972994112596 -3.402446997939054 -0.01798233936669521
0.4044498645707006 -3.7782980698271404 -0.016355929627129086
0.5206589054346289 -4.0694874776078045 -0.01352247566824412
0.6556619765900085 -4.260874605047749 -0.010472195869310894
0.8071816467279674 -4.330490296883004 -0.00901114058716925
0.9586817787304536 -4.260797054695684 -0.010475007403227654
1.0936232617879877 -4.069308536366293 -0.01353977924235488
1.2097192419168774 -3.777971083011507 -0.016413109666771404
1.3094272839073853 -3.4019057809189666 -0.01812155880177407
1.394002413195188 -2.9530733001534006 -0.01833971844958708
1.4635263718872942 -2.443107972576597 -0.017058235327146516
1.517716013350639 -1.8841575826280381 -0.014399486646196164
1.5567057940053082 -1.2883380427821363 -0.010723773333191439
1.583568993161113 -0.6698378299398159 -0.00721903692987438
1.6040555041483793 0.0 -0.007365661642215035
0.2794628222908744 -0.017339621738947916 -0.00018160996755712497
0.29100000493201444 -0.6719742559471495 -0.0025776939906552686
0.3062476045033882 -1.2948496178684041 -0.0059477146127898655
0.3335741030223683 -1.8916039114649599 -0.008986783588499898
0.3704327482552874 -2.452291671975772 -0.011177749676328418
0.41736538886037977 -2.9639481225440765 -0.012292921924159693
0.47422991991191366 -3.4146438515310527 -0.012315449743124835
0.5410995511419667 -3.7928064348869945 -0.011324111827067888
0.6185943300755875 -4.086702935768972 -0.009573269859725663
0.7078523134215249 -4.281252227078615 -0.0076534428032967415
0.8071705463536283 -4.352922598694881 -0.006685084644283868
0.9064645830561449 -4.281167999779557 -0.00759725701615748
0.9956472470875485 -4.086508901050762 -0.009469287837605093
1.0730072127986634 -3.7924521266482714 -0.01119152356205018
1.1396677073703292 -3.4140565263181806 -0.012188287170459732
1.1962259846541903 -2.9630408735042444 -0.012224886162725766
1.2427190636255196 -2.4509820795318635 -0.011243327311214002
1.2789570049932895 -1.8898500567722138 -0.00929900059252528
1.305337349126343 -1.292658699082426 -0.0066746126908169825
1.319001607133453 -0.6692145674487263 -0.0045800292669477966
1.3298838126724366 -0.016483106107239274 -0.005845565848914598
0.543582431137755 -0.029890965948389872 0.0017417385217892592
0.5495158017707488 -0.6716891669764009 0.00010050724241080727
0.5551028535087386 -1.2969709526648874 -0.0022039802781874895
0.5683276153938898 -1.8953315729686502 -0.004225512085154016
0.5872036936057043 -2.457164015461942 -0.005587967500443683
0.6109896448073181 -2.9700802366930836 -0.006214135690597045
0.6396792689298557 -3.4220554604698825 -0.006154877961478905
0.6731104032610381 -3.8015073815930527 -0.0055114408797305855
0.7111719621260351 -4.096903559761156 -0.004419862436158025
0.7551888347564487 -4.294029639171419 -0.0031209763492646377
0.8071661641394898 -4.368816854261602 -0.002341354090192807
0.8591150925804304 -4.293941385182018 -0.0030072935515383942
0.9030443838978368 -4.096700007965214 -0.004198381404040681
0.9409521712728092 -3.801134898421728 -0.005196977119572124
0.9741521131375623 -3.421435878368989 -0.005777154670433511
1.0025173227180388 -2.969117700041373 -0.005825704020097011
1.0258644107231552 -2.455761992425874 -0.005274902191374582
1.0441541038838882 -1.8934306822290896 -0.004119707532535722
1.0565618024187275 -1.2945178728842173 -0.0025639814583015724
1.0615156204523348 -0.6689285406677544 -0.0015436719887475618
1.0674323700060442 -0.02860641113218262 -0.002514141576211594
0.8016795715388282 -0.03831348436688685 0.004785815800193212
0.8034405271146167 -0.6716979913763935 0.0030422108865779977
0.8016411323236737 -1.297177720059228 0.0016123010834057426
0.8013659544733595 -1.896601438603048 0.0005739148841652293
0.8020171231813288 -2.458894294283248 3.863811483576675e-05
0.8026004112992707 -2.97219619081567 -5.529503338656236e-05
0.8029905546018953 -3.424577501485391 0.00016310544204785026
0.8029368186592205 -3.804255415431052 0.0005840883914949981
0.8015403176783886 -4.099898773524606 0.0011871444762648266
0.8004838407084685 -4.299593167579819 0.0020490117800084067
0.8071654190836066 -4.380105412498304 0.0027494343424621535
0.8138145239433906 -4.29950369445877 0.0022200174416696643
0.8126586227026225 -4.099691617113577 0.0015254771864871416
0.8110902169090708 -3.803874446606116 0.0010785185267717377
0.8107845002805961 -3.423940339068371 0.0007868883690796168
0.8108349473698684 -2.971199574070675 0.0006431364866084269
0.8109850498859579 -2.4574311198124117 0.000712418508451883
0.8110959549123224 -1.8945877842506431 0.0010553782877076698
0.8102511353674 -1.2946191707300125 0.0015778830272214297
0.8082078538780512 -0.6690180005017924 0.0018193871976072418
0.8100846295741972 -0.03665193312491645 0.0015764040427740304
1.0578113721937024 -0.04314137274357582 0.00814636846053263
1.0558617852014267 -0.6716897959342555 0.006059933399531275
1.0474422590425339 -1.2959825470305548 0.005421409153182783
1.034405853904704 -1.8954547136900612 0.005359226983130164
1.016865041254392 -2.4574374130326415 0.0056483261801474885
0.9942004327392635 -2.970267512867422 0.006090948729597638
0.9662189538748008 -3.422191856260784 0.006473879826370538
0.932907570735918 -3.8011683046725366 0.006671476049509095
0.8928174221717152 -4.095652811768939 0.006757931628485635
0.8460971544267698 -4.297445840922851 0.007106295138394212
0.8071647456872513 -4.388359026893635 0.0076574413318059465
0.7681955796148071 -4.297358011947743 0.007335753846384165
0.7213633828136025 -4.095448078903002 0.007215517227370018
0.6810819394130386 -3.8007887300111527 0.007349870182396139
0.6474956813105616 -3.421551969070425 0.0073497737355808414
0.6191564576246866 -2.969259194691387 0.007108424913756426
0.5960607632124569 -2.4559429817998644 0.006694616537886819
0.5780479394982178 -1.8933847692609314 0.0062285780735833645
0.5646216058045113 -1.2934016410109999 0.005748703889655576
0.5561081161579043 -0.6690670055174878 0.005279841786334138
0.5542905880627127 -0.041192790328679625 0.0057608580141672305
1.3146258610752592 -0.04526498251780978 0.011113939775829935
1.3095307504152582 -0.671327460688755 0.008856781519318221
1.2947420647972845 -1.2935995308265875 0.009138844854217523
1.269320544214624 -1.8920069339496253 0.010077343479942368
1.2336676297152482 -2.452782469319332 0.011187205077852305
1.1877781951480706 -2.964317637934971 0.012132915896041842
1.131561813274739 -3.414855935306494 0.012611561162182478
1.0648195951855877 -3.7925168341716655 0.012465848146075108
0.9880902001034305 -4.084534609647083 0.011829953893961867
0.8956006746178357 -4.285800468412332 0.011366855607751549
0.8071605764333771 -4.395034203111469 0.011460976899837345
0.7186788865390258 -4.285717096809618 0.0116572105524329
0.6260631835841004 -4.084338234821161 0.012412269083301447
0.5491198414337288 -3.792148341787178 0.01333805632291268
0.48207447856644026 -3.4142280530407607 0.013756287374923883
0.42547308873496587 -2.9633192371048773 0.013497251886346146
0.37914567776078867 -2.451290749154342 0.012650449950042806
0.34307571276854504 -1.8899343005224305 0.011403101907185156
0.31738934892243076 -1.2910381964421402 0.009920937779235629
0.3025891872952229 -0.6687333272272831 0.008552453365293611
0.2976304956135298 -0.043135780344345266 0.009401931790247545
1.5736707886091406 -0.04602220402046866 0.012776907140007399
1.566888040600376 -0.670470839433514 0.011153566784022318
1.5461497978953431 -1.290093423980447 0.01261315203067699
1.5081054050655447 -1.8863024059071067 0.014595278147940781
1.4543432079110343 -2.444999728318668 0.01649128973234945
1.3853724412212063 -2.9544065736251284 0.017837717749681195
1.3010887805462015 -3.402784135720851 0.018237670520042056
1.201280568613833 -3.777936385071474 0.017474547999672938
1.0865011300034806 -4.068637911086623 0.015730709577437295
0.9593724922315389 -4.261776846990811 0.013915430096521575
0.8071498472520795 -4.3999999999999995 0.013066113218024828
0.6548799150885074 -4.26170058304271 0.014270512818913537
0.527608106055062 -4.068455490199104 0.016446453284059293
0.41258697186537296 -3.7775881722228704 0.01855652527780303
0.31243875073170646 -3.4021821139129997 0.019678900887613992
0.2277286363865149 -2.9534387833646214 0.019596098839029494
0.15828903016322715 -2.4435440211979054 0.01845126016433312
0.1041279191095815 -1.8842768992631271 0.01650515149402097
0.06592634810529469 -1.2875934725614926 0.014013828116115585
0.0453124452370914 -0.6679070239019996 0.011407425538679496
0.03871487299377585 -0.043806633049083624 0.011567174478378607
0.0 0.0 0.0
0.01882238877977901 -0.6896411457686076 -0.011625191124241485
0.047721239181269144 -1.3189193938305515 -0.022203538605947214
0.08862942788647372 -1.923372215653515 -0.032035059545710384
0.14509573814384402 -2.488782907475798 -0.0396223541763481
0.21769130559092445 -3.002582787343507 -0.044948228580981284
0.306152851855226 -3.45180194686137 -0.04764733272941774
0.41005852164138545 -3.8239829543994235 -0.047470038427680564
0.5289969935156948 -4.106937399014644 -0.044533344263428885
0.6624813399760833 -4.287857223035105 -0.040089676745698535
0.8071411552755348 -4.351889371318856 -0.03751926571310884
0.9518177735618345 -4.288184285830502 -0.04011609215949003
1.0853548728765365 -4.107590515736325 -0.0446052393235437
1.204389973615209 -3.8249597556850476 -0.04762949830742478
1.3084527294557153 -3.4530970842530597 -0.047967307680180885
1.3971642288376267 -3.00418187916034 -0.045539159051479726
1.4701605195285563 -2.490647760938118 -0.040651596528931744
1.5272912705863313 -1.9254097406951503 -0.03367966279712168
1.5692795635383798 -1.320946737682987 -0.024945631610266528
1.6003120331477245 -0.6915807894819536 -0.01478839558341644
1.6242055337440124 0.0 -0.012980761244934606
0.2782710084552298 -0.020051162195128956 -0.0017134690442975238
0.28953837221439616 -0.6886375380885844 -0.00532998244442284
0.3032980484868812 -1.3233718998668333 -0.013861990731358164
0.3307743491715277 -1.9289450994829345 -0.020858500869969283
0.36836542502814207 -2.4964419674514686 -0.026282917849586494
0.4167144118403828 -3.0121894787238013 -0.02990959730553501
0.4756348603095927 -3.463383290595343 -0.03168494532065845
0.5448145836871439 -3.8375234073944626 -0.031537431596337755
0.6238191935931386 -4.12248525319877 -0.02963301845542234
0.7120489389614577 -4.3054607053341485 -0.026687991446153515
0.8072142216581043 -4.370773696328399 -0.024805366483448464
0.9023960202845888 -4.305791337500183 -0.026619876926536383
0.9906774535360655 -4.123145747840163 -0.02951164591889702
1.069775974556285 -3.838512005443436 -0.0313973202457947
1.1391061769298714 -3.4646959678319993 -0.031589041536464996
1.198260131967372 -3.01381475303324 -0.029963850093862637
1.2469760010395223 -2.49834738470745 -0.026643670826354514
1.2851499861421023 -1.9310475576535007 -0.021784333768378395
1.3136262958646825 -1.3255270475452754 -0.01558688850737272
1.3291396520422032 -0.6908517989308794 -0.008774587720887067
1.341411729986151 -0.02039685520654457 -0.009824046420850715
0.545502232734818 -0.03530495208448641 0.003084899018119004
0.5517489212477233 -0.6885026666877967 0.00024065785271873142
0.5565453528877238 -1.3250239515861444 -0.005364077951490138
0.5691323532995558 -1.9323370666166089 -0.009923335491742725
0.587924439012494 -2.500924095726397 -0.013090268351145429
0.6120134854718771 -3.017854459146314 -0.015001956218954185
0.6413981946621374 -3.47019669054961 -0.01573787495302876
0.6758098250872218 -3.8454346900127976 -0.015365571977564937
0.7147700040933038 -4.131509550193174 -0.013971386523109516
0.7583855334360867 -4.3161184246928785 -0.011618199807875214
0.8072931869583108 -4.383410181633564 -0.009540601587653663
0.8562168843075397 -4.316454253709007 -0.011456831144609924
0.8998822311141085 -4.132180615287956 -0.013659822139882972
0.9389314267433422 -3.8464396100798357 -0.014931808966199882
0.9734817251648564 -3.4715321484624484 -0.015238476865749227
1.0030741444209854 -3.019510748357239 -0.014539184542987709
1.0274756882371607 -2.5028725869730803 -0.012837010496541712
1.0467542800824954 -1.9344999745044087 -0.010144285181508204
1.0601491541081154 -1.327300301548864 -0.006449940197837863
1.0657897600434707 -0.6905849326143303 -0.002622232841072286
1.0724101232350058 -0.03562852953087143 -0.0030410403709723783
0.8072223303569996 -0.045551580821855855 0.009551310558749412
0.8093397264549353 -0.688973845437676 0.006364639667734521
0.8070229187414487 -1.3249511144941712 0.0031108624930361447
0.8057805691973342 -1.9333350498515562 0.0010408142907316763
0.8055501164927661 -2.5024262297458177 0.0001429839934323715
0.8054046653288404 -3.0197266511535106 2.7196653797595915e-05
0.8052502849749161 -3.4724502513156184 0.00043104518417940785
0.8049866827945997 -3.8479488763055265 0.0011980603463061438
0.8040281918468333 -4.13424789733914 0.0022930239239382683
0.8032471768924245 -4.320444600463067 0.004276824605589701
0.8073750793475379 -4.3914946776106705 0.007097513623205599
0.8115184434303853 -4.320787174761554 0.004531624687307466
0.8107849244294626 -4.134932516942699 0.0027950578618414035
0.809909333917232 -3.848974196100301 0.0019254005406354714
0.8097700250360167 -3.473812881307094 0.0013330766279446204
0.8097917447354975 -3.0214173465208036 0.001001399148144435
0.8098944151862215 -2.504417034292429 0.0010030225727709547
0.8100345583599913 -1.935558269523729 0.0014812983599079114
0.8092927794578678 -1.3272496101085045 0.0026475480889624186
0.8073625420567083 -0.6908586881914685 0.004196620338814785
0.8096624483910291 -0.045891883293008875 0.0048064101055724185
1.067145261572981 -0.05138687446471254 0.01622477037849734
1.0655162850282593 -0.6893958522871549 0.012736614658020503
1.056663087380781 -1.323665007911655 0.011544402946735144
1.0423987173268883 -1.9320790804735808 0.011957365232289354
1.0232418050031933 -2.5009490699357064 0.013334892697763886
0.9988058241360238 -3.017853853638573 0.015031775114137107
0.9690656555551544 -3.4702061938307485 0.01659163235919963
0.9342537844704422 -3.845223114346392 0.017754470739082987
0.8937844590560824 -4.130746579203429 0.018463535074834576
0.8480920793847571 -4.318187809505476 0.019556726661194616
0.8074586838150857 -4.396357999169916 0.023399723692030645
0.7668402047482178 -4.318538678794352 0.019906710365204056
0.7211930767633536 -4.131447718229946 0.01915982102961404
0.6808006111450436 -3.8462728292423702 0.01878181419727612
0.6460986482823983 -3.471600213792309 0.01790610656753495
0.6165023788200195 -3.0195812245416365 0.016531980255300813
0.5922486753562773 -2.5029819241561397 0.014820039282524346
0.5733210503623665 -1.934343330010873 0.013076611670487409
0.5592985346781538 -1.3259426116940567 0.011750391980286962
0.5505860757614133 -0.6911275475883002 0.0113095657344425
0.5490485989181536 -0.05175680608629229 0.012640868967379135
1.3278860045733483 -0.053899039303217273 0.022348085145364877
1.3230924714056425 -0.6893092454906111 0.018955271188366544
1.3078921544671183 -1.3213092689234898 0.0198699130352042
1.280938308685967 -1.9286638199504649 0.02275532275388186
1.242897215660579 -2.4964374502945113 0.02639757418142808
1.1941237740531108 -3.012188148955969 0.029863293673645028
1.1348132833826885 -3.4633569469216248 0.03251827265312009
1.065173220240307 -3.837331652965611 0.03390797711678668
0.9863104885978496 -4.1211060553472745 0.03398854058160388
0.8952247136388374 -4.307967113854058 0.032929632283335813
0.807542704249838 -4.3992433422965975 0.03700885718203924
0.7198752291366786 -4.3083279287501375 0.03337805500771356
0.6288330221596932 -4.121826885970281 0.03488627406211884
0.5500423346564328 -3.8384101317335833 0.03524795225361269
0.4805002259189971 -3.4647870170938777 0.03426592385009422
0.42130665002157314 -3.013955552887434 0.031922547294840335
0.37265448708921745 -2.4985094128691236 0.02855805736088076
0.33471011869823014 -1.9309523431195033 0.024626110249421067
0.3077861136680053 -1.3235591408867098 0.020840987236010057
0.29254848016589363 -0.6909484178319119 0.018310614406993872
0.28776447929280713 -0.054281245228944945 0.019771167171271142
1.5908958336434729 -0.0547014534791077 0.02704872092292549
1.5844555404766147 -0.6885715113347131 0.024774879224863555
1.5633026749238725 -1.317836251645033 0.02813234920792388
1.5232868131503385 -1.9229800984448975 0.03359565733292645
1.4662473663606173 -2.4887602876480774 0.03955040209570607
1.3931584234868355 -3.002541628267992 0.044770285888550164
1.3042656739442764 -3.4517815354506727 0.048414095614829025
1.1998659731974581 -3.8236655450240304 0.04990314144753864
1.0811659494519361 -4.106410675021461 0.04885263557086729
0.9521757645062389 -4.287314850510227 0.04501770549253362
0.8076238850051332 -4.3999999999999995 0.04329437922852285
0.6630863240772943 -4.287687395852643 0.04556905969290057
0.5341387110489427 -4.107154686486139 0.049961878659480416
0.4155077123527487 -3.824777724290402 0.05157381341339371
0.31119832642082373 -3.4532534712837744 0.05062542750256568
0.22240493079890505 -3.0043541151432045 0.047439197999999884
0.14939570376675024 -2.4908705992450484 0.042469717975501656
0.09235520840546628 -1.9252819504403325 0.03634835014702433
0.05218380390905962 -1.3200547202134023 0.030032801004153738
0.03077821956398592 -0.6901555283349526 0.024989548490227793
0.02422969715693621 -0.05506705976352643 0.02527396671858863
0.0 0.0 0.0
0.020122217761409846 -0.7296616165066673 -0.017465322269931995
0.048455664739672874 -1.3749742541087342 -0.03760649740939362
0.08764297136126889 -1.996570175956515 -0.05369025866127708
0.1434089471544289 -2.577596836787408 -0.06826444560596996
0.21653572533409515 -3.104355398498785 -0.08031431548442103
0.3067214664893598 -3.5623715312483837 -0.08933863655697835
0.4134206158411321 -3.9376479631592747 -0.09469632090774618
0.5351750144958476 -4.216539618246562 -0.09593862964360818
0.6683623406577475 -4.387396641506092 -0.09379969452426375
0.8069781002430914 -4.444328535539737 -0.09186386506921305
0.9456431235003504 -4.38823027302716 -0.09387682568039571
1.0789878517491758 -4.218226324321668 -0.096119950035632
1.201037919941532 -3.940223249742822 -0.0950416779408792
1.3082256308332592 -3.5658779392351336 -0.08995106005111426
1.3991792830535792 -3.108820517784404 -0.08135913987140334
1.473474616457195 -2.582994757500159 -0.0699760043802157
1.530982096142327 -2.0027549233705475 -0.05647258056919935
1.5727058867554364 -1.381660514292069 -0.04171206761074284
1.605414496170378 -0.7363112975447476 -0.024798132159251137
1.6360375804158123 0.0 0.0001415851274908154
0.28637394494010027 -0.03115849917487909 0.009170155943618584
0.2987339451464389 -0.7264226291033741 -0.009149377045491113
0.3086983738519696 -1.3793673774216946 -0.02382315339448935
0.3343773559922592 -2.001730924140406 -0.0362595452505269
0.3706048418513954 -2.585019946576744 -0.046668244587561476
0.41843739725217277 -3.113762655306135 -0.055232706798997826
0.47760120355836866 -3.573782190480799 -0.061579345813470784
0.5477208063872153 -3.950980664252493 -0.06541561015250497
0.6278396079297507 -4.231541406761999 -0.06654029122879983
0.7156264191833552 -4.403369225300913 -0.0654144665393907
0.8071282634674665 -4.460356255730872 -0.06421698007910381
0.8986822013958091 -4.404216573902623 -0.06538791913135272
0.9866342019793672 -4.233258109820113 -0.06651020616252833
1.0670587462727008 -3.9536076334837422 -0.0654341395325695
1.1376730083744453 -3.577370571083776 -0.06174090538661827
1.1975932828886138 -3.1183531421951702 -0.05569079338723702
1.24654712652668 -2.5906016949826904 -0.04767189407139343
1.2843889096803118 -2.008179738250218 -0.038140971048421235
1.3124060124854144 -1.386432623219759 -0.027234200971511243
1.3257044239061133 -0.7335988291938675 -0.014136512277037595
1.3398514933872745 -0.0328817817731836 0.003698296252980084
0.5567269579652522 -0.05409916275692529 0.014985696867448207
0.5631002898109497 -0.7253356075391955 0.0008109579329951083
0.564212333527245 -1.3803635246141683 -0.009664906997030834
0.5741761055313392 -2.0048485658339645 -0.017387382585497633
0.591289301170308 -2.589277573209847 -0.02329614845040989
0.6143140543265635 -3.1192763691933725 -0.027805999518533946
0.6432191479383812 -3.5804885113286904 -0.03094465053455113
0.6778609208406282 -3.95888482746952 -0.032648039406837984
0.7179841789823815 -4.240478796082951 -0.032883614231673915
0.7622052949242942 -4.4125143169033585 -0.031732456131119344
0.8072473271321089 -4.468531940502452 -0.030434663486800323
0.85234245317438 -4.413376492282386 -0.031602404404416425
0.896730901900163 -4.242227419430407 -0.032642092598934
0.9371600657278452 -3.9615653732959704 -0.03233917244057023
0.9722873584085631 -3.584159214254166 -0.030652181397838138
1.0019167730874499 -3.1239880681028036 -0.02767653054406819
1.0259824246577924 -2.5950330195636164 -0.023567865837838625
1.0445458057712087 -2.0115296883762466 -0.018437420568067468
1.0564477403495354 -1.3877363283299196 -0.012022283541259799
1.0591443273443166 -0.7322587134607774 -0.0031635576913166988
1.0662865567677589 -0.056753727366381394 0.00941766194040847
0.8191336138912552 -0.06880120862407599 0.020179594887363213
0.8208463151572322 -0.7255199062167949 0.010498334962808914
0.815227562971076 -1.3795356634478775 0.004641644481428807
0.8110370465762583 -2.005464554374295 0.0019133933095883432
0.8088141128768234 -2.5905570342137265 0.0007730680243383711
0.8073174986692263 -3.1209922340474816 0.0005154800865099718
0.8063041502318478 -3.5826507195211708 0.000824407995812611
0.8059288946969924 -3.9615680750418414 0.0015294609104730573
0.8067697480279438 -4.243667624701197 0.0024723698713910495
0.8084725323285242 -4.414953783163563 0.00383894453942628
0.8073535338522784 -4.468029217000166 0.00548876125757915
0.8062878542364217 -4.41583144931956 0.004073264840795887
0.8081576994619051 -4.245449229297919 0.0029271185947486902
0.8093002692338422 -3.9643029729980515 0.0021692305887251653
0.8093946855096931 -3.5864027045617926 0.0015761686181745215
0.8090623794787775 -3.125820443025078 0.0012427207927839818
0.8085071614042998 -2.596471966821208 0.001238210417424015
0.8075330226454749 -2.0123577111893507 0.0017317639578183766
0.8047132582290084 -1.3869977816356556 0.0032929387937843226
0.7999406389666448 -0.7321672529572192 0.007523000893283707
0.8020775092747455 -0.07214502069965334 0.015485614923913146
1.079390508167149 -0.07667135443123593 0.02551689464584698
1.0769873951055209 -0.7258141440751866 0.019697367848048816
1.0651409426301344 -1.3775096000829863 0.01871273277366277
1.0478545610310495 -2.003749338344295 0.021105250776160597
1.0264496015872953 -2.588810687756259 0.024799265908187915
1.0003409648446513 -3.1189481956976968 0.028808057140189754
0.9694525324291892 -3.5802943133762004 0.03258034691098595
0.9339721489104125 -3.9590220306968265 0.03572031469987473
0.8952623742630463 -4.241257675914943 0.03779159588486026
0.8549686470575163 -4.41109802964835 0.038699507859513045
0.8074626045346942 -4.457612955832324 0.040179857294396146
0.7600103507357097 -4.41199171717882 0.03903982112368668
0.7198841097645184 -4.243073087423798 0.03846341801485442
0.6814729579626991 -3.9618117376993545 0.03669765128291526
0.6464477923033808 -3.5841263892459105 0.03380212238424516
0.6161972156681493 -3.1238864098732804 0.030148569430734268
0.5909263495673588 -2.594872602408905 0.0260244464893653
0.5705234809048032 -2.010802091414226 0.021822334864561616
0.5541693813262649 -1.3849878750902036 0.01836535924615508
0.5428066477301001 -0.7322861619968452 0.01774740446895372
0.5406351328817625 -0.08045299971286002 0.021848879954754662
1.3413882637017531 -0.07961606065700792 0.0312656573168861
1.3357397203907349 -0.7255101347352733 0.02837724894070339
1.3179046480775223 -1.3744681671876195 0.03222921680537141
1.2879759923658212 -1.999870815707296 0.039664133913571355
1.2473201556918023 -2.5840113890279834 0.04804585161381482
1.196326831947631 -3.1130953493223283 0.05613528186147719
1.1351653174037444 -3.573432315880628 0.06317961574973621
1.0643423262237313 -3.951090270771451 0.0685202193019079
0.9843369282891191 -4.233076720594573 0.07151114915643796
0.9013962435690488 -4.402038619795099 0.07049330398520581
0.807590513084166 -4.435394469002352 0.06909665236454973
0.7138404081222524 -4.402949053755855 0.07094224218837118
0.631071752048842 -4.234927135716302 0.07240580511055132
0.5513688640182112 -3.953935863603824 0.06984503381914911
0.4809966437662548 -3.577343788198902 0.06488694886500723
0.42044376906043307 -3.1181380535395107 0.058112311689231345
0.3701925519124071 -2.5901998773803108 0.05006490234887577
0.33030274987530206 -2.00703888101358 0.041319643089270816
0.3009398754314626 -1.3819551902976663 0.032908130442745924
0.28330462776056603 -0.7318955527267312 0.027444866587561734
0.27771454907724125 -0.08360832806240849 0.02858971778275475
1.6072831939298817 -0.08021658116359094 0.037228483745765255
1.6008825585379913 -0.7244897023447718 0.03655502504627141
1.5782242096816914 -1.3704696616859582 0.04472963527430844
1.5351852804417323 -1.9937744561386355 0.05676046769240721
1.474797873147375 -2.576064628370643 0.06935798829324805
1.3983935795954618 -3.1033262284695473 0.0810476642284166
1.3062367614868737 -3.5618278739892437 0.09086144613049374
1.1989043929802936 -3.9379310601956155 0.09788462823167453
1.0774017993722773 -4.21759343778109 0.10125221476267579
0.9421934733131432 -4.389471250107738 0.09766415546001568
0.807756291731518 -4.3999999999999995 0.08299557942693288
0.6733793251790644 -4.3903998278195715 0.09822510890148511
0.5383559061646314 -4.219481371071093 0.10237704202030672
0.41717375892958153 -3.940835423713116 0.09956932035698053
0.3103081114783105 -3.5658204525229125 0.09307345217582809
0.21875858172860085 -3.10846960593839 0.08368911158401612
0.14303807087034937 -2.5823586363050346 0.07220875725012048
0.08321842221095717 -2.001013275394906 0.0593971031427331
0.040344411902480205 -1.3779417853401035 0.04646331989531344
0.017451320916917354 -0.7308202223581939 0.036607727798304526
0.010884627846461416 -0.08425345754285868 0.03542810250145571
SCALARS Stress float 6
LOOKUP_TABLE default
-4378.619041860984 -24288.258716131295 -8600.063327397684 -4443.791816536964 1832.026811509216 -2308.570727076319
9676.874844823637 6224.931641680702 4006.015686889653 -1974.0190206573625 1906.9228104992915 -78.5079633921019
9572.301874226147 277.7831153006813 938.6381625986335 -930.6060687508373 1862.9311812197404 -647.5901435922499
13845.923853190998 1287.3706681853275 1705.125926747801 -959.6610026192709 1657.6020871075652 -702.6599203164815
18694.07185817127 1436.3430859874823 2289.6143324655145 -904.4542655712571 1481.295953136955 -965.0555637699447
23755.300883823737 1888.0961275274835 3063.2768178652973 -820.6295063426825 1163.4727970829324 -1190.0357507496574
28683.82304840686 2286.3347803070446 3833.276665735628 -685.4804228641889 725.6714357291849 -1421.2130012530804
33334.93654092876 2658.3092765273673 4615.624038763736 -499.6768729162477 176.87321616352594 -1648.3742945267898
37251.374926537115 2955.8878960305806 5332.759669740323 -260.06799986386926 -358.0870554707616 -1882.5468843570006
39805.89709044623 3252.943807702373 5886.5226693408395 -48.322047388048986 -509.81775674992537 -2134.1566046448256
40742.671232471526 3587.373355544185 6184.811278881942 -5.918603712747114 12.255104227345667 -2305.7753654063263
39834.82383028091 3253.2858189529666 5888.664142944206 36.17754105813754 534.1127111288257 -2134.751943701241
37314.95184595428 2956.836443805391 5337.7925391670915 247.0019784520068 381.6709375605295 -1883.7269763457525
33445.33873362842 2660.427435681983 4625.044516961061 485.05339909493455 -154.7684505793703 -1650.1694089734447
28861.42752630699 2290.8685068330265 3849.6339541096195 668.7138543365239 -706.1812967733538 -1423.3805038536523
24029.149381793562 1895.6966409625131 3088.2926813028707 800.8941054067745 -1149.1000551485265 -1193.4424848738765
19107.311991153238 1451.775661929452 2328.8947226612013 881.8344098257619 -1472.102745825612 -965.3817893092051
14445.575733533333 1305.3259026727494 1741.470346147257 927.6371428571366 -1668.2060823438562 -720.6477446513181
10594.958810073229 384.62424210717916 1098.996021042616 891.8302096012243 -1833.7614702027658 -587.8601917981583
11893.88177985217 6616.41546066026 4242.723656770236 2048.1905991457793 -2452.0288762365813 -431.8787252290771
-183.09756675324616 -23163.382986646076 -5286.109731801719 2671.121189828172 -3211.7936737080267 -895.3958078204925
-4854.784851303842 -21067.16153266809 -6351.8184622256385 -2852.2846542502953 1513.6493156973809 -1327.0609605634722
4626.356918622017 3373.698800815241 1900.023240788961 -2363.365664053992 1267.4244400316386 -398.0446737469181
4773.067652381521 -322.49109502786894 31.166218585360795 -1966.3788433678621 1149.9574748881394 -697.7705526408143
8637.741111756659 59.985478360313834 593.1812581317347 -1991.593381832682 1016.7589848886868 -904.8519708425891
11685.557139119075 -72.53467979185744 815.2821466488878 -1946.7944857196628 882.3420313757827 -1200.474818867383
14911.179744918243 -68.54312646385125 1137.7657427576069 -1788.160191725832 695.2990505594494 -1495.2644475034263
18053.646869256085 -68.4679553221372 1482.104882394858 -1553.6839231884096 435.06366265997696 -1791.7459386561256
21010.33881094718 -95.27783758097365 1839.5567355695666 -1211.6687560700602 113.8621480739383 -2097.7399834878956
23514.447471065487 -124.67556426857723 2185.434045347433 -715.7290007365873 -202.48643581705068 -2446.055746569137
25244.084203701244 114.2510053501137 2537.8529141466197 -188.37895432367048 -301.97686167917755 -2882.9996315761755
26056.48197375951 761.6616112512976 2886.104568433063 -10.552660914021015 2.9356182677558014 -3221.8965089843746
25275.441330292233 115.63034523880464 2542.232341303242 166.60159763842753 307.2635777969949 -2883.062103984346
23582.30968146799 -121.79938894051435 2194.705201322442 691.9017892192651 206.00044907534675 -2446.1008923418594
21125.410375103747 -90.66335804114274 1854.6950348530374 1184.301850875951 -113.32665858150064 -2097.5984413679894
18232.846371142947 -61.86656540055502 1504.1408558841326 1521.1173497810832 -438.85512231075563 -1791.0676387868596
15178.816470862837 -59.94984906449118 1167.7692281321465 1748.5411983729018 -704.3095908870971 -1493.7801813018389
12071.659556121374 -63.38824921852698 849.6958036257389 1898.189351034026 -898.8515457961208 -1196.6116068621257
9197.380549948697 80.07404934011345 642.0038631224538 1925.9777030941132 -1033.587047026471 -904.0641938753583
5557.302760798669 -306.0679997081733 50.63134210944988 1865.1061721494982 -1197.5342689189881 -670.6011775849863
5398.285725435555 3539.6200855335833 1979.4470741213672 2229.148755112523 -1449.3712349997286 -570.9351225846857
-4500.616715083081 -21756.185034203103 -6106.842938384452 1784.8761234010192 -1792.226744332523 -539.0063731001433
-3868.7036115840533 -14682.25253143779 -4007.3642153579303 -3348.7596546442537 921.6997367640562 -439.52156745148056
1587.5794916429138 1029.6591453994388 859.8290561713968 -3838.8814946541524 721.3264008961298 -618.6128812528733
1676.555847966472 472.39128330085555 81.66651887758499 -3348.4040773920506 568.4286243641557 -796.6533983560895
3701.7529769261014 -78.42326827580004 109.88729305315849 -3405.4610766182404 460.9740897315246 -1154.056641381484
5551.722269946417 -52.50421157393081 313.7229317926113 -3289.801725447877 377.01132490750615 -1523.0670568775292
7200.532755303951 -66.68777761597751 463.9878249990698 -3036.6448278732482 285.312376765628 -1910.6965846150915
8842.110388968627 -56.2815212577415 645.0434932785811 -2660.2125660794377 162.268780234411 -2301.863349352137
10420.079198287558 -87.76873232226157 837.2610399595047 -2113.1576649023646 -1.5780538178928967 -2714.4775485720597
11764.894238353078 -135.17189497653416 1013.1341666207873 -1269.0814614410708 -209.85268370169152 -3200.344960819558
12679.304953458004 399.6454758379945 1290.5461192000027 -273.9059198023969 -320.76512798350933 -3863.7131154013477
13519.402666317008 2132.8014115230617 1960.4385747295996 -16.863275636027133 -4.511868543986745 -4488.298462968607
12711.678392974469 401.26485082106615 1296.6442918551047 239.06055363174346 310.8505069893735 -3863.3649913982476
11834.220857832057 -131.8245232998438 1025.7671311789518 1230.813615958631 197.31000427863177 -3199.5444461927855
10535.54748906308 -82.48796648045722 857.135729223309 2068.9437211239015 -15.178564309128296 -2712.9731959939486
9017.67800934752 -48.80741446637485 672.867130628725 2607.1327089633555 -184.40820684136196 -2299.2479607449864
7454.510698071387 -57.7188377106699 499.2395361491114 2971.2601314778717 -313.28176991964347 -1906.0598116926624
5906.444270098751 -42.963257478633146 354.2777863781367 3207.8215087177696 -409.38340593497537 -1516.271091937875
4177.226611038001 -70.23325738809221 146.45119185276192 3295.938584802018 -494.341623658948 -1140.5265051425997
2152.241999694262 478.65090480017324 59.79747002615206 3189.2498968697114 -614.7118357638394 -799.6442164466913
2035.490776127251 1363.8439107084769 948.9360620195755 3626.722925300048 -789.877452301502 -628.1119928101267
-3850.254694564721 -15233.076261437565 -4094.0418933037304 3165.3362055385487 -1011.3889224637517 -420.07210952366086
-2830.39781813257 -8872.21556815216 -2119.444976504465 -3096.7591626335848 415.787814136001 -154.99468416044462
-495.17771986227547 -205.92283519811613 330.80812665730116 -4059.7238872457892 235.5747509639627 -537.2289570712802
-1146.1880589896914 601.2267091045544 36.90487351791197 -4076.0132680386046 37.158209411121334 -823.6976461954638
-903.8466388194549 45.62148036346181 -143.23902142973282 -3891.245326922432 -61.764431468823716 -1213.5312443818832
-547.0441802823384 -39.34421569260515 -93.43279110793841 -3731.2740562544664 -91.0239495950737 -1616.6130509504342
-361.90471311796375 -16.00481437504403 -49.45211796468574 -3442.0856677062566 -99.00314571217007 -2027.5582029384047
-188.52581251215918 6.0209418627586935 -3.2566931248943867 -3021.8034029695295 -106.24255964865688 -2447.5984820935446
84.59147623429028 1.2118739637855906 69.1243516425537 -2430.9418433169344 -133.87160674085942 -2885.1198812554303
333.4102698985557 -129.486502306225 84.65514521735736 -1464.2328381871314 -259.16315888986344 -3386.935280357386
341.50369970588474 636.8152648712645 236.17320798212162 -90.71051637945956 -421.29716459109886 -4107.057597108587
1539.0927316600223 4517.090070935024 1606.2545310875519 -18.93358687635885 -11.204718145298113 -5035.053779421592
374.46145947291075 638.7231349069284 243.95190749696943 51.55289418287026 397.71022494511453 -4106.582396418398
403.28051592193685 -125.60251010387765 100.5913522397442 1421.1280697061732 232.14179480420052 -3385.8661684670524
198.96789777087218 7.19230866861575 93.76763186757422 2380.9859842432884 101.52021360101696 -2883.1862472668113
-19.11145002499346 14.105659218997078 30.321214209993173 2961.585908407935 67.49138502810295 -2444.2709135940795
-125.49973292205244 -6.8105172334460455 -8.10187792772212 3367.332164379353 54.44836611176727 -2022.0245085020028
-232.68758723291893 -31.880803522897768 -48.582290289187156 3636.091868114296 44.19862581943048 -1607.4552984824788
-540.1385448964995 40.99458980611969 -116.95496280092196 3766.814974108254 18.185974279001215 -1200.8364880769134
-826.0252761217338 662.2969043862505 35.36899892907017 3919.0068134554804 -73.15891026748352 -816.7184278192573
-237.79447926462103 31.772562800359708 373.6468794657671 3967.2550627006995 -265.7857952984102 -552.2772907125026
-2883.6311198819103 -9298.175971071207 -2256.5371328800343 3067.187789629252 -453.34020155534364 -242.932412105859
-2222.4440457117967 -4440.914544564091 -782.5840366316082 -2353.553483006862 -6.104010567120235 -122.38369211354457
-2088.1897265271996 -591.020101422009 107.46292376460438 -3414.024812481443 -220.70474485942188 -416.84441068676773
-3849.6261069789402 481.99890341350607 -71.88862008875864 -3750.534441276743 -500.6970612321107 -761.5051622199885
-5355.381779666162 111.36442771410098 -375.6638252958431 -3495.5044289367484 -593.9235886642648 -1143.2690503700699
-6620.169574866902 11.628813134841675 -481.7715536998499 -3292.88573064403 -565.50477717429 -1526.618575543193
-7931.28204154885 35.45843033122817 -565.3065272271723 -3034.6796723057446 -485.3924519124732 -1911.0291547071065
-9235.00980993742 47.47109968105507 -663.1935262952948 -2664.7045692354386 -382.01010623022984 -2306.008942958825
-10283.635117386168 136.3182128650485 -692.3027710323396 -2138.3458151019413 -259.1370019013417 -2702.6675057565044
-11042.968223864294 -89.64601665265933 -809.565402478909 -1359.166065979735 -230.66390340938273 -3126.0009147429855
-12232.814737621004 228.32111687850238 -1095.3840020831844 349.38603462479347 -471.4912434650011 -3712.062132830672
-10002.039437755877 8174.361770355871 1648.3687349873844 -17.042169962257397 -18.046004635349536 -4922.422041652539
-12199.113365776904 230.56259121390372 -1085.867096715473 -384.6504684893987 433.9038006000558 -3711.746264950314
-10972.246056964426 -85.13933993889275 -790.1992864538025 1320.2992493651325 188.74710627380986 -3125.270623001014
-10169.932441882129 143.07944696196034 -662.7099527149588 2093.2513458135295 210.62111987639784 -2701.2889318674124
-9071.472186118623 56.200006067479904 -623.6486743694298 2610.3161350508144 325.9040345456136 -2303.5355327083657
-7712.966381946595 44.989300012822014 -517.8578143362096 2966.911984243322 423.2849224125539 -1906.6804318054174
-6353.716956653983 16.2217938666519 -434.48978721013316 3206.079843280485 503.2692652220719 -1519.3536457813834
-5082.574762864989 112.0574745128719 -346.26051382526026 3384.549265930615 542.5570239081793 -1133.4177780565522
-3636.1906170638426 540.6330597878413 -62.70791601284741 3642.997064871465 471.9712035025998 -754.8779946093804
-1946.9192805095659 -458.84281221675803 121.04298833849808 3388.554990366453 208.98934623175225 -435.3255857055367
-2266.204962726427 -4696.509994968833 -883.4021398672523 2370.3786762638783 -6.609628145850511 -204.62417726200417
-2069.649413629945 -1777.1449593235284 13.352954201403861 -1303.0962758359512 -376.854126445672 -179.34300735008347
-3349.144221604619 -552.4020072112446 62.958673478062714 -1966.9780223428186 -687.3209010926374 -299.2407482964546
-6505.168134379571 277.3053108387315 -250.41362624085787 -2253.1909116230786 -1096.095043994878 -598.3229196488052
-9796.54507026058 118.58181917696722 -689.8718780577432 -2095.253247625907 -1183.8886962140925 -902.8219233808733
-12782.136092985262 40.21036964140477 -988.6213985810779 -1950.455342881737 -1086.5648799630064 -1199.4730353161851
-15654.083338973709 43.21312632430505 -1244.0189737509882 -1788.1810201495505 -904.652082941228 -1494.972622027063
-18425.572771769846 67.84963235718551 -1493.468390991604 -1558.362152663344 -667.284445841343 -1793.8260800431003
-21090.746819088825 40.027829611312654 -1784.1585380619388 -1248.6198748047482 -395.13331210583556 -2097.171995595991
-22609.48298926152 440.19402221024603 -1738.7361130471588 -724.4962637129203 -4.115390923141203 -2350.366084058269
-25524.354525562667 -1540.0168225149364 -3201.885290726923 368.278038771684 -184.09992697903115 -2685.6560421903723
-21127.571223990206 13050.078717803444 1777.3363447475185 -10.782413725078225 -25.952868050451123 -3569.1950077207557
-25489.11358690595 -1537.4392340189406 -3190.4722517229425 -390.5836389915393 130.29416578703092 -2685.755803909283
-22536.298992204356 445.34401659046284 -1715.6387917968473 699.9388904967388 -55.17337366158854 -2350.513523965858
-20975.263174020503 47.63142557303138 -1749.2170286774594 1220.206460023382 327.5553177351792 -2097.236180887252
-18264.45021651884 77.4389191216426 -1447.532841806856 1524.2609834300097 590.3580942217676 -1793.5327572900876
-15451.078667599118 52.881608377138164 -1190.9808697662718 1746.0414001913812 820.8258167215105 -1493.8164619864153
-12559.795405164583 45.92534672123643 -938.7194918268183 1896.8865552339068 1004.6919424693459 -1196.8269175770665
-9603.458534522153 125.12554877986764 -658.1646875933003 2030.3782981208506 1121.7401735775006 -898.7605326552264
-6385.532416984392 318.181308380213 -240.5065855142838 2200.877709962138 1072.4037696965297 -596.5855659175171
-3296.744916125097 -491.474130767619 59.29093502679069 1966.4726162808395 691.9149109713888 -312.35278801279856
-2103.8541656060515 -1887.869000433899 -43.08850612502838 1320.274680629922 385.92118618589274 -232.6644016789652
-1807.8323562405617 -767.4016899304615 560.0532829533577 -642.5127937403836 -754.4553396464726 -216.45337140702344
-4059.2266612299454 -497.2973197030312 175.17098597476442 -921.370144171321 -1220.5116538868153 -250.27247921663835
-9296.388555374844 -391.8321388511947 -733.7305777620879 -1035.884165759913 -1811.0200706443104 -496.88470340528363
-14933.971786256618 -1015.5596397029909 -1752.3751625500736 -995.9991566609077 -1890.780504478866 -739.500983519012
-19858.287697800984 -1508.3416836657616 -2507.9048031254815 -926.1570914795047 -1704.319041160998 -969.5501206786587
-24513.29348927625 -1913.339808781774 -3178.951370378502 -830.9190686587339 -1391.3920123256357 -1197.1793269852667
-29031.60769893032 -2263.3726261415404 -3831.7500300145784 -706.0437129577599 -982.3011212023447 -1428.0577358694013
-33413.428861173095 -2784.1449927577873 -4578.059340801169 -517.5337426768874 -496.55515509268105 -1639.2098757772756
-37319.223175287785 -2595.725569812295 -5114.903347513995 -253.25919823128345 201.08689762782217 -1889.2480416461244
-40776.04862101912 -6163.928116824104 -7190.09411652179 703.8535254992153 1460.120710554888 -1696.6753565782888
-32981.09860307292 13037.181048592895 -785.9272403904632 -6.967143595559293 -36.08726742044608 -3499.030589129458
-40737.1789448882 -6159.905861584279 -7175.969909188276 -718.2466362884284 -1534.7592824123487 -1696.8789616073118
-37239.44796443351 -2587.8497252960415 -5086.567921505778 237.500552211229 -282.8349003568222 -1889.597200974117
-33290.0656044049 -2772.94258043538 -4535.854273740013 499.532209233524 404.0656536993602 -1639.5725840418943
-28865.03222765746 -2250.292180873441 -3777.765001690679 685.0102863221057 877.7000935863238 -1428.194785089481
-24316.38691466924 -1902.5488978655808 -3120.237510933523 806.2718719445256 1277.8945821601706 -1196.736101306675
-19673.57024554881 -1508.033530935199 -2461.370536988408 897.6305004365445 1594.1609801690627 -968.2860812114284
-14834.960224824832 -1029.0267348387888 -1741.9047866358342 965.6684358106328 1810.3191661699097 -737.9232325302296
-9316.174386292298 -396.792034138899 -762.9856349183455 1014.0644107166287 1791.3562065182437 -497.90175790401287
-4124.301783519839 -492.68956410460606 135.82788695363072 922.6812035567533 1249.774830167547 -259.2811651715715
-1887.5784034199132 -834.7709242498034 512.5638860035681 647.7224330234699 795.6564929285043 -252.0264745615304
-661.4499832778573 -14705.892930377642 -4610.202874096649 -2285.740434585395 1219.425642389301 431.36283631972765
8669.150149572219 4168.738717739813 3036.956092519355 -1021.8185320481956 1315.7792065852627 -135.2026497749734
10068.69751348494 504.45960292601563 1327.3931208698082 -365.16006388035964 1234.1624497952903 33.779815468221365
14256.351445304192 1236.3156400259604 2023.719952292829 -396.9173851577251 1096.6663295685134 -23.1044486700265
18846.65604266229 1452.3869250945893 2705.3100181729524 -394.199719161804 837.0158010473771 -2.371082200185266
23586.061045304094 1855.0226883222524 3557.4018363631426 -404.2725203579736 500.64287800738373 1.61295783796795
28244.21576826679 2234.670386440965 4473.071848502341 -413.62901092347477 77.84141452792403 7.569043344936389
32835.21778978635 2642.387436259121 5515.546865813302 -435.64795456404704 -389.158168307039 0.5997906816390115
37352.92044668608 3046.712220968658 6725.377903730796 -457.74693692046355 -752.5224142313392 -49.11904048149672
41263.830135013915 3224.5773243485246 7892.358689480749 -368.5750266287435 -687.6006977001614 -188.68069603940435
42852.60922311137 2994.4420589963324 8331.027963987139 1.2406909603469671 6.5096709741286 -334.8441475823757
41272.44390323592 3224.0978596644786 7889.9344234530645 371.0370551598235 699.8878385121516 -189.53959715304424
37371.36220635445 3045.769812822372 6719.892062919782 460.11804079654627 762.5036520972305 -50.80647502223145
32866.45440258508 2641.0709669549246 5505.66041473891 437.7396503704562 394.8830194856111 -1.7525173842210293
28294.441815261896 2233.3687661552553 4456.775819923035 415.0921888453869 -79.38177169629253 4.770550801678707
23666.77919301626 1854.3052773153456 3531.4177571241435 404.35271002141997 -514.0179379334221 -0.14782519091574997
18981.113353001936 1454.690012966521 2667.0324899514253 392.6459642223951 -872.4468696475311 -4.84545152339514
14477.189386896192 1241.4657424578113 1961.721300207017 389.31073022078687 -1157.7107338541346 -8.960967562528413
10504.346122922536 538.655573912878 1284.5757926998976 351.0454394824249 -1393.600265768206 -6.670309569080569
9694.021632316213 4299.600419667519 3047.45492785336 1013.2504393299198 -1177.4848851384602 159.49230997761555
1353.2708581061438 -13929.096923481971 -3281.36439468187 1350.5937548707805 -994.7551723160988 -794.6974382371901
-2176.206804239001 -13427.949376367173 -4069.131267267119 -1466.8213229239545 205.3682480009217 -40.421143758488995
4560.920611987055 2222.316740914611 1604.8246786492869 -1274.321315491536 442.4596355283256 -122.87509246949168
5741.915848251363 -120.34802276687007 516.4416273940394 -1003.3053408516366 752.7350946601922 8.06743084922758
9221.641575017762 139.50673034475335 1023.2182737355356 -1041.7681779670954 631.2254733924116 -10.865645734733445
12143.118110273128 71.90330571287406 1341.4922124272239 -1072.8407599339387 470.37542881843797 1.707997970321213
15186.10279116645 89.44744766560136 1772.0609707521137 -1078.7460539992655 256.335495265787 2.0938141742602476
18181.44330499363 113.51777717850294 2263.9424000470135 -1088.0300315124655 0.5044479317611379 -10.295243047224153
21108.725847367263 164.47772614042808 2841.4266362066396 -1117.0717307796776 -274.30748511774425 -59.113079622123074
23907.91488627055 179.85354682802955 3497.580040318115 -1158.1506583888647 -487.0895202889496 -200.6765297251382
26147.954641734996 -203.99417401583494 4002.4665866787777 -950.2646237151004 -448.91028344374865 -509.5481907717875
26817.32007611687 -1084.4658761429844 3954.1321951643827 1.796007305726624 -2.5079755719446606 -817.1663561476531
26157.700200367835 -203.60974224817815 4003.5656171674063 953.8014481402219 442.752935269608 -509.7330868862572
23928.462606865043 180.6101737571989 3499.1344529194125 1161.4506202889145 477.4670439468881 -200.84166249020137
21142.571987328072 165.6096857906631 2842.028729320235 1119.716827743214 258.7059204575076 -58.73135338720939
18233.41440574606 115.06005115362771 2261.098235648656 1089.1700408460904 -24.965802476852183 -8.31044407980984
15265.64696190096 91.61442528800309 1762.1372160059182 1076.8731044374597 -293.7940837048721 7.864518423588882
12266.252507981215 74.35355776356262 1317.7665408737366 1065.923091627463 -525.366425774078 13.762706574011725
9429.281719233382 149.54158276318242 985.808924393453 1024.3825150186308 -716.6484214429636 16.433959721304984
6099.026075423067 -114.77313907951819 449.55737525571726 958.8868578689454 -860.2817024457984 32.61315713860106
4927.627782245978 2263.7769809303772 1531.9061773832984 1168.3603263253065 -470.98920301492785 89.45743300940804
-1861.184265224366 -13405.16609344047 -3955.2159518347735 870.6766902323086 -140.85153898109274 -838.3198834612746
-2021.278188306111 -9751.458090042395 -2664.9436099701925 -1935.9575162125504 -32.56418949723325 -808.5071632463872
1990.475799413376 747.4417654233251 867.8774964741438 -2213.063775758323 101.14105123872265 -121.51057337832765
2611.0999450310906 390.09849496405894 412.0079649506504 -1830.1422019897382 303.74700710903574 -37.049643509794784
4434.2534973354705 37.578636216556255 480.045389137376 -1882.0917523584496 257.9850594579907 0.5139959598619979
6072.940282829805 68.39185500018753 683.3187064443622 -1902.4894937708364 163.50677077998165 -0.40157539938636777
7577.527031669905 70.92184136831393 881.2490295385197 -1909.9293593146742 55.16905765690344 -12.281218650516147
9062.80561929769 88.29037342520462 1122.725502125311 -1914.5041085605224 -70.04507860793947 -54.04787409069635
10475.41751695046 154.48029833564982 1412.7556228115698 -1935.3053384148122 -212.24144413115118 -158.60174693645683
11862.354494207031 239.3418069076069 1767.426954627343 -2002.559730995435 -368.0368668222687 -404.1812032841699
13074.590146170443 -402.8082287509074 1928.7831713206924 -1732.0730982120645 -409.0219833603419 -914.8381055678789
12985.332832252358 -2493.167791726332 1308.8147152852646 2.6344111109987756 -10.50665557999102 -1505.4372828898138
13085.043387591924 -402.2699253134364 1933.1520555852271 1737.2403092004176 386.54304897838915 -914.4100943213459
11884.041487534325 240.3923670443338 1775.5599690731215 2007.3028202735602 341.1948870900045 -402.9509564907665
10510.067946603749 156.00309060898223 1423.2412537895325 1938.908878935858 178.26217067134544 -155.65919306603612
9113.737978203895 90.31385045215457 1133.0319809853277 1915.494607199029 26.35268426741243 -47.5113130939371
7650.888414368783 73.24637493932222 887.0045188594759 1905.7044824915029 -110.83230139286685 1.1107598957077518
6181.405724687634 71.5496408855973 678.5289891758848 1888.896912843129 -233.4726949379344 26.12039518795478
4605.40984773153 42.55939043027652 457.2313727584352 1851.1499342950397 -344.8472310138284 44.58072602120546
2811.8694302196195 381.4886491669495 338.9185602031759 1757.7588731012988 -391.6417419900206 51.514551543311185
2188.231096165714 900.3810941732738 820.5547747522405 2066.785387390177 -119.09156302675741 -38.41344769123396
-1932.622040489453 -9739.838172393811 -2720.747288228156 1768.244598186379 72.77650773615336 -1132.9921610767794
-1677.7776367371468 -6170.58245229983 -1346.9152137333683 -1830.4856653876382 -105.13628743746625 -886.4466934322417
76.31121622213041 -127.62939457682364 472.6417587576796 -2431.35632512577 -100.4019332913988 -217.96034314850556
-282.36324791617557 433.0866202423193 243.50130684358746 -2311.816868739203 -62.8144056176982 -54.99342635726972
-171.06468300691344 48.37262384966236 50.867333737153366 -2183.6979852828563 -87.81008967551 -13.60416962463397
-45.98502579997687 -12.841763607858717 30.42373907419018 -2183.3875659555315 -117.95126312537197 -11.65758832819683
-33.370929981296975 -1.7676359314597834 26.81825625645882 -2188.2382225102 -133.85995428362074 -34.55530322526098
-53.54962464588356 -12.097737270504798 23.591049490451034 -2193.373374593028 -144.8281256067658 -89.98284399258415
-148.68804207680716 32.767348931060894 27.102720571777855 -2178.2592746805494 -172.98121877065014 -208.63772237973492
-126.72444808258933 247.81781881390293 120.45185526284764 -2247.956236712679 -293.12364477774827 -463.3617099764972
291.2450619097245 -580.7910622996719 30.295435043013804 -2200.2309437670015 -453.09764040026295 -1019.9332891016004
-822.9228078130825 -4950.1286076189435 -1552.6140265537008 2.8645886937949054 -18.099397064949397 -1932.8682435538215
302.3530912603642 -580.0733374226666 37.98739227541081 2205.8459646204033 415.13586822059494 -1019.3274802638317
-104.07021363987872 249.2230505795516 135.28965235213312 2253.094836679201 250.0000333338587 -461.7214908167697
-113.62364567757562 34.82111691907966 47.75130361052048 2182.1159894900006 121.73895723779573 -204.9127407800419
-4.631934134715237 -9.432732365373997 47.44257999212017 2194.2726430847492 83.44995537569955 -82.08381833932566
32.168809211067085 1.378635143552775 49.30975152961929 2183.056446097941 61.934614136419654 -18.50236456940207
43.78342663057421 -9.211978671731142 44.78690479395141 2166.8310882662367 37.21087024841396 19.022050411223262
-55.32205541850364 47.22156482121942 41.842369409934 2146.556268656134 3.44485866535066 41.92722827813042
-169.3811240714656 452.6963537123124 197.25276452189627 2237.312659113816 -2.9969031018586367 34.66447590390442
180.78824583756554 5.409413245662368 429.186739624952 2353.2631751046715 94.89866123476882 -163.88157706269564
-1675.5849348738302 -6218.348193802413 -1457.7588627439989 1776.1862641564198 137.61389214510717 -1080.4143554038749
-1518.1944489061068 -3277.9091970673935 -301.8511980274422 -1385.9337863108292 -177.36051536563545 -766.6713879953314
-1472.522573097679 -457.4301886438065 313.64624447185514 -2059.6964457306253 -286.35971969622875 -222.2637347145303
-3054.0781412763727 287.66980323715416 40.05504465703527 -2129.2165617933597 -404.6915400174893 -57.101529863356205
-4658.440046155385 23.262835688393057 -359.9043330499289 -1935.6024782193206 -432.47565585906415 -6.996528543118524
-6148.26102478685 -67.91516387352253 -611.3368016708891 -1895.5455504627896 -402.5349042847636 2.5256337128611546
-7663.720127687358 -83.10249946383793 -837.1087830879727 -1905.485819411092 -325.3948464372139 -12.582434744031211
-9146.831470827014 -86.41501510490431 -1061.1870093301918 -1910.0383494407595 -224.20349638591117 -58.749991784994556
-10717.501043439426 -148.00462577731238 -1358.2731709217871 -1892.973540372095 -124.97728528457444 -143.3922250400306
-12163.16949464922 183.2073444746781 -1562.694257362535 -1861.2158893250676 -156.07515346152354 -324.06845392936
-12297.595195385375 -101.25850629720014 -1651.736732396983 -2353.076841337116 -482.2292874142845 -745.4731383730461
-15150.032234470551 -8577.82110957212 -4989.616049303557 2.6974026215560576 -25.854333085165003 -2021.6086704935565
-12285.80824827358 -100.3749462719709 -1640.6796456683353 2358.3863619685053 428.43422330640396 -745.1357128339597
-12139.50092011868 184.9509613636907 -1541.0478451707538 1866.1512642215075 96.2384911609339 -323.02000650300533
-10681.964977490783 -145.44228925222478 -1327.2765079868602 1896.8552208925955 55.91043137382545 -140.72100109081907
-9099.913161353741 -83.09780084434344 -1023.4768316538397 1911.403154883302 144.37870622638854 -52.61075081669142
-7606.129935802103 -79.03787500538763 -797.4681566738369 1901.4368351055948 236.35507469188548 0.540615484530313
-6081.279803130363 -64.53645973636225 -578.5196456705614 1880.8776449957463 310.4835909676822 29.062993054173536
-4590.034218294161 25.808164416024567 -348.58555348046303 1901.7827241574992 350.4224175056024 42.62759259366656
-3000.143184354992 313.7135359264584 19.88854698892816 2076.911775890179 355.81015833845714 15.584182087036483
-1427.6830454981791 -375.1042388976301 275.2224629997772 2026.1568393308069 288.1588037570237 -185.0554538587527
-1540.9439724649405 -3330.4035836313096 -408.37010344337193 1373.4103410000628 204.12650459889707 -895.3068069985691
-1624.719230566934 -1453.5223738341742 395.54903045574923 -724.7747939996686 -317.8492314710621 -497.67292656259946
-2777.418430046509 -472.63503227815437 302.6872834288262 -1151.5393292442698 -529.8321754231318 -151.26668276778622
-5765.610794803437 123.53372542828647 -181.2533203736881 -1228.2988298841876 -782.4173884637358 -52.139453159484944
-9095.636087801542 12.667654377222249 -788.3006107359399 -1101.2282200030904 -812.007496093268 -8.246737650623327
-12242.99105631262 -68.06670772932627 -1280.7513741310345 -1065.2612804707223 -716.4956322690902 3.810781734946484
-15287.834692842442 -95.5333116564515 -1734.8555381563904 -1073.77228243821 -536.2260910268759 2.1438255581162005
-18282.6487171569 -117.99131243762193 -2210.2829813266767 -1083.7478955855324 -302.8513334869853 -13.492087652102178
-21073.07963047041 -68.78300541713088 -2673.5454060191514 -1063.6287839615277 -65.09679161915317 -54.62727967068375
-24348.25476194392 -394.9670026712307 -3516.5610212942624 -1097.1967100508205 145.79975372088137 -85.67978683470504
-24753.857517660002 1770.2214267379143 -3024.9960243897135 -1486.1770624614 -304.31064844818036 -278.60331458680105
-30699.477923635066 -13223.04269526336 -9404.239246168807 1.8706972034694767 -34.34225437884468 -1488.1597374159146
-24741.29611612777 1771.2312772462396 -3010.5446536772397 1489.885107480555 233.13213775729406 -278.93176847526803
-24323.332366968913 -392.9648146593132 -3488.0395236119944 1100.7335298230576 -224.16136935673674 -86.13282597952266
-21036.576147807107 -65.83683393644388 -2632.0853674935165 1066.621246934843 -24.08290010200496 -54.691659790851894
-18236.67204119401 -114.16854586545196 -2158.5179694907188 1085.3394953655095 201.54365364411814 -12.10580602176966
-15237.044528614138 -91.15627132529809 -1678.201780153219 1072.2235475891287 425.9758706104506 7.117620701159166
-12196.60931250028 -64.05220303649587 -1229.25247946214 1057.13695557999 608.0736426218621 16.63388209781265
-9067.050570078141 18.510729655784786 -756.3883474791686 1082.1110814274493 726.2985479213467 18.77760273249424
-5759.713993809715 145.10188934270437 -179.76738427185592 1202.5474532417195 745.3449187865359 -12.462829018445776
-2778.35210565733 -433.4765199984603 273.0457323081778 1140.159481678117 541.5948588181466 -131.85788675703932
-1656.8031521915136 -1486.5171814769342 312.9317103192512 722.1493520489673 348.1756368322064 -571.2908233395943
-1744.1065950174172 -797.0088723465198 838.1321921647459 -277.6015476168502 -607.6715642205162 -322.53937256519237
-3827.3769045759354 -561.5430582944189 345.96491557513474 -450.63286496412644 -912.6396972923667 -105.16071911480688
-8704.24580253109 -539.2936770649133 -670.8920315702452 -442.55711107338357 -1270.0959317583279 -56.59612921797563
-14077.544510101712 -1035.1838328237961 -1773.915187242297 -401.2874776566133 -1280.5800560353066 -23.445202882739334
-18991.77114357455 -1476.515510739672 -2680.1202723088586 -392.3499893154988 -1101.0245385938524 -11.665487600466957
-23704.710474086092 -1856.6344197076035 -3531.0251531634995 -401.4823699665923 -792.6839128811315 -3.7829531254960678
-28368.435051537686 -2264.824000832824 -4436.421493933135 -406.5966115582195 -398.80523132971274 2.1526653476520323
-32756.528012788218 -2473.6214450725697 -5305.839585806116 -425.03105121501153 36.8194588077727 1.0833184587929523
-36688.82036748978 -3308.25733369846 -6401.352061866288 -437.57482796349746 485.30321632562845 7.919415989961838
-39251.84513425203 -160.27920798078776 -6341.902551604323 -1060.7140287556401 723.9957389786763 171.53297685270167
-50712.15531262454 -20769.062642725403 -16867.16396203108 0.8980218347012965 -44.18431209312401 -1582.3691865332746
-39238.057489781626 -158.36533620740266 -6323.716922394336 1062.5123721362743 -815.4134409765036 170.91687083995845
-36661.6406045519 -3304.4550190368273 -6365.281060704337 439.35200510420265 -585.5086244716888 6.793046392056702
-32717.24476314405 -2468.0202503245287 -5252.923826125595 426.66231527964726 -150.27307521079058 -0.2859887210359666
-28320.321434194142 -2257.684919244688 -4369.394912617429 407.7530536335031 270.4889294564556 1.0901224243968137
-23655.517046596455 -1848.9236382042116 -3456.1531893998927 401.46607184805663 653.5665609890747 -3.4158330060545303
-18958.17337670763 -1470.4781540426598 -2609.9229226979437 389.68556407431896 965.6280584053216 -7.602571612592463
-14083.878515314742 -1031.803195242473 -1727.231314338692 394.00225313275024 1178.678784062796 -12.235540133450979
-8754.755140730656 -531.1668812626652 -661.809871956523 431.92317810072353 1239.7621171849873 -39.520067483561924
-3880.403057391402 -548.9370079916816 320.67231010790096 445.30120073717615 950.9881447243877 -97.58120667266324
-1799.8769224740086 -821.7159034376506 775.3283501023141 273.25085091050795 670.7874762649283 -367.078430254171
3045.543430903876 -11166.822697483803 -2436.383779973977 -143.6334870532812 526.8816710056009 45.71999182650769
9689.555426655908 3977.9301113491165 3339.3240605468377 -988.2921470881247 718.3347870152818 -54.81696574889658
10038.819526118068 491.05675964366253 1705.640358802135 -391.04450261143666 676.0569878084675 52.950728767517276
13970.61265280388 1065.6450972971074 2414.0370638681097 -446.84360007086605 565.1323604231732 61.099635639671405
18391.539692346534 1276.4412991297345 3306.931115005293 -468.23828636354324 363.3990302628713 84.31601169313544
22927.170718909143 1632.205205896448 4425.746906702445 -491.6474500242258 110.75419902395788 108.32808789807021
27508.125720005562 1988.0808798174 5730.1274740377075 -523.2242566083191 -174.79676125928938 130.82074064153943
32397.296754993466 2424.639994781539 7339.451236956411 -583.3208458024491 -447.5875046029441 140.93911772919145
37931.49049497669 2912.6466635578604 9338.331341246761 -654.8862033570343 -600.0682546914004 118.73136150673994
43387.03576824762 3072.1413233644785 11313.701558698938 -550.1329974081341 -465.7579341431078 51.421286419607895
45736.513800665285 2656.6343422032774 12062.137959848744 1.2728263247325486 0.6015815032822641 -5.646517576303944
43373.66757437634 3070.6446936975217 11307.513102742681 552.7563608394609 466.26919056063343 50.691233341104926
37902.41554782834 2909.491036826395 9323.956310618994 657.750058846528 598.4275025207068 117.2799765539808
32347.412121627465 2419.471746544701 7312.4979985540485 586.6266964941631 441.9992861916236 138.84005143960616
27428.458272946642 1980.1978679176937 5682.918521423124 527.193119593596 162.46179226241114 128.29123786827168
22803.78069689359 1620.902368465422 4346.659963565979 496.7282174256493 -134.88706393443346 106.14384643130194
18201.130120613103 1259.5937352011272 3177.3853839995068 474.15932878619185 -408.95558366860513 83.0404859215723
13683.189144858055 1042.98305987313 2213.3646420345635 457.6935146437265 -643.0625631958887 66.35957336061662
9514.817266582615 431.7267016930301 1351.1582124252736 406.53237425961595 -796.3122757994713 48.644807885982964
8368.732375048912 3715.79004785454 2657.3890160318715 965.8001669273242 -724.8657877790405 39.15342738828153
806.6992050712953 -11790.35652459413 -4144.747022718277 1240.4654263154412 -640.750783461893 -382.68145845971384
-1472.7742992074545 -11418.160686447174 -3979.434833140275 -245.00526325052084 278.9521077218113 -136.54786885750883
4789.323521166385 2078.1425026035363 1711.3682289549192 -1121.607648899029 338.1585117187795 -114.8712179548112
6016.487312416857 -149.63150121154027 852.7264409535125 -1011.3923380455901 423.30539140270156 12.708143814343806
9180.24530216573 28.432642139905965 1397.319689995879 -1114.7038809044361 353.9101381667415 32.11174032330394
11959.264685887161 -69.36573328125272 1846.6332447318478 -1178.31192932719 224.18699224565734 46.91251795039694
14870.160542937741 -89.73832917574786 2476.407567782545 -1220.2360711657573 59.93678706113855 54.22004948936587
17814.64732048214 -100.85677275340942 3240.2134706211355 -1288.7107746462218 -119.36750466465732 47.26555527239616
20927.35817131526 -58.665437264565966 4196.339570293542 -1430.443603900369 -284.91604237556635 8.505703613077852
24314.73770657226 -78.76153617866962 5331.177097695619 -1637.1218251163057 -375.0080090689304 -90.1186018085233
27348.423791273068 -779.0200732027419 6223.97076624569 -1434.7134611784852 -292.4688785122728 -255.1128808992268
28285.356990752538 -2196.741681605293 6202.960604768803 2.468658395507145 -5.401261821682801 -372.87996851031164
27334.74920092787 -779.5613481378629 6224.164411590412 1439.87679461925 280.64392597562954 -255.28622546378213
24285.394472814885 -79.86723134242587 5329.986803244539 1643.0017235040389 360.0745924556971 -90.28514092023087
20878.101657507956 -60.38966423112601 4190.216272848788 1437.6611111915138 264.5888434649545 8.812182480124177
17738.45668368047 -103.25720466721963 3222.913488640251 1298.1211519056867 90.78916995014264 49.03461572410105
14755.905693866822 -92.82675226260137 2437.653494575093 1233.054002156668 -101.11956442254889 59.372622820831374
11791.293185419854 -72.41324578848011 1771.714618770322 1195.9148568983098 -284.48038398068087 58.51195208146805
8921.125194587019 18.286955765447832 1255.939980332337 1142.0348459402599 -442.9722570586289 55.38680702214161
5595.427940489515 -160.8162257916888 610.1508121798661 1064.1560934840206 -526.4936818869713 48.9541835834056
4346.242690524064 2000.3508066251459 1329.6413984000521 1219.2743954984576 -378.51475287789975 -14.19407535366588
-1776.9731499218315 -11261.567324258298 -4554.590635174504 921.3671717511153 -247.52218537102374 -495.0117693530146
-1665.2718742978032 -8190.1681931432 -2754.7113572269 -1587.9127899104267 97.86681954580077 -470.76727831200145
2176.0124689028635 1037.1256785722956 979.6935946064159 -1952.2412663429698 123.1215865414278 -173.6250347616525
2811.0862064087232 251.72338671033603 567.7395938459458 -1819.8219872505852 172.25676220038358 -44.24740393725485
4574.320336796486 -51.01937246587861 707.4628753050349 -1966.3961179053215 142.20387168657405 -0.6335255181177122
6090.349795139664 -46.88687807829425 956.2213103300606 -2042.6309738792756 69.18136948607982 5.396097882581083
7508.919198210849 -71.94854751917823 1249.1449699836276 -2115.072962650262 -17.377519833905254 -7.896993653032638
8933.404446837096 -83.53803681112171 1624.8444715563933 -2223.8612750301704 -107.12874720758919 -51.473233257253206
10381.724706520763 0.23031820707513972 2108.83997800037 -2435.5939117009298 -190.70749541218234 -148.57994689825165
12047.732308601275 116.07754194811739 2734.652200950373 -2803.420664246047 -247.94416052472332 -334.02034662262656
13719.609303215208 -967.0122928943933 3065.3151157012853 -2601.274248869813 -212.9194091573564 -612.3980574825399
13584.678647659945 -4159.902920752995 2202.956977824962 3.983315107967014 -11.29471985749529 -813.6144276300791
13705.402966008909 -967.7320327759155 3071.399605088497 2609.6173649902926 189.0433127439476 -612.0313880505639
12017.670926070019 114.63625024008734 2745.594703779806 2812.960921484899 220.2283660395075 -332.9115878726243
10332.471924950547 -1.929872786642031 2121.8078469997354 2447.377943763851 156.64128765685922 -145.80772362291674
8859.68186092982 -86.43373825629399 1634.5468601872788 2239.3794422128744 64.15831189281676 -45.17423196016978
7403.155942676035 -75.14954106226023 1246.7462050007218 2136.4718423430177 -37.35640725321269 5.281958688573498
5940.710219256112 -50.31892471769907 926.8767013784475 2073.009694271955 -139.49320049670217 31.167702546830448
4357.403846973785 -55.31688490335715 626.636513172575 2012.811154583556 -230.62386631604807 44.03401961112363
2573.2685201072863 258.58510863986527 427.37818483905517 1903.5959024449596 -260.63114291010055 35.838894466528494
1933.5639818126087 842.7800397138654 661.2661478481413 2098.2405912147165 -148.26388393126518 -105.02227126597762
-1750.703467862536 -8069.44653953533 -3145.094917327727 1737.389141717907 -66.80196640470953 -728.1617392253956
-1494.6415295364332 -5199.839514849238 -1383.1676221967602 -1710.8158471013357 -11.652654570892613 -603.6264966651136
233.16813248691994 237.0418789492966 557.6575998682915 -2288.4899716100535 -37.45516213314174 -203.9323904108431
-76.726728978193 389.71517629808073 297.51662465639043 -2270.3954866550916 -53.619793939592206 -61.05570419197923
85.07243150547606 14.632369717970164 98.03746667989621 -2262.000094306168 -68.8156044238189 -11.836460049610674
180.38371214493415 -17.93212654833213 58.09442799013829 -2329.0656218077856 -90.24774971840358 -3.6565201043076865
144.3565035931034 -4.898136858441157 43.61765464974445 -2411.397700982423 -106.09638930828275 -23.250416625656303
52.27727860174867 -17.347608611194072 38.69276761844408 -2536.5724168221327 -114.60310921824505 -77.96685764104504
-156.95186375290248 80.53291241114786 55.492810016640675 -2717.2064737434625 -125.68311376467805 -190.06710493659872
-127.53948409497472 444.6395157888663 245.21884819336285 -3114.7892328204575 -157.49808128315394 -394.43291787255566
549.0651571422404 -901.0032633303241 174.35617872319781 -3253.147120540661 -167.25409491517635 -711.6962069792169
-974.6968711944597 -7292.728082924709 -2015.6629581334103 4.514099774810427 -17.171259285930674 -971.0019432138104
534.3947247538393 -901.9452602080413 186.35027348314037 3262.6030210113263 131.38583343395635 -711.1653615893347
-158.1654721249373 442.771952737428 268.3311860954989 3125.6037718723746 117.15025761732998 -392.93311195202904
-205.9580669104216 77.77549332129104 87.57144517841273 2730.5623207139415 78.21794862328629 -186.52934524718813
-18.43818564324173 -20.88729167055393 75.45828159922378 2554.1662316690017 57.976566699973944 -70.27173392382188
47.91347549081414 -8.744227165393067 77.29690061846266 2435.8291799922154 39.115500494011215 -7.459600534434664
51.61578174929177 -21.326390280380163 74.73920408795776 2364.4948843250017 12.813607331870497 26.595937007768224
-70.11604771406559 18.426502150594658 81.45084723239381 2315.9346795567403 -15.461782992835742 42.65166565926869
-219.42399920124416 364.53308436773665 216.82678235763245 2355.593280147945 -16.13599867568302 24.157998963871353
101.76518756486526 84.37254636134605 330.52919698066734 2359.574858315381 22.751032802286687 -153.97783317445237
-1505.9223753947365 -5068.250500981526 -1657.6504740997782 1740.8317179967116 36.13772796858834 -771.0109126068361
-1415.5944554196117 -2756.6176978296344 -189.67867574570835 -1364.9869664638188 -103.85358559928298 -567.2374024427202
-1352.497709781519 -171.54804529421637 376.4555965511637 -2004.7887254588486 -185.40953438645013 -174.14729744417315
-2827.0441352819084 324.38091244904143 4.834680579293023 -2114.825864639922 -271.6826903270873 -52.04588764428443
-4293.920063227883 70.13891821052196 -484.470437381921 -2012.0900676430022 -278.1300936971831 -5.93005031101015
-5722.829447543692 33.16367261048462 -834.0703922488332 -2037.6704630769773 -250.654244665573 5.643882008876492
-7241.729233000095 54.20932922372333 -1172.3579636442275 -2115.0924121141784 -195.94938328594378 -8.011131014363684
-8789.234447665493 87.4740313007753 -1524.5303704673747 -2220.0928841007108 -123.5909792478051 -52.091213766255386
-10587.2333651087 67.3953124041119 -1993.8406037728007 -2357.11320864336 -57.570566038643115 -142.52314726734366
-12337.328070040718 636.5610504395684 -2301.7078100434687 -2546.7387288560103 -50.30935171242561 -306.6401453690491
-12380.234658894318 76.59972780007722 -2411.013825106855 -3378.976245223418 -105.3978557887762 -597.5930280445385
-16235.211030969793 -11822.014107140434 -6885.549263369469 3.9968504145478914 -23.163320771566017 -896.9947950091043
-12395.46435615599 75.43045835260597 -2393.0254908476954 3387.3471094492793 57.291038570813 -597.2736060016191
-12368.732166691201 634.2494106124154 -2266.247450291381 2556.305667063291 -2.9654932866091714 -305.62832520301635
-10636.367396320707 64.01928919405944 -1942.3493209903831 2368.909546763317 -3.6730626740157626 -139.91010901311608
-8857.476914195811 83.25402161274721 -1460.2308014775915 2235.602266029593 52.78197271602682 -46.0532082499778
-7329.544116189797 49.58806733013897 -1101.8935615204684 2136.740902800088 116.08766830931138 4.8596081561290845
-5827.135530924103 30.774368289808336 -768.8694138653547 2069.5768704629336 165.54036417847632 31.412346025525416
-4398.742085810666 70.57802142686937 -442.5255462640955 2060.8090722318525 197.7707068224394 41.79913949604047
-2907.5660154634343 295.31807172965586 -14.557817059699866 2173.9235808892754 217.34548569619793 17.166154598466328
-1415.6040722920222 -260.26488341134757 237.5017978075981 2030.9816896989269 177.98575877552125 -137.21344388359017
-1414.1497027390733 -2665.14730444524 -396.3867696581275 1356.2155002826948 123.7572859597956 -675.415326076962
-1570.6020583280579 -1226.9419615999739 623.5205489903766 -737.5362034000038 -220.22888787851426 -343.0615999601587
-2704.0514850328072 -311.46842072818873 336.0526878766678 -1147.1084974449313 -354.75503280434447 -75.75874838951611
-5518.979440720397 181.45078874254799 -300.6824696468829 -1247.2751755653233 -499.91719801657496 -10.190442170800393
-8623.866209036569 86.62054912497949 -1071.7343904373483 -1169.79103357077 -488.68207434218886 26.94212859538002
-11623.232693288444 61.32594797511404 -1740.7308044326974 -1172.890070425776 -407.8228330902933 46.31317990877439
-14620.772980300917 82.59107096114765 -2406.7662595998167 -1219.963931667011 -276.7231495845254 53.94523371055343
-17678.714140625216 104.90081654431019 -3143.6752417240214 -1285.574067759276 -114.85863051372134 46.86671478886193
-20669.684895710056 228.38016168655744 -3912.9601907163246 -1341.7908793819681 39.23344743827474 14.812391242097792
-24678.714876486873 -127.52443537011662 -5217.16731909281 -1491.7518589723684 120.74456080209579 -53.6658714800105
-25234.40399189899 2723.8347256078946 -4597.776666760056 -2026.5095838965997 33.126858823260655 -237.81045662279442
-33277.310364703975 -17649.67547410336 -12855.697826957996 2.4973090025958014 -29.40213806467632 -576.7778001159535
-25250.450942744745 2722.474465083238 -4573.647524565537 2031.7328720575235 -94.02169327900451 -238.08445862479908
-24711.462650822265 -130.21181221048488 -5169.037127519274 1497.6970700269555 -187.67843588409727 -54.034503211003546
-20719.926603184114 224.48357614961634 -3841.4942150896422 1349.0695628976919 -115.35025726171315 14.803121719055408
-17746.190072014662 100.07619476814737 -3050.9736929237347 1295.0596831971222 28.13419917412138 48.161859618872164
-14701.735384118465 77.75286660046875 -2297.71893225411 1233.0699081168527 181.213133434668 58.42660800466193
-11705.913797996162 58.584252131585515 -1624.9442000665463 1192.2785278511121 311.04095379406436 57.700991908944964
-8686.784242758187 84.0426977858588 -968.9316107259673 1198.1383101146635 407.01820765330825 50.8956523234151
-5548.317583622355 160.71700576938764 -252.14282691855047 1276.172455442299 456.9173125243604 25.164143905889038
-2716.5949506024126 -351.9646163958802 277.94507298823225 1153.4688402735662 357.2790227465775 -57.047962549159436
-1567.4179301256088 -1185.1632971446334 468.3383922092381 724.477846177025 243.9968483796975 -403.53237949362574
-1754.6932770616943 -712.997528308234 1030.1544915248132 -287.4974823497142 -424.3334304083999 -176.0804194286561
-3792.8958786016865 -474.7728640304228 341.3278355670574 -459.2426785696409 -584.7235983571055 -8.028153077625271
-8404.193897719164 -472.8706393655723 -821.7292311470123 -475.93256658602706 -747.2789917063897 21.371883863338628
-13429.803658698054 -927.5318487313281 -2108.212172246734 -458.33770562060056 -697.9801465375641 52.43468071334033
-18097.203605322466 -1304.533607326722 -3231.7675720634443 -464.7583415167417 -551.4862885439419 78.96372664714177
-22699.102809763564 -1633.2773497432368 -4369.295335128968 -489.4419362474173 -331.8633669901143 105.04882108961384
-27406.28225174348 -2017.8370819850024 -5658.31317803165 -514.0053431797323 -64.75326674813955 128.3954799092006
-32000.731549073134 -2150.3322948404584 -6978.931712939795 -568.589313468367 199.03368994947476 145.67506942574812
-36558.468885906266 -3179.563696489802 -8723.782719134755 -601.4684475050598 370.1065250786092 137.71616427321035
-40507.69234824615 890.6991455975873 -8938.484510334927 -1324.6869423551059 353.46298912601026 85.20758568689892
-56134.919819203154 -26695.400370433956 -22015.28214370852 1.2988047845504553 -35.97780279240214 -404.09026192488705
-40524.51776687222 890.2732063519982 -8907.571279116928 1327.418540476199 -427.9129483418047 84.61318584887749
-36592.4993374024 -3180.2492595354634 -8661.592521312872 604.6174133097328 -451.77686268518676 136.57376873874117
-32052.08271557431 -2150.876152756887 -6885.147146106741 572.4966271661416 -291.7234972106873 144.1191880790449
-27473.239754578408 -2017.417031620546 -5533.532690171136 519.1203803219273 -40.7196504904339 126.74495338525614
-22774.223732487633 -1629.8987126920129 -4216.125591666968 496.401474258314 215.88955654211395 104.04306485995389
-18159.853439176106 -1294.292795674362 -3056.407784712187 474.649071672624 435.1472977552451 80.27833371190582
-13445.73178475877 -908.8568089464342 -1927.211841136945 472.0877136392578 604.4914548858163 58.948417074893584
-8361.636183006478 -457.7744522719112 -680.0398520471389 490.2519985443418 710.6346387332127 32.70288041516435
-3739.421540267421 -469.03016898604983 373.1440248526058 464.6054702834492 610.7195758797864 -2.643011951870131
-1721.113066728616 -674.7789928937232 935.5283856024275 283.5206187605055 477.16334663099684 -212.29485271549325
3845.2176534154623 -10411.836941009973 -1969.985786278352 326.94366414765824 -6.007230268778585e-09 -2.9147066982204706e-09
9948.082585918028 3890.5357188904454 3494.0371660200235 -969.6643425098079 -3.065954601311205e-09 1.261986071199317e-10
10078.837005537664 515.6644065126625 1944.426063610476 -376.9348138439867 -1.1953962264499296e-09 -2.234639140397121e-10
13882.911067408555 1058.1309762241874 2701.930007713341 -448.22414836570323 1.865601007011719e-10 2.6417890097718555e-10
18252.559897464052 1282.7526404909938 3692.9629900374016 -479.26330563969987 4.827810373697616e-10 6.175904232463836e-10
22784.598238118837 1655.8942247549185 4968.120279292529 -515.1960342515464 -2.563754764040027e-10 -4.084199645149056e-10
27438.425311273517 2041.2161608029662 6489.840742747188 -561.1206140944183 -1.201917232407368e-09 7.895906151134113e-11
32544.138315708748 2526.6820255327066 8380.106223953675 -635.8857783569398 -7.188427630921979e-10 1.5552519272432619e-09
38471.97039033601 3084.7814179297857 10696.810545959308 -715.0365367828472 5.599227748120938e-10 3.78169495718339e-10
44385.918256419376 3313.8299967599687 12939.018834939707 -597.409805913806 1.3033518708738256e-09 1.197708598965619e-10
46940.71882281296 2909.415582858367 13775.400099448101 1.5766156203341453 1.8357455555673141e-09 8.72431016318842e-11
44363.2654312057 3311.9431622189536 12931.288881679473 600.7086796526112 3.257673242273995e-09 -6.289200271680784e-10
38422.93991640073 3080.806583533782 10678.643758334678 718.8012458251925 6.189691870162051e-09 6.9105432487504e-10
32460.270256833828 2520.1298103990825 8345.494754789153 640.5406234963436 6.84200651690503e-09 2.9951774394021413e-10
27304.06292899211 2030.9242892401883 6428.219376968762 567.220391703762 5.956876880652828e-09 5.3294257895686314e-11
22573.823163014375 1640.5870099179742 4863.487182219442 523.5976667482522 1.8399790580048148e-09 6.164846411138569e-12
17923.417438551383 1258.388319019414 3521.4636481947587 490.51451355431294 -3.2650877557216518e-09 6.139000419125296e-11
13377.335719669725 1026.4486474433825 2436.111603847723 466.37356931582707 -5.035535544095637e-09 2.174176394476035e-10
9250.602389754626 437.12346237198193 1502.4783376128353 410.581567842907 -6.6768990336640854e-09 4.657425556331418e-10
8038.796882518212 3562.811888755069 2535.4450698041564 925.2991737698122 -6.019498677289903e-09 -3.127098580080201e-11
682.4254328528117 -11391.644542019332 -4176.997802115529 1177.866819385351 -5.4090900647452145e-09 -2.7332234253663046e-09
-1265.7917326465092 -11040.218433787582 -3715.5774456816434 25.669236593986533 -1.8436767668106313e-09 -1.7568413390733895e-09
4846.168364239236 1989.5056205477417 1713.2586184840693 -1065.2630169223462 -1.7128274354405448e-09 -7.063829521314346e-10
6128.655593650043 -128.31283972858256 1021.4929132419888 -986.4484526859874 -1.293606333163666e-09 -7.279812308524924e-10
9159.850015481172 32.34023515133251 1581.205405441165 -1119.159039134892 -5.695000027117203e-10 1.017865791652639e-10
11898.536110775818 -58.180505592564444 2088.837633042595 -1202.5337648400955 -1.8149567959646618e-10 3.8475089780831695e-10
14804.151053168192 -68.33341572349808 2811.4900575571346 -1269.1210991350927 -3.3268182653145573e-10 -2.603561810587962e-10
17794.398982859864 -66.47865265797543 3706.171769089819 -1369.361043425788 -7.617402264514794e-10 -5.794946744686058e-10
21035.300222737536 -7.581385822742593 4825.886466484687 -1548.0048534391108 -5.809492886754697e-10 7.866729490046964e-10
24643.11784023846 -10.376284610409137 6136.594412377064 -1778.8697821142778 -4.613609494441562e-10 -1.0039071796086318e-09
27922.773689998397 -700.8000183194322 7164.686861860475 -1551.1162572712963 4.0661340960923553e-10 -1.0831531227495361e-09
28949.721840946946 -2160.3047273844827 7161.68678070467 3.0517916907970886 1.430133456103988e-09 -7.021352388392188e-10
27899.233364242406 -701.6580232990373 7164.722592972444 1557.6060426661886 1.5100072303653178e-09 -1.7839827393117957e-09
24592.85326583562 -12.094312815800757 6134.61182361308 1786.6138157512642 3.0968781983276017e-09 -7.347047414896224e-10
20951.29679258875 -10.202274211767485 4817.256180210251 1558.1796286493075 4.325025226847856e-09 1.5699797017987294e-10
17664.322390167225 -70.11082502821439 3682.7058764186227 1383.694170649719 3.070085158318747e-09 3.817635096936556e-10
14607.715404437206 -73.00553769368128 2760.0642261038097 1290.0028339245384 1.2432765927883338e-09 2.7694562199087613e-09
11604.537290186176 -63.346452687391576 1990.5034942651432 1233.1294854924126 -1.1615735040493291e-09 1.0143166306875173e-09
8714.549458828222 21.196297203023658 1403.4000130093787 1166.205278428022 -3.03027958281632e-09 1.1265721688857866e-09
5460.651677748857 -138.4787933625935 722.8843859334991 1077.4298126133885 -3.893683375721935e-09 6.241593908384857e-10
4181.477469364345 1909.4051961578728 1227.6973321374733 1182.999851507737 -2.947265667629928e-09 -2.3618040856376865e-10
-1777.2369826094437 -10883.5172897012 -4563.463992661433 872.8407712378233 -1.8826487035994433e-09 -4.004512277333561e-09
-1629.914729889785 -8082.078769025641 -2685.5886431841136 -1466.4699999105173 -6.653975148651625e-10 -1.765911861184577e-10
2235.830920031155 1072.559977625098 1005.6745810369566 -1842.799110937938 -7.537695467796368e-10 -1.2204308674768072e-09
2908.104547914112 255.17496271916687 660.462798603177 -1787.519363295852 -1.2218896172644378e-09 -1.0654086501915572e-09
4623.185153230529 -29.816021349485265 824.8527938901348 -1974.618830992722 -9.20736285825452e-10 -8.666396489331873e-10
6105.156365834206 -20.991773974400346 1093.7336320707036 -2085.81199279144 -8.704771903289554e-10 3.1921265630785456e-10
7521.087657661713 -33.86130558921735 1432.6810516122416 -2196.597108406258 -1.0545151418739351e-09 3.518145774705772e-10
8967.76580214764 -31.28379023957534 1875.2151250182144 -2356.5478439170224 -6.485112447052188e-10 -1.2130572102364567e-09
10476.837373861668 72.80693750325788 2443.3955782918097 -2628.9033378495415 -1.194562671003041e-09 -6.770166649516796e-10
12249.531206603226 212.97674200169968 3160.1522111757754 -3038.157421356653 -1.269443661300329e-09 -2.2875683569623106e-09
14064.951597328067 -846.5656450091147 3556.951609128266 -2800.5531743453257 1.2129014459461018e-10 -1.5372538797464586e-09
13952.136377732566 -4132.029396007958 2639.5275591460286 4.768532361135125 1.9019052999169617e-10 -2.146898658850205e-09
14040.42930647915 -847.6958904804048 3564.1379599511984 2810.724954753072 1.1501510854827757e-10 -2.592022596559218e-09
12197.90397760431 210.7185760943409 3172.9804733054134 3050.3970366854473 1.057394172221393e-09 -1.6056445062417879e-09
10392.672680644553 69.39185221787218 2458.2878097579246 2645.184073340111 1.7128363172247418e-09 6.093339166568512e-10
8841.987441869629 -35.9504752849935 1885.5290241341716 2379.8279305502188 1.5471735004268794e-09 7.03180180749996e-10
7339.320684179123 -39.49069111390757 1427.3113808595729 2231.259566971175 9.683676568950084e-10 4.528652119972776e-09
5845.623514932206 -26.415668929444223 1055.2297034192318 2137.7556955096748 -7.15628667435908e-11 2.730687231888851e-09
4253.531982497692 -35.82742581499956 726.0041992454516 2056.169915114963 -1.0705211717088048e-09 1.9518395788509224e-09
2516.625537172528 269.09954563957314 500.06904317660695 1924.7323625504157 -1.880298861056673e-09 1.020430850928733e-09
1854.2659234618302 793.2802015922766 592.1831409645876 2045.855860558707 -9.690989122290716e-10 -9.192495653564947e-10
-1745.7914964159854 -7812.477706016801 -3196.6047487227265 1662.73820506799 -5.516237466807183e-10 -5.965731020296516e-09
-1472.9393367471318 -5139.762028640468 -1357.3036139530957 -1640.6925554455654 -1.510507136037731e-10 1.2596679255238996e-10
288.0239552505885 276.0928819908972 567.488112694332 -2203.397636958271 -3.928340430725541e-10 -9.96694726751457e-10
18.083686487040588 394.466781650147 334.8300095535148 -2229.9263859870903 -1.1749309303255018e-09 -1.2613909916581179e-09
164.15130704094966 9.253708568805067 127.15218044671501 -2271.9552787391203 -1.3056341563455476e-09 -8.292304620738378e-10
244.60813703578592 -20.897937720306466 72.17114030774692 -2379.5901577019754 -1.4185062013893912e-09 2.2532331556135432e-10
200.94881124593195 -6.538079222837356 51.08459708756503 -2505.5973999894522 -1.5977500433805858e-09 5.4838311669414e-10
101.94953636780195 -15.6391941507251 47.24508784651181 -2687.293160987301 -1.2689860828807298e-09 -7.890799125220838e-10
-116.87426635829053 90.1900077185579 68.45720279778415 -2932.8738796700127 -1.73342290521461e-09 -1.6250387702143598e-09
-88.55151807807873 467.34627514368515 269.0464313426485 -3372.1976572268536 -1.7763499560174978e-09 -3.495753908566712e-09
654.7307500170449 -855.3138570506746 208.05933733848153 -3482.1645778251386 -7.521067102445045e-10 -2.41214515028787e-09
-914.5611189026048 -7421.06123459165 -2140.7607556872226 5.349143293611195 -8.691483921463572e-10 -2.0718378124229275e-09
629.3877962118598 -856.7343197338457 222.41650811800525 3493.581656844023 -1.0375184322786168e-09 -2.9182460892229756e-09
-141.1597135870722 464.52054475660555 296.7070811288582 3385.956351301857 -5.337195546628593e-10 -3.0707836273791145e-09
-200.47586194435766 85.97114805549263 106.83646580412682 2951.1976315646516 -7.755593667280181e-10 6.962430632029282e-10
-18.196242801255615 -21.26198892623227 91.17337163699841 2713.5726523717312 -1.2815881689220987e-10 9.460037198039117e-10
36.646458849105976 -12.926334829137433 91.30845012052738 2545.0514244424694 4.525874119920559e-10 5.094169086561351e-09
24.344655692758362 -26.50202576500952 92.61484839814322 2440.1858473477314 8.183386746019039e-10 3.236713119747492e-09
-100.76609663620843 14.802646646541632 112.36957735358963 2365.5304911486196 3.289163386099858e-10 2.8432385335008803e-09
-222.43958363945805 357.1352589623945 246.96793540251002 2368.8944581362202 1.1798950705355082e-10 9.865019912069783e-10
79.49996365075168 57.53977819371616 279.28624676419474 2308.144232059848 4.0985753679834147e-10 -1.2793366366281589e-09
-1480.5338889551592 -4887.662432751435 -1704.0932761972874 1680.5489301931973 5.507534428517147e-10 -6.2802385514260095e-09
-1361.4071749540037 -2701.790067587574 -152.52548338251202 -1329.6318330724944 8.206568757884725e-11 1.057021137285119e-11
-1281.7779015438327 -134.24727852370245 368.49281828802316 -1944.338292637485 -3.811322368818537e-10 -7.138107882553868e-10
-2721.637461420018 324.172087747885 -9.52786840047028 -2075.53526910272 -1.186346576531605e-09 -1.1559415646900106e-09
-4185.497787573479 44.433976594878935 -540.7476109381272 -2015.0852943013629 -1.515186642819799e-09 -4.205249481969986e-10
-5613.238396467058 -1.5369625804618825 -945.015362287504 -2079.6539295691573 -1.7361645454627705e-09 -7.523492939753851e-11
-7140.985181238642 12.424788290746596 -1341.2075568850876 -2197.141232661747 -2.4390006680974352e-09 5.62505153567372e-10
-8722.133621943689 39.60557718400264 -1757.2686906615088 -2352.2754637428056 -2.111920655717414e-09 -4.86889639716992e-10
-10598.023106854824 9.90218573819402 -2303.079411621691 -2545.7183000069117 -2.0085064167396638e-09 -1.4037464524108145e-09
-12463.957630066314 579.3283669485495 -2680.7140929655748 -2762.776080952616 -2.026908696439733e-09 -3.805203263596013e-09
-12507.291549049392 57.12240922080011 -2804.7721055819993 -3593.979792179535 -1.6980544748079751e-09 -2.3409238991689563e-09
-16503.210969739925 -12151.261184335068 -7593.912962708008 4.804249142778819 -1.7781281447248887e-09 -2.0300818803775655e-09
-12533.581560722372 55.408978448337436 -2783.13490743267 3604.2272453563032 -1.8786562305805887e-09 -2.348684802200296e-09
-12517.82376659246 575.9326363151696 -2637.9905383127766 2775.099124581853 -2.3751008937367146e-09 -2.838275392491596e-09
-10681.573193711276 4.886083573743823 -2240.8413090566746 2562.0721409304315 -2.3394088333184015e-09 7.587357409022388e-10
-8837.282506821535 33.15212512906332 -1679.0869162776376 2375.6362951975566 -1.8994220640777826e-09 1.2140382033010155e-09
-7288.596581424293 5.070427165479961 -1254.5004028944154 2232.384527034264 -1.2267953319877734e-10 4.837640954491462e-09
-5788.876267244299 -5.843827908315384 -862.029863448573 2134.4305907618527 1.5554453280941516e-09 2.9410882618208234e-09
-4362.949411001329 44.26559053099822 -480.22765272512913 2099.025827143059 1.6812227165985405e-09 2.7896791543469135e-09
-2857.6344530498964 279.4861154453387 -20.88690102569937 2173.43608698867 2.0341572870563596e-09 9.73065183984545e-10
-1381.430207323791 -263.16079448151675 197.8019880150811 1984.4884571685404 1.7806519592156178e-09 -1.0493579338799464e-09
-1352.1717048499875 -2537.531963742858 -412.76241491308707 1316.1368206557042 1.4032854878109902e-09 -5.55586154860066e-09
-1466.5661705082898 -1151.5273946196214 669.4876829345751 -727.6484599089059 6.304246014110504e-11 -1.2615908318025504e-10
-2598.6539578155075 -257.4857791758031 302.5912959827142 -1111.339155324144 -3.059406061822756e-10 -3.731741582413406e-10
-5380.1739737946955 194.46243683136996 -359.3555892526922 -1219.7234384633746 -1.1990266557404539e-09 -6.81553036230298e-10
-8464.62551966206 72.58681995181072 -1198.395736156896 -1167.7867265228576 -2.000684062863911e-09 -4.6194514879971393e-10
-11443.319137199891 37.785188952716254 -1957.1533378932675 -1196.354966918173 -2.51222553870889e-09 3.7527803087300526e-10
-14442.8216129794 55.78116217247084 -2727.803145180993 -1269.2377053029174 -2.4209094173777146e-09 -2.534243925822466e-10
-17555.17105981189 74.18699901067531 -3593.3272115122822 -1366.032103891271 -1.960939188805355e-09 5.5082605143752517e-11
-20676.586198118108 194.18634407436457 -4512.827107947485 -1453.8682651731697 -2.4987971691814437e-09 1.1362200069697792e-10
-24944.896159399173 -189.23296907692387 -5991.590228727323 -1616.1371244319305 -2.222753092695484e-09 -1.763109658270423e-09
-25555.18759369545 2806.1298390021507 -5336.6925922325745 -2150.9757524188644 -2.260223508354642e-09 -5.1124171562833e-10
-33929.28253057171 -18207.212124935384 -14140.6023296839 3.114170455107674 -2.5128937819474118e-09 -1.3038818913457817e-09
-25582.83960054429 2804.132716964069 -5307.57722902962 2157.5977136726997 -3.020809602460872e-09 -5.821605419953357e-10
-25000.956681018575 -193.18812395667894 -5933.364579577992 1624.0307681276913 -4.3216534795220696e-09 -1.1185470327745861e-09
-20761.763884829732 188.39586642641868 -4425.937577682099 1464.2035631578428 -4.295419686606294e-09 9.442810977589033e-10
-17668.295978625225 66.83725219489531 -3479.6145432702674 1380.5766651086537 -3.62299537592925e-09 9.096297048927227e-10
-14577.144184150227 47.96258839606202 -2591.841504379535 1290.8525836969427 -1.1382839115725574e-09 2.6799411578792842e-09
-11579.586784648605 32.14533047365819 -1808.1735335579003 1229.8140355039307 1.904374880012938e-09 1.6868533236902294e-09
-8568.14876603217 65.61987428065004 -1057.9889631599608 1216.7132531822747 3.3963956092009084e-09 1.221405643292428e-09
-5427.755813777724 158.64139797892565 -281.9933789346745 1268.0671551908144 4.3529304605272046e-09 5.026961069631852e-10
-2615.0974906296024 -319.42658129035317 239.23667368405538 1121.1263194031224 3.514786683922466e-09 -4.25852020313755e-10
-1453.0132389237467 -1076.2478013122727 472.02003155709133 708.5009259100578 2.469764837087496e-09 -3.543961568652776e-09
-1642.0205302629686 -650.4646218756054 984.8677526869814 -288.7412932533903 1.2673773142068967e-10 -2.22762253088149e-10
-3669.410356345016 -423.8817362043305 232.1156603306798 -438.95275920193126 -2.2727419946022565e-10 -1.1651124509626243e-10
-8230.141000874757 -457.3926524144139 -955.0838301416592 -460.33381444209226 -1.01339026059577e-09 -4.747242599023593e-10
-13211.625491405013 -935.6238051566735 -2333.520195038233 -454.9381888685344 -2.6163977651094683e-09 2.0321522242738865e-11
-17841.846005482555 -1324.3004528556053 -3590.9841906954725 -474.4061720595844 -3.745222798556824e-09 2.0515145138233493e-10
-22444.32573493606 -1663.1008643902403 -4897.108565260706 -512.1135743273417 -2.169233681570404e-09 -9.53537693249018e-10
-27231.935890701876 -2068.2051046003376 -6402.565430468774 -551.0818796252753 -1.4496963629540005e-09 1.2939516125243244e-09
-32045.107464600896 -2236.364025385611 -7996.864254257746 -617.42208022189 -2.145277733234252e-09 2.212807714840892e-10
-37005.2395612039 -3354.686069936753 -10048.68479914241 -650.4801916389971 -2.1072725786552837e-09 1.0705676345423853e-09
-41214.70283995444 863.9711781474912 -10283.563194925999 -1394.1084548692388 -3.4924618752540937e-09 2.113083041876962e-10
-57312.31519726025 -27515.179202992662 -23737.775316907602 1.7993119104163782 -3.30421823235838e-09 -9.290772595704766e-10
-41243.882360104064 862.9779790353814 -10246.13145429739 1397.935543162711 -3.726942310322556e-09 4.283471355392976e-10
-37063.90634368145 -3356.435955794695 -9973.11244164229 655.0309056035551 -6.718543943406985e-09 6.891518467000424e-10
-32132.812209150317 -2238.305251682871 -7882.117383583999 623.3231247751535 -7.867752671586459e-09 5.565432559251349e-10
-27344.86314430161 -2069.159601851188 -6248.059798428896 559.1960578958428 -6.447660183539483e-09 1.0589360499579925e-09
-22568.86765038497 -1660.0948869828646 -4703.381276687849 523.6591476566571 -2.7997435481097455e-09 3.157794026265037e-10
-17942.66124431053 -1311.421540492267 -3360.7871410509624 491.2101782877943 2.552491551455205e-09 4.531059971668583e-10
-13231.770320073607 -910.4119981638868 -2081.9803179146456 478.0948507880495 5.7974780531822034e-09 8.531841899639403e-12
-8151.715094373349 -438.0963452254392 -742.4059328788054 483.7067531010474 7.55569118382482e-09 1.1860024073939712e-10
-3573.6442479246634 -416.5159182907458 296.2876571872126 447.2867648478224 6.032566446378951e-09 1.0095924096731324e-10
-1577.261467770276 -585.7426052837548 865.347073614601 284.38156277536535 4.291464961170277e-09 -2.165847945434507e-09
3045.5434309394113 -11166.822697472988 -2436.383779960073 -143.63348703490254 -526.8816710176582 -45.71999183278701
9689.555426679652 3977.930111349972 3339.324060552902 -988.2921470888872 -718.3347870205907 54.81696574863206
10038.819526132233 491.0567596434355 1705.6403588045473 -391.04450261207796 -676.0569878101895 -52.95072876855767
13970.612652816066 1065.6450973062888 2414.037063872477 -446.8436000695778 -565.1323604238039 -61.09963563983165
18391.53969234432 1276.4412991199488 3306.931114999702 -468.23828636242854 -363.39903026257554 -84.31601169411006
22927.17071891408 1632.2052059040554 4425.74690670573 -491.6474500239398 -110.75419902170432 -108.32808789761967
27508.125720011285 1988.0808798174346 5730.127474042265 -523.2242566085916 174.79676126511183 -130.82074064171601
32397.2967549981 2424.6399947742434 7339.451236961901 -583.3208458045151 447.5875046063897 -140.93911773016083
37931.490494988815 2912.646663564717 9338.331341260207 -654.8862033568533 600.0682546894266 -118.7313615071069
43387.03576824506 3072.141323333455 11313.701558695442 -550.1329974084376 465.75793414270174 -51.42128641967565
45736.513800680244 2656.634342205787 12062.137959861006 1.2728263234388564 -0.6015814994661657 5.646517576984323
43373.66757439476 3070.6446937014025 11307.51310275559 552.756360840628 -466.2691905541957 -50.6912333419486
37902.41554782346 2909.491036786376 9323.956310611498 657.7500588497514 -598.4275025116134 -117.27997655289539
32347.412121625108 2419.471746532513 7312.497998550815 586.6266964982245 -441.99928618312185 -138.84005144028396
27428.45827293114 1980.1978679103288 5682.918521415128 527.1931195930109 -162.46179225690562 -128.2912378660917
22803.780696875387 1620.9023684870294 4346.659963561954 496.72821742543533 134.88706393606643 -106.143846430917
18201.130120592858 1259.5937352022893 3177.3853839916537 474.1593287855229 408.9555836654942 -83.0404859190859
13683.189144846805 1042.9830598751419 2213.364642030804 457.693514642414 643.0625631866599 -66.3595733596159
9514.817266570757 431.72670168986457 1351.158212420545 406.53237425823227 796.312275786232 -48.64480788578851
8368.732375037187 3715.79004785088 2657.3890160277347 965.8001669248633 724.8657877673459 -39.153427387626415
806.6992050671761 -11790.356524578172 -4144.747022713594 1240.4654263167517 640.7507834511324 382.68145845312006
-1472.7742992012031 -11418.160686448602 -3979.434833139184 -245.0052632401435 -278.95210772555185 136.54786885349904
4789.323521174057 2078.14250260103 1711.3682289552642 -1121.6076488984668 -338.1585117222774 114.87121795349819
6016.487312428725 -149.63150120641973 852.7264409566466 -1011.3923380448907 -423.30539140517214 -12.708143815116808
9180.245302172494 28.43264213800093 1397.3196899952964 -1114.703880902109 -353.9101381680112 -32.1117403238287
11959.264685890594 -69.36573328413817 1846.6332447304164 -1178.311929326835 -224.18699224621886 -46.91251795154591
14870.16054294609 -89.7383291629113 2476.407567788335 -1220.2360711668161 -59.936787060403944 -54.22004948951255
17814.647320485146 -100.85677275701849 3240.2134706219135 -1288.7107746484219 119.36750466686377 -47.26555527273301
20927.35817131833 -58.66543726837527 4196.339570296378 -1430.4436039043705 284.916042376419 -8.505703612347748
24314.737706579384 -78.7615361754299 5331.177097702876 -1637.1218251175117 375.0080090684271 90.11860180958925
27348.423791278474 -779.0200732158571 6223.97076624773 -1434.7134611775969 292.46887851245657 255.11288089732327
28285.35699076144 -2196.741681608186 6202.960604773828 2.468658393764686 5.401261823742328 372.8799685094193
27334.749200939932 -779.561348128894 6224.164411600509 1439.87679461861 -280.64392597119524 255.28622546281696
24285.39447281017 -79.8672313793393 5329.986803236097 1643.001723509921 -360.07459245075023 90.28514092054657
20878.10165750751 -60.3896642397001 4190.216272847828 1437.661111196879 -264.58884346010166 -8.81218247944201
17738.456683666045 -103.25720468192792 3222.9134886317474 1298.1211519119447 -90.7891699471415 -49.03461572174853
14755.905693854047 -92.82675226499154 2437.6534945693725 1233.0540021586478 101.11956442288403 -59.37262281922972
11791.293185409699 -72.41324578212149 1771.714618768283 1195.9148568930748 284.48038397851536 -58.51195207812929
8921.12519457611 18.28695576310546 1255.9399803276629 1142.0348459388986 442.97225705243386 -55.38680702006106
5595.427940484055 -160.8162257914659 610.1508121781791 1064.1560934805027 526.4936818785526 -48.95418358226011
4346.242690518985 2000.3508066225024 1329.6413983979353 1219.2743954958412 378.51475287234183 14.194075353430044
-1776.9731499173354 -11261.567324239815 -4554.590635166737 921.3671717502875 247.52218536703717 495.01176934470146
-1665.2718742955187 -8190.168193146657 -2754.71135722774 -1587.9127899091477 -97.86681954699496 470.76727831138567
2176.0124689072545 1037.1256785746987 979.6935946074296 -1952.2412663418636 -123.12158654347887 173.6250347593302
2811.0862064178505 251.72338672002638 567.7395938496821 -1819.8219872498341 -172.25676220307108 44.24740393640309
4574.320336799979 -51.0193724707875 707.4628753028595 -1966.3961179024936 -142.20387168861674 0.6335255176979677
6090.3497951434565 -46.88687807769455 956.2213103297943 -2042.630973877623 -69.18136948747606 -5.396097883541629
7508.919198217071 -71.94854751401834 1249.1449699862096 -2115.072962653868 17.377519833242836 7.896993652056918
8933.404446841256 -83.53803680929988 1624.8444715583864 -2223.861275035453 107.12874720683786 51.473233257288925
10381.724706526222 0.23031821311441547 2108.839978004612 -2435.593911706068 190.70749541139807 148.5799469010185
12047.732308600873 116.07754192970702 2734.6522009473792 -2803.4206642468343 247.944160523971 334.0203466242451
13719.60930322241 -967.0122928971548 3065.3151157052566 -2601.274248869765 212.91940915668766 612.3980574798204
13584.678647669754 -4159.902920742159 2202.9569778316168 3.9833151053166613 11.294719858446832 813.6144276278377
13705.402966016265 -967.7320327734549 3071.3996050937208 2609.6173649879247 -189.04331274157587 612.0313880485165
12017.670926064851 114.63625021060312 2745.5947037718856 2812.960921493067 -220.22836603781312 332.9115878730047
10332.471924948277 -1.9298728027318433 2121.8078469963357 2447.3779437693825 -156.64128765556757 145.807723623754
8859.681860919383 -86.4337382793562 1634.5468601785255 2239.3794422199994 -64.15831189197368 45.174231963327344
7403.155942663261 -75.14954108121239 1246.746204991806 2136.4718423466643 37.356407253152106 -5.281958685476306
5940.710219249264 -50.31892471923576 926.8767013755441 2073.0096942656155 139.49320049545875 -31.16770254274778
4357.403846969872 -55.31688489730581 626.6365131728152 2012.8111545805612 230.623866312421 -44.034019607450254
2573.268520102208 258.5851086346413 427.378184835949 1903.595902440945 260.63114290633206 -35.83889446480001
1933.5639818110492 842.7800397120354 661.2661478472248 2098.2405912100785 148.2638839293112 105.02227126475812
-1750.7034678597138 -8069.446539521727 -3145.0949173222093 1737.3891417153886 66.8019664035349 728.1617392134996
-1494.641529537193 -5199.839514854876 -1383.1676221988062 -1710.8158471018246 11.652654570501024 603.6264966654866
233.16813249080633 237.04187895634186 557.6575998706514 -2288.4899716109817 37.455162131884094 203.9323904089299
-76.72672897295958 389.71517630548306 297.5166246587547 -2270.3954866545073 53.619793937146966 61.05570419063839
85.07243151120292 14.632369723588619 98.037466681926 -2262.0000943040154 68.81560442095538 11.836460049220062
180.38371214593664 -17.932126552450207 58.09442798783315 -2329.065621806081 90.2477497156136 3.6565201033772867
144.35650359904295 -4.898136852756319 43.617654652251304 -2411.397700986398 106.09638930586087 23.25041662383284
52.2772786052761 -17.347608610278495 38.692767619446656 -2536.572416827482 114.6031092163042 77.96685764113798
-156.95186374872102 80.53291241269427 55.49281001763589 -2717.206473749916 125.68311376207375 190.0671049391148
-127.53948409607193 444.63951577137084 245.2188481889641 -3114.7892328215453 157.49808128129783 394.43291787487556
549.0651571412519 -901.0032633470419 174.3561787189027 -3253.1471205381313 167.25409491355984 711.696206976442
-974.6968711874038 -7292.728082914502 -2015.6629581291572 4.514099772848052 17.171259285329498 971.0019432087064
534.3947247517912 -901.9452602231116 186.35027347901277 3262.603021008006 -131.38583343347045 711.1653615870664
-158.16547212176957 442.7719527336342 268.33118609605526 3125.603771878808 -117.15025761858179 392.93311195229944
-205.9580669157561 77.77549330123531 87.57144517258588 2730.562320721786 -78.21794862491252 186.52934524820108
-18.43818564496994 -20.887291684738237 75.45828159588135 2554.166231676966 -57.97656670102981 70.2717339266172
47.91347549290442 -8.744227170424221 77.29690061842258 2435.829179995609 -39.11550049459001 7.459600538725877
51.61578174881829 -21.32639028238718 74.73920408722299 2364.4948843193038 -12.81360733246947 -26.595937003334196
-70.11604770979159 18.42650216532471 81.45084723754489 2315.9346795518522 15.461782992255888 -42.65166565537757
-219.4239992037343 364.533084361806 216.82678235502206 2355.5932801433028 16.135998675971717 -24.157998961854876
101.76518756527716 84.37254635974027 330.52919698023715 2359.574858311067 -22.75103280137498 153.97783317267215
-1505.9223753890574 -5068.250500971427 -1657.6504740947194 1740.8317179944454 -36.13772796794316 771.0109125943122
-1415.5944554231332 -2756.6176978355406 -189.67867574814525 -1364.9869664647185 103.85358559907853 567.2374024434112
-1352.4977097789913 -171.54804528571097 376.4555965538972 -2004.788725460111 185.40953438539964 174.14729744292822
-2827.044135278584 324.380912455179 4.834680581324809 -2114.825864640266 271.68269032474063 52.04588764293904
-4293.920063225268 70.13891821075575 -484.47043738194384 -2012.090067642461 278.13009369403073 5.930050310491619
-5722.829447539511 33.16367261841125 -834.0703922466773 -2037.6704630743245 250.6542446613263 -5.643882009478569
-7241.729232990549 54.20932924103505 -1172.3579636378868 -2115.0924121164835 195.94938328214937 8.011131012844139
-8789.234447665378 87.47403128891537 -1524.5303704721377 -2220.092884105948 123.59097924403525 52.09121376628561
-10587.233365100441 67.39531241181726 -1993.8406037694488 -2357.113208646828 57.57056603505457 142.52314726964562
-12337.328070037946 636.5610504374099 -2301.7078100436424 -2546.738728857306 50.309351709925046 306.64014537250165
-12380.234658892872 76.59972779614466 -2411.0138251080584 -3378.9762452210202 105.39785578527565 597.593028041863
-16235.211030974195 -11822.01410715897 -6885.549263377992 3.9968504136133083 23.16332076882345 896.9947950041225
-12395.46435615743 75.43045834728592 -2393.025490850056 3387.3471094483752 -57.29103857250595 597.2736059993491
-12368.732166694197 634.2494106031189 -2266.2474502952005 2556.305667070101 2.965493282372438 305.62832520454947
-10636.367396320282 64.01928918514824 -1942.349320992276 2368.909546770702 3.6730626697166273 139.91010901343293
-8857.476914190303 83.25402160808973 -1460.2308014767868 2235.602266038117 -52.781972718809314 46.0532082524879
-7329.544116187248 49.58806731110275 -1101.893561524018 2136.740902803913 -116.0876683105607 -4.859608152904653
-5827.135530913516 30.7743683001881 -768.8694138590097 2069.5768704569928 -165.540364178285 -31.41234602139913
-4398.742085805368 70.57802143172044 -442.525546261564 2060.809072227131 -197.77070682010878 -41.79913949293405
-2907.5660154597686 295.3180717298766 -14.557817058993235 2173.9235808837007 -217.34548569189252 -17.166154596929438
-1415.604072291793 -260.26488341566227 237.50179780596696 2030.9816896958384 -177.98575877211658 137.21344388229616
-1414.1497027350115 -2665.1473044391428 -396.38676965501116 1356.2155002806674 -123.7572859576972 675.4153260657745
-1570.6020583297154 -1226.9419616033977 623.5205489898208 -737.5362034005593 220.22888787854095 343.0615999607051
-2704.051485031057 -311.4684207209844 336.05268787934665 -1147.1084974458504 354.755032803564 75.75874838881406
-5518.9794407220215 181.45078874278238 -300.6824696475373 -1247.2751755663478 499.9171980139303 10.190442170019931
-8623.86620903537 86.62054912511859 -1071.7343904374627 -1169.7910335695449 488.6820743386215 -26.94212859564933
-11623.232693279857 61.32594798845986 -1740.7308044269155 -1172.890070423171 407.82283308558084 -46.31317990923475
-14620.772980296342 82.591070964024 -2406.7662595989586 -1219.963931669492 276.7231495791094 -53.94523371068989
-17678.714140617416 104.90081655023658 -3143.675241722735 -1285.5740677621056 114.85863050736525 -46.86671478846416
-20669.684895701765 228.38016169575047 -3912.9601907147858 -1341.7908793843185 -39.2334474433905 -14.812391241049834
-24678.714876487196 -127.52443537119885 -5217.16731909543 -1491.7518589734732 -120.74456080479266 53.665871482112856
-25234.40399189423 2723.834725617777 -4597.776666757863 -2026.5095838954055 -33.1268588281105 237.81045662090142
-33277.3103647146 -17649.675474132717 -12855.697826972675 2.497309001611605 29.402138060104853 576.7778001125972
-25250.45094274369 2722.474465090778 -4573.647524565217 2031.7328720550372 94.02169327442284 238.0844586234258
-24711.46265083379 -130.21181223328176 -5169.037127531719 1497.697070031919 187.67843587670887 54.03450321165495
-20719.926603188753 224.48357613212445 -3841.4942150973548 1349.0695629022866 115.35025725471533 -14.803121719194646
-17746.190072003028 100.07619477178034 -3050.973692919593 1295.0596832019253 -28.134199179293933 -48.16185961686138
-14701.73538411242 77.75286657457184 -2297.718932258713 1233.0699081193175 -181.21313343679986 -58.42660800238142
-11705.913797978948 58.58425213891393 -1624.9442000586528 1192.2785278477052 -311.04095379240255 -57.700991906115846
-8686.784242748718 84.04269778545677 -968.9316107236185 1198.1383101122362 -407.0182076477137 -50.895652321087766
-5548.3175836155615 160.71700576989596 -252.14282691697898 1276.1724554384678 -456.9173125161674 -25.164143904844565
-2716.5949506002958 -351.9646163968126 277.9450729875342 1153.4688402716274 -357.2790227400592 57.047962548417615
-1567.417930123235 -1185.1632971424424 468.3383922102928 724.4778461764558 -243.996848375289 403.5323794865087
-1754.693277062961 -712.9975283108838 1030.1544915250813 -287.497482349051 424.3334304087791 176.08041942888283
-3792.8958785997534 -474.7728640239431 341.3278355702506 -459.24267857083964 584.7235983569184 8.028153077228882
-8404.193897724479 -472.8706393702087 -821.7292311498262 -475.9325665864407 747.2789917037277 -21.3718838635806
-13429.80365869718 -927.5318487242195 -2108.2121722445 -458.33770561904083 697.9801465328981 -52.434680713598084
-18097.203605316525 -1304.5336073241222 -3231.7675720605653 -464.75834151645734 551.4862885392961 -78.96372664731811
-22699.10280976045 -1633.2773497523142 -4369.295335131363 -489.44193624821094 331.8633669828272 -105.0488210878433
-27406.282251726705 -2017.8370819574707 -5658.313178023443 -514.0053431812006 64.7532667385599 -128.3954799098361
-32000.73154907205 -2150.33229484569 -6978.931712948136 -568.58931347177 -199.03368995585134 -145.6750694242519
-36558.46888590897 -3179.5636964853948 -8723.782719141447 -601.4684475050175 -370.1065250815963 -137.71616427310255
-40507.69234824907 890.699145599035 -8938.484510340682 -1324.686942356622 -353.46298912884487 -85.20758568775827
-56134.919819214374 -26695.400370462903 -22015.2821437243 1.2988047834067427 35.9778027856494 404.0902619213464
-40524.51776687696 890.2732063581514 -8907.571279121506 1327.418540475625 427.9129483308206 -84.61318585006988
-36592.499337419344 -3180.249259550562 -8661.592521329461 604.6174133104516 451.77686267455175 -136.57376874023794
-32052.08271558494 -2150.876152785828 -6885.147146122311 572.4966271676394 291.72349720138106 -144.1191880798704
-27473.239754556915 -2017.4170316065592 -5533.53269016215 519.1203803248922 40.71965048231904 -126.74495338404768
-22774.22373246814 -1629.8987127086548 -4216.125591663452 496.40147425845805 -215.889556545291 -104.04306485785386
-18159.85343914705 -1294.2927956685212 -3056.4077846996506 474.64907167133293 -435.14729775196696 -80.27833371070929
-13445.731784740625 -908.8568089441527 -1927.2118411299662 472.0877136392242 -604.4914548766211 -58.94841707325675
-8361.636182998476 -457.7744522710917 -680.0398520452022 490.2519985424414 -710.6346387208832 -32.702880414826424
-3739.421540264855 -469.0301689833662 373.14402485238884 464.60547028220935 -610.719575868611 2.6430119512999433
-1721.1130667286964 -674.7789928943105 935.5283856011932 283.52061875956656 -477.163346621874 212.29485271121825
-661.449983203746 -14705.892930358366 -4610.202874068633 -2285.740434550043 -1219.4256424034197 -431.3628363269341
8669.150149624353 4168.738717752796 3036.956092532136 -1021.8185320484886 -1315.7792065914034 135.20264977411873
10068.697513509082 504.4596029301692 1327.3931208707606 -365.16006387942076 -1234.1624497974656 -33.77981546919146
14256.351445319944 1236.3156400260757 2023.7199522902688 -396.9173851566728 -1096.6663295678952 23.10444866942441
18846.656042676175 1452.3869250869325 2705.310018170405 -394.19971916248824 -837.0158010433768 2.3710821998028404
23586.061045320264 1855.0226883131045 3557.401836364713 -404.27252035856594 -500.6428780005177 -1.612957836984073
28244.215768269645 2234.67038642977 4473.071848500343 -413.62901092425784 -77.84141452164067 -7.56904334450868
32835.21778978928 2642.3874362961624 5515.546865821392 -435.64795456096374 389.1581683110848 -0.5997906807096225
37352.92044668444 3046.712220968272 6725.377903726398 -457.7469369205421 752.5224142326573 49.1190404803429
41263.83013503944 3224.5773243490676 7892.358689492474 -368.5750266302433 687.6006977012814 188.68069603910658
42852.609223130225 2994.442058980812 8331.027963990588 1.2406909578343672 -6.509670971910753 334.8441475770925
41272.443903266685 3224.097859687783 7889.934423471887 371.0370551617011 -699.8878385078408 189.53959715399284
37371.36220636498 3045.769812818253 6719.892062922416 460.11804079685953 -762.5036520924461 50.806475020344074
32866.45440259133 2641.070966985828 5505.660414749791 437.7396503723237 -394.883019482583 1.7525173842326591
28294.44181524058 2233.3687661503545 4456.775819914894 415.0921888455631 79.38177169754394 -4.770550800229946
23666.779192990558 1854.3052773165107 3531.417757118461 404.3527100203347 514.0179379342383 0.1478251930472414
18981.113352957098 1454.690012938774 2667.032489931304 392.6459642214809 872.446869645787 4.845451524210748
14477.189386872727 1241.465742477606 1961.7213002084297 389.3107302184647 1157.7107338465496 8.960967564598896
10504.346122896473 538.6555739055848 1284.5757926918009 351.04543948163086 1393.6002657567476 6.67030956940216
9694.021632287995 4299.60041965067 3047.454927840598 1013.2504393260605 1177.4848851280221 -159.49230997692786
1353.2708580984631 -13929.096923438263 -3281.364394675806 1350.5937548694644 994.7551723073854 794.697438230744
-2176.20680422736 -13427.949376372177 -4069.1312672665504 -1466.8213229020457 -205.36824800478018 40.42114375359244
4560.920612005453 2222.316740916749 1604.8246786508785 -1274.3213154879243 -442.45963553177853 122.87509246761282
5741.915848270514 -120.3480227673886 516.441627394016 -1003.3053408492096 -752.735094662393 -8.06743085049522
9221.641575033134 139.50673034477217 1023.2182737350253 -1041.768177967179 -631.2254733924018 10.865645732968524
12143.118110284691 71.90330570718847 1341.4922124258053 -1072.8407599357654 -470.37542881652064 -1.707997971002892
15186.102791176927 89.44744766000291 1772.0609707525189 -1078.746053999239 -256.33549526284276 -2.0938141743037058
18181.44330500119 113.5177771820508 2263.9424000504728 -1088.0300315069385 -0.5044479285272134 10.295243048387167
21108.725847375525 164.47772615546393 2841.426636212368 -1117.0717307733928 274.3074851200979 59.11307962431097
23907.914886275095 179.85354682207185 3497.580040316946 -1158.150658396733 487.08952028938097 200.6765297262785
26147.95464175206 -203.99417401221817 4002.4665866866503 -950.2646237216464 448.9102834433647 509.54819077306735
26817.320076133372 -1084.4658761494713 3954.132195170603 1.7960073054183177 2.5079755731376174 817.1663561441428
26157.70020038356 -203.60974224293045 4003.5656171749324 953.8014481428276 -442.75293526617764 509.73308688678344
23928.46260687747 180.61017377102615 3499.134452926888 1161.4506202930163 -477.4670439432316 200.84166249104015
21142.57198732479 165.60968579008087 2842.028729318631 1119.7168277457333 -258.70592045606827 58.731353387031064
18233.41440573652 115.06005116055199 2261.098235647759 1089.1700408463873 24.965802477749847 8.31044408131717
15265.646961886372 91.61442529125941 1762.1372160033545 1076.8731044376125 293.7940837046261 -7.86451842288066
12266.252507955813 74.35355774861267 1317.766540863125 1065.9230916287454 525.3664257713789 -13.762706573175546
9429.281719221606 149.5415827836694 985.8089243974007 1024.382515015693 716.648421438012 -16.433959718598018
6099.026075406921 -114.77313909024005 449.55737524957715 958.8868578663901 860.2817024393454 -32.6131571375601
4927.627782236875 2263.7769809250412 1531.9061773790688 1168.360326321148 470.98920301034883 -89.45743300919086
-1861.1842652169348 -13405.166093397005 -3955.215951823863 870.676690230225 140.85153897871052 838.3198834537938
-2021.2781883046339 -9751.458090049024 -2664.943609972024 -1935.9575162083263 32.564189496390924 808.5071632455639
1990.4757994233275 747.4417654309478 867.8774964762376 -2213.063775753295 -101.14105124022517 121.51057337598337
2611.0999450404265 390.0984949580928 412.0079649478465 -1830.142201985035 -303.74700711082727 37.049643508269284
4434.253497347442 37.57863621462072 480.0453891368902 -1882.091752359316 -257.9850594587761 -0.5139959616192558
6072.940282840919 68.39185499815275 683.3187064447501 -1902.489493773273 -163.50677077984483 0.4015753977012242
7577.527031679524 70.92184136954015 881.2490295406344 -1909.929359313558 -55.169057656247595 12.281218649956202
9062.805619306484 88.29037343123974 1122.7255021292938 -1914.504108550264 70.04507860918997 54.04787409360246
10475.417516943973 154.48029830143525 1412.7556227992638 -1935.305338408773 212.24144413231204 158.6017469392044
11862.354494208816 239.34180689176475 1767.426954623599 -2002.5597310081532 368.03686682182234 404.18120328698376
13074.59014617955 -402.8082287581408 1928.7831713231242 -1732.0730982207497 409.02198335781577 914.8381055692003
12985.332832256398 -2493.167791754414 1308.8147152816864 2.6344111103654058 10.506655579891849 1505.4372828860671
13085.043387602365 -402.269925309136 1933.1520555904895 1737.240309205204 -386.5430489755036 914.4100943207116
11884.041487545077 240.39236706685924 1775.5599690814265 2007.3028202793953 -341.19488708771655 402.9509564937833
10510.067946597268 156.00309059399626 1423.24125378293 1938.9088789396574 -178.2621706703924 155.65919306623738
9113.737978199919 90.31385045030068 1133.0319809831174 1915.4946072038576 -26.352684267871194 47.51131309620373
7650.888414365958 73.24637494702917 887.0045188612141 1905.704482493266 110.83230139114747 -1.1107598952432944
6181.405724680501 71.54964089129302 678.5289891756773 1888.8969128447911 233.4726949355292 -26.120395186052505
4605.409847723945 42.559390433631336 457.2313727578863 1851.149934290828 344.84723101138127 -44.58072601809441
2811.869430212928 381.4886491577145 338.91856019938973 1757.7588730972875 391.64174198722674 -51.51455154183473
2188.231096161555 900.3810941716537 820.554774749977 2066.7853873849986 119.09156302533113 38.41344769053135
-1932.6220404838537 -9739.838172363146 -2720.7472882208203 1768.2445981796452 -72.77650773660008 1132.9921610661818
-1677.7776367398083 -6170.582452308182 -1346.9152137359329 -1830.4856653872514 105.13628743715982 886.4466934331233
76.31121622928845 -127.6293945653271 472.64175876152666 -2431.356325124019 100.40193329064357 217.96034314673705
-282.36324791221716 433.0866202388978 243.50130684125085 -2311.8168687346724 62.81440561624514 54.9934263560751
-171.0646829987859 48.37262384895496 50.86733373719679 -2183.6979852822665 87.81008967414478 13.604169623005639
-45.98502578987431 -12.841763606441894 30.42373907576561 -2183.3875659587993 117.95126312428918 11.657588326166607
-33.37092997994982 -1.7676359502603898 26.818256250502287 -2188.238222509345 133.85995428283053 34.5553032245931
-53.54962464493659 -12.097737284785303 23.59104948566492 -2193.3733745853774 144.8281256058599 89.98284399520396
-148.68804207517994 32.767348916064606 27.10272056714927 -2178.2592746740415 172.98121877039867 208.63772238331697
-126.72444807870859 247.81781879832107 120.45185526046215 -2247.9562367242656 293.12364477639204 463.36170998098413
291.24506191771195 -580.7910623070137 30.29543504499813 -2200.2309437792906 453.09764039649804 1019.9332891033571
-822.9228078209726 -4950.128607667752 -1552.6140265663814 2.864588693836758 18.09939706362003 1932.868243549768
302.35309126940444 -580.073337410514 37.987392282175286 2205.8459646288657 -415.13586821899486 1019.327480264296
-104.070213631941 249.22305060341594 135.28965235938773 2253.094836683936 -250.00003333299074 461.7214908204868
-113.62364567744274 34.82111691215363 47.75130360733169 2182.1159894942552 -121.73895723809383 204.91274078042042
-4.631934137632392 -9.43273238276521 47.44257998464171 2194.2726430910666 -83.44995537719291 82.0838183412482
32.16880921289468 1.378635146727924 49.30975153029849 2183.0564461022796 -61.93461413803681 18.502364568884346
43.78342663493136 -9.21197866288804 44.7869047970727 2166.8310882666983 -37.21087025002616 -19.022050408877973
-55.32205542129502 47.221564806080096 41.842369404500545 2146.556268650964 -3.4448586658336464 -41.92722827558407
-169.38112406957222 452.69635370863676 197.2527645212953 2237.312659109442 2.996903102058627 -34.664475902483844
180.78824583897847 5.409413249509939 429.18673962535144 2353.26317509927 -94.89866123415764 163.88157706102098
-1675.5849348697052 -6218.3481937842025 -1457.758862739807 1776.1862641507287 -137.61389214447195 1080.4143553932734
-1518.1944489088437 -3277.909197072452 -301.8511980282745 -1385.9337863103624 177.36051536542047 766.6713879965735
-1472.5225730942968 -457.43018863727514 313.64624447441173 -2059.6964457297486 286.35971969597966 222.26373471345929
-3054.07814127284 287.6698032382602 40.05504465739371 -2129.2165617911546 404.6915400166363 57.10152986200977
-4658.440046152938 23.26283568684236 -359.90433305058076 -1935.6024782167353 432.4756558570243 6.9965285416442535
-6148.261024779606 -67.91516387066288 -611.3368016688245 -1895.545550467381 402.5349042818679 -2.525633713978542
-7663.720127693624 -83.10249949754012 -837.1087831004359 -1905.485819412157 325.3948464346947 12.582434743139626
-9146.831470816644 -86.41501510045346 -1061.1870093276427 -1910.0383494309847 224.20349638381822 58.74999178626625
-10717.501043433098 -148.00462579072814 -1358.2731709250845 -1892.9735403657683 124.9772852827427 143.39222504339259
-12163.16949464564 183.20734446190008 -1562.6942573652389 -1861.215889334821 156.0751534588879 324.0684539325847
-12297.595195376985 -101.25850629218317 -1651.7367323912738 -2353.0768413515 482.22928741007803 745.473138375174
-15150.032234483479 -8577.821109625056 -4989.616049317754 2.697402620590278 25.854333082907196 2021.6086704874806
-12285.808248268168 -100.37494626189809 -1640.679645663002 2358.3863619790204 -428.4342233068482 745.1357128352684
-12139.500920108814 184.95096139295083 -1541.0478451613674 1866.1512642238465 -96.23849116197573 323.0200065044367
-10681.964977488899 -145.44228926429497 -1327.2765079920407 1896.8552208942756 -55.91043137637191 140.72100109136116
-9099.913161344553 -83.09780084712399 -1023.4768316540561 1911.4031548895407 -144.37870622852748 52.610750817792
-7606.129935790138 -79.03787499855186 -797.4681566707806 1901.4368351094718 -236.35507469319217 -0.5406154845190612
-6081.279803120292 -64.53645973761365 -578.5196456696619 1880.8776449975155 -310.4835909682884 -29.062993052923755
-4590.034218289383 25.808164394991593 -348.58555348607143 1901.7827241532154 -350.4224175040117 -42.62759259164457
-3000.1431843458117 313.71353592610734 19.88854699041569 2076.9117758864895 -355.8101583357619 -15.58418208574718
-1427.6830454953167 -375.1042388933697 275.22246300029536 2026.1568393257273 -288.1588037545167 185.0554538568455
-1540.943972463299 -3330.403583623406 -408.3701034421027 1373.4103409938277 -204.12650459694902 895.3068069894896
-1624.719230570403 -1453.5223738363795 395.54903045629 -724.774794000435 317.8492314713967 497.6729265636377
-2777.418430050066 -472.6350322778782 302.68728342870463 -1151.5393292423519 529.8321754231573 151.26668276717854
-5765.610794800751 123.53372543370115 -181.25332037090803 -1228.2988298828411 782.4173884630864 52.139453158639164
-9095.636087801708 12.667654370996507 -788.3006107370688 -1101.228220003889 812.0074960908305 8.246737649292967
-12242.991056310042 -68.06670772591588 -1280.7513741296177 -1065.2612804731589 716.4956322644523 -3.8107817356180855
-15287.834692836002 -95.53331165150315 -1734.855538154203 -1073.7722824387852 536.2260910216781 -2.1438255598314946
-18282.6487171419 -117.99131242373424 -2210.28298132085 -1083.7478955810152 302.85133348231057 13.492087653580423
-21073.07963046664 -68.78300545013603 -2673.545406029658 -1063.6287839582412 65.09679161491493 54.627279671051234
-24348.254761943354 -394.9670026931842 -3516.5610213016935 -1097.1967100558795 -145.79975372319996 85.67978683652004
-24753.857517659064 1770.2214267401243 -3024.9960243879027 -1486.1770624705132 304.31064844478925 278.6033145884541
-30699.4779236672 -13223.042695349679 -9404.239246196814 1.8706972044044292 34.342254375217905 1488.159737410309
-24741.29611612657 1771.2312772556895 -3010.5446536727427 1489.8851074875452 -233.13213776084382 278.9317684760065
-24323.332366968694 -392.9648146554128 -3488.039523612877 1100.7335298235857 224.16136935177272 86.13282597964599
-21036.576147800573 -65.83683394502741 -2632.0853674974423 1066.6212469350216 24.082900097468396 54.69165979153888
-18236.6720411764 -114.16854586087135 -2158.517969487625 1085.3394953692205 -201.5436536466884 12.105806022700321
-15237.04452858984 -91.1562713141373 -1678.2017801459615 1072.2235475917978 -425.9758706114311 -7.117620699938311
-12196.6093124799 -64.05220304386636 -1229.2524794607348 1057.1369555803124 -608.0736426211777 -16.63388209714253
-9067.050570062554 18.51072964097228 -756.3883474808373 1082.1110814258739 -726.2985479174898 -18.777602730521657
-5759.713993798767 145.10188933799387 -179.7673842721074 1202.547453239513 -745.3449187809401 12.462829019043578
-2778.352105652602 -433.4765199988282 273.04573230755994 1140.1594816751751 -541.594858813222 131.85788675607208
-1656.8031521876367 -1486.517181473143 312.93171032043625 722.1493520461495 -348.17563682842945 571.290823333722
-1744.1065950142952 -797.0088723454295 838.1321921691008 -277.60154761965765 607.6715642219907 322.53937256606724
-3827.3769045796535 -561.5430582949224 345.9649155758516 -450.63286496109464 912.6396972930918 105.16071911444135
-8704.245802535377 -539.293677058893 -670.8920315677807 -442.5571110712558 1270.0959317575685 56.59612921723756
-14077.54451010334 -1035.1838328325339 -1773.9151872428404 -401.2874776605838 1280.5800560324985 23.4452028818297
-18991.771143571368 -1476.5155107329279 -2680.1202723051865 -392.34998931349696 1101.0245385874596 11.665487600720407
-23704.710474077812 -1856.6344196749635 -3531.0251531542513 -401.4823699677008 792.6839128722305 3.782953123674261
-28368.435051527205 -2264.8240008344355 -4436.421493933688 -406.5966115603701 398.8052313203773 -2.15266534763537
-32756.528012765822 -2473.6214450820057 -5305.839585805247 -425.0310512126311 -36.81945881452218 -1.0833184605755832
-36688.82036748307 -3308.2573337298513 -6401.352061875588 -437.57482796751054 -485.30321632795216 -7.919415990333114
-39251.845134256204 -160.27920797751852 -6341.902551605246 -1060.7140287594568 -723.9957389778868 -171.5329768519302
-50712.15531269452 -20769.06264284052 -16867.16396207766 0.8980218357172021 44.1843120888682 1582.369186527361
-39238.057489786355 -158.3653362027172 -6323.716922392327 1062.5123721405478 815.4134409661826 -170.9168708388754
-36661.640604545384 -3304.455019044965 -6365.281060704734 439.3520051034176 585.5086244624001 -6.793046392677454
-32717.24476313931 -2468.0202503357687 -5252.923826132982 426.66231528038526 150.27307520470546 0.285988721872954
-28320.32143417184 -2257.6849192416175 -4369.394912613772 407.753053634666 -270.4889294594261 -1.0901224245617271
-23655.51704655872 -1848.9236381964774 -3456.153189390974 401.466071848979 -653.5665609894327 3.4158330081516013
-18958.173376674586 -1470.4781540528677 -2609.9229226938446 389.6855640749321 -965.6280584034081 7.602571613232584
-14083.878515287195 -1031.8031952473423 -1727.2313143355286 394.00225313175577 -1178.6787840570469 12.235540135089451
-8754.755140717798 -531.1668812754285 -661.8098719595741 431.9231781001145 -1239.7621171754026 39.52006748380491
-3880.4030573807568 -548.9370079897476 320.67231010975536 445.3012007371439 -950.9881447156413 97.58120667212131
-1799.8769224675962 -821.715903435354 775.3283501032629 273.2508509094756 -670.7874762580043 367.07843025053126
-4378.6190417405105 -24288.258716105785 -8600.063327353884 -4443.791816476432 -1832.0268115320928 2308.5707270645503
9676.874844904121 6224.931641699222 4006.015686908412 -1974.0190206607858 -1906.9228105088328 78.507963397691
9572.301874261826 277.7831153017522 938.6381625993321 -930.6060687494161 -1862.9311812209176 647.5901435919408
13845.923853211818 1287.3706681650085 1705.1259267385096 -959.6610026182261 -1657.6020871034286 702.6599203176518
18694.071858201587 1436.343086000491 2289.6143324735563 -904.4542655679572 -1481.2959531284084 965.0555637699348
23755.3008838322 1888.0961275149198 3063.276817862769 -820.6295063392497 -1163.472797075018 1190.0357507501271
28683.823048403865 2286.334780295791 3833.276665729052 -685.4804228625081 -725.6714357286618 1421.2130012572115
33334.936540920564 2658.3092765205556 4615.624038750578 -499.67687291840707 -176.8732161647127 1648.3742945298868
37251.374926549805 2955.8878960571105 5332.759669740003 -260.06799986442405 358.08705547749565 1882.54688435878
39805.89709046302 3252.9438076964584 5886.5226693448985 -48.32204739089906 509.8177567552714 2134.1566046454577
40742.67123252388 3587.3733555945096 6184.811278909161 -5.918603709935837 -12.255104227840569 2305.775365409856
39834.823830307614 3253.2858189458234 5888.664142948593 36.17754106322346 -534.1127111247285 2134.7519437034593
37314.95184597606 2956.836443837253 5337.792539179571 247.00197845767588 -381.6709375568362 1883.7269763446063
33445.33873361005 2660.427435654783 4625.044516945346 485.05339909873146 154.76845058327748 1650.169408973395
28861.427526284053 2290.8685068233144 3849.6339541007333 668.713854341643 706.1812967787412 1423.3805038527069
24029.149381760744 1895.696640961692 3088.292681299165 800.8941054095993 1149.1000551511092 1193.4424848721364
19107.31199111198 1451.7756619269708 2328.8947226525065 881.834409828016 1472.1027458234882 965.3817893071117
14445.575733482572 1305.325902643566 1741.4703461294243 927.6371428540596 1668.2060823371773 720.6477446515069
10594.958810041464 384.6242421088131 1098.9960210373297 891.8302095993445 1833.7614701915836 587.8601917968522
11893.881779813486 6616.415460637061 4242.7236567531745 2048.190599139804 2452.0288762224372 431.87872522772517
-183.09756674400842 -23163.382986548582 -5286.109731779547 2671.1211898173797 3211.7936736925762 895.3958078153562
-4854.784851291542 -21067.161532688493 -6351.818462230439 -2852.284654214847 -1513.6493157036173 1327.0609605584004
4626.35691865 3373.6988008237363 1900.0232407929416 -2363.3656640517634 -1267.424440035864 398.044673749836
4773.067652408267 -322.4910950261492 31.166218586267473 -1966.3788433666782 -1149.957474889121 697.7705526400242
8637.741111775716 59.98547835119667 593.1812581284553 -1991.593381829283 -1016.7589848864955 904.8519708409145
11685.55713913914 -72.53467978840362 815.2821466519507 -1946.7944857141588 -882.3420313712943 1200.4748188679007
14911.1797449293 -68.5431264683336 1137.7657427576664 -1788.1601917200312 -695.2990505554142 1495.2644475048091
18053.646869260712 -68.46795533172175 1482.1048823922972 -1553.6839231837043 -435.0636626582329 1791.7459386603612
21010.33881094745 -95.2778375817239 1839.5567355658584 -1211.6687560701967 -113.86214807310903 2097.7399834860685
23514.447471074993 -124.67556425345597 2185.434045349622 -715.7290007378094 202.4864358180729 2446.055746570412
25244.084203718514 114.25100534505847 2537.8529141498134 -188.37895432632848 301.9768616811097 2882.9996315797002
26056.481973778955 761.6616112283155 2886.1045684345677 -10.552660912871772 -2.935618267842914 3221.896508990393
25275.441330310256 115.63034522854977 2542.232341303856 166.60159764469302 -307.2635777964816 2883.062103986485
23582.30968147851 -121.79938892662594 2194.7052013264883 691.9017892264297 -206.00044907236972 2446.1008923420995
21125.410375095595 -90.66335804841702 1854.6950348453192 1184.3018508824114 113.32665858404906 2097.5984413662954
18232.846371134674 -61.8665653957452 1504.1408558833116 1521.1173497886195 438.85512231419864 1791.0676387844517
15178.816470845899 -59.94984905562259 1167.769228131555 1748.5411983763368 704.3095908890257 1493.7801813016206
12071.659556100043 -63.38824921425969 849.6958036242288 1898.1893510343227 898.8515457948433 1196.6116068606227
9197.380549918615 80.07404931533317 642.0038631099974 1925.9777030900243 1033.5870470225195 904.0641938742253
5557.3027607874765 -306.06799969936117 50.63134211198317 1865.1061721427423 1197.5342689135648 670.6011775833981
5398.285725416628 3539.6200855218517 1979.4470741127502 2229.148755106379 1449.3712349917146 570.9351225824948
-4500.616715062107 -21756.185034114133 -6106.8429383606435 1784.8761233937557 1792.2267443240264 539.0063730958133
-3868.7036115835695 -14682.252531459197 -4007.364215364188 -3348.7596546381765 -921.6997367670813 439.5215674535247
1587.5794916574584 1029.659145412229 859.829056175131 -3838.8814946507737 -721.3264008977136 618.6128812541651
1676.555847982722 472.3912833079198 81.66651887988724 -3348.4040773904967 -568.4286243646777 796.6533983549325
3701.752976943636 -78.42326827380325 109.88729305469444 -3405.4610766125015 -460.9740897307523 1154.056641378428
5551.722269959316 -52.50421157773263 313.7229317924821 -3289.8017254394804 -377.0113249055939 1523.0670568767164
7200.532755315854 -66.68777761898872 463.98782500046866 -3036.644827862258 -285.31237676442186 1910.6965846177684
8842.11038897778 -56.2815212626189 645.043493278858 -2660.2125660730044 -162.26878023307248 2301.863349354797
10420.079198297419 -87.76873230740252 837.2610399648473 -2113.1576649016165 1.5780538189016777 2714.4775485673713
11764.894238359675 -135.17189496965602 1013.1341666230081 -1269.08146144238 209.8526837010437 3200.3449608183364
12679.304953480125 399.64547584750073 1290.5461192098674 -273.9059198125557 320.76512798360966 3863.713115407342
13519.402666314456 2132.801411447782 1960.4385747130432 -16.863275637238132 4.511868542797949 4488.298462967037
12711.678392995058 401.2648508233421 1296.6442918616863 239.0605536458188 -310.85050699128004 3863.364991401251
11834.22085783225 -131.82452330772742 1025.7671311723957 1230.813615970681 -197.31000427664432 3199.5444461911966
10535.547489062677 -82.48796646988033 857.1357292237583 2068.9437211352706 15.1785643122296 2712.97319599398
9017.678009347064 -48.80741444807326 672.8671306325186 2607.1327089735096 184.40820684233103 2299.2479607406526
7454.510698063891 -57.71883770569364 499.23953614774206 2971.2601314832336 313.2817699198604 1906.0598116943404
5906.444270088828 -42.963257484573 354.277786375174 3207.8215087158155 409.3834059338605 1516.2710919359872
4177.226611026647 -70.23325739995823 146.45119184753435 3295.9385847949516 494.3416236578522 1140.5265051405136
2152.2419996917524 478.6509048041325 59.79747002809576 3189.2498968580153 614.7118357612009 799.644216445679
2035.4907761202523 1363.8439107076128 948.9360620163332 3626.722925287366 789.877452297886 628.111992806673
-3850.2546945526974 -15233.076261378264 -4094.0418932895313 3165.336205527405 1011.3889224593681 420.07210951818575
-2830.3978181373573 -8872.215568169484 -2119.4449765097693 -3096.759162634006 -415.7878141376568 154.99468416223954
-495.17771985762613 -205.9228351932639 330.80812665806997 -4059.72388724657 -235.57475096487957 537.228957072183
-1146.1880589786751 601.2267091132699 36.90487352077908 -4076.0132680367287 -37.158209411464036 823.6976461945158
-903.8466388070194 45.62148036613256 -143.23902142750657 -3891.2453269164967 61.76443146906685 1213.531244378497
-547.0441802713142 -39.344215693109064 -93.43279110715179 -3731.2740562454896 91.02394959536568 1616.6130509498798
-361.9047131050852 -16.004814371464896 -49.45211796062929 -3442.0856676937206 99.00314571219158 2027.5582029401785
-188.5258125051247 6.020941852034682 -3.2566931276265763 -3021.803402958729 106.24255964772685 2447.5984820958774
84.59147624725392 1.2118739781421155 69.124351649445 -2430.941843314991 133.8716067416993 2885.1198812540197
333.4102699048248 -129.4865022968224 84.65514522159705 -1464.2328381880466 259.1631588890689 3386.935280355081
341.5036997164755 636.8152648582707 236.17320798363775 -90.71051639341178 421.29716458964504 4107.057597117749
1539.0927316571242 4517.090070860298 1606.2545310730695 -18.93358687742284 11.204718142594075 5035.053779420746
374.46145948773835 638.7231349000324 243.95190750011588 51.552894200913684 -397.71022494938325 4106.582396421126
403.280515916469 -125.6025101221964 100.59135222781225 1421.1280697181564 -232.14179480372925 3385.866168465863
198.96789777959475 7.192308698588107 93.76763187508519 2380.9859842541678 -101.52021359933535 2883.1862472653243
-19.111450020832194 14.105659232629684 30.32121421174012 2961.585908419896 -67.4913850286328 2444.2709135921687
-125.4997329179293 -6.810517227025713 -8.101877927079464 3367.33216438455 -54.44836611200718 2022.0245085010702
-232.68758723568854 -31.88080353535916 -48.582290294876074 3636.091868113134 -44.19862581873771 1607.4552984786444
-540.1385448909615 40.994589808703275 -116.95496279816079 3766.8149741005946 -18.185974278465597 1200.8364880758402
-826.0252761179624 662.2969043868669 35.368998930079954 3919.006813441231 73.158910267114 816.7184278181368
-237.79447926561647 31.77256280070955 373.64687946369673 3967.255062685981 265.7857952972498 552.2772907094463
-2883.63111987079 -9298.175971032837 -2256.5371328701794 3067.187789619251 453.34020155385724 242.93241210048856
-2222.4440457155165 -4440.91454457393 -782.5840366336704 -2353.5534830092374 6.104010566671263 122.38369211502426
-2088.1897265263533 -591.0201014214983 107.46292376482762 -3414.024812483259 220.70474485945957 416.84441068730064
-3849.6261069723605 481.998903422114 -71.88862008546806 -3750.5344412746795 500.69706123206583 761.5051622194776
-5355.381779662735 111.36442771116671 -375.6638252969019 -3495.504428932758 593.9235886636337 1143.2690503675094
-6620.169574862123 11.62881312894552 -481.77155370082266 -3292.8857306355612 565.5047771731269 1526.618575542713
-7931.282041536522 35.458430331427664 -565.3065272237827 -3034.6796722955446 485.3924519097533 1911.0291547115296
-9235.009809928164 47.47109967390542 -663.1935262970389 -2664.7045692258453 382.01010622857007 2306.008942960684
-10283.635117371043 136.31821288168769 -692.3027710250351 -2138.3458150996744 259.13700190098115 2702.667505752729
-11042.96822385586 -89.6460166409152 -809.5654024730688 -1359.1660659804993 230.66390340847693 3126.000914740598
-12232.81473761413 228.32111686092986 -1095.3840020825855 349.386034609036 471.4912434640969 3712.062132834485
-10002.039437768366 8174.361770262033 1648.3687349666834 -17.0421699619979 18.04600463266332 4922.422041651145
-12199.113365772058 230.56259119318156 -1085.867096717927 -384.65046846944495 -433.9038006057244 3711.7462649524828
-10972.246056974562 -85.13933995871916 -790.1992864668396 1320.2992493766503 -188.74710627548183 3125.2706229979567
-10169.932441858024 143.0794470193893 -662.7099526953402 2093.2513458241488 -210.62111987728187 2701.2889318697903
-9071.472186107707 56.200006076398644 -623.6486743674473 2610.3161350608016 -325.90403454751663 2303.5355327067928
-7712.966381926513 44.98930003742267 -517.8578143282305 2966.9119842470864 -423.2849224130331 1906.680431805595
-6353.71695664122 16.221793865566582 -434.4897872098528 3206.0798432786796 -503.26926522032113 1519.3536457777625
-5082.574762845237 112.05747452634914 -346.2605138168048 3384.549265924195 -542.5570239057766 1133.4177780559764
-3636.1906170550337 540.6330597851775 -62.707916012760286 3642.997064856663 -471.97120350114994 754.8779946088329
-1946.9192805055598 -458.8428122182166 121.04298833703595 3388.554990354082 -208.98934623046517 435.3255857025887
-2266.20496271631 -4696.509994947274 -883.4021398608503 2370.3786762566106 6.60962814685854 204.6241772576522
-2069.649413633927 -1777.1449593278987 13.35295420163304 -1303.0962758380329 376.85412644603133 179.34300735133937
-3349.144221606003 -552.4020072115158 62.95867347891466 -1966.978022343661 687.3209010930885 299.24074829679824
-6505.168134380643 277.3053108416566 -250.41362623975797 -2253.1909116234547 1096.095043996003 598.322919649654
-9796.545070263877 118.58181917355579 -689.8718780585642 -2095.2532476255174 1183.8886962117044 902.8219233794188
-12782.13609297963 40.21036964301782 -988.6213985794583 -1950.455342876165 1086.5648799586356 1199.473035315303
-15654.083338971117 43.21312630353111 -1244.0189737569794 -1788.1810201412457 904.6520829367413 1494.9726220301704
-18425.572771755335 67.84963236322201 -1493.4683909879786 -1558.3621526576708 667.2844458380396 1793.8260800441221
-21090.74681906806 40.02782962430718 -1784.158538053658 -1248.6198748022782 395.1333121043288 2097.1719955967687
-22609.48298925232 440.19402220798474 -1738.736113044163 -724.496263714627 4.11539092202888 2350.366084056572
-25524.354525547067 -1540.0168224967163 -3201.885290713971 368.27803876180184 184.09992698133956 2685.6560421928543
-21127.57122401622 13050.078717702449 1777.336344725259 -10.782413726193226 25.952868048212963 3569.195007721729
-25489.113586897874 -1537.4392340109541 -3190.47225171395 -390.5836389808874 -130.29416579625033 2685.7558039106934
-22536.29899220361 445.3440165925599 -1715.6387917977213 699.9388905054329 55.17337365521932 2350.5135239636206
-20975.263173997453 47.631425607835794 -1749.2170286649946 1220.2064600308402 -327.5553177397368 2097.236180891472
-18264.450216501627 77.43891912471017 -1447.5328418063616 1524.2609834343125 -590.3580942246933 1793.5327572890035
-15451.07866756644 52.8816084042337 -1190.9808697557144 1746.0414001928327 -820.8258167216916 1493.8164619870006
-12559.795405138542 45.92534672349854 -938.7194918233265 1896.8865552329594 -1004.6919424667376 1196.8269175736
-9603.458534494852 125.12554878933696 -658.16468758587 2030.3782981160941 -1121.740173573804 898.7605326555905
-6385.532416967481 318.1813083795302 -240.5065855128024 2200.8777099526746 -1072.403769691731 596.585565915851
-3296.7449161159984 -491.47413076819157 59.29093502725817 1966.472616273739 -691.9149109669968 312.3527880112477
-2103.8541655976883 -1887.8690004242949 -43.088506121465116 1320.2746806253426 -385.92118618298775 232.6644016760246
-1807.832356245468 -767.4016899325593 560.0532829548649 -642.5127937421165 754.4553396485871 216.45337140822753
-4059.226661236035 -497.29731970443623 175.17098597500032 -921.3701441716044 1220.511653888063 250.2724792169455
-9296.388555386351 -391.83213885812086 -733.7305777647393 -1035.88416576153 1811.0200706456408 496.8847034061168
-14933.971786264414 -1015.5596397018687 -1752.375162548591 -995.9991566598358 1890.780504476073 739.5009835187029
-19858.287697795662 -1508.341683650678 -2507.9048031193606 -926.1570914769438 1704.3190411516587 969.5501206792701
-24513.29348928266 -1913.3398088080532 -3178.95137039046 -830.9190686545912 1391.392012317761 1197.1793269833438
-29031.607698911223 -2263.3726261346965 -3831.7500300087336 -706.0437129570382 982.3011211969318 1428.0577358711398
-33413.428861148 -2784.144992762586 -4578.059340795331 -517.5337426755939 496.55515508948866 1639.2098757774957
-37319.22317526557 -2595.7255698264507 -5114.903347508948 -253.2591982324593 -201.0868976295968 1889.248041644983
-40776.04862100334 -6163.928116799279 -7190.094116506942 703.8535254936439 -1460.1207105482736 1696.6753565809918
-32981.09860314288 13037.181048470404 -785.9272404282301 -6.967143594866002 36.08726741937585 3499.0305891315766
-40737.178944886145 -6159.9058615586555 -7175.969909173482 -718.2466362795782 1534.7592823989148 1696.8789616098425
-37239.44796441205 -2587.849725270884 -5086.567921487569 237.50055221545563 282.83490034377525 1889.59720097573
-33290.065604384836 -2772.9425804280613 -4535.8542737380585 499.5322092356397 -404.06565370915644 1639.572584044868
-28865.032227630007 -2250.2921808746078 -3777.7650016879934 685.0102863249949 -877.700093589638 1428.1947850890972
-24316.386914623214 -1902.548897839606 -3120.237510922017 806.2718719448455 -1277.8945821609002 1196.736101307203
-19673.570245505885 -1508.033530929085 -2461.370536980404 897.6305004339516 -1594.1609801659688 968.2860812091145
-14834.960224786657 -1029.0267348393882 -1741.9047866314072 965.6684358081749 -1810.3191661645242 737.923232529427
-9316.17438626282 -396.79203412954024 -762.9856349114223 1014.0644107131391 -1791.356206507441 497.90175790343187
-4124.3017835123555 -492.6895641072074 135.82788695329106 922.6812035524338 -1249.7748301594488 259.28116517059465
-1887.5784034146095 -834.7709242448095 512.5638860047923 647.7224330207664 -795.6564929240668 252.0264745596896
SCALARS Strain float 6
LOOKUP_TABLE default
0.02515277220132786 -0.09347549752453407 -5.888573049311896e-18 -0.05295518581371976 0.021831652837155914 -0.02751046783098929
0.030284790461993488 0.009716962209930133 -0.003504078687366737 -0.023523726662833082 0.02272416349178455 -0.000935553230423474
0.042200470999758544 -0.013179369938839265 -0.009241775282023005 -0.011089722319280423 0.022199929909535024 -0.007717115877807058
0.0593458015090929 -0.015482244551566089 -0.012993119469298943 -0.011435960281211986 0.019753091538029784 -0.008373364050437438
0.08055797123291192 -0.022269329368018242 -0.01718525485775134 -0.010778079998057369 0.01765211010821109 -0.011500245468258632
0.10207032458427528 -0.028221770421985197 -0.021219652142058478 -0.009779168283915266 0.013864717498567452 -0.014181259363098928
0.12305305656688764 -0.034231977697211924 -0.025014782296526306 -0.008168641705797857 0.008647584609103358 -0.01693612159826751
0.14278346750406484 -0.03999810327966 -0.02833576948800122 -0.0059544827355860665 0.0021077391592819877 -0.01964312700977819
0.15933857801036383 -0.04500536554640848 -0.030843171228054547 -0.0030991436650465343 -0.004267204077692698 -0.022433683705254233
0.169876928591951 -0.047917751384409915 -0.03222601066714215 -0.0005758377313789947 -0.00607532826793615 -0.02543203287201824
0.17330048927649935 -0.04808316057352129 -0.03260675961364664 -7.053002757499585e-05 0.0001460399920441959 -0.027477156437759543
0.17000609469118294 -0.047958902626320646 -0.03225644011253613 0.0004311156976143348 0.006364843140949938 -0.02543912732910699
0.15962174777570154 -0.045095356495429666 -0.03090882642723733 0.002943440243221418 0.004548245339261297 -0.02244774646812064
0.14327361192757526 -0.04015315122268446 -0.028447307780063637 0.005780219672549373 -0.0018443240360725163 -0.01966451879026428
0.12383835194510504 -0.03447789554591863 -0.02519025142256448 0.007968840097512652 -0.008415327119886835 -0.016961951004255287
0.10328061601509711 -0.02859787323234427 -0.021491988491981955 0.009543988089433367 -0.013693442323854617 -0.0142218562780799
0.08237675818063177 -0.02282081244765292 -0.01759464471078987 0.010508526717090936 -0.017542557721084994 -0.011504132989266865
0.062019543936560534 -0.016274444638977686 -0.013675750663273733 0.011054342619046722 -0.01987945581459308 -0.008587718957093458
0.0465202500176661 -0.014316326783124578 -0.01005986160030198 0.01062764333107735 -0.021852324186579473 -0.007005333952260512
0.039582308537850885 0.008137405052668578 -0.006005841945507328 0.024407604639818975 -0.0292200107751479 -0.005146554808979485
0.03827885530690941 -0.09864534531993509 0.007873407823498095 0.031830860845447916 -0.03827387461168236 -0.010670133376525793
0.01545000025783653 -0.08114874413528944 0.006530174992760024 -0.03398972546314156 0.01803765434539416 -0.015814143113379846
0.013952768069812634 0.0064890134512133 -0.002291636760610603 -0.02816344082997479 0.015103474577044137 -0.004743365695483839
0.02227713177852445 -0.00808390575812424 -0.005976697597845542 -0.02343268121680031 0.013703659909083132 -0.008315099085636043
0.03869154249954152 -0.01241758481611071 -0.009240626628307162 -0.023733154466839098 0.012116377903255834 -0.010782819319205805
0.05253752578736711 -0.017521104633643293 -0.0122311960427676 -0.02319930095482379 0.010514575873893019 -0.014305658258168081
0.06687272606680396 -0.022381456041845833 -0.01519386569606914 -0.021308908951397164 0.008285647019164958 -0.017818567999416238
0.08080213070936547 -0.027175470120418183 -0.01793664029568275 -0.018514733417994558 0.005184508646696653 -0.02135163910231895
0.09389900273210744 -0.03185529646537637 -0.020326907133684614 -0.014439052676503403 0.0013568572645465406 -0.02499806813656459
0.10494100799756848 -0.03590876675463227 -0.02214436366400339 -0.008529103925448159 -0.0024129633601524705 -0.02914883097994971
0.11205540971099422 -0.03767651309585168 -0.023235885055940292 -0.0022448492056929806 -0.00359855760167648 -0.03435574560961629
0.11440986388267127 -0.036305107443953155 -0.023646968157404243 -0.00012575254255638835 3.498278435814243e-05 -0.038394266732067764
0.11219121156984717 -0.03771932888276934 -0.023260825322882345 0.00198533570519549 0.003661557635414016 -0.03435649007248134
0.10523534054803516 -0.036001642663144845 -0.02219913614616431 0.008245162988198754 0.002454838684813017 -0.029149368967072393
0.09439925399693987 -0.03201318532971158 -0.020422091572051465 0.014112930389607342 -0.0013504760147642321 -0.024996381426300496
0.0815840853849867 -0.027421912528577903 -0.018091118310092847 0.018126648418227177 -0.005229690207538935 -0.021343556028875645
0.0680463238452315 -0.022751325477660185 -0.015436165976032416 0.02083678261394568 -0.008393022624738598 -0.017800880493846975
0.054247266744907784 -0.01805739309523632 -0.01261693394703914 0.02262008976648771 -0.010711314254069283 -0.014259621648439367
0.04116180372429116 -0.013162147508497488 -0.009813982368043287 0.02295123429520257 -0.012316912310396968 -0.010773431643679752
0.025822196391189798 -0.009113721056824705 -0.006988387478497189 0.02222584855144437 -0.01427061670461541 -0.007991330699552724
0.017153425563718773 0.0060788761259703075 -0.0032171547336928004 0.026564022665088564 -0.017271673883744294 -0.0068036435441333415
0.017683836851507633 -0.08513059104990181 0.008113405604338353 0.021269773803858937 -0.02135736870329278 -0.0064231592794422076
0.007966664807084 -0.05646406417370956 0.007140478709597458 -0.03990605255117549 0.01098358852977119 -0.005237632012130274
0.004678359726203819 0.0013540843298373885 0.0003421800481853575 -0.04574667114462579 0.008595806277345451 -0.007371803501596531
0.0069223848251846725 -0.0002524290392819388 -0.0025804974273039194 -0.03990181525558875 0.00677377444033934 -0.009493452997075531
0.016923104776842557 -0.005600445350816998 -0.004478428256233944 -0.0405817444963642 0.005493274569300526 -0.013752508309794404
0.025086217996953892 -0.008305631455436882 -0.0061235280595462165 -0.0392034705615847 0.00449271828848123 -0.01814988242778906
0.03245615422999164 -0.010844368111992278 -0.007682425979742016 -0.03618668419882004 0.0033999724897901718 -0.022769134299996142
0.03971679157124489 -0.013302793560526936 -0.009124065348909173 -0.031700866412446835 0.0019337029644592985 -0.027430538246446926
0.04672814440248401 -0.015881116184066534 -0.010369480457554653 -0.025181795506757858 -1.880514133102131e-05 -0.032347524120483265
0.052715233802274275 -0.01818932690881197 -0.011347336625130603 -0.01512322074884189 -0.002500744480778092 -0.038137444116434834
0.055789467593508286 -0.01737683679397914 -0.012068553793948526 -0.0032640455443196372 -0.0038224511084695365 -0.0460425812918706
0.056335723906194894 -0.011509441903644255 -0.01253643713951755 -0.00020095403466165965 -5.376643348182601e-05 -0.05348555668370865
0.05592723422995592 -0.017422313125378203 -0.012087343955882492 0.0028488049307888812 0.0037043018749571307 -0.04603843281416401
0.05301100784589544 -0.01828667921668024 -0.011389362275411822 0.014667195590179096 0.0023512775509863066 -0.03812790465046344
0.0472227853177662 -0.016043009271512143 -0.01044441808461099 0.024654912676730884 -0.00018087789135167625 -0.03232959725225883
0.04047294209978424 -0.013548200217100402 -0.009248222719246194 0.03106833144848519 -0.00219753113152693 -0.02739937153220765
0.03355941640580508 -0.011200951244894595 -0.007882407600645482 0.035407516566778985 -0.003733274424875494 -0.022713879422674606
0.0266431454273801 -0.008805407757765503 -0.006438513204785715 0.038226539645549215 -0.004878485587391206 -0.018068897178924882
0.01904082230736697 -0.006266959408669603 -0.004975881231943223 0.03927660146888627 -0.005890904348601743 -0.01359127418628136
0.009124075983211546 -0.0008477376238627512 -0.003343406006059752 0.038005227937693106 -0.007325316042851382 -0.009529093579322292
0.006149260261414694 0.0021473643549618747 -0.00032479491014281506 0.043218448193153076 -0.00941270630659153 -0.007485001247652383
0.008927786779346462 -0.05889485838992898 0.007475221386859939 0.037720256449329706 -0.012052384659357871 -0.005005859305155662
0.002140876582462114 -0.033858287511403885 0.006376970597162436 -0.03690304668804923 0.004954804785120634 -0.0018470199862455953
-0.002441281825125031 -0.0007178048040007519 0.002480217177053765 -0.048378376323010557 0.002807265782320721 -0.006401978405099181
-0.006130792863141221 0.004280886796753877 0.0009184691930489229 -0.04857249144412642 0.00044280199548283255 -0.009815730283828135
-0.004008406308956114 0.0016488412345093755 0.0005235474113241123 -0.04637067347915628 -0.000736026141670081 -0.014461247328881368
-0.0023247174419429683 0.0007003281804046437 0.00037805041855382 -0.044464349170363154 -0.001084702066006936 -0.0192646388571584
-0.0015687266531555538 0.0004922602435168752 0.00029297005963116457 -0.0410181875401632 -0.0011797874864031216 -0.024161735251681922
-0.0008678774826942383 0.000291296928783861 0.00023601768698696367 -0.03600982388538415 -0.0012660571691465504 -0.029167215244947524
0.000290998622531833 -0.00020580484099148654 0.00019884033850604913 -0.02896872363286082 -0.0015953033136629508 -0.03438101191829612
0.001589773519697728 -0.0011683197480161305 0.0001076075684738434 -0.017448774655067938 -0.003088360976770687 -0.04036097875759602
0.00036486614014719174 0.002124430882584115 -0.00026272803970810393 -0.0010809669868660377 -0.00502045787804379 -0.048942436365548056
-0.0013654238076677755 0.016378477005496526 -0.0009652514194142722 -0.00022562524360626263 -0.000133522891230742 -0.06000105753810791
0.0005026035059477514 0.0020771626554020035 -0.000275015907910425 0.0006143386556928655 0.004739380180598018 -0.048936773557318104
0.0018827593733719435 -0.001268501990033831 7.923643976556696e-05 0.016935109497338226 0.002766356388083989 -0.04034823850756509
0.0007731162798786439 -0.000369546605186727 0.0001462980288716788 0.028373416312235382 0.0012097825454116472 -0.03435796944659357
-0.00014868109691311242 4.92375123344027e-05 0.00014585519415369233 0.0352922320751989 0.0008042723382518858 -0.02912756172032757
-0.0005547025658793535 0.00015248734426274812 0.00014479298679485726 0.04012737495885521 0.0006488430294983692 -0.024095792059649693
-0.0009558480208260889 0.00024062573211266764 0.0001411127067968919 0.04333009476169253 0.0005267002910142671 -0.01915550897358083
-0.002371189484574406 0.0010913954430294393 0.00015027935874480954 0.04488787844145114 0.00021671619349102034 -0.014309968149582365
-0.004745239799282733 0.0041226798595760785 0.0003872344228944317 0.046701497860338746 -0.0008718103473540013 -0.009732561264844694
-0.0016473430964122921 -4.117280410828822e-05 0.001995828332689498 0.04727645616384404 -0.0031672807273055636 -0.006581304380989531
0.0026710878851401543 -0.03554890851985741 0.006407522891026212 0.03655065449307814 -0.005402304068533748 -0.0028949445775933776
-0.0030038913270346405 -0.016222278049362673 0.005575274560401002 -0.02804651233916408 -7.273945925791815e-05 -0.0014584056643535653
-0.008905978460636989 1.4657222280789538e-05 0.004176451914017771 -0.040683795682068494 -0.0026300648762417364 -0.0049673958940169745
-0.018208021296557676 0.007601244390364216 0.004300997896162212 -0.04469386875854599 -0.005966639979682419 -0.00907460318312099
-0.02418208815179471 0.008390608000513484 0.0054887313263280455 -0.04165476111149449 -0.007077589431581632 -0.013623956183574478
-0.0296959976165288 0.00981846777864655 0.006878623926257113 -0.039240221623504504 -0.006738931927992225 -0.01819220469188863
-0.03562316822386516 0.011845327087750143 0.008265769215633182 -0.03616326609497385 -0.005784260051956089 -0.022773097426926146
-0.04148050995895094 0.013827605460856929 0.00959322873108223 -0.03175439611671887 -0.004552287099242599 -0.027479939903592918
-0.04636884885387343 0.01571670640554272 0.010779506376484524 -0.025481954296631137 -0.0030880492726578232 -0.03220678777693392
-0.0493771886580739 0.015886356159900465 0.011596836486016457 -0.016196728952929697 -0.0027487448489626055 -0.03725151090068927
-0.05487485608027264 0.01937274505278315 0.011485668718974159 0.004163516912601907 -0.005618603984625108 -0.044235407082901794
-0.059348935201224834 0.0489521219970882 0.010068080161370131 -0.0002030858587144788 -0.00021504822190428988 -0.058658862663027014
-0.05473655923141105 0.01932359334565212 0.01147986645507941 -0.004583751416151597 0.005170686957154161 -0.04423164299065668
-0.04908587048313037 0.015783140372478525 0.011582158191161991 0.015733566054941202 0.002249236349764026 -0.03724280825742687
-0.04589769841321556 0.015550664091152239 0.010749502251404426 0.02494457853761543 0.0025099016785279124 -0.032190359771418
-0.040797338934126355 0.013588374544314014 0.009537609490043257 0.031106267276027607 0.003883689745002202 -0.027450465098106586
-0.034700901710058574 0.011523584228282218 0.008169953505283836 0.03535570114556671 0.005044145325415595 -0.022721275145683287
-0.02854608422714845 0.009408134161370112 0.006722644324118827 0.03820578479908861 0.005997292077228928 -0.01810563094555968
-0.022973105150741063 0.007978245263632297 0.00524743391645095 0.04033254541900157 0.006465471201571598 -0.013506561855174066
-0.017323020734231285 0.007563887007007196 0.003968980359528572 0.043412381689711906 0.00562432350840472 -0.008995629435760457
-0.008458905277835356 0.0004075503457412192 0.003862703240716394 0.04038028030186223 0.0024904563759278963 -0.005187629896323229
-0.002714393560429181 -0.017194961044205214 0.0055248065924388585 0.02824701255880861 -7.876473540527682e-05 -0.002438438112371194
-0.0070606791387607115 -0.005317840098518112 0.005350543302900874 -0.015528563953710916 -0.004490845006811274 -0.002137170837588973
-0.014677259765137392 0.001986662595622145 0.005653186651396229 -0.023439821432916626 -0.008190574071354017 -0.003565952250532726
-0.029852330015561087 0.01055990759553081 0.007415582262097932 -0.026850525030173104 -0.013061799274272227 -0.007130014792481276
-0.04411530774106605 0.014962323308498076 0.010145286695808489 -0.0249684345342068 -0.014108006963216336 -0.01075862792028793
-0.05728072526138875 0.019119089078422913 0.012988966459434455 -0.02324292616933806 -0.01294823148622433 -0.014293720337517137
-0.07009677393008218 0.023432950842310812 0.015763192912701555 -0.02130915715678069 -0.010780437321714248 -0.017815090412490315
-0.08249031607748805 0.02769965908043419 0.018396805857980793 -0.018570482319236248 -0.007951806312939748 -0.02137642745384728
-0.09426774319670399 0.031636455751800074 0.020767345311080813 -0.014879386841423335 -0.004708671969260585 -0.024991299614187248
-0.10184130165921614 0.035496357200806794 0.02251356514489629 -0.008633580475915144 -4.9041741834654734e-05 -0.02800852916836187
-0.11046650950312271 0.03244016931087342 0.02253820302110928 0.0043886466286894195 -0.0021938574631704057 -0.03200406783610284
-0.11722239715429561 0.08641943374886667 0.01925267710943685 -0.00012849043022484225 -0.00030927167760131963 -0.04253290717534092
-0.11032422564709034 0.032387834038864895 0.022538512308376297 -0.0046544550313073205 0.0015526721423004585 -0.03200525666325118
-0.10154471506502696 0.03538757452904058 0.022511718629066882 0.008340938445090647 -0.0006574827027975169 -0.02801028616059261
-0.09379694267665599 0.03146447097925308 0.020758248939343048 0.014540793648614258 0.0039033675363463814 -0.024992064488907995
-0.08182818434868175 0.027458905084506827 0.01837261500897213 0.01816411005254241 0.00703510062281097 -0.021372932024372394
-0.06925255740874797 0.02312520590227535 0.0157138586366666 0.020806993352279486 0.009781507649264201 -0.017801312838671965
-0.05633813699081292 0.01877094915583396 0.01290410699281884 0.022604564783201758 0.011972578981091013 -0.014262187434459027
-0.043282922800687275 0.014683224028980844 0.010016119703925477 0.024195341385937413 0.013367403735129893 -0.010710229680808167
-0.029373826321782842 0.010569134625178197 0.007240285924056279 0.02622712604371053 0.012779478255548192 -0.007109311327182272
-0.014515828971428175 0.0021989094579913213 0.00548055130834982 0.023433798677343607 0.008245319355740698 -0.0037222040571520563
-0.0069875983541750186 -0.005700686745024516 0.005291130366898175 0.01573327327750453 0.004598894135380923 -0.0027725841200067756
-0.008000794239842806 -0.0018015615197442517 0.006107857693688178 -0.007656610792073749 -0.008990592797454205 -0.0025794026759340415
-0.01816186515509373 0.003061297171502762 0.007068087492833902 -0.010979660884707355 -0.014544430542150726 -0.0029824137106647668
-0.041060798810123506 0.011995516504995645 0.009958371639818026 -0.012344286308638975 -0.021581322508510994 -0.005921209382246844
-0.06464146033391038 0.01828907870596662 0.013898886215673246 -0.011868989950207805 -0.02253180101170644 -0.008812386720267504
-0.08549481302891551 0.02384028197196743 0.01788455171852521 -0.011036705340128947 -0.020309801907166965 -0.01155380560475251
-0.10535069478783624 0.029307362558433213 0.02176642700392944 -0.009901785568181373 -0.016580754813543666 -0.014266386979906938
-0.1246807416345471 0.03481332567415171 0.025468410309407597 -0.008413687579411756 -0.011705755027655194 -0.01701768801911125
-0.14302185132173073 0.039477631727572106 0.028788892070482294 -0.006167277100232605 -0.00591728226485148 -0.019533917686344705
-0.1604443247920776 0.04644984844054828 0.0314397475150736 -0.003018005445588712 0.0023962855300617442 -0.022513539162950638
-0.1685284422754915 0.037702109062013586 0.03158786998047782 0.00838758784552741 0.017399771800771797 -0.020218714665893377
-0.16800884258370405 0.10618340700745356 0.023820720118958267 -8.302512784654913e-05 -0.00043003993676029304 -0.04169678118712616
-0.16837524097925993 0.03764767780876799 0.031593629525121895 -0.008559105749097537 -0.01828921478207396 -0.0202211409591551
-0.16012847890596388 0.04633729393555689 0.031449098016477564 0.00283021491385078 -0.0033704492292464406 -0.022517699978274235
-0.14252987167902623 0.0393013196721138 0.028797304166179684 0.005952758826701697 0.0048151157065886435 -0.019538239959833264
-0.12400948575073079 0.03457000702801809 0.025468814803980052 0.008163039245342205 0.01045925944857284 -0.017019321188982802
-0.10454377538012742 0.02900534280332484 0.02174994815045407 0.00960807314067082 0.01522824377074194 -0.014261105207237671
-0.08471259969869588 0.023523723225864306 0.01784342356480029 0.01069676346353322 0.018997085013677896 -0.011538742467768523
-0.06418353685507981 0.018076816856077878 0.01382925179745509 0.011507548860076903 0.021572970063520647 -0.008793585187651188
-0.04110443830888216 0.012040214872694851 0.0098583113347165 0.012084267561037722 0.021346994794337944 -0.005933329281689729
-0.018412365035048447 0.003225991105631824 0.006970907584853938 0.010995284342382984 0.014893150059494138 -0.0030897672182940115
-0.008208366338085308 -0.0019353884413637456 0.006092481469728522 0.007718692326861339 0.009481573207396482 -0.00300331548852458
0.023527985974462578 -0.06015348658533758 5.170289110040249e-18 -0.02723840684547122 0.01453148890514185 0.005140407132810819
0.02982577448809956 0.0030108230400989673 -0.0037327151018408285 -0.012176670840239283 0.01567970221180834 -0.001611164909817829
0.04362939944158552 -0.013357518108828157 -0.008454205897745605 -0.004351490761240866 0.014707102526727195 0.0004025428009962787
0.06085906185153742 -0.01671865148824471 -0.012027034127653902 -0.0047299321731295255 0.013068607094023457 -0.0002753280133171458
0.08066367356520766 -0.0229771799269632 -0.015511846497373019 -0.0046975466533445065 0.009974438295811542 -2.8255396219068276e-05
0.10066069606953336 -0.028820074140816953 -0.01867673171707164 -0.004817580867600109 0.0059659942962510416 1.9221080902427387e-05
0.12022951003150846 -0.034744031201866754 -0.021406889157086925 -0.004929079046838956 0.0009276101897883197 9.0197766526303e-05
0.139277588537839 -0.04062135898525996 -0.0235021173841679 -0.005191471458555335 -0.004637468172326693 7.14750562054417e-06
0.1577642614591866 -0.04664356255238736 -0.02472484619259238 -0.005454817664969906 -0.008967558769590376 -0.0005853352324038408
0.17384010109980577 -0.05281044689707893 -0.024998249596502417 -0.004392185733991421 -0.0081939083142595 -0.0022484449611357687
0.18083527099099708 -0.056652975028534724 -0.024855817344623363 1.4784900609111863e-05 7.757357910817794e-05 -0.00399022609202081
0.17388357350054634 -0.05282115500906958 -0.025020545483161252 0.004421524907322582 0.008340330075601912 -0.002258680199407262
0.15785762503331144 -0.04666569631147318 -0.024774051237986205 0.005483073319492258 0.009086501854157462 -0.000605443827348508
0.13943616036201376 -0.04065674927527363 -0.023588570482231303 0.005216397500248476 0.004705689315535564 -2.0884165494689918e-05
0.12048390951408645 -0.034796650736838644 -0.02154885037480128 0.00494651525040542 -0.0009459661127134579 5.684906371919959e-05
0.1010673687956316 -0.028898621618740256 -0.018905826426552332 0.004818536461086243 -0.0061253804270389985 -1.7615835263290485e-06
0.0813294010930737 -0.023098871307963082 -0.01587533071592807 0.004679031073649526 -0.010396658529964277 -5.7741630653807444e-05
0.06194940250627011 -0.016913450875162696 -0.012621928176912002 0.004639286201796523 -0.013796052911758012 -0.00010678486345340224
0.04563797660096421 -0.01374092958688065 -0.009296488283273641 0.00418329148716498 -0.016607069833733584 -7.948785569809308e-05
0.03432873137860389 0.0021869716532428806 -0.005273728568816302 0.012074567735345288 -0.014031694881230013 0.001900616693899594
0.029866875745456906 -0.06119056561982609 0.002252174030932398 0.016094575578877845 -0.011854165803431573 -0.009470144472324688
0.014084204698901532 -0.05295742812669188 0.0028055297733589266 -0.01747962076484021 0.0024473049553451593 -0.00048168529645472213
0.015641900019706806 0.0017077186212326153 -0.0019715049164308416 -0.015185662342939164 0.005272643990046505 -0.0014642615185941636
0.025772485598122907 -0.00915683663336092 -0.005362631634485489 -0.01195605531181481 0.008970093211367281 9.613688428681242e-05
0.040667110338220416 -0.013447276444623778 -0.00818182849858574 -0.012414404120774472 0.007522103557925442 -0.0001294822783374516
0.05371253916797484 -0.0182117823758622 -0.010647148473355942 -0.012784685722545836 0.005605307193417971 2.0353642479916948e-05
0.06704339705085419 -0.022907507704169463 -0.012881935462446712 -0.012855057143491765 0.0030546646519155154 2.495128557647389e-05
0.08006260740420175 -0.027592115532358536 -0.014779168821104229 -0.012965691208857676 6.0113378521949565e-06 -0.0001226849796466303
0.0926152083022073 -0.032177603420102216 -0.016227449497625685 -0.013311771458459418 -0.0032688308643204003 -0.0007044308654989464
0.10452147204641715 -0.03685822676776857 -0.017090106410718748 -0.013801295345803228 -0.005804483450109564 -0.0023913953125579306
0.11462189254054453 -0.04239180248664026 -0.017328307120835617 -0.011323986765938647 -0.00534951421103715 -0.006072115940030339
0.11896692582688531 -0.04728121547200598 -0.01725956863045982 2.140242039444675e-05 -2.988670889896735e-05 -0.009737899077424705
0.11466451992367357 -0.04240495181774656 -0.017337198634563903 0.01136613392367623 0.00527613914529484 -0.00607431928539477
0.10461247141978335 -0.03688514932747967 -0.01711227549747501 0.013840619891777876 0.00568981560703227 -0.0023933631446751715
0.0927679521211397 -0.03221978159218466 -0.01627278479115389 0.013343292197271265 0.0030829122187850176 -0.000699881961198531
0.08030259838197905 -0.027652596314129238 -0.014865785464847013 0.012979276320081381 -0.00029750914618204526 -9.903279195093691e-05
0.06741864006859645 -0.022993303795382343 -0.013039772167356998 0.012832737827879203 -0.003501046164148929 9.37188445471516e-05
0.05430615885928332 -0.018337239052423425 -0.010928570028060478 0.012702250175228033 -0.006260616573806328 0.0001640055866742296
0.04165643426580847 -0.013635350713985937 -0.00865259113677473 0.012207224970638553 -0.008540060355526385 0.00019583802001192177
0.027493541187610555 -0.009530345798799572 -0.006167876484216543 0.011426735056270362 -0.010251690287476706 0.00038864012256819246
0.01736589632594455 0.0014937853014407626 -0.0028669449030273657 0.013922960555375305 -0.005612621335926324 0.0010660344100288845
0.01534009742997399 -0.05344279429647237 0.0028631586305873373 0.010375563891935835 -0.0016784808395238007 -0.009989978611244706
0.007808360641114261 -0.03825062794006168 0.003973187503698946 -0.02307016040153179 -0.00038805659150846977 -0.0096347103620191
0.006901950095535761 -0.0005044610236564463 0.00021313520718916474 -0.026372343327783855 0.0012052641939284355 -0.001448000999424443
0.010864645032343261 -0.0023688219409728865 -0.0022382780156363995 -0.02180919457370946 0.0036196518347162655 -0.0004415082518243185
0.019611928827925992 -0.006584925552907381 -0.003948561150087861 -0.022428260048939296 0.0030743219585408713 6.125118522655127e-06
0.026800707607650225 -0.008976393441500996 -0.005312454284979577 -0.022671333134102512 0.0019484556851275705 -4.785440175590861e-06
0.03342109728098946 -0.011305758644553247 -0.006477559148375967 -0.022759991531833997 0.0006574312704108639 -0.0001463511889180166
0.03987271225956529 -0.013600441080420285 -0.007436931771919624 -0.02281450729368081 -0.0008347038534117382 -0.0006440704995821456
0.04585738089444634 -0.015638203366471697 -0.008140979558131724 -0.023062388616113254 -0.0025292105425632804 -0.0018900041509941467
0.051609817718006816 -0.017643966210489487 -0.008539125538656748 -0.02386383679436724 -0.0043857726629648874 -0.004816492672470654
0.05782698929058386 -0.022475842693325327 -0.00858344393456481 -0.020640537753695124 -0.004874178635042057 -0.010901820758018809
0.06114459429459943 -0.03108147192328562 -0.008427992818998207 3.139339907749443e-05 -0.00012520431232791311 -0.017939794287768356
0.05786815259734001 -0.022493755892051475 -0.008578533255866968 0.020702113684645057 0.004606304666990702 -0.010896720290662154
0.051696589022369864 -0.01768015365388207 -0.008533113358460609 0.023920358608263154 0.004065905737821821 -0.0048018322315163805
0.045999683781717954 -0.01569328598525284 -0.00814265859629862 0.023105330807320374 0.0021242908671666207 -0.0018549387173706538
0.0400891985485395 -0.013675370212644302 -0.007462508018219165 0.02282631073578818 0.00031403615418705664 -0.0005661764810370589
0.03374622692021474 -0.011403890231382144 -0.006555247957192374 0.02270964508302324 -0.001320751591597565 1.3236555423154369e-05
0.027300084788481636 -0.009104474377500917 -0.005487889093940238 0.022509354878049843 -0.0027822162813427964 0.0003112680426563206
0.02042091616938316 -0.006766067805368831 -0.0042953139106627295 0.022059536717014418 -0.004109429502913852 0.0005312536517522701
0.011897174975621759 -0.0025838438448169978 -0.002837490624891736 0.020946626571123186 -0.0046670640920465755 0.0006138817392243814
0.00766310570431969 -1.0333890885143418e-05 -0.00048596571076843677 0.024629192533064958 -0.0014191744594016398 -0.0004577602516535267
0.008275453989444109 -0.03824254212981336 0.003579541055001481 0.02107158146171839 0.0008672533838558226 -0.013501489919495178
0.0026467451224172797 -0.024122883570309242 0.004618133726147786 -0.02181328751253442 -0.001252874091963 -0.010563489763400779
-0.00012463225973029568 -0.0013397783990738718 0.002236837222876916 -0.028973662874413424 -0.0011964563717222984 -0.002597360755852441
-0.002224473286025394 0.0020384155117510383 0.0009088030194178221 -0.027549151019140402 -0.000748538333610187 -0.0006553383307569317
-0.0009205014054630932 0.000386979214557355 0.00040184352763639864 -0.026022400991286495 -0.0010464035686329341 -0.0001621163546930105
-0.00023493991784912698 -3.746131395389188e-05 0.00022032897285899762 -0.026018701827637283 -0.0014055858855770724 -0.00013891959424377237
-0.00018739469869425508 9.082616881487358e-07 0.0001712325359720655 -0.026076505484913894 -0.0015951644552126185 -0.00041178403010033233
-0.0002612390839294137 -1.4254921650734948e-05 0.00019839076613287543 -0.026137699380570503 -0.0017258684968136622 -0.0010722955575791305
-0.0007638082050849706 0.0003173634996671295 0.00028361175569623553 -0.025957589689945302 -0.0020613595236835644 -0.0024862661916935473
-0.0010871911889000553 0.001144456484690496 0.0003855676185330935 -0.026788145154161537 -0.0034930567669343147 -0.005521727043889454
0.002091804687898571 -0.0031040772188511453 0.0005369798278174108 -0.026219418746560703 -0.005399413548101335 -0.01215420502846194
0.005169541586179251 -0.01942172630434557 0.00082179807451612 3.413634860445852e-05 -0.0002156844816901636 -0.023033346569014033
0.00213115317618796 -0.003126637628049122 0.0005559742197360777 0.02628633107840337 0.004947035762961228 -0.012146985806477443
-0.0010056934457147427 0.0010993455869284597 0.0004204924224885312 0.026849380137095983 0.002979167063895009 -0.005502181098901088
-0.000634312120917014 0.00025017125622146363 0.0003272136185911958 0.026003548874757983 0.0014507225737504133 -0.0024418768276286726
-7.34932386038269e-05 -0.00010209799473180822 0.000236784074734721 0.026148415663426582 0.0009944453015608722 -0.0009781655018783828
7.774384387475032e-05 -0.00010571427660933155 0.00017987529185644414 0.02601475598266718 0.0007380541517926369 -0.00022048651111750288
0.00015175851530555142 -0.00016400577462046377 0.00015773757269536482 0.025821403801841728 0.00044342953712697626 0.0002266794340662327
-0.0003760223302354226 0.00023496674035783317 0.00020291570103343065 0.025579795534816922 4.1051232428928525e-05 0.0004996328036474647
-0.001670010189565996 0.0020365347822291087 0.0005145167299691726 0.02666130918777118 -3.571309529696102e-05 0.00041308500452156725
0.0002310430832248111 -0.0008139224609683882 0.0017110841087080633 0.028043052836660785 0.0011308757130476792 -0.0019529221266629771
0.0028748829179122922 -0.02419241483320038 0.004172763264352692 0.02116621964786164 0.0016398988813957347 -0.01287493773522637
-0.002036220680897777 -0.01252118772202463 0.005211157855587742 -0.016515710953536197 -0.002113546141440074 -0.009136167373610976
-0.006551358870127854 -0.0005031000794231986 0.004091230334557075 -0.024544715978289007 -0.003412453326379992 -0.002648642838681085
-0.014448479813370285 0.005462768356021228 0.003987397086148567 -0.02537316402803636 -0.004822574185207766 -0.0006804598975377559
-0.02088830148600575 0.007006844851644245 0.0047238071379131705 -0.023065929532111267 -0.005153668232319623 -8.33752984716216e-05
-0.027245558244315685 0.008983169176958558 0.005745281918416333 -0.022588584476348268 -0.004796874276058602 3.0097135078343107e-05
-0.033860093405057454 0.011307753296437366 0.006815132523179684 -0.022707039347983075 -0.0038776219200421878 -0.00014994068069871857
-0.04034502479102447 0.013639956590986794 0.007831940125392907 -0.022761290330838263 -0.002671758331931294 -0.0007001040687717275
-0.047050747811969676 0.015925835009937418 0.008714651595114763 -0.02255793468943586 -0.001489312649640844 -0.001708757348395694
-0.05385106567858935 0.01971276298785666 0.00931009927691223 -0.022179489347792642 -0.0018598955787490188 -0.0038618157426612756
-0.053953609525645686 0.018716229913506775 0.009477963816328231 -0.028040832359272704 -0.005746565675019163 -0.008883554898946561
-0.05078242164786809 -0.011622997028695818 0.009756724788752698 3.214404791183498e-05 -0.0003080974692642326 -0.024090836656711957
-0.05391600440733565 0.018688869017087828 0.009511220183187662 0.028104104146802315 0.005105507827734994 -0.008879533911272218
-0.05377474600197621 0.019658446458525193 0.009374370236255503 0.022238302565307944 0.001146842019667922 -0.0038493217441610927
-0.046934017800627705 0.015846096550123406 0.00880433433016505 0.0226041913823044 0.0006662659738721758 -0.0016769252629985321
-0.040186395203184705 0.013538796319848946 0.007935704594608625 0.022777554262358165 0.00172051291586478 -0.0006269447805664688
-0.0336562330788651 0.011192690450046514 0.006912043355104682 0.022658788951676025 0.002816564640077993 6.4423345242980095e-06
-0.026988330286077226 0.008861432134973764 0.00579894898545125 0.022413791936201338 0.0036999294590309107 0.0003463340005619831
-0.020593837923882738 0.006908889606429272 0.004678127037296627 0.022662910796208722 0.004175867141941024 0.0005079788117412478
-0.01420935912563423 0.00553570383270793 0.0037849966069549 0.024749865329356326 0.004240071053532423 0.00018571150320412377
-0.006406209850006603 -0.00013459446067833498 0.003740268804792918 0.02414503566868944 0.0034338924114371535 -0.002205244158482724
-0.0019218460540700924 -0.012584042903935005 0.004826406582183192 0.01636647323024888 0.0024325075131361347 -0.010669072783396823
-0.0059919164596195385 -0.004971868521586975 0.006045515262307091 -0.00863689962849587 -0.0037877033416964293 -0.005930602374870993
-0.012496156316378269 0.0012365114286579425 0.005856140226411786 -0.013722510340159073 -0.006313833423792128 -0.0018025946363158755
-0.0263463516997976 0.008743134399914445 0.006927111585344659 -0.01463722772278596 -0.009323807212525806 -0.0006213284834834891
-0.04062183675409548 0.01364847304304928 0.00887603713008531 -0.013122969621705718 -0.009676422661776693 -9.827362366941886e-05
-0.05425908414554021 0.018283173431434575 0.011057593960790375 -0.012694363592276376 -0.008538239617870492 4.541181567487106e-05
-0.06755245767369988 0.022968338055863163 0.013200709789635936 -0.012795786365721786 -0.006390027584734619 2.5547254568235067e-05
-0.0805940961330421 0.027636987570079485 0.015170416376278462 -0.012914662422395513 -0.0036089783907183527 -0.00016078071118803312
-0.09281424674059773 0.03233635398367937 0.01681631134675742 -0.012674909675544554 -0.0007757367667935957 -0.0006509750827431132
-0.10621781662595925 0.036503856273041334 0.017904358578747358 -0.013074927461439453 0.0017374470651736903 -0.0010210174597816493
-0.11172986521750687 0.046309438492872064 0.017737934513232436 -0.017710276661002423 -0.003626368560674143 -0.0033200228321601617
-0.10959342781385874 -0.005463001244824828 0.017290702639380675 2.2292475011980307e-05 -0.00040924519801379457 -0.01773390353753725
-0.1116935513063267 0.04627692441252362 0.01778550949077567 0.017754464197483145 0.002778157974942364 -0.003323936907664239
-0.10614555905015052 0.03643954761569514 0.01799806080818408 0.013117074563724448 -0.0026712563181659674 -0.0010264161762571808
-0.09270799765047989 0.032242657427991886 0.016952093248885195 0.012710569859307054 -0.00028698789288052797 -0.0006517422791741276
-0.08045980289685416 0.02752011376280899 0.015339198447040497 0.012933628986439308 0.002401728539259183 -0.00014426085509313885
-0.06740358676869469 0.022840664097649427 0.013384517940880143 0.012777330608770676 0.0050762124581071625 8.481831335538301e-05
-0.054122832077186094 0.018166987366692738 0.011224335719660816 0.012597548720661766 0.007246210907909203 0.0001982204283318066
-0.04054273338834684 0.013592069355895967 0.008974962354633938 0.012895157053677065 0.008655057696060717 0.00022376643256226237
-0.026351024082764542 0.008831837221015002 0.006896157799062296 0.01433035715113004 0.008882026948870832 -0.00014851537913608163
-0.012513521484520904 0.0014580288800288535 0.005667723966688818 0.013586900489996166 0.0064540054009147325 -0.0015713064838542997
-0.005980001091368626 -0.004965380515861202 0.00575633579775705 0.00860561311191605 0.004149093005582696 -0.006807882311461814
-0.008050366458578345 -0.0024072425276660497 0.007335472981713924 -0.003308085109100179 -0.0072414194736282675 -0.003843594189735387
-0.017245724199733484 0.002213202467693705 0.0076204374786661006 -0.0053700416408206985 -0.010875623059400558 -0.0012531652361180146
-0.03823045457889411 0.010419051835340618 0.009634944973080838 -0.005273805573624143 -0.015135309853452624 -0.000674437206514003
-0.060659567852039915 0.017051164516736706 0.01264955686332875 -0.0047820091087450904 -0.015260245667751953 -0.00027938866768507215
-0.08133024353968862 0.023031487939285066 0.01586000956826665 -0.004675504039341608 -0.0131205424182404 -0.0001390137272387941
-0.10123855776019383 0.028939562063812454 0.018962983943633927 -0.004784331575435451 -0.009446149961829136 -4.508019141094609e-05
-0.12080778143090928 0.034726234412874236 0.021787132683149676 -0.004845276287736422 -0.0047524290066752895 2.5652595393183463e-05
-0.1394373278078221 0.040998323824817134 0.024123024069613506 -0.005064953360314112 0.00043876521746185585 1.2909544966266281e-05
-0.15480638043209533 0.04408614097757959 0.02565645155557996 -0.005214433366567152 0.0057831966612130244 9.437304054627199e-05
-0.17096379027923014 0.0619567900314774 0.025124617609051207 -0.012640175509340951 0.008627615889492974 0.002044101307494225
-0.18068090026799566 -0.002269973109855148 0.02097883986263294 1.0701426865014586e-05 -0.0005265297191092623 -0.01885656613951905
-0.17092823372258942 0.06192159869245289 0.025186378824762233 0.012661605767961324 -0.009717010171632665 0.0020367593775087386
-0.15473663232788096 0.04401659845247484 0.025779176620874058 0.005235611394159274 -0.0069773111082840535 8.095046950407046e-05
-0.1393377403926201 0.040897222329589956 0.02430383852377684 0.005084392590417458 -0.0017907541462598416 -3.4080322587914415e-06
-0.12068923847124056 0.03460063743032524 0.022018365386481484 0.0048590572224663335 0.003223326409355872 1.299062555671092e-05
-0.10112663915893845 0.028804313232727047 0.01922790382351661 0.004784137356189346 0.007788334851785155 -4.070534332419485e-05
-0.08128107649605158 0.02291644087231512 0.016127249125748186 0.004643752971885918 0.011507067695994683 -9.059731171663733e-05
-0.060757437411179054 0.017011178037577564 0.012867585494629415 0.004695193516498279 0.014045922176745237 -0.00014580685325701198
-0.03848561802600167 0.01051326201998786 0.00973484753377279 0.005147084539032995 0.014773831896450875 -0.0004709474708455779
-0.017471316720118497 0.0023786684908865333 0.007560090677895903 0.00530650597545158 0.011332608724629418 -0.0011628427128490778
-0.008185653008835942 -0.002357443603745039 0.007158278406930462 0.003256239306682997 0.007993550758821934 -0.0043743512938610694
0.03266314963147688 -0.05201886521682607 4.472333961502706e-19 -0.001711632387387291 0.006278673246152434 0.0005448299026000724
0.03434923788581302 0.0003174703821124757 -0.0034875573372503597 -0.011777148086132706 0.008560156211932637 -0.0006532355085072327
0.04299079762350886 -0.013897955526730541 -0.006661061581745592 -0.00465994698945326 0.00805634577138416 0.0006309961844804654
0.059247411687079296 -0.01764468666447526 -0.00961051786365961 -0.005324886234177352 0.0067344939617086175 0.0007281039913722465
0.0779924198538162 -0.02398504140576357 -0.011886706252838313 -0.005579839579165558 0.004330505110630095 0.0010047658060105362
0.09675318164017414 -0.030129321208189713 -0.013484468574220336 -0.005858798779454575 0.0013198208716992486 0.0012909097141185866
0.11546637306347458 -0.036590560775983626 -0.014294199818748809 -0.006235089057915204 -0.002082994738342513 0.0015589471593119575
0.13506198468341607 -0.04352509517951584 -0.014241011528221683 -0.006951240079146545 -0.005333751096519596 0.0016795244862734427
0.15700757001204138 -0.05164637448349747 -0.01336000327893519 -0.007804060590003897 -0.007150813368403796 0.0014148820579559815
0.17907671330830324 -0.06113286609246518 -0.012026903023594273 -0.006555751552447061 -0.005550282048537239 0.000612770329834372
0.18938737633773187 -0.06729690543560918 -0.011255779713802155 1.5167847037891337e-05 7.168846245883445e-06 -6.728766778508039e-05
0.17902600941245447 -0.061112835251599246 -0.012034827647695789 0.00658701330000324 0.005556374520843921 0.0006040705306486179
0.1568984144914737 -0.05160109405324734 -0.013381571796894977 0.007838188201253756 0.0071312610717001795 0.001397586387268877
0.1348775138246134 -0.04344313091025851 -0.014288849492029545 0.006990634799891071 0.005267158160449283 0.0016545106129880786
0.11517698204899153 -0.03645223619762792 -0.014390192303831584 0.006282384675156197 0.0019360030244624502 0.001528803917929767
0.09631192998754538 -0.029902720052660287 -0.01366174771519107 0.005919344590992235 -0.0016074041785488795 0.001264880836640918
0.07732100009723704 -0.023622320865835936 -0.012195478958413166 0.00565039866803659 -0.004873387372047701 0.0009895657905647267
0.058237138823805545 -0.017077422432558147 -0.010103898838846801 0.005454181049503246 -0.007663162211414223 0.0007907849158802801
0.041158112381586905 -0.012961968900876414 -0.007483689482763195 0.00484451079325766 -0.00948938795327268 0.0005796839606413535
0.029593568839460065 0.0018697874732637985 -0.004436518674679531 0.01150911865588446 -0.008637983971030128 0.00046657834304353546
0.025608138734128552 -0.049449318321787096 -0.0038942283731148554 0.014782212996928348 -0.007635613502917299 -0.004560287379976313
0.01442147830139735 -0.044836448922568675 -0.0005140407132844038 -0.0029196460537372097 0.0033241792836856262 -0.0016271954372180037
0.01674048888278491 0.0005863686471829837 -0.0015989947333068517 -0.013365824482713166 0.004029722264649385 -0.0013688820139608241
0.0266088113064302 -0.0101309799581026 -0.004158597219370221 -0.012052425361709166 0.005044389247549155 0.00015143871378794305
0.04011571484490425 -0.014413835587747873 -0.006257550260938899 -0.01328355458077778 0.004217429146486693 0.00038266490551937607
0.052369553648736585 -0.019301035932138895 -0.007884875354811735 -0.01404155049115009 0.002671561657593005 0.0005590408389094078
0.06487323228537928 -0.024262831827629283 -0.00897287919158528 -0.014541146514726412 0.0007142467124770674 0.000646122256414142
0.07733385142597521 -0.029412693796223497 -0.009505483596112441 -0.015357136731202072 -0.0014224627639216653 0.0005632478669946838
0.09022775635228152 -0.03481396764884404 -0.009461229478806241 -0.017046119613147566 -0.003395249504975265 0.00010135963472179756
0.10422047642470635 -0.04112412323002218 -0.00888990553651817 -0.019509035082636943 -0.004468845441404049 -0.0010739133382185392
0.11786013517373725 -0.04973255118543641 -0.008006397433719043 -0.017097002079044136 -0.0034852541356040845 -0.003040095164049384
0.12413266852160129 -0.05748983606786726 -0.007441609944885897 2.9418179213166085e-05 -6.43650367093046e-05 -0.004443486291415014
0.11779793795867254 -0.049716495729511506 -0.007985963077795638 0.017158531802548033 0.003344340117873613 -0.0030421608534423592
0.10408914358903595 -0.04108720739823824 -0.008853493775485907 0.019579103871759887 0.004290888893428893 -0.0010758979293013025
0.09001278767672816 -0.034745723115302024 -0.009419196073531044 0.017132128241701787 0.0031530170512898627 0.00010501184122077322
0.0770117324097367 -0.029295146174997764 -0.009476712460708048 0.015469277060211773 0.0010819042752398247 0.0005843291707109591
0.06440709765953906 -0.02406659983197743 -0.008989155027902882 0.014693893525701853 -0.0012050081427006259 0.0007075237552821641
0.05170688771198687 -0.01898102977395665 -0.00799310124762882 0.014251318711370038 -0.003390057909100722 0.0006972674289705958
0.03913642843805276 -0.013909649401588309 -0.0065353001302113365 0.013609248580787721 -0.005278752729946078 0.0006600261170137203
0.02502787633762441 -0.009269745153131998 -0.004676066551885108 0.012681193447348577 -0.0062740497091503524 0.0005833706877020354
0.01534153971632437 0.0013639339080941417 -0.002632376315913322 0.014529686546355272 -0.004510634138459935 -0.0001691460646310198
0.013602756923743851 -0.04290961669833879 -0.0029472139258854765 0.01097962546336634 -0.002949639375670177 -0.005898890251454253
0.007416713291226552 -0.031460793941891295 0.0009254697054414541 -0.018922627413098688 0.0011662462662543405 -0.0056099767332177
0.007200263981850023 0.0004143968561312876 7.219735583440295e-05 -0.0232642084239199 0.001467198906285788 -0.002069031664242381
0.011757383514440925 -0.0034921532862599225 -0.001609223385411469 -0.021686212014735598 0.002052726416221634 -0.000527281563585551
0.020063025060578926 -0.0074962907071115005 -0.0029770006474731073 -0.02343288707170476 0.0016945961375986662 -7.5495124238989046e-06
0.0266637683833764 -0.009903933461212086 -0.00392708050527977 -0.024341352438728606 0.0008244113197088333 6.430349976786264e-05
0.03279723457757766 -0.01237210240739859 -0.004500586865608995 -0.02520461947158529 -0.00020708211135490125 -9.410584103311015e-05
0.03882547403356184 -0.014900474931509415 -0.004721362485818313 -0.026501013527447572 -0.0012766175708903823 -0.0006133893629847744
0.0446829332476021 -0.017173470816103598 -0.004609671593165006 -0.02902416078110741 -0.0022725976536608792 -0.0017705777005406532
0.05129901968460547 -0.019793756633378012 -0.0041914159568152585 -0.0334074295822679 -0.0029546679129189455 -0.003980409130587939
0.05999637625837821 -0.027511410751777376 -0.0034854599422259646 -0.03099851813236524 -0.0025372896257920964 -0.007297743518331686
0.06495391113996819 -0.04077422070515641 -0.0028621804761321252 4.746783837342817e-05 -0.00013459541163610787 -0.00969557192925865
0.05992388734894524 -0.027503542018812152 -0.0034370493432057028 0.03109794026613794 0.0022527661435309564 -0.007293374040934941
0.05114817418271029 -0.01977407409410912 -0.004097946641768177 0.03352111764770027 0.0026243880286372203 -0.003967196422151662
0.044442330774812994 -0.017133479936704343 -0.004479542689642501 0.029164587163188607 0.0018666420112441048 -0.0017375420398430884
0.038478219653272173 -0.01482571912521265 -0.00457154305948392 0.026685938353039233 0.0007645532167230454 -0.0005383262641955111
0.03232018599101445 -0.012238050849590378 -0.00436175536263194 0.025459622787922954 -0.00044516385309996843 6.29433410383671e-05
0.026022988228680124 -0.009673560420828797 -0.003851103148672267 0.024703365523405324 -0.0016622939725844887 0.000371415122016088
0.01918586980975797 -0.007106591217674653 -0.0030432855541391106 0.023985999592119844 -0.0027482677402645506 0.0005247387336991267
0.010850947855290161 -0.0029407074713693857 -0.0019349820590149804 0.022684517837466403 -0.0031058544530106324 0.00042708015905933627
0.006794104742075992 0.0002948504204052198 -0.0007866698519616672 0.025004033711971876 -0.001766811283513423 -0.001251515399252624
0.007395936942149493 -0.03025324052656403 -0.0009123121109134135 0.020703887272135277 -0.0007960567663224391 -0.008677260725765636
0.002201194469729673 -0.019875610192757992 0.0028653931676284523 -0.020387222177956868 -0.0001388608003029919 -0.007193215751925744
-2.4024509475657062e-05 -9.43436804516183e-07 0.001909391900338128 -0.027271172161685602 -0.00044634068208650873 -0.0024301943190620837
-0.0012966079007959278 0.001482608451475848 0.0009332587479435286 -0.027055546215972424 -0.0006389692111130259 -0.0007275804749540951
0.0002349942860189481 -0.00018471108212961103 0.000312244287267168 -0.026955501123814465 -0.0008200526193831683 -0.00014105114892444006
0.0007715355161818625 -0.00041009635603539256 4.2895198092779344e-05 -0.027754698659876304 -0.001075452350810163 -4.35735312433092e-05
0.0006083946378392678 -0.00028091426151982885 8.158996217858412e-06 -0.028735822603377474 -0.0012643153059230894 -0.0002770674647902827
0.00021025459995586098 -0.00020459368635197654 0.00012931355534765817 -0.03022748796713565 -0.0013656870515169513 -0.0009291050535591864
-0.000906398077205908 0.0005086153807709132 0.00035941810400466417 -0.03238004381211598 -0.001497723772361081 -0.0022649663338308195
-0.0015331112192438123 0.0018761219883951814 0.0006879071773074863 -0.0371179050244462 -0.0018768521352900613 -0.004700325604649765
0.003515688378237196 -0.005124302627079478 0.0012830473818236721 -0.03876666985310701 -0.001993111297738476 -0.008481046466502247
0.008331677021814284 -0.02931325894807759 0.0021292540871358724 5.3793022321598174e-05 -0.0002046241731575313 -0.011571106489962256
0.0034332522618689275 -0.005124940148531169 0.0013594874063810089 0.03887935266705594 0.001565681181753558 -0.00847472055893958
-0.0017026918964678668 0.0018778935933406178 0.0008385173587624873 0.03724677828148226 0.0013960405699401544 -0.00468245291743076
-0.0011713265137767454 0.0005192526159374956 0.000577620162419779 0.03253920098850979 0.0009320972210949122 -0.0022228080308653677
-0.00015954346201673127 -0.00017413605209699282 0.0003999229886365226 0.030437147594059827 0.0006908874198412628 -0.0008374048292621497
0.00012534350333519802 -0.0002122419749915183 0.00030041974472061326 0.029026964394907703 0.00046612638088728935 -8.889357303647835e-05
0.00016312971403220462 -0.00027148406097828314 0.0003009067721334047 0.0281768973715365 0.00015269548737169628 0.00031693491600969697
-0.00045869657409099124 6.886945218484235e-05 0.0004443895082982554 0.027598221598049467 -0.00018425291399773555 0.0005082656824395368
-0.001805063146419701 0.0016743478098447786 0.0007942644270351895 0.028070819921760387 -0.00019228731755197996 0.00028788282098582234
-0.00010406612075629575 -0.0002076972745940709 0.0012589861020127495 0.028118267061589253 0.0002711164742269008 -0.00183490251199496
0.0023459696201778525 -0.018879568794775134 0.0014419230320599462 0.020744911306124988 0.00043064125829206715 -0.009187880041894443
-0.0024369837403407533 -0.010427247226366097 0.004867431113549816 -0.01626609468369233 -0.0012375885617244473 -0.0067595790457757425
-0.006480695719476714 0.0005557960314266602 0.0038209843974218232 -0.02389039897838395 -0.002209463618104882 -0.002075255294542773
-0.013409957060455108 0.005367283848940886 0.003463320884050112 -0.02520167488695888 -0.003237552059730476 -0.0006202134944269916
-0.019110761117599837 0.006891756980138112 0.0035872095697315467 -0.023977406639413695 -0.0033143836165570213 -7.066643287217976e-05
-0.02512838822840554 0.009167737445846777 0.004000467809392335 -0.024282239685000217 -0.0029869630822631625 6.725626060539478e-05
-0.03165380461225501 0.011817829320993817 0.004509532534322674 -0.025204851244361212 -0.0023350634841557364 -9.546597792224277e-05
-0.038308038752113006 0.014582349268394476 0.004977489707859003 -0.026456106868871697 -0.0014727925027019592 -0.0006207536307165973
-0.045875957314450364 0.017607871889062904 0.005326341221843179 -0.02808893240300407 -0.0006860492452926833 -0.0016984008382715605
-0.054256510193232584 0.02304624581629973 0.005539060522585514 -0.030348636518869765 -0.0005995197745721578 -0.0036541283989822977
-0.05353292280280307 0.020689048751249488 0.005867017998514762 -0.04026613358891033 -0.0012559911148150942 -0.0071213169175290015
-0.04868848425749351 -0.022393185919686195 0.007019917107791459 4.7629134109614365e-05 -0.0002760295725274594 -0.010689187973857144
-0.0536258517960345 0.0206798964737453 0.005972013109761016 0.040365886387608116 0.0006827182096350621 -0.007117510471519348
-0.054446025126109375 0.023030073438654597 0.005747946309106136 0.03046264253250948 -3.5338794997547386e-05 -0.0036420708753392922
-0.04616731343941587 0.017589157228442856 0.0056345442594263875 0.028229505432264483 -4.377066353095863e-05 -0.0016672621324095422
-0.03870342611774869 0.014568429041441929 0.005371831970529303 0.02664092700352279 0.0006289851748660785 -0.0005488007316481391
-0.032146823811356105 0.01182050544877841 0.004959594076879804 0.025462829091703477 0.001383378047352333 5.791033052632447e-05
-0.02569282382906724 0.009210555987082468 0.004446011785072402 0.02466245770634726 0.0019726893397930103 0.00037433045680401343
-0.01964947337997943 0.006980225592307181 0.003922983501483803 0.024557974777427605 0.002356767589632972 0.0004981064123277623
-0.013712389587710743 0.005371461431813015 0.0035251175944435295 0.02590592267226082 0.002590033704545032 0.00020456334229855297
-0.006456886088632739 0.00042700991177964853 0.003392869720710135 0.02420253180224353 0.002120996958740728 -0.0016351268729457974
-0.002271910118994845 -0.009725770829160188 0.0037922606906118706 0.016161568045032944 0.0014747743243537334 -0.008048699302413862
-0.00636888832499915 -0.004321246915327039 0.006704425543606823 -0.008788973090517679 -0.00262439424721894 -0.004088150732858541
-0.012427372673729278 0.0018284347510862237 0.005686581356522576 -0.013669709594551518 -0.004227497474251309 -0.0009027917516415212
-0.02513137887539042 0.008833684575157184 0.005960973910587728 -0.01486336250882047 -0.005957346609696441 -0.00012143610253504471
-0.03817152192627778 0.013728461674432578 0.006826596826206946 -0.013940009816716798 -0.0058234613859093395 0.0003210603657618192
-0.0509639681666081 0.018656527070921587 0.00791927225448877 -0.013976940005907516 -0.004859888760990375 0.000551898727246076
-0.06381613527533377 0.023791408863436184 0.008958988102175517 -0.014537903519033411 -0.0032976175325460876 0.0006428473683837055
-0.07684912497657645 0.029111580809891204 0.009755481796041857 -0.015319757640800303 -0.001368732013619567 0.0005584950178995764
-0.08966975823209009 0.034847879401566494 0.010172393135164742 -0.015989674645970252 0.00046753191530730053 0.00017651432896747496
-0.10576182535484856 0.040522351023474276 0.010196562174627303 -0.01777670965275667 0.00143887268289205 -0.000639518301803837
-0.11308101479378845 0.05350349089802649 0.00987888968516617 -0.024149239208100845 0.0003947617343116783 -0.002833907941421606
-0.1105761175492674 -0.017461459659449834 0.011102657154802274 2.975959894966032e-05 -0.0003503754786030846 -0.006873268784713528
-0.11318587053079228 0.05348614335751874 0.010013416502525416 0.024211483392021452 -0.0011204251782399302 -0.0028371731319451307
-0.10597440319080642 0.04048888305591073 0.010465882218872872 0.017847556751158282 -0.0022365013609498257 -0.0006439111632651966
-0.08999294063605026 0.03480083668247887 0.010574385676344361 0.01607641229119876 -0.001374590565700708 0.00017640386715089395
-0.07727922043676767 0.02905478273614386 0.010279777155312989 0.015432794558101889 0.0003352658734914923 0.0005739288271236903
-0.06433050050359848 0.023730616990259648 0.009576764188755662 0.014694083071726816 0.00215945650676199 0.0006962504120544764
-0.05149835997906804 0.018598440902940556 0.008567417208591796 0.014207985790223145 0.0037065713660445073 0.0006876034869148671
-0.038597705524012337 0.01366180499672399 0.007387833075175991 0.014277814862198833 0.004850300307866298 0.0006065065235203817
-0.02530407842085329 0.008712252674268131 0.006252296171170915 0.01520772176068534 0.005444931307579522 0.00029987271487824527
-0.012349283318074594 0.0017399724232382812 0.0054931843224851375 0.013745503679925488 0.004257575021061576 -0.0006798215537106151
-0.006198364602122521 -0.00392076408061107 0.005931350151788733 0.008633361000275194 0.0029076291098567766 -0.0048087608556302685
-0.008478435010954279 -0.002271664507966567 0.008114616276872247 -0.0034260116646701983 -0.005056640045700086 -0.00209829166485809
-0.01720061919611903 0.0025698637657010103 0.007432463767467935 -0.0054726419196220386 -0.0069679562137555055 -9.56688241749313e-05
-0.03673914720925502 0.010518320538429483 0.008439704762400675 -0.005671529751816082 -0.008905074651166264 0.00025468161603814355
-0.05737911874018511 0.017113584127532225 0.010078697199917415 -0.005461857658642434 -0.008317596746236285 0.0006248466118340713
-0.07670810240273107 0.02334822300198881 0.01186512062876789 -0.005538370236409482 -0.006571878271811632 0.000940984409212132
-0.09578401710304839 0.029733192929573445 0.01343108576664641 -0.005832516406947666 -0.003954705123294365 0.0012518317846502676
-0.11505742037963408 0.036215398756844985 0.014524228684563337 -0.006125230339559411 -0.0007716430954114045 0.0015300461355852127
-0.13411728158922306 0.04374134730058402 0.014970942434405254 -0.006775689318834053 0.0023718181385657413 0.0017359612439897785
-0.15119254773892538 0.04769009568134867 0.014655790671425212 -0.007167498999435325 0.0044104360905192295 0.0016411176242562629
-0.17459455171961952 0.07207086426454218 0.013505311647938827 -0.01578585272973241 0.004212100620417164 0.0010153903961020916
-0.1903078607144042 -0.014897390665494968 0.012988313768753064 1.5477423680879294e-05 -0.000428735483274058 -0.004815408954603368
-0.17471358824811237 0.07204954130068514 0.013670717908095084 0.01581840427400834 -0.005099295967734205 0.0010083071313671515
-0.1514330895144272 0.047648233866182624 0.014988563598104172 0.007205024175277026 -0.005383674280327819 0.001627504077471793
-0.1344808470771097 0.04368050869301016 0.015472144024298263 0.006822251473730403 -0.0034763716750929098 0.001717420324608505
-0.1155364596743498 0.03613781738326761 0.015187628251071518 0.0061861845321700346 -0.0004852425016782913 0.0015103773611751274
-0.09634357535540168 0.02964136122086563 0.014231759400314807 0.005915450901579128 0.002572683882123947 0.0012398465229133077
-0.07725044829818575 0.02324018386933984 0.012740915392988227 0.005656234770765135 0.005185505298246923 0.0009566501434007342
-0.05772667628627462 0.016972203777934142 0.010904505044466783 0.005625711920867277 0.0072035231707193986 0.0007024686368087264
-0.03675967117033805 0.01033417164195099 0.009009840301624732 0.005842169649318858 0.00846839611156733 0.00038970932494747915
-0.017007171944707435 0.00247890997584317 0.007496864547464327 0.0055365485208769645 0.007277741612564343 -3.149589242632215e-05
-0.008246965304146259 -0.0020125581142143743 0.0075821900159915604 0.003378620706895188 0.005686196547350021 -0.002529846994858336
0.03464892049483518 -0.05029936313027316 9.75781955236954e-19 0.003896078664416625 -6.79981787023165e-14 -3.3197199871860816e-14
0.03544159080203335 -0.0006512926139976023 -0.003013763158186004 -0.011555166748240859 -3.4621617909808694e-14 1.2273778456257933e-15
0.04281204521229068 -0.014168524856896805 -0.005655486650020476 -0.004491806531640807 -1.3402188972326534e-14 -2.6736154522949418e-15
0.05845992520603666 -0.017954389503930853 -0.00816008694130799 -0.005341337768024495 1.986834362397577e-15 2.906705366852169e-15
0.07681595720472915 -0.02429581103473137 -0.009934974368682077 -0.005711221058873409 5.488404191842863e-15 6.989024701857527e-15
0.09532138864831079 -0.030570472764648637 -0.010835125856358504 -0.0061394194081672545 -3.052395033779909e-15 -4.783771035549167e-15
0.11402924610095638 -0.03729579175392964 -0.010789403619844557 -0.006686687317960571 -1.3672182418329737e-14 1.051228873914789e-15
0.13416380010395884 -0.04469021029168649 -0.00981355777608317 -0.007577638858754538 -8.14183654307063e-15 1.759710270294451e-14
0.15738017533869775 -0.053468492288558676 -0.008113485400715853 -0.00852085206332597 6.7738512282006225e-15 5.541519933899286e-15
0.18108779153167173 -0.06363340101547553 -0.00628331752131258 -0.0071191335204721104 1.5093659557884748e-14 1.3555779762586262e-15
0.19220333970805492 -0.07014984209667416 -0.00540668435199216 1.8788002810549696e-05 2.0346666517422063e-14 1.0417421049055409e-15
0.18099718916599672 -0.06360027268671148 -0.006285004441592353 0.007158445099192564 3.6448376597702364e-14 -6.929230952044951e-15
0.15718589706343458 -0.05339431404489965 -0.008123867545039503 0.008565714846082768 6.999910091669281e-14 9.2353967355574e-15
0.13383600490002232 -0.04455733192665042 -0.009847865799658559 0.0076331090966622415 7.79379002741748e-14 2.5279935480029825e-15
0.11351229921684082 -0.037073485178345834 -0.010872935280627131 0.00675937633447098 6.760948036501919e-14 6.162063047321364e-16
0.0945202541496227 -0.03020694459590744 -0.011003831069275067 0.006239538862084175 2.1181183705847734e-14 -7.31741598737623e-16
0.07557670013843504 -0.02371909836543217 -0.010234941195766971 0.005845297953189535 -3.723996615636119e-14 1.1881365032453961e-15
0.056551768369622654 -0.017038933769053504 -0.008639691987145204 0.0055576183676798365 -5.747134132526657e-14 2.480986607562158e-15
0.03973164181139341 -0.012782003464256264 -0.006434263999282047 0.004892763683457962 -7.582200519566998e-14 5.053825467924572e-15
0.028459382393521058 0.001789971805684804 -0.0043314221572317395 0.01102648182075494 -6.805187042677706e-14 -3.839092130135391e-16
0.024534666457093037 -0.04740666714318286 -0.004419396984592269 0.014036246264340453 -6.123565738681835e-14 -3.089184723997773e-14
0.014487673892971798 -0.04375161853465558 -0.00010896598052714347 0.00030589173607274705 -2.0854235764471152e-14 -2.0048524472515705e-14
0.017120304174092212 9.935532626586746e-05 -0.0015466163943631387 -0.01269438428499145 -1.9357479418761862e-14 -8.092596823780843e-15
0.026861548869812478 -0.01041955471240027 -0.003568628767615786 -0.01175517739450861 -1.4588970222856323e-14 -8.316532006244146e-15
0.039764020648470816 -0.014620725125989595 -0.005392070153013741 -0.013336645216357823 -6.524299228313508e-15 8.700383621017271e-16
0.05174280362414211 -0.019499299548381747 -0.006706649805680798 -0.014330194031013349 -2.181917696853267e-15 3.9802281479386914e-15
0.06408051861116468 -0.024534701349311676 -0.007375753154348262 -0.015123693098030255 -3.861981501469044e-15 -2.4783709698210366e-15
0.07655308396968143 -0.02986797860861369 -0.0073892698456976234 -0.016318219100828334 -8.662385723003443e-15 -6.547856061609597e-15
0.08978662320163908 -0.03559387971603698 -0.006794467096034734 -0.018447057836817812 -6.600970109600125e-15 8.287505881207635e-15
0.10452407350874901 -0.042369662318474804 -0.005743961915592142 -0.021198198236858475 -5.017275996250549e-15 -1.108831857712586e-14
0.11909153500262558 -0.0514572583427703 -0.004592065681696765 -0.01848413539914938 4.632744214020778e-15 -1.2354138166029843e-14
0.12580932478102533 -0.059554583521950824 -0.004011050786250772 3.6367184318194306e-05 1.6156337776147573e-14 -8.096530444787892e-15
0.11898477246947663 -0.05142887204796258 -0.004558354209338376 0.018561472008440365 1.718432491302265e-14 -1.9955100126565345e-14
0.10429878255773341 -0.04230569676506388 -0.005681572702173764 0.021290481304366133 3.5147727014007285e-14 -7.917020446342182e-15
0.08941707784528254 -0.03547852076107003 -0.006714914136802944 0.018568307241405353 4.8939777299867714e-14 1.605893152831217e-15
0.07599415942593649 -0.029673505147935784 -0.007312972301812846 0.016489022200245673 3.462358048514748e-14 3.569349405884575e-15
0.06325732324043803 -0.024215305706425973 -0.0073349316971290796 0.015372533770938486 1.416125924207437e-14 3.0946897605285684e-14
0.05053762164784743 -0.018983518986772127 -0.006745996386178594 0.0146947930354525 -1.3465504685133793e-14 1.1785568994251289e-14
0.03798286509308398 -0.013815030828261651 -0.0055794003549166455 0.013897279567932413 -3.4488264430724766e-14 1.2976216103152347e-14
0.024224429166562336 -0.00913705655714105 -0.004004767613835981 0.012839371933639937 -4.428423095890685e-14 7.106633532517892e-15
0.014851589091513316 0.0013138251303250487 -0.0027480175594630243 0.01409741489713219 -3.337873787894049e-14 -2.7519355067298634e-15
0.013093929759621857 -0.041164323736797154 -0.0035073395086045135 0.010401352523916375 -2.1195164831675113e-14 -4.538123349329126e-14
0.007335100179792896 -0.0311090438867217 0.0010450431130816593 -0.01747543416560129 -7.578271641944453e-15 -2.1543910318916337e-15
0.007389985865315076 0.00045882983347825387 6.030434547550902e-05 -0.021960022738677778 -8.55732907358844e-15 -1.3846085058664623e-14
0.012069810589453563 -0.0037372281889980026 -0.0013223881668559612 -0.02130127241260893 -1.3820336951133987e-14 -1.2206723940021494e-14
0.020096423056727902 -0.007627708941806881 -0.0025353072510062983 -0.02353087440266397 -1.0567401784893939e-14 -9.93325701640485e-15
0.02650694662185562 -0.00999468604450266 -0.003352780500149353 -0.02485592624743378 -9.84441681276503e-15 3.200713890975926e-15
0.03254827461350021 -0.012466629625864487 -0.0037284814142094776 -0.026176115541846744 -1.1860514469424349e-14 3.635262121708116e-15
0.038566854341190136 -0.01505248281345786 -0.003692926776705765 -0.02808219514001819 -7.547063560035816e-15 -1.3182522835917393e-14
0.04455905950431503 -0.017431621845651266 -0.0033068645276217584 -0.03132776477604407 -1.3532128908633027e-14 -8.168596007940288e-15
0.051505632386311985 -0.020212171298599556 -0.0026519174614420987 -0.03620470927116231 -1.4622524586028855e-14 -2.6163790643567164e-14
0.060737580787090066 -0.028110209448504203 -0.0018725858092667124 -0.03337325866094538 1.4428630274072873e-15 -1.7593809438845587e-14
0.06599948175696076 -0.041752005978247186 -0.0014048124537846406 5.682501063865037e-05 2.2853626543278827e-15 -2.3760968236377633e-14
0.06061685980917435 -0.028091552822717525 -0.0018043761305542787 0.033494472377475715 1.1863518048255313e-15 -2.931548504381959e-14
0.051254473704427594 -0.020169172646232435 -0.002519028842018162 0.03635056468716201 1.2040966368507405e-14 -1.7800356728967653e-14
0.04415752358440308 -0.01735202468497042 -0.0031181862712944294 0.03152177687397268 1.9382484254881283e-14 7.1023983677816205e-15
0.037982605270567495 -0.014915108152481397 -0.0034662928017713756 0.02835961617239438 1.740568596235925e-14 8.368346705693586e-15
0.03173029968741958 -0.012235118090366119 -0.0034954224115244714 0.026589176506410867 1.123155740716028e-14 5.153939341279168e-14
0.025377821812681 -0.009609744991162275 -0.0031649413142487057 0.025474922038159507 -7.020725756941466e-16 3.076761799980163e-14
0.01854636185631305 -0.007011071284880603 -0.0024718245188970816 0.02450269148845216 -1.236296509637318e-14 2.2265402818992183e-14
0.010476926902417812 -0.002914582130465083 -0.0015383888743072639 0.02293639398705651 -2.1361386577244297e-14 1.1575630184208416e-14
0.0065937067198504895 0.0002720001270445443 -0.0009262031925284556 0.024379782338322126 -1.0949370021908844e-14 -1.0364057973378388e-14
0.007135944016692821 -0.02901139464884259 -0.0015084849449675272 0.019814296943725832 -6.248340129262793e-15 -6.769855943195013e-14
0.0021824932984745027 -0.019665658574054723 0.002871489480122943 -0.019551586285725564 -1.6681350396195943e-15 1.3833877619828794e-15
0.00016018592720592442 8.909661570164677e-05 0.0018253265319752852 -0.02625715517375193 -4.4519950063732355e-15 -1.1314384894484456e-14
-0.000919899524839811 0.0013227164171757254 0.0009673806500983644 -0.02657328943301256 -1.3425954175727648e-14 -1.44193366285756e-14
0.0005648020598748466 -0.0003581294643554267 0.0003443489305841416 -0.027074133738308515 -1.4807648718848966e-14 -9.137588147072051e-15
0.0010506199745226414 -0.000531353720900481 2.3182869018554904e-05 -0.028356782712617833 -1.5863332986066313e-14 2.31636406019739e-15
0.0008597639228118772 -0.0003765121328929022 -3.317701988019878e-05 -0.02985836901654722 -1.8149081040385196e-14 5.8361044404271756e-15
0.0004238106045206714 -0.00027682224815520626 9.78632654149817e-05 -0.03202357683510747 -1.438422838346133e-14 -8.808349828606094e-15
-0.0007538136352689245 0.0004799443311053068 0.00035045303511971624 -0.034950080399402235 -1.9738479497118057e-14 -1.8059643678517562e-14
-0.0014184010959441594 0.0018938232553414275 0.0007122866860220266 -0.04018535541528368 -2.0302137148351957e-14 -3.943621416837434e-14
0.003890824235515166 -0.0051065248815969425 0.0012294070683059584 -0.041495794552413985 -8.237107420846004e-15 -2.738084823976361e-14
0.008955766774996153 -0.02981212974765093 0.001649660605821364 6.374395758587626e-05 -9.669789112227295e-15 -2.3714293332852132e-14
0.003756881056943113 -0.0050979298839031835 0.0013320104653837428 0.041631848077392064 -1.1729628397315773e-14 -3.34782115224419e-14
-0.0016936700061997861 0.0019151748664278999 0.0009152863123162461 0.04034931318634251 -6.0469511109708274e-15 -3.445605346180658e-14
-0.001183958169636084 0.0005227885982839375 0.0006471111165329325 0.035168438442813234 -8.643874029699438e-15 7.851751475558555e-15
-0.0001795275974001976 -0.00019779433472972226 0.000472133021961814 0.032336740774101036 -1.4097779204875344e-15 1.078884160829463e-14
6.018752786612035e-05 -0.0002351837011308706 0.00038588189252508376 0.03032852947461344 5.0939604300643225e-15 5.752887180304408e-14
2.0674540804744817e-05 -0.00028228693621384687 0.000427451105674239 0.029078881347563045 9.334529236539307e-15 3.6316720572644734e-14
-0.000636706417582624 5.1890677811230035e-05 0.0006332269732730089 0.028189238352852173 3.773718974299251e-15 3.183479481004732e-14
-0.0018501566505994475 0.001603143453237486 0.0009467298170257413 0.02822932562611972 1.3627430279594503e-15 1.1607583655110637e-14
-9.876095091787685e-05 -0.00022960705593186935 0.0010916323192996019 0.02750538543204409 4.584890240632699e-15 -1.4620032615098033e-14
0.002277883775426945 -0.01802292379802496 0.0009458424264421996 0.020026541418135112 6.241203029649228e-15 -7.1186871501705e-14
-0.0023150990026224016 -0.010301547071230006 0.004887821076324697 -0.015844779344113255 1.0689801433903974e-15 9.685313532084572e-17
-0.006196902999252023 0.0006404669629109014 0.0036359600397461492 -0.02317003132059478 -4.3086024927984495e-15 -7.791124245325881e-15
-0.012906807499776954 0.005241141064015009 0.003252845491963532 -0.02473346195680781 -1.3552229000471372e-14 -1.3284607246720481e-14
-0.01850110027915542 0.0067022431490100145 0.0032155361899623477 -0.024013099757091413 -1.737901882408084e-14 -5.206548896446311e-15
-0.02442583320378002 0.009010554506460757 0.0033889957082056874 -0.024782542660701696 -1.9751681776150436e-14 -2.57437029593105e-16
-0.030902439107193938 0.011719961961255486 0.0036545692379131183 -0.02618259968922495 -2.7496602915302436e-14 5.641957712652912e-15
-0.03761465898621126 0.014590703741929898 0.0038843278960121156 -0.028031282609609656 -2.3928821632101025e-14 -5.244448538638258e-15
-0.0454211538874959 0.017784400980873895 0.004002885629935438 -0.030336476408417808 -2.3033914965003063e-14 -1.5637095568052373e-14
-0.05423706709786579 0.023479178634352296 0.004054758977360806 -0.03292308163134641 -2.2902906073117135e-14 -4.297519913716574e-14
-0.053547067933981306 0.02131589856738199 0.0042637770833462455 -0.04282825919013689 -1.9172699181318337e-14 -2.6357639215743994e-14
-0.048490102492457554 -0.022559735021085613 0.004594464799440596 5.7250635620670595e-05 -2.000876389893864e-14 -2.328227264843455e-14
-0.05369495900095683 0.021314442961599775 0.0044014523082266275 0.042950374673829804 -2.133175143551871e-14 -2.620196811256581e-14
-0.05453802931496844 0.02347893591902002 0.004329310336863965 0.03306993123459597 -2.6895273050222927e-14 -3.185104090197566e-14
-0.04588277203613783 0.017790714491018628 0.004409922109928909 0.03053135967942323 -2.6474983772124816e-14 8.61778774426461e-15
-0.03824105115176915 0.014611955196939296 0.004409864241887631 0.028309665851109642 -2.143106181341954e-14 1.360815350378089e-14
-0.03168810144823271 0.011769997811275624 0.004265054948839597 0.026602582280498287 -1.5233904497027537e-15 5.508024185406704e-14
-0.025339023232585783 0.00911821171845792 0.004016769923362063 0.025435297873248247 1.7486646218490762e-14 3.3400501331729004e-14
-0.019397403631571292 0.006862252419224001 0.0037371468448230746 0.025013391106786118 1.9223836254409973e-14 3.123224606455671e-14
-0.013453065162971282 0.0052389448909783125 0.003449222334505028 0.025900113369945472 2.310693344022112e-14 1.1089152057545959e-14
-0.006241686758008866 0.0004213351601764295 0.0031679050725512696 0.02364848744792303 2.0164710287824683e-14 -1.1890079307415313e-14
-0.002140798876577362 -0.009203570419146469 0.0034565148092967008 0.01568396377947971 1.5915098557604812e-14 -6.302467228658237e-14
-0.00605895701126203 -0.00418185097159255 0.00666836386550074 -0.008671144147247097 6.634504143981923e-16 -1.4440624260605994e-15
-0.01197251739226331 0.0019769430054639636 0.0053140689116168895 -0.013243458267612635 -3.675048953306545e-15 -4.18345845703931e-15
-0.024432402628644562 0.0087831393180004 0.005483306912582693 -0.01453503764168809 -1.368651421579728e-14 -7.638034898570928e-15
-0.037248213038666676 0.01361934381819495 0.006046406088048697 -0.013916125157733002 -2.2775279383789593e-14 -5.223442121546351e-15
-0.049809414840704766 0.018598831769287397 0.006712323046828305 -0.014256563355775615 -2.882936944725856e-14 4.051494111988879e-15
-0.06252223549951873 0.023865272702427536 0.007279749537779085 -0.015125082654863285 -2.775115240957835e-14 -2.879112421562413e-15
-0.0756223828986164 0.02941920886854296 0.007566936697502249 -0.016278549238041208 -2.2130460306099206e-14 3.7807485007285146e-16
-0.08882955569105168 0.03552546403951763 0.007479508887882935 -0.017325263493314796 -2.8325974378573537e-14 1.4454922176755647e-15
-0.10583214216693466 0.04167035100873959 0.00709797233665307 -0.019258967399478685 -2.513538591944909e-14 -2.00207926138226e-14
-0.11364841935208149 0.05533776368441154 0.006820113364969567 -0.025632461049657846 -2.557730418385534e-14 -5.5203441102179285e-15
-0.11103096672335334 -0.01735363055643399 0.006876586140269846 3.711053126065198e-05 -2.844637333576216e-14 -1.4329154724747328e-14
-0.11381244529840454 0.05532659809341665 0.0069943263318693214 0.025711372754600156 -3.443212986324433e-14 -6.5256773509186905e-15
-0.10616370815397513 0.04164924616518791 0.007447361450440439 0.01935303332018571 -4.874764735754086e-14 -1.3347606169205467e-14
-0.08933146461915917 0.0354965705654058 0.008002833794260325 0.017448425794297978 -4.8740832130447255e-14 1.1442927226427979e-14
-0.0762871211268028 0.029384714373506152 0.00825377242551849 0.016451871925880237 -4.08961610032948e-14 1.0432186527391946e-14
-0.06331407733454247 0.023827183851871506 0.008098351132421926 0.015382659955726949 -1.2923476443724505e-14 3.0713814466992034e-14
-0.05063106731706204 0.018555503202205476 0.007590269970683227 0.014655283923091317 2.146026073317729e-14 1.916871812646624e-14
-0.037906174347102105 0.013536697134757967 0.006841861145008421 0.014499166267087183 3.854404791755854e-14 1.4127930189665808e-14
-0.024707605172665157 0.00857801154738314 0.005952562668272673 0.015111133599355715 4.9373282833041834e-14 5.569241628197025e-15
-0.011875602375759521 0.0018027701257192464 0.005131472019941709 0.013360088639552311 3.991637004111849e-14 -4.708869606089364e-15
-0.005828830828319923 -0.0035839367625516527 0.005641159074961045 0.00844296936709475 2.799498100784087e-14 -4.025908295970937e-14
-0.007985731735237905 -0.002077711114429186 0.007666144284005487 -0.0034408337446007304 1.2644507836612195e-15 -2.4566937026349045e-15
-0.01655445244558725 0.002783488916082239 0.006692140070437228 -0.005230853713823917 -2.373508290950954e-15 -1.3087404424072524e-15
-0.03577932442382558 0.010533301152414519 0.007567891218456137 -0.0054856446221001635 -1.1702986670025783e-14 -5.179477723452064e-15
-0.05605821050200158 0.017086299545224434 0.008757166888846264 -0.005421346750686545 -3.0017221347433676e-14 -5.9631119486702744e-18
-0.07501661114024222 0.02340043111082555 0.009894773839526172 -0.005653340217044001 -4.251067271636433e-14 2.3311973011697074e-15
-0.09384953831935217 0.029971926534312545 0.010702630649960354 -0.006102686760734727 -2.4487193956562736e-14 -1.0812856686415184e-14
-0.11316573001333254 0.0367681659205337 0.010942602312222672 -0.006567059065536044 -1.6695107481808774e-14 1.4116745966630262e-14
-0.13280272032825047 0.044807709330413205 0.010484728800047612 -0.007357613122645242 -2.4177112135231882e-14 2.6689804880075663e-15
-0.15117771304387218 0.04932350150826567 0.009438425746746776 -0.007751555617030428 -2.4086188230541816e-14 1.167655924207145e-14
-0.1759487823267229 0.07476998369780863 0.008349258058238624 -0.016613125753858433 -3.9427330486823536e-14 3.641943517596058e-15
-0.1922086321892477 -0.014667363556731709 0.007839667931186475 2.1441800269410933e-05 -3.7362325147789754e-14 -1.096673207974519e-14
-0.17613262478865785 0.07475408473204886 0.008562307691771097 0.016658731889354038 -4.2575670636604834e-14 5.320749266526925e-15
-0.15154810836206414 0.04929223603242837 0.009867871970916448 0.00780578495844172 -7.641362043987743e-14 7.917332154466772e-15
-0.1333598081684475 0.04476162911979349 0.011133915167216445 0.0074279339035719415 -8.883540604520679e-14 7.145651258200214e-15
-0.11389444606932943 0.03670662087111138 0.011807340533158848 0.0066637530232587176 -7.268948762134339e-14 1.1276461535369986e-14
-0.09469086367254725 0.029890574042717787 0.011757659304060442 0.006240271509576731 -3.160613318373834e-14 3.9231313510301735e-15
-0.07581291043262885 0.023281559469279914 0.011070756099286773 0.005853587957930918 2.887558356486075e-14 5.418679827756678e-15
-0.056531074532390806 0.01688368546898182 0.009903090897134387 0.0056972969718907356 6.554335524842914e-14 -1.0714627969587998e-16
-0.035738836883481694 0.010221474830188959 0.00840829687042049 0.005764172141120106 8.558225742666403e-14 1.4677115859479395e-15
-0.016213888943969804 0.002597334020098097 0.006844455323987431 0.005330167281102603 6.857707489978798e-14 1.0603497246908233e-15
-0.007613571204568749 -0.0017057713155865131 0.006940304687849409 0.0033888802897391523 4.87256719347573e-14 -2.4669936232735168e-14
0.03266314963159963 -0.052018865216843735 4.743384504624082e-19 -0.0017116323871794218 -0.006278673246289232 -0.000544829902671393
0.034349237885907574 0.00031747038207760196 -0.0034875573372561246 -0.011777148086141796 -0.008560156211992876 0.0006532355085044286
0.04299079762356759 -0.01389795552675151 -0.0066610615817534035 -0.004659946989461143 -0.008056345771403467 -0.0006309961844919217
0.05924741168711465 -0.01764468666445875 -0.009610517863668578 -0.0053248862341625 -0.006734493961715441 -0.0007281039913746306
0.07799241985382671 -0.02398504140579858 -0.011886706252846947 -0.005579839579153568 -0.004330505110626763 -0.0010047658060211627
0.0967531816401814 -0.030129321208167376 -0.013484468574222561 -0.005858798779451759 -0.001319820871673377 -0.0012909097141135268
0.11546637306349365 -0.03659056077599725 -0.014294199818736282 -0.006235089057919713 0.0020829947384084463 -0.0015589471593138661
0.13506198468343927 -0.043525095179561504 -0.014241011528194202 -0.006951240079170577 0.005333751096558477 -0.0016795244862846037
0.15700757001206733 -0.05164637448350494 -0.013360003278901213 -0.007804060590004211 0.007150813368381644 -0.0014148820579598979
0.17907671330833655 -0.06113286609259604 -0.012026903023565917 -0.006555751552449972 0.0055502820485327994 -0.0006127703298351524
0.189387376337778 -0.06729690543563294 -0.011255779713771941 1.5167847023528803e-05 -7.168846203087036e-06 6.72876677917545e-05
0.17902600941251243 -0.06111283525161916 -0.012034827647668474 0.006587013300017585 -0.0055563745207710255 -0.000604070530658618
0.15689841449151484 -0.05160109405340641 -0.013381571796868719 0.007838188201292477 -0.007131261071597994 -0.0013975863872562734
0.13487751382462343 -0.043443130910294864 -0.014288849492024493 0.0069906347999368216 -0.005267158160353311 -0.0016545106129955338
0.11517698204894415 -0.036452236197641145 -0.014390192303836636 0.0062823846751488615 -0.0019360030244001182 -0.001528803917904354
0.09631192998744302 -0.029902720052532524 -0.01366174771521315 0.005919344590987514 0.0016074041785675856 -0.0012648808366354884
0.07732100009715681 -0.0236223208657986 -0.012195478958422502 0.005650398668027768 0.004873387372012571 -0.0009895657905367988
0.05823713882375855 -0.017077422432527276 -0.010103898838851186 0.005454181049488649 0.007663162211309903 -0.0007907849158691843
0.041158112381546014 -0.012961968900868811 -0.007483689482764031 0.004844510793243599 0.009489387953122617 -0.0005796839606390364
0.029593568839419514 0.001869787473268861 -0.0044365186746774575 0.011509118655856156 0.008637983970897378 -0.0004665783430360719
0.025608138734083012 -0.0494493183217178 -0.0038942283731099527 0.014782212996942826 0.007635613502795407 0.004560287379901303
0.014421478301425083 -0.04483644892258479 -0.0005140407132859389 -0.002919646053619501 -0.003324179283728038 0.0016271954371725017
0.016740488882821165 0.0005863686471617456 -0.0015989947333121003 -0.01336582448270641 -0.00402972226468912 0.0013688820139460258
0.026608811306471154 -0.010130979958100679 -0.004158597219378775 -0.01205242536170166 -0.005044389247577107 -0.0001514387137971993
0.04011571484493697 -0.014413835587764648 -0.006257550260947811 -0.013283554580752225 -0.00421742914650079 -0.00038266490552533647
0.05236955364875718 -0.01930103593215513 -0.007884875354818634 -0.014041550491144871 -0.0026715616575993056 -0.0005590408389222444
0.06487323228539138 -0.02426283182759376 -0.008972879191587724 -0.014541146514738795 -0.0007142467124686396 -0.0006461222564154803
0.07733385142599178 -0.02941269379624378 -0.009505483596108113 -0.015357136731228656 0.001422462763946555 -0.0005632478669994947
0.09022775635229624 -0.034813967648868474 -0.009461229478792842 -0.017046119613193654 0.0033952495049848755 -0.00010135963471316602
0.10422047642472385 -0.041124123230027926 -0.008889905536500016 -0.019509035082653108 0.004468845441398136 0.0010739133382315384
0.11786013517377564 -0.04973255118550374 -0.008006397433700246 -0.01709700207903229 0.0034852541356061384 0.0030400951640267844
0.12413266852163767 -0.057489836067897974 -0.007441609944871954 2.9418179195208526e-05 6.436503673273e-05 0.004443486291404731
0.11779793795869997 -0.04971649572950039 -0.007985963077779133 0.017158531802539644 -0.0033443401178235256 0.003042160853431015
0.10408914358907408 -0.041087207398380114 -0.00885349377546829 0.01957910387182691 -0.004290888893372712 0.0010758979293039865
0.09001278767673802 -0.034745723115332555 -0.00941919607352343 0.017132128241761024 -0.00315301705123514 -0.00010501184121142566
0.07701173240970434 -0.029295146175033 -0.009476712460706966 0.01546927706028267 -0.0010819042752058792 -0.00058432917068421
0.06440709765949404 -0.0240665998319593 -0.008989155027908051 0.01469389352572473 0.0012050081427041376 -0.000707523755263202
0.051706887711937 -0.018981029773914526 -0.007993101247632837 0.014251318711310584 0.0033900579090766795 -0.0006972674289328287
0.03913642843801468 -0.0139096494015776 -0.006535300130214331 0.013609248580771638 0.005278752729876147 -0.0006600261169905531
0.02502787633760244 -0.009269745153121524 -0.00467606655188554 0.01268119344730908 0.006274049709055138 -0.0005833706876887824
0.015341539716308592 0.0013639339080923222 -0.0026323763159124486 0.014529686546325749 0.004510634138397085 0.0001691460646282438
0.013602756923729361 -0.042909616698273964 -0.0029472139258817044 0.010979625463357375 0.002949639375624824 0.005898890251359992
0.007416713291242259 -0.03146079394190843 0.0009254697054393513 -0.01892262741308333 -0.001166246266267822 0.005609976733210688
0.007200263981864734 0.0004143968561341966 7.21973558299667e-05 -0.02326420842390757 -0.0014671989063089247 0.0020690316642160444
0.011757383514463053 -0.003492153286235987 -0.0016092233854197264 -0.021686212014727316 -0.002052726416252262 0.0005272815635757698
0.020063025060603555 -0.007496290707132197 -0.0029770006474806915 -0.023432887071672386 -0.0016945961376215568 7.549512419202012e-06
0.026663768383392704 -0.009903933461214705 -0.003927080505286575 -0.024341352438708996 -0.0008244113197245026 -6.43034997786408e-05
0.03279723457759455 -0.012372102407389698 -0.00450058686561258 -0.025204619471626038 0.00020708211134723054 9.410584102183725e-05
0.03882547403357491 -0.014900474931508244 -0.00472136248581745 -0.026501013527507774 0.0012766175708818343 0.0006133893629849036
0.04468293324761206 -0.01717347081608702 -0.004609671593161451 -0.02902416078116534 0.0022725976536518942 0.0017705777005713546
0.051299019684631644 -0.019793756633450368 -0.004191415956803728 -0.03340742958227732 0.002954667912910273 0.003980409130606595
0.05999637625840919 -0.027511410751805323 -0.0034854599422144677 -0.03099851813236374 0.0025372896257843127 0.007297743518301977
0.06495391113998854 -0.04077422070513416 -0.0028621804761302105 4.7467838343192865e-05 0.0001345954116467743 0.00969557192923281
0.059923887348966795 -0.02750354201881995 -0.003437049343195759 0.031097940266111443 -0.0022527661435040062 0.0072933740409119345
0.05114817418273672 -0.01977407409422203 -0.004097946641757371 0.033521117647792704 -0.002624388028617644 0.003967196422155956
0.044442330774828495 -0.017133479936767164 -0.004479542689633375 0.02916458716325144 -0.0018666420112291564 0.0017375420398520146
0.03847821965326853 -0.014825719125286 -0.004571543059478246 0.026685938353121927 -0.0007645532167136507 0.0005383262642313682
0.03232018599099555 -0.01223805084964513 -0.004361755362629366 0.025459622787964393 0.00044516385309878724 -6.294334100259717e-05
0.026022988228655862 -0.009673560420822232 -0.003851103148673957 0.02470336552333383 0.0016622939725701264 -0.0003714151219696552
0.019185869809732713 -0.007106591217644407 -0.0030432855541408363 0.023985999592084674 0.0027482677402236996 -0.0005247387336574721
0.010850947855279125 -0.002940707471379927 -0.0019349820590150281 0.0226845178374208 0.003105854452968001 -0.0004270801590397018
0.006794104742072884 0.0002948504204006374 -0.0007866698519612366 0.02500403371192002 0.0017668112834913164 0.0012515153992386978
0.007395936942136704 -0.03025324052651572 -0.0009123121109108333 0.020703887272106997 0.0007960567663090561 0.008677260725630886
0.0022011944697356432 -0.019875610192778982 0.002865393167627925 -0.020387222177962242 0.00013886080029840752 0.007193215751929947
-2.402450947150221e-05 -9.434367816725175e-07 0.0019093919003341437 -0.027271172161696087 0.000446340682072106 0.002430194319040355
-0.0012966079007857446 0.0014826084514983446 0.0009332587479373143 -0.02705554621596585 0.0006389692110852836 0.0007275804749388519
0.0002349942860344246 -0.0001847110821165298 0.00031224428726124874 -0.026955501123790575 0.0008200526193507658 0.00014105114891991958
0.0007715355161944667 -0.0004100963560494614 4.289519808684499e-05 -0.02775469865985745 0.0010754523507786604 4.3573531232893325e-05
0.0006083946378539935 -0.0002809142615070809 8.158996213672274e-06 -0.028735822603421023 0.0012643153058956179 0.00027706746477004405
0.00021025459996870124 -0.00020459368635206843 0.00012931355534618328 -0.030227487967195647 0.0013656870514949149 0.0009291050535594019
-0.0009063980771915485 0.000508615380774067 0.0003594181040016062 -0.0323800438121892 0.0014977237723315683 0.002264966333859337
-0.001533111219220006 0.0018761219883259726 0.0006879071773127416 -0.0371179050244586 0.0018768521352689686 0.0047003256046768095
0.0035156883782612096 -0.005124302627147065 0.0012830473818281375 -0.03876666985308025 0.001993111297719942 0.008481046466470594
0.008331677021826292 -0.02931325894804926 0.0021292540871317807 5.379302229765392e-05 0.00020462417315063048 0.01157110648990578
0.0034332522618849373 -0.005124940148588554 0.0013594874063853634 0.03887935266701886 -0.0015656811817477679 0.008474720558913363
-0.001702691896449846 0.0018778935933177628 0.0008385173587657857 0.0372467782815572 -0.0013960405699541278 0.004682452917434251
-0.0011713265137665266 0.0005192526158626728 0.0005776201624276303 0.03253920098859807 -0.0009320972211130811 0.0022228080308765628
-0.0001595434620014872 -0.0001741360521535454 0.00039992298864266663 0.030437147594150126 -0.0006908874198535214 0.0008374048292939702
0.00012534350335110804 -0.0002122419750204992 0.0003004197447242893 0.02902696439494671 -0.0004661263808939529 8.889357308537275e-05
0.00016312971403376536 -0.00027148406098646604 0.00030090677213347444 0.028176897371471863 -0.00015269548737865135 -0.00031693491595939004
-0.0004586965740986437 6.886945223688579e-05 0.0004443895082958511 0.027598221597993435 0.00018425291399108186 -0.0005082656823953687
-0.0018050631464195737 0.0016743478098261064 0.0007942644270348063 0.02807081992170789 0.00019228731755504958 -0.0002878828209634119
-0.00010406612075172535 -0.00020769727460031283 0.0012589861020124286 0.02811826706154035 -0.00027111647421665044 0.0018349025119749015
0.002345969620182672 -0.01887956879474543 0.001441923032061363 0.0207449113060991 -0.00043064125828470986 0.0091878800417524
-0.0024369837403447336 -0.01042724722638437 0.004867431113551534 -0.016266094683702707 0.001237588561722056 0.006759579045783384
-0.00648069571948039 0.0005557960314576423 0.0038209843974192853 -0.023890398978398866 0.0022094636180928526 0.002075255294528673
-0.013409957060451599 0.005367283848960461 0.003463320884046584 -0.025201674886962365 0.0032375520597038646 0.0006202134944116868
-0.019110761117588578 0.006891756980134435 0.0035872095697277065 -0.023977406639406725 0.0033143836165211017 7.066643286672951e-05
-0.02512838822840037 0.009167737445873339 0.004000467809386043 -0.024282239684971132 0.0029869630822149606 -6.725626061284722e-05
-0.03165380461224443 0.011817829321049208 0.004509532534315376 -0.025204851244388485 0.0023350634841125956 9.5465977905184e-05
-0.0383080387520909 0.014582349268346853 0.0049774897078536315 -0.02645610686893033 0.0014727925026589914 0.0006207536307172211
-0.04587595731442858 0.01760787188907993 0.005326341221836926 -0.028088932403045472 0.0006860492452520309 0.0016984008382978162
-0.05425651019321758 0.023046245816284335 0.005539060522583975 -0.030348636518883667 0.0005995197745439307 0.0036541283990216577
-0.05353292280278996 0.020689048751232595 0.0058670179985127625 -0.04026613358888453 0.0012559911147753103 0.00712131691749946
-0.048688484257476766 -0.0223931859197473 0.007019917107784169 4.7629134098189856e-05 0.0002760295724963705 0.010689187973800985
-0.05362585179603045 0.02067989647372878 0.005972013109759538 0.04036588638759851 -0.000682718209654498 0.007117510471493457
-0.05444602512610524 0.023030073438623434 0.005747946309105546 0.030462642532585665 3.5338794949817636e-05 0.003642070875356262
-0.046167313439400455 0.01758915722840647 0.005634544259429351 0.028229505432347334 4.3770663482310186e-05 0.001667262132413044
-0.03870342611771988 0.014568429041415615 0.005371831970531555 0.02664092700361971 -0.0006289851748978372 0.0005488007316764358
-0.032146823811315346 0.011820505448696275 0.004959594076885868 0.025462829091746634 -0.0013833780473663361 -5.7910330490232775e-05
-0.02569282382904296 0.009210555987104133 0.004446011785072753 0.024662457706280276 -0.0019726893397907634 -0.0003743304567570998
-0.019649473379966014 0.006980225592318753 0.0039229835014816345 0.024557974777373613 -0.0023567675896067285 -0.0004981064122923509
-0.013712389587695894 0.005371461431808161 0.0035251175944415298 0.025905922672198507 -0.0025900337044963135 -0.0002045633422813058
-0.0064568860886241 0.0004270099117637575 0.0033928697207083686 0.02420253180220856 -0.0021209969587021506 0.001635126872931086
-0.0022719101189895615 -0.00972577082914314 0.003792260690612162 0.01616156804501006 -0.0014747743243298877 0.008048699302286987
-0.006368888325001212 -0.004321246915339163 0.006704425543611052 -0.00878897309052411 0.0026243942472193634 0.004088150732864658
-0.012427372673734323 0.0018284347511118122 0.005686581356522481 -0.013669709594561834 0.004227497474242423 0.0009027917516334692
-0.025131378875396525 0.008833684575162142 0.005960973910586664 -0.014863362508830604 0.005957346609666644 0.00012143610252627414
-0.03817152192627268 0.013728461674432434 0.006826596826204669 -0.013940009816704053 0.0058234613858686776 -0.00032106036576483456
-0.050963968166596 0.01865652707095881 0.007919272254485419 -0.013976940005877792 0.004859888760936866 -0.0005518987272512298
-0.06381613527531844 0.02379140886344065 0.008958988102169692 -0.014537903519061543 0.0032976175324847127 -0.0006428473683853711
-0.07684912497655179 0.029111580809899836 0.009755481796029737 -0.01531975764083351 0.0013687320135473482 -0.000558495017895158
-0.08966975823206773 0.03484787940159313 0.01017239313514866 -0.01598967464599602 -0.00046753191536487454 -0.0001765143289549428
-0.10576182535484496 0.04052235102347375 0.010196562174617584 -0.01777670965276902 -0.0014388726829224776 0.0006395183018282326
-0.11308101479378345 0.05350349089806145 0.009878889685156465 -0.02414923920808739 -0.00039476173436696913 0.002833907941399995
-0.11057611754925616 -0.0174614596595457 0.0111026571547904 2.9759598938588356e-05 0.00035037547855113084 0.006873268784675506
-0.11318587053079773 0.05348614335754965 0.010013416502515618 0.02421148339199238 0.0011204251781879505 0.002837173131929483
-0.10597440319081058 0.04048888305584728 0.010465882218863416 0.017847556751213963 0.0022365013608660242 0.0006439111632734776
-0.08999294063603759 0.0348008366824226 0.010574385676339637 0.016076412291252153 0.0013745905656213063 -0.00017640386715347533
-0.07727922043672683 0.029054782736137406 0.010279777155311014 0.015432794558155776 -0.00033526587355031445 -0.0005739288271009108
-0.06433050050353224 0.023730616990148515 0.009576764188761371 0.014694083071754432 -0.0021594565067859606 -0.0006962504120290849
-0.05149835997901299 0.018598440902938503 0.008567417208594207 0.01420798579018433 -0.00370657136602536 -0.0006876034868824033
-0.0385977055239737 0.013661804996706621 0.007387833075174407 0.01427781486217134 -0.0048503003078029195 -0.0006065065234942787
-0.02530407842082635 0.008712252674260776 0.0062522961711682454 0.015207721760642527 -0.005444931307486608 -0.0002998727148664217
-0.01234928331806311 0.0017399724232320176 0.005493184322480555 0.013745503679903489 -0.004257575020987636 0.0006798215537021784
-0.0061983646021163685 -0.003920764080605944 0.005931350151787353 0.008633361000268267 -0.0029076291098068053 0.004808760855549614
-0.008478435010955791 -0.002271664507976507 0.008114616276878496 -0.0034260116646628864 0.005056640045703907 0.002098291664860626
-0.017200619196123285 0.0025698637657224866 0.007432463767470814 -0.005472641919633241 0.00696795621375329 9.566882417044463e-05
-0.036739147209269324 0.010518320538422199 0.008439704762401346 -0.0056715297518207235 0.008905074651135877 -0.00025468161604114977
-0.057379118740193136 0.017113584127556786 0.010078697199916678 -0.005461857658626285 0.008317596746183945 -0.0006248466118377032
-0.07670810240271164 0.02334822300198978 0.011865120628769304 -0.0055383702364052495 0.006571878271759075 -0.000940984409214558
-0.09578401710302031 0.029733192929528002 0.01343108576664383 -0.005832516406956711 0.003954705123211625 -0.0012518317846308294
-0.11505742037960814 0.036215398756928044 0.014524228684541325 -0.006125230339577611 0.0007716430953028607 -0.001530046135592217
-0.13411728158920064 0.04374134730057313 0.014970942434374428 -0.006775689318871479 -0.0023718181386378845 -0.0017359612439730929
-0.15119254773893392 0.04769009568138061 0.014655790671393732 -0.007167498999436297 -0.004410436090553302 -0.0016411176242554237
-0.17459455171962582 0.07207086426456275 0.013505311647915696 -0.01578585272975036 -0.004212100620449768 -0.0010153903961129754
-0.19030786071439468 -0.01489739066559004 0.012988313768736603 1.5477423669274184e-05 0.0004287354831972136 0.004815408954562355
-0.17471358824813574 0.07204954130072301 0.013670717908073409 0.01581840427400386 0.005099295967610034 -0.001008307131380276
-0.15143308951445905 0.04764823386617354 0.014988563598073877 0.007205024175284635 0.005383674280206909 -0.0016275040774865134
-0.1344808470770973 0.043680508692921734 0.015472144024282368 0.006822251473747051 0.003476371674987297 -0.0017174203246182332
-0.11553645967428636 0.036137817383283644 0.015187628251064306 0.006186184532204296 0.0004852425015865594 -0.0015103773611604633
-0.0963435753552997 0.029641361220767687 0.014231759400326296 0.0059154509015814805 -0.0025726838821599667 -0.0012398465228913925
-0.07725044829808334 0.02324018386930984 0.012740915392997145 0.005656234770749162 -0.005185505298209667 -0.0009566501433862754
-0.057726676286207784 0.016972203777910394 0.010904505044470474 0.005625711920867533 -0.007203523170615107 -0.0007024686367906656
-0.03675967117030634 0.010334171641943064 0.009009840301621741 0.005842169649297612 -0.008468396111427391 -0.0003897093249431153
-0.017007171944699313 0.0024789099758504005 0.007496864547456518 0.005536548520862733 -0.007277741612437677 3.149589241966945e-05
-0.008246965304144477 -0.0020125581142150964 0.007582190015987061 0.003378620706884724 -0.005686196547246607 0.0025298469948099897
0.023527985974723775 -0.060153486585386905 -2.6325784000663655e-18 -0.027238406845070208 -0.014531488905301846 -0.005140407132892599
0.029825774488293193 0.003010823040069596 -0.0037327151018701765 -0.012176670840242872 -0.015679702211877988 0.0016111649098083888
0.04362939944168417 -0.013357518108845686 -0.008454205897778328 -0.004351490761230514 -0.014707102526751824 -0.0004025428010070267
0.060859061851609275 -0.01671865148825926 -0.012027034127685767 -0.004729932173117311 -0.013068607094016242 0.00027532801331067724
0.08066367356528169 -0.022977179927010673 -0.015511846497392389 -0.004697546653351235 -0.009974438295766337 2.8255396214579923e-05
0.10066069606961367 -0.02882007414088256 -0.0186767317170739 -0.004817580867607064 -0.005965994296173179 -1.9221080890765912e-05
0.12022951003153803 -0.03474403120191762 -0.02140688915708494 -0.004929079046847669 -0.0009276101897169011 -9.019776652097091e-05
0.13927758853779304 -0.040621358985117616 -0.02350211738418512 -0.005191471458520871 0.0046374681723725135 -7.147505611630002e-06
0.15776426145918612 -0.046643562552375034 -0.024724846192609194 -0.005454817664969338 0.008967558769604344 0.0005853352323920424
0.1738401010998999 -0.052810446897133205 -0.024998249596485826 -0.004392185734009277 0.008193908314271853 0.002248444961132636
0.18083527099109445 -0.05665297502863016 -0.02485581734461313 1.4784900585264511e-05 -7.757357908253111e-05 0.0039902260919614015
0.17388357350062594 -0.05282115500904003 -0.025020545483150417 0.004421524907344058 -0.008340330075552682 0.002258680199417031
0.15785762503335904 -0.046665696311515875 -0.024774051237983128 0.00548307331949589 -0.009086501854102945 0.0006054438273275583
0.1394361603619868 -0.04065674927516381 -0.023588570482232334 0.00521639750026836 -0.004705689315501692 2.0884165496012604e-05
0.12048390951401104 -0.0347966507368196 -0.021548850374802055 0.004946515250410011 0.0009459661127276985 -5.684906370250949e-05
0.10106736879552557 -0.028898621618698838 -0.018905826426544873 0.00481853646107538 0.006125380427048146 1.761583550526232e-06
0.08132940109294044 -0.02309887130799838 -0.015875330715920753 0.004679031073640934 0.010396658529944222 5.7741630662934326e-05
0.06194940250613982 -0.016913450875050837 -0.012621928176900945 0.004639286201769457 0.013796052911672324 0.00010678486347742404
0.04563797660087069 -0.013740929586865397 -0.009296488283265408 0.004183291487156723 0.016607069833604212 7.948785570194311e-05
0.03432873137852033 0.002186971653222349 -0.005273728568813029 0.012074567735303915 0.014031694881111821 -0.0019006166938916732
0.029866875745359945 -0.061190565619633625 0.002252174030911744 0.01609457557885932 0.011854165803332376 0.009470144472251633
0.014084204698957948 -0.05295742812672967 0.0028055297733527145 -0.017479620764592103 -0.002447304955388915 0.0004816852963991434
0.01564190001978211 0.0017077186212164093 -0.0019715049164507523 -0.015185662342898636 -0.005272643990085555 0.0014642615185728953
0.02577248559820721 -0.009156836633389311 -0.005362631634509844 -0.011956055311786775 -0.00897009321139213 -9.613688430145379e-05
0.04066711033828807 -0.01344727644464144 -0.008181828498608096 -0.01241440412077407 -0.007522103557925423 0.00012948227831779973
0.05371253916803447 -0.018211782375898416 -0.010647148473369917 -0.012784685722566982 -0.005605307193396183 -2.0353642487448023e-05
0.0670433970509066 -0.022907507704210395 -0.012881935462451439 -0.01285505714349203 -0.0030546646518820764 -2.495128557693535e-05
0.0800626074042256 -0.02759211553235942 -0.01477916882110378 -0.012965691208795435 -6.011337815221055e-06 0.00012268497965964585
0.09261520830221623 -0.032177603420060506 -0.016227449497631122 -0.013311771458387408 0.0032688308643471285 0.000704430865523698
0.10452147204644618 -0.036858226767794634 -0.01709010641072225 -0.013801295345890545 0.005804483450114125 0.0023913953125711857
0.11462189254060365 -0.04239180248666101 -0.01732830712082819 -0.01132398676601344 0.005349514211032716 0.006072115940045307
0.118966925826957 -0.04728121547206221 -0.01725956863044598 2.1402420392481117e-05 2.9886708912241252e-05 0.00973789907738519
0.11466451992372556 -0.042404951817757934 -0.017337198634558567 0.011366133923704733 -0.005276139145256019 0.006074319285400059
0.10461247141980998 -0.036885149327446964 -0.017112275497476966 0.013840619891824672 -0.005689815606990908 0.0023933631446857
0.09276795212112862 -0.0322197815921816 -0.016272784791155792 0.013343292197301487 -0.003082912218768638 0.0006998819611955814
0.0803025983819295 -0.027652596314083597 -0.014865785464847554 0.012979276320084384 0.0002975091461923693 9.903279196904621e-05
0.0674186400685319 -0.022993303795347468 -0.013039772167353369 0.012832737827881927 0.0035010461641460863 -9.371884453947739e-05
0.05430615885920625 -0.018337239052444165 -0.010928570028053827 0.012702250175242805 0.006260616573775837 -0.00016400558666346276
0.041656434265724934 -0.013635350713887431 -0.008652591136768783 0.012207224970604807 0.008540060355470294 -0.00019583801998083574
0.027493541187562916 -0.009530345798815508 -0.006167876484208275 0.01142673505624248 0.010251690287403551 -0.0003886401225565739
0.017365896325917715 0.0014937853014348208 -0.0028669449030269416 0.01392296055532727 0.005612621335874389 -0.0010660344100263724
0.015340097429934713 -0.053442794296307126 0.002863158630568406 0.010375563891909578 0.0016784808394967998 0.00998997861115999
0.007808360641131656 -0.038250627940090313 0.0039731875036976855 -0.023070160401483096 0.0003880565914989066 0.009634710362009736
0.006901950095566116 -0.0005044610236375986 0.00021313520717528941 -0.02637234332772752 -0.0012052641939454226 0.0014480009993976628
0.010864645032395297 -0.0023688219410064604 -0.0022382780156530026 -0.021809194573656064 -0.003619651834736497 0.0004415082518073072
0.019611928827981406 -0.006584925552932311 -0.003948561150103084 -0.022428260048948195 -0.00307432195854974 -6.125118542842277e-06
0.026800707607700824 -0.00897639344152449 -0.005312454284989862 -0.022671333134129987 -0.0019484556851260498 4.785440156871457e-06
0.033421097281027115 -0.011305758644563438 -0.006477559148381068 -0.022759991531821438 -0.0006574312704034785 0.0001463511889120663
0.0398727122595904 -0.013600441080413169 -0.007436931771921667 -0.02281450729356654 0.0008347038534259719 0.0006440704996147859
0.04585738089447906 -0.015638203366594494 -0.008140979558132219 -0.023062388616043768 0.0025292105425765233 0.00189000415102582
0.05160981771804066 -0.017643966210556142 -0.008539125538654766 -0.023863836794508445 0.004385772662959934 0.004816492672502777
0.05782698929062934 -0.022475842693376918 -0.008583443934556415 -0.020640537753793695 0.004874178635013614 0.010901820758032834
0.061144594294658045 -0.031081471923406958 -0.008427992818982257 3.139339906983255e-05 0.00012520431232654623 0.017939794287725935
0.057868152597373455 -0.022493755892056835 -0.008578533255863408 0.020702113684699344 -0.004606304666958349 0.010896720290655191
0.051696589022376546 -0.017680153653805177 -0.008533113358467992 0.02392035860832769 -0.004065905737795865 0.0048018322315497505
0.045999683781717496 -0.01569328598529757 -0.008142658596299429 0.023105330807363014 -0.002124290867155663 0.0018549387173725609
0.040089198548527084 -0.013675370212641726 -0.00746250801822139 0.022826310735841588 -0.0003140361541921892 0.000566176481062004
0.03374622692019023 -0.011403890231345127 -0.006555247957191351 0.02270964508304335 0.0013207515915780082 -1.3236555418399932e-05
0.02730008478844376 -0.009104474377467697 -0.0054878890939392124 0.022509354878067458 0.002782216281315824 -0.0003112680426348733
0.020420916169346694 -0.00676606780534244 -0.00429531391065952 0.022059536716967948 0.004109429502886043 -0.0005312536517173157
0.011897174975609576 -0.002583843844843576 -0.0028374906248874654 0.020946626571077532 0.0046670640920148014 -0.0006138817392076229
0.007663105704306521 -1.0333890883356517e-05 -0.00048596571077074395 0.024629192533004367 0.0014191744593854666 0.00045776025164558526
0.008275453989418886 -0.03824254212969648 0.0035795410549860226 0.021071581461641425 -0.0008672533838607571 0.01350148991937506
0.002646745122419705 -0.024122883570339156 0.0046181337261509995 -0.021813287512530498 0.0012528740919594964 0.010563489763410734
-0.00012463225971932898 -0.0013397783990374598 0.002236837222869274 -0.02897366287439329 0.001196456371713839 0.002597360755832298
-0.0022244732860007403 0.0020384155117346213 0.0009088030194069181 -0.02754915101908911 0.0007485383335939429 0.0006553383307431455
-0.0009205014054266709 0.0003869792145423132 0.0004018435276269326 -0.026022400991280226 0.0010464035686172713 0.00016211635467406008
-0.0002349399178086275 -3.7461313964414565e-05 0.0002203289728507804 -0.02601870182767311 0.001405585885564571 0.00013891959422077327
-0.00018739469865617644 9.082616115987566e-07 0.00017123253596895848 -0.026076505484905033 0.0015951644552035717 0.00041178403009315296
-0.00026123908390043296 -1.4254921707588362e-05 0.0001983907661294263 -0.02613769938048399 0.0017258684968035178 0.0010722955576087465
-0.0007638082050518914 0.0003173634996089434 0.0002836117556934158 -0.02595758968987052 0.0020613595236808357 0.002486266191734629
-0.0010871911888595273 0.0011444564846175747 0.0003855676185378638 -0.026788145154294916 0.0034930567669188214 0.005521727043939073
0.002091804687940426 -0.0031040772188976316 0.0005369798278253608 -0.02621941874670087 0.0053994135480587915 0.012154205028481406
0.005169541586225499 -0.01942172630452866 0.0008217980745350979 3.413634860746027e-05 0.00021568448167511305 0.023033346568968053
0.002131153176202906 -0.0031266376280167825 0.000555974219737866 0.026286331078498832 -0.004947035762943284 0.012146985806483596
-0.001005693445720838 0.001099345587013704 0.0004204924224784614 0.026849380137150682 -0.0029791670638852213 0.0055021810989429815
-0.0006343121209036774 0.0002501712561991186 0.0003272136185860271 0.026003548874805216 -0.0014507225737540035 0.002441876827633349
-7.349323858409505e-05 -0.00010209799479101209 0.00023678407472846991 0.026148415663498428 -0.0009944453015777641 0.0009781655018999923
7.774384387806494e-05 -0.00010571427659620499 0.0001798752918526658 0.026014755982716898 -0.0007380541518108962 0.0002204865111119873
0.000151758515308687 -0.0001640057745885679 0.00015773757269163944 0.025821403801846155 -0.0004434295371452843 -0.0002266794340401285
-0.0003760223302210531 0.00023496674030363738 0.00020291570103321105 0.025579795534758958 -4.1051232434510465e-05 -0.0004996328036186387
-0.0016700101895519345 0.002036534782210767 0.0005145167299688682 0.026661309187721135 3.571309529931278e-05 -0.00041308500450536623
0.00023104308322577016 -0.0008139224609544126 0.0017110841087029371 0.02804305283659967 -0.0011308757130406419 0.0019529221266440567
0.002874882917901072 -0.0241924148331314 0.004172763264341736 0.02116621964779695 -0.001639898881388496 0.012874937735106116
-0.002036220680902097 -0.012521187722042118 0.005211157855594303 -0.016515710953529588 0.002113546141437915 0.009136167373625192
-0.006551358870125005 -0.0005031000794026192 0.004091230334555259 -0.024544715978278252 0.0034124533263769187 0.002648642838668669
-0.014448479813356908 0.005462768356022149 0.003987397086143995 -0.025373164028011024 0.004822574185198235 0.0006804598975227054
-0.02088830148599224 0.007006844851636611 0.00472380713790913 -0.023065929532082634 0.005153668232296482 8.33752984550962e-05
-0.027245558244290268 0.008983169176959575 0.005745281918412124 -0.022588584476400383 0.0047968742760258936 -3.0097135091609333e-05
-0.033860093405024314 0.011307753296312891 0.0068151325231776355 -0.02270703934799509 0.003877621920013722 0.0001499406806888763
-0.040345024790988566 0.013639956590990127 0.007831940125384617 -0.022761290330728195 0.0026717583319075962 0.0007001040687863061
-0.04705074781192006 0.015925835009872887 0.008714651595109695 -0.02255793468936407 0.0014893126496201758 0.00170875734843366
-0.05385106567855321 0.01971276298779861 0.009310099276912384 -0.02217948934790268 0.001859895578719084 0.003861815742697332
-0.053953609525622954 0.01871622991351134 0.009477963816335653 -0.028040832359435146 0.005746565674971525 0.008883554898969758
-0.050782421647837014 -0.011622997028891661 0.009756724788777055 3.214404790218857e-05 0.000308097469238762 0.02409083665664356
-0.053916004407332435 0.018688869017122526 0.009511220183190748 0.02810410414692036 -0.005105507827739643 0.00887953391128651
-0.05377474600198385 0.01965844645862862 0.00937437023624532 0.022238302565334496 -0.0011468420196801318 0.0038493217441771025
-0.04693401780059717 0.015846096550076915 0.008804334330155737 0.022604191382324213 -0.0006662659739013145 0.0016769252630054886
-0.04018639520314013 0.013538796319824345 0.007935704594599293 0.022777554262428952 -0.00172051291588882 0.0006269447805783128
-0.033656233078825606 0.011192690450054813 0.0069120433550933546 0.022658788951719317 -0.00281656464009281 -6.442334523806839e-06
-0.026988330286033136 0.008861432134957398 0.005798948985443543 0.022413791936220517 -0.003699929459037825 -0.00034633400054769867
-0.02059383792382719 0.006908889606339049 0.004678127037293474 0.022662910796159706 -0.004175867141922815 -0.0005079788117182476
-0.014209359125595723 0.0055357038326922315 0.0037849966069498503 0.024749865329314596 -0.004240071053501968 -0.00018571150318927963
-0.006406209850000147 -0.00013459446066485612 0.0037402688047858744 0.02414503566863163 -0.003433892411408686 0.002205244158461126
-0.0019218460540746365 -0.012584042903904226 0.004826406582176229 0.01636647323017763 -0.0024325075131142525 0.010669072783293933
-0.005991916459632582 -0.004971868521592695 0.006045515262316846 -0.008636899628504217 0.003787703341700233 0.005930602374882788
-0.012496156316393801 0.001236511428662817 0.005856140226415546 -0.013722510340137177 0.006313833423792493 0.001802594636309102
-0.026346351699797047 0.008743134399932366 0.006927111585346163 -0.014637227722770978 0.009323807212518343 0.0006213284834735992
-0.040621836754086996 0.013648473043024734 0.00887603713008869 -0.013122969621712917 0.009676422661749015 9.827362365443974e-05
-0.05425908414553521 0.01828317343144372 0.011057593960788748 -0.01269436359230438 0.008538239617818208 -4.541181568230182e-05
-0.06755245767368159 0.022968338055871812 0.0132007097896306 -0.012795786365728451 0.0063900275846756165 -2.5547254587662703e-05
-0.08059409613300228 0.02763698757011268 0.015170416376266115 -0.012914662422343227 0.003608978390665142 0.0001607807112042369
-0.09281424674052433 0.03233635398354309 0.016816311346749824 -0.012674909675507315 0.0007757367667454004 0.0006509750827479318
-0.10621781662591846 0.03650385627295203 0.017904358578742823 -0.013074927461498687 -0.0017374470652001383 0.0010210174598021815
-0.11172986521750736 0.04630943849287448 0.017737934513236266 -0.017710276661104335 0.003626368560635931 0.0033200228321787146
-0.10959342781384933 -0.00546300124512665 0.017290702639413714 2.2292475021893927e-05 0.0004092451979727804 0.017733903537473398
-0.11169355130634037 0.04627692441256251 0.01778550949078147 0.01775446419756289 -0.002778157974982329 0.0033239369076730695
-0.10614555905015359 0.03643954761571242 0.01799806080817496 0.01311707456373046 0.002671256318109489 0.0010264161762578317
-0.09270799765043503 0.032242657427952064 0.01695209324887092 0.012710569859309361 0.0002869878928292681 0.0006517422791826979
-0.0804598028967873 0.027520113762801245 0.015339198447024995 0.01293362898648148 -0.002401728539288364 0.0001442608551038934
-0.06740358676861236 0.022840664097649115 0.013384517940865549 0.012777330608800336 -0.005076212458118227 -8.481831334128938e-05
-0.0541228320770893 0.01816698736663563 0.011224335719649882 0.012597548720665902 -0.007246210907901397 -0.00019822042832509304
-0.04054273338825753 0.013592069355810954 0.008974962354625696 0.012895157053658231 -0.00865505769601704 -0.0002237664325393141
-0.026351024082710346 0.008831837220981917 0.006896157799053084 0.014330357151104187 -0.008882026948807376 0.00014851537914278265
-0.012513521484498906 0.0014580288800211643 0.00566772396668043 0.013586900489963045 -0.006454005400858846 0.0015713064838433
-0.005980001091358171 -0.004965380515851195 0.00575633579775216 0.00860561311188345 -0.0041490930055399005 0.006807882311395255
-0.008050366458572659 -0.0024072425276712803 0.007335472981727354 -0.003308085109133047 0.007241419473644994 0.0038435941897451845
-0.017245724199750248 0.00221320246769435 0.007620437478674728 -0.00537004164078633 0.010875623059408607 0.0012531652361136528
-0.038230454578922754 0.01041905183536968 0.009634944973089431 -0.005273805573602653 0.01513530985344386 0.0006744372065056277
-0.060659567852034545 0.0170511645167019 0.012649556863339935 -0.0047820091087883605 0.015260245667720246 0.00027938866767516254
-0.08133024353968929 0.023031487939302306 0.015860009568269575 -0.004675504039320332 0.013120542418167156 0.00013901372724124997
-0.10123855776021289 0.028939562063929728 0.01896298394362062 -0.004784331575447583 0.00944614996172852 4.5080191389985805e-05
-0.12080778143086075 0.0347262344128551 0.021787132683135507 -0.004845276287760118 0.004752429006569629 -2.5652595391179533e-05
-0.13943732780771284 0.04099832382474391 0.02412302406960048 -0.005064953360289787 -0.0004387652175380986 -1.2909544986913204e-05
-0.15480638043201214 0.04408614097744012 0.025656451555571547 -0.005214433366613103 -0.005783196661239175 -9.437304055031812e-05
-0.17096379027925182 0.06195679003149612 0.02512461760904823 -0.012640175509381934 -0.008627615889483993 -0.002044101307485366
-0.18068090026809033 -0.0022699731102074966 0.020978839862672405 1.070142687538975e-05 0.0005265297190609642 0.018856566139451292
-0.1709282337226189 0.061921598692484245 0.025186378824771486 0.012661605768010202 0.009717010171515616 -0.002036759377497358
-0.15473663232784107 0.04401659845242738 0.02577917662087423 0.0052356113941493445 0.006977311108178927 -8.095046951157446e-05
-0.13933774039257454 0.040897222329544326 0.02430383852375325 0.005084392590425485 0.0017907541461908648 3.4080322691302308e-06
-0.12068923847115236 0.03460063743030772 0.02201836538646423 0.004859057222478589 -0.003223326409389924 -1.2990625558949309e-05
-0.10112663915879602 0.028804313232690372 0.019227903823495988 0.004784137356199971 -0.007788334851789292 4.070534334777625e-05
-0.08128107649589918 0.022916440872224816 0.016127249125736213 0.004643752971893329 -0.011507067695973025 9.05973117236596e-05
-0.06075743741105661 0.01701117803751196 0.012867585494613639 0.0046951935164869915 -0.014045922176679784 0.00014580685327636735
-0.03848561802592527 0.010513262019922441 0.009734847533759352 0.005147084539026325 -0.014773831896342213 0.00047094747084810827
-0.017471316720077158 0.002378668490877213 0.007560090677887515 0.005306505975450694 -0.01133260872453042 0.0011628427128431511
-0.008185653008812166 -0.0023574436037443 0.007158278406923133 0.0032562393066714146 -0.007993550758743305 0.004374351293819916
0.025152772201762284 -0.0934754975246372 1.0354130747236567e-17 -0.05295518581303259 -0.02183165283741495 0.027510467830855694
0.030284790462295524 0.00971696220987924 -0.0035040786874143103 -0.02352372666287164 -0.0227241634918925 0.00093555323048681
0.042200470999911886 -0.013179369938881092 -0.009241775282067833 -0.01108972231926465 -0.02219992990954839 0.007717115877803186
0.0593458015092225 -0.01548224455167247 -0.012993119469340002 -0.011435960281200011 -0.019753091537983103 0.00837336405045067
0.08055797123301645 -0.0222693293680094 -0.017185254857773107 -0.010778079998019557 -0.01765211010811407 0.011500245468259307
0.10207032458433173 -0.028221770422049253 -0.021219652142063825 -0.009779168283876979 -0.01386471749847785 0.014181259363102737
0.12305305656689794 -0.034231977697247055 -0.025014782296536357 -0.008168641705778957 -0.008647584609097956 0.016936121598314494
0.14278346750405477 -0.039998103279656035 -0.02833576948803934 -0.005954482735611817 -0.002107739159295652 0.01964312700981245
0.15933857801038445 -0.04500536554631014 -0.03084317122810756 -0.003099143665051632 0.00426720407776803 0.02243368370527464
0.1698769285920274 -0.04791775138446043 -0.03222601066713913 -0.0005758377314106049 0.006075328267995564 0.025432032872025938
0.1733004892766268 -0.04808316057340901 -0.03260675961366251 -7.053002754299617e-05 -0.0001460399920485112 0.027477156437799792
0.17000609469130235 -0.04795890262638978 -0.03225644011254338 0.00043111569766961363 -0.006364843140902255 0.02543912732913273
0.1596217477757383 -0.04509535649533587 -0.03090882642725297 0.0029434402432863016 -0.004548245339218645 0.022447746468105736
0.1432736119275521 -0.040153151222761974 -0.028447307780072623 0.005780219672590794 0.0018443240361173745 0.01966451879026447
0.12383835194502964 -0.03447789554592498 -0.025190251422559994 0.007968840097569856 0.008415327119948402 0.016961951004244077
0.10328061601495972 -0.028597873232299863 -0.02149198849195414 0.009543988089462416 0.0136934423238831 0.014221856278060607
0.08237675818046708 -0.022820812447593364 -0.017594644710770362 0.010508526717115468 0.01754255772106059 0.01150413298924156
0.06201954393640098 -0.01627444463901229 -0.013675750663246585 0.01105434261901065 0.019879455814517808 0.008587718957096195
0.046520250017532065 -0.014316326783069943 -0.010059861600285769 0.010627643331058508 0.021852324186451774 0.007005333952245915
0.039582308537735 0.008137405052640077 -0.006005841945500824 0.02440760463975075 0.029220010774987933 0.00514655480896404
0.03827885530679288 -0.09864534531955083 0.007873407823455254 0.0318308608453232 0.03827387461150734 0.010670133376467758
0.01545000025792331 -0.08114874413538783 0.006530174992749656 -0.03398972546274015 -0.018037654345464855 0.0158141431133222
0.013952768069918315 0.006489013451207562 -0.0022916367606409618 -0.028163440829949715 -0.015103474577091781 0.004743365695516926
0.022277131778637632 -0.008083905758151265 -0.005976697597878707 -0.02343268121678676 -0.013703659909094367 0.00831509908562748
0.038691542499641074 -0.012417584816173489 -0.009240626628334567 -0.02373315446679993 -0.0121163779032312 0.010782819319186237
0.05253752578744597 -0.01752110463365873 -0.01223119604278498 -0.023199300954761998 -0.010514575873842297 0.014305658258174885
0.06687272606685823 -0.02238145604188047 -0.015193865696077684 -0.02130890895133225 -0.008285647019119333 0.017818567999430587
0.08080213070940147 -0.027175470120460683 -0.017936640295687395 -0.018514733417941385 -0.005184508646676339 0.021351639102366943
0.09389900273211374 -0.031855296465367985 -0.020326907133700327 -0.014439052676505758 -0.0013568572645378287 0.02499806813654421
0.10494100799758752 -0.03590876675458244 -0.022144363664026487 -0.008529103925461391 0.002412963360163753 0.029148830979963576
0.1120554097110724 -0.037676513095900144 -0.0232358850559423 -0.0022448492057251974 0.0035985576016985747 0.03435574560965788
0.1144098638827836 -0.03630510744407567 -0.023646968157393207 -0.00012575254254312915 -3.4982784358956364e-05 0.038394266732135134
0.11219121156993786 -0.03771932888283846 -0.023260825322889797 0.0019853357052683953 -0.003661557635408088 0.03435649007250478
0.10523534054805751 -0.036001642663108104 -0.02219913614617878 0.008245162988281115 -0.002454838684779516 0.02914936896707638
0.09439925399692398 -0.03201318532972251 -0.020422091572064874 0.014112930389680488 0.00135047601479329 0.024996381426280107
0.08158408538494563 -0.02742191252854734 -0.018091118310091955 0.01812664841831333 0.0052296902075771295 0.021343556028848236
0.06804632384514685 -0.022751325477599876 -0.01543616597602462 0.02083678261398377 0.008393022624760568 0.017800880493844866
0.05424726674481144 -0.018057393095186263 -0.012616933947023365 0.02262008976649111 0.010711314254054444 0.014259621648421239
0.041161803724209044 -0.013162147508549224 -0.009813982368025696 0.02295123429515505 0.012316912310352163 0.010773431643667557
0.02582219639112591 -0.00911372105677583 -0.006988387478483106 0.0222258485513674 0.014270616704554002 0.007991330699534744
0.017153425563662634 0.006078876125955181 -0.0032171547336903206 0.026564022665018908 0.01727167388365319 0.006803643544108507
0.017683836851451643 -0.08513059104957207 0.00811340560429847 0.021269773803776586 0.02135736870319635 0.0064231592793929804
0.007966664807121975 -0.05646406417379531 0.0071404787095975105 -0.03990605255110531 -0.010983588529805832 0.005237632012153585
0.004678359726245471 0.0013540843298688425 0.0003421800481658289 -0.045746671144586915 -0.008595806277363567 0.007371803501610772
0.006922384825243441 -0.0002524290392744528 -0.0025804974273244165 -0.03990181525557089 -0.00677377444034528 0.009493452997062895
0.016923104776914413 -0.005600445350833091 -0.004478428256252941 -0.04058174449630048 -0.005493274569291789 0.013752508309759374
0.025086217997015194 -0.00830563145547317 -0.0061235280595586744 -0.039203470561488714 -0.0044927182884594115 0.018149882427779773
0.03245615423004586 -0.010844368112020244 -0.007682425979747858 -0.03618668419869607 -0.0033999724897764067 0.022769134300026996
0.03971679157129052 -0.013302793560557562 -0.009124065348913416 -0.03170086641237269 -0.0019337029644437708 0.0274305382464768
0.0467281444025002 -0.01588111618402143 -0.010369480457563824 -0.025181795506747495 1.880514134219013e-05 0.03234752412043362
0.05271523380229122 -0.018189326908795884 -0.011347336625138635 -0.015123220748859564 0.0025007444807708563 0.03813744411642033
0.05578946759357968 -0.01737683679397688 -0.012068553793946477 -0.003264045544435102 0.003822451108470391 0.04604258129193685
0.056335723906303585 -0.011509441903942489 -0.012536437139487992 -0.0002009540346745095 5.376643346826829e-05 0.05348555668369148
0.055927234230033804 -0.017422313125404293 -0.0120873439558839 0.0028488049309472333 -0.003704301874979369 0.046038432814196145
0.053011007845915795 -0.01828667921670919 -0.011389362275430614 0.014667195590316888 -0.0023512775509635033 0.03812790465044474
0.04722278531774997 -0.01604300927146302 -0.010444418084622207 0.024654912676862227 0.00018087789138680166 0.032329597252261075
0.0404729420997529 -0.013548200217024567 -0.009248222719253347 0.031068331448600352 0.002197531131537648 0.027399371532158864
0.03355941640576828 -0.011200951244860728 -0.00788240760064829 0.03540751656683914 0.0037332744248784466 0.022713879422692596
0.026643145427349132 -0.008805407757776827 -0.006438513204778147 0.03822653964552736 0.004878485587379366 0.0180688971789042
0.019040822307339347 -0.006266959408699163 -0.0049758812319355555 0.039276601468805565 0.005890904348589822 0.01359127418625708
0.009124075983192419 -0.0008477376238450054 -0.0033434060060531573 0.03800522793755952 0.0073253160428212285 0.009529093579310305
0.006149260261389691 0.002147364354972249 -0.0003247949101466504 0.04321844819300974 0.00941270630655032 0.0074850012476135016
0.008927786779302989 -0.05889485838970454 0.007475221386828499 0.03772025644920328 0.012052384659308307 0.00500585930509354
0.002140876582471019 -0.03385828751146597 0.006376970597168273 -0.036903046688053054 -0.0049548047851395004 0.001847019986266038
-0.0024412818251119926 -0.000717804803986747 0.0024802171770446366 -0.048378376323018765 -0.0028072657823308643 0.006401978405109261
-0.006130792863108597 0.004280886796773128 0.0009184691930355964 -0.04857249144410357 -0.0004428019954864321 0.009815730283816897
-0.0040084063089080016 0.0016488412345040566 0.0005235474113139994 -0.04637067347908993 0.0007360261416729591 0.014461247328844056
-0.0023247174418951 0.0007003281803823809 0.0003780504185435987 -0.04446434917026076 0.0010847020660103175 0.019264638857151673
-0.0015687266531096869 0.0004922602435129602 0.00029297005962742337 -0.04101818754002086 0.001179787486402989 0.02416173525170249
-0.0008678774826461105 0.0002912969287346856 0.00023601768697991993 -0.03600982388526265 0.0012660571691358946 0.029167215244974485
0.00029099862256008703 -0.00020580484095862383 0.00019884033850014684 -0.02896872363283963 0.0015953033136721498 0.034381011918280156
0.0015897735197074785 -0.0011683197479878597 0.00010760756847166548 -0.01744877465507899 0.003088360976762006 0.04036097875756713
0.00036486614020916344 0.002124430882511838 -0.00026272803969805414 -0.0010809669870227882 0.005020457878027447 0.048942436365651376
-0.001365423807564001 0.016378477005192252 -0.0009652514193758711 -0.00022562524361986638 0.0001335228912002646 0.06000105753809764
0.0005026035060167774 0.002077162655350136 -0.00027501590790695056 0.0006143386558979949 -0.0047393801806470785 0.048936773557351
0.0018827593733879294 -0.0012685019900879895 7.923643974436944e-05 0.01693510949747575 -0.002766356388078766 0.0403482385075508
0.0007731162798675702 -0.00036954660507613265 0.00014629802885381094 0.028373416312360004 -0.0012097825453925874 0.03435796944657777
-0.00014868109691541787 4.92375123832826e-05 0.00014585519413793822 0.0352922320753353 -0.0008042723382575331 0.029127561720305884
-0.000554702565870781 0.00015248734428541065 0.00014479298678372616 0.04012737495891338 -0.0006488430295010946 0.02409579205963968
-0.0009558480208140723 0.00024062573206785025 0.00014111270679183216 0.04333009476167869 -0.0005267002910064397 0.019155508973537884
-0.0023711894845570222 0.0010913954430307718 0.00015027935874627755 0.0448878784413627 -0.00021671619348467643 0.014309968149570763
-0.00474523979926873 0.004122679859573727 0.00038723442289314354 0.04670149786017666 0.0008718103473501839 0.00973256126483202
-0.0016473430964143508 -4.117280410190628e-05 0.0019958283326813485 0.04727645616367771 0.003167280727292341 0.0065813043809548645
0.002671087885125759 -0.03554890851971789 0.006407522891004433 0.036550654492963824 0.005402304068516764 0.0028949445775325816
-0.003003891327035286 -0.016222278049397923 0.005575274560409779 -0.02804651233919092 7.273945925307925e-05 0.0014584056643703472
-0.008905978460634227 1.4657222282354204e-05 0.0041764519140169865 -0.040683795682089116 0.00263006487624174 0.004967395894022738
-0.018208021296544582 0.0076012443903871775 0.004300997896156574 -0.04469386875852259 0.005966639979681969 0.009074603183115102
-0.024182088151774393 0.008390608000497948 0.005488731326322748 -0.04165476111145063 0.007077589431574884 0.0136239561835459
-0.029695997616498934 0.009818467778615529 0.0068786239262544156 -0.039240221623408206 0.006738931927979457 0.0181922046918829
-0.03562316822381621 0.011845327087729937 0.008265769215631586 -0.03616326609485637 0.005784260051925165 0.02277309742697671
-0.04148050995889899 0.0138276054608148 0.00959322873107178 -0.0317543961166107 0.004552287099223917 0.027479939903614296
-0.04636884885383916 0.01571670640558555 0.010779506376475042 -0.025481954296605963 0.0030880492726537033 0.03220678777689176
-0.04937718865806012 0.015886356159934945 0.011596836486015403 -0.016196728952939374 0.002748744848952301 0.03725151090066253
-0.05487485608022005 0.01937274505269555 0.011485668718991052 0.004163516912423846 0.005618603984615364 0.04423540708294381
-0.059348935201129105 0.04895212199672195 0.010068080161419295 -0.00020308585871185638 0.00021504822187368925 0.05865886266301122
-0.054736559231359734 0.019323593345557465 0.01147986645508957 -0.004583751415925521 -0.005170686957218335 0.044231642990681684
-0.04908587048313153 0.015783140372424353 0.011582158191144226 0.01573356605507143 -0.002249236349783264 0.03724280825739267
-0.04589769841321099 0.015550664091341017 0.01074950225138348 0.024944578537732947 -0.0025099016785374707 0.032190359771445805
-0.040797338934093604 0.013588374544335861 0.00953760949002612 0.03110626727613912 -0.0038836897450236657 0.02745046509808812
-0.03470090171001373 0.011523584228350748 0.008169953505260065 0.03535570114561122 -0.005044145325421989 0.02272127514568455
-0.02854608422709126 0.009408134161346731 0.006722644324104574 0.038205784799069456 -0.005997292077209029 0.01810563094551853
-0.022973105150683678 0.007978245263655745 0.005247433916444521 0.04033254541892889 -0.006465471201544238 0.013506561855167189
-0.017323020734189436 0.007563887006983933 0.003968980359520864 0.04341238168954409 -0.005624323508388351 0.008995629435754585
-0.00845890527781401 0.00040755034573182795 0.0038627032407067318 0.04038028030172217 -0.002490456375913197 0.005187629896289875
-0.0027143935604219847 -0.017194961044132717 0.005524806592425312 0.02824701255872569 7.876473541645955e-05 0.0024384381123217407
-0.007060679138772522 -0.00531784009853251 0.0053505433029127315 -0.015528563953732828 0.004490845006814529 0.002137170837602978
-0.014677259765144257 0.001986662595622197 0.005653186651402106 -0.023439821432926628 0.008190574071358826 0.0035659522505366286
-0.02985233001557106 0.010559907595542291 0.007415582262100319 -0.026850525030177964 0.013061799274284676 0.0071300147924906
-0.04411530774107475 0.014962323308488951 0.010145286695813683 -0.024968434534202902 0.014108006963189645 0.010758627920271468
-0.057280725261368716 0.019119089078424262 0.012988966459432027 -0.02324292616927592 0.012948231486174903 0.014293720337507022
-0.07009677393003609 0.023432950842224683 0.01576319291269928 -0.021309157156687256 0.010780437321663072 0.01781509041252497
-0.08249031607743731 0.0276996590804358 0.018396805857969666 -0.018570482319173635 0.007951806312902513 0.02137642745385896
-0.09426774319664077 0.03163645575181668 0.020767345311072705 -0.014879386841394275 0.004708671969243047 0.024991299614195838
-0.1018413016591766 0.035496357200776534 0.022513565144900428 -0.00863358047593386 4.904174182288073e-05 0.02800852916834365
-0.11046650950309583 0.03244016931091803 0.022538203021121982 0.0043886466285777475 0.002193857463196758 0.03200406783612992
-0.11722239715424773 0.08641943374848782 0.019252677109506275 -0.00012849043023692832 0.0003092716775751558 0.042532907175352075
-0.11032422564707724 0.03238783403887217 0.02253851230839455 -0.004654455031186773 -0.0015526721424048153 0.03200525666326767
-0.10154471506502574 0.035387574529056005 0.022511718629059468 0.008340938445188632 0.0006574827027255018 0.028010286160565823
-0.09379694267661708 0.0314644709793585 0.02075824893932182 0.014540793648698558 -0.00390336753639805 0.02499206448895362
-0.08182818434861132 0.027458905084498175 0.01837261500894779 0.018164110052590898 -0.00703510062284386 0.021372932024359848
-0.06925255740865476 0.02312520590233524 0.015713858636634593 0.020806993352297062 -0.009781507649266233 0.017801312838677197
-0.05633813699070687 0.018770949155806436 0.012904106992796996 0.02260456478319253 -0.011972578981061495 0.014262187434419852
-0.04328292280059032 0.014683224028979529 0.010016119703909837 0.024195341385883935 -0.01336740373508795 0.010710229680811636
-0.029373826321709963 0.010569134625150207 0.007240285924041511 0.026227126043603624 -0.012779478255493774 0.007109311327164001
-0.014515828971388374 0.0021989094579768624 0.005480551308340717 0.02343379867726311 -0.008245319355690955 0.0037222040571342793
-0.006987598354156013 -0.0057006867449980346 0.005291130366890158 0.01573327327745303 -0.004598894135348115 0.0027725841199734615
-0.008000794239863235 -0.0018015615197490105 0.006107857693703852 -0.00765661079209035 0.00899059279747825 0.0025794026759475056
-0.01816186515511891 0.003061297171504493 0.007068087492844711 -0.01097966088471081 0.014544430542165272 0.0029824137106687484
-0.04106079881016167 0.011995516504983938 0.009958371639830738 -0.012344286308656851 0.021581322508526297 0.005921209382256043
-0.06464146033394791 0.018289078705981815 0.013898886215688461 -0.011868989950195067 0.022531801011673524 0.008812386720264345
-0.0854948130289194 0.02384028197202051 0.017884551718525186 -0.011036705340101708 0.020309801907060564 0.011553805604760468
-0.10535069478781336 0.029307362558344242 0.021766427003919866 -0.009901785568133701 0.016580754813454415 0.014266386979884822
-0.12468074163448012 0.03481332567415224 0.025468410309398833 -0.008413687579404286 0.011705755027594609 0.01701768801913041
-0.1430218513216227 0.039477631727507984 0.02878889207048152 -0.006167277100218296 0.005917282264815426 0.019533917686349236
-0.16044432479196902 0.04644984844044448 0.03143974751508511 -0.0030180054456028817 -0.0023962855300821706 0.022513539162936275
-0.16852844227547487 0.037702109062082614 0.03158786998048926 0.008387587845464672 -0.017399771800696764 0.020218714665922753
-0.16800884258379944 0.10618340700705903 0.023820720119046027 -8.3025127839996e-05 0.0004300399367492295 0.041696781187150735
-0.168375240979304 0.037647677808851164 0.031593629525150733 -0.008559105748997433 0.01828921478192086 0.02022114095918419
-0.16012847890592674 0.04633729393562546 0.031449098016495786 0.0028302149139027254 0.0033704492290978117 0.022517699978293133
-0.14252987167895056 0.03930131967212575 0.02879730416615211 0.005952758826723594 -0.004815115706699409 0.01953823995986609
-0.12400948575061296 0.034570007027970695 0.02546881480395746 0.008163039245371526 -0.010459259448610796 0.017019321188978958
-0.10454377537997578 0.029005342803361457 0.021749948150409742 0.009608073140677126 -0.015228243770749831 0.014261105207243652
-0.08471259969852735 0.023523723225829647 0.0178434235647713 0.010696763463504873 -0.018997085013642376 0.011538742467742362
-0.0641835368549183 0.018076816856021322 0.013829251797425264 0.01150754886004769 -0.02157297006345992 0.008793585187642668
-0.0411044383087749 0.012040214872688304 0.009858311334695818 0.012084267560998091 -0.02134699479421554 0.0059333292816824024
-0.01841236503501178 0.0032259911056121368 0.006970907584846047 0.010995284342333565 -0.014893150059402274 0.0030897672182835178
-0.008208366338069938 -0.001935388441350701 0.00609248146972027 0.0077186923268311655 -0.009481573207345972 0.003003315488503417
SCALARS Stress_vm float 1
LOOKUP_TABLE default
19009.161306634163
8718.791923580047
9429.514754289541
13050.889909330384
17412.439056197072
21813.699788207316
26149.276478833828
30267.728383051406
33762.412471083095
35935.056318415
36504.341752482396
35962.850608882
33821.54217734506
30368.171999941715
26308.686063767673
22058.6701437487
17776.9811029977
13585.459605190128
10218.001278513582
10265.181738719351
20541.023489354833
16137.99150569081
5076.475215919566
6715.692007392017
9619.582878626235
12536.771739001319
15490.822645405447
18427.171225227965
21254.9037993427
23699.742938810487
25212.104760115573
25495.178336124074
25237.51416446169
23753.813008442252
21346.08351843936
18568.979554161535
15701.442673137708
12836.835144929508
10023.454251168656
7179.930947458063
5366.730883376936
16786.7211288055
11897.374225874475
6282.005593654122
6191.614482736032
7299.356697189567
8479.772474860709
9745.745413213348
11098.912819307496
12542.846756459192
13912.944071717844
14615.479595274923
14362.61681056659
14632.579109554637
13947.015571155951
12598.237675224203
11181.359551522377
9858.55861081974
8614.996594577442
7405.008649914863
6142.925784953583
5885.114749378341
12208.77237606356
8119.7258523092405
6904.743709089573
7215.917021969892
6814.264906683196
6631.549974226281
6480.068252688044
6571.2316406870395
7123.6603631313355
8295.678484808583
9222.344344294752
8728.94887806081
9209.88261801308
8277.353083450347
7085.301656081384
6496.578646354656
6353.355131314818
6440.878717336289
6540.803028803158
6869.599773779018
6692.400018110143
8319.555388729113
5049.213541271684
6219.208330846166
7862.643715314301
8381.487021807794
9203.074629635208
10260.690685747417
11388.664021958413
12404.46279769941
13378.94608720389
15058.885202894204
17110.761261159845
15026.972210259766
13313.416688517762
12295.430756273247
11229.66802809822
10042.22538199539
8918.132585460698
8050.809525611787
7597.37635832953
6135.533390419046
5155.275471604274
3072.655493641278
4903.63536665404
8216.464910591856
10903.027362487937
13494.090446603428
16147.557089726733
18786.412665203647
21285.338879629162
23213.717686478845
25070.97544572147
29508.67316094421
25041.550435251487
23151.615318776825
21181.966537308665
18637.369350601068
15951.025796575712
13263.492238874918
10687.664170863793
8097.311047651724
4884.232281572752
3104.4276950131334
2652.432820167698
4725.065014309805
9634.86256662074
14312.964166780304
18474.14363202577
22524.386881827275
26521.300868325725
30309.84349143397
33965.36116921836
35989.47639743025
39286.79248137909
35969.20122442827
33903.64945608744
30206.815607083703
26374.416634564197
22339.03720756139
18280.831257034348
14182.575801301451
9635.829186647035
4786.937863326336
2715.4549723749915
12393.211237273536
7320.068173527662
9361.953179906337
13038.290143440992
17152.994432307376
21297.482641032613
25367.521615064226
29324.17489950784
33161.776832234376
36590.324467885395
38270.344803359396
36600.880547423105
33183.66178665206
29360.351421384054
25424.905028910893
21389.489731488175
17305.37879785249
13292.110349713188
9851.395405958472
7930.638251994435
12993.59808545474
10498.232081584581
3985.96235260959
6335.057551397737
9269.71598672459
12130.401724275935
14993.578266279303
17809.200109756566
20522.32920283653
23140.528932457768
25623.671433254163
27108.14247537932
25632.4073863505
23159.26649873377
20553.983744615176
17859.45385875494
15073.023640779964
12257.409764585196
9479.559079434475
6646.730689414589
4215.62451529298
10691.859877785137
8017.015736903621
3702.388740484858
4309.533691444896
5746.417000777275
7197.084350393313
8639.004744631658
10052.957787364287
11362.600969201685
12714.03620172338
14671.351859364868
16673.53705614094
14677.630244033624
12728.684037564986
11387.295961774389
10089.95956428708
8692.88225991152
7276.149421511103
5852.829686664799
4393.627776871704
3503.4914281545534
8026.8779014941165
5661.773707507591
4114.731388478302
3983.884209332555
3702.1451631182135
3795.563331631697
4071.757064045486
4499.297044994145
4966.904683621779
5438.416289438728
6972.03157489353
10942.75841726258
6967.652120642618
5431.216720916358
4962.465584340473
4493.350151426076
4056.758768978215
3756.886108184234
3618.963293794071
3815.5244573840846
3925.821376870489
5686.460086139269
3682.3927191364437
3943.9720934287357
5194.444489302335
6097.105838174103
7327.3128140248555
8735.576791474214
10172.109239845317
11667.548712253232
13012.582987128613
13104.937362896071
14225.606516346337
13094.412976510537
12999.90809813269
11649.153678229248
10142.630010372915
8689.82760454966
7256.4638153191345
5993.847929367864
5079.069845333717
3848.0489612317974
3716.109292777896
2549.814516023112
3680.498932937799
6646.874041726502
9484.605562875216
12289.071083815907
15121.898802006708
17934.29213637825
20651.289723596525
23327.631193143065
24714.08865508443
23313.94191499969
24705.925970755936
23318.013833633344
20634.203699534155
17908.31358082586
15085.991199345774
12244.845714989202
9442.5083286019
6627.061892715725
3663.3258513172264
2563.7055022236877
2610.2742179360594
4236.884065786689
8622.661416248027
13139.38162806064
17341.057876420153
21446.56401390357
25503.176399925145
29419.04744864711
32621.264159722847
35817.14243935079
35815.36047456027
35817.310721132504
32616.86097113664
29406.992827128186
25483.509561912197
21420.545878534973
17317.065056781503
13138.650293492701
8668.80777402392
4297.5366140669985
2662.8600958730403
11508.830475859753
7266.490400087751
9024.55765908753
12546.448240239288
16459.614717963737
20340.51777533249
24199.99746113436
28210.09427034444
32723.946654758085
37516.43122646421
40113.02070820951
37506.97148339774
32703.37444200327
28175.44097015078
24146.48078369034
20260.895999125016
16343.076163424807
12381.624973525968
8734.90326291889
6713.805855591667
10570.84772817385
8998.48605228381
3824.945122625475
6278.142522990545
9091.446756992691
11789.902564914517
14470.661871913757
17146.709106529077
19903.425973973222
23010.52770499152
26533.44612306788
28834.062461911395
26522.364736371954
22986.083087039897
19863.126417545413
17087.47623778656
14388.124595595678
11679.143851106352
8945.042470292403
6097.223001904709
3822.6688696612227
8542.325995766769
6478.45679207659
3304.8676864398744
4340.385074155951
5837.365107482888
7197.745415331775
8527.632830471148
9844.161147169963
11126.691966826636
12798.989818954504
15744.805602317103
18787.964171004485
15737.260900066496
12778.5229617261
11091.842700498795
9795.808925278627
8467.000215699922
7128.1658938733835
5775.788021353339
4355.260655398166
3576.349307634024
6363.867428028133
4676.926221798494
3824.603371205978
3852.9204708289694
3791.780666482871
3917.3543913619333
4137.628230814912
4466.133859332365
4857.979729515591
5527.5412721964185
7195.52037826212
14320.440514573454
7195.719214704011
5537.85923126403
4873.079235693976
4489.273713560185
4174.752597508869
3979.3431573946473
3895.8247885429787
4030.3305723644153
3958.8293970415093
4569.124340912945
3224.526956287662
3794.0714038886445
4955.035586278207
5774.896079343193
6955.082764217235
8333.73490407572
9799.196399314109
11482.667838044092
13231.189056410283
13199.019377722232
16009.622649587229
13221.888443617438
13272.578579723122
11546.286110001183
9886.153797867339
8443.539413600825
7086.490558166528
5917.788076498348
5065.621505197582
3814.686078066263
3105.1476840957735
2466.4747358654176
3575.5880181513935
6307.428433193176
8888.745795967603
11526.40359788586
14264.463998619103
17064.364046654384
19922.285467666134
23082.735889410218
25101.37195549826
24621.024315818253
25124.67197037597
23130.37097953112
19994.34706967252
17160.48818493564
14379.547886660552
11648.134372861312
8989.853985449428
6350.914939699931
3554.454591196814
2347.148719423229
2582.995162100806
4048.2995257042817
8109.440175110375
12266.35765322386
16208.337220922367
20143.73626403263
24119.370372047735
28116.084772227037
31574.049781370486
36490.17588724791
38639.94005069682
36518.61708085572
31632.349301110196
28203.23835266611
24233.890575580408
20277.117963474593
16339.593787310892
12357.194003262888
8131.666716695769
4035.190819666209
2503.92400491605
11522.221528416181
7261.337645919366
8874.130934004967
12293.392834938393
16140.249282978997
19961.451085339235
23800.958578083788
27902.611885168633
32679.049909552494
37846.34745167742
40659.90536697378
37828.66049848525
32640.792570126945
27838.228352957092
23700.444952627193
19807.397733684513
15904.770264266996
11935.809185738763
8294.796109172888
6304.697212175369
10049.927059467529
8868.776653720859
3780.7408862490615
6214.0763340659705
8964.023710450914
11618.548136909229
14266.853113257686
16943.986111350114
19781.38110840274
23080.6825210094
26855.50670265435
29317.250086739823
26836.623566381146
23038.966774609144
19711.872499724443
16839.506916993967
14115.59590103605
11403.280698804729
8661.15989800945
5841.214893157029
3609.103435874274
8118.227111646347
6294.369567504093
3107.632777848023
4289.8652082223825
5795.768134283977
7147.012922135198
8465.811115676308
9793.634112795271
11139.095993951261
12946.582324839403
16051.822164023715
19226.833521137298
16039.427858020636
12913.235264294073
11081.812320270046
9712.56270412396
8360.240776163018
7017.317921435622
5666.1897027847335
4261.019077300301
3463.7856500244025
5958.74333670678
4456.18735336496
3641.8822824264557
3759.9741171040046
3791.1387940516292
3962.4251134482315
4208.214168775812
4569.754927648143
5039.137797856305
5826.976174067781
7008.515858767925
15052.65764449479
7015.216014753464
5846.936616808399
5066.294184019037
4610.041571070833
4273.806527262737
4071.8857490846226
3970.412869963978
4049.6239615954455
3862.932450622397
4169.652790089925
3013.715431510912
3632.7914806789768
4783.549717902147
5609.709299715377
6792.065066272409
8176.28171403045
9672.762851609163
11440.533497028597
13341.057923258277
13425.204416505845
16170.054233012634
13458.946401545087
13403.06368856415
11536.446569934853
9807.606912465502
8353.594024928836
7014.756896857128
5863.862816885625
4989.693180352411
3692.5102154135875
2744.091114160117
2311.5962093494936
3381.1794804640085
6069.0819698511905
8619.89372427196
11226.81931430939
13948.297456628507
16770.908747784182
19726.479669323984
23098.498324215197
25325.922073977385
24629.679782012416
25360.212972250774
23167.89187527558
19832.874481849605
16916.17853252542
14127.604216972815
11423.955062953859
8791.995544204387
6149.486990487236
3356.918265291127
2085.6926049526887
2343.771618198657
3735.948630865663
7764.715230471688
11876.64485896317
15758.27306949495
19647.994350800254
23624.809369250153
27732.5211064954
31444.378343420623
36754.327735403356
38815.78874198127
36792.972377675804
31525.264539406533
27856.504353997945
23791.837081167414
19847.694925887452
15959.888554877924
12018.340565440987
7789.384899165043
3682.3549163916905
2160.862819971772
11508.830475879862
7266.490400104505
9024.557659101665
12546.44824024429
16459.614717968016
20340.51777533176
24199.997461137827
28210.094270350593
32723.946654762764
37516.4312264802
40113.02070821904
37506.97148341153
32703.374442026136
28175.44097015506
24146.48078368523
20260.895999091565
16343.076163408767
12381.624973513484
8734.903262906682
6713.805855579185
10570.847728156048
8998.486052292126
3824.945122631921
6278.142522998924
9091.446756998088
11789.902564919183
14470.661871912118
17146.709106533606
19903.425973977923
23010.52770499528
26533.446123080295
28834.06246191935
26522.364736377396
22986.08308706561
19863.12641754843
17087.476237791565
14388.124595577841
11679.14385109503
8945.042470282939
6097.2230018950195
3822.6688696546207
8542.32599575135
6478.456792079867
3304.8676864390654
4340.385074157078
5837.365107486551
7197.745415331827
8527.632830471728
9844.16114717569
11126.69196682875
12798.989818967026
15744.805602320597
18787.96417100605
15737.260900067675
12778.522961754668
11091.842700501024
9795.808925297488
8467.000215694172
7128.165893866455
5775.788021345081
4355.260655390037
3576.34930762664
6363.8674280144705
4676.926221801384
3824.6033712062504
3852.9204708268403
3791.7806664784866
3917.354391359227
4137.62823082202
4466.133859332099
4857.979729514102
5527.541272210952
7195.520378256899
14320.440514564427
7195.719214703382
5537.859231286072
4873.07923569509
4489.273713578854
4174.752597510459
3979.3431573908815
3895.8247885349274
4030.33057235711
3958.829397034416
4569.124340901437
3224.526956290002
3794.0714038902042
4955.035586278589
5774.896079340158
6955.082764217699
8333.734904075074
9799.196399311491
11482.667838040987
13231.189056410714
13199.019377717657
16009.622649574852
13221.888443617683
13272.578579727133
11546.286109993145
9886.15379787471
8443.539413577551
7086.490558162764
5917.788076491097
5065.621505188728
3814.6860780602783
3105.1476840852692
2466.474735866785
3575.58801815325
6307.428433194594
8888.745795967567
11526.403597884982
14264.46399861345
17064.364046656203
19922.2854676597
23082.73588941372
25101.371955497565
24621.02431581013
25124.67197037768
23130.37097953032
19994.347069659394
17160.48818493391
14379.547886633605
11648.13437285094
8989.853985438112
6350.914939690635
3554.45459119113
2347.1487194170436
2582.9951621017794
4048.2995257062985
8109.440175112113
12266.357653227627
16208.337220917994
20143.736264022078
24119.3703720519
28116.084772218037
31574.04978137644
36490.175887248195
38639.940050692945
36518.6170808604
31632.349301114744
28203.238352650947
24233.890575572368
20277.117963445082
16339.593787290496
12357.194003247316
8131.666716685929
4035.1908196590607
2503.9240049085915
12393.21123729499
7320.0681735615735
9361.953179928196
13038.290143457192
17152.9944323262
21297.482641052375
25367.52161507646
29324.17489948564
33161.776832231364
36590.32446791188
38270.34480338157
36600.88054743673
33183.66178666169
29360.351421369494
25424.905028893245
21389.489731465852
17305.378797828333
13292.110349677427
9851.395405935735
7930.638251971438
12993.59808541031
10498.232081590582
3985.9623526222836
6335.05755141323
9269.715986738933
12130.401724291904
14993.578266292485
17809.200109765156
20522.329202826113
23140.52893246285
25623.671433276602
27108.142475393313
25632.40738636403
23159.26649873663
20553.983744611778
17859.45385874058
15073.023640765374
12257.409764570995
9479.559079406834
6646.730689402932
4215.624515282489
10691.859877747758
8017.015736906083
3702.388740478001
4309.5336914498575
5746.417000787985
7197.084350406895
8639.004744639364
10052.95778736867
11362.600969204988
12714.036201733716
14671.351859394075
16673.53705615549
14677.630244053182
12728.684037557456
11387.295961786935
10089.959564280935
8692.882259905999
7276.1494215013745
5852.8296866481205
4393.627776867106
3503.491428146142
8026.877901464777
5661.773707511231
4114.731388473336
3983.8842093245903
3702.145163119432
3795.5633316362987
4071.757064039245
4499.297044994918
4966.904683623638
5438.416289425606
6972.031574923459
10942.758417287014
6967.652120654517
5431.216720915426
4962.465584349361
4493.350151428864
4056.7587689766924
3756.8861081823634
3618.96329378575
3815.524457376458
3925.821376861689
5686.460086116983
3682.392719138484
3943.9720934266866
5194.444489299014
6097.105838167983
7327.312814021684
8735.576791464087
10172.109239840756
11667.548712225142
13012.58298711753
13104.937362903838
14225.606516354994
13094.412976520116
12999.908098135349
11649.15367823021
10142.630010362902
8689.82760454545
7256.463815307376
5993.8479293465625
5079.069845322894
3848.048961222491
3716.1092927604486
2549.8145160268873
3680.4989329388372
6646.874041727913
9484.605562871164
12289.0710838139
15121.898802010059
17934.29213637
20651.289723569218
23327.63119312355
24714.088655086874
23313.941915003015
24705.92597076207
23318.013833629153
20634.203699527832
17908.31358081105
15085.991199331018
12244.845714962337
9442.508328577152
6627.06189269933
3663.3258513078545
2563.7055022137833
2610.2742179402403
4236.884065790229
8622.66141625512
13139.381628058036
17341.057876420044
21446.56401391832
25503.17639991279
29419.047448619447
32621.264159694056
35817.142439352814
35815.36047458298
35817.31072113662
32616.86097112166
29406.99282711852
25483.509561891344
21420.54587850515
17317.06505674307
13138.650293462242
8668.807774000064
4297.536614053421
2662.860095862238
19009.161306650916
8718.791923623516
9429.514754322596
13050.889909362504
17412.439056214665
21813.69978822172
26149.27647883749
30267.728383051817
33762.412471083495
35935.05631843058
36504.341752498454
35962.85060891016
33821.54217734458
30368.171999945
26308.686063755387
22058.670143717238
17776.981102962654
13585.459605156033
10218.001278481548
10265.181738681189
20541.02348927185
16137.991505700185
5076.475215928539
6715.692007409498
9619.582878647054
12536.771739012329
15490.822645417145
18427.171225233942
21254.903799342406
23699.742938809562
25212.104760135466
25495.178336154313
25237.514164489832
23753.813008441222
21346.083518442076
18568.97955415334
15701.442673115696
12836.835144906803
10023.454251149908
7179.930947436934
5366.730883356334
16786.721128735844
11897.374225885786
6282.0055936463805
6191.614482736971
7299.356697190413
8479.772474862359
9745.745413216388
11098.912819308793
12542.846756451727
13912.944071716693
14615.479595285376
14362.616810616906
14632.579109576984
13947.01557116089
12598.237675226383
11181.359551516096
9858.558610811002
8614.996594568338
7405.008649902544
6142.925784931985
5885.1147493563585
12208.772376014069
8119.725852318452
6904.743709089392
7215.917021964439
6814.264906668512
6631.549974210788
6480.068252676842
6571.231640673396
7123.6603631152475
8295.678484805576
9222.344344279913
8728.948878083385
9209.882618011188
8277.35308344656
7085.301656090803
6496.57864635943
6353.355131321316
6440.878717333704
6540.803028790167
6869.599773754659
6692.40001808499
8319.55538869735
5049.213541278797
6219.20833084852
7862.643715310698
8381.487021798886
9203.07462962153
10260.690685731031
11388.664021942426
12404.462797689399
13378.946087198305
15058.885202872829
17110.761261129126
15026.972210239812
13313.416688514235
12295.43075628871
11229.668028102007
10042.22538198942
8918.132585448699
8050.809525595028
7597.376358302432
6135.533390397052
5155.275471586305
3072.6554936467455
4903.635366656602
8216.464910594312
10903.027362489811
13494.090446597625
16147.557089708134
18786.412665192547
21285.338879613857
23213.717686468717
25070.975445711276
29508.673160904633
25041.55043524368
23151.61531878273
21181.966537304663
18637.369350592053
15951.02579655719
13263.49223885444
10687.66417083661
8097.311047627798
4884.232281555961
3104.427695002626
2652.432820175144
4725.065014315653
9634.862566628071
14312.964166789596
18474.14363202755
22524.386881813945
26521.30086831165
30309.84349140629
33965.36116919333
35989.4763974183
39286.79248135431
35969.20122443159
33903.649456091865
30206.81560706428
26374.41663454271
22339.037207529003
18280.831257000806
14182.57580126024
9635.829186619745
4786.937863310768
2715.4549723663076
SCALARS Statev float 1
LOOKUP_TABLE default
0.0
0.0
0.0
0.0
0.0
0.0
0.0
0.0
0.0
0.0
0.0
0.0
0.0
0.0
0.0
0.0
0.0
0.0
0.0
0.0
0.0
0.0
0.0
0.0
0.0
0.0
0.0
0.0
0.0
0.0
0.0
0.0
0.0
0.0
0.0
0.0
0.0
0.0
0.0
0.0
0.0
0.0
0.0
0.0
0.0
0.0
0.0
0.0
0.0
0.0
0.0
0.0
0.0
0.0
0.0
0.0
0.0
0.0
0.0
0.0
0.0
0.0
0.0
0.0
0.0
0.0
0.0
0.0
0.0
0.0
0.0
0.0
0.0
0.0
0.0
0.0
0.0
0.0
0.0
0.0
0.0
0.0
0.0
0.0
0.0
0.0
0.0
0.0
0.0
0.0
0.0
0.0
0.0
0.0
0.0
0.0
0.0
0.0
0.0
0.0
0.0
0.0
0.0
0.0
0.0
0.0
0.0
0.0
0.0
0.0
0.0
0.0
0.0
0.0
0.0
0.0
0.0
0.0
0.0
0.0
0.0
0.0
0.0
0.0
0.0
0.0
0.0
0.0
0.0
0.0
0.0
0.0
0.0
0.0
0.0
0.0
0.0
0.0
0.0
0.0
0.0
0.0
0.0
0.0
0.0
0.0
0.0
0.0
0.0
0.0
0.0
0.0
0.0
0.0
0.0
0.0
0.0
0.0
0.0
0.0
0.0
0.0
0.0
0.0
0.0
0.0
0.0
0.0
0.0
0.0
0.0
0.0
0.0
0.0
0.0
0.0
0.0
0.0
0.0
0.0
0.0
0.0
0.0
0.0
0.0
0.0
0.0
0.0
0.0
0.0
0.0
0.0
0.0
0.0
0.0
0.0
0.0
0.0
0.0
0.0
0.0
0.0
0.0
0.0
0.0
0.0
0.0
0.0
0.0
0.0
0.0
0.0
0.0
0.0
0.0
0.0
0.0
0.0
0.0
0.0
0.0
0.0
0.0
0.0
0.0
0.0
0.0
0.0
0.0
0.0
0.0
0.0
0.0
0.0
0.0
0.0
0.0
0.0
0.0
0.0
0.0
0.0
0.0
0.0
0.0
0.0
0.0
0.0
0.0
0.0
0.0
0.0
0.0
0.0
0.0
0.0
0.0
0.0
0.0
0.0
0.0
0.0
0.0
0.0
0.0
0.0
0.0
0.0
0.0
0.0
0.0
0.0
0.0
0.0
0.0
0.0
0.0
0.0
0.0
0.0
0.0
0.0
0.0
0.0
0.0
0.0
0.0
0.0
0.0
0.0
0.0
0.0
0.0
0.0
0.0
0.0
0.0
0.0
0.0
0.0
0.0
0.0
0.0
0.0
0.0
0.0
0.0
0.0
0.0
0.0
0.0
0.0
0.0
0.0
0.0
0.0
0.0
0.0
0.0
0.0
0.0
0.0
0.0
0.0
0.0
0.0
0.0
0.0
0.0
0.0
0.0
0.0
0.0
0.0
0.0
0.0
0.0
0.0
0.0
0.0
0.0
0.0
0.0
0.0
0.0
0.0
0.0
0.0
0.0
0.0
0.0
0.0
0.0
0.0
0.0
0.0
0.0
0.0
0.0
0.0
0.0
0.0
0.0
0.0
0.0
0.0
0.0
0.0
0.0
0.0
0.0
0.0
0.0
0.0
0.0
0.0
0.0
0.0
0.0
0.0
0.0
0.0
0.0
0.0
0.0
0.0
0.0
0.0
0.0
0.0
0.0
0.0
0.0
0.0
0.0
0.0
0.0
0.0
0.0
0.0
0.0
0.0
0.0
0.0
0.0
0.0
0.0
0.0
0.0
0.0
0.0
0.0
0.0
0.0
0.0
0.0
0.0
0.0
0.0
0.0
0.0
0.0
0.0
0.0
0.0
0.0
0.0
0.0
0.0
0.0
0.0
0.0
0.0
0.0
0.0
0.0
0.0
0.0
0.0
0.0
0.0
0.0
0.0
0.0
0.0
0.0
0.0
0.0
0.0
0.0
0.0
0.0
0.0
0.0
0.0
0.0
0.0
0.0
0.0
0.0
0.0
0.0
0.0
0.0
0.0
0.0
0.0
0.0
0.0
0.0
0.0
0.0
0.0
0.0
0.0
0.0
0.0
0.0
0.0
0.0
0.0
0.0
0.0
0.0
0.0
0.0
0.0
0.0
0.0
0.0
0.0
0.0
0.0
0.0
0.0
0.0
0.0
0.0
0.0
0.0
0.0
0.0
0.0
0.0
0.0
0.0
0.0
0.0
0.0
0.0
0.0
0.0
0.0
0.0
0.0
0.0
0.0
0.0
0.0
0.0
0.0
0.0
0.0
0.0
0.0
0.0
0.0
0.0
0.0
0.0
0.0
0.0
0.0
0.0
0.0
0.0
0.0
0.0
0.0
0.0
0.0
0.0
0.0
0.0
0.0
0.0
0.0
0.0
0.0
0.0
0.0
0.0
0.0
0.0
0.0
0.0
0.0
0.0
0.0
0.0
0.0
0.0
0.0
0.0
0.0
0.0
0.0
0.0
0.0
0.0
0.0
0.0
0.0
0.0
0.0
0.0
0.0
0.0
0.0
0.0
0.0
0.0
0.0
0.0
0.0
0.0
0.0
0.0
0.0
0.0
0.0
0.0
0.0
0.0
0.0
0.0
0.0
0.0
0.0
0.0
0.0
0.0
0.0
0.0
0.0
0.0
0.0
0.0
0.0
0.0
0.0
0.0
0.0
0.0
0.0
0.0
0.0
0.0
0.0
0.0
0.0
0.0
0.0
0.0
0.0
0.0
0.0
0.0
0.0
0.0
0.0
0.0
0.0
0.0
0.0
0.0
0.0
0.0
0.0
0.0
0.0
0.0
0.0
0.0
0.0
0.0
0.0
0.0
0.0
0.0
0.0
0.0
0.0
0.0
0.0
0.0
0.0
0.0
0.0
0.0
0.0
0.0
0.0
0.0
0.0
0.0
0.0
0.0
0.0
0.0
0.0
0.0
0.0
0.0
0.0
0.0
0.0
0.0
0.0
0.0
0.0
0.0
0.0
0.0
0.0
0.0
0.0
0.0
0.0
0.0
0.0
0.0
0.0
0.0
0.0
0.0
0.0
0.0
0.0
0.0
0.0
0.0
0.0
0.0
0.0
0.0
0.0
0.0
0.0
0.0
0.0
0.0
0.0
0.0
0.0
0.0
0.0
0.0
0.0
0.0
0.0
0.0
0.0
0.0
0.0
0.0
0.0
0.0
0.0
0.0
0.0
0.0
0.0
0.0
0.0
0.0
0.0
0.0
0.0
0.0
0.0
0.0
0.0
0.0
0.0
0.0
0.0
0.0
0.0
0.0
0.0
0.0
0.0
0.0
0.0
0.0
0.0
0.0
0.0
0.0
0.0
0.0
0.0
0.0
0.0
0.0
0.0
0.0
0.0
0.0
0.0
0.0
0.0
0.0
0.0
0.0
0.0
0.0
0.0
0.0
0.0
0.0
0.0
0.0
0.0
0.0
0.0
0.0
0.0
0.0
0.0
0.0
0.0
0.0
0.0
0.0
0.0
0.0
0.0
0.0
0.0
0.0
0.0
0.0
0.0
0.0
0.0
0.0
0.0
0.0
0.0
0.0
0.0
0.0
0.0
0.0
0.0
0.0
0.0
0.0
0.0
0.0
0.0
0.0
0.0
0.0
0.0
0.0
0.0
0.0
0.0
0.0
0.0
0.0
0.0
0.0
0.0
0.0
0.0
0.0
0.0
0.0
0.0
0.0
0.0
0.0
0.0
0.0
0.0
0.0
0.0
0.0
0.0
0.0
0.0
0.0
0.0
0.0
0.0
0.0
0.0
0.0
0.0
0.0
0.0
0.0
0.0
0.0
0.0
0.0
0.0
0.0
0.0
0.0
0.0
0.0
0.0
0.0
0.0
0.0
0.0
0.0
0.0
0.0
0.0
0.0
0.0
0.0
0.0
0.0
0.0
0.0
0.0
0.0
0.0
0.0
0.0
0.0
0.0
0.0
0.0
0.0
0.0
0.0
0.0
0.0
0.0
0.0
0.0
0.0
0.0
0.0
0.0
0.0
0.0
0.0
0.0
0.0
0.0
0.0
0.0
0.0
0.0
0.0
0.0
0.0
0.0
0.0
0.0
0.0
0.0
0.0
0.0
0.0
0.0
0.0
0.0
0.0
0.0
0.0
0.0
0.0
0.0
0.0
0.0
0.0
0.0
0.0
0.0
0.0
0.0
0.0
0.0
0.0
0.0
0.0
0.0
0.0
0.0
0.0
0.0
0.0
0.0
0.0
0.0
0.0
0.0
0.0
0.0
0.0
0.0
0.0
0.0
0.0
0.0
0.0
0.0
0.0
0.0
0.0
0.0
0.0
0.0
0.0
0.0
0.0
0.0
0.0
0.0
0.0
0.0
0.0
0.0
0.0
0.0
0.0
0.0
0.0
0.0
0.0
0.0
0.0
0.0
0.0
0.0
0.0
0.0
0.0
0.0
0.0
0.0
0.0
0.0
0.0
0.0
0.0
0.0
0.0
0.0
0.0
0.0
0.0
0.0
0.0
0.0
0.0
0.0
0.0
0.0
SCALARS Wm float 4
LOOKUP_TABLE default
2054.9614615654637 2054.9614615654637 0.0 0.0
371.84882664428767 371.84882664428767 0.0 0.0
443.0217004351295 443.0217004351295 0.0 0.0
927.4698694215831 927.4698694215831 0.0 0.0
1636.0955693411188 1636.0955693411188 0.0 0.0
2578.495481806168 2578.495481806168 0.0 0.0
3712.9108193796064 3712.9108193796064 0.0 0.0
4982.019813835837 4982.019813835837 0.0 0.0
6202.547960751341 6202.547960751341 0.0 0.0
7046.010907981612 7046.010907981612 0.0 0.0
7317.362259853881 7317.362259853881 0.0 0.0
7056.670054008749 7056.670054008749 0.0 0.0
6223.859675576404 6223.859675576404 0.0 0.0
5014.52597243771 5014.52597243771 0.0 0.0
3757.5583759636497 3757.5583759636497 0.0 0.0
2635.6461466519413 2635.6461466519413 0.0 0.0
1704.1544385369843 1704.1544385369843 0.0 0.0
1002.050190124153 1002.050190124153 0.0 0.0
526.7963870396147 526.7963870396147 0.0 0.0
587.0163329489448 587.0163329489448 0.0 0.0
1968.7572377210067 1968.7572377210067 0.0 0.0
1525.5475350224606 1525.5475350224606 0.0 0.0
46.16038746157575 46.16038746157575 0.0 0.0
205.9492758928525 205.9492758928525 0.0 0.0
440.2258553530002 440.2258553530002 0.0 0.0
755.65778874252 755.65778874252 0.0 0.0
1165.4364898629915 1165.4364898629915 0.0 0.0
1661.121656161309 1661.121656161309 0.0 0.0
2220.182360243629 2220.182360243629 0.0 0.0
2769.0291383560584 2769.0291383560584 0.0 0.0
3158.6975944604305 3158.6975944604305 0.0 0.0
3285.4571615309715 3285.4571615309715 0.0 0.0
3165.6103358689797 3165.6103358689797 0.0 0.0
2782.801413918685 2782.801413918685 0.0 0.0
2240.964924196888 2240.964924196888 0.0 0.0
1689.042541102506 1689.042541102506 0.0 0.0
1200.1486353060989 1200.1486353060989 0.0 0.0
795.3606739768533 795.3606739768533 0.0 0.0
481.8674993918266 481.8674993918266 0.0 0.0
235.50697799629438 235.50697799629438 0.0 0.0
53.30816220446758 53.30816220446758 0.0 0.0
1602.3326298210598 1602.3326298210598 0.0 0.0
848.6706772486706 848.6706772486706 0.0 0.0
126.03510969544894 126.03510969544894 0.0 0.0
176.9860433865413 176.9860433865413 0.0 0.0
230.3815120100778 230.3815120100778 0.0 0.0
318.71662886126666 318.71662886126666 0.0 0.0
420.8769963281129 420.8769963281129 0.0 0.0
546.2140423143408 546.2140423143408 0.0 0.0
701.2108419835314 701.2108419835314 0.0 0.0
869.7945248040329 869.7945248040329 0.0 0.0
982.0080059855146 982.0080059855146 0.0 0.0
1013.7690275248449 1013.7690275248449 0.0 0.0
984.8463837756237 984.8463837756237 0.0 0.0
875.1934727253265 875.1934727253265 0.0 0.0
709.0164715072583 709.0164715072583 0.0 0.0
556.1415781991033 556.1415781991033 0.0 0.0
432.2137617349417 432.2137617349417 0.0 0.0
330.0946568930364 330.0946568930364 0.0 0.0
237.06979299764694 237.06979299764694 0.0 0.0
172.19561428217423 172.19561428217423 0.0 0.0
106.65660033482386 106.65660033482386 0.0 0.0
885.5193233670503 885.5193233670503 0.0 0.0
391.4678507680029 391.4678507680029 0.0 0.0
182.85621564126905 182.85621564126905 0.0 0.0
227.95506115976679 227.95506115976679 0.0 0.0
208.7021381422829 208.7021381422829 0.0 0.0
205.99895675489086 205.99895675489086 0.0 0.0
202.9347196527628 202.9347196527628 0.0 0.0
199.34249380404907 199.34249380404907 0.0 0.0
206.11166339114442 206.11166339114442 0.0 0.0
238.23551149724355 238.23551149724355 0.0 0.0
273.7127244572913 273.7127244572913 0.0 0.0
296.94482064547117 296.94482064547117 0.0 0.0
272.70900120484606 272.70900120484606 0.0 0.0
235.83241081247218 235.83241081247218 0.0 0.0
202.12241790326115 202.12241790326115 0.0 0.0
193.4640283348469 193.4640283348469 0.0 0.0
194.74655633454748 194.74655633454748 0.0 0.0
194.6320998852683 194.6320998852683 0.0 0.0
192.63044801871902 192.63044801871902 0.0 0.0
209.5733431097773 209.5733431097773 0.0 0.0
167.69791880769182 167.69791880769182 0.0 0.0
412.04572626521286 412.04572626521286 0.0 0.0
148.6001528730292 148.6001528730292 0.0 0.0
168.15651523329902 168.15651523329902 0.0 0.0
269.3663382330599 269.3663382330599 0.0 0.0
317.23824685681245 317.23824685681245 0.0 0.0
382.51612369606266 382.51612369606266 0.0 0.0
472.9733862339423 472.9733862339423 0.0 0.0
580.0489143420033 580.0489143420033 0.0 0.0
684.3272479491588 684.3272479491588 0.0 0.0
801.5044089069012 801.5044089069012 0.0 0.0
985.3141963854453 985.3141963854453 0.0 0.0
1102.9651959323653 1102.9651959323653 0.0 0.0
980.8102727356348 980.8102727356348 0.0 0.0
792.2560256064143 792.2560256064143 0.0 0.0
670.343373625656 670.343373625656 0.0 0.0
561.5460750720113 561.5460750720113 0.0 0.0
450.547981191057 450.547981191057 0.0 0.0
357.3270577036637 357.3270577036637 0.0 0.0
292.3898864485858 292.3898864485858 0.0 0.0
251.9059737974699 251.9059737974699 0.0 0.0
160.6573627929917 160.6573627929917 0.0 0.0
156.3410424803575 156.3410424803575 0.0 0.0
51.85007528978426 51.85007528978426 0.0 0.0
128.3256406956014 128.3256406956014 0.0 0.0
318.8449782473884 318.8449782473884 0.0 0.0
570.6322434980275 570.6322434980275 0.0 0.0
884.1541287506201 884.1541287506201 0.0 0.0
1272.865695915255 1272.865695915255 0.0 0.0
1727.8969308569344 1727.8969308569344 0.0 0.0
2224.046113415073 2224.046113415073 0.0 0.0
2606.6925641391904 2606.6925641391904 0.0 0.0
3179.223742533586 3179.223742533586 0.0 0.0
3458.4024619367397 3458.4024619367397 0.0 0.0
3171.2391283007355 3171.2391283007355 0.0 0.0
2591.0488525167398 2591.0488525167398 0.0 0.0
2200.6464021326547 2200.6464021326547 0.0 0.0
1698.457027473294 1698.457027473294 0.0 0.0
1239.9619022314807 1239.9619022314807 0.0 0.0
852.4462072634491 852.4462072634491 0.0 0.0
546.8894088511543 546.8894088511543 0.0 0.0
307.8842879301965 307.8842879301965 0.0 0.0
125.46614629131022 125.46614629131022 0.0 0.0
53.76909330803205 53.76909330803205 0.0 0.0
31.859338937058652 31.859338937058652 0.0 0.0
138.51597750722564 138.51597750722564 0.0 0.0
502.8995292270537 502.8995292270537 0.0 0.0
1098.8669540775734 1098.8669540775734 0.0 0.0
1840.8969319592122 1840.8969319592122 0.0 0.0
2745.007818978981 2745.007818978981 0.0 0.0
3808.677008914791 3808.677008914791 0.0 0.0
4998.652502789003 4998.652502789003 0.0 0.0
6213.981310605959 6213.981310605959 0.0 0.0
7376.810860294142 7376.810860294142 0.0 0.0
6342.765131515566 6342.765131515566 0.0 0.0
7366.513448525833 7366.513448525833 0.0 0.0
6189.588395521222 6189.588395521222 0.0 0.0
4962.876908918311 4962.876908918311 0.0 0.0
3764.968740797151 3764.968740797151 0.0 0.0
2699.108260631103 2699.108260631103 0.0 0.0
1802.4824581677956 1802.4824581677956 0.0 0.0
1078.7213247042982 1078.7213247042982 0.0 0.0
501.0340878064178 501.0340878064178 0.0 0.0
141.03696666235433 141.03696666235433 0.0 0.0
33.742357928083166 33.742357928083166 0.0 0.0
764.8616093733126 764.8616093733126 0.0 0.0
315.5822561368807 315.5822561368807 0.0 0.0
468.74279664036266 468.74279664036266 0.0 0.0
944.4413717747393 944.4413717747393 0.0 0.0
1619.2473163559762 1619.2473163559762 0.0 0.0
2499.7252239023987 2499.7252239023987 0.0 0.0
3554.939538660248 3554.939538660248 0.0 0.0
4773.890807652952 4773.890807652952 0.0 0.0
6144.756970237608 6144.756970237608 0.0 0.0
7492.9535732264985 7492.9535732264985 0.0 0.0
8140.234574537432 8140.234574537432 0.0 0.0
7496.670844325206 7496.670844325206 0.0 0.0
6151.698677781942 6151.698677781942 0.0 0.0
4783.957594259711 4783.957594259711 0.0 0.0
3568.6930508151286 3568.6930508151286 0.0 0.0
2518.2024416540935 2518.2024416540935 0.0 0.0
1643.9756701519293 1643.9756701519293 0.0 0.0
975.8313216086397 975.8313216086397 0.0 0.0
513.1604698520945 513.1604698520945 0.0 0.0
376.9641894109882 376.9641894109882 0.0 0.0
745.4588784866783 745.4588784866783 0.0 0.0
613.3540403292471 613.3540403292471 0.0 0.0
53.36586201572174 53.36586201572174 0.0 0.0
197.80587974032832 197.80587974032832 0.0 0.0
430.48007612009746 430.48007612009746 0.0 0.0
737.038459586741 737.038459586741 0.0 0.0
1130.4956017144018 1130.4956017144018 0.0 0.0
1601.8703112361504 1601.8703112361504 0.0 0.0
2138.560807045472 2138.560807045472 0.0 0.0
2731.566686141461 2731.566686141461 0.0 0.0
3326.4915264613046 3326.4915264613046 0.0 0.0
3641.247983495611 3641.247983495611 0.0 0.0
3328.8928141856013 3328.8928141856013 0.0 0.0
2736.154597823849 2736.154597823849 0.0 0.0
2145.2727592685046 2145.2727592685046 0.0 0.0
1610.8902514703238 1610.8902514703238 0.0 0.0
1142.2503137853878 1142.2503137853878 0.0 0.0
751.9600998708742 751.9600998708742 0.0 0.0
449.5334403773678 449.5334403773678 0.0 0.0
216.54180501787602 216.54180501787602 0.0 0.0
61.34936084095016 61.34936084095016 0.0 0.0
617.1524542580291 617.1524542580291 0.0 0.0
368.5215245577047 368.5215245577047 0.0 0.0
43.33747713874874 43.33747713874874 0.0 0.0
84.63270108754286 84.63270108754286 0.0 0.0
142.7516286910347 142.7516286910347 0.0 0.0
229.20194445362847 229.20194445362847 0.0 0.0
332.1295212406112 332.1295212406112 0.0 0.0
453.3188275006571 453.3188275006571 0.0 0.0
584.155783394088 584.155783394088 0.0 0.0
738.638424096936 738.638424096936 0.0 0.0
973.9898727314973 973.9898727314973 0.0 0.0
1185.1247715033626 1185.1247715033626 0.0 0.0
975.1234365247252 975.1234365247252 0.0 0.0
740.8696081615761 740.8696081615761 0.0 0.0
587.4064376503806 587.4064376503806 0.0 0.0
457.48358983807225 457.48358983807225 0.0 0.0
337.0980656184271 337.0980656184271 0.0 0.0
234.9595794085957 234.9595794085957 0.0 0.0
148.57371049166406 148.57371049166406 0.0 0.0
86.32161714083956 86.32161714083956 0.0 0.0
37.93964648929262 37.93964648929262 0.0 0.0
365.3612698922489 365.3612698922489 0.0 0.0
183.24223795226163 183.24223795226163 0.0 0.0
60.44714226235872 60.44714226235872 0.0 0.0
73.94686683045897 73.94686683045897 0.0 0.0
63.79927702699208 63.79927702699208 0.0 0.0
66.30980254723272 66.30980254723272 0.0 0.0
72.33803634756214 72.33803634756214 0.0 0.0
80.37672945016826 80.37672945016826 0.0 0.0
85.2700660836512 85.2700660836512 0.0 0.0
89.95881489565883 89.95881489565883 0.0 0.0
163.54095885076 163.54095885076 0.0 0.0
400.05481832468956 400.05481832468956 0.0 0.0
163.30154802965825 163.30154802965825 0.0 0.0
89.83052812714895 89.83052812714895 0.0 0.0
85.22302220703439 85.22302220703439 0.0 0.0
80.18115851571821 80.18115851571821 0.0 0.0
71.71510431218042 71.71510431218042 0.0 0.0
64.89797187993886 64.89797187993886 0.0 0.0
60.85331282277586 60.85331282277586 0.0 0.0
68.88650769240074 68.88650769240074 0.0 0.0
53.84337312519455 53.84337312519455 0.0 0.0
184.463998336532 184.463998336532 0.0 0.0
75.9199667187438 75.9199667187438 0.0 0.0
64.94361104628378 64.94361104628378 0.0 0.0
115.979887974331 115.979887974331 0.0 0.0
163.492852369383 163.492852369383 0.0 0.0
236.9332199334176 236.9332199334176 0.0 0.0
339.1462633691302 339.1462633691302 0.0 0.0
463.66705033898234 463.66705033898234 0.0 0.0
617.641290144463 617.641290144463 0.0 0.0
763.3955927790934 763.3955927790934 0.0 0.0
805.6454577169648 805.6454577169648 0.0 0.0
1220.576759495153 1220.576759495153 0.0 0.0
803.9647234958571 803.9647234958571 0.0 0.0
761.058952334707 761.058952334707 0.0 0.0
614.6243469566353 614.6243469566353 0.0 0.0
459.87384350508654 459.87384350508654 0.0 0.0
334.5469596885461 334.5469596885461 0.0 0.0
231.51473093410647 231.51473093410647 0.0 0.0
157.63263013518625 157.63263013518625 0.0 0.0
110.98846396197759 110.98846396197759 0.0 0.0
61.08160528406525 61.08160528406525 0.0 0.0
77.54426499545582 77.54426499545582 0.0 0.0
33.44129420558425 33.44129420558425 0.0 0.0
70.72211637874786 70.72211637874786 0.0 0.0
212.70176822447212 212.70176822447212 0.0 0.0
442.97846785052036 442.97846785052036 0.0 0.0
753.8483508608425 753.8483508608425 0.0 0.0
1148.420370848041 1148.420370848041 0.0 0.0
1621.9742592471698 1621.9742592471698 0.0 0.0
2154.7941447486874 2154.7941447486874 0.0 0.0
2801.064504917701 2801.064504917701 0.0 0.0
2974.772339246535 2974.772339246535 0.0 0.0
3837.899620205158 3837.899620205158 0.0 0.0
2971.8332583973947 2971.8332583973947 0.0 0.0
2796.897331549229 2796.897331549229 0.0 0.0
2149.0623596652786 2149.0623596652786 0.0 0.0
1615.0881786303532 1615.0881786303532 0.0 0.0
1141.138894558495 1141.138894558495 0.0 0.0
747.2468855787414 747.2468855787414 0.0 0.0
438.47806693929175 438.47806693929175 0.0 0.0
210.97863109876195 210.97863109876195 0.0 0.0
69.80302059122744 69.80302059122744 0.0 0.0
34.12163772870584 34.12163772870584 0.0 0.0
31.051431714335344 31.051431714335344 0.0 0.0
109.66746409472097 109.66746409472097 0.0 0.0
413.6862584908643 413.6862584908643 0.0 0.0
946.0449608109807 946.0449608109807 0.0 0.0
1650.7850934369696 1650.7850934369696 0.0 0.0
2530.0513598206767 2530.0513598206767 0.0 0.0
3589.7860907312465 3589.7860907312465 0.0 0.0
4771.193300208232 4771.193300208232 0.0 0.0
5953.630894777827 5953.630894777827 0.0 0.0
6755.553451730323 6755.553451730323 0.0 0.0
10136.034124073896 10136.034124073896 0.0 0.0
6753.452563371618 6753.452563371618 0.0 0.0
5948.148198765749 5948.148198765749 0.0 0.0
4762.821879741646 4762.821879741646 0.0 0.0
3579.748077251381 3579.748077251381 0.0 0.0
2520.0877129135865 2520.0877129135865 0.0 0.0
1643.5070996106965 1643.5070996106965 0.0 0.0
944.2150715141182 944.2150715141182 0.0 0.0
416.7161375215059 416.7161375215059 0.0 0.0
112.35220455688476 112.35220455688476 0.0 0.0
32.38839108894659 32.38839108894659 0.0 0.0
542.3927275514168 542.3927275514168 0.0 0.0
352.6735583853555 352.6735583853555 0.0 0.0
449.36414826213803 449.36414826213803 0.0 0.0
888.9319522789966 888.9319522789966 0.0 0.0
1517.4414370191812 1517.4414370191812 0.0 0.0
2328.054353858195 2328.054353858195 0.0 0.0
3320.926279893184 3320.926279893184 0.0 0.0
4567.831098878964 4567.831098878964 0.0 0.0
6224.851855268609 6224.851855268609 0.0 0.0
8176.483756067157 8176.483756067157 0.0 0.0
9213.05756784919 9213.05756784919 0.0 0.0
8171.964191993243 8171.964191993243 0.0 0.0
6216.118776375557 6216.118776375557 0.0 0.0
4554.964977658241 4554.964977658241 0.0 0.0
3303.6489218094134 3303.6489218094134 0.0 0.0
2306.1960897407953 2306.1960897407953 0.0 0.0
1491.2996409528432 1491.2996409528432 0.0 0.0
860.255597931293 860.255597931293 0.0 0.0
414.8227984292327 414.8227984292327 0.0 0.0
274.94455518884223 274.94455518884223 0.0 0.0
535.2323637070837 535.2323637070837 0.0 0.0
458.94409032383743 458.94409032383743 0.0 0.0
59.41154207306399 59.41154207306399 0.0 0.0
198.18210672199942 198.18210672199942 0.0 0.0
420.56408178649366 420.56408178649366 0.0 0.0
706.2499138205695 706.2499138205695 0.0 0.0
1070.38957291264 1070.38957291264 0.0 0.0
1514.6899381973803 1514.6899381973803 0.0 0.0
2061.958101913922 2061.958101913922 0.0 0.0
2775.618773222743 2775.618773222743 0.0 0.0
3635.2932375397477 3635.2932375397477 0.0 0.0
4142.010093448234 4142.010093448234 0.0 0.0
3632.191997983145 3632.191997983145 0.0 0.0
2769.5683211883097 2769.5683211883097 0.0 0.0
2053.1652658340067 2053.1652658340067 0.0 0.0
1503.2964811426439 1503.2964811426439 0.0 0.0
1056.6045727823696 1056.6045727823696 0.0 0.0
690.7236331958544 690.7236331958544 0.0 0.0
403.8097653097143 403.8097653097143 0.0 0.0
184.45420786286218 184.45420786286218 0.0 0.0
55.55716685288708 55.55716685288708 0.0 0.0
443.9702735159535 443.9702735159535 0.0 0.0
254.88611245964438 254.88611245964438 0.0 0.0
41.24823101221585 41.24823101221585 0.0 0.0
85.50632807811542 85.50632807811542 0.0 0.0
151.1077145566154 151.1077145566154 0.0 0.0
234.14079446494014 234.14079446494014 0.0 0.0
329.75182742540477 329.75182742540477 0.0 0.0
441.62185844491705 441.62185844491705 0.0 0.0
568.1383849601355 568.1383849601355 0.0 0.0
760.3859327489442 760.3859327489442 0.0 0.0
1125.7976366912196 1125.7976366912196 0.0 0.0
1482.5361517748524 1482.5361517748524 0.0 0.0
1124.5750668843154 1124.5750668843154 0.0 0.0
757.8085980930643 757.8085980930643 0.0 0.0
564.3409905547451 564.3409905547451 0.0 0.0
436.86106868432404 436.86106868432404 0.0 0.0
324.4324359614974 324.4324359614974 0.0 0.0
228.74942178988087 228.74942178988087 0.0 0.0
147.03334756358066 147.03334756358066 0.0 0.0
86.3757150891267 86.3757150891267 0.0 0.0
46.561485442647694 46.561485442647694 0.0 0.0
256.0425101079114 256.0425101079114 0.0 0.0
129.6441926237509 129.6441926237509 0.0 0.0
55.41675089970859 55.41675089970859 0.0 0.0
71.18644071012149 71.18644071012149 0.0 0.0
68.07685253179278 68.07685253179278 0.0 0.0
73.31064227151202 73.31064227151202 0.0 0.0
79.35122214377064 79.35122214377064 0.0 0.0
86.8254587172343 86.8254587172343 0.0 0.0
90.28783744990626 90.28783744990626 0.0 0.0
105.67758796265811 105.67758796265811 0.0 0.0
239.1632433860574 239.1632433860574 0.0 0.0
674.6244998989783 674.6244998989783 0.0 0.0
239.90632488264157 239.90632488264157 0.0 0.0
106.71445995686653 106.71445995686653 0.0 0.0
91.58106868000107 91.58106868000107 0.0 0.0
88.45284093208916 88.45284093208916 0.0 0.0
81.49547863457771 81.49547863457771 0.0 0.0
76.29867867754102 76.29867867754102 0.0 0.0
72.5984935437779 72.5984935437779 0.0 0.0
77.00666343353454 77.00666343353454 0.0 0.0
59.90363826850495 59.90363826850495 0.0 0.0
127.31216636666272 127.31216636666272 0.0 0.0
57.363217454669055 57.363217454669055 0.0 0.0
60.784375712986275 60.784375712986275 0.0 0.0
107.67550848128714 107.67550848128714 0.0 0.0
148.778977324252 148.778977324252 0.0 0.0
215.54059044672255 215.54059044672255 0.0 0.0
311.26902469241026 311.26902469241026 0.0 0.0
434.09139905617513 434.09139905617513 0.0 0.0
604.168494274397 604.168494274397 0.0 0.0
786.2732424807348 786.2732424807348 0.0 0.0
846.5715200043456 846.5715200043456 0.0 0.0
1684.6166703305596 1684.6166703305596 0.0 0.0
849.2588339182828 849.2588339182828 0.0 0.0
790.9302145045984 790.9302145045984 0.0 0.0
610.4798136390499 610.4798136390499 0.0 0.0
441.60197437892083 441.60197437892083 0.0 0.0
319.5604408914449 319.5604408914449 0.0 0.0
224.09545834164464 224.09545834164464 0.0 0.0
156.66427500027746 156.66427500027746 0.0 0.0
112.90243493846053 112.90243493846053 0.0 0.0
62.39874406035996 62.39874406035996 0.0 0.0
54.52898088084952 54.52898088084952 0.0 0.0
29.54096750479877 29.54096750479877 0.0 0.0
66.05585344245613 66.05585344245613 0.0 0.0
192.12054216616983 192.12054216616983 0.0 0.0
392.8448106496773 392.8448106496773 0.0 0.0
671.5401993173598 671.5401993173598 0.0 0.0
1037.693176792578 1037.693176792578 0.0 0.0
1495.7709472286476 1495.7709472286476 0.0 0.0
2047.8103794633557 2047.8103794633557 0.0 0.0
2822.2225826567137 2822.2225826567137 0.0 0.0
3046.6149861207195 3046.6149861207195 0.0 0.0
4902.539005201072 4902.539005201072 0.0 0.0
3051.3103554657023 3051.3103554657023 0.0 0.0
2830.9130979113525 2830.9130979113525 0.0 0.0
2059.4560001344566 2059.4560001344566 0.0 0.0
1509.2447438976765 1509.2447438976765 0.0 0.0
1051.337130511593 1051.337130511593 0.0 0.0
683.2953115624981 683.2953115624981 0.0 0.0
400.5195072927683 400.5195072927683 0.0 0.0
194.990655832063 194.990655832063 0.0 0.0
66.12379026961011 66.12379026961011 0.0 0.0
27.17277419655296 27.17277419655296 0.0 0.0
29.59558867758342 29.59558867758342 0.0 0.0
100.10495807670472 100.10495807670472 0.0 0.0
369.0768604227358 369.0768604227358 0.0 0.0
838.5392846937626 838.5392846937626 0.0 0.0
1471.1942862548267 1471.1942862548267 0.0 0.0
2283.203523164596 2283.203523164596 0.0 0.0
3298.0312422118436 3298.0312422118436 0.0 0.0
4486.054400223345 4486.054400223345 0.0 0.0
5798.544230544621 5798.544230544621 0.0 0.0
7069.230082643608 7069.230082643608 0.0 0.0
13190.723339343871 13190.723339343871 0.0 0.0
7076.458445011147 7076.458445011147 0.0 0.0
5812.432063121223 5812.432063121223 0.0 0.0
4504.6035536711 4504.6035536711 0.0 0.0
3318.9733332584015 3318.9733332584015 0.0 0.0
2303.332319417632 2303.332319417632 0.0 0.0
1486.3028995121972 1486.3028995121972 0.0 0.0
845.0823808482354 845.0823808482354 0.0 0.0
369.0034425063915 369.0034425063915 0.0 0.0
99.12697581276711 99.12697581276711 0.0 0.0
27.78233707142212 27.78233707142212 0.0 0.0
527.518508266513 527.518508266513 0.0 0.0
362.8479732193723 362.8479732193723 0.0 0.0
442.3144408924682 442.3144408924682 0.0 0.0
865.5835911471837 865.5835911471837 0.0 0.0
1479.743742387049 1479.743742387049 0.0 0.0
2277.8135833130564 2277.8135833130564 0.0 0.0
3272.331585850982 3272.331585850982 0.0 0.0
4564.551083035368 4564.551083035368 0.0 0.0
6348.185136837122 6348.185136837122 0.0 0.0
8497.992990561384 8497.992990561384 0.0 0.0
9647.586687075083 9647.586687075083 0.0 0.0
8489.870413151739 8489.870413151739 0.0 0.0
6332.79373010736 6332.79373010736 0.0 0.0
4542.225738301599 4542.225738301599 0.0 0.0
3242.4024036733754 3242.4024036733754 0.0 0.0
2239.3247828251633 2239.3247828251633 0.0 0.0
1432.465112267031 1432.465112267031 0.0 0.0
811.6961601854717 811.6961601854717 0.0 0.0
381.52499872014204 381.52499872014204 0.0 0.0
245.81236346577828 245.81236346577828 0.0 0.0
492.30196244378385 492.30196244378385 0.0 0.0
435.5610334988113 435.5610334988113 0.0 0.0
59.53991193324843 59.53991193324843 0.0 0.0
197.05390400465066 197.05390400465066 0.0 0.0
413.34123479232267 413.34123479232267 0.0 0.0
693.0067949533543 693.0067949533543 0.0 0.0
1052.5383753231977 1052.5383753231977 0.0 0.0
1498.983508512101 1498.983508512101 0.0 0.0
2067.3941684566926 2067.3941684566926 0.0 0.0
2835.170631421214 2835.170631421214 0.0 0.0
3775.3675413814476 3775.3675413814476 0.0 0.0
4328.538964808826 4328.538964808826 0.0 0.0
3769.9318612590087 3769.9318612590087 0.0 0.0
2824.7262285027127 2824.7262285027127 0.0 0.0
2052.3480179621333 2052.3480179621333 0.0 0.0
1479.3952678132803 1479.3952678132803 0.0 0.0
1028.3559708563125 1028.3559708563125 0.0 0.0
664.722799534394 664.722799534394 0.0 0.0
382.06991871596585 382.06991871596585 0.0 0.0
170.99761663470196 170.99761663470196 0.0 0.0
48.68187323014174 48.68187323014174 0.0 0.0
412.01763484424146 412.01763484424146 0.0 0.0
243.07467152845084 243.07467152845084 0.0 0.0
36.284314281345814 36.284314281345814 0.0 0.0
83.69853210998902 83.69853210998902 0.0 0.0
150.43606582511023 150.43606582511023 0.0 0.0
233.17231783504207 233.17231783504207 0.0 0.0
328.61922136572286 328.61922136572286 0.0 0.0
442.45478740285535 442.45478740285535 0.0 0.0
577.0956273540834 577.0956273540834 0.0 0.0
788.9044151038443 788.9044151038443 0.0 0.0
1183.5267794167937 1183.5267794167937 0.0 0.0
1558.6927169607181 1558.6927169607181 0.0 0.0
1181.3370511345954 1181.3370511345954 0.0 0.0
784.4582897984217 784.4582897984217 0.0 0.0
570.6295434601242 570.6295434601242 0.0 0.0
434.3236161865128 434.3236161865128 0.0 0.0
319.3361624442037 319.3361624442037 0.0 0.0
223.3606137970475 223.3606137970475 0.0 0.0
142.40334512488556 142.40334512488556 0.0 0.0
83.10624175738747 83.10624175738747 0.0 0.0
42.94160339842192 42.94160339842192 0.0 0.0
234.09915457233612 234.09915457233612 0.0 0.0
120.57270554642443 120.57270554642443 0.0 0.0
49.61783622886234 49.61783622886234 0.0 0.0
67.13502569677534 67.13502569677534 0.0 0.0
66.78847125949223 66.78847125949223 0.0 0.0
73.91857763119033 73.91857763119033 0.0 0.0
81.36107690443869 81.36107690443869 0.0 0.0
90.88341906085047 90.88341906085047 0.0 0.0
98.56873866822676 98.56873866822676 0.0 0.0
122.49204277251305 122.49204277251305 0.0 0.0
265.74608459550075 265.74608459550075 0.0 0.0
716.5706751061067 716.5706751061067 0.0 0.0
266.8742750172513 266.8742750172513 0.0 0.0
124.12033633749154 124.12033633749154 0.0 0.0
100.58995419717601 100.58995419717601 0.0 0.0
93.49026608876198 93.49026608876198 0.0 0.0
84.94797805183826 84.94797805183826 0.0 0.0
79.03204488249004 79.03204488249004 0.0 0.0
74.34107448412168 74.34107448412168 0.0 0.0
76.38301627671565 76.38301627671565 0.0 0.0
56.72115013000723 56.72115013000723 0.0 0.0
111.58671844945496 111.58671844945496 0.0 0.0
50.979141043094685 50.979141043094685 0.0 0.0
55.2853046549347 55.2853046549347 0.0 0.0
100.1483928534114 100.1483928534114 0.0 0.0
140.80610749796813 140.80610749796813 0.0 0.0
206.92948538471734 206.92948538471734 0.0 0.0
302.1074318162439 302.1074318162439 0.0 0.0
426.817103323543 426.817103323543 0.0 0.0
605.3659499783504 605.3659499783504 0.0 0.0
805.4988778134486 805.4988778134486 0.0 0.0
876.9567437414927 876.9567437414927 0.0 0.0
1758.7191624015052 1758.7191624015052 0.0 0.0
881.3147376128819 881.3147376128819 0.0 0.0
812.9984929421992 812.9984929421992 0.0 0.0
615.4051229373488 615.4051229373488 0.0 0.0
438.89084334312685 438.89084334312685 0.0 0.0
315.78119766240553 315.78119766240553 0.0 0.0
221.4743185370594 221.4743185370594 0.0 0.0
154.49808359478135 154.49808359478135 0.0 0.0
109.31694550202778 109.31694550202778 0.0 0.0
58.475569256883205 58.475569256883205 0.0 0.0
44.36508735961431 44.36508735961431 0.0 0.0
25.779060812509215 25.779060812509215 0.0 0.0
59.36723077606308 59.36723077606308 0.0 0.0
178.75041121985856 178.75041121985856 0.0 0.0
372.59763414103435 372.59763414103435 0.0 0.0
643.7462492564739 643.7462492564739 0.0 0.0
1003.8048370289682 1003.8048370289682 0.0 0.0
1463.4499887877562 1463.4499887877562 0.0 0.0
2035.3500070124533 2035.3500070124533 0.0 0.0
2867.802666352164 2867.802666352164 0.0 0.0
3123.0422459639844 3123.0422459639844 0.0 0.0
5092.265624832902 5092.265624832902 0.0 0.0
3130.538194617665 3130.538194617665 0.0 0.0
2881.3846468245683 2881.3846468245683 0.0 0.0
2053.4444197594357 2053.4444197594357 0.0 0.0
1484.600853845495 1484.600853845495 0.0 0.0
1025.6464593643689 1025.6464593643689 0.0 0.0
663.12790941053 663.12790941053 0.0 0.0
385.7691795083486 385.7691795083486 0.0 0.0
183.9311334873727 183.9311334873727 0.0 0.0
59.77002180094598 59.77002180094598 0.0 0.0
21.397944846268775 21.397944846268775 0.0 0.0
24.303840109782744 24.303840109782744 0.0 0.0
88.2609520946882 88.2609520946882 0.0 0.0
344.18411345559707 344.18411345559707 0.0 0.0
797.7405468823297 797.7405468823297 0.0 0.0
1412.4020960929165 1412.4020960929165 0.0 0.0
2209.1743522532215 2209.1743522532215 0.0 0.0
3224.369928735311 3224.369928735311 0.0 0.0
4455.11953343599 4455.11953343599 0.0 0.0
5885.455299004886 5885.455299004886 0.0 0.0
7269.567507050673 7269.567507050673 0.0 0.0
13751.376821904034 13751.376821904034 0.0 0.0
7280.201905878739 7280.201905878739 0.0 0.0
5906.211638216123 5906.211638216123 0.0 0.0
4483.121795915611 4483.121795915611 0.0 0.0
3256.4443590331302 3256.4443590331302 0.0 0.0
2240.568208134516 2240.568208134516 0.0 0.0
1436.5014364789322 1436.5014364789322 0.0 0.0
808.4826859624966 808.4826859624966 0.0 0.0
343.7682376757323 343.7682376757323 0.0 0.0
85.85938868733228 85.85938868733228 0.0 0.0
20.561279661387303 20.561279661387303 0.0 0.0
542.3927275499199 542.3927275499199 0.0 0.0
352.6735583831359 352.6735583831359 0.0 0.0
449.3641482604261 449.3641482604261 0.0 0.0
888.9319522776574 888.9319522776574 0.0 0.0
1517.441437019075 1517.441437019075 0.0 0.0
2328.0543538576253 2328.0543538576253 0.0 0.0
3320.9262798916857 3320.9262798916857 0.0 0.0
4567.831098876508 4567.831098876508 0.0 0.0
6224.851855264521 6224.851855264521 0.0 0.0
8176.48375606433 8176.48375606433 0.0 0.0
9213.057567842068 9213.057567842068 0.0 0.0
8171.964191984006 8171.964191984006 0.0 0.0
6216.118776371304 6216.118776371304 0.0 0.0
4554.964977657948 4554.964977657948 0.0 0.0
3303.648921812844 3303.648921812844 0.0 0.0
2306.1960897478234 2306.1960897478234 0.0 0.0
1491.299640957163 1491.299640957163 0.0 0.0
860.2555979333678 860.2555979333678 0.0 0.0
414.8227984307136 414.8227984307136 0.0 0.0
274.9445551900207 274.9445551900207 0.0 0.0
535.2323637092444 535.2323637092444 0.0 0.0
458.9440903232251 458.9440903232251 0.0 0.0
59.411542072822705 59.411542072822705 0.0 0.0
198.18210672120475 198.18210672120475 0.0 0.0
420.5640817859171 420.5640817859171 0.0 0.0
706.2499138198451 706.2499138198451 0.0 0.0
1070.3895729122523 1070.3895729122523 0.0 0.0
1514.689938196416 1514.689938196416 0.0 0.0
2061.9581019127236 2061.9581019127236 0.0 0.0
2775.6187732205995 2775.6187732205995 0.0 0.0
3635.2932375358996 3635.2932375358996 0.0 0.0
4142.010093445023 4142.010093445023 0.0 0.0
3632.1919979797553 3632.1919979797553 0.0 0.0
2769.5683211842756 2769.5683211842756 0.0 0.0
2053.1652658340104 2053.1652658340104 0.0 0.0
1503.2964811427019 1503.2964811427019 0.0 0.0
1056.6045727861367 1056.6045727861367 0.0 0.0
690.7236331972349 690.7236331972349 0.0 0.0
403.8097653109903 403.8097653109903 0.0 0.0
184.4542078635498 184.4542078635498 0.0 0.0
55.55716685307498 55.55716685307498 0.0 0.0
443.9702735179607 443.9702735179607 0.0 0.0
254.88611245943423 254.88611245943423 0.0 0.0
41.248231012217076 41.248231012217076 0.0 0.0
85.5063280779186 85.5063280779186 0.0 0.0
151.1077145563666 151.1077145563666 0.0 0.0
234.14079446494537 234.14079446494537 0.0 0.0
329.7518274252753 329.7518274252753 0.0 0.0
441.6218584440576 441.6218584440576 0.0 0.0
568.1383849592908 568.1383849592908 0.0 0.0
760.385932748105 760.385932748105 0.0 0.0
1125.7976366904218 1125.7976366904218 0.0 0.0
1482.536151773561 1482.536151773561 0.0 0.0
1124.5750668842747 1124.5750668842747 0.0 0.0
757.8085980899272 757.8085980899272 0.0 0.0
564.3409905552576 564.3409905552576 0.0 0.0
436.86106868286396 436.86106868286396 0.0 0.0
324.43243596266825 324.43243596266825 0.0 0.0
228.74942179063535 228.74942179063535 0.0 0.0
147.0333475639808 147.0333475639808 0.0 0.0
86.37571508965527 86.37571508965527 0.0 0.0
46.5614854428489 46.5614854428489 0.0 0.0
256.042510109179 256.042510109179 0.0 0.0
129.64419262354437 129.64419262354437 0.0 0.0
55.416750899699586 55.416750899699586 0.0 0.0
71.18644071013038 71.18644071013038 0.0 0.0
68.07685253196856 68.07685253196856 0.0 0.0
73.31064227174035 73.31064227174035 0.0 0.0
79.35122214355403 79.35122214355403 0.0 0.0
86.82545871693462 86.82545871693462 0.0 0.0
90.28783745030785 90.28783745030785 0.0 0.0
105.67758796123968 105.67758796123968 0.0 0.0
239.16324338620132 239.16324338620132 0.0 0.0
674.6244999004299 674.6244999004299 0.0 0.0
239.90632488231077 239.90632488231077 0.0 0.0
106.71445995400853 106.71445995400853 0.0 0.0
91.58106868058401 91.58106868058401 0.0 0.0
88.45284092980587 88.45284092980587 0.0 0.0
81.49547863562512 81.49547863562512 0.0 0.0
76.29867867751442 76.29867867751442 0.0 0.0
72.5984935443063 72.5984935443063 0.0 0.0
77.00666343384242 77.00666343384242 0.0 0.0
59.90363826878233 59.90363826878233 0.0 0.0
127.3121663674574 127.3121663674574 0.0 0.0
57.3632174545425 57.3632174545425 0.0 0.0
60.784375712954386 60.784375712954386 0.0 0.0
107.6755084812924 107.6755084812924 0.0 0.0
148.77897732444453 148.77897732444453 0.0 0.0
215.54059044693744 215.54059044693744 0.0 0.0
311.26902469275365 311.26902469275365 0.0 0.0
434.09139905630616 434.09139905630616 0.0 0.0
604.1684942749798 604.1684942749798 0.0 0.0
786.273242480822 786.273242480822 0.0 0.0
846.5715200045549 846.5715200045549 0.0 0.0
1684.6166703312945 1684.6166703312945 0.0 0.0
849.2588339175966 849.2588339175966 0.0 0.0
790.9302145043387 790.9302145043387 0.0 0.0
610.479813639497 610.479813639497 0.0 0.0
441.6019743781444 441.6019743781444 0.0 0.0
319.5604408934718 319.5604408934718 0.0 0.0
224.09545834211514 224.09545834211514 0.0 0.0
156.66427500097313 156.66427500097313 0.0 0.0
112.90243493894364 112.90243493894364 0.0 0.0
62.39874406060441 62.39874406060441 0.0 0.0
54.528980881292014 54.528980881292014 0.0 0.0
29.54096750474687 29.54096750474687 0.0 0.0
66.05585344242918 66.05585344242918 0.0 0.0
192.12054216610275 192.12054216610275 0.0 0.0
392.8448106497543 392.8448106497543 0.0 0.0
671.5401993180016 671.5401993180016 0.0 0.0
1037.6931767940125 1037.6931767940125 0.0 0.0
1495.770947228525 1495.770947228525 0.0 0.0
2047.810379465829 2047.810379465829 0.0 0.0
2822.2225826554754 2822.2225826554754 0.0 0.0
3046.6149861223357 3046.6149861223357 0.0 0.0
4902.539005197674 4902.539005197674 0.0 0.0
3051.3103554662875 3051.3103554662875 0.0 0.0
2830.9130979089177 2830.9130979089177 0.0 0.0
2059.4560001363698 2059.4560001363698 0.0 0.0
1509.2447438984975 1509.2447438984975 0.0 0.0
1051.3371305151243 1051.3371305151243 0.0 0.0
683.2953115644887 683.2953115644887 0.0 0.0
400.519507294017 400.519507294017 0.0 0.0
194.99065583281106 194.99065583281106 0.0 0.0
66.12379026988549 66.12379026988549 0.0 0.0
27.172774196742584 27.172774196742584 0.0 0.0
29.595588677579695 29.595588677579695 0.0 0.0
100.10495807665379 100.10495807665379 0.0 0.0
369.0768604223129 369.0768604223129 0.0 0.0
838.5392846936661 838.5392846936661 0.0 0.0
1471.1942862561186 1471.1942862561186 0.0 0.0
2283.20352316637 2283.20352316637 0.0 0.0
3298.031242213653 3298.031242213653 0.0 0.0
4486.054400225448 4486.054400225448 0.0 0.0
5798.5442305420165 5798.5442305420165 0.0 0.0
7069.2300826441 7069.2300826441 0.0 0.0
13190.723339335816 13190.723339335816 0.0 0.0
7076.458445009596 7076.458445009596 0.0 0.0
5812.432063116497 5812.432063116497 0.0 0.0
4504.603553672219 4504.603553672219 0.0 0.0
3318.9733332626424 3318.9733332626424 0.0 0.0
2303.3323194245518 2303.3323194245518 0.0 0.0
1486.3028995176837 1486.3028995176837 0.0 0.0
845.0823808511248 845.0823808511248 0.0 0.0
369.00344250762635 369.00344250762635 0.0 0.0
99.12697581317572 99.12697581317572 0.0 0.0
27.78233707161366 27.78233707161366 0.0 0.0
764.861609374241 764.861609374241 0.0 0.0
315.58225613234896 315.58225613234896 0.0 0.0
468.74279663765014 468.74279663765014 0.0 0.0
944.4413717719508 944.4413717719508 0.0 0.0
1619.2473163521047 1619.2473163521047 0.0 0.0
2499.7252238975434 2499.7252238975434 0.0 0.0
3554.9395386575725 3554.9395386575725 0.0 0.0
4773.89080765668 4773.89080765668 0.0 0.0
6144.756970238003 6144.756970238003 0.0 0.0
7492.9535732133545 7492.9535732133545 0.0 0.0
8140.234574527237 8140.234574527237 0.0 0.0
7496.670844313279 7496.670844313279 0.0 0.0
6151.69867777759 6151.69867777759 0.0 0.0
4783.95759426082 4783.95759426082 0.0 0.0
3568.6930508216265 3568.6930508216265 0.0 0.0
2518.202441660931 2518.202441660931 0.0 0.0
1643.9756701600734 1643.9756701600734 0.0 0.0
975.8313216141057 975.8313216141057 0.0 0.0
513.1604698554419 513.1604698554419 0.0 0.0
376.9641894137428 376.9641894137428 0.0 0.0
745.458878492747 745.458878492747 0.0 0.0
613.3540403288926 613.3540403288926 0.0 0.0
53.36586201506025 53.36586201506025 0.0 0.0
197.80587973905892 197.80587973905892 0.0 0.0
430.4800761184092 430.4800761184092 0.0 0.0
737.038459584469 737.038459584469 0.0 0.0
1130.4956017119362 1130.4956017119362 0.0 0.0
1601.8703112338058 1601.8703112338058 0.0 0.0
2138.560807046652 2138.560807046652 0.0 0.0
2731.566686140714 2731.566686140714 0.0 0.0
3326.4915264532206 3326.4915264532206 0.0 0.0
3641.2479834907977 3641.2479834907977 0.0 0.0
3328.892814180318 3328.892814180318 0.0 0.0
2736.1545978211734 2736.1545978211734 0.0 0.0
2145.272759269758 2145.272759269758 0.0 0.0
1610.8902514730025 1610.8902514730025 0.0 0.0
1142.2503137880785 1142.2503137880785 0.0 0.0
751.9600998739064 751.9600998739064 0.0 0.0
449.53344038003684 449.53344038003684 0.0 0.0
216.5418050191067 216.5418050191067 0.0 0.0
61.34936084122677 61.34936084122677 0.0 0.0
617.1524542632586 617.1524542632586 0.0 0.0
368.5215245575279 368.5215245575279 0.0 0.0
43.33747713893955 43.33747713893955 0.0 0.0
84.63270108741209 84.63270108741209 0.0 0.0
142.75162869041256 142.75162869041256 0.0 0.0
229.20194445242083 229.20194445242083 0.0 0.0
332.12952123956427 332.12952123956427 0.0 0.0
453.3188274999868 453.3188274999868 0.0 0.0
584.1557833947468 584.1557833947468 0.0 0.0
738.6384240962652 738.6384240962652 0.0 0.0
973.9898727269722 973.9898727269722 0.0 0.0
1185.1247715017353 1185.1247715017353 0.0 0.0
975.1234365207654 975.1234365207654 0.0 0.0
740.8696081622114 740.8696081622114 0.0 0.0
587.4064376488747 587.4064376488747 0.0 0.0
457.48358983920497 457.48358983920497 0.0 0.0
337.0980656186933 337.0980656186933 0.0 0.0
234.9595794091203 234.9595794091203 0.0 0.0
148.57371049285388 148.57371049285388 0.0 0.0
86.32161714106155 86.32161714106155 0.0 0.0
37.93964648954801 37.93964648954801 0.0 0.0
365.36126989550064 365.36126989550064 0.0 0.0
183.24223795194754 183.24223795194754 0.0 0.0
60.44714226265476 60.44714226265476 0.0 0.0
73.94686683078997 73.94686683078997 0.0 0.0
63.79927702710674 63.79927702710674 0.0 0.0
66.30980254683163 66.30980254683163 0.0 0.0
72.33803634785909 72.33803634785909 0.0 0.0
80.37672945008819 80.37672945008819 0.0 0.0
85.27006608425181 85.27006608425181 0.0 0.0
89.95881489658746 89.95881489658746 0.0 0.0
163.54095884677037 163.54095884677037 0.0 0.0
400.05481832166976 400.05481832166976 0.0 0.0
163.3015480280381 163.3015480280381 0.0 0.0
89.83052812724148 89.83052812724148 0.0 0.0
85.22302220621168 85.22302220621168 0.0 0.0
80.1811585156212 80.1811585156212 0.0 0.0
71.71510431202475 71.71510431202475 0.0 0.0
64.89797188031548 64.89797188031548 0.0 0.0
60.85331282340302 60.85331282340302 0.0 0.0
68.88650769259272 68.88650769259272 0.0 0.0
53.84337312549589 53.84337312549589 0.0 0.0
184.4639983383086 184.4639983383086 0.0 0.0
75.91996671860359 75.91996671860359 0.0 0.0
64.94361104649978 64.94361104649978 0.0 0.0
115.97988797448991 115.97988797448991 0.0 0.0
163.49285236991403 163.49285236991403 0.0 0.0
236.93321993374997 236.93321993374997 0.0 0.0
339.1462633691704 339.1462633691704 0.0 0.0
463.66705033946744 463.66705033946744 0.0 0.0
617.6412901485714 617.6412901485714 0.0 0.0
763.3955927804413 763.3955927804413 0.0 0.0
805.6454577163655 805.6454577163655 0.0 0.0
1220.5767594902115 1220.5767594902115 0.0 0.0
803.9647234945862 803.9647234945862 0.0 0.0
761.0589523357352 761.0589523357352 0.0 0.0
614.624346955927 614.624346955927 0.0 0.0
459.8738435064025 459.8738435064025 0.0 0.0
334.54695968906964 334.54695968906964 0.0 0.0
231.51473093513292 231.51473093513292 0.0 0.0
157.63263013641625 157.63263013641625 0.0 0.0
110.9884639624799 110.9884639624799 0.0 0.0
61.08160528445826 61.08160528445826 0.0 0.0
77.5442649963102 77.5442649963102 0.0 0.0
33.441294205478435 33.441294205478435 0.0 0.0
70.72211637871517 70.72211637871517 0.0 0.0
212.7017682245265 212.7017682245265 0.0 0.0
442.97846785078946 442.97846785078946 0.0 0.0
753.8483508614247 753.8483508614247 0.0 0.0
1148.4203708475954 1148.4203708475954 0.0 0.0
1621.9742592500884 1621.9742592500884 0.0 0.0
2154.79414475311 2154.79414475311 0.0 0.0
2801.064504921455 2801.064504921455 0.0 0.0
2974.7723392468965 2974.7723392468965 0.0 0.0
3837.8996201923223 3837.8996201923223 0.0 0.0
2971.833258396776 2971.833258396776 0.0 0.0
2796.8973315506632 2796.8973315506632 0.0 0.0
2149.0623596665555 2149.0623596665555 0.0 0.0
1615.0881786341197 1615.0881786341197 0.0 0.0
1141.1388945623132 1141.1388945623132 0.0 0.0
747.2468855826937 747.2468855826937 0.0 0.0
438.47806694186914 438.47806694186914 0.0 0.0
210.97863110006026 210.97863110006026 0.0 0.0
69.80302059163095 69.80302059163095 0.0 0.0
34.12163772905538 34.12163772905538 0.0 0.0
31.051431714210743 31.051431714210743 0.0 0.0
109.66746409440154 109.66746409440154 0.0 0.0
413.6862584904916 413.6862584904916 0.0 0.0
946.044960811265 946.044960811265 0.0 0.0
1650.7850934372664 1650.7850934372664 0.0 0.0
2530.051359819614 2530.051359819614 0.0 0.0
3589.7860907354343 3589.7860907354343 0.0 0.0
4771.193300218185 4771.193300218185 0.0 0.0
5953.630894785577 5953.630894785577 0.0 0.0
6755.553451730326 6755.553451730326 0.0 0.0
10136.034124030455 10136.034124030455 0.0 0.0
6753.452563371556 6753.452563371556 0.0 0.0
5948.148198770628 5948.148198770628 0.0 0.0
4762.8218797439495 4762.8218797439495 0.0 0.0
3579.748077258998 3579.748077258998 0.0 0.0
2520.0877129225896 2520.0877129225896 0.0 0.0
1643.5070996194374 1643.5070996194374 0.0 0.0
944.2150715194056 944.2150715194056 0.0 0.0
416.7161375238971 416.7161375238971 0.0 0.0
112.35220455771295 112.35220455771295 0.0 0.0
32.38839108930091 32.38839108930091 0.0 0.0
2054.961461573412 2054.961461573412 0.0 0.0
371.84882663656623 371.84882663656623 0.0 0.0
443.0217004310123 443.0217004310123 0.0 0.0
927.4698694171566 927.4698694171566 0.0 0.0
1636.0955693358485 1636.0955693358485 0.0 0.0
2578.49548180315 2578.49548180315 0.0 0.0
3712.910819379608 3712.910819379608 0.0 0.0
4982.019813837308 4982.019813837308 0.0 0.0
6202.547960748882 6202.547960748882 0.0 0.0
7046.01090797343 7046.01090797343 0.0 0.0
7317.362259835923 7317.362259835923 0.0 0.0
7056.670053995548 7056.670053995548 0.0 0.0
6223.859675571706 6223.859675571706 0.0 0.0
5014.525972440367 5014.525972440367 0.0 0.0
3757.5583759697233 3757.5583759697233 0.0 0.0
2635.6461466614605 2635.6461466614605 0.0 0.0
1704.1544385456325 1704.1544385456325 0.0 0.0
1002.0501901319947 1002.0501901319947 0.0 0.0
526.7963870438357 526.7963870438357 0.0 0.0
587.0163329542684 587.0163329542684 0.0 0.0
1968.7572377421625 1968.7572377421625 0.0 0.0
1525.5475350205704 1525.5475350205704 0.0 0.0
46.160387461102445 46.160387461102445 0.0 0.0
205.94927589143515 205.94927589143515 0.0 0.0
440.22585535062296 440.22585535062296 0.0 0.0
755.6577887405891 755.6577887405891 0.0 0.0
1165.4364898605227 1165.4364898605227 0.0 0.0
1661.1216561603096 1661.1216561603096 0.0 0.0
2220.1823602438158 2220.1823602438158 0.0 0.0
2769.029138355205 2769.029138355205 0.0 0.0
3158.6975944542564 3158.6975944542564 0.0 0.0
3285.457161523477 3285.457161523477 0.0 0.0
3165.6103358606683 3165.6103358606683 0.0 0.0
2782.80141391847 2782.80141391847 0.0 0.0
2240.964924196498 2240.964924196498 0.0 0.0
1689.0425411041304 1689.0425411041304 0.0 0.0
1200.1486353100602 1200.1486353100602 0.0 0.0
795.3606739803424 795.3606739803424 0.0 0.0
481.8674993949397 481.8674993949397 0.0 0.0
235.50697799792263 235.50697799792263 0.0 0.0
53.30816220480028 53.30816220480028 0.0 0.0
1602.3326298382979 1602.3326298382979 0.0 0.0
848.6706772468021 848.6706772468021 0.0 0.0
126.03510969602142 126.03510969602142 0.0 0.0
176.98604338643565 176.98604338643565 0.0 0.0
230.38151200979078 230.38151200979078 0.0 0.0
318.71662886112426 318.71662886112426 0.0 0.0
420.876996327855 420.876996327855 0.0 0.0
546.2140423139962 546.2140423139962 0.0 0.0
701.2108419841169 701.2108419841169 0.0 0.0
869.7945248039783 869.7945248039783 0.0 0.0
982.0080059821549 982.0080059821549 0.0 0.0
1013.7690275191801 1013.7690275191801 0.0 0.0
984.8463837712205 984.8463837712205 0.0 0.0
875.1934727245163 875.1934727245163 0.0 0.0
709.0164715068399 709.0164715068399 0.0 0.0
556.1415781993792 556.1415781993792 0.0 0.0
432.2137617358702 432.2137617358702 0.0 0.0
330.09465689416004 330.09465689416004 0.0 0.0
237.06979299898669 237.06979299898669 0.0 0.0
172.1956142837325 172.1956142837325 0.0 0.0
106.65660033577706 106.65660033577706 0.0 0.0
885.5193233761357 885.5193233761357 0.0 0.0
391.46785076674195 391.46785076674195 0.0 0.0
182.85621564150512 182.85621564150512 0.0 0.0
227.9550611602011 227.9550611602011 0.0 0.0
208.7021381430365 208.7021381430365 0.0 0.0
205.998956755919 205.998956755919 0.0 0.0
202.9347196537474 202.9347196537474 0.0 0.0
199.3424938056201 199.3424938056201 0.0 0.0
206.1116633925887 206.1116633925887 0.0 0.0
238.23551149738822 238.23551149738822 0.0 0.0
273.71272445924376 273.71272445924376 0.0 0.0
296.94482064467195 296.94482064467195 0.0 0.0
272.7090012049973 272.7090012049973 0.0 0.0
235.83241081228374 235.83241081228374 0.0 0.0
202.12241790190882 202.12241790190882 0.0 0.0
193.4640283342273 193.4640283342273 0.0 0.0
194.74655633459096 194.74655633459096 0.0 0.0
194.63209988558881 194.63209988558881 0.0 0.0
192.6304480202199 192.6304480202199 0.0 0.0
209.57334311165312 209.57334311165312 0.0 0.0
167.69791880928815 167.69791880928815 0.0 0.0
412.0457262693939 412.0457262693939 0.0 0.0
148.60015287248368 148.60015287248368 0.0 0.0
168.1565152332459 168.1565152332459 0.0 0.0
269.36633823343647 269.36633823343647 0.0 0.0
317.2382468575397 317.2382468575397 0.0 0.0
382.5161236973113 382.5161236973113 0.0 0.0
472.97338623630986 472.97338623630986 0.0 0.0
580.0489143440816 580.0489143440816 0.0 0.0
684.3272479510445 684.3272479510445 0.0 0.0
801.504408908238 801.504408908238 0.0 0.0
985.3141963880403 985.3141963880403 0.0 0.0
1102.9651959373841 1102.9651959373841 0.0 0.0
980.8102727384919 980.8102727384919 0.0 0.0
792.2560256055881 792.2560256055881 0.0 0.0
670.343373625796 670.343373625796 0.0 0.0
561.5460750713628 561.5460750713628 0.0 0.0
450.5479811924986 450.5479811924986 0.0 0.0
357.32705770493993 357.32705770493993 0.0 0.0
292.3898864506524 292.3898864506524 0.0 0.0
251.90597379981483 251.90597379981483 0.0 0.0
160.65736279442035 160.65736279442035 0.0 0.0
156.34104248193032 156.34104248193032 0.0 0.0
51.850075289555605 51.850075289555605 0.0 0.0
128.32564069551617 128.32564069551617 0.0 0.0
318.8449782472439 318.8449782472439 0.0 0.0
570.6322434977866 570.6322434977866 0.0 0.0
884.1541287515983 884.1541287515983 0.0 0.0
1272.865695917858 1272.865695917858 0.0 0.0
1727.8969308599612 1727.8969308599612 0.0 0.0
2224.0461134206844 2224.0461134206844 0.0 0.0
2606.6925641424796 2606.6925641424796 0.0 0.0
3179.2237425380167 3179.2237425380167 0.0 0.0
3458.4024619471984 3458.4024619471984 0.0 0.0
3171.2391283035836 3171.2391283035836 0.0 0.0
2591.048852514671 2591.048852514671 0.0 0.0
2200.646402136347 2200.646402136347 0.0 0.0
1698.457027476008 1698.457027476008 0.0 0.0
1239.9619022365073 1239.9619022365073 0.0 0.0
852.4462072670102 852.4462072670102 0.0 0.0
546.8894088552486 546.8894088552486 0.0 0.0
307.8842879324887 307.8842879324887 0.0 0.0
125.4661462923925 125.4661462923925 0.0 0.0
53.76909330853579 53.76909330853579 0.0 0.0
31.859338936839762 31.859338936839762 0.0 0.0
138.51597750684613 138.51597750684613 0.0 0.0
502.89952922588054 502.89952922588054 0.0 0.0
1098.8669540762298 1098.8669540762298 0.0 0.0
1840.8969319601283 1840.8969319601283 0.0 0.0
2745.007818980497 2745.007818980497 0.0 0.0
3808.6770089211623 3808.6770089211623 0.0 0.0
4998.652502799932 4998.652502799932 0.0 0.0
6213.981310615249 6213.981310615249 0.0 0.0
7376.810860302772 7376.810860302772 0.0 0.0
6342.765131516788 6342.765131516788 0.0 0.0
7366.513448527172 7366.513448527172 0.0 0.0
6189.588395524616 6189.588395524616 0.0 0.0
4962.87690892714 4962.87690892714 0.0 0.0
3764.9687408049285 3764.9687408049285 0.0 0.0
2699.108260642883 2699.108260642883 0.0 0.0
1802.4824581769685 1802.4824581769685 0.0 0.0
1078.7213247120699 1078.7213247120699 0.0 0.0
501.0340878105141 501.0340878105141 0.0 0.0
141.0369666634921 141.0369666634921 0.0 0.0
33.74235792838675 33.74235792838675 0.0 0.0