# vtk DataFile Version 3.0
Some data
ASCII
DATASET UNSTRUCTURED_GRID
POINTS 1029 float
0.0 0.0 0.0
0.8 0.0 0.0
1.6 0.0 0.0
2.4000000000000004 0.0 0.0
3.2 0.0 0.0
4.0 0.0 0.0
4.800000000000001 0.0 0.0
5.6000000000000005 0.0 0.0
6.4 0.0 0.0
7.2 0.0 0.0
8.0 0.0 0.0
8.8 0.0 0.0
9.600000000000001 0.0 0.0
10.4 0.0 0.0
11.200000000000001 0.0 0.0
12.0 0.0 0.0
12.8 0.0 0.0
13.600000000000001 0.0 0.0
14.4 0.0 0.0
15.200000000000001 0.0 0.0
16.0 0.0 0.0
0.0 0.3333333333333333 0.0
0.8 0.3333333333333333 0.0
1.6 0.3333333333333333 0.0
2.4000000000000004 0.3333333333333333 0.0
3.2 0.3333333333333333 0.0
4.0 0.3333333333333333 0.0
4.800000000000001 0.3333333333333333 0.0
5.6000000000000005 0.3333333333333333 0.0
6.4 0.3333333333333333 0.0
7.2 0.3333333333333333 0.0
8.0 0.3333333333333333 0.0
8.8 0.3333333333333333 0.0
9.600000000000001 0.3333333333333333 0.0
10.4 0.3333333333333333 0.0
11.200000000000001 0.3333333333333333 0.0
12.0 0.3333333333333333 0.0
12.8 0.3333333333333333 0.0
13.600000000000001 0.3333333333333333 0.0
14.4 0.3333333333333333 0.0
15.200000000000001 0.3333333333333333 0.0
16.0 0.3333333333333333 0.0
0.0 0.6666666666666666 0.0
0.8 0.6666666666666666 0.0
1.6 0.6666666666666666 0.0
2.4000000000000004 0.6666666666666666 0.0
3.2 0.6666666666666666 0.0
4.0 0.6666666666666666 0.0
4.800000000000001 0.6666666666666666 0.0
5.6000000000000005 0.6666666666666666 0.0
6.4 0.6666666666666666 0.0
7.2 0.6666666666666666 0.0
8.0 0.6666666666666666 0.0
8.8 0.6666666666666666 0.0
9.600000000000001 0.6666666666666666 0.0
10.4 0.6666666666666666 0.0
11.200000000000001 0.6666666666666666 0.0
12.0 0.6666666666666666 0.0
12.8 0.6666666666666666 0.0
13.600000000000001 0.6666666666666666 0.0
14.4 0.6666666666666666 0.0
15.200000000000001 0.6666666666666666 0.0
16.0 0.6666666666666666 0.0
0.0 1.0 0.0
0.8 1.0 0.0
1.6 1.0 0.0
2.4000000000000004 1.0 0.0
3.2 1.0 0.0
4.0 1.0 0.0
4.800000000000001 1.0 0.0
5.6000000000000005 1.0 0.0
6.4 1.0 0.0
7.2 1.0 0.0
8.0 1.0 0.0
8.8 1.0 0.0
9.600000000000001 1.0 0.0
10.4 1.0 0.0
11.200000000000001 1.0 0.0
12.0 1.0 0.0
12.8 1.0 0.0
13.600000000000001 1.0 0.0
14.4 1.0 0.0
15.200000000000001 1.0 0.0
16.0 1.0 0.0
0.0 1.3333333333333333 0.0
0.8 1.3333333333333333 0.0
1.6 1.3333333333333333 0.0
2.4000000000000004 1.3333333333333333 0.0
3.2 1.3333333333333333 0.0
4.0 1.3333333333333333 0.0
4.800000000000001 1.3333333333333333 0.0
5.6000000000000005 1.3333333333333333 0.0
6.4 1.3333333333333333 0.0
7.2 1.3333333333333333 0.0
8.0 1.3333333333333333 0.0
8.8 1.3333333333333333 0.0
9.600000000000001 1.3333333333333333 0.0
10.4 1.3333333333333333 0.0
11.200000000000001 1.3333333333333333 0.0
12.0 1.3333333333333333 0.0
12.8 1.3333333333333333 0.0
13.600000000000001 1.3333333333333333 0.0
14.4 1.3333333333333333 0.0
15.200000000000001 1.3333333333333333 0.0
16.0 1.3333333333333333 0.0
0.0 1.6666666666666665 0.0
0.8 1.6666666666666665 0.0
1.6 1.6666666666666665 0.0
2.4000000000000004 1.6666666666666665 0.0
3.2 1.6666666666666665 0.0
4.0 1.6666666666666665 0.0
4.800000000000001 1.6666666666666665 0.0
5.6000000000000005 1.6666666666666665 0.0
6.4 1.6666666666666665 0.0
7.2 1.6666666666666665 0.0
8.0 1.6666666666666665 0.0
8.8 1.6666666666666665 0.0
9.600000000000001 1.6666666666666665 0.0
10.4 1.6666666666666665 0.0
11.200000000000001 1.6666666666666665 0.0
12.0 1.6666666666666665 0.0
12.8 1.6666666666666665 0.0
13.600000000000001 1.6666666666666665 0.0
14.4 1.6666666666666665 0.0
15.200000000000001 1.6666666666666665 0.0
16.0 1.6666666666666665 0.0
0.0 2.0 0.0
0.8 2.0 0.0
1.6 2.0 0.0
2.4000000000000004 2.0 0.0
3.2 2.0 0.0
4.0 2.0 0.0
4.800000000000001 2.0 0.0
5.6000000000000005 2.0 0.0
6.4 2.0 0.0
7.2 2.0 0.0
8.0 2.0 0.0
8.8 2.0 0.0
9.600000000000001 2.0 0.0
10.4 2.0 0.0
11.200000000000001 2.0 0.0
12.0 2.0 0.0
12.8 2.0 0.0
13.600000000000001 2.0 0.0
14.4 2.0 0.0
15.200000000000001 2.0 0.0
16.0 2.0 0.0
0.0 0.0 1.6666666666666667
0.8 0.0 1.6666666666666667
1.6 0.0 1.6666666666666667
2.4000000000000004 0.0 1.6666666666666667
3.2 0.0 1.6666666666666667
4.0 0.0 1.6666666666666667
4.800000000000001 0.0 1.6666666666666667
5.6000000000000005 0.0 1.6666666666666667
6.4 0.0 1.6666666666666667
7.2 0.0 1.6666666666666667
8.0 0.0 1.6666666666666667
8.8 0.0 1.6666666666666667
9.600000000000001 0.0 1.6666666666666667
10.4 0.0 1.6666666666666667
11.200000000000001 0.0 1.6666666666666667
12.0 0.0 1.6666666666666667
12.8 0.0 1.6666666666666667
13.600000000000001 0.0 1.6666666666666667
14.4 0.0 1.6666666666666667
15.200000000000001 0.0 1.6666666666666667
16.0 0.0 1.6666666666666667
0.0 0.3333333333333333 1.6666666666666667
0.8 0.3333333333333333 1.6666666666666667
1.6 0.3333333333333333 1.6666666666666667
2.4000000000000004 0.3333333333333333 1.6666666666666667
3.2 0.3333333333333333 1.6666666666666667
4.0 0.3333333333333333 1.6666666666666667
4.800000000000001 0.3333333333333333 1.6666666666666667
5.6000000000000005 0.3333333333333333 1.6666666666666667
6.4 0.3333333333333333 1.6666666666666667
7.2 0.3333333333333333 1.6666666666666667
8.0 0.3333333333333333 1.6666666666666667
8.8 0.3333333333333333 1.6666666666666667
9.600000000000001 0.3333333333333333 1.6666666666666667
10.4 0.3333333333333333 1.6666666666666667
11.200000000000001 0.3333333333333333 1.6666666666666667
12.0 0.3333333333333333 1.6666666666666667
12.8 0.3333333333333333 1.6666666666666667
13.600000000000001 0.3333333333333333 1.6666666666666667
14.4 0.3333333333333333 1.6666666666666667
15.200000000000001 0.3333333333333333 1.6666666666666667
16.0 0.3333333333333333 1.6666666666666667
0.0 0.6666666666666666 1.6666666666666667
0.8 0.6666666666666666 1.6666666666666667
1.6 0.6666666666666666 1.6666666666666667
2.4000000000000004 0.6666666666666666 1.6666666666666667
3.2 0.6666666666666666 1.6666666666666667
4.0 0.6666666666666666 1.6666666666666667
4.800000000000001 0.6666666666666666 1.6666666666666667
5.6000000000000005 0.6666666666666666 1.6666666666666667
6.4 0.6666666666666666 1.6666666666666667
7.2 0.6666666666666666 1.6666666666666667
8.0 0.6666666666666666 1.6666666666666667
8.8 0.6666666666666666 1.6666666666666667
9.600000000000001 0.6666666666666666 1.6666666666666667
10.4 0.6666666666666666 1.6666666666666667
11.200000000000001 0.6666666666666666 1.6666666666666667
12.0 0.6666666666666666 1.6666666666666667
12.8 0.6666666666666666 1.6666666666666667
13.600000000000001 0.6666666666666666 1.6666666666666667
14.4 0.6666666666666666 1.6666666666666667
15.200000000000001 0.6666666666666666 1.6666666666666667
16.0 0.6666666666666666 1.6666666666666667
0.0 1.0 1.6666666666666667
0.8 1.0 1.6666666666666667
1.6 1.0 1.6666666666666667
2.4000000000000004 1.0 1.6666666666666667
3.2 1.0 1.6666666666666667
4.0 1.0 1.6666666666666667
4.800000000000001 1.0 1.6666666666666667
5.6000000000000005 1.0 1.6666666666666667
6.4 1.0 1.6666666666666667
7.2 1.0 1.6666666666666667
8.0 1.0 1.6666666666666667
8.8 1.0 1.6666666666666667
9.600000000000001 1.0 1.6666666666666667
10.4 1.0 1.6666666666666667
11.200000000000001 1.0 1.6666666666666667
12.0 1.0 1.6666666666666667
12.8 1.0 1.6666666666666667
13.600000000000001 1.0 1.6666666666666667
14.4 1.0 1.6666666666666667
15.200000000000001 1.0 1.6666666666666667
16.0 1.0 1.6666666666666667
0.0 1.3333333333333333 1.6666666666666667
0.8 1.3333333333333333 1.6666666666666667
1.6 1.3333333333333333 1.6666666666666667
2.4000000000000004 1.3333333333333333 1.6666666666666667
3.2 1.3333333333333333 1.6666666666666667
4.0 1.3333333333333333 1.6666666666666667
4.800000000000001 1.3333333333333333 1.6666666666666667
5.6000000000000005 1.3333333333333333 1.6666666666666667
6.4 1.3333333333333333 1.6666666666666667
7.2 1.3333333333333333 1.6666666666666667
8.0 1.3333333333333333 1.6666666666666667
8.8 1.3333333333333333 1.6666666666666667
9.600000000000001 1.3333333333333333 1.6666666666666667
10.4 1.3333333333333333 1.6666666666666667
11.200000000000001 1.3333333333333333 1.6666666666666667
12.0 1.3333333333333333 1.6666666666666667
12.8 1.3333333333333333 1.6666666666666667
13.600000000000001 1.3333333333333333 1.6666666666666667
14.4 1.3333333333333333 1.6666666666666667
15.200000000000001 1.3333333333333333 1.6666666666666667
16.0 1.3333333333333333 1.6666666666666667
0.0 1.6666666666666665 1.6666666666666667
0.8 1.6666666666666665 1.6666666666666667
1.6 1.6666666666666665 1.6666666666666667
2.4000000000000004 1.6666666666666665 1.6666666666666667
3.2 1.6666666666666665 1.6666666666666667
4.0 1.6666666666666665 1.6666666666666667
4.800000000000001 1.6666666666666665 1.6666666666666667
5.6000000000000005 1.6666666666666665 1.6666666666666667
6.4 1.6666666666666665 1.6666666666666667
7.2 1.6666666666666665 1.6666666666666667
8.0 1.6666666666666665 1.6666666666666667
8.8 1.6666666666666665 1.6666666666666667
9.600000000000001 1.6666666666666665 1.6666666666666667
10.4 1.6666666666666665 1.6666666666666667
11.200000000000001 1.6666666666666665 1.6666666666666667
12.0 1.6666666666666665 1.6666666666666667
12.8 1.6666666666666665 1.6666666666666667
13.600000000000001 1.6666666666666665 1.6666666666666667
14.4 1.6666666666666665 1.6666666666666667
15.200000000000001 1.6666666666666665 1.6666666666666667
16.0 1.6666666666666665 1.6666666666666667
0.0 2.0 1.6666666666666667
0.8 2.0 1.6666666666666667
1.6 2.0 1.6666666666666667
2.4000000000000004 2.0 1.6666666666666667
3.2 2.0 1.6666666666666667
4.0 2.0 1.6666666666666667
4.800000000000001 2.0 1.6666666666666667
5.6000000000000005 2.0 1.6666666666666667
6.4 2.0 1.6666666666666667
7.2 2.0 1.6666666666666667
8.0 2.0 1.6666666666666667
8.8 2.0 1.6666666666666667
9.600000000000001 2.0 1.6666666666666667
10.4 2.0 1.6666666666666667
11.200000000000001 2.0 1.6666666666666667
12.0 2.0 1.6666666666666667
12.8 2.0 1.6666666666666667
13.600000000000001 2.0 1.6666666666666667
14.4 2.0 1.6666666666666667
15.200000000000001 2.0 1.6666666666666667
16.0 2.0 1.6666666666666667
0.0 0.0 3.3333333333333335
0.8 0.0 3.3333333333333335
1.6 0.0 3.3333333333333335
2.4000000000000004 0.0 3.3333333333333335
3.2 0.0 3.3333333333333335
4.0 0.0 3.3333333333333335
4.800000000000001 0.0 3.3333333333333335
5.6000000000000005 0.0 3.3333333333333335
6.4 0.0 3.3333333333333335
7.2 0.0 3.3333333333333335
8.0 0.0 3.3333333333333335
8.8 0.0 3.3333333333333335
9.600000000000001 0.0 3.3333333333333335
10.4 0.0 3.3333333333333335
11.200000000000001 0.0 3.3333333333333335
12.0 0.0 3.3333333333333335
12.8 0.0 3.3333333333333335
13.600000000000001 0.0 3.3333333333333335
14.4 0.0 3.3333333333333335
15.200000000000001 0.0 3.3333333333333335
16.0 0.0 3.3333333333333335
0.0 0.3333333333333333 3.3333333333333335
0.8 0.3333333333333333 3.3333333333333335
1.6 0.3333333333333333 3.3333333333333335
2.4000000000000004 0.3333333333333333 3.3333333333333335
3.2 0.3333333333333333 3.3333333333333335
4.0 0.3333333333333333 3.3333333333333335
4.800000000000001 0.3333333333333333 3.3333333333333335
5.6000000000000005 0.3333333333333333 3.3333333333333335
6.4 0.3333333333333333 3.3333333333333335
7.2 0.3333333333333333 3.3333333333333335
8.0 0.3333333333333333 3.3333333333333335
8.8 0.3333333333333333 3.3333333333333335
9.600000000000001 0.3333333333333333 3.3333333333333335
10.4 0.3333333333333333 3.3333333333333335
11.200000000000001 0.3333333333333333 3.3333333333333335
12.0 0.3333333333333333 3.3333333333333335
12.8 0.3333333333333333 3.3333333333333335
13.600000000000001 0.3333333333333333 3.3333333333333335
14.4 0.3333333333333333 3.3333333333333335
15.200000000000001 0.3333333333333333 3.3333333333333335
16.0 0.3333333333333333 3.3333333333333335
0.0 0.6666666666666666 3.3333333333333335
0.8 0.6666666666666666 3.3333333333333335
1.6 0.6666666666666666 3.3333333333333335
2.4000000000000004 0.6666666666666666 3.3333333333333335
3.2 0.6666666666666666 3.3333333333333335
4.0 0.6666666666666666 3.3333333333333335
4.800000000000001 0.6666666666666666 3.3333333333333335
5.6000000000000005 0.6666666666666666 3.3333333333333335
6.4 0.6666666666666666 3.3333333333333335
7.2 0.6666666666666666 3.3333333333333335
8.0 0.6666666666666666 3.3333333333333335
8.8 0.6666666666666666 3.3333333333333335
9.600000000000001 0.6666666666666666 3.3333333333333335
10.4 0.6666666666666666 3.3333333333333335
11.200000000000001 0.6666666666666666 3.3333333333333335
12.0 0.6666666666666666 3.3333333333333335
12.8 0.6666666666666666 3.3333333333333335
13.600000000000001 0.6666666666666666 3.3333333333333335
14.4 0.6666666666666666 3.3333333333333335
15.200000000000001 0.6666666666666666 3.3333333333333335
16.0 0.6666666666666666 3.3333333333333335
0.0 1.0 3.3333333333333335
0.8 1.0 3.3333333333333335
1.6 1.0 3.3333333333333335
2.4000000000000004 1.0 3.3333333333333335
3.2 1.0 3.3333333333333335
4.0 1.0 3.3333333333333335
4.800000000000001 1.0 3.3333333333333335
5.6000000000000005 1.0 3.3333333333333335
6.4 1.0 3.3333333333333335
7.2 1.0 3.3333333333333335
8.0 1.0 3.3333333333333335
8.8 1.0 3.3333333333333335
9.600000000000001 1.0 3.3333333333333335
10.4 1.0 3.3333333333333335
11.200000000000001 1.0 3.3333333333333335
12.0 1.0 3.3333333333333335
12.8 1.0 3.3333333333333335
13.600000000000001 1.0 3.3333333333333335
14.4 1.0 3.3333333333333335
15.200000000000001 1.0 3.3333333333333335
16.0 1.0 3.3333333333333335
0.0 1.3333333333333333 3.3333333333333335
0.8 1.3333333333333333 3.3333333333333335
1.6 1.3333333333333333 3.3333333333333335
2.4000000000000004 1.3333333333333333 3.3333333333333335
3.2 1.3333333333333333 3.3333333333333335
4.0 1.3333333333333333 3.3333333333333335
4.800000000000001 1.3333333333333333 3.3333333333333335
5.6000000000000005 1.3333333333333333 3.3333333333333335
6.4 1.3333333333333333 3.3333333333333335
7.2 1.3333333333333333 3.3333333333333335
8.0 1.3333333333333333 3.3333333333333335
8.8 1.3333333333333333 3.3333333333333335
9.600000000000001 1.3333333333333333 3.3333333333333335
10.4 1.3333333333333333 3.3333333333333335
11.200000000000001 1.3333333333333333 3.3333333333333335
12.0 1.3333333333333333 3.3333333333333335
12.8 1.3333333333333333 3.3333333333333335
13.600000000000001 1.3333333333333333 3.3333333333333335
14.4 1.3333333333333333 3.3333333333333335
15.200000000000001 1.3333333333333333 3.3333333333333335
16.0 1.3333333333333333 3.3333333333333335
0.0 1.6666666666666665 3.3333333333333335
0.8 1.6666666666666665 3.3333333333333335
1.6 1.6666666666666665 3.3333333333333335
2.4000000000000004 1.6666666666666665 3.3333333333333335
3.2 1.6666666666666665 3.3333333333333335
4.0 1.6666666666666665 3.3333333333333335
4.800000000000001 1.6666666666666665 3.3333333333333335
5.6000000000000005 1.6666666666666665 3.3333333333333335
6.4 1.6666666666666665 3.3333333333333335
7.2 1.6666666666666665 3.3333333333333335
8.0 1.6666666666666665 3.3333333333333335
8.8 1.6666666666666665 3.3333333333333335
9.600000000000001 1.6666666666666665 3.3333333333333335
10.4 1.6666666666666665 3.3333333333333335
11.200000000000001 1.6666666666666665 3.3333333333333335
12.0 1.6666666666666665 3.3333333333333335
12.8 1.6666666666666665 3.3333333333333335
13.600000000000001 1.6666666666666665 3.3333333333333335
14.4 1.6666666666666665 3.3333333333333335
15.200000000000001 1.6666666666666665 3.3333333333333335
16.0 1.6666666666666665 3.3333333333333335
0.0 2.0 3.3333333333333335
0.8 2.0 3.3333333333333335
1.6 2.0 3.3333333333333335
2.4000000000000004 2.0 3.3333333333333335
3.2 2.0 3.3333333333333335
4.0 2.0 3.3333333333333335
4.800000000000001 2.0 3.3333333333333335
5.6000000000000005 2.0 3.3333333333333335
6.4 2.0 3.3333333333333335
7.2 2.0 3.3333333333333335
8.0 2.0 3.3333333333333335
8.8 2.0 3.3333333333333335
9.600000000000001 2.0 3.3333333333333335
10.4 2.0 3.3333333333333335
11.200000000000001 2.0 3.3333333333333335
12.0 2.0 3.3333333333333335
12.8 2.0 3.3333333333333335
13.600000000000001 2.0 3.3333333333333335
14.4 2.0 3.3333333333333335
15.200000000000001 2.0 3.3333333333333335
16.0 2.0 3.3333333333333335
0.0 0.0 5.0
0.8 0.0 5.0
1.6 0.0 5.0
2.4000000000000004 0.0 5.0
3.2 0.0 5.0
4.0 0.0 5.0
4.800000000000001 0.0 5.0
5.6000000000000005 0.0 5.0
6.4 0.0 5.0
7.2 0.0 5.0
8.0 0.0 5.0
8.8 0.0 5.0
9.600000000000001 0.0 5.0
10.4 0.0 5.0
11.200000000000001 0.0 5.0
12.0 0.0 5.0
12.8 0.0 5.0
13.600000000000001 0.0 5.0
14.4 0.0 5.0
15.200000000000001 0.0 5.0
16.0 0.0 5.0
0.0 0.3333333333333333 5.0
0.8 0.3333333333333333 5.0
1.6 0.3333333333333333 5.0
2.4000000000000004 0.3333333333333333 5.0
3.2 0.3333333333333333 5.0
4.0 0.3333333333333333 5.0
4.800000000000001 0.3333333333333333 5.0
5.6000000000000005 0.3333333333333333 5.0
6.4 0.3333333333333333 5.0
7.2 0.3333333333333333 5.0
8.0 0.3333333333333333 5.0
8.8 0.3333333333333333 5.0
9.600000000000001 0.3333333333333333 5.0
10.4 0.3333333333333333 5.0
11.200000000000001 0.3333333333333333 5.0
12.0 0.3333333333333333 5.0
12.8 0.3333333333333333 5.0
13.600000000000001 0.3333333333333333 5.0
14.4 0.3333333333333333 5.0
15.200000000000001 0.3333333333333333 5.0
16.0 0.3333333333333333 5.0
0.0 0.6666666666666666 5.0
0.8 0.6666666666666666 5.0
1.6 0.6666666666666666 5.0
2.4000000000000004 0.6666666666666666 5.0
3.2 0.6666666666666666 5.0
4.0 0.6666666666666666 5.0
4.800000000000001 0.6666666666666666 5.0
5.6000000000000005 0.6666666666666666 5.0
6.4 0.6666666666666666 5.0
7.2 0.6666666666666666 5.0
8.0 0.6666666666666666 5.0
8.8 0.6666666666666666 5.0
9.600000000000001 0.6666666666666666 5.0
10.4 0.6666666666666666 5.0
11.200000000000001 0.6666666666666666 5.0
12.0 0.6666666666666666 5.0
12.8 0.6666666666666666 5.0
13.600000000000001 0.6666666666666666 5.0
14.4 0.6666666666666666 5.0
15.200000000000001 0.6666666666666666 5.0
16.0 0.6666666666666666 5.0
0.0 1.0 5.0
0.8 1.0 5.0
1.6 1.0 5.0
2.4000000000000004 1.0 5.0
3.2 1.0 5.0
4.0 1.0 5.0
4.800000000000001 1.0 5.0
5.6000000000000005 1.0 5.0
6.4 1.0 5.0
7.2 1.0 5.0
8.0 1.0 5.0
8.8 1.0 5.0
9.600000000000001 1.0 5.0
10.4 1.0 5.0
11.200000000000001 1.0 5.0
12.0 1.0 5.0
12.8 1.0 5.0
13.600000000000001 1.0 5.0
14.4 1.0 5.0
15.200000000000001 1.0 5.0
16.0 1.0 5.0
0.0 1.3333333333333333 5.0
0.8 1.3333333333333333 5.0
1.6 1.3333333333333333 5.0
2.4000000000000004 1.3333333333333333 5.0
3.2 1.3333333333333333 5.0
4.0 1.3333333333333333 5.0
4.800000000000001 1.3333333333333333 5.0
5.6000000000000005 1.3333333333333333 5.0
6.4 1.3333333333333333 5.0
7.2 1.3333333333333333 5.0
8.0 1.3333333333333333 5.0
8.8 1.3333333333333333 5.0
9.600000000000001 1.3333333333333333 5.0
10.4 1.3333333333333333 5.0
11.200000000000001 1.3333333333333333 5.0
12.0 1.3333333333333333 5.0
12.8 1.3333333333333333 5.0
13.600000000000001 1.3333333333333333 5.0
14.4 1.3333333333333333 5.0
15.200000000000001 1.3333333333333333 5.0
16.0 1.3333333333333333 5.0
0.0 1.6666666666666665 5.0
0.8 1.6666666666666665 5.0
1.6 1.6666666666666665 5.0
2.4000000000000004 1.6666666666666665 5.0
3.2 1.6666666666666665 5.0
4.0 1.6666666666666665 5.0
4.800000000000001 1.6666666666666665 5.0
5.6000000000000005 1.6666666666666665 5.0
6.4 1.6666666666666665 5.0
7.2 1.6666666666666665 5.0
8.0 1.6666666666666665 5.0
8.8 1.6666666666666665 5.0
9.600000000000001 1.6666666666666665 5.0
10.4 1.6666666666666665 5.0
11.200000000000001 1.6666666666666665 5.0
12.0 1.6666666666666665 5.0
12.8 1.6666666666666665 5.0
13.600000000000001 1.6666666666666665 5.0
14.4 1.6666666666666665 5.0
15.200000000000001 1.6666666666666665 5.0
16.0 1.6666666666666665 5.0
0.0 2.0 5.0
0.8 2.0 5.0
1.6 2.0 5.0
2.4000000000000004 2.0 5.0
3.2 2.0 5.0
4.0 2.0 5.0
4.800000000000001 2.0 5.0
5.6000000000000005 2.0 5.0
6.4 2.0 5.0
7.2 2.0 5.0
8.0 2.0 5.0
8.8 2.0 5.0
9.600000000000001 2.0 5.0
10.4 2.0 5.0
11.200000000000001 2.0 5.0
12.0 2.0 5.0
12.8 2.0 5.0
13.600000000000001 2.0 5.0
14.4 2.0 5.0
15.200000000000001 2.0 5.0
16.0 2.0 5.0
0.0 0.0 6.666666666666667
0.8 0.0 6.666666666666667
1.6 0.0 6.666666666666667
2.4000000000000004 0.0 6.666666666666667
3.2 0.0 6.666666666666667
4.0 0.0 6.666666666666667
4.800000000000001 0.0 6.666666666666667
5.6000000000000005 0.0 6.666666666666667
6.4 0.0 6.666666666666667
7.2 0.0 6.666666666666667
8.0 0.0 6.666666666666667
8.8 0.0 6.666666666666667
9.600000000000001 0.0 6.666666666666667
10.4 0.0 6.666666666666667
11.200000000000001 0.0 6.666666666666667
12.0 0.0 6.666666666666667
12.8 0.0 6.666666666666667
13.600000000000001 0.0 6.666666666666667
14.4 0.0 6.666666666666667
15.200000000000001 0.0 6.666666666666667
16.0 0.0 6.666666666666667
0.0 0.3333333333333333 6.666666666666667
0.8 0.3333333333333333 6.666666666666667
1.6 0.3333333333333333 6.666666666666667
2.4000000000000004 0.3333333333333333 6.666666666666667
3.2 0.3333333333333333 6.666666666666667
4.0 0.3333333333333333 6.666666666666667
4.800000000000001 0.3333333333333333 6.666666666666667
5.6000000000000005 0.3333333333333333 6.666666666666667
6.4 0.3333333333333333 6.666666666666667
7.2 0.3333333333333333 6.666666666666667
8.0 0.3333333333333333 6.666666666666667
8.8 0.3333333333333333 6.666666666666667
9.600000000000001 0.3333333333333333 6.666666666666667
10.4 0.3333333333333333 6.666666666666667
11.200000000000001 0.3333333333333333 6.666666666666667
12.0 0.3333333333333333 6.666666666666667
12.8 0.3333333333333333 6.666666666666667
13.600000000000001 0.3333333333333333 6.666666666666667
14.4 0.3333333333333333 6.666666666666667
15.200000000000001 0.3333333333333333 6.666666666666667
16.0 0.3333333333333333 6.666666666666667
0.0 0.6666666666666666 6.666666666666667
0.8 0.6666666666666666 6.666666666666667
1.6 0.6666666666666666 6.666666666666667
2.4000000000000004 0.6666666666666666 6.666666666666667
3.2 0.6666666666666666 6.666666666666667
4.0 0.6666666666666666 6.666666666666667
4.800000000000001 0.6666666666666666 6.666666666666667
5.6000000000000005 0.6666666666666666 6.666666666666667
6.4 0.6666666666666666 6.666666666666667
7.2 0.6666666666666666 6.666666666666667
8.0 0.6666666666666666 6.666666666666667
8.8 0.6666666666666666 6.666666666666667
9.600000000000001 0.6666666666666666 6.666666666666667
10.4 0.6666666666666666 6.666666666666667
11.200000000000001 0.6666666666666666 6.666666666666667
12.0 0.6666666666666666 6.666666666666667
12.8 0.6666666666666666 6.666666666666667
13.600000000000001 0.6666666666666666 6.666666666666667
14.4 0.6666666666666666 6.666666666666667
15.200000000000001 0.6666666666666666 6.666666666666667
16.0 0.6666666666666666 6.666666666666667
0.0 1.0 6.666666666666667
0.8 1.0 6.666666666666667
1.6 1.0 6.666666666666667
2.4000000000000004 1.0 6.666666666666667
3.2 1.0 6.666666666666667
4.0 1.0 6.666666666666667
4.800000000000001 1.0 6.666666666666667
5.6000000000000005 1.0 6.666666666666667
6.4 1.0 6.666666666666667
7.2 1.0 6.666666666666667
8.0 1.0 6.666666666666667
8.8 1.0 6.666666666666667
9.600000000000001 1.0 6.666666666666667
10.4 1.0 6.666666666666667
11.200000000000001 1.0 6.666666666666667
12.0 1.0 6.666666666666667
12.8 1.0 6.666666666666667
13.600000000000001 1.0 6.666666666666667
14.4 1.0 6.666666666666667
15.200000000000001 1.0 6.666666666666667
16.0 1.0 6.666666666666667
0.0 1.3333333333333333 6.666666666666667
0.8 1.3333333333333333 6.666666666666667
1.6 1.3333333333333333 6.666666666666667
2.4000000000000004 1.3333333333333333 6.666666666666667
3.2 1.3333333333333333 6.666666666666667
4.0 1.3333333333333333 6.666666666666667
4.800000000000001 1.3333333333333333 6.666666666666667
5.6000000000000005 1.3333333333333333 6.666666666666667
6.4 1.3333333333333333 6.666666666666667
7.2 1.3333333333333333 6.666666666666667
8.0 1.3333333333333333 6.666666666666667
8.8 1.3333333333333333 6.666666666666667
9.600000000000001 1.3333333333333333 6.666666666666667
10.4 1.3333333333333333 6.666666666666667
11.200000000000001 1.3333333333333333 6.666666666666667
12.0 1.3333333333333333 6.666666666666667
12.8 1.3333333333333333 6.666666666666667
13.600000000000001 1.3333333333333333 6.666666666666667
14.4 1.3333333333333333 6.666666666666667
15.200000000000001 1.3333333333333333 6.666666666666667
16.0 1.3333333333333333 6.666666666666667
0.0 1.6666666666666665 6.666666666666667
0.8 1.6666666666666665 6.666666666666667
1.6 1.6666666666666665 6.666666666666667
2.4000000000000004 1.6666666666666665 6.666666666666667
3.2 1.6666666666666665 6.666666666666667
4.0 1.6666666666666665 6.666666666666667
4.800000000000001 1.6666666666666665 6.666666666666667
5.6000000000000005 1.6666666666666665 6.666666666666667
6.4 1.6666666666666665 6.666666666666667
7.2 1.6666666666666665 6.666666666666667
8.0 1.6666666666666665 6.666666666666667
8.8 1.6666666666666665 6.666666666666667
9.600000000000001 1.6666666666666665 6.666666666666667
10.4 1.6666666666666665 6.666666666666667
11.200000000000001 1.6666666666666665 6.666666666666667
12.0 1.6666666666666665 6.666666666666667
12.8 1.6666666666666665 6.666666666666667
13.600000000000001 1.6666666666666665 6.666666666666667
14.4 1.6666666666666665 6.666666666666667
15.200000000000001 1.6666666666666665 6.666666666666667
16.0 1.6666666666666665 6.666666666666667
0.0 2.0 6.666666666666667
0.8 2.0 6.666666666666667
1.6 2.0 6.666666666666667
2.4000000000000004 2.0 6.666666666666667
3.2 2.0 6.666666666666667
4.0 2.0 6.666666666666667
4.800000000000001 2.0 6.666666666666667
5.6000000000000005 2.0 6.666666666666667
6.4 2.0 6.666666666666667
7.2 2.0 6.666666666666667
8.0 2.0 6.666666666666667
8.8 2.0 6.666666666666667
9.600000000000001 2.0 6.666666666666667
10.4 2.0 6.666666666666667
11.200000000000001 2.0 6.666666666666667
12.0 2.0 6.666666666666667
12.8 2.0 6.666666666666667
13.600000000000001 2.0 6.666666666666667
14.4 2.0 6.666666666666667
15.200000000000001 2.0 6.666666666666667
16.0 2.0 6.666666666666667
0.0 0.0 8.333333333333334
0.8 0.0 8.333333333333334
1.6 0.0 8.333333333333334
2.4000000000000004 0.0 8.333333333333334
3.2 0.0 8.333333333333334
4.0 0.0 8.333333333333334
4.800000000000001 0.0 8.333333333333334
5.6000000000000005 0.0 8.333333333333334
6.4 0.0 8.333333333333334
7.2 0.0 8.333333333333334
8.0 0.0 8.333333333333334
8.8 0.0 8.333333333333334
9.600000000000001 0.0 8.333333333333334
10.4 0.0 8.333333333333334
11.200000000000001 0.0 8.333333333333334
12.0 0.0 8.333333333333334
12.8 0.0 8.333333333333334
13.600000000000001 0.0 8.333333333333334
14.4 0.0 8.333333333333334
15.200000000000001 0.0 8.333333333333334
16.0 0.0 8.333333333333334
0.0 0.3333333333333333 8.333333333333334
0.8 0.3333333333333333 8.333333333333334
1.6 0.3333333333333333 8.333333333333334
2.4000000000000004 0.3333333333333333 8.333333333333334
3.2 0.3333333333333333 8.333333333333334
4.0 0.3333333333333333 8.333333333333334
4.800000000000001 0.3333333333333333 8.333333333333334
5.6000000000000005 0.3333333333333333 8.333333333333334
6.4 0.3333333333333333 8.333333333333334
7.2 0.3333333333333333 8.333333333333334
8.0 0.3333333333333333 8.333333333333334
8.8 0.3333333333333333 8.333333333333334
9.600000000000001 0.3333333333333333 8.333333333333334
10.4 0.3333333333333333 8.333333333333334
11.200000000000001 0.3333333333333333 8.333333333333334
12.0 0.3333333333333333 8.333333333333334
12.8 0.3333333333333333 8.333333333333334
13.600000000000001 0.3333333333333333 8.333333333333334
14.4 0.3333333333333333 8.333333333333334
15.200000000000001 0.3333333333333333 8.333333333333334
16.0 0.3333333333333333 8.333333333333334
0.0 0.6666666666666666 8.333333333333334
0.8 0.6666666666666666 8.333333333333334
1.6 0.6666666666666666 8.333333333333334
2.4000000000000004 0.6666666666666666 8.333333333333334
3.2 0.6666666666666666 8.333333333333334
4.0 0.6666666666666666 8.333333333333334
4.800000000000001 0.6666666666666666 8.333333333333334
5.6000000000000005 0.6666666666666666 8.333333333333334
6.4 0.6666666666666666 8.333333333333334
7.2 0.6666666666666666 8.333333333333334
8.0 0.6666666666666666 8.333333333333334
8.8 0.6666666666666666 8.333333333333334
9.600000000000001 0.6666666666666666 8.333333333333334
10.4 0.6666666666666666 8.333333333333334
11.200000000000001 0.6666666666666666 8.333333333333334
12.0 0.6666666666666666 8.333333333333334
12.8 0.6666666666666666 8.333333333333334
13.600000000000001 0.6666666666666666 8.333333333333334
14.4 0.6666666666666666 8.333333333333334
15.200000000000001 0.6666666666666666 8.333333333333334
16.0 0.6666666666666666 8.333333333333334
0.0 1.0 8.333333333333334
0.8 1.0 8.333333333333334
1.6 1.0 8.333333333333334
2.4000000000000004 1.0 8.333333333333334
3.2 1.0 8.333333333333334
4.0 1.0 8.333333333333334
4.800000000000001 1.0 8.333333333333334
5.6000000000000005 1.0 8.333333333333334
6.4 1.0 8.333333333333334
7.2 1.0 8.333333333333334
8.0 1.0 8.333333333333334
8.8 1.0 8.333333333333334
9.600000000000001 1.0 8.333333333333334
10.4 1.0 8.333333333333334
11.200000000000001 1.0 8.333333333333334
12.0 1.0 8.333333333333334
12.8 1.0 8.333333333333334
13.600000000000001 1.0 8.333333333333334
14.4 1.0 8.333333333333334
15.200000000000001 1.0 8.333333333333334
16.0 1.0 8.333333333333334
0.0 1.3333333333333333 8.333333333333334
0.8 1.3333333333333333 8.333333333333334
1.6 1.3333333333333333 8.333333333333334
2.4000000000000004 1.3333333333333333 8.333333333333334
3.2 1.3333333333333333 8.333333333333334
4.0 1.3333333333333333 8.333333333333334
4.800000000000001 1.3333333333333333 8.333333333333334
5.6000000000000005 1.3333333333333333 8.333333333333334
6.4 1.3333333333333333 8.333333333333334
7.2 1.3333333333333333 8.333333333333334
8.0 1.3333333333333333 8.333333333333334
8.8 1.3333333333333333 8.333333333333334
9.600000000000001 1.3333333333333333 8.333333333333334
10.4 1.3333333333333333 8.333333333333334
11.200000000000001 1.3333333333333333 8.333333333333334
12.0 1.3333333333333333 8.333333333333334
12.8 1.3333333333333333 8.333333333333334
13.600000000000001 1.3333333333333333 8.333333333333334
14.4 1.3333333333333333 8.333333333333334
15.200000000000001 1.3333333333333333 8.333333333333334
16.0 1.3333333333333333 8.333333333333334
0.0 1.6666666666666665 8.333333333333334
0.8 1.6666666666666665 8.333333333333334
1.6 1.6666666666666665 8.333333333333334
2.4000000000000004 1.6666666666666665 8.333333333333334
3.2 1.6666666666666665 8.333333333333334
4.0 1.6666666666666665 8.333333333333334
4.800000000000001 1.6666666666666665 8.333333333333334
5.6000000000000005 1.6666666666666665 8.333333333333334
6.4 1.6666666666666665 8.333333333333334
7.2 1.6666666666666665 8.333333333333334
8.0 1.6666666666666665 8.333333333333334
8.8 1.6666666666666665 8.333333333333334
9.600000000000001 1.6666666666666665 8.333333333333334
10.4 1.6666666666666665 8.333333333333334
11.200000000000001 1.6666666666666665 8.333333333333334
12.0 1.6666666666666665 8.333333333333334
12.8 1.6666666666666665 8.333333333333334
13.600000000000001 1.6666666666666665 8.333333333333334
14.4 1.6666666666666665 8.333333333333334
15.200000000000001 1.6666666666666665 8.333333333333334
16.0 1.6666666666666665 8.333333333333334
0.0 2.0 8.333333333333334
0.8 2.0 8.333333333333334
1.6 2.0 8.333333333333334
2.4000000000000004 2.0 8.333333333333334
3.2 2.0 8.333333333333334
4.0 2.0 8.333333333333334
4.800000000000001 2.0 8.333333333333334
5.6000000000000005 2.0 8.333333333333334
6.4 2.0 8.333333333333334
7.2 2.0 8.333333333333334
8.0 2.0 8.333333333333334
8.8 2.0 8.333333333333334
9.600000000000001 2.0 8.333333333333334
10.4 2.0 8.333333333333334
11.200000000000001 2.0 8.333333333333334
12.0 2.0 8.333333333333334
12.8 2.0 8.333333333333334
13.600000000000001 2.0 8.333333333333334
14.4 2.0 8.333333333333334
15.200000000000001 2.0 8.333333333333334
16.0 2.0 8.333333333333334
0.0 0.0 10.0
0.8 0.0 10.0
1.6 0.0 10.0
2.4000000000000004 0.0 10.0
3.2 0.0 10.0
4.0 0.0 10.0
4.800000000000001 0.0 10.0
5.6000000000000005 0.0 10.0
6.4 0.0 10.0
7.2 0.0 10.0
8.0 0.0 10.0
8.8 0.0 10.0
9.600000000000001 0.0 10.0
10.4 0.0 10.0
11.200000000000001 0.0 10.0
12.0 0.0 10.0
12.8 0.0 10.0
13.600000000000001 0.0 10.0
14.4 0.0 10.0
15.200000000000001 0.0 10.0
16.0 0.0 10.0
0.0 0.3333333333333333 10.0
0.8 0.3333333333333333 10.0
1.6 0.3333333333333333 10.0
2.4000000000000004 0.3333333333333333 10.0
3.2 0.3333333333333333 10.0
4.0 0.3333333333333333 10.0
4.800000000000001 0.3333333333333333 10.0
5.6000000000000005 0.3333333333333333 10.0
6.4 0.3333333333333333 10.0
7.2 0.3333333333333333 10.0
8.0 0.3333333333333333 10.0
8.8 0.3333333333333333 10.0
9.600000000000001 0.3333333333333333 10.0
10.4 0.3333333333333333 10.0
11.200000000000001 0.3333333333333333 10.0
12.0 0.3333333333333333 10.0
12.8 0.3333333333333333 10.0
13.600000000000001 0.3333333333333333 10.0
14.4 0.3333333333333333 10.0
15.200000000000001 0.3333333333333333 10.0
16.0 0.3333333333333333 10.0
0.0 0.6666666666666666 10.0
0.8 0.6666666666666666 10.0
1.6 0.6666666666666666 10.0
2.4000000000000004 0.6666666666666666 10.0
3.2 0.6666666666666666 10.0
4.0 0.6666666666666666 10.0
4.800000000000001 0.6666666666666666 10.0
5.6000000000000005 0.6666666666666666 10.0
6.4 0.6666666666666666 10.0
7.2 0.6666666666666666 10.0
8.0 0.6666666666666666 10.0
8.8 0.6666666666666666 10.0
9.600000000000001 0.6666666666666666 10.0
10.4 0.6666666666666666 10.0
11.200000000000001 0.6666666666666666 10.0
12.0 0.6666666666666666 10.0
12.8 0.6666666666666666 10.0
13.600000000000001 0.6666666666666666 10.0
14.4 0.6666666666666666 10.0
15.200000000000001 0.6666666666666666 10.0
16.0 0.6666666666666666 10.0
0.0 1.0 10.0
0.8 1.0 10.0
1.6 1.0 10.0
2.4000000000000004 1.0 10.0
3.2 1.0 10.0
4.0 1.0 10.0
4.800000000000001 1.0 10.0
5.6000000000000005 1.0 10.0
6.4 1.0 10.0
7.2 1.0 10.0
8.0 1.0 10.0
8.8 1.0 10.0
9.600000000000001 1.0 10.0
10.4 1.0 10.0
11.200000000000001 1.0 10.0
12.0 1.0 10.0
12.8 1.0 10.0
13.600000000000001 1.0 10.0
14.4 1.0 10.0
15.200000000000001 1.0 10.0
16.0 1.0 10.0
0.0 1.3333333333333333 10.0
0.8 1.3333333333333333 10.0
1.6 1.3333333333333333 10.0
2.4000000000000004 1.3333333333333333 10.0
3.2 1.3333333333333333 10.0
4.0 1.3333333333333333 10.0
4.800000000000001 1.3333333333333333 10.0
5.6000000000000005 1.3333333333333333 10.0
6.4 1.3333333333333333 10.0
7.2 1.3333333333333333 10.0
8.0 1.3333333333333333 10.0
8.8 1.3333333333333333 10.0
9.600000000000001 1.3333333333333333 10.0
10.4 1.3333333333333333 10.0
11.200000000000001 1.3333333333333333 10.0
12.0 1.3333333333333333 10.0
12.8 1.3333333333333333 10.0
13.600000000000001 1.3333333333333333 10.0
14.4 1.3333333333333333 10.0
15.200000000000001 1.3333333333333333 10.0
16.0 1.3333333333333333 10.0
0.0 1.6666666666666665 10.0
0.8 1.6666666666666665 10.0
1.6 1.6666666666666665 10.0
2.4000000000000004 1.6666666666666665 10.0
3.2 1.6666666666666665 10.0
4.0 1.6666666666666665 10.0
4.800000000000001 1.6666666666666665 10.0
5.6000000000000005 1.6666666666666665 10.0
6.4 1.6666666666666665 10.0
7.2 1.6666666666666665 10.0
8.0 1.6666666666666665 10.0
8.8 1.6666666666666665 10.0
9.600000000000001 1.6666666666666665 10.0
10.4 1.6666666666666665 10.0
11.200000000000001 1.6666666666666665 10.0
12.0 1.6666666666666665 10.0
12.8 1.6666666666666665 10.0
13.600000000000001 1.6666666666666665 10.0
14.4 1.6666666666666665 10.0
15.200000000000001 1.6666666666666665 10.0
16.0 1.6666666666666665 10.0
0.0 2.0 10.0
0.8 2.0 10.0
1.6 2.0 10.0
2.4000000000000004 2.0 10.0
3.2 2.0 10.0
4.0 2.0 10.0
4.800000000000001 2.0 10.0
5.6000000000000005 2.0 10.0
6.4 2.0 10.0
7.2 2.0 10.0
8.0 2.0 10.0
8.8 2.0 10.0
9.600000000000001 2.0 10.0
10.4 2.0 10.0
11.200000000000001 2.0 10.0
12.0 2.0 10.0
12.8 2.0 10.0
13.600000000000001 2.0 10.0
14.4 2.0 10.0
15.200000000000001 2.0 10.0
16.0 2.0 10.0
CELLS 720 6480
8 0 1 22 21 147 148 169 168
8 1 2 23 22 148 149 170 169
8 2 3 24 23 149 150 171 170
8 3 4 25 24 150 151 172 171
8 4 5 26 25 151 152 173 172
8 5 6 27 26 152 153 174 173
8 6 7 28 27 153 154 175 174
8 7 8 29 28 154 155 176 175
8 8 9 30 29 155 156 177 176
8 9 10 31 30 156 157 178 177
8 10 11 32 31 157 158 179 178
8 11 12 33 32 158 159 180 179
8 12 13 34 33 159 160 181 180
8 13 14 35 34 160 161 182 181
8 14 15 36 35 161 162 183 182
8 15 16 37 36 162 163 184 183
8 16 17 38 37 163 164 185 184
8 17 18 39 38 164 165 186 185
8 18 19 40 39 165 166 187 186
8 19 20 41 40 166 167 188 187
8 21 22 43 42 168 169 190 189
8 22 23 44 43 169 170 191 190
8 23 24 45 44 170 171 192 191
8 24 25 46 45 171 172 193 192
8 25 26 47 46 172 173 194 193
8 26 27 48 47 173 174 195 194
8 27 28 49 48 174 175 196 195
8 28 29 50 49 175 176 197 196
8 29 30 51 50 176 177 198 197
8 30 31 52 51 177 178 199 198
8 31 32 53 52 178 179 200 199
8 32 33 54 53 179 180 201 200
8 33 34 55 54 180 181 202 201
8 34 35 56 55 181 182 203 202
8 35 36 57 56 182 183 204 203
8 36 37 58 57 183 184 205 204
8 37 38 59 58 184 185 206 205
8 38 39 60 59 185 186 207 206
8 39 40 61 60 186 187 208 207
8 40 41 62 61 187 188 209 208
8 42 43 64 63 189 190 211 210
8 43 44 65 64 190 191 212 211
8 44 45 66 65 191 192 213 212
8 45 46 67 66 192 193 214 213
8 46 47 68 67 193 194 215 214
8 47 48 69 68 194 195 216 215
8 48 49 70 69 195 196 217 216
8 49 50 71 70 196 197 218 217
8 50 51 72 71 197 198 219 218
8 51 52 73 72 198 199 220 219
8 52 53 74 73 199 200 221 220
8 53 54 75 74 200 201 222 221
8 54 55 76 75 201 202 223 222
8 55 56 77 76 202 203 224 223
8 56 57 78 77 203 204 225 224
8 57 58 79 78 204 205 226 225
8 58 59 80 79 205 206 227 226
8 59 60 81 80 206 207 228 227
8 60 61 82 81 207 208 229 228
8 61 62 83 82 208 209 230 229
8 63 64 85 84 210 211 232 231
8 64 65 86 85 211 212 233 232
8 65 66 87 86 212 213 234 233
8 66 67 88 87 213 214 235 234
8 67 68 89 88 214 215 236 235
8 68 69 90 89 215 216 237 236
8 69 70 91 90 216 217 238 237
8 70 71 92 91 217 218 239 238
8 71 72 93 92 218 219 240 239
8 72 73 94 93 219 220 241 240
8 73 74 95 94 220 221 242 241
8 74 75 96 95 221 222 243 242
8 75 76 97 96 222 223 244 243
8 76 77 98 97 223 224 245 244
8 77 78 99 98 224 225 246 245
8 78 79 100 99 225 226 247 246
8 79 80 101 100 226 227 248 247
8 80 81 102 101 227 228 249 248
8 81 82 103 102 228 229 250 249
8 82 83 104 103 229 230 251 250
8 84 85 106 105 231 232 253 252
8 85 86 107 106 232 233 254 253
8 86 87 108 107 233 234 255 254
8 87 88 109 108 234 235 256 255
8 88 89 110 109 235 236 257 256
8 89 90 111 110 236 237 258 257
8 90 91 112 111 237 238 259 258
8 91 92 113 112 238 239 260 259
8 92 93 114 113 239 240 261 260
8 93 94 115 114 240 241 262 261
8 94 95 116 115 241 242 263 262
8 95 96 117 116 242 243 264 263
8 96 97 118 117 243 244 265 264
8 97 98 119 118 244 245 266 265
8 98 99 120 119 245 246 267 266
8 99 100 121 120 246 247 268 267
8 100 101 122 121 247 248 269 268
8 101 102 123 122 248 249 270 269
8 102 103 124 123 249 250 271 270
8 103 104 125 124 250 251 272 271
8 105 106 127 126 252 253 274 273
8 106 107 128 127 253 254 275 274
8 107 108 129 128 254 255 276 275
8 108 109 130 129 255 256 277 276
8 109 110 131 130 256 257 278 277
8 110 111 132 131 257 258 279 278
8 111 112 133 132 258 259 280 279
8 112 113 134 133 259 260 281 280
8 113 114 135 134 260 261 282 281
8 114 115 136 135 261 262 283 282
8 115 116 137 136 262 263 284 283
8 116 117 138 137 263 264 285 284
8 117 118 139 138 264 265 286 285
8 118 119 140 139 265 266 287 286
8 119 120 141 140 266 267 288 287
8 120 121 142 141 267 268 289 288
8 121 122 143 142 268 269 290 289
8 122 123 144 143 269 270 291 290
8 123 124 145 144 270 271 292 291
8 124 125 146 145 271 272 293 292
8 147 148 169 168 294 295 316 315
8 148 149 170 169 295 296 317 316
8 149 150 171 170 296 297 318 317
8 150 151 172 171 297 298 319 318
8 151 152 173 172 298 299 320 319
8 152 153 174 173 299 300 321 320
8 153 154 175 174 300 301 322 321
8 154 155 176 175 301 302 323 322
8 155 156 177 176 302 303 324 323
8 156 157 178 177 303 304 325 324
8 157 158 179 178 304 305 326 325
8 158 159 180 179 305 306 327 326
8 159 160 181 180 306 307 328 327
8 160 161 182 181 307 308 329 328
8 161 162 183 182 308 309 330 329
8 162 163 184 183 309 310 331 330
8 163 164 185 184 310 311 332 331
8 164 165 186 185 311 312 333 332
8 165 166 187 186 312 313 334 333
8 166 167 188 187 313 314 335 334
8 168 169 190 189 315 316 337 336
8 169 170 191 190 316 317 338 337
8 170 171 192 191 317 318 339 338
8 171 172 193 192 318 319 340 339
8 172 173 194 193 319 320 341 340
8 173 174 195 194 320 321 342 341
8 174 175 196 195 321 322 343 342
8 175 176 197 196 322 323 344 343
8 176 177 198 197 323 324 345 344
8 177 178 199 198 324 325 346 345
8 178 179 200 199 325 326 347 346
8 179 180 201 200 326 327 348 347
8 180 181 202 201 327 328 349 348
8 181 182 203 202 328 329 350 349
8 182 183 204 203 329 330 351 350
8 183 184 205 204 330 331 352 351
8 184 185 206 205 331 332 353 352
8 185 186 207 206 332 333 354 353
8 186 187 208 207 333 334 355 354
8 187 188 209 208 334 335 356 355
8 189 190 211 210 336 337 358 357
8 190 191 212 211 337 338 359 358
8 191 192 213 212 338 339 360 359
8 192 193 214 213 339 340 361 360
8 193 194 215 214 340 341 362 361
8 194 195 216 215 341 342 363 362
8 195 196 217 216 342 343 364 363
8 196 197 218 217 343 344 365 364
8 197 198 219 218 344 345 366 365
8 198 199 220 219 345 346 367 366
8 199 200 221 220 346 347 368 367
8 200 201 222 221 347 348 369 368
8 201 202 223 222 348 349 370 369
8 202 203 224 223 349 350 371 370
8 203 204 225 224 350 351 372 371
8 204 205 226 225 351 352 373 372
8 205 206 227 226 352 353 374 373
8 206 207 228 227 353 354 375 374
8 207 208 229 228 354 355 376 375
8 208 209 230 229 355 356 377 376
8 210 211 232 231 357 358 379 378
8 211 212 233 232 358 359 380 379
8 212 213 234 233 359 360 381 380
8 213 214 235 234 360 361 382 381
8 214 215 236 235 361 362 383 382
8 215 216 237 236 362 363 384 383
8 216 217 238 237 363 364 385 384
8 217 218 239 238 364 365 386 385
8 218 219 240 239 365 366 387 386
8 219 220 241 240 366 367 388 387
8 220 221 242 241 367 368 389 388
8 221 222 243 242 368 369 390 389
8 222 223 244 243 369 370 391 390
8 223 224 245 244 370 371 392 391
8 224 225 246 245 371 372 393 392
8 225 226 247 246 372 373 394 393
8 226 227 248 247 373 374 395 394
8 227 228 249 248 374 375 396 395
8 228 229 250 249 375 376 397 396
8 229 230 251 250 376 377 398 397
8 231 232 253 252 378 379 400 399
8 232 233 254 253 379 380 401 400
8 233 234 255 254 380 381 402 401
8 234 235 256 255 381 382 403 402
8 235 236 257 256 382 383 404 403
8 236 237 258 257 383 384 405 404
8 237 238 259 258 384 385 406 405
8 238 239 260 259 385 386 407 406
8 239 240 261 260 386 387 408 407
8 240 241 262 261 387 388 409 408
8 241 242 263 262 388 389 410 409
8 242 243 264 263 389 390 411 410
8 243 244 265 264 390 391 412 411
8 244 245 266 265 391 392 413 412
8 245 246 267 266 392 393 414 413
8 246 247 268 267 393 394 415 414
8 247 248 269 268 394 395 416 415
8 248 249 270 269 395 396 417 416
8 249 250 271 270 396 397 418 417
8 250 251 272 271 397 398 419 418
8 252 253 274 273 399 400 421 420
8 253 254 275 274 400 401 422 421
8 254 255 276 275 401 402 423 422
8 255 256 277 276 402 403 424 423
8 256 257 278 277 403 404 425 424
8 257 258 279 278 404 405 426 425
8 258 259 280 279 405 406 427 426
8 259 260 281 280 406 407 428 427
8 260 261 282 281 407 408 429 428
8 261 262 283 282 408 409 430 429
8 262 263 284 283 409 410 431 430
8 263 264 285 284 410 411 432 431
8 264 265 286 285 411 412 433 432
8 265 266 287 286 412 413 434 433
8 266 267 288 287 413 414 435 434
8 267 268 289 288 414 415 436 435
8 268 269 290 289 415 416 437 436
8 269 270 291 290 416 417 438 437
8 270 271 292 291 417 418 439 438
8 271 272 293 292 418 419 440 439
8 294 295 316 315 441 442 463 462
8 295 296 317 316 442 443 464 463
8 296 297 318 317 443 444 465 464
8 297 298 319 318 444 445 466 465
8 298 299 320 319 445 446 467 466
8 299 300 321 320 446 447 468 467
8 300 301 322 321 447 448 469 468
8 301 302 323 322 448 449 470 469
8 302 303 324 323 449 450 471 470
8 303 304 325 324 450 451 472 471
8 304 305 326 325 451 452 473 472
8 305 306 327 326 452 453 474 473
8 306 307 328 327 453 454 475 474
8 307 308 329 328 454 455 476 475
8 308 309 330 329 455 456 477 476
8 309 310 331 330 456 457 478 477
8 310 311 332 331 457 458 479 478
8 311 312 333 332 458 459 480 479
8 312 313 334 333 459 460 481 480
8 313 314 335 334 460 461 482 481
8 315 316 337 336 462 463 484 483
8 316 317 338 337 463 464 485 484
8 317 318 339 338 464 465 486 485
8 318 319 340 339 465 466 487 486
8 319 320 341 340 466 467 488 487
8 320 321 342 341 467 468 489 488
8 321 322 343 342 468 469 490 489
8 322 323 344 343 469 470 491 490
8 323 324 345 344 470 471 492 491
8 324 325 346 345 471 472 493 492
8 325 326 347 346 472 473 494 493
8 326 327 348 347 473 474 495 494
8 327 328 349 348 474 475 496 495
8 328 329 350 349 475 476 497 496
8 329 330 351 350 476 477 498 497
8 330 331 352 351 477 478 499 498
8 331 332 353 352 478 479 500 499
8 332 333 354 353 479 480 501 500
8 333 334 355 354 480 481 502 501
8 334 335 356 355 481 482 503 502
8 336 337 358 357 483 484 505 504
8 337 338 359 358 484 485 506 505
8 338 339 360 359 485 486 507 506
8 339 340 361 360 486 487 508 507
8 340 341 362 361 487 488 509 508
8 341 342 363 362 488 489 510 509
8 342 343 364 363 489 490 511 510
8 343 344 365 364 490 491 512 511
8 344 345 366 365 491 492 513 512
8 345 346 367 366 492 493 514 513
8 346 347 368 367 493 494 515 514
8 347 348 369 368 494 495 516 515
8 348 349 370 369 495 496 517 516
8 349 350 371 370 496 497 518 517
8 350 351 372 371 497 498 519 518
8 351 352 373 372 498 499 520 519
8 352 353 374 373 499 500 521 520
8 353 354 375 374 500 501 522 521
8 354 355 376 375 501 502 523 522
8 355 356 377 376 502 503 524 523
8 357 358 379 378 504 505 526 525
8 358 359 380 379 505 506 527 526
8 359 360 381 380 506 507 528 527
8 360 361 382 381 507 508 529 528
8 361 362 383 382 508 509 530 529
8 362 363 384 383 509 510 531 530
8 363 364 385 384 510 511 532 531
8 364 365 386 385 511 512 533 532
8 365 366 387 386 512 513 534 533
8 366 367 388 387 513 514 535 534
8 367 368 389 388 514 515 536 535
8 368 369 390 389 515 516 537 536
8 369 370 391 390 516 517 538 537
8 370 371 392 391 517 518 539 538
8 371 372 393 392 518 519 540 539
8 372 373 394 393 519 520 541 540
8 373 374 395 394 520 521 542 541
8 374 375 396 395 521 522 543 542
8 375 376 397 396 522 523 544 543
8 376 377 398 397 523 524 545 544
8 378 379 400 399 525 526 547 546
8 379 380 401 400 526 527 548 547
8 380 381 402 401 527 528 549 548
8 381 382 403 402 528 529 550 549
8 382 383 404 403 529 530 551 550
8 383 384 405 404 530 531 552 551
8 384 385 406 405 531 532 553 552
8 385 386 407 406 532 533 554 553
8 386 387 408 407 533 534 555 554
8 387 388 409 408 534 535 556 555
8 388 389 410 409 535 536 557 556
8 389 390 411 410 536 537 558 557
8 390 391 412 411 537 538 559 558
8 391 392 413 412 538 539 560 559
8 392 393 414 413 539 540 561 560
8 393 394 415 414 540 541 562 561
8 394 395 416 415 541 542 563 562
8 395 396 417 416 542 543 564 563
8 396 397 418 417 543 544 565 564
8 397 398 419 418 544 545 566 565
8 399 400 421 420 546 547 568 567
8 400 401 422 421 547 548 569 568
8 401 402 423 422 548 549 570 569
8 402 403 424 423 549 550 571 570
8 403 404 425 424 550 551 572 571
8 404 405 426 425 551 552 573 572
8 405 406 427 426 552 553 574 573
8 406 407 428 427 553 554 575 574
8 407 408 429 428 554 555 576 575
8 408 409 430 429 555 556 577 576
8 409 410 431 430 556 557 578 577
8 410 411 432 431 557 558 579 578
8 411 412 433 432 558 559 580 579
8 412 413 434 433 559 560 581 580
8 413 414 435 434 560 561 582 581
8 414 415 436 435 561 562 583 582
8 415 416 437 436 562 563 584 583
8 416 417 438 437 563 564 585 584
8 417 418 439 438 564 565 586 585
8 418 419 440 439 565 566 587 586
8 441 442 463 462 588 589 610 609
8 442 443 464 463 589 590 611 610
8 443 444 465 464 590 591 612 611
8 444 445 466 465 591 592 613 612
8 445 446 467 466 592 593 614 613
8 446 447 468 467 593 594 615 614
8 447 448 469 468 594 595 616 615
8 448 449 470 469 595 596 617 616
8 449 450 471 470 596 597 618 617
8 450 451 472 471 597 598 619 618
8 451 452 473 472 598 599 620 619
8 452 453 474 473 599 600 621 620
8 453 454 475 474 600 601 622 621
8 454 455 476 475 601 602 623 622
8 455 456 477 476 602 603 624 623
8 456 457 478 477 603 604 625 624
8 457 458 479 478 604 605 626 625
8 458 459 480 479 605 606 627 626
8 459 460 481 480 606 607 628 627
8 460 461 482 481 607 608 629 628
8 462 463 484 483 609 610 631 630
8 463 464 485 484 610 611 632 631
8 464 465 486 485 611 612 633 632
8 465 466 487 486 612 613 634 633
8 466 467 488 487 613 614 635 634
8 467 468 489 488 614 615 636 635
8 468 469 490 489 615 616 637 636
8 469 470 491 490 616 617 638 637
8 470 471 492 491 617 618 639 638
8 471 472 493 492 618 619 640 639
8 472 473 494 493 619 620 641 640
8 473 474 495 494 620 621 642 641
8 474 475 496 495 621 622 643 642
8 475 476 497 496 622 623 644 643
8 476 477 498 497 623 624 645 644
8 477 478 499 498 624 625 646 645
8 478 479 500 499 625 626 647 646
8 479 480 501 500 626 627 648 647
8 480 481 502 501 627 628 649 648
8 481 482 503 502 628 629 650 649
8 483 484 505 504 630 631 652 651
8 484 485 506 505 631 632 653 652
8 485 486 507 506 632 633 654 653
8 486 487 508 507 633 634 655 654
8 487 488 509 508 634 635 656 655
8 488 489 510 509 635 636 657 656
8 489 490 511 510 636 637 658 657
8 490 491 512 511 637 638 659 658
8 491 492 513 512 638 639 660 659
8 492 493 514 513 639 640 661 660
8 493 494 515 514 640 641 662 661
8 494 495 516 515 641 642 663 662
8 495 496 517 516 642 643 664 663
8 496 497 518 517 643 644 665 664
8 497 498 519 518 644 645 666 665
8 498 499 520 519 645 646 667 666
8 499 500 521 520 646 647 668 667
8 500 501 522 521 647 648 669 668
8 501 502 523 522 648 649 670 669
8 502 503 524 523 649 650 671 670
8 504 505 526 525 651 652 673 672
8 505 506 527 526 652 653 674 673
8 506 507 528 527 653 654 675 674
8 507 508 529 528 654 655 676 675
8 508 509 530 529 655 656 677 676
8 509 510 531 530 656 657 678 677
8 510 511 532 531 657 658 679 678
8 511 512 533 532 658 659 680 679
8 512 513 534 533 659 660 681 680
8 513 514 535 534 660 661 682 681
8 514 515 536 535 661 662 683 682
8 515 516 537 536 662 663 684 683
8 516 517 538 537 663 664 685 684
8 517 518 539 538 664 665 686 685
8 518 519 540 539 665 666 687 686
8 519 520 541 540 666 667 688 687
8 520 521 542 541 667 668 689 688
8 521 522 543 542 668 669 690 689
8 522 523 544 543 669 670 691 690
8 523 524 545 544 670 671 692 691
8 525 526 547 546 672 673 694 693
8 526 527 548 547 673 674 695 694
8 527 528 549 548 674 675 696 695
8 528 529 550 549 675 676 697 696
8 529 530 551 550 676 677 698 697
8 530 531 552 551 677 678 699 698
8 531 532 553 552 678 679 700 699
8 532 533 554 553 679 680 701 700
8 533 534 555 554 680 681 702 701
8 534 535 556 555 681 682 703 702
8 535 536 557 556 682 683 704 703
8 536 537 558 557 683 684 705 704
8 537 538 559 558 684 685 706 705
8 538 539 560 559 685 686 707 706
8 539 540 561 560 686 687 708 707
8 540 541 562 561 687 688 709 708
8 541 542 563 562 688 689 710 709
8 542 543 564 563 689 690 711 710
8 543 544 565 564 690 691 712 711
8 544 545 566 565 691 692 713 712
8 546 547 568 567 693 694 715 714
8 547 548 569 568 694 695 716 715
8 548 549 570 569 695 696 717 716
8 549 550 571 570 696 697 718 717
8 550 551 572 571 697 698 719 718
8 551 552 573 572 698 699 720 719
8 552 553 574 573 699 700 721 720
8 553 554 575 574 700 701 722 721
8 554 555 576 575 701 702 723 722
8 555 556 577 576 702 703 724 723
8 556 557 578 577 703 704 725 724
8 557 558 579 578 704 705 726 725
8 558 559 580 579 705 706 727 726
8 559 560 581 580 706 707 728 727
8 560 561 582 581 707 708 729 728
8 561 562 583 582 708 709 730 729
8 562 563 584 583 709 710 731 730
8 563 564 585 584 710 711 732 731
8 564 565 586 585 711 712 733 732
8 565 566 587 586 712 713 734 733
8 588 589 610 609 735 736 757 756
8 589 590 611 610 736 737 758 757
8 590 591 612 611 737 738 759 758
8 591 592 613 612 738 739 760 759
8 592 593 614 613 739 740 761 760
8 593 594 615 614 740 741 762 761
8 594 595 616 615 741 742 763 762
8 595 596 617 616 742 743 764 763
8 596 597 618 617 743 744 765 764
8 597 598 619 618 744 745 766 765
8 598 599 620 619 745 746 767 766
8 599 600 621 620 746 747 768 767
8 600 601 622 621 747 748 769 768
8 601 602 623 622 748 749 770 769
8 602 603 624 623 749 750 771 770
8 603 604 625 624 750 751 772 771
8 604 605 626 625 751 752 773 772
8 605 606 627 626 752 753 774 773
8 606 607 628 627 753 754 775 774
8 607 608 629 628 754 755 776 775
8 609 610 631 630 756 757 778 777
8 610 611 632 631 757 758 779 778
8 611 612 633 632 758 759 780 779
8 612 613 634 633 759 760 781 780
8 613 614 635 634 760 761 782 781
8 614 615 636 635 761 762 783 782
8 615 616 637 636 762 763 784 783
8 616 617 638 637 763 764 785 784
8 617 618 639 638 764 765 786 785
8 618 619 640 639 765 766 787 786
8 619 620 641 640 766 767 788 787
8 620 621 642 641 767 768 789 788
8 621 622 643 642 768 769 790 789
8 622 623 644 643 769 770 791 790
8 623 624 645 644 770 771 792 791
8 624 625 646 645 771 772 793 792
8 625 626 647 646 772 773 794 793
8 626 627 648 647 773 774 795 794
8 627 628 649 648 774 775 796 795
8 628 629 650 649 775 776 797 796
8 630 631 652 651 777 778 799 798
8 631 632 653 652 778 779 800 799
8 632 633 654 653 779 780 801 800
8 633 634 655 654 780 781 802 801
8 634 635 656 655 781 782 803 802
8 635 636 657 656 782 783 804 803
8 636 637 658 657 783 784 805 804
8 637 638 659 658 784 785 806 805
8 638 639 660 659 785 786 807 806
8 639 640 661 660 786 787 808 807
8 640 641 662 661 787 788 809 808
8 641 642 663 662 788 789 810 809
8 642 643 664 663 789 790 811 810
8 643 644 665 664 790 791 812 811
8 644 645 666 665 791 792 813 812
8 645 646 667 666 792 793 814 813
8 646 647 668 667 793 794 815 814
8 647 648 669 668 794 795 816 815
8 648 649 670 669 795 796 817 816
8 649 650 671 670 796 797 818 817
8 651 652 673 672 798 799 820 819
8 652 653 674 673 799 800 821 820
8 653 654 675 674 800 801 822 821
8 654 655 676 675 801 802 823 822
8 655 656 677 676 802 803 824 823
8 656 657 678 677 803 804 825 824
8 657 658 679 678 804 805 826 825
8 658 659 680 679 805 806 827 826
8 659 660 681 680 806 807 828 827
8 660 661 682 681 807 808 829 828
8 661 662 683 682 808 809 830 829
8 662 663 684 683 809 810 831 830
8 663 664 685 684 810 811 832 831
8 664 665 686 685 811 812 833 832
8 665 666 687 686 812 813 834 833
8 666 667 688 687 813 814 835 834
8 667 668 689 688 814 815 836 835
8 668 669 690 689 815 816 837 836
8 669 670 691 690 816 817 838 837
8 670 671 692 691 817 818 839 838
8 672 673 694 693 819 820 841 840
8 673 674 695 694 820 821 842 841
8 674 675 696 695 821 822 843 842
8 675 676 697 696 822 823 844 843
8 676 677 698 697 823 824 845 844
8 677 678 699 698 824 825 846 845
8 678 679 700 699 825 826 847 846
8 679 680 701 700 826 827 848 847
8 680 681 702 701 827 828 849 848
8 681 682 703 702 828 829 850 849
8 682 683 704 703 829 830 851 850
8 683 684 705 704 830 831 852 851
8 684 685 706 705 831 832 853 852
8 685 686 707 706 832 833 854 853
8 686 687 708 707 833 834 855 854
8 687 688 709 708 834 835 856 855
8 688 689 710 709 835 836 857 856
8 689 690 711 710 836 837 858 857
8 690 691 712 711 837 838 859 858
8 691 692 713 712 838 839 860 859
8 693 694 715 714 840 841 862 861
8 694 695 716 715 841 842 863 862
8 695 696 717 716 842 843 864 863
8 696 697 718 717 843 844 865 864
8 697 698 719 718 844 845 866 865
8 698 699 720 719 845 846 867 866
8 699 700 721 720 846 847 868 867
8 700 701 722 721 847 848 869 868
8 701 702 723 722 848 849 870 869
8 702 703 724 723 849 850 871 870
8 703 704 725 724 850 851 872 871
8 704 705 726 725 851 852 873 872
8 705 706 727 726 852 853 874 873
8 706 707 728 727 853 854 875 874
8 707 708 729 728 854 855 876 875
8 708 709 730 729 855 856 877 876
8 709 710 731 730 856 857 878 877
8 710 711 732 731 857 858 879 878
8 711 712 733 732 858 859 880 879
8 712 713 734 733 859 860 881 880
8 735 736 757 756 882 883 904 903
8 736 737 758 757 883 884 905 904
8 737 738 759 758 884 885 906 905
8 738 739 760 759 885 886 907 906
8 739 740 761 760 886 887 908 907
8 740 741 762 761 887 888 909 908
8 741 742 763 762 888 889 910 909
8 742 743 764 763 889 890 911 910
8 743 744 765 764 890 891 912 911
8 744 745 766 765 891 892 913 912
8 745 746 767 766 892 893 914 913
8 746 747 768 767 893 894 915 914
8 747 748 769 768 894 895 916 915
8 748 749 770 769 895 896 917 916
8 749 750 771 770 896 897 918 917
8 750 751 772 771 897 898 919 918
8 751 752 773 772 898 899 920 919
8 752 753 774 773 899 900 921 920
8 753 754 775 774 900 901 922 921
8 754 755 776 775 901 902 923 922
8 756 757 778 777 903 904 925 924
8 757 758 779 778 904 905 926 925
8 758 759 780 779 905 906 927 926
8 759 760 781 780 906 907 928 927
8 760 761 782 781 907 908 929 928
8 761 762 783 782 908 909 930 929
8 762 763 784 783 909 910 931 930
8 763 764 785 784 910 911 932 931
8 764 765 786 785 911 912 933 932
8 765 766 787 786 912 913 934 933
8 766 767 788 787 913 914 935 934
8 767 768 789 788 914 915 936 935
8 768 769 790 789 915 916 937 936
8 769 770 791 790 916 917 938 937
8 770 771 792 791 917 918 939 938
8 771 772 793 792 918 919 940 939
8 772 773 794 793 919 920 941 940
8 773 774 795 794 920 921 942 941
8 774 775 796 795 921 922 943 942
8 775 776 797 796 922 923 944 943
8 777 778 799 798 924 925 946 945
8 778 779 800 799 925 926 947 946
8 779 780 801 800 926 927 948 947
8 780 781 802 801 927 928 949 948
8 781 782 803 802 928 929 950 949
8 782 783 804 803 929 930 951 950
8 783 784 805 804 930 931 952 951
8 784 785 806 805 931 932 953 952
8 785 786 807 806 932 933 954 953
8 786 787 808 807 933 934 955 954
8 787 788 809 808 934 935 956 955
8 788 789 810 809 935 936 957 956
8 789 790 811 810 936 937 958 957
8 790 791 812 811 937 938 959 958
8 791 792 813 812 938 939 960 959
8 792 793 814 813 939 940 961 960
8 793 794 815 814 940 941 962 961
8 794 795 816 815 941 942 963 962
8 795 796 817 816 942 943 964 963
8 796 797 818 817 943 944 965 964
8 798 799 820 819 945 946 967 966
8 799 800 821 820 946 947 968 967
8 800 801 822 821 947 948 969 968
8 801 802 823 822 948 949 970 969
8 802 803 824 823 949 950 971 970
8 803 804 825 824 950 951 972 971
8 804 805 826 825 951 952 973 972
8 805 806 827 826 952 953 974 973
8 806 807 828 827 953 954 975 974
8 807 808 829 828 954 955 976 975
8 808 809 830 829 955 956 977 976
8 809 810 831 830 956 957 978 977
8 810 811 832 831 957 958 979 978
8 811 812 833 832 958 959 980 979
8 812 813 834 833 959 960 981 980
8 813 814 835 834 960 961 982 981
8 814 815 836 835 961 962 983 982
8 815 816 837 836 962 963 984 983
8 816 817 838 837 963 964 985 984
8 817 818 839 838 964 965 986 985
8 819 820 841 840 966 967 988 987
8 820 821 842 841 967 968 989 988
8 821 822 843 842 968 969 990 989
8 822 823 844 843 969 970 991 990
8 823 824 845 844 970 971 992 991
8 824 825 846 845 971 972 993 992
8 825 826 847 846 972 973 994 993
8 826 827 848 847 973 974 995 994
8 827 828 849 848 974 975 996 995
8 828 829 850 849 975 976 997 996
8 829 830 851 850 976 977 998 997
8 830 831 852 851 977 978 999 998
8 831 832 853 852 978 979 1000 999
8 832 833 854 853 979 980 1001 1000
8 833 834 855 854 980 981 1002 1001
8 834 835 856 855 981 982 1003 1002
8 835 836 857 856 982 983 1004 1003
8 836 837 858 857 983 984 1005 1004
8 837 838 859 858 984 985 1006 1005
8 838 839 860 859 985 986 1007 1006
8 840 841 862 861 987 988 1009 1008
8 841 842 863 862 988 989 1010 1009
8 842 843 864 863 989 990 1011 1010
8 843 844 865 864 990 991 1012 1011
8 844 845 866 865 991 992 1013 1012
8 845 846 867 866 992 993 1014 1013
8 846 847 868 867 993 994 1015 1014
8 847 848 869 868 994 995 1016 1015
8 848 849 870 869 995 996 1017 1016
8 849 850 871 870 996 997 1018 1017
8 850 851 872 871 997 998 1019 1018
8 851 852 873 872 998 999 1020 1019
8 852 853 874 873 999 1000 1021 1020
8 853 854 875 874 1000 1001 1022 1021
8 854 855 876 875 1001 1002 1023 1022
8 855 856 877 876 1002 1003 1024 1023
8 856 857 878 877 1003 1004 1025 1024
8 857 858 879 878 1004 1005 1026 1025
8 858 859 880 879 1005 1006 1027 1026
8 859 860 881 880 1006 1007 1028 1027
CELL_TYPES 720
12
12
12
12
12
12
12
12
12
12
12
12
12
12
12
12
12
12
12
12
12
12
12
12
12
12
12
12
12
12
12
12
12
12
12
12
12
12
12
12
12
12
12
12
12
12
12
12
12
12
12
12
12
12
12
12
12
12
12
12
12
12
12
12
12
12
12
12
12
12
12
12
12
12
12
12
12
12
12
12
12
12
12
12
12
12
12
12
12
12
12
12
12
12
12
12
12
12
12
12
12
12
12
12
12
12
12
12
12
12
12
12
12
12
12
12
12
12
12
12
12
12
12
12
12
12
12
12
12
12
12
12
12
12
12
12
12
12
12
12
12
12
12
12
12
12
12
12
12
12
12
12
12
12
12
12
12
12
12
12
12
12
12
12
12
12
12
12
12
12
12
12
12
12
12
12
12
12
12
12
12
12
12
12
12
12
12
12
12
12
12
12
12
12
12
12
12
12
12
12
12
12
12
12
12
12
12
12
12
12
12
12
12
12
12
12
12
12
12
12
12
12
12
12
12
12
12
12
12
12
12
12
12
12
12
12
12
12
12
12
12
12
12
12
12
12
12
12
12
12
12
12
12
12
12
12
12
12
12
12
12
12
12
12
12
12
12
12
12
12
12
12
12
12
12
12
12
12
12
12
12
12
12
12
12
12
12
12
12
12
12
12
12
12
12
12
12
12
12
12
12
12
12
12
12
12
12
12
12
12
12
12
12
12
12
12
12
12
12
12
12
12
12
12
12
12
12
12
12
12
12
12
12
12
12
12
12
12
12
12
12
12
12
12
12
12
12
12
12
12
12
12
12
12
12
12
12
12
12
12
12
12
12
12
12
12
12
12
12
12
12
12
12
12
12
12
12
12
12
12
12
12
12
12
12
12
12
12
12
12
12
12
12
12
12
12
12
12
12
12
12
12
12
12
12
12
12
12
12
12
12
12
12
12
12
12
12
12
12
12
12
12
12
12
12
12
12
12
12
12
12
12
12
12
12
12
12
12
12
12
12
12
12
12
12
12
12
12
12
12
12
12
12
12
12
12
12
12
12
12
12
12
12
12
12
12
12
12
12
12
12
12
12
12
12
12
12
12
12
12
12
12
12
12
12
12
12
12
12
12
12
12
12
12
12
12
12
12
12
12
12
12
12
12
12
12
12
12
12
12
12
12
12
12
12
12
12
12
12
12
12
12
12
12
12
12
12
12
12
12
12
12
12
12
12
12
12
12
12
12
12
12
12
12
12
12
12
12
12
12
12
12
12
12
12
12
12
12
12
12
12
12
12
12
12
12
12
12
12
12
12
12
12
12
12
12
12
12
12
12
12
12
12
12
12
12
12
12
12
12
12
12
12
12
12
12
12
12
12
12
12
12
12
12
12
12
12
12
12
12
12
12
12
12
12
12
12
12
12
12
12
12
12
12
12
12
12
12
12
12
12
12
12
12
12
12
12
12
12
12
12
12
12
12
12
12
12
12
12
12
12
12
12
12
12
12
12
12
12
12
12
12
12
12
12
12
12
12
12
12
12
12
12
12
12
12
12
12
12
12
12
12
12
12
12
12
12
12
12
12
12
12
12
12
12
12
12
12
12
12
12
12
12
12
12
12
12
12
12
12
12
12
12
12
12
12
12
12
12
12
POINT_DATA 1029
VECTORS Disp float
0.0 0.0 0.0
0.03658585047457209 -1.326657484557362 0.031755131399424624
0.08810120861661767 -2.499953189288453 0.0683754498345895
0.15935085701931123 -3.6301275926482197 0.09761865211053546
0.26074354027940716 -4.6865397032501805 0.12411717382805132
0.39370131878778275 -5.644282542725873 0.14602602815242074
0.557675393615544 -6.477039147725652 0.1624338846478246
0.7516738469824437 -7.159359933018238 0.17217512892165687
0.9730454809001035 -7.666435669540549 0.17443387207745673
1.2152042557397362 -7.977084802739879 0.17054489913308474
1.4672329095309853 -8.080597337346571 0.16702520921445865
1.71935113363473 -7.978600496415181 0.1706851375981553
1.9617960940870027 -7.669502407860398 0.1747635455164805
2.183705308982281 -7.16404227226315 0.17280305079848474
2.37859205605829 -6.483414434977009 0.163547381907743
2.543962332822796 -5.652400941430669 0.1479257088535045
2.679044757193411 -4.696354104550092 0.12722909886914083
2.7836038111667394 -3.641372587950422 0.10267741921233012
2.8594652486454253 -2.512110025988488 0.07584012292370296
2.9189354475819353 -1.3387478137196038 0.045087513011370144
2.9746137825738894 0.0 -0.0002574275105343835
0.520679899890493 -0.05665181668156382 -0.016673010806685245
0.5431526275382488 -1.3207684165513338 0.016635230991435195
0.5612697706390102 -2.5079406862210845 0.04331482435300722
0.6079588290757516 -3.639510771164338 0.06592644590924424
0.6738269851831248 -4.700036266503534 0.08485135379459204
0.7607952677299101 -5.661386646011937 0.10042310326977177
0.868365824650206 -6.497785800875451 0.11196244693226307
0.9958560116117106 -7.183601207733233 0.11893747300297908
1.1415265598708695 -7.693711648659586 0.1209823476868606
1.3011389439682048 -8.006125864184915 0.11893539370589776
1.4675059335754095 -8.109738646785072 0.11675814559602682
1.633967638899411 -8.007666498006873 0.11888712569065704
1.7938803672330412 -7.696832926948521 0.12092764756519869
1.9401068114028126 -7.18837751542841 0.1189711627831675
2.0684963788605986 -6.5043101292472665 0.11225619160843416
2.177442332522903 -5.6697329858139325 0.10125598797289286
2.266449320955999 -4.710184899972921 0.0866761710346558
2.33525256305372 -3.6512358877316173 0.06934722008338685
2.3861927499722646 -2.520786587675232 0.049516729034019956
2.410371679828181 -1.3338160530816157 0.02570274958903737
2.436093624339514 -0.059785057769749975 -0.006724175011471187
1.0122308326633191 -0.09836211410342692 -0.02724672157725831
1.0238187087463457 -1.3187920137074023 -0.0014744689694035737
1.0258406064122638 -2.5097518629346656 0.017572558175866913
1.04395655551051 -3.645179210607155 0.031613422881956
1.0750714566721604 -4.707777405836411 0.04235663354522749
1.1169346442289108 -5.671411580352376 0.05055636275978863
1.1694893598866687 -6.5099791115079135 0.05626300097049995
1.2324744015270521 -7.1979724135823275 0.0593600716471335
1.305425779966606 -7.709961447424945 0.059788389510211086
1.3858278089518377 -8.022753303462062 0.05769537478166434
1.4677224129657984 -8.124603528187599 0.05533575179176093
1.5497135512242255 -8.024320895060965 0.05745891709611144
1.6304198216346726 -7.713140762603606 0.059349259267561745
1.7039273922304834 -7.202846133268872 0.05879849534298132
1.7677951971045909 -6.516653116829835 0.05573123890131744
1.8216668601572057 -5.679978305646056 0.05032096462140368
1.8654225902852024 -4.718241853756459 0.0428506651551869
1.8991741923096588 -3.6573267061425567 0.033522582846138835
1.9208140733612384 -2.5231569606028503 0.021858697342458988
1.9257169588063154 -1.331379479021449 0.005751923069406157
1.9387028304853784 -0.10318859521216242 -0.017123021715978605
1.4893338434377963 -0.125093106589119 -0.03669017252251901
1.492447845739557 -1.319127102212152 -0.019087881750843656
1.4822319326737927 -2.508246660814158 -0.008439353603107052
1.4746128119558561 -3.646299189771397 -0.003478896927256538
1.4705711143204496 -4.710103698570704 -0.0014055782270469097
1.467849997579284 -5.67453133463251 -0.0009372365221397814
1.4660075458748698 -6.513910399130567 -0.00149892363024488
1.465325263084129 -7.202851045532061 -0.0027808380208021585
1.466854087322229 -7.71575931763996 -0.004495217949997444
1.4699500587778196 -8.027188696662465 -0.006979899164860663
1.4679155160935047 -8.123689485455936 -0.009979565925373315
1.4659779167917268 -8.028784453310369 -0.007405936077131478
1.4693776353834445 -7.718998598726314 -0.005322033812034019
1.4714550349688116 -7.2078235872726895 -0.003944055619602922
1.4716267009249446 -6.52073219011651 -0.00286576112806257
1.4710225081414414 -5.683309896413787 -0.0022594923549665506
1.4700130207332853 -4.720858121497483 -0.0022512916728382477
1.468241859353584 -3.6588322021663915 -0.0031486617466176727
1.4631150149599725 -2.5218141484314507 -0.0059871614487274575
1.4544375253920214 -1.331213187196815 -0.013678183448194775
1.4583227441340463 -0.13117276490916782 -0.028155663504276885
1.9625281966666708 -0.1394024626021134 -0.04639435390154478
1.95815890019098 -1.3196620801364984 -0.03581339608760135
1.936619895690259 -2.5045629092416344 -0.03402315049803363
1.905190110964607 -3.6431806151713975 -0.03837318323008402
1.8662720028850215 -4.706928523193483 -0.04508957437949197
1.8188017542619526 -5.670814901269257 -0.052378285710676084
1.7626409680518995 -6.509626024321464 -0.05923699438518743
1.6981311798358583 -7.198221873995655 -0.06494602672891955
1.6277497713860913 -7.7113775925741015 -0.06871199252004744
1.554488449194252 -8.020178235725611 -0.07036274156510651
1.4681138264252704 -8.104750828786845 -0.07305428599237887
1.3818370013360277 -8.021803122145197 -0.07098149295522913
1.3088801995702024 -7.714678340773365 -0.06993348730330083
1.2390417417487392 -7.20329406854793 -0.06672300233653895
1.1753596223680935 -6.516593434996723 -0.06145840433934248
1.1203585739403088 -5.679793472501465 -0.054815580787897354
1.0744115446660365 -4.717950186202379 -0.047317175440269754
1.0373154198248935 -3.6560038025752375 -0.03967697248638697
1.007580693318349 -2.5181597728942693 -0.033391562271414064
0.9869211776888915 -1.3314293854506682 -0.03226800813137102
0.9829729688737081 -0.14627818129690603 -0.03972523628773767
2.43888775218412 -0.1447564739216858 -0.05684664966703345
2.428617673436829 -1.3191093358821098 -0.05159499807420099
2.3961902692309702 -2.4990330312500806 -0.058598576010186865
2.3417745315733547 -3.6361287558313977 -0.07211660711623999
2.267854828529669 -4.698202525505665 -0.08735609384426775
2.175139694449259 -5.660173362404879 -0.1020641488403216
2.0639369407329786 -6.4971496652385685 -0.11487202863753454
1.9351678658601488 -7.1838004923132335 -0.12458221691454371
1.7897035059789301 -7.696503128355271 -0.13002027119576812
1.6389022610333916 -8.003706581446952 -0.12816964361194055
1.4683463874244358 -8.064353580004713 -0.12563027702903065
1.2978916511299667 -8.005361915921595 -0.12898589489111206
1.1474031855419884 -7.699867519486937 -0.1316469183865369
1.0024888436680368 -7.188974297465263 -0.1269909705844674
0.8745393523007061 -6.504261433093122 -0.11797627066827623
0.7644432164717476 -5.66934191553102 -0.10565874853090136
0.6730773671114716 -4.709454322514008 -0.09102709518510008
0.6005504543164928 -3.6491616018468225 -0.07512662380428059
0.5471634098729566 -2.5126458005441537 -0.059832964447227195
0.5150993231984766 -1.3307191867777275 -0.04989975743805895
0.5049355437742096 -0.15201514193247812 -0.05198130506602835
2.922333079871611 -0.14584832938820083 -0.06768815226496026
2.910695560977297 -1.3172540042630079 -0.06646368190245829
2.8694985630567706 -2.4917630212470536 -0.08132660959000952
2.7912459644387053 -3.6250444657065444 -0.10320085035043407
2.6814506784489875 -4.6837538697650665 -0.12610543326138715
2.5425337810818096 -5.642411324490645 -0.14735938950753633
2.374975929975207 -6.476050679981522 -0.1652026293298766
2.1798261690539626 -7.159874654902573 -0.17797205133242994
1.958912362493753 -7.668351705057965 -0.18409493593452633
1.7130790423860645 -7.9808568183791095 -0.17757119174808483
1.4686478031470167 -8.0 -0.15090105350606692
1.2243260457791905 -7.98254514149212 -0.1785911070968647
0.9788289202983027 -7.671784311041127 -0.1861400764043709
0.7584977435071538 -7.165155315845805 -0.18103512792623624
0.5641965663227829 -6.483309913682198 -0.16922445850638265
0.3977428758684336 -5.651762919892666 -0.1521620210671918
0.2600692197621352 -4.69519752055891 -0.1312886495512613
0.1513062221992349 -3.6382059552673724 -0.1079947329926546
0.07335347618350944 -2.505348700621294 -0.08447876345207932
0.03172967439144699 -1.3287640406530985 -0.06655950509406852
0.019790232445130153 -0.15318810462421475 -0.06441473182739685
0.0 0.0 0.0
0.03422252505374943 -1.2538929923065474 0.021136711134705336
0.08676588941992522 -2.3980352615102833 0.040370070192121986
0.16114441433839707 -3.4970403920976483 0.0582455628096546
0.2638104329880902 -4.525059831774591 0.07204064395608602
0.39580237380087646 -5.459241431534183 0.08172405196434544
0.5566415488267832 -6.276003539748598 0.0866315140522779
0.7455609484380175 -6.952696280727234 0.08630916077618894
0.9618127154822835 -7.467158907300437 0.08096971684095845
1.2045115272282458 -7.796104041882672 0.07289032135386735
1.4675293732269163 -7.912526129671784 0.06821684674888867
1.7305777701109524 -7.796698701511339 0.07293834937837379
1.9733724961375458 -7.4683463922497895 0.08110043513092641
2.1897999520260854 -6.954472283066184 0.08659908782858472
2.3790049626454004 -6.278358335008544 0.0872132866878335
2.5402985978854624 -5.462148871203621 0.0827984709989157
2.673019126414699 -4.528450474436109 0.07391199368486752
2.7768932192473477 -3.5007449830847994 0.06123575053569281
2.8532355700695335 -2.401721341243926 0.04535569383185137
2.9096582420866937 -1.257419617241234 0.026887991964365955
2.9531009704437947 0.0 0.023601384075873817
0.5059472881001303 -0.03645665853659338 0.0031153982623040016
0.5264334040258136 -1.2520682510701269 0.009690877171419187
0.5514509972483801 -2.40613072703077 0.025203619511068018
0.6014079075839949 -3.507172908151139 0.03792454703559374
0.6697553182323087 -4.538985395366708 0.04778712336197391
0.7576625669817696 -5.476708143134688 0.054381086008956886
0.8647906551075578 -6.297060528355823 0.057608991490795285
0.9905719703394664 -6.977315286172834 0.057340784719082646
1.1342167156230247 -7.495427733089726 0.05387821537171273
1.2946344344744034 -7.8281103733354795 0.04852362080909661
1.4676622211953811 -7.946861266052656 0.04510066633114201
1.6407200368797394 -7.8287115227289705 0.04839977622738318
1.8012317337005597 -7.496628632438628 0.053657538031380334
1.9450472264646104 -6.979112737172423 0.05708603680725101
2.0711021398712526 -6.299447214242996 0.05743462097177565
2.178654785394136 -5.479663187336218 0.05447972743941439
2.2672290927982117 -4.542449790380323 0.04844303786176832
2.3366363384394755 -3.510995559372806 0.03960787957412893
2.388411447026168 -2.4100491773571897 0.02833979728097496
2.4166175491671713 -1.2560941798756209 0.015953795850570954
2.4389304181562372 -0.03708519128480181 0.01786190257748184
0.9918222413356673 -0.06419082197179554 -0.0056089073057378706
1.003179856813654 -1.2518230303414102 -0.0004375597324676679
1.0119006416135845 -2.4091344574294946 0.009752869002229917
1.0347860969077343 -3.51334012112142 0.018042428166100605
1.0689535254766396 -4.547134719502928 0.023800487910250422
1.1127517917663559 -5.487008107539262 0.027276284033306692
1.166178535748633 -6.309448528272691 0.028614318095022767
1.2287451365214719 -6.991699436387932 0.02793740359393593
1.2995818256233425 -7.511835545806762 0.025402520949206347
1.3788827880646992 -7.847488044896772 0.02112399964847547
1.4678057944685892 -7.969836693880197 0.017346548338611614
1.5567579714670614 -7.8480986431085835 0.020830602078258344
1.6361495111153745 -7.513055664161953 0.024836040251171046
1.7071480486230894 -6.9935265637839885 0.027148743571429983
1.7699667730258737 -6.3118766335711545 0.027706321570264796
1.823771171673448 -5.4900195424707805 0.02643488098306846
1.8681376149756566 -4.550677430863299 0.023340019080058175
1.9031896001491029 -3.517272680919961 0.018444154870537847
1.9275439165593844 -2.4132732755454915 0.011727163990753919
1.9377995637145726 -1.2556089683909961 0.004767696068977747
1.949836587699251 -0.06477914460188473 0.005529164304850464
1.4676769642850578 -0.08282105603973322 -0.017366019197778224
1.4715267753722039 -1.2526797189775802 -0.01157207212340018
1.4673143977112784 -2.4090020263531673 -0.005656113624162026
1.4650555803583065 -3.5151546360940293 -0.0018923896202112172
1.464636575440832 -4.549865872265509 -0.00025997089808646933
1.4643721187790915 -5.490412093006912 -4.9448462644508795e-05
1.464091427226444 -6.313545911483634 -0.0007837185181513844
1.463612150534926 -6.996270684192726 -0.002178291540482175
1.461869439720727 -7.516814358799371 -0.004169134409174054
1.460449412530831 -7.855353819024326 -0.007776044739770315
1.467954689721839 -7.984535777474679 -0.012904570226715413
1.4754880789632845 -7.855976681386002 -0.00823931761628827
1.4741544080525544 -7.518059121716093 -0.005081923388496718
1.4725624253030543 -6.9981349020030255 -0.003500728259373233
1.4723091364280678 -6.31602342056138 -0.002423775691213276
1.4723486267907466 -5.493486084586366 -0.0018207257283075948
1.4725353003375352 -4.55348551689855 -0.0018236774098149722
1.4727901061079949 -3.5191968536823204 -0.002693269750415952
1.4714414171950125 -2.413181109290299 -0.004813723803587614
1.4679318946474291 -1.25610670580397 -0.007630218803669968
1.4721135425280416 -0.08343978780585805 -0.008738927470833303
1.940264111950474 -0.09343068084491507 -0.029499582506387234
1.937302336414627 -1.253447004158472 -0.023157481196633085
1.921205613419185 -2.4066636507485755 -0.020989823539962763
1.8952703951393397 -3.5128710554068077 -0.02174066405939021
1.8604396454598593 -4.547180127156192 -0.024245259451432834
1.8160105893376532 -5.487007006616016 -0.027330500208762647
1.761937555554208 -6.309465806965616 -0.030166604290992532
1.6986432444910198 -6.991314753357988 -0.032280855891070756
1.6250626528284822 -7.510448325825349 -0.03357006377455622
1.5419855988806104 -7.851250562737805 -0.03555768484099192
1.4681066978447932 -7.993378180309518 -0.042544952170137394
1.394254917723129 -7.851888506900204 -0.03619401884896944
1.3112601395689043 -7.511723124056582 -0.03483603823916312
1.237819292990125 -6.993223325897663 -0.03414875308984172
1.174724815057947 -6.312000388716265 -0.03255655739979941
1.1209134160353438 -5.490147680987872 -0.03005814592336949
1.0768157733738972 -4.550876225741667 -0.026945525973219312
1.0424019097484971 -3.5169878727498074 -0.023775657588025818
1.0169064266861747 -2.4108047485367283 -0.021364349060705966
1.0010655922920566 -1.2565955410709713 -0.02056284679585321
0.9982701798497731 -0.09410328379368284 -0.022983398128812393
2.4143381901329573 -0.09799825327855795 -0.04063288208248464
2.405622675282599 -1.253289537255672 -0.03446412943360489
2.377985735394394 -2.40238048895192 -0.036127114609886685
2.3289787430649533 -3.506661490819301 -0.04137331409863697
2.259813119382432 -4.538977182354016 -0.0479955894217297
2.171134134641526 -5.47670572537482 -0.05429689758973098
2.063296878877052 -6.297012630767321 -0.0591241320981924
1.936678582254462 -6.9769666417564675 -0.06165086748701604
1.7932917974498555 -7.492920100632247 -0.061797346514276694
1.6276812975244583 -7.832667479735256 -0.05987205869952896
1.4682594622717506 -7.998624258721409 -0.06728883124299317
1.308864052975074 -7.833323506819855 -0.06068737274456887
1.143332767562452 -7.494230701766398 -0.06342958920754273
1.0000769721018952 -6.9789275122453 -0.06408718591977416
0.873636774397316 -6.299612758355494 -0.062301679731964155
0.7660120909472771 -5.4799191870711965 -0.05804099508640414
0.6775536128882476 -4.542744387037971 -0.0519237406613669
0.6085638521771249 -3.510822442038163 -0.044774745913563375
0.5596111157583716 -2.406471165250663 -0.03789270407127455
0.5319063275726366 -1.2562698506047978 -0.03329202620062219
0.5232081441669963 -0.09869317314397974 -0.035947576681476634
2.892537879351402 -0.09945718814380633 -0.049179492587118304
2.880828255411637 -1.2519482024267723 -0.04504523495447979
2.8423684998612377 -2.3960659120819967 -0.051149725832991606
2.769612387545739 -3.4963274517182383 -0.0610830133332463
2.6659043024734213 -4.52501870481508 -0.07190982199313484
2.533015315430181 -5.459166596851272 -0.08140051979868686
2.371392134443676 -6.275966428092846 -0.08802562839229829
2.1815744967220247 -6.952119172771724 -0.09073298445217136
1.965756271730022 -7.466201227312552 -0.08882297376763866
1.7312286627377949 -7.795117910019217 -0.08185037362547126
1.4684070636451465 -8.0 -0.07871705314575389
1.205611498322055 -7.7957952651879925 -0.082852835808677
0.9711612928158507 -7.4675539754315645 -0.09083977938477726
0.7554685679135245 -6.954141316894054 -0.09377056984688427
0.5658151389462356 -6.278642675064357 -0.09204623182761784
0.4043726014515456 -5.462462027536198 -0.08625308727783387
0.2716285523018425 -4.528855634994104 -0.0772176690518094
0.16791856073552516 -3.500512637166879 -0.0660879093639519
0.09487964346910913 -2.400099491299149 -0.05460509274079488
0.055960399205196826 -1.254828233337594 -0.04543554271570814
0.04405399482869966 -0.1001219268432192 -0.04595266676760364
0.0 0.0 0.0
0.047510035827664054 -1.2219637807416142 0.009132615630725925
0.09992505566792056 -2.345849029138557 0.017137838333129676
0.1725741743688697 -3.4285860895338405 0.024727536185394083
0.2722811623940693 -4.444175742134621 0.03010598293488843
0.39946121394371936 -5.370736391772521 0.03283371471560722
0.5537449635292109 -6.186267268980309 0.032695162483635486
0.7353633901283714 -6.8696328542312415 0.02973805386606537
0.9466525553354235 -7.399068141105074 0.024586319395072345
1.1921126847086945 -7.747044736450588 0.01904035612392081
1.4676029940503004 -7.873618721605727 0.016383891974286444
1.7430577795092437 -7.746903735810827 0.019045468003221086
1.988405930522849 -7.398742793394282 0.024617780437799917
2.199489530757206 -6.869038332749739 0.02984201757285924
2.380776879830886 -6.185283238036282 0.03294828872711709
2.5345498421726043 -5.369224182099389 0.03334494263188477
2.6609570397948983 -4.442014495595779 0.031014973317975196
2.759483660637483 -3.4257410593254063 0.026180884806736596
2.830374170918838 -2.3424328050597203 0.01949776969170546
2.879216351202244 -1.21788696352769 0.013125521685201718
2.916464552997383 0.0 0.013392112070931564
0.5081142223469683 -0.03152658497991854 0.0003301999409635726
0.5290909180581117 -1.2217713744494145 0.004686716346420291
0.5568138263696633 -2.3542720324881103 0.010814026568264896
0.6064983691314263 -3.4392798390274577 0.016339606523885906
0.6735140877367276 -4.4587121308653845 0.02032318122880275
0.7588461615641713 -5.388996586444144 0.02235076713371954
0.8622362180215056 -6.20844336642028 0.022391726804337944
0.9838173657124624 -6.896011699794609 0.020589294229459338
1.1247169637735406 -7.430368974125365 0.01740594519762471
1.287004206220602 -7.784094958324799 0.013915350549274598
1.467582811551576 -7.914404724900024 0.0121546993507557
1.6481174237379148 -7.783941817781472 0.013813194572070699
1.810267721976792 -7.4300161837295615 0.017216886974450323
1.9509222050878547 -6.895367502998365 0.02034822465495809
2.0721231043091266 -6.207375502398502 0.022160522124492352
2.1749563357344543 -5.387347042737408 0.022227065746440466
2.2594892065915566 -4.456331053696286 0.020442413288781828
2.325376372714904 -3.43609101231487 0.01690727379986249
2.3733406347750856 -2.3502885437875274 0.012135659432675633
2.398184740242613 -1.2167537589984403 0.008327325934324425
2.4179705684953596 -0.02996928383141999 0.010628301537598913
0.9883316929776564 -0.05434721081527239 -0.003166797312403008
0.9991196395830844 -1.221253030866242 -0.0001827404409696631
1.0092779154703286 -2.358129004845371 0.004007236868994981
1.033322937079672 -3.446057405397778 0.0076827492450660785
1.0676430792829597 -4.467570937203885 0.01015994090898893
1.110890263285886 -5.400145884896907 0.011298428527208613
1.1630532162359206 -6.221919019036331 0.011190687201287325
1.2238370968380634 -6.911831602896499 0.010020801597826194
1.2930399311380218 -7.448915563202056 0.00803611351831305
1.3730706086477702 -7.807326616675343 0.005674502450923356
1.4675748438896101 -7.943303371384967 0.004257007434122405
1.5620274410549244 -7.807166154876931 0.005467806454459268
1.6418988798137897 -7.448545469028458 0.0076334207314477185
1.7108221295864563 -6.911154360768256 0.009449049304795802
1.7711856602496356 -6.220792506127196 0.010503917578770141
1.8227587685778155 -5.398395818259389 0.010592189123247261
1.8652080194962877 -4.465021804412733 0.009590731252501662
1.898462007061318 -3.4426012404182686 0.00749037732694851
1.9210214589429075 -2.353668859790797 0.004661784464314612
1.930028400822201 -1.2162337103057568 0.0028066763374838067
1.940786127283518 -0.05201165660410773 0.004571166496198163
1.4575992209796185 -0.06966088066708206 -0.008701483273132662
1.4608009583901331 -1.2212690752298716 -0.005531292521274529
1.4575293314975064 -2.3585049455623746 -0.0029314565157144675
1.4570290081332746 -3.448366252005771 -0.0010434816082384437
1.458212951238664 -4.470716898697155 -7.025111880458913e-05
1.4592734750894496 -5.403993074210664 0.00010053642314551482
1.4599828265487313 -6.226504548155447 -0.00029655535063917123
1.4598851248347753 -6.91682802805655 -0.001061978895377044
1.4573460321423215 -7.454361406408202 -0.002158444504377103
1.4554251649242467 -7.817442122872386 -0.0037254759660265845
1.4675734892426306 -7.963828022724548 -0.004998971534467993
1.4796627708058614 -7.817279444470957 -0.004036395351499836
1.4775611321862419 -7.453984758389138 -0.0027735948878572078
1.4747094852888738 -6.916135357467092 -0.001960942779656309
1.4741536368734465 -6.2253460710350845 -0.0014307061296535686
1.4742453588539084 -5.402181043767217 -0.001169339070983372
1.4745182725194954 -4.468056581479128 -0.0012953063837654502
1.4747199180219959 -3.4447050622756934 -0.00191886961913958
1.4731838824857781 -2.353853037692206 -0.0028688782367890984
1.469468825232414 -1.2163963645494602 -0.0033079767287354823
1.4728811446799428 -0.06663987840911806 -0.002866189174830383
1.9232934039884957 -0.0784388595337813 -0.014811579019194493
1.9197487003661864 -1.2212541744260106 -0.011018060726639302
1.9044404709863747 -2.356331903692069 -0.009857107551670456
1.8807379161902924 -3.4462812976185413 -0.009744049060904435
1.8488455295533348 -4.468068023696023 -0.010269683964839006
1.8076371504349182 -5.4004863870320605 -0.011074452236866974
1.756761734317667 -6.222167011383454 -0.011770690594918838
1.6961955831560436 -6.91121509940464 -0.012129956455485097
1.6233044039483804 -7.44664147594332 -0.01228714841757481
1.5383584625939621 -7.813537892586981 -0.012920536617725787
1.4675722648857132 -7.978834594352349 -0.013922620606123422
1.3967192356630502 -7.813378203541803 -0.01333773426929727
1.311569786933611 -7.446269234369956 -0.013119122235087
1.238330798932544 -6.910524963658035 -0.013363400335524831
1.1772648751098298 -6.221003580129704 -0.013363224978053949
1.1257390138626968 -5.398653081259357 -0.01292440893873786
1.0837468422039995 -4.465350876001795 -0.01217203007386621
1.050996253632618 -3.4425177622944094 -0.011324687411836693
1.026584737825821 -2.3516393472940074 -0.010452188895908912
1.0111056657410589 -1.2164854645779835 -0.009599712344725807
1.0078010692043304 -0.07489598241598554 -0.01047428730478289
2.3902288383186407 -0.08229996821420368 -0.020207163228811498
2.38096500075501 -1.2205953830705667 -0.0161032391262441
2.354076481449597 -2.351999146957598 -0.016616081553544933
2.307855534935637 -3.4400126071813673 -0.018322442691473085
2.243032054027629 -4.459604489671876 -0.020340372869772312
2.1595967184509113 -5.389668432609427 -0.022059847084964602
2.057385115044811 -6.208828973284664 -0.022930111205541136
1.936035627609951 -6.895485153039445 -0.022665178449332725
1.796527636551509 -7.426426562994533 -0.021509007082149822
1.628364862941415 -7.792364488022413 -0.020667010198467325
1.4675646844241952 -7.9909712783846505 -0.020838139820825642
1.3066888846162914 -7.7922129032906895 -0.02119492828042291
1.1382966974255353 -7.4260695178573926 -0.022567761973315423
0.9983997116975523 -6.8948151668871835 -0.024251011500295048
0.8764990519388081 -6.207687369166652 -0.02501143159526625
0.7735874340632453 -5.387853158374688 -0.02454045798004582
0.6893557777463812 -4.456892271191768 -0.02300081809618983
0.6237740232149123 -3.436244182769841 -0.02073291256403071
0.5770715434945969 -2.347342175350609 -0.018038068695299607
0.550162158717807 -1.2158787767775998 -0.015549915215677942
0.5411463556601668 -0.07842869153538552 -0.01709442144323861
2.8612196156530327 -0.08367673458266775 -0.023230740254579302
2.8488873465461806 -1.2190378898792347 -0.020279212334784708
2.81118145071881 -2.3456244072373242 -0.0229330036925472
2.742009827391878 -3.4296407380131733 -0.02653686936056143
2.6442603780199985 -4.44545405148883 -0.02998416315068706
2.5188589840384186 -5.37164831568242 -0.032432214091587294
2.365615964629242 -6.1868802467654 -0.03315940094718593
2.1841464883885413 -6.86897524558457 -0.03177190545595686
1.9754566000061413 -7.397523474702784 -0.028601290143112693
1.7443136222391171 -7.7486851763469415 -0.025300781996305085
1.4675451768219556 -8.0 -0.023756569490303105
1.190690754706381 -7.748546514623619 -0.02594638694688893
0.9592874655547146 -7.397191800362686 -0.029902642338542125
0.7501581306643617 -6.868342131315665 -0.033739136873041
0.5680704558757772 -6.1857856616616225 -0.03577981980040175
0.4140520661570438 -5.3698886970286575 -0.03562927062153203
0.2877982366598538 -4.442807311270953 -0.03354774575876698
0.18932348928936354 -3.425957998662005 -0.030009366358471262
0.11986608746324809 -2.3410790410221485 -0.02547968748978241
0.08238626406645742 -1.2143764070952743 -0.020740773712856302
0.07039067816950073 -0.07964842372581837 -0.02103122633082613
0.0 0.0 0.0
0.05039842981079107 -1.2133930025453743 -1.5818321771917473e-13
0.10310280960610566 -2.330972924561778 -2.966882064625766e-13
0.1749425613375983 -3.4087483440197226 -4.3546840427490994e-13
0.2731680465692862 -4.421142324980382 -5.618808113445779e-13
0.3984071641151525 -5.346588260478244 -7.056439392273771e-13
0.5504666317280857 -6.163521018353821 -8.722043436513055e-13
0.7301286073179022 -6.851029748080728 -1.0753685125111979e-12
0.9407613229394436 -7.386780122550466 -1.2399061553173376e-12
1.187961844666668 -7.741140226561506 -1.4112259484687624e-12
1.4675621710314857 -7.870642007483595 -1.5734636144758581e-12
1.7470988329082917 -7.740714933680801 -1.7461717422838684e-12
1.9940994486053834 -7.3858672370874245 -1.9031125559640237e-12
2.204366897092809 -6.849507016838758 -1.9783906378879202e-12
2.383440553769042 -6.1612151906918 -2.1199491034716015e-12
2.5345844948145864 -5.343304157884748 -2.2497557287392904e-12
2.6584085658408023 -4.41672750571651 -2.5079524969818343e-12
2.7544439861266135 -3.403216237162212 -2.7784444447644776e-12
2.822922801098068 -2.3245870025285207 -3.0773549881110216e-12
2.870026944123481 -1.2066099121988496 -3.3832412801638474e-12
2.9057137316974617 0.0 -3.6101503230532556e-12
0.5079416775239272 -0.030484462503214925 -3.1110918159365855e-14
0.5290146577319164 -1.213787725341754 -1.4285037013418798e-13
0.5577461987577215 -2.33955990932352 -2.768087480183282e-13
0.607157345353278 -3.4196297922039367 -4.195383823139359e-13
0.6734233497351968 -4.435867058940843 -5.590934932594878e-13
0.7576818649872583 -5.365115819729531 -7.105991603835814e-13
0.859839403876821 -6.1861245285076985 -8.738565092260468e-13
0.9803817456262984 -6.878114724015035 -1.057557903981513e-12
1.121036853190605 -7.4191852693920595 -1.237317032839868e-12
1.2844517776516888 -7.779705924146623 -1.424605202208328e-12
1.4674849550163718 -7.913157063299774 -1.5831451288964074e-12
1.6504425406510201 -7.7792605534909445 -1.7706600439903724e-12
1.813622474927578 -7.418227427417643 -1.958186848080611e-12
1.953857180818983 -6.876511460430672 -2.0953180109214886e-12
2.0737448832047947 -6.183683969587768 -2.2648708985468645e-12
2.1749310991490245 -5.36161139703375 -2.444948801972426e-12
2.2577661871770593 -4.4311027168470725 -2.6645093110555237e-12
2.3219496348519635 -3.4135428636889134 -2.912792033213615e-12
2.368261794720689 -2.3323336712947573 -3.1787746723917106e-12
2.3924207015183785 -1.2055250808014601 -3.4448048930028647e-12
2.4114664175323797 -0.028731313420130928 -3.640958844180716e-12
0.9864568302274278 -0.053032264890533296 -3.3377882573030065e-14
0.9971260668525979 -1.213272571846871 -1.3743720844310102e-13
1.007954970926554 -2.343602687849527 -2.6419949458252824e-13
1.032238243112869 -3.4264704350815487 -4.1042963008335503e-13
1.066417292546192 -4.444777839584509 -5.512652738672044e-13
1.1093493605583322 -5.376327292416811 -7.187588951051129e-13
1.1611031823309517 -6.1997246287884655 -8.878442299759309e-13
1.2215438459145032 -6.894173844706203 -1.0498180904188806e-12
1.2907295372525684 -7.438137288997127 -1.2590746355662267e-12
1.371378412856498 -7.803512660916371 -1.4443165503921249e-12
1.4674206813604662 -7.942829381449609 -1.6148508791043689e-12
1.5633769052403466 -7.803052960405546 -1.8189624957279175e-12
1.643760637168942 -7.437146869529934 -2.0174132050845e-12
1.7124808287441537 -6.892511284427921 -2.209369106453782e-12
1.772218887596333 -6.197183075719566 -2.4020207400836917e-12
1.8229756804403934 -5.372656043589464 -2.60112173573264e-12
1.8645252139597817 -4.439737831761053 -2.811208722900843e-12
1.8968020711682372 -3.419961729075268 -3.0354170272958676e-12
1.9184782666327265 -2.3356622225978003 -3.2777666072767997e-12
1.9272804039752949 -1.205017396889361 -3.5117259151172395e-12
1.9376599589086811 -0.049896149984033744 -3.710846665509169e-12
1.4536262555444048 -0.06819239448715568 -2.7109880490351332e-14
1.4568007912512837 -1.2132315679678172 -1.317257888597941e-13
1.4540922509690137 -2.344089882885944 -2.565766364193614e-13
1.4541247199063123 -3.4288755000122157 -4.0618782173188414e-13
1.455735311506837 -4.447981829903874 -5.529915835888838e-13
1.4571810689231148 -5.380226885942744 -7.235437992537273e-13
1.4582364429186911 -6.2043699622209285 -8.996828823817848e-13
1.4584139724998992 -6.899243962615841 -1.0717122835841926e-12
1.4560435305251844 -7.443684870966149 -1.2753529998538212e-12
1.45428771476628 -7.813778905296275 -1.4713588369895563e-12
1.467362291937612 -7.963765555394547 -1.6567894170196918e-12
1.480340854475359 -7.813310920548688 -1.879487439448905e-12
1.478291400466881 -7.442674909413106 -2.0758189116587918e-12
1.4754138144573234 -6.897544217624581 -2.30832058094368e-12
1.4748471585188836 -6.201762888560423 -2.5280687558912585e-12
1.4748915523558106 -5.3764418432038905 -2.7367024954032823e-12
1.475022249509035 -4.442750892593901 -2.9438487064174638e-12
1.4749516964745115 -3.4220411319130286 -3.149373158092109e-12
1.473170012657876 -2.3358664981195663 -3.3720963520263034e-12
1.4695694225818574 -1.2051953836777738 -3.5862638392379577e-12
1.4728827080733933 -0.06389664026724413 -3.795472622156336e-12
1.9169572489937627 -0.07686942679849487 -1.9427347052692334e-14
1.9135898322626812 -1.2131645759490592 -1.2646448404706177e-13
1.8989298948141287 -2.341999395222662 -2.5022199898882e-13
1.8760427558996713 -3.426904531401993 -3.9834024663770285e-13
1.8451085121838173 -4.4454219047007175 -5.51934853752716e-13
1.804985786579563 -5.3767836707597985 -7.196231094485738e-13
1.755210507508364 -6.200060170907403 -9.097714630057417e-13
1.6955613240742429 -6.89359209400183 -1.0913203570818957e-12
1.6230762416538647 -7.435841745657386 -1.2958064060341944e-12
1.5377807652441589 -7.809702388045554 -1.5002572624303074e-12
1.4673029531187058 -7.978965296295204 -1.706907005954945e-12
1.396718648902483 -7.809232269355689 -1.9283266689117837e-12
1.3110994360249941 -7.4348254454493805 -2.158550770054241e-12
1.2380625636225657 -6.891877601278537 -2.399440619777614e-12
1.1776222810107906 -6.1974228264283395 -2.642954494182255e-12
1.1268158693628665 -5.372941114742325 -2.8803812410740974e-12
1.0854387131613445 -4.440079997744337 -3.074553965055542e-12
1.0531023472316576 -3.4198988312839864 -3.2659818154627194e-12
1.0290099025967265 -2.3337190184120655 -3.4636723300177192e-12
1.0139661576666144 -1.2052957084723164 -3.659465966170035e-12
1.010852268391592 -0.0717421182240844 -3.881119933631022e-12
2.381333086692137 -0.08067911820986008 -1.2498362905392365e-14
2.372520058312123 -1.2124552443764323 -1.2123327026793643e-13
2.346503945187358 -2.337736984626548 -2.4382566345454533e-13
2.301443977937827 -3.420751568922476 -3.874810741251041e-13
2.2381455072566183 -4.4370599456536235 -5.51695076291325e-13
2.1565438620375463 -5.366020871444319 -7.338764763048494e-13
2.056262640348908 -6.18668426071562 -9.065104094394962e-13
1.9365514754234394 -6.877687112942083 -1.0936577931892242e-12
1.7978493874295776 -7.4152252605003035 -1.3224693183229738e-12
1.62867615275608 -7.7879414524873685 -1.512098889717966e-12
1.467235803859971 -7.9911106887534515 -1.7386256689700425e-12
1.30567697683363 -7.787475232110367 -1.9577272354278116e-12
1.1361450539009712 -7.414215593147618 -2.2187134808018302e-12
0.9968370985675167 -6.8759797152112725 -2.4930807369408123e-12
0.8762717022815827 -6.184051427715669 -2.753734544470405e-12
0.7749109280167861 -5.362175179190189 -3.014202551715536e-12
0.6920852954901174 -4.4316985147533465 -3.2149962786013548e-12
0.6276205503670433 -3.4137232501927475 -3.3906540244451502e-12
0.5818127882984473 -2.3295162618880827 -3.557632222939074e-12
0.5557438807737686 -1.2046846743927146 -3.724831941315816e-12
0.547265581387118 -0.07505248319955538 -3.954503442847416e-12
2.849593543044984 -0.08193833706709441 -5.105370864777742e-15
2.8379779332482697 -1.210768281396979 -1.1384988961759067e-13
2.8014351359305043 -2.3313531657462963 -2.3268753573577676e-13
2.733892625833424 -3.410396235864751 -3.7413631485168377e-13
2.6383567053791106 -4.42287786619252 -5.533107242757202e-13
2.5156624843343987 -5.347856067484096 -7.580748888104078e-13
2.365339866631839 -6.164400523794107 -8.978761155465657e-13
2.1864530879320614 -6.8505309254691245 -1.09037870589099e-12
1.9790046802225822 -7.385332229283173 -1.2923333530289285e-12
1.7466633772591293 -7.742626310852351 -1.511886856747883e-12
1.4671536770903748 -8.0 -1.7484647583945715e-12
1.1875109927086416 -7.742169726212151 -1.9747947475227752e-12
0.9547678595233499 -7.384341510703743 -2.24062721828336e-12
0.7466437683826392 -6.848851455138636 -2.572667826363027e-12
0.5668120539424242 -6.161804990824118 -2.864147199284923e-12
0.41531447072635724 -5.344059679770335 -3.1795416406294853e-12
0.291347723258548 -4.417588478711341 -3.3752220269174166e-12
0.19476782219488473 -3.403490713544862 -3.5362246997885115e-12
0.12689368825504646 -2.3233214286576622 -3.656827230151116e-12
0.0908002967155679 -1.2031105325623508 -3.781451026757756e-12
0.0797260113271054 -0.07608628399688082 -3.997372449847829e-12
0.0 0.0 0.0
0.04751003582794815 -1.2219637807417505 -0.009132615631044132
0.09992505566835945 -2.3458490291387912 -0.01713783833370607
0.1725741743694309 -3.4285860895339644 -0.02472753618623762
0.27228116239467365 -4.444175742134569 -0.03010598293601544
0.3994612139443261 -5.370736391772486 -0.032833714717033696
0.5537449635298507 -6.186267268980289 -0.032695162485320874
0.7353633901290603 -6.869632854231236 -0.029738053867972514
0.9466525553361512 -7.399068141105149 -0.024586319397332832
1.192112684709523 -7.747044736450456 -0.01904035612659848
1.4676029940512212 -7.8736187216055615 -0.016383891977324195
1.7430577795102706 -7.7469037358105854 -0.019045468006584063
1.9884059305240478 -7.398742793393643 -0.02461778044145107
2.1994895307584454 -6.869038332748533 -0.02984201757681149
2.38077687983211 -6.18528323803484 -0.03294828873138301
2.5345498421735884 -5.369224182097433 -0.03334494263653358
2.6609570397956426 -4.4420144955942025 -0.0310149733230474
2.7594836606381286 -3.4257410593240563 -0.026180884812318714
2.830374170919377 -2.342432805058652 -0.01949776969787114
2.8792163512026816 -1.217886963527078 -0.01312552169195506
2.91646455299773 0.0 -0.013392112078109645
0.5081142223472308 -0.031526584979934186 -0.0003301999410317275
0.5290909180584354 -1.2217713744495948 -0.0046867163467108515
0.5568138263700931 -2.3542720324883506 -0.010814026568829514
0.6064983691319433 -3.4392798390275803 -0.01633960652472571
0.6735140877373108 -4.458712130865377 -0.020323181229937478
0.7588461615647845 -5.388996586444113 -0.022350767135155523
0.8622362180221385 -6.2084433664202505 -0.0223917268060684
0.9838173657131503 -6.896011699794622 -0.020589294231472998
1.1247169637742513 -7.430368974125418 -0.017405945200007034
1.2870042062213731 -7.784094958324781 -0.013915350552015622
1.4675828115524592 -7.914404724899908 -0.012154699353884116
1.6481174237388492 -7.783941817781315 -0.013813194575545883
1.8102677219778098 -7.430016183729083 -0.01721688697825224
1.9509222050889605 -6.895367502997215 -0.020348224659124323
2.0721231043102035 -6.207375502397031 -0.022160522129010835
2.1749563357354065 -5.387347042735334 -0.022227065751372975
2.259489206592412 -4.456331053694665 -0.020442413294138546
2.325376372715644 -3.436091012313461 -0.016907273805694383
2.3733406347757655 -2.350288543786455 -0.012135659439051087
2.3981847402432566 -1.2167537589978266 -0.008327325941202387
2.417970568495959 -0.029969283831355775 -0.010628301544847911
0.9883316929780185 -0.05434721081530029 0.0031667973123256543
0.9991196395834815 -1.2212530308664222 0.0001827404406897944
1.0092779154707578 -2.3581290048455874 -0.004007236869541935
1.0333229370801749 -3.446057405397942 -0.00768274924590217
1.067643079283505 -4.467570937203863 -0.010159940910129785
1.1108902632864623 -5.400145884896821 -0.011298428528659327
1.163053216236538 -6.221919019036319 -0.011190687203060462
1.2238370968387067 -6.911831602896528 -0.010020801599942019
1.293039931138699 -7.448915563202113 -0.008036113520780937
1.373070608648536 -7.807326616675294 -0.0056745024537726025
1.4675748438904161 -7.943303371384854 -0.004257007437351889
1.5620274410557837 -7.807166154876658 -0.005467806458055502
1.6418988798147078 -7.44854546902808 -0.007633420735408474
1.7108221295874195 -6.911154360767172 -0.009449049309170503
1.7711856602506275 -6.220792506125809 -0.010503917583532495
1.8227587685787743 -5.398395818257425 -0.010592189128449253
1.86520801949719 -4.465021804411032 -0.009590731258114809
1.898462007062166 -3.4426012404168786 -0.007490377333032969
1.9210214589436974 -2.353668859789717 -0.00466178447087696
1.9300284008229909 -1.2162337103051484 -0.0028066763445004942
1.9407861272842826 -0.052011656603987204 -0.004571166503597072
1.4575992209800352 -0.0696608806671312 0.008701483273065918
1.460800958390566 -1.2212690752300326 0.005531292521001615
1.4575293314979443 -2.3585049455625806 0.0029314565151826563
1.4570290081337538 -3.448366252005929 0.0010434816074187715
1.4582129512391746 -4.470716898697136 7.025111766509135e-05
1.4592734750899865 -5.40399307421058 -0.0001005364246241947
1.459982826549319 -6.22650454815545 0.0002965553488275795
1.459885124835383 -6.916828028056538 0.0010619788932098243
1.4573460321429723 -7.454361406408402 0.002158444501816036
1.4554251649249514 -7.817442122872392 0.003725475963092253
1.467573489243383 -7.963828022724315 0.004998971531119725
1.479662770806637 -7.817279444470777 0.0040363953477751905
1.4775611321870645 -7.453984758388756 0.002773594883726098
1.4747094852897127 -6.916135357466053 0.001960942775078749
1.4741536368743164 -6.225346071033794 0.0014307061246460133
1.4742453588548274 -5.402181043765269 0.0011693390655241722
1.4745182725204495 -4.468056581477461 0.0012953063778908594
1.4747199180229236 -3.444705062274216 0.001918869612820581
1.4731838824866952 -2.35385303769117 0.002868878230037798
1.4694688252333423 -1.2163963645488627 0.0033079767215731873
1.4728811446808767 -0.0666398784089608 0.00286618916725261
1.9232934039889484 -0.07843885953385252 0.01481157901914584
1.9197487003666287 -1.2212541744261394 0.011018060726377812
1.9044404709868061 -2.3563319036922517 0.009857107551150246
1.8807379161907545 -3.446281297618662 0.009744049060091962
1.8488455295538215 -4.4680680236960475 0.010269683963700434
1.8076371504353965 -5.400486387031904 0.01107445223536153
1.7567617343182087 -6.222167011383486 0.011770690593073983
1.6961955831566329 -6.911215099404681 0.012129956453250657
1.6233044039490194 -7.446641475943558 0.012287148414954586
1.5383584625946258 -7.813537892586972 0.012920536614713086
1.4675722648864067 -7.978834594352209 0.01392262060265538
1.3967192356637892 -7.813378203541645 0.013337734265439086
1.311569786934328 -7.446269234369557 0.013119122230784435
1.2383307989332968 -6.910524963657046 0.013363400330740844
1.1772648751106167 -6.2210035801284365 0.013363224972804049
1.1257390138635808 -5.39865308125746 0.012924408933032983
1.0837468422049752 -4.46535087600009 0.012172030067731448
1.05099625363362 -3.442517762292906 0.01132468740527886
1.0265847378268622 -2.351639347292968 0.010452188888975622
1.011105665742119 -1.2164854645773995 0.009599712337411621
1.0078010692054113 -0.0748959824158064 0.010474287297024421
2.390228838319103 -0.08229996821428516 0.02020716322878775
2.3809650007554612 -1.2205953830706797 0.016103239125997242
2.3540764814500252 -2.3519991469577586 0.016616081553041617
2.30785553493607 -3.440012607181548 0.018322442690669134
2.243032054028088 -4.459604489671826 0.020340372868636495
2.1595967184513913 -5.389668432609272 0.02205984708346301
2.057385115045341 -6.20882897328471 0.02293011120366644
1.936035627610551 -6.895485153039428 0.022665178447021466
1.796527636552135 -7.426426562994744 0.021509007079470482
1.6283648629420286 -7.7923644880223915 0.020667010195366743
1.4675646844248593 -7.990971278384572 0.020838139817257448
1.3066888846169513 -7.792212903290507 0.021194928276438145
1.1382966974261612 -7.426069517857075 0.022567761968842092
0.9983997116982002 -6.894815166886229 0.024251011495307794
0.8764990519394982 -6.207687369165463 0.02501143158977333
0.7735874340640732 -5.3878531583728995 0.024540457974066027
0.6893557777473746 -4.45689227119005 0.02300081808978518
0.6237740232160036 -3.43624418276835 0.02073291255723968
0.5770715434957764 -2.3473421753495867 0.018038068688176583
0.5501621587190195 -1.2158787767770358 0.01554991520821958
0.5411463556613954 -0.07842869153519523 0.01709442143532286
2.8612196156534977 -0.0836767345827586 0.023230740254573463
2.8488873465466167 -1.2190378898793277 0.020279212334557744
2.811181450719248 -2.345624407237494 0.022933003692068982
2.742009827392278 -3.4296407380133167 0.026536869359773924
2.6442603780204053 -4.445454051488798 0.02998416314956
2.518858984038882 -5.371648315682288 0.03243221409011313
2.365615964629795 -6.186880246765344 0.03315940094526194
2.1841464883891466 -6.868975245584565 0.03177190545359683
1.9754566000067644 -7.397523474702943 0.02860129014034935
1.7443136222396811 -7.748685176346953 0.02530078199314056
1.4675451768225654 -8.0 0.023756569486693198
1.1906907547069796 -7.748546514623423 0.025946386942776144
0.9592874655552217 -7.397191800362375 0.029902642333867333
0.7501581306648255 -6.868342131314801 0.03373913686784043
0.5680704558763336 -6.185785661660365 0.03577981979465112
0.4140520661577887 -5.369888697026982 0.03562927061527335
0.2877982366608796 -4.442807311269282 0.03354774575207248
0.18932348929059195 -3.4259579986605253 0.03000936635143729
0.11986608746458624 -2.341079041021128 0.025479687482464302
0.08238626406782852 -1.2143764070946939 0.020740773705259133
0.07039067817087723 -0.07964842372562836 0.02103122632281497
0.0 0.0 0.0
0.03422252505435846 -1.253892992306848 -0.02113671113508008
0.08676588942082542 -2.398035261510487 -0.04037007019279464
0.16114441433947324 -3.4970403920977304 -0.05824556281060631
0.2638104329893316 -4.525059831774614 -0.07204064395728552
0.39580237380229216 -5.459241431534061 -0.08172405196576543
0.5566415488283906 -6.276003539748181 -0.08663151405389384
0.7455609484395809 -6.952696280726222 -0.08630916077806151
0.9618127154836721 -7.467158907299266 -0.08096971684311359
1.2045115272297908 -7.7961040418821055 -0.07289032135639285
1.4675293732287944 -7.912526129670771 -0.06821684675171932
1.7305777701129623 -7.796698701510339 -0.07293834938158597
1.9733724961397627 -7.46834639224824 -0.08110043513445372
2.189799952028327 -6.954472283064044 -0.08659908783249252
2.379004962647486 -6.278358335005824 -0.0872132866921258
2.540298597887343 -5.462148871200748 -0.08279847100363774
2.673019126416293 -4.5284504744330265 -0.0739119936899739
2.776893219248611 -3.5007449830821407 -0.06123575054129376
2.8532355700705136 -2.401721341241822 -0.04535569383801902
2.9096582420875032 -1.257419617239916 -0.02688799197111805
2.9531009704443676 0.0 -0.023601384083044626
0.5059472881006516 -0.036456658536641276 -0.0031153982623831527
0.5264334040264611 -1.252068251070454 -0.009690877171756549
0.551450997249242 -2.406130727030999 -0.025203619511709924
0.6014079075850379 -3.507172908151238 -0.03792454703651666
0.6697553182334941 -4.538985395366754 -0.047787123363153716
0.7576625669830916 -5.476708143134578 -0.05438108601039787
0.864790655108986 -6.297060528355437 -0.05760899149249768
0.9905719703409036 -6.977315286171693 -0.057340784721065456
1.134216715624492 -7.495427733088565 -0.053878215374010024
1.2946344344759657 -7.828110373334886 -0.04852362081176352
1.4676622211971304 -7.946861266051714 -0.04510066633417129
1.6407200368816555 -7.82871152272787 -0.048399776230765204
1.8012317337025479 -7.4966286324369955 -0.0536575380351221
1.9450472264666385 -6.9791127371701975 -0.05708603681137097
2.071102139873179 -6.299447214240241 -0.05743462097629825
2.178654785395936 -5.47966318733329 -0.05447972744436003
2.26722909279985 -4.5424497903772965 -0.04844303786714369
2.3366363384409046 -3.510995559370048 -0.039607879579990436
2.388411447027412 -2.410049177355081 -0.02833979728733866
2.4166175491683597 -1.2560941798743197 -0.015953795857453247
2.4389304181573537 -0.037085191284613066 -0.01786190258472376
0.9918222413363792 -0.06419082197186847 0.0056089073056471705
1.0031798568144081 -1.2518230303417424 0.00043755973214662736
1.0119006416144454 -2.4091344574297477 -0.009752869002841075
1.0347860969087344 -3.513340121121538 -0.01804242816699607
1.0689535254777576 -4.5471347195030045 -0.023800487911423255
1.1127517917675958 -5.487008107539184 -0.02727628403478113
1.1661785357499226 -6.309448528272296 -0.028614318096786006
1.228745136522831 -6.991699436386827 -0.027937403596010112
1.299581825624798 -7.511835545805682 -0.025402520951611586
1.3788827880662078 -7.847488044896181 -0.021123999651258225
1.467805794470272 -7.96983669387928 -0.01734654834182871
1.556757971468871 -7.848098643107607 -0.020830602081817202
1.6361495111171875 -7.51305566416028 -0.0248360402551153
1.7071480486249078 -6.993526563781873 -0.02714874357576312
1.769966773027691 -6.311876633568344 -0.02770632157501693
1.8237711716752163 -5.490019542467815 -0.026434880988250125
1.8681376149773585 -4.5506774308602385 -0.023340019085703916
1.903189600150691 -3.5172726809171246 -0.01844415487663003
1.9275439165609087 -2.4132732755434345 -0.01172716399730759
1.9377995637161098 -1.2556089683896903 -0.004767696075996391
1.949836587700716 -0.06477914460156013 -0.005529164312248138
1.4676769642858796 -0.08282105603983969 0.017366019197714792
1.4715267753730361 -1.2526797189778736 0.011572072123095075
1.4673143977121637 -2.409002026353447 0.005656113623590194
1.4650555803592533 -3.5151546360941635 0.0018923896193399044
1.46463657544188 -4.549865872265603 0.0002599708969198222
1.4643721187802308 -5.490412093006844 4.94484611537768e-05
1.4640914272276677 -6.31354591148326 0.000783718516341408
1.4636121505362123 -6.996270684191829 0.002178291538313389
1.4618694397221113 -7.5168143587983565 0.004169134406664876
1.4604494125323033 -7.8553538190237875 0.007776044736866838
1.4679546897234281 -7.984535777474061 0.012904570223361191
1.4754880789649583 -7.855976681384918 0.008239317612564053
1.4741544080541902 -7.518059121714353 0.005081923384369552
1.4725624253047058 -6.998134902000883 0.0035007282548296403
1.4723091364297773 -6.316023420558621 0.0024237756862190347
1.4723486267924866 -5.493486084583399 0.0018207257228681864
1.4725353003392503 -4.553485516895425 0.0018236774039227287
1.4727901061097555 -3.5191968536795484 0.0026932697440880636
1.4714414171968135 -2.4131811092882347 0.004813723796841274
1.4679318946492497 -1.2561067058026665 0.007630218796496879
1.4721135425298317 -0.08343978780544045 0.008738927463254413
1.9402641119513584 -0.09343068084504723 0.029499582506363295
1.9373023364154962 -1.2534470041587407 0.023157481196356085
1.9212056134200783 -2.406663650748858 0.02098982353942562
1.8952703951402752 -3.512871055406944 0.02174066405855928
1.8604396454608292 -4.5471801271562935 0.024245259450269646
1.8160105893387222 -5.4870070066160865 0.027330500207247782
1.761937555555329 -6.309465806965306 0.030166604289115214
1.6986432444922515 -6.99131475335702 0.032280855888831034
1.62506265282983 -7.510448325824346 0.03357006377193955
1.541985598882007 -7.851250562737285 0.03555768483796713
1.4681066978462483 -7.993378180308969 0.042544952166669286
1.3942549177246644 -7.851888506899127 0.03619401884509092
1.311260139570367 -7.511723124054734 0.03483603823484831
1.2378192929916327 -6.993223325895583 0.03414875308506809
1.1747248150595635 -6.312000388713563 0.03255655739453977
1.120913416037048 -5.490147680984922 0.030058145917667065
1.0768157733756971 -4.550876225738543 0.026945525967076108
1.0424019097504138 -3.5169878727471056 0.023775657581470006
1.0169064266882326 -2.410804748534703 0.02136434905376146
1.001065592294151 -1.2565955410696241 0.020562846788517653
0.9982701798518601 -0.0941032837932258 0.022983398121051244
2.414338190133903 -0.09799825327869918 0.04063288208250166
2.405622675283526 -1.2532895372559254 0.034464129433365104
2.377985735395274 -2.4023804889522067 0.03612711460938673
2.3289787430658855 -3.5066614908194516 0.04137331409783631
2.2598131193833515 -4.538977182354125 0.04799558942059319
2.171134134642481 -5.476705725374995 0.054296897588201345
2.063296878878069 -6.297012630766933 0.059124132096259996
1.93667858225559 -6.976966641755716 0.061650867484671426
1.7932917974512137 -7.4929201006313635 0.06179734651152198
1.6276812975257835 -7.83266747973469 0.05987205869640945
1.468259462273085 -7.998624258721107 0.06728883123940535
1.3088640529764424 -7.833323506818702 0.06068737274054852
1.1433327675637308 -7.494230701764435 0.0634295892030177
1.0000769721032432 -6.9789275122432155 0.06408718591474376
0.8736367743988049 -6.299612758352787 0.06230167972643472
0.7660120909489421 -5.479919187068182 0.058040995080433457
0.6775536128901174 -4.542744387034869 0.05192374065496117
0.608563852179238 -3.5108224420355447 0.044774745906770066
0.5596111157606578 -2.406471165248626 0.03789270406413281
0.531906327575002 -1.2562698506034684 0.033292026193126704
0.5232081441693904 -0.09869317314350032 0.03594757667355126
2.892537879352371 -0.0994571881439552 0.04917949258717174
2.8808282554126166 -1.251948202427016 0.045045234954284925
2.8423684998621432 -2.3960659120822765 0.05114972583253201
2.769612387546576 -3.496327451718423 0.06108301333248514
2.665904302474344 -4.5250187048151504 0.07190982199203186
2.5330153154310384 -5.459166596851362 0.0814005197971422
2.3713921344445072 -6.275966428092476 0.0880256283902965
2.181574496723081 -6.95211917277107 0.09073298444967526
1.9657562717313632 -7.466201227311675 0.08882297376473701
1.7312286627392428 -7.795117910018635 0.08185037362221732
1.4684070636463984 -8.0 0.07871705314209686
1.2056114983230648 -7.795795265186947 0.08285283580451037
0.9711612928169249 -7.467553975429636 0.09083977938001289
0.7554685679147201 -6.954141316891988 0.09377056984158194
0.5658151389475329 -6.278642675061714 0.09204623182180367
0.40437260145315085 -5.462462027533193 0.08625308727159134
0.2716285523038057 -4.528855634991109 0.0772176690451485
0.1679185607378391 -3.500512637164311 0.06608790935692063
0.09487964347164665 -2.4000994912971683 0.05460509273345058
0.055960399207876876 -1.2548282333362668 0.045435542708069
0.044053994831430784 -0.10012192684274038 0.04595266675956032
0.0 0.0 0.0
0.036585850475587336 -1.3266574845579617 -0.03175513140002978
0.08810120861802372 -2.4999531892891316 -0.06837544983548113
0.1593508570210388 -3.630127592648747 -0.09761865211169284
0.26074354028143054 -4.686539703250373 -0.12411717382935625
0.39370131879000797 -5.6442825427255325 -0.1460260281538572
0.5576753936178223 -6.477039147724682 -0.16243388464948727
0.7516738469846991 -7.159359933017046 -0.1721751289237118
0.9730454809023431 -7.666435669539349 -0.17443387207987338
1.2152042557421114 -7.977084802738337 -0.17054489913558038
1.4672329095335672 -8.080597337344972 -0.16702520921737102
1.7193511336377163 -7.97860049641319 -0.17068513760139872
1.9617960940901775 -7.669502407857795 -0.17476354552008372
2.1837053089854326 -7.164042272259836 -0.17280305080242506
2.37859205606133 -6.4834144349731 -0.1635473819120204
2.543962332825582 -5.65240094142628 -0.1479257088580805
2.679044757195812 -4.696354104545681 -0.12722909887414513
2.7836038111687453 -3.6413725879462673 -0.10267741921780711
2.8594652486470915 -2.512110025985438 -0.07584012292978674
2.918935447583335 -1.3387478137175972 -0.04508751301808741
2.974613782575004 0.0 0.00025742750315249294
0.5206798998914044 -0.05665181668166491 0.016673010806556903
0.5431526275393638 -1.3207684165519844 -0.01663523099192024
0.5612697706404158 -2.5079406862217892 -0.043314824353810386
0.6079588290773946 -3.639510771164947 -0.06592644591029696
0.6738269851849952 -4.700036266503729 -0.0848513537958646
0.7607952677319276 -5.661386646011629 -0.10042310327125104
0.8683658246523321 -6.497785800874524 -0.11196244693399277
0.9958560116139034 -7.183601207732042 -0.11893747300504375
1.1415265598730369 -7.693711648658247 -0.120982347689263
1.301138943970478 -8.006125864183462 -0.11893539370856437
1.4675059335779304 -8.109738646783411 -0.11675814559900934
1.6339676389022117 -8.007666498004975 -0.11888712569406519
1.7938803672359964 -7.696832926945841 -0.12092764756901718
1.940106811405729 -7.1883775154251826 -0.11897116278734476
2.0684963788634834 -6.504310129243361 -0.11225619161295618
2.1774423325256187 -5.669732985809489 -0.10125598797778865
2.2664493209584675 -4.710184899968477 -0.08667617103994846
2.335252563055983 -3.651235887727499 -0.06934722008916362
2.3861927499743363 -2.5207865876721276 -0.04951672904031061
2.4103716798301473 -1.333816053079639 -0.025702749595907275
2.436093624341336 -0.05978505776937404 0.006724175004032374
1.0122308326645486 -0.09836211410362036 0.027246721577171337
1.023818708747666 -1.318792013708009 0.001474468968988924
1.025840606413689 -2.5097518629354036 -0.0175725581765804
1.0439565555121009 -3.6451792106077834 -0.03161342288293961
1.075071456673915 -4.707777405836655 -0.04235663354646937
1.116934644230796 -5.671411580352073 -0.05055636276128455
1.1694893598886815 -6.509979111507082 -0.056263000972295814
1.2324744015291609 -7.197972413581175 -0.05936007164925325
1.3054257799687077 -7.709961447423623 -0.059788389512653105
1.3858278089540172 -8.02275330346065 -0.05769537478443576
1.4677224129682145 -8.12460352818634 -0.05533575179483543
1.549713551226902 -8.02432089505904 -0.05745891709965702
1.6304198216374615 -7.713140762600961 -0.05934925927158954
1.7039273922332674 -7.202846133265565 -0.05879849534736723
1.7677951971073194 -6.516653116825893 -0.05573123890610347
1.8216668601598356 -5.679978305641525 -0.050320964626592794
1.8654225902877244 -4.718241853751986 -0.0428506651607891
1.899174192312131 -3.6573267061384644 -0.033522582852193485
1.9208140733636525 -2.5231569605996933 -0.021858697348981222
1.9257169588087075 -1.3313794790194668 -0.005751923076444186
1.9387028304876757 -0.10318859521151955 0.017123021708428547
1.4893338434391858 -0.12509310658938505 0.036690172522487366
1.4924478457409758 -1.319127102212737 0.01908788175049469
1.4822319326752376 -2.5082466608148666 0.008439353602468712
1.4746128119574227 -3.646299189772031 0.0034788969263372113
1.4705711143221232 -4.71010369857099 0.0014055782258269223
1.4678499975810748 -5.674531334632301 0.000937236520635903
1.46600754587677 -6.513910399129742 0.0014989236283867772
1.4653252630861495 -7.2028510455308234 0.002780838018610579
1.466854087324273 -7.715759317638569 0.004495217947477092
1.4699500587798906 -8.027188696661062 0.0069798991620102415
1.4679155160958113 -8.123689485454898 0.009979565922198633
1.4659779167942757 -8.0287844533085 0.007405936073432633
1.4693776353860872 -7.7189985987237195 0.005322033807808042
1.4714550349714322 -7.207823587269384 0.003944055614968111
1.4716267009275323 -6.520732190112472 0.0028657611229937
1.4710225081440478 -5.683309896409288 0.002259492349475727
1.4700130207359134 -4.72085812149305 0.002251291666930943
1.4682418593562396 -3.658832202162321 0.0031486617402955294
1.4631150149626837 -2.521814148428307 0.005987161441974128
1.4544375253947508 -1.3312131871948136 0.013678183440981116
1.4583227441367426 -0.13117276490835186 0.028155663496591186
1.96252819666815 -0.13940246260242728 0.0463943539015655
1.9581589001924677 -1.3196620801370844 0.035813396087321425
1.936619895691749 -2.504562909242337 0.03402315049747108
1.9051901109661522 -3.643180615172048 0.03837318322922972
1.866272002886612 -4.706928523193789 0.04508957437830714
1.818801754263625 -5.670814901269009 0.05237828570916011
1.7626409680537127 -6.5096260243207364 0.05923699438326316
1.6981311798377814 -7.198221873994454 0.06494602672662908
1.6277497713880822 -7.711377592572755 0.06871199251742435
1.5544884491962447 -8.020178235724227 0.07036274156216807
1.4681138264275067 -8.104750828786134 0.07305428598912743
1.3818370013384444 -8.021803122143456 0.07098149295140237
1.308880199572661 -7.714678340770763 0.06993348729890012
1.2390417417511652 -7.203294068544466 0.06672300233165938
1.1753596223705731 -6.516593434992648 0.061458404334005214
1.120358573942884 -5.679793472496905 0.054815580782081784
1.07441154466873 -4.717950186197961 0.04731717543405881
1.0373154198277479 -3.6560038025711923 0.03967697247979409
1.0075806933213098 -2.518159772891131 0.0333915622644317
0.9869211776919335 -1.3314293854486814 0.032268008123988674
0.9829729688767748 -0.1462781812959878 0.03972523627991067
2.438887752185683 -0.14475647392202295 0.05684664966710654
2.4286176734383527 -1.3191093358827002 0.051594998073990525
2.3961902692324966 -2.499033031250737 0.058598576009703605
2.3417745315748526 -3.63612875583207 0.07211660711547166
2.2678548285311533 -4.6982025255059945 0.0873560938431101
2.175139694450844 -5.6601733624046915 0.10206414883877313
2.063936940734682 -6.497149665237813 0.114872028635544
1.9351678658619702 -7.18380049231192 0.12458221691215426
1.7897035059809083 -7.696503128353918 0.13002027119304127
1.638902261035389 -8.003706581445647 0.12816964360887273
1.468346387426564 -8.064353580004322 0.12563027702576615
1.2978916511321756 -8.005361915919861 0.1289858948871833
1.1474031855441753 -7.699867519484427 0.13164691838197326
1.0024888436702823 -7.188974297461641 0.1269909705793349
0.8745393523030565 -6.504261433089009 0.11797627066263522
0.7644432164742896 -5.669341915526369 0.10565874852477715
0.6730773671142535 -4.709454322509625 0.09102709517858916
0.6005504543195396 -3.649161601842735 0.07512662379740705
0.5471634098762087 -2.5126458005410535 0.059832964440014846
0.5150993232018605 -1.330719186775746 0.04989975743052013
0.5049355437776409 -0.1520151419315251 0.0519813050580664
2.922333079873257 -0.14584832938854161 0.06768815226508536
2.9106955609788794 -1.3172540042635994 0.06646368190232041
2.8694985630583 -2.491763021247721 0.08132660958961864
2.791245964440147 -3.625044465707225 0.10320085034975945
2.681450678450361 -4.683753869765375 0.12610543326028562
2.542533781083228 -5.64241132449052 0.1473593895059329
2.374975929976697 -6.47605067998079 0.165202629327829
2.179826169055691 -7.159874654901299 0.17797205132993232
1.9589123624957132 -7.668351705056681 0.18409493593167786
1.7130790423882727 -7.980856818377747 0.17757119174489341
1.4686478031490415 -8.0 0.15090105350282604
1.2243260457809708 -7.982545141490267 0.17859110709282144
0.9788289203001406 -7.671784311038622 0.18614007639970853
0.7584977435090982 -7.165155315842122 0.18103512792080845
0.564196566324955 -6.483309913678078 0.16922445850045276
0.39774287587094587 -5.651762919887991 0.15216202106073182
0.2600692197650276 -4.695197520554593 0.1312886495444661
0.15130622220252216 -3.6382059552633543 0.1079947329854802
0.07335347618714932 -2.505348700618226 0.08447876344463606
0.03172967439522758 -1.3287640406511374 0.06655950508639129
0.019790232448945205 -0.15318810462325022 0.0644147318193182
SCALARS Stress float 6
LOOKUP_TABLE default
-7662.583323298239 -42504.45275326722 -15050.110822969635 -7776.635678962646 3206.046920133434 -4039.9987723897666
16934.530978430997 10893.630372945161 7010.5274520585945 -3454.533286151371 3337.114918371391 -137.38893593475296
16751.528279894712 486.120451775737 1642.6167845505659 -1628.560620314647 3260.1295671345915 -1133.2827512874812
24230.366743074203 2252.8986693077595 2983.970371803976 -1679.4067545843448 2900.8036524413164 -1229.654860554477
32714.625751795906 2513.6004004686197 4006.8250818118577 -1582.7949647497192 2592.2679179975544 -1688.8472365981395
41571.77654669682 3304.1682231658683 5360.734431261176 -1436.1016361020875 2036.077394902706 -2082.562563814145
50196.690334734485 4001.085865563546 6708.234165050409 -1199.590740013852 1269.9250125306578 -2487.122752190112
58336.13894660459 4652.041233872444 8077.342067814048 -874.4345276024244 309.5281282851399 -2884.655015423501
65189.90612141836 5172.803818044279 9332.32942204053 -455.11899976254495 -626.6523470752861 -3294.4570476234912
69660.31990825814 5692.651663511086 10301.414671349361 -84.56358292473342 -892.1810743140899 -3734.7740581225917
71299.67465677983 6277.903372190153 10823.419738029534 -10.357556498599166 21.44643239496557 -4035.106889456795
69710.94170297145 5693.25018317086 10305.162250150646 63.310696849839545 934.6972444790855 -3735.815901476913
65301.16573043928 5174.463776683606 9341.136943557116 432.2534622912854 667.9241407357176 -3296.5222086040967
58529.342783878106 4655.748012456201 8093.827904692861 848.8434484149454 -270.844788510148 -2887.7964657048237
50507.49817107228 4009.0198869701476 6736.85941970385 1170.249245083052 -1235.8172693464085 -2490.915881745693
42051.01141817464 3317.46912167733 5404.512192276004 1401.5646844625205 -2010.9250965075157 -2088.5243485297033
33437.79598456095 2540.6074083833983 4075.565764663971 1543.2102171974934 -2576.1798052012327 -1689.4181312941034
25279.75753371729 2284.320329692439 3047.573105765933 1623.365000003443 -2919.3606441093616 -1261.133553140749
18541.177917655932 673.092423698501 1923.2430368326325 1560.7028668098276 -3209.0825728617433 -1028.7553356483331
20814.293114773343 11578.727056173188 7424.7663993612405 3584.333548509988 -4291.05053342163 -755.7877691521309
-320.42074181713207 -40535.92022669295 -9250.692030664932 4674.462082208445 -5620.638928997795 -1566.942663688848
-8495.873489791227 -36867.5326821886 -11115.68230890104 -4991.498144950935 2648.88630246948 -2322.3566809887857
8096.124607585267 5903.97290142742 3325.0406713820157 -4135.8899120977985 2217.992770054901 -696.578179057255
8352.868391664288 -564.3594163005693 54.54088252497905 -3441.162975895644 2012.4255810551235 -1221.0984671224055
15116.046945571483 104.97458712552938 1038.0672017292445 -3485.2884182095213 1779.3282235564966 -1583.49094897698
20449.724993459982 -126.93568963273067 1426.7437566384915 -3406.8903500118263 1544.0985549104262 -2100.830933018965
26094.56455360511 -119.95047132062334 1991.0900498226983 -3129.2803355226024 1216.7733384825513 -2616.712783133144
31593.882021211524 -119.81892178607906 2593.683544202576 -2718.946865583467 761.3614096579099 -3135.5553926478465
36768.092919153874 -166.73621577089418 3219.224287243891 -2120.4203231214874 199.25875913010574 -3671.044971101378
41150.28307435359 -218.18223747301693 3824.5095793558285 -1252.5257512817789 -354.3512626810432 -4280.597556491984
44177.14735645807 199.93925937817602 4441.24259975379 -329.6631700600815 -528.4595079387668 -5045.249355257055
45598.84345406602 1332.907819730374 5050.68299476315 -18.467156602780648 5.137331967638962 -5638.318890716766
44232.02232799118 202.35310415657077 4448.906597271886 291.5527958602548 537.7112611442685 -5045.358681972204
41269.04194257541 -213.148930640459 3840.7341023196395 1210.8281311299124 360.5007858845933 -4280.676561601471
36969.468156446084 -158.66087657049695 3245.716310997141 2072.5282390277334 -198.32165251452085 -3670.797272395738
31907.481149523155 -108.26648944126612 2632.246497805465 2661.9553621087525 -767.9964640404156 -3134.368367879564
26562.92882403223 -104.91223586899113 2043.5961492299562 3059.9470971530627 -1232.5417840510336 -2614.1153172765694
21125.404223236535 -110.92943613243219 1486.9676563468015 3321.831364315366 -1572.9902051460037 -2094.07031201115
16095.4159624305 140.1295863461469 1123.5067604660144 3370.460980420237 -1808.7773322996761 -1582.112339284941
9725.279831407433 -535.6189994956017 88.60484868957872 3263.9358012675098 -2095.6849706125254 -1173.5520607766284
9447.00001952541 6194.335149692052 3464.032379718406 3901.010321452453 -2536.3996612534456 -999.1364645245311
-7876.079251404173 -38073.32380991352 -10686.975142186577 3123.5332159557856 -3136.3968025876784 -943.2611529277473
-6770.231320278336 -25693.941930028435 -7012.887376880281 -5860.329395632375 1612.974539337644 -769.1627430391766
2778.264110370826 1801.9035044421673 1504.700848297972 -6718.042615649711 1262.3212015686947 -1082.5725421935063
2933.9727339397464 826.6847457748698 142.91640803628732 -5859.707135436899 994.7500926374721 -1394.1434471248783
6478.067709617924 -137.24071948643538 192.30276284170563 -5959.556884085246 806.7046570303543 -2019.5991224216546
9715.513972411583 -91.88237023927277 549.015130644724 -5757.153019540189 659.7698185884108 -2665.3673495377
12600.932321784096 -116.70361081898791 811.9786937529594 -5314.128448781627 499.2966593405131 -3343.719023077009
15473.693180702885 -98.49266217463988 1128.8261132482887 -4655.371990639463 283.97036541237975 -4028.2608613659704
18235.138597009427 -153.59528154458116 1465.206819936485 -3698.0259135763727 -2.761594179093379 -4750.335709998616
20588.56491711677 -236.55081620709984 1772.9847915863477 -2220.8925575130042 -367.2421964786429 -5600.603681429918
22188.783668532342 699.3795827088434 2258.455708590523 -479.3353596408176 -561.3389739716345 -6761.497951946488
23658.954666058376 3732.402470240705 3430.7675057921138 -29.51073236824878 -7.895769952808525 -7854.522310195558
22245.43718768467 702.2134889220368 2269.1275107321203 418.35596883623555 543.9883872290502 -6760.888734943355
20709.886501210753 -230.6929157698818 1795.0924795673025 2153.92382791777 345.2925074886115 -5599.202780838823
18437.20810586502 -144.35394134804258 1499.9875261395466 3620.651511959845 -26.56248753859989 -4747.703092991462
15780.936516366804 -85.41297532242237 1177.517478600646 4562.482240677336 -322.71436197123955 -4023.683931309244
13045.393721643548 -101.0079659786712 873.6691882689981 5199.7052300845735 -548.243097358817 -3335.604670457661
10336.277472685086 -75.18570058233172 619.9861261643571 5613.687640261973 -716.4209603871378 -2653.4744108935297
7310.146569321856 -122.90820043566252 256.289585739918 5767.892523411668 -865.0978414041555 -1995.9213840018895
3766.4234994678577 837.6390833937947 104.64557254357061 5581.187319529105 -1075.7457125885526 -1399.3773787841446
3562.1088582268735 2386.726843741153 1660.6381085364737 6346.765119284834 -1382.2855415309216 -1099.1959874198803
-6737.945715500856 -26657.883457558328 -7164.573313292757 5539.338359699199 -1769.9306143138892 -735.1261916690604
-4953.196181735035 -15526.377244272808 -3709.028708884937 -5419.328534611984 727.6286747384366 -271.24069727974177
-866.5610097598194 -360.36496159814584 578.914221650594 -7104.516802683579 412.255814186997 -940.1506748755646
-2005.8291032341858 1052.1467409325799 64.58352865673248 -7133.023219070512 65.0268664688194 -1441.4708808440057
-1581.7316179395282 79.83759062887779 -250.66828750549084 -6809.67932211794 -108.08775507048998 -2123.679677671146
-957.327315492475 -68.85237745556621 -163.50738443533157 -6529.729598450683 -159.2919117925292 -2829.0728391665643
-633.3332479491438 -28.008425128038944 -86.54120642660963 -6023.64991849046 -173.2555049978972 -3548.2268551427032
-329.92017189605656 10.536648275029211 -5.699212962437773 -5288.1559551995915 -185.92447938500436 -4283.297343664805
148.0350834099844 2.1207794391145285 120.96761537495942 -4254.148225801014 -234.2753117948856 -5048.959792192261
583.4679723183353 -226.60137905260552 148.1465041234077 -2562.4074668172193 -453.5355280564561 -5927.1367406214
597.6314744664928 1114.4267135059138 413.30311395258633 -158.74340364687612 -737.2700380340298 -7187.350794933063
2693.4122804008703 7904.907624186118 2810.945429405885 -33.13377704057152 -19.60825675603766 -8811.344113986655
655.307554081849 1117.7654861317526 426.9158381298075 90.21756479829506 695.9928936504471 -7186.5191937314385
705.7409028591696 -219.80439269318205 176.0348664155281 2486.9741219747234 406.24814090705803 -5925.265794821112
348.1938210985909 12.586540155310313 164.0933557652679 4166.725472417425 177.66037380222457 -5045.575932719858
-33.44503754335483 24.684903627324005 53.062124868472736 5182.77533970471 118.10992379875164 -4277.47409879335
-219.62453260890663 -11.918405145058824 -14.178286367034968 5892.831287663555 95.28464069644355 -3538.54288987434
-407.2032776565827 -55.79140616313844 -85.0190080048818 6363.160769205569 77.34759518520049 -2813.04677234787
-945.2424535666529 71.7405321675614 -204.67118489822252 6591.9262046992 31.825454988697466 -2101.463854135771
-1445.5442332145506 1159.0195826762103 61.89574812623203 6858.2619235579095 -128.02809296803915 -1429.25724868677
-416.1403387115539 55.60198490296905 653.8820390676838 6942.696359736307 -465.12514177293434 -966.4852587488472
-5046.354459803097 -16271.807949401662 -3948.9399825471455 5367.578631859277 -793.3453527224701 -425.13172118756904
-3889.2770799977766 -7771.600452990066 -1369.5220641064882 -4118.718595262958 -10.682018492578903 -214.17146119806424
-3654.332021423616 -1034.2851774866726 188.06011658899502 -5974.543421844956 -386.233303503683 -729.477718702427
-6736.845687217054 843.4980809724864 -125.80508515639114 -6563.43527223873 -876.2198571561887 -1332.634033886632
-9371.918114421596 194.88774849181218 -657.4116942715181 -6117.132750641839 -1039.3662801635967 -2000.7208381508756
-11585.296756019407 20.350422988021087 -843.1002189738341 -5762.550028631034 -989.6333600571235 -2671.58250720256
-13879.743572710888 62.05225309953567 -989.2864226423137 -5310.689426541265 -849.4367908500734 -3344.301020738201
-16161.267167390202 83.07442446161113 -1160.5886710098937 -4663.232996168033 -668.5176859054377 -4035.5156501767583
-17996.36145542453 238.5568725132648 -1211.5298493041405 -3742.1051764279796 -453.48975332682596 -4729.668135069723
-19325.19439175933 -156.88052915498096 -1416.7394543426176 -2378.540615459322 -403.66183096451715 -5470.501600797815
-21407.42579084208 399.56195453941336 -1916.922003653095 611.4255606107378 -825.1096760623167 -6496.108732447888
-17503.569016062997 14305.133098193819 2884.645286240443 -29.823797433841232 -31.5805081131974 -8614.238572887936
-21348.448390102407 403.4845346633142 -1900.2674192435436 -673.1383198817465 759.3316510440793 -6495.555963667532
-19201.430599686082 -148.9938448902555 -1382.8487512913694 2310.523686376922 330.3074359764742 -5469.223590251734
-17797.38177330159 250.3890321730192 -1159.742417254484 3663.1898551687677 368.58695978215025 -4727.255630768829
-15875.076325722028 98.35001060395939 -1091.3851801527699 4568.053236331207 570.3320604541168 -4031.1871822426165
-13497.69116841623 78.73127502037568 -906.2511750878435 5192.095972424373 740.7486142221913 -3336.6907556561105
-11119.004674156631 28.38813926199386 -760.3571276196536 5610.639725749205 880.7212141400004 -2658.868880120547
-8894.505835022352 196.1005804012224 -605.9558991925057 5922.961215387508 949.4747918411402 -1983.4811116001138
-6363.333579867949 946.1078546315181 -109.73885302150433 6375.244863535829 825.9496061317095 -1321.036490568245
-3407.1087408945023 -802.9749213772577 211.82522959389237 5929.971233150005 365.7313559063421 -761.8197749869526
-3965.858684780551 -8218.892491209646 -1545.9537447722278 4148.162683467594 -11.566849254568801 -358.0923102100136
-3621.8864738543803 -3110.0036788186417 23.367669851263294 -2280.418482713369 -659.4947212800489 -313.85026286217794
-5861.002387810603 -966.7035126173162 110.1776785867558 -3442.2115391007083 -1202.8115769123267 -523.6713095188121
-11384.04423516864 485.28429396526326 -438.2238459231626 -3943.084095343675 -1918.1663269907563 -1047.065109386235
-17143.95387295813 207.5181835606873 -1207.2757866012582 -3666.693183348247 -2071.8052183780155 -1579.938365917929
-22368.73816272993 70.3681468778489 -1730.0874475155958 -3413.2968500464676 -1901.488539937875 -2099.077811803446
-27394.64584321244 75.62297108043835 -2177.0332040654157 -3129.3167852649226 -1583.1411451505196 -2616.2020885473985
-32244.75235060247 118.73685663112504 -2613.569684234178 -2727.133767165335 -1167.7477802268957 -3139.195640077152
-36908.806933406144 70.04870181723423 -3122.2774416079988 -2185.084780909246 -691.4832961864149 -3670.0509922892884
-39566.5952311971 770.3395388757326 -3042.788197828677 -1267.8684614945942 -7.201934114014106 -4113.140647099546
-44667.62041973192 -2695.0294394056323 -5603.299258777925 644.4865678594233 -322.17487220757226 -4699.89807383254
-36973.249641935094 22837.63775628764 3110.338603344618 -18.869224018025943 -45.41751908833769 -6246.091263505314
-44605.94877710621 -2690.518659575718 -5583.326440540834 -683.5213682499055 228.01479011862793 -4700.07265684475
-39438.52323635049 779.3520290611264 -3002.3678856334654 1224.8930583629813 -96.55340391389937 -4113.398666942077
-36706.71055455297 83.35499474631922 -3061.1298001904584 2135.3613050331383 573.2218060334612 -3670.163316553663
-31962.787878932708 135.51810844385392 -2533.182473170928 2667.456720998203 1033.1266648856301 -3138.682325260277
-27039.3876683242 92.54281464583478 -2084.216522096162 3055.572450333859 1436.4451792629366 -2614.178808476952
-21979.64195905793 80.36935676767895 -1642.7591106961358 3319.551471662511 1758.2108993244542 -2094.4471057626965
-16806.052435437632 218.96971035798393 -1151.7882032930268 3553.162021715847 1963.0453037640013 -1572.830932147481
-11174.681729732649 556.8172896748612 -420.88652464698754 3851.5359924409922 1876.7065969730581 -1044.0247403576348
-5769.303603225645 -860.0797288443316 103.75913629619598 3441.3270784957544 1210.8510942028138 -546.6173790234556
-3681.7447898152263 -3303.7707507628616 -75.40488571975301 2310.480691106785 675.3620758267541 -407.162702939317
-3163.706623420965 -1342.9529573806972 980.0932451676074 -1124.3973890450068 -1320.2968443805478 -378.7933999615523
-7103.646657153477 -870.2703094744131 306.54922545684144 -1612.3977522993232 -2135.8953943022852 -437.9768386294069
-16268.67997191565 -685.7062429940729 -1284.0285110887626 -1812.797290081147 -3169.2851236285383 -869.5482309579188
-26134.45062594884 -1777.2293694649748 -3066.656534458573 -1742.9985241615414 -3308.8658828394555 -1294.12672116
-34752.00347115713 -2639.5979464101742 -4388.833405470402 -1620.77491009386 -2982.5583220353597 -1696.7127111873283
-42898.26360623842 -3348.344665350325 -5563.164898161904 -1454.108370155048 -2434.936021575403 -2095.0638222249127
-50805.313473149436 -3960.9020957697594 -6705.562552541126 -1235.5764976780365 -1719.0269621123834 -2499.1010377699026
-58473.50050705863 -4872.253737322151 -8011.603846401596 -905.6840496845673 -868.9715214177254 -2868.617282607984
-65308.640556758044 -4542.519747169257 -8951.080858150335 -443.2035969070465 351.9020708522557 -3306.1840728831066
-71358.08508677832 -10786.874204476237 -12582.66470392756 1231.7436696321522 2555.211243483444 -2969.1818740091558
-57716.92255526981 22815.066835214686 -1375.3726706193534 -12.19250129108795 -63.15271798573073 -6123.303530973806
-71290.06315358057 -10779.835257842828 -12557.947341116142 -1256.9316135152787 -2685.8287442325054 -2969.5381828090076
-65169.03393778185 -4528.737019269223 -8901.493862646998 415.6259663677204 -494.9610756333226 -3306.795101703865
-58257.61480774143 -4852.649515781627 -7937.74497905828 874.181366154318 707.1148939661322 -2869.252022074811
-50513.80639843575 -3938.0113165357698 -6611.088752966738 1198.768001060487 1535.9751637705538 -2499.340873907478
-42553.677100721034 -3329.46057129617 -5460.415644144766 1410.9757759013146 2236.315518781663 -2094.288177287906
-34428.7479297441 -2639.058679130237 -4307.398439730656 1570.8533757642053 2789.78171530301 -1694.500642121804
-25961.18039347566 -1800.7967859758057 -3048.3333766181886 1689.9197626690889 3168.058540804604 -1291.365656927863
-16303.305176026757 -694.3860597359095 -1335.224861106736 1774.6127187591476 3134.873361414171 -871.3280763334753
-7217.528121167849 -862.2067371838496 237.69880216808326 1614.6921062264369 2187.1059527973403 -453.7420390510163
-3303.262205988303 -1460.8491174386509 896.9868005059981 1133.5142577936645 1392.398862627621 -441.046330483462
-1157.5374707508013 -25735.312628184816 -8067.8550296806825 -4000.0457605341944 2133.9948741765047 754.8849635581245
15171.012761751257 7295.292756043219 5314.673161910524 -1788.1824310864636 2302.613611523291 -236.60463710708908
17620.22064861218 882.8043051389068 2322.9379615335183 -639.0301117905358 2159.784287141994 59.11467706894723
24948.615029289776 2163.552370041728 3541.509916515812 -694.6054240243183 1919.1660767473381 -40.43278517406911
32981.64807466228 2541.6771189032047 4734.292531800448 -689.8495085339331 1464.7776518377875 -4.14939385013764
41275.60682928766 3246.2897045603404 6225.453213635075 -707.4769106252102 876.1250365196233 2.8226762179671976
49427.37759445651 3910.6731762396475 7827.875734864857 -723.8507691150827 136.22247542958698 13.245825854844716
57461.63113212551 4624.178013464392 9652.20701517453 -762.3839204870101 -681.0267945352015 1.0496336938333224
65367.610781689655 5331.746386715772 11769.41133153135 -801.0571396092391 -1316.9142249056922 -85.95832084207555
72211.70273621498 5643.0103175623135 13811.627706555479 -645.0062966000133 -1203.3012209770206 -330.19121806960135
74992.06614043121 5240.27360327992 14579.298936982208 2.1712091808281926 11.391924205184928 -585.9772582722647
72226.77683064713 5642.171254394606 13807.385241031563 649.3148465276225 1224.8037173990467 -331.69429501952004
65399.88386110409 5330.0971723850425 11759.811110089988 805.2065713942078 1334.381391172777 -88.91133128766234
57516.29520455201 4621.874192175229 9634.90572580395 766.0443881477472 691.0452841018606 -3.066905421278861
49515.273176744864 3908.3953407827207 7799.357684878746 726.4113304800304 -138.91810046951701 8.348463903812382
41416.86358780034 3245.034235292355 6179.9810749651 707.6172425367691 -899.5313913852408 -0.25869408251884174
33216.94836779158 2545.7075227108407 4667.306857426669 687.1304373877813 -1526.7820218865802 -8.479540165819174
25335.08142709706 2172.5650492925506 3433.012275364076 681.2937778907217 -2025.9937842512377 -15.68169323423842
18382.60571514398 942.6472543570014 2248.007637234211 614.3295190959748 -2438.8004651013957 -11.673041745963605
16964.537856582654 7524.3007344385815 5333.046123757689 1773.188268834235 -2060.5985489977575 279.1115424615005
2368.2240016917513 -24375.919616131174 -5742.387690699084 2363.539071024187 -1740.8215515576558 -1390.7205169184124
-3808.36190742316 -23498.91140866099 -7120.979717723245 -2566.937315122586 359.3944340001302 -70.73700157850577
7981.611070981447 3889.0542966048297 2808.4431876400736 -2230.062302111911 774.304362173618 -215.03141182264267
10048.352734444517 -210.6090398339549 903.772847944502 -1755.7843464925602 1317.2864156554065 14.11800398502671
16137.872756286342 244.1367781103292 1790.631979041496 -1823.0943114425893 1104.6445784381901 -19.014880037093857
21250.45669297914 125.83078498999558 2347.6113717460753 -1877.4713298836327 823.1570004352528 2.9889964482433333
26575.679884543366 156.53303340773093 3101.106698813961 -1887.8055944983362 448.5871167180932 3.6641748053723444
31817.525783738223 198.65611005545776 3961.899200078683 -1904.052555143348 0.8827838833151564 -18.0166753303913
36940.27023289088 287.8360207585218 4972.496613362863 -1954.8755288597463 -480.0380989545368 -103.44788933691376
41838.85105096634 314.7437069662783 6120.765070557701 -2026.7636521781644 -852.4066605067841 -351.18392701746495
45758.920623012775 -356.9898045334288 7004.3165266762235 -1662.9630915002274 -785.5929960286345 -891.70933385038
46930.31013319012 -1897.8152832294195 6919.731341535671 3.143012780752862 -4.388957250537391 -1430.0411232617448
45775.97535063853 -356.3170489266181 7006.239830042493 1669.1525342353887 774.8176367240823 -892.0329020523684
41874.80956200953 316.06780404796865 6123.48529260019 2032.5385855049315 835.5673269094576 -351.4729093570307
36999.50097784129 289.8169501378665 4973.550276316525 1959.5044485511846 452.73536080191684 -102.77986842724285
31908.475210073204 201.35508951604174 3956.9219123883427 1906.0475714809577 -43.69015433519432 -14.543277139096313
26714.882183344107 160.3252442514507 3083.7401280118306 1884.5279327658582 -514.139646485099 13.762907242137898
21465.941888990736 130.11872609185147 2306.091446534348 1865.3654103456286 -919.3912451074167 24.0847365050169
16501.2430086792 261.69776983435435 1725.1656176917766 1792.6694012843716 -1254.134737529087 28.759429512047845
10673.29563200913 -200.85299337848093 786.7254067043045 1678.0520012730253 -1505.4929792847252 57.0730249921441
8623.348618940241 3961.6097166348045 2680.835810425565 2044.630571070671 -824.231105278872 156.55050776643463
-3257.0724641547067 -23459.040663560205 -6921.627915722684 1523.6842079074909 -246.49019321845046 -1467.059796061019
-3537.236829540608 -17065.051657588116 -4663.651317452648 -3387.925653373988 -56.98733162053249 -1414.8875356816595
3483.332648974545 1308.023089494515 1518.7856188321575 -3872.8616075811856 176.9968396673863 -212.64350341361364
4569.424903801595 682.6723661832328 721.0139386626239 -3202.7488534863505 531.5572624404032 -64.83687614314515
7759.94362034272 65.76261339261163 840.0794309965613 -3293.660566627027 451.4738540519405 0.8994929275029935
10627.645494950328 119.68574624508719 1195.8077362755898 -3329.3566140988187 286.1368488659435 -0.7027569500179078
13260.672305419672 124.11322238009083 1542.18580168739 -3342.37637879766 96.54585090037625 -21.49213263846544
15859.909833769922 154.50815348623706 1964.7696287163603 -3350.382189975708 -122.57888756321154 -94.58377965697379
18331.980654668187 270.3405221155822 2472.322339928615 -3386.7843422215383 -371.4225272286234 -277.5530571367449
20759.120364856488 418.8481620989864 3092.9971705968314 -3504.4795292335266 -644.0645169394852 -707.3171057449016
22880.53275578756 -704.914400307148 3375.370549807169 -3031.1279218703976 -715.7884708837003 -1600.966684742035
22724.332456444557 -4363.04363547337 2290.4257517596698 4.610219435134212 -18.386647265814233 -2634.51524506181
22898.82592828291 -703.9723692960855 3383.0160972717076 3040.170541089471 676.4503357147031 -1600.2176650627289
20797.072603185912 420.68664231422684 3107.229945874997 3512.7799354733343 597.0910524090699 -705.164173856227
18392.61890656476 273.00540856942087 2490.672194134494 3393.090538135135 311.95879867604816 -272.4035878645
15949.041461862815 158.0492382841197 1982.8059667235646 3352.1155625983315 46.11719746741435 -83.14479791341563
13389.054725159864 128.18115615563582 1552.2579080106896 3334.982844361076 -193.9565274391052 1.9438298185416425
10817.46001820771 125.21187153631831 1187.4257310539408 3305.5695974735086 -408.5772161429491 45.710691579270694
8059.467233545778 74.47893326719858 800.1549023347701 3239.512385017601 -603.4826542758115 78.01627053797063
4920.771502888553 667.6051360444567 593.1074803567445 3076.0780279281366 -685.3730484846931 90.15046520086325
3829.4044182946 1575.6669148041044 1435.9708558185357 3616.8744279348166 -208.41023529775705 -67.22353346062557
-3382.088570856048 -17044.716801712853 -4761.307754403236 3094.4280468314296 127.35888853817515 -1982.7362818897157
-2936.110864295512 -10798.519291532999 -2357.101624037177 -3203.349914431336 -183.98850301577787 -1551.2817135062276
133.54462838528238 -223.3514405115243 827.123077825072 -4254.873568974169 -175.70338326025285 -381.4306005110659
-494.13568385231696 757.9015854273815 426.12728697836076 -4045.6795202962007 -109.92520983180704 -96.23849612637588
-299.3631952633232 84.65209173645444 89.01783404013062 -3821.471474245847 -153.6676569328537 -23.80729684448658
-80.47379515006946 -22.47308630784172 53.241543381891745 -3820.9282404238425 -206.41471047003256 -20.40077957584273
-58.39912747025964 -3.093362885864609 46.93194844611377 -3829.4168893921574 -234.25491999745438 -60.47178064437217
-93.71184313486381 -21.171040232465042 41.28433660501936 -3838.40340553065 -253.4492198127911 -157.46997698522947
-260.20407362920497 57.34286064751076 47.42976100721304 -3811.953730685262 -302.7171328484449 -365.11601416116974
-221.76778415607458 433.6811829069609 210.7907466991632 -3933.9234142411738 -512.9663783619354 -810.8829924552422
509.6788583309195 -1016.3843590310662 53.017011316107734 -3850.4041515847434 -792.9208707031057 -1784.8832559256625
-1440.1149136545923 -8662.725063262345 -2717.0745464486668 5.013030204637212 -31.67394486471827 -3382.5194262228774
529.1179096927955 -1015.1283405131256 66.47793646841106 3860.230438065563 726.4877693873083 -1783.8230904590284
-182.1228738636684 436.14033851800735 236.7568916194541 3942.915964183042 437.5000583352415 -808.012608928092
-198.84137993678172 60.936954606492044 83.56478131755907 3818.702981604431 213.0431751663006 -358.5972963643425
-8.105884733558497 -16.507281633521544 83.02451498976653 3839.977125399986 146.0374219068516 -143.64668209231618
56.29541612448973 2.4126115084849307 86.29206518091591 3820.348780670495 108.3855747379726 -32.37913799788304
76.62099659536725 -16.12096269344123 78.37708338228695 3791.954404461801 65.1190229344025 33.28858822085583
-96.81359698183826 82.63773844494493 73.22414647009606 3756.473470150823 6.02850266435438 73.37264948722442
-296.41696712653203 792.2186189964839 345.1923379131401 3915.297153451203 -5.244580428386205 60.66283283178897
316.37943021589285 9.466473175383193 751.076794343419 4118.210556439399 166.07265716105957 -286.79275986109377
-2932.273636030555 -10882.109339168164 -2551.078009804266 3108.325962276812 240.82431125432183 -1890.72512196238
-2656.840285585603 -5736.34109487024 -528.2395965486837 -2425.3841260466943 -310.38090189026553 -1341.6749289913469
-2576.91450292273 -800.5028301284186 548.8809278253353 -3604.4687800315887 -501.12950946879823 -388.96153575158064
-5344.636747236257 503.42215566794715 70.09632815045317 -3726.128983139432 -708.2101950314424 -99.9276772619062
-8152.270080776761 40.70996245550079 -629.8325828379967 -3387.3043368871436 -756.8323977548548 -12.243924951711062
-10759.456793378313 -118.85153676736601 -1069.8394029205122 -3317.2047133094293 -704.4360825007177 4.419858997043639
-13411.510223449672 -145.42937404368854 -1464.9403703980954 -3334.6001839690675 -569.440981267741 -22.019260803601213
-16006.955073956422 -151.2262764505177 -1857.0772663350838 -3342.567111515481 -392.3561186769252 -102.81248562216409
-18755.62682602318 -259.0080951220167 -2376.9780491170964 -3312.7036956480674 -218.71024924856493 -250.93639381664053
-21285.5466156262 320.6128528444106 -2734.7149503789096 -3257.127806317291 -273.1315185589318 -567.1197943718939
-21520.791591930625 -177.2023860338718 -2890.5392817048028 -4117.884472327462 -843.9012529764066 -1304.5779921498784
-26512.55641030435 -15011.186941684628 -8731.828086263404 4.720454578631674 -45.24508289978317 -3537.815173367458
-21500.164434486313 -175.6561559902368 -2871.189379929571 4127.176133425605 749.7598907856438 -1303.9874974592692
-21244.126610210504 323.6641823736272 -2696.8337290536283 3265.7647123849633 168.41735953076156 -565.2850113787133
-18693.43871061624 -254.52400619582295 -2322.733888979628 3319.496636557988 97.84325490214054 -246.26175190867818
-15924.848032377547 -145.42115147714225 -1791.0844553950567 3344.955521047704 252.66273589561828 -92.06881392846476
-13310.72738767442 -138.31628128263648 -1395.569274189779 3327.514461431755 413.6213807112369 0.9460770970399492
-10642.239655490795 -112.93880454412762 -1012.4093799267768 3291.5358787379087 543.3462841945682 50.86023784533527
-8032.559882025424 45.16428772361421 -610.0247185936977 3328.119767278732 613.2392306363145 74.59828703879023
-5250.250572631612 548.9986878634486 34.804957226515086 3634.5956078100976 622.6677770937633 27.272318651941962
-2498.4453296253632 -656.4324180735231 481.6393102491139 3545.774468833339 504.277906576125 -323.8470442543627
-2696.651951816252 -5828.206271361917 -714.6476810271396 2403.4680967539302 357.2213830491017 -1566.7869122522732
-2843.2586534926977 -2543.6641542091816 692.210803297408 -1268.3558895001986 -556.2361550747551 -870.9276214841411
-4860.482252583777 -827.1113064903263 529.7027459990945 -2015.1938261814928 -927.2063069908215 -264.7166948440838
-10089.818890912013 216.18401950299597 -317.1933106542294 -2149.5229523003154 -1369.230429812418 -91.24404302996541
-15917.363153656492 22.168395167222336 -1379.526068786414 -1927.1493850031861 -1421.0131181659042 -14.431790889655495
-21425.23434855685 -119.11673853731146 -2241.3149047349507 -1864.207240823187 -1253.8673564752762 6.668868035611677
-26753.710712475182 -167.18329537593198 -3035.9971917679477 -1879.101494269695 -938.3956593010471 3.751694725731782
-31994.63525503926 -206.4847967896767 -3867.995217333058 -1896.5588172725286 -529.9898336054221 -23.61115339038203
-36877.88935332699 -120.37025948867498 -4678.704460536276 -1861.3503719243818 -113.91938533627487 -95.59773942241925
-42609.445833386424 -691.1922546583475 -6153.981787255481 -1920.0942425886742 255.14956901159755 -149.93962695933192
-43319.250655897864 3097.8874967777606 -5293.743042687605 -2600.809859303364 -532.5436347840345 -487.5558005248491
-53724.086366323085 -23140.324716621784 -16457.418680767692 3.273720098168086 -60.09894516426236 -2604.279540483301
-43297.26820321152 3099.6547352069665 -5268.453143928385 2607.29893807827 407.9812410734062 -488.13059483091666
-42565.83164221179 -687.6884256864093 -6104.069166336638 1926.2836771917966 -392.28239637818194 -150.7324454643041
-36814.00825868443 -115.21445940592554 -4606.149393124144 1866.5871821352944 -42.14507518143136 -95.71040463443896
-31914.17607210766 -199.79495526282935 -3777.406446611277 1899.344116889023 352.70139387699567 -21.185160536499247
-26664.827925102178 -159.52347483867123 -2936.8531152779074 1876.3912082798317 745.4577735694363 12.45583622813604
-21344.06629689129 -112.09135529996969 -2151.191839055635 1849.9896722644983 1064.1288745904726 29.109293671226784
-15867.338497655302 32.3937768999935 -1323.6796080905638 1893.694392499495 1271.0224588657431 32.8608047820089
-10079.499489184049 253.92830633643328 -314.59292248262375 2104.4580431747936 1304.353607879897 -21.809950782494973
-4862.116184905203 -758.583909995581 477.8300315399211 1995.279092939415 947.7910029344221 -230.75130182562555
-2899.4055163406483 -2601.4050675893286 547.6304930568905 1263.7613660874476 609.3073644582779 -999.7589408473879
-3052.18654128434 -1394.7655266053278 1466.7313362870748 -485.80270833036684 -1063.42523738568 -564.4439019886357
-6697.90958301588 -982.7003520228749 605.4386022517821 -788.607513689974 -1597.1194702620476 -184.03125845140326
-15232.430154426149 -943.763934847371 -1174.0610552419382 -774.4749443828478 -2222.6678805788547 -99.04322613199658
-24635.70289268594 -1811.5717074390138 -3104.351577675499 -702.2530858924144 -2241.0150980653334 -41.02910504687337
-33235.599501283774 -2583.9021438257932 -4690.21047655878 -686.6124813029038 -1926.7929425448822 -20.41460330101203
-41483.24332965615 -3249.1102344696433 -6179.2940180330315 -702.5941474444107 -1387.196847548295 -6.620167971024806
-49644.76134019924 -3963.4420014559396 -7763.737614387219 -711.5440702253403 -697.9091548336345 3.767164357294604
-57323.92402237643 -4328.837528874061 -9285.2192751572 -743.8043396236919 64.43405290928736 1.8958073024342426
-64205.435643116274 -5789.450334011279 -11202.366108279048 -765.7559489334966 849.2806285712696 13.858977984191245
-68690.72898491715 -280.48861396309053 -11098.329465302211 -1856.2495503168848 1266.9925432176738 300.1827094935242
-88746.27179701463 -36345.859624661956 -29517.536933511197 1.5715382062666379 -77.32254616336652 -2769.146076438541
-68666.60060708338 -277.139338296912 -11066.504614166284 1859.396651231966 -1426.9735217156358 299.1045239722151
-64157.871057995624 -5782.796283329462 -11139.241856250772 768.8660089308482 -1024.6400928317275 11.88783118620978
-57255.17833554118 -4319.035438099333 -9192.61669574084 746.6590517396752 -262.9778816230084 -0.5004802616636042
-49560.56250986018 -3950.948608663297 -7646.4410970800545 713.5678438611666 473.3556265486083 1.9077142442060406
-41397.15483157294 -3235.616366858701 -6048.2680814522855 702.5656257348512 1143.7414817339143 -5.9777077565420385
-33176.80340926239 -2573.3367695537977 -4567.365114717258 681.9497371300293 1689.849102213191 -13.304500322103543
-24646.78740182633 -1805.6555916642697 -3022.6548000932194 689.5039429827154 2062.687872115414 -21.412195233282937
-15320.821496301249 -929.5420422158193 -1158.1672759301982 755.8655616764436 2169.5837050796063 -69.16011809683152
-6790.705350446026 -960.6397639903199 561.1765426856415 779.2771012901369 1664.229253272414 -170.76711167744543
-3149.7846143318047 -1438.0028310165478 1356.824612679609 478.18898909506265 1173.8780834667848 -642.3872529467711
5329.7010040948735 -19541.939720607985 -4263.6716149539325 -251.35860233936262 922.0429242555311 80.00998569485901
16956.72199666955 6961.377694877708 5843.817105967683 -1729.5112574053037 1257.085877275607 -95.92969006105623
17567.93417071426 859.3493293646613 2984.870627901167 -684.3278795697751 1183.0997286652787 92.66377534269917
24448.57214242584 1864.878920281692 4224.564861776373 -781.9763001241118 988.9816307427291 106.9243623688665
32185.194461626565 2233.7722734879726 5787.129451265212 -819.4170011352252 635.9483029641684 147.55302046190207
40122.54875810633 2856.3591103280514 7745.05708673152 -860.3830375431975 193.8198482977143 189.57415382114593
48139.22001001192 3479.1415396927305 10027.723079562142 -915.6424490619528 -305.8943321997501 228.9362961203155
56695.269321207605 4243.119990834345 12844.039664643862 -1020.8114801530336 -783.2781330542855 246.64345602615734
66380.10836617737 5097.131661216345 16342.07984715844 -1146.0508558750819 -1050.1194457140123 207.77988263693675
75927.31259439864 5376.247315879181 19798.977727699734 -962.7327454651785 -815.0763847531649 89.98725123297129
80038.89915114101 4649.110098851338 21108.741429717564 2.2274460659143074 1.0527676332953684 -9.88140575691456
75903.91825515157 5373.628213977852 19788.14792979031 967.323631467295 815.9710834886764 88.70965834585033
66329.22720870757 5091.609314459902 16316.923543581093 1151.0626029815037 1047.248129419634 205.2399589685973
56607.97121286211 4234.075556465629 12796.87149747231 1026.5967188642087 773.4987508372997 242.97009001940697
47999.80197767583 3465.346268851261 9945.107412490665 922.58795928875 284.3081364560089 224.5096662699915
39906.61621959147 2836.5791447952524 7606.654936242572 869.274380492731 -236.0523618910353 185.75173125345847
31851.977711105446 2204.2890366139914 5560.424422011043 829.778825377314 -715.672271426072 145.32085036250135
23945.58100351326 1825.2203547568524 3873.388123557315 800.9636506281277 -1125.3594855982228 116.12925338176092
16650.93021654426 755.5217279701807 2364.526871753829 711.4316549563014 -1393.546482656036 85.12841380074967
14645.281656356161 6502.632583753446 4650.430778064715 1690.150292123845 -1268.515128619378 68.51849792976374
1411.7236088774057 -20633.123918062513 -7253.30728976303 2170.814496055723 -1121.31387106395 -669.6925523078799
-2577.355023613134 -19981.781201295904 -6964.01095799986 -428.7592106844963 488.1661885120268 -238.95877050168934
8381.316162049385 3636.749379559338 2994.8944006741667 -1962.8133855742053 591.7773955067028 -201.0246314218371
10528.852796736077 -261.8551271260468 1492.271271668212 -1769.9365915806925 740.7844349541217 22.239251674737705
16065.429278801894 49.7571237493256 2445.3094574963934 -1950.7317915824444 619.3427417925471 56.19554556549019
20928.7132003104 -121.39003324142608 3231.60817828085 -2062.045876322988 392.3272364319673 82.09690641186954
26022.780950147855 -157.0420760520682 4333.7132436193115 -2135.413124537266 104.88937735980568 94.88508660758845
31175.632810841213 -176.4993523202915 5670.373573580632 -2255.2438556283523 -208.8931331616062 82.71472172791053
36622.87679978811 -102.66451521971155 7343.594248001028 -2503.276306822546 -498.60307415806716 14.884981325602999
42550.790986481676 -137.83268831964185 9329.559920951982 -2864.9631939491214 -656.2640158719588 -157.70755316376878
47859.741634708116 -1363.2851281082246 10891.948840916431 -2510.7485570637837 -511.8205373972181 -446.44754157565853
49499.37473379874 -3844.2979428226695 10855.181058330561 4.320152189631791 -9.452208186635634 -652.5399448924743
47835.81110161183 -1364.2323592599896 10892.287720268296 2519.784390581597 491.12687046228444 -446.75089456332955
42499.440327435594 -139.7676548287372 9327.476905681107 2875.2530161261243 630.1305368008085 -157.9989966071049
36536.677900648756 -105.68191239072438 7332.87847748814 2515.906944583027 463.03047606494846 15.421319342706637
31042.299196453874 -180.70010816633715 5640.098605121373 2271.7120158291473 158.88104741152313 85.81057751943901
25822.834964284586 -162.446816463189 4265.893615509179 2157.8445037718056 -176.9592377422129 103.90208993642075
20634.763074499388 -126.72318013705998 3100.50058284936 2092.850999575528 -497.84067196998416 102.39591614251918
15611.96909053973 32.00217258395052 2197.8949655834817 1998.560980397405 -775.201449857042 96.9269122893256
9791.998895868894 -281.4283951325854 1067.7639213192006 1862.2731636016326 -921.3639433070234 85.66982127130439
7605.924708427644 3500.6139115983783 2326.87244720484 2133.730192125818 -662.4008175399126 -24.83963186885396
-3109.703012364254 -19707.74281747381 -7970.533611562153 1612.3925505679115 -433.1638244014834 -866.2705963723092
-2914.225780022741 -14332.794338009 -4820.744875150139 -2778.847382344122 171.26693420462945 -823.8427370465164
3808.0218205809897 1814.9699374979584 1714.4637905604898 -3416.4222161016187 215.46277644684517 -303.8438108338975
4919.400861219579 440.5159267419961 993.5442892313301 -3184.688477689826 301.4493338496127 -77.43295689064493
8005.060589400408 -89.28390181256742 1238.0600317861051 -3441.193206335873 248.85677545096485 -1.108669656569245
10658.112141499038 -82.05203663491277 1673.3872930786158 -3574.6042042888494 121.06739660119904 9.443171293772021
13140.608596873222 -125.90995814992729 2186.0036974731815 -3701.377684632387 -30.410659708085827 -13.819738890648377
15633.457781961917 -146.1915644234153 2843.4778252189208 -3891.7572312956627 -187.47530761363143 -90.0781581964647
18168.018236406224 0.4030568573532385 3690.4699614946817 -4262.2893454696505 -333.7381169730172 -260.01490706659115
21083.53154004776 203.135698420895 4785.641351660816 -4905.986162425166 -433.90228091927514 -584.5356065854348
24009.316280617582 -1692.2715125627658 5364.30145247104 -4552.22993552284 -372.60896602567044 -1071.6966005983095
23773.1876333816 -7279.830111361748 3855.1747111715167 6.970801431248856 -19.765759748910664 -1423.8252483533283
23984.45519050656 -1693.5310573683744 5374.949308896313 4566.830388728387 330.8257973044574 -1071.0549290898202
21030.92412061365 200.61343789784513 4804.790731602235 4922.681612591835 385.39964056982353 -582.5952787722955
18081.82586866806 -3.3772773727191012 3713.163732249016 4282.911401580615 274.12225339924 -255.16351633454167
15504.443256635714 -151.25904193366935 2860.4570053323732 3918.9140238642594 112.27704581177433 -79.05490592475833
12955.522899693031 -131.51169685632158 2181.8058587537207 3738.8257240963453 -65.37371269444456 9.243427705671511
10396.24288370707 -88.05811825895793 1622.0342274136408 3627.766964980067 -244.113100871108 54.5434794573073
7625.456732212112 -96.80454857961136 1096.613898054645 3522.4195205246883 -403.5917660556535 77.0595343192886
4503.219910196964 452.5239401282716 747.9118234735657 3331.2928292834904 -456.1045000951143 62.71806531658586
3383.7369681776217 1474.8650695030599 1157.215758737396 3671.9210346315735 -259.46179688078627 -183.7889747157561
-3063.731068764397 -14121.531444204662 -5503.916105330048 3040.4309980111157 -116.90344120911818 -1274.2830436509198
-2615.622676691758 -9099.7191509923 -2420.5433388468705 -2993.927732430099 -20.392145499455594 -1056.346369164234
408.0442318507436 414.82328815798184 975.9007997685758 -4004.8574503194154 -65.54653373341627 -356.88168321963263
-134.27177571151765 682.0015585215385 520.6540931490713 -3973.1921016471974 -93.83463939494325 -106.8474823364318
148.8767551369268 25.606647008335223 171.5655666913217 -3958.500165036512 -120.42730774293477 -20.71380508706863
315.67149626073126 -31.381221447081774 101.66524898873159 -4075.864838163087 -157.93356200885978 -6.398910181814468
252.6238812902509 -8.571739493337887 76.3308956400246 -4219.945976712918 -185.66868129039588 -40.688229092438874
91.4852375473848 -30.35831508153631 67.71234332660296 -4439.001729430885 -200.55544113257162 -136.44200086663085
-274.6657615639317 140.93259672615483 97.11241753147124 -4755.111329041387 -219.94544909050936 -332.61743363378736
-223.19409715269322 778.1191526631544 429.1329843505994 -5450.881157428365 -275.6216422470557 -690.257606273308
960.864024988366 -1576.7557108451492 305.12331275568874 -5693.007460950482 -292.6946661024286 -1245.4683622144207
-1705.7195245976247 -12762.274145125317 -3527.4101767382213 7.899674599230197 -30.04970374982001 -1699.2534006267585
935.1907683190066 -1578.4042053614232 326.1129785948959 5709.5552867613815 229.9252085110365 -1244.5393827818705
-276.7895762355905 774.8509172482768 469.57957564816314 5469.806600768886 205.0129508295738 -687.6329459111521
-360.42661709296567 136.10711331085093 153.25002906030474 4778.48406124435 136.88141008959045 -326.4263541758601
-32.26682487128218 -36.5527604095293 132.05199280280985 4469.790905410251 101.45899172493723 -122.97553436061514
83.84858210958228 -15.302397531453549 135.26957608434572 4262.701064983069 68.45212586412845 -13.054300934127383
90.32761806057803 -37.32118298992311 130.79360715410587 4137.866047574215 22.42381283033928 46.542889764232875
-122.70308349939711 32.24637876335685 142.53898265703225 4052.8856892285276 -27.05812023809706 74.6404149029666
-383.9919985999718 637.9328976474573 379.4468691278413 4122.288240264523 -28.237997682326988 42.27649818687312
178.08907824065938 147.65195613667862 578.4260947185089 4129.256002056547 39.814307404264234 -269.4612080561626
-2635.364156947144 -8869.438376730614 -2900.888329679893 3046.4555064990345 63.241023945132255 -1349.2690970684853
-2477.290296984404 -4824.08097120574 -331.93768255582154 -2388.727191315052 -181.74377479887406 -992.6654542747514
-2366.8709921185437 -300.2090792650932 658.7972939648938 -3508.3802695534832 -324.4666851770214 -304.75777052790386
-4947.327236747394 567.6665967839867 8.46069101296424 -3700.945263119456 -475.4447080734995 -91.08030337862718
-7514.3601106529095 122.74310686567641 -847.8232654195956 -3521.157618374824 -486.7276639722977 -10.377588044409285
-10014.951533200508 58.03642707379925 -1459.6231864324034 -3565.923310384784 -438.6449281679304 9.876793515489055
-12673.026157745824 94.86632615606935 -2051.6264363700916 -3701.411721197832 -342.91142075322506 -14.019479274213097
-15381.160283413357 153.07955477840343 -2667.9281483150817 -3885.162547166558 -216.28421368548504 -91.15962408666368
-18527.65838892345 117.94179673701393 -3489.2210565870887 -4124.948115115228 -100.74849056966228 -249.41550771446134
-21590.32412256765 1113.98183825961 -4027.988667576847 -4456.792775495194 -88.04136549822744 -536.6202543903781
-21665.410653065122 134.04952363848832 -4219.2741939399175 -5913.208429145258 -184.44624763227645 -1045.7877990799502
-28411.619304178414 -20688.524687444282 -12049.711210875696 6.994488219461346 -40.535811350903984 -1569.7408912698913
-21692.06262327935 132.00330210282212 -4187.794608989376 5927.857441527581 100.25931749915217 -1045.2288105023779
-21645.281291703643 1109.9364685879964 -3965.9330380034444 4473.534917354264 -5.1896132535989175 -534.8495691016913
-18613.64294356936 112.0337560789281 -3399.1113117381933 4145.591706833138 -6.427859681191704 -244.84269076732042
-15500.584599844087 145.694537829312 -2555.403902583518 3912.3039655432653 92.36845225281992 -80.59311443358365
-12826.7022033299 86.77911785539445 -1928.3137326515093 3739.296579895272 203.15341954179772 8.504314275080702
-10197.487179130883 53.85514449713001 -1345.5214742709545 3621.759523315157 289.69563731355754 54.971605545459
-7697.798650173862 123.51153750398746 -774.4197059610265 3606.4158764103126 346.0987369408971 73.1484941177871
-5088.240527066146 516.8066255272224 -25.476179855337087 3804.3662665617076 380.35459997060656 30.040770547343694
-2477.3071265120175 -455.4635459681501 415.62814616422804 3554.217956977068 311.47507785880305 -240.12352679688934
-2474.761979798368 -4664.007782785471 -693.6768469044084 2373.377125498521 216.5752504307108 -1181.9768206405377
-2748.5536020732 -2147.1484328014026 1091.1609607334303 -1290.6883559483101 -385.4005537876638 -600.3577999300956
-4732.090098808004 -545.0697362717473 588.092203785633 -2007.439870527735 -620.8213074082153 -132.57780968224915
-9658.21402126901 317.5388802985343 -526.1943218835167 -2182.731557240585 -874.8550965307679 -17.833273799111023
-15091.765865826133 151.58596096243923 -1875.5351832692268 -2047.1343087499758 -855.1936301017457 47.14872504147415
-20340.657213258124 107.32040896341711 -3046.2789077539956 -2052.5576232436247 -713.689957912781 81.04806483937094
-25586.352715525445 144.53437419222888 -4211.840954292828 -2134.9368804133464 -484.26551177755863 94.40415899421728
-30937.749746092693 183.57642895647837 -5501.431673011457 -2249.7546185740225 -201.00260340283603 82.01675088223324
-36171.948567482366 399.66528295449314 -6847.6803337447345 -2348.1340389166967 68.6585330155404 25.92168467618739
-43187.75103383781 -223.1677619067329 -9130.042808406819 -2610.5657531995976 211.30298140325465 -93.91527508920504
-44160.20698580752 4766.7107698241 -8046.109166819699 -3546.3917718187863 57.9720029386013 -416.1682990905926
-58235.293138196364 -30886.93207960599 -22497.471197141516 4.370290751811501 -51.4537416150805 -1009.3611502062244
-44188.28914980429 4764.330313888973 -8003.883167989876 3555.532526096368 -164.53796324073997 -416.6478025937928
-43245.05963892444 -227.8706713257602 -9045.814973139433 2620.96987254078 -328.4372628010045 -94.56038061716318
-36259.87155558315 392.8462582465587 -6722.614876411947 2360.8717350701368 -201.86295021057887 25.90546301027648
-31055.83262603093 175.13334085512835 -5339.203962612223 2266.3544455914903 49.234848554383404 84.2832543345447
-25728.03692221641 136.06751657655738 -4021.008131438265 2157.8723392007014 317.1229835128467 102.2465640091143
-20485.349146516175 102.52244122229773 -2843.6523501244797 2086.4874237425074 544.3216691425265 100.97673584141053
-15201.872424844134 147.07472112239918 -1695.630318775549 2096.7420427028433 712.2818633971864 89.06739156587514
-9709.555771349202 281.2547600986614 -441.2499471088875 2233.301797027838 799.6052969220209 44.03725183562859
-4754.041163559938 -615.9380786962253 486.40387772780804 2018.5704704806226 625.2382898096771 -99.83393446156585
-2742.9813777221534 -2074.0357700041714 819.5921863660924 1267.8362308118735 426.9944846667884 -706.1816641176358
-3070.7132348603286 -1247.745674540189 1802.7703601680585 -503.1205941079101 -742.5835032146617 -308.14073400036267
-6637.567787563354 -830.8525120581157 597.3237122387291 -803.6746874945665 -1023.266297125151 -14.04926788606065
-14707.339321022431 -827.523618887038 -1438.0261545088729 -832.8819915291948 -1307.7382354884523 37.400796760666125
-23502.156402738237 -1623.1807352899698 -3689.3713014372315 -802.0909848379572 -1221.4652564453274 91.76069124760949
-31670.106309314022 -2282.9338128036075 -5655.593251102323 -813.3270976521897 -965.1010049578284 138.1865216328384
-39723.42991709747 -2858.2353620566473 -7646.266836476257 -856.5233884303984 -580.7608922411596 183.8354369076966
-47960.993940566055 -3531.214893503107 -9902.048061561805 -899.509350563892 -113.3182168157614 224.69208984012997
-56001.28021086407 -3763.0815159786466 -12213.13049763375 -995.03129856498 348.3089574102593 254.93137149644534
-63977.320550291595 -5564.236468820051 -15266.619758452787 -1052.569783131922 647.6864188888475 241.00328747858276
-70888.46160940213 1558.7235048042203 -15642.3478930694 -2318.2021491180035 618.5602309712988 149.11327495167717
-98236.10968355105 -46716.95064816117 -38526.74375144105 2.272908375186546 -62.9611548907125 -707.1579583740113
-70917.90609202939 1557.9781111064665 -15588.24973845419 2322.9824458279672 -748.8476596072021 148.0730752319948
-64036.87384044301 -5565.4362041473 -15157.786912276708 1058.0804732889774 -790.6095097065383 239.00409529235307
-56091.14475226682 -3764.033267330232 -12049.00750568695 1001.8690975401585 -510.51612012137167 252.20857913917
-48078.16957052171 -3530.4798053224463 -9683.682207793236 908.460665561485 -71.25938835746096 221.80366842276237
-39854.891531873 -2852.322747186197 -7378.219785414447 868.7025799489403 377.8067239533597 182.0753635051088
-31779.743518598087 -2265.0123924449617 -5348.713623261459 830.6358754272235 761.5077710771409 140.48708399626008
-23530.030623359005 -1590.4994156711352 -3372.6207220028 826.1534988692954 1057.860046055949 103.15972988058286
-14632.863320277895 -801.1052914795608 -1190.069741087402 857.9409974555701 1243.6106177895124 57.230040726838325
-6543.987695477854 -820.8027957314547 653.0020434887318 813.0595729978029 1068.7592577953315 -4.6252709162368255
-3011.9478667802514 -1180.8632375657141 1637.174674803547 496.1610828321238 835.0358566091104 -371.51599225438355
6729.130893513855 -18220.714646765075 -3447.4751259753652 572.1514122761904 -1.6587096141051916e-08 -7.820581515716185e-09
17409.144525383155 6808.4375080570135 6114.565040540307 -1696.9125993941882 -8.396202844096479e-09 4.573088574488793e-10
17637.964759719925 902.4127114180809 3402.745611330451 -659.6359242270106 -3.526456460178906e-09 -9.399183653613363e-10
24295.094367986512 1851.729208389657 4728.377513499565 -784.3922596397912 1.787752168525003e-10 9.840057657584111e-10
31941.979820578585 2244.817120847628 6462.685232560196 -838.7107848680467 9.72075975269604e-10 1.9371491077890823e-09
39873.046916721934 2897.8148933356097 8694.210488759778 -901.5930599370289 -1.0382692483545952e-09 -2.2087576212470594e-10
48017.244294722375 3572.128281412046 11357.221299794719 -981.9610746622609 -3.262567105366543e-09 7.421796510698186e-11
56952.24205247133 4421.693544702573 14665.185891906494 -1112.80011212299 -1.9938317663559246e-09 4.795563057768959e-09
67325.94818303436 5398.367481320049 18719.41845538366 -1251.3139393737804 6.436868815740127e-10 -1.4128715974948136e-09
77675.35694871901 5799.202494334043 22643.28296113228 -1045.4671603501322 3.36786909471698e-09 1.7124079931818414e-12
82146.25793991433 5091.477269986276 24106.950174017875 2.7590773353553573 5.623881360605765e-09 1.7775416694121304e-09
77635.71450461366 5795.900533868766 22629.755542926017 1051.2401893904942 8.543214136125243e-09 -2.8194335754960775e-11
67240.1448536979 5391.411521194238 18687.626577073395 1257.9021801922895 1.8050281269665902e-08 2.313273128606852e-09
56805.47294944188 4410.22716818437 14604.615820857176 1120.9460911213937 1.9934347950112397e-08 8.187690525573998e-10
47782.11012573999 3554.117506168119 11249.383909685932 992.6356854754902 1.6589089879559538e-08 -1.8694379377848236e-11
39504.19053530826 2871.027267393343 8511.102568899618 916.2959168092341 4.4166128532197035e-09 7.213074582068657e-11
31365.980517507363 2202.1795583083153 6162.561384360244 858.4003987209754 -8.976415166728202e-09 1.9188028943517565e-10
23410.33750945474 1796.2851330391875 4263.195306747737 816.1537463055677 -1.3498933526534529e-08 2.738529403245593e-10
16188.55418207907 764.9660591404663 2629.3370908225993 718.5177437286931 -1.8126459444545162e-08 1.403395621935033e-09
14067.894544419847 6234.9208053308175 4437.028872164353 1619.2735540974622 -1.6952999004615776e-08 -9.273204426563098e-11
1194.2445074948157 -19935.37794854674 -7309.746153705175 2061.266933921543 -1.5001450748286516e-08 -7.777842370160215e-09
-2215.135532128774 -19320.38225914209 -6502.260529947043 44.92116404832209 -5.113041101623139e-09 -4.576204304385101e-09
8480.794637430414 3481.634835962645 2998.202582350519 -1864.2102796137874 -4.747669146709654e-09 -1.919995717969414e-09
10725.147288903914 -224.5474695159517 1787.612598179255 -1726.284792200048 -3.708511497890754e-09 -1.9725137079262822e-09
16029.737527105755 56.59541151286449 2767.1094595227487 -1958.5283184859368 -1.8334183060630949e-09 1.9530155270786054e-11
20822.438193869602 -101.81588479438976 3655.4658578214485 -2104.4340884643157 -5.795738888814128e-10 1.5336905079266216e-09
25907.26434304917 -119.58347751834204 4920.107600719458 -2220.961923479355 -1.0835851105284178e-09 -8.533662665399788e-10
31140.19822000184 -116.33764214097364 6485.800595901908 -2396.381825987529 -2.306416391206767e-09 -1.2121104120410564e-09
36811.77538977671 -13.26742519113374 8445.30131633619 -2709.00849351631 -1.7740882096717314e-09 2.7652147238654834e-09
43125.4562203984 -18.158498086210578 10739.040221642219 -3113.0221187071147 -1.3810534937874763e-09 -3.6511540457695446e-09
48864.853957485924 -1226.4000320627008 12538.202008245082 -2714.45345022769 1.306428076830457e-09 -3.705380891005916e-09
50662.013221648616 -3780.533272932876 12532.951866221892 5.340635456025321 4.127339026105403e-09 -2.231367091098946e-09
48823.65838743058 -1227.901540753256 12538.264537702635 2725.810574663922 3.805346704410795e-09 -5.189467522370705e-09
43037.493215207796 -21.16504743558376 10735.570691310546 3126.5741775704114 8.6223361783766e-09 -2.3958506290000514e-09
36664.76938703349 -17.853979867183995 8430.198315361919 2726.8143501321974 1.1742780858803314e-08 -1.7484591552374695e-10
30912.56418280384 -122.69394378408398 6444.73528373462 2421.464798631346 8.829132563947795e-09 1.5942740461127869e-09
25563.50195778608 -127.7596909403924 4830.112395691055 2257.5049593633007 3.0118878502349844e-09 8.02768695962186e-09
20307.940257850725 -110.8562921813091 3483.3811149767257 2157.9765996106753 -3.0024984720711245e-09 2.6306059552894112e-09
15250.461552967796 37.093520109461856 2455.950022773069 2040.859237251243 -8.334100964901836e-09 3.153804772892954e-09
9556.140436066355 -242.33788838862046 1265.047675384578 1885.5021720757059 -1.076853894943497e-08 1.8803785195586897e-09
7317.585571391108 3341.459093279343 2148.4703312429965 2070.2497401411883 -8.034938603351804e-09 -7.884608521635528e-10
-3110.164719570866 -19046.155256991984 -7986.061987162995 1527.4713496668794 -5.542402981006944e-09 -1.1055156790007459e-08
-2852.350777307874 -14143.637845808003 -4699.780125576905 -2566.3224998414853 -1.7892045622858177e-09 -1.674660410344586e-10
3912.7041100635824 1876.9799608558792 1759.930516820318 -3224.898444141206 -2.1179036302498844e-09 -3.1367788366765126e-09
5089.182958856501 446.5561847606612 1155.8098975572107 -3128.158885766892 -3.5558563871163074e-09 -2.8991342659878683e-09
8090.574018159508 -52.17803736893068 1443.4923893060413 -3455.5829542346596 -2.406594042103638e-09 -2.446024716107331e-09
10684.023640220992 -36.735604449935025 1914.033856126635 -3650.170987378823 -2.4371468732020674e-09 1.4296368533450732e-09
13161.903400903448 -59.25728479983867 2507.191840311068 -3844.0449397006946 -3.1651486986916666e-09 4.147384657926523e-10
15693.590153761339 -54.74663290293958 3281.6264687831713 -4123.958726842478 -1.8615046171177596e-09 -2.7893118925703675e-09
18334.465404248112 127.41214062025024 4275.942262000685 -4600.580841231267 -3.28261218207615e-09 -2.467315241005963e-09
21436.67961154766 372.70929848876233 5530.266369547678 -5316.775487382391 -3.663560343980521e-09 -6.339071489946946e-09
24613.66529533144 -1481.489878746692 6224.665315979308 -4900.968055113045 6.589013779034758e-10 -4.64815030909449e-09
24416.238661038024 -7231.051442984653 4619.17322851278 8.344931629073397 6.659621742954869e-10 -6.203453750686094e-09
24570.751286347757 -1483.467808304624 6237.241429924095 4918.768670816964 5.157401172795062e-10 -7.028541304521241e-09
21346.331960802574 368.75750815148683 5552.715828273732 5338.194814210142 2.5789481661320224e-09 -5.336225683549856e-09
18187.17719113145 121.43574137959534 4302.003667073057 4629.072128341271 4.037224998754141e-09 5.105595946020003e-10
15473.478023287087 -62.913331725597125 3299.675792243049 4164.69887845543 4.43505376868103e-09 1.7645040983893523e-09
12843.811197321627 -69.10870944452613 2497.7949165060168 3904.704242188067 2.7089023246773536e-09 1.2718711417392115e-08
10229.841151144868 -46.22742060950641 1846.6519809916506 3741.072467138303 -2.8507196603300144e-12 7.594288753409728e-09
7443.680969373815 -62.69799518132073 1270.5073486789029 3598.297351454024 -3.147931915137292e-09 5.23035748045686e-09
4404.094690055505 470.9242048693954 875.120825560428 3368.2816344673647 -5.095971866708737e-09 2.9640929710694763e-09
3244.9653660624062 1388.2403527868046 1036.3204966898006 3580.2477559826225 -2.8332609314229984e-09 -2.526122422352728e-09
-3055.1351187278597 -13671.83598554038 -5594.058310267524 2909.791858872908 -1.6350349962834798e-09 -1.640415803194628e-08
-2577.643839308217 -8994.583550126967 -2375.281324420038 -2871.2119720301903 -5.271945102691689e-10 5.480504938759623e-10
504.0419216891522 483.16254348200243 993.1041972147475 -3855.945864678968 -1.1298381119573264e-09 -2.6830124788546073e-09
31.646451352928054 690.3168678833763 585.9525167173779 -3902.3711754774067 -3.389123204300404e-09 -3.403404669199972e-09
287.26478731963607 16.19398998900334 222.51631577897294 -3975.9217377923405 -3.4395908343753945e-09 -2.4743380677705318e-09
428.0642398213324 -36.57139099329029 126.29949554597817 -4164.282775972397 -3.808305892860631e-09 4.150582100237443e-10
351.6604196691019 -11.441638678859857 89.39804488755671 -4384.795449970279 -4.697296329680967e-09 2.07274908348154e-09
178.4116886500911 -27.368589746872967 82.67890373724387 -4702.763031713598 -3.4733121934138467e-09 -2.870858217818295e-09
-204.5299661265627 157.83251350877316 119.8001048955075 -5132.529289419847 -4.3655916104334835e-09 -5.006461023526754e-09
-154.9651566424999 817.8559814752524 470.8312548399862 -5901.345900154188 -4.533828312780486e-09 -9.768228892426123e-09
1145.7788125385619 -1496.7992498247486 364.1038403486026 -6093.788011198198 -2.3010544580870373e-09 -7.099759002926476e-09
-1600.4819580712217 -12986.857160515452 -3746.331322443957 9.361000755367979 -2.4864430514526248e-09 -5.955651971589759e-09
1101.4286433743364 -1499.2850595177674 389.2288892111475 6113.767899475646 -2.469648985314876e-09 -9.178661386499698e-09
-247.0294987714747 812.9109533391336 519.2373919798301 5925.423614787528 -1.7828768600347544e-09 -8.25705015472522e-09
-350.8327584059851 150.44950907734085 186.96381514965339 5164.595855236298 -2.6458960578068513e-09 2.300892809614652e-09
-31.84342490224182 -37.20848062541637 159.5534003624794 4748.752141641309 -6.002350838585357e-10 2.16178186462912e-09
64.13130299089876 -22.621085937304336 159.78978771597346 4453.839992762302 1.30342781012871e-09 1.3852822000615106e-08
42.603147463019845 -46.37854508564694 162.07598469751025 4270.325232852363 2.4119088948282297e-09 8.715106858403487e-09
-176.34066911592845 25.90463162881708 196.64676036736103 4139.678359513298 9.014312629673782e-10 8.233944637225932e-09
-389.2692713706448 624.9867031809249 432.1938869532027 4145.565301745777 1.2792156223184747e-10 2.7326190199516986e-09
139.12493638901827 100.69461183672627 488.75093183721975 4039.252406109474 1.1836697177969313e-09 -3.5723459745895525e-09
-2590.9343056723797 -8553.409257322599 -2982.1632333471953 2940.9606278391266 1.5711192347112046e-09 -1.7469389490543108e-08
-2382.462556167215 -4728.13261827732 -266.9195959178483 -2326.8557078800623 2.0878354600739613e-10 7.125500189886225e-11
-2243.1113277038994 -234.9327374252691 644.8624320013929 -3402.5920121184918 -9.966867331456797e-10 -1.8872334806019353e-09
-4762.865557491245 567.3011535509204 -16.67376970432589 -3632.186720930573 -3.412231386334952e-09 -2.9982158977759354e-09
-7324.621128255327 77.75945905071276 -946.3083191385396 -3526.399265025763 -4.169351086602546e-09 -6.314708755894571e-10
-9823.167193820804 -2.689684517384215 -1653.7768840033325 -3639.394376742427 -4.56101245660534e-09 -5.462323926508361e-10
-12496.724067176361 21.743379480417246 -2347.113224558174 -3844.9971571452525 -6.7477027299034376e-09 2.72562505898577e-09
-15263.733838407186 69.30976004930561 -3075.22020866357 -4116.48206153626 -5.8172057032512825e-09 -1.7083374714843558e-09
-18546.540436993986 17.32882503288224 -4030.3889703377654 -4455.007025007144 -5.38500144475762e-09 -3.815809890284072e-09
-21811.92585260841 1013.8246421516454 -4691.249662687416 -4834.858141675673 -5.2922205506789055e-09 -1.1942358213445914e-08
-21887.760210831224 99.96421612652564 -4908.35118476753 -6289.4646363182865 -4.90548868192775e-09 -4.623942118087143e-09
-28880.619197042022 -21264.707072588524 -13289.3476847358 8.407435994835307 -5.034919259294668e-09 -7.039390403917878e-09
-21933.76773126289 96.96571229265786 -4870.48608800252 6307.397679372996 -5.069377140287656e-09 -5.62626389921661e-09
-21906.191591536233 1007.8821135545555 -4616.48344204438 4856.423468025578 -6.624233606089547e-09 -7.907979160393097e-09
-18692.753089000005 8.55064623435364 -3921.472290854781 4483.626246623497 -6.446656153347163e-09 1.743825528421894e-09
-15465.244386941527 58.016218967887035 -2938.402103487887 4157.3635165867545 -5.4694581086423e-09 3.3996387927004434e-09
-12755.044017493665 8.873247550154673 -2195.375705061403 3906.67292229981 -3.970443973599913e-10 1.2757738865332158e-08
-10130.53346768553 -10.226698841594803 -1508.5522610374608 3735.253533825127 4.31306212966831e-09 8.795861816679462e-09
-7635.161469258803 77.46478343022649 -840.3983922702671 3673.2951975032465 4.829971533837352e-09 7.464293627634788e-09
-5000.860292844709 489.10070202413067 -36.55207679841426 3803.5131522357624 5.5699143075571556e-09 2.863299819466647e-09
-2417.502862820194 -460.5313903451916 346.1534790251009 3472.8548000483784 4.7367632038941565e-09 -2.7601192442716638e-09
-2366.300483490062 -4440.680936555387 -722.3342260997067 2303.2394361479173 3.975822338020407e-09 -1.5516121720793308e-08
-2566.490798387372 -2015.172940583758 1171.6034451375428 -1273.3848048429504 1.8987833527717157e-10 -1.8740298202146732e-10
-4547.64442617835 -450.6001135572544 529.5347679706465 -1944.8435218193893 -7.721188133302803e-10 -1.2872050092482823e-09
-9415.304454149382 340.30926445254255 -628.8722811939297 -2134.516017311559 -3.1639593167653857e-09 -1.808991623164502e-09
-14813.094659413886 127.02693492666523 -2097.19253827103 -2043.6267714119363 -5.213276033089187e-09 -1.521083703437398e-09
-20025.808490111936 66.12408065306009 -3425.0183413175273 -2093.621192105565 -6.6358358807860895e-09 9.925118504838792e-10
-25274.9378227075 97.61703382043184 -4773.655504054722 -2221.1659842740874 -6.4785553588464495e-09 -9.269696121805282e-10
-30721.549354674942 129.8272482367246 -6288.322620150722 -2390.5561818019137 -5.564524840906415e-09 2.814024568920104e-10
-36184.02584669427 339.82610212230827 -7897.4474389006755 -2544.2694640482887 -6.655919815301559e-09 5.178284467888261e-10
-43653.56827893278 -331.15769588217125 -10485.282900261875 -2828.2399677591684 -6.220322923411459e-09 -4.65898875035009e-09
-44721.57828895421 4910.727218250723 -9339.212036398967 -3764.2075667348054 -6.430807109047976e-09 -1.046607245314135e-09
-59376.244428497244 -31862.621218643962 -24746.05407694256 5.449798290626996 -6.690445308876747e-09 -3.1474334249992353e-09
-44769.96930094955 4907.232254691838 -9288.260150794602 3775.795998924788 -8.556587882679878e-09 -1.2881224975558325e-09
-43751.6741917882 -338.0792169406656 -10383.388014262122 2842.0538442268416 -1.2304848251432077e-08 -2.2072343952572737e-09
-36333.08679844915 329.6927662543581 -7745.390760934908 2562.356235525662 -1.1787480769243075e-08 2.2220358886215763e-09
-30919.517962600832 116.96519133262514 -6089.325450722457 2416.0091639349303 -9.983749882369608e-09 2.099843854352912e-09
-25510.00232227033 83.93452969701225 -4535.722632662676 2258.9920214625354 -3.3753519979029534e-09 7.321849793129331e-09
-20264.2768731496 56.254328331015905 -3164.303683729064 2152.1745621275977 5.2793320826083345e-09 5.458591800788781e-09
-14994.26034056957 114.83477999447386 -1851.480685532443 2129.2481930701274 9.54198364766512e-09 3.562670602974549e-09
-9498.572674123234 277.62244645737155 -493.4884131407183 2219.1175215869503 1.2173853924934974e-08 1.4620704646972627e-09
-4576.420608606318 -558.9965172592989 418.6641789459104 1961.9710589578804 9.715142468280646e-09 -1.1930114673930348e-09
-2542.7731681183545 -1883.4336522993513 826.0350552241254 1239.8766203430164 6.816463837822084e-09 -9.849756565927237e-09
-2873.5359279627187 -1138.3130882861017 1723.5185672021616 -505.29726319278757 2.48316922579761e-10 -3.765592282434227e-10
-6421.468123607025 -741.7930383516128 406.20240558117126 -768.1673286051222 -9.111928989113949e-10 -4.917026785733469e-10
-14402.746751543977 -800.4371417299349 -1671.3967027511235 -805.5841752740985 -2.6444162415373285e-09 -1.4211138932296308e-09
-23120.34460997274 -1637.341659019291 -4083.6603413161033 -796.1418305154102 -6.665327845212232e-09 -2.523137254684116e-10
-31223.230509616387 -2317.525792504807 -6284.222333720181 -830.2108011032774 -9.848218240904316e-09 4.46682690835587e-10
-39277.57003613177 -2910.426512651242 -8569.939989186962 -896.1987550737377 -6.38310115874674e-09 -2.767762907751603e-09
-47655.887808711945 -3619.358933051538 -11204.489503303597 -964.3932893416569 -3.397244263680932e-09 3.558909611456329e-09
-56078.93806301714 -3913.637044421195 -13994.512444928485 -1080.4886403876944 -5.468841379752121e-09 9.802008094084158e-10
-64759.169232074964 -5870.700622373176 -17585.198398475426 -1138.3403353677313 -6.54475940109478e-09 3.837062223510657e-09
-72125.72996990966 1511.9495617499533 -17996.235591112032 -2439.689796024534 -9.746786489017722e-09 -3.340616672176111e-10
-100296.55159521016 -48151.5636052713 -41541.10680459287 3.148795838451761 -8.864825318255498e-09 -2.445773361614556e-09
-72176.79413017756 1510.2114633225858 -17930.730045006658 2446.3872005347653 -1.0708401276815493e-08 8.460645517516241e-10
-64861.83610144175 -5873.762922649394 -17452.946772864332 1146.3040848067033 -1.864033905008e-08 2.3370461121885455e-09
-56232.42136599099 -3917.0341904067805 -13793.705421242628 1090.815468357144 -2.09694075437028e-08 1.5670948982915434e-09
-47853.5105025417 -3621.0293032614786 -10934.104647251657 978.5931013151929 -1.790876824614429e-08 3.93360721773206e-09
-39495.51838817996 -2905.166052203357 -8230.917234195742 916.4035083964932 -8.072770896205839e-09 5.071356667940563e-10
-31399.657177570076 -2294.9876958600166 -5881.3774968460575 859.6178120014166 7.154810077736329e-09 1.6507399891452224e-09
-23155.59806015452 -1593.2209967842878 -3643.4655563573633 836.6659888789626 1.6138386627062573e-08 6.717044698234531e-10
-14265.50141517011 -766.6686041500809 -1299.2103825445095 846.4868179279998 2.079771377339057e-08 7.867626550250861e-10
-6253.877433872732 -728.9028570097825 518.5034000765668 782.7518384855128 1.663218895942009e-08 3.04964942188235e-10
-2760.207568597604 -1025.0495592466018 1514.3573788261795 497.6677348571365 1.2009849115202087e-08 -6.00641669734614e-09
5329.70100419326 -19541.93972057699 -4263.67161491512 -251.35860228760853 -922.0429242889247 -80.00998571199473
16956.721996730685 6961.377694869974 5843.817105979864 -1729.5112574076452 -1257.0858772905474 95.92969006047248
17567.934170760764 859.3493293803454 2984.8706279145836 -684.3278795714575 -1183.0997286701904 -92.66377534477196
24448.572142453202 1864.8789202920118 4224.56486178241 -781.9763001204121 -988.9816307445345 -106.92436237003429
32185.19446161492 2233.772273448928 5787.129451245041 -819.4170011322417 -635.9483029635651 -147.55302046438084
40122.54875811018 2856.3591103243643 7745.057086731153 -860.383037543093 -193.81984829128518 -189.5741538204977
48139.220010035955 3479.1415397134892 10027.723079583926 -915.6424490653034 305.8943322149417 -228.93629612114742
56695.26932122673 4243.1199908343515 12844.039664667855 -1020.8114801583883 783.2781330633891 -246.64345602741832
66380.10836622644 5097.1316612646415 16342.079847208957 -1146.0508558727781 1050.1194457085285 -207.77988263824412
75927.31259440279 5376.247315805372 19798.977727698355 -962.7327454671749 815.0763847512038 -89.98725123471422
80038.89915117058 4649.110098835377 21108.74142974253 2.227446061857904 -1.0527676219542847 9.881405759649326
75903.91825517894 5373.628213929722 19788.147929802544 967.3236314685723 -815.9710834701995 -88.7096583487523
66329.22720869955 5091.609314351619 16316.92354356467 1151.0626029860484 -1047.2481293947035 -205.23995896775494
56607.971212847595 4234.075556421654 12796.871497458009 1026.5967188722957 -773.4987508130529 -242.97009001894847
47999.801977637275 3465.3462688546765 9945.107412476616 922.5879592912355 -284.30813644004377 -224.50966626507395
39906.616219539625 2836.579144852766 7606.654936229658 869.2743804915383 236.0523618961179 -185.75173125229168
31851.97771105878 2204.2890366270526 5560.424421995003 829.7788253732822 715.6722714172829 -145.3208503567862
23945.58100349585 1825.2203547905606 3873.3881235593235 800.9636506254845 1125.359485572792 -116.12925337756506
16650.93021650631 755.5217279567397 2364.5268717375275 711.4316549533132 1393.5464826192915 -85.12841380050929
14645.281656322122 6502.632583740314 4650.430778051502 1690.1502921200877 1268.5151285867717 -68.5184979281082
1411.723608871721 -20633.123918017765 -7253.307289748049 2170.8144960547083 1121.3138710337084 669.6925522900437
-2577.3550235965363 -19981.781201299116 -6964.01095799696 -428.75921065634213 -488.1661885222389 238.95877049076114
8381.316162069756 3636.7493795510036 2994.894400674391 -1962.8133855716837 -591.7773955164579 201.02463141845558
10528.852796771696 -261.8551271059323 1492.2712716791302 -1769.936591578951 -740.784434961252 -22.239251676746736
16065.429278819136 49.75712374010408 2445.3094574933125 -1950.7317915770332 -619.3427417962248 -56.19554556703661
20928.7132003212 -121.39003324697488 3231.608178278413 -2062.045876322327 -392.3272364334435 -82.0969064147389
26022.780950165783 -157.04207602634392 4333.713243631079 -2135.4131245397525 -104.88937735775441 -94.8850866078925
31175.63281085511 -176.49935231612133 5670.373573588972 -2255.243855633525 208.8931331672344 -82.71472172922671
36622.876799802216 -102.66451522123735 7343.594248013425 -2503.2763068325794 498.60307415997465 -14.884981323093402
42550.79098650808 -137.83268829620576 9329.559920978594 -2864.963193954009 656.2640158707321 157.70755316675243
47859.74163473078 -1363.285128124243 10891.948840930381 -2510.748557062811 511.8205373973988 446.44754156889536
49499.37473382479 -3844.2979428259464 10855.181058346432 4.320152182567373 9.452208192113735 652.5399448920308
47835.81110164892 -1364.2323592290986 10892.287720299122 2519.7843905796753 -491.12687044931306 446.7508945617699
42499.44032742531 -139.76765492073088 9327.476905661957 2875.253016142694 -630.130536786877 157.99899660913778
36536.67790063862 -105.68191243851392 7332.878477475409 2515.906944600084 -463.0304760514297 -15.421319339755904
31042.299196415745 -180.70010820248038 5640.09860509954 2271.712015848186 -158.88104740321705 -85.81057751256988
25822.834964243633 -162.4468164779115 4265.893615488732 2157.8445037762235 176.9592377435712 -103.90208993233327
20634.763074482977 -126.72318009933902 3100.5005828526296 2092.8509995604986 497.84067196405584 -102.39591613460217
15611.969090514229 32.0021725873684 2197.8949655744395 1998.5609803940597 775.2014498395505 -96.92691228303916
9791.998895852814 -281.42839513622357 1067.7639213128639 1862.2731635917337 921.3639432834805 -85.66982126803747
7605.924708412824 3500.6139115913466 2326.8724471987643 2133.730192117307 662.400817523973 24.839631868468043
-3109.7030123566005 -19707.742817426526 -7970.533611543026 1612.392550562564 433.16382439082867 866.270596349253
-2914.2257800171014 -14332.794338019217 -4820.744875153098 -2778.8473823407144 -171.26693420795246 823.8427370448729
3808.0218205953934 1814.9699375104904 1714.4637905655413 -3416.4222160976565 -215.4627764525011 303.84381082782073
4919.400861241838 440.51592676112506 993.5442892383384 -3184.688477688118 -301.4493338571018 77.4329568884309
8005.060589412369 -89.28390182170138 1238.0600317820672 -3441.1932063281292 -248.85677545696572 1.1086696562802363
10658.112141512704 -82.0520366253393 1673.3872930809919 -3574.6042042847885 -121.06739660533623 -9.443171296238745
13140.608596896573 -125.9099581184704 2186.0036974871705 -3701.3776846425885 30.410659706108373 13.819738887176817
15633.457781967336 -146.191564434573 2843.4778252179863 -3891.7572313070054 187.47530761117008 90.07815819607335
18168.018236423926 0.4030568760915152 3690.4699615072373 -4262.289345483371 333.73811697073546 260.01490707497493
21083.53154004675 203.13569836954127 4785.641351652506 -4905.986162428939 433.9022809174604 584.5356065904663
24009.31628064089 -1692.271512558724 5364.301452486188 -4552.22993552204 372.6089660237058 1071.6966005886788
23773.187633421017 -7279.830111302954 3855.17471120173 6.9708014267240905 19.765759752149858 1423.8252483488504
23984.45519053683 -1693.5310573407417 5374.9493089188045 4566.8303887222055 -330.8257972971871 1071.054929082933
21030.92412061849 200.61343786883828 4804.790731600936 4922.681612609449 -385.3996405650131 582.5952787731945
18081.82586866347 -3.3772774134049044 3713.163732241006 4282.9114016004 -274.1222533954867 255.16351633587763
15504.443256602939 -151.25904201197685 2860.457005302405 3918.9140238847713 -112.27704580940978 79.05490593410887
12955.522899653768 -131.51169691779432 2181.805858724784 3738.8257241086594 65.37371269436558 -9.243427697128574
10396.24288369465 -88.05811824738457 1622.0342274117663 3627.766964962501 244.1131008676532 -54.543479445423436
7625.456732204246 -96.80454855766514 1096.6138980573978 3522.4195205156416 403.59176604589965 -77.05953430900948
4503.21991017898 452.5239401065643 747.9118234617807 3331.292829272201 456.1045000846097 -62.718065312099945
3383.7369681701007 1474.865069494393 1157.2157587328556 3671.9210346170344 259.46179687560686 183.78897471280635
-3063.731068755189 -14121.53144416689 -5503.91610531438 3040.4309980015223 116.90344120586417 1274.283043617678
-2615.6226766942914 -9099.719151009247 -2420.5433388533424 -2993.9277324304567 20.392145498431535 1056.3463691651689
408.04423186292934 414.823288181304 975.9007997765036 -4004.857450321844 65.54653373005732 356.88168321458534
-134.2717756991409 682.0015585373823 520.6540931537397 -3973.192101646763 93.83463938855733 106.8474823327919
148.8767551561205 25.606647030540827 171.56556669986713 -3958.500165029667 120.42730773487138 20.713805086714668
315.671496259064 -31.381221467677143 101.66524897803056 -4075.864838157727 157.93356200060944 6.398910179666505
252.62388131756686 -8.571739454274017 76.33089565708158 -4219.945976726529 185.66868128385042 40.68822908744451
91.48523755108364 -30.358315097930493 67.71234332205137 -4439.001729444051 200.5554411272207 136.44200086687772
-274.6657615563391 140.93259672274542 97.11241753107701 -4755.111329058614 219.945449083656 332.6174336414375
-223.19409716837671 778.1191525913222 429.1329843270075 -5450.881157434127 275.6216422416835 690.2576062798072
960.8640250029378 -1576.755710848578 305.12331276147853 -5693.007460940377 292.6946660982934 1245.468362207473
-1705.7195245820435 -12762.27414511273 -3527.4101767324482 7.899674595172752 30.0497037483851 1699.2534006122416
935.1907683125963 -1578.4042054023098 326.11297858294745 5709.55528675414 -229.92520851005807 1244.5393827762543
-276.7895762184177 774.8509172655549 469.579575660185 5469.806600788697 -205.0129508330986 687.6329459118871
-360.4266170995602 136.107113275253 153.25002905239967 4778.484061265599 -136.88141009393567 326.42635417822027
-32.266824876710615 -36.552760453361174 132.0519927920381 4469.790905432102 -101.45899172816061 122.9755343688596
83.8485821132196 -15.302397554384475 135.26957608077683 4262.70106499359 -68.45212586577625 13.054300945630136
90.3276180634259 -37.321182986537934 130.79360715561123 4137.866047558945 -22.423812832245 -46.54288975124717
-122.70308348567558 32.2463788093199 142.538982672957 4052.8856892146005 27.058120236375 -74.6404148928287
-383.9919986076556 637.9328976297072 379.4468691200522 4122.288240249709 28.237997683484306 -42.27649818153633
178.08907823880745 147.65195612673384 578.4260947149513 4129.256002044588 -39.81430740178961 269.4612080514517
-2635.364156933458 -8869.438376703434 -2900.8883296668514 3046.4555064926644 -63.241023943635355 1349.2690970337674
-2477.290296994067 -4824.0809712210885 -331.93768256236166 -2388.727191315234 181.74377479884322 992.6654542768465
-2366.87099211457 -300.2090792470583 658.7972939699372 -3508.380269556963 324.46668517414605 304.7577705244129
-4947.327236736342 567.6665968043096 8.460691019979443 -3700.94526312046 475.4447080671362 91.08030337513951
-7514.3601106487 122.7431068578196 -847.8232654229101 -3521.1576183720967 486.72766396344554 10.377588043060184
-10014.951533194964 58.03642708451831 -1459.623186431423 -3565.9233103766414 438.6449281559641 -9.87679351752955
-12673.026157725631 94.86632618752188 -2051.6264363595164 -3701.411721205368 342.91142074311267 14.019479269497975
-15381.160283403226 153.07955476596757 -2667.928148319584 -3885.162547184658 216.2842136754838 91.15962408664004
-18527.65838890751 117.9417967432923 -3489.221056584155 -4124.9481151272585 100.74849056001659 249.41550772055615
-21590.324122555558 1113.9818382626622 -4027.988667574113 -4456.792775495389 88.04136549134203 536.6202544009022
-21665.41065305026 134.0495236554636 -4219.274193932088 -5913.20842913706 184.4462476230259 1045.787799071949
-28411.61930419538 -20688.524687507143 -12049.711210903122 6.994488216152495 40.53581134325565 1569.7408912562516
-21692.0626232757 132.00330210396007 -4187.794608989321 5927.857441526735 -100.25931750432491 1045.2288104968168
-21645.281291712072 1109.9364685634957 -3965.933038013099 4473.534917372692 5.189613241820882 534.8495691050846
-18613.642943572402 112.03375604645288 -3399.111311747227 4145.591706854662 6.42785966946339 244.84269076788567
-15500.584599838814 145.69453779499514 -2555.4039025905263 3912.303965568801 -92.36845226042672 80.59311444071413
-12826.702203323403 86.7791178020737 -1928.3137326617311 3739.2965799069725 -203.1534195453433 -8.504314266401707
-10197.487179099062 53.855144529503036 -1345.5214742513272 3621.7595232994845 -289.69563731299604 -54.97160553351195
-7697.798650160166 123.51153751403687 -774.4197059554908 3606.4158763959144 -346.0987369345859 -73.1484941090346
-5088.240527059058 516.8066255245022 -25.47617985517415 3804.366266546507 -380.3545999585043 -30.040770542984546
-2477.3071265115227 -455.463545980094 415.62814615970063 3554.2179569677583 -311.4750778493611 240.12352679342624
-2474.7619797842285 -4664.007782767568 -693.6768468947396 2373.377125493184 -216.57525042479116 1181.9768206095205
-2748.553602079408 -2147.1484328100364 1091.1609607317157 -1290.6883559501136 385.40055378809325 600.3577999319052
-4732.0900988079975 -545.0697362597566 588.0922037894283 -2007.4398705328124 620.8213074064392 132.5778096802089
-9658.214021269703 317.53888030354074 -526.1943218830256 -2182.7315572433135 874.8550965237366 17.8332737972529
-15091.765865826266 151.58596095298907 -1875.5351832737915 -2047.13430874676 855.1936300920764 -47.14872504211429
-20340.657213241033 107.32040898858234 -3046.2789077434672 -2052.557623235903 713.6899578993462 -81.04806484068864
-25586.35271552011 144.5343741828489 -4211.840954298062 -2134.936880420021 484.2655117628481 -94.40415899467469
-30937.749746058966 183.5764289993063 -5501.431672996296 -2249.754618579494 201.00260338603513 -82.01675088225855
-36171.94856746224 399.6652829760192 -6847.680333742602 -2348.134038923176 -68.6585330292974 -25.921684673179122
-43187.751033823035 -223.16776187109608 -9130.04280839904 -2610.565753201685 -211.3029814104153 93.91527509313723
-44160.206985808785 4766.710769812597 -8046.109166829841 -3546.391771816228 -57.97200295193254 416.1682990858652
-58235.29313821748 -30886.932079665683 -22497.47119717293 4.370290749664219 51.45374160232691 1009.3611501959807
-44188.28914980905 4764.330313896286 -8003.883167995969 3555.5325260912423 164.53796322769352 416.6478025907961
-43245.05963894515 -227.87067136546844 -9045.81497316331 2620.9698725548415 328.4372627805861 94.56038061968759
-36259.87155559611 392.84625819597073 -6722.61487643397 2360.871735079064 201.8629501910849 -25.90546301007297
-31055.83262600129 175.1333408627532 -5339.203962602478 2266.3544456063437 -49.23484856894251 -84.28325432955066
-25728.036922200197 136.06751650588234 -4021.0081314507747 2157.872339211182 -317.1229835187891 -102.24656400289629
-20485.34914647303 102.52244122929885 -2843.6523501078373 2086.487423733333 -544.3216691380309 -100.97673583400386
-15201.87242481502 147.07472112544232 -1695.6303187666774 2096.742042694711 -712.2818633816838 -89.06739155983821
-9709.555771331596 281.25476009872733 -441.24994710534924 2233.3017970165474 -799.6052968994568 -44.03725183271069
-4754.041163553158 -615.9380786950768 486.403877727167 2018.5704704761527 -625.2382897916932 99.83393445936596
-2742.9813777150225 -2074.035769997492 819.5921863691434 1267.8362308098333 -426.9944846544513 706.1816640978988
-3070.7132348729997 -1247.7456745508032 1802.7703601652265 -503.1205941076536 742.5835032159437 308.1407340010844
-6637.567787559621 -830.8525120416053 597.3237122469532 -803.6746875029205 1023.266297125127 14.04926788490669
-14707.339321030917 -827.5236188952716 -1438.026154513489 -832.8819915294679 1307.738235481975 -37.40079676135793
-23502.156402730896 -1623.180735261058 -3689.371301427233 -802.0909848359822 1221.4652564324608 -91.76069124812122
-31670.10630931056 -2282.9338128170893 -5655.593251105173 -813.3270976505212 965.1010049450584 -138.18652163217763
-39723.429917079906 -2858.2353620650415 -7646.266836475388 -856.5233884336433 580.760892220966 -183.8354369031722
-47960.99394051052 -3531.2148934119937 -9902.04806153128 -899.5093505641742 113.31821679030828 -224.69208984319457
-56001.280210868856 -3763.081515996325 -12213.130497661266 -995.0312985750919 -348.3089574276752 -254.93137149227977
-63977.32055029127 -5564.236468789234 -15266.619758464292 -1052.5697831333177 -647.6864188972354 -241.00328747754577
-70888.46160942415 1558.7235047678744 -15642.34789310201 -2318.2021491220016 -618.5602309793194 -149.11327495315464
-98236.10968358115 -46716.95064823431 -38526.74375148246 2.2729083723327896 62.961154872443416 707.1579583635967
-70917.90609205255 1557.9781111003435 -15588.249738477223 2322.9824458292665 748.8476595767884 -148.0730752385339
-64036.87384047959 -5565.436204172033 -15157.786912313557 1058.0804732942693 790.6095096765727 -239.00409529428725
-56091.14475229708 -3764.033267410032 -12049.007505730291 1001.8690975432555 510.5161200949757 -252.2085791408314
-48078.16957044794 -3530.479805243539 -9683.682207753123 908.4606655702173 71.25938833456834 -221.80366842139526
-39854.89153182415 -2852.3227472424533 -7378.219785408922 868.7025799499605 -377.8067239625972 -182.07536349958102
-31779.743518524305 -2265.012392446422 -5348.713623233869 830.6358754253678 -761.5077710684268 -140.48708399405152
-23530.03062330528 -1590.4994156569417 -3372.6207219797025 826.1534988696002 -1057.860046030397 -103.1597298770939
-14632.863320253025 -801.1052914696693 -1190.0697410790156 857.9409974484406 -1243.610617755169 -57.23004072592716
-6543.987695467344 -820.8027957165466 653.0020434913672 813.059572993945 -1068.7592577642229 4.625270914641398
-3011.9478667798785 -1180.8632375666416 1637.1746748001729 496.1610828283941 -835.0358565838109 371.5159922424063
-1157.537470545389 -25735.312628131316 -8067.855029603012 -4000.045760434376 -2133.9948742158404 -754.8849635780532
15171.012761895498 7295.292756079489 5314.673161945885 -1788.1824310874902 -2302.6136115401655 236.6046371047835
17620.220648675684 882.8043051393834 2322.937961532123 -639.0301117888602 -2159.7842871479365 -59.11467707243954
24948.615029334676 2163.5523700431004 3541.5099165090965 -694.6054240233304 -1919.1660767456424 40.43278517109886
32981.64807470938 2541.6771189031065 4734.292531802975 -689.8495085373546 -1464.7776518265289 4.149393848932089
41275.60682935037 3246.2897045790296 6225.453213658967 -707.4769106255835 -876.1250365007571 -2.822676215615367
49427.37759447343 3910.6731762266786 7827.87573486744 -723.8507691134704 -136.22247541216595 -13.245825852823764
57461.6311321274 4624.178013552843 9652.207015192 -762.383920479283 681.02679454639 -1.0496336919156661
65367.61078167551 5331.74638669752 11769.41133151141 -801.0571396128105 1316.9142249094552 85.958320838605
72211.70273632334 5643.010317633915 13811.62770662142 -645.0062966038096 1203.301220980557 330.1912180692946
74992.06614049351 5240.273603256155 14579.29893700207 2.171209171372311 -11.391924199388583 585.977258258581
72226.77683075247 5642.171254516425 13807.385241107499 649.3148465321169 -1224.8037173861408 331.69429502038344
65399.88386118352 5330.097172486158 11759.811110147442 805.2065713968982 -1334.3813911595594 88.91133128335242
57516.295204559436 4621.8741922384725 9634.90572582591 766.0443881556359 -691.0452840938775 3.0669054207613264
49515.27317669069 3908.395340783774 7799.357684862054 726.4113304785653 138.91810047252795 -8.348463899566763
41416.86358773334 3245.0342353036444 6179.981074953244 707.617242535881 899.5313913881051 0.2586940876718984
33216.94836765929 2545.707522614444 4667.3068573625915 687.1304373872301 1526.78202188221 8.479540169362632
25335.08142702523 2172.565049334385 3433.012275361897 681.2937778802133 2025.9937842297516 15.681693239224694
18382.605715065212 942.6472543284293 2248.007637207396 614.3295190914306 2438.800465069328 11.6730417466594
16964.537856503004 7524.300734394304 5333.046123722905 1773.1882688187948 2060.598548969325 -279.11154245918243
2368.2240016681953 -24375.91961600979 -5742.387690683085 2363.539071023221 1740.821551533284 1390.7205169004942
-3808.3619073930777 -23498.91140867576 -7120.979717722591 -2566.9373150623564 -359.3944340108751 70.73700156492455
7981.611071030477 3889.0542966102857 2808.443187643689 -2230.062302103425 -774.3043621832124 215.0314118175596
10048.352734498993 -210.6090398332438 903.7728479454325 -1755.784346485529 -1317.286415661555 -14.118003988957142
16137.872756331368 244.13677811283335 1790.6319790418358 -1823.0943114426611 -1104.6445784380526 19.014880031877517
21250.456693015803 125.83078498487825 2347.611371746494 -1877.4713298883041 -823.1570004300355 -2.9889964498761348
26575.67988457822 156.5330334061452 3101.1066988211114 -1887.805594497429 -448.58711671019137 -3.664174805207203
31817.525783754267 198.6561100525876 3961.8992000826624 -1904.052555129349 -0.8827838741357805 18.016675334428562
36940.27023291262 287.8360207980963 4972.49661337795 -1954.8755288450482 480.0380989612456 103.44788934169266
41838.85105097052 314.74370693341604 6120.765070547858 -2026.7636521983188 852.4066605075825 351.1839270211368
45758.92062307261 -356.9898044965933 7004.316526710136 -1662.9630915165267 785.5929960281104 891.7093338542481
46930.31013324259 -1897.8152832391113 6919.731341558137 3.1430127830990457 4.388957254313077 1430.0411232519496
45775.97535068048 -356.3170489157781 7006.239830062803 1669.1525342468738 -774.8176367144991 892.0329020525606
41874.809562052964 316.0678041116465 6123.4852926311905 2032.5385855128425 -835.5673268994123 351.47290936020295
36999.50097782473 289.81695012202704 4973.550276306088 1959.5044485568303 -452.73536079719514 102.77986842568717
31908.475210047814 201.35508953660351 3956.9219123866355 1906.047571484583 43.69015433736711 14.54327714259311
26714.88218331004 160.32524427043447 3083.7401280097397 1884.5279327659766 514.1396464847106 -13.762907240238688
21465.94188892125 130.11872605679386 2306.0914465072015 1865.365410350248 919.3912451000331 -24.084736501911365
16501.24300864217 261.69776988294524 1725.1656176988515 1792.6694012771054 1254.134737515578 -28.759429505648875
10673.295631959567 -200.85299341496895 786.725406684043 1678.052001264896 1505.4929792663017 -57.07302498953405
8623.348618915386 3961.609716620199 2680.8358104142953 2044.6305710615813 824.2311052660791 -156.55050776571946
-3257.0724641262996 -23459.040663435244 -6921.6279156891 1523.684207903157 246.49019321146088 1467.0597960402624
-3537.2368295367296 -17065.051657608063 -4663.651317458079 -3387.9256533633848 56.98733161823566 1414.8875356794524
3483.332649003523 1308.0230895165669 1518.785618838629 -3872.86160756732 -176.99683967142184 212.64350340695816
4569.424903832052 682.6723661764163 721.0139386587691 -3202.7488534720446 -531.5572624454783 64.83687613878935
7759.943620377555 65.76261339144973 840.079430997023 -3293.6605666297264 -451.47385405398035 -0.8994929327603707
10627.645494982087 119.6857462401769 1195.807736276991 -3329.3566141059064 -286.1368488658675 0.7027569450459143
13260.67230544176 124.11322237412357 1542.1858016892631 -3342.376378796202 -96.54585089845935 21.492132637585318
15859.909833787184 154.50815348617868 1964.7696287201054 -3350.382189947614 122.5788875669118 94.58377966408531
18331.98065465193 270.34052201921713 2472.3223398946116 -3386.7843422045894 371.42252723189023 277.5530571428084
20759.12036485691 418.848162046277 3092.9971705828475 -3504.4795292710496 644.0645169381695 707.3171057530973
22880.532755822303 -704.9144003095818 3375.370549821921 -3031.127921890114 715.7884708767119 1600.9666847465423
22724.33245644449 -4363.043635586862 2290.42575173576 4.610219435696578 18.38664726565185 2634.515245049483
22898.825928304137 -703.9723692943264 3383.0160972820454 3040.1705410984205 -676.4503357070475 1600.217665060927
20797.07260320516 420.6866423598204 3107.2299458900093 3512.779935488207 -597.0910524026125 705.16417386492
18392.618906550113 273.00540853441464 2490.672194118883 3393.090538147716 -311.9587986724725 272.4035878672102
15949.041461853622 158.0492382816144 1982.8059667184662 3352.1155626156938 -46.11719746811959 83.14479791840688
13389.054725145781 128.18115616219717 1552.2579080092332 3334.982844366797 193.95652743425896 -1.9438298157661862
10817.460018193904 125.21187156643586 1187.425731059536 3305.569597476513 408.57721613594845 -45.71069157472885
8059.467233516596 74.47893326004971 800.154902325808 3239.5123850069363 603.4826542691014 -78.01627052848183
4920.771502872296 667.6051360223876 593.1074803478289 3076.0780279179558 685.3730484769993 -90.15046519663609
3829.404418283272 1575.6669147991993 1435.9708558122986 3616.8744279237344 208.41023529386288 67.22353345853662
-3382.088570844633 -17044.716801628747 -4761.307754384456 3094.4280468133607 -127.35888853937826 1982.736281860465
-2936.1108643012703 -10798.519291556175 -2357.1016240435342 -3203.349914429015 183.9885030149081 1551.2817135091975
133.54462840625914 -223.35144048123823 827.1230778354503 -4254.8735689685345 175.70338325844685 381.43060050594244
-494.13568384100415 757.9015854193639 426.1272869723368 -4045.679520284027 109.92520982744708 96.23849612302025
-299.3631952405963 84.65209173745802 89.01783404069793 -3821.471474244255 153.66765692902254 23.807296840608828
-80.47379512224421 -22.473086306777688 53.24154338530643 -3820.9282404318633 206.41471046676006 20.400779569289938
-58.39912746620695 -3.0933629361363177 46.931948430589685 -3829.4168893894644 234.25491999531405 60.471780642481704
-93.71184312482032 -21.17104025749682 41.284336597465185 -3838.403405508442 253.44921981028074 157.46997699165752
-260.20407362710625 57.34286059760834 47.42976099132578 -3811.953730667411 302.7171328472783 365.1160141712393
-221.76778413424918 433.6811828900582 210.79074670318823 -3933.923414273388 512.9663783584343 810.8829924686864
509.6788583579176 -1016.3843590440003 53.017011325872474 -3850.4041516197544 792.9208706932378 1784.883255930605
-1440.1149136805832 -8662.725063400609 -2717.074546486644 5.0130302044010335 31.67394486082024 3382.519426211452
529.1179097208341 -1015.1283404645104 66.47793649316927 3860.2304380900932 -726.4877693832005 1783.8230904611219
-182.12287383734372 436.1403385914749 236.7568916432023 3942.915964194444 -437.5000583323606 808.0126089370092
-198.84137993148107 60.93695459533998 83.56478131204675 3818.70298161883 -213.04317516695596 358.59729636610757
-8.105884739682438 -16.507281675782465 83.02451497122449 3839.977125417924 -146.03742191057484 143.6466820976633
56.29541612060035 2.4126114985852265 86.29206517464469 3820.348780681517 -108.38557474260008 32.37913799658148
76.62099660924864 -16.12096266661105 78.37708339230572 3791.954404463719 -65.11902293886473 -33.28858821406
-96.81359699117937 82.63773839315992 73.22414645150232 3756.473470136629 -6.028502665631446 -73.37264948014645
-296.4169671218514 792.2186189866042 345.1923379114262 3915.2971534416265 5.244580429263051 -60.66283282783644
316.3794302195468 9.466473190800485 751.0767943457851 4118.210556423125 -166.07265715940207 286.7927598565113
-2932.2736360209983 -10882.109339118784 -2551.0780097936395 3108.3259622623664 -240.8243112525221 1890.7251219331847
-2656.8402855948448 -5736.341094885164 -528.2395965513667 -2425.3841260451413 310.38090188957415 1341.6749289954132
-2576.914502914449 -800.5028301110033 548.880927831834 -3604.468780027235 501.1295094682394 388.96153574824564
-5344.636747227786 503.4221556669286 70.09632814991154 -3726.1289831330437 708.2101950290627 99.92767725782844
-8152.270080767255 40.709962452756606 -629.8325828387377 -3387.3043368794674 756.8323977493168 12.243924947348466
-10759.45679335901 -118.85153676709078 -1069.839402917697 -3317.2047133221176 704.4360824927235 -4.419859000372243
-13411.5102234684 -145.4293741396748 -1464.9403704331755 -3334.6001839706178 569.4409812602963 22.019260800995518
-16006.955073926634 -151.22627643349543 -1857.0772663262462 -3342.567111487232 392.35611867093553 102.8124856259251
-18755.626826011292 -259.0080951708488 -2376.9780491318475 -3312.703695631835 218.71024924332104 250.93639382583552
-21285.54661562124 320.61285279805816 -2734.714950391566 -3257.127806344096 273.13151855180087 567.1197943807932
-21520.79159190356 -177.2023860121401 -2890.5392816852345 -4117.884472369813 843.901252965266 1304.5779921572382
-26512.556410329813 -15011.186941802329 -8731.828086292253 4.720454575975708 45.24508289381241 3537.8151733526133
-21500.164434469963 -175.65615595570537 -2871.189379912324 4127.176133455056 -749.7598907878523 1303.9874974619572
-21244.12661017737 323.66418246522613 -2696.833729022557 3265.764712392541 -168.41735953394655 565.2850113839947
-18693.438710601764 -254.52400621083396 -2322.733888986069 3319.4966365644605 -97.84325490969361 246.26175190984523
-15924.848032355809 -145.42115149081485 -1791.084455398353 3344.955521065346 -252.66273590181177 92.06881393178642
-13310.727387634795 -138.31628124918427 -1395.569274175161 3327.5144614442897 -413.62138071498657 -0.946077096655884
-10642.239655458368 -112.93880453832827 -1012.4093799203456 3291.535878744677 -543.3462841960368 -50.8602378418477
-8032.559882008036 45.16428767618513 -610.0247186050502 3328.119767265381 -613.2392306316623 -74.59828703332863
-5250.250572605753 548.998687863789 34.804957231159115 3634.595607800047 -622.6677770863528 -27.27231864880944
-2498.4453296176844 -656.4324180625472 481.6393102502584 3545.7744688196417 -504.2779065690294 323.8470442490146
-2696.651951809749 -5828.206271338456 -714.6476810226301 2403.4680967366703 -357.2213830437764 1566.7869122273005
-2843.2586534992515 -2543.6641542161296 692.2108032997045 -1268.3558895014216 556.2361550754399 870.9276214874881
-4860.482252589713 -827.1113064827373 529.7027460019807 -2015.1938261752682 927.2063069906907 264.71669484240084
-10089.818890910481 216.18401950379993 -317.1933106521768 -2149.52295229274 1369.2304298106058 91.2440430272644
-15917.363153657067 22.16839515034775 -1379.5260687893158 -1927.1493850064724 1421.0131181593479 14.431790886040552
-21425.234348548147 -119.11673852350125 -2241.3149047297134 -1864.207240830284 1253.8673564629155 -6.668868037454073
-26753.710712463704 -167.1832953808222 -3035.9971917689954 -1879.1014942698798 938.3956592871547 -3.751694728694467
-31994.63525500147 -206.48479675539429 -3867.9952173189968 -1896.5588172601117 529.9898335921214 23.611153394927584
-36877.88935332578 -120.37025960115085 -4678.704460574803 -1861.3503719205253 113.91938532380307 95.59773942240439
-42609.445833376296 -691.1922547013137 -6153.981787268428 -1920.0942425992587 -255.14956901816342 149.93962696284748
-43319.25065588816 3097.887496807481 -5293.7430426736755 -2600.809859327325 532.5436347752274 487.5558005282252
-53724.086366407304 -23140.32471684863 -16457.41868084109 3.273720103880045 60.09894515384743 2604.279540467204
-43297.26820322715 3099.6547351872773 -5268.453143935358 2607.298938099231 -407.98124108356984 488.13059483390947
-42565.83164220298 -687.6884256543651 -6104.069166330233 1926.283677191685 392.2823963644809 150.73244546275487
-36814.008258654 -115.21445940094294 -4606.149393123017 1866.5871821352093 42.14507516893309 95.71040463497229
-31914.176072067345 -199.79495527199884 -3777.4064466116292 1899.3441168978084 -352.70139388454146 21.185160540368454
-26664.827925025158 -159.52347478508358 -2936.8531152482187 1876.3912082885538 -745.4577735722787 -12.455836223945429
-21344.06629683702 -112.09135532472784 -2151.1918390537303 1849.989672264355 -1064.1288745885913 -29.10929366922163
-15867.338497607312 32.393776870420915 -1323.6796080904403 1893.6943924933182 -1271.0224588551125 -32.8608047764327
-10079.499489148644 253.92830633519623 -314.59292247822333 2104.45804316741 -1304.35360786457 21.80995078463554
-4862.116184892315 -758.583909999127 477.83003153747296 1995.2790929315408 -947.7910029208766 230.75130182303022
-2899.405516327618 -2601.4050675768867 547.6304930615067 1263.7613660794234 -609.307364447909 999.7589408310865
-3052.186541278501 -1394.7655266058362 1466.7313362972568 -485.8027083346716 1063.4252373894294 564.4439019915653
-6697.909583019804 -982.7003520150488 605.4386022588503 -788.6075136840805 1597.119470263963 184.03125845010032
-15232.430154447578 -943.763934851396 -1174.0610552438206 -774.4749443727366 2222.667880576677 99.04322612968011
-24635.702892691297 -1811.5717074625213 -3104.351577676767 -702.2530859056151 2241.0150980578815 41.02910504321795
-33235.59950126272 -2583.902143785932 -4690.210476538912 -686.6124812971474 1926.792942528211 20.414603300646156
-41483.243329645935 -3249.110234407387 -6179.294018019714 -702.5941474455426 1387.1968475252445 6.620167966786482
-49644.76134017425 -3963.44200146017 -7763.737614389033 -711.5440702327646 697.9091548072911 -3.76716435749816
-57323.92402232345 -4328.837528921503 -9285.219275164538 -743.8043396149442 -64.4340529280795 -1.895807308622409
-64205.4356430496 -5789.4503339872645 -11202.3661082574 -765.7559489416728 -849.2806285773331 -13.85897798484288
-68690.72898492629 -280.48861395171684 -11098.329465303419 -1856.2495503322073 -1266.9925432159648 -300.1827094928136
-88746.27179719461 -36345.85962494844 -29517.536933627005 1.5715382096935855 77.32254615115097 2769.146076421268
-68666.60060715782 -277.13933841181046 -11066.504614218511 1859.396651242783 1426.97352168732 -299.1045239671145
-64157.8710579733 -5782.796283342505 -11139.24185624721 768.866008933069 1024.6400928055916 -11.887831191405084
-57255.178335517565 -4319.035438109927 -9192.616695751829 746.6590517384634 262.97788160513795 0.500480264191566
-49560.56250981653 -3950.9486086947527 -7646.441097088139 713.5678438621969 -473.3556265572709 -1.9077142436481864
-41397.15483145955 -3235.616366817343 -6048.268081419006 702.5656257381703 -1143.7414817337678 5.977707763932287
-33176.80340917715 -2573.336769598487 -4567.365114711494 681.9497371303465 -1689.849102207581 13.304500324520845
-24646.78740174574 -1805.6555916698958 -3022.654800079828 689.5039429799625 -2062.687872099468 21.41219523719155
-15320.821496259105 -929.5420422393654 -1158.167275932751 755.8655616744998 -2169.583705053634 69.16011809739811
-6790.7053504141595 -960.6397639796221 561.1765426931495 779.2771012906533 -1664.2292532484485 170.76711167599115
-3149.7846143159977 -1438.0028310116227 1356.8246126814092 478.18898909104587 -1173.878083447812 642.3872529365524
-7662.5833229637565 -42504.452753196965 -15050.11082284821 -7776.635678796266 -3206.0469201969527 4039.9987723574627
16934.530978652503 10893.63037299384 7010.527452109463 -3454.5332861618253 -3337.1149183976804 137.38893594988332
16751.528279998714 486.1204517916128 1642.6167845578757 -1628.5606203108878 -3260.1295671381527 1133.2827512859553
24230.36674314263 2252.8986692713274 2983.970371786593 -1679.4067545800503 -2900.8036524302515 1229.6548605582611
32714.625751877382 2513.6004004950414 4006.825081830457 -1582.7949647431667 -2592.2679179726024 1688.84723659779
41571.77654673022 3304.1682231572768 5360.734431266563 -1436.101636093485 -2036.0773948808253 2082.562563814029
50196.69033472001 4001.085865523903 6708.234165028085 -1199.5907400072792 -1269.9250125294395 2487.122752200843
58336.13894658551 4652.041233859377 8077.34206778051 -874.4345276062855 -309.52812828986936 2884.655015429744
65189.90612147439 5172.803818159454 9332.329422057646 -455.1189997623002 626.6523470951233 3294.457047628758
69660.31990828898 5692.65166346136 10301.414671347673 -84.56358292895527 892.1810743299992 3734.7740581289245
71299.67465690839 6277.903372283348 10823.419738085277 -10.35755649072712 -21.446432399047772 4035.1068894683485
69710.94170304436 5693.250183135706 10305.162250157522 63.310696854999605 -934.6972444657887 3735.815901485546
65301.165730492554 5174.463776758785 9341.13694358585 432.25346230588644 -667.924140723931 3296.522208603087
58529.34278381829 4655.748012366896 8093.8279046437365 848.8434484242476 270.84478852053894 2887.7964657040784
50507.49817100568 4009.0198869406104 6736.859419677047 1170.2492451004769 1235.8172693614174 2490.9158817438947
42051.01141808858 3317.4691216852057 5404.512192271877 1401.5646844700639 2010.925096515136 2088.5243485255137
33437.795984439006 2540.6074083616177 4075.5657646344625 1543.2102172018729 2576.17980519467 1689.4181312882026
25279.75753357772 2284.3203296111865 3047.5731057158246 1623.3649999971938 2919.360644089923 1261.1335531407099
18541.17791757146 673.0924237038724 1923.2430368199896 1560.70286679852 3209.082572831205 1028.7553356440217
20814.293114663902 11578.727056106087 7424.766399312882 3584.3335484922127 4291.050533383363 755.7877691483013
-320.4207417953203 -40535.92022642247 -9250.692030604885 4674.462082175745 5620.638928955276 1566.942663674508
-8495.873489756748 -36867.53268224572 -11115.682308914276 -4991.49814485393 -2648.886302487283 2322.3566809751874
8096.124607663964 5903.972901453025 3325.0406713939637 -4135.889912091039 -2217.992770066752 696.5781790648896
8352.868391737444 -564.359416298256 54.54088252649993 -3441.162975891003 -2012.4255810574891 1221.0984671209228
15116.04694562819 104.97458710846792 1038.0672017241777 -3485.2884181997106 -1779.3282235509641 1583.4909489731904
20449.72499351133 -126.9356896346866 1426.7437566411093 -3406.8903499974926 -1544.098554898353 2100.830933019531
26094.564553641543 -119.95047132148743 1991.0900498283281 -3129.2803355067426 -1216.773338471483 2616.71278313561
31593.882021214755 -119.81892183667699 2593.6835441848907 -2718.946865570409 -761.3614096534618 3135.555392658215
36768.09291914863 -166.7362157891987 3219.224287226135 -2120.4203231181655 -199.25875912741145 3671.0449710956095
41150.283074385465 -218.1822374167353 3824.5095793684736 -1252.525751285318 354.3512626847604 4280.597556497807
44177.14735649698 199.9392593454653 4441.242599755779 -329.6631700677012 528.4595079441943 5045.249355265669
45598.84345410082 1332.9078196222765 5050.68299474711 -18.467156600212263 -5.137331967679561 5638.318890732679
44232.022328057865 202.35310416229828 4448.906597290152 291.55279587449616 -537.711261143636 5045.358681974145
41269.04194259762 -213.14893062175278 3840.7341023216204 1210.8281311512198 -360.5007858762765 4280.676561600491
36969.46815642819 -158.6608765820917 3245.716310980866 2072.528239045943 198.321652522506 3670.797272390636
31907.481149491763 -108.26648944331978 2632.24649779541 2661.9553621338246 767.9964640511328 3134.368367873502
26562.928823986007 -104.9122358354891 2043.5961492328597 3059.9470971611577 1232.5417840567445 2614.1153172759787
21125.40422317181 -110.92943613356249 1486.9676563380324 3321.8313643131996 1572.9902051415734 2094.0703120071803
16095.41596235278 140.1295862951696 1123.5067604385495 3370.460980408888 1808.7773322894993 1582.1123392807222
9725.2798313783 -535.618999466781 88.60484869910063 3263.935801249211 2095.684970596797 1173.5520607715632
9447.000019476127 6194.335149662789 3464.0323796964885 3901.0103214340897 2536.3996612323217 999.1364645180412
-7876.0792513504675 -38073.323809667774 -10686.975142122536 3123.5332159368318 3136.396802563482 943.2611529160051
-6770.2313202759005 -25693.94193008646 -7012.887376896435 -5860.3293956155885 -1612.9745393459498 769.1627430453053
2778.2641104120958 1801.9035044796344 1504.7008483093202 -6718.042615640032 -1262.321201573067 1082.572542196785
2933.9727339802853 826.6847457851425 142.91640803804253 -5859.707135433377 -994.7500926388983 1394.1434471211928
6478.067709667782 -137.24071947624606 192.30276284826837 -5959.556884069054 -806.7046570283263 2019.5991224126308
9715.51397244183 -91.88237026457335 549.015130637012 -5757.153019516193 -659.7698185833078 2665.367349535793
12600.932321810464 -116.70361084599276 811.9786937499354 -5314.128448754221 -499.29665933702637 3343.7190230852107
15473.693180722155 -98.49266220442276 1128.8261132409746 -4655.371990623114 -283.9703654085634 4028.2608613717634
18235.13859703021 -153.5952815224232 1465.2068199434789 -3698.025913571677 2.7615941829256805 4750.335709985256
20588.56491713729 -236.55081618021728 1772.9847915956664 -2220.8925575150192 367.24219647694093 5600.603681427209
22188.78366858004 699.3795827095174 2258.455708606487 -479.33535966976945 561.338973972249 6761.497951964974
23658.95466604108 3732.402470012662 3430.767505737094 -29.51073236815759 7.8957699491193125 7854.522310188349
22245.437187749674 702.2134889414375 2269.127510759383 418.35596887698387 -543.988387235506 6760.888734954571
20709.886501206962 -230.69291580857512 1795.092479543395 2153.9238279511046 -345.2925074835474 5599.202780836437
18437.20810586509 -144.35394132191942 1499.9875261407144 3620.6515119905935 26.56248754760318 4747.703092994094
15780.936516361016 -85.41297527821318 1177.5174786077189 4562.482240704475 322.7143619749552 4023.6839312972415
13045.393721614693 -101.00796597233263 873.6691882613062 5199.7052300984615 548.2430973594123 3335.6046704616215
10336.277472657386 -75.1857005959582 619.9861261577288 5613.687640259028 716.4209603829798 2653.4744108869595
7310.146569295862 -122.90820046265478 256.2895857289482 5767.892523392345 865.097841400371 1995.9213839965162
3766.4234994630456 837.639083407396 104.64557255027525 5581.187319498928 1075.7457125818441 1399.3773787813484
3562.1088582087377 2386.726843741437 1660.6381085286243 6346.765119249046 1382.285541519999 1099.195987410627
-6737.945715463739 -26657.883457390446 -7164.573313251193 5539.338359668602 1769.9306143021408 735.1261916539675
-4953.196181744099 -15526.377244318395 -3709.028708897112 -5419.328534614095 -727.6286747431288 271.2406972853237
-866.5610097495352 -360.3649615891255 578.9142216506134 -7104.516802685722 -412.25581418933956 940.1506748777894
-2005.829103206026 1052.1467409535019 64.58352866267751 -7133.023219064812 -65.02686647058731 1441.4708808413109
-1581.731617903806 79.83759063629702 -250.66828749875728 -6809.67932210169 108.08775507125122 2123.679677662338
-957.327315468201 -68.85237747190229 -163.50738443992813 -6529.729598427148 159.29191179333412 2829.0728391640755
-633.3332479187936 -28.00842513537731 -86.54120642142999 -6023.649918458981 173.25550499713222 3548.2268551472016
-329.9201718768069 10.53664824386442 -5.699212972348022 -5288.155955170779 185.92447938313657 4283.29734367124
148.03508344270483 2.1207794675249545 120.96761539040138 -4254.148225794835 234.27531179705218 5048.959792187718
583.4679723305494 -226.60137904078147 148.14650412907935 -2562.4074668228686 453.5355280552166 5927.136740617996
597.6314745158725 1114.4267135239102 413.30311397989294 -158.74340368918214 737.2700380298318 7187.3507949551
2693.412280398645 7904.907623995459 2810.9454293714975 -33.133777038658764 19.608256747703997 8811.344113985655
655.3075541119478 1117.7654860813832 426.9158381272222 90.21756484664172 -695.9928936614416 7186.51919373557
705.7409028583995 -219.804392709897 176.03486639731085 2486.974122008308 -406.24814090543094 5925.265794817323
348.19382111019945 12.58654021092957 164.09335577354244 4166.72547244795 -177.66037379763372 5045.575932716449
-33.4450375262835 24.684903679964833 53.062124879659365 5182.775339735862 -118.10992379945831 4277.474098788283
-219.62453260108248 -11.91840513513263 -14.178286368473948 5892.831287677038 -95.28464069686409 3538.542889872931
-407.2032776583384 -55.79140618254067 -85.01900801316202 6363.160769204969 -77.347595182907 2813.0467723370725
-945.2424535614891 71.74053214967076 -204.67118490133404 6591.926204680053 -31.82545498795716 2101.4638541335576
-1445.5442332048672 1159.0195826734623 61.895748127324595 6858.261923517632 128.02809296708614 1429.2572486833083
-416.14033871670324 55.60198490029319 653.8820390600521 6942.696359695979 465.12514176983564 966.4852587406168
-5046.354459770982 -16271.807949293136 -3948.939982518935 5367.5786318316195 793.3453527185211 425.13172117274917
-3889.277080004671 -7771.600453016622 -1369.5220641106357 -4118.718595269985 10.682018490967387 214.17146120203637
-3654.3320214228524 -1034.2851774886212 188.06011658824187 -5974.543421852362 386.2333035042496 729.4777187039041
-6736.845687198438 843.4980809979407 -125.80508514650725 -6563.435272231767 876.219857156221 1332.6340338848988
-9371.918114412394 194.8877484802201 -657.4116942752397 -6117.132750629529 1039.3662801616622 2000.7208381440516
-11585.296756004574 20.35042298067161 -843.1002189744943 -5762.550028607985 989.6333600537714 2671.582507199818
-13879.743572673846 62.05225310821281 -989.2864226287359 -5310.689426512529 849.4367908416227 3344.301020748443
-16161.267167361344 83.07442444579085 -1160.5886710121672 -4663.232996142924 668.5176858996562 4035.515650180943
-17996.36145538176 238.55687255547784 -1211.5298492853822 -3742.105176420204 453.4897533250219 4729.668135056277
-19325.194391754852 -156.88052916871945 -1416.7394543461314 -2378.5406154579077 403.66183096299204 5470.501600789198
-21407.425790808345 399.56195452453176 -1916.9220036359159 611.4255605677128 825.1096760592574 6496.108732464512
-17503.56901608893 14305.133097964324 2884.6452861920366 -29.823797437673363 31.5805081056558 8614.238572884351
-21348.44839008282 403.4845346259782 -1900.2674192421657 -673.138319825111 -759.3316510599145 6495.555963672052
-19201.430599705418 -148.99384493044124 -1382.848751320446 2310.5236864097274 -330.30743598154584 5469.223590247257
-17797.38177324768 250.38903230205642 -1159.7424172135375 3663.1898551988065 -368.58695978514237 4727.255630775993
-15875.076325685484 98.35001064463763 -1091.3851801395986 4568.053236359028 -570.3320604597272 4031.1871822395256
-13497.691168356949 78.7312750950054 -906.2511750624576 5192.09597243417 -740.7486142242525 3336.6907556577994
-11119.004674119495 28.3881392575787 -760.3571276186581 5610.639725741326 -880.7212141358675 2658.8688801095705
-8894.50583497405 196.10058042453232 -605.9558991759378 5922.961215369937 -949.4747918343792 1983.481111598192
-6363.3335798445005 946.1078546246442 -109.7388530215085 6375.2448634958 -825.9496061276409 1321.0364905666327
-3407.1087408823287 -802.9749213813137 211.82522959021045 5929.9712331160335 -365.7313559029343 761.819774978114
-3965.8586847504857 -8218.892491150244 -1545.9537447539922 4148.162683448222 11.566849257278847 358.092310198486
-3621.8864738693096 -3110.003678832223 23.367669850013726 -2280.4184827190643 659.4947212813331 313.85026286540966
-5861.002387815654 -966.7035126198231 110.17767858832843 -3442.2115391058137 1202.81157691315 523.6713095197122
-11384.044235165287 485.2842939799269 -438.2238459155106 -3943.084095343106 1918.16632699405 1047.065109389367
-17143.95387296938 207.51818354575124 -1207.2757866047948 -3666.69318334357 2071.8052183709865 1579.9383659141874
-22368.7381627149 70.3681468841467 -1730.0874475121932 -3413.2968500287816 1901.4885399252362 2099.0778118032667
-27394.645843196846 75.62297104206831 -2177.0332040748167 -3129.316785240503 1583.1411451386325 2616.2020885547945
-32244.752350562194 118.73685664826981 -2613.569684224572 -2727.133767147423 1167.7477802172275 3139.195640079968
-36908.806933345164 70.0487018679341 -3122.2774415804047 -2185.0847809024626 691.4832961828791 3670.0509922917213
-39566.59523117539 770.3395388618633 -3042.788197822477 -1267.8684614989904 7.201934109517126 4113.14064709484
-44667.620419704566 -2695.0294393996696 -5603.299258761198 644.4865678363212 322.17487221325854 4699.898073837639
-36973.249642003866 22837.637756020835 3110.338603286311 -18.86922402200321 45.41751908314703 6246.09126351126
-44605.94877706697 -2690.5186595141063 -5583.326440498628 -683.5213682186335 -228.01479014450175 4700.0726568466725
-39438.52323636471 779.3520290183051 -3002.367885655631 1224.893058383691 96.55340389645507 4113.398666936857
-36706.710554489786 83.35499484689672 -3061.1298001546975 2135.3613050571025 -573.2218060447832 3670.1633165616204
-31962.78787887776 135.51810848054012 -2533.1824731579754 2667.4567210137793 -1033.1266648943042 3138.682325256762
-27039.387668235926 92.54281471655626 -2084.216522068556 3055.5724503399974 -1436.4451792644275 2614.178808478254
-21979.641958992004 80.36935675529276 -1642.7591106937828 3319.551471658198 -1758.2108993178726 2094.447105753411
-16806.052435362206 218.96971037755827 -1151.788203275112 3553.162021703571 -1963.0453037537493 1572.8309321482986
-11174.681729690192 556.8172896633782 -420.8865246469382 3851.5359924159934 -1876.70659695932 1044.024740353408
-5769.303603200677 -860.0797288443406 103.75913629803001 3441.3270784760757 -1210.8510941908412 546.6173790190606
-3681.7447897918046 -3303.770750737929 -75.40488571001538 2310.4806910930165 -675.3620758189322 407.16270293148534
-3163.706623440983 -1342.9529573885852 980.0932451685346 -1124.3973890502439 1320.296844387032 378.7933999650469
-7103.646657170617 -870.2703094799012 306.54922545761735 -1612.3977523021874 2135.8953943056426 437.9768386301488
-16268.679971940019 -685.7062430098354 -1284.0285110917184 -1812.7972900849197 3169.2851236317647 869.5482309618449
-26134.450625973917 -1777.2293694774971 -3066.656534458427 -1742.9985241564627 3308.8658828327298 1294.1267211585198
-34752.00347115513 -2639.597946396416 -4388.833405465529 -1620.7749100791655 2982.5583220093636 1696.7127111893947
-42898.263606245586 -3348.3446654022378 -5563.16489818733 -1454.1083701425937 2434.9360215539245 2095.0638222218554
-50805.3134731028 -3960.9020957661933 -6705.562552532003 -1235.5764976708306 1719.0269620986282 2499.101037773904
-58473.500506986806 -4872.253737318331 -8011.603846379047 -905.6840496790874 868.9715214096038 2868.617282612415
-65308.64055669337 -4542.519747190633 -8951.080858130374 -443.20359690658506 -351.90207085766144 3306.184072872327
-71358.08508673815 -10786.874204411119 -12582.664703887836 1231.7436696181862 -2555.211243465722 2969.1818740170083
-57716.92255546413 22815.066834869118 -1375.372670726801 -12.192501291031476 63.1527179798411 6123.303530980127
-71290.06315355917 -10779.83525773996 -12557.947341062858 -1256.9316134919204 2685.828744196704 2969.5381828213544
-65169.03393774454 -4528.737019250377 -8901.493862616851 415.6259663757046 494.96107559907796 3306.7951017082637
-58257.61480766507 -4852.6495157077 -7937.744979029625 874.1813661637215 -707.1148939948539 2869.252022081883
-50513.80639833791 -3938.0113164943123 -6611.088752939976 1198.7680010675545 -1535.9751637805737 2499.340873908929
-42553.677100597764 -3329.4605712384828 -5460.415644118946 1410.9757759045435 -2236.3155187811144 2094.2881772870032
-34428.74792963611 -2639.058679135803 -4307.398439717301 1570.85337575817 -2789.7817152937587 1694.5006421169255
-25961.180393374845 -1800.796785987383 -3048.3333766101237 1689.9197626644423 -3168.058540789626 1291.365656925698
-16303.30517595769 -694.3860597366787 -1335.2248610990955 1774.6127187486734 -3134.8733613851637 871.3280763300318
-7217.528121145785 -862.206737190006 237.69880216784435 1614.6921062161941 -2187.1059527753823 453.7420390480645
-3303.2622059738123 -1460.8491174260107 896.9868005095364 1133.5142577854904 -1392.3988626151224 441.0463304784989
SCALARS Strain float 6
LOOKUP_TABLE default
0.04573231309321509 -0.16995545004469156 -9.98821251402271e-18 -0.09628215602522366 0.03969391424928073 -0.05001903242005578
0.05506325538538604 0.017667204018084817 -0.006371052158831558 -0.04277041211425304 0.041316660894124856 -0.0017010058734796235
0.07672812909046192 -0.023962490797894323 -0.016803227785480494 -0.020163131489607713 0.04036350892642879 -0.01403111977784431
0.10790145728924339 -0.028149535548356773 -0.023623853580528494 -0.020792655056758685 0.035914711887365176 -0.015224298273531547
0.14646903860529467 -0.04048968976005817 -0.031245917923179174 -0.019596509087380264 0.032094745651388146 -0.020909537215023175
0.1855824083350854 -0.051312309858191074 -0.03858118571284517 -0.017780305970786597 0.025208577270214538 -0.025784107932933033
0.22373283012166295 -0.06223995944939631 -0.04548142235732798 -0.014852075828741889 0.01572288110751618 -0.030792948360452533
0.25960630455284983 -0.07272382414498921 -0.05151958088728076 -0.010826332246509534 0.00383225301686432 -0.035714776381431425
0.28970650547330773 -0.08182793735710972 -0.05607849314189891 -0.005634806663726288 -0.007758552868549403 -0.04078851582772136
0.3088671428943012 -0.08712318433510705 -0.05859274666753046 -0.001046977693357167 -0.011046051396267987 -0.04624005976723676
0.3150917986843713 -0.08742392831550083 -0.05928501747934196 -0.00012823641378992734 0.0002655272582279014 -0.04995846625042317
0.30910199034751057 -0.08719800477507708 -0.058648072931868904 0.0007838467229010753 0.01157244207449692 -0.04625295878018928
0.290221359592219 -0.08199155726436444 -0.05619786623133246 0.005351709533132921 0.00826953698053165 -0.04081408448748057
0.2604974762320543 -0.07300572949577999 -0.05172237778194003 0.010509490313714023 -0.0033533164291776434 -0.03575367052777205
0.22516063990032179 -0.06268708281077354 -0.04580045713194568 0.014488800177228546 -0.01530059476334669 -0.030839910916847804
0.18778293820945072 -0.05199613314979072 -0.03907634271275325 0.017352705617146844 -0.02489716786152667 -0.025857920505606126
0.14977592396496436 -0.04149238626849037 -0.03199026311056397 0.01910641221291518 -0.031895559492960315 -0.02091660543506621
0.11276280715750844 -0.029589899343585555 -0.024865001205982375 0.020098804761943017 -0.0361444651175339 -0.015614034467455918
0.08458227275949728 -0.02602968506023097 -0.018290657455110954 0.0193229878747807 -0.039731498521135396 -0.012736970822311013
0.0719678337052902 0.01479528191396492 -0.010919712628202514 0.04437746298154442 -0.05312729231854338 -0.00935737237997699
0.0695979187399427 -0.1793551733092497 0.014315286951844863 0.05787429244638049 -0.06958886293043788 -0.019400242502810482
0.028090909559694854 -0.14754317115514046 0.011873045441393554 -0.061799500842233464 0.032795735173433 -0.028752987478905215
0.02536866921782324 0.011798206274939374 -0.004166612292009602 -0.05120625605454017 0.02746086286734672 -0.008624301264518209
0.0405038759609392 -0.014698010469318911 -0.010866722905163525 -0.04260487493965811 0.024915745289252642 -0.015118361973895225
0.0703482590900717 -0.022577426938403606 -0.016801139324190292 -0.043151189939732965 0.022029778005936466 -0.019605126034949977
0.09552277415884919 -0.03185655387934442 -0.02223853825957089 -0.04218054719061951 0.019117410679840068 -0.02601028774213953
0.12158677466692569 -0.04069355643975403 -0.02762521035648893 -0.03874347082075504 0.015064812762160153 -0.03239739636259941
0.14691296492612524 -0.04940994567339228 -0.03261207326488068 -0.03366315166912243 0.009426379357665614 -0.03882116200421016
0.17072545951291493 -0.0579187208461377 -0.036958012970337864 -0.02625282304817235 0.002467013208276974 -0.045451032975546
0.1908018327228087 -0.0652886668265945 -0.04026247938908872 -0.015507461682546585 -0.004387206109382716 -0.052997874508951964
0.2037371085653374 -0.06850275108327539 -0.04224706373808071 -0.004081544010276223 -0.0065428320030517725 -0.062464992017469995
0.2080179343320038 -0.0660092862615406 -0.042994487558930886 -0.000228640986506226 6.360506245748471e-05 -0.06980775769459674
0.2039840210360195 -0.06858059796867692 -0.042292409677964306 0.0036097012820867727 0.0066573775189296405 -0.06246634558632354
0.1913369828146258 -0.06545753211480984 -0.04036206572029102 0.014991205433044308 0.004463343063330157 -0.05299885266744239
0.17163500726722317 -0.058205791508581836 -0.03713107558554991 0.025659873435587878 -0.002455410935899299 -0.045447966229661865
0.14833470070005658 -0.049858022779239626 -0.032892942381995124 0.0329575425785006 -0.009508527650029002 -0.03880646550707593
0.1237205888096255 -0.04136604632308043 -0.028065756320087065 0.03788505929808214 -0.01526004113587201 -0.03236523726152194
0.09863139408176068 -0.03283162380955218 -0.022939879903732478 0.0411274359391333 -0.01947511682561354 -0.025926584815373094
0.07483964313516595 -0.023931177288202037 -0.017843604305554758 0.041729516900433444 -0.022394386018943956 -0.01958805753400012
0.04694944798403794 -0.01657040192154367 -0.012706159051827015 0.04041063372997248 -0.02594657582662613 -0.014529692181039753
0.031188046479530836 0.01105250204723222 -0.005849372243079843 0.048298223027499455 -0.0314030434250376 -0.012370260989349544
0.03215243063916639 -0.15478289281824364 0.014751646553371826 0.038672316007067185 -0.03883157946060208 -0.011678471417197502
0.014484845103783055 -0.10266193486133283 0.012982688562912268 -0.07255645918401407 0.01997016096322735 -0.009522967294771856
0.008506108593090434 0.0024619715087720096 0.0006221455421615404 -0.08317576571756216 0.01562873868608832 -0.013403279093823054
0.012586154227602713 -0.0004589618896094485 -0.004691813504182197 -0.07254875501017108 0.012315953527892063 -0.017260823631068938
0.030769281412435373 -0.010182627910589657 -0.008142596829513243 -0.07378498999343354 0.00998777194418511 -0.025004560563309776
0.0456113054490005 -0.015101148100753928 -0.011133687380986239 -0.0712790373847758 0.008168578706332839 -0.03299978623236881
0.059011189509067655 -0.01971703293085959 -0.013968047235889158 -0.06579397127062854 0.00618176816326239 -0.04139842599999967
0.07221234831133838 -0.024186897382673926 -0.01658920972528631 -0.05763793893172505 0.0035158235717692014 -0.049873705902627734
0.0849602625499611 -0.028874756698240918 -0.018853600831918546 -0.04578508273951828 -3.419116602851579e-05 -0.058813680219034215
0.0958458796404913 -0.03307150347056215 -0.020631521136602847 -0.027496764997794163 -0.004546808146876353 -0.06934080748437703
0.10143539562449544 -0.03159424871632811 -0.02194282507991332 -0.005934628262236722 -0.006949911106314571 -0.08371378416696292
0.10242858892024255 -0.020926258006293504 -0.022793522071889595 -0.00036537097217198284 -9.775715179620411e-05 -0.09724646669765835
0.10168588041804628 -0.03167693295524604 -0.021976989010711843 0.005179645328469708 0.00673509431807692 -0.08370624148025414
0.09638365062891122 -0.03324850766668946 -0.020707931409834415 0.02666762834566369 0.004275050092714734 -0.06932346300085744
0.0858596096686989 -0.029169107766418987 -0.0189898510629308 0.04482711395760593 -0.0003288688933388678 -0.058781085913225575
0.07358716745420138 -0.02463309130386562 -0.016814950398631595 0.05648787536077875 -0.003995511148216282 -0.04981703914953622
0.06101712073788225 -0.020365365899780895 -0.014331650183001142 0.06437730284866888 -0.0067877716815863826 -0.041297962586623986
0.04844208259528308 -0.016009832286843734 -0.011706387645077228 0.06950279935561594 -0.008869973795268023 -0.03285254032534548
0.03461967692252263 -0.011394471652160548 -0.009047056785360596 0.0714120026707992 -0.010710735179288531 -0.024711407611448778
0.01658922906041042 -0.0015413411343289183 -0.00607892001102305 0.06910041443225672 -0.013318756441570222 -0.017325624689705228
0.011180473202587306 0.0039042988272006665 -0.000590536200257043 0.07857899671494352 -0.0171140114665694 -0.013609093177576862
0.016232339598828714 -0.10708156070912664 0.013591311612497456 0.06858228445340986 -0.02191342665340743 -0.009101562373042061
0.003892502877200653 -0.061560522748029915 0.011594491994844474 -0.06709644852376351 0.009008735972951178 -0.003358218156798237
-0.004438694227502376 -0.0013050996436441433 0.0045094857764660795 -0.0879606842236976 0.005104119604220516 -0.011639960736553566
-0.011146896114812913 0.007783430539547238 0.0016699439873670118 -0.0883136208075352 0.0008050945372334743 -0.01784678233425636
-0.00728801147083938 0.00299789315363539 0.0009519043842271893 -0.08431031541669542 -0.0013382293484921932 -0.02629317696163947
-0.004226758985357491 0.0012733239643921879 0.0006873643973762595 -0.08084427121890497 -0.001972185574572658 -0.03502661610396184
-0.0028522302784873468 0.0008950186246795842 0.0005326728356971598 -0.0745785228003512 -0.0021450681571142578 -0.04393042773033839
-0.0015779590594721224 0.0005296307796743491 0.00042912306725609333 -0.06547240706437277 -0.0023019221257193395 -0.053031300445372034
0.0005290884045995533 -0.00037419061998853853 0.00036152788819198567 -0.05267040660516128 -0.0029005514793670967 -0.0625109307604791
0.0028904973085566287 -0.002124217723734436 0.00019565012449402773 -0.03172504482727411 -0.00561520177593777 -0.07338359774103262
0.0006633929820470312 0.0038626016046760274 -0.000477687344945794 -0.0019653945213627426 -0.00912810523280283 -0.08898624793727426
-0.0024825887413081962 0.02977904910113178 -0.0017550025808052612 -0.0004102277157315536 -0.00024276889316857475 -0.10909283188745521
0.0009138245562123495 0.0037766593736501316 -0.0005000289234940779 0.0011169793737169755 0.008617054873771532 -0.08897595192239102
0.003423198860678053 -0.0023063672546391046 0.00014406625412237853 0.03079110817684399 0.0050297388874213055 -0.07336043365016104
0.0014056659634377141 -0.0006719029185861242 0.00026599641613781334 0.051588029658511975 0.00219960462802795 -0.06246903535748248
-0.0002703292671061709 8.952274966659616e-05 0.00026519126210957316 0.06416769468206836 0.0014623133422714272 -0.05295920312791237
-0.0010085501197867786 0.0002772497168872562 0.00026325997599537356 0.07295886356154857 0.0011797145990983162 -0.043810531017498024
-0.0017379054924104155 0.00043750133111933006 0.00025656855781396775 0.07878199047587184 0.0009576368927678807 -0.03482819813382672
-0.004311253608320332 0.001984355350979961 0.00027323519772103164 0.0816143244391204 0.00039402944271604227 -0.0260181239083459
-0.008627708725976669 0.0074957815628711386 0.0007040625870839031 0.08491181429165408 -0.0015851097224617826 -0.017695565936117638
-0.002995169266203867 -7.485964382897227e-05 0.003628778786714886 0.08595719302529285 -0.0057586922314737474 -0.01196600796545939
0.004856523427531107 -0.06463437912711543 0.011650041620066156 0.06645573544205631 -0.00982237103370562 -0.005263535595652754
-0.0054616205946134 -0.029495050998850286 0.010136862837094527 -0.050993658798494296 -0.0001322535622888187 -0.002651646662452745
-0.01619268811025745 2.6649495063862987e-05 0.007593548934580949 -0.07397053760379214 -0.004781936138617109 -0.009031628898219986
-0.03310549326648327 0.013820444346115473 0.007819996174842515 -0.08126157956104456 -0.010848436326696112 -0.016499278514784357
-0.04396743300327353 0.015255650909999472 0.009979511502416284 -0.07573592929365733 -0.012868344421071777 -0.02477082942472146
-0.05399272293915905 0.01785175959755721 0.012506588956835464 -0.07134585749733312 -0.012252603505466957 -0.033076735803456735
-0.0647693967707012 0.021536958341445943 0.015028671301148055 -0.06575139290002557 -0.010516836458139134 -0.04140563168532898
-0.07541910901630891 0.02514110083799677 0.017442234056516927 -0.057735265666834956 -0.008276885635016907 -0.04996352709742641
-0.08430699791613022 0.028575829828242624 0.019599102502709263 -0.04633082599386947 -0.005614635041190477 -0.058557795958011964
-0.0897767066510039 0.02888428392703245 0.021085157247294727 -0.029448598096170186 -0.004997717907182313 -0.06773001981940462
-0.09977246560051305 0.03522317282327065 0.020883034034468725 0.007570030750393709 -0.010215643608392149 -0.08042801287793604
-0.10790715491139015 0.0890038581768296 0.018305600293344878 -0.0003692470158455658 -0.0003909967671131641 -0.1066524775690906
-0.09952101678441734 0.03513380608316127 0.020872484463755794 -0.008334093484215988 0.00940124901293466 -0.08042116907397545
-0.0892470372420552 0.02869661885906619 0.0210584694384826 0.028606483736106986 0.004089520635902603 -0.06771419683168525
-0.08345036075131786 0.028273934711140668 0.019544549548018337 0.04535377915923888 0.0045634575973053405 -0.05852792685713678
-0.07417697988026893 0.02470613553508164 0.01734110816372584 0.056556849592682625 0.007061254081813138 -0.04990993654204574
-0.06309254856378584 0.02095197132415031 0.014854460918716708 0.06428309299192521 0.009171173318941461 -0.041311409355746675
-0.05190197132213455 0.017105698475211335 0.01222298968023026 0.06946506327116944 0.010904167413160467 -0.03291932899196588
-0.04176928209230453 0.01450590047935455 0.009540788939016692 0.07333190076192912 0.011755402184696874 -0.02455738519123639
-0.03149640133500132 0.013752521830945169 0.007216327926424855 0.0789316030723342 0.0102260427425803 -0.016355689883224344
-0.015379827777900612 0.0007410006286312632 0.007023096801310682 0.07341869145803667 0.004528102501696821 -0.009432054356978388
-0.004935261018979146 -0.03126356553496552 0.010045102895355176 0.05135820465244928 -0.00014320860981931562 -0.004433523840693411
-0.01283759843411414 -0.009668800179131028 0.009728260550729303 -0.02823375264311869 -0.008165172739657457 -0.003885765159246345
-0.026685926845718813 0.0036121138102358902 0.010278521184357653 -0.04261785715077106 -0.014891952857009184 -0.006483549546423085
-0.05427696366467145 0.019199831991870853 0.013482876840180099 -0.048819136418536344 -0.023748725953219994 -0.012963663259067195
-0.08020965043831345 0.02720422419727922 0.0184459758105618 -0.045397153698593234 -0.02565092175134161 -0.01956114167326739
-0.10414677320256005 0.03476198014262334 0.02361630265352283 -0.04225986576247575 -0.023542239065893585 -0.02598858243185365
-0.1274486798729316 0.042605365167916874 0.028660350750354363 -0.038743922103278004 -0.019600795130431607 -0.03239107347725395
-0.14998239286819415 0.05036301650991319 0.03344873792360528 -0.033764513307758204 -0.014457829659945244 -0.03886623173428554
-0.17139589672128056 0.05752082863962402 0.037758809656516616 -0.02705343062078215 -0.008561221762307523 -0.045438726571205436
-0.1851660030167233 0.06453883127420285 0.04093375480889487 -0.015697419047081353 -8.916680331794712e-05 -0.05092459848790348
-0.20084819909655918 0.05898212601975098 0.04097855094744696 0.0079793575068188 -0.003988831751149259 -0.058189214247449765
-0.21313163118964068 0.15712624318026452 0.03500486747162248 -0.00023361896403180734 -0.0005623121410930298 -0.07733255850054928
-0.20058950117652954 0.05888697097961677 0.040979113287925896 -0.008462645511645796 0.002823040258622777 -0.058191375751408106
-0.1846267546637062 0.0643410445983566 0.0409303975073965 0.01516534262735764 -0.0011954230960686484 -0.050927793019281284
-0.17053989577580136 0.057208129053188124 0.037742270798815945 0.026437806633756063 0.0070970318842278534 -0.04544011725256735
-0.14877851699768066 0.04992528197178897 0.03340475456178726 0.03302565464093653 0.012791092041444622 -0.03885987640798319
-0.12591374074327172 0.04204582891319932 0.02857065206669833 0.037830897004133876 0.01778455936230277 -0.03236602334304731
-0.10243297634703415 0.03412899846520116 0.023462012714239908 0.04109920869676947 0.021768325420203776 -0.025931249880865474
-0.07869622327407166 0.026696770961797782 0.018211126734430347 0.04399152979266905 0.02430437042754987 -0.019473144874205442
-0.0534069569487602 0.019216608409462526 0.0131641562255716 0.04768568371592721 0.02323541501013762 -0.012926020594902833
-0.02639241631171697 0.003998017196354621 0.009964638742462052 0.04260690668613257 0.014991489737745351 -0.006767643740289052
-0.012704724280333838 -0.010364884990962995 0.009620237030731038 0.028605951413697397 0.008361625700710465 -0.005041062036389847
-0.014546898617892422 -0.0032755663995448878 0.01110519580670516 -0.013921110531034857 -0.016346532358998214 -0.0046898230471436675
-0.03302157300927521 0.00556599485730543 0.012851068168787089 -0.019963019790377897 -0.026444419167551293 -0.005422570383030804
-0.07465599783661975 0.021810030009080744 0.018106130254210748 -0.02244415692480955 -0.03923876819730481 -0.010765835240433445
-0.117529927879864 0.03325287037455916 0.025270702210312662 -0.021579981727707108 -0.04096691093039039 -0.016022521309598598
-0.15544511459805924 0.04334596722179388 0.03251736676095137 -0.020066736982107158 -0.036926912558528535 -0.021006919281366544
-0.19154671779611285 0.05328611374270322 0.0395753218253097 -0.018003246487632036 -0.030146826933783195 -0.02593888541802122
-0.22669225751740485 0.06329695577114122 0.046306200562546994 -0.015297613780769829 -0.021283190959477238 -0.030941250943820334
-0.2600397296759095 0.07177751223198142 0.05234344012815515 -0.011213231091335266 -0.010758695027069437 -0.035516213975147905
-0.29171695416743654 0.08445426989191697 0.0571631773001326 -0.005487282628368432 0.004356882781977345 -0.04093370756902655
-0.30641534959171013 0.06854928920352517 0.05743249087356813 0.015250159719246195 0.03163594872882535 -0.03676129939249672
-0.30547062287929616 0.1930607400141402 0.0433104002161878 -0.00015095477788951064 -0.0007818907941096443 -0.07581232943110836
-0.30613680178044594 0.06845032328842662 0.05744296277291262 -0.015562010453033428 -0.03325311778572121 -0.03676571083478119
-0.2911426889200228 0.0842496253374262 0.05718017821175618 0.005145845297889502 -0.006128089507828556 -0.04094127268776339
-0.2591452212346999 0.07145694485837686 0.05235873484761117 0.010823197866680616 0.008754755830064999 -0.0355240726542584
-0.22547179227420022 0.0628545582327734 0.04630693600725885 0.014841889536943667 0.019016835360974493 -0.030944220343613982
-0.19007959160040508 0.05273698691506426 0.03954536027361477 0.017469223892114836 0.02768771594681803 -0.02592928219499058
-0.15402290854324902 0.042770405865291794 0.032442588299671074 0.019448660842796995 0.03454015457041017 -0.020979531759601024
-0.11669733973664084 0.032866939738348935 0.02514409417722162 0.0209228161092352 0.0392235819337628 -0.01598833670482405
-0.07473534237986752 0.021891299768578478 0.017924202426770678 0.021971395565582565 0.03881271780797606 -0.010787871421268993
-0.033477027336487115 0.005865438373886815 0.012674377427016213 0.019991426077088238 0.02707845465367645 -0.00561775857872626
-0.01492430243289608 -0.003518888075209706 0.01107723903587592 0.014033986048869664 0.01723922401348128 -0.0054605736155082015
0.042778156317186795 -0.10936997560978001 1.0313473165768361e-17 -0.04952437608279261 0.02642088891838165 0.00934619478691194
0.054228680887453216 0.005474223709261791 -0.0067867547306096135 -0.02213940152773434 0.02850854947600381 -0.002929390745134136
0.0793261808029047 -0.024286396561460373 -0.015371283450437933 -0.007911801384073477 0.026740186412234145 0.0007318960018067501
0.11065283973010312 -0.030397548160471206 -0.021867334777542383 -0.008599876678398729 0.02376110380734508 -0.0005005963878683128
0.14666122466404963 -0.04177669077635095 -0.028203357267948866 -0.00854099391517884 0.018135342356080403 -5.1373447668846286e-05
0.183019447399183 -0.05240013480151285 -0.03395769403104403 -0.008759237941074634 0.010847262356900872 3.494741983951216e-05
0.2185991091482129 -0.06317096582167708 -0.038921616649256696 -0.00896196190333208 0.0016865639815022094 0.00016399593915490034
0.2532319791596877 -0.07385701633679756 -0.042731122516677426 -0.009439039015552781 -0.008431760313296276 1.2995464780126624e-05
0.28684411174389257 -0.08480647736786645 -0.044954265804715295 -0.009917850299925163 -0.016304652308355077 -0.0010642458770943799
0.31607291109039565 -0.096018994358423 -0.045451362902749155 -0.007985792243619432 -0.01489801511685596 -0.004088081747526056
0.32879140180169125 -0.1030054091426164 -0.04519239517205162 2.688163747717573e-05 0.0001410428711111728 -0.007254956530986216
0.31615195181914296 -0.09603846365289721 -0.04549190087848022 0.008039136195108015 0.015164236501127545 -0.0041066912716659285
0.2870138636969582 -0.08484672056651499 -0.045043729523604144 0.009969224217263737 0.016520912462135873 -0.0011008069588036794
0.25352029156740896 -0.07392136231872119 -0.04288830996768759 0.009484359091352949 0.008555798755544443 -3.797120997798699e-05
0.21906165366211067 -0.06326663770335135 -0.03917972795418779 0.008993664091656672 -0.0017199383867643474 0.00010336193404506818
0.18375885235581202 -0.05254294839778978 -0.03437422986648592 0.008760975383791713 -0.01113705532191121 -3.2028791193299596e-06
0.1478716383511784 -0.04199794783264264 -0.028864237665349658 0.008507329224801458 -0.018903015509068127 -0.0001049847830048493
0.11263527728427146 -0.030751728864019542 -0.022948960321678043 0.008435065821497258 -0.02508373256691192 -0.00019415429718659774
0.0829781392745913 -0.024983508339791533 -0.016902705969599245 0.007605984522134733 -0.030194672425055705 -0.000144523373998059
0.06241587523391309 0.003976312096838691 -0.00958859739785052 0.021953759518889046 -0.025512172511393864 0.0034556667161887507
0.054303410446375745 -0.1112555738544052 0.004094861874439791 0.029262864688871914 -0.021553028733566404 -0.017218444495175983
0.02560764490710405 -0.09628623295769324 0.005100963224294639 -0.03178112866341578 0.0044496453733366284 -0.0008757914481132716
0.028439818217656093 0.003104942947706043 -0.00358455439350447 -0.027610295169003127 0.00958662543643639 -0.002662293670183709
0.04685906472386323 -0.016648793878817167 -0.0097502393354227 -0.021738282385143234 0.016309260384304962 0.00017479433505405712
0.07394020061495532 -0.024449593535657635 -0.014876051815607494 -0.022571643855954955 0.013676551923518618 -0.00023542232426679129
0.09765916212360919 -0.03311233159250651 -0.019358451769736787 -0.023244883131894163 0.010191467624432788 3.7006622691410165e-05
0.12189708554703063 -0.04165001400761833 -0.023421700840815667 -0.023372831169977678 0.005553935730791756 4.5365973779983844e-05
0.1455683770985605 -0.05016748278614042 -0.026871216038377544 -0.0235739840160657 1.092970521840599e-05 -0.0002230635993310311
0.16839128782216686 -0.05850473349104419 -0.029504453632055918 -0.02420322083350812 -0.0059433288442010635 -0.0012807833917924906
0.1900390400843355 -0.06701495775948804 -0.031072920746770746 -0.025093264265065474 -0.010553606272939976 -0.004347991477361192
0.2084034409827229 -0.07707600452114993 -0.03150601294698693 -0.020589066847150426 -0.009726389474637616 -0.0110402108000537
0.2163035015033351 -0.08596584631261951 -0.03138103387358134 3.891349157747809e-05 -5.4339470720992495e-05 -0.01770527104990165
0.20848094531573638 -0.07709991239586701 -0.0315221793355759 0.020665698042929097 0.009592980264200072 -0.011044216882552225
0.19020449349054427 -0.06706390786824439 -0.03111322817722449 0.02516476343958503 0.010345119285542608 -0.0043515693539453995
0.16866900385668315 -0.05858142107670923 -0.029586881438462814 0.024260531267776258 0.005605294943259861 -0.001272512656718438
0.1460047243309535 -0.05027744784391371 -0.027028700845182524 0.023598684218336656 -0.0005409257203394536 -0.00018005962172395982
0.1225793455793494 -0.041806006900738345 -0.02370867666793572 0.023332250596148275 -0.006365538480289326 0.00017039789918671128
0.09873847065333713 -0.033340434640785406 -0.019870127323762178 0.023095000318568083 -0.011382939225136182 0.00029819197577593635
0.0757389713924729 -0.024791546752743178 -0.015731983885057317 0.022194954492090056 -0.015527382464640771 0.00035606912729206
0.0499882567048098 -0.017327901452347975 -0.011214320880403306 0.020775881920518553 -0.01863943688637697 0.0007066184046654844
0.0315743569562931 0.0027159732753563068 -0.00521262709641388 0.025314473737062852 -0.010204766065353607 0.001938244381869839
0.027891086236332754 -0.09716871690282695 0.0052057429647210255 0.01886466162170972 -0.003051783344607733 -0.018163597475036125
0.014197019347483587 -0.06954659625470977 0.00722397727945658 -0.041945746184627854 -0.0007055574391110092 -0.017517655203676957
0.012549000173698218 -0.0009172018611798852 0.00038751855853017534 -0.04794971514147645 0.0021913894435014788 -0.0026327290898809476
0.019753900058800046 -0.00430694898359646 -0.00406959639206158 -0.03965308104315861 0.006581185154024641 -0.0008027422760565956
0.03565805241440941 -0.01197259191433534 -0.007179202091066977 -0.040778654634428875 0.005589676288261407 1.1136579105482938e-05
0.048728559286638495 -0.01632071534820218 -0.00965900779087157 -0.04122060569836742 0.0035426467002436586 -8.70080033230263e-06
0.0607656314199958 -0.02055592480833596 -0.011777380269774002 -0.04138180278511878 0.001195329582575247 -0.0002660930707616046
0.07249584047194742 -0.024728074691716038 -0.013521694130763793 -0.04148092235208757 -0.0015176433698311257 -0.0011710372719450984
0.08337705617169346 -0.028433097029836638 -0.014801781014792192 -0.041931615665605264 -0.0045985646228317995 -0.0034363711835993043
0.09383603221451714 -0.03207993856446767 -0.015525682797569405 -0.04338879417147238 -0.007974132114488134 -0.008757259404463584
0.10513998052827928 -0.040865168533268645 -0.015606261699222282 -0.037528250461255526 -0.008862142972841828 -0.019821492287284106
0.11117198962647643 -0.05651176713303417 -0.01532362330729156 5.707890730411e-05 -0.00022764420424213166 -0.032617807795996295
0.10521482290424083 -0.040897737985544164 -0.015597333192495648 0.03764020669921949 0.008375099394559394 -0.019812218710297893
0.09399379822251744 -0.03214573391619956 -0.015514751560834213 0.043491561105864995 0.0073925558869673575 -0.00873060405727072
0.08363578869406187 -0.02853324724590475 -0.014804833811455653 0.042009692376914466 0.0038623470312255867 -0.0033726158497519145
0.07288945190647404 -0.024864309477576223 -0.013568196396764189 0.0415023831559786 0.0005709748257874243 -0.0010294117836913586
0.06135677621861433 -0.020734345875221806 -0.011918632649446927 0.04129026378732699 -0.0024013665301962465 2.4066464418000492e-05
0.04963651779728428 -0.01655358977733883 -0.009977980170805572 0.040926099778246565 -0.00505857505700605 0.0005659418957421735
0.037128938489829816 -0.012301941464272917 -0.007809661655757095 0.04010824857640733 -0.007471690005317381 0.0009659157304694166
0.021631227228418638 -0.0046978978996631586 -0.005159073863443318 0.03808477558387087 -0.008485571076474465 0.001116148616772602
0.01393291946241642 -1.8788892523910353e-05 -0.0008835740195767039 0.04478035006014318 -0.0025803171989238803 -0.0008322913666541431
0.015046279980847425 -0.06953189478158431 0.0065082564636530236 0.03831196629409714 0.0015768243342825583 -0.024548163490056323
0.00481226385893246 -0.04385978830967922 0.008396606774815898 -0.03966052275009894 -0.0022779528944809144 -0.019206345024362987
-0.0002266041086121414 -0.002435960725592851 0.00406697676887074 -0.05267938704443653 -0.0021753752213169095 -0.004722474101564039
-0.004044496883685779 0.0037062100213790016 0.001652369126217773 -0.050089365489379256 -0.0013609787883927579 -0.0011915242377539708
-0.0016736389190290665 0.0007035985719188617 0.0007306245957054259 -0.0473134563478054 -0.0019025519429771791 -0.0002947570085484111
-0.0004271634870093981 -6.811147989573902e-05 0.00040059813247269503 -0.04730673059572177 -0.0025556107010568053 -0.0002525810804605475
-0.0003407176339922886 1.6513848681689116e-06 0.00031133188358558684 -0.047411828154381046 -0.0029002990094907904 -0.000748698236550127
-0.00047498015260328787 -2.5918039389463416e-05 0.00036071048388170985 -0.04752308978276987 -0.003137942721489984 -0.0019496282864867548
-0.0013887421910731379 0.0005770245449155627 0.0005156577376275297 -0.0471956176180146 -0.003747926406695178 -0.004520483984856973
-0.0019767112525594485 0.0020808299721200643 0.0007010320336860983 -0.04870571846204015 -0.006351012303527523 -0.010039503716116465
0.0038032812506950523 -0.005643776761548034 0.0009763269596502177 -0.047671670448200615 -0.009817115542035204 -0.022098554597177085
0.009399166520283428 -0.03531222964398257 0.0014941783172715925 6.206608825802473e-05 -0.0003921536030859143 -0.04187881194370716
0.0038748239566971576 -0.005684795687430627 0.0010108622176894914 0.047793329233217 0.008994610478127003 -0.022085428739019097
-0.00182853353764379 0.001998810158054673 0.0007645316772530403 0.048817054794655014 0.005416667388911106 -0.010003965634348846
-0.0011532947653041794 0.00045485682948673354 0.0005949338519839806 0.04727917977224865 0.0026376774068208246 -0.004439776050227984
-0.00013362407019253575 -0.0001856327176655924 0.00043051649952269814 0.047542573933521376 0.001808082366466636 -0.0017784827306683263
0.0001413524434168412 -0.00019220777563658367 0.00032704598519494964 0.047299556332112365 0.0013419166396139673 -0.0004008845656859783
0.00027592457327996623 -0.0002981923175501869 0.00028679558672183806 0.046948006912389165 0.0008062355220452818 0.00041214442559000814
-0.0006836769640767817 0.00042721225523018145 0.0003689376382434257 0.046508719154246425 7.463860441568822e-05 0.0009084232793645274
-0.0030363821628535135 0.0037027905131450946 0.000935484963581505 0.04847510761415502 -6.49329005420832e-05 0.0007510636445843239
0.0004200783331431727 -0.001479859019962351 0.0031110620158377894 0.050987368794003514 0.002056137660089168 -0.003550767503040396
0.005227059850765464 -0.043986208787697295 0.0075868422988339445 0.03848403572342469 0.0029816343298148724 -0.023408977700479536
-0.0037022194198090053 -0.022765795858237053 0.00947483246470508 -0.030028565370096905 -0.00384281116625986 -0.01661121340656002
-0.011911561582055594 -0.0009147274171379776 0.007438600608288603 -0.044626756324195264 -0.006204460593422758 -0.0048157142521607806
-0.026269963297054354 0.009932306101872016 0.007249812883908945 -0.04613302550553525 -0.008768316700388294 -0.0012371998137173817
-0.03797872997457852 0.01273971791209214 0.008588740250753861 -0.041938053694789174 -0.009370305876963242 -0.0001515914517818751
-0.049537378626054014 0.0163330348672405 0.010445967124395885 -0.04107015359335548 -0.008721589592863534 5.4722063772908485e-05
-0.06156380619103198 0.020559551448138456 0.012391150042142727 -0.041285526087237505 -0.00705022167283516 -0.00027261941947072507
-0.07335459052914588 0.02479992107446882 0.01423989113708057 -0.041384164237818724 -0.004857742421712323 -0.001272916488658317
-0.08554681420357857 0.028956063654386764 0.015844821082030325 -0.04101442670802841 -0.0027078411811717338 -0.00310683154249668
-0.09791102850650568 0.035841387250686155 0.016927453230741785 -0.04032634426869269 -0.003381628325013858 -0.007021483168419484
-0.09809747186480557 0.034029508933605845 0.017232661484214203 -0.050983331562164724 -0.010448301227325258 -0.016151917998049718
-0.09233167572342578 -0.02113272187009703 0.017739499615876623 5.8443723367766954e-05 -0.0005601772168531692 -0.043801521194068126
-0.09802909892243045 0.033979761849220504 0.017293127605779543 0.0510983711757693 0.009282741504965572 -0.016144607111401834
-0.09777226545812737 0.035742629924542677 0.01704430952046414 0.040433277391435235 0.002085167308477358 -0.006998766807547027
-0.0853345778193482 0.028811084636587506 0.016007880600304225 0.04109852978595947 0.001211392679743866 -0.003048955023632479
-0.07306617309673823 0.024615993308829562 0.014428553808386545 0.041413735022492223 0.003128205301565853 -0.001139899601019973
-0.06119315105253103 0.020350346272752957 0.012567351554747851 0.041197798093919366 0.005121026618328987 1.1713335488062205e-05
-0.04906969142927901 0.01611169479086865 0.010543543609921055 0.04075234897485722 0.006727144470978735 0.0006296981828463962
-0.03744334167982649 0.012561617466235802 0.008505685522365082 0.041205292356780485 0.0075924857126381355 0.0009235978395278418
-0.02583519841027529 0.010064916059453241 0.006881812012651545 0.044999755144312016 0.007709220097349453 0.0003376572785486941
-0.011647654272751124 -0.0002447172012410466 0.0068004887359935555 0.04390006485221631 0.006243440748083714 -0.00400953483362346
-0.0034942655528546742 -0.02288007800718271 0.008775284694886438 0.02975722405504405 0.004422740932987684 -0.019398314151688873
-0.010894393562947802 -0.009039760948336827 0.01099184593146657 -0.015703453870000585 -0.006886733348544158 -0.010782913408851952
-0.02272028421160199 0.0022482025975493164 0.010647527684387068 -0.02495001880033654 -0.011479697134171822 -0.0032774447933070668
-0.04790245763602852 0.01589660799986778 0.012594748336992574 -0.026613141314189508 -0.016952376750057334 -0.001129688151798472
-0.07385788500747639 0.024815405532853982 0.01613824932743007 -0.023859944766710467 -0.01759349574871726 -0.0001786793157749928
-0.09865288026464211 0.03324213351166885 0.020104716292348626 -0.02308066107685772 -0.015524072032545931 8.256693758355587e-05
-0.12282265031586231 0.04176061464711706 0.024001290526607086 -0.023265066119524478 -0.011618231972293495 4.6449553749137055e-05
-0.14653472024191458 0.05024906830915677 0.02758257522959802 -0.02348120440432903 -0.00656177889225347 -0.00029232856578671203
-0.16875317589199762 0.058793370879394395 0.03057511153956328 -0.023045290319072334 -0.0014104304851121686 -0.0011835910595155129
-0.19312330295625244 0.06637064776919799 0.032553379234085474 -0.023772595384432764 0.0031589946639529938 -0.0018563953814021694
-0.20314520948631556 0.08419897907788207 0.03225079002404198 -0.03220050301995097 -0.0065933973830408004 -0.006036405149357504
-0.19926077784336513 -0.009932729535723297 0.031437641162461484 4.0531772654586534e-05 -0.0007440821782221884 -0.03224346097740589
-0.20307918419331122 0.08413986256831907 0.03233728998320676 0.03228084399527034 0.005051196318053891 -0.006043521650289561
-0.19299192554573663 0.06625372293752381 0.03272374692396642 0.023849226479516577 -0.0048568296694392055 -0.001866211229557776
-0.16855999572821 0.05862301350541419 0.03082198772525171 0.023110127016913784 -0.0005217961689088094 -0.0011849859621398074
-0.14629055072163638 0.05003657047786304 0.027889451721902977 0.023515689066246674 0.004366779162287021 -0.0002622924637867912
-0.12255197594316793 0.041528480177509174 0.024335487165256665 0.023231510197753946 0.009229477196572616 0.0001542151152034323
-0.09840514923134504 0.03303088612134603 0.020407883126673056 0.02290463403756259 0.013174928923498428 0.0003604007787864989
-0.07371406070617242 0.0247128533743921 0.01631811337207496 0.023445740097609524 0.015736468538333683 0.00040684805920559043
-0.0479109528778052 0.01605788585636821 0.012538468725578275 0.026055194820256238 0.016149139907080345 -0.0002700279620691985
-0.022751857244609566 0.0026509616000659343 0.010304952666714303 0.024703455436389386 0.0117345552744229 -0.0028569208797445517
-0.010872729257050334 -0.00902796457430461 0.01046606508683692 0.01564656929441439 0.007543805464719207 -0.012377967839059137
-0.014637029924706633 -0.0043768045957450945 0.01333722360311428 -0.006014700198374129 -0.013166217224775435 -0.006988353072241079
-0.03135586218135248 0.004024004486698971 0.013855340870302066 -0.009763712074255047 -0.019773860108005668 -0.0022784822474927182
-0.0695099174161857 0.018943730609768505 0.0175180817692387 -0.009588737406635711 -0.027518745188117075 -0.0012262494663955023
-0.11029012336738526 0.03100211730318807 0.022999194296961786 -0.008694562015818998 -0.027745901214137336 -0.0005079793958166715
-0.14787317007222425 0.041875432616807526 0.028836381033210026 -0.008500916435179315 -0.023855531669596843 -0.0002527522313446883
-0.18407010501859095 0.05261738557064175 0.03447815262478471 -0.008698784682638929 -0.01717481811249422 -8.196398440081987e-05
-0.21965051169259742 0.06313860802342532 0.0396129685148072 -0.008809593250409434 -0.008640780012217556 4.664108251936893e-05
-0.2535224141960337 0.074542406954229 0.04386004376294192 -0.009209006109628708 0.0007977549407861436 2.347189993534294e-05
-0.28146614624014366 0.08015661995908972 0.046648093737424075 -0.009480787939182563 0.010514903020403912 0.0001715873464686598
-0.3108432550530474 0.11264870914811687 0.045681122925533925 -0.022982137289645536 0.015686574344593706 0.003716547831823335
-0.3285107277598374 -0.004127223835772056 0.038143345204729166 1.9457139701748285e-05 -0.0009573267620217791 -0.034284665708281335
-0.3107786067683095 0.11258472489558773 0.045793416044992735 0.02302110139621395 -0.01766729122123231 0.0037031988682251866
-0.2813393315053316 0.08003017900449699 0.046871230219748636 0.0095192934439074 -0.012686020196956123 0.00014718267182988945
-0.2533413461685095 0.07435858605373918 0.04418879731595857 0.00924435016439404 -0.003255916629612998 -6.1964222879537165e-06
-0.21943497903873682 0.06291024987341219 0.040033391611794276 0.008834649495420184 0.005860593471554628 2.3619319211949413e-05
-0.18386661665274584 0.05237147860499602 0.034959825133697935 0.008698431556715147 0.014160608821463224 -7.400971508596851e-05
-0.1477837754475127 0.04166625613160388 0.029322271137748292 0.008443187221608818 0.020921941265491885 -0.00016472238494075203
-0.11046806802045833 0.030929414613852013 0.023395609990255004 0.00853671548454716 0.025538040321422577 -0.00026510336955548326
-0.06997385095645528 0.019115021854542055 0.017699722788689077 0.009358335525517163 0.026861512539073894 -0.0008562681288166989
-0.03176603040025599 0.004324851801611008 0.013745619414363669 0.009648192682639316 0.02060474313574766 -0.002114259477910926
-0.014883005470621487 -0.004286261097718357 0.013015051648971234 0.005920435103080556 0.014533728652441779 -0.007953365988862206
0.05938754478458005 -0.09457975493975587 1.9651164376299768e-18 -0.003112058886112435 0.011415769538407417 0.0009905998228906844
0.062453159792450336 0.0005772188765991964 -0.006341013340459053 -0.021412996520255082 0.015563920385318546 -0.0011877009245649598
0.07816508658825355 -0.025269010048660195 -0.012111021057725596 -0.008472630889912614 0.014647901402521715 0.00114726578995737
0.1077225667038429 -0.03208124848085174 -0.017473668843027004 -0.00968161133486975 0.012244534475859608 0.001323825438853457
0.14180439973428097 -0.043609166192288974 -0.021612193186994366 -0.01014516287120109 0.007873645655741996 0.0018268469200055355
0.17591487570946326 -0.05478058401486511 -0.0245172155895153 -0.010652361417198932 0.002399674312249744 0.002347108571118545
0.20993886011540722 -0.06652829231991086 -0.02598945421594502 -0.011336525559815732 -0.003787263160573038 0.002834449380540723
0.2455672448788829 -0.0791365366901005 -0.025892748233179285 -0.012638618325705233 -0.009697729266386406 0.003053680884133841
0.2854683091127018 -0.09390249906087582 -0.024290915052659498 -0.014189201072740165 -0.013001478851692384 0.0025725128326487086
0.32559402419679784 -0.11115066562262944 -0.02186709640658355 -0.011919548277186129 -0.010091421906464565 0.0011141278724103752
0.3443406842503429 -0.12235800988288847 -0.02046505402513863 2.757790367807452e-05 1.3034265933463517e-05 -0.00012234121413530057
0.32550183529534216 -0.1111142459119362 -0.021881504814035974 0.01197638781816649 0.010102499128897843 0.0010983100557106224
0.2852698445299761 -0.0938201710058374 -0.02433013053984884 0.014251251275009745 0.012965929221375072 0.0025410661586602896
0.2452318433175228 -0.07898751074588041 -0.02597972634916892 0.012710245090697144 0.009576651200840076 0.0030082011145243295
0.20941269463462386 -0.06627679308665879 -0.026163986006986027 0.011422517591191646 0.0035200054989833803 0.0027796434871502794
0.17511259997750814 -0.05436858191405729 -0.024839541300349616 0.010762444710865909 -0.0029225530519763313 0.002299783339329906
0.14058363654054928 -0.04294967430152023 -0.02217359810621264 0.010273452123714132 -0.008860704312886884 0.0017992105282986946
0.10588570695246226 -0.031049858968390902 -0.018370725161541382 0.009916692817299032 -0.013933022202638767 0.001437790756154139
0.07483293160297598 -0.023567216183421794 -0.013606708150478623 0.008808201442314945 -0.017253432642399254 0.0010539708375328861
0.05380648879909097 0.0033996135877492153 -0.008066397590324754 0.02092567028343539 -0.015705425401947182 0.0008483242600829348
0.04656025224392371 -0.08990785149425987 -0.007080415223845186 0.02687675090354478 -0.013882933641737403 -0.008291431599998034
0.026220869638929188 -0.08152081622290856 -0.0009346194787005324 -0.00530844737038476 0.00604396233395993 -0.0029585371585910095
0.030437252514184332 0.0010661248130582378 -0.0029072631514686104 -0.024301499059489196 0.007326767753894109 -0.002488876389031462
0.0483796569208216 -0.018419963560220996 -0.00756108585340345 -0.021913500657664585 0.009171616813718404 0.00027534311597316385
0.07293766335441522 -0.026206973795906297 -0.011377364110803981 -0.024151917419593147 0.007668052993621054 0.0006957543736687602
0.09521737027046569 -0.035092792603896736 -0.014336137008759896 -0.02553009180209385 0.004857384832012457 0.00101643788891047
0.11795133142798628 -0.04411423968657871 -0.016314325802900244 -0.026438448208558923 0.0012986303863560457 0.0011747677389495675
0.1406070025926818 -0.05347762508403235 -0.01728269744750074 -0.02792206678397531 -0.0025862959343836292 0.0010240870309152095
0.164050466095022 -0.06329812299788787 -0.017202235416042065 -0.030992944751139884 -0.006173180918146128 0.00018429024498076477
0.1894917753175872 -0.07477113314547448 -0.01616346461188501 -0.035470972877471425 -0.00812517352984143 -0.0019525697058391366
0.21429115486127256 -0.0904228203371297 -0.01455708624315637 -0.031085458325549115 -0.0063368257011073206 -0.005527445752839443
0.22569576094832053 -0.10452697466885864 -0.01353019989981755 5.348759854341829e-05 -0.00011702733945538737 -0.008079065984382041
0.21417806901575961 -0.09039362859915752 -0.014519932868746145 0.031197330550060055 0.006080618396193388 -0.005531201551735288
0.18925298834371254 -0.07470401345126275 -0.01609726141000156 0.03559837067585376 0.007801616169910106 -0.001956178053233592
0.16365961395770934 -0.06317404202777521 -0.017125811042803894 0.03114932407578826 0.005732758275088292 0.00019093062043037083
0.14002133165412473 -0.053263902136371236 -0.017230386292212154 0.02812595829122355 0.0019670986822392295 0.0010624166740474184
0.1171038139265187 -0.0437574542400001 -0.016343918232557802 0.026716170046703305 -0.0021909238958525007 0.0012864068277840222
0.094012523112781 -0.034510963225429736 -0.014532911359329841 0.025911488566169677 -0.006163741652957024 0.0012677589617642439
0.07115714261470556 -0.02529027163929341 -0.011882363873112511 0.024744088328726647 -0.009597732236319769 0.0012000474854861653
0.04550522970481817 -0.01685408209661466 -0.008501939185246122 0.023056715358872625 -0.011407363107604963 0.0010606739776439504
0.02789370857517125 0.002479879832899522 -0.004786138756204728 0.026417611902504787 -0.008201152979060858 -0.00030753829932886405
0.024732285315933057 -0.07801748490616149 -0.005358570774336841 0.019962955387979986 -0.005362980683063737 -0.010725255002698959
0.013484933256784896 -0.0572014435307451 0.001682672191711348 -0.03440477711473609 0.0021204477568197736 -0.010199957696765658
0.013091389057920094 0.0007534488293138329 0.00013126791969906814 -0.042298560770779745 0.0026676343750569238 -0.0037618757531804902
0.021377060935367148 -0.0063493696113959 -0.0029258607007482352 -0.039429476390444675 0.003732229847663221 -0.0009586937519787881
0.03647822738289438 -0.01362961946746952 -0.005412728449953311 -0.04260524922129866 0.0030810838865365855 -1.3726386225054655e-05
0.04847957887888377 -0.018007151747656745 -0.007140146373240511 -0.044257004434051415 0.0014989296722048343 0.00011691545411482886
0.05963133559560056 -0.022494731649782378 -0.00818288521020763 -0.04582658085736032 -0.0003765129297206068 -0.00017110152912517266
0.07059177097011098 -0.027091772602749392 -0.008584295428773182 -0.048183660958906256 -0.00232112285616838 -0.0011152533871982766
0.0812416968138134 -0.03122449239291441 -0.008381221078495723 -0.052771201420109666 -0.004131995733949675 -0.0032192321827359473
0.09327094488106676 -0.03598864842425441 -0.007620756285139627 -0.06074078105860597 -0.005372123478046509 -0.007237107510111639
0.10908432046974278 -0.05002074682137979 -0.006337199894975937 -0.05636094205885156 -0.004613253865079532 -0.013268624578831366
0.11809802025447134 -0.07413494673678672 -0.005203964502067941 8.630516058864696e-05 -0.0002447189302268891 -0.017628312598659827
0.10895252245261186 -0.050006440034228494 -0.00624918062402319 0.0565417095747363 0.004095938442813884 -0.013260680074444699
0.0929966803322073 -0.03595286198936334 -0.0074508120759565356 0.06094748663209688 0.004771614597530366 -0.007213084403854947
0.08080423777240367 -0.03115178170308855 -0.008144623072091803 0.053026522114816406 0.0033938945658956894 -0.00315916734510134
0.06996039936959964 -0.026955852954875598 -0.008311896471800044 0.04851988791452073 0.0013900967576700085 -0.0009787750257418892
0.05876397452915768 -0.02225100154471446 -0.007930464295700875 0.04629022325071993 -0.0008093888238340302 0.0001144424382596225
0.047314524052189055 -0.01758829167426188 -0.007002005724860812 0.04491521004260683 -0.003022352677449234 0.0006753002218524468
0.03488339965413732 -0.01292107494123523 -0.00553324646207198 0.04361090834934811 -0.004996850436876469 0.0009540704249055513
0.0197289961005518 -0.00534674085701738 -0.003518149198209507 0.04124457788635995 -0.005647008096412753 0.0007765093801104884
0.012352917712881686 0.0005360916734694503 -0.001430308821746843 0.045461879476383596 -0.0032123841518559965 -0.002275482544099804
0.013447158076646601 -0.055005891866546926 -0.0016587492925683946 0.037643431403939075 -0.0014473759387783035 -0.01577683768328872
0.004002171763143223 -0.03613747307776331 0.00520980575932533 -0.03706767668722708 -0.0002524741823734667 -0.013078574094413998
-4.368092632008024e-05 -1.7153396533250574e-06 0.003471621636980535 -0.04958394938490475 -0.0008115285128896387 -0.004418535125575524
-0.002357468910536474 0.002695651729952862 0.001696834087171633 -0.04919190221086758 -0.0011617622020317572 -0.0013228735908313426
0.00042726233822347655 -0.00033583833114455284 0.0005677168859415076 -0.04901000204330741 -0.0014910047625295451 -0.00025645663441151975
0.001402791847609336 -0.0007456297382053163 7.799126926004177e-05 -0.05046308847249568 -0.001955367910583556 -7.922460225150837e-05
0.0011061720687921828 -0.0005107532027292589 1.483453857628741e-05 -0.05224695018788282 -0.002298755101689579 -0.0005037590268626877
0.00038228109082856954 -0.00037198852068418806 0.00023511555517550782 -0.05495906903105825 -0.00248306736640248 -0.0016892819154974371
-0.0016479965040062056 0.0009247552377873889 0.0006534874618231369 -0.05887280693100165 -0.0027231341315941807 -0.004118120606901168
-0.0027874749440804595 0.003411130888105848 0.0012507403223696101 -0.06748710004436036 -0.0034124584278186075 -0.008546046553865127
0.0063921606876930276 -0.009316913867459383 0.0023328134214896834 -0.07048485427842857 -0.0036238387231719853 -0.01542008448455874
0.015148503676008989 -0.0532968344510731 0.003871371067517581 9.780549504725283e-05 -0.0003720439511889454 -0.02103837543632899
0.006242276839756876 -0.009318072997307948 0.0024717952843226333 0.07068973212181912 0.0028466930577538446 -0.015408582834441114
-0.0030958034481173144 0.003414351987753353 0.0015245770159262688 0.0677214150571477 0.002538255581700445 -0.008513550758905938
-0.0021296845704971154 0.0009440956653333119 0.001050218477119471 0.05916218361541542 0.0016947222201581164 -0.00404146914694744
-0.00029007902185334 -0.00031661100376271253 0.0007271327066055604 0.05534026835271311 0.001256158945165374 -0.0015225542349493134
0.00022789727878050472 -0.00038589449995265535 0.000546217717671266 0.05277629889979416 0.0008475025106992089 -0.00016162467823456809
0.00029659948005461535 -0.0004936073835922658 0.0005471032220613357 0.05123072249376859 0.0002776281588524207 0.0005762453018421884
-0.0008339937710732908 0.00012521718578830803 0.0008079809241799727 0.050178584723775406 -0.00033500529818483607 0.0009241194226097348
-0.0032819329934887834 0.003044268745184859 0.0014441171400646539 0.05103785440326721 -0.00034961330463838876 0.0005234233108850353
-0.00018921112864713925 -0.00037763140834030007 0.002289065640025109 0.05112412193021839 0.0004929390440525729 -0.0033361863854559554
0.004265399309410988 -0.03432648871781664 0.0026216782401113485 0.03771802055664842 0.000782984105986999 -0.016705236439887458
-0.004430879527886302 -0.01895863132068245 0.008849874751910332 -0.029574717606752163 -0.0022501610213192086 -0.012290143719592193
-0.011783083126325627 0.0010105382389571896 0.006947244358951983 -0.043437089051614156 -0.004017206578381241 -0.003773191444630537
-0.024381740109933957 0.009758697907164757 0.006296947061913764 -0.04582122706719456 -0.00588645829043253 -0.0011276608989716792
-0.03474683839564987 0.012530467236605778 0.006522199217697559 -0.04359528479892679 -0.00602615203013071 -0.00012848442340731967
-0.04568797859710881 0.01666861353791836 0.007273577835264268 -0.04414952670000202 -0.005430841967789219 0.00012228411019118092
-0.05755237202229248 0.021486962401856248 0.008199150062412904 -0.045827002262451386 -0.004245569971226964 -0.0001735745053001551
-0.06965097954929658 0.02651336230617441 0.009049981287024826 -0.04810201248874239 -0.0026778045503894963 -0.001128642964889111
-0.0834108314808041 0.03201431252565786 0.009684256766993828 -0.05107078618715256 -0.0012473622641931941 -0.003088001524086878
-0.09864820035130085 0.04190226512050304 0.010071019131978122 -0.055179339125181845 -0.0010900359537857217 -0.006643869816269469
-0.0973325869141669 0.03761645227495844 0.010667305451847499 -0.0732111519798901 -0.002283620208778314 -0.01294784894098657
-0.08852451683181974 -0.04071488349015072 0.012763485650529142 8.659842558277146e-05 -0.0005018719500582354 -0.01943488722524214
-0.09750154872006365 0.03759981177039954 0.010858205654112326 0.07339252070463972 0.001241305835703939 -0.01294092813003019
-0.0989927729565663 0.04187286079761826 0.010450811471101365 0.05538662278629587 -6.42523545651233e-05 -0.006621947046026885
-0.08394056988986315 0.031980285869864136 0.010244625926232678 0.051326373513175635 -7.958302462229395e-05 -0.0030313856952204955
-0.0703698656686545 0.02648805280264944 0.009766967219146931 0.04843804909721608 0.001143609408844896 -0.0009978195120413258
-0.058448770566143914 0.02149182808879465 0.009017443776146728 0.04629605289394946 0.0025152328133740656 0.00010529151007034797
-0.046714225143799186 0.016746465431039113 0.008083657791043421 0.04484083219342001 0.0035867078905474224 0.0006806008305618317
-0.03572631523636155 0.012691319258779072 0.007132697275427947 0.044650863231740695 0.004285031981171417 0.0009056480224105485
-0.024931617432224558 0.009766293512395904 0.006409304717172686 0.0471016775859947 0.004709152190109719 0.00037193334963374466
-0.011739792888431622 0.0007763816577905614 0.006168854037658123 0.04400460327685496 0.0038563581068210336 -0.0029729579508177184
-0.004130745670910359 -0.017683219689401175 0.006895019437479385 0.029384669172834606 0.002681407862474207 -0.014633998731732867
-0.011579796954538217 -0.007856812573329632 0.012189864624741639 -0.015979951073647414 -0.004771625904037021 -0.007433001332467943
-0.02259522304315215 0.0033244268201636307 0.010339238830045096 -0.02485401744462987 -0.007686359044101275 -0.001641439548446026
-0.04569341613710806 0.01606124468211739 0.010838134382892859 -0.027024295470596163 -0.01083153929037899 -0.0002207929137033237
-0.06940276713873014 0.024960839408052656 0.01241199422947484 -0.025345472394045516 -0.01058811161078012 0.0005837461195621944
-0.09266176030295371 0.03392095831078953 0.014398676826353396 -0.025412618192541883 -0.008836161383676083 0.0010034522313458296
-0.1160293368642611 0.04325710702445923 0.01628906927669914 -0.02643255185274081 -0.005995668241049449 0.00116881339707002
-0.13972568177560027 0.05293014692708249 0.017737239629185768 -0.027854104801399007 -0.0024886036611732032 0.001015445487110254
-0.163035924058314 0.0633597807301069 0.018495260245776707 -0.029072135719922093 0.0008500580278127778 0.000320935143606984
-0.19229422791783485 0.07367700186080145 0.018539203953886266 -0.032321290277713195 0.002616132150707534 -0.0011627605487240667
-0.20560184507957097 0.09727907436006074 0.017961617609405046 -0.043907707651090734 0.0007177486078139112 -0.005152559893502114
-0.2010474864532022 -0.031748108471475064 0.020186649372376356 5.410836169093006e-05 -0.0006370463247560403 -0.01249685233588271
-0.20579249187416215 0.0972475333772728 0.01820621182278334 0.04402087889453202 -0.0020371366877393188 -0.005158496603541324
-0.19268073307421196 0.07361615101090507 0.01902887676159719 0.032450103183846696 -0.004066366110864295 -0.001170747569548455
-0.16362352842920458 0.0632742485135544 0.019226155775184328 0.029229840529439496 -0.002499255574032716 0.00032073430393417913
-0.1405076735214418 0.05282687770212278 0.01869050391876313 0.02805962646923104 0.0006095743154357664 0.0010435069584256353
-0.11696454637026679 0.04314657634604959 0.017412298525016974 0.02671651467582396 0.003926284557775488 0.001265909840111859
-0.0936333817802081 0.03381534709625921 0.015577122197445573 0.025832701436810324 0.006739220665570553 0.0012501881580354998
-0.07017764640736515 0.02483964544860822 0.013432423773051812 0.025959663385841793 0.008818727832531967 0.0011027391336732692
-0.0460074153106908 0.0158404594077877 0.011367811220315075 0.027650403201291966 0.00989987510474328 0.0005452231179644644
-0.02245324239651887 0.0031635862240640524 0.009987607859069205 0.024991824872614844 0.007741045492877846 -0.00123603918857112
-0.011269753822050347 -0.00712866196474922 0.010784273003256638 0.015697020000525204 0.005286598381585801 -0.00874320155573762
-0.015415336383564876 -0.004130299105392096 0.01475384777613394 -0.0062291121175323365 -0.009193890992181781 -0.0038150757542898327
-0.031273853083889094 0.0046724795739958545 0.013513570486309788 -0.009950258035648744 -0.01266901129774005 -0.00017394331668379746
-0.0667984494714392 0.01912421916082102 0.015344917749827677 -0.010311872276071603 -0.016191044820330607 0.00046305748370356
-0.10432567043675725 0.031115607504582886 0.018324903999861645 -0.009930650288468278 -0.01512290317503172 0.0011360847487810743
-0.1394692770959118 0.04245131454914075 0.021572946597774458 -0.010069764066170968 -0.011948869585184445 0.0017108807440244836
-0.17415275836922256 0.054060350781019985 0.02442015593937864 -0.010604575285332977 -0.007190372951546545 0.0022760577902844028
-0.20919530978117307 0.06584617955779282 0.026407688517420123 -0.011136782435551891 -0.0014029874462819078 0.0027819020646877224
-0.2438496028894377 0.07952972236462644 0.027219895335324297 -0.012319435125095226 0.004312396615556823 0.003156293170906932
-0.2748955413433903 0.08670926487524419 0.026646892129903902 -0.013031816362586672 0.008018974710050315 0.002983850225925618
-0.3174446394901165 0.1310379350264155 0.024555112087187827 -0.028701550417654636 0.007658364764406272 0.0018461643565458022
-0.34601429220796004 -0.02708616484605027 0.023615115943201627 2.8140770357586598e-05 -0.0007795190605463118 -0.008755289008432868
-0.31766106954202517 0.13099916600120898 0.024855850742010674 0.028760735043590512 -0.009271447214173341 0.0018332856933537477
-0.27533289002626204 0.08663315248411885 0.027251933814760994 0.013100043955009081 -0.009788498691595407 0.0029590983226664355
-0.24451063104933596 0.07941910671455432 0.028131170953293493 0.012404093588593363 -0.006320675772927879 0.003122582408388202
-0.21006629031707374 0.0657051225150889 0.027613869547426114 0.011247608240288655 -0.0008822590939503392 0.002746140656664623
-0.17517013700995224 0.05389338403809067 0.025875926182396307 0.010755365275564699 0.004677607058465158 0.002254266405300838
-0.14045536054230007 0.04225487976244023 0.023165300714530265 0.010284063219574703 0.009428191451424593 0.001739363897096499
-0.10495759324787861 0.03085855232350946 0.01982637280812471 0.010228567128856789 0.013097314855923178 0.0012772157032840338
-0.0668357657643164 0.018789402985380566 0.016381527821141426 0.010622126635161244 0.015397083839290488 0.0007085624089984251
-0.03092213080859216 0.0045071090469773045 0.013630662813578009 0.010066451856160485 0.013232257477458948 -5.7265258962615255e-05
-0.0149944823711959 -0.003659196571298549 0.013785800029081894 0.006142946739824542 0.010338539177059416 -0.004599721808861104
0.06299803726348881 -0.09145338750964477 1.0570971181733668e-18 0.00708377939006383 -1.9772456783841152e-13 -9.337769815188912e-14
0.06443925600381606 -0.0011841683891385263 -0.005479569378531012 -0.021009394087734834 -1.0020056887081324e-13 5.170411082784654e-15
0.07784008220425451 -0.025760954285226668 -0.010282703000050717 -0.008166920966619914 -4.1628972404644804e-14 -1.0554152495532987e-14
0.1062907731019878 -0.03264434455264315 -0.01483652171148951 -0.00971152321458834 2.6207605963862735e-15 1.0820771362274328e-14
0.13966537673597132 -0.0441742018813868 -0.018063589761271148 -0.010384038288844549 1.2439959544245649e-14 2.400133585801767e-14
0.17331161572424952 -0.05558267775385956 -0.019700228829792266 -0.01116258074208161 -1.1883421628449894e-14 -4.801714581503802e-15
0.2073259020017184 -0.06781053046163249 -0.019617097490686897 -0.012157613305345759 -3.919319702767529e-14 1.5515475189353811e-15
0.24393418200709877 -0.08125492780292302 -0.017842832320211367 -0.013777525197714214 -2.3109986146963024e-14 5.53525324534232e-14
0.2861457733429784 -0.09721544052477883 -0.014751791637721539 -0.015492458297002729 8.345700432815795e-15 -1.4912089575311316e-14
0.3292505300575262 -0.11569709275535348 -0.011424213675155783 -0.012943879128142842 4.012696614872843e-14 -2.779623319709712e-17
0.34946061765101466 -0.12754516744853459 -0.00983033518548319 3.416000510040511e-05 6.676193750393064e-14 2.0022815328500643e-14
0.32908579848368547 -0.11563685943043422 -0.011427280802941541 0.013015354725790972 1.022528416105839e-13 -1.5581611521875427e-15
0.28579254011532335 -0.09708057099065469 -0.014770668263775285 0.015574026992860309 2.143687110418499e-13 2.7395078393277483e-14
0.2433381907272866 -0.0810133307757433 -0.017905210544901212 0.013878380175786726 2.3622509520314014e-13 1.067762957045193e-14
0.20638599857611067 -0.06740633668790273 -0.019768973237550024 0.012289775153514914 1.9743864085563752e-13 -1.5996318852851132e-15
0.1718550075448502 -0.05492171744700787 -0.0200069655805255 0.011344616112871853 5.309322453255286e-14 1.3217508684770785e-15
0.13741218207001676 -0.04312563339168406 -0.018608983992306774 0.010627814460353761 -1.071418615720271e-13 2.712429890069923e-15
0.10282139703579112 -0.030979879580103183 -0.015708530885716596 0.01010476066854366 -1.6169155586925194e-13 2.571605580391212e-15
0.07223934874804239 -0.023240006298711077 -0.011698661816872978 0.008895933969966935 -2.1642663518544464e-13 1.6687009846833023e-14
0.05174433162462095 0.0032544941921686926 -0.007875313013147027 0.020048148765019314 -2.0168788920872302e-13 -1.3960729274009598e-15
0.044608484467475416 -0.08619394026039275 -0.008035267244712358 0.02552044775331922 -1.790969445230467e-13 -9.246824226455397e-14
0.02634122525998649 -0.07954839733579995 -0.00019811996459858928 0.0005561667929677862 -6.090052371903951e-14 -5.479644515915538e-14
0.031127825771121418 0.0001806460477549717 -0.002812029807939342 -0.023080698699980622 -5.6462792747498033e-14 -2.2919823862172645e-14
0.048839179763351 -0.018944644931623456 -0.006488415941128324 -0.021373049808191436 -4.393645955955497e-14 -2.3336042299926252e-14
0.07229821936092207 -0.026583136592739497 -0.009803763914583489 -0.024248445847921147 -2.1320095415131544e-14 5.702903427273753e-16
0.09407782477123774 -0.03545327190619083 -0.01219390873762207 -0.02605489823813793 -6.94503235167598e-15 1.8392243023718224e-14
0.11651003383851508 -0.04460854790785066 -0.013410460280662522 -0.027497623814514562 -1.2795944622087056e-14 -1.057986163954805e-14
0.13918742539939993 -0.05430541565196643 -0.013435036083121901 -0.029669489274140023 -2.701180614904028e-14 -1.4516179599501078e-14
0.16324840582111505 -0.06471614493821448 -0.0123535765382797 -0.03354010515782415 -2.070889846324947e-14 3.342584455751085e-14
0.19004377001586908 -0.07703574966999066 -0.010443567119289522 -0.038542178612555635 -1.6262483709932746e-14 -4.435632362711356e-14
0.2165300636411043 -0.09355865153229886 -0.008349210330387066 -0.033607518907576156 1.537701071346615e-14 -4.3836977233965846e-14
0.22874422687458226 -0.10828106094901918 -0.007292819611391948 6.612215326960992e-05 4.867172440634667e-14 -2.790889535534552e-14
0.21633594994450367 -0.09350704008711852 -0.008287916744284975 0.0337481309244133 4.568561647695299e-14 -6.163453536607577e-14
0.1896341501049768 -0.07691944866376331 -0.01033013218581077 0.038709966008008155 1.024995450386694e-13 -2.8731750594153393e-14
0.16257650517326055 -0.06450640138374435 -0.012208934794224722 0.03376055862068892 1.400088812247846e-13 -1.6851754366942195e-15
0.13817119895627586 -0.053951827541648484 -0.013296313276050954 0.029980040364014086 1.0462839294500363e-13 1.8365625860383705e-14
0.11501331498266541 -0.04402782855707371 -0.013336239449344032 0.02795006140164554 3.5911176444092426e-14 9.613463454113957e-14
0.09188658481433674 -0.034515489066813114 -0.012265447974876113 0.026717805518990844 -3.5678765849958896e-14 3.0794275820717615e-14
0.06905975471476852 -0.025118237869583532 -0.010144364281667059 0.025267781032631626 -9.94598554990983e-14 3.754436946881365e-14
0.04404441666650934 -0.01661283010391987 -0.007281395661518019 0.023344312606647256 -1.2834698581709603e-13 2.195814331144158e-14
0.027002889257306685 0.002388772964233182 -0.004996395562658045 0.025631663449364725 -9.59773413698674e-14 -9.130649253168144e-15
0.023807145017501835 -0.07484422497605069 -0.00637698092473405 0.018911550043493118 -6.555221182492563e-14 -1.3184885041400696e-13
0.013336545781462488 -0.05656189797591116 0.0019000783874185976 -0.03177351666470578 -2.1350642811341324e-14 -2.407118558298005e-15
0.013436337936953952 0.0008342360609050013 0.00010964426449783673 -0.03992731407031973 -2.5106524118804346e-14 -3.74700677386805e-14
0.021945110162669458 -0.006794960343635551 -0.002404342121561075 -0.03872958620473509 -4.196149043468253e-14 -3.444702070245706e-14
0.03653895101227377 -0.013868561712418612 -0.0046096495472904755 -0.04278340800481259 -2.852544830831132e-14 -2.9086108521703125e-14
0.048194448403414566 -0.018172156444545062 -0.006095964545735614 -0.04519259317707909 -2.9045062999145076e-14 1.5944385568789077e-14
0.05917868111547469 -0.02266659931982039 -0.006779057116760381 -0.04759293734868865 -3.7475810622062886e-14 6.322850229500965e-15
0.07012155334760674 -0.027368150569844776 -0.006714412321304335 -0.051058536618064164 -2.1757047525368042e-14 -3.497985863638864e-14
0.08101647182601059 -0.03169385790120829 -0.006012480959330464 -0.056959572320011954 -3.8967328916026354e-14 -2.969670408019265e-14
0.09364660433874686 -0.03674940236113568 -0.0048216681117281964 -0.06582674412948576 -4.3316556803041015e-14 -7.404446251014357e-14
0.11043196506743619 -0.05110947172447802 -0.0034047014714087887 -0.06067865211091358 7.382996666284447e-15 -5.563092846626316e-14
0.11999905773990531 -0.07591273814215743 -0.002554204461442289 0.00010331820112617282 7.596003429662275e-15 -7.571992078486689e-14
0.11021247238029713 -0.0510755505866153 -0.0032806838737544316 0.060899040686305604 6.279605809411844e-15 -8.217862154658029e-14
0.09318995218987967 -0.036671222993193975 -0.004580052440056859 0.06609193579497077 3.1372931460832074e-14 -6.275481436585073e-14
0.0802864065171195 -0.03154913579086415 -0.005669429584189892 0.05731232158899093 4.868738435147551e-14 6.322172603143161e-15
0.06905928231014957 -0.027118378458982826 -0.0063023505486907916 0.05156293849517021 5.2763539404207223e-14 2.122131951502043e-14
0.057691453977155284 -0.022245669255208402 -0.006355313475508954 0.04834395728425013 3.1831452523916573e-14 1.5143115439982674e-13
0.04614149420490234 -0.01747226362024513 -0.005754438753184944 0.04631804006933555 -6.22426914696772e-16 9.066118217488164e-14
0.033720657920590556 -0.012747402336173583 -0.004494226397994445 0.04455034816085388 -3.730096608109065e-14 6.22013223805333e-14
0.019048958004410962 -0.0052992402372135025 -0.0027970706805574724 0.04170253452197258 -6.081627951617149e-14 3.493194367662836e-14
0.011988557672471627 0.000494545685529717 -0.001684005804595291 0.04432687697882521 -3.3697291512051544e-14 -3.010981221296394e-14
0.012974443666733044 -0.05274799027066988 -0.0027426998999385715 0.036025994443182004 -1.952204606195211e-14 -1.9567485652627337e-13
0.003968169633598693 -0.03575574286194243 0.005220889963859569 -0.03554833870132486 -5.931921230937056e-15 6.186755751799722e-15
0.00029124714038054065 0.00016199384671794462 0.003318775512682843 -0.047740282134117615 -1.3441528570528813e-14 -3.186069707757436e-14
-0.0016725445906072335 0.002404938940297523 0.0017588739092691365 -0.04831507169638714 -4.016212818043485e-14 -4.077309643342117e-14
0.0010269128361393765 -0.000651144480667138 0.0006260889646971632 -0.04922569770600239 -4.140335332068236e-14 -2.947488986822927e-14
0.0019102181355015282 -0.0009660976743108171 4.2150670940902616e-05 -0.0515577867501424 -4.529713328602428e-14 5.194033137617682e-15
0.0015632071324090445 -0.0006845675144836363 -6.0321854330913794e-05 -0.05428794366631193 -5.558703691300234e-14 2.4465143994879812e-14
0.0007705647354903323 -0.0005033131784042762 0.0001779332098400237 -0.05822468515456659 -4.129749961326399e-14 -3.404069560952738e-14
-0.0013705702459417997 0.0008726260565600969 0.0006371873365760594 -0.06354560072615355 -5.2412834306242526e-14 -5.912558311872707e-14
-0.0025789110835120112 0.003443315009609491 0.0012950667018579401 -0.07306428257332732 -5.4630901039944e-14 -1.154505093955982e-13
0.00707422588276716 -0.009284590693772294 0.0022352855787356493 -0.07544689918625809 -2.7015783815760586e-14 -8.571184669133036e-14
0.016283212318174308 -0.05420387226839207 0.0029993829196763135 0.00011589810460088589 -2.945210722304697e-14 -6.830610567182954e-14
0.0068306928307933145 -0.009268963425213479 0.002421837209782507 0.0756942692316055 -2.941229243936128e-14 -1.0986185377225011e-13
-0.0030794000112721997 0.0034821361208293962 0.001664156931474991 0.07336238761164449 -2.10820145177513e-14 -9.75239312049625e-14
-0.00215265121749836 0.000950524724074752 0.0011765656664205154 0.06394261535054559 -3.1253773830427654e-14 2.6132958644287108e-14
-0.000326413813445437 -0.0003596260631606931 0.0008584236762898725 0.05879407413461888 -6.7141328643203525e-15 2.6538274073943657e-14
0.00010943186884477141 -0.0004276067292913788 0.0007016034409522621 0.05514278086278711 1.577041516581841e-14 1.6605139030283211e-13
3.7590074188172855e-05 -0.0005132489749269136 0.0007771838284968917 0.052870693359132075 2.8465106316423634e-14 1.0418687532718143e-13
-0.0011576480319743783 9.434668692144367e-05 0.0011513217695880479 0.051253160641589204 1.0692439094501724e-14 9.781552737925248e-14
-0.0033639211829087036 0.002914806278601991 0.0017213269400480691 0.05132604659303464 1.9354601200807092e-15 3.26023659024538e-14
-0.00017956536530159731 -0.0004174673744329746 0.0019847860350926 0.05000979169468254 1.4097113436978802e-14 -4.271645428870208e-14
0.004141606864419927 -0.03276895236007605 0.0017197135026248964 0.03641189348753032 1.855294211447131e-14 -2.0828228464858656e-13
-0.0042092709138516725 -0.01873008558405649 0.008886947411502094 -0.028808689716606457 2.2960013881453967e-15 5.005083804007771e-16
-0.011267096362271078 0.0011644853870774025 0.006610836435905135 -0.04212732967384538 -1.1644548172928815e-14 -2.2830851521393053e-14
-0.02346692272688104 0.009529347389094545 0.005914264530846209 -0.04496993083056686 -4.038188240827051e-14 -3.573073640347063e-14
-0.033638364143944624 0.012185896634609589 0.005846429436298917 -0.0436601813765124 -5.0011366304735655e-14 -7.741704955051276e-15
-0.04441060582506783 0.016382826375377118 0.00616181037856183 -0.0450591684739567 -5.461743321608266e-14 -5.954153728220113e-15
-0.05618625292215841 0.021309021747636256 0.0066446713416685515 -0.04760472670752998 -8.009895914942722e-14 3.082515525384272e-14
-0.06839028906582495 0.02652855225796244 0.007062414356397844 -0.05096596838094302 -6.971110103253864e-14 -1.9460453214159568e-14
-0.08258391615906203 0.03233527451063611 0.007277973872620721 -0.05515722983342837 -6.453288221180443e-14 -4.5388226597303793e-14
-0.09861284926880261 0.04268941569876835 0.007372289049758817 -0.05986014842073681 -6.368602714146906e-14 -1.419592796179231e-13
-0.09735830533447426 0.03875617921336172 0.007752321969731661 -0.07786956216393562 -5.794430758235443e-14 -5.720672145628075e-14
-0.08816382271354738 -0.04101770003835914 0.008353572362633638 0.00010409206470372373 -5.944908024787653e-14 -8.153659767761584e-14
-0.09762719818356977 0.038753532657482215 0.0080026405604209 0.07809159031604547 -6.070968211382543e-14 -6.972897194541805e-14
-0.0991600532999483 0.04268897439823217 0.007871473339761433 0.06012714769935499 -7.942410767155898e-14 -9.426377592988006e-14
-0.0834232218838772 0.0323467536199627 0.008018040199879697 0.055511563053441015 -7.689870773844049e-14 1.9724524205795568e-14
-0.06952918391231201 0.02656719126713107 0.008017934985257397 0.05147211972918076 -6.464023855567123e-14 4.15581740027815e-14
-0.057614729905903765 0.021399996020551978 0.007754645361531252 0.048368331418964 -4.404052941558642e-15 1.5296155997639865e-13
-0.04607095133200543 0.016578566760832032 0.007303218042479299 0.046245996133083646 5.1554267311345464e-14 1.0432759799290647e-13
-0.03526800660288623 0.012476822580421786 0.0067948124451346625 0.04547889292146574 5.733563648272107e-14 8.932060006992121e-14
-0.02446011847815214 0.009525354347224796 0.006271313335465358 0.04709111521815081 6.63557547125361e-14 3.4183898387721984e-14
-0.011348521378209186 0.000766063927588554 0.005759827404641226 0.04299724990535663 5.69287828412323e-14 -3.306603851404438e-14
-0.0038923615937780593 -0.01673376439846682 0.006284572380542194 0.028516297780878802 4.730108449021997e-14 -1.848798891757042e-13
-0.01101628547501796 -0.0076033654028991315 0.012124297937279767 -0.015765716631384492 2.507617323423833e-15 -2.929310982148492e-15
-0.021768213440487096 0.003594441828120116 0.0096619434756724 -0.02407901503204696 -9.4205242565093e-15 -1.501966953587619e-14
-0.044422550233934786 0.01596934421454971 0.009969648931975966 -0.026427341166713414 -3.7977325277605e-14 -2.1823803886007048e-14
-0.06772402370671218 0.02476244330586281 0.010993465614642664 -0.0253020457412933 -6.262437806823715e-14 -1.801290101235628e-14
-0.09056257243767539 0.03381605776229625 0.012204223721522635 -0.025921024283212555 -7.888675335795264e-14 1.2718070954015337e-14
-0.11367679181731877 0.043391404913555656 0.013235908250528282 -0.027500150281494207 -7.767474746625362e-14 -1.117495310697103e-14
-0.13749524163381652 0.053489470669941586 0.01375806672276227 -0.029597362250889974 -6.634320507238958e-14 3.924188448148347e-15
-0.1615082830745814 0.06459175279905847 0.013599107068906258 -0.03150047907869987 -7.999103359941986e-14 5.884656368963792e-15
-0.19242207666709957 0.07576427456131932 0.012905404248486085 -0.03501630436272775 -7.380099474791658e-14 -5.730377110324536e-14
-0.20663348973100412 0.10061411578980359 0.01240020611815022 -0.04660447463576333 -7.613824833465916e-14 -1.1700364256021084e-14
-0.20187448495153112 -0.031552055557195376 0.012502883891424923 6.747369312830689e-05 -7.924202269295362e-14 -3.894743550022714e-14
-0.20693171872437455 0.10059381471530593 0.01271695696705831 0.04674795046288371 -1.0205354492249033e-13 -1.540054298280677e-14
-0.19302492391632078 0.0757259021184584 0.013540657182647249 0.035187333309468945 -1.4675339123169234e-13 -2.7807861265397027e-14
-0.16242084476211788 0.06453921920985009 0.01455060689868085 0.03172441053507848 -1.400107684141911e-13 2.6931459991795526e-14
-0.1387038565942067 0.05342675340633432 0.015006858955511872 0.02991249441062915 -1.1860526581995495e-13 2.5443094354461737e-14
-0.1151165042446658 0.04332215245798447 0.014724274786233551 0.02796847264668853 -3.9911257350248863e-14 8.782517356593911e-14
-0.09205648603108907 0.0337372785494942 0.013800490855792496 0.026645970769204472 6.287575711819149e-14 6.372058100351935e-14
-0.06892031699479378 0.024612176608686774 0.012439747536381114 0.026362120485629515 1.1336902418354264e-13 4.2059448100966595e-14
-0.04492291849579671 0.01559638463160428 0.010822841215042856 0.02747478836250133 1.4505336900149865e-13 1.7684353872775282e-14
-0.021592004319580794 0.00327776386494792 0.009329949127169257 0.02429107025376184 1.1580596507784757e-13 -1.4182001384886733e-14
-0.010597874233313216 -0.006516248659194552 0.010256652863568444 0.015350853394721762 8.15223268665205e-14 -1.1736553569285935e-13
-0.014519512245892926 -0.0037776565717029527 0.01393844415274582 -0.00625606135381666 3.2686527096092988e-15 -5.160206029836134e-15
-0.030099004446549643 0.00506088893835978 0.012167527400802737 -0.009510643116060417 -1.0859856850592431e-14 -5.67585258307024e-15
-0.06505331713427848 0.019151456640756265 0.013759802215384854 -0.009973899312918215 -3.1939999690228094e-14 -1.7426273098142264e-14
-0.10192401909462133 0.031065999173173594 0.015922121616100605 -0.009856994092098942 -8.024597696401625e-14 -3.1431020980354774e-15
-0.136393838436891 0.042546238383311966 0.01799049789007412 -0.01027880039461478 -1.1786491921350617e-13 5.1141816476141244e-15
-0.17063552421704486 0.05449441188067055 0.019459328454510132 -0.011095794110435013 -7.599053764711927e-14 -3.2809475622452844e-14
-0.2057558727514607 0.06685121076453897 0.019895640567734366 -0.01194010739185042 -4.1642552036855185e-14 4.310961310149963e-14
-0.24145949150578555 0.0814685624188756 0.019063143272866106 -0.013377478404801116 -6.503602994686886e-14 1.1078648849000006e-14
-0.27486856917058267 0.0896790936513899 0.017160774085038622 -0.014093737485503294 -7.649588427971477e-14 4.306684132579508e-14
-0.3199068769576296 0.1359454249050509 0.015180469196833695 -0.030205683188869233 -1.157793953483581e-13 -3.12233962643238e-15
-0.3494702403440548 -0.026667933739645475 0.014253941693098902 3.898509133567541e-05 -1.0649478261043344e-13 -2.939028144119393e-14
-0.32024113597939036 0.13591651769464838 0.015567832166899529 0.030288603435193975 -1.2773446579975034e-13 7.879601918864276e-15
-0.2755420152037515 0.08962224733162737 0.017941585401722845 0.014192336288083104 -2.2171039960536265e-13 2.6651912014147294e-14
-0.2424723784880785 0.08138478021790733 0.02024348212226443 0.0135053343701345 -2.505145342470566e-13 2.010642086852643e-14
-0.20708081103517623 0.06673931067465656 0.021467891878515864 0.012115914587712972 -2.12428002705628e-13 4.6526259407653203e-14
-0.17216520667742283 0.05434649825955955 0.02137756237104162 0.011345948199199285 -9.604242314636968e-14 6.645563006141275e-15
-0.13784165533217033 0.04233010812601866 0.020128647453251842 0.01064288719621176 8.486570821086836e-14 2.0184212374402266e-14
-0.1027837718771884 0.03069760994365621 0.018005619812972568 0.010358721767073182 1.924422535388992e-13 7.708026925068445e-15
-0.06497970342457308 0.018584499691261316 0.015287812491674019 0.010480312983868464 2.4810665674723786e-13 9.305381985791339e-15
-0.029479798079963242 0.00472242549109102 0.012444464225434635 0.009691213238388594 1.9850584392390458e-13 3.884587963798314e-15
-0.013842856735578165 -0.003101402391976313 0.012618735796092347 0.006161600526802395 1.4297330680479448e-13 -7.170479487950132e-14
0.059387544784935103 -0.09457975493980261 1.1926223897340549e-18 -0.0031120588854957137 -0.01141576953880516 -0.0009905998230952118
0.06245315979272464 0.0005772188764668076 -0.006341013340476565 -0.021412996520282567 -0.015563920385496066 0.0011877009245578074
0.07816508658842669 -0.025269010048677994 -0.01211102105774937 -0.008472630889931807 -0.014647901402580031 -0.0011472657899833077
0.10772256670394632 -0.03208124848084759 -0.017473668843051245 -0.009681611334823802 -0.012244534475880824 -0.0013238254388667236
0.14180439973430947 -0.04360916619242307 -0.021612193187017084 -0.010145162871165262 -0.007873645655733952 -0.0018268469200357334
0.17591487570948552 -0.0547805840148838 -0.02451721558951792 -0.010652361417198986 -0.0023996743121739847 -0.0023471085711108514
0.20993886011545873 -0.06652829231988563 -0.025989454215906472 -0.011336525559854664 0.0037872631607546703 -0.002834449380550208
0.24556724487893783 -0.07913653669015755 -0.025892748233095824 -0.012638618325767605 0.009697729266496083 -0.003053680884149422
0.2854683091127892 -0.09390249906080751 -0.024290915052562097 -0.014189201072711665 0.013001478851627326 -0.0025725128326620377
0.325594024196919 -0.11115066562297396 -0.02186709640649447 -0.011919548277207488 0.010091421906442338 -0.0011141278724312539
0.34434068425046716 -0.12235800988303897 -0.020465054025043745 2.7577903631094197e-05 -1.3034265798325797e-05 0.00012234121416738515
0.325501835295516 -0.11111424591219038 -0.021881504813951933 0.011976387818184303 -0.010102499128677913 -0.00109831005574687
0.2852698445301091 -0.09382017100631923 -0.024330130539765172 0.014251251275068402 -0.01296592922107847 -0.002541066158647898
0.24523184331753872 -0.07898751074604482 -0.02597972634915424 0.012710245090796725 -0.009576651200551973 -0.003008201114523925
0.20941269463446432 -0.06627679308657157 -0.026163986007001743 0.011422517591219053 -0.00352000549879317 -0.0027796434870909483
0.17511259997720843 -0.05436858191370334 -0.024839541300416382 0.01076244471085282 0.0029225530520366858 -0.0022997833393175503
0.14058363654033748 -0.04294967430138605 -0.022173598106239787 0.01027345212366967 0.008860704312781464 -0.0017992105282289902
0.10588570695233351 -0.031049858968215778 -0.01837072516155459 0.00991669281726507 0.013933022202334808 -0.001437790756105211
0.07483293160284518 -0.02356721618340859 -0.01360670815048249 0.008808201442278512 0.017253432641961188 -0.0010539708375298888
0.05380648879897088 0.0033996135877542295 -0.008066397590320443 0.02092567028338571 0.015705425401557855 -0.0008483242600623446
0.046560252243811405 -0.08990785149406728 -0.007080415223830336 0.026876750903535633 0.01388293364137771 0.008291431599785076
0.026220869639005807 -0.0815208162229505 -0.0009346194787056122 -0.0053084473700480035 -0.006043962334081589 0.0029585371584605192
0.030437252514288977 0.001066124812992526 -0.0029072631514841098 -0.024301499059460094 -0.007326767754010214 0.002488876388990809
0.04837965692094242 -0.018419963560194402 -0.007561085853429935 -0.021913500657643067 -0.009171616813803072 -0.0002753431159974796
0.07293766335451106 -0.026206973795966572 -0.011377364110829138 -0.024151917419525812 -0.007668052993664531 -0.0006957543736870941
0.09521737027052575 -0.03509279260393864 -0.014336137008778385 -0.025530091802086367 -0.004857384832029482 -0.001016437888944693
0.11795133142801714 -0.04411423968650272 -0.016314325802906177 -0.026438448208590835 -0.001298630386331797 -0.0011747677389528665
0.14060700259272857 -0.05347762508404717 -0.017282697447487155 -0.027922066784036494 0.002586295934451069 -0.0010240870309306247
0.16405046609507065 -0.06329812299793686 -0.01720223541600237 -0.03099294475126017 0.006173180918169978 -0.00018429024495124832
0.18949177531763914 -0.07477113314544374 -0.016163464611831813 -0.035470972877527665 0.00812517352982688 0.0019525697058755472
0.21429115486137984 -0.09042282033725682 -0.014557086243101673 -0.031085458325536077 0.006336825701109946 0.005527445752759474
0.22569576094842256 -0.10452697466893851 -0.013530199899776439 5.348759845935766e-05 0.00011702733952115575 0.008079065984376998
0.2141780690158439 -0.09039362859910942 -0.014519932868698359 0.03119733055003621 -0.006080618396039584 0.005531201551714362
0.18925298834381968 -0.07470401345165288 -0.016097261409949166 0.03559837067605256 -0.00780161616974539 0.0019561780532581863
0.16365961395774628 -0.06317404202795911 -0.01712581104278269 0.031149324075992833 -0.005732758274927377 -0.0001909306203964169
0.1400213316540288 -0.05326390213645305 -0.01723038629221001 0.028125958291452112 -0.001967098682140191 -0.0010624166739656318
0.11710381392638008 -0.0437574542399886 -0.016343918232574514 0.026716170046756686 0.002190923895868523 -0.0012864068277351477
0.09401252311264831 -0.03451096322524427 -0.014532911359343743 0.025911488565990612 0.006163741652886252 -0.001267758961669046
0.07115714261459614 -0.02529027163923363 -0.011882363873123292 0.02474408832868773 0.00959773223611192 -0.0012000474854114793
0.04550522970475807 -0.016854082096597656 -0.008501939185247965 0.023056715358753112 0.011407363107324308 -0.0010606739776051494
0.027893708575121048 0.00247987983289437 -0.004786138756202532 0.026417611902403274 0.008201152978871296 0.0003075382993236416
0.024732285315878025 -0.07801748490598082 -0.00535857077432484 0.019962955387918146 0.005362980682935515 0.010725255002424154
0.013484933256828804 -0.05720144353079561 0.0016826721917041617 -0.03440477711469563 -0.0021204477568593514 0.010199957696745891
0.013091389057962116 0.0007534488293436124 0.00013126791968521908 -0.04229856077073399 -0.002667634375124207 0.0037618757531074545
0.02137706093543338 -0.006349369611345323 -0.002925860700773063 -0.03942947639042279 -0.0037322298477525263 0.0009586937519521301
0.03647822738296697 -0.01362961946752367 -0.005412728449975691 -0.04260524922120667 -0.003081083886607784 1.3726386219920924e-05
0.04847957887892968 -0.018007151747636008 -0.007140146373261594 -0.044257004434003724 -0.0014989296722536442 -0.00011691545414478962
0.05963133559564559 -0.022494731649698008 -0.008182885210218711 -0.04582658085748128 0.00037651292969731313 0.00017110152908454508
0.07059177097015275 -0.027091772602802794 -0.00858429542876945 -0.048183660959045374 0.0023211228561395925 0.0011152533871954676
0.08124169681385086 -0.031224492392874247 -0.008381221078488087 -0.052771201420272335 0.0041319957339230025 0.003219232182836367
0.0932709448811434 -0.03598864842447338 -0.007620756285105759 -0.06074078105864782 0.005372123478024691 0.007237107510168602
0.10908432046982319 -0.05002074682141664 -0.006337199894944173 -0.05636094205884562 0.004613253865056128 0.013268624578718809
0.11809802025452971 -0.0741349467366115 -0.0052039645020641595 8.630516053232545e-05 0.00024471893026495003 0.017628312598604524
0.10895252245268204 -0.05000644003419141 -0.006249180623999472 0.05654170957466543 -0.004095938442727901 0.013260680074362388
0.0929966803322723 -0.035952861989509456 -0.007450812075929363 0.06094748663231082 -0.004771614597473375 0.007213084403864242
0.08080423777244963 -0.031151781703257726 -0.008144623072066124 0.05302652211504713 -0.003393894565851266 0.0031591673451183936
0.06996039936959658 -0.0269558529551441 -0.008311896471784474 0.048519887914762715 -0.0013900967576419287 0.0009787750258520608
0.05876397452910168 -0.02225100154490313 -0.007930464295694705 0.04629022325086731 0.0008093888238331374 -0.0001144424381589427
0.04731452405211983 -0.017588291674192964 -0.007002005724867813 0.04491521004239717 0.003022352677408237 -0.0006753002217119868
0.03488339965406697 -0.01292107494113082 -0.005533246462078381 0.043610908349241265 0.0049968504367597895 -0.0009540704247839122
0.019728996100515504 -0.005346740857072767 -0.003518149198208946 0.041244577886226846 0.005647008096287494 -0.000776509380056248
0.012352917712865948 0.0005360916734457441 -0.0014303088217454 0.04546187947621219 0.003212384151794352 0.0022754825440640353
0.013447158076614889 -0.055005891866407565 -0.001658749292561188 0.037643431403829385 0.0014473759387396694 0.015776837682892755
0.0040021717631634176 -0.03613747307782841 0.005209805759322567 -0.037067676687231176 0.0002524741823618374 0.013078574094425043
-4.368092630687002e-05 -1.7153395756783806e-06 0.0034716216369680393 -0.04958394938493485 0.0008115285128489214 0.004418535125515145
-0.0023574689105076915 0.0026956517300041147 0.00169683408715403 -0.0491919022108624 0.001161762201955525 0.0013228735907874455
0.000427262338268906 -0.000335838331080502 0.0005677168859238263 -0.049010002043227065 0.0014910047624338986 0.0002564566344066237
0.001402791847645387 -0.0007456297382787795 7.799126924184236e-05 -0.050463088472432145 0.0019553679104858555 7.922460222663686e-05
0.0011061720688402108 -0.0005107532026227976 1.483453856319392e-05 -0.052246950188044344 0.002298755101611437 0.0005037590268017939
0.0003822810908728457 -0.000371988520750764 0.00023511555517232525 -0.054959069031217216 0.002483067366339181 0.001689281915501816
-0.0016479965039666875 0.0009247552377678214 0.0006534874618155283 -0.05887280693120547 0.0027231341315118165 0.004118120606992396
-0.00278747494401979 0.0034111308878317 0.0012507403223820674 -0.06748710004442805 0.00341245842775453 0.008546046553941332
0.0063921606877566615 -0.009316913867515512 0.0023328134215014553 -0.07048485427831067 0.0036238387231219225 0.015420084484474962
0.015148503676053575 -0.05329683445103236 0.003871371067505391 9.780549499525873e-05 0.00037204395117166884 0.021038375436155873
0.0062422768398010245 -0.009318072997480746 0.0024717952843330594 0.07068973212173131 -0.0028466930577413048 0.015408582834372988
-0.003095803448077702 0.0034143519877842224 0.0015245770159336097 0.067721415057383 -0.0025382555817424143 0.008513550758914593
-0.0021296845704675206 0.0009440956651882588 0.0010502184771413866 0.059162183615667316 -0.0016947222202101416 0.004041469146976549
-0.00029007902180310815 -0.000316611003941276 0.0007271327066241289 0.05534026835297322 -0.0012561589452036491 0.0015225542350461273
0.00022789727883325408 -0.0003858945000522776 0.0005462177176814657 0.05277629889991804 -0.0008475025107191923 0.00016162467837096625
0.00029659948006012754 -0.0004936073835863245 0.0005471032220599719 0.051230722493585325 -0.00027762815887520496 -0.0005762453016883647
-0.0008339937710963608 0.00012521718595923093 0.0008079809241712297 0.05017858472361122 0.0003350052981649029 -0.0009241194224877675
-0.0032819329934884265 0.0030442687451239943 0.0014441171400640096 0.051037854403093684 0.00034961330465173567 -0.0005234233108209434
-0.0001892111286366662 -0.0003776314083766432 0.002289065640024942 0.05112412193007521 -0.0004929390440230761 0.0033361863853999044
0.004265399309418081 -0.03432648871772885 0.0026216782401149645 0.03771802055657255 -0.0007829841059690051 0.01670523643947327
-0.004430879527899876 -0.01895863132073099 0.008849874751914812 -0.029574717606756337 0.0022501610213185993 0.012290143719617043
-0.011783083126338929 0.0010105382390292147 0.0069472443589447645 -0.04343708905165576 0.004017206578347131 0.0037731914445890058
-0.024381740109921342 0.00975869790723337 0.00629694706190275 -0.04582122706720488 0.005886458290356414 0.0011276608989299517
-0.03474683839561545 0.012530467236571733 0.006522199217687282 -0.04359528479889778 0.006026152030025027 0.00012848442339052452
-0.04568797859709861 0.016668613537962545 0.007273577835246469 -0.04414952669990633 0.005430841967647127 -0.00012228411021606857
-0.057552372022257874 0.021486962401960782 0.008199150062390217 -0.04582700226254109 0.0042455699711062 0.00017357450524471603
-0.06965097954922721 0.026513362306111087 0.009049981287007491 -0.048102012488952545 0.002677804550270263 0.0011286429648879658
-0.0834108314807432 0.03201431252566341 0.009684256766976708 -0.051070786187293465 0.0012473622640779545 0.0030880015241601276
-0.09864820035125428 0.041902265120485505 0.010071019131970607 -0.05517933912518727 0.0010900359537036489 0.006643869816394158
-0.09733258691413312 0.037616452274999906 0.010667305451840215 -0.07321115197979229 0.0022836202086674415 0.012947848940892317
-0.08852451683177293 -0.040714883490384476 0.01276348565051285 8.659842554305079e-05 0.0005018719499663643 0.019434887225077538
-0.09750154872004901 0.037599811770403384 0.010858205654105767 0.07339252070462896 -0.001241305835764867 0.012940928129962928
-0.09899277295655767 0.04187286079752245 0.010450811471102049 0.05538662278651896 6.425235442542344e-05 0.0066219470460678635
-0.08394056988981957 0.031980285869736585 0.010244625926240257 0.05132637351343098 7.958302448234585e-05 0.003031385695229487
-0.0703698656685726 0.026488052802496435 0.009766967219154814 0.04843804909751542 -0.0011436094089356083 0.0009978195121247342
-0.0584487705660261 0.021491828088554404 0.009017443776164234 0.04629605289408602 -0.0025152328134159683 -0.0001052915099659573
-0.04671422514372556 0.016746465431116107 0.008083657791045194 0.04484083219323215 -0.003586707890540473 -0.0006806008304206458
-0.035726315236320604 0.012691319258798846 0.007132697275420793 0.044650863231570206 -0.004285031981095539 -0.0009056480223065605
-0.024931617432188115 0.0097662935123751 0.006409304717167536 0.04710167758581426 -0.004709152189965261 -0.0003719333495822292
-0.011739792888406814 0.0007763816577406669 0.0061688540376531355 0.04400460327674333 -0.0038563581067085507 0.0029729579507767278
-0.0041307456708845215 -0.017683219689351732 0.006895019437479708 0.029384669172770436 -0.0026814078624036565 0.014633998731362915
-0.011579796954552383 -0.007856812573359134 0.012189864624754241 -0.015979951073668855 0.004771625904041704 0.007433001332489727
-0.02259522304317366 0.003324426820217336 0.010339238830045894 -0.024854017444688674 0.00768635904407949 0.0016414395484219816
-0.04569341613711941 0.01606124468213681 0.010838134382889162 -0.02702429547062989 0.010831539290294352 0.00022079291368062076
-0.06940276713871076 0.02496083940801839 0.012411994229467127 -0.02534547239400709 0.010588111610664242 -0.000583746119569727
-0.09266176030292435 0.033920958310873696 0.014398676826343456 -0.025412618192451733 0.008836161383516065 -0.0010034522313606916
-0.11602933686421721 0.04325710702442503 0.016289069276680553 -0.026432551852822953 0.005995668240874018 -0.0011688133970755305
-0.13972568177552533 0.052930146927212395 0.017737239629149946 -0.027854104801465843 0.002488603660972308 -0.001015445487111494
-0.16303592405825382 0.06335978073017401 0.01849526024572952 -0.029072135720001294 -0.0008500580279772809 -0.0003209351435705722
-0.1922942279178265 0.073677001860922 0.018539203953853327 -0.032321290277734754 -0.0026161321507933567 0.0011627605487736171
-0.20560184507954726 0.09727907436002665 0.01796161760937646 -0.043907707651059606 -0.0007177486079722059 0.005152559893445085
-0.20104748645317316 -0.031748108471686416 0.020186649372343185 5.410836166568187e-05 0.0006370463246039198 0.012496852335759982
-0.20579249187418608 0.09724753337733136 0.01820621182275187 0.04402087889447097 0.002037136687584152 0.00515849660350524
-0.1926807330742194 0.07361615101077104 0.01902887676157091 0.03245010318401458 0.004066366110621429 0.0011707475695793548
-0.16362352842916442 0.0632742485133695 0.019226155775171044 0.029229840529550816 0.002499255573800006 -0.00032073430393246506
-0.14050767352132937 0.05282687770210691 0.018690503918756523 0.028059626469407066 -0.0006095743156093469 -0.0010435069583650005
-0.1169645463700773 0.04314657634571696 0.0174122985250343 0.02671651467594485 -0.003926284557845763 -0.0012659098400372164
-0.0936333817800434 0.03381534709621253 0.015577122197452845 0.025832701436699045 -0.006739220665516353 -0.0012501881579461858
-0.07017764640724873 0.02483964544857083 0.013432423773048202 0.02595966338574671 -0.008818727832346841 -0.0011027391336009902
-0.04600741531061503 0.015840459407759487 0.011367811220307127 0.027650403201158396 -0.009899875104474341 -0.0005452231179295541
-0.022453242396488143 0.0031635862240590906 0.009987607859055454 0.024991824872560978 -0.007741045492663414 0.001236039188544839
-0.01126975382203019 -0.007128661964733056 0.010784273003251724 0.015697020000501605 -0.005286598381439087 0.008743201555502273
-0.015415336383600908 -0.0041302991054203275 0.014753847776153047 -0.006229112117528209 0.009193890992196382 0.003815075754298895
-0.031273853083905755 0.004672479574055878 0.013513570486319636 -0.009950258035743334 0.012669011297739029 0.00017394331667049823
-0.0667984494714614 0.019124219160794983 0.015344917749829408 -0.010311872276075346 0.016191044820251885 -0.00046305748371181605
-0.10432567043677664 0.031115607504694096 0.01832490399985779 -0.009930650288441317 0.01512290317487779 -0.0011360847487877242
-0.13946927709587265 0.04245131454908255 0.021572946597775547 -0.010069764066155784 0.011948869585032147 -0.0017108807440184182
-0.17415275836913136 0.05406035078095729 0.024420155939370088 -0.010604575285368702 0.007190372951305745 -0.0022760577902298895
-0.20919530978108467 0.06584617955809803 0.026407688517358315 -0.011136782435560212 0.0014029874459776995 -0.0027819020647244794
-0.24384960288939447 0.07952972236458931 0.027219895335229685 -0.012319435125215382 -0.0043123966157645995 -0.003156293170857489
-0.2748955413434162 0.08670926487540326 0.026646892129808808 -0.013031816362604275 -0.008018974710150934 -0.002983850225913104
-0.3174446394901248 0.1310379350263162 0.024555112087118764 -0.028701550417704107 -0.007658364764501241 -0.0018461643565649024
-0.34601429220793883 -0.027086164846283536 0.023615115943153603 2.8140770323691836e-05 0.000779519060329272 0.008755289008307762
-0.31766106954208967 0.1309991660012489 0.024855850741945545 0.028760735043601365 0.009271447213810775 -0.0018332856934257463
-0.2753328900263464 0.0866331524840982 0.027251933814676055 0.013100043955071024 0.009788498691237693 -0.0029590983226919286
-0.24451063104930523 0.07941910671428447 0.02813117095324639 0.012404093588632472 0.00632067577261401 -0.0031225824084081108
-0.21006629031689814 0.06570512251529217 0.027613869547400343 0.011247608240393553 0.0008822590936781508 -0.0027461406566456673
-0.1751701370096589 0.05389338403775303 0.025875926182431258 0.010755365275574772 -0.004677607058573643 -0.0022542664052354793
-0.14045536054199798 0.04225487976230365 0.023165300714557118 0.010284063219551009 -0.009428191451320119 -0.001739363897068798
-0.10495759324768339 0.03085855232347262 0.019826372808137063 0.010228567128860834 -0.013097314855618875 -0.0012772157032416693
-0.06683576576422723 0.018789402985375587 0.016381527821132207 0.010622126635076359 -0.015397083838881359 -0.0007085624089879344
-0.030922130808568205 0.0045071090470265905 0.013630662813555138 0.010066451856117044 -0.013232257477088201 5.726525894342814e-05
-0.014994482371189166 -0.003659196571299512 0.01378580002906732 0.006142946739779847 -0.010338539176757653 0.004599721808718381
0.04277815631794806 -0.10936997560992374 -4.1131919918668824e-18 -0.04952437608160472 -0.02642088891885011 -0.009346194787149487
0.05422868088801589 0.0054742237091820745 -0.0067867547306956835 -0.022139401527746436 -0.028508549476204875 0.0029293907451071297
0.0793261808031967 -0.024286396561535802 -0.015371283450532515 -0.007911801384052184 -0.02674018641230462 -0.0007318960018479146
0.11065283973031632 -0.03039754816052142 -0.021867334777636555 -0.008599876678385998 -0.02376110380732441 0.0005005963878338778
0.1466612246642618 -0.04177669077641763 -0.028203357268002213 -0.008540993915219397 -0.01813534235594741 5.1373447654664e-05
0.18301944739941153 -0.05240013480155182 -0.03395769403104706 -0.008759237941080253 -0.010847262356675625 -3.49474198117195e-05
0.21859910914830524 -0.06317096582176833 -0.03892161664924991 -0.008961961903314072 -0.0016865639812936133 -0.00016399593912956137
0.25323197915955087 -0.07385701633641374 -0.04273112251672177 -0.009439039015460919 0.008431760313429303 -1.2995464755369897e-05
0.28684411174388097 -0.08480647736790019 -0.04495426580476214 -0.009917850299967376 0.01630465230840036 0.0010642458770503591
0.31607291109070146 -0.09601899435834242 -0.04545136290269456 -0.007985792243665935 0.014898015116898075 0.004088081747523228
0.3287914018019818 -0.10300540914282985 -0.045192395172014045 2.688163736261004e-05 -0.00014104287104193684 0.007254956530821083
0.3161519518193545 -0.09603846365259489 -0.045491900878444375 0.008039136195161948 -0.015164236500975172 0.004106691271680695
0.2870138636971029 -0.08484672056626875 -0.04504372952358976 0.009969224217289996 -0.01652091246197767 0.0011008069587482004
0.25352029156732697 -0.07392136231845896 -0.04288830996768405 0.00948435909144356 -0.00855579875544859 3.7971209973576754e-05
0.21906165366188482 -0.0632666377032526 -0.039179727954191196 0.008993664091639422 0.001719938386799797 -0.00010336193399520992
0.18375885235550424 -0.05254294839762517 -0.03437422986646406 0.008760975383778966 0.011137055321943218 3.2028791798535943e-06
0.1478716383507923 -0.041997947832810044 -0.028864237665329306 0.008507329224799064 0.01890301550901539 0.00010498478304654336
0.11263527728388793 -0.030751728863720917 -0.022948960321646502 0.008435065821380516 0.025083732566656722 0.00019415429724679628
0.08297813927430746 -0.024983508339777735 -0.01690270596957467 0.007605984522086711 0.03019467242467382 0.0001445233740060205
0.062415875233658547 0.003976312096788859 -0.009588597397839708 0.021953759518710293 0.025512172511054716 -0.0034556667161617415
0.054303410446080225 -0.11125557385383913 0.004094861874378615 0.0292628646888547 0.021553028733274412 0.01721844449496254
0.025607644907261837 -0.09628623295780273 0.005100963224276589 -0.031781128662697014 -0.004449645373464693 0.0008757914479515167
0.028439818217868926 0.0031049429476586827 -0.003584554393562816 -0.02761029516889909 -0.009586625436550734 0.0026622936701231697
0.0468590647241105 -0.016648793878890684 -0.009750239335494256 -0.021738282385059718 -0.016309260384378202 -0.0001747943351008854
0.0739402006151576 -0.02444959353571142 -0.014876051815671374 -0.022571643855955094 -0.013676551923516989 0.00023542232420515415
0.0976591621237836 -0.033112331592585593 -0.01935845176977814 -0.023244883131949265 -0.010191467624370457 -3.7006622711891916e-05
0.12189708554718243 -0.04165001400768363 -0.023421700840828653 -0.023372831169971166 -0.005553935730697044 -4.536597377885422e-05
0.14556837709863238 -0.05016748278617254 -0.02687121603837731 -0.023573984015897796 -1.0929705109102262e-05 0.0002230635993797662
0.16839128782219137 -0.05850473349090811 -0.029504453632071232 -0.02420322083333026 0.005943328844280733 0.0012807833918511609
0.19003904008441394 -0.06701495775962558 -0.031072920746776773 -0.02509326426530705 0.010553606272949444 0.004347991477404193
0.20840344098289934 -0.07707600452111237 -0.03150601294696462 -0.02058906684734307 0.009726389474630667 0.011040210800098217
0.2163035015035562 -0.08596584631276342 -0.031381033873537564 3.891349160161224e-05 5.4339470765384374e-05 0.017705271049785472
0.20848094531588554 -0.077099912395902 -0.03152217933555579 0.020665698043061145 -0.009592980264085468 0.01104421688255466
0.19020449349061447 -0.0670639078680639 -0.031113228177229474 0.025164763439682443 -0.010345119285422538 0.0043515693539809205
0.16866900385664463 -0.058581421076741795 -0.029586881438466123 0.024260531267842625 -0.005605294943204572 0.0012725126567034643
0.146004724330811 -0.05027744784378104 -0.027028700845183593 0.023598684218374976 0.0005409257203658489 0.00018005962176466752
0.12257934557916948 -0.04180600690060031 -0.0237086766679247 0.02333225059615122 0.006365538480285187 -0.0001703978991651057
0.09873847065310525 -0.033340434640818 -0.019870127323742985 0.023095000318623223 0.011382939225047779 -0.0002981919757392916
0.07573897139222627 -0.02479154675247597 -0.01573198388504077 0.022194954492002917 0.01552738246447976 -0.0003560691272155529
0.049988256704659645 -0.017327901452418342 -0.011214320880377845 0.02077588192042446 0.018639436886157237 -0.0007066184046339678
0.031574356956213814 0.002715973275338592 -0.0052126270964114735 0.0253144737369545 0.010204766065201735 -0.0019382443818616213
0.027891086236242736 -0.09716871690234027 0.005205742964664089 0.01886466162165774 0.0030517833445247843 0.01816359747478909
0.014197019347536107 -0.06954659625479792 0.007223977279453709 -0.041945746184500275 0.0007055574390833355 0.01751765520365083
0.012549000173791337 -0.0009172018611288163 0.0003875185584897364 -0.04794971514131172 -0.002191389443549746 0.0026327290898014483
0.019753900058953878 -0.004306948983672096 -0.004069596392111538 -0.03965308104298971 -0.006581185154084885 0.0008027422760052041
0.035658052414570145 -0.011972591914388386 -0.007179202091111231 -0.04077865463446223 -0.005589676288286036 -1.1136579167357271e-05
0.04872855928678848 -0.016320715348274235 -0.00965900779090187 -0.0412206056984502 -0.00354264670024263 8.700800272923065e-06
0.060765631420103126 -0.020555924808397012 -0.01177738026978756 -0.04138180278509831 -0.001195329582551791 0.00026609307075148357
0.07249584047202194 -0.02472807469173447 -0.013521694130770603 -0.04148092235175312 0.001517643369874908 0.001171037272030091
0.08337705617179712 -0.02843309703020556 -0.014801781014793366 -0.041931615665404105 0.00459856462287027 0.0034363711836739056
0.0938360322146104 -0.03207993856468673 -0.015525682797561646 -0.043388794171918064 0.007974132114472517 0.008757259404559643
0.10513998052842133 -0.04086516853335209 -0.015606261699198945 -0.037528250461492586 0.008862142972758587 0.019821492287338538
0.11117198962666469 -0.05651176713352021 -0.015323623307245057 5.7078907306341506e-05 0.0002276442042401835 0.03261780779585273
0.10521482290432212 -0.04089773798557038 -0.01559733319248045 0.03764020669932856 -0.00837509939446854 0.01981221871027929
0.09399379822252266 -0.03214573391603917 -0.015514751560854313 0.04349156110604756 -0.0073925558868901614 0.008730604057373121
0.0836357886940644 -0.02853324724602677 -0.01480483381145902 0.04200969237706144 -0.003862347031184041 0.0033726158497833104
0.07288945190644285 -0.024864309477569575 -0.013568196396771289 0.041502383156184104 -0.0005709748257968388 0.0010294117837512996
0.061356776218542394 -0.020734345875164633 -0.011918632649443059 0.04129026378739305 0.002401366530139 -2.4066464387151315e-05
0.04963651779717159 -0.01655358977719321 -0.009977980170802292 0.04092609977828086 0.005058575056922779 -0.0005659418956874384
0.03712893848971881 -0.012301941464250114 -0.007809661655748153 0.04010824857627758 0.00747169000523712 -0.0009659157303572182
0.02163122722838675 -0.004697897899729722 -0.0051590738634312745 0.03808477558374992 0.008485571076382618 -0.0011161486167223058
0.013932919462379397 -1.8788892520234745e-05 -0.0008835740195831112 0.04478035006000887 0.0025803171988769674 0.000832291366629263
0.015046279980757573 -0.06953189478124104 0.006508256463607688 0.038311966293882935 -0.0015768243342968872 0.024548163489707557
0.004812263858945477 -0.043859788309768374 0.008396606774826433 -0.03966052275007322 0.002277952894470469 0.019206345024397976
-0.0002266041085724888 -0.002435960725496798 0.004066976768847918 -0.05267938704437203 0.002175375221295137 0.00472247410150294
-0.004044496883614167 0.0037062100213337986 0.0016523691261858143 -0.05008936548923142 0.0013609787883411269 0.0011915242377141476
-0.00167363891892726 0.000703598571891392 0.0007306245956755303 -0.047313456347785846 0.0019025519429316316 0.00029475700850237034
-0.00042716348688903337 -6.811147993230998e-05 0.00040059813244854676 -0.04730673059581784 0.002555610701018047 0.00025258108038358346
-0.0003407176338825789 1.6513846479134978e-06 0.0003113318835780248 -0.047411828154345886 0.002900299009465293 0.0007486982365266788
-0.0004749801525116336 -2.5918039515575997e-05 0.00036071048386775536 -0.047523089782505946 0.0031379427214600366 0.0019496282865638715
-0.0013887421909730652 0.0005770245447092635 0.0005156577376202235 -0.0471956176178047 0.003747926406682082 0.004520483984976756
-0.00197671125244321 0.002080829972003002 0.0007010320336983119 -0.04870571846242553 0.006351012303486103 0.010039503716277149
0.0038032812508229873 -0.00564377676165735 0.000976326959675396 -0.04767167044861701 0.009817115541916992 0.022098554597236482
0.009399166520409086 -0.0353122296445352 0.0014941783173236687 6.20660882575155e-05 0.0003921536030393497 0.041878811943572
0.003874823956726239 -0.005684795687278567 0.0010108622176972291 0.047793329233507764 -0.008994610478078086 0.022085428739044774
-0.0018285335376575854 0.0019988101583180867 0.000764531677224579 0.04881705479479132 -0.005416667388877209 0.01000396563445673
-0.0011532947652579716 0.0004548568294364282 0.0005949338519668076 0.047279179772419876 -0.0026376774068281434 0.004439776050246684
-0.0001336240701371071 -0.00018563271782773 0.00043051649950430514 0.047542573933735954 -0.0018080823665112152 0.001778482730731635
0.00014135244342057058 -0.0001922077756613993 0.00032704598518546347 0.04729955633224442 -0.001341916639669065 0.000400884565670854
0.00027592457329301645 -0.00029819231745843684 0.0002867955867120239 0.04694800691241281 -0.0008062355220985247 -0.0004121444255080021
-0.0006836769640229964 0.00042721225502990654 0.0003689376382424841 0.046508719154077574 -7.463860443106635e-05 -0.0009084232792808563
-0.0030363821628160456 0.0037027905130971295 0.0009354849635809009 0.048475107614038435 6.493290055215663e-05 -0.0007510636445369645
0.0004200783331364003 -0.001479859019900704 0.003111062015822374 0.05098736879380974 -0.002056137660069316 0.0035507675029854305
0.00522705985072756 -0.04398620878749851 0.007586842298801576 0.03848403572325108 -0.0029816343297934017 0.023408977700131603
-0.0037022194198277443 -0.022765795858289285 0.009474832464725892 -0.030028565370080983 0.003842811166251556 0.01661121340660788
-0.011911561582050045 -0.0009147274170777827 0.007438600608283083 -0.0446267563241465 0.006204460593415675 0.004815714252121649
-0.02626996329701319 0.009932306101860612 0.007249812883896246 -0.04613302550546082 0.008768316700359845 0.0012371998136693643
-0.03797872997453072 0.012739717912067626 0.008588740250741323 -0.04193805369469877 0.009370305876896948 0.00015159145172898583
-0.04953737862597068 0.016333034867218536 0.010445967124382007 -0.04107015359350741 0.008721589592767748 -5.472206381250814e-05
-0.06156380619093775 0.020559551447774355 0.012391150042139566 -0.04128552608725621 0.007050221672746802 0.0002726194194402
-0.07335459052904408 0.024799921074488994 0.014239891137056749 -0.04138416423748133 0.004857742421640885 0.0012729164887027506
-0.0855468142034367 0.02895606365417043 0.015844821082013516 -0.04101442670783359 0.002707841181109799 0.0031068315426052793
-0.0979110285064027 0.035841387250489465 0.01692745323074092 -0.04032634426901155 0.0033816283249290414 0.007021483168526217
-0.09809747186473851 0.034029508933644814 0.017232661484236484 -0.050983331562668405 0.010448301227191842 0.016151917998136832
-0.09233167572333915 -0.021132721870569072 0.0177394996159416 5.844372333364844e-05 0.0005601772167822611 0.04380152119388935
-0.09802909892242576 0.03397976184932444 0.017293127605788973 0.05109837117612225 -0.00928274150499153 0.016144607111432903
-0.09777226545814476 0.03574262992487956 0.017044309520434706 0.04043327739152585 -0.002085167308514476 0.006998766807610157
-0.08533457781925222 0.02881108463650183 0.016007880600275557 0.04109852978603742 -0.0012113926798324075 0.003048955023645456
-0.07306617309661546 0.024615993308750556 0.014428553808360339 0.04141373502270309 -0.0031282053016387463 0.0011398996010598367
-0.06119315105241641 0.020350346272825698 0.01256735155471463 0.041197798094069725 -0.005121026618373864 -1.1713335485234754e-05
-0.04906969142914631 0.016111694790835025 0.010543543609898207 0.0407523489749348 -0.006727144470996739 -0.0006296981828042543
-0.03744334167966537 0.012561617466005265 0.008505685522354561 0.041205292356623326 -0.007592485712583221 -0.0009235978394625392
-0.0258351984101643 0.010064916059412664 0.0068818120126368214 0.04499975514419292 -0.007709220097261126 -0.00033765727851075845
-0.011647654272732877 -0.0002447172012027097 0.006800488735973111 0.04390006485205284 -0.006243440747999346 0.004009534833559689
-0.0034942655528636592 -0.02288007800708992 0.008775284694865878 0.02975722405483723 -0.004422740932924038 0.019398314151390886
-0.010894393562971274 -0.00903976094836203 0.010991845931495624 -0.015703453870014962 0.006886733348552828 0.010782913408891327
-0.02272028421164343 0.0022482025975867847 0.01064752768439798 -0.024950018800262326 0.011479697134170465 0.003277444793286997
-0.04790245763602548 0.0158966079998724 0.012594748336998586 -0.026613141314104912 0.01695237675003576 0.0011296881517664883
-0.07385788500745147 0.0248154055327819 0.01613824932744074 -0.023859944766746827 0.01759349574863876 0.00017867931573207943
-0.09865288026462778 0.03324213351171543 0.020104716292342072 -0.023080661076943395 0.015524072032397591 -8.256693760702885e-05
-0.12282265031580146 0.04176061464708637 0.024001290526593017 -0.02326506611953046 0.011618231972127684 -4.644955378439264e-05
-0.14653472024180658 0.050249068309244416 0.02758257522956323 -0.023481204404182675 0.006561778892096031 0.0002923285658409006
-0.16875317589178432 0.05879337087892647 0.03057511153953982 -0.023045290319025358 0.0014104304849643671 0.001183591059518155
-0.19312330295612898 0.06637064776900707 0.0325533792340712 -0.02377259538455901 -0.0031589946640315264 0.001856395381445234
-0.2031452094863305 0.08419897907797413 0.03225079002405177 -0.03220050302023672 0.006593397382935101 0.006036405149398579
-0.1992607778433383 -0.009932729536545289 0.0314376411625526 4.0531772717344655e-05 0.0007440821780983303 0.03224346097721536
-0.20307918419334609 0.08413986256826975 0.03233728998322352 0.032280843995520773 -0.005051196318175016 0.006043521650323384
-0.19299192554574934 0.06625372293764996 0.03272374692393934 0.023849226479515897 0.0048568296692763704 0.001866211229541223
-0.16855999572807862 0.058623013505391196 0.030821987725208114 0.023110127016911165 0.0005217961687602368 0.0011849859621477765
-0.14629055072143818 0.05003657047777381 0.027889451721858555 0.02351568906635079 -0.004366779162376384 0.0002622924638320809
-0.12255197594292969 0.041528480177593946 0.024335487165213308 0.023231510197853786 -0.009229477196606085 -0.00015421511515419892
-0.0984051492310649 0.03303088612115388 0.020407883126641185 0.02290463403756006 -0.013174928923475783 -0.00036040077876422507
-0.07371406070591215 0.02471285337419126 0.016318113372050195 0.023445740097539178 -0.015736468538206864 -0.00040684805913915323
-0.04791095287764752 0.016057885856302568 0.012538468725551467 0.026055194820170016 -0.01614913990689723 0.0002700279620943028
-0.022751857244542126 0.0026509616000358507 0.010304952666690157 0.02470345543629479 -0.01173455527426111 0.002856920879713609
-0.010872729257014472 -0.009027964574271886 0.010466065086823061 0.015646569294317892 -0.00754380546459551 0.012377967838864582
-0.014637029924693151 -0.004376804595768201 0.013337223603153566 -0.006014700198423997 0.013166217224819945 0.006988353072275311
-0.03135586218139232 0.0040240044867284165 0.013855340870328801 -0.009763712074180517 0.019773860108028733 0.002278482247477739
-0.06950991741627528 0.018943730609789832 0.017518081769264896 -0.009588737406520269 0.02751874518809078 0.0012262494663679907
-0.11029012336737476 0.03100211730308672 0.022999194296995675 -0.008694562015974393 0.027745901214048446 0.0005079793957729615
-0.14787317007221135 0.04187543261692413 0.02883638103321769 -0.008500916435109978 0.023855531669397245 0.0002527522313432182
-0.184070105018648 0.052617385570898456 0.03447815262474594 -0.008698784682656231 0.01717481811221937 8.196398435210146e-05
-0.21965051169247346 0.06313860802337191 0.03961296851477012 -0.008809593250500947 0.008640780011903729 -4.664108252375892e-05
-0.2535224141957153 0.07454240695393924 0.04386004376290065 -0.009209006109527813 -0.0007977549410112263 -2.347190000886513e-05
-0.281466146239899 0.08015661995906388 0.04664809373739855 -0.009480787939279672 -0.010514903020476455 -0.00017158734647683177
-0.3108432550531032 0.11264870914816583 0.045681122925525855 -0.022982137289825483 -0.015686574344572594 -0.003716547831813292
-0.3285107277601112 -0.004127223836679308 0.038143345204839835 1.945713974407185e-05 0.0009573267618759591 0.034284665708075104
-0.3107786067684206 0.11258472489526507 0.04579341604501361 0.02302110139634404 0.017667291220894808 -0.003703198868167657
-0.28133933150521545 0.0800301790043964 0.046871230219752355 0.009519293443930618 0.012686020196645362 -0.00014718267188922594
-0.2533413461683701 0.07435858605368051 0.044188797315890406 0.009244350164381692 0.0032559166294010445 6.1964223180229795e-06
-0.21943497903848092 0.06291024987322079 0.04003339161174049 0.008834649495431788 -0.005860593471657788 -2.361931920647495e-05
-0.1838666166523297 0.052371478604967554 0.034959825133637545 0.008698431556756198 -0.014160608821462552 7.400971517214393e-05
-0.14778377544706978 0.04166625613128133 0.029322271137718087 0.008443187221615578 -0.02092194126542467 0.00016472238496772492
-0.11046806802009938 0.03092941461370101 0.02339560999021287 0.008536715484515262 -0.025538040321232233 0.0002651033696030016
-0.06997385095622646 0.01911502185437456 0.01769972278865152 0.009358335525495637 -0.026861512538763455 0.0008562681288245581
-0.03176603040013499 0.004324851801604485 0.013745619414339655 0.009648192682644883 -0.020604743135461727 0.002114259477893352
-0.014883005470557662 -0.004286261097720112 0.013015051648950973 0.0059204351030317385 -0.01453372865221549 0.007953365988740572
0.04573231309448413 -0.1699554500449949 1.9678269430611905e-17 -0.09628215602323867 -0.03969391425003717 0.05001903241967063
0.05506325538626482 0.017667204017933046 -0.006371052158969826 -0.04277041211437756 -0.04131666089443834 0.0017010058736603364
0.07672812909090715 -0.02396249079797464 -0.016803227785611885 -0.020163131489563287 -0.04036350892647042 0.014031119777825903
0.10790145728962916 -0.02814953554860112 -0.02362385358065188 -0.020792655056708305 -0.03591471188723256 0.015224298273577234
0.14646903860560573 -0.04048968976007175 -0.031245917923242425 -0.019596509087297778 -0.03209474565109338 0.020909537215020608
0.1855824083352447 -0.05131230985828873 -0.03858118571285504 -0.017780305970683925 -0.025208577269952414 0.0257841079329347
0.22373283012168166 -0.06223995944952623 -0.04548142235735601 -0.014852075828665419 -0.01572288110750012 0.030792948360582707
0.2596063045528254 -0.07272382414498849 -0.05151958088739012 -0.010826332246554222 -0.0038322530169203704 0.035714776381509224
0.2897065054733827 -0.08182793735668796 -0.05607849314205579 -0.005634806663725499 0.007758552868784725 0.04078851582778246
0.3088671428945152 -0.08712318433537711 -0.058592746667512505 -0.0010469776934138838 0.011046051396456685 0.046240059767308175
0.31509179868475284 -0.08742392831531429 -0.059285017479390946 -0.00012823641369486948 -0.0002655272582728185 0.04995846625056309
0.3091019903478809 -0.08719800477535448 -0.05864807293188759 0.0007838467229714634 -0.011572442074342753 0.046252958780290294
0.2902213595923227 -0.08199155726413156 -0.05619786623137794 0.005351709533303077 -0.008269536980392653 0.040814084487466006
0.2604974762319703 -0.07300572949603866 -0.05172237778195951 0.010509490313823552 0.003353316429302573 0.035753670527764354
0.22516063990009316 -0.0626870828107849 -0.04580045713193668 0.014488800177433456 0.015300594763522154 0.03083991091682821
0.18778293820905106 -0.051996133149627186 -0.039076342712665614 0.017352705617245542 0.024897167861615152 0.02585792050555577
0.1497759239644774 -0.041492386268384834 -0.03199026311050273 0.019106412212975744 0.0318955594928825 0.020916605434997026
0.11276280715704998 -0.029589899343696137 -0.024865001205907976 0.02009880476186632 0.03614446511730445 0.015614034467455146
0.08458227275911859 -0.026029685060068582 -0.018290657455060616 0.019322987874652694 0.039731498520772 0.012736970822259608
0.07196783370494596 0.014795281913874598 -0.01091971262818162 0.04437746298133858 0.05312729231808637 0.009357372379931197
0.06959791873958739 -0.17935517330812228 0.014315286951718277 0.05787429244599365 0.06958886292993165 0.01940024250263953
0.02809090955994922 -0.14754317115543047 0.011873045441364017 -0.06179950084107601 -0.03279573517364469 0.02875298747874281
0.02536866921813212 0.011798206274929382 -0.004166612292098209 -0.051206256054459436 -0.027460862867487938 0.008624301264609818
0.040503875961269246 -0.014698010469408744 -0.010866722905260267 -0.042604874939603646 -0.02491574528928114 0.01511836197387682
0.0703482590903621 -0.022577426938554697 -0.016801139324268168 -0.043151189939618625 -0.022029778005869888 0.019605126034904385
0.0955227741590832 -0.03185655387942411 -0.022238538259626506 -0.042180547190449155 -0.019117410679695707 0.02601028774214515
0.12158677466708553 -0.04069355643981117 -0.02762521035651189 -0.03874347082056462 -0.015064812762028507 0.03239739636262862
0.14691296492623476 -0.0494099456735992 -0.03261207326489703 -0.03366315166896816 -0.00942637935761285 0.03882116200433546
0.17072545951294035 -0.057918720846193275 -0.03695801297038694 -0.026252823048133648 -0.002467013208244093 0.04545103297547753
0.19080183272285908 -0.06528866682640856 -0.04026247938915177 -0.015507461682590045 0.004387206109426564 0.05299787450902235
0.20373710856555866 -0.06850275108347235 -0.0422470637380805 -0.00408154401036859 0.006542832003115642 0.06246499201757253
0.2080179343323338 -0.06600928626205083 -0.04299448755890282 -0.00022864098647617332 -6.360506245788608e-05 0.06980775769478507
0.20398402103629112 -0.06858059796877645 -0.04229240967797999 0.0036097012822597706 -0.006657377518921007 0.06246634558634832
0.19133698281469813 -0.06545753211474745 -0.04036206572033703 0.014991205433295917 -0.004463343063230627 0.05299885266743407
0.17163500726717942 -0.0582057915085936 -0.03713107558558426 0.025659873435802304 0.0024554109359923395 0.04544796622959674
0.1483347006999311 -0.04985802277918824 -0.03289294238199475 0.03295754257879377 0.009508527650155208 0.038806465507004013
0.1237205888093649 -0.0413660463228668 -0.028065756320057148 0.03788505929818259 0.015260041135939347 0.03236523726151365
0.09863139408147761 -0.03283162380945681 -0.022939879903682858 0.04112743593911242 0.01947511682556102 0.025926584815325806
0.07483964313491819 -0.023931177288296007 -0.0178436043055039 0.04172951690029799 0.022394386018820937 0.019588057533950577
0.04694944798385266 -0.01657040192138286 -0.01270615905178316 0.04041063372975311 0.025946575826439694 0.01452969218098085
0.031188046479374544 0.011052502047195194 -0.005849372243072423 0.048298223027282365 0.031403043424786524 0.012370260989272776
0.03215243063898561 -0.15478289281727925 0.014751646553253658 0.03867231600684019 0.03883157946031437 0.011678471417057391
0.014484845103896603 -0.10266193486158001 0.012982688562914476 -0.07255645918381366 -0.01997016096332637 0.009522967294844446
0.008506108593212618 0.002461971508870308 0.0006221455421053824 -0.08317576571744625 -0.015628738686140023 0.013403279093862385
0.012586154227771729 -0.00045896188961626187 -0.0046918135042435935 -0.07254875501012634 -0.01231595352790921 0.017260823631025324
0.030769281412641184 -0.01018262791062504 -0.008142596829566124 -0.07378498999323972 -0.009987771944160746 0.025004560563204003
0.04561130544918442 -0.015101148100891783 -0.011133687381027668 -0.07127903738449026 -0.008168578706271181 0.03299978623234761
0.05901118950922902 -0.019717032931008214 -0.013968047235902049 -0.06579397127029629 -0.006181768163221381 0.04139842600009663
0.072212348311478 -0.024186897382825468 -0.016589209725305882 -0.05763793893153068 -0.0035158235717250835 0.049873705902697164
0.08496026255001642 -0.028874756698171588 -0.01885360083194587 -0.04578508273946842 3.419116607453844e-05 0.058813680218874134
0.09584587964053527 -0.03307150347048384 -0.020631521136624906 -0.02749676499781714 0.004546808146856712 0.06934080748434396
0.1014353956246918 -0.03159424871640067 -0.021942825079906515 -0.005934628262578611 0.006949911106321822 0.08371378416718177
0.10242858892055297 -0.020926258007232277 -0.022793522071804028 -0.00036537097217270503 9.775715175211724e-05 0.09724646669757532
0.10168588041827935 -0.03167693295529109 -0.021976989010703874 0.005179645328956917 -0.006735094318152706 0.0837062414803879
0.09638365062897858 -0.03324850766681804 -0.020707931409884542 0.026667628346057237 -0.004275050092654339 0.06932346300082877
0.08585960966866127 -0.029169107766303718 -0.018989851062962464 0.04482711395797299 0.0003288688934445528 0.058781085913254046
0.07358716745410523 -0.024633091303664603 -0.016814950398651923 0.05648787536109896 0.003995511148261166 0.04981703914939509
0.06101712073775323 -0.020365365899697088 -0.014331650183005591 0.06437730284883349 0.0067877716815929155 0.04129796258667122
0.04844208259518455 -0.016009832286859725 -0.011706387645051119 0.06950279935558114 0.008869973795219225 0.03285254032526933
0.034619676922454955 -0.011394471652232998 -0.00904705678533807 0.07141200267056971 0.010710735179243785 0.024711407611385048
0.01658922906036025 -0.0015413411342690764 -0.006078920011004171 0.06910041443189441 0.013318756441489728 0.01732562468967247
0.011180473202514533 0.0039042988272375554 -0.0005905362002686836 0.07857899671451606 0.017114011466439566 0.013609093177466142
0.016232339598710257 -0.10708156070846658 0.013591311612406 0.06858228445304507 0.02191342665326716 0.009101562372862478
0.003892502877237399 -0.061560522748210084 0.01159449199486353 -0.06709644852378763 -0.009008735973007076 0.003358218156864027
-0.004438694227467634 -0.001305099643613854 0.004509485776439771 -0.08796068422372266 -0.005104119604247898 0.011639960736580721
-0.011146896114720474 0.00778343053959992 0.001669943987327111 -0.08831362080746823 -0.0008050945372541336 0.017846782334225382
-0.007288011470696196 0.0029978931536046626 0.0009519043841983825 -0.08431031541649989 0.0013382293485005585 0.02629317696153374
-0.004226758985217311 0.001273323964295588 0.0006873643973442589 -0.08084427121862435 0.0019721855745824307 0.035026616103933136
-0.002852230278345616 0.0008950186245976979 0.0005326728356892691 -0.07457852279997607 0.0021450681571063596 0.04393042773039201
-0.001577959059328222 0.0005296307795180528 0.00042912306722721653 -0.06547240706402857 0.002301922125695718 0.05303130044544958
0.0005290884046892119 -0.0003741906199183502 0.00036152788817831133 -0.05267040660508712 0.0029005514793935695 0.06251093076042794
0.0028904973085879773 -0.0021242177236974304 0.00019565012448732357 -0.031725044827337776 0.00561520177592183 0.07338359774098968
0.0006633929822114893 0.0038626016046359466 -0.0004776873449139628 -0.0019653945218644575 0.009128105232753298 0.08898624793754076
-0.002482588741009179 0.029779049100308642 -0.001755002580697538 -0.0004102277157113786 0.0002427688930690514 0.10909283188744258
0.0009138245564224846 0.0037766593733739493 -0.0005000289234788569 0.0011169793742991027 -0.008617054873903488 0.08897595192244015
0.0034231988607226252 -0.002306367254701573 0.00014406625406308826 0.030791108177246004 -0.00502973888740226 0.07336043365011545
0.0014056659634030587 -0.0006719029183506851 0.0002659964160830764 0.051588029658876024 -0.0021996046279730824 0.062469035357439674
-0.00027032926711524456 8.952274986833981e-05 0.000265191262064792 0.06416769468244204 -0.001462313342279811 0.052959203127852635
-0.0010085501197619334 0.00027724971693021715 0.0002632599759645189 0.07295886356171154 -0.001179714599102631 0.04381053101747882
-0.0017379054923799553 0.00043750133103925295 0.0002565685578049239 0.07878199047586294 -0.0009576368927399046 0.03482819813369734
-0.004311253608268359 0.0019843553509072305 0.0002732351977244771 0.08161432443889065 -0.0003940294427072256 0.02601812390831853
-0.008627708725930395 0.007495781562843665 0.0007040625870797116 0.08491181429117733 0.0015851097224503547 0.017695565936076636
-0.0029951692662131112 -7.485964382193222e-05 0.0036287787866905365 0.0859571930248126 0.005758692231436302 0.011966007965360728
0.004856523427489766 -0.06463437912670231 0.011650041620002057 0.06645573544172728 0.009822371033658866 0.0052635355954761785
-0.0054616205946029315 -0.02949505099895679 0.010136862837121313 -0.05099365879857547 0.00013225356227005005 0.0026516466625007527
-0.01619268811025058 2.6649495055747923e-05 0.007593548934579206 -0.07397053760387744 0.004781936138623986 0.009031628898237467
-0.03310549326644712 0.013820444346194165 0.007819996174827275 -0.08126157956096393 0.010848436326695252 0.016499278514764803
-0.04396743300321063 0.015255650909941925 0.00997951150240226 -0.07573592929351185 0.012868344421048646 0.024770829424639207
-0.053992722939079314 0.017851759597492026 0.012506588956822487 -0.071345857497055 0.012252603505426275 0.033076735803427425
-0.06476939677056172 0.021536958341413975 0.015028671301147399 -0.06575139289968716 0.010516836458039566 0.04140563168545272
-0.0754191090161521 0.02514110083789281 0.01744223405648876 -0.0577352656665336 0.008276885634948276 0.04996352709747737
-0.08430699791601895 0.02857582982835591 0.019599102502678822 -0.04633082599378008 0.0056146350411688415 0.05855779595785427
-0.08977670665096024 0.028884283926977297 0.021085157247290872 -0.029448598096155545 0.004997717907163068 0.06773001981930137
-0.09977246560035977 0.0352231728231253 0.020883034034520544 0.00757003074988431 0.010215643608357023 0.0804280128781285
-0.10790715491112514 0.08900385817586513 0.01830560029347487 -0.0003692470158896833 0.00039099676702626976 0.10665247756905297
-0.09952101678427813 0.03513380608295889 0.020872484463786863 -0.008334093483544143 -0.009401249013123919 0.08042116907402846
-0.08924703724204928 0.028696618858939312 0.021058469438431076 0.028606483736500658 -0.004089520635962724 0.06771419683163074
-0.0834503607513049 0.02827393471161493 0.019544549547954763 0.0453537791595976 -0.004563457597339909 0.05852792685722061
-0.07417697988017577 0.024706135535196953 0.01734110816367926 0.05655684959301291 -0.007061254081880233 0.04990993654201077
-0.06309254856365205 0.020951971324378264 0.014854460918648817 0.06428309299204134 -0.009171173318964982 0.0413114093557635
-0.051901971321960096 0.017105698475138608 0.012222989680189629 0.06946506327108011 -0.010904167413110235 0.03291932899183565
-0.041769282092137504 0.014505900479378895 0.009540788938994448 0.07333190076171897 -0.011755402184616803 0.024557385191215503
-0.031496401334883885 0.013752521830879974 0.007216327926402136 0.0789316030718565 -0.010226042742532096 0.01635568988320485
-0.015379827777834414 0.0007410006286015424 0.00702309680128261 0.07341869145763073 -0.004528102501655957 0.00943205435687363
-0.004935261018948502 -0.03126356553475977 0.010045102895315645 0.05135820465221671 0.00014320860985132843 0.004433523840555642
-0.012837598434162652 -0.009668800179171638 0.00972826055076293 -0.02823375264318594 0.008165172739673066 0.0038857651592854496
-0.026685926845741333 0.0036121138102283012 0.01027852118437524 -0.04261785715082859 0.014891952857019067 0.0064835495464337575
-0.05427696366468747 0.019199831991922992 0.013482876840190113 -0.04881913641853103 0.023748725953259234 0.012963663259103335
-0.08020965043833937 0.02720422419723375 0.018445975810581185 -0.04539715369854318 0.025650921751259124 0.019561141673223623
-0.10414677320250526 0.034761980142623654 0.023616302653510137 -0.04225986576226532 0.023542239065744455 0.025988582431845986
-0.1274486798727945 0.042605365167731314 0.028660350750343035 -0.03874392210298212 0.01960079513028863 0.03239107347734139
-0.1499823928680463 0.05036301650992045 0.033448737923570365 -0.03376451330754216 0.014457829659831434 0.03886623173432075
-0.17139589672110866 0.05752082863973328 0.03775880965648966 -0.0270534306207017 0.008561221762263658 0.045438726571232504
-0.1851660030166132 0.06453883127410866 0.04093375480891155 -0.015697419047132278 8.91668032658049e-05 0.05092459848784782
-0.20084819909646534 0.058982126019722476 0.04097855094747794 0.007979357506539558 0.003988831751216279 0.05818921424751341
-0.21313163118950817 0.15712624317920182 0.03500486747181645 -0.00023361896408161803 0.0005623121410316544 0.0773325585006186
-0.20058950117649266 0.05888697097978459 0.04097911328798083 -0.008462645511275506 -0.002823040258930649 0.05819137575143264
-0.18462675466368333 0.06434104459821266 0.0409303975073733 0.015165342627608044 0.0011954230958613472 0.05092779301921682
-0.17053989577569928 0.0572081290535157 0.03774227079875464 0.02643780663403717 -0.007097031884362931 0.045440117252667875
-0.14877851699749542 0.04992528197185451 0.03340475456172028 0.033025654641118146 -0.012791092041547488 0.038859876407938226
-0.12591374074300174 0.04204582891337039 0.028570652066606184 0.03783089700420647 -0.017784559362320138 0.03236602334306361
-0.10243297634671869 0.03412899846505345 0.02346201271417678 0.04109920869671866 -0.02176832542012443 0.025931249880756894
-0.0786962232737781 0.026696770961757207 0.018211126734382167 0.0439915297925196 -0.024304370427427925 0.019473144874215295
-0.05340695694854942 0.019216608409356708 0.013164156225529203 0.0476856837156273 -0.02323541500997368 0.0129260205948511
-0.026392416311604886 0.003998017196315917 0.00996463874243605 0.042606906685898185 -0.014991489737602566 0.006767643740236914
-0.012704724280274473 -0.01036488499089353 0.009620237030709087 0.028605951413534177 -0.00836162570061674 0.005041062036296406
-0.01454689861797218 -0.003275566399556083 0.011105195806748154 -0.013921110531099146 0.016346532359075232 0.004689823047184809
-0.03302157300934781 0.005565994857302706 0.0128510681688213 -0.019963019790407027 0.02644441916759096 0.005422570383039638
-0.07465599783670734 0.02181003000904716 0.01810613025425197 -0.022444156924857357 0.03923876819734351 0.010765835240478179
-0.11752992787996125 0.03325287037453481 0.025270702210364586 -0.02157998172764957 0.04096691093030973 0.016022521309581966
-0.15544511459807372 0.04334596722186153 0.03251736676095225 -0.02006673698193588 0.036926912558218915 0.021006919281392006
-0.19154671779603963 0.053286113742512894 0.03957532182527439 -0.018003246487482357 0.03014682693352825 0.0259388854179836
-0.22669225751721028 0.06329695577107021 0.04630620056251953 -0.015297613780692262 0.021283190959313213 0.030941250943866617
-0.2600397296756145 0.07177751223186324 0.052343440128154235 -0.011213231091268958 0.010758695026972057 0.03551621397519869
-0.2917169541671364 0.08445426989170647 0.057163177300164514 -0.005487282628365203 -0.004356882782039172 0.040933707568905596
-0.3064153495916702 0.06854928920370014 0.05743249087360569 0.015250159719076756 -0.03163594872861485 0.03676129939259464
-0.3054706228795636 0.193060740012968 0.04331040021643753 -0.00015095477789274503 0.0007818907940407138 0.07581232943118053
-0.3061368017805627 0.06845032328878316 0.057442962772986626 -0.015562010452753176 0.03325311778529542 0.036765710834922
-0.29114268891992057 0.08424962533741645 0.05718017821181737 0.0051458452979879915 0.0061280895074214085 0.040941272687814736
-0.2591452212344912 0.07145694485855915 0.05235873484753597 0.010823197866788746 -0.008754755830408058 0.035524072654341654
-0.22547179227384534 0.06285455823278958 0.04630693600718949 0.014841889537027577 -0.019016835361094775 0.030944220343632457
-0.1900795915999547 0.052736986915132546 0.03954536027348429 0.017469223892148264 -0.027687715946814687 0.025929282194984686
-0.15402290854276482 0.04277040586509892 0.03244258829959059 0.019448660842720965 -0.03454015457029917 0.02097953175953999
-0.11669733973617404 0.032866939738141254 0.025144094177135742 0.020922816109178198 -0.039223581933584 0.015988336704794427
-0.07473534237955914 0.021891299768481816 0.017924202426711288 0.02197139556545808 -0.03881271780762902 0.01078787142122987
-0.033477027336377675 0.00586543837382574 0.012674377426993386 0.019991426076963893 -0.02707845465341335 0.005617758578690679
-0.014924302432852997 -0.0035188880751752835 0.011077239035854742 0.014033986048774403 -0.017239224013332725 0.0054605736154494525
SCALARS Stress_vm float 1
LOOKUP_TABLE default
33266.03228662656
15257.885866260542
16501.650820005594
22839.057341328644
30471.76834835054
38173.97462937319
45761.23383796577
52968.524670355604
59084.22182438103
62886.34855718443
63882.5980668091
62934.98856552253
59187.69881035501
53144.3009999133
46040.20061161469
38602.672751604405
31109.71693028297
23774.554309110103
17881.50223741959
17964.068042786443
35946.79110642922
28241.48513497484
8883.8316278612
11752.46101293855
16834.270037597886
21939.350543255354
27108.939629464643
32247.549644145416
37196.08164885329
41474.55014290832
44121.18333017079
44616.562088178165
44165.64978779653
41569.172764777126
37355.64615727853
32495.71421979349
27477.524678022022
22464.461503651757
17541.044939568386
12564.879158068112
9391.779045924015
29376.761975456087
20820.404895290478
10993.509788904092
10835.325344790543
12773.874220086174
14839.601831008871
17055.0544731254
19423.09743377946
21949.981823797356
24347.652125501674
25577.089291713914
25134.57941843552
25607.0134417185
24407.277249525658
22046.915931648844
19567.379215168086
17252.477568946826
15076.24404052249
12958.765137369523
10750.120123684235
10298.950811428334
21365.351658143332
14209.520241547822
12083.301490913089
12627.854788453697
11924.963586704576
11605.212454906816
11340.119442212457
11499.655371204726
12466.405635479407
14517.437348406727
16139.102602511586
15275.660536566993
16117.29458154634
14485.367896037984
12399.277898142549
11369.012631122676
11118.371479795422
11271.537755345851
11446.405300422326
12021.799604132306
11711.700031709737
14559.221930298316
8836.12369722741
10883.614578985338
13759.626501808709
14667.602288166965
16105.380601870962
17956.208700074378
19930.162038443636
21707.80989597173
23413.15565259888
26353.049105071936
29943.832207048035
26297.201367970036
23298.479204919524
21517.00382347856
19651.919049169257
17573.894418503325
15606.732024572973
14088.916669839728
13295.408627097859
10737.183433248814
9021.73207532039
5377.147113873119
8581.361891648317
14378.813593540846
19080.297884359497
23614.658281567252
28258.22490703862
32876.22216411555
37249.34303935383
40624.005951332656
43874.20703001216
51640.1780316969
43822.71326168548
40515.326807873564
37068.441440300005
32615.39636356288
27914.295144025178
23211.111418056582
18703.412299034415
14170.294333412574
8547.40649276299
5432.7484662815095
4641.757435291599
8268.863775044956
16861.009491592613
25047.687291875787
32329.75135605596
39417.677043212665
46412.2765195743
53042.22611001885
59439.382046135855
62981.583695491194
68751.88684244471
62946.1021427403
59331.38654816733
52861.92731241379
46155.229110513144
39093.315113263976
31991.454699846116
24819.5076523077
16862.70107665532
8377.141260831659
4752.046201662671
21688.119665241145
12810.119303675378
16383.41806483469
22817.007751030098
30017.74025654875
37270.5946218166
44393.16282637557
51317.30607413114
58033.10945638919
64033.06781877599
66973.10340584512
64051.54095798939
58071.40812666361
51380.614987443354
44493.583800621906
37431.607030129875
30284.412896268183
23261.1931120321
17239.941960450164
13878.61694101001
22738.796649580894
18371.90614278618
6975.434117068999
11086.350714944516
16222.002976769701
21228.20301748826
26238.761965996237
31166.100192079724
35914.07610495283
40495.92563178369
44841.42500817498
47439.24933188509
44856.71292610328
40528.71637280153
35969.47155308699
31254.044252842697
26377.791371381812
21450.467088043533
16589.228389032924
11631.778706488134
7377.342901767638
18710.754786152793
14029.777539590545
6479.180295853457
7541.683960033964
10056.2297513557
12594.897613189918
15118.258303113329
17592.676127886578
19884.551696087037
22249.56335300435
25674.86575386124
29178.6898482189
25685.852927046275
22275.19706574942
19927.767933103976
17657.429237520642
15212.543954847182
12733.26148766011
10242.451951671172
7688.848609529604
6131.1099992751
14047.03632764025
9908.103988144048
7200.7799298442105
6971.797366336498
6478.754035455858
6642.235830358752
7125.57486208332
7873.769828743769
8692.083196319396
9517.228506514062
12201.055256056525
19149.827230148076
12193.391211131904
9504.629261619933
8684.314772584745
7863.362765009184
7099.327845711655
6574.5506893217025
6333.185764143869
6677.167800425648
6870.187409533934
9951.30515075875
6444.187258492791
6901.951163505872
9090.277856282975
10669.935216813117
12822.79742454911
15287.259385090658
17801.191169725113
20418.210246429728
22772.02022748333
22933.64038505845
24894.811403573152
22915.222708896697
22749.839171723794
20386.018936899967
17749.602518168784
15207.198307954837
12698.811676822852
10489.233876402548
8888.372229340293
6734.085682164266
6503.191262372074
4462.175403041392
6440.873132645175
11632.029573031945
16598.05973503968
21505.87439667886
26463.322903525845
31385.011238664032
36139.757016287636
40823.35458799421
43249.655146388475
40799.39835122175
43235.37044883753
40806.52420885308
36109.85647418753
31339.548766467684
26400.484598864667
21428.48000126076
16524.389575072313
11597.358312263066
6410.820239813448
4486.484628897928
4567.979881389853
7414.547115130072
15089.657478443867
22993.917849114277
30346.851283740205
37531.4870243459
44630.55869988109
51483.3330351293
57087.21227949653
62679.99926884937
62676.880830433256
62680.29376200174
57079.50669950524
51462.23744748538
44596.14173337715
37485.95528746258
30304.863849408022
22992.638013643107
15170.413604561583
7520.689074626767
4660.005167783687
20140.453332771263
12716.358200163093
15792.975903417715
21956.284420429525
28804.32575644677
35595.90610684269
42349.9955569798
49367.664973102794
57266.90664580918
65653.75464629005
70197.78623935257
65637.20009593757
57230.90527350548
49307.02169777077
42256.3413714757
35456.567998511
28600.38328601266
21667.84370369752
15286.080710125934
11749.16024730202
18498.983524327705
15747.350591507735
6693.653964598513
10986.74941524404
15910.03182474549
20632.329488606814
25323.658275855
30006.74093642183
34830.99545444966
40268.42348372148
46433.530715353205
50459.60930834068
46414.13828865376
40225.64540231275
34760.47123070588
29903.083416130565
25179.218042319375
20438.501739450166
15653.824323031607
10670.140253344642
6689.670521918287
14949.070492612085
11337.299386140654
5783.518451273607
7595.67387977796
10215.388938100783
12596.054476834031
14923.357453323213
17227.2820075428
19471.710941939116
22398.232183155433
27553.4098040402
32878.937299268866
27540.20657512047
22362.415183016543
19410.72472587506
17142.665619222444
14817.25037748859
12474.290314288011
10107.629037378829
7621.7061469547825
6258.611288368873
11136.767999064703
8184.62088815335
6693.055899613596
6742.610823952488
6635.616166346155
6855.370184883663
7240.849403917542
7815.734253813913
8501.464526653592
9673.197226323588
12592.160661941221
25060.770900525913
12592.508625709936
9691.25365471431
8527.888662461293
7856.228998705795
7305.817045642591
6963.85052544319
6817.693379957407
7053.078501646715
6927.95144482977
7995.967596610713
5642.922173509374
6639.624956807182
8671.312275988585
10106.068138853807
12171.394837382533
14584.036082141844
17148.593698798246
20094.668716574597
23154.580848695277
23098.283911014605
28016.839636777873
23138.30477632185
23227.012514522397
20206.000692499718
17300.769146258506
14776.193973823898
12401.358476798778
10356.129133885917
8864.837634106807
6675.700636622688
5434.008447177732
4316.330787763436
6257.279031766387
11037.99975809618
15555.305142951534
20171.20629630974
24962.811997591056
29862.637081646597
34863.99956840691
40394.78780645018
43927.40092211798
43086.79255268547
43968.175948156444
40478.149214195386
34990.10737193127
30030.854323642598
25164.2088016868
20384.235152522615
15732.244474552374
11114.101144487942
6220.295534599991
4107.510258996912
4520.241533676216
7084.524169987356
14191.520306458231
21466.12589315338
28364.590136627805
35251.53846206493
42208.89815107938
49203.148351381606
55254.587117386895
63857.807802670715
67619.89508871382
63907.57989149862
55356.611276960066
49355.66711717863
42409.30850728047
35484.956436118
28594.289127819186
21625.089505729415
14230.416754231595
7061.58393442472
4381.8670086100665
20163.887674755933
12707.340880379792
15529.729134521518
21513.437461163852
28245.43624524092
34932.539399348185
41651.677511642505
48829.57079901655
57188.337341710736
66231.10804042926
71154.83439220345
66200.15587237447
57121.386997713504
48716.89961767284
41475.7786671071
34662.94603395192
27833.347962490778
20887.66607506187
14515.893191067027
11033.220121311277
17587.37235407897
15520.359144027456
6616.296550943403
10874.63358462306
15687.041493302893
20332.459239610973
24966.992948203442
29651.97569485674
34617.41693968839
40391.19441176454
46997.136729646445
51305.18765178641
46964.091241174676
40318.19185556502
34495.77687451581
29469.137104742345
24702.292826811143
19955.74122292039
15157.029821529253
10222.126063035043
6315.9310127821445
14206.897445393257
11015.146743139945
5438.357361232553
7507.264114393624
10142.594235003007
12507.27261374396
14815.169452435312
17138.859697378706
19493.41798940741
22656.51906846533
28090.68878705223
33646.958661964294
28068.998751533578
22598.161712524667
19393.171560466304
16996.984732212994
14630.42135827987
12280.30636251623
9915.831979881752
7456.783385282994
6061.6248875518795
10427.800839248259
7798.327868393255
6373.293994249502
6579.954704930732
6634.492889590155
6934.243948526791
7364.374795341557
7997.071123369292
8818.491146239885
10197.208304626442
12264.902752842689
26342.15087783427
12276.628025841019
10232.139079427321
8866.014822029883
8067.572749360953
7479.161422702181
7125.800060887799
6948.222522441785
7086.841932803918
6760.131788597492
7296.892382662896
5274.002005149434
6357.385091192516
8371.212006331769
9816.991274509364
11886.113865973748
14308.492999545115
16927.334990291198
20020.93361978262
23346.85136569236
23494.107728885792
28297.594907754992
23553.156202719467
23455.361454986563
20188.781497372336
17163.312096810365
14618.789543622026
12275.824569505707
10261.759929559244
8731.963065625841
6461.892876980004
4802.159449782552
4045.2933663642775
5917.064090816487
10620.893447248516
15084.8140174868
19646.933800043716
24409.52054911069
29349.090308602703
34521.339421296
40422.372067365555
44320.363629451924
43101.93961850176
44380.37270144735
40543.81078172515
34707.530343241415
29603.31243192008
24723.307379708534
19991.921360186905
15385.992202372428
10761.60223336201
5874.606964264357
3649.9620586686056
4101.60033184953
6537.910104022001
13588.2516533371
20784.12850320056
27576.977871633422
34383.99011392113
41343.416396178094
48531.91193634077
55027.66210097136
64320.073536943084
67927.63029844707
64387.701660940176
55169.212943958424
48748.88261950606
41635.714892046264
34733.466120319
27929.804971064572
21032.09598954536
13631.423573550788
6444.121103689177
3781.5099349510897
20140.453332826713
12716.358200211418
15792.975903452563
21956.28442044808
28804.325756461974
35595.906106849056
42349.995556982474
49367.66497310998
57266.906645813506
65653.75464633675
70197.78623938416
65637.20009599542
57230.90527357427
49307.021697781114
42256.34137145017
35456.567998417035
28600.383285970587
21667.84370365586
15286.08071009097
11749.160247268148
18498.98352427982
15747.350591529826
6693.6539646177725
10986.749415263857
15910.031824763631
20632.329488618612
25323.65827585421
30006.74093642831
34830.99545445937
40268.423483725994
46433.5307153822
50459.60930835889
46414.13828866908
40225.645402381764
34760.47123072318
29903.083416141882
25179.218042269247
20438.501739417927
15653.824323001434
10670.140253319392
6689.67052189653
14949.070492568222
11337.299386149292
5783.518451268985
7595.673879782563
10215.388938110873
12596.054476829893
14923.357453322642
17227.282007559785
19471.710941944773
22398.232183190972
27553.409804045506
32878.93729926346
27540.20657511045
22362.41518307826
19410.72472588687
17142.665619279138
14817.250377477563
12474.290314263057
10107.629037354869
7621.706146933473
6258.611288345568
11136.767999026011
8184.620888160345
6693.055899613861
6742.610823948938
6635.616166332878
6855.370184873237
7240.849403939252
7815.734253820026
8501.464526638942
9673.197226364384
12592.160661935599
25060.77090048644
12592.508625728771
9691.253654756334
8527.888662454614
7856.228998758436
7305.817045648045
6963.850525435118
6817.693379933412
7053.078501623362
6927.951444810382
7995.9675965787
5642.922173512795
6639.6249568111925
8671.312275990464
10106.068138840072
12171.394837383308
14584.036082128938
17148.59369880287
20094.66871656083
23154.58084870789
23098.283910994065
28016.839636761197
23138.30477632151
23227.01251453584
20206.00069247891
17300.7691462713
14776.193973763
12401.35847678638
10356.129133864039
8864.837634082463
6675.700636605177
5434.00844714907
4316.330787767956
6257.27903177393
11037.999758098582
15555.305142949352
20171.20629630353
24962.81199757189
29862.63708165675
34863.99956839092
40394.78780647303
43927.40092209983
43086.79255267143
43968.17594815885
40478.1492141977
34990.107371893006
30030.8543236429
25164.20880161245
20384.235152487876
15732.244474520714
11114.101144462804
6220.295534586192
4107.510258978524
4520.241533683364
7084.524169996328
14191.520306460548
21466.12589316595
28364.590136612824
35251.53846204051
42208.898151091584
49203.148351363045
55254.58711740768
63857.807802654694
67619.8950887038
63907.579891505135
55356.61127697289
49355.667117139405
42409.308507273614
35484.95643603384
28594.289127757045
21625.089505687727
14230.41675420686
7061.583934405366
4381.867008588213
21688.119665299273
12810.119303768217
16383.418064899755
22817.00775107534
30017.740256593777
37270.59462185756
44393.16282640347
51317.30607407377
58033.109456382226
64033.06781883691
66973.10340589727
64051.54095800284
58071.408126658745
51380.61498740627
44493.58380056757
37431.60703006626
30284.41289620792
23261.19311193459
17239.941960386594
13878.616940943346
22738.796649457563
18371.90614280317
6975.434117103647
11086.35071498885
16222.00297680908
21228.203017529326
26238.76196602739
31166.10019210645
35914.07610492663
40495.92563180065
44841.425008230064
47439.24933192347
44856.7129261397
40528.71637279574
35969.471553083735
31254.044252801996
26377.7913713386
21450.46708800412
16589.228388957275
11631.77870645659
7377.342901742186
18710.75478605115
14029.777539598826
6479.180295834935
7541.683960044091
10056.229751385137
12594.89761322778
15118.258303136872
17592.67612790816
19884.551696094226
22249.563353036774
25674.865753943872
29178.68984826489
25685.8529271031
22275.19706573298
19927.7679331399
17657.42923750612
15212.54395483334
12733.26148762769
10242.45195162836
7688.848609518092
6131.109999256593
14047.03632755626
9908.103988154055
7200.77992982904
6971.79736631523
6478.754035459248
6642.235830369791
7125.574862066908
7873.769828748742
8692.083196322887
9517.228506488085
12201.055256121967
19149.827230241306
12193.39121114723
9504.629261614911
8684.314772611588
7863.362765008637
7099.32784571214
6574.550689318026
6333.185764122884
6677.167800408403
6870.187409507162
9951.305150698501
6444.187258498763
6901.951163497423
9090.277856272472
10669.935216793992
12822.797424537834
15287.25938506101
17801.19116971223
20418.210246352297
22772.02022744268
22933.64038508887
24894.811403598473
22915.222708927966
22749.839171736166
20386.018936908556
17749.602518137937
15207.198307952236
12698.811676789759
10489.233876346701
8888.372229311106
6734.08568213907
6503.191262323769
4462.175403050362
6440.873132647203
11632.029573029818
16598.059735027866
21505.874396676478
26463.322903527725
31385.011238640513
36139.75701620575
40823.35458795057
43249.65514640146
40799.3983512388
43235.37044883397
40806.52420884992
36109.856474178065
31339.548766419666
26400.484598831445
21428.480001183445
16524.38957500686
11597.358312219796
6410.82023978739
4486.484628869985
4567.979881400041
7414.5471151402635
15089.657478459067
22993.91784910782
30346.8512837435
37531.48702437984
44630.55869984843
51483.33303504976
57087.21227944775
62679.999268857755
62676.88083049905
62680.293761978595
57079.50669946485
51462.237447461026
44596.14173331059
37485.955287383746
30304.863849297235
22992.638013560863
15170.413604497824
7520.689074590279
4660.005167754073
33266.03228667505
15257.885866382083
16501.65082009317
22839.05734141519
30471.76834840185
38173.97462940537
45761.23383797527
52968.52467035489
59084.221824373744
62886.3485572374
63882.598066867205
62934.98856561412
59187.69881035584
53144.30099992387
46040.200611580716
38602.67275151403
31109.716930187828
23774.554309016887
17881.502237331508
17964.06804268148
35946.791106195305
28241.485135001836
8883.831627886924
11752.461012984457
16834.27003765344
21939.35054329014
27108.939629493147
32247.54964417005
37196.081648857624
41474.55014289859
44121.18333023299
44616.562088272076
44165.649787869756
41569.1727647792
37355.64615728594
32495.714219774567
27477.524677953665
22464.461503591156
17541.04493951122
12564.879158008236
9391.779045868574
29376.761975262543
20820.40489532208
10993.509788881649
10835.32534479582
12773.874220086833
14839.601831018528
17055.054473137523
19423.097433794494
21949.98182378233
24347.65212549333
25577.089291749155
25134.57941858279
25607.01344176724
24407.277249554776
22046.915931650707
19567.379215157045
17252.47756891607
15076.24404050077
12958.76513733267
10750.120123628549
10298.950811366127
21365.351658005624
14209.520241575214
12083.30149091306
12627.8547884375
11924.96358666356
11605.212454864899
11340.11944218712
11499.655371164534
12466.40563543627
14517.4373483823
16139.102602498137
15275.660536632651
16117.294581535692
14485.367896038544
12399.277898170078
11369.012631134317
11118.371479815942
11271.537755342733
11446.40530038983
12021.799604062557
11711.70003164125
14559.221930209995
8836.123697248195
10883.614578996114
13759.62650179731
14667.602288139797
16105.380601837693
17956.208700030144
19930.162038400646
21707.809895939125
23413.155652576883
26353.049105006172
29943.8322069826
26297.20136792802
23298.47920490326
21517.0038235186
19651.919049182296
17573.894418489574
15606.732024533389
14088.916669791784
13295.408627024597
10737.183433188155
9021.732075272068
5377.147113889026
8581.361891658658
14378.813593545714
19080.297884361695
23614.658281549706
28258.224906991814
32876.22216408422
37249.34303931662
40624.00595130825
43874.207029965386
51640.17803159326
43822.71326167491
40515.32680786953
37068.44144029899
32615.39636354812
27914.295143973533
23211.111417991295
18703.412298956435
14170.294333343661
8547.406492717271
5432.748466251122
4641.757435315003
8268.863775062408
16861.009491608787
25047.687291896003
32329.751356052417
39417.67704317778
46412.27651953205
53042.2261099499
59439.38204607632
62981.58369545764
68751.8868423741
62946.102142753865
59331.38654816956
52861.9273123787
46155.22911046204
39093.31511316943
31991.45469974822
24819.507652191845
16862.701076573765
8377.141260789394
4752.046201638126
SCALARS Statev float 1
LOOKUP_TABLE default
0.0
0.0
0.0
0.0
0.0
0.0
0.0
0.0
0.0
0.0
0.0
0.0
0.0
0.0
0.0
0.0
0.0
0.0
0.0
0.0
0.0
0.0
0.0
0.0
0.0
0.0
0.0
0.0
0.0
0.0
0.0
0.0
0.0
0.0
0.0
0.0
0.0
0.0
0.0
0.0
0.0
0.0
0.0
0.0
0.0
0.0
0.0
0.0
0.0
0.0
0.0
0.0
0.0
0.0
0.0
0.0
0.0
0.0
0.0
0.0
0.0
0.0
0.0
0.0
0.0
0.0
0.0
0.0
0.0
0.0
0.0
0.0
0.0
0.0
0.0
0.0
0.0
0.0
0.0
0.0
0.0
0.0
0.0
0.0
0.0
0.0
0.0
0.0
0.0
0.0
0.0
0.0
0.0
0.0
0.0
0.0
0.0
0.0
0.0
0.0
0.0
0.0
0.0
0.0
0.0
0.0
0.0
0.0
0.0
0.0
0.0
0.0
0.0
0.0
0.0
0.0
0.0
0.0
0.0
0.0
0.0
0.0
0.0
0.0
0.0
0.0
0.0
0.0
0.0
0.0
0.0
0.0
0.0
0.0
0.0
0.0
0.0
0.0
0.0
0.0
0.0
0.0
0.0
0.0
0.0
0.0
0.0
0.0
0.0
0.0
0.0
0.0
0.0
0.0
0.0
0.0
0.0
0.0
0.0
0.0
0.0
0.0
0.0
0.0
0.0
0.0
0.0
0.0
0.0
0.0
0.0
0.0
0.0
0.0
0.0
0.0
0.0
0.0
0.0
0.0
0.0
0.0
0.0
0.0
0.0
0.0
0.0
0.0
0.0
0.0
0.0
0.0
0.0
0.0
0.0
0.0
0.0
0.0
0.0
0.0
0.0
0.0
0.0
0.0
0.0
0.0
0.0
0.0
0.0
0.0
0.0
0.0
0.0
0.0
0.0
0.0
0.0
0.0
0.0
0.0
0.0
0.0
0.0
0.0
0.0
0.0
0.0
0.0
0.0
0.0
0.0
0.0
0.0
0.0
0.0
0.0
0.0
0.0
0.0
0.0
0.0
0.0
0.0
0.0
0.0
0.0
0.0
0.0
0.0
0.0
0.0
0.0
0.0
0.0
0.0
0.0
0.0
0.0
0.0
0.0
0.0
0.0
0.0
0.0
0.0
0.0
0.0
0.0
0.0
0.0
0.0
0.0
0.0
0.0
0.0
0.0
0.0
0.0
0.0
0.0
0.0
0.0
0.0
0.0
0.0
0.0
0.0
0.0
0.0
0.0
0.0
0.0
0.0
0.0
0.0
0.0
0.0
0.0
0.0
0.0
0.0
0.0
0.0
0.0
0.0
0.0
0.0
0.0
0.0
0.0
0.0
0.0
0.0
0.0
0.0
0.0
0.0
0.0
0.0
0.0
0.0
0.0
0.0
0.0
0.0
0.0
0.0
0.0
0.0
0.0
0.0
0.0
0.0
0.0
0.0
0.0
0.0
0.0
0.0
0.0
0.0
0.0
0.0
0.0
0.0
0.0
0.0
0.0
0.0
0.0
0.0
0.0
0.0
0.0
0.0
0.0
0.0
0.0
0.0
0.0
0.0
0.0
0.0
0.0
0.0
0.0
0.0
0.0
0.0
0.0
0.0
0.0
0.0
0.0
0.0
0.0
0.0
0.0
0.0
0.0
0.0
0.0
0.0
0.0
0.0
0.0
0.0
0.0
0.0
0.0
0.0
0.0
0.0
0.0
0.0
0.0
0.0
0.0
0.0
0.0
0.0
0.0
0.0
0.0
0.0
0.0
0.0
0.0
0.0
0.0
0.0
0.0
0.0
0.0
0.0
0.0
0.0
0.0
0.0
0.0
0.0
0.0
0.0
0.0
0.0
0.0
0.0
0.0
0.0
0.0
0.0
0.0
0.0
0.0
0.0
0.0
0.0
0.0
0.0
0.0
0.0
0.0
0.0
0.0
0.0
0.0
0.0
0.0
0.0
0.0
0.0
0.0
0.0
0.0
0.0
0.0
0.0
0.0
0.0
0.0
0.0
0.0
0.0
0.0
0.0
0.0
0.0
0.0
0.0
0.0
0.0
0.0
0.0
0.0
0.0
0.0
0.0
0.0
0.0
0.0
0.0
0.0
0.0
0.0
0.0
0.0
0.0
0.0
0.0
0.0
0.0
0.0
0.0
0.0
0.0
0.0
0.0
0.0
0.0
0.0
0.0
0.0
0.0
0.0
0.0
0.0
0.0
0.0
0.0
0.0
0.0
0.0
0.0
0.0
0.0
0.0
0.0
0.0
0.0
0.0
0.0
0.0
0.0
0.0
0.0
0.0
0.0
0.0
0.0
0.0
0.0
0.0
0.0
0.0
0.0
0.0
0.0
0.0
0.0
0.0
0.0
0.0
0.0
0.0
0.0
0.0
0.0
0.0
0.0
0.0
0.0
0.0
0.0
0.0
0.0
0.0
0.0
0.0
0.0
0.0
0.0
0.0
0.0
0.0
0.0
0.0
0.0
0.0
0.0
0.0
0.0
0.0
0.0
0.0
0.0
0.0
0.0
0.0
0.0
0.0
0.0
0.0
0.0
0.0
0.0
0.0
0.0
0.0
0.0
0.0
0.0
0.0
0.0
0.0
0.0
0.0
0.0
0.0
0.0
0.0
0.0
0.0
0.0
0.0
0.0
0.0
0.0
0.0
0.0
0.0
0.0
0.0
0.0
0.0
0.0
0.0
0.0
0.0
0.0
0.0
0.0
0.0
0.0
0.0
0.0
0.0
0.0
0.0
0.0
0.0
0.0
0.0
0.0
0.0
0.0
0.0
0.0
0.0
0.0
0.0
0.0
0.0
0.0
0.0
0.0
0.0
0.0
0.0
0.0
0.0
0.0
0.0
0.0
0.0
0.0
0.0
0.0
0.0
0.0
0.0
0.0
0.0
0.0
0.0
0.0
0.0
0.0
0.0
0.0
0.0
0.0
0.0
0.0
0.0
0.0
0.0
0.0
0.0
0.0
0.0
0.0
0.0
0.0
0.0
0.0
0.0
0.0
0.0
0.0
0.0
0.0
0.0
0.0
0.0
0.0
0.0
0.0
0.0
0.0
0.0
0.0
0.0
0.0
0.0
0.0
0.0
0.0
0.0
0.0
0.0
0.0
0.0
0.0
0.0
0.0
0.0
0.0
0.0
0.0
0.0
0.0
0.0
0.0
0.0
0.0
0.0
0.0
0.0
0.0
0.0
0.0
0.0
0.0
0.0
0.0
0.0
0.0
0.0
0.0
0.0
0.0
0.0
0.0
0.0
0.0
0.0
0.0
0.0
0.0
0.0
0.0
0.0
0.0
0.0
0.0
0.0
0.0
0.0
0.0
0.0
0.0
0.0
0.0
0.0
0.0
0.0
0.0
0.0
0.0
0.0
0.0
0.0
0.0
0.0
0.0
0.0
0.0
0.0
0.0
0.0
0.0
0.0
0.0
0.0
0.0
0.0
0.0
0.0
0.0
0.0
0.0
0.0
0.0
0.0
0.0
0.0
0.0
0.0
0.0
0.0
0.0
0.0
0.0
0.0
0.0
0.0
0.0
0.0
0.0
0.0
0.0
0.0
0.0
0.0
0.0
0.0
0.0
0.0
0.0
0.0
0.0
0.0
0.0
0.0
0.0
0.0
0.0
0.0
0.0
0.0
0.0
0.0
0.0
0.0
0.0
0.0
0.0
0.0
0.0
0.0
0.0
0.0
0.0
0.0
0.0
0.0
0.0
0.0
0.0
0.0
0.0
0.0
0.0
0.0
0.0
0.0
0.0
0.0
0.0
0.0
0.0
0.0
0.0
0.0
0.0
0.0
0.0
0.0
0.0
0.0
0.0
0.0
0.0
0.0
0.0
0.0
0.0
0.0
0.0
0.0
0.0
0.0
0.0
0.0
0.0
0.0
0.0
0.0
0.0
0.0
0.0
0.0
0.0
0.0
0.0
0.0
0.0
0.0
0.0
0.0
0.0
0.0
0.0
0.0
0.0
0.0
0.0
0.0
0.0
0.0
0.0
0.0
0.0
0.0
0.0
0.0
0.0
0.0
0.0
0.0
0.0
0.0
0.0
0.0
0.0
0.0
0.0
0.0
0.0
0.0
0.0
0.0
0.0
0.0
0.0
0.0
0.0
0.0
0.0
0.0
0.0
0.0
0.0
0.0
0.0
0.0
0.0
0.0
0.0
0.0
0.0
0.0
0.0
0.0
0.0
0.0
0.0
0.0
0.0
0.0
0.0
0.0
0.0
0.0
0.0
0.0
0.0
0.0
0.0
0.0
0.0
0.0
0.0
0.0
0.0
0.0
0.0
0.0
0.0
0.0
0.0
0.0
0.0
0.0
0.0
0.0
0.0
0.0
0.0
0.0
0.0
0.0
0.0
0.0
0.0
0.0
0.0
0.0
0.0
0.0
0.0
0.0
0.0
0.0
0.0
0.0
0.0
0.0
0.0
0.0
0.0
0.0
0.0
0.0
0.0
0.0
0.0
0.0
0.0
0.0
0.0
0.0
0.0
0.0
0.0
0.0
0.0
0.0
0.0
SCALARS Wm float 4
LOOKUP_TABLE default
6356.112296084943 6356.112296084943 0.0 0.0
1150.1495008812046 1150.1495008812046 0.0 0.0
1370.2912342915927 1370.2912342915927 0.0 0.0
2868.7168842750107 2868.7168842750107 0.0 0.0
5060.536346022387 5060.536346022387 0.0 0.0
7975.432699801375 7975.432699801375 0.0 0.0
11484.243648769521 11484.243648769521 0.0 0.0
15409.669714280692 15409.669714280692 0.0 0.0
19184.83246432018 19184.83246432018 0.0 0.0
21793.71117595497 21793.71117595497 0.0 0.0
22633.016290193667 22633.016290193667 0.0 0.0
21826.68051884528 21826.68051884528 0.0 0.0
19250.750806370113 19250.750806370113 0.0 0.0
15510.213105560038 15510.213105560038 0.0 0.0
11622.341072322042 11622.341072322042 0.0 0.0
8152.202945983841 8152.202945983841 0.0 0.0
5271.046286647604 5271.046286647604 0.0 0.0
3099.398044122424 3099.398044122424 0.0 0.0
1629.4110891179735 1629.4110891179735 0.0 0.0
1815.6747956714023 1815.6747956714023 0.0 0.0
6089.477744797842 6089.477744797842 0.0 0.0
4718.605008901935 4718.605008901935 0.0 0.0
142.776695245638 142.776695245638 0.0 0.0
637.0127855744993 637.0127855744993 0.0 0.0
1361.6435269564868 1361.6435269564868 0.0 0.0
2337.2923787235404 2337.2923787235404 0.0 0.0
3604.761131591904 3604.761131591904 0.0 0.0
5137.94345128277 5137.94345128277 0.0 0.0
6867.1499020956335 6867.1499020956335 0.0 0.0
8564.76410086716 8564.76410086716 0.0 0.0
9770.030725889232 9770.030725889232 0.0 0.0
10162.10525281509 10162.10525281509 0.0 0.0
9791.412226930655 9791.412226930655 0.0 0.0
8607.362529903035 8607.362529903035 0.0 0.0
6931.431550547101 6931.431550547101 0.0 0.0
5224.304331226041 5224.304331226041 0.0 0.0
3712.12776525032 3712.12776525032 0.0 0.0
2460.095653487741 2460.095653487741 0.0 0.0
1490.4434926116528 1490.4434926116528 0.0 0.0
728.4364337970826 728.4364337970826 0.0 0.0
164.88516772922387 164.88516772922387 0.0 0.0
4956.105660012546 4956.105660012546 0.0 0.0
2624.9865157539834 2624.9865157539834 0.0 0.0
389.833739200092 389.833739200092 0.0 0.0
547.427865510309 547.427865510309 0.0 0.0
712.5830769449008 712.5830769449008 0.0 0.0
985.808601070238 985.808601070238 0.0 0.0
1301.7964091038657 1301.7964091038657 0.0 0.0
1689.470997681957 1689.470997681957 0.0 0.0
2168.884885813839 2168.884885813839 0.0 0.0
2690.3237737696927 2690.3237737696927 0.0 0.0
3037.4064324404326 3037.4064324404326 0.0 0.0
3135.645072612102 3135.645072612102 0.0 0.0
3046.1856958468807 3046.1856958468807 0.0 0.0
2707.0230257431126 2707.0230257431126 0.0 0.0
2193.028140424688 2193.028140424688 0.0 0.0
1720.1774289638865 1720.1774289638865 0.0 0.0
1336.8616671790455 1336.8616671790455 0.0 0.0
1021.0014867872342 1021.0014867872342 0.0 0.0
733.2703091908002 733.2703091908002 0.0 0.0
532.6107967162241 532.6107967162241 0.0 0.0
329.8949111810502 329.8949111810502 0.0 0.0
2738.961467120706 2738.961467120706 0.0 0.0
1210.8322546846887 1210.8322546846887 0.0 0.0
565.5846410719276 565.5846410719276 0.0 0.0
705.0779269087382 705.0779269087382 0.0 0.0
645.5275445699158 645.5275445699158 0.0 0.0
637.1664512937566 637.1664512937566 0.0 0.0
627.6885922258584 627.6885922258584 0.0 0.0
616.5776340343876 616.5776340343876 0.0 0.0
637.5150593134043 637.5150593134043 0.0 0.0
736.8759426069458 736.8759426069458 0.0 0.0
846.6089734824486 846.6089734824486 0.0 0.0
918.4671640402399 918.4671640402399 0.0 0.0
843.5044005516648 843.5044005516648 0.0 0.0
729.4430159516305 729.4430159516305 0.0 0.0
625.1760968730333 625.1760968730333 0.0 0.0
598.3952070926367 598.3952070926367 0.0 0.0
602.3621389000298 602.3621389000298 0.0 0.0
602.0081186108523 602.0081186108523 0.0 0.0
595.8168959097767 595.8168959097767 0.0 0.0
648.2222309176689 648.2222309176689 0.0 0.0
518.6991696404082 518.6991696404082 0.0 0.0
1274.480790143907 1274.480790143907 0.0 0.0
459.62869695895967 459.62869695895967 0.0 0.0
520.1176343862038 520.1176343862038 0.0 0.0
833.1653544948284 833.1653544948284 0.0 0.0
981.2358817225034 981.2358817225034 0.0 0.0
1183.144055377141 1183.144055377141 0.0 0.0
1462.933496415746 1462.933496415746 0.0 0.0
1794.1241749529731 1794.1241749529731 0.0 0.0
2116.6629723345786 2116.6629723345786 0.0 0.0
2479.098573938246 2479.098573938246 0.0 0.0
3047.6326667549365 3047.6326667549365 0.0 0.0
3411.533877956839 3411.533877956839 0.0 0.0
3033.70177557265 3033.70177557265 0.0 0.0
2450.492800088341 2450.492800088341 0.0 0.0
2073.410056306077 2073.410056306077 0.0 0.0
1736.89384417421 1736.89384417421 0.0 0.0
1393.5704473249266 1393.5704473249266 0.0 0.0
1105.2328462952369 1105.2328462952369 0.0 0.0
904.3784943220151 904.3784943220151 0.0 0.0
779.1594574640376 779.1594574640376 0.0 0.0
496.9223307592019 496.9223307592019 0.0 0.0
483.57170734014557 483.57170734014557 0.0 0.0
160.3752222451049 160.3752222451049 0.0 0.0
396.91848143429735 396.91848143429735 0.0 0.0
986.2055929983504 986.2055929983504 0.0 0.0
1764.997878206279 1764.997878206279 0.0 0.0
2734.7388428051936 2734.7388428051936 0.0 0.0
3937.0457560494037 3937.0457560494037 0.0 0.0
5344.483161393011 5344.483161393011 0.0 0.0
6879.1007096845915 6879.1007096845915 0.0 0.0
8062.647873968845 8062.647873968845 0.0 0.0
9833.519265461473 9833.519265461473 0.0 0.0
10697.034871123911 10697.034871123911 0.0 0.0
9808.822400974195 9808.822400974195 0.0 0.0
8014.260987065456 8014.260987065456 0.0 0.0
6806.724076145535 6806.724076145535 0.0 0.0
5253.423871270987 5253.423871270987 0.0 0.0
3835.272456864101 3835.272456864101 0.0 0.0
2636.664444113649 2636.664444113649 0.0 0.0
1691.5599446515994 1691.5599446515994 0.0 0.0
952.3035564799637 952.3035564799637 0.0 0.0
388.07390313496774 388.07390313496774 0.0 0.0
166.3108537629227 166.3108537629227 0.0 0.0
98.54274143425326 98.54274143425326 0.0 0.0
428.4377708821283 428.4377708821283 0.0 0.0
1555.4967532070855 1555.4967532070855 0.0 0.0
3398.8577835872393 3398.8577835872393 0.0 0.0
5693.998570755339 5693.998570755339 0.0 0.0
8490.464798239658 8490.464798239658 0.0 0.0
11780.453901975554 11780.453901975554 0.0 0.0
15461.115564094584 15461.115564094584 0.0 0.0
19220.19646352357 19220.19646352357 0.0 0.0
22816.894181397925 22816.894181397925 0.0 0.0
19618.532122364544 19618.532122364544 0.0 0.0
22785.043702993087 22785.043702993087 0.0 0.0
19144.747794296323 19144.747794296323 0.0 0.0
15350.459624108844 15350.459624108844 0.0 0.0
11645.261750838868 11645.261750838868 0.0 0.0
8348.494862177147 8348.494862177147 0.0 0.0
5575.180425571639 5575.180425571639 0.0 0.0
3336.5462098545504 3336.5462098545504 0.0 0.0
1549.7268371296277 1549.7268371296277 0.0 0.0
436.2353332503124 436.2353332503124 0.0 0.0
104.3670259204408 104.3670259204408 0.0 0.0
2365.7603176867647 2365.7603176867647 0.0 0.0
976.113808549587 976.113808549587 0.0 0.0
1449.8480429757 1449.8480429757 0.0 0.0
2921.2107031550777 2921.2107031550777 0.0 0.0
5008.423744409441 5008.423744409441 0.0 0.0
7731.791826627894 7731.791826627894 0.0 0.0
10995.629522152121 10995.629522152121 0.0 0.0
14765.914899359013 14765.914899359013 0.0 0.0
19006.08165449808 19006.08165449808 0.0 0.0
23176.13017670176 23176.13017670176 0.0 0.0
25178.207008001686 25178.207008001686 0.0 0.0
23187.62790685794 23187.62790685794 0.0 0.0
19027.552749401544 19027.552749401544 0.0 0.0
14797.052040958964 14797.052040958964 0.0 0.0
11038.169914876176 11038.169914876176 0.0 0.0
7788.942908583062 7788.942908583062 0.0 0.0
5084.909944513983 5084.909944513983 0.0 0.0
3018.301597461811 3018.301597461811 0.0 0.0
1587.2344242378815 1587.2344242378815 0.0 0.0
1165.9716078870288 1165.9716078870288 0.0 0.0
2305.746571103192 2305.746571103192 0.0 0.0
1897.138817690775 1897.138817690775 0.0 0.0
165.06363651848199 165.06363651848199 0.0 0.0
611.8247996272456 611.8247996272456 0.0 0.0
1331.4992792992032 1331.4992792992032 0.0 0.0
2279.701738116488 2279.701738116488 0.0 0.0
3496.68698375264 3496.68698375264 0.0 0.0
4954.675682479326 4954.675682479326 0.0 0.0
6614.689810947576 6614.689810947576 0.0 0.0
8448.89061243034 8448.89061243034 0.0 0.0
10289.026869775647 10289.026869775647 0.0 0.0
11262.586434890309 11262.586434890309 0.0 0.0
10296.454188809936 10296.454188809936 0.0 0.0
8463.081283322534 8463.081283322534 0.0 0.0
6635.450259642386 6635.450259642386 0.0 0.0
4982.574868940016 4982.574868940016 0.0 0.0
3533.0449745488727 3533.0449745488727 0.0 0.0
2325.8552174077663 2325.8552174077663 0.0 0.0
1390.4324150678685 1390.4324150678685 0.0 0.0
669.7760786412324 669.7760786412324 0.0 0.0
189.7570509679738 189.7570509679738 0.0 0.0
1908.8875272918697 1908.8875272918697 0.0 0.0
1139.8579668891787 1139.8579668891787 0.0 0.0
134.04527358555015 134.04527358555015 0.0 0.0
261.77374227947416 261.77374227947416 0.0 0.0
441.5388801146639 441.5388801146639 0.0 0.0
708.9346076248867 708.9346076248867 0.0 0.0
1027.2954375774627 1027.2954375774627 0.0 0.0
1402.140832046273 1402.140832046273 0.0 0.0
1806.8269537626443 1806.8269537626443 0.0 0.0
2284.650519059135 2284.650519059135 0.0 0.0
3012.6058917467008 3012.6058917467008 0.0 0.0
3665.6581028554483 3665.6581028554483 0.0 0.0
3016.1120688078663 3016.1120688078663 0.0 0.0
2291.551697844242 2291.551697844242 0.0 0.0
1816.8814116520434 1816.8814116520434 0.0 0.0
1415.0226780441726 1415.0226780441726 0.0 0.0
1042.6634270045972 1042.6634270045972 0.0 0.0
726.7432989345523 726.7432989345523 0.0 0.0
459.5469091720683 459.5469091720683 0.0 0.0
266.99765537729905 266.99765537729905 0.0 0.0
117.34947738413678 117.34947738413678 0.0 0.0
1130.0831200475154 1130.0831200475154 0.0 0.0
566.7786299627656 566.7786299627656 0.0 0.0
186.9664377570812 186.9664377570812 0.0 0.0
228.72185114367764 228.72185114367764 0.0 0.0
197.33478061737523 197.33478061737523 0.0 0.0
205.09997837310104 205.09997837310104 0.0 0.0
223.74564725637129 223.74564725637129 0.0 0.0
248.60978073411098 248.60978073411098 0.0 0.0
263.7451483547909 263.7451483547909 0.0 0.0
278.24771422498895 278.24771422498895 0.0 0.0
505.84145685137315 505.84145685137315 0.0 0.0
1237.3922321697346 1237.3922321697346 0.0 0.0
505.10094560296903 505.10094560296903 0.0 0.0
277.8509159725172 277.8509159725172 0.0 0.0
263.5996389754738 263.5996389754738 0.0 0.0
248.00486874247312 248.00486874247312 0.0 0.0
221.8188831616831 221.8188831616831 0.0 0.0
200.73310607934818 200.73310607934818 0.0 0.0
188.22274632717412 188.22274632717412 0.0 0.0
213.06987345863692 213.06987345863692 0.0 0.0
166.54060544844998 166.54060544844998 0.0 0.0
570.5576040890144 570.5576040890144 0.0 0.0
234.82476095349028 234.82476095349028 0.0 0.0
200.87427061004863 200.87427061004863 0.0 0.0
358.7323683886408 358.7323683886408 0.0 0.0
505.6926607653501 505.6926607653501 0.0 0.0
732.847880968406 732.847880968406 0.0 0.0
1048.9986187563106 1048.9986187563106 0.0 0.0
1434.1484719257746 1434.1484719257746 0.0 0.0
1910.3995244294804 1910.3995244294804 0.0 0.0
2361.2258452668457 2361.2258452668457 0.0 0.0
2491.9070726633972 2491.9070726633972 0.0 0.0
3775.3131115145898 3775.3131115145898 0.0 0.0
2486.7084664292033 2486.7084664292033 0.0 0.0
2353.998483911708 2353.998483911708 0.0 0.0
1901.0679481116917 1901.0679481116917 0.0 0.0
1422.4158681448525 1422.4158681448525 0.0 0.0
1034.7727117409524 1034.7727117409524 0.0 0.0
716.0881873133037 716.0881873133037 0.0 0.0
487.56666117859027 487.56666117859027 0.0 0.0
343.2936109542406 343.2936109542406 0.0 0.0
188.92886785008812 188.92886785008812 0.0 0.0
239.84880760264863 239.84880760264863 0.0 0.0
103.4358187604386 103.4358187604386 0.0 0.0
218.7475151864359 218.7475151864359 0.0 0.0
657.8986271512513 657.8986271512513 0.0 0.0
1370.1575134518698 1370.1575134518698 0.0 0.0
2331.695684775462 2331.695684775462 0.0 0.0
3552.12931083478 3552.12931083478 0.0 0.0
5016.8583333592305 5016.8583333592305 0.0 0.0
6664.9004447243915 6664.9004447243915 0.0 0.0
8663.85130572695 8663.85130572695 0.0 0.0
9201.139484768946 9201.139484768946 0.0 0.0
11870.84109545454 11870.84109545454 0.0 0.0
9192.04874107024 9192.04874107024 0.0 0.0
8650.962002232855 8650.962002232855 0.0 0.0
6647.1717085102155 6647.1717085102155 0.0 0.0
4995.559295622546 4995.559295622546 0.0 0.0
3529.6072918749783 3529.6072918749783 0.0 0.0
2311.276978406101 2311.276978406101 0.0 0.0
1356.237518298244 1356.237518298244 0.0 0.0
652.5688663345219 652.5688663345219 0.0 0.0
215.90469981115308 215.90469981115308 0.0 0.0
105.54015984499173 105.54015984499173 0.0 0.0
96.04383859389546 96.04383859389546 0.0 0.0
339.20768347898786 339.20768347898786 0.0 0.0
1279.5550493314347 1279.5550493314347 0.0 0.0
2926.1706949500153 2926.1706949500153 0.0 0.0
5105.971876783351 5105.971876783351 0.0 0.0
7825.5922842035725 7825.5922842035725 0.0 0.0
11103.41188313585 11103.41188313585 0.0 0.0
14757.571355907385 14757.571355907385 0.0 0.0
18414.91786816639 18414.91786816639 0.0 0.0
20895.309797723457 20895.309797723457 0.0 0.0
31351.328156576317 31351.328156576317 0.0 0.0
20888.811630889213 20888.811630889213 0.0 0.0
18397.959578509686 18397.959578509686 0.0 0.0
14731.678077774613 14731.678077774613 0.0 0.0
11072.363738359458 11072.363738359458 0.0 0.0
7794.77415945751 7794.77415945751 0.0 0.0
5083.460629267753 5083.460629267753 0.0 0.0
2920.510743599946 2920.510743599946 0.0 0.0
1288.9266369266916 1288.9266369266916 0.0 0.0
347.51173792296345 347.51173792296345 0.0 0.0
100.17912973093146 100.17912973093146 0.0 0.0
1677.6514544838951 1677.6514544838951 0.0 0.0
1090.8393090971917 1090.8393090971917 0.0 0.0
1389.9087849647563 1389.9087849647563 0.0 0.0
2749.516921827548 2749.516921827548 0.0 0.0
4693.532388249885 4693.532388249885 0.0 0.0
7200.804093576858 7200.804093576858 0.0 0.0
10271.813246611711 10271.813246611711 0.0 0.0
14128.560538646003 14128.560538646003 0.0 0.0
19253.819674487517 19253.819674487517 0.0 0.0
25290.32778144467 25290.32778144467 0.0 0.0
28496.509344504255 28496.509344504255 0.0 0.0
25276.348513492296 25276.348513492296 0.0 0.0
19226.807766315607 19226.807766315607 0.0 0.0
14088.76489627335 14088.76489627335 0.0 0.0
10218.373398580237 10218.373398580237 0.0 0.0
7133.195243485246 7133.195243485246 0.0 0.0
4612.674331025576 4612.674331025576 0.0 0.0
2660.819332163635 2660.819332163635 0.0 0.0
1283.0704317820666 1283.0704317820666 0.0 0.0
850.4190957627367 850.4190957627367 0.0 0.0
1655.5040431862406 1655.5040431862406 0.0 0.0
1419.540088847359 1419.540088847359 0.0 0.0
183.76326766372142 183.76326766372142 0.0 0.0
612.9884910065477 612.9884910065477 0.0 0.0
1300.828546683823 1300.828546683823 0.0 0.0
2184.4710206617824 2184.4710206617824 0.0 0.0
3310.7756292645913 3310.7756292645913 0.0 0.0
4685.021846433745 4685.021846433745 0.0 0.0
6377.75330137928 6377.75330137928 0.0 0.0
8585.146215087534 8585.146215087534 0.0 0.0
11244.168068067393 11244.168068067393 0.0 0.0
12811.472029093151 12811.472029093151 0.0 0.0
11234.575758290588 11234.575758290588 0.0 0.0
8566.43182392037 8566.43182392037 0.0 0.0
6350.556560900995 6350.556560900995 0.0 0.0
4649.781237857442 4649.781237857442 0.0 0.0
3268.1378423724746 3268.1378423724746 0.0 0.0
2136.447354499589 2136.447354499589 0.0 0.0
1249.0064960169123 1249.0064960169123 0.0 0.0
570.5273216010783 570.5273216010783 0.0 0.0
171.84146660251065 171.84146660251065 0.0 0.0
1373.2252245908323 1373.2252245908323 0.0 0.0
788.3771952957718 788.3771952957718 0.0 0.0
127.58311687735366 127.58311687735366 0.0 0.0
264.4759200876152 264.4759200876152 0.0 0.0
467.38472739882496 467.38472739882496 0.0 0.0
724.2107506912757 724.2107506912757 0.0 0.0
1019.9410958165145 1019.9410958165145 0.0 0.0
1365.961443661882 1365.961443661882 0.0 0.0
1757.2842323852983 1757.2842323852983 0.0 0.0
2351.916796185411 2351.916796185411 0.0 0.0
3482.155911628036 3482.155911628036 0.0 0.0
4585.568362236887 4585.568362236887 0.0 0.0
3478.37443389528 3478.37443389528 0.0 0.0
2343.94495398606 2343.94495398606 0.0 0.0
1745.5386762041742 1745.5386762041742 0.0 0.0
1351.236051046871 1351.236051046871 0.0 0.0
1003.4879164553454 1003.4879164553454 0.0 0.0
707.5349293679038 707.5349293679038 0.0 0.0
454.78247931270306 454.78247931270306 0.0 0.0
267.1649833962319 267.1649833962319 0.0 0.0
144.01731403717224 144.01731403717224 0.0 0.0
791.9539987735856 791.9539987735856 0.0 0.0
400.9968372962995 400.9968372962995 0.0 0.0
171.40715210120266 171.40715210120266 0.0 0.0
220.1836966661043 220.1836966661043 0.0 0.0
210.56556414919254 210.56556414919254 0.0 0.0
226.75397251596286 226.75397251596286 0.0 0.0
245.4378285019308 245.4378285019308 0.0 0.0
268.55606594265487 268.55606594265487 0.0 0.0
279.26539964046077 279.26539964046077 0.0 0.0
326.8667704272314 326.8667704272314 0.0 0.0
739.7454699351865 739.7454699351865 0.0 0.0
2086.6518225522013 2086.6518225522013 0.0 0.0
742.0438631305934 742.0438631305934 0.0 0.0
330.07387428049645 330.07387428049645 0.0 0.0
283.26543714508625 283.26543714508625 0.0 0.0
273.5896513967141 273.5896513967141 0.0 0.0
252.07013537672026 252.07013537672026 0.0 0.0
235.9961385146916 235.9961385146916 0.0 0.0
224.55125612669474 224.55125612669474 0.0 0.0
238.18597549678987 238.18597549678987 0.0 0.0
185.28534909265562 185.28534909265562 0.0 0.0
393.7837478778844 393.7837478778844 0.0 0.0
177.4276834999721 177.4276834999721 0.0 0.0
188.0095199384255 188.0095199384255 0.0 0.0
333.0464518427247 333.0464518427247 0.0 0.0
460.18181112359935 460.18181112359935 0.0 0.0
666.6792652214401 666.6792652214401 0.0 0.0
962.7727391740475 962.7727391740475 0.0 0.0
1342.66930586871 1342.66930586871 0.0 0.0
1868.7274030350516 1868.7274030350516 0.0 0.0
2431.9877127384284 2431.9877127384284 0.0 0.0
2618.493703410667 2618.493703410667 0.0 0.0
5210.614862062297 5210.614862062297 0.0 0.0
2626.8057176935076 2626.8057176935076 0.0 0.0
2446.3919911941994 2446.3919911941994 0.0 0.0
1888.24867160831 1888.24867160831 0.0 0.0
1365.8999411204268 1365.8999411204268 0.0 0.0
988.418559510368 988.418559510368 0.0 0.0
693.1399565905574 693.1399565905574 0.0 0.0
484.5714838494808 484.5714838494808 0.0 0.0
349.2136316862306 349.2136316862306 0.0 0.0
193.00285275428467 193.00285275428467 0.0 0.0
168.66122910305222 168.66122910305222 0.0 0.0
91.37188716600325 91.37188716600325 0.0 0.0
204.31449939476633 204.31449939476633 0.0 0.0
594.2397282064029 594.2397282064029 0.0 0.0
1215.0912696571866 1215.0912696571866 0.0 0.0
2077.111906012727 2077.111906012727 0.0 0.0
3209.643822513021 3209.643822513021 0.0 0.0
4626.504334850991 4626.504334850991 0.0 0.0
6333.993593809669 6333.993593809669 0.0 0.0
8729.294439635969 8729.294439635969 0.0 0.0
9423.352864309054 9423.352864309054 0.0 0.0
15163.831067486426 15163.831067486426 0.0 0.0
9437.875907850526 9437.875907850526 0.0 0.0
8756.174695955118 8756.174695955118 0.0 0.0
6370.014158710273 6370.014158710273 0.0 0.0
4668.179551766776 4668.179551766776 0.0 0.0
3251.8453448197747 3251.8453448197747 0.0 0.0
2113.471134574525 2113.471134574525 0.0 0.0
1238.8295414471 1238.8295414471 0.0 0.0
603.1171524790439 603.1171524790439 0.0 0.0
204.52463185176933 204.52463185176933 0.0 0.0
84.04693101010726 84.04693101010726 0.0 0.0
91.54083354970972 91.54083354970972 0.0 0.0
309.6303102667546 309.6303102667546 0.0 0.0
1141.5756522013448 1141.5756522013448 0.0 0.0
2593.6495442319138 2593.6495442319138 0.0 0.0
4550.487329195383 4550.487329195383 0.0 0.0
7062.077931658133 7062.077931658133 0.0 0.0
10200.997597139547 10200.997597139547 0.0 0.0
13875.620573785602 13875.620573785602 0.0 0.0
17935.226023897165 17935.226023897165 0.0 0.0
21865.52939943558 21865.52939943558 0.0 0.0
40799.65506924454 40799.65506924454 0.0 0.0
21887.88713395162 21887.88713395162 0.0 0.0
17978.18187728931 17978.18187728931 0.0 0.0
13932.994156897308 13932.994156897308 0.0 0.0
10265.772671931205 10265.772671931205 0.0 0.0
7124.3374395374885 7124.3374395374885 0.0 0.0
4597.219126479167 4597.219126479167 0.0 0.0
2613.8877115557625 2613.8877115557625 0.0 0.0
1141.3485664214068 1141.3485664214068 0.0 0.0
306.6053556818146 306.6053556818146 0.0 0.0
85.93234353804652 85.93234353804652 0.0 0.0
1631.64465101284 1631.64465101284 0.0 0.0
1122.30935095964 1122.30935095964 0.0 0.0
1368.1036404172155 1368.1036404172155 0.0 0.0
2677.299117224094 2677.299117224094 0.0 0.0
4576.931281665565 4576.931281665565 0.0 0.0
7045.406542145379 7045.406542145379 0.0 0.0
10121.507103118613 10121.507103118613 0.0 0.0
14118.415263716219 14118.415263716219 0.0 0.0
19635.296506143044 19635.296506143044 0.0 0.0
26284.77406999998 26284.77406999998 0.0 0.0
29840.53254364705 29840.53254364705 0.0 0.0
26259.65047753202 26259.65047753202 0.0 0.0
19587.690012522067 19587.690012522067 0.0 0.0
14049.361706803396 14049.361706803396 0.0 0.0
10028.934445937732 10028.934445937732 0.0 0.0
6926.3585002971595 6926.3585002971595 0.0 0.0
4430.695798475188 4430.695798475188 0.0 0.0
2510.622238385259 2510.622238385259 0.0 0.0
1180.0784496377355 1180.0784496377355 0.0 0.0
760.311575268288 760.311575268288 0.0 0.0
1522.717878367288 1522.717878367288 0.0 0.0
1347.2149685040024 1347.2149685040024 0.0 0.0
184.16032291767618 184.16032291767618 0.0 0.0
609.4988960430996 609.4988960430996 0.0 0.0
1278.4878714669026 1278.4878714669026 0.0 0.0
2143.5093032468562 2143.5093032468562 0.0 0.0
3255.5608631420137 3255.5608631420137 0.0 0.0
4636.440969021447 4636.440969021447 0.0 0.0
6394.567363379637 6394.567363379637 0.0 0.0
8769.34348847653 8769.34348847653 0.0 0.0
11677.425830618755 11677.425830618755 0.0 0.0
13388.416402515479 13388.416402515479 0.0 0.0
11660.612963814889 11660.612963814889 0.0 0.0
8737.038358146723 8737.038358146723 0.0 0.0
6348.028766906774 6348.028766906774 0.0 0.0
4575.853430071685 4575.853430071685 0.0 0.0
3180.763315225299 3180.763315225299 0.0 0.0
2056.025301997334 2056.025301997334 0.0 0.0
1181.763918075221 1181.763918075221 0.0 0.0
528.9053220800257 528.9053220800257 0.0 0.0
150.57579367020597 150.57579367020597 0.0 0.0
1274.3939017938326 1274.3939017938326 0.0 0.0
751.8437389063573 751.8437389063573 0.0 0.0
112.22944102580024 112.22944102580024 0.0 0.0
258.88430467421483 258.88430467421483 0.0 0.0
465.3072797973508 465.3072797973508 0.0 0.0
721.215197568622 721.215197568622 0.0 0.0
1016.4378810686687 1016.4378810686687 0.0 0.0
1368.5377401487797 1368.5377401487797 0.0 0.0
1784.9894908936146 1784.9894908936146 0.0 0.0
2440.126078815264 2440.126078815264 0.0 0.0
3660.7154227052874 3660.7154227052874 0.0 0.0
4821.124935676417 4821.124935676417 0.0 0.0
3653.9424690026644 3653.9424690026644 0.0 0.0
2426.373961185713 2426.373961185713 0.0 0.0
1764.9895268465198 1764.9895268465198 0.0 0.0
1343.3875666155668 1343.3875666155668 0.0 0.0
987.7248535701791 987.7248535701791 0.0 0.0
690.867040756129 690.867040756129 0.0 0.0
440.46161929651885 440.46161929651885 0.0 0.0
257.05231703605784 257.05231703605784 0.0 0.0
132.82081366416736 132.82081366416736 0.0 0.0
724.0819561393866 724.0819561393866 0.0 0.0
372.9382135045705 372.9382135045705 0.0 0.0
153.4707802842081 153.4707802842081 0.0 0.0
207.65244035654038 207.65244035654038 0.0 0.0
206.58052783493258 206.58052783493258 0.0 0.0
228.63435104869797 228.63435104869797 0.0 0.0
251.65442321746923 251.65442321746923 0.0 0.0
281.1075673345073 281.1075673345073 0.0 0.0
304.8786965586825 304.8786965586825 0.0 0.0
378.87483235135215 378.87483235135215 0.0 0.0
821.9677047612496 821.9677047612496 0.0 0.0
2216.3937204256717 2216.3937204256717 0.0 0.0
825.4572616812363 825.4572616812363 0.0 0.0
383.9112366546266 383.9112366546266 0.0 0.0
311.1304307696382 311.1304307696382 0.0 0.0
289.1706929689163 289.1706929689163 0.0 0.0
262.7489118096084 262.7489118096084 0.0 0.0
244.45059513711186 244.45059513711186 0.0 0.0
229.94115776392667 229.94115776392667 0.0 0.0
236.25699948437065 236.25699948437065 0.0 0.0
175.4417328655372 175.4417328655372 0.0 0.0
345.14404599927815 345.14404599927815 0.0 0.0
157.6813732467276 157.6813732467276 0.0 0.0
171.00058141363758 171.00058141363758 0.0 0.0
309.7646564945833 309.7646564945833 0.0 0.0
435.5212727698463 435.5212727698463 0.0 0.0
640.0446291028944 640.0446291028944 0.0 0.0
934.435413040885 934.435413040885 0.0 0.0
1320.1694967978751 1320.1694967978751 0.0 0.0
1872.4312014165012 1872.4312014165012 0.0 0.0
2491.4536927139784 2491.4536927139784 0.0 0.0
2712.4769229556887 2712.4769229556887 0.0 0.0
5439.818070896616 5439.818070896616 0.0 0.0
2725.956445042426 2725.956445042426 0.0 0.0
2514.650427461762 2514.650427461762 0.0 0.0
1903.4829324843615 1903.4829324843615 0.0 0.0
1357.5142591322187 1357.5142591322187 0.0 0.0
976.729145969195 976.729145969195 0.0 0.0
685.0326225829976 685.0326225829976 0.0 0.0
477.8713310322114 477.8713310322114 0.0 0.0
338.1235095986572 338.1235095986572 0.0 0.0
180.86825068267072 180.86825068267072 0.0 0.0
137.2237302538835 137.2237302538835 0.0 0.0
79.73609650456181 79.73609650456181 0.0 0.0
183.6262103104829 183.6262103104829 0.0 0.0
552.8851552369724 552.8851552369724 0.0 0.0
1152.465604907483 1152.465604907483 0.0 0.0
1991.1436428395564 1991.1436428395564 0.0 0.0
3104.82526649886 3104.82526649886 0.0 0.0
4526.5337781310855 4526.5337781310855 0.0 0.0
6295.4529554548335 6295.4529554548335 0.0 0.0
8870.27622242693 8870.27622242693 0.0 0.0
9659.746711658503 9659.746711658503 0.0 0.0
15750.666257538121 15750.666257538121 0.0 0.0
9682.93210576625 9682.93210576625 0.0 0.0
8912.286057971793 8912.286057971793 0.0 0.0
6351.419999822973 6351.419999822973 0.0 0.0
4591.954602778611 4591.954602778611 0.0 0.0
3172.3826425791844 3172.3826425791844 0.0 0.0
2051.092216430897 2051.092216430897 0.0 0.0
1193.2059414174746 1193.2059414174746 0.0 0.0
568.9094229048936 568.9094229048936 0.0 0.0
184.8720657838203 184.8720657838203 0.0 0.0
66.18505645599599 66.18505645599599 0.0 0.0
75.17315524086652 75.17315524086652 0.0 0.0
272.9961283289898 272.9961283289898 0.0 0.0
1064.5809746654663 1064.5809746654663 0.0 0.0
2467.4567353074217 2467.4567353074217 0.0 0.0
4368.639752092633 4368.639752092633 0.0 0.0
6833.10150933018 6833.10150933018 0.0 0.0
9973.158978728738 9973.158978728738 0.0 0.0
13779.937277160045 13779.937277160045 0.0 0.0
18204.04688560899 18204.04688560899 0.0 0.0
22485.184410218597 22485.184410218597 0.0 0.0
42533.788074028394 42533.788074028394 0.0 0.0
22518.077208621362 22518.077208621362 0.0 0.0
18268.247419412623 18268.247419412623 0.0 0.0
13866.54986240314 13866.54986240314 0.0 0.0
10072.367009898906 10072.367009898906 0.0 0.0
6930.204485279047 6930.204485279047 0.0 0.0
4443.180378082748 4443.180378082748 0.0 0.0
2500.6827804425466 2500.6827804425466 0.0 0.0
1063.2946473008722 1063.2946473008722 0.0 0.0
265.56795656622637 265.56795656622637 0.0 0.0
63.59720360903822 63.59720360903822 0.0 0.0
1677.6514544707331 1677.6514544707331 0.0 0.0
1090.839309078525 1090.839309078525 0.0 0.0
1389.9087849496057 1389.9087849496057 0.0 0.0
2749.5169218158685 2749.5169218158685 0.0 0.0
4693.5323882492685 4693.5323882492685 0.0 0.0
7200.804093571641 7200.804093571641 0.0 0.0
10271.813246597912 10271.813246597912 0.0 0.0
14128.56053862817 14128.56053862817 0.0 0.0
19253.819674447423 19253.819674447423 0.0 0.0
25290.32778141189 25290.32778141189 0.0 0.0
28496.50934444481 28496.50934444481 0.0 0.0
25276.348513417364 25276.348513417364 0.0 0.0
19226.807766278747 19226.807766278747 0.0 0.0
14088.7648962756 14088.7648962756 0.0 0.0
10218.373398605545 10218.373398605545 0.0 0.0
7133.195243550654 7133.195243550654 0.0 0.0
4612.674331058886 4612.674331058886 0.0 0.0
2660.8193321803387 2660.8193321803387 0.0 0.0
1283.0704317953591 1283.0704317953591 0.0 0.0
850.4190957732513 850.4190957732513 0.0 0.0
1655.5040432044864 1655.5040432044864 0.0 0.0
1419.5400888420695 1419.5400888420695 0.0 0.0
183.76326766158743 183.76326766158743 0.0 0.0
612.9884909994557 612.9884909994557 0.0 0.0
1300.8285466788066 1300.8285466788066 0.0 0.0
2184.4710206560158 2184.4710206560158 0.0 0.0
3310.7756292593995 3310.7756292593995 0.0 0.0
4685.021846426408 4685.021846426408 0.0 0.0
6377.753301370592 6377.753301370592 0.0 0.0
8585.146215071703 8585.146215071703 0.0 0.0
11244.168068033394 11244.168068033394 0.0 0.0
12811.472029066561 12811.472029066561 0.0 0.0
11234.5757582582 11234.5757582582 0.0 0.0
8566.431823881961 8566.431823881961 0.0 0.0
6350.556560898534 6350.556560898534 0.0 0.0
4649.781237861806 4649.781237861806 0.0 0.0
3268.1378424067498 3268.1378424067498 0.0 0.0
2136.4473545103756 2136.4473545103756 0.0 0.0
1249.0064960285974 1249.0064960285974 0.0 0.0
570.5273216070292 570.5273216070292 0.0 0.0
171.84146660470148 171.84146660470148 0.0 0.0
1373.2252246077592 1373.2252246077592 0.0 0.0
788.3771952940332 788.3771952940332 0.0 0.0
127.58311687724958 127.58311687724958 0.0 0.0
264.4759200861992 264.4759200861992 0.0 0.0
467.3847273966831 467.3847273966831 0.0 0.0
724.210750691407 724.210750691407 0.0 0.0
1019.9410958153421 1019.9410958153421 0.0 0.0
1365.961443654933 1365.961443654933 0.0 0.0
1757.2842323778839 1757.2842323778839 0.0 0.0
2351.9167961791322 2351.9167961791322 0.0 0.0
3482.155911623479 3482.155911623479 0.0 0.0
4585.568362226787 4585.568362226787 0.0 0.0
3478.3744338961205 3478.3744338961205 0.0 0.0
2343.9449539564957 2343.9449539564957 0.0 0.0
1745.5386762060207 1745.5386762060207 0.0 0.0
1351.2360510337194 1351.2360510337194 0.0 0.0
1003.4879164636299 1003.4879164636299 0.0 0.0
707.5349293753527 707.5349293753527 0.0 0.0
454.7824793153434 454.7824793153434 0.0 0.0
267.16498340104215 267.16498340104215 0.0 0.0
144.01731403924597 144.01731403924597 0.0 0.0
791.9539987846823 791.9539987846823 0.0 0.0
400.9968372947469 400.9968372947469 0.0 0.0
171.40715210111668 171.40715210111668 0.0 0.0
220.1836966660023 220.1836966660023 0.0 0.0
210.5655641498198 210.5655641498198 0.0 0.0
226.7539725197947 226.7539725197947 0.0 0.0
245.43782849919626 245.43782849919626 0.0 0.0
268.55606593874967 268.55606593874967 0.0 0.0
279.26539964471255 279.26539964471255 0.0 0.0
326.866770413762 326.866770413762 0.0 0.0
739.7454699359944 739.7454699359944 0.0 0.0
2086.651822571759 2086.651822571759 0.0 0.0
742.0438631246537 742.0438631246537 0.0 0.0
330.0738742610663 330.0738742610663 0.0 0.0
283.26543714866403 283.26543714866403 0.0 0.0
273.58965137873236 273.58965137873236 0.0 0.0
252.07013538630895 252.07013538630895 0.0 0.0
235.99613851335943 235.99613851335943 0.0 0.0
224.551256131795 224.551256131795 0.0 0.0
238.18597549936266 238.18597549936266 0.0 0.0
185.28534909500308 185.28534909500308 0.0 0.0
393.7837478847992 393.7837478847992 0.0 0.0
177.42768349897534 177.42768349897534 0.0 0.0
188.00951993827653 188.00951993827653 0.0 0.0
333.0464518426863 333.0464518426863 0.0 0.0
460.18181112654906 460.18181112654906 0.0 0.0
666.6792652210332 666.6792652210332 0.0 0.0
962.7727391799422 962.7727391799422 0.0 0.0
1342.6693058673732 1342.6693058673732 0.0 0.0
1868.7274030402214 1868.7274030402214 0.0 0.0
2431.987712736038 2431.987712736038 0.0 0.0
2618.4937034184513 2618.4937034184513 0.0 0.0
5210.614862061089 5210.614862061089 0.0 0.0
2626.8057176883667 2626.8057176883667 0.0 0.0
2446.391991189697 2446.391991189697 0.0 0.0
1888.2486716146996 1888.2486716146996 0.0 0.0
1365.8999411133634 1365.8999411133634 0.0 0.0
988.4185595278002 988.4185595278002 0.0 0.0
693.1399565950144 693.1399565950144 0.0 0.0
484.57148385552546 484.57148385552546 0.0 0.0
349.213631690454 349.213631690454 0.0 0.0
193.00285275641272 193.00285275641272 0.0 0.0
168.6612291069707 168.6612291069707 0.0 0.0
91.37188716552906 91.37188716552906 0.0 0.0
204.3144993942221 204.3144993942221 0.0 0.0
594.2397282060992 594.2397282060992 0.0 0.0
1215.0912696571193 1215.0912696571193 0.0 0.0
2077.111906019503 2077.111906019503 0.0 0.0
3209.643822523237 3209.643822523237 0.0 0.0
4626.504334851622 4626.504334851622 0.0 0.0
6333.993593830417 6333.993593830417 0.0 0.0
8729.294439624815 8729.294439624815 0.0 0.0
9423.352864325809 9423.352864325809 0.0 0.0
15163.831067458643 15163.831067458643 0.0 0.0
9437.875907853686 9437.875907853686 0.0 0.0
8756.174695936428 8756.174695936428 0.0 0.0
6370.014158727887 6370.014158727887 0.0 0.0
4668.17955177051 4668.17955177051 0.0 0.0
3251.845344850801 3251.845344850801 0.0 0.0
2113.4711345921555 2113.4711345921555 0.0 0.0
1238.8295414580823 1238.8295414580823 0.0 0.0
603.1171524855342 603.1171524855342 0.0 0.0
204.52463185392426 204.52463185392426 0.0 0.0
84.04693101181114 84.04693101181114 0.0 0.0
91.54083354926479 91.54083354926479 0.0 0.0
309.6303102662826 309.6303102662826 0.0 0.0
1141.5756521984624 1141.5756521984624 0.0 0.0
2593.6495442313185 2593.6495442313185 0.0 0.0
4550.487329204555 4550.487329204555 0.0 0.0
7062.077931676547 7062.077931676547 0.0 0.0
10200.997597160182 10200.997597160182 0.0 0.0
13875.62057379816 13875.62057379816 0.0 0.0
17935.2260238768 17935.2260238768 0.0 0.0
21865.529399435272 21865.529399435272 0.0 0.0
40799.65506918044 40799.65506918044 0.0 0.0
21887.887133938606 21887.887133938606 0.0 0.0
17978.18187724497 17978.18187724497 0.0 0.0
13932.994156902805 13932.994156902805 0.0 0.0
10265.772671970863 10265.772671970863 0.0 0.0
7124.337439595446 7124.337439595446 0.0 0.0
4597.219126526833 4597.219126526833 0.0 0.0
2613.887711581847 2613.887711581847 0.0 0.0
1141.348566431651 1141.348566431651 0.0 0.0
306.6053556853928 306.6053556853928 0.0 0.0
85.93234353986638 85.93234353986638 0.0 0.0
2365.7603176949506 2365.7603176949506 0.0 0.0
976.1138085101455 976.1138085101455 0.0 0.0
1449.8480429517683 1449.8480429517683 0.0 0.0
2921.2107031307833 2921.2107031307833 0.0 0.0
5008.423744376424 5008.423744376424 0.0 0.0
7731.791826583633 7731.791826583633 0.0 0.0
10995.629522128123 10995.629522128123 0.0 0.0
14765.914899391602 14765.914899391602 0.0 0.0
19006.081654508987 19006.081654508987 0.0 0.0
23176.130176567556 23176.130176567556 0.0 0.0
25178.207007914574 25178.207007914574 0.0 0.0
23187.627906753703 23187.627906753703 0.0 0.0
19027.55274935743 19027.55274935743 0.0 0.0
14797.052040969846 14797.052040969846 0.0 0.0
11038.169914935412 11038.169914935412 0.0 0.0
7788.942908639501 7788.942908639501 0.0 0.0
5084.909944584961 5084.909944584961 0.0 0.0
3018.301597509266 3018.301597509266 0.0 0.0
1587.2344242676702 1587.2344242676702 0.0 0.0
1165.9716079123777 1165.9716079123777 0.0 0.0
2305.746571155263 2305.746571155263 0.0 0.0
1897.138817687432 1897.138817687432 0.0 0.0
165.06363651267804 165.06363651267804 0.0 0.0
611.8247996162881 611.8247996162881 0.0 0.0
1331.4992792839757 1331.4992792839757 0.0 0.0
2279.7017380971674 2279.7017380971674 0.0 0.0
3496.6869837327636 3496.6869837327636 0.0 0.0
4954.675682457836 4954.675682457836 0.0 0.0
6614.689810959074 6614.689810959074 0.0 0.0
8448.890612421688 8448.890612421688 0.0 0.0
10289.026869706797 10289.026869706797 0.0 0.0
11262.586434845889 11262.586434845889 0.0 0.0
10296.454188769421 10296.454188769421 0.0 0.0
8463.081283304997 8463.081283304997 0.0 0.0
6635.450259653998 6635.450259653998 0.0 0.0
4982.57486896387 4982.57486896387 0.0 0.0
3533.044974572365 3533.044974572365 0.0 0.0
2325.85521743258 2325.85521743258 0.0 0.0
1390.4324150911116 1390.4324150911116 0.0 0.0
669.776078652513 669.776078652513 0.0 0.0
189.7570509696085 189.7570509696085 0.0 0.0
1908.8875273378035 1908.8875273378035 0.0 0.0
1139.8579668871569 1139.8579668871569 0.0 0.0
134.04527358720205 134.04527358720205 0.0 0.0
261.77374227896786 261.77374227896786 0.0 0.0
441.53888010860055 441.53888010860055 0.0 0.0
708.9346076139268 708.9346076139268 0.0 0.0
1027.2954375688967 1027.2954375688967 0.0 0.0
1402.1408320395506 1402.1408320395506 0.0 0.0
1806.8269537728602 1806.8269537728602 0.0 0.0
2284.65051905093 2284.65051905093 0.0 0.0
3012.6058917046767 3012.6058917046767 0.0 0.0
3665.65810284268 3665.65810284268 0.0 0.0
3016.112068771639 3016.112068771639 0.0 0.0
2291.551697848442 2291.551697848442 0.0 0.0
1816.881411637947 1816.881411637947 0.0 0.0
1415.022678053311 1415.022678053311 0.0 0.0
1042.6634270078036 1042.6634270078036 0.0 0.0
726.7432989402645 726.7432989402645 0.0 0.0
459.5469091827579 459.5469091827579 0.0 0.0
266.997655378593 266.997655378593 0.0 0.0
117.34947738587363 117.34947738587363 0.0 0.0
1130.0831200753723 1130.0831200753723 0.0 0.0
566.7786299601381 566.7786299601381 0.0 0.0
186.96643775951415 186.96643775951415 0.0 0.0
228.72185114636724 228.72185114636724 0.0 0.0
197.3347806189173 197.3347806189173 0.0 0.0
205.09997836955426 205.09997836955426 0.0 0.0
223.74564725799559 223.74564725799559 0.0 0.0
248.60978073521287 248.60978073521287 0.0 0.0
263.745148357018 263.745148357018 0.0 0.0
278.2477142297907 278.2477142297907 0.0 0.0
505.8414568235941 505.8414568235941 0.0 0.0
1237.3922321356135 1237.3922321356135 0.0 0.0
505.1009455958934 505.1009455958934 0.0 0.0
277.85091597219764 277.85091597219764 0.0 0.0
263.59963896782153 263.59963896782153 0.0 0.0
248.00486874212964 248.00486874212964 0.0 0.0
221.81888315941538 221.81888315941538 0.0 0.0
200.73310608321276 200.73310608321276 0.0 0.0
188.22274633180896 188.22274633180896 0.0 0.0
213.06987346019562 213.06987346019562 0.0 0.0
166.54060545124298 166.54060545124298 0.0 0.0
570.5576041039395 570.5576041039395 0.0 0.0
234.82476095204015 234.82476095204015 0.0 0.0
200.87427061192224 200.87427061192224 0.0 0.0
358.732368390009 358.732368390009 0.0 0.0
505.69266077012907 505.69266077012907 0.0 0.0
732.8478809713621 732.8478809713621 0.0 0.0
1048.998618757287 1048.998618757287 0.0 0.0
1434.1484719292866 1434.1484719292866 0.0 0.0
1910.399524465793 1910.399524465793 0.0 0.0
2361.225845282164 2361.225845282164 0.0 0.0
2491.9070726537143 2491.9070726537143 0.0 0.0
3775.3131114752914 3775.3131114752914 0.0 0.0
2486.70846641678 2486.70846641678 0.0 0.0
2353.998483918917 2353.998483918917 0.0 0.0
1901.067948106619 1901.067948106619 0.0 0.0
1422.41586815346 1422.41586815346 0.0 0.0
1034.772711744058 1034.772711744058 0.0 0.0
716.088187323072 716.088187323072 0.0 0.0
487.566661188921 487.566661188921 0.0 0.0
343.29361095852033 343.29361095852033 0.0 0.0
188.92886785347653 188.92886785347653 0.0 0.0
239.84880761003026 239.84880761003026 0.0 0.0
103.43581875951931 103.43581875951931 0.0 0.0
218.74751518620647 218.74751518620647 0.0 0.0
657.8986271523053 657.8986271523053 0.0 0.0
1370.1575134544626 1370.1575134544626 0.0 0.0
2331.695684779993 2331.695684779993 0.0 0.0
3552.129310831531 3552.129310831531 0.0 0.0
5016.858333384749 5016.858333384749 0.0 0.0
6664.900444761614 6664.900444761614 0.0 0.0
8663.851305754724 8663.851305754724 0.0 0.0
9201.13948477355 9201.13948477355 0.0 0.0
11870.841095343507 11870.841095343507 0.0 0.0
9192.048741072964 9192.048741072964 0.0 0.0
8650.962002244507 8650.962002244507 0.0 0.0
6647.171708520434 6647.171708520434 0.0 0.0
4995.55929565749 4995.55929565749 0.0 0.0
3529.6072919069775 3529.6072919069775 0.0 0.0
2311.276978440672 2311.276978440672 0.0 0.0
1356.237518320075 1356.237518320075 0.0 0.0
652.5688663459418 652.5688663459418 0.0 0.0
215.9046998145959 215.9046998145959 0.0 0.0
105.54015984804354 105.54015984804354 0.0 0.0
96.0438385931173 96.0438385931173 0.0 0.0
339.2076834763908 339.2076834763908 0.0 0.0
1279.555049326661 1279.555049326661 0.0 0.0
2926.1706949525587 2926.1706949525587 0.0 0.0
5105.971876788516 5105.971876788516 0.0 0.0
7825.5922841942165 7825.5922841942165 0.0 0.0
11103.411883173094 11103.411883173094 0.0 0.0
14757.571355989776 14757.571355989776 0.0 0.0
18414.917868240656 18414.917868240656 0.0 0.0
20895.30979772013 20895.30979772013 0.0 0.0
31351.32815621958 31351.32815621958 0.0 0.0
20888.811630872646 20888.811630872646 0.0 0.0
18397.95957855422 18397.95957855422 0.0 0.0
14731.678077797716 14731.678077797716 0.0 0.0
11072.363738421016 11072.363738421016 0.0 0.0
7794.774159540698 7794.774159540698 0.0 0.0
5083.46062934005 5083.46062934005 0.0 0.0
2920.5107436467997 2920.5107436467997 0.0 0.0
1288.9266369474703 1288.9266369474703 0.0 0.0
347.5117379302045 347.5117379302045 0.0 0.0
100.17912973398964 100.17912973398964 0.0 0.0
6356.112296153267 6356.112296153267 0.0 0.0
1150.1495008132838 1150.1495008132838 0.0 0.0
1370.2912342563186 1370.2912342563186 0.0 0.0
2868.7168842357664 2868.7168842357664 0.0 0.0
5060.536345976739 5060.536345976739 0.0 0.0
7975.432699773416 7975.432699773416 0.0 0.0
11484.243648772626 11484.243648772626 0.0 0.0
15409.66971429575 15409.66971429575 0.0 0.0
19184.83246428623 19184.83246428623 0.0 0.0
21793.711175889548 21793.711175889548 0.0 0.0
22633.01629004216 22633.01629004216 0.0 0.0
21826.680518725912 21826.680518725912 0.0 0.0
19250.750806326785 19250.750806326785 0.0 0.0
15510.213105587703 15510.213105587703 0.0 0.0
11622.341072374695 11622.341072374695 0.0 0.0
8152.202946064153 8152.202946064153 0.0 0.0
5271.046286724896 5271.046286724896 0.0 0.0
3099.398044190483 3099.398044190483 0.0 0.0
1629.4110891540122 1629.4110891540122 0.0 0.0
1815.6747957172784 1815.6747957172784 0.0 0.0
6089.477744980608 6089.477744980608 0.0 0.0
4718.60500888526 4718.60500888526 0.0 0.0
142.77669524163215 142.77669524163215 0.0 0.0
637.0127855630005 637.0127855630005 0.0 0.0
1361.6435269356257 1361.6435269356257 0.0 0.0
2337.2923787061177 2337.2923787061177 0.0 0.0
3604.7611315715435 3604.7611315715435 0.0 0.0
5137.9434512736825 5137.9434512736825 0.0 0.0
6867.149902096562 6867.149902096562 0.0 0.0
8564.764100863806 8564.764100863806 0.0 0.0
9770.030725832434 9770.030725832434 0.0 0.0
10162.105252755482 10162.105252755482 0.0 0.0
9791.412226854165 9791.412226854165 0.0 0.0
8607.362529897822 8607.362529897822 0.0 0.0
6931.431550545644 6931.431550545644 0.0 0.0
5224.304331240067 5224.304331240067 0.0 0.0
3712.1277652856634 3712.1277652856634 0.0 0.0
2460.095653518146 2460.095653518146 0.0 0.0
1490.4434926386855 1490.4434926386855 0.0 0.0
728.4364338107886 728.4364338107886 0.0 0.0
164.88516773189866 164.88516773189866 0.0 0.0
4956.105660160767 4956.105660160767 0.0 0.0
2624.9865157378968 2624.9865157378968 0.0 0.0
389.833739204777 389.833739204777 0.0 0.0
547.4278655087928 547.4278655087928 0.0 0.0
712.5830769435936 712.5830769435936 0.0 0.0
985.8086010682136 985.8086010682136 0.0 0.0
1301.7964091034019 1301.7964091034019 0.0 0.0
1689.4709976776753 1689.4709976776753 0.0 0.0
2168.884885814893 2168.884885814893 0.0 0.0
2690.3237737666373 2690.3237737666373 0.0 0.0
3037.4064324174105 3037.4064324174105 0.0 0.0
3135.6450725574364 3135.6450725574364 0.0 0.0
3046.1856958128524 3046.1856958128524 0.0 0.0
2707.0230257383164 2707.0230257383164 0.0 0.0
2193.0281404214893 2193.0281404214893 0.0 0.0
1720.1774289653501 1720.1774289653501 0.0 0.0
1336.861667189701 1336.861667189701 0.0 0.0
1021.0014867961246 1021.0014867961246 0.0 0.0
733.2703092027275 733.2703092027275 0.0 0.0
532.6107967291073 532.6107967291073 0.0 0.0
329.8949111895539 329.8949111895539 0.0 0.0
2738.9614671992795 2738.9614671992795 0.0 0.0
1210.8322546735956 1210.8322546735956 0.0 0.0
565.5846410734953 565.5846410734953 0.0 0.0
705.0779269119823 705.0779269119823 0.0 0.0
645.5275445768709 645.5275445768709 0.0 0.0
637.1664513027579 637.1664513027579 0.0 0.0
627.6885922320652 627.6885922320652 0.0 0.0
616.5776340482033 616.5776340482033 0.0 0.0
637.5150593262131 637.5150593262131 0.0 0.0
736.8759426135969 736.8759426135969 0.0 0.0
846.6089734919958 846.6089734919958 0.0 0.0
918.467164030289 918.467164030289 0.0 0.0
843.504400554988 843.504400554988 0.0 0.0
729.4430159504445 729.4430159504445 0.0 0.0
625.1760968594557 625.1760968594557 0.0 0.0
598.3952070869744 598.3952070869744 0.0 0.0
602.3621388990704 602.3621388990704 0.0 0.0
602.0081186128876 602.0081186128876 0.0 0.0
595.8168959220243 595.8168959220243 0.0 0.0
648.2222309341324 648.2222309341324 0.0 0.0
518.6991696541654 518.6991696541654 0.0 0.0
1274.4807901797944 1274.4807901797944 0.0 0.0
459.62869695393823 459.62869695393823 0.0 0.0
520.1176343853795 520.1176343853795 0.0 0.0
833.1653544984113 833.1653544984113 0.0 0.0
981.2358817290173 981.2358817290173 0.0 0.0
1183.1440553888817 1183.1440553888817 0.0 0.0
1462.9334964360187 1462.9334964360187 0.0 0.0
1794.124174969049 1794.124174969049 0.0 0.0
2116.6629723516307 2116.6629723516307 0.0 0.0
2479.098573947021 2479.098573947021 0.0 0.0
3047.6326667860712 3047.6326667860712 0.0 0.0
3411.533877994171 3411.533877994171 0.0 0.0
3033.7017755928473 3033.7017755928473 0.0 0.0
2450.492800086265 2450.492800086265 0.0 0.0
2073.410056301562 2073.410056301562 0.0 0.0
1736.8938441726345 1736.8938441726345 0.0 0.0
1393.5704473367698 1393.5704473367698 0.0 0.0
1105.232846307058 1105.232846307058 0.0 0.0
904.3784943393387 904.3784943393387 0.0 0.0
779.1594574841988 779.1594574841988 0.0 0.0
496.92233077156646 496.92233077156646 0.0 0.0
483.57170735347256 483.57170735347256 0.0 0.0
160.37522224284666 160.37522224284666 0.0 0.0
396.9184814335349 396.9184814335349 0.0 0.0
986.2055929976984 986.2055929976984 0.0 0.0
1764.997878204143 1764.997878204143 0.0 0.0
2734.7388428139157 2734.7388428139157 0.0 0.0
3937.0457560730256 3937.0457560730256 0.0 0.0
5344.483161421456 5344.483161421456 0.0 0.0
6879.1007097316015 6879.1007097316015 0.0 0.0
8062.647873992886 8062.647873992886 0.0 0.0
9833.519265503222 9833.519265503222 0.0 0.0
10697.034871209853 10697.034871209853 0.0 0.0
9808.822400998946 9808.822400998946 0.0 0.0
8014.260987050931 8014.260987050931 0.0 0.0
6806.7240761759185 6806.7240761759185 0.0 0.0
5253.423871291652 5253.423871291652 0.0 0.0
3835.272456908592 3835.272456908592 0.0 0.0
2636.664444146285 2636.664444146285 0.0 0.0
1691.5599446870383 1691.5599446870383 0.0 0.0
952.3035565001185 952.3035565001185 0.0 0.0
388.07390314433553 388.07390314433553 0.0 0.0
166.31085376741575 166.31085376741575 0.0 0.0
98.54274143203241 98.54274143203241 0.0 0.0
428.4377708791236 428.4377708791236 0.0 0.0
1555.4967531981001 1555.4967531981001 0.0 0.0
3398.857783574872 3398.857783574872 0.0 0.0
5693.998570763137 5693.998570763137 0.0 0.0
8490.46479825302 8490.46479825302 0.0 0.0
11780.453902026666 11780.453902026666 0.0 0.0
15461.115564189204 15461.115564189204 0.0 0.0
19220.196463607896 19220.196463607896 0.0 0.0
22816.89418147008 22816.89418147008 0.0 0.0
19618.532122370907 19618.532122370907 0.0 0.0
22785.043703011957 22785.043703011957 0.0 0.0
19144.747794315044 19144.747794315044 0.0 0.0
15350.459624182287 15350.459624182287 0.0 0.0
11645.261750909967 11645.261750909967 0.0 0.0
8348.49486228206 8348.49486228206 0.0 0.0
5575.180425648921 5575.180425648921 0.0 0.0
3336.546209920367 3336.546209920367 0.0 0.0
1549.7268371645334 1549.7268371645334 0.0 0.0
436.23533325994515 436.23533325994515 0.0 0.0
104.36702592295717 104.36702592295717 0.0 0.0