# vtk DataFile Version 3.0
Some data
ASCII
DATASET UNSTRUCTURED_GRID
POINTS 1029 float
0.0 0.0 0.0
0.8 0.0 0.0
1.6 0.0 0.0
2.4000000000000004 0.0 0.0
3.2 0.0 0.0
4.0 0.0 0.0
4.800000000000001 0.0 0.0
5.6000000000000005 0.0 0.0
6.4 0.0 0.0
7.2 0.0 0.0
8.0 0.0 0.0
8.8 0.0 0.0
9.600000000000001 0.0 0.0
10.4 0.0 0.0
11.200000000000001 0.0 0.0
12.0 0.0 0.0
12.8 0.0 0.0
13.600000000000001 0.0 0.0
14.4 0.0 0.0
15.200000000000001 0.0 0.0
16.0 0.0 0.0
0.0 0.3333333333333333 0.0
0.8 0.3333333333333333 0.0
1.6 0.3333333333333333 0.0
2.4000000000000004 0.3333333333333333 0.0
3.2 0.3333333333333333 0.0
4.0 0.3333333333333333 0.0
4.800000000000001 0.3333333333333333 0.0
5.6000000000000005 0.3333333333333333 0.0
6.4 0.3333333333333333 0.0
7.2 0.3333333333333333 0.0
8.0 0.3333333333333333 0.0
8.8 0.3333333333333333 0.0
9.600000000000001 0.3333333333333333 0.0
10.4 0.3333333333333333 0.0
11.200000000000001 0.3333333333333333 0.0
12.0 0.3333333333333333 0.0
12.8 0.3333333333333333 0.0
13.600000000000001 0.3333333333333333 0.0
14.4 0.3333333333333333 0.0
15.200000000000001 0.3333333333333333 0.0
16.0 0.3333333333333333 0.0
0.0 0.6666666666666666 0.0
0.8 0.6666666666666666 0.0
1.6 0.6666666666666666 0.0
2.4000000000000004 0.6666666666666666 0.0
3.2 0.6666666666666666 0.0
4.0 0.6666666666666666 0.0
4.800000000000001 0.6666666666666666 0.0
5.6000000000000005 0.6666666666666666 0.0
6.4 0.6666666666666666 0.0
7.2 0.6666666666666666 0.0
8.0 0.6666666666666666 0.0
8.8 0.6666666666666666 0.0
9.600000000000001 0.6666666666666666 0.0
10.4 0.6666666666666666 0.0
11.200000000000001 0.6666666666666666 0.0
12.0 0.6666666666666666 0.0
12.8 0.6666666666666666 0.0
13.600000000000001 0.6666666666666666 0.0
14.4 0.6666666666666666 0.0
15.200000000000001 0.6666666666666666 0.0
16.0 0.6666666666666666 0.0
0.0 1.0 0.0
0.8 1.0 0.0
1.6 1.0 0.0
2.4000000000000004 1.0 0.0
3.2 1.0 0.0
4.0 1.0 0.0
4.800000000000001 1.0 0.0
5.6000000000000005 1.0 0.0
6.4 1.0 0.0
7.2 1.0 0.0
8.0 1.0 0.0
8.8 1.0 0.0
9.600000000000001 1.0 0.0
10.4 1.0 0.0
11.200000000000001 1.0 0.0
12.0 1.0 0.0
12.8 1.0 0.0
13.600000000000001 1.0 0.0
14.4 1.0 0.0
15.200000000000001 1.0 0.0
16.0 1.0 0.0
0.0 1.3333333333333333 0.0
0.8 1.3333333333333333 0.0
1.6 1.3333333333333333 0.0
2.4000000000000004 1.3333333333333333 0.0
3.2 1.3333333333333333 0.0
4.0 1.3333333333333333 0.0
4.800000000000001 1.3333333333333333 0.0
5.6000000000000005 1.3333333333333333 0.0
6.4 1.3333333333333333 0.0
7.2 1.3333333333333333 0.0
8.0 1.3333333333333333 0.0
8.8 1.3333333333333333 0.0
9.600000000000001 1.3333333333333333 0.0
10.4 1.3333333333333333 0.0
11.200000000000001 1.3333333333333333 0.0
12.0 1.3333333333333333 0.0
12.8 1.3333333333333333 0.0
13.600000000000001 1.3333333333333333 0.0
14.4 1.3333333333333333 0.0
15.200000000000001 1.3333333333333333 0.0
16.0 1.3333333333333333 0.0
0.0 1.6666666666666665 0.0
0.8 1.6666666666666665 0.0
1.6 1.6666666666666665 0.0
2.4000000000000004 1.6666666666666665 0.0
3.2 1.6666666666666665 0.0
4.0 1.6666666666666665 0.0
4.800000000000001 1.6666666666666665 0.0
5.6000000000000005 1.6666666666666665 0.0
6.4 1.6666666666666665 0.0
7.2 1.6666666666666665 0.0
8.0 1.6666666666666665 0.0
8.8 1.6666666666666665 0.0
9.600000000000001 1.6666666666666665 0.0
10.4 1.6666666666666665 0.0
11.200000000000001 1.6666666666666665 0.0
12.0 1.6666666666666665 0.0
12.8 1.6666666666666665 0.0
13.600000000000001 1.6666666666666665 0.0
14.4 1.6666666666666665 0.0
15.200000000000001 1.6666666666666665 0.0
16.0 1.6666666666666665 0.0
0.0 2.0 0.0
0.8 2.0 0.0
1.6 2.0 0.0
2.4000000000000004 2.0 0.0
3.2 2.0 0.0
4.0 2.0 0.0
4.800000000000001 2.0 0.0
5.6000000000000005 2.0 0.0
6.4 2.0 0.0
7.2 2.0 0.0
8.0 2.0 0.0
8.8 2.0 0.0
9.600000000000001 2.0 0.0
10.4 2.0 0.0
11.200000000000001 2.0 0.0
12.0 2.0 0.0
12.8 2.0 0.0
13.600000000000001 2.0 0.0
14.4 2.0 0.0
15.200000000000001 2.0 0.0
16.0 2.0 0.0
0.0 0.0 1.6666666666666667
0.8 0.0 1.6666666666666667
1.6 0.0 1.6666666666666667
2.4000000000000004 0.0 1.6666666666666667
3.2 0.0 1.6666666666666667
4.0 0.0 1.6666666666666667
4.800000000000001 0.0 1.6666666666666667
5.6000000000000005 0.0 1.6666666666666667
6.4 0.0 1.6666666666666667
7.2 0.0 1.6666666666666667
8.0 0.0 1.6666666666666667
8.8 0.0 1.6666666666666667
9.600000000000001 0.0 1.6666666666666667
10.4 0.0 1.6666666666666667
11.200000000000001 0.0 1.6666666666666667
12.0 0.0 1.6666666666666667
12.8 0.0 1.6666666666666667
13.600000000000001 0.0 1.6666666666666667
14.4 0.0 1.6666666666666667
15.200000000000001 0.0 1.6666666666666667
16.0 0.0 1.6666666666666667
0.0 0.3333333333333333 1.6666666666666667
0.8 0.3333333333333333 1.6666666666666667
1.6 0.3333333333333333 1.6666666666666667
2.4000000000000004 0.3333333333333333 1.6666666666666667
3.2 0.3333333333333333 1.6666666666666667
4.0 0.3333333333333333 1.6666666666666667
4.800000000000001 0.3333333333333333 1.6666666666666667
5.6000000000000005 0.3333333333333333 1.6666666666666667
6.4 0.3333333333333333 1.6666666666666667
7.2 0.3333333333333333 1.6666666666666667
8.0 0.3333333333333333 1.6666666666666667
8.8 0.3333333333333333 1.6666666666666667
9.600000000000001 0.3333333333333333 1.6666666666666667
10.4 0.3333333333333333 1.6666666666666667
11.200000000000001 0.3333333333333333 1.6666666666666667
12.0 0.3333333333333333 1.6666666666666667
12.8 0.3333333333333333 1.6666666666666667
13.600000000000001 0.3333333333333333 1.6666666666666667
14.4 0.3333333333333333 1.6666666666666667
15.200000000000001 0.3333333333333333 1.6666666666666667
16.0 0.3333333333333333 1.6666666666666667
0.0 0.6666666666666666 1.6666666666666667
0.8 0.6666666666666666 1.6666666666666667
1.6 0.6666666666666666 1.6666666666666667
2.4000000000000004 0.6666666666666666 1.6666666666666667
3.2 0.6666666666666666 1.6666666666666667
4.0 0.6666666666666666 1.6666666666666667
4.800000000000001 0.6666666666666666 1.6666666666666667
5.6000000000000005 0.6666666666666666 1.6666666666666667
6.4 0.6666666666666666 1.6666666666666667
7.2 0.6666666666666666 1.6666666666666667
8.0 0.6666666666666666 1.6666666666666667
8.8 0.6666666666666666 1.6666666666666667
9.600000000000001 0.6666666666666666 1.6666666666666667
10.4 0.6666666666666666 1.6666666666666667
11.200000000000001 0.6666666666666666 1.6666666666666667
12.0 0.6666666666666666 1.6666666666666667
12.8 0.6666666666666666 1.6666666666666667
13.600000000000001 0.6666666666666666 1.6666666666666667
14.4 0.6666666666666666 1.6666666666666667
15.200000000000001 0.6666666666666666 1.6666666666666667
16.0 0.6666666666666666 1.6666666666666667
0.0 1.0 1.6666666666666667
0.8 1.0 1.6666666666666667
1.6 1.0 1.6666666666666667
2.4000000000000004 1.0 1.6666666666666667
3.2 1.0 1.6666666666666667
4.0 1.0 1.6666666666666667
4.800000000000001 1.0 1.6666666666666667
5.6000000000000005 1.0 1.6666666666666667
6.4 1.0 1.6666666666666667
7.2 1.0 1.6666666666666667
8.0 1.0 1.6666666666666667
8.8 1.0 1.6666666666666667
9.600000000000001 1.0 1.6666666666666667
10.4 1.0 1.6666666666666667
11.200000000000001 1.0 1.6666666666666667
12.0 1.0 1.6666666666666667
12.8 1.0 1.6666666666666667
13.600000000000001 1.0 1.6666666666666667
14.4 1.0 1.6666666666666667
15.200000000000001 1.0 1.6666666666666667
16.0 1.0 1.6666666666666667
0.0 1.3333333333333333 1.6666666666666667
0.8 1.3333333333333333 1.6666666666666667
1.6 1.3333333333333333 1.6666666666666667
2.4000000000000004 1.3333333333333333 1.6666666666666667
3.2 1.3333333333333333 1.6666666666666667
4.0 1.3333333333333333 1.6666666666666667
4.800000000000001 1.3333333333333333 1.6666666666666667
5.6000000000000005 1.3333333333333333 1.6666666666666667
6.4 1.3333333333333333 1.6666666666666667
7.2 1.3333333333333333 1.6666666666666667
8.0 1.3333333333333333 1.6666666666666667
8.8 1.3333333333333333 1.6666666666666667
9.600000000000001 1.3333333333333333 1.6666666666666667
10.4 1.3333333333333333 1.6666666666666667
11.200000000000001 1.3333333333333333 1.6666666666666667
12.0 1.3333333333333333 1.6666666666666667
12.8 1.3333333333333333 1.6666666666666667
13.600000000000001 1.3333333333333333 1.6666666666666667
14.4 1.3333333333333333 1.6666666666666667
15.200000000000001 1.3333333333333333 1.6666666666666667
16.0 1.3333333333333333 1.6666666666666667
0.0 1.6666666666666665 1.6666666666666667
0.8 1.6666666666666665 1.6666666666666667
1.6 1.6666666666666665 1.6666666666666667
2.4000000000000004 1.6666666666666665 1.6666666666666667
3.2 1.6666666666666665 1.6666666666666667
4.0 1.6666666666666665 1.6666666666666667
4.800000000000001 1.6666666666666665 1.6666666666666667
5.6000000000000005 1.6666666666666665 1.6666666666666667
6.4 1.6666666666666665 1.6666666666666667
7.2 1.6666666666666665 1.6666666666666667
8.0 1.6666666666666665 1.6666666666666667
8.8 1.6666666666666665 1.6666666666666667
9.600000000000001 1.6666666666666665 1.6666666666666667
10.4 1.6666666666666665 1.6666666666666667
11.200000000000001 1.6666666666666665 1.6666666666666667
12.0 1.6666666666666665 1.6666666666666667
12.8 1.6666666666666665 1.6666666666666667
13.600000000000001 1.6666666666666665 1.6666666666666667
14.4 1.6666666666666665 1.6666666666666667
15.200000000000001 1.6666666666666665 1.6666666666666667
16.0 1.6666666666666665 1.6666666666666667
0.0 2.0 1.6666666666666667
0.8 2.0 1.6666666666666667
1.6 2.0 1.6666666666666667
2.4000000000000004 2.0 1.6666666666666667
3.2 2.0 1.6666666666666667
4.0 2.0 1.6666666666666667
4.800000000000001 2.0 1.6666666666666667
5.6000000000000005 2.0 1.6666666666666667
6.4 2.0 1.6666666666666667
7.2 2.0 1.6666666666666667
8.0 2.0 1.6666666666666667
8.8 2.0 1.6666666666666667
9.600000000000001 2.0 1.6666666666666667
10.4 2.0 1.6666666666666667
11.200000000000001 2.0 1.6666666666666667
12.0 2.0 1.6666666666666667
12.8 2.0 1.6666666666666667
13.600000000000001 2.0 1.6666666666666667
14.4 2.0 1.6666666666666667
15.200000000000001 2.0 1.6666666666666667
16.0 2.0 1.6666666666666667
0.0 0.0 3.3333333333333335
0.8 0.0 3.3333333333333335
1.6 0.0 3.3333333333333335
2.4000000000000004 0.0 3.3333333333333335
3.2 0.0 3.3333333333333335
4.0 0.0 3.3333333333333335
4.800000000000001 0.0 3.3333333333333335
5.6000000000000005 0.0 3.3333333333333335
6.4 0.0 3.3333333333333335
7.2 0.0 3.3333333333333335
8.0 0.0 3.3333333333333335
8.8 0.0 3.3333333333333335
9.600000000000001 0.0 3.3333333333333335
10.4 0.0 3.3333333333333335
11.200000000000001 0.0 3.3333333333333335
12.0 0.0 3.3333333333333335
12.8 0.0 3.3333333333333335
13.600000000000001 0.0 3.3333333333333335
14.4 0.0 3.3333333333333335
15.200000000000001 0.0 3.3333333333333335
16.0 0.0 3.3333333333333335
0.0 0.3333333333333333 3.3333333333333335
0.8 0.3333333333333333 3.3333333333333335
1.6 0.3333333333333333 3.3333333333333335
2.4000000000000004 0.3333333333333333 3.3333333333333335
3.2 0.3333333333333333 3.3333333333333335
4.0 0.3333333333333333 3.3333333333333335
4.800000000000001 0.3333333333333333 3.3333333333333335
5.6000000000000005 0.3333333333333333 3.3333333333333335
6.4 0.3333333333333333 3.3333333333333335
7.2 0.3333333333333333 3.3333333333333335
8.0 0.3333333333333333 3.3333333333333335
8.8 0.3333333333333333 3.3333333333333335
9.600000000000001 0.3333333333333333 3.3333333333333335
10.4 0.3333333333333333 3.3333333333333335
11.200000000000001 0.3333333333333333 3.3333333333333335
12.0 0.3333333333333333 3.3333333333333335
12.8 0.3333333333333333 3.3333333333333335
13.600000000000001 0.3333333333333333 3.3333333333333335
14.4 0.3333333333333333 3.3333333333333335
15.200000000000001 0.3333333333333333 3.3333333333333335
16.0 0.3333333333333333 3.3333333333333335
0.0 0.6666666666666666 3.3333333333333335
0.8 0.6666666666666666 3.3333333333333335
1.6 0.6666666666666666 3.3333333333333335
2.4000000000000004 0.6666666666666666 3.3333333333333335
3.2 0.6666666666666666 3.3333333333333335
4.0 0.6666666666666666 3.3333333333333335
4.800000000000001 0.6666666666666666 3.3333333333333335
5.6000000000000005 0.6666666666666666 3.3333333333333335
6.4 0.6666666666666666 3.3333333333333335
7.2 0.6666666666666666 3.3333333333333335
8.0 0.6666666666666666 3.3333333333333335
8.8 0.6666666666666666 3.3333333333333335
9.600000000000001 0.6666666666666666 3.3333333333333335
10.4 0.6666666666666666 3.3333333333333335
11.200000000000001 0.6666666666666666 3.3333333333333335
12.0 0.6666666666666666 3.3333333333333335
12.8 0.6666666666666666 3.3333333333333335
13.600000000000001 0.6666666666666666 3.3333333333333335
14.4 0.6666666666666666 3.3333333333333335
15.200000000000001 0.6666666666666666 3.3333333333333335
16.0 0.6666666666666666 3.3333333333333335
0.0 1.0 3.3333333333333335
0.8 1.0 3.3333333333333335
1.6 1.0 3.3333333333333335
2.4000000000000004 1.0 3.3333333333333335
3.2 1.0 3.3333333333333335
4.0 1.0 3.3333333333333335
4.800000000000001 1.0 3.3333333333333335
5.6000000000000005 1.0 3.3333333333333335
6.4 1.0 3.3333333333333335
7.2 1.0 3.3333333333333335
8.0 1.0 3.3333333333333335
8.8 1.0 3.3333333333333335
9.600000000000001 1.0 3.3333333333333335
10.4 1.0 3.3333333333333335
11.200000000000001 1.0 3.3333333333333335
12.0 1.0 3.3333333333333335
12.8 1.0 3.3333333333333335
13.600000000000001 1.0 3.3333333333333335
14.4 1.0 3.3333333333333335
15.200000000000001 1.0 3.3333333333333335
16.0 1.0 3.3333333333333335
0.0 1.3333333333333333 3.3333333333333335
0.8 1.3333333333333333 3.3333333333333335
1.6 1.3333333333333333 3.3333333333333335
2.4000000000000004 1.3333333333333333 3.3333333333333335
3.2 1.3333333333333333 3.3333333333333335
4.0 1.3333333333333333 3.3333333333333335
4.800000000000001 1.3333333333333333 3.3333333333333335
5.6000000000000005 1.3333333333333333 3.3333333333333335
6.4 1.3333333333333333 3.3333333333333335
7.2 1.3333333333333333 3.3333333333333335
8.0 1.3333333333333333 3.3333333333333335
8.8 1.3333333333333333 3.3333333333333335
9.600000000000001 1.3333333333333333 3.3333333333333335
10.4 1.3333333333333333 3.3333333333333335
11.200000000000001 1.3333333333333333 3.3333333333333335
12.0 1.3333333333333333 3.3333333333333335
12.8 1.3333333333333333 3.3333333333333335
13.600000000000001 1.3333333333333333 3.3333333333333335
14.4 1.3333333333333333 3.3333333333333335
15.200000000000001 1.3333333333333333 3.3333333333333335
16.0 1.3333333333333333 3.3333333333333335
0.0 1.6666666666666665 3.3333333333333335
0.8 1.6666666666666665 3.3333333333333335
1.6 1.6666666666666665 3.3333333333333335
2.4000000000000004 1.6666666666666665 3.3333333333333335
3.2 1.6666666666666665 3.3333333333333335
4.0 1.6666666666666665 3.3333333333333335
4.800000000000001 1.6666666666666665 3.3333333333333335
5.6000000000000005 1.6666666666666665 3.3333333333333335
6.4 1.6666666666666665 3.3333333333333335
7.2 1.6666666666666665 3.3333333333333335
8.0 1.6666666666666665 3.3333333333333335
8.8 1.6666666666666665 3.3333333333333335
9.600000000000001 1.6666666666666665 3.3333333333333335
10.4 1.6666666666666665 3.3333333333333335
11.200000000000001 1.6666666666666665 3.3333333333333335
12.0 1.6666666666666665 3.3333333333333335
12.8 1.6666666666666665 3.3333333333333335
13.600000000000001 1.6666666666666665 3.3333333333333335
14.4 1.6666666666666665 3.3333333333333335
15.200000000000001 1.6666666666666665 3.3333333333333335
16.0 1.6666666666666665 3.3333333333333335
0.0 2.0 3.3333333333333335
0.8 2.0 3.3333333333333335
1.6 2.0 3.3333333333333335
2.4000000000000004 2.0 3.3333333333333335
3.2 2.0 3.3333333333333335
4.0 2.0 3.3333333333333335
4.800000000000001 2.0 3.3333333333333335
5.6000000000000005 2.0 3.3333333333333335
6.4 2.0 3.3333333333333335
7.2 2.0 3.3333333333333335
8.0 2.0 3.3333333333333335
8.8 2.0 3.3333333333333335
9.600000000000001 2.0 3.3333333333333335
10.4 2.0 3.3333333333333335
11.200000000000001 2.0 3.3333333333333335
12.0 2.0 3.3333333333333335
12.8 2.0 3.3333333333333335
13.600000000000001 2.0 3.3333333333333335
14.4 2.0 3.3333333333333335
15.200000000000001 2.0 3.3333333333333335
16.0 2.0 3.3333333333333335
0.0 0.0 5.0
0.8 0.0 5.0
1.6 0.0 5.0
2.4000000000000004 0.0 5.0
3.2 0.0 5.0
4.0 0.0 5.0
4.800000000000001 0.0 5.0
5.6000000000000005 0.0 5.0
6.4 0.0 5.0
7.2 0.0 5.0
8.0 0.0 5.0
8.8 0.0 5.0
9.600000000000001 0.0 5.0
10.4 0.0 5.0
11.200000000000001 0.0 5.0
12.0 0.0 5.0
12.8 0.0 5.0
13.600000000000001 0.0 5.0
14.4 0.0 5.0
15.200000000000001 0.0 5.0
16.0 0.0 5.0
0.0 0.3333333333333333 5.0
0.8 0.3333333333333333 5.0
1.6 0.3333333333333333 5.0
2.4000000000000004 0.3333333333333333 5.0
3.2 0.3333333333333333 5.0
4.0 0.3333333333333333 5.0
4.800000000000001 0.3333333333333333 5.0
5.6000000000000005 0.3333333333333333 5.0
6.4 0.3333333333333333 5.0
7.2 0.3333333333333333 5.0
8.0 0.3333333333333333 5.0
8.8 0.3333333333333333 5.0
9.600000000000001 0.3333333333333333 5.0
10.4 0.3333333333333333 5.0
11.200000000000001 0.3333333333333333 5.0
12.0 0.3333333333333333 5.0
12.8 0.3333333333333333 5.0
13.600000000000001 0.3333333333333333 5.0
14.4 0.3333333333333333 5.0
15.200000000000001 0.3333333333333333 5.0
16.0 0.3333333333333333 5.0
0.0 0.6666666666666666 5.0
0.8 0.6666666666666666 5.0
1.6 0.6666666666666666 5.0
2.4000000000000004 0.6666666666666666 5.0
3.2 0.6666666666666666 5.0
4.0 0.6666666666666666 5.0
4.800000000000001 0.6666666666666666 5.0
5.6000000000000005 0.6666666666666666 5.0
6.4 0.6666666666666666 5.0
7.2 0.6666666666666666 5.0
8.0 0.6666666666666666 5.0
8.8 0.6666666666666666 5.0
9.600000000000001 0.6666666666666666 5.0
10.4 0.6666666666666666 5.0
11.200000000000001 0.6666666666666666 5.0
12.0 0.6666666666666666 5.0
12.8 0.6666666666666666 5.0
13.600000000000001 0.6666666666666666 5.0
14.4 0.6666666666666666 5.0
15.200000000000001 0.6666666666666666 5.0
16.0 0.6666666666666666 5.0
0.0 1.0 5.0
0.8 1.0 5.0
1.6 1.0 5.0
2.4000000000000004 1.0 5.0
3.2 1.0 5.0
4.0 1.0 5.0
4.800000000000001 1.0 5.0
5.6000000000000005 1.0 5.0
6.4 1.0 5.0
7.2 1.0 5.0
8.0 1.0 5.0
8.8 1.0 5.0
9.600000000000001 1.0 5.0
10.4 1.0 5.0
11.200000000000001 1.0 5.0
12.0 1.0 5.0
12.8 1.0 5.0
13.600000000000001 1.0 5.0
14.4 1.0 5.0
15.200000000000001 1.0 5.0
16.0 1.0 5.0
0.0 1.3333333333333333 5.0
0.8 1.3333333333333333 5.0
1.6 1.3333333333333333 5.0
2.4000000000000004 1.3333333333333333 5.0
3.2 1.3333333333333333 5.0
4.0 1.3333333333333333 5.0
4.800000000000001 1.3333333333333333 5.0
5.6000000000000005 1.3333333333333333 5.0
6.4 1.3333333333333333 5.0
7.2 1.3333333333333333 5.0
8.0 1.3333333333333333 5.0
8.8 1.3333333333333333 5.0
9.600000000000001 1.3333333333333333 5.0
10.4 1.3333333333333333 5.0
11.200000000000001 1.3333333333333333 5.0
12.0 1.3333333333333333 5.0
12.8 1.3333333333333333 5.0
13.600000000000001 1.3333333333333333 5.0
14.4 1.3333333333333333 5.0
15.200000000000001 1.3333333333333333 5.0
16.0 1.3333333333333333 5.0
0.0 1.6666666666666665 5.0
0.8 1.6666666666666665 5.0
1.6 1.6666666666666665 5.0
2.4000000000000004 1.6666666666666665 5.0
3.2 1.6666666666666665 5.0
4.0 1.6666666666666665 5.0
4.800000000000001 1.6666666666666665 5.0
5.6000000000000005 1.6666666666666665 5.0
6.4 1.6666666666666665 5.0
7.2 1.6666666666666665 5.0
8.0 1.6666666666666665 5.0
8.8 1.6666666666666665 5.0
9.600000000000001 1.6666666666666665 5.0
10.4 1.6666666666666665 5.0
11.200000000000001 1.6666666666666665 5.0
12.0 1.6666666666666665 5.0
12.8 1.6666666666666665 5.0
13.600000000000001 1.6666666666666665 5.0
14.4 1.6666666666666665 5.0
15.200000000000001 1.6666666666666665 5.0
16.0 1.6666666666666665 5.0
0.0 2.0 5.0
0.8 2.0 5.0
1.6 2.0 5.0
2.4000000000000004 2.0 5.0
3.2 2.0 5.0
4.0 2.0 5.0
4.800000000000001 2.0 5.0
5.6000000000000005 2.0 5.0
6.4 2.0 5.0
7.2 2.0 5.0
8.0 2.0 5.0
8.8 2.0 5.0
9.600000000000001 2.0 5.0
10.4 2.0 5.0
11.200000000000001 2.0 5.0
12.0 2.0 5.0
12.8 2.0 5.0
13.600000000000001 2.0 5.0
14.4 2.0 5.0
15.200000000000001 2.0 5.0
16.0 2.0 5.0
0.0 0.0 6.666666666666667
0.8 0.0 6.666666666666667
1.6 0.0 6.666666666666667
2.4000000000000004 0.0 6.666666666666667
3.2 0.0 6.666666666666667
4.0 0.0 6.666666666666667
4.800000000000001 0.0 6.666666666666667
5.6000000000000005 0.0 6.666666666666667
6.4 0.0 6.666666666666667
7.2 0.0 6.666666666666667
8.0 0.0 6.666666666666667
8.8 0.0 6.666666666666667
9.600000000000001 0.0 6.666666666666667
10.4 0.0 6.666666666666667
11.200000000000001 0.0 6.666666666666667
12.0 0.0 6.666666666666667
12.8 0.0 6.666666666666667
13.600000000000001 0.0 6.666666666666667
14.4 0.0 6.666666666666667
15.200000000000001 0.0 6.666666666666667
16.0 0.0 6.666666666666667
0.0 0.3333333333333333 6.666666666666667
0.8 0.3333333333333333 6.666666666666667
1.6 0.3333333333333333 6.666666666666667
2.4000000000000004 0.3333333333333333 6.666666666666667
3.2 0.3333333333333333 6.666666666666667
4.0 0.3333333333333333 6.666666666666667
4.800000000000001 0.3333333333333333 6.666666666666667
5.6000000000000005 0.3333333333333333 6.666666666666667
6.4 0.3333333333333333 6.666666666666667
7.2 0.3333333333333333 6.666666666666667
8.0 0.3333333333333333 6.666666666666667
8.8 0.3333333333333333 6.666666666666667
9.600000000000001 0.3333333333333333 6.666666666666667
10.4 0.3333333333333333 6.666666666666667
11.200000000000001 0.3333333333333333 6.666666666666667
12.0 0.3333333333333333 6.666666666666667
12.8 0.3333333333333333 6.666666666666667
13.600000000000001 0.3333333333333333 6.666666666666667
14.4 0.3333333333333333 6.666666666666667
15.200000000000001 0.3333333333333333 6.666666666666667
16.0 0.3333333333333333 6.666666666666667
0.0 0.6666666666666666 6.666666666666667
0.8 0.6666666666666666 6.666666666666667
1.6 0.6666666666666666 6.666666666666667
2.4000000000000004 0.6666666666666666 6.666666666666667
3.2 0.6666666666666666 6.666666666666667
4.0 0.6666666666666666 6.666666666666667
4.800000000000001 0.6666666666666666 6.666666666666667
5.6000000000000005 0.6666666666666666 6.666666666666667
6.4 0.6666666666666666 6.666666666666667
7.2 0.6666666666666666 6.666666666666667
8.0 0.6666666666666666 6.666666666666667
8.8 0.6666666666666666 6.666666666666667
9.600000000000001 0.6666666666666666 6.666666666666667
10.4 0.6666666666666666 6.666666666666667
11.200000000000001 0.6666666666666666 6.666666666666667
12.0 0.6666666666666666 6.666666666666667
12.8 0.6666666666666666 6.666666666666667
13.600000000000001 0.6666666666666666 6.666666666666667
14.4 0.6666666666666666 6.666666666666667
15.200000000000001 0.6666666666666666 6.666666666666667
16.0 0.6666666666666666 6.666666666666667
0.0 1.0 6.666666666666667
0.8 1.0 6.666666666666667
1.6 1.0 6.666666666666667
2.4000000000000004 1.0 6.666666666666667
3.2 1.0 6.666666666666667
4.0 1.0 6.666666666666667
4.800000000000001 1.0 6.666666666666667
5.6000000000000005 1.0 6.666666666666667
6.4 1.0 6.666666666666667
7.2 1.0 6.666666666666667
8.0 1.0 6.666666666666667
8.8 1.0 6.666666666666667
9.600000000000001 1.0 6.666666666666667
10.4 1.0 6.666666666666667
11.200000000000001 1.0 6.666666666666667
12.0 1.0 6.666666666666667
12.8 1.0 6.666666666666667
13.600000000000001 1.0 6.666666666666667
14.4 1.0 6.666666666666667
15.200000000000001 1.0 6.666666666666667
16.0 1.0 6.666666666666667
0.0 1.3333333333333333 6.666666666666667
0.8 1.3333333333333333 6.666666666666667
1.6 1.3333333333333333 6.666666666666667
2.4000000000000004 1.3333333333333333 6.666666666666667
3.2 1.3333333333333333 6.666666666666667
4.0 1.3333333333333333 6.666666666666667
4.800000000000001 1.3333333333333333 6.666666666666667
5.6000000000000005 1.3333333333333333 6.666666666666667
6.4 1.3333333333333333 6.666666666666667
7.2 1.3333333333333333 6.666666666666667
8.0 1.3333333333333333 6.666666666666667
8.8 1.3333333333333333 6.666666666666667
9.600000000000001 1.3333333333333333 6.666666666666667
10.4 1.3333333333333333 6.666666666666667
11.200000000000001 1.3333333333333333 6.666666666666667
12.0 1.3333333333333333 6.666666666666667
12.8 1.3333333333333333 6.666666666666667
13.600000000000001 1.3333333333333333 6.666666666666667
14.4 1.3333333333333333 6.666666666666667
15.200000000000001 1.3333333333333333 6.666666666666667
16.0 1.3333333333333333 6.666666666666667
0.0 1.6666666666666665 6.666666666666667
0.8 1.6666666666666665 6.666666666666667
1.6 1.6666666666666665 6.666666666666667
2.4000000000000004 1.6666666666666665 6.666666666666667
3.2 1.6666666666666665 6.666666666666667
4.0 1.6666666666666665 6.666666666666667
4.800000000000001 1.6666666666666665 6.666666666666667
5.6000000000000005 1.6666666666666665 6.666666666666667
6.4 1.6666666666666665 6.666666666666667
7.2 1.6666666666666665 6.666666666666667
8.0 1.6666666666666665 6.666666666666667
8.8 1.6666666666666665 6.666666666666667
9.600000000000001 1.6666666666666665 6.666666666666667
10.4 1.6666666666666665 6.666666666666667
11.200000000000001 1.6666666666666665 6.666666666666667
12.0 1.6666666666666665 6.666666666666667
12.8 1.6666666666666665 6.666666666666667
13.600000000000001 1.6666666666666665 6.666666666666667
14.4 1.6666666666666665 6.666666666666667
15.200000000000001 1.6666666666666665 6.666666666666667
16.0 1.6666666666666665 6.666666666666667
0.0 2.0 6.666666666666667
0.8 2.0 6.666666666666667
1.6 2.0 6.666666666666667
2.4000000000000004 2.0 6.666666666666667
3.2 2.0 6.666666666666667
4.0 2.0 6.666666666666667
4.800000000000001 2.0 6.666666666666667
5.6000000000000005 2.0 6.666666666666667
6.4 2.0 6.666666666666667
7.2 2.0 6.666666666666667
8.0 2.0 6.666666666666667
8.8 2.0 6.666666666666667
9.600000000000001 2.0 6.666666666666667
10.4 2.0 6.666666666666667
11.200000000000001 2.0 6.666666666666667
12.0 2.0 6.666666666666667
12.8 2.0 6.666666666666667
13.600000000000001 2.0 6.666666666666667
14.4 2.0 6.666666666666667
15.200000000000001 2.0 6.666666666666667
16.0 2.0 6.666666666666667
0.0 0.0 8.333333333333334
0.8 0.0 8.333333333333334
1.6 0.0 8.333333333333334
2.4000000000000004 0.0 8.333333333333334
3.2 0.0 8.333333333333334
4.0 0.0 8.333333333333334
4.800000000000001 0.0 8.333333333333334
5.6000000000000005 0.0 8.333333333333334
6.4 0.0 8.333333333333334
7.2 0.0 8.333333333333334
8.0 0.0 8.333333333333334
8.8 0.0 8.333333333333334
9.600000000000001 0.0 8.333333333333334
10.4 0.0 8.333333333333334
11.200000000000001 0.0 8.333333333333334
12.0 0.0 8.333333333333334
12.8 0.0 8.333333333333334
13.600000000000001 0.0 8.333333333333334
14.4 0.0 8.333333333333334
15.200000000000001 0.0 8.333333333333334
16.0 0.0 8.333333333333334
0.0 0.3333333333333333 8.333333333333334
0.8 0.3333333333333333 8.333333333333334
1.6 0.3333333333333333 8.333333333333334
2.4000000000000004 0.3333333333333333 8.333333333333334
3.2 0.3333333333333333 8.333333333333334
4.0 0.3333333333333333 8.333333333333334
4.800000000000001 0.3333333333333333 8.333333333333334
5.6000000000000005 0.3333333333333333 8.333333333333334
6.4 0.3333333333333333 8.333333333333334
7.2 0.3333333333333333 8.333333333333334
8.0 0.3333333333333333 8.333333333333334
8.8 0.3333333333333333 8.333333333333334
9.600000000000001 0.3333333333333333 8.333333333333334
10.4 0.3333333333333333 8.333333333333334
11.200000000000001 0.3333333333333333 8.333333333333334
12.0 0.3333333333333333 8.333333333333334
12.8 0.3333333333333333 8.333333333333334
13.600000000000001 0.3333333333333333 8.333333333333334
14.4 0.3333333333333333 8.333333333333334
15.200000000000001 0.3333333333333333 8.333333333333334
16.0 0.3333333333333333 8.333333333333334
0.0 0.6666666666666666 8.333333333333334
0.8 0.6666666666666666 8.333333333333334
1.6 0.6666666666666666 8.333333333333334
2.4000000000000004 0.6666666666666666 8.333333333333334
3.2 0.6666666666666666 8.333333333333334
4.0 0.6666666666666666 8.333333333333334
4.800000000000001 0.6666666666666666 8.333333333333334
5.6000000000000005 0.6666666666666666 8.333333333333334
6.4 0.6666666666666666 8.333333333333334
7.2 0.6666666666666666 8.333333333333334
8.0 0.6666666666666666 8.333333333333334
8.8 0.6666666666666666 8.333333333333334
9.600000000000001 0.6666666666666666 8.333333333333334
10.4 0.6666666666666666 8.333333333333334
11.200000000000001 0.6666666666666666 8.333333333333334
12.0 0.6666666666666666 8.333333333333334
12.8 0.6666666666666666 8.333333333333334
13.600000000000001 0.6666666666666666 8.333333333333334
14.4 0.6666666666666666 8.333333333333334
15.200000000000001 0.6666666666666666 8.333333333333334
16.0 0.6666666666666666 8.333333333333334
0.0 1.0 8.333333333333334
0.8 1.0 8.333333333333334
1.6 1.0 8.333333333333334
2.4000000000000004 1.0 8.333333333333334
3.2 1.0 8.333333333333334
4.0 1.0 8.333333333333334
4.800000000000001 1.0 8.333333333333334
5.6000000000000005 1.0 8.333333333333334
6.4 1.0 8.333333333333334
7.2 1.0 8.333333333333334
8.0 1.0 8.333333333333334
8.8 1.0 8.333333333333334
9.600000000000001 1.0 8.333333333333334
10.4 1.0 8.333333333333334
11.200000000000001 1.0 8.333333333333334
12.0 1.0 8.333333333333334
12.8 1.0 8.333333333333334
13.600000000000001 1.0 8.333333333333334
14.4 1.0 8.333333333333334
15.200000000000001 1.0 8.333333333333334
16.0 1.0 8.333333333333334
0.0 1.3333333333333333 8.333333333333334
0.8 1.3333333333333333 8.333333333333334
1.6 1.3333333333333333 8.333333333333334
2.4000000000000004 1.3333333333333333 8.333333333333334
3.2 1.3333333333333333 8.333333333333334
4.0 1.3333333333333333 8.333333333333334
4.800000000000001 1.3333333333333333 8.333333333333334
5.6000000000000005 1.3333333333333333 8.333333333333334
6.4 1.3333333333333333 8.333333333333334
7.2 1.3333333333333333 8.333333333333334
8.0 1.3333333333333333 8.333333333333334
8.8 1.3333333333333333 8.333333333333334
9.600000000000001 1.3333333333333333 8.333333333333334
10.4 1.3333333333333333 8.333333333333334
11.200000000000001 1.3333333333333333 8.333333333333334
12.0 1.3333333333333333 8.333333333333334
12.8 1.3333333333333333 8.333333333333334
13.600000000000001 1.3333333333333333 8.333333333333334
14.4 1.3333333333333333 8.333333333333334
15.200000000000001 1.3333333333333333 8.333333333333334
16.0 1.3333333333333333 8.333333333333334
0.0 1.6666666666666665 8.333333333333334
0.8 1.6666666666666665 8.333333333333334
1.6 1.6666666666666665 8.333333333333334
2.4000000000000004 1.6666666666666665 8.333333333333334
3.2 1.6666666666666665 8.333333333333334
4.0 1.6666666666666665 8.333333333333334
4.800000000000001 1.6666666666666665 8.333333333333334
5.6000000000000005 1.6666666666666665 8.333333333333334
6.4 1.6666666666666665 8.333333333333334
7.2 1.6666666666666665 8.333333333333334
8.0 1.6666666666666665 8.333333333333334
8.8 1.6666666666666665 8.333333333333334
9.600000000000001 1.6666666666666665 8.333333333333334
10.4 1.6666666666666665 8.333333333333334
11.200000000000001 1.6666666666666665 8.333333333333334
12.0 1.6666666666666665 8.333333333333334
12.8 1.6666666666666665 8.333333333333334
13.600000000000001 1.6666666666666665 8.333333333333334
14.4 1.6666666666666665 8.333333333333334
15.200000000000001 1.6666666666666665 8.333333333333334
16.0 1.6666666666666665 8.333333333333334
0.0 2.0 8.333333333333334
0.8 2.0 8.333333333333334
1.6 2.0 8.333333333333334
2.4000000000000004 2.0 8.333333333333334
3.2 2.0 8.333333333333334
4.0 2.0 8.333333333333334
4.800000000000001 2.0 8.333333333333334
5.6000000000000005 2.0 8.333333333333334
6.4 2.0 8.333333333333334
7.2 2.0 8.333333333333334
8.0 2.0 8.333333333333334
8.8 2.0 8.333333333333334
9.600000000000001 2.0 8.333333333333334
10.4 2.0 8.333333333333334
11.200000000000001 2.0 8.333333333333334
12.0 2.0 8.333333333333334
12.8 2.0 8.333333333333334
13.600000000000001 2.0 8.333333333333334
14.4 2.0 8.333333333333334
15.200000000000001 2.0 8.333333333333334
16.0 2.0 8.333333333333334
0.0 0.0 10.0
0.8 0.0 10.0
1.6 0.0 10.0
2.4000000000000004 0.0 10.0
3.2 0.0 10.0
4.0 0.0 10.0
4.800000000000001 0.0 10.0
5.6000000000000005 0.0 10.0
6.4 0.0 10.0
7.2 0.0 10.0
8.0 0.0 10.0
8.8 0.0 10.0
9.600000000000001 0.0 10.0
10.4 0.0 10.0
11.200000000000001 0.0 10.0
12.0 0.0 10.0
12.8 0.0 10.0
13.600000000000001 0.0 10.0
14.4 0.0 10.0
15.200000000000001 0.0 10.0
16.0 0.0 10.0
0.0 0.3333333333333333 10.0
0.8 0.3333333333333333 10.0
1.6 0.3333333333333333 10.0
2.4000000000000004 0.3333333333333333 10.0
3.2 0.3333333333333333 10.0
4.0 0.3333333333333333 10.0
4.800000000000001 0.3333333333333333 10.0
5.6000000000000005 0.3333333333333333 10.0
6.4 0.3333333333333333 10.0
7.2 0.3333333333333333 10.0
8.0 0.3333333333333333 10.0
8.8 0.3333333333333333 10.0
9.600000000000001 0.3333333333333333 10.0
10.4 0.3333333333333333 10.0
11.200000000000001 0.3333333333333333 10.0
12.0 0.3333333333333333 10.0
12.8 0.3333333333333333 10.0
13.600000000000001 0.3333333333333333 10.0
14.4 0.3333333333333333 10.0
15.200000000000001 0.3333333333333333 10.0
16.0 0.3333333333333333 10.0
0.0 0.6666666666666666 10.0
0.8 0.6666666666666666 10.0
1.6 0.6666666666666666 10.0
2.4000000000000004 0.6666666666666666 10.0
3.2 0.6666666666666666 10.0
4.0 0.6666666666666666 10.0
4.800000000000001 0.6666666666666666 10.0
5.6000000000000005 0.6666666666666666 10.0
6.4 0.6666666666666666 10.0
7.2 0.6666666666666666 10.0
8.0 0.6666666666666666 10.0
8.8 0.6666666666666666 10.0
9.600000000000001 0.6666666666666666 10.0
10.4 0.6666666666666666 10.0
11.200000000000001 0.6666666666666666 10.0
12.0 0.6666666666666666 10.0
12.8 0.6666666666666666 10.0
13.600000000000001 0.6666666666666666 10.0
14.4 0.6666666666666666 10.0
15.200000000000001 0.6666666666666666 10.0
16.0 0.6666666666666666 10.0
0.0 1.0 10.0
0.8 1.0 10.0
1.6 1.0 10.0
2.4000000000000004 1.0 10.0
3.2 1.0 10.0
4.0 1.0 10.0
4.800000000000001 1.0 10.0
5.6000000000000005 1.0 10.0
6.4 1.0 10.0
7.2 1.0 10.0
8.0 1.0 10.0
8.8 1.0 10.0
9.600000000000001 1.0 10.0
10.4 1.0 10.0
11.200000000000001 1.0 10.0
12.0 1.0 10.0
12.8 1.0 10.0
13.600000000000001 1.0 10.0
14.4 1.0 10.0
15.200000000000001 1.0 10.0
16.0 1.0 10.0
0.0 1.3333333333333333 10.0
0.8 1.3333333333333333 10.0
1.6 1.3333333333333333 10.0
2.4000000000000004 1.3333333333333333 10.0
3.2 1.3333333333333333 10.0
4.0 1.3333333333333333 10.0
4.800000000000001 1.3333333333333333 10.0
5.6000000000000005 1.3333333333333333 10.0
6.4 1.3333333333333333 10.0
7.2 1.3333333333333333 10.0
8.0 1.3333333333333333 10.0
8.8 1.3333333333333333 10.0
9.600000000000001 1.3333333333333333 10.0
10.4 1.3333333333333333 10.0
11.200000000000001 1.3333333333333333 10.0
12.0 1.3333333333333333 10.0
12.8 1.3333333333333333 10.0
13.600000000000001 1.3333333333333333 10.0
14.4 1.3333333333333333 10.0
15.200000000000001 1.3333333333333333 10.0
16.0 1.3333333333333333 10.0
0.0 1.6666666666666665 10.0
0.8 1.6666666666666665 10.0
1.6 1.6666666666666665 10.0
2.4000000000000004 1.6666666666666665 10.0
3.2 1.6666666666666665 10.0
4.0 1.6666666666666665 10.0
4.800000000000001 1.6666666666666665 10.0
5.6000000000000005 1.6666666666666665 10.0
6.4 1.6666666666666665 10.0
7.2 1.6666666666666665 10.0
8.0 1.6666666666666665 10.0
8.8 1.6666666666666665 10.0
9.600000000000001 1.6666666666666665 10.0
10.4 1.6666666666666665 10.0
11.200000000000001 1.6666666666666665 10.0
12.0 1.6666666666666665 10.0
12.8 1.6666666666666665 10.0
13.600000000000001 1.6666666666666665 10.0
14.4 1.6666666666666665 10.0
15.200000000000001 1.6666666666666665 10.0
16.0 1.6666666666666665 10.0
0.0 2.0 10.0
0.8 2.0 10.0
1.6 2.0 10.0
2.4000000000000004 2.0 10.0
3.2 2.0 10.0
4.0 2.0 10.0
4.800000000000001 2.0 10.0
5.6000000000000005 2.0 10.0
6.4 2.0 10.0
7.2 2.0 10.0
8.0 2.0 10.0
8.8 2.0 10.0
9.600000000000001 2.0 10.0
10.4 2.0 10.0
11.200000000000001 2.0 10.0
12.0 2.0 10.0
12.8 2.0 10.0
13.600000000000001 2.0 10.0
14.4 2.0 10.0
15.200000000000001 2.0 10.0
16.0 2.0 10.0
CELLS 720 6480
8 0 1 22 21 147 148 169 168
8 1 2 23 22 148 149 170 169
8 2 3 24 23 149 150 171 170
8 3 4 25 24 150 151 172 171
8 4 5 26 25 151 152 173 172
8 5 6 27 26 152 153 174 173
8 6 7 28 27 153 154 175 174
8 7 8 29 28 154 155 176 175
8 8 9 30 29 155 156 177 176
8 9 10 31 30 156 157 178 177
8 10 11 32 31 157 158 179 178
8 11 12 33 32 158 159 180 179
8 12 13 34 33 159 160 181 180
8 13 14 35 34 160 161 182 181
8 14 15 36 35 161 162 183 182
8 15 16 37 36 162 163 184 183
8 16 17 38 37 163 164 185 184
8 17 18 39 38 164 165 186 185
8 18 19 40 39 165 166 187 186
8 19 20 41 40 166 167 188 187
8 21 22 43 42 168 169 190 189
8 22 23 44 43 169 170 191 190
8 23 24 45 44 170 171 192 191
8 24 25 46 45 171 172 193 192
8 25 26 47 46 172 173 194 193
8 26 27 48 47 173 174 195 194
8 27 28 49 48 174 175 196 195
8 28 29 50 49 175 176 197 196
8 29 30 51 50 176 177 198 197
8 30 31 52 51 177 178 199 198
8 31 32 53 52 178 179 200 199
8 32 33 54 53 179 180 201 200
8 33 34 55 54 180 181 202 201
8 34 35 56 55 181 182 203 202
8 35 36 57 56 182 183 204 203
8 36 37 58 57 183 184 205 204
8 37 38 59 58 184 185 206 205
8 38 39 60 59 185 186 207 206
8 39 40 61 60 186 187 208 207
8 40 41 62 61 187 188 209 208
8 42 43 64 63 189 190 211 210
8 43 44 65 64 190 191 212 211
8 44 45 66 65 191 192 213 212
8 45 46 67 66 192 193 214 213
8 46 47 68 67 193 194 215 214
8 47 48 69 68 194 195 216 215
8 48 49 70 69 195 196 217 216
8 49 50 71 70 196 197 218 217
8 50 51 72 71 197 198 219 218
8 51 52 73 72 198 199 220 219
8 52 53 74 73 199 200 221 220
8 53 54 75 74 200 201 222 221
8 54 55 76 75 201 202 223 222
8 55 56 77 76 202 203 224 223
8 56 57 78 77 203 204 225 224
8 57 58 79 78 204 205 226 225
8 58 59 80 79 205 206 227 226
8 59 60 81 80 206 207 228 227
8 60 61 82 81 207 208 229 228
8 61 62 83 82 208 209 230 229
8 63 64 85 84 210 211 232 231
8 64 65 86 85 211 212 233 232
8 65 66 87 86 212 213 234 233
8 66 67 88 87 213 214 235 234
8 67 68 89 88 214 215 236 235
8 68 69 90 89 215 216 237 236
8 69 70 91 90 216 217 238 237
8 70 71 92 91 217 218 239 238
8 71 72 93 92 218 219 240 239
8 72 73 94 93 219 220 241 240
8 73 74 95 94 220 221 242 241
8 74 75 96 95 221 222 243 242
8 75 76 97 96 222 223 244 243
8 76 77 98 97 223 224 245 244
8 77 78 99 98 224 225 246 245
8 78 79 100 99 225 226 247 246
8 79 80 101 100 226 227 248 247
8 80 81 102 101 227 228 249 248
8 81 82 103 102 228 229 250 249
8 82 83 104 103 229 230 251 250
8 84 85 106 105 231 232 253 252
8 85 86 107 106 232 233 254 253
8 86 87 108 107 233 234 255 254
8 87 88 109 108 234 235 256 255
8 88 89 110 109 235 236 257 256
8 89 90 111 110 236 237 258 257
8 90 91 112 111 237 238 259 258
8 91 92 113 112 238 239 260 259
8 92 93 114 113 239 240 261 260
8 93 94 115 114 240 241 262 261
8 94 95 116 115 241 242 263 262
8 95 96 117 116 242 243 264 263
8 96 97 118 117 243 244 265 264
8 97 98 119 118 244 245 266 265
8 98 99 120 119 245 246 267 266
8 99 100 121 120 246 247 268 267
8 100 101 122 121 247 248 269 268
8 101 102 123 122 248 249 270 269
8 102 103 124 123 249 250 271 270
8 103 104 125 124 250 251 272 271
8 105 106 127 126 252 253 274 273
8 106 107 128 127 253 254 275 274
8 107 108 129 128 254 255 276 275
8 108 109 130 129 255 256 277 276
8 109 110 131 130 256 257 278 277
8 110 111 132 131 257 258 279 278
8 111 112 133 132 258 259 280 279
8 112 113 134 133 259 260 281 280
8 113 114 135 134 260 261 282 281
8 114 115 136 135 261 262 283 282
8 115 116 137 136 262 263 284 283
8 116 117 138 137 263 264 285 284
8 117 118 139 138 264 265 286 285
8 118 119 140 139 265 266 287 286
8 119 120 141 140 266 267 288 287
8 120 121 142 141 267 268 289 288
8 121 122 143 142 268 269 290 289
8 122 123 144 143 269 270 291 290
8 123 124 145 144 270 271 292 291
8 124 125 146 145 271 272 293 292
8 147 148 169 168 294 295 316 315
8 148 149 170 169 295 296 317 316
8 149 150 171 170 296 297 318 317
8 150 151 172 171 297 298 319 318
8 151 152 173 172 298 299 320 319
8 152 153 174 173 299 300 321 320
8 153 154 175 174 300 301 322 321
8 154 155 176 175 301 302 323 322
8 155 156 177 176 302 303 324 323
8 156 157 178 177 303 304 325 324
8 157 158 179 178 304 305 326 325
8 158 159 180 179 305 306 327 326
8 159 160 181 180 306 307 328 327
8 160 161 182 181 307 308 329 328
8 161 162 183 182 308 309 330 329
8 162 163 184 183 309 310 331 330
8 163 164 185 184 310 311 332 331
8 164 165 186 185 311 312 333 332
8 165 166 187 186 312 313 334 333
8 166 167 188 187 313 314 335 334
8 168 169 190 189 315 316 337 336
8 169 170 191 190 316 317 338 337
8 170 171 192 191 317 318 339 338
8 171 172 193 192 318 319 340 339
8 172 173 194 193 319 320 341 340
8 173 174 195 194 320 321 342 341
8 174 175 196 195 321 322 343 342
8 175 176 197 196 322 323 344 343
8 176 177 198 197 323 324 345 344
8 177 178 199 198 324 325 346 345
8 178 179 200 199 325 326 347 346
8 179 180 201 200 326 327 348 347
8 180 181 202 201 327 328 349 348
8 181 182 203 202 328 329 350 349
8 182 183 204 203 329 330 351 350
8 183 184 205 204 330 331 352 351
8 184 185 206 205 331 332 353 352
8 185 186 207 206 332 333 354 353
8 186 187 208 207 333 334 355 354
8 187 188 209 208 334 335 356 355
8 189 190 211 210 336 337 358 357
8 190 191 212 211 337 338 359 358
8 191 192 213 212 338 339 360 359
8 192 193 214 213 339 340 361 360
8 193 194 215 214 340 341 362 361
8 194 195 216 215 341 342 363 362
8 195 196 217 216 342 343 364 363
8 196 197 218 217 343 344 365 364
8 197 198 219 218 344 345 366 365
8 198 199 220 219 345 346 367 366
8 199 200 221 220 346 347 368 367
8 200 201 222 221 347 348 369 368
8 201 202 223 222 348 349 370 369
8 202 203 224 223 349 350 371 370
8 203 204 225 224 350 351 372 371
8 204 205 226 225 351 352 373 372
8 205 206 227 226 352 353 374 373
8 206 207 228 227 353 354 375 374
8 207 208 229 228 354 355 376 375
8 208 209 230 229 355 356 377 376
8 210 211 232 231 357 358 379 378
8 211 212 233 232 358 359 380 379
8 212 213 234 233 359 360 381 380
8 213 214 235 234 360 361 382 381
8 214 215 236 235 361 362 383 382
8 215 216 237 236 362 363 384 383
8 216 217 238 237 363 364 385 384
8 217 218 239 238 364 365 386 385
8 218 219 240 239 365 366 387 386
8 219 220 241 240 366 367 388 387
8 220 221 242 241 367 368 389 388
8 221 222 243 242 368 369 390 389
8 222 223 244 243 369 370 391 390
8 223 224 245 244 370 371 392 391
8 224 225 246 245 371 372 393 392
8 225 226 247 246 372 373 394 393
8 226 227 248 247 373 374 395 394
8 227 228 249 248 374 375 396 395
8 228 229 250 249 375 376 397 396
8 229 230 251 250 376 377 398 397
8 231 232 253 252 378 379 400 399
8 232 233 254 253 379 380 401 400
8 233 234 255 254 380 381 402 401
8 234 235 256 255 381 382 403 402
8 235 236 257 256 382 383 404 403
8 236 237 258 257 383 384 405 404
8 237 238 259 258 384 385 406 405
8 238 239 260 259 385 386 407 406
8 239 240 261 260 386 387 408 407
8 240 241 262 261 387 388 409 408
8 241 242 263 262 388 389 410 409
8 242 243 264 263 389 390 411 410
8 243 244 265 264 390 391 412 411
8 244 245 266 265 391 392 413 412
8 245 246 267 266 392 393 414 413
8 246 247 268 267 393 394 415 414
8 247 248 269 268 394 395 416 415
8 248 249 270 269 395 396 417 416
8 249 250 271 270 396 397 418 417
8 250 251 272 271 397 398 419 418
8 252 253 274 273 399 400 421 420
8 253 254 275 274 400 401 422 421
8 254 255 276 275 401 402 423 422
8 255 256 277 276 402 403 424 423
8 256 257 278 277 403 404 425 424
8 257 258 279 278 404 405 426 425
8 258 259 280 279 405 406 427 426
8 259 260 281 280 406 407 428 427
8 260 261 282 281 407 408 429 428
8 261 262 283 282 408 409 430 429
8 262 263 284 283 409 410 431 430
8 263 264 285 284 410 411 432 431
8 264 265 286 285 411 412 433 432
8 265 266 287 286 412 413 434 433
8 266 267 288 287 413 414 435 434
8 267 268 289 288 414 415 436 435
8 268 269 290 289 415 416 437 436
8 269 270 291 290 416 417 438 437
8 270 271 292 291 417 418 439 438
8 271 272 293 292 418 419 440 439
8 294 295 316 315 441 442 463 462
8 295 296 317 316 442 443 464 463
8 296 297 318 317 443 444 465 464
8 297 298 319 318 444 445 466 465
8 298 299 320 319 445 446 467 466
8 299 300 321 320 446 447 468 467
8 300 301 322 321 447 448 469 468
8 301 302 323 322 448 449 470 469
8 302 303 324 323 449 450 471 470
8 303 304 325 324 450 451 472 471
8 304 305 326 325 451 452 473 472
8 305 306 327 326 452 453 474 473
8 306 307 328 327 453 454 475 474
8 307 308 329 328 454 455 476 475
8 308 309 330 329 455 456 477 476
8 309 310 331 330 456 457 478 477
8 310 311 332 331 457 458 479 478
8 311 312 333 332 458 459 480 479
8 312 313 334 333 459 460 481 480
8 313 314 335 334 460 461 482 481
8 315 316 337 336 462 463 484 483
8 316 317 338 337 463 464 485 484
8 317 318 339 338 464 465 486 485
8 318 319 340 339 465 466 487 486
8 319 320 341 340 466 467 488 487
8 320 321 342 341 467 468 489 488
8 321 322 343 342 468 469 490 489
8 322 323 344 343 469 470 491 490
8 323 324 345 344 470 471 492 491
8 324 325 346 345 471 472 493 492
8 325 326 347 346 472 473 494 493
8 326 327 348 347 473 474 495 494
8 327 328 349 348 474 475 496 495
8 328 329 350 349 475 476 497 496
8 329 330 351 350 476 477 498 497
8 330 331 352 351 477 478 499 498
8 331 332 353 352 478 479 500 499
8 332 333 354 353 479 480 501 500
8 333 334 355 354 480 481 502 501
8 334 335 356 355 481 482 503 502
8 336 337 358 357 483 484 505 504
8 337 338 359 358 484 485 506 505
8 338 339 360 359 485 486 507 506
8 339 340 361 360 486 487 508 507
8 340 341 362 361 487 488 509 508
8 341 342 363 362 488 489 510 509
8 342 343 364 363 489 490 511 510
8 343 344 365 364 490 491 512 511
8 344 345 366 365 491 492 513 512
8 345 346 367 366 492 493 514 513
8 346 347 368 367 493 494 515 514
8 347 348 369 368 494 495 516 515
8 348 349 370 369 495 496 517 516
8 349 350 371 370 496 497 518 517
8 350 351 372 371 497 498 519 518
8 351 352 373 372 498 499 520 519
8 352 353 374 373 499 500 521 520
8 353 354 375 374 500 501 522 521
8 354 355 376 375 501 502 523 522
8 355 356 377 376 502 503 524 523
8 357 358 379 378 504 505 526 525
8 358 359 380 379 505 506 527 526
8 359 360 381 380 506 507 528 527
8 360 361 382 381 507 508 529 528
8 361 362 383 382 508 509 530 529
8 362 363 384 383 509 510 531 530
8 363 364 385 384 510 511 532 531
8 364 365 386 385 511 512 533 532
8 365 366 387 386 512 513 534 533
8 366 367 388 387 513 514 535 534
8 367 368 389 388 514 515 536 535
8 368 369 390 389 515 516 537 536
8 369 370 391 390 516 517 538 537
8 370 371 392 391 517 518 539 538
8 371 372 393 392 518 519 540 539
8 372 373 394 393 519 520 541 540
8 373 374 395 394 520 521 542 541
8 374 375 396 395 521 522 543 542
8 375 376 397 396 522 523 544 543
8 376 377 398 397 523 524 545 544
8 378 379 400 399 525 526 547 546
8 379 380 401 400 526 527 548 547
8 380 381 402 401 527 528 549 548
8 381 382 403 402 528 529 550 549
8 382 383 404 403 529 530 551 550
8 383 384 405 404 530 531 552 551
8 384 385 406 405 531 532 553 552
8 385 386 407 406 532 533 554 553
8 386 387 408 407 533 534 555 554
8 387 388 409 408 534 535 556 555
8 388 389 410 409 535 536 557 556
8 389 390 411 410 536 537 558 557
8 390 391 412 411 537 538 559 558
8 391 392 413 412 538 539 560 559
8 392 393 414 413 539 540 561 560
8 393 394 415 414 540 541 562 561
8 394 395 416 415 541 542 563 562
8 395 396 417 416 542 543 564 563
8 396 397 418 417 543 544 565 564
8 397 398 419 418 544 545 566 565
8 399 400 421 420 546 547 568 567
8 400 401 422 421 547 548 569 568
8 401 402 423 422 548 549 570 569
8 402 403 424 423 549 550 571 570
8 403 404 425 424 550 551 572 571
8 404 405 426 425 551 552 573 572
8 405 406 427 426 552 553 574 573
8 406 407 428 427 553 554 575 574
8 407 408 429 428 554 555 576 575
8 408 409 430 429 555 556 577 576
8 409 410 431 430 556 557 578 577
8 410 411 432 431 557 558 579 578
8 411 412 433 432 558 559 580 579
8 412 413 434 433 559 560 581 580
8 413 414 435 434 560 561 582 581
8 414 415 436 435 561 562 583 582
8 415 416 437 436 562 563 584 583
8 416 417 438 437 563 564 585 584
8 417 418 439 438 564 565 586 585
8 418 419 440 439 565 566 587 586
8 441 442 463 462 588 589 610 609
8 442 443 464 463 589 590 611 610
8 443 444 465 464 590 591 612 611
8 444 445 466 465 591 592 613 612
8 445 446 467 466 592 593 614 613
8 446 447 468 467 593 594 615 614
8 447 448 469 468 594 595 616 615
8 448 449 470 469 595 596 617 616
8 449 450 471 470 596 597 618 617
8 450 451 472 471 597 598 619 618
8 451 452 473 472 598 599 620 619
8 452 453 474 473 599 600 621 620
8 453 454 475 474 600 601 622 621
8 454 455 476 475 601 602 623 622
8 455 456 477 476 602 603 624 623
8 456 457 478 477 603 604 625 624
8 457 458 479 478 604 605 626 625
8 458 459 480 479 605 606 627 626
8 459 460 481 480 606 607 628 627
8 460 461 482 481 607 608 629 628
8 462 463 484 483 609 610 631 630
8 463 464 485 484 610 611 632 631
8 464 465 486 485 611 612 633 632
8 465 466 487 486 612 613 634 633
8 466 467 488 487 613 614 635 634
8 467 468 489 488 614 615 636 635
8 468 469 490 489 615 616 637 636
8 469 470 491 490 616 617 638 637
8 470 471 492 491 617 618 639 638
8 471 472 493 492 618 619 640 639
8 472 473 494 493 619 620 641 640
8 473 474 495 494 620 621 642 641
8 474 475 496 495 621 622 643 642
8 475 476 497 496 622 623 644 643
8 476 477 498 497 623 624 645 644
8 477 478 499 498 624 625 646 645
8 478 479 500 499 625 626 647 646
8 479 480 501 500 626 627 648 647
8 480 481 502 501 627 628 649 648
8 481 482 503 502 628 629 650 649
8 483 484 505 504 630 631 652 651
8 484 485 506 505 631 632 653 652
8 485 486 507 506 632 633 654 653
8 486 487 508 507 633 634 655 654
8 487 488 509 508 634 635 656 655
8 488 489 510 509 635 636 657 656
8 489 490 511 510 636 637 658 657
8 490 491 512 511 637 638 659 658
8 491 492 513 512 638 639 660 659
8 492 493 514 513 639 640 661 660
8 493 494 515 514 640 641 662 661
8 494 495 516 515 641 642 663 662
8 495 496 517 516 642 643 664 663
8 496 497 518 517 643 644 665 664
8 497 498 519 518 644 645 666 665
8 498 499 520 519 645 646 667 666
8 499 500 521 520 646 647 668 667
8 500 501 522 521 647 648 669 668
8 501 502 523 522 648 649 670 669
8 502 503 524 523 649 650 671 670
8 504 505 526 525 651 652 673 672
8 505 506 527 526 652 653 674 673
8 506 507 528 527 653 654 675 674
8 507 508 529 528 654 655 676 675
8 508 509 530 529 655 656 677 676
8 509 510 531 530 656 657 678 677
8 510 511 532 531 657 658 679 678
8 511 512 533 532 658 659 680 679
8 512 513 534 533 659 660 681 680
8 513 514 535 534 660 661 682 681
8 514 515 536 535 661 662 683 682
8 515 516 537 536 662 663 684 683
8 516 517 538 537 663 664 685 684
8 517 518 539 538 664 665 686 685
8 518 519 540 539 665 666 687 686
8 519 520 541 540 666 667 688 687
8 520 521 542 541 667 668 689 688
8 521 522 543 542 668 669 690 689
8 522 523 544 543 669 670 691 690
8 523 524 545 544 670 671 692 691
8 525 526 547 546 672 673 694 693
8 526 527 548 547 673 674 695 694
8 527 528 549 548 674 675 696 695
8 528 529 550 549 675 676 697 696
8 529 530 551 550 676 677 698 697
8 530 531 552 551 677 678 699 698
8 531 532 553 552 678 679 700 699
8 532 533 554 553 679 680 701 700
8 533 534 555 554 680 681 702 701
8 534 535 556 555 681 682 703 702
8 535 536 557 556 682 683 704 703
8 536 537 558 557 683 684 705 704
8 537 538 559 558 684 685 706 705
8 538 539 560 559 685 686 707 706
8 539 540 561 560 686 687 708 707
8 540 541 562 561 687 688 709 708
8 541 542 563 562 688 689 710 709
8 542 543 564 563 689 690 711 710
8 543 544 565 564 690 691 712 711
8 544 545 566 565 691 692 713 712
8 546 547 568 567 693 694 715 714
8 547 548 569 568 694 695 716 715
8 548 549 570 569 695 696 717 716
8 549 550 571 570 696 697 718 717
8 550 551 572 571 697 698 719 718
8 551 552 573 572 698 699 720 719
8 552 553 574 573 699 700 721 720
8 553 554 575 574 700 701 722 721
8 554 555 576 575 701 702 723 722
8 555 556 577 576 702 703 724 723
8 556 557 578 577 703 704 725 724
8 557 558 579 578 704 705 726 725
8 558 559 580 579 705 706 727 726
8 559 560 581 580 706 707 728 727
8 560 561 582 581 707 708 729 728
8 561 562 583 582 708 709 730 729
8 562 563 584 583 709 710 731 730
8 563 564 585 584 710 711 732 731
8 564 565 586 585 711 712 733 732
8 565 566 587 586 712 713 734 733
8 588 589 610 609 735 736 757 756
8 589 590 611 610 736 737 758 757
8 590 591 612 611 737 738 759 758
8 591 592 613 612 738 739 760 759
8 592 593 614 613 739 740 761 760
8 593 594 615 614 740 741 762 761
8 594 595 616 615 741 742 763 762
8 595 596 617 616 742 743 764 763
8 596 597 618 617 743 744 765 764
8 597 598 619 618 744 745 766 765
8 598 599 620 619 745 746 767 766
8 599 600 621 620 746 747 768 767
8 600 601 622 621 747 748 769 768
8 601 602 623 622 748 749 770 769
8 602 603 624 623 749 750 771 770
8 603 604 625 624 750 751 772 771
8 604 605 626 625 751 752 773 772
8 605 606 627 626 752 753 774 773
8 606 607 628 627 753 754 775 774
8 607 608 629 628 754 755 776 775
8 609 610 631 630 756 757 778 777
8 610 611 632 631 757 758 779 778
8 611 612 633 632 758 759 780 779
8 612 613 634 633 759 760 781 780
8 613 614 635 634 760 761 782 781
8 614 615 636 635 761 762 783 782
8 615 616 637 636 762 763 784 783
8 616 617 638 637 763 764 785 784
8 617 618 639 638 764 765 786 785
8 618 619 640 639 765 766 787 786
8 619 620 641 640 766 767 788 787
8 620 621 642 641 767 768 789 788
8 621 622 643 642 768 769 790 789
8 622 623 644 643 769 770 791 790
8 623 624 645 644 770 771 792 791
8 624 625 646 645 771 772 793 792
8 625 626 647 646 772 773 794 793
8 626 627 648 647 773 774 795 794
8 627 628 649 648 774 775 796 795
8 628 629 650 649 775 776 797 796
8 630 631 652 651 777 778 799 798
8 631 632 653 652 778 779 800 799
8 632 633 654 653 779 780 801 800
8 633 634 655 654 780 781 802 801
8 634 635 656 655 781 782 803 802
8 635 636 657 656 782 783 804 803
8 636 637 658 657 783 784 805 804
8 637 638 659 658 784 785 806 805
8 638 639 660 659 785 786 807 806
8 639 640 661 660 786 787 808 807
8 640 641 662 661 787 788 809 808
8 641 642 663 662 788 789 810 809
8 642 643 664 663 789 790 811 810
8 643 644 665 664 790 791 812 811
8 644 645 666 665 791 792 813 812
8 645 646 667 666 792 793 814 813
8 646 647 668 667 793 794 815 814
8 647 648 669 668 794 795 816 815
8 648 649 670 669 795 796 817 816
8 649 650 671 670 796 797 818 817
8 651 652 673 672 798 799 820 819
8 652 653 674 673 799 800 821 820
8 653 654 675 674 800 801 822 821
8 654 655 676 675 801 802 823 822
8 655 656 677 676 802 803 824 823
8 656 657 678 677 803 804 825 824
8 657 658 679 678 804 805 826 825
8 658 659 680 679 805 806 827 826
8 659 660 681 680 806 807 828 827
8 660 661 682 681 807 808 829 828
8 661 662 683 682 808 809 830 829
8 662 663 684 683 809 810 831 830
8 663 664 685 684 810 811 832 831
8 664 665 686 685 811 812 833 832
8 665 666 687 686 812 813 834 833
8 666 667 688 687 813 814 835 834
8 667 668 689 688 814 815 836 835
8 668 669 690 689 815 816 837 836
8 669 670 691 690 816 817 838 837
8 670 671 692 691 817 818 839 838
8 672 673 694 693 819 820 841 840
8 673 674 695 694 820 821 842 841
8 674 675 696 695 821 822 843 842
8 675 676 697 696 822 823 844 843
8 676 677 698 697 823 824 845 844
8 677 678 699 698 824 825 846 845
8 678 679 700 699 825 826 847 846
8 679 680 701 700 826 827 848 847
8 680 681 702 701 827 828 849 848
8 681 682 703 702 828 829 850 849
8 682 683 704 703 829 830 851 850
8 683 684 705 704 830 831 852 851
8 684 685 706 705 831 832 853 852
8 685 686 707 706 832 833 854 853
8 686 687 708 707 833 834 855 854
8 687 688 709 708 834 835 856 855
8 688 689 710 709 835 836 857 856
8 689 690 711 710 836 837 858 857
8 690 691 712 711 837 838 859 858
8 691 692 713 712 838 839 860 859
8 693 694 715 714 840 841 862 861
8 694 695 716 715 841 842 863 862
8 695 696 717 716 842 843 864 863
8 696 697 718 717 843 844 865 864
8 697 698 719 718 844 845 866 865
8 698 699 720 719 845 846 867 866
8 699 700 721 720 846 847 868 867
8 700 701 722 721 847 848 869 868
8 701 702 723 722 848 849 870 869
8 702 703 724 723 849 850 871 870
8 703 704 725 724 850 851 872 871
8 704 705 726 725 851 852 873 872
8 705 706 727 726 852 853 874 873
8 706 707 728 727 853 854 875 874
8 707 708 729 728 854 855 876 875
8 708 709 730 729 855 856 877 876
8 709 710 731 730 856 857 878 877
8 710 711 732 731 857 858 879 878
8 711 712 733 732 858 859 880 879
8 712 713 734 733 859 860 881 880
8 735 736 757 756 882 883 904 903
8 736 737 758 757 883 884 905 904
8 737 738 759 758 884 885 906 905
8 738 739 760 759 885 886 907 906
8 739 740 761 760 886 887 908 907
8 740 741 762 761 887 888 909 908
8 741 742 763 762 888 889 910 909
8 742 743 764 763 889 890 911 910
8 743 744 765 764 890 891 912 911
8 744 745 766 765 891 892 913 912
8 745 746 767 766 892 893 914 913
8 746 747 768 767 893 894 915 914
8 747 748 769 768 894 895 916 915
8 748 749 770 769 895 896 917 916
8 749 750 771 770 896 897 918 917
8 750 751 772 771 897 898 919 918
8 751 752 773 772 898 899 920 919
8 752 753 774 773 899 900 921 920
8 753 754 775 774 900 901 922 921
8 754 755 776 775 901 902 923 922
8 756 757 778 777 903 904 925 924
8 757 758 779 778 904 905 926 925
8 758 759 780 779 905 906 927 926
8 759 760 781 780 906 907 928 927
8 760 761 782 781 907 908 929 928
8 761 762 783 782 908 909 930 929
8 762 763 784 783 909 910 931 930
8 763 764 785 784 910 911 932 931
8 764 765 786 785 911 912 933 932
8 765 766 787 786 912 913 934 933
8 766 767 788 787 913 914 935 934
8 767 768 789 788 914 915 936 935
8 768 769 790 789 915 916 937 936
8 769 770 791 790 916 917 938 937
8 770 771 792 791 917 918 939 938
8 771 772 793 792 918 919 940 939
8 772 773 794 793 919 920 941 940
8 773 774 795 794 920 921 942 941
8 774 775 796 795 921 922 943 942
8 775 776 797 796 922 923 944 943
8 777 778 799 798 924 925 946 945
8 778 779 800 799 925 926 947 946
8 779 780 801 800 926 927 948 947
8 780 781 802 801 927 928 949 948
8 781 782 803 802 928 929 950 949
8 782 783 804 803 929 930 951 950
8 783 784 805 804 930 931 952 951
8 784 785 806 805 931 932 953 952
8 785 786 807 806 932 933 954 953
8 786 787 808 807 933 934 955 954
8 787 788 809 808 934 935 956 955
8 788 789 810 809 935 936 957 956
8 789 790 811 810 936 937 958 957
8 790 791 812 811 937 938 959 958
8 791 792 813 812 938 939 960 959
8 792 793 814 813 939 940 961 960
8 793 794 815 814 940 941 962 961
8 794 795 816 815 941 942 963 962
8 795 796 817 816 942 943 964 963
8 796 797 818 817 943 944 965 964
8 798 799 820 819 945 946 967 966
8 799 800 821 820 946 947 968 967
8 800 801 822 821 947 948 969 968
8 801 802 823 822 948 949 970 969
8 802 803 824 823 949 950 971 970
8 803 804 825 824 950 951 972 971
8 804 805 826 825 951 952 973 972
8 805 806 827 826 952 953 974 973
8 806 807 828 827 953 954 975 974
8 807 808 829 828 954 955 976 975
8 808 809 830 829 955 956 977 976
8 809 810 831 830 956 957 978 977
8 810 811 832 831 957 958 979 978
8 811 812 833 832 958 959 980 979
8 812 813 834 833 959 960 981 980
8 813 814 835 834 960 961 982 981
8 814 815 836 835 961 962 983 982
8 815 816 837 836 962 963 984 983
8 816 817 838 837 963 964 985 984
8 817 818 839 838 964 965 986 985
8 819 820 841 840 966 967 988 987
8 820 821 842 841 967 968 989 988
8 821 822 843 842 968 969 990 989
8 822 823 844 843 969 970 991 990
8 823 824 845 844 970 971 992 991
8 824 825 846 845 971 972 993 992
8 825 826 847 846 972 973 994 993
8 826 827 848 847 973 974 995 994
8 827 828 849 848 974 975 996 995
8 828 829 850 849 975 976 997 996
8 829 830 851 850 976 977 998 997
8 830 831 852 851 977 978 999 998
8 831 832 853 852 978 979 1000 999
8 832 833 854 853 979 980 1001 1000
8 833 834 855 854 980 981 1002 1001
8 834 835 856 855 981 982 1003 1002
8 835 836 857 856 982 983 1004 1003
8 836 837 858 857 983 984 1005 1004
8 837 838 859 858 984 985 1006 1005
8 838 839 860 859 985 986 1007 1006
8 840 841 862 861 987 988 1009 1008
8 841 842 863 862 988 989 1010 1009
8 842 843 864 863 989 990 1011 1010
8 843 844 865 864 990 991 1012 1011
8 844 845 866 865 991 992 1013 1012
8 845 846 867 866 992 993 1014 1013
8 846 847 868 867 993 994 1015 1014
8 847 848 869 868 994 995 1016 1015
8 848 849 870 869 995 996 1017 1016
8 849 850 871 870 996 997 1018 1017
8 850 851 872 871 997 998 1019 1018
8 851 852 873 872 998 999 1020 1019
8 852 853 874 873 999 1000 1021 1020
8 853 854 875 874 1000 1001 1022 1021
8 854 855 876 875 1001 1002 1023 1022
8 855 856 877 876 1002 1003 1024 1023
8 856 857 878 877 1003 1004 1025 1024
8 857 858 879 878 1004 1005 1026 1025
8 858 859 880 879 1005 1006 1027 1026
8 859 860 881 880 1006 1007 1028 1027
CELL_TYPES 720
12
12
12
12
12
12
12
12
12
12
12
12
12
12
12
12
12
12
12
12
12
12
12
12
12
12
12
12
12
12
12
12
12
12
12
12
12
12
12
12
12
12
12
12
12
12
12
12
12
12
12
12
12
12
12
12
12
12
12
12
12
12
12
12
12
12
12
12
12
12
12
12
12
12
12
12
12
12
12
12
12
12
12
12
12
12
12
12
12
12
12
12
12
12
12
12
12
12
12
12
12
12
12
12
12
12
12
12
12
12
12
12
12
12
12
12
12
12
12
12
12
12
12
12
12
12
12
12
12
12
12
12
12
12
12
12
12
12
12
12
12
12
12
12
12
12
12
12
12
12
12
12
12
12
12
12
12
12
12
12
12
12
12
12
12
12
12
12
12
12
12
12
12
12
12
12
12
12
12
12
12
12
12
12
12
12
12
12
12
12
12
12
12
12
12
12
12
12
12
12
12
12
12
12
12
12
12
12
12
12
12
12
12
12
12
12
12
12
12
12
12
12
12
12
12
12
12
12
12
12
12
12
12
12
12
12
12
12
12
12
12
12
12
12
12
12
12
12
12
12
12
12
12
12
12
12
12
12
12
12
12
12
12
12
12
12
12
12
12
12
12
12
12
12
12
12
12
12
12
12
12
12
12
12
12
12
12
12
12
12
12
12
12
12
12
12
12
12
12
12
12
12
12
12
12
12
12
12
12
12
12
12
12
12
12
12
12
12
12
12
12
12
12
12
12
12
12
12
12
12
12
12
12
12
12
12
12
12
12
12
12
12
12
12
12
12
12
12
12
12
12
12
12
12
12
12
12
12
12
12
12
12
12
12
12
12
12
12
12
12
12
12
12
12
12
12
12
12
12
12
12
12
12
12
12
12
12
12
12
12
12
12
12
12
12
12
12
12
12
12
12
12
12
12
12
12
12
12
12
12
12
12
12
12
12
12
12
12
12
12
12
12
12
12
12
12
12
12
12
12
12
12
12
12
12
12
12
12
12
12
12
12
12
12
12
12
12
12
12
12
12
12
12
12
12
12
12
12
12
12
12
12
12
12
12
12
12
12
12
12
12
12
12
12
12
12
12
12
12
12
12
12
12
12
12
12
12
12
12
12
12
12
12
12
12
12
12
12
12
12
12
12
12
12
12
12
12
12
12
12
12
12
12
12
12
12
12
12
12
12
12
12
12
12
12
12
12
12
12
12
12
12
12
12
12
12
12
12
12
12
12
12
12
12
12
12
12
12
12
12
12
12
12
12
12
12
12
12
12
12
12
12
12
12
12
12
12
12
12
12
12
12
12
12
12
12
12
12
12
12
12
12
12
12
12
12
12
12
12
12
12
12
12
12
12
12
12
12
12
12
12
12
12
12
12
12
12
12
12
12
12
12
12
12
12
12
12
12
12
12
12
12
12
12
12
12
12
12
12
12
12
12
12
12
12
12
12
12
12
12
12
12
12
12
12
12
12
12
12
12
12
12
12
12
12
12
12
12
12
12
12
12
12
12
12
12
12
12
12
12
12
12
12
12
12
12
12
12
12
12
12
12
12
12
12
12
12
12
12
12
12
12
12
12
12
12
12
12
12
12
12
12
12
12
12
12
12
12
12
12
12
12
12
12
12
12
12
12
12
12
POINT_DATA 1029
VECTORS Disp float
0.0 0.0 0.0
0.029268680379688907 -1.0613259876458352 0.025404105119566655
0.07048096689332609 -1.9999625514306683 0.05470035986771292
0.12748068561548442 -2.90410207411846 0.07809492168848625
0.20859483222356734 -3.7492317625999747 0.09929373906250268
0.31496105503026206 -4.515426034180494 0.11682082252200032
0.446140314892456 -5.181631318180273 0.12994710771833118
0.6013390775859633 -5.727487946414363 0.137740103137411
0.778436384720098 -6.133148535632239 0.13954709766208576
0.9721634045918434 -6.381667842191701 0.136435919306605
1.1737863276248965 -6.464477869877023 0.13362016737173826
1.3754809069079423 -6.382880397131827 0.13654811007872203
1.5694368752697658 -6.135601926287883 0.13981083641340336
1.746964247185961 -5.731233817810008 0.13824244063902655
1.9028736448467365 -5.186731547981026 0.13083790552645438
2.0351698662583 -4.521920753143896 0.11834056708307412
2.1432358057547294 -3.7570832836394907 0.10178327909562644
2.226883048933346 -2.9130980703598355 0.08214193537022452
2.2875721989162625 -2.0096880207904237 0.06067209833937353
2.335148358065442 -1.0709982509754543 0.03607001040955734
2.3796910260589734 0.0 -0.00020594200791391158
0.4165439199124049 -0.04532145334524104 -0.013338408645338988
0.4345221020306123 -1.0566147332410163 0.013308184793171399
0.44901581651122874 -2.0063525489767717 0.034651859482445084
0.4863670632606223 -2.9116086169313484 0.052741156727448404
0.5390615881465224 -3.760029013202651 0.06788108303574124
0.6086362141839504 -4.52910931680934 0.08033848261589449
0.6946926597201833 -5.198228640700117 0.08956995754589978
0.796684809289385 -5.746880966186337 0.09514997840249065
0.9132212478967187 -6.1549693189274635 0.09678587814962294
1.0409111551746075 -6.40490069134775 0.09514831496487278
1.1740047468604133 -6.487790917427833 0.09340651647699902
1.3071741111196458 -6.406133198405183 0.09510970055273753
1.4351042937865552 -6.157466341558387 0.09674211805240021
1.5520854491223592 -5.750702012342217 0.09517693022679567
1.6547971030885682 -5.203448103397228 0.0898049532870347
1.7419538660183824 -4.535786388650504 0.08100479037862396
1.8131594567648217 -3.7681479199777512 0.0693409368280685
1.86820205044297 -2.9209887101847936 0.055477776067094475
1.9089541999777795 -2.01662927013982 0.03961338322764294
1.9282973438625064 -1.0670528424650654 0.020562199671702464
1.9488748994715561 -0.047828046215766584 -0.005379340008658952
0.809784666130659 -0.07868969128272461 -0.02179737726179821
0.8190549669970817 -1.055033610965869 -0.0011795751755005
0.8206724851298195 -2.0078014903476347 0.014058046540733572
0.835165244408418 -2.916143368485607 0.02529073830561989
0.8600571653377407 -3.766221924668957 0.03388530683625558
0.8935477153831415 -4.5371292642816865 0.04044509020792143
0.9355914879093532 -5.2079832892060995 0.045010400776506455
0.985979521221663 -5.758377930865636 0.04748805731783307
1.0443406239733055 -6.1679691579397495 0.047830711608316534
1.1086622471614975 -6.418202642769476 0.04615629982550233
1.174177930372699 -6.499682822549899 0.04426860143359593
1.2397708409794725 -6.419456716048449 0.04596713367711243
1.3043358573078314 -6.170512610082454 0.04747940741431296
1.3631419137844742 -5.76227690661458 0.0470387962746705
1.4142361576837457 -5.213322493463284 0.04458499112136898
1.4573334881258229 -4.5439826445161975 0.04025677169746635
1.492338072228204 -3.7745934830045758 0.034280532124524955
1.519339353847758 -2.9258613649135374 0.026818066277320876
1.536651258689011 -2.0185255684819072 0.017486957874413775
1.5405735670450689 -1.0651035832169322 0.004601538456010182
1.550962264388314 -0.082550876169672 -0.013698417372257162
1.1914670747502312 -0.10007448527127455 -0.02935213801800884
1.1939582765916397 -1.055301681769665 -0.015270305400652013
1.1857855461390296 -2.006597328651231 -0.0067514828824448364
1.1796902495646857 -2.9170393518169937 -0.002783117541747702
1.1764568914563627 -3.7680829588564047 -0.0011244625815584788
1.1742799980634309 -4.539625067705804 -0.000749789217612766
1.1728060366999102 -5.211128319304229 -0.0011991389040715574
1.1722602104673243 -5.762280836425425 -0.0022246704164985954
1.1734832698577997 -6.172607454111771 -0.0035961743598335854
1.175960047022269 -6.421750957329797 -0.005583919331709433
1.1743324128748422 -6.498951588364606 -0.007983652740103705
1.1727823334334484 -6.423027562647974 -0.005924748861467595
1.1755021083068273 -6.175198878980637 -0.0042576270493467575
1.1771640279751157 -5.766258869817628 -0.003155244495369439
1.1773013607400147 -5.2165857520926115 -0.0022926089021026415
1.1768180065132143 -4.546647917130396 -0.001807593883597734
1.1760104165866911 -3.7766864971973995 -0.0018010333378645283
1.174593487482929 -2.9270657617326057 -0.002518929396858675
1.1704920119680438 -2.0174513187447887 -0.004789729158516171
1.1635500203136826 -1.0649705497572237 -0.01094254675805725
1.1666581953073025 -0.10493821192726079 -0.022524530802887053
1.5700225573333189 -0.11152197008166834 -0.03711548312123093
1.5665271201527677 -1.055729664109144 -0.02865071687005827
1.5492959165521956 -2.0036503273932142 -0.027218520398386205
1.5241520887716784 -2.9145444921369936 -0.030698546584007586
1.4930176023080117 -3.7655428185546267 -0.036071659503508484
1.4550414034095613 -4.536651921015214 -0.04190262856843572
1.4101127744415354 -5.207700819456954 -0.0473895955080133
1.358504943868709 -5.7585774991963 -0.05195682138297181
1.302199817108887 -6.169102074059069 -0.05496959401585981
1.2435907593554 -6.4161425885803025 -0.05629019325189606
1.174491061140238 -6.483800663029358 -0.05844342879370151
1.1054696010688607 -6.41744249771588 -0.05678519436393233
1.0471041596562027 -6.171742672618256 -0.05594678984234081
0.9912333933990297 -5.762635254837816 -0.05337840186889226
0.9402876978945262 -5.213274747996795 -0.04916672347110089
0.8962868591523091 -4.543834778000541 -0.04385246462990894
0.8595292357329068 -3.7743601489613137 -0.03785374035178115
0.8298523358600057 -2.9248030420596893 -0.03174157798864898
0.8060645546547848 -2.01452781831504 -0.02671324981664717
0.7895369421512228 -1.0651435083603098 -0.025814406504585687
0.7863783750990823 -0.1170225450374416 -0.03178018902964696
1.9511102017472666 -0.1158051791373259 -0.0454773197336228
1.9428941387494345 -1.0552874687056335 -0.04127599845933891
1.9169522153847565 -1.9992264249999703 -0.04687886080810871
1.8734196252586635 -2.9089030046649897 -0.05769328569293033
1.8142838628237203 -3.7585620204043724 -0.06988487507532255
1.7401117555594072 -4.52813868992372 -0.08165131907214697
1.6511495525864006 -5.197719732190655 -0.09189762290987917
1.54813429268814 -5.747040393850361 -0.0996657735314542
1.4317628047831614 -6.157202502684005 -0.10401621695641725
1.3111218088267151 -6.4029652651573885 -0.10253571488934671
1.1746771099395488 -6.451482864003702 -0.10050422162302512
1.038313320903982 -6.404289532736995 -0.10318871591262954
0.9179225484335919 -6.159894015589124 -0.10531753470891227
0.8019910749344501 -5.751179437971691 -0.10159277646720977
0.6996314818406035 -5.203409146473896 -0.09438101653421724
0.6115545731774621 -4.535473532424185 -0.08452699882427965
0.5384618936892706 -3.7675634580106268 -0.07282167614761703
0.48044036345331803 -2.919329281476959 -0.060101299042941404
0.4377307278985142 -2.010116640434954 -0.04786637155727982
0.4120794585589423 -1.064575349421957 -0.03991980594992515
0.40394843501953337 -0.12161211354589782 -0.04158504405227092
2.3378664638972473 -0.11667866351053639 -0.05415052181196492
2.3285564487817947 -1.053803203410356 -0.05317094552194729
2.2955988504453844 -1.9934104169975502 -0.06506128767196978
2.232996771550939 -2.9000355725651112 -0.08256068028028378
2.1451605427591725 -3.747003095811897 -0.1008843466090186
2.0340270248654395 -4.513929059592339 -0.11788751160591
1.899980743980177 -5.180840543985009 -0.13216210346374688
1.7438609352431889 -5.727899723921833 -0.14237764106574302
1.567129889995029 -6.134681364046165 -0.1472759487473985
1.370463233908886 -6.384685454703098 -0.14205695339824617
1.1749182425175888 -6.400000000000001 -0.12072084280465904
0.9794608366232878 -6.3860361131933905 -0.14287288567722148
0.7830631362386016 -6.1374274488324865 -0.1489120611231702
0.6067981948057137 -5.732124252676115 -0.144828102340601
0.4513572530582477 -5.1866479309451625 -0.1353795668046734
0.3181943006948187 -4.521410335913499 -0.12172961685327363
0.2080553758098308 -3.7561580164465536 -0.10503091964051949
0.1210449777595552 -2.9105647642133996 -0.08639578639361746
0.0586827809470062 -2.0042789604966766 -0.06758301076114803
0.025383739513373946 -1.0630112325222547 -0.05324760407472261
0.015832185956324032 -0.12255048369928709 -0.05153178546135829
0.0 0.0 0.0
0.027378020043004943 -1.0031143938451754 0.016909368907780883
0.06941271153594054 -1.9184282092081124 0.03229605615372949
0.12891553147071028 -2.7976323136779766 0.04659645024777208
0.2110483463904507 -3.6200478654195223 0.057632515164927574
0.31664189904067286 -4.367393145227193 0.06537924157154536
0.4453132390613885 -5.0208028317987425 0.06930521124189731
0.5964487587503755 -5.562157024581656 0.06904732862103942
0.7694501723858002 -5.97372712584023 0.06477577347287564
0.9636092217826067 -6.236883233506056 0.05831225708323156
1.1740234985815992 -6.3300209037372595 0.054573477399275
1.3844622160888447 -6.237358961208821 0.05835067950288691
1.5786979969101207 -5.974677113799515 0.06488034810495619
1.7518399616209352 -5.563577826452542 0.06927927026310961
1.9032039701163428 -5.022686668006375 0.06977062935053416
2.032238878308356 -4.369719096962457 0.06623877679943907
2.1384153011317113 -3.622760379548433 0.0591295949482312
2.2215145753977863 -2.8005959864674512 0.048988600428933646
2.282588456055495 -1.921377072994841 0.036284555065903286
2.3277265936691993 -1.0059356937928055 0.021510393571958497
2.3624807763548543 0.0 0.018881107261194373
0.4047578304800924 -0.029165326829265738 0.002492318609845258
0.4211467232206355 -1.0016546008560372 0.007752701737152668
0.4411607977986875 -1.9249045816245112 0.020162895608887885
0.4811263260671784 -2.8057383265207636 0.030339637628525276
0.5358042545858247 -3.6311883162932115 0.038229698689641975
0.6061300535853881 -4.381366514507592 0.04350486880724099
0.6918325240860107 -5.037648422684502 0.04608719319272908
0.7924575762715381 -5.581852228938144 0.0458726277753741
0.907373372498401 -5.996342186471673 0.04310257229749925
1.0357075475795225 -6.262488298668298 0.038818896647436575
1.1741297769563355 -6.357489012841983 0.03608053306510045
1.3125760295038476 -6.262969218182924 0.03871982098211731
1.4409853869605 -5.997302905950561 0.04292603042534054
1.5560377811717254 -5.583290189737533 0.04566882944606453
1.6568817118970158 -5.0395577713939295 0.04594769677771193
1.7429238283152988 -4.3837305498685275 0.043583781951859704
1.8137832742385338 -3.6339598323038085 0.03875443028977502
1.8693090707515143 -2.808796447497845 0.03168630365970133
1.9107291576208443 -1.9280393418854513 0.022671837825215604
1.9332940393336326 -1.0048753439003197 0.012763036680930546
1.9511443345248811 -0.02966815302782004 0.014289522062485776
0.7934577930685046 -0.05135265757741961 -0.004487125844586564
0.8025438854508931 -1.0014584242730669 -0.0003500477859555989
0.8095205132908395 -1.9273075659434913 0.007802295201819481
0.8278288775261606 -2.810672096896996 0.014433942532934046
0.8551628203812843 -3.6377077756021876 0.019040390328268972
0.8902014334130575 -4.3896064860312505 0.021821027226732174
0.932942828598869 -5.047558822618014 0.02289145447612526
0.9829961092171436 -5.593359549110227 0.022349922875276512
1.039665460498655 -6.009468436645315 0.02032201675951255
1.1031062304517505 -6.277990435917346 0.01689919971895544
1.1742446355748835 -6.375869355104018 0.013877238671099195
1.245406377173678 -6.27847891448663 0.01666448166284043
1.3089196088923203 -6.010444531329212 0.019868832201195424
1.3657184388984855 -5.594821251026786 0.021718994857430948
1.4159734184207036 -5.0495013068564525 0.022165057256527867
1.459016937338749 -4.392015633976177 0.02114790478680455
1.4945100919805052 -3.640541944690185 0.018672015264429576
1.5225516801192471 -2.813818144735572 0.014755323896845736
1.5420351332474622 -1.9306186204360969 0.00938173119305278
1.5502396509716156 -1.0044871747126196 0.0038141568556656676
1.5598692701593446 -0.05182331568147091 0.00442333144439129
1.1741415714280028 -0.06625684483176497 -0.013892815358218338
1.177221420297723 -1.0021437751820028 -0.009257657698699982
1.1738515181689864 -1.9272016210824228 -0.004524890899292934
1.1720444642866061 -2.812123708875089 -0.0015139116961120198
1.1717092603526331 -3.6398926978122494 -0.0002079767183938692
1.1714976950232425 -4.392329674405358 -3.955877001936296e-05
1.1712731417811224 -5.050836729186748 -0.000626974814399639
1.1708897204279112 -5.59701654735408 -0.0017426332322412496
1.1694955517765544 -6.0134514870394025 -0.003335307527173326
1.1683595300246445 -6.284283055219382 -0.006220835791623505
1.174363751777462 -6.387628621979638 -0.01032365618114717
1.1803904631706306 -6.284781345108562 -0.006591454092780346
1.179323526442039 -6.014447297372515 -0.004065538710519531
1.178049940242436 -5.598507921602015 -0.002800582607190726
1.1778473091424508 -5.05281873644863 -0.0019390205526305993
1.177878901432591 -4.3947888676686535 -0.0014565805822738388
1.17802824027002 -3.6427884135183795 -0.0014589419274474117
1.1782320848863912 -2.8153574829454664 -0.0021546157998993945
1.1771531337560093 -1.930544887431938 -0.0038509790424065943
1.1743455157179428 -1.0048853646429985 -0.0061041750424416785
1.177690834022427 -0.06675183024463897 -0.006991141976143178
1.5522112895603244 -0.07474454467590824 -0.02359966600510568
1.5498418691316465 -1.002757603326715 -0.01852598495728552
1.5369644907352968 -1.9253309205987554 -0.01679185883193128
1.516216316111427 -2.8102968443253085 -0.017392531247452547
1.48835171636785 -3.6377441017248042 -0.019396207561065033
1.4528084714700935 -4.389605605292646 -0.021864400166903306
1.4095500444433393 -5.047572645572342 -0.024133283432659646
1.358914595592791 -5.593051802686295 -0.025824684712698727
1.3000501222627578 -6.008358660660164 -0.02685605101946236
1.2335884791044536 -6.28100045019017 -0.028446147872584777
1.1744853582758052 -6.394702544247535 -0.03403596173587669
1.1154039341784843 -6.281510805519913 -0.02895521507891045
1.049008111655093 -6.009378499244918 -0.027868830591035523
0.9902554343920754 -5.5945786607177235 -0.027319002471540885
0.9397798520463421 -5.049600310972541 -0.026045245919472902
0.8967307328282733 -4.392118144789857 -0.024046516738298468
0.8614526186991315 -3.6407009805928623 -0.021556420778150207
0.8339215277988219 -2.813590298199456 -0.019020526069969408
0.813525141348976 -1.9286437988290857 -0.017091479248085864
0.8008524738336895 -1.005276432856593 -0.01645027743617669
0.7986161438798625 -0.07528262703489516 -0.018386718502513638
1.9314705521062996 -0.07839860262282211 -0.03250630566598398
1.9244981402260142 -1.0026316298044746 -0.02757130354686246
1.9023885883154508 -1.92190439116143 -0.0289016916878696
1.8631829944519158 -2.8053291926553126 -0.033098651278847854
1.8078504955059 -3.631181745883069 -0.038396471537297645
1.7369073077131865 -4.381364580299701 -0.04343751807166678
1.6506375031016216 -5.037610104613686 -0.04729930567840865
1.549342865803547 -5.581573313405064 -0.049320693989436074
1.4346334379598655 -5.994336080505716 -0.04943787721121909
1.302145038019523 -6.266133983788119 -0.04789764695940257
1.1746075698173448 -6.3988994069770895 -0.05383106499414655
1.0470912423800058 -6.266658805455625 -0.04854989819537592
0.9146662140499006 -5.995384561412749 -0.0507436713657185
0.8000615776814686 -5.58314200979583 -0.05126974873546166
0.6989094195178289 -5.039690206683925 -0.049841343785178446
0.6128096727578228 -4.3839353496564994 -0.04643279606870143
0.5420428903106247 -3.634195509629908 -0.041538992528645034
0.48685108174175806 -2.8086579536301377 -0.03581979673038046
0.447688892606775 -1.925176932200226 -0.030314163256526142
0.42552506205819757 -1.0050158804836595 -0.02663362095998043
0.41856651533369027 -0.07895453851512993 -0.028758061344633774
2.314030303481039 -0.07956575051502228 -0.03934359406969138
2.304662604329232 -1.0015585619413532 -0.03603618796356273
2.2738947998889207 -1.9168527296654996 -0.04091978066635277
2.2156899100365237 -2.797061961374464 -0.04886641066653198
2.1327234419786882 -3.620014963851909 -0.05752785759441614
2.0264122523441133 -4.367333277480879 -0.06512041583882261
1.8971137075549238 -5.020773142474113 -0.07042050271367721
1.7452595973776077 -5.561695338217263 -0.07258638756153851
1.572605017383999 -5.972960981849944 -0.07105837901388795
1.3849829301902046 -6.236094328015278 -0.0654802989001389
1.1747256509160393 -6.400000000000001 -0.06297364251634675
0.964489198657523 -6.236636212150162 -0.06628226864664795
0.7769290342525822 -5.974043180344882 -0.07267182350748218
0.6043748543307524 -5.563313053514827 -0.07501645587712619
0.4526521111569528 -5.022914140051027 -0.07363698546167316
0.3234980811612375 -4.3699696220285045 -0.06900246982182416
0.21730284184151533 -3.62308450799483 -0.0617741352409777
0.13433484858850908 -2.800410109733122 -0.05287032749067349
0.07590371477540682 -1.9200795930390164 -0.043684074192128323
0.04476831936429714 -1.0038625866698954 -0.03634843417203969
0.035243195863102664 -0.08009754147452126 -0.036762133413527326
0.0 0.0 0.0
0.038008028662108784 -0.9775710245932293 0.007306092504595998
0.07994004453429981 -1.8766792233107605 0.013710270666535846
0.13805933949504107 -2.742868871626954 0.019782028948359877
0.21782492991518146 -3.555340593707575 0.02408478634796961
0.3195689711548775 -4.296589113417899 0.026266971772553868
0.44299597082326114 -4.949013815184188 0.02615612998698674
0.5882907121026009 -5.495706283384974 0.023790443092949205
0.7573220442682659 -5.919254512884068 0.019669055516183122
0.95369014776692 -6.197635789160476 0.015232284899297796
1.1740823952402355 -6.298894977284533 0.01310711357961757
1.3944462236074047 -6.197522988648545 0.01523637440278207
1.5907247444182924 -5.918994234715225 0.019694224350452018
1.759591624605764 -5.495230666199509 0.023873614058520287
1.9046215038646972 -4.948226590428703 0.02635863098195898
2.0276398737380266 -4.295379345679118 0.02667595410581171
2.128765631835819 -3.5536115964762747 0.02481197865472621
2.207586928509861 -2.7405928474600176 0.02094470784577425
2.264299336734916 -1.873946244047544 0.015598215753789463
2.303373080961617 -0.9743095708220147 0.010500417348625871
2.3331716423977125 0.0 0.010713689657238146
0.40649137787754286 -0.02522126798392603 0.00026415995277303866
0.4232727344464507 -0.9774170995594742 0.00374937307715215
0.44545106109568144 -1.883417625990395 0.008651221254645172
0.4851986953050788 -2.751423871221849 0.013071685219158235
0.5388112701893071 -3.5669697046921884 0.016258544983107397
0.6070769292512538 -4.311197269155199 0.017880613707056923
0.6897889744171146 -4.966754693136169 0.017913381443567824
0.7870538925698864 -5.516809359835665 0.016471435383685857
0.899773571018764 -5.9442951793003065 0.013924756158247713
1.029603364976435 -6.227275966659851 0.011132280439591318
1.1740662492412346 -6.331523779919972 0.009723759480806511
1.3184939389903125 -6.227153454225066 0.011050555657876876
1.4482141775814126 -5.944012946983448 0.013773509579798652
1.560737764070257 -5.51629400239841 0.016278579724230437
1.6576984834472657 -4.965900401918474 0.017728417699888255
1.7399650685875037 -4.309877634189512 0.017781652597479648
1.8075913652731603 -3.565064842956679 0.016353930631389738
1.860301098171817 -2.748872809851575 0.013525819040289613
1.8986725078199476 -1.8802308350297883 0.009708527546579072
1.9185477921939569 -0.973403007198615 0.006661860747933125
1.9343764547961446 -0.023975427065123508 0.008502641230576967
0.7906653543820724 -0.043477768652204186 -0.002533437849918962
0.799295711666412 -0.9770024246929319 -0.00014619235275891156
0.8074223323762036 -1.8865032038762009 0.0032057894952299856
0.8266583496636697 -2.7568459243181036 0.00614619939610633
0.8541144634262945 -3.574056749762985 0.008127952727263832
0.8887122106286306 -4.3201167079174105 0.009038742821857761
0.9304425729886603 -4.977535215229002 0.008952549761139543
0.9790696774703742 -5.52946528231718 0.008016641278395353
1.0344319449103467 -5.959132450561657 0.006428890814811511
1.0984564869181597 -6.245861293340293 0.004539601960926359
1.1740598751116391 -6.354642697107914 0.003405605947511102
1.2496219528438919 -6.2457329239014125 0.004374245163803648
1.3135191038509915 -5.958836375222578 0.006106736585416159
1.3686577036691132 -5.528923488614327 0.007559239444125977
1.416948528199657 -4.976634004901431 0.008403134063333666
1.4582070148621944 -4.318716654607101 0.008473751298949115
1.492166415596958 -3.572017443529823 0.0076725850023836644
1.5187696056489715 -2.754080992334294 0.005992301861976156
1.536817167154235 -1.8829350878324036 0.003729427571902148
1.5440227206576629 -0.9729869682444674 0.0022453410704696914
1.5526289018267134 -0.04160932528326397 0.003656933197467536
1.1660793767836257 -0.05572870453364906 -0.006961186618502005
1.1686407667120386 -0.977015260183836 -0.0044250340170014476
1.1660234651979364 -1.8868039564498031 -0.002345165212536148
1.1656232065065513 -2.758693001604499 -0.0008347852865364213
1.1665703609908584 -3.576573518957608 -5.620089496671654e-05
1.1674187800714857 -4.32319445936842 8.042913861630737e-05
1.1679862612389167 -4.9812036385243035 -0.00023724428039076595
1.1679080998677478 -5.533462422445213 -0.0008495831161565427
1.165876825713786 -5.963489125126594 -0.0017267556033273115
1.1643401319393247 -6.253953698297925 -0.0029803807726213683
1.17405879139404 -6.371062418179561 -0.00399917722734487
1.1837302166446266 -6.253823555576644 -0.0032291162809475462
1.1820489057489296 -5.9631878067110895 -0.0022188759100082744
1.1797675882310328 -5.532908285973391 -0.0015687542234133324
1.1793229094986903 -4.980276856827747 -0.001144564903382047
1.1793962870830619 -4.32174483501336 -0.0009354712564137229
1.179614618015536 -3.5744452651829444 -0.0010362451066106139
1.1797759344175354 -2.7557640498202316 -0.0015350956948777526
1.1785471059885615 -1.8830824301535363 -0.00229510258896738
1.1755750601858688 -0.9731170916394318 -0.0026463813824959834
1.178304915743893 -0.05331190272726531 -0.0022929513393427354
1.5386347231907145 -0.06275108762700651 -0.011849263215350857
1.535798960292866 -0.977003339540743 -0.008814448581292527
1.523552376789021 -1.88506552295356 -0.00788568604129925
1.5045903329521588 -2.757025038094717 -0.0077952392486668135
1.4790764236425973 -3.5744544189567056 -0.008215747171790145
1.4461097203478637 -4.320389109625543 -0.00885956178938514
1.405409387454068 -4.9777336091066955 -0.009416552475801318
1.3569564665247658 -5.5289720795237 -0.009703965164229557
1.2986435231586297 -5.957313180754693 -0.00982971873387417
1.2306867700750816 -6.250830314069583 -0.010336429293967707
1.1740578119084857 -6.383067675481822 -0.011138096484653952
1.11737538853036 -6.250702562833309 -0.010670187415168602
1.0492558295468044 -5.957015387495736 -0.010495297787768986
0.9906646391459585 -5.528419970926152 -0.010690720268087145
0.941811900087789 -4.976802864103449 -0.010690579982079586
0.9005912110900904 -4.318922465007084 -0.010339527150596769
0.8669974737631475 -3.5722807008010737 -0.009737624058671445
0.8407970029060519 -2.7540142098352094 -0.009059749929018545
0.821267790260627 -1.881311477834975 -0.008361751116250654
0.8088845325928185 -0.9731883716622534 -0.007679769875277444
0.8062408553634381 -0.05991678593275515 -0.008379429843292457
1.9121830706548157 -0.06583997457134248 -0.0161657305830445
1.9047720006039093 -0.9764763064563919 -0.012882591300975934
1.883261185159586 -1.8815993175659806 -0.013292865242797648
1.8462844279484307 -2.7520100857449745 -0.014657954153119426
1.7944256432220356 -3.567683591737388 -0.016272298295730493
1.7276773747606684 -4.311734746087443 -0.017647877667855336
1.6459080920357905 -4.967063178627674 -0.01834408896428617
1.5488285020879025 -5.51638812243155 -0.018132142759291456
1.4372221092411313 -5.941141250395637 -0.01720720566552223
1.3026918903530325 -6.233891590417934 -0.016533608158547937
1.1740517475392538 -6.392777022707684 -0.016670511856401487
1.045351107692927 -6.233770322632424 -0.01695594262405215
0.910637357940323 -5.940855614285705 -0.01805420957832865
0.798719769357946 -5.5158521335094575 -0.01940080919987919
0.7011992415509559 -4.966149895333013 -0.02000914527582238
0.6188699472505286 -4.310282526699368 -0.019632366383620394
0.551484622197065 -3.565513816953051 -0.01840065447651047
0.4990192185719113 -2.748995346215559 -0.016586330050757526
0.46165723479567755 -1.8778737402802612 -0.014430454955750384
0.4401297269742552 -0.9727030214219454 -0.01243993217202929
0.43291708452814487 -0.06274295322827474 -0.01367553715404628
2.2889756925223064 -0.06694138766611338 -0.018584592203658143
2.2791098772368277 -0.9752303119033261 -0.016223369867808025
2.248945160574951 -1.876499525789764 -0.018346402953999967
2.1936078619134247 -2.7437125904104196 -0.021229495488386717
2.1154083024159327 -3.556363241190962 -0.023987330520457362
2.0150871872306766 -4.297318652545837 -0.025945771273146196
1.8924927717033517 -4.949504197412249 -0.026527520757582912
1.7473171907107872 -5.495180196467643 -0.0254175243645733
1.580365280004837 -5.918018779762246 -0.022881032114274735
1.3954508977911857 -6.198948141077557 -0.020240625596806595
1.17403614145743 -6.400000000000001 -0.01900525559197602
0.9525526037649668 -6.19883721169876 -0.02075710955720446
0.7674299724436376 -5.91775344028996 -0.023922113870481272
0.6001265045313715 -5.494673705052242 -0.026991309498045558
0.4544563647005173 -4.9486285293289995 -0.028623855839900594
0.33124165292555974 -4.2959109576225565 -0.028503416496782997
0.23023858932785438 -3.554245849016405 -0.026838196606552293
0.15145879143149873 -2.7407663989292885 -0.02400749308629295
0.09589286997063075 -1.8728632328174961 -0.020383749991323342
0.06590901125321208 -0.9715011256760839 -0.01659261896976244
0.056312542535653085 -0.06371873898062118 -0.01682498106410999
0.0 0.0 0.0
0.04031874384858856 -0.9707144020362373 -1.0491318926992003e-13
0.08248224768481557 -1.8647783396493174 -1.978709162753161e-13
0.1399540490699819 -2.726998675215672 -2.875666602607111e-13
0.21853443725529959 -3.5369138599842094 -3.717246144725013e-13
0.3187257312919659 -4.277270608382563 -4.651047727551605e-13
0.4403733053823128 -4.930816814683073 -5.760568071337783e-13
0.5841028858541792 -5.480823798464668 -7.104313443852885e-13
0.7526090583514562 -5.909424098040479 -8.209742941541941e-13
0.9503694757332529 -6.192912181249211 -9.322431851204957e-13
1.1740497368251235 -6.296513605986871 -1.0400695510855865e-12
1.3976790663265497 -6.192571946944529 -1.1541438979578783e-12
1.5952795588842084 -5.908693789669871 -1.2566398310405449e-12
1.7634935176741706 -5.479605613470915 -1.309962934613581e-12
1.9067524430151517 -4.9289721525532775 -1.4050933223100096e-12
2.0276675958515766 -4.2746433263075705 -1.4915347310951655e-12
2.1267268526725127 -3.5333820045729327 -1.6614756803213367e-12
2.203555188901113 -2.7225729897295423 -1.8417821382691207e-12
2.258338240878258 -1.8596696020226566 -2.0393771072575366e-12
2.2960215552985757 -0.9652879297589921 -2.2427292700402344e-12
2.32457098535775 0.0 -2.392697420944084e-12
0.40635334201908985 -0.02438757000256529 -2.081774691139414e-14
0.42321172618547015 -0.9710301802733351 -9.488072597519338e-14
0.44619695900609907 -1.8716479274587154 -1.8409301878977497e-13
0.48572587628252695 -2.7357038337630377 -2.7757788371704543e-13
0.5387386797880412 -3.5486936471525685 -3.6963568318158917e-13
0.60614549198967 -4.2920926557836 -4.706939864693139e-13
0.6878715231013215 -4.948899622806179 -5.777171664213619e-13
0.7843053965009136 -5.502491779212135 -7.007577082917824e-13
0.8968294825523748 -5.935348215513742 -8.191671252089991e-13
1.0275614221212483 -6.223764739317315 -9.423523714412183e-13
1.173987964013007 -6.330525650639804 -1.0491459741333426e-12
1.3203540325207208 -6.2234084427926355 -1.1743350117989194e-12
1.4508979799419728 -5.934581941934052 -1.2965996549925782e-12
1.5630857446550874 -5.501209168344453 -1.3878754660725116e-12
1.658995906563736 -4.946947175670051 -1.5011581187649347e-12
1.7399448793191024 -4.289289117626788 -1.6207465007834478e-12
1.806212949741517 -3.544882173477387 -1.766392342944164e-12
1.8575597078814148 -2.7308342909509045 -1.930977049232358e-12
1.8946094357763785 -1.8658669370356389 -2.1063945020464017e-12
1.9139365612145285 -0.9644200646410813 -2.2834341029870785e-12
1.9291731340257272 -0.0229850507360979 -2.4128620094336744e-12
0.7891654641818647 -0.04242581191241167 -2.256953548541809e-14
0.7977008534819936 -0.9706180574774335 -9.17308523922399e-14
0.8063639767411556 -1.8748821502795177 -1.753364816210443e-13
0.825790594490196 -2.741176348065127 -2.7154828762236544e-13
0.8531338340368415 -3.5558222716674956 -3.6619232989708437e-13
0.8874794884465428 -4.301061833933414 -4.762157757173153e-13
0.9288825458646379 -4.959779703030802 -5.882284749262349e-13
0.9772350767314838 -5.5153390757650556 -6.96310687727153e-13
1.0325836298019413 -5.950509831197805 -8.343469183463024e-13
1.097102730285084 -6.242810128733112 -9.561517307621578e-13
1.1739365450882595 -6.354263505159676 -1.0711332227232291e-12
1.2507015241921766 -6.242442368324348 -1.2075494894692823e-12
1.3150085097350526 -5.94971749562387 -1.3379582534753075e-12
1.3699846629952164 -5.514009027542256 -1.4637551426857698e-12
1.4177751100769511 -4.957746460575495 -1.5922305109842958e-12
1.4583805443521918 -4.298124834871363 -1.7241242322485433e-12
1.4916201711676924 -3.5517902654085773 -1.863713186971799e-12
1.5174416569344502 -2.735969383259983 -2.012249090445351e-12
1.5347826133060363 -1.8685297780780723 -2.171886262181285e-12
1.5418243231800874 -0.9640139175114016 -2.3275765076684696e-12
1.5501279671267907 -0.03991691998721356 -2.4596339354388743e-12
1.1629010044354262 -0.05455391558970486 -1.8788432069194612e-14
1.1654406330009282 -0.9705852543741941 -8.795471950067805e-14
1.1632738007751093 -1.8752719063086545 -1.6998743224275095e-13
1.1632997759249444 -2.743100400009654 -2.691705828765966e-13
1.1645882492053676 -3.558385463922992 -3.675508687903183e-13
1.1657448551383818 -4.304181508754154 -4.793359532193708e-13
1.166589154334836 -4.963495969776776 -5.966975060707803e-13
1.1667311779998102 -5.519395170092771 -7.092830699688315e-13
1.1648348244200302 -5.954947896773003 -8.455641316333501e-13
1.1634301718129014 -6.251023124237054 -9.756720207432979e-13
1.1738898335499648 -6.371012444315663 -1.0978748471767363e-12
1.1842726835801662 -6.25064873643887 -1.2464760635081243e-12
1.1826331203733889 -5.954139927530411 -1.376104645978297e-12
1.1803310515657377 -5.518035374099578 -1.5302521630829256e-12
1.1798777268149758 -4.961410310848185 -1.6753593860622877e-12
1.1799132418845226 -4.301153474562904 -1.8137133170825972e-12
1.1800177996070993 -3.554200714074862 -1.9514520749146527e-12
1.1799613571794836 -2.7376329055301905 -2.0883637750581425e-12
1.1785360101261764 -1.868693198495483 -2.2350514294105002e-12
1.1756555380653608 -0.9641563069421303 -2.3766724619329075e-12
1.178306166458586 -0.051117312213776696 -2.5159631787032035e-12
1.5335657991948997 -0.06149554143877499 -1.3848728781201837e-14
1.5308718658100327 -0.9705316607591826 -8.425596344046928e-14
1.5191439158511892 -1.8735995161780226 -1.6662153757661594e-13
1.5008342047196321 -2.741523625121479 -2.639372109506632e-13
1.4760868097469557 -3.556337523760479 -3.66193298794809e-13
1.4439886292635538 -4.301426936607764 -4.772621433349046e-13
1.4041684060065869 -4.9600481367259714 -6.043769142880798e-13
1.3564490592592897 -5.514873675201562 -7.236257276875094e-13
1.2984609933229736 -5.948673396525993 -8.609954216371344e-13
1.2302246121951972 -6.247761910436473 -9.9595239218059e-13
1.1738423624948275 -6.383172237036172 -1.1304321479522165e-12
1.1173749191218492 -6.24738581548448 -1.2782931686677907e-12
1.0488795488198648 -5.947860356359446 -1.4304893701821806e-12
0.9904500508979195 -5.5135020810227315 -1.5912939396425632e-12
0.9420978248084944 -4.957938261142511 -1.7512418677716905e-12
0.9014526954901627 -4.298352891793669 -1.908483851938964e-12
0.868350970528952 -3.552063998195212 -2.0373350592418097e-12
0.8424818777852133 -2.735919065026959 -2.165044876961244e-12
0.8232079220772758 -1.8669752147294825 -2.2958071924563807e-12
0.811172926133191 -0.9642365667777635 -2.425618807497409e-12
0.8086818147131742 -0.05739369457924616 -2.572725537722725e-12
1.905066469353587 -0.0645432945678684 -9.383973633169542e-15
1.8980160466495708 -0.9699641955010773 -8.074208524923164e-14
1.8772031561497657 -1.870189587701133 -1.6233034413177947e-13
1.8411551823501553 -2.73660125513787 -2.5769008853556397e-13
1.7905164058051994 -3.5496479565227954 -3.6671211990807423e-13
1.7252350896299484 -4.292816697155385 -4.892014803721229e-13
1.6450101122790404 -4.949347408572511 -6.025219668530336e-13
1.5492411803386434 -5.502149690353755 -7.264603956277483e-13
1.4382795099435421 -5.93218020840032 -8.800158900119663e-13
1.3029409222047235 -6.230353161989922 -1.0044982655012157e-12
1.1737886430878242 -6.392888551002782 -1.1522380054776623e-12
1.044541581466753 -6.22998018568822 -1.2986747427719396e-12
0.9089160431206279 -5.931372474518018 -1.4720229103149092e-12
0.797469678853864 -5.500783772168912 -1.6529313146235817e-12
0.7010173618251225 -4.947241142172375 -1.825842892634528e-12
0.619928742413292 -4.289740143351949 -1.9972303647603003e-12
0.5536682363919734 -3.5453588118024233 -2.1305198020001853e-12
0.5020964402935374 -2.7309786001539695 -2.247757788520256e-12
0.4654502306386753 -1.8636130095102958 -2.3583732276411546e-12
0.4445951046189419 -0.9637477395140822 -2.469144609278625e-12
0.43781246510962196 -0.06004198655962052 -2.621424790680267e-12
2.2796748344358444 -0.06555066965365387 -4.77263938332798e-15
2.2703823465984754 -0.9686146251175185 -7.573557554993185e-14
2.241148108744275 -1.865082532596931 -1.5485738302826985e-13
2.1871141006666277 -2.728316988691698 -2.4909482043830376e-13
2.1106853643032024 -3.5383022929539107 -3.684273878222277e-13
2.012529987467457 -4.2782848539872225 -5.056478142938305e-13
1.89227189330541 -4.931520419035298 -5.961846836914172e-13
1.7491624703455537 -5.480424740375383 -7.263182669393249e-13
1.583203744177931 -5.908265783426617 -8.607887497325748e-13
1.3973307018071524 -6.194101048681889 -1.0040176713251995e-12
1.1737229416721358 -6.400000000000001 -1.158881137333966e-12
0.9500087941667463 -6.193735780969649 -1.3114057518637164e-12
0.7638142876185255 -5.907473208562917 -1.4842504261898606e-12
0.5973150147059426 -5.479081164110816 -1.7057982858110481e-12
0.45344964315377806 -4.929443992659128 -1.8995086826633157e-12
0.3322515765809365 -4.275247743816077 -2.1070895917406446e-12
0.2330781786067157 -3.534070782968828 -2.2376221668338888e-12
0.15581425775582694 -2.722792570835669 -2.3446862838504998e-12
0.10151495060398073 -1.85865714292596 -2.424436043427451e-12
0.07264023737240861 -0.9624884260497915 -2.5062649055767534e-12
0.06378080906163894 -0.06086902719748022 -2.6500505954186448e-12
0.0 0.0 0.0
0.038008028662298285 -0.9775710245933218 -0.007306092504806924
0.0799400445345921 -1.8766792233109126 -0.013710270666916363
0.13805933949541294 -2.742868871627034 -0.01978202894891973
0.21782492991558416 -3.5553405937075424 -0.02408478634871432
0.3195689711552831 -4.296589113417874 -0.026266971773497193
0.4429959708236889 -4.949013815184162 -0.026156129988104168
0.5882907121030613 -5.495706283384958 -0.02379044309420833
0.7573220442687518 -5.919254512884104 -0.01966905551767593
0.9536901477674664 -6.197635789160365 -0.015232284901068347
1.174082395240843 -6.298894977284411 -0.013107113581622868
1.3944462236080888 -6.197522988648375 -0.015236374405006527
1.590724744419079 -5.918994234714764 -0.019694224352866975
1.75959162460658 -5.4952306661987 -0.023873614061133742
1.9046215038655079 -4.948226590427751 -0.026358630984783707
2.027639873738684 -4.2953793456778175 -0.026675954108891935
2.128765631836308 -3.5536115964752173 -0.02481197865808863
2.207586928510284 -2.7405928474591184 -0.02094470784947326
2.2642993367352706 -1.873946244046841 -0.01559821575787633
2.3033730809619093 -0.9743095708216102 -0.010500417353101747
2.3331716423979385 0.0 -0.010713689661995394
0.40649137787771705 -0.02522126798393666 -0.0002641599528184934
0.42327273444666624 -0.9774170995595921 -0.0037493730773451124
0.4454510610959676 -1.8834176259905588 -0.008651221255019681
0.48519869530542276 -2.751423871221923 -0.013071685219714902
0.5388112701896945 -3.566969704692179 -0.0162585449838594
0.6070769292516605 -4.311197269155168 -0.017880613708008208
0.6897889744175371 -4.966754693136149 -0.017913381444714476
0.7870538925703452 -5.516809359835662 -0.01647143538501744
0.8997735710192349 -5.944295179300332 -0.013924756159821241
1.0296033649769467 -6.227275966659817 -0.011132280441406527
1.1740662492418206 -6.331523779919884 -0.009723759482873951
1.3184939389909323 -6.2271534542249345 -0.011050555660176249
1.4482141775820843 -5.944012946983106 -0.013773509582315059
1.5607377640709958 -5.516294002397639 -0.016278579726990296
1.6576984834479767 -4.965900401917502 -0.017728417702880347
1.739965068588138 -4.309877634188137 -0.01778165260074824
1.8075913652737277 -3.565064842955597 -0.01635393063493975
1.8603010981723072 -2.748872809850643 -0.01352581904415532
1.8986725078203968 -1.8802308350290804 -0.00970852755080507
1.9185477921943808 -0.9734030071982087 -0.0066618607524909935
1.9343764547965419 -0.023975427065080594 -0.008502641235381888
0.790665354382313 -0.04347776865222373 0.0025334378498671835
0.7992957116666762 -0.9770024246930521 0.00014619235257249514
0.807422332376489 -1.8865032038763478 -0.0032057894955937203
0.8266583496640036 -2.7568459243182093 -0.0061461993966612175
0.8541144634266568 -3.574056749762969 -0.008127952728019874
0.8887122106290131 -4.320116707917342 -0.009038742822818222
0.9304425729890728 -4.977535215228995 -0.008952549762313477
0.9790696774708006 -5.529465282317201 -0.008016641279796321
1.0344319449107948 -5.959132450561681 -0.006428890816444708
1.0984564869186668 -6.245861293340242 -0.00453960196281282
1.1740598751121734 -6.354642697107842 -0.003405605949649123
1.2496219528444605 -6.245732923901231 -0.00437424516618435
1.3135191038516 -5.958836375222308 -0.006106736588039588
1.368657703669757 -5.528923488613594 -0.007559239447025497
1.4169485282003156 -4.9766340049005064 -0.008403134066490337
1.4582070148628283 -4.318716654605803 -0.008473751302396493
1.492166415597555 -3.5720174435286953 -0.007672585006103305
1.518769605649534 -2.7540809923333742 -0.0059923018660088066
1.5368171671547555 -1.8829350878316882 -0.003729427576252715
1.5440227206581882 -0.9729869682440667 -0.0022453410751200093
1.552628901827221 -0.04160932528318261 -0.0036569332023714206
1.1660793767839015 -0.05572870453368172 0.006961186618457155
1.1686407667123242 -0.9770152601839437 0.004425034016819162
1.166023465198227 -1.8868039564499397 0.002345165212182541
1.1656232065068686 -2.758693001604602 0.0008347852859903585
1.166570360991197 -3.5765735189575887 5.620089421068566e-05
1.1674187800718425 -4.3231944593683655 -8.04291395964139e-05
1.167986261239303 -4.981203638524291 0.00023724427918962783
1.1679080998681473 -5.533462422445199 0.0008495831147197685
1.1658768257142154 -5.96348912512671 0.001726755601628116
1.1643401319397932 -6.253953698297916 0.002980380770677167
1.1740587913945382 -6.3710624181794016 0.003999177225124109
1.1837302166451367 -6.253823555576523 0.003229116278480306
1.182048905749478 -5.9631878067108435 0.002218875907269603
1.1797675882315901 -5.532908285972703 0.0015687542203780362
1.179322909499271 -4.980276856826886 0.001144564900062039
1.1793962870836738 -4.321744835012066 0.0009354712527951206
1.1796146180161688 -3.574445265181844 0.0010362451027164557
1.1797759344181502 -2.7557640498192546 0.0015350956906897268
1.1785471059891706 -1.8830824301528477 0.002295102584492788
1.1755750601864845 -0.9731170916390354 0.002646381377748328
1.1783049157445145 -0.053311902727159764 0.00229295133432026
1.5386347231910142 -0.06275108762705378 0.011849263215318054
1.535798960293159 -0.9770033395408318 0.008814448581117634
1.5235523767893082 -1.8850655229536801 0.007885686040953271
1.5045903329524641 -2.757025038094796 0.007795239248125513
1.4790764236429206 -3.5744544189567153 0.008215747171033906
1.446109720348182 -4.320389109625444 0.008859561788386818
1.4054093874544256 -4.977733609106699 0.009416552474578234
1.3569564665251548 -5.528972079523719 0.00970396516274693
1.2986435231590532 -5.957313180754829 0.00982971873213569
1.2306867700755186 -6.250830314069592 0.010336429291969849
1.1740578119089449 -6.38306767548171 0.011138096482351449
1.1173753885308493 -6.250702562833212 0.010670187412610173
1.0492558295472771 -5.957015387495475 0.010495297784916419
0.9906646391464579 -5.528419970925491 0.010690720264914763
0.9418119000883113 -4.9768028641026065 0.010690579978597861
0.9005912110906799 -4.31892246500582 0.010339527146814168
0.8669974737637969 -3.5722807007999506 0.009737624054603823
0.8407970029067162 -2.7540142098342155 0.009059749924671982
0.8212677902613169 -1.8813114778342874 0.008361751111655442
0.8088845325935243 -0.9731883716618649 0.007679769870429521
0.806240855364155 -0.05991678593263462 0.008379429838150036
1.9121830706551193 -0.06583997457139767 0.016165730583027844
1.9047720006042055 -0.9764763064564643 0.012882591300810708
1.88326118515987 -1.8815993175660874 0.013292865242462452
1.8462844279487138 -2.7520100857450887 0.014657954152584154
1.794425643222339 -3.5676835917373455 0.01627229829497578
1.7276773747609842 -4.31173474608733 0.01764787766686082
1.6459080920361413 -4.9670631786277015 0.018344088963042737
1.5488285020882995 -5.516388122431526 0.018132142757757975
1.4372221092415483 -5.9411412503957814 0.017207205663743824
1.3026918903534388 -6.2338915904179215 0.016533608156490718
1.1740517475396934 -6.392777022707631 0.01667051185403286
1.045351107693365 -6.233770322632301 0.01695594262140878
0.9106373579407379 -5.940855614285513 0.018054209575363668
0.7987197693583757 -5.515852133508816 0.01940080919657155
0.7011992415514112 -4.966149895332211 0.02000914527218078
0.618869947251079 -4.310282526698181 0.01963236637965464
0.5514846221977241 -3.565513816951918 0.0184006544722646
0.4990192185726335 -2.7489953462145715 0.01658633004625621
0.46165723479645876 -1.877873740279581 0.014430454951028772
0.4401297269750588 -0.9727030214215718 0.01243993216708598
0.43291708452896094 -0.06274295322814695 0.01367553714879952
2.2889756925226106 -0.06694138766617545 0.018584592203653386
2.2791098772371203 -0.9752303119033854 0.016223369867656327
2.24894516057524 -1.8764995257898809 0.018346402953680677
2.193607861913686 -2.7437125904105084 0.02122949548786125
2.1154083024161974 -3.5563632411909256 0.02398733051970656
2.0150871872309852 -4.297318652545744 0.025945771272168593
1.8924927717037137 -4.949504197412215 0.0265275207563061
1.7473171907111875 -5.49518019646763 0.02541752436300484
1.5803652800052532 -5.918018779762353 0.022881032112442627
1.3954508977915574 -6.19894814107756 0.02024062559470548
1.174036141457833 -6.400000000000001 0.019005255589578513
0.9525526037653665 -6.1988372116986215 0.02075710955447658
0.7674299724439735 -5.917753440289783 0.023922113867379028
0.6001265045316752 -5.494673705051661 0.02699130949459682
0.45445636470088674 -4.9486285293281655 0.028623855836087578
0.3312416529260531 -4.295910957621443 0.028503416492634142
0.2302385893285342 -3.5542458490152904 0.026838196602116386
0.1514587914323134 -2.740766398928311 0.024007493081632452
0.09589286997151948 -1.8728632328168195 0.020383749986473156
0.06590901125412241 -0.9715011256757015 0.01659261896472693
0.05631254253656574 -0.06371873898049406 0.016824981058800294
0.0 0.0 0.0
0.027378020043409557 -1.0031143938453742 -0.01690936890802896
0.06941271153653927 -1.9184282092082425 -0.03229605615417596
0.12891553147142296 -2.7976323136780263 -0.04659645024840339
0.21104834639127543 -3.62004786541953 -0.057632515165722986
0.31664189904161105 -4.367393145227092 -0.06537924157248654
0.44531323906245585 -5.020802831798463 -0.06930521124296603
0.5964487587514122 -5.562157024580981 -0.06904732862228186
0.7694501723867256 -5.973727125839443 -0.06477577347430218
0.9636092217836344 -6.236883233505644 -0.058312257084903195
1.1740234985828377 -6.3300209037365756 -0.05457347740115201
1.3844622160901776 -6.237358961208153 -0.05835067950501632
1.5786979969115922 -5.974677113798443 -0.06488034810729484
1.7518399616224163 -5.5635778264511195 -0.06927927026570009
1.9032039701177257 -5.022686668004561 -0.06977062935337719
2.0322388783096024 -4.369719096960554 -0.06623877680256604
2.138415301132766 -3.622760379546389 -0.05912959495161244
2.2215145753986216 -2.800595986465698 -0.04898860043264533
2.2825884560561462 -1.9213770729934458 -0.03628455506998979
2.3277265936697358 -1.0059356937919317 -0.02151039357643344
2.3624807763552367 0.0 -0.018881107265947293
0.40475783048043634 -0.029165326829297632 -0.002492318609897808
0.4211467232210652 -1.001654600856254 -0.007752701737376436
0.441160797799261 -1.9249045816246517 -0.020162895609313287
0.4811263260678697 -2.8057383265208253 -0.030339637629136867
0.5358042545866114 -3.6311883162932364 -0.038229698690424176
0.6061300535862644 -4.381366514507517 -0.043504868808196095
0.6918325240869587 -5.037648422684252 -0.04608719319385464
0.7924575762724897 -5.581852228937377 -0.04587262777668845
0.9073733724993756 -5.996342186470895 -0.043102572299020744
1.03570754758056 -6.262488298667885 -0.0388188966492018
1.1741297769574959 -6.357489012841343 -0.036080533067108525
1.3125760295051117 -6.262969218182199 -0.03871982098435871
1.4409853869618172 -5.997302905949472 -0.042926030427820235
1.5560377811730688 -5.58329018973604 -0.04566882944879349
1.656881711898295 -5.039557771392103 -0.04594769678070885
1.7429238283164898 -4.383730549866584 -0.043583781955133995
1.8137832742396192 -3.6339598323017945 -0.03875443029333524
1.8693090707524642 -2.8087964474960216 -0.03168630366358522
1.9107291576216694 -1.9280393418840511 -0.022671837829432696
1.9332940393344258 -1.0048753438994589 -0.01276303668549247
1.951144334525622 -0.029668153027695054 -0.014289522067285917
0.7934577930689778 -0.05135265757746761 0.004487125844526261
0.8025438854513938 -1.0014584242732871 0.0003500477857424393
0.8095205132914106 -1.9273075659436552 -0.007802295202224798
0.8278288775268241 -2.810672096897074 -0.014433942533526754
0.8551628203820263 -3.637707775602238 -0.019040390329047325
0.8902014334138777 -4.389606486031188 -0.02182102722770834
0.9329428285997278 -5.047558822617734 -0.022891454477293346
0.9829961092180454 -5.593359549109489 -0.022349922876649372
1.039665460499618 -6.009468436644575 -0.02032201676110686
1.1031062304527495 -6.277990435916931 -0.01689919972079726
1.1742446355759943 -6.375869355103398 -0.01387723867323043
1.2454063771748722 -6.278478914485972 -0.016664481665196955
1.3089196088935222 -6.010444531328087 -0.019868832203808362
1.3657184388996912 -5.5948212510253645 -0.02171899486029917
1.415973418421907 -5.049501306854582 -0.022165057259676338
1.4590169373399213 -4.3920156339742125 -0.02114790479023617
1.4945100919816314 -3.6405419446881577 -0.018672015268169424
1.5225516801202998 -2.813818144733695 -0.01475532390088255
1.5420351332484743 -1.9306186204347315 -0.009381731197396144
1.5502396509726317 -1.0044871747117528 -0.003814156860317944
1.5598692701603154 -0.0518233156812569 -0.004423331449294368
1.1741415714285492 -0.0662568448318343 0.013892815358175901
1.177221420298274 -1.002143775182198 0.009257657698497113
1.1738515181695717 -1.92720162108261 0.004524890898912769
1.1720444642872352 -2.8121237088751756 0.001513911695535239
1.1717092603533272 -3.6398926978123076 0.0002079767176195637
1.1714976950239946 -4.392329674405305 3.955876903187029e-05
1.171273141781936 -5.050836729186487 0.000626974813199183
1.1708897204287607 -5.597016547353477 0.0017426332308043795
1.1694955517774732 -6.013451487038713 0.003335307525512013
1.1683595300256147 -6.284283055219017 0.006220835789700477
1.1743637517785126 -6.387628621979204 0.010323656178924669
1.1803904631717415 -6.284781345107834 0.006591454090313239
1.1793235264431283 -6.0144472973713565 0.004065538707784449
1.1780499402435314 -5.598507921600582 0.002800582604180646
1.1778473091435853 -5.052818736446802 0.0019390205493224424
1.177878901433745 -4.3947888676666755 0.0014565805786696617
1.1780282402711584 -3.6427884135163047 0.0014589419235436828
1.178232084887558 -2.815357482943623 0.0021546157957060596
1.1771531337572 -1.9305448874305715 0.0038509790379351936
1.1743455157191496 -1.0048853646421338 0.006104175037687079
1.1776908340236167 -0.06675183024436343 0.006991141971119899
1.5522112895609106 -0.07474454467599538 0.023599666005088414
1.549841869132222 -1.0027576033268921 0.018525984957100845
1.5369644907358901 -1.9253309205989442 0.016791858831574084
1.5162163161120452 -2.810296844325399 0.01739253124690144
1.4883517163684905 -3.637744101724865 0.01939620756029218
1.452808471470798 -4.389605605292688 0.021864400165898416
1.4095500444440805 -5.047572645572129 0.024133283431415086
1.3589145955936057 -5.593051802685632 0.0258246847112133
1.3000501222636496 -6.008358660659502 0.02685605101772896
1.2335884791053757 -6.281000450189806 0.02844614787058046
1.174485358276766 -6.394702544247168 0.034035961733574545
1.1154039341795032 -6.281510805519186 0.028955215076339618
1.0490081116560657 -6.0093784992436845 0.02786883058817297
0.9902554343930734 -5.594578660716333 0.02731900246837703
0.9397798520474127 -5.0496003109707495 0.026045245915988075
0.896730732829403 -4.392118144787889 0.024046516734519574
0.8614526187003229 -3.6407009805907973 0.02155642077407933
0.8339215278000943 -2.8135902981976626 0.019020526065624346
0.8135251413503395 -1.92864379882774 0.01709147924348317
0.8008524738350774 -1.005276432855704 0.016450277431314348
0.7986161438812454 -0.07528262703459272 0.01838671849736974
1.931470552106924 -0.07839860262291466 0.032506305665993246
1.924498140226624 -1.002631629804643 0.02757130354670191
1.9023885883160299 -1.9219043911616174 0.028901691687536733
1.86318299445253 -2.80532919265541 0.03309865127831632
1.8078504955065056 -3.6311817458831266 0.03839647153654144
1.7369073077138162 -4.381364580299809 0.043437518070649335
1.6506375031022904 -5.037610104613417 0.047299305677125036
1.5493428658042956 -5.581573313404546 0.04932069398788087
1.4346334379607608 -5.994336080505108 0.049437877209393404
1.3021450380203998 -6.266133983787736 0.04789764695733266
1.1746075698182297 -6.398899406976882 0.053831064991765626
1.0470912423809136 -6.266658805454867 0.0485498981927092
0.9146662140507492 -5.995384561411436 0.050743671362716514
0.8000615776823616 -5.583142009794451 0.051269748732126814
0.6989094195188162 -5.0396902066821205 0.049841343781514155
0.6128096727589268 -4.383935349654502 0.04643279606474395
0.542042890311865 -3.634195509627863 0.041538992524399285
0.4868510817431598 -2.8086579536284058 0.03581979672587639
0.4476888926082914 -1.9251769321988774 0.030314163251792745
0.42552506205976626 -1.0050158804827771 0.02663362095501236
0.41856651533527645 -0.07895453851481357 0.028758061339381052
2.314030303481679 -0.07956575051511916 0.03934359406972408
2.30466260432988 -1.0015585619415155 0.036036187963431665
2.273894799889513 -1.9168527296656763 0.040919780666045916
2.215689910037077 -2.7970619613745824 0.04886641066602648
2.1327234419792935 -3.6200149638519434 0.05752785759368365
2.026412252344675 -4.367333277480922 0.06512041583779492
1.897113707555471 -5.020773142473851 0.07042050271234583
1.7452595973783112 -5.56169533821681 0.07258638755988327
1.5726050173848862 -5.972960981849368 0.07105837901196094
1.384982930191165 -6.236094328014896 0.0654802988979815
1.174725650916864 -6.400000000000001 0.06297364251392122
0.9644891986581932 -6.236636212149442 0.06628226864388348
0.7769290342532986 -5.974043180343593 0.0726718235043213
0.6043748543315459 -5.5633130535134665 0.07501645587361024
0.45265211115781484 -5.022914140049259 0.07363698545782099
0.32349808116230633 -4.369969622026525 0.06900246981768406
0.21730284184281812 -3.6230845079928495 0.06177413523656058
0.13433484859004383 -2.8004101097314233 0.05287032748601056
0.07590371477709007 -1.9200795930377075 0.04368407418725964
0.04476831936607285 -1.0038625866690163 0.03634843416697651
0.03524319586491317 -0.08009754147420507 0.036762133408196646
0.0 0.0 0.0
0.029268680380361668 -1.0613259876462284 -0.02540410511996809
0.070480966894261 -1.9999625514311161 -0.05470035986830551
0.12748068561663262 -2.9041020741187986 -0.07809492168925243
0.20859483222490646 -3.7492317626001035 -0.09929373906336893
0.3149610550317381 -4.515426034180265 -0.11682082252295611
0.44614031489396977 -5.181631318179624 -0.12994710771943044
0.6013390775874603 -5.7274879464135555 -0.13774010313877158
0.7784363847215828 -6.133148535631426 -0.13954709766368537
0.9721634045934184 -6.381667842190672 -0.1364359193082611
1.1737863276266125 -6.464477869875968 -0.13362016737366933
1.3754809069099132 -6.38288039713048 -0.13654811008086679
1.5694368752718633 -6.135601926286159 -0.13981083641579378
1.7469642471880458 -5.7312338178078095 -0.13824244064163924
1.9028736448487529 -5.186731547978433 -0.13083790552928876
2.035169866260143 -4.521920753140994 -0.11834056708610757
2.1432358057563183 -3.757083283636564 -0.10178327909894366
2.226883048934677 -2.913098070357079 -0.08214193537385289
2.2875721989173665 -2.0096880207884014 -0.060672098343406936
2.335148358066367 -1.0709982509741227 -0.036070010414009965
2.3796910260597115 0.0 0.0002059420030211834
0.41654391991301004 -0.04532145334530746 0.013338408645253451
0.43452210203135155 -1.056614733241442 -0.013308184793493216
0.4490158165121618 -2.006352548977241 -0.03465185948297763
0.4863670632617125 -2.911608616931749 -0.05274115672814725
0.5390615881477647 -3.760029013202778 -0.06788108303658248
0.6086362141852868 -4.529109316809136 -0.08033848261687315
0.6946926597215926 -5.19822864069949 -0.08956995754704511
0.7966848092908391 -5.7468809661855405 -0.095149978403856
0.9132212478981536 -6.15496931892657 -0.09678587815121514
1.040911155176113 -6.4049006913467705 -0.09514831496663963
1.174004746862084 -6.487790917426723 -0.09340651647897445
1.3071741111215012 -6.406133198403897 -0.09510970055499843
1.4351042937885123 -6.157466341556608 -0.09674211805492715
1.5520854491242861 -5.75070201234007 -0.09517693022956483
1.654797103090478 -5.2034481033946385 -0.08980495329002966
1.7419538660201814 -4.535786388647558 -0.08100479038186996
1.813159456766459 -3.768147919974799 -0.069340936831577
1.86820205044447 -2.920988710182061 -0.055477776070922746
1.908954199979161 -2.01662927013776 -0.0396133832318128
1.9282973438638102 -1.0670528424637535 -0.02056219967625632
1.9488748994727672 -0.04782804621551791 0.005379340003728517
0.8097846661314735 -0.07868969128285211 0.021797377261739127
0.8190549669979574 -1.0550336109662692 0.0011795751752251558
0.820672485130764 -2.0078014903481196 -0.01405804654120511
0.8351652444094718 -2.916143368486013 -0.025290738306272827
0.8600571653389056 -3.7662219246691158 -0.03388530683707616
0.8935477153843902 -4.537129264281477 -0.040445090208912175
0.9355914879106861 -5.207983289205524 -0.045010400777696705
0.9859795212230585 -5.758377930864852 -0.04748805731923681
1.044340623974696 -6.167969157938869 -0.047830711609933886
1.1086622471629406 -6.418202642768517 -0.0461562998273371
1.1741779303743007 -6.499682822549044 -0.04426860143563072
1.2397708409812465 -6.419456716047172 -0.04596713367946537
1.3043358573096775 -6.170512610080681 -0.04747940741698055
1.3631419137863123 -5.762276906612397 -0.04703879627757628
1.4142361576855498 -5.213322493460664 -0.044584991124539675
1.457333488127565 -4.543982644513201 -0.040256771700905636
1.4923380722298785 -3.7745934830016012 -0.03428053212823784
1.519339353849398 -2.925861364910832 -0.0268180662813326
1.5366512586906091 -2.018525568479814 -0.01748695787873576
1.5405735670466547 -1.06510358321562 -0.004601538460675287
1.5509622643898349 -0.08255087616924638 0.013698417367252415
1.1914670747511533 -0.10007448527145058 0.02935213801798588
1.193958276592578 -1.0553016817700493 0.015270305400420165
1.1857855461399893 -2.0065973286516927 0.006751482882022296
1.1796902495657242 -2.9170393518174116 0.002783117541137686
1.1764568914574718 -3.768082958856578 0.0011244625807497344
1.1742799980646186 -4.539625067705647 0.0007497892166143554
1.1728060367011672 -5.211128319303666 0.0011991389028410458
1.172260210468663 -5.7622808364245826 0.002224670415044635
1.1734832698591504 -6.172607454110844 0.003596174358166201
1.175960047023638 -6.421750957328829 0.005583919329819732
1.1743324128763737 -6.498951588363893 0.007983652738003682
1.1727823334351364 -6.423027562646721 0.005924748859013812
1.175502108308578 -6.17519887897889 0.0042576270465458825
1.1771640279768505 -5.7662588698154345 0.003155244492299746
1.1773013607417293 -5.2165857520899355 0.002292608898743841
1.1768180065149418 -4.546647917127407 0.001807593879958997
1.1760104165884329 -3.7766864971944583 0.0018010333339489077
1.1745934874846908 -2.927065761729905 0.002518929392669635
1.170492011969839 -2.0174513187427014 0.00478972915404041
1.1635500203154931 -1.0649705497558988 0.010942546753275778
1.1666581953090904 -0.10493821192672173 0.022524530797792847
1.5700225573343 -0.1115219700818759 0.03711548312124246
1.5665271201537516 -1.0557296641095268 0.02865071686987142
1.549295916553183 -2.0036503273936686 0.0272185203980125
1.5241520887726996 -2.914544492137418 0.030698546583439425
1.4930176023090638 -3.7655428185548114 0.03607165950272367
1.4550414034106718 -4.536651921015035 0.041902628567427436
1.4101127744427382 -5.207700819456452 0.04738959550673674
1.3585049438699845 -5.758577499195479 0.0519568213814534
1.302199817110202 -6.169102074058151 0.05496959401412262
1.2435907593567206 -6.416142588579391 0.056290193249945816
1.1744910611417205 -6.483800663028867 0.0584434287915502
1.1054696010704697 -6.417442497714711 0.05678519436139514
1.0471041596578359 -6.171742672616531 0.055946789839422126
0.9912333934006406 -5.762635254835505 0.05337840186565972
0.9402876978961733 -5.213274747994081 0.049166723467561124
0.8962868591540197 -4.543834777997511 0.043852464626054265
0.8595292357346925 -3.7743601489583822 0.03785374034766461
0.8298523358618966 -2.9248030420569986 0.031741577984281164
0.8060645546567488 -2.0145278183129576 0.026713249812019016
0.7895369421532411 -1.0651435083589915 0.02581440649969242
0.7863783751011143 -0.11702254503683518 0.03178018902445905
1.9511102017483004 -0.11580517913754844 0.04547731973366963
1.942894138750444 -1.0552874687060199 0.04127599845919749
1.9169522153857652 -1.9992264250003968 0.04687886080778517
1.8734196252596511 -2.908903004665427 0.05769328569241787
1.8142838628247029 -3.7585620204045918 0.06988487507455633
1.740111755560456 -4.528138689923587 0.08165131907111847
1.651149552587529 -5.197719732190129 0.09189762290855746
1.548134292689343 -5.747040393849466 0.09966577352986991
1.4317628047844755 -6.157202502683074 0.10401621695460748
1.3111218088280356 -6.402965265156508 0.10253571488731304
1.17467710994096 -6.45148286400344 0.10050422162086108
1.0383133209054478 -6.4042895327358424 0.10318871591002414
0.9179225484350408 -6.159894015587453 0.10531753470588516
0.8019910749359331 -5.751179437969254 0.10159277646380831
0.6996314818421651 -5.203409146471169 0.0943810165304757
0.6115545731791522 -4.5354735324211 0.08452699882021991
0.5384618936911184 -3.7675634580077095 0.07282167614330061
0.4804403634553392 -2.919329281474238 0.060101299038385445
0.4377307279006692 -2.010116640432899 0.04786637155249893
0.41207945856118744 -1.0645753494206445 0.03991980594492815
0.403948435021809 -0.12161211354526694 0.041585044046993265
2.3378664638983317 -0.11667866351076205 0.054150521812046284
2.3285564487828423 -1.053803203410742 0.05317094552185252
2.295598850446391 -1.9934104169979816 0.06506128767170528
2.2329967715518864 -2.9000355725655504 0.08256068027983253
2.145160542760075 -3.747003095812091 0.10088434660828889
2.034027024866376 -4.513929059592253 0.11788751160484538
1.8999807439811534 -5.180840543984504 0.13216210346238658
1.7438609352443286 -5.72789972392097 0.1423776410640852
1.5671298899963308 -6.13468136404528 0.14727594874550842
1.3704632339103504 -6.384685454702182 0.14205695339612837
1.1749182425189337 -6.400000000000001 0.12072084280250854
0.979460836624469 -6.386036113192161 0.142872885674541
0.7830631362398183 -6.137427448830806 0.14891206112007638
0.6067981948070009 -5.732124252673654 0.14482810233699964
0.4513572530596925 -5.186647930942447 0.13537956680074467
0.31819430069647997 -4.521410335910382 0.12172961684898992
0.2080553758117489 -3.7561580164436807 0.1050309196360092
0.12104497776173424 -2.910564764210724 0.08639578638885774
0.058682780949421864 -2.0042789604946316 0.06758301075621241
0.0253837395158825 -1.0630112325209566 0.0532476040696346
0.01583218595885412 -0.12255048369864795 0.051531785456003065
SCALARS Stress float 6
LOOKUP_TABLE default
-6203.043642655118 -34408.36651453639 -12183.423047157457 -6295.371740104407 2595.371316301281 -3270.475196694192
13708.906030162221 8818.653159049714 5675.188889761181 -2796.526945931538 2701.4739815396133 -111.21961480483033
13560.760988486763 393.5260800095971 1329.7373970162714 -1318.3585973972113 2639.152506728087 -917.4193700894368
19615.058792015807 1823.7751132544236 2415.5950628902574 -1359.5197537108147 2348.2696234037912 -995.4348871153933
26483.268465742833 2034.819371815476 3243.6203043268083 -1281.3102095596778 2098.50260028086 -1367.1620486742388
33653.34291875371 2674.8028473294353 4339.642158641769 -1162.5584673202782 1648.2531292043468 -1685.8839802297355
40635.41598525448 3238.9742721160883 5430.475276465681 -971.0972657249299 1028.0345339516332 -2013.3850851073175
47224.493432974676 3765.938141728802 6538.800721573492 -707.8755699646324 250.5703895642699 -2335.1969172470162
52772.781145919005 4187.507852708747 7554.742865464305 -368.4296664739661 -507.2899952509475 -2666.94141950539
56391.68754479128 4608.3370609314825 8339.24044823674 -68.45623379691662 -722.2418220633808 -3023.388523243517
57718.78424597843 5082.112253674593 8761.815978407058 -8.384688593744002 17.36139765419806 -3266.5151009905667
56432.66709288988 4608.821576853754 8342.274202504319 51.25151649725842 756.6596741006853 -3024.2319202431986
52862.84844844399 4188.851628736575 7561.872763827232 349.9194694740112 540.7004948795038 -2668.613216489347
47380.89653932059 3768.9388672245373 6552.146399034001 687.1589820512672 -219.25530498570913 -2337.7399960461403
40887.022328952415 3245.3970513549675 5453.648101662315 947.3446269749265 -1000.4235037590986 -2016.4557137932632
34041.29495755598 2685.570241357112 4375.081298509478 1134.599982658623 -1627.891744792945 -1690.71018690516
27068.691987485025 2056.6821877354414 3299.267523772631 1249.265413919908 -2085.478889922725 -1367.6242015227476
20464.56562251935 1849.2116954591045 2467.0829903784042 1314.1526190487043 -2363.2919499904647 -1020.917638256372
15009.52498094869 544.884342988289 1556.911029813388 1263.4261302720572 -2597.828749456814 -832.8019383813435
16849.665854805815 9373.255235944427 6010.525180431112 2901.6033487916598 -3473.7075746717874 -611.828194075052
-259.38821956665544 -32814.79256444316 -7488.655453391119 3784.0883522609734 -4550.041037756732 -1268.4773944136723
-6877.611872684427 -29845.145504621694 -8998.409488155645 -4040.736593527083 2144.3365305708926 -1880.0030274661099
6554.005634713264 4779.406634489003 2691.699591118438 -3348.1013574113 1795.5179567112168 -563.8966211414946
6761.845840872905 -456.8623846220986 44.1521429968716 -2785.703361438598 1629.106422758592 -988.5082829083357
12236.799908319974 84.97942767318905 840.3401156853262 -2821.4239575969837 1440.4085619262803 -1281.8736253613738
16554.53928042065 -102.75746303458406 1154.9830410882923 -2757.9588547704575 1249.9845444503135 -1700.6726600626782
21124.17130530015 -97.10276249444318 1611.8348022384282 -2533.226938279894 985.0069882940235 -2118.2913006308722
25575.999731452786 -96.99627002517695 2099.648583398984 -2201.052224518071 616.340188769584 -2538.3067464290757
29764.64664884084 -134.97693657348697 2606.03870872279 -1716.5307377654053 161.30470977181275 -2971.7983099405055
33312.133917340194 -176.62371604393704 3096.0315642431974 -1013.9494177073423 -286.8557840747709 -3465.245640970988
35762.45262190127 161.85559091857058 3595.2916283726568 -266.8701852891484 -427.80055404569003 -4084.2494780659063
36913.34946281886 1079.0206159539223 4088.6481386145742 -14.949602963209962 4.158792545443793 -4564.353387725327
35806.87521790454 163.80965574917545 3601.495816842065 236.01892998452385 435.29006854563255 -4084.337980644265
33408.2720487483 -172.54913433257704 3109.165701874741 980.1942013926079 291.83396952475334 -3465.30959748565
29927.664698071054 -128.4397572226609 2627.4846327112773 1677.7609554052644 -160.54609965590413 -2971.597791939257
25829.865692461804 -87.64430098065483 2130.8662125056044 2154.9162455194323 -621.7114232721408 -2537.345821615567
21503.323333731132 -84.92895284669649 1654.3397398524123 2477.10003102784 -997.7719204227946 -2116.1885901768983
17101.517704516336 -89.80001972473585 1203.7357218046234 2689.1015806338673 -1273.373023212434 -1695.1997763890456
13029.622445769124 113.43823656516876 909.505472757306 2728.4684127191276 -1464.2483166222194 -1280.7576079914131
7872.845577801767 -433.59633292478634 71.72773465338221 2642.2337438814425 -1696.5068809704458 -950.0183349132566
7647.571444373604 5014.461787843666 2804.2166883417453 3157.9607364120147 -2053.2759162513207 -808.8247569955661
-6375.873679704287 -30821.26213181345 -8651.360829383862 2528.5745081532905 -2538.987887807023 -763.5923618929525
-5480.663449746951 -20799.857752875658 -5677.099305092162 -4744.076177414998 1305.7412937493452 -622.6555538892127
2249.070946492522 1458.6837893133427 1218.0911629088212 -5438.415450762359 1021.8790679364448 -876.3682484419563
2375.1207846184716 669.2209846749564 115.69423507659702 -4743.572442972639 805.2738845158831 -1128.592314338779
5244.1500506442735 -111.0996300586586 155.6736651583097 -4824.403191877419 653.0466271197085 -1634.9135752919976
7864.939882424549 -74.38096639354332 444.44082004112266 -4660.552444387167 534.099376952434 -2157.6783305775907
10200.754736682271 -94.47435161754066 657.31608541789 -4301.913506156028 404.19253375149026 -2706.820161538437
12526.323051043953 -79.73215509954896 913.8116154848503 -3768.6344686126117 229.88077199949305 -3260.973078248955
14761.778864241263 -124.33903745158375 1186.1198066109737 -2993.6400252765775 -2.2355762406970054 -3845.509860476099
16666.93350433251 -191.49351788403217 1435.2734027119718 -1797.865403704889 -297.29130191081344 -4533.822027826347
17962.3486840556 566.1644240966002 1828.27366886071 -388.0333863810434 -454.4172646434059 -5473.593580149125
19152.48711061629 3021.4686663551292 2777.2879808724406 -23.889640486873162 -6.391813771065678 -6358.422822539238
18008.211056705495 568.4585386581052 1836.9127467891 338.66911763556504 440.3715515672136 -5473.100404478815
16765.14621526093 -186.75140801371404 1453.1701025017505 1743.6526226040855 279.52250606178666 -4532.687965439797
14925.358942842204 -116.85795251520801 1214.2756164000314 2931.0036049223604 -21.502966103716016 -3843.3786943256064
12775.043846579401 -69.14383716344238 953.2284350574977 3693.4380043610618 -261.2449596913845 -3257.267944391497
10560.556822275536 -81.76835341834816 707.2560095476483 4209.285186259659 -443.81584071934617 -2700.2513998958602
8367.462715978932 -60.86461475785807 501.89353070393975 4544.413804019182 -579.9598250749389 -2148.0507135796356
5917.737698972296 -99.49711463699616 207.47252178985374 4669.246328473045 -700.3173001839144 -1615.745882286528
3049.0094995681484 678.0887817968224 84.71308253588056 4518.104020568744 -870.8417673329819 -1132.8293066337123
2883.6119328487475 1932.1122068375146 1344.3260878620013 5137.857477513018 -1118.9930574287005 -889.8253231487085
-5454.52748397269 -21580.191370389 -5799.892682185393 4484.226291182563 -1432.8009734913705 -595.1021551596476
-4009.730242356441 -12568.972054885404 -3002.5470500492097 -4387.075480399154 589.0327366928126 -219.57580256017624
-701.5017698052628 -291.7240165312885 468.64484609798734 -5751.275506933256 333.7308971991468 -761.0743558513946
-1623.7664169042632 851.7378378949664 52.281904149164454 -5774.352129722675 52.64079666539882 -1166.904998777567
-1280.449404995448 64.63043051387291 -202.92194702587545 -5512.597546475532 -87.49961124753587 -1719.1692628755875
-774.979255400691 -55.737638898020336 -132.36312073604742 -5285.971579696027 -128.95059526021865 -2290.201822181015
-512.6983435800659 -22.673487016965915 -70.05716711090884 -4876.288029252327 -140.25445642620903 -2872.374120829639
-267.07823439108824 8.529667647405326 -4.613648589722819 -4280.888154208583 -150.5102928355781 -3467.4311829661774
119.83792466487887 1.7168214488419054 97.92616482694935 -3443.8342780307635 -189.65144288199963 -4087.253165109295
472.3312156865285 -183.43921161129043 119.92812238665348 -2074.3298540936357 -367.14780842688384 -4798.158313837775
483.79690790898735 902.1549585608145 334.578711301421 -128.50656486319963 -596.8376498372116 -5818.3315959005995
2180.3813698477975 6399.210933842296 2275.52725237317 -26.82258141089523 -15.87335070674247 -7132.992854179685
530.4870675905833 904.8577744760181 345.59853562725937 73.03326674862217 563.4228186706512 -5817.658394926103
571.3140642201781 -177.93688932053072 142.50441567043512 2013.2647654120613 328.8675426391797 -4796.643738662973
281.8711885075379 10.18910393826857 132.8374784766509 3373.063477674643 143.82030260171683 -4084.513850296276
-27.07455420388149 19.98301721970589 42.955053462605534 4195.580036906743 95.61279545632406 -3462.7171275934747
-177.79128830548606 -9.648232744233994 -11.477660396053043 4770.387232870254 77.1351853254268 -2864.534720376162
-329.6407485799326 -45.16447165740907 -68.82491124305041 5151.1301464975295 62.61471991140651 -2277.228339518502
-765.1962719364071 58.07566889317284 -165.6861973006024 5336.3212133242205 25.763463561981716 -1701.185024776043
-1170.2024745058795 938.2539478824734 50.10608181699593 5551.926319066646 -103.64178954558197 -1157.0177727453072
-336.87551229112955 45.01113063436662 529.3330792440671 5620.278005496938 -376.52987667306263 -782.3928285102843
-4085.144086503063 -13172.415959029113 -3196.7609382494907 4345.1827019781895 -642.2319522037876 -344.154250484304
-3148.4623980927927 -6291.295604800477 -1108.6607185619976 -3334.2007675937034 -8.64734830350631 -173.3768971605509
-2958.2687792471193 -837.2784770137672 152.23914200031066 -4836.535151016532 -312.6650552173492 -590.5295818064416
-5453.636984888764 682.8317798345022 -101.84221179325276 -5313.257125143923 -709.3208367455347 -1078.798979812385
-7586.790854530219 157.76627259026725 -532.1904191711923 -4951.964607661647 -841.3917506082051 -1619.631154692403
-9378.573564395163 16.47415194490748 -682.5097010734544 -4664.921451747827 -801.1317676646115 -2162.709648686716
-11235.982892194841 50.23277631077393 -800.8509135699246 -4299.129535768731 -687.6393068773478 -2707.291302502148
-13082.930564078328 67.25072455510583 -939.5241622493127 -3774.9981397531365 -541.1809838273222 -3266.8460025241416
-14568.48308296405 193.11746822295214 -980.7622589623304 -3029.3232380610884 -367.1107526933386 -3828.7789664867128
-15644.204983806134 -126.99852359628109 -1146.8843201802015 -1925.48526013597 -326.773863162567 -4428.501295884812
-17329.820878298928 323.4549155798102 -1551.7940029540694 494.9635490590433 -667.9459282413558 -5258.754688174476
-14169.555870150049 11580.345841369886 2335.1890412377215 -24.143074112993542 -25.565173233767112 -6973.431225672138
-17282.077268181187 326.6303375695622 -1538.3117203436063 -544.921497037846 614.6970508474996 -5258.307208681968
-15544.015247362931 -120.61406490598853 -1119.4489891391734 1870.4239365945014 267.3917338867293 -4427.466715917329
-14407.404292672698 202.695883184988 -938.8390996838941 2965.4394065670435 298.37991982439195 -3826.825986812553
-12851.252263675118 79.61667525396808 -883.5022886936137 3697.9478579852757 461.69738227261706 -3263.342004670894
-10926.70237442901 63.73484168246179 -733.6319036432976 4203.125311011287 599.653640084663 -2701.1306117227996
-9001.099021933358 22.980874638607368 -615.5271985502986 4541.946444651133 712.9647923985414 -2152.4176648584357
-7200.3142473968865 158.74808889264858 -490.5357279193953 4794.778126739058 768.6224505372675 -1605.6751855804484
-5151.270040842733 765.8968347023531 -88.8362143503808 5160.912508572533 668.6258716295758 -1069.4104923641871
-2758.135647390046 -650.0273173065181 171.4775668133109 4800.452903022922 296.0682404954394 -616.7112464171648
-3210.4570305329057 -6653.38915954534 -1251.4863648137755 3358.0364580429796 -9.36363987298283 -289.88425112181665
-2932.0033359764743 -2517.622025709357 18.916685118196447 -1846.0530574344427 -533.8766791313873 -254.06926041234942
-4744.620980607289 -782.5695102148893 89.19145409410828 -2786.5521983194944 -973.7046098812391 -423.924393419975
-9215.654857039857 392.84919035348935 -354.75263717539275 -3192.020458134166 -1552.8013123260894 -847.6241361695941
-13878.438849536304 167.99091050263746 -977.3184939145629 -2968.275434137754 -1677.1756529712297 -1278.997724790113
-18108.02613173069 56.96469032942905 -1400.5469813221225 -2763.1450690839556 -1539.3002466152989 -1699.2534666981023
-22176.618063549173 61.21859563297543 -1762.360212813827 -2533.256445213351 -1281.5904508349972 -2117.877881204878
-26102.89476000871 96.12031251027776 -2115.746887236958 -2207.6797162753223 -945.3196316103406 -2541.253613394977
-29878.557993710023 56.70609194707893 -2527.5579289215243 -1768.878155974157 -559.7721921506765 -2970.993660425789
-32030.100901449343 623.6081981338607 -2463.2094934820007 -1026.3697069254677 -5.830137140360346 -3329.6852857482136
-36159.50224454622 -2181.69049856537 -4536.004161866024 521.7272215974531 -260.808229884552 -3804.6793931027946
-29930.725900630234 18487.6115169502 2517.893155076691 -15.275086109910188 -36.766563071434504 -5056.359594268522
-36109.57758146131 -2178.0389148838353 -4519.835689954259 -553.326821910899 184.58340152769188 -3804.8207222065703
-31926.423572284875 630.9040235187477 -2430.488288372593 991.5800948673607 -78.16227935657383 -3329.8941589527867
-29714.956163203085 67.47785289255147 -2478.057457295153 1728.625818363586 464.0367001234184 -2971.0845895905913
-25874.637806745388 109.70513541562642 -2050.6715258961194 2159.3697265242995 836.340633479752 -2540.8380728290144
-21889.02811244469 74.91561185834668 -1687.2228988391062 2473.558650270416 1162.8365736890394 -2116.2399878144324
-17793.04349065901 65.06090785638636 -1329.8526134214537 2687.2559532493838 1423.3135851662862 -1695.50479990173
-13604.89959058342 177.26119410238346 -932.3999740924502 2876.3692556735396 1589.131912569596 -1273.244087928411
-9046.170924066777 450.75685354040013 -340.7176628115778 3117.910089116321 1519.2386737385855 -845.1628850509527
-4670.388631179958 -696.2550185873312 83.9954912878916 2785.836206399838 980.2127905441063 -442.4997830186497
-2980.4600679439613 -2674.48108394986 -61.04205034430271 1870.389130894372 546.7216804306579 -329.6079023789489
-2561.095838007666 -1087.1523940691754 793.4088175168002 -910.2264577988561 -1068.8117311655626 -306.6422761595699
-5750.571103409373 -704.504536243632 248.15889679809766 -1305.2743709096685 -1729.0581763398218 -354.5526788904344
-13169.883786785895 -555.0955300421653 -1039.4516518323219 -1467.502568159754 -2565.6117667464982 -703.9199964902917
-21156.460030527986 -1438.709489566497 -2482.531480275048 -1410.9988052713256 -2678.605714678922 -1047.6263933195735
-28132.57423855492 -2136.8173851922406 -3552.8651377623805 -1312.05587959765 -2414.4519749796277 -1373.5293376280226
-34727.165776475864 -2710.5647290969537 -4503.514441368554 -1177.1353472678659 -1971.1386841301835 -1696.0040465625605
-41128.11090682536 -3206.4445537059682 -5428.312542525821 -1000.2285933572837 -1391.5932550405405 -2023.0817924811035
-47335.69088666277 -3944.2054063996525 -6485.584066132708 -733.1728021264271 -703.4531363837714 -2322.2139906829175
-52868.899498326624 -3677.277890567817 -7246.1130756457915 -358.7838641623371 284.8731049745332 -2676.434725666638
-57766.06887977434 -8732.231498849056 -10185.96666507883 997.12582779503 2068.504339957953 -2403.623421817386
-46723.22302097182 18469.33981892044 -1113.3969238572936 -9.870120092709755 -51.123628845766504 -4956.960001265647
-57711.003505272434 -8726.533303947876 -10165.957371368644 -1017.5160680804348 -2174.2423167555185 -2403.911862275143
-52755.88461629077 -3666.1204441707364 -7205.971222138735 336.45911563221193 -400.6827755094483 -2676.9293680459477
-47160.926272919496 -3928.3353222874916 -6425.793554468889 707.6706297461924 572.4263427368851 -2322.7278273936295
-40892.12898919956 -3187.913922912161 -5351.833752400551 970.4312389549435 1243.4084659112807 -2023.2759455435748
-34448.214795806474 -2695.2776053302528 -4420.336473830129 1142.2184852543737 1810.3506580606997 -1695.376143518088
-27870.891181207167 -2136.380835483845 -3486.941594065164 1271.6432089524528 2258.394721909384 -1371.7386150504465
-21016.1936518481 -1457.7878743552108 -2467.6984477350793 1368.0302840649695 2564.618818744094 -1045.3912460848944
-13197.913713923022 -562.1220483658674 -1080.8963161364024 1436.59124851739 2537.7546259041947 -705.3608236978558
-5842.7608599894675 -697.9768824807906 192.42283985113403 1307.1317050401885 1770.5143427392036 -367.31498399343195
-2674.0694048466985 -1182.5921426883597 726.1321718380078 917.6067801175496 1127.1800316498848 -357.0375056290973
-937.0541429835288 -20833.348318045963 -6531.120738308845 -3238.1322823337905 1727.519660049354 611.0973514523268
12281.296045227717 5905.713183465037 4302.3544644036165 -1447.5762537358642 1864.0205426620444 -191.5370871815677
14263.988144108047 714.6511041495586 1880.4735879023758 -517.3100904971507 1748.3968038768176 47.85473857981768
20196.497880851406 1751.4471567038115 2866.9365990836604 -562.2996289727231 1553.6106335565312 -32.73130228327399
26699.429393771912 2057.5481438757847 3832.5225257428738 -558.4496021459337 1185.772384819242 -3.3590331169067973
33413.58648084978 2627.9488084538616 5039.652601513819 -572.7194038398256 709.244077180053 2.285023604440397
40012.639005042365 3165.7830474500784 6336.851785374341 -585.9744321412596 110.27533725034945 10.722811406218684
46516.558535529475 3743.382201369595 7813.691393235057 -617.1679356323644 -551.3074051008364 0.849703466162743
52916.637299468675 4316.175646384754 9527.618696954689 -648.4748273032734 -1066.0734201613839 -69.58530734853876
58457.09269123929 4568.151209463229 11180.841476744668 -522.1479543905658 -974.1009884093761 -267.29765272261267
60707.863066066835 4242.126250256488 11802.289615649135 1.7576455272932137 9.222033880145755 -474.36254240989
58469.295529576186 4567.471967847556 11177.40709988586 525.6358281425611 991.507771226738 -268.5144293006394
52942.76312566311 4314.840568143763 9519.847089129065 651.8338911290533 1080.2135071389173 -71.97583961450022
46560.81040367308 3741.5172031828615 7799.685587549632 620.1311713577331 559.4176109389537 -2.4827329602440127
40083.792571638616 3163.939085395503 6313.76574489863 588.0472675310773 -112.45750990342994 6.758280302550739
33527.937190114964 2626.9324761905677 5002.841822590756 572.833005864159 -728.1920787398931 -0.2094190199378776
26889.910583435943 2060.8108517096916 3778.2960274358697 556.2484493142676 -1235.9663986688693 -6.864389658032025
20509.351631449263 1758.7431351449552 2779.105175294217 551.5235344812578 -1640.0902062961868 -12.694704047031195
14881.157007486694 763.0953963800085 1819.815706328849 497.3143726004907 -1974.2670431747126 -9.44960522292238
13733.197312461403 6091.100594538562 4317.227814465568 1435.4381223866678 -1668.1035872818534 225.94743913519002
1917.13371565302 -19732.88730828289 -4648.599559135215 1913.3411527333972 -1409.2364941165815 -1125.8213708374847
-3082.9596393411016 -19022.928283195422 -5764.6026286312235 -2077.9968741448247 290.93835133394043 -57.263286991679564
6461.304200316932 3148.282049631321 2273.50162808835 -1805.288530280636 626.817816998022 -174.07304766554114
8134.380785023852 -170.49303225174 731.6256388094819 -1421.3492328741872 1066.3747174353034 11.428860369251986
13063.992231278147 197.63453465992478 1449.55922112797 -1475.8382521200272 894.2360873065675 -15.392998124741974
17202.750656220163 101.86301642152475 1900.4473009371204 -1519.857743239413 666.3651908274522 2.4196637911291474
21513.64562081904 126.71721752051698 2510.41970856342 -1528.2235764982738 363.1419516278726 2.966236746987504
25757.04468207292 160.81685099734847 3207.2517333973033 -1541.3758779749605 0.7146345711737603 -14.584927649080889
29904.028283769236 233.01011203724792 4025.3544012929765 -1582.5182852695052 -388.602270582889 -83.74352946392189
33869.54608888014 254.7925246801941 4954.905057117776 -1640.7134327166214 -690.0434870765697 -284.29175044344
37042.93574244587 -288.99174652860347 5670.160997788291 -1346.2082169296973 -635.9562348795403 -721.8599369267705
37991.20344115992 -1536.3266578590071 5601.687276482731 2.5443436816909486 -3.552965393371284 -1157.6523378770423
37056.74195051919 -288.44713484821216 5671.717957653826 1351.2187181944544 627.2333249662804 -722.1218730895529
33898.65535972501 255.8644128149438 4957.107141633734 1645.3883787419481 676.411645592566 -284.5256885274045
29951.976982055276 234.61372153807454 4026.207366539475 1586.2655059700783 366.50005398197084 -83.20275063155697
25830.670408147867 163.00173913236162 3203.222500503388 1542.9908911991843 -35.36822017586095 -11.773129113086059
21626.333196033334 129.78710248860833 2496.3610560084135 1525.5702312864912 -416.20828524919494 11.141401100455342
17377.191052983246 105.33420683280578 1866.8359329062762 1510.0577131379623 -744.269103181259 19.497167646762726
13358.149102256353 211.8505755802013 1396.562642891947 1451.2085629438438 -1015.2519303792936 23.28144293832455
8640.286940190337 -162.5952803589234 636.8729482814452 1358.4230486485494 -1218.7324118002186 46.201972612867344
6980.806024852425 3207.0173896537376 2170.200417961554 1655.1771289615026 -667.234704272392 126.73136342990793
-2636.6777090730607 -18990.651965724697 -5603.222598437746 1233.4586444959812 -199.53968022391211 -1187.6198349050906
-2863.477433435911 -13814.565627566266 -3775.3367807932877 -2742.606481302051 -46.132601787933666 -1145.3851479325822
2819.840715835914 1058.875834351143 1229.4931200059627 -3135.1736823261754 143.28315592136124 -172.13997895330573
3699.0582554603748 552.6395345327667 583.6779503471671 -2592.7014528207133 430.308260070941 -52.48699497267722
6281.859121227375 53.23640131188684 680.0643012803265 -2666.2966491741636 365.4788342322825 0.7281609422577384
8603.332067341169 96.88846124725545 968.0348341282993 -2695.193449508952 231.63459193868133 -0.5688984830899995
10734.829961531006 100.47260859864215 1248.4361251773526 -2705.733259027935 78.1561650143309 -17.39839308809458
12838.97462733628 125.0780290115696 1590.5277946747456 -2712.214153791733 -99.23052802760228 -76.56782162762993
14840.174815682873 218.84708932254097 2001.4037989873827 -2741.6825627523913 -300.6753791854497 -224.68580815879992
16805.002200124487 339.0675597911872 2503.8548523885843 -2836.9596189066924 -521.3855613317772 -572.5900379847694
18522.33604040421 -570.6449907249627 2732.4428260368054 -2453.770222466751 -579.4478097618353 -1296.0206495536966
18395.888179028756 -3531.9877049159686 1854.1541799955473 3.732082403601672 -14.884428738635897 -2132.7028174291713
18537.144799085054 -569.8823941983926 2738.632078742402 2461.090438029253 547.6026527204347 -1295.4143002885296
16835.72544067494 340.55585330887783 2515.376622853049 2843.6789953844627 483.3594233782011 -570.8471883606323
14889.262924359979 221.0043783661808 2016.2584428705743 2746.7875784910193 252.53807511819983 -220.51719017643848
12911.128802457475 127.94462146936166 1605.1286397282727 2713.6173601985734 37.33296937850268 -67.30769354932545
10838.758587028275 103.7656978348684 1256.5897350533833 2699.748016863496 -157.01242697391578 1.5735765191964055
8756.991443308038 101.36199124528248 961.2494013294024 2675.9372931936305 -330.7529844961393 37.00389318295211
6524.330617626601 60.29246978275704 647.7444447444665 2622.462406918598 -488.5335772702338 63.15602853051527
3983.481692813446 540.4422529879351 480.13462695523333 2490.1584035605692 -554.8258011535532 72.97894801978582
3099.9940529032765 1275.5398834120406 1162.4525975664305 2927.9459654704924 -168.7130476217121 -54.41905089636353
-2737.881224026728 -13798.104077568443 -3854.3919916583604 2505.013180766643 103.10005262622221 -1605.0722281944486
-2376.8516520461517 -8741.658474094673 -1908.129886123666 -2593.188025967242 -148.94307386986105 -1255.7994823622387
108.1075563133482 -180.80830898430355 669.5758249064922 -3444.421460596497 -142.23607216291913 -308.7771527942528
-400.0146012136075 613.5393786797364 344.96018469657236 -3275.0738973818115 -88.9870746254377 -77.90735400664384
-242.3416342608195 68.52788378509796 72.06205612705433 -3093.5721458178496 -124.39762704059406 -19.272573635392604
-65.14545321605127 -18.192498440987176 43.100297023137855 -3093.132385104452 -167.09762276131798 -16.514916798840954
-47.275484140899124 -2.5041509030312543 37.992529696418515 -3100.004148555818 -189.6349352355528 -48.95334623588899
-75.8619682489624 -17.13846113314483 33.42065344513078 -3107.278947336834 -205.17317794321932 -127.47569565559664
-210.64139294129984 46.42041099034423 38.395520811516406 -3085.867305794859 -245.0567265916304 -295.57010670299877
-179.526301453707 351.07524331548234 170.64012828563338 -3184.6046686736495 -415.25849676884184 -656.4290891316971
412.59717103420473 -822.7873382599331 42.91853297380844 -3116.9938369998536 -641.8883239015449 -1444.905492892721
-1165.8073110589642 -7012.682194091302 -2199.536537607203 4.058167311476181 -25.64081250914881 -2738.2300117029386
428.33354594550025 -821.7705613618756 53.815472383046625 3124.9484498696684 588.1091466464036 -1444.0472637058142
-147.4328026533122 353.0659883233517 191.66034083387336 3191.8843519598604 354.1667138900451 -654.1054453229235
-160.9668313768136 49.32991563447622 67.64768011450047 3091.3309851094455 172.4635227536069 -290.29304943837434
-6.561906688043464 -13.363037510563288 67.21032165893574 3108.5529110373855 118.22077011525256 -116.28540931345682
45.57247971735886 1.9530664550966392 69.855481334728 3092.6632986384325 87.74070335951549 -26.21168314067237
62.026521056437076 -13.050303125919893 63.44811512161873 3069.677375042076 52.71539951841699 26.947904749776978
-78.37291184224568 66.89721683446658 59.27668999896024 3040.9547139310844 4.880216442553437 59.39690672756387
-239.95659243477613 641.3198344264875 279.44141640626225 3169.5262670787088 -4.245612727780079 49.10800753062905
256.1166816032331 7.663335429685425 608.0145478019916 3333.789498067582 134.43977008270582 -232.1655675061175
-2373.7453244056464 -8809.326607893263 -2065.158388888535 2516.2638742231425 194.9530138724271 -1530.5870034913003
-2150.7754692831027 -4643.704695846257 -427.62253053896563 -1963.4061972745055 -251.26073010150205 -1086.117799659807
-2086.0736452222127 -648.0261005789425 444.33217966851987 -2917.903298119491 -405.67626956983 -314.87362417940375
-4326.610700143082 407.5322212529147 56.744646597285765 -3016.3901292078526 -573.31301502516 -80.89383397345995
-6599.456732056291 32.95568389043073 -509.8644718217528 -2742.1035108121146 -612.6738458010583 -9.911748770119694
-8710.036451782638 -96.21314881743145 -866.0604690329327 -2685.3561964886667 -570.2577810712272 3.5779810929568727
-10856.936847555642 -117.72854089901078 -1185.9041093719673 -2699.4382441658977 -460.9760324538293 -17.82511588804259
-12958.011250342386 -122.42127140567693 -1503.3482632208631 -2705.8876617053547 -317.6216198806823 -83.22915502837735
-15183.126478207489 -209.67321985594597 -1924.2203254741428 -2681.7125155257177 -177.05115415333626 -203.13898547192517
-17231.156784082443 259.54373801014293 -2213.8168645952555 -2636.7225098758513 -221.10646740446427 -459.09697639798316
-17421.593193466248 -143.44955059612585 -2339.960370901107 -3333.5255252222073 -683.1581571709198 -1056.0869460271801
-21462.545665492842 -12151.913238533147 -7068.622736506626 3.821320376687888 -36.62697187096117 -2863.9456165341303
-17404.89501838947 -142.19784055398358 -2324.2961646996187 3341.047346113334 606.948483017186 -1055.6089265147448
-17197.62630350295 262.0138619250794 -2183.1511139944123 2643.714290979323 136.33786247767398 -457.61167587837656
-15132.783718114599 -206.04324310772 -1880.3083863153172 2687.2115629292 79.20644444548205 -199.35475154522584
-12891.543645254991 -117.72188452928961 -1449.92551151007 2707.8211360852897 204.5365004871798 -74.53189698973691
-10775.350742394881 -111.97032293345275 -1129.7465552921497 2693.702183064665 334.83635581367537 0.7658719360677937
-8615.14638777206 -91.42665129113266 -819.5694980330765 2664.5766637420647 439.8517538713542 41.1725734936329
-6502.548475921004 36.5615662553231 -493.82953409814655 2694.1921925577963 496.4317581336332 60.38908950764688
-4250.202844507206 444.4275092256582 28.175441565912166 2942.291682512067 504.0643909801178 22.077591289781488
-2022.5509811240263 -531.3976717732503 389.89848924932454 2870.3888557204764 408.2249719897228 -262.1618929672174
-2183.003960993235 -4718.071743481033 -578.5243132120481 1945.6646497517484 289.1792148489044 -1268.3513099167753
-2301.685576636726 -2059.1566962648644 560.3611264788617 -1026.7642914995943 -450.2864112508462 -705.0366459635261
-3934.6761092340166 -669.5662957291828 428.80698485672366 -1631.3473830977196 -750.5955818495939 -214.2944672545418
-8167.948625974861 175.0061110239153 -256.7755371966578 -1740.090009003785 -1108.4246336573485 -73.86422530970141
-12885.484457720479 17.945843703737637 -1116.7591985420324 -1560.0733116702581 -1150.343952800041 -11.682878338802743
-17344.23732978162 -96.4278359563391 -1814.3977800223688 -1509.1201473329565 -1015.0354790498166 5.398607457506168
-21657.76581486164 -135.33885817208457 -2457.7120123865734 -1521.1774001218628 -759.653628956439 3.0370862070097546
-25900.419015980573 -167.15435930122175 -3131.234223552969 -1535.3095187453532 -429.0393891079615 -19.113790839991818
-29853.52947649766 -97.44259100279633 -3787.5226585247206 -1506.8074439417016 -92.22045479504726 -77.38864619940357
-34493.360912749326 -559.5365871159647 -4981.79478016503 -1554.36200590536 206.54965110457576 -121.37969801505389
-35067.96481668116 2507.8136878749347 -4285.411034553723 -2105.4175051519323 -431.1067519681827 -394.68802899706645
-43490.92705846663 -18732.643818251272 -13322.6722653939 2.650154368194375 -48.65152703718245 -2108.22629467497
-35050.169497841496 2509.2443094455925 -4264.938259372355 2110.6705689249734 330.27052848862905 -395.1533386730715
-34458.05418654712 -556.7001541173396 -4941.3893251247 1559.3725005833917 -317.5619399238016 -122.02150347093718
-29801.81620940348 -93.26884808482636 -3728.787603954066 1511.0467664904886 -34.11744181240654 -77.47985137039677
-25835.285391700967 -161.73877331164462 -3057.900456780903 1537.5642851008542 285.5201759958035 -17.14989186339653
-21585.813082214085 -129.13805104924285 -2377.4525218866265 1518.983359084219 603.4658166987018 10.083295993679947
-17278.52985938229 -90.74062096186763 -1741.441012569921 1497.61068707157 861.4376603819708 23.56466630537285
-12844.988307618927 26.22353367996298 -1071.5501589297419 1532.990698689393 1028.9229428901258 26.601603871167864
-8159.594824571168 205.5610098966286 -254.6704610546902 1703.6088920930829 1055.9053016158389 -17.655674443012447
-3935.9988163502026 -614.091736663894 386.8147874367506 1615.2259323784463 767.2593833269065 -186.79867290608527
-2347.1377989404423 -2105.899340427677 443.3199229514791 1023.0449154035701 493.248818846478 -809.3286663991499
-2470.8176762765324 -1129.095902490556 1187.353938899382 -393.2688591243358 -860.8680493123111 -456.9307778005557
-5422.117281485831 -795.5193325870422 490.11696372952713 -638.3965587007996 -1292.9062378310841 -148.97768541283412
-12331.014886918001 -763.9993758358617 -950.43037805556 -626.9559073554475 -1799.3025699917393 -80.17784972567011
-19943.188055980638 -1466.5104298306999 -2513.0465152599786 -568.4905933436755 -1814.1550793848517 -33.214037418296556
-26905.00912007538 -2091.7303068924725 -3796.8370524445995 -555.8291515311544 -1559.7847630106633 -16.526107434023203
-33581.67317162591 -2630.2320945809397 -5002.285633648441 -568.7666907870332 -1122.9688765842982 -5.3591835952307605
-40188.61632301743 -3208.5006678498794 -6284.930449742469 -576.0118663730725 -564.9740777200852 3.0496092419343235
-46405.0813514447 -3504.2970471760555 -7516.606079886557 -602.1273225532502 52.1608999756597 1.5347011496555645
-51975.82885395146 -4686.697889430342 -9068.582087652809 -619.8976729474866 687.5128897952693 11.219172653421019
-55606.78060684344 -227.06221129639312 -8984.361948100384 -1502.6782074015819 1025.6606302220296 243.0050505419536
-71842.2200261831 -29422.838743813692 -23895.148946191443 1.2721975967352037 -62.594442132099175 -2241.689680924595
-55587.248110507586 -224.35089292915586 -8958.598973380498 1505.2258605235804 -1155.1690413863598 242.1322336913095
-51937.324189794956 -4681.311276974401 -9017.481502672317 622.4153405632586 -829.470551337767 9.623482389006945
-46349.4300811401 -3496.362021310789 -7441.642087022318 604.4382799792578 -212.8868565504239 -0.4051506880763114
-40120.45536511755 -3198.3869689235325 -6189.976126207864 577.6501593151032 383.19265006326685 1.5443401020515637
-33511.982482689644 -2619.308487453596 -4896.217018316157 568.7436017847855 925.8859614024659 -4.839096756572786
-26857.412283680133 -2083.17738488654 -3697.3908071541773 552.0545491050847 1367.973082742614 -10.770309784682834
-19952.16123004149 -1461.7211932581927 -2446.91102864761 558.1698586049138 1669.7949440914974 -17.333681855603427
-12402.569782711535 -752.4864151238461 -937.563985274093 611.8911689760924 1756.329666014745 -55.98676226863715
-5497.237664642316 -777.660761322584 454.28577265184543 630.8433677109196 1347.2332050283062 -138.24004278636534
-2549.8256401724198 -1164.0975298700669 1098.3818293119375 387.1053721240247 950.2822580433337 -520.0277761942849
4314.5198604529705 -15819.665488107083 -3451.543688296233 -203.48077332391918 746.415700589404 64.7699884201852
13726.870187772089 5635.400991085007 4730.709085779352 -1400.0805417087158 1017.6409482711657 -77.65736814451304
14221.660995337577 695.6637428240281 2416.32384163551 -553.9797120329295 957.7473993954696 75.01353242027253
19791.701258147496 1509.6638878436552 3419.8858404833823 -633.0284334337827 800.6041772670877 86.55781715612274
26054.681230831542 1808.2918404357401 4684.819079592078 -663.337572348029 514.8152928743502 119.44768323123532
32480.15851846321 2312.2907083619457 6269.808117831475 -696.5005542009171 156.90178195308332 153.46479118871935
38969.84477000907 2816.4479130800923 8117.680588218391 -741.2343635268334 -247.6287451154951 185.32938257460117
45896.170402890864 3434.906659251335 10397.555919005308 -826.3711982195127 -634.0822981868795 199.66375011648
53736.2782012036 4126.249440036987 13229.30273342321 -927.7554547563215 -850.0966941478844 168.20276213475748
61464.96733833337 4352.200208091304 16027.743874811158 -779.355079661982 -659.8237400373259 72.84682242721439
64793.394550932586 3763.5653181203447 17088.028776445113 1.8031706259024318 0.8522404640884642 -7.99923323247207
61446.02906369737 4350.07998274233 16018.97689554862 783.0715111882402 660.548019964137 71.81258056580336
53695.08869276433 4121.778968851434 13208.93810671305 931.8125833660187 847.7722952413657 166.1466334511889
45825.50050564787 3427.5849742829187 10359.372164622117 831.0544866992284 626.1656554389077 196.69007287255488
38856.98255334891 2805.28031287995 8050.801238682203 746.8569194238356 230.15420570355073 181.74592031349775
32305.355987279807 2296.2783553210784 6157.768281720924 703.6983080187628 -191.0900072428608 150.37044911038586
25784.93433755108 1784.4244582104404 4501.295960672687 671.7257157805926 -579.3537435332192 117.64068838888343
19384.517955219606 1477.5593348095808 3135.5999095468123 648.3991457455561 -911.0052978634283 94.00939559444423
13479.324461003114 611.6128274023773 1914.1408009402978 575.9208635359246 -1128.1090573857139 68.91347783851614
11855.70419799532 5264.035901130533 3764.6344393824693 1368.2169031467804 -1026.8931993565388 55.467355466930805
1142.8238738523773 -16703.005076518217 -5871.7249488534235 1757.3260206153066 -907.7302765735922 -542.1320661527698
-2086.43025721032 -16175.727639139257 -5637.532680283857 -347.09078960323353 395.182152605428 -193.4428142152853
6784.874988322573 2944.03521202278 2424.4383243540547 -1588.9441692741198 479.05789160110004 -162.7342254364718
8523.357025927042 -211.97796005147208 1208.0291246842855 -1432.8058122316954 599.6826378202041 18.00320373680276
13005.347511406657 40.2795763666734 1979.5362274957172 -1579.1638312813739 501.3726957365367 45.4916321246338
16942.291638343697 -98.26812214777563 2616.063763370342 -1669.2752332138348 317.59823901568666 66.45940042920002
21066.06076916597 -127.12929966003416 3508.24405435985 -1728.6677674833522 84.91044833786668 76.81173677708065
25237.4170373489 -142.88042806739995 4590.302416710725 -1825.6735974146582 -169.10396494090554 66.95953663639848
29647.09074269086 -83.10936946068799 5944.814391243772 -2026.4617721907393 -403.6310600323251 12.049746786407166
34445.87841763615 -111.57884292103887 7552.5008883962 -2319.255918912652 -531.2613461815126 -127.66801922837648
38743.60037095997 -1103.6117703765838 8817.291918840368 -2032.5107366699242 -414.33091122607743 -361.4099146082196
40070.922403559496 -3112.0507156104104 8787.527523417295 3.497266059399088 -7.6517875801756805 -528.2466220556578
38724.22803464298 -1104.3785765360074 8817.56624974681 2039.8254590430843 397.578895134264 -361.65548607456253
34404.30883649312 -113.14524438999462 7550.814637932387 2327.5857749613388 510.10567264697556 -127.90394963540328
29577.31068147483 -85.55202431858955 5936.139719871435 2036.6865741861716 374.8341949092194 12.483925181178195
25129.48030188715 -146.28103994339693 4565.79410890802 1839.0049651967165 128.61799076213737 69.46570560994947
20904.199732986785 -131.50456570421545 3453.342450650272 1746.8265030544862 -143.25271626657653 84.1112156628447
16704.332012684707 -102.58543153593708 2509.929043258792 1694.2127139407723 -403.0138773076554 82.89193211537378
12638.260692337955 25.906520666559565 1779.2483054722793 1617.8826984160453 -627.5440308350494 78.46464328157332
7926.856249032047 -227.82298653753796 864.3803172565674 1507.554465771393 -745.8660493420514 69.35176007658531
6157.177144914067 2833.8303093881937 1883.65864773581 1727.305393624068 -536.2292332452151 -20.108273417660797
-2517.3786290559265 -15953.887042708733 -6452.336733166675 1305.2701599823924 -350.6564292766102 -701.2666732521291
-2359.1351552561323 -11602.738273623449 -3902.507756072927 -2249.543119040206 138.64466102296356 -666.9203109422293
3082.6843309460446 1469.261377975801 1387.8992590253845 -2765.67512731975 174.42224760004774 -245.96879924616675
3982.3721257473157 356.6081311720746 804.2977579486525 -2578.0811486055577 244.03041311678595 -62.683822244541844
6480.287143797902 -72.27744432544308 1002.2390733498424 -2785.7278336998133 201.45548488908628 -0.8974944840113821
8627.995543116638 -66.42307727670614 1354.6468563014078 -2893.7272129956373 98.00694010557395 7.64447200016294
10637.6355308016 -101.92710897937866 1769.6220408119723 -2996.353363752013 -24.618153097457938 -11.187407674145328
12655.656299684235 -118.34555215179995 2301.8630013690304 -3150.4701396223777 -151.7657252109092 -72.92041377928196
14707.443334236628 0.326284126869421 2987.5233021655426 -3450.42470823989 -270.1689518347417 -210.48825810349112
17067.620770515925 164.44318443028814 3874.090618011422 -3971.5126076801157 -351.25422741040705 -473.1954910470605
19436.113179551616 -1369.934081597706 4342.52974724152 -3685.138519232226 -301.63582963977757 -867.5639147686601
19244.961417506333 -5893.1958044229095 3120.8557185739955 5.64302973319607 -16.000853130676564 -1152.620439142949
19415.98753517657 -1370.953713100754 4351.149440539486 3696.957933733561 267.8113597217728 -867.0444664058878
17025.03381192847 162.40135449622693 3889.592497015674 3985.027972100283 311.9901852229355 -471.62474948442303
14637.668560348431 -2.733986446053983 3005.894449915909 3467.118753662858 221.90849084708807 -206.56094179665016
12551.215969656505 -122.44779585208204 2315.608051935983 3172.454209797984 90.89094184781158 -63.99682860769032
10487.804252129872 -106.46184983571104 1766.2237904194242 3026.6684433174246 -52.921576942567256 7.4827748089680135
8416.00614395 -71.2851433519279 1313.0753269531963 2936.76373355396 -197.61536737119928 44.15424527502906
6172.988783216313 -78.36558694574062 887.7350603289606 2851.4824689948687 -326.7171439489369 62.38152778232477
3645.463736822093 366.3289039092708 605.4524285238269 2696.7608617988344 -369.2274524570465 50.77176716107453
2739.2156409038857 1193.9383895969256 936.7937094532 2972.507504223354 -210.0405022364368 -148.78155096027123
-2480.1632461407025 -11431.715931016184 -4455.551132883787 2461.3012841023055 -94.63611907371492 -1031.5624639054965
-2117.408833511024 -7366.439312705866 -1959.4874647798272 -2423.6557833949305 -16.507927308947973 -855.1375369423705
330.32152102292474 335.8093285110192 790.0149331467369 -3242.027459781757 -53.061479688814735 -288.90421974899687
-108.69619938603627 552.0964997546463 421.4818849297043 -3216.3936060947653 -75.96137474802623 -86.49558093885713
120.51927796646541 20.729190433229352 138.8864111299068 -3204.500133600679 -97.48877293423581 -16.768318403855442
255.543592207623 -25.40384593915551 82.30043965472599 -3299.509630893909 -127.85097876842188 -5.180070147445848
204.5050467578022 -6.939027212882003 61.79167742162774 -3416.1467430556713 -150.30321818718954 -32.93809021882326
74.0594780153983 -24.575778874307158 54.81475412223669 -3593.477590494698 -162.35440472613843 -110.45304832247048
-222.34847364828778 114.0882925856084 78.6148141913078 -3849.3758377991144 -178.0510778343913 -269.2617319912796
-180.6809357945866 629.9059807170989 347.3933682800402 -4412.618079825699 -223.12228181845964 -558.7799669844976
777.8423059488498 -1276.421289721087 247.00458652201644 -4608.625087434504 -236.94330113025063 -1008.2362932209107
-1380.8205675303436 -10331.36478415066 -2855.5225240262066 6.394974678463157 -24.325950654748873 -1375.5860862210448
757.059193402435 -1277.7557852896573 263.99622076899396 4622.020946429447 186.12993069884533 -1007.4842622518767
-224.06775218336213 627.26026636205 380.135846961405 4427.938676815713 165.9628649575741 -556.6552419298529
-291.7739281240613 110.18194886861393 124.05954733406767 3868.2966210096265 110.80876054914812 -264.2499057639382
-26.120762992896204 -29.590329860384184 106.8992322672949 3618.402161526562 82.13346949156686 -99.5516230560727
67.87742361294477 -12.387655145930482 109.50394254439689 3450.7580049871417 55.41362569970425 -10.56776742343096
73.1223574779225 -30.212386230642146 105.88053912457337 3349.701086129198 18.15261038660555 37.67757742808218
-99.33106759542753 26.104211378283814 115.38870024533007 3280.907462706924 -21.904192573447453 60.42319301702327
-310.85066553427083 516.4218695224665 307.1712750074037 3337.0904802120585 -22.859331457155665 34.22383186555609
144.16734905107145 119.52777401328856 468.24969572348465 3342.7310492822094 32.230629803360344 -218.13526366416366
-2133.390031811577 -7180.021543062536 -2348.33817164346 2466.17826716416 51.19511462219261 -1092.2654595292838
-2005.425478511116 -3905.208405260463 -268.7114573068379 -1933.7315358249489 -147.1259129323769 -803.5863201271725
-1916.0384221905936 -243.02639750001015 533.3120951144551 -2840.1173610670207 -262.6635070477934 -246.70867137953766
-4004.979191650886 459.53962596914494 6.849130820552487 -2996.003308239967 -384.88381129724326 -73.73167416322498
-6083.053422908164 99.36346746320915 -686.3331196251454 -2850.4609291609218 -394.01763273874025 -8.400904607376262
-8107.341717353248 46.98186953389922 -1181.5997223511688 -2886.699822692292 -355.09351327759566 7.995499512460954
-10259.116413414913 76.7965497400731 -1660.8404484926457 -2996.380917160738 -277.5949596563223 -11.349102269811127
-12451.415467524866 123.92154434457933 -2159.7513581604126 -3145.131585805101 -175.08722060187495 -73.79588616708965
-14998.580600563004 95.476692586414 -2824.607522004442 -3339.24371223976 -81.5583018890188 -201.90779196029231
-17477.88143255353 901.7948214582257 -3260.7527308926788 -3607.879865878393 -71.2715815932119 -434.4068726038706
-17538.665766766153 108.5162810463237 -3415.6029189020983 -4786.8830140683995 -149.31362903498737 -846.5901230639746
-22999.882293864957 -16747.853318424757 -9754.528123096863 5.662204751324227 -32.814704426693446 -1270.7426262645986
-17560.241171225156 106.85981599004518 -3390.1194453714675 4798.741738382985 81.16230464215603 -846.1376085021353
-17522.37056947526 898.51999837746 -3210.517221242028 3621.4330283362933 -4.2011154901752095 -432.97346070304195
-15068.187144791846 90.69399301884039 -2751.661538072573 3355.9551912466495 -5.203505455655524 -198.20598776594616
-12548.09229511301 117.94319728472036 -2068.6603020936855 3167.103210205475 74.77446134763207 -65.24204501944077
-10383.52083126932 70.24976206057215 -1561.015878817727 3027.049612298412 164.45753010507386 6.884444888625309
-8255.108668814573 43.59702174051324 -1089.2316696449666 2931.900566491499 234.51551592007857 44.50082353642633
-6231.551288233932 99.98553035758584 -626.9111905403289 2919.4795189972842 280.17516799923936 59.215447619220335
-4119.051855242353 418.3672682832715 -20.623574168572496 3079.725072928865 307.90610473733574 24.318719014540342
-2005.4391024143556 -368.70858483206865 336.4608802277583 2877.2240604087933 252.14649159934427 -194.3857121686912
-2003.3787455495071 -3775.6253479670027 -561.5479236836672 1921.3052920690495 175.32282177686608 -956.8383786116678
-2225.019582631232 -1738.1677789339187 883.3207777363702 -1044.842954815803 -311.9909244945688 -486.00393327677875
-3830.739603797083 -441.2469293646067 476.07464115889195 -1625.0703713797056 -502.5696298065219 -107.32489355205568
-7818.554207690302 257.0552840533239 -425.9668319996479 -1766.9731653845445 -708.2160305242594 -14.436459742097018
-12217.143796140996 122.71244459060165 -1518.2903864548716 -1657.2039642257 -692.2996053194228 38.16801551006224
-16466.246315493547 86.87842630024353 -2466.035306278487 -1661.5942664358736 -577.7490135467073 65.61033820366698
-20712.761722092248 117.00401720024823 -3409.5855344297574 -1728.2822365262773 -392.02446191344075 76.42241442360178
-25044.845032551806 148.60949010679283 -4453.539925773044 -1821.2299293237677 -162.71639322949918 66.3945126181855
-29282.053602252163 323.5385623886227 -5543.3602701784175 -1900.87041245679 55.58071720352511 20.984220927692643
-34961.512741682636 -180.6596167765997 -7390.987035378345 -2113.3151335433363 171.05479446947032 -76.02665126297049
-35748.738988516874 3858.7658612822256 -6513.516944572311 -2870.8885771868117 46.92971666534669 -336.8981468826366
-47142.85634998142 -25003.70692161276 -18212.238588174707 3.53785441859708 -41.65302892582709 -817.1018834991288
-35771.472168889595 3856.8388255296204 -6479.3339931354085 2878.2882354131684 -133.1973988129975 -337.2863163852348
-35007.905421992975 -184.46673394856714 -7322.802597311579 2121.7375158683853 -265.87778417070547 -76.548879548072
-29353.2293545145 318.01839954058283 -5442.116804711657 1911.1818807710035 -163.4128644552861 20.971089102787737
-25140.435935357404 141.7746092568492 -4322.21273164122 1834.6678845274616 39.856782163167004 68.22930112737303
-20827.45846083905 110.1498943612401 -3255.101820690816 1746.849036497541 256.7186057000733 82.7710280070596
-16583.377880504708 82.99435718312671 -2302.0042834310693 1689.061247791016 440.6413512096174 81.74307187127621
-12306.27767724868 119.0604885283023 -1372.6531151975732 1697.362605996674 576.6091275106683 72.10217412483183
-7860.116576803172 227.68242484009932 -357.20233813566375 1807.910978544783 647.2995260781297 35.649203866835826
-3848.5095133558702 -498.6165398955782 393.7555200659942 1634.0808570550587 506.14528222575257 -80.81794694490665
-2220.508734345984 -1678.981337622185 663.4793889629094 1026.343615418493 345.6622018722618 -571.670870951014
-2485.8154758383907 -1010.0798317699068 1459.385529660074 -407.2880999938409 -601.1390264119343 -249.4472608573085
-5373.269161356722 -672.5948907119434 483.54776705176835 -650.5937946387837 -828.3584310059387 -11.373216860017486
-11905.941355107005 -669.9000724305854 -1164.116410791004 -674.237802665003 -1058.6452382518555 30.27683547302731
-19025.55518316505 -1314.003452377611 -2986.633910687084 -649.3117496301732 -988.8052075968723 74.28246434353464
-25637.70510754072 -1848.0892770390114 -4578.33739375314 -658.407650480797 -781.2722421064746 111.86527941698797
-32157.062313838185 -2313.809578808313 -6189.8350581008735 -693.3760763496375 -470.13976990646273 148.81916321069085
-38825.56652331124 -2858.6025328279684 -8015.943668882283 -728.1742361709959 -91.7337945627344 181.89359653744938
-45334.36969451477 -3046.3040843619474 -9886.819926660502 -805.5015274110764 281.96439409448305 206.3730150204245
-51791.16425501407 -4504.38190334458 -12358.69218542642 -852.0803006314989 524.3175771951679 195.09789938752115
-57385.897493336604 1261.8237895983389 -12662.85305630117 -1876.6398350012134 500.7392345955836 120.7107463898485
-79524.4697438471 -37818.48385807038 -31188.316370231754 1.8399734458310348 -50.96855395772194 -572.4612043960246
-57409.733503068404 1261.220375666182 -12619.059312080144 1880.5095990052935 -606.2100101549665 119.86867995079525
-51839.37406131703 -4505.353117662843 -12270.589405186147 856.5413355205665 -640.0172221405817 193.47950571272972
-45407.11718040118 -3047.074549739896 -9753.958456983857 811.0368884849456 -413.27495438293477 204.16884977890163
-38920.422985658945 -2858.007461461046 -7839.171311075062 735.4205387883949 -57.68617152772416 179.55535062822503
-32263.48362102998 -2309.023176295956 -5972.8445881906855 703.2354218648817 305.84353843687325 147.394341885173
-25726.45903885188 -1833.581460547933 -4329.911028350142 672.4195182031423 616.458671822466 113.72763942537368
-19048.120028422407 -1287.5471460145145 -2730.2167749500672 668.7909276557 856.3628944241531 83.51025752253514
-11845.651259267088 -648.5138073881124 -963.3897904028597 694.523664605798 1006.7324048748327 46.32908058832437
-5297.513848716701 -664.4594060667058 528.6207018728372 658.1910829022498 865.1860658322249 -3.7442669320748543
-2438.243511201008 -955.9369066001217 1325.3318796031938 401.6542099113284 675.9814077294837 -300.75104134797465
5447.3916756880535 -14750.102333096735 -2790.813197222603 463.1701908838099 -1.1188193482780662e-08 -5.323906648868615e-09
14093.11699672884 5511.592268427142 4949.885985197174 -1373.691151889767 -5.691964233278668e-09 1.9595258748950073e-10
14278.352424524961 730.524575903207 2754.6035901206455 -533.9909862790316 -2.2720021419786463e-09 -3.7980640854584635e-10
19667.457345505136 1499.0188829835818 3827.734177594705 -634.9842101847432 2.2991075709910547e-10 4.974634038035219e-10
25857.79318808261 1817.2329073600815 5231.697569218681 -678.9563496556566 8.233396187051767e-10 1.400694671360725e-09
32278.18083734112 2345.8501517415407 7038.170395663193 -729.8610485214413 -5.308078421251139e-10 -7.566498538835731e-10
38871.10252430347 2891.7228944782555 9193.941052221477 -794.9208699657142 -2.1040973408048558e-09 2.6003554864928446e-10
46104.195947244385 3579.466202844611 11871.817150594416 -900.8381860046711 -1.2507586077958877e-09 2.907620810788103e-09
54501.958052948874 4370.107008701829 15153.814940085751 -1012.9684271104417 5.122737789520215e-10 -5.838725058993077e-10
62880.05086325217 4694.592495406869 18330.276682823667 -846.3305583781959 2.3513762048565923e-09 1.9546853025076416e-10
66499.35166565038 4121.6720757140465 19515.150140879534 2.233538794683021 3.798686698530673e-09 8.221938685437635e-10
62847.95936087808 4691.919479807985 18319.325915708516 851.0039628404364 5.935433478043706e-09 -5.848121986673505e-10
54432.49821490105 4364.475993347465 15128.078657636805 1018.3017649187262 1.1877556715944593e-08 1.4689067739936945e-09
45985.382863837694 3570.183898052906 11822.784235938063 907.4325499547281 1.3011297816944989e-08 8.627907277514169e-10
38680.75581607468 2877.1427430891554 9106.64411736851 803.5622215778783 1.107066738281759e-08 -2.7279156711301766e-10
31979.582814284095 2324.1649307313755 6889.940174816822 741.7633612258487 3.077274435270283e-09 1.6196644025967544e-10
25391.508037963486 1782.7167852837597 4988.740168282171 694.895560869102 -6.15945339177415e-09 1.731317311737257e-10
18951.225602878883 1454.1355838818008 3451.1581054562052 660.6958898660854 -9.281229118585088e-09 1.2158896112168804e-10
13105.020052155553 619.2582383544466 2128.510978284371 581.657221111856 -1.2289363304773815e-08 8.827489850204984e-10
11388.295583573556 5047.316842408305 3591.880515559454 1310.8404961748508 -1.1299106983386764e-08 -1.1586998027723894e-10
966.7693632096248 -16138.163101199909 -5917.413552998207 1668.6446607953385 -1.0307694253697264e-08 -5.178158346552664e-09
-1793.2049545815562 -15640.309447872045 -5263.734714717602 36.3647518453679 -3.430200123943905e-09 -3.1461828697842975e-09
6865.4051826775985 2818.466295778283 2427.1163761874545 -1509.122607306534 -3.19859960740132e-09 -1.326323051387135e-09
8682.262091011973 -181.7765229435799 1447.1149604292314 -1397.4686413048266 -2.4070245796536938e-09 -1.3128365061731984e-09
12976.454188604173 45.8153331294607 2240.0409910416997 -1585.475305440948 -1.1101864982876464e-09 1.6039347627838652e-10
16856.259490272085 -82.42238292366389 2959.186646810048 -1703.5895001877816 -3.9025746523257965e-10 9.718226223753845e-10
20972.547325324194 -96.8056722752592 3982.9442482037834 -1797.9215571046225 -6.896733184547088e-10 -6.821059272965613e-10
25208.73189238385 -94.17809125979889 5250.410006208635 -1939.928144849761 -1.455796150295896e-09 -1.0782024162381276e-09
29800.008648872168 -10.740296581875295 6836.6724941816665 -2193.0068757046547 -1.1228988849865118e-09 2.02053129783053e-09
34911.08360699474 -14.699736542537636 8693.508750858238 -2520.0655246648803 -8.292844189128346e-10 -2.3653763392417204e-09
39557.26272749139 -992.8000259568217 10149.973054296235 -2197.4146978017397 8.556484409893983e-10 -2.1884840606389844e-09
41012.10594133797 -3060.4316971324406 10145.722939326544 4.323371560748567 2.627604911431547e-09 -1.726759180087356e-09
39523.91393267989 -994.0155329976519 10150.023673378228 2206.60856044251 2.6590767365775037e-09 -3.581182461687149e-09
34839.87545993293 -17.133609823245457 8690.700083447453 2531.0362389837555 5.798858948580232e-09 -1.6850938422408035e-09
29681.00378950152 -14.453221800225732 6824.4462552944115 2207.4211405845545 7.971739823808832e-09 5.156763904778927e-12
25024.456719409663 -99.3236687795418 5217.166658262057 1960.2334084181532 5.811498712815499e-09 8.999254674790791e-10
20694.263489627643 -103.42451172440725 3910.0909869836205 1827.5040147244936 2.0599697503342895e-09 5.527986068898372e-09
16439.761161108465 -89.74080796405923 2819.879950214712 1746.933437780272 -2.0303538850185987e-09 1.7007466546203887e-09
12345.611733347563 30.028087705435347 1988.1500184325246 1652.1241444409238 -5.560727434072987e-09 2.1125901028540284e-09
7735.9232101472035 -196.17829059809634 1024.0862134065258 1526.3589012030375 -7.304652216433283e-09 1.1921721387864181e-09
5923.759748268282 2704.990694558901 1739.2378871961525 1675.9164563040763 -5.559239679708838e-09 -4.932347863473296e-10
-2517.752392032295 -15418.316160416776 -6464.907322939573 1236.5244259205904 -3.6141072357054327e-09 -7.476629093616793e-09
-2309.0458673444023 -11449.611589458871 -3804.5839111796568 -2077.499166539015 -1.2213051681086995e-09 -2.2446666747555355e-10
3167.4271367149263 1519.4599683077897 1424.7056564716397 -2610.6320738284307 -1.3818796662512511e-09 -2.1883361789321043e-09
4119.8147762146755 361.4978638528068 935.6556313551525 -2532.3190980022837 -2.2763532170344547e-09 -1.9217685220951353e-09
6549.512300411854 -42.23936358326123 1168.5414580095298 -2797.376677238357 -1.6196489913133938e-09 -1.6757466525518794e-09
8648.971518270157 -29.73834646096291 1549.4559787682647 -2954.9003231184347 -1.6434174021640047e-09 6.573515065610991e-10
10654.874181685396 -47.97018292636529 2029.6314897793568 -3111.845903571086 -2.0795430932807335e-09 5.864793095611276e-10
12704.33488637775 -44.31870282966467 2656.5547604439403 -3338.442778876787 -1.1874330407835032e-09 -2.1609647404829957e-09
14842.186279633332 103.14316145908676 3461.47706924271 -3724.2797286176333 -2.2053031623059383e-09 -1.6477637032608072e-09
17353.502542685714 301.71705116491586 4476.882299162329 -4304.056346925426 -2.380953434411026e-09 -4.041076806515775e-09
19925.34809621891 -1199.3013304190097 5039.014779601325 -3967.4503303262654 3.755175059794169e-10 -2.994372749753893e-09
19765.526535121637 -5853.708311003786 3739.330708791121 6.755420843579252 2.695923484452578e-10 -4.508107664946692e-09
19890.608184182358 -1200.9025114995748 5049.195443267764 3981.8603525661683 3.069772214203681e-10 -4.600059000381407e-09
17280.363968270394 298.5179827940396 4495.055670511098 4321.395801976191 1.890786194280736e-09 -3.3768889906582444e-09
14722.95296424819 98.30512397539232 3482.574397155865 3747.3441038965057 2.876814342300804e-09 4.6360071337403497e-10
12526.148875990271 -50.9298399737026 2671.1661175284107 3371.422901609158 2.9692264758018894e-09 1.386590398055887e-09
10397.370969256384 -55.9451457450351 2022.024456217435 3160.951053204695 1.7631301488241213e-09 8.63169447029577e-09
8281.29997949322 -37.42219764201813 1494.9087465142131 3028.487235303785 -9.344613971506988e-11 5.09399411541267e-09
6025.836975206339 -50.755519906536996 1028.5059489308985 2912.907379747154 -2.038156421413362e-09 3.470371101599312e-09
3565.2195109967174 381.2243563242278 708.4311445014323 2726.704180281737 -3.4693576900224343e-09 1.8983250527071505e-09
2626.8767249060793 1123.8136189223956 838.9261163672307 2898.295802460171 -1.91529567206139e-09 -1.7257084650168508e-09
-2473.2046199229 -11067.676750195293 -4528.523394025149 2355.5457905143417 -1.1134784205779624e-09 -1.1114963172076386e-08
-2086.6640603916494 -7281.329540576521 -1922.84678643431 -2324.3144535481592 -3.275710813710475e-10 2.900435447372729e-10
408.03393660477815 391.13158281863775 803.9414929830953 -3121.4799856916097 -7.477976016190269e-10 -1.7834627108470613e-09
25.618555856553826 558.8279406680844 474.3425135332032 -3159.062380148574 -2.224146200546784e-09 -2.382224195685012e-09
232.54768497392246 13.10942046887781 180.13225563139457 -3218.603311546587 -2.3982709151937343e-09 -1.6711121375578841e-09
346.5281941364985 -29.60541176545449 102.2424487713387 -3371.0860567419436 -2.5589117491620073e-09 5.189049190335027e-10
284.6774825949818 -9.26227891174556 72.36984586885536 -3549.5963166465576 -3.0875070278213457e-09 1.2867626963952716e-09
144.4285098559517 -22.155525042058272 66.93054111733039 -3806.998644725313 -2.3834199613936846e-09 -1.86915194433368e-09
-165.57187734102695 127.76917760068848 96.98103729616872 -4154.904662864569 -3.024764660963797e-09 -3.1322473503792025e-09
-125.4479839467597 662.0738897744336 381.1491110642096 -4777.2800144075645 -3.2129809923731045e-09 -6.465094237739777e-09
927.5352291934439 -1211.6946308184508 294.75072789772184 -4933.066485254361 -1.468252075476073e-09 -4.8867772051153224e-09
-1295.6282517753216 -10513.170082330424 -3032.7444038868102 7.577952995436879 -1.7080585279494187e-09 -3.5225449224185468e-09
891.632711301689 -1213.70695294948 315.090053169055 4949.240680528413 -1.7616869629755172e-09 -6.093017645980581e-09
-199.97626091446924 658.0707717403508 420.33503159907565 4796.771497681895 -1.1278334620390407e-09 -5.45948353192216e-09
-284.00747108985036 121.79245973622774 151.35165988555923 4180.863311382464 -1.7008306429922015e-09 1.3636523021887115e-09
-25.778010636129217 -30.12115098334835 129.1622764836426 3844.2279241894175 -2.334445414753361e-10 1.7101511318173834e-09
51.91581670414569 -18.312307670979393 129.3536376719647 3605.4895179548607 9.619505192404176e-10 9.543571266590334e-09
34.48826223055067 -37.54453650135641 131.2043685633178 3456.9299504066107 1.5744845427434484e-09 5.87011239616686e-09
-142.75197023577653 20.97041608108177 159.19023458352882 3351.168195795335 5.929751134559069e-10 5.4544977423631735e-09
-315.122743490054 505.9416168616283 349.8712418195829 3355.9338156964996 2.1440238473502404e-10 1.8220607245211795e-09
112.62494850481883 81.51468577300446 395.6555162489592 3269.8709954200694 7.746723817980694e-10 -2.4082300598138318e-09
-2097.4230093539854 -6924.188446401282 -2414.1321412805196 2380.777651107427 1.0553353746445282e-09 -1.1791797760452027e-08
-1928.6601645171127 -3827.535929082195 -216.07776812460628 -1883.6450968538804 1.421436301995982e-10 -8.546940932774305e-12
-1815.8520271880543 -190.1836445788764 522.0314925736175 -2754.479247904554 -6.319018641676166e-10 -1.3655778730026213e-09
-3855.6530703484977 459.24379097165416 -13.497813569396454 -2940.341631229137 -2.250183150920293e-09 -2.0509012266245463e-09
-5929.455199062555 62.94813351502108 -766.0591154936739 -2854.7041669263913 -2.8356255121764207e-09 -4.862066305122426e-10
-7952.08772833106 -2.1773636593265255 -1338.7717632419806 -2946.176400221256 -3.1008584588931853e-09 -1.9618262570020306e-10
-10116.395673423724 17.60178340264318 -1900.0440389232228 -3112.6167462653784 -4.555346766466073e-09 1.314682585018545e-09
-12356.35596442397 56.107900998043164 -2489.463978440866 -3332.3902402963467 -3.971033439575944e-09 -8.304388288138398e-10
-15013.866068043697 14.02809645851867 -3262.695833130615 -3606.434258340805 -3.7463918634017546e-09 -2.791134434687592e-09
-17657.27330925813 820.7151865042065 -3797.678298367836 -3913.932781353323 -3.656907388016606e-09 -7.884448649519982e-09
-17718.663027819468 80.92341305292959 -3973.4271495762464 -5091.471372256205 -3.188478453486354e-09 -3.862440145496748e-09
-23379.54887379729 -17214.28667780978 -10758.043363835299 6.806019616586092 -3.3400044952003327e-09 -4.026743383178655e-09
-17755.907211022914 78.4960528051771 -3942.7744521942686 5105.988597587315 -3.4509278767913543e-09 -4.178899892792742e-09
-17733.58366933808 815.9045681165668 -3737.153262607635 3931.3904264941143 -4.625081095888106e-09 -5.564134042401747e-09
-15132.228691093569 6.921951720778477 -3174.5251878328154 3629.602199649478 -4.3297653795626445e-09 1.2057244092034125e-09
-12519.483551332401 46.96551059555406 -2378.7064647277402 3365.484751526091 -3.5694782685169457e-09 2.3222819223178703e-09
-10325.51182368418 7.183105157859101 -1777.2089040978651 3162.5447466274413 -1.4018342042732002e-10 8.874130763558696e-09
-8200.90804526729 -8.278756206287055 -1221.2089732207253 3023.776670242387 2.9455580197179643e-09 5.847733852704096e-09
-6180.844998921309 62.70958658590734 -680.3225080278221 2973.6199217874373 3.2331450849909515e-09 5.036794092916352e-09
-4048.3154751577354 395.93866354431054 -29.589776454979614 3079.034456569826 3.7594358737180755e-09 1.8941794799332e-09
-1957.0261270435876 -372.81112551645793 280.21948302084377 2811.358647657003 3.2950775441520364e-09 -1.9070229839712738e-09
-1915.576581871452 -3594.8369486377755 -584.746754460764 1864.5271625958515 2.661833420347648e-09 -1.0434753505705885e-08
-2077.635408220489 -1631.3304757116275 948.440884157571 -1030.8353182051162 1.28644206398576e-10 -2.3928237169457134e-10
-3681.42644023953 -364.7715204985329 428.67100264256203 -1574.3971367100921 -5.723137519453303e-10 -7.815543767719646e-10
-7621.913129546661 275.4884521761063 -509.0870847757185 -1727.9415378232693 -2.150043698634363e-09 -1.2623684320089978e-09
-11991.552819523358 102.8313282706263 -1697.727292887064 -1654.3645292389197 -3.6578899909045504e-09 -1.027621987503835e-09
-16211.368777705566 53.52901767562659 -2772.6338953511677 -1694.8362031336558 -4.5451178376509915e-09 8.14604383947426e-10
-20460.663951719518 79.02331308165557 -3864.3877890028593 -1798.0867491759827 -4.5213003341260105e-09 -7.308900151770104e-10
-24869.82566806808 105.09824858626716 -5090.546882976791 -1935.2121471757564 -3.686453253770594e-09 3.929203629127187e-10
-29291.83044732901 275.0973207670996 -6393.171736256162 -2059.6467089936 -4.618948556966984e-09 2.938356225001826e-10
-35338.602892475246 -268.0800395243827 -8488.086157358755 -2289.527592946809 -4.17388590356893e-09 -3.626625666441896e-09
-36203.18242439368 3975.3506052582475 -7560.314505656539 -3047.215649261295 -4.142676812701751e-09 -6.692526532958709e-10
-48066.483584975314 -25793.550510329354 -20032.519967050815 4.411741475340365 -4.401589981384291e-09 -2.3061699216953002e-09
-36242.35610076954 3972.521349034343 -7519.067741122029 3056.5967610359044 -5.848514561535012e-09 -1.0170553288446627e-09
-35418.02196477761 -273.6831756098254 -8405.59982106789 2300.7102548486846 -8.304832821437458e-09 -1.882909828054835e-09
-29412.49883684111 266.8941441070855 -6270.078235046058 2074.2883811394827 -7.867411833117899e-09 1.7526673445900087e-09
-25030.085969722455 94.68610727100254 -4929.453936299845 1955.8169422350124 -6.678902209067417e-09 1.5750254434010458e-09
-20650.95426088228 67.94700023156165 -3671.7754645362224 1828.7078269007775 -2.174984858882567e-09 4.978515377729309e-09
-16404.41461159268 45.5392181700428 -2561.5791725422864 1742.2365502952455 3.513480617556297e-09 3.436686490942975e-09
-12138.210751884571 92.96148856559523 -1498.817697811033 1723.677108675521 6.3450937837217225e-09 2.3281998551283323e-09
-7689.3207361904015 224.74198046799276 -399.4906201595246 1796.4284698549811 8.210524704566069e-09 1.0286989038377214e-09
-3704.7214450604465 -452.52099016122884 338.91862105213556 1588.2622858223629 6.551005293786716e-09 -7.695852843880857e-10
-2058.4354218096173 -1524.6843851935491 668.6950447055149 1003.7096450393834 4.675559495126436e-09 -6.650569872590495e-09
-2326.195751206745 -921.4915476585518 1395.2293163066643 -409.050165442443 1.5658585539313208e-10 -4.0051162386589567e-10
-5198.331338157391 -600.4991262871216 328.8305188026174 -621.8497422032146 -4.789306728980591e-10 -2.7568347604756127e-10
-11659.366417911446 -647.9729242552033 -1353.0354260351937 -652.1395704601797 -1.8542358759532362e-09 -1.0547296369622927e-09
-18716.469446164156 -1325.4670573052451 -3305.8202763047334 -644.4957675610976 -4.6834145450702636e-09 -1.035047603181738e-10
-25275.948507777455 -1876.0923082162087 -5087.227603487222 -672.075410417477 -6.850621403486912e-09 4.186055946320266e-10
-31796.128124491486 -2356.0595578756484 -6937.570467445723 -725.4942302972069 -4.253877250448568e-09 -1.8277503954777785e-09
-38578.575845155974 -2929.957231521471 -9070.301026491847 -780.6993294679432 -2.4600783632422463e-09 2.5721007546053443e-09
-45397.23557483741 -3168.1823692977887 -11328.891026856594 -874.6812803141603 -3.847723917260737e-09 3.1299762781600293e-10
-52424.08937835779 -4752.471932402853 -14235.63679877423 -921.5136048207657 -4.191802460695726e-09 2.2186021908510156e-09
-58387.49568992469 1223.9591690536345 -14568.381192801844 -1974.9869777325437 -6.3635106073434144e-09 -1.1883827255587676e-11
-81192.44652945253 -38979.83720425178 -33628.515032286705 2.549025203554777 -6.098511917684846e-09 -1.7581882616468647e-09
-58428.83334347879 1222.5521369703558 -14515.35289358213 1980.4086861474439 -7.1754193697870505e-09 2.7763746857090155e-10
-52507.200653551205 -4754.950937385821 -14128.575958991552 927.960449605284 -1.242473501861241e-08 1.3955627764516976e-09
-45521.48396295422 -3170.9324398681397 -11166.332960064896 883.0410934315381 -1.4350503896309874e-08 1.28546417954567e-09
-38738.55612110191 -2931.309435970261 -8851.418047776628 792.1944153510171 -1.19053158442739e-08 2.5762645350368985e-09
-31972.56250471513 -2351.8010898866255 -6663.1234753047875 741.8504591793671 -5.420830007096811e-09 4.689439947469509e-10
-25418.770096119315 -1857.847182365394 -4761.1151164927005 695.88108590691 4.721499635707005e-09 1.0486225221484347e-09
-18745.007953449458 -1289.7503307318343 -2949.472117049122 677.3010386165031 1.09012567861555e-08 2.490523343112727e-10
-11548.263050368978 -620.6364890700838 -1051.7417382471824 685.251233560342 1.4133998860188512e-08 4.284679278043768e-10
-5062.662684561606 -590.0642175784877 419.7408476817284 633.6562502017132 1.1281063194701346e-08 2.659668041360419e-10
-2234.4537460071533 -829.8020241513407 1225.908354288019 402.873880598622 8.024343856050109e-09 -4.076980530953733e-09
4314.519860519607 -15819.665488086275 -3451.5436882699996 -203.48077328914587 -746.4157006119135 -64.76998843183041
13726.870187815186 5635.400991083618 4730.7090857892945 -1400.080541710108 -1017.6409482811063 77.65736814403435
14221.660995365324 695.6637428264388 2416.3238416411427 -553.9797120338533 -957.7473993987762 -75.01353242204655
19791.701258168403 1509.6638878560054 3419.8858404896373 -633.0284334310774 -800.6041772682773 -86.55781715659032
26054.681230826707 1808.2918404149602 4684.819079580985 -663.3375723462884 -514.815292873679 -119.44768323326878
32480.158518468263 2312.2907083648856 6269.808117833203 -696.5005542012544 -156.90178194893798 -153.46479118826164
38969.8447700208 2816.447913083981 8117.68058822872 -741.234363528866 247.62874512590756 -185.32938257491267
45896.17040290457 3434.9066592546033 10397.555919022298 -826.3711982231157 634.0822981933696 -199.66375011758527
53736.27820123184 4126.249440060502 13229.302733453023 -927.755454754809 850.0966941443777 -168.20276213525028
61464.96733833564 4352.200208042138 16027.743874809981 -779.3550796626032 659.8237400362326 -72.84682242835895
64793.394550953926 3763.565318111067 17088.028776462263 1.803170623348315 -0.8522404565734956 7.99923323410021
61446.02906372092 4350.079982724206 16018.976895562144 783.0715111897705 -660.5480199517584 -71.81258056799965
53695.0886927511 4121.778968764048 13208.938106694517 931.8125833706015 -847.7722952244483 -166.14663344976069
45825.50050563762 3427.584974249421 10359.372164610906 831.0544867055771 -626.165655422782 -196.6900728736222
38856.98255332485 2805.280312882769 8050.801238673606 746.8569194247946 -230.15420569301858 -181.74592030992665
32305.355987244428 2296.278355360007 6157.76828171232 703.698308018192 191.09000724616067 -150.3704491097893
25784.93433751428 1784.424458209903 4501.2959606576105 671.7257157789421 579.353743527162 -117.64068838469339
19384.51795520751 1477.5593348306056 3135.5999095475745 648.3991457437578 911.0052978461104 -94.00939559207397
13479.324460979864 611.6128273955123 1914.1408009307313 575.9208635337255 1128.1090573609063 -68.91347783837118
11855.704197972153 5264.035901121936 3764.634439373587 1368.2169031429607 1026.8931993343483 -55.467355465583836
1142.8238738454902 -16703.005076489266 -5871.724948844633 1757.3260206155953 907.7302765533882 542.1320661405911
-2086.430257199233 -16175.727639141858 -5637.532680282052 -347.090789583927 -395.1821526123281 193.44281420783722
6784.874988336805 2944.035212017906 2424.4383243545835 -1588.9441692726455 -479.0578916076633 162.7342254340797
8523.357025949997 -211.97796004068533 1208.029124690568 -1432.805812230274 -599.6826378249505 -18.003203738228
13005.347511418478 40.27957636120947 1979.5362274938716 -1579.163831277015 -501.37269573897925 -45.49163212564396
16942.291638350438 -98.26812215231215 2616.0637633681804 -1669.275233213502 -317.59823901657205 -66.45940043114521
21066.060769179283 -127.1292996406597 3508.244054368758 -1728.66776748574 -84.91044833646146 -76.81173677735282
25237.417037356812 -142.8804280688314 4590.302416714712 -1825.673597417837 169.10396494484507 -66.95953663723256
29647.090742697397 -83.10936946734833 5944.814391249553 -2026.4617721974964 403.63106003388475 -12.049746784848438
34445.87841765268 -111.57884290754893 7552.500888412947 -2319.255918915992 531.2613461806842 127.66801923044737
38743.60037097495 -1103.6117703883942 8817.291918849234 -2032.510736668914 414.33091122624614 361.4099146037042
40070.92240357414 -3112.050715618903 8787.527523425106 3.4972660551797823 7.6517875840297345 528.2466220552825
38724.22803466536 -1104.378576519884 8817.566249765472 2039.8254590417819 -397.5788951257672 361.65548607320005
34404.308836483506 -113.1452444602446 7550.814637915958 2327.585774972544 -510.10567263781365 127.90394963667352
29577.310681468764 -85.55202434942449 5936.139719863477 2036.6865741979234 -374.83419490020407 -12.483925179460948
25129.480301862463 -146.28103996404545 4565.794108894765 1839.0049652096345 -128.61799075649608 -69.46570560560322
20904.199732957935 -131.50456571841264 3453.3424506351403 1746.8265030572006 143.25271626730847 -84.11121566000777
16704.33201267065 -102.58543151664603 2509.9290432585 1694.212713930843 403.01387730361733 -82.89193210978532
12638.260692319534 25.90652066655791 1779.2483054652532 1617.8826984140626 627.5440308232992 -78.4646432774796
7926.856249021733 -227.82298653779563 864.3803172531004 1507.5544657643986 745.8660493261685 -69.3517600744257
6157.177144903605 2833.8303093822624 1883.6586477312135 1727.3053936183237 536.2292332346667 20.108273417309285
-2517.3786290493554 -15953.887042675651 -6452.336733153064 1305.2701599793731 350.65642926919867 701.2666732365376
-2359.1351552521455 -11602.738273630139 -3902.5077560747577 -2249.543119037939 -138.64466102521936 666.920310941071
3082.6843309553688 1469.2613779831324 1387.8992590283847 -2765.675127317488 -174.42224760385227 245.96879924191103
3982.3721257635593 356.6081311877849 804.297757954578 -2578.0811486042467 -244.03041312180565 62.683822243053726
6480.287143805043 -72.27744433366203 1002.2390733462113 -2785.7278336945055 -201.45548489306864 0.8974944834483916
8627.995543125768 -66.42307727010422 1354.6468563030512 -2893.727212992656 -98.00694010820771 -7.644472001910627
10637.635530814878 -101.92710896494965 1769.6220408186905 -2996.353363758932 24.618153096193883 11.187407671996056
12655.656299690607 -118.34555215307824 2301.863001371136 -3150.470139631566 151.76572520938353 72.92041377942489
14707.443334246558 0.32628413628747666 2987.5233021726503 -3450.4247082490274 270.1689518333483 210.48825810898447
17067.62077051636 164.44318439877915 3874.0906180070274 -3971.5126076815964 351.25422740915195 473.19549105004063
19436.113179565833 -1369.9340815985602 4342.529747250145 -3685.1385192327016 301.63582963840724 867.5639147626531
19244.96141753315 -5893.195804382928 3120.8557185947457 5.643029729104708 16.000853132837765 1152.620439139301
19415.987535190954 -1370.9537130969286 4351.149440548756 3696.957933730368 -267.8113597170383 867.0444664010921
17025.03381192759 162.40135446483595 3889.5924970101087 3985.0279721137167 -311.99018521979656 471.6247494846932
14637.668560344233 -2.7339864764248443 3005.894449909496 3467.118753674902 -221.90849084467976 206.56094179768408
12551.215969635006 -122.44779590095672 2315.6080519172647 3172.454209811453 -90.89094184624834 63.99682861371703
10487.804252102009 -106.46184987959882 1766.2237903990065 3026.668443325332 52.921576942551845 -7.482774803516157
8416.006143940163 -71.28514334859138 1313.0753269503782 2936.763733542099 197.61536736884528 -44.15424526714137
6172.988783210484 -78.36558693191957 887.7350603305157 2851.4824689888446 326.7171439422285 -62.38152777553106
3645.463736811342 366.32890389721956 605.4524285170235 2696.760861791525 369.2274524500003 -50.77176715788358
2739.2156408993656 1193.9383895911783 936.793709450321 2972.507504214229 210.04050223295582 148.78155095817442
-2480.1632461347053 -11431.715930990276 -4455.5511328731445 2461.3012840967026 94.63611907156809 1031.5624638831007
-2117.4088335130045 -7366.439312717024 -1959.487464784116 -2423.6557833952243 16.50792730828134 855.1375369430004
330.32152103086884 335.80932852549665 790.0149331516561 -3242.027459783564 53.061479686457325 288.9042197455075
-108.69619937633249 552.0964997677842 421.481884933875 -3216.3936060943847 75.96137474365318 86.49558093634849
120.51927797959456 20.729190448813412 138.88641113595276 -3204.500133596179 97.48877292885392 16.768318403438453
255.5435922082748 -25.403845949469964 82.30043964921013 -3299.5096308904667 127.85097876299344 5.180070145856794
204.50504677203037 -6.939027195288322 61.7916774292448 -3416.146743064467 150.3032181827111 32.9380902152782
74.05947802029287 -24.575778877925714 54.81475412214342 -3593.477590503691 162.35440472258418 110.45304832281917
-222.34847364141177 114.08829258748187 78.61481419272101 -3849.3758378105313 178.05107782962375 269.26173199619143
-180.68093580323335 629.9059806709466 347.3933682655311 -4412.618079828946 223.12228181489968 558.7799669888615
777.8423059529408 -1276.4212897373811 247.00458652019546 -4608.625087428426 236.94330112729227 1008.236293215925
-1380.8205675164127 -10331.364784131525 -2855.5225240180594 6.394974674609607 24.325950653783867 1375.5860862110815
757.0591933966648 -1277.7557853222454 263.99622075920206 4622.020946423978 -186.12993069804213 1007.4842622475895
-224.0677521746204 627.260266364979 380.1358469660233 4427.938676828738 -165.96286495996145 556.6552419301789
-291.77392812983453 110.1819488409041 124.05954732740717 3868.296621023764 -110.80876055210274 264.2499057657586
-26.120762996052157 -29.590329889736353 106.89923226039815 3618.402161541359 -82.13346949368193 99.55162306136117
67.87742361609608 -12.387655158553578 109.50394254309013 3450.7580049943026 -55.413625700822756 10.567767431209848
73.1223574778144 -30.212386231692633 105.88053912413417 3349.7010861190693 -18.15261038785848 -37.677577419536725
-99.33106758620298 26.104211409260483 115.38870025626 3280.907462698147 21.90419257236737 -60.42319300995379
-310.8506655395949 516.4218695095676 307.1712750018586 3337.0904802025575 22.85933145783157 -34.22383186182349
144.16734905073085 119.52777400844536 468.2496957218597 3342.7310492742486 -32.23062980168996 218.13526366093512
-2133.3900318020615 -7180.02154304395 -2348.3381716344607 2466.1782671597443 -51.195114621107294 1092.2654595057757
-2005.4254785175053 -3905.2084052711143 -268.7114573112738 -1933.7315358256633 147.1259129322407 803.5863201285636
-1916.0384221870474 -243.02639748626535 533.3120951185638 -2840.1173610695428 262.6635070458847 246.70867137718778
-4004.979191643667 459.53962598291184 6.849130825236426 -2996.003308240184 384.8838112928499 73.73167416075552
-6083.053422904591 99.36346745996742 -686.3331196266 -2850.460929159464 394.0176327326701 8.400904606475294
-8107.34171734832 46.98186954307783 -1181.5997223496038 -2886.69982268735 355.0935132696488 -7.995499513830863
-10259.116413399584 76.79654976622344 -1660.840448483577 -2996.3809171658786 277.5949596495017 11.349102266786568
-12451.415467519615 123.92154433349847 -2159.7513581645935 -3145.131585816256 175.08722059500988 73.79588616716418
-14998.580600550813 95.47669259366143 -2824.607522001167 -3339.243712247205 81.5583018824032 201.90779196485173
-17477.88143255049 901.7948214487841 -3260.752730895391 -3607.8798658788905 71.27158158855651 434.40687261070485
-17538.665766758564 108.51628105180474 -3415.602918899067 -4786.883014063154 149.3136290285207 846.590123058805
-22999.882293877527 -16747.853318470792 -9754.528123117108 5.662204749233079 32.8147044214101 1270.742626255205
-17560.241171221853 106.85981599376154 -3390.1194453703365 4798.741738381971 -81.16230464545293 846.1376084983618
-17522.37056948381 898.519998354438 -3210.517221251556 3621.433028349318 4.2011154822939085 432.97346070546274
-15068.187144791635 90.69399300118124 -2751.661538076553 3355.95519126119 5.203505447641846 198.20598776671147
-12548.092295106962 117.94319726582786 -2068.660302096336 3167.10321022164 -74.7744613527709 65.24204502402576
-10383.52083126469 70.24976202412745 -1561.0158788247431 3027.0496123055173 -164.45753010742112 -6.884444882613294
-8255.108668794179 43.59702176133024 -1089.2316696323483 2931.9005664804304 -234.51551591964414 -44.500823528556786
-6231.551288224893 99.98553036494043 -626.9111905364147 2919.4795189877414 -280.1751679948122 -59.21544761337249
-4119.0518552368685 418.3672682820896 -20.623574168000456 3079.7250729186667 -307.9061047291456 -24.318719011599825
-2005.4391024140289 -368.7085848403957 336.46088022462374 2877.2240604025587 -252.14649159299734 194.38571216636558
-2003.3787455409324 -3775.6253479552443 -561.5479236774701 1921.305292065247 -175.32282177286174 956.838378590675
-2225.019582636042 -1738.1677789406385 883.3207777347671 -1044.8429548168874 311.9909244947594 486.0039332780254
-3830.73960379546 -441.2469293536264 476.0746411627528 -1625.0703713826554 502.56962980511224 107.32489355070874
-7818.554207692041 257.05528405382 -425.9668320005852 -1766.973165386624 708.2160305193793 14.436459740723308
-12217.143796139757 122.71244458690715 -1518.2903864566956 -1657.2039642233162 692.2996053127818 -38.16801551051613
-16466.246315480366 86.87842632106285 -2466.0353062697723 -1661.5942664311697 577.749013537696 -65.6103382044633
-20712.761722086056 117.00401720002931 -3409.5855344305737 -1728.282236531427 392.02446190347115 -76.4224144237242
-25044.845032530422 148.6094901312092 -4453.539925764553 -1821.229929327893 162.7163932179402 -66.39451261826694
-29282.05360223751 323.5385624047615 -5543.360270176042 -1900.8704124616534 -55.58071721288149 -20.984220925446607
-34961.51274167717 -180.65961676339205 -7390.9870353771785 -2113.3151335446287 -171.0547944744589 76.0266512663442
-35748.73898851494 3858.7658612814475 -6513.516944576031 -2870.8885771845476 -46.92971667438771 336.89814687923115
-47142.85634999905 -25003.706921661356 -18212.238588199652 3.5378544172905464 41.65302891721675 817.1018834920566
-35771.47216888988 3856.8388255415616 -6479.333993136563 2878.2882354091607 133.1973988044171 337.2863163830528
-35007.90542201191 -184.4667339868125 -7322.80259733256 2121.7375158785876 265.8777841570344 76.5488795498549
-29353.229354523777 318.0183995059662 -5442.116804726733 1911.18188077832 163.41286444203664 -20.971089102740372
-25140.43593533701 141.77460926257191 -4322.212731634246 1834.6678845372428 -39.85678217302136 -68.22930112360852
-20827.458460828613 110.14989431133046 -3255.101820700225 1746.8490365033094 -256.7186057040228 -82.77102800279259
-16583.377880474363 82.99435719179519 -2302.004283418346 1689.0612477844097 -440.64135120638923 -81.74307186614675
-12306.277677229215 119.06048853072012 -1372.6531151915628 1697.3626059915928 -576.6091275001322 -72.10217412063369
-7860.116576790596 227.68242484140876 -357.20233813259415 1807.910978537436 -647.2995260628747 -35.64920386488273
-3848.5095133515424 -498.6165398963136 393.75552006509145 1634.0808570518036 -506.1452822135852 80.81794694340134
-2220.5087343403634 -1678.9813376176182 663.479388965297 1026.3436154172562 -345.6622018640031 571.6708709376874
-2485.8154758442047 -1010.0798317765231 1459.3855296591541 -407.28809999337494 601.1390264126684 249.4472608578891
-5373.269161354036 -672.5948907010737 483.54776705721525 -650.5937946429615 828.3584310057752 11.373216859302683
-11905.941355116287 -669.9000724414725 -1164.1164107968916 -674.2378026651965 1058.6452382470604 -30.276835473402528
-19025.555183159497 -1314.0034523558274 -2986.633910679362 -649.3117496277209 988.805207588015 -74.28246434408996
-25637.7051075356 -1848.0892770435605 -4578.337393752687 -658.407650481045 781.2722420978189 -111.86527941672418
-32157.062313827053 -2313.809578816641 -6189.835058101127 -693.3760763514858 470.13976989283356 -148.81916320752111
-38825.56652327365 -2858.6025327665548 -8015.943668861816 -728.1742361721472 91.73379454523177 -181.89359653941764
-45334.369694517365 -3046.304084376081 -9886.819926679123 -805.5015274178382 -281.9643941061148 -206.3730150177202
-51791.16425501307 -4504.381903321604 -12358.692185432972 -852.080300632586 -524.317577200871 -195.0978993864768
-57385.8974933517 1261.8237895753457 -12662.85305632259 -1876.6398350042193 -500.73923460115435 -120.71074639125845
-79524.46974386644 -37818.483858119864 -31188.31637025959 1.839973443861851 50.96855394539702 572.4612043886954
-57409.73350308184 1261.22037566559 -12619.059312093805 1880.5095990052764 606.2100101344872 -119.86867995422952
-51839.37406134669 -4505.3531176881215 -12270.58940521538 856.5413355241292 640.017222120468 -193.4795057146539
-45407.11718042276 -3047.074549796861 -9753.958457014367 811.0368884878271 413.2749543653276 -204.16884977998836
-38920.422985611556 -2858.0074614148193 -7839.171311050523 735.4205387949777 57.68617151240938 -179.5553506269116
-32263.48362099861 -2309.023176336557 -5972.844588188542 703.2354218650665 -305.84353844276563 -147.39434188136227
-25726.45903879759 -1833.5814605389724 -4329.911028327297 672.4195182012145 -616.4586718163837 -113.72763942343322
-19048.120028386315 -1287.547146006017 -2730.2167749348764 668.7909276559575 -856.3628944069491 -83.51025751986543
-11845.651259250995 -648.513807383514 -963.389790397946 694.5236646013833 -1006.7324048517321 -46.3290805877089
-5297.513848710637 -664.4594060584602 528.6207018737643 658.1910829002071 -865.1860658112555 3.7442669309396237
-2438.243511201704 -955.9369066015776 1325.331879600497 401.654209908766 -675.9814077123543 300.75104133991715
-937.0541428446128 -20833.348318009663 -6531.120738256285 -3238.1322822667485 -1727.5196600758434 -611.0973514657935
12281.296045325143 5905.7131834893335 4302.354464427445 -1447.5762537363917 -1864.020542673475 191.5370871800655
14263.988144153229 714.6511041561097 1880.4735879037942 -517.3100904957082 -1748.3968038807993 -47.854738582095784
20196.497880880663 1751.4471567019773 2866.9365990781516 -562.2996289718467 -1553.6106335552454 32.73130228170378
26699.429393804552 2057.5481438780735 3832.5225257452953 -558.4496021477927 -1185.772384811773 3.3590331163043814
33413.58648088559 2627.948808452046 5039.652601523236 -572.7194038403859 -709.2440771672326 -2.2850236030016617
40012.63900505108 3165.783047434213 6336.851785373452 -585.9744321409671 -110.27533723862902 -10.722811404722325
46516.558535533084 3743.382201433565 7813.691393248752 -617.167935626932 551.3074051082831 -0.849703464355926
52916.6372994593 4316.175646371773 9527.61869694092 -648.4748273050244 1066.073420164052 69.58530734597446
58457.09269130524 4568.151209498936 11180.841476782785 -522.1479543935598 974.1009884116588 267.29765272217605
60707.86306611084 4242.126250246341 11802.289615664346 1.7576455205780874 -9.222033876191919 474.36254240016075
58469.29552964492 4567.471967921556 11177.40709993403 525.6358281456559 -991.5077712183742 268.51442930204803
52942.76312570101 4314.840568178167 9519.847089152483 651.8338911297149 -1080.2135071299547 71.9758396107669
46560.810403683834 3741.517203239837 7799.6855875700885 620.131171361867 -559.417610933313 2.4827329603746513
40083.79257159974 3163.9390853892523 6313.765744884464 588.0472675300102 112.45750990563668 -6.7582802998242215
33527.93719007184 2626.9324762045485 5002.841822585125 572.8330058622931 728.1920787416325 0.2094190231741635
26889.910583348796 2060.810851650609 3778.2960273949666 556.248449314339 1235.966398665866 6.864389660031796
20509.351631403566 1758.7431351783405 2779.105175295223 551.5235344758158 1640.09020628178 12.694704050459695
14881.157007434631 763.0953963626133 1819.8157063115684 497.3143725982271 1974.2670431531803 9.449605223418605
13733.197312406826 6091.100594506015 4317.227814440982 1435.4381223777727 1668.1035872625139 -225.947439133773
1917.133715638309 -19732.887308200545 -4648.599559123974 1913.3411527319454 1409.236494099958 1125.8213708253516
-3082.9596393198553 -19022.9282832047 -5764.602628630298 -2077.9968741040025 -290.93835134118666 57.263286982524164
6461.304200350658 3148.2820496351924 2273.5016280910495 -1805.2885302741543 -626.8178170044941 174.0730476621629
8134.380785060121 -170.49303225223304 731.6256388096836 -1421.349232869403 -1066.374717439441 -11.428860371806197
13063.992231307138 197.63453465864066 1449.5592211268415 -1475.8382521200363 -894.2360873064667 15.392998121264625
17202.750656244018 101.86301641607479 1900.4473009366734 -1519.857743242693 -666.3651908238794 -2.419663792479877
21513.64562084115 126.71721751625549 2510.419708566948 -1528.223576498665 -363.1419516223953 -2.966236747023622
25757.04468208668 160.81685100267836 3207.251733403095 -1541.375877964837 -0.7146345650522073 14.58492765201817
29904.02828378497 233.010112066403 4025.3544013042083 -1582.5182852587461 388.60227058723694 83.74352946741445
33869.546088886396 254.7925246652456 4954.905057113973 -1640.7134327304534 690.043487077146 284.2917504455385
37042.935742484005 -288.99174650838194 5670.160997809001 -1346.20821694042 635.9562348790844 721.8599369291337
37991.20344119387 -1536.3266578657606 5601.68727649704 2.544343682052304 3.552965395787997 1157.6523378706236
37056.74195054728 -288.4471348406995 5671.717957667119 1351.2187182008956 -627.2333249598129 722.1218730898745
33898.65535975059 255.86441284674973 4957.107141650188 1645.388378748469 -676.4116455856592 284.52568852911435
29951.976982047192 234.61372153305592 4026.2073665349308 1586.2655059737642 -366.5000539790543 83.20275063123587
25830.670408130925 163.0017391467923 3203.2225005024666 1542.9908912002038 35.36822017745429 11.773129115298934
21626.333196010462 129.78710250231327 2496.3610560071606 1525.5702312869284 416.2082852490276 -11.141401099170974
17377.191052936803 105.33420680852788 1866.8359328878223 1510.0577131407654 744.269103176132 -19.497167644835212
13358.149102232715 211.85057561624973 1396.562642898152 1451.2085629389087 1015.2519303701107 -23.281442933892166
8640.286940157393 -162.59528038253484 636.8729482682274 1358.4230486434442 1218.732411787939 -46.201972611071895
6980.806024835627 3207.0173896440792 2170.20041795388 1655.177128955092 667.2347042638257 -126.73136342949297
-2636.6777090556934 -18990.651965641533 -5603.22259841598 1233.458644493011 199.5396802193107 1187.619834891124
-2863.477433433013 -13814.565627578915 -3775.336780796684 -2742.6064812945965 46.13260178629394 1145.3851479311068
2819.840715854991 1058.8758343652657 1229.493120010008 -3135.1736823168335 -143.28315592409942 172.13997894879577
3699.058255477751 552.6395345210597 583.6779503416743 -2592.7014528115064 -430.30826007431756 52.48699496980056
6281.859121250813 53.23640131097694 680.0643012805671 -2666.296649176115 -365.4788342337501 -0.7281609455031504
8603.332067361465 96.8884612419712 968.0348341284955 -2695.1934495132436 -231.63459193859842 0.5688984795770811
10734.829961547463 100.47260859702287 1248.4361251797836 -2705.7332590263495 -78.15616501291618 17.39839308764432
12838.974627352834 125.07802902193013 1590.527794681676 -2712.2141537728985 99.23052803001298 76.56782163265561
14840.174815670998 218.8470892576094 2001.4037989640997 -2741.682562740892 300.6753791875097 224.68580816363084
16805.002200126128 339.067559759871 2503.8548523807294 -2836.9596189312456 521.3855613308925 572.5900379900851
18522.336040425405 -570.6449907311818 2732.4428260447626 -2453.77022248165 579.447809757157 1296.0206495567777
18395.888179028836 -3531.9877049911565 1854.1541799799063 3.732082402654761 14.884428738533714 2132.702817421602
18537.144799103044 -569.8823941897225 2738.6320787522973 2461.0904380362845 -547.602652715284 1295.41430028768
16835.72544068871 340.55585333966394 2515.3766228634477 2843.678995395984 -483.3594233738003 570.8471883664707
14889.262924348443 221.00437833899298 2016.2584428584885 2746.7875784990515 -252.53807511608653 220.5171901777048
12911.128802451167 127.94462146718504 1605.1286397247707 2713.61736020929 -37.332969379183076 67.30769355284593
10838.758587020224 103.76569784302903 1256.5897350539499 2699.7480168670104 157.01242697072345 -1.57357651779974
8756.991443298317 101.36199126456714 961.2494013327406 2675.9372931957046 330.7529844913809 -37.00389317977231
6524.330617609533 60.29246978267969 647.744444740713 2622.4624069110228 488.53357726567356 -63.15602852429276
3983.4816928013984 540.4422529713936 480.1346269485544 2490.158403553704 554.8258011482737 -72.97894801691635
3099.9940528956577 1275.539883409811 1162.4525975624833 2927.945965462238 168.7130476190022 54.41905089496048
-2737.881224019015 -13798.104077512062 -3854.3919916458626 2505.0131807545254 -103.10005262705045 1605.0722281746791
-2376.8516520511484 -8741.65847411066 -1908.1298861284752 -2593.188025966287 148.9430738692753 1255.7994823640956
108.10755632693748 -180.80830896412263 669.5758249133268 -3444.4214605932398 142.23607216163512 308.77715279079735
-400.014601206371 613.5393786722825 344.9601846919154 -3275.073897373151 88.9870746226101 77.90735400444771
-242.3416342451694 68.5278837861423 72.06205612778724 -3093.5721458167864 124.39762703804082 19.272573632725255
-65.14545319749703 -18.192498439099378 43.100297025748766 -3093.1323851099464 167.09762275909875 16.514916794710288
-47.27548413940232 -2.504150941122032 37.99252968424652 -3100.004148553573 189.63493523410804 48.95334623474897
-75.86196824435753 -17.13846115576372 33.4206534376508 -3107.2789473225534 205.17317794153524 127.47569565991425
-210.64139293717662 46.420410963218345 38.39552080344034 -3085.8673057833444 245.05672659107802 295.5701067098242
-179.52630144403471 351.07524329380595 170.64012828409315 -3184.6046686955965 415.2584967665201 656.4290891405631
412.5971710514918 -822.7873382696207 42.918532979791514 -3116.9938370232644 641.8883238947479 1444.9054928964113
-1165.8073110763894 -7012.682194187905 -2199.5365376334303 4.058167311798147 25.6408125065491 2738.2300116953074
428.33354596617403 -821.7705613272983 53.815472400546156 3124.9484498859447 -588.1091466435872 1444.0472637074793
-147.43280263760596 353.06598836872547 191.66034084803113 3191.884351968017 -354.16671388819856 654.1054453293151
-160.96683137466275 49.32991562528629 67.6476801100464 3091.3309851187064 -172.4635227540011 290.29304943898615
-6.561906694363422 -13.363037543919663 67.21032164443707 3108.5529110496527 -118.22077011793633 116.28540931686922
45.572479717815774 1.953066456010074 69.85548133384924 3092.663298645981 -87.74070336273685 26.21168313970862
62.02652106573899 -13.050303108075694 63.44811512837815 3069.677375043382 -52.715399521450486 -26.947904745058384
-78.37291184859613 66.897216800371 59.276689986778344 3040.9547139211945 -4.880216443445654 -59.39690672288244
-239.95659243128858 641.3198344206145 279.4414164054852 3169.526267071663 4.245612728210768 -49.10800752787723
256.11668160600294 7.663335438512014 608.0145478032088 3333.789498056861 -134.43977008156295 232.1655675029281
-2373.745324397823 -8809.326607859088 -2065.1583888807236 2516.263874213187 -194.95301387119227 1530.5870034715613
-2150.775469289849 -4643.7046958567435 -427.62253054113705 -1963.4061972742054 251.26073010107203 1086.1177996623558
-2086.073645216347 -648.0261005669603 444.33217967307377 -2917.9032981173928 405.6762695694114 314.8736241772772
-4326.610700136444 407.5322212550837 56.74464659807332 -3016.390129203973 573.3130150235189 80.8938339709553
-6599.456732050576 32.955683888307554 -509.86447182246513 -2742.103510807148 612.6738457972262 9.911748766904363
-8710.036451767659 -96.21314881189501 -866.0604690287105 -2685.356196497416 570.25778106568 -3.5779810951978135
-10856.936847568135 -117.72854096329971 -1185.904109395603 -2699.4382441667835 460.9760324488921 17.825115886238894
-12958.011250322852 -122.42127139662685 -1503.3482632158518 -2705.8876616859197 317.6216198767034 83.22915503057325
-15183.126478197646 -209.67321988457195 -1924.2203254822052 -2681.7125155146678 177.05115414997027 203.13898547820438
-17231.156784078896 259.5437379804421 -2213.816864603025 -2636.722509894959 221.10646739959924 459.09697640401
-17421.59319344729 -143.44955057897397 -2339.9603708870814 -3333.5255252499983 683.1581571632364 1056.086946031968
-21462.54566551193 -12151.913238619854 -7068.622736528363 3.8213203748011892 36.62697186695683 2863.945616523728
-17404.89501838058 -142.1978405382737 -2324.296164690835 3341.0473461335177 -606.9484830185025 1055.6089265165037
-17197.62630347952 262.01386199066684 -2183.1511139720924 2643.7142909840827 -136.3378624795935 457.61167588166376
-15132.783718107823 -206.0432431240016 -1880.3083863221982 2687.211562933142 -79.20644445022302 199.35475154602722
-12891.543645237507 -117.72188453220767 -1449.9255115095352 2707.821136097324 -204.5365004912133 74.53189699217238
-10775.350742370782 -111.97032291644516 -1129.7465552846102 2693.7021830730055 -334.8363558162444 -0.7658719360411066
-8615.146387752471 -91.4266512939017 -819.5694980312708 2664.576663745886 -439.8517538724659 -41.17257349126928
-6502.54847591104 36.56156621848471 -493.8295341076193 2694.1921925493148 -496.4317581305733 -60.38908950385907
-4250.202844490419 444.42750922557184 28.17544156874218 2942.2916825054035 -504.06439097510537 -22.0775912875854
-2022.550981118843 -531.3976717657057 389.89848925012666 2870.388855711135 -408.22497198499866 262.16189296362114
-2183.003960988771 -4718.0717434651115 -578.5243132089608 1945.6646497399636 -289.17921484527426 1268.3513098998294
-2301.685576641212 -2059.1566962691304 560.3611264804927 -1026.764291500752 450.28641125141945 705.0366459656451
-3934.676109238379 -669.5662957250007 428.8069848582388 -1631.3473830935563 750.595581849595 214.29446725337564
-8167.948625971168 175.00611103020532 -256.7755371928783 -1740.090008999955 1108.4246336561296 73.86422530795592
-12885.48445772031 17.945843693575984 -1116.759198543514 -1560.0733116717395 1150.343952795471 11.68287833635167
-17344.237329774 -96.42783594357144 -1814.397780017022 -1509.1201473380106 1015.0354790413412 -5.398607459040562
-21657.765814851486 -135.3388581696713 -2457.7120123850414 -1521.1774001226381 759.6536289470907 -3.0370862093125996
-25900.41901595224 -167.1543592733125 -3131.234223541301 -1535.3095187367533 429.0393890991869 19.113790843220855
-29853.52947649873 -97.44259108302637 -3787.52265855247 -1506.807443938146 92.22045478673124 77.3886461998319
-34493.36091274268 -559.536587144648 -4981.794780173752 -1554.3620059128727 -206.54965110907673 121.37969801773562
-35067.96481667829 2507.813687884699 -4285.411034548373 -2105.417505168435 431.10675196199145 394.6880289995182
-43490.92705852382 -18732.643818405828 -13322.672265443867 2.650154370898285 48.651527030203646 2108.226294664414
-35050.1694978491 2509.2443094386504 -4264.938259374149 2110.670568939361 -330.27052849547226 395.15333867472
-34458.0541865414 -556.7001540951147 -4941.389325120443 1559.3725005835493 317.561939914618 122.0215034705877
-29801.81620938612 -93.26884808882255 -3728.7876039563184 1511.046766490288 34.117441804042905 77.47985137112308
-25835.285391670357 -161.73877331080934 -3057.900456778113 1537.5642851068558 -285.52017600070855 17.149891865759646
-21585.813082167864 -129.13805102670938 -2377.4525218722893 1518.983359089299 -603.4658167005323 -10.083295991313854
-17278.529859345894 -90.74062097910569 -1741.4410125688653 1497.6106870714661 -861.43766038067 -23.564666304138058
-12844.988307587242 26.223533658521745 -1071.55015893032 1532.9906986858593 -1028.9229428828608 -26.60160386737487
-8159.594824549138 205.56100989161277 -254.6704610535225 1703.6088920886166 -1055.9053016053863 17.655674444289712
-3935.998816341124 -614.091736665077 386.8147874355492 1615.225932373051 -767.2593833176745 186.79867290436653
-2347.137798932271 -2105.8993404197768 443.31992295426113 1023.0449153978876 -493.2488188394801 809.3286663880989
-2470.8176762717644 -1129.0959024898807 1187.3539389067741 -393.2688591270456 860.8680493148308 456.9307778023747
-5422.117281490062 -795.519332583155 490.11696373322565 -638.3965586954133 1292.9062378322742 148.97768541198448
-12331.01488692961 -763.9993758320878 -950.4303780542592 -626.9559073494266 1799.3025699901439 80.17784972429662
-19943.188055983526 -1466.5104298460246 -2513.0465152604497 -568.4905933518495 1814.1550793797996 33.21403741589491
-26905.009120063798 -2091.730306870107 -3796.837052433009 -555.8291515273052 1559.7847629991143 16.526107434141707
-33581.67317161656 -2630.23209453379 -5002.28563363724 -568.7666907883302 1122.9688765685805 5.359183592545577
-40188.6163229972 -3208.500667848012 -6284.930449741254 -576.0118663781914 564.9740777022607 -3.049609242385145
-46405.08135141006 -3504.297047212164 -7516.606079892908 -602.127322548184 -52.160899988533735 -1.5347011535423718
-51975.8288539132 -4686.697889430461 -9068.58208764521 -619.8976729532103 -687.512889799312 -11.219172653907947
-55606.78060685704 -227.0622113054934 -8984.36194810828 -1502.678207411084 -1025.6606302207117 -243.00505054095052
-71842.22002630695 -29422.83874401116 -23895.148946271413 1.272197599845299 62.59444212380113 2241.6896809131185
-55587.248110545086 -224.35089297957487 -8958.598973403667 1505.225860531284 1155.1690413671508 -242.13223368833357
-51937.32418978101 -4681.311276986991 -9017.481502671206 622.4153405639048 829.4705513201606 -9.623482391685137
-46349.43008112522 -3496.3620213203085 -7441.642087030863 604.4382799791277 212.8868565386924 0.40515068999241066
-40120.455365086505 -3198.386968943093 -6189.976126212241 577.6501593159023 -383.1926500690582 -1.544340101910457
-33511.98248261933 -2619.3084874393226 -4896.217018299764 568.7436017874176 -925.8859614026464 4.839096761477101
-26857.412283621386 -2083.177384911184 -3697.390807148852 552.0545491059506 -1367.9730827387516 10.770309785701937
-19952.161229986417 -1461.7211932600853 -2446.9110286382484 558.1698586031321 -1669.7949440806292 17.333681858497503
-12402.569782684934 -752.4864151434042 -937.5639852776677 611.8911689750832 -1756.3296659970322 55.98676226918783
-5497.237664621457 -777.6607613166021 454.28577265642826 630.8433677110339 -1347.2332050120353 138.24004278536643
-2549.8256401614017 -1164.0975298666615 1098.3818293132672 387.10537212128577 -950.2822580304809 520.0277761874061
-6203.0436424293775 -34408.3665144883 -12183.423047075295 -6295.3717399915295 -2595.3713163441266 3270.4751966722806
13708.9060303124 8818.653159083495 5675.188889795948 -2796.526945938541 -2701.47398155748 111.21961481522155
13560.760988556744 393.5260800188197 1329.7373970205913 -1318.3585973946247 -2639.1525067303246 917.4193700884758
19615.05879205763 1823.7751132216513 2415.5950628749774 -1359.5197537085132 -2348.26962339613 995.4348871179438
26483.268465798294 2034.8193718354362 3243.620304339923 -1281.3102095543509 -2098.5026002645723 1367.162048674339
33653.342918775656 2674.8028473201566 4339.6421586436745 -1162.5584673144176 -1648.2531291891842 1685.8839802302014
40635.41598524741 3238.9742720957884 5430.475276453422 -971.0972657207321 -1028.0345339502846 2013.385085114487
47224.49343295589 3765.9381417078894 6538.800721545935 -707.8755699667554 -250.570389567509 2335.1969172520367
52772.78114595302 4187.507852777867 7554.74286547218 -368.42966647461753 507.2899952637559 2666.9414195086074
56391.68754481543 4608.337060903171 8339.240448237693 -68.45623380172856 722.2418220737458 3023.3885232472344
57718.7842460681 5082.112253747982 8761.815978448745 -8.384688588245922 -17.36139765589266 3266.5151009983633
56432.667092936485 4608.821576827924 8342.274202508535 51.25151650276791 -756.6596740923942 3024.2319202480185
52862.848448481855 4188.851628789599 7561.872763847769 349.91946948343866 -540.7004948722936 2668.6132164879978
47380.89653928269 3768.938867167279 6552.1463990025995 687.1589820572847 219.25530499290528 2337.739996045911
40887.02232890652 3245.3970513330923 5453.648101643084 947.3446269853583 1000.423503769142 2016.455713792286
34041.29495749945 2685.570241368131 4375.081298508388 1134.599982665147 1627.8917447977378 1690.7101869019923
27068.69198740369 2056.682187721942 3299.26752375269 1249.2654139246822 2085.4788899182404 1367.6242015188611
20464.565622425747 1849.2116954043997 2467.082990344986 1314.1526190442685 2363.2919499776663 1020.9176382566077
15009.524980891554 544.8843429933315 1556.9110298048465 1263.426130266615 2597.828749436119 832.8019383786876
16849.66585473143 9373.255235898712 6010.525180398057 2901.6033487806217 3473.707574645848 611.8281940724913
-259.38821955187336 -32814.792564260904 -7488.655453350661 3784.0883522402564 4550.041037728147 1268.477394403992
-6877.611872661396 -29845.145504659864 -8998.409488164581 -4040.7365934610834 -2144.3365305827424 1880.003027456783
6554.005634765419 4779.406634504176 2691.699591125599 -3348.101357406773 -1795.5179567192322 563.8966211469317
6761.845840923215 -456.8623846184606 44.15214299877772 -2785.703361436007 -1629.106422760265 988.5082829070077
12236.799908357882 84.9794276606441 840.3401156813464 -2821.423957590896 -1440.408561922373 1281.8736253586048
16554.53928045562 -102.75746303456869 1154.9830410907814 -2757.9588547608105 -1249.984544441932 1700.6726600631407
21124.171305326272 -97.10276249053527 1611.8348022442942 -2533.2269382687905 -985.0069882866693 2118.291300632927
25575.999731458207 -96.9962700522131 2099.6485833898037 -2201.052224509639 -616.3401887665979 2538.306746436609
29764.64664883685 -134.9769365866166 2606.0387087107733 -1716.5307377638387 -161.30470976985518 2971.798309936643
33312.133917357656 -176.62371601384248 3096.0315642481573 -1013.9494177096633 286.8557840770104 3465.245640974759
35762.45262193093 161.85559090394878 3595.291628377084 -266.8701852946724 427.80055404918755 4084.2494780716916
36913.34946284746 1079.020615892808 4088.648138609042 -14.949602961326264 -4.1587925455913535 4564.353387736127
35806.8752179448 163.80965574360354 3601.4958168499684 236.01892999500603 -435.29006854480883 4084.337980646057
33408.27204876681 -172.54913431010448 3109.165701880689 980.1942014060294 -291.8339695191245 3465.3095974855496
29927.66469805646 -128.43975723640884 2627.484632697461 1677.7609554169164 160.54609966087781 2971.5977919349407
25829.86569244347 -87.64430097796486 2130.8662125011147 2154.9162455352466 621.7114232790788 2537.3458216117574
21503.32333370034 -84.92895282356201 1654.3397398539876 2477.100031034074 997.7719204265973 2116.188590176387
17101.517704472935 -89.80001972497614 1203.7357217984652 2689.101580633354 1273.3730232095459 1695.1997763863897
13029.622445716275 113.43823652719993 909.5054727374586 2728.4684127112287 1464.2483166151344 1280.7576079888586
7872.845577782555 -433.59633290455275 71.72773466001604 2642.2337438687005 1696.5068809602117 950.0183349100508
7647.571444338683 5014.46178782211 2804.2166883258424 3157.960736399821 2053.275916237022 808.8247569913855
-6375.873679667743 -30821.26213164771 -8651.360829340578 2528.5745081402474 2538.987887790926 763.592361884965
-5480.663449744869 -20799.857752914755 -5677.099305103085 -4744.07617740353 -1305.7412937549402 622.6555538931626
2249.070946520019 1458.6837893374343 1218.0911629160464 -5438.415450755818 -1021.8790679392472 876.3682484442273
2375.1207846476495 669.2209846864025 115.694235079952 -4743.572442969594 -805.2738845169226 1128.5923143364184
5244.15005067765 -111.09963005320152 155.67366516196518 -4824.4031918663795 -653.0466271183525 1634.9135752864577
7864.939882448475 -74.38096640305552 444.44082003972926 -4660.552444371278 -534.0993769488011 2157.678330576281
10200.754736702804 -94.47435162797842 657.3160854190301 -4301.913506136017 -404.1925337492575 2706.820161543637
12526.323051056535 -79.73215512010702 913.8116154793508 -3768.6344686014045 -229.88077199730668 3260.973078253178
14761.778864258087 -124.33903742996492 1186.1198066183013 -2993.6400252748235 2.2355762432871398 3845.509860467044
16666.933504345885 -191.49351786726317 1435.27340271797 -1797.865403706061 297.2913019097662 4533.822027823801
17962.348684092573 566.1644241074954 1828.2736688761095 -388.03338639978523 454.41726464390985 5473.593580161476
19152.48711060917 3021.4686662112745 2777.2879808399716 -23.889640487498355 6.391813768477636 6358.422822534946
18008.211056746357 568.4585386656823 1836.912746804286 338.66911766353707 -440.3715515713314 5473.100404486097
16765.146215262022 -186.75140802860346 1453.1701024903755 1743.6526226259296 -279.5225060583854 4532.687965438148
14925.358942840096 -116.8579525011078 1214.2756163986253 2931.003604943204 21.5029661093471 3843.3786943264763
12775.043846576267 -69.14383713373329 953.2284350624889 3693.4380043793303 261.2449596937147 3257.267944383269
10560.55682225895 -81.76835340952081 707.2560095443168 4209.285186269209 443.81584071956064 2700.2513998983795
8367.462715959673 -60.864614769515256 501.89353069833214 4544.413804017312 579.9598250724208 2148.050713575726
5917.737698954425 -99.4971146549041 207.47252178245483 4669.246328459822 700.3173001814208 1615.7458822827787
3049.0094995652157 678.088781806935 84.7130825408846 4518.104020547383 870.841767328188 1132.829306632005
2883.6119328361847 1932.1122068368372 1344.3260878562862 5137.857477488743 1118.9930574213174 889.8253231422759
-5454.527483948514 -21580.1913702768 -5799.892682158041 4484.226291161788 1432.80097348331 595.1021551495302
-4009.7302423636647 -12568.972054916956 -3002.547050058214 -4387.0754803999625 -589.0327366959106 219.57580256379205
-701.5017697970477 -291.72401652246083 468.6448460992564 -5751.275506934625 -333.73089720058965 761.0743558530241
-1623.7664168834133 851.737837912789 52.28190415511247 -5774.352129718986 -52.64079666646998 1166.9049987760397
-1280.449404973621 64.63043051522557 -202.92194702333182 -5512.597546464169 87.49961124791636 1719.1692628695753
-774.9792553811626 -55.737638901808275 -132.36312073595965 -5285.971579680064 128.9505952607234 2290.2018221796034
-512.6983435601377 -22.673487022370857 -70.05716710792933 -4876.28802923098 140.25445642593826 2872.374120832746
-267.0782343794783 8.52966762388526 -4.613648597519543 -4280.888154188477 150.51029283400092 3467.4311829705616
119.83792468735862 1.7168214696262254 97.92616483764466 -3443.834278026654 189.65144288372528 4087.253165106974
472.33121569812636 -183.43921159443377 119.92812239436158 -2074.3298540966916 367.1478084258657 4798.158313834902
483.79690793763893 902.1549585603092 334.57871131443494 -128.50656489065662 596.837649834562 5818.331595916483
2180.381369847242 6399.210933715046 2275.52725235101 -26.82258141070386 15.873350701147299 7132.99285417912
530.4870676105935 904.8577744430227 345.59853562520044 73.03326678249402 -563.4228186783971 5817.658394929347
571.314064215279 -177.93688934179377 142.5044156538154 2013.2647654349425 -328.8675426381753 4796.643738660707
281.87118851940477 10.189103984974295 132.83747848624296 3373.0634776950437 -143.820302598677 4084.5138502934747
-27.0745541902333 19.983017259285802 42.95505347187911 4195.58003692876 -95.61279545692382 3462.717127589764
-177.79128829643997 -9.648232729490381 -11.477660393464731 4770.387232880173 -77.13518532571507 2864.53472037467
-329.6407485820779 -45.164471673556754 -68.82491125001131 5151.130146496588 -62.614719909864434 2277.2283395113313
-765.1962719294352 58.07566888971983 -165.6861972989603 5336.321213311024 -25.76346356146205 1701.1850247743623
-1170.2024744993864 938.2539478805885 50.106081817813276 5551.926319039938 103.6417895449591 1157.0177727430826
-336.8755122935805 45.01113063431393 529.3330792397245 5620.278005469582 376.5298766709755 782.3928285045862
-4085.144086482407 -13172.415958957117 -3196.7609382311566 4345.1827019597895 642.231952200994 344.15425047433143
-3148.462398098289 -6291.295604818638 -1108.6607185652167 -3334.200767597951 8.64734830254546 173.37689716329993
-2958.268779246502 -837.2784770143904 152.23914200002875 -4836.535151020714 312.66505521768113 590.5295818075291
-5453.6369848760105 682.831779852501 -101.8422117862087 -5313.257125139709 709.3208367454744 1078.7989798114697
-7586.790854522969 157.76627258544838 -532.1904191726865 -4951.964607653693 841.3917506069207 1619.631154687694
-9378.573564388073 16.474151930960364 -682.5097010772026 -4664.921451731911 801.1317676621582 2162.7096486857718
-11235.98289217081 50.23277631342608 -800.8509135622722 -4299.129535749982 687.6393068718519 2707.291302509483
-13082.930564057075 67.25072454893152 -939.5241622490112 -3774.9981397353044 541.1809838237073 3266.846002527254
-14568.483082935352 193.1174682530139 -980.7622589491475 -3029.323238055955 367.11075269236363 3828.7789664780666
-15644.204983798367 -126.99852359407309 -1146.8843201777431 -1925.4852601353386 326.7738631613 4428.501295879282
-17329.820878279388 323.45491555955766 -1551.7940029470053 494.9635490303335 667.945928239637 5258.754688184541
-14169.55587017067 11580.34584120384 2335.18904120163 -24.143074114881983 25.56517322916788 6973.431225670425
-17282.07726816894 326.630337541641 -1538.311720343812 -544.9214970004174 -614.6970508581999 5258.307208685127
-15544.015247380754 -120.6140649425181 -1119.4489891629469 1870.423936617176 -267.3917338900218 4427.466715914069
-14407.404292630106 202.69588328643096 -938.8390996498604 2965.4394065878755 -298.3799198261113 3826.8259868172045
-12851.252263650193 79.61667528222206 -883.5022886849199 3697.9478580041105 -461.69738227633616 3263.3420046692354
-10926.702374389619 63.73484173281217 -733.6319036264812 4203.125311017683 -599.6536400856883 2701.1306117235868
-9001.099021907894 22.980874638202287 -615.527198548798 4541.946444646368 -712.9647923955453 2152.41766485134
-7200.314247361565 158.74808891402122 -490.5357279054278 4794.77812672693 -768.6224505328667 1605.6751855795555
-5151.270040827101 765.8968346962065 -88.83621435092722 5160.912508545416 -668.6258716269202 1069.4104923630005
-2758.1356473819383 -650.0273173089079 171.47756681090664 4800.452902999809 -296.0682404930066 616.7112464113945
-3210.457030513523 -6653.389159505568 -1251.4863648018877 3358.03645802961 9.363639874758832 289.8842511139279
-2932.003335986513 -2517.6220257185682 18.916685117438988 -1846.0530574385432 533.8766791322757 254.0692604146258
-4744.620980611394 -782.5695102171684 89.19145409474166 -2786.5521983222593 973.7046098819599 423.92439342058697
-9215.654857038686 392.84919036258225 -354.7526371710342 -3192.020458134257 1552.8013123282922 847.6241361713944
-13878.438849542988 167.99091049452392 -977.3184939163949 -2968.275434136009 1677.1756529667796 1278.9977247877578
-18108.026131721683 56.964690330495614 -1400.5469813204904 -2763.1450690725187 1539.3002466070916 1699.2534666970162
-22176.618063539336 61.21859560509114 -1762.3602128207676 -2533.2564451957596 1281.590450826773 2117.877881209841
-26102.89475998267 96.12031251978348 -2115.7468872313952 -2207.6797162634875 945.3196316042593 2541.2536133974054
-29878.55799366954 56.70609197905826 -2527.5579289036045 -1768.87815597001 559.7721921479233 2970.993660427355
-32030.10090143267 623.6081981296327 -2463.2094934761103 -1026.3697069281152 5.830137137719262 3329.6852857453187
-36159.50224452553 -2181.6904985556835 -4536.00416185213 521.7272215804838 260.8082298882543 3804.6793931066272
-29930.725900680798 18487.61151675853 2517.8931550327707 -15.275086112920576 36.766563067956795 5056.3595942719085
-36109.57758143643 -2178.038914845529 -4519.835689927023 -553.3268218902036 -184.5834015451782 3804.8207222082233
-31926.42357229372 630.9040234942431 -2430.4882883859773 991.5800948824112 78.16227934487877 3329.89415894864
-29714.95616315817 67.47785296475864 -2478.0574572688 1728.6258183786367 -464.0367001312401 2971.0845895972393
-25874.63780671269 109.70513542693048 -2050.6715258931727 2159.3697265334526 -836.3406334855241 2540.838072826401
-21889.028112382053 74.91561191300858 -1687.2228988175782 2473.55865027412 -1162.8365736897294 2116.2399878153483
-17793.04349061445 65.06090784988876 -1329.8526134194358 2687.255953246879 -1423.3135851616162 1695.5047998958214
-13604.899590533023 177.26119411570747 -932.3999740802865 2876.3692556644996 -1589.1319125626655 1273.2440879289763
-9046.170924035669 450.75685353788475 -340.7176628093063 3117.910089098895 -1519.2386737293602 845.162885047723
-4670.388631163679 -696.2550185890989 83.99549128839402 2785.836206386598 -980.2127905359507 442.49978301570206
-2980.4600679283067 -2674.481083932486 -61.042050337676756 1870.3891308852735 -546.7216804252638 329.6079023736427
-2561.095838019428 -1087.1523940741913 793.4088175182496 -910.2264578027006 1068.811731169686 306.64227616183564
-5750.571103421163 -704.5045362469631 248.15889679843175 -1305.2743709108713 1729.0581763418786 354.5526788908675
-13169.883786803304 -555.0955300522155 -1039.4516518348619 -1467.5025681633492 2565.6117667486715 703.9199964924805
-21156.460030544804 -1438.709489574943 -2482.531480275262 -1410.998805269026 2678.605714674277 1047.6263933186392
-28132.57423854677 -2136.817385169929 -3552.865137752864 -1312.0558795896927 2414.4519749621863 1373.5293376292748
-34727.16577648188 -2710.5647291335004 -4503.514441386238 -1177.1353472589858 1971.1386841159756 1696.0040465602424
-41128.110906799164 -3206.444553713505 -5428.312542523986 -1000.228593354278 1391.5932550309967 2023.0817924834605
-47335.690886615674 -3944.2054064045833 -6485.5840661201755 -733.1728021221022 703.4531363778722 2322.213990685335
-52868.89949828066 -3677.2778905793457 -7246.113075630548 -358.7838641621656 -284.8731049778617 2676.4347256614615
-57766.06887974916 -8732.231498809177 -10185.966665053917 997.1258277844317 -2068.5043399460906 2403.623421823563
-46723.223021104575 18469.339818682747 -1113.3969239318317 -9.870120093159585 51.123628842206244 4956.960001269258
-57711.00350526009 -8726.533303882663 -10165.95737133413 -1017.5160680638462 2174.2423167316397 2403.911862282099
-52755.88461626516 -3666.120444155381 -7205.971222117154 336.45911563820823 400.68277548592783 2676.9293680489213
-47160.926272871475 -3928.3353222475516 -6425.79355445378 707.6706297513444 -572.4263427563768 2322.7278273985603
-40892.12898913922 -3187.9139228969516 -5351.833752388211 970.4312389597529 -1243.4084659179564 2023.2759455444293
-34448.21479571724 -2695.2776052760873 -4420.336473806325 1142.21848525534 -1810.3506580612918 1695.3761435189251
-27870.891181134968 -2136.3808354899334 -3486.941594057656 1271.6432089471496 -2258.3947219031916 1371.738615046539
-21016.193651780788 -1457.7878743648994 -2467.6984477307656 1368.0302840615568 -2564.6188187337875 1045.3912460825968
-13197.913713870967 -562.1220483548368 -1080.8963161264392 1436.5912485105007 -2537.754625884181 705.3608236960248
-5842.760859975796 -697.976882487145 192.4228398500349 1307.1317050327134 -1770.514342724026 367.3149839914388
-2674.069404837446 -1182.5921426793786 726.1321718402783 917.6067801125189 -1127.1800316415356 357.0375056257991
SCALARS Strain float 6
LOOKUP_TABLE default
0.036585850474611145 -0.13596436003572315 -9.63584680796492e-18 -0.07702572482007917 0.03175513139945829 -0.04001522593601701
0.04405060430832879 0.014133763214456817 -0.005096841727071449 -0.0342163296913973 0.03305332871531021 -0.001360804698789948
0.061382503272372164 -0.019169992638311106 -0.01344258222839006 -0.01613050519168231 0.03229080714114338 -0.011224895822269876
0.08632116583140079 -0.022519628438664837 -0.018899082864428488 -0.0166341240454024 0.028731769509879098 -0.012179438618823252
0.11717523088423604 -0.03239175180802637 -0.02499673433854506 -0.015677207269906256 0.025675796521076325 -0.016727629772013166
0.1484659266680553 -0.041049847886537615 -0.030864948570272967 -0.014224244776620565 0.02016686181613928 -0.020627286346337453
0.17898626409731314 -0.049791967559533905 -0.03638513788586031 -0.011881660662985762 0.012578304885991215 -0.024634358688375876
0.20768504364227647 -0.058179059315923765 -0.04121566470982293 -0.008661065797214441 0.0030658024134939395 -0.028571821105137177
0.23176520437867504 -0.0654623498856726 -0.04486279451352608 -0.004507845330973869 -0.006206842294832543 -0.03263081266218329
0.24709371431549895 -0.06969854746814974 -0.046874197334024044 -0.0008375821546969435 -0.008836841117009083 -0.03699204781381062
0.25207343894756173 -0.06993914265242705 -0.047428013983477964 -0.00010258913102866875 0.00021242180659487194 -0.039966773000358835
0.24728159227804308 -0.06975840382006873 -0.046918458345501034 0.0006270773783229181 0.009257953659582147 -0.03700236702415105
0.23217708767376166 -0.06559324581151121 -0.044958292985068295 0.0042813676265054355 0.006615629584403199 -0.032651267589988216
0.20839798098560647 -0.058404583596626605 -0.04137790222555016 0.008407592250980546 -0.002682653143358325 -0.02860293642221245
0.18012851192021193 -0.05014966624860771 -0.03664036570555214 0.011591040141814684 -0.012240475810706648 -0.024671928733468754
0.15022635056749578 -0.041596906519819496 -0.03126107417018103 0.013882164493707291 -0.01991773428923377 -0.020686336404485986
0.11982073917190375 -0.033193909014781676 -0.025592210488437128 0.015285129770313481 -0.025516447594341924 -0.016733284348039997
0.09021024572595797 -0.023671919474873796 -0.019892000964774528 0.016079043809536186 -0.028915572093993803 -0.012491227573959285
0.06766581820755985 -0.020823748048188803 -0.01463252596408215 0.015458390299790889 -0.03178519881687711 -0.01018957665784141
0.05757426696419441 0.01183622553116701 -0.008735770102559302 0.03550197038521121 -0.04250183385480064 -0.007485897903975635
0.05567833499191434 -0.1434841386472994 0.011452229561464924 0.046299433957067364 -0.05567109034431006 -0.015520194002235154
0.022472727647759348 -0.1180345369240871 0.00949843635311055 -0.04943960067373069 0.0262365881387505 -0.023002389983112163
0.020294935374264952 0.009438565019949687 -0.003333289833611237 -0.04096500484361756 0.021968690293878965 -0.00689944101161342
0.032403100768756264 -0.011758408375449537 -0.008693378324134313 -0.03408389995171745 0.019932596231398408 -0.012094689579112698
0.05627860727205864 -0.01806194155072033 -0.01344091145935387 -0.03452095195177378 0.017623822404743823 -0.01568410082794889
0.07641821932708011 -0.025485243103472402 -0.01779083060765957 -0.033744437752484584 0.015293928543860155 -0.020808230193706673
0.09726941973353802 -0.03255484515178862 -0.0221001682851921 -0.03099477665659672 0.012051850209711694 -0.02591791709006949
0.11753037194089663 -0.03952795653874111 -0.02608965861190241 -0.026930521335276823 0.007541103486118992 -0.031056929603368345
0.13658036761033468 -0.04633497667690867 -0.029566410376269933 -0.021002258438542296 0.0019736105666188614 -0.036360826380450496
0.15264146617826407 -0.05223093346126617 -0.03220998351127419 -0.01240596934607279 -0.0035097648875018327 -0.042398299607179384
0.16298968685230925 -0.05480220086666239 -0.033797650990461704 -0.0032652352082496866 -0.005234265602440957 -0.049971993613982656
0.16641434746564887 -0.05280742900931369 -0.03439559004713914 -0.00018291278919152715 5.088404996868987e-05 -0.055846206155703376
0.16318721682883858 -0.05486447837493522 -0.033833927742372115 0.0028877610256997422 0.005325902015146747 -0.049973076469060095
0.15306958625169584 -0.05236602569185588 -0.0322896525762358 0.011992964346452435 0.003570674450653261 -0.04239908213393921
0.1373080058137579 -0.04656463320685781 -0.0297048604684387 0.02052789874849337 -0.0019643287487336194 -0.03635837298372444
0.11866776056001441 -0.039886418223389376 -0.02631435390559365 0.026366034062833634 -0.007606822120038865 -0.031045172405648355
0.09897647104765855 -0.03309283705845094 -0.022452605056058565 0.03030804743845858 -0.012208032908704081 -0.025892189809225353
0.07890511526536712 -0.026265299047626995 -0.018351903922976077 0.0329019487512795 -0.015580093460478733 -0.020741267852287307
0.059871714508098535 -0.019144941830552372 -0.014274883444435891 0.03338361352032304 -0.01791550881513925 -0.015670446027185998
0.03755955838721038 -0.01325632153722545 -0.010164927241456411 0.03232850698395452 -0.020757260661281272 -0.011623753744818173
0.02495043718361042 0.008842001637783191 -0.004679497794463147 0.03863857842197616 -0.02512243474001276 -0.009896208791473739
0.02572194451131206 -0.12382631425450806 0.011801317242686843 0.030937852805636445 -0.03106526356845686 -0.009342777133746979
0.011587876083028222 -0.08212954788905036 0.010386150850326995 -0.05804516734719096 0.015976128770579634 -0.007618373835821799
0.006804886874475233 0.001969577207026894 0.0004977164337269375 -0.06654061257402785 0.012502990948869116 -0.010722623275053812
0.010068923382085175 -0.0003671695116878596 -0.003753450803348458 -0.05803900400813445 0.009852762822312247 -0.013808658904848954
0.024615425129950675 -0.008146102328468446 -0.006514077463611508 -0.05902799199473188 0.007990217555346846 -0.020003648450627694
0.0364890443592021 -0.01208091848063007 -0.008906949904791968 -0.057023229907789734 0.00653486296506467 -0.026399828985887816
0.047208951607257764 -0.015773626344695667 -0.011174437788713548 -0.05263517701649236 0.004945414530606423 -0.033118740799999526
0.057769878649075936 -0.019349517906166985 -0.013271367780228725 -0.04611035114537805 0.0028126588574041013 -0.03989896472210548
0.06796821003997026 -0.023099805358629606 -0.015082880665533939 -0.036628066191622725 -2.7352932830145842e-05 -0.04705094417523835
0.07667670371239652 -0.026457202776461165 -0.01650521690928239 -0.021997411998278954 -0.003637446517497086 -0.05547264598752424
0.08114831649962086 -0.025275398973068585 -0.017554260063928132 -0.004747702609851607 -0.005559928885048615 -0.06697102733359526
0.08194287113623436 -0.01674100640515882 -0.01823481765749804 -0.0002922967777156343 -7.820572143299745e-05 -0.0777971733581255
0.08134870433445761 -0.02534154636418717 -0.017581591208563202 0.004143716262856498 0.005388075454471499 -0.06696499318421599
0.07710692050312618 -0.02659880613337381 -0.01656634512787052 0.021334102676576816 0.003420040074166977 -0.05545877040067508
0.06868768773494659 -0.023335286213116556 -0.015191880850343733 0.03586169116611598 -0.0002630951146829147 -0.04702486873057114
0.058869733963342996 -0.019706473043076992 -0.013451960318904669 0.04519030028865986 -0.0031964089185778258 -0.03985363131960709
0.04881369659028646 -0.016292292719838453 -0.01146532014639708 0.05150184227894216 -0.005430217345272007 -0.03303837006931998
0.038753666076209246 -0.01280786582947247 -0.009365110116057226 0.05560223948446465 -0.007095979036210044 -0.02628203226026589
0.027695741538004266 -0.00911557732171746 -0.0072376454282850845 0.05712960213660415 -0.008568588143425834 -0.019769126089150255
0.013271383248319233 -0.0012330729074529025 -0.004863136008816603 0.05528033154577549 -0.01065500515324872 -0.013860499751751743
0.008944378562064408 0.0031234390617620855 -0.00047242896020670733 0.06286319737191355 -0.01369120917324146 -0.010887274542052565
0.012985871679056607 -0.08566524856724132 0.01087304928998908 0.05486582756269679 -0.017530741322716 -0.007281249898421563
0.0031140023017606844 -0.04924841819841566 0.009275593595874302 -0.05367715881899799 0.0072069887783589555 -0.002686574525443302
-0.0035509553820008994 -0.0010440797149127551 0.003607588621171216 -0.07036854737894399 0.004083295683377517 -0.009311968589239477
-0.008917516891846227 0.006226744431630965 0.00133595518989114 -0.070650896646016 0.0006440756297891949 -0.014277425867394689
-0.005830409176666857 0.0023983145229197977 0.0007615235073814067 -0.0674482523333426 -0.0010705834787936223 -0.021034541569298258
-0.003381407188284149 0.0010186591714951639 0.0005498915178987623 -0.0646754169750994 -0.0015777484596535124 -0.02802129288315292
-0.002281784222782652 0.0007160148997074151 0.0004261382685560381 -0.059662818240259534 -0.0017160545256836744 -0.035144342184268706
-0.0012623672475665973 0.00042370462371942074 0.0003432984538031493 -0.05237792565148979 -0.0018415377005761926 -0.04242504035629114
0.00042327072368095143 -0.0002993524959952784 0.0002892223105544052 -0.04213632528414503 -0.002320441183499368 -0.05000874460840023
0.002312397846840488 -0.001699374178977049 0.00015652009959615288 -0.025380035861860578 -0.004492161420753842 -0.05870687819284359
0.0005307143856515018 0.0030900812837598886 -0.0003821498759484474 -0.001572315617166734 -0.007302484186243619 -0.07118899834984971
-0.0019860709930129066 0.02382323928081273 -0.0014040020646260806 -0.00032818217255116275 -0.00019421511452691066 -0.08727426550996559
0.0007310596449907713 0.003021327498854446 -0.00040002313878765433 0.0008935834990637767 0.006893643899032424 -0.07118076153792008
0.0027385590885420997 -0.001845093803702991 0.0001152530032963348 0.024632886541522993 0.004023791109938295 -0.05868834692010811
0.0011245327707421046 -0.0005375223348527883 0.0002127971329072281 0.04127042372684871 0.0017596837024199147 -0.04997522828597561
-0.00021626341368842592 7.161819973336275e-05 0.00021215300968322506 0.0513341557456918 0.0011698506738189673 -0.0423673625023155
-0.0008068400958272506 0.0002217997734858342 0.00021060798079434035 0.05836709084923785 0.0009437716792748378 -0.03504842481401723
-0.0013903243939283635 0.0003500010648928439 0.00020525484625027118 0.06302559238067089 0.0007661095142092185 -0.02786255850704752
-0.003449002886654649 0.0015874842807722916 0.0002185881581755661 0.06529145955125187 0.0003152235541701568 -0.020814499126670948
-0.006902166980779003 0.005996625250301007 0.0005632500696657434 0.06792945143327583 -0.001268087777969702 -0.014156452748880693
-0.002396135412963275 -5.988771506661687e-05 0.002903023029369346 0.06876575442018806 -0.004606953785175764 -0.009572806372359074
0.0038852187420249447 -0.051707503301654495 0.00932003329604633 0.0531645883536075 -0.007857896826962866 -0.004210828476511713
-0.004369296475689115 -0.02359604079907708 0.008109490269675144 -0.04079492703879119 -0.00010580284983103954 -0.0021213173299649613
-0.012954150488202164 2.1319596047281644e-05 0.006074839147663649 -0.05917643008302359 -0.0038255489108947574 -0.00722530311857273
-0.02648439461318079 0.011056355476890854 0.00625599693987295 -0.06500926364881539 -0.008678749061357374 -0.013199422811820618
-0.03517394640261512 0.012204520728006304 0.007983609201933018 -0.06058874343491615 -0.010294675536852326 -0.01981666353976269
-0.04319417835132352 0.014281407678047224 0.010005271165466066 -0.05707668599785157 -0.009802082804364638 -0.02646138864275298
-0.05181551741654792 0.017229566673124485 0.012022937040919437 -0.05260111431998866 -0.008413469166496348 -0.03312450534826026
-0.06033528721303288 0.02011288067036147 0.013953787245212186 -0.04618821253344265 -0.0066215085080027275 -0.03997082167794445
-0.06744559833290534 0.022860663862595543 0.015679282002163834 -0.03706466079509948 -0.004491708032954689 -0.04684623676643032
-0.0718213653208182 0.023107427141649154 0.01686812579783846 -0.023558878476960258 -0.0039981743257552285 -0.05418401585553278
-0.07981797248040588 0.028178538258611583 0.016706427227586754 0.00605602460023703 -0.008172514886719011 -0.06434241030237624
-0.08632572392908716 0.07120308654135574 0.014644480234694883 -0.00029539761267734856 -0.00031279741368234735 -0.08532198205528731
-0.07961681342752194 0.02810704486646733 0.01669798757101313 -0.0066672747872616 0.007520999210374698 -0.06433693525916237
-0.07139762979364436 0.022957295087266887 0.01684677555078316 0.022885186988936233 0.0032716165087341197 -0.05417135746534427
-0.06676028860104784 0.02261914776890697 0.015635639638410814 0.036283023327414725 0.003650766077852434 -0.04682234148570561
-0.05934158390420041 0.01976490842807321 0.013872886530976791 0.04524547967418096 0.005649003265454074 -0.03992794923361907
-0.05047403885101221 0.01676157705931574 0.011883568734966274 0.0514264743935491 0.007336938655153391 -0.033049127484612695
-0.041521577057689586 0.013684558780159653 0.009778391744178556 0.05557205061689965 0.00872333393052205 -0.026335463193558815
-0.03341542567382616 0.011604720383470353 0.007632631151207747 0.058665520609503335 0.009404321747748454 -0.01964590815298357
-0.025197121067989284 0.011002017464751603 0.0057730623411367836 0.06314528245781853 0.008180834194054189 -0.013084551906572333
-0.012303862222314142 0.0005928005029001511 0.005618477441045399 0.058734953166389735 0.0036224820013551953 -0.007545643485572213
-0.003948208815175867 -0.02501085242795556 0.008036082316279997 0.041086563721932694 -0.00011456688785839734 -0.003546819072548034
-0.010270078747290032 -0.007735040143302114 0.0077826084405832885 -0.02258700211449202 -0.006532138191725371 -0.003108612127398628
-0.021348741476568737 0.0028896910481821933 0.00822281694748587 -0.034094285720612946 -0.011913562285605958 -0.005186839637138189
-0.04342157093173174 0.015359865593496466 0.010786301472143465 -0.039055309134814004 -0.01899898076257819 -0.010370930607250948
-0.06416772035064726 0.02176337935782344 0.01475678064844949 -0.036317722958860314 -0.02052073740105734 -0.015648913338607823
-0.08331741856203478 0.027809584114093722 0.018893042122814934 -0.03380789260996501 -0.01883379125270257 -0.02079086594548283
-0.10195894389832454 0.03408429213431074 0.02292828060028812 -0.030995137682608694 -0.015680636104330518 -0.025912858781800732
-0.11998591429454188 0.04029041320791906 0.02675899033888231 -0.027011610646187716 -0.011566263727934302 -0.031092985387418698
-0.13711671737702463 0.046016662911700285 0.030207047725210868 -0.021642744496624237 -0.006848977409842162 -0.03635098125697924
-0.1481328024133907 0.05163106501935468 0.03274700384711887 -0.012557935237678433 -7.133344266028061e-05 -0.04073967879033453
-0.160678559277258 0.047185700815806954 0.03278284075796652 0.0063834860054190826 -0.003191065400945357 -0.04655137139796342
-0.17050530495170818 0.12570099454403413 0.028003893977327148 -0.00018689517122813054 -0.0004498497128742351 -0.0618660468004689
-0.16047160094122281 0.047109576783734564 0.03278329063035216 -0.006770116409249257 0.0022584322069349743 -0.04655310060111133
-0.14770140373095733 0.051472835678652996 0.03274431800591626 0.012132274101912704 -0.0009563384768273453 -0.04074223441541987
-0.13643191662061774 0.04576650324255191 0.030193816639048878 0.021150245307042684 0.00567762550739545 -0.03635209380204726
-0.11902281359811745 0.039940225577449244 0.026723803649423276 0.026420523712773297 0.010232873633166625 -0.031087901126376005
-0.10073099259458315 0.033636663130561094 0.02285652165334694 0.03026471760330951 0.014227647489841618 -0.025892818674435283
-0.08194638107758989 0.027303198772140196 0.0187696101713832 0.03287936695740115 0.01741466033614899 -0.020744999904676997
-0.06295697861922266 0.02135741676943514 0.01456890138753658 0.03519322383411829 0.019443496342024857 -0.015578515899359336
-0.04272556555898492 0.01537328672754469 0.010531324980452214 0.038148546972709835 0.01858833200809165 -0.010340816475914413
-0.02111393304936299 0.0031984137570827006 0.00797171099396684 0.03408552534888841 0.011993191790183825 -0.005414114992227281
-0.010163779424261117 -0.00829190799276817 0.007696189624582287 0.02288476113093886 0.00668930056056204 -0.004032849629106288
-0.011637518894315682 -0.0026204531196315855 0.008884156645364115 -0.011136888424833463 -0.013077225887202972 -0.003751858437717803
-0.026417258407414382 0.004452795885832896 0.010280854535030727 -0.01597041583230491 -0.021155535334040042 -0.0043380563064238115
-0.05972479826928496 0.01744802400726096 0.014484904203370206 -0.017955325539837776 -0.0313910145578387 -0.008612668192352702
-0.09402394230388263 0.02660229629963496 0.02021656176825108 -0.017263985382140825 -0.03277352874430481 -0.012818017047672232
-0.12435609167843731 0.03467677377742507 0.02601389340876147 -0.016053389585661614 -0.029541530046806354 -0.01680553542509511
-0.1532373742368721 0.04262889099413903 0.031660257460252424 -0.014402597190098728 -0.024117461547000493 -0.02075110833441295
-0.18135380601390672 0.05063756461693977 0.037044960450041804 -0.012238091024604922 -0.017026552767547744 -0.024753000755065153
-0.20803178374071768 0.05742200978558457 0.041874752102522686 -0.008970584873076563 -0.008606956021630831 -0.02841297118012371
-0.23337356333393924 0.06756341591351961 0.045730541840106345 -0.00438982610268736 0.003485506225567449 -0.03274696605521129
-0.24513227967340023 0.05483943136287265 0.04594599269886435 0.012200127775365527 0.025308758983003332 -0.029409039514006148
-0.244376498303499 0.15444859201109973 0.03464832017298734 -0.00012076382231313108 -0.0006255126352892972 -0.06064986354490123
-0.2449094414243668 0.05476025863081603 0.04595437021834413 -0.012449608362386013 -0.026602494228528235 -0.029412568667839922
-0.23291415113598365 0.0673997002699133 0.04574414256941282 0.00411667623832622 -0.004902471606223864 -0.03275301815021053
-0.20731617698772103 0.05716555588672844 0.04188698787808488 0.008658558293368564 0.0070038046640837565 -0.0284192581234016
-0.18037743381930946 0.05028364658620171 0.03704554880580011 0.01187351162956894 0.015213468288802559 -0.024755376274886682
-0.15206367328026082 0.04218958953205687 0.031636288218869685 0.013975379113701688 0.02215017275744745 -0.020743425755985014
-0.12321832683453954 0.034216324692219385 0.025954070639725046 0.015558928674241369 0.027632123656295818 -0.016783625407674297
-0.09335787178926518 0.026293551790678125 0.02011527534176638 0.016738252887382885 0.031378865546979384 -0.012790669363861392
-0.059788273903863355 0.01751303981483193 0.014339361941411829 0.01757711645244321 0.031050174246349652 -0.008630297137007775
-0.026781621869176403 0.004692350699106935 0.010139501941609744 0.015993140861665457 0.021662763722922522 -0.0044942068629773525
-0.011939441946312405 -0.0028151104601677876 0.008861791228698582 0.011227188839083604 0.013791379210772541 -0.004368458892402656
0.03422252505375618 -0.0874959804877973 7.914675859144182e-18 -0.039619500866192064 0.02113671113472609 0.007476955829535715
0.04338294470996283 0.0043793789674146065 -0.005429403784491197 -0.01771152122217809 0.02280683958080689 -0.002343512596102903
0.06346094464231579 -0.019429117249195927 -0.012297026760353116 -0.006329441107259501 0.021392149129786594 0.0005855168014474894
0.08852227178406884 -0.024318038528360345 -0.017493867822037903 -0.006879901342726811 0.01900888304586577 -0.00040047711028853226
0.11732897973122657 -0.03342135262106827 -0.022562685814359912 -0.006832795132138176 0.014508273884842462 -4.109875813628004e-05
0.14641555791933597 -0.04192010784119831 -0.027166155224833913 -0.007007390352866325 0.008677809885490738 2.795793586504978e-05
0.17487928731856403 -0.05053677265728104 -0.031137293319403313 -0.007169569522671973 0.001349251185175333 0.00013119675132102128
0.20258558332775725 -0.05908561306946107 -0.03418489801333852 -0.00755123121244196 -0.006745408250647226 1.0396371820295609e-05
0.22947528939514444 -0.06784518189432857 -0.035963412643770766 -0.007934280239947657 -0.013043721846679507 -0.0008513967016772287
0.25285832887237447 -0.07681519548672576 -0.03636109032219214 -0.006388633794896085 -0.01191841209347733 -0.003270465398017896
0.26303312144139857 -0.08240432731416975 -0.036153916137636175 2.1505309980981643e-05 0.00011283429688626721 -0.00580396522477675
0.25292156145532557 -0.0768307709223087 -0.03639352070278195 0.006431308956097594 0.01213138920088949 -0.003285353017324624
0.2296110909575564 -0.06787737645313494 -0.036034983618885394 0.007975379373813101 0.013216729969697048 -0.0008806455670493586
0.2028162332538889 -0.059137089854972874 -0.03431064797415185 0.007587487273084517 0.006844639004427152 -3.0376967986483797e-05
0.17524932292963794 -0.050613310162664814 -0.031343782363348616 0.007194931273323464 -0.0013759507094059146 8.268954723102787e-05
0.14700708188460537 -0.04203435871821277 -0.027499383893178717 0.007008780307042939 -0.008909644257521523 -2.5623033041945246e-06
0.11829731068089397 -0.03359835826612651 -0.023091390132270052 0.006805863379845198 -0.015122412407239123 -8.398782640414128e-05
0.09010822182736494 -0.024601383091182823 -0.018359168257335075 0.006748052657178127 -0.020066986053500085 -0.0001553234377517662
0.06638251141963336 -0.01998680667183111 -0.013522164775675225 0.006084787617700462 -0.024155737940013435 -0.00011561869919829776
0.049932700187099555 0.0031810496774571043 -0.0076708779182794356 0.017563007615078563 -0.020409738009090458 0.002764533372947644
0.0434427283570686 -0.08900445908346004 0.003275889499545624 0.02341029175108954 -0.01724242298683343 -0.013774755596125914
0.020486115925678818 -0.0770289863661294 0.004080770579433602 -0.025424902930707597 0.0035597162986756212 -0.0007006331584853644
0.022751854574121932 0.0024839543581627044 -0.002867643514805773 -0.022088236135196147 0.007669300349153153 -0.0021298349361421115
0.0374872517790893 -0.013319035103068193 -0.0078001914683399716 -0.017390625908105254 0.013047408307443695 0.00013983546804816115
0.059152160491960704 -0.01955967482852855 -0.011900841452487054 -0.018057315084762268 0.010941241538808271 -0.00018833785940737698
0.07812732969888106 -0.026489865273998426 -0.015486761415790145 -0.018595906505517856 0.008153174099532774 2.9605298150747396e-05
0.0975176684376162 -0.033320011206086346 -0.01873736067265127 -0.018698264935979623 0.004443148584620479 3.629277902216229e-05
0.11645470167884382 -0.04013398622890696 -0.02149697283069958 -0.01885918721287335 8.743764162554507e-06 -0.0001784508794735831
0.13471303025774406 -0.0468037867928564 -0.02360356290564144 -0.0193625766668298 -0.004754663075368234 -0.0010246267134423647
0.15203123206749028 -0.053611966207626184 -0.024858336597412548 -0.02007461141206418 -0.008442885018347291 -0.0034783931818975658
0.166722752786209 -0.061660803616934476 -0.025204810357584435 -0.01647125347772837 -0.007781111579700903 -0.008832168640044552
0.17304280120270302 -0.06877267705013689 -0.025104827098857745 3.1130793285124854e-05 -4.3471576578177066e-05 -0.014164216839905229
0.1667847562526025 -0.06167992991671222 -0.025217743468458193 0.016532558434387848 0.007674384211350167 -0.008835373506035122
0.1521635947924236 -0.0536511262945459 -0.024890582541780466 0.020131810751668547 0.008276095428424243 -0.0034812554831594954
0.1349352030853224 -0.04686513686136436 -0.023669505150769567 0.019408425014220514 0.004484235954601457 -0.0010180101253753516
0.11680377946473323 -0.040221958275117355 -0.021622960676143943 0.018878947374670565 -0.00043274057626880213 -0.00014404769738346154
0.09806347646344882 -0.03344480552058072 -0.018966941334343294 0.018665800476916117 -0.005092430784224107 0.0001363183193462413
0.0789907765226347 -0.02667234771262891 -0.01589610185900361 0.018476000254866638 -0.009106351380097388 0.0002385535806183406
0.06059117711394405 -0.019833237402180744 -0.012585587108041463 0.017755963593664145 -0.012421905971695606 0.00028485530183386615
0.039990605363823865 -0.013862321161883908 -0.008971456704319166 0.016620705536404008 -0.014911549509081027 0.0005652947237341614
0.025259485565023037 0.0021727786202789313 -0.0041701016771307975 0.020251578989645996 -0.008163812852271234 0.0015505955054955585
0.02231286898906093 -0.07773497352220647 0.004164594371770771 0.015091729297361857 -0.002441426675679331 -0.014530877980011757
0.011357615477985483 -0.055637277003748764 0.005779181823563765 -0.03355659694769344 -0.0005644459512872135 -0.014014124162939325
0.01003920013895931 -0.0007337614889485951 0.0003100148468224789 -0.0383597721131635 0.001753111554802903 -0.002106183271897869
0.0158031200470423 -0.0034455591868677886 -0.0032556771136510766 -0.03172246483450773 0.005264948123221285 -0.000642193820841141
0.028526441931528052 -0.009578073531487347 -0.005743361672854068 -0.03262292370754333 0.0044717410306063824 8.909263295145464e-06
0.038982847429310574 -0.013056572278556977 -0.007727206232697523 -0.03297648455869696 0.002834117360190021 -6.96064026219881e-06
0.04861250513599045 -0.016444739846649174 -0.009421904215819095 -0.033105442228109884 0.0009562636660568728 -0.00021287445660759575
0.05799667237755384 -0.019782459753367808 -0.010817355304610069 -0.03318473788169222 -0.001214114695867681 -0.0009368298175635061
0.0667016449373663 -0.022746477623905418 -0.011841424811831308 -0.03354529253250279 -0.0036788516982696143 -0.002749096946886277
0.07506882577162932 -0.025663950851593516 -0.012420546238051508 -0.0347110353372188 -0.006379305691588292 -0.007005807523581168
0.08411198442264287 -0.03269213482662719 -0.012485009359372789 -0.030022600369006173 -0.007089714378259813 -0.015857193829834963
0.08893759170120472 -0.045209413706482265 -0.01225889864582545 4.566312588750696e-05 -0.00018211536338977075 -0.026094246236776118
0.0841718583233979 -0.03271819038845458 -0.012477866553992632 0.03011216535942767 0.0067000795156360446 -0.01584977496823539
0.07519503857800462 -0.025716587132932636 -0.012411801248669035 0.034793248884711234 0.005914044709567039 -0.006984483245827155
0.06690863095523966 -0.02282659779672139 -0.011843867049163362 0.03360775390154033 0.0030898776249744754 -0.0026980926798068775
0.0583115615251647 -0.019891447582050588 -0.010854557117410594 0.03320190652478305 0.000456779860631911 -0.0008235294269572186
0.04908542097487597 -0.016587476700188408 -0.009534906119555172 0.03303221102985632 -0.001921093224149984 1.925317152864731e-05
0.03970921423781138 -0.013242871821857271 -0.007982384136642382 0.032740879822606796 -0.0040468600455981696 0.00045275351659146223
0.02970315079184807 -0.009841553171431358 -0.0062477293246034175 0.03208659886112044 -0.0059773520042464175 0.0007727325843723712
0.01730498178273031 -0.003758318319729999 -0.004127259090753491 0.03046782046709322 -0.006788456861170491 0.0008929188934181915
0.011146335569926598 -1.503111401788236e-05 -0.000706859215662145 0.03582428004810757 -0.0020642537591352003 -0.0006658330933190965
0.012037023984661336 -0.0556255158252285 0.005206605170917402 0.03064957303525695 0.0012614594674267377 -0.01963853079202112
0.0038498110871502574 -0.035087830647732916 0.006717285419852048 -0.031728418200067346 -0.0018223623155837608 -0.015365076019491051
-0.00018128328688525385 -0.0019487685804721777 0.0032535814150951685 -0.04214350963553047 -0.0017403001770519102 -0.0037779792812461907
-0.003235597506948019 0.002964968017103649 0.0013218953009726054 -0.04007149239149258 -0.001088783030710467 -0.0009532193901977198
-0.0013389111352207742 0.0005628788575312526 0.0005844996765633824 -0.03785076507824166 -0.0015220415543783672 -0.00023580560683157388
-0.0003417307896023498 -5.4489183923845066e-05 0.0003204785059775266 -0.03784538447657013 -0.0020444885608434573 -0.00020206486436155622
-0.0002725741071943071 1.321107906433595e-06 0.0002490655068687199 -0.0379294625235066 -0.002320239207587072 -0.0005989585892384739
-0.0003799841220821085 -2.0734431491438495e-05 0.0002885683871042351 -0.03801847182624515 -0.002510354177186791 -0.001559702629199759
-0.0011109937528550142 0.00046161963589734994 0.00041252619010261207 -0.0377564940944379 -0.002998341125356508 -0.0036163871878988874
-0.0015813690020416386 0.0016646639777252888 0.000560825626951879 -0.03896457476965958 -0.0050808098428180536 -0.008031602972909335
0.0030426250005673567 -0.00451502140923622 0.0007810615677264172 -0.03813733635859333 -0.0078536924336167 -0.017678843677749214
0.007519333216241313 -0.0282497837152758 0.0011953426538276477 4.965287064456518e-05 -0.0003137228824638651 -0.033503049554950294
0.003099859165360639 -0.004547836549923467 0.0008086897741560118 0.03823466338666056 0.007195688382495924 -0.01766834299122761
-0.0014628268301214724 0.0015990481264411501 0.0006116253418015424 0.03905364383575045 0.004333333911124273 -0.008003172507481865
-0.0009226358122424454 0.0003638854635934859 0.00047594708158682844 0.0378233438178124 0.002110141925455735 -0.003551820840187096
-0.00010689925615298834 -0.00014850617413148272 0.00034441319961617755 0.038034059146809414 0.00144646589317561 -0.00142278618454189
0.00011308195473078432 -0.0001537662205211994 0.0002616367881552003 0.037839645065693914 0.0010735333116938222 -0.0003207076525435211
0.00022073965862514294 -0.00023855385401572727 0.000229436469376173 0.037558405529930484 0.0006449884176375014 0.00032971554046669897
-0.0005469415712566742 0.0003417698041738027 0.000295150110594275 0.037206975323387986 5.971088353246271e-05 0.0007267386234898755
-0.002429105730280258 0.0029622324105166705 0.0007483879708646352 0.03878008609131396 -5.194632043361862e-05 0.0006008509156684812
0.0003360626665111156 -0.001183887215960177 0.0024888496126683787 0.04078989503517398 0.0016449101280704545 -0.002840614002426377
0.004181647880605371 -0.035188967030136346 0.0060694738390632925 0.030787228578727385 0.002385307463850325 -0.018727182160358815
-0.0029617755358473936 -0.018212636686585702 0.007579865971764017 -0.02402285229606281 -0.0030742489330060335 -0.01328897072524991
-0.009529249265642269 -0.0007317819337075507 0.005950880486629722 -0.03570140505934218 -0.004963568474736482 -0.0038525714017234843
-0.021015970637637153 0.007945844881489372 0.005799850307126084 -0.03690642040442387 -0.007014653360306835 -0.0009897598509685107
-0.03038298397965423 0.010191774329664189 0.006870992200602228 -0.033550442955815406 -0.007496244701564479 -0.00012127316142089781
-0.039629902900833326 0.013066427893771508 0.008356773699515496 -0.032856122874685575 -0.006977271674280976 4.377765102036891e-05
-0.049251044952819 0.016447641158485148 0.009912920033715163 -0.033028420869794684 -0.005640177338255988 -0.00021809553556976195
-0.05868367242331397 0.019839936859594655 0.011391912909663593 -0.03310733139028187 -0.003886193937362301 -0.0010183331909358767
-0.06843745136286342 0.023164850923524428 0.012675856865622663 -0.0328115413664348 -0.0021662729449345927 -0.0024854652340127906
-0.07832882280521083 0.02867310980052952 0.013541962584595687 -0.032261075414954606 -0.0027053026600061094 -0.005617186534756275
-0.07847797749184535 0.02722360714689501 0.013786129187378498 -0.0407866652497887 -0.00835864098185452 -0.012921534398452901
-0.07386534057873091 -0.016906177496177812 0.01419159969271426 4.675497873482713e-05 -0.00044814177347930924 -0.03504121695523781
-0.07842327913794521 0.027183809479404183 0.013834502084629108 0.04087869694069889 0.007426193203975503 -0.012915685689121666
-0.07821781236650555 0.028594103939649812 0.013635447616371534 0.03234662191316151 0.0016681338467864812 -0.005599013446042827
-0.06826766225546933 0.0230488677092767 0.012806304480241526 0.032878823828784556 0.0009691141438052444 -0.0024391640189068363
-0.058452938477376315 0.019692794647057428 0.011542843046706384 0.03313098801798321 0.0025025642412552407 -0.0009119196808176167
-0.04895452084200662 0.016280277018229587 0.010053881243793646 0.03295823847514696 0.004096821294661119 9.370668395547284e-06
-0.039255753143407165 0.012889355832706915 0.008434834887932905 0.03260187917990746 0.0053817155767778456 0.0005037585462747842
-0.0299546733438471 0.010049293972992986 0.0068045484178891275 0.032964233885409804 0.006073988570104048 0.0007388782716229277
-0.020668158728207674 0.008051932847568348 0.005505449610118948 0.03599980411543898 0.006167376077872968 0.00027012582284038125
-0.00931812341819595 -0.00019577376099153045 0.005440390988792472 0.03512005188175285 0.004994752598461288 -0.003207627866891543
-0.0027954124422837263 -0.018304062405736413 0.00702022775590635 0.023805779244018093 0.003538192746385548 -0.015518651321330061
-0.008715514850356727 -0.007231808758671069 0.008793476745173494 -0.01256276309599355 -0.005509386678833559 -0.00862633072708353
-0.01817622736928049 0.0017985620780428058 0.008518022147508894 -0.019960015040251074 -0.009183757707335984 -0.002621955834643274
-0.03832196610881149 0.012717286399883225 0.010075798669593324 -0.02129051305133796 -0.013561901400042143 -0.0009037505214354078
-0.05908630800596926 0.019852324426267904 0.012910599461943272 -0.01908795581337866 -0.014074796598962559 -0.00014294345261470933
-0.07892230421170605 0.026593706809342428 0.01608377303387761 -0.018464528861486168 -0.012419257626017182 6.6053550068694e-05
-0.09825812025267408 0.03340849171765225 0.019201032421287487 -0.01861205289560573 -0.009294585577816183 3.715964300439422e-05
-0.11722777619352438 0.04019925464734397 0.022066060183677898 -0.018784963523474967 -0.005249423113788833 -0.0002338628526317765
-0.13500254071359746 0.0470346967035486 0.02446008923164881 -0.018436232255295337 -0.0011283443880778534 -0.0009468728476167984
-0.15449864236501495 0.05309651821533135 0.026042703387268513 -0.01901807630754776 0.0025271957311617968 -0.001485116305127433
-0.16251616758907528 0.06735918326233756 0.025800632019239614 -0.025760402415980568 -0.005274717906434563 -0.00482912411949487
-0.15940862227469796 -0.007946183628701165 0.02515011292998709 3.2425418160115545e-05 -0.0005952657425716403 -0.02579476878190012
-0.16246334735465234 0.06731189005462612 0.025869831986573222 0.025824675196271556 0.004040957054450972 -0.004834817320235091
-0.1543935404365858 0.05300297835005522 0.026178997539175068 0.019079381183606206 -0.0038854637355343366 -0.0014929689836441636
-0.13484799658254476 0.046898410804345224 0.02465759018019916 0.018488101613531063 -0.00041743693511368796 -0.0009479887697075604
-0.11703244057727859 0.04002925638227013 0.022311561377518444 0.018812551252998896 0.003493423329830925 -0.0002098339710359215
-0.09804158075450274 0.03322278414202976 0.019468389732197784 0.0185852081582078 0.007383581757253299 0.00012337209215715112
-0.07872411938504045 0.02642470889704734 0.016326306501331968 0.018323707230051584 0.01053994313878906 0.00028832062303067946
-0.05897124856490604 0.019770282699500458 0.013054490697655166 0.01875659207808134 0.012589174830652347 0.00032547844736425277
-0.03832876230222537 0.012846308685104424 0.010030774980458837 0.020844155856196134 0.012919311925649149 -0.00021602236965526371
-0.01820148579567804 0.0021207692800465886 0.008243962133368754 0.019762764349098155 0.009387644219526639 -0.0022855367037913398
-0.008698183405634184 -0.007222371659439108 0.008372852069467392 0.012517255435523983 0.006035044371766865 -0.009902374271233692
-0.011709623939759162 -0.003501443676600568 0.010669778882492018 -0.004811760158695822 -0.010532973779821403 -0.0055906824577952735
-0.02508468974507405 0.0032192035893643728 0.011084272696241777 -0.007810969659394691 -0.01581908808640336 -0.0018227857979920016
-0.055607933932942485 0.01515498448779013 0.014014465415390946 -0.007670989925285483 -0.02201499615048569 -0.000980999573113432
-0.0882320986938953 0.024801693842547896 0.01839935543756911 -0.006955649612681738 -0.02219672097129374 -0.0004063835166449989
-0.11829853605775657 0.033500346093479516 0.02306910482656837 -0.00680073314814527 -0.019084425335653663 -0.0002022017850751575
-0.1472560840148526 0.04209390845647109 0.02758252209982914 -0.0069590277460971645 -0.013739854489966882 -6.55711875166771e-05
-0.17572040935406597 0.05051088641871855 0.031690374811849185 -0.00704767460033329 -0.006912624009745088 3.731286602195766e-05
-0.20281793135682813 0.059633925563402204 0.03508803501035093 -0.007367204887713419 0.000638203952647709 1.8777519949587278e-05
-0.22517291699212702 0.06412529596731757 0.03731847498993711 -0.007584630351359468 0.008411922416317264 0.000137269877169583
-0.248674604042475 0.090118967318524 0.036544898340431876 -0.018385709831741884 0.012549259475652923 0.0029732382654528416
-0.262808582207926 -0.003301779068737893 0.030514676163804925 1.556571177977102e-05 -0.000765861409615857 -0.02742773256660038
-0.24862288541466043 0.09006777991639056 0.036634732836005095 0.018416881117000856 -0.01413383297695584 0.002962559094573508
-0.22507146520423155 0.06402414320360153 0.037496984175806686 0.00761543475512937 -0.010148816157538196 0.00011774613746662891
-0.20267307693476838 0.05948686884301101 0.03535103785276663 0.007395480131511768 -0.002604733303672094 -4.9571378315430405e-06
-0.17554798323094697 0.05032819989869379 0.03202671328943185 0.007067719596323367 0.0046884747772446 1.889545536486859e-05
-0.1470932933221486 0.0418971828839861 0.027967860106947184 0.006958745245367212 0.011328487057156895 -5.9207772084716775e-05
-0.11822702035795525 0.03333300490523269 0.023457816910190162 0.006754549777285663 0.016737553012376283 -0.0001317779079537021
-0.08837445441631779 0.024743531691046608 0.018716487992197352 0.006829372387636057 0.020430432257113863 -0.00021208269564570791
-0.055979080765132506 0.015292017483628793 0.014159778230947415 0.007486668420413401 0.021489210031233434 -0.0006850145030515424
-0.025412824320190142 0.0034598814412924034 0.010996495531488047 0.007718554146110437 0.01648379450857707 -0.0016914075823268402
-0.011906404376493127 -0.003429008878173897 0.010412041319174494 0.0047363480824568534 0.011626982921939106 -0.0063626927910810606
0.04751003582763599 -0.07566380395177814 1.6805133673525319e-18 -0.0024896471089077324 0.009132615630744967 0.000792479858319079
0.0499625278339374 0.0004617751012656214 -0.005072810672365734 -0.017130397216199578 0.012451136308259997 -0.0009501607396500869
0.06253206927058265 -0.02021520803890331 -0.0096888168461782 -0.006778104711932564 0.01171832112201492 0.0009178126319664829
0.086178053363051 -0.025664998784685696 -0.013978935074417888 -0.007745289067895746 0.009795627580677596 0.001059060351086546
0.11344351978739782 -0.034887332953840534 -0.017289754549589784 -0.008116130296963951 0.006298916524575915 0.001461477536007244
0.14073190056754967 -0.04382446721189829 -0.01961377247160313 -0.008521889133753109 0.0019197394497735781 0.0018776868568980438
0.1679510880923269 -0.05322263385594353 -0.020791563372742003 -0.009069220447860862 -0.003029810528475585 0.0022675595044440323
0.19645379590312798 -0.06330922935207087 -0.020714198586524932 -0.010110894660568196 -0.0077581834131111565 0.002442944707307067
0.2283746472901992 -0.07512199924871513 -0.019432732042108967 -0.011351360858193776 -0.010401183081335343 0.002058010266118491
0.26047521935748097 -0.08892053249812687 -0.017493677125249123 -0.009535638621746164 -0.008073137525159606 0.0008913022979345156
0.27547254740030275 -0.09788640790632064 -0.016372043220094515 2.2062322954020507e-05 1.0427412734975043e-05 -9.787297131679513e-05
0.260401468236285 -0.08889139672956223 -0.017505203851212306 0.00958111025454088 0.008081999303082961 0.0008786480445717091
0.22821587562397444 -0.07505613680467105 -0.01946410443186384 0.011401001020007153 0.010372743377062678 0.002032852926933147
0.19618547465400285 -0.0631900085967017 -0.020783781079325856 0.010168196072554682 0.007661320960662646 0.0024065608916183727
0.16753015570766408 -0.05302143446931265 -0.020931188805581768 0.009138014072950642 0.002816004399199759 0.0022237147897167906
0.1400900799819511 -0.04349486553118295 -0.01987163304027918 0.008609955768699731 -0.0023380424415542665 0.0018398266714700889
0.11246690923239638 -0.03435973944121344 -0.017738878484967795 0.008218761698962757 -0.007088563450282893 0.0014393684226400572
0.08470856556193554 -0.02483988717467308 -0.014696580129232622 0.00793335425382527 -0.011146417762087923 0.0011502326049195133
0.05986634528234745 -0.018853772946732194 -0.010885366520382802 0.007046561153847865 -0.01380274611388896 0.0008431766700242797
0.04304519103924799 0.002719690870199444 -0.006453118072260362 0.016740536226735592 -0.012564340321532055 0.0006786594080654882
0.037248201795119444 -0.07192628119537046 -0.005664332179076119 0.02150140072281825 -0.01110634691336565 -0.00663314527998357
0.0209766957111348 -0.06521665297830621 -0.0007476955829598217 -0.00424675789632608 0.004835169867173201 -0.0023668297268683003
0.024349802011336616 0.0008528998504462062 -0.0023258105211742645 -0.01944119924758819 0.005861414203120452 -0.0019911011112216997
0.0387037255366426 -0.014735970848160928 -0.006048868682721592 -0.01753080052612804 0.007337293450977245 0.00022027449278001383
0.05835013068351603 -0.02096557903672452 -0.009101891288640853 -0.019321533935677992 0.0061344423948934464 0.0005566034989372497
0.07617389621635937 -0.02807423408311546 -0.011468909607003483 -0.02042407344167469 0.0038859078656016464 0.0008131503111344953
0.09436106514237964 -0.03529139174926495 -0.013051460642313505 -0.02115075856685784 0.0010389043090723504 0.0009398141911535474
0.1124856020741453 -0.0427821000672225 -0.013826157957992042 -0.022337653427192045 -0.002069036747513685 0.0008192696247259165
0.1312403728760308 -0.050638498398310916 -0.013761788332822454 -0.02479435580092602 -0.0049385447345124105 0.00014743219597171858
0.15159342025409264 -0.059816906516382246 -0.012930771689495524 -0.028376778301995198 -0.006500138823866961 -0.0015620557646780359
0.17143292388904435 -0.07233825626972563 -0.011645668994513685 -0.024868366660430574 -0.005069460560882982 -0.00442195660226247
0.18055660875867366 -0.0836215797350733 -0.010824159919844879 4.2790078846533566e-05 -9.362187157004758e-05 -0.006463252787505818
0.17134245521261113 -0.07231490287930172 -0.011615946294987495 0.024957864440058642 0.004864494716932031 -0.004424961241380816
0.1514023906749653 -0.05976321076103077 -0.012877809127991139 0.028478696540709246 0.006241292935912797 -0.0015649424426012247
0.13092769116615818 -0.05053923362222665 -0.01370064883423572 0.024919459260632538 0.004586206620064607 0.000152744496331925
0.11201706532327901 -0.042611121709091426 -0.013784309033763919 0.022500766633001643 0.0015736789457967996 0.0008499333392259611
0.09368305114118407 -0.03500596339197576 -0.01307513458604413 0.021372936037373984 -0.0017527391166706333 0.0010291254622280227
0.07521001849019586 -0.027608770580321948 -0.011626329087462433 0.020729190852918956 -0.00493099332234883 0.001014207169411818
0.05692571409174201 -0.020232217311415102 -0.009505891098489696 0.019795270662971712 -0.0076781857890363785 0.0009600379883855821
0.0364041837638375 -0.01348326567728912 -0.006801551348196601 0.01844537228707992 -0.009125890486062663 0.0008485391821132591
0.022314966860123287 0.0019839038663210067 -0.003828911004964195 0.021134089521985224 -0.006560922383232331 -0.000246030639463123
0.019785828252734606 -0.06241398792489592 -0.004286856619469592 0.015970364310368555 -0.004290384546441262 -0.008580204002139382
0.010787946605424415 -0.045761154824584496 0.0013461377533691974 -0.027523821691785126 0.001696358205458017 -0.008159966157410225
0.010473111246331969 0.000602759063457318 0.00010501433575915954 -0.03383884861661622 0.0021341075000482607 -0.0030095006025403458
0.017101648748286014 -0.005079495689112399 -0.0023406885605984453 -0.03154358111234939 0.0029857838781356862 -0.0007669550015799212
0.02918258190630682 -0.010903695573974985 -0.004330182759961678 -0.034084199377031645 0.0024648671092317156 -1.0981108981150271e-05
0.03878366310310064 -0.014405721398129538 -0.005712117098590551 -0.03540560354724007 0.0011991437377617945 9.353236329650148e-05
0.04770506847647863 -0.01799578531983043 -0.0065463081681625184 -0.036661264685912145 -0.0003012103437820984 -0.00013688122330993377
0.05647341677608984 -0.02167341808220196 -0.006867436343014049 -0.038546928767152336 -0.0018568982849332572 -0.0008922027097738559
0.0649933574510541 -0.024979593914324957 -0.0067049768627918446 -0.042216961136117864 -0.0033055965871529995 -0.002575385746212657
0.07461675590486588 -0.02879091873942937 -0.006096605028104069 -0.04859262484691352 -0.004297698782432236 -0.005789686008109098
0.08726745637580768 -0.04001659745711137 -0.005069759915973477 -0.04508875364707602 -0.0036906030920626953 -0.01061489966304869
0.09447841620358254 -0.059307957389384415 -0.004163171601651097 6.904412850812775e-05 -0.00019577514418887316 -0.014102650078924672
0.08716201796209519 -0.040005152027368276 -0.004999344499214391 0.04523336765980518 0.0032767507542402555 -0.010608544059552437
0.07439734426576339 -0.02876228959146235 -0.005960649660760015 0.04875798930570401 0.003817291678021182 -0.005770467523107526
0.06464339021791593 -0.02492142536247209 -0.00651569845766841 0.0424212176918804 0.0027151156527176474 -0.002527333876106173
0.0559683194956758 -0.021564682363909772 -0.006649517177436028 0.038815910331653346 0.001112077406138686 -0.0007830200206181653
0.04701117962331335 -0.017800801235770523 -0.006344371436558604 0.03703217860059365 -0.0006475110590608352 9.155395060420003e-05
0.037851619241735676 -0.014070633339397114 -0.005601604579887987 0.03593216803406739 -0.0024178821419518466 0.0005402401774817103
0.027906719723298095 -0.01033685995298554 -0.0044265971696573975 0.034888726679463425 -0.0039974803494901325 0.0007632563399255486
0.0157831968804321 -0.004277392685621858 -0.002814519358567401 0.032995662309063534 -0.004517606477119183 0.0006212075040882154
0.009882334170299068 0.00042887333877476006 -0.001144247057397974 0.036369503581081146 -0.002569907321480113 -0.0018203860352785622
0.010757726461313484 -0.04400471349321268 -0.0013269994340552793 0.030114745123128908 -0.0011579007510186994 -0.012621470146602342
0.003201737410516207 -0.02890997846220346 0.004167844607459863 -0.02965414134976992 -0.00020197934589733212 -0.010462859275529845
-3.4944741055830953e-05 -1.3722717167149575e-06 0.002777297309583607 -0.03966715950791573 -0.0006492228103097851 -0.003534828100457714
-0.0018859751284297326 0.0021565213839611877 0.0013574672697368832 -0.03935352176868794 -0.0009294097616223316 -0.0010582988726632243
0.00034180987057616215 -0.00026867066492038876 0.0004541735087528544 -0.03920800163464379 -0.0011928038100177626 -0.00020516530752931288
0.0011222334780840006 -0.0005965037905804995 6.239301540789397e-05 -0.04037047077799704 -0.0015642943284591823 -6.337968180426043e-05
0.0008849376550364103 -0.00040860256219926857 1.186763086200725e-05 -0.0417975601503344 -0.0018390040813482458 -0.0004030072215029571
0.0003058248726637294 -0.00029759081653905114 0.00018809244414088154 -0.0439672552248835 -0.0019864538931191156 -0.0013514255324202915
-0.0013183972032068019 0.000739804190220988 0.0005227899694595896 -0.04709824554484419 -0.0021785073052655794 -0.003294496485545096
-0.002229979955264391 0.00272890471044516 0.0010005922578983262 -0.05398968003552072 -0.0027299667422478573 -0.006836837243107659
0.00511372855015885 -0.007453531093937041 0.001866250737194348 -0.05638788342272269 -0.0028990709785339263 -0.01233606758764307
0.012118802940813717 -0.042637467560861626 0.003097096854014787 7.824439607015442e-05 -0.00029763516095304894 -0.016830700349054952
0.004993821471805997 -0.007454458397845635 0.001977436227460159 0.056551785697496984 0.002277354446196028 -0.012326866267551466
-0.0024766427584961975 0.002731481590263015 0.0012196616127430272 0.05417713204575294 0.002030604465363992 -0.006810840607146647
-0.001703747656399589 0.0007552765322624232 0.0008401747816981406 0.04732974689235721 0.0013557777761318507 -0.0032331753175885436
-0.000232063217481771 -0.0002532888030279054 0.0005817061652865708 0.04427221468221744 0.0010049271561323432 -0.00121804338798636
0.0001823178230285985 -0.00030871559997180313 0.00043697417413803604 0.04222103911984641 0.0006780020085616305 -0.00012929974259338856
0.00023727958404596102 -0.00039488590687597507 0.00043768257764878655 0.04098457799498785 0.00022210252708370964 0.00046099624147209924
-0.0006671950168590489 0.00010017374862666579 0.0006463847393433093 0.040142867778999385 -0.0002680042385452202 0.0007392955380910666
-0.0026255463947917 0.0024354149961432264 0.0011552937120514616 0.04083028352258891 -0.0002796906437112409 0.00041873864870782106
-0.00015136890291785014 -0.00030210512667890336 0.0018312525120195015 0.040899297544154195 0.0003943512352407713 -0.0026689491083606107
0.003412319447530341 -0.027461190974236757 0.0020973425920881635 0.030174416445297423 0.0006263872847892834 -0.013364189151881426
-0.003544703622310837 -0.015166905056540116 0.007079899801527545 -0.023659774085385183 -0.0018001288170545902 -0.009832114975673729
-0.009426466501058389 0.0008084305911660768 0.0055577954871603805 -0.03474967124128958 -0.0032137652627018147 -0.0030185531557020665
-0.019505392087941578 0.007806958325733321 0.005037557649529397 -0.03665698165375918 -0.0047091666323413085 -0.0009021287191725413
-0.02779747071651463 0.010024373789286101 0.00521775937415658 -0.034876227839145964 -0.004820921624095181 -0.00010278753872555388
-0.03655038287768446 0.013334890830330423 0.005818862268209651 -0.035319621360000275 -0.004344673574217164 9.782728815227366e-05
-0.04604189761783054 0.017189569921465947 0.006559320049927806 -0.03666160180996881 -0.0033964559769687386 -0.0001388596042430044
-0.05572078363943593 0.021210689844942947 0.007239985029616577 -0.03848160999103686 -0.0021422436403035023 -0.0009029143719313668
-0.06672866518464884 0.025611450020495124 0.007747405413592528 -0.040856628949767146 -0.0009978898113458749 -0.002470401219282281
-0.07891856028105249 0.03352181209643375 0.008056815305580407 -0.044143471300159574 -0.0008720287630215034 -0.0053150958530408556
-0.07786606953134002 0.030093161819987637 0.008533844361476648 -0.05856892158389306 -0.0018268961670143862 -0.01035827915278113
-0.07081961346545099 -0.03257190679218492 0.010210788520423874 6.927874049238487e-05 -0.0004014975600438324 -0.015547909780175707
-0.07800123897605062 0.030079849416330958 0.008686564523289643 0.05871401656375301 0.0009930446685625617 -0.0103527425040271
-0.07919421836525085 0.03349828863807673 0.00836064917688151 0.04430929822906243 -5.1401883642584835e-05 -0.005297557636839577
-0.06715245591188454 0.02558422869590121 0.008195700740984874 0.04106109881054922 -6.36664196909149e-05 -0.002425108556200904
-0.05629589253491751 0.021190442242101475 0.007813573775316492 0.038750439277816004 0.0009148875270771666 -0.000798255609651887
-0.04675901645290103 0.017193462470989126 0.007213955020916994 0.03703684231518493 0.002012186250696758 8.423320804699038e-05
-0.03737138011502399 0.013397172344840105 0.0064669262328338585 0.03587266575471374 0.002869366312432573 0.0005444806644449698
-0.028581052189075307 0.010153055407008485 0.005706157820341307 0.03572069058537426 0.0034280255849303506 0.0007245184179295895
-0.019945293945770975 0.007813034809912564 0.005127443773737016 0.03768134206877187 0.0037673217520780796 0.000297546679707212
-0.0093918343107431 0.0006211053262295626 0.00493508323012532 0.03520368262146801 0.00308508648544929 -0.002378366360651557
-0.003304596536725433 -0.014146575751514128 0.005516015549982269 0.0235077353382526 0.002145126289974679 -0.01170719898536064
-0.009263837563632775 -0.0062854500586603385 0.009751891699792379 -0.012783960858924212 -0.003817300723227978 -0.00594640106597488
-0.018076178434518565 0.0026595414561255315 0.008271391064034512 -0.01988321395570577 -0.006149087235278871 -0.001313151638754078
-0.03655473290967423 0.012848995745693599 0.008670507506312177 -0.021619436376468678 -0.008665231432295195 -0.00017663433096179497
-0.05552221371096906 0.019968671526445724 0.009929595383577046 -0.020276377915231018 -0.008470489288611225 0.0004669968956528411
-0.0741294082423514 0.02713676664861678 0.011518941461079278 -0.020330094554039765 -0.0070689291069200655 0.0008027617850810961
-0.09282346949140305 0.03460568561955838 0.013031255421353272 -0.021146041482209048 -0.004796534592818727 0.0009350507176530651
-0.11178054542047873 0.04234411754166785 0.01418979170334184 -0.0222832838411415 -0.0019908829289219717 0.0008123563896799082
-0.13042873924666215 0.0506878245840848 0.014796208196612889 -0.023257708575944547 0.0006800464222562883 0.0002567481148773775
-0.15383538233429375 0.05894160148867062 0.014831363163101715 -0.02585703222217935 0.0020929057205677786 -0.0009302084389819942
-0.16448147606367344 0.07782325948804047 0.014369294087519417 -0.03512616612087348 0.000574198886260399 -0.00412204791479892
-0.16083798916256603 -0.025398486777270725 0.016149319497898294 4.3286689360398374e-05 -0.0005096370597963548 -0.009997481868691316
-0.16463399349933147 0.07779802670182484 0.014564969458223172 0.035216703115647306 -0.0016297093501803155 -0.004126797282831848
-0.15414458645936305 0.058892920808661785 0.01522310140927394 0.02596008254710324 -0.0032530928886736546 -0.0009365980556493848
-0.13089882274335438 0.05061939881086585 0.015380924620142618 0.02338387242355223 -0.0019994044592149176 0.0002565874431380573
-0.11240613881713588 0.04226150216167547 0.014952403135005782 0.022447701175398946 0.00048765945234986876 0.0008348055667333329
-0.09357163709618185 0.0345172610767911 0.013929838820011258 0.02137321174067967 0.0031410276462106837 0.0010127278720857638
-0.07490670542413566 0.027052277677003918 0.012461697757954355 0.020666161149439526 0.005391376532444036 0.0010001505264238262
-0.05614211712586705 0.019871716358880725 0.010745939018439813 0.020767730708663213 0.007054982266008908 0.0008821913069394097
-0.036805932248535046 0.012672367526218017 0.00909424897625033 0.022120322561015097 0.007919900083775265 0.0004361784943704214
-0.017962593917207927 0.0025308689792540797 0.007990086287253386 0.019993459898083623 0.006192836394288474 -0.000988831350854664
-0.009015803057637906 -0.0057029295717989864 0.008627418402603705 0.01255761600041242 0.004229278705258393 -0.006994561244573502
-0.012332269106848474 -0.003304239284312699 0.011803078220905976 -0.0049832896940443395 -0.007355112793745861 -0.003052060603430416
-0.02501908246709715 0.0037379836591976377 0.010810856389046102 -0.007960206428525931 -0.010135209038190398 -0.00013915465334587174
-0.05343875957712685 0.015299375328649167 0.012275934199859378 -0.008249497820838315 -0.012952835856255552 0.0003704459869639171
-0.08346053634938645 0.024892486003665112 0.014659923199884869 -0.00794452023076777 -0.012098322540004564 0.0009088677990275982
-0.11157542167671769 0.033961051639280454 0.01725835727821432 -0.008055811252945171 -0.009559095668120582 0.0013687045952188858
-0.13932220669536313 0.04324828062481566 0.019536124751495087 -0.008483660228279746 -0.0057522983612003295 0.0018208462322242503
-0.16735624782493086 0.05267694364627418 0.021126150813924313 -0.008909425948445543 -0.0011223899569960164 0.0022255216517540746
-0.19507968231157183 0.06362377789172032 0.021775916268243663 -0.009855548100094407 0.0034499172924513793 0.0025250345367181046
-0.21991643307475092 0.06936741190017352 0.021317513703908147 -0.010425453090079478 0.006415179768033736 0.0023870801807405594
-0.2539557115921294 0.10483034802113007 0.019644089669740475 -0.02296124033413713 0.006126691811521113 0.0014769314852403994
-0.27681143376638684 -0.02166893187695189 0.018892092754556365 2.2512616276399843e-05 -0.0006236152484198821 -0.007004231206723492
-0.25412885563362003 0.1047993328009919 0.019884680593600965 0.023008588034894865 -0.007417157771298806 0.0014666285546964882
-0.22026631202099725 0.06930652198723047 0.021801547051799382 0.010480035164018011 -0.007830798953242735 0.002367278658132379
-0.1956085048394503 0.06353528537164668 0.02250493676262613 0.009923274870877116 -0.005056540618330121 0.002498065926705045
-0.16805303225363238 0.052564098012041524 0.0220910956379321 0.008998086592238193 -0.0007058072751632867 0.0021969125253352034
-0.14013610960791445 0.04311470723043286 0.02070074094591513 0.008604292220466062 0.0037420856467523245 0.0018034131242411577
-0.1123642884337881 0.03380390380993949 0.018532240571622026 0.008227250575661125 0.007542553161116398 0.0013914911176746174
-0.08396607459826477 0.024686841858811745 0.01586109824649865 0.008182853703080873 0.010477851884713401 0.0010217725626295354
-0.05346861261142924 0.015031522388295042 0.013105222256911173 0.008497701308114312 0.01231766707140369 0.0005668499271984394
-0.024737704646861095 0.0036056872375842836 0.010904530250860028 0.00805316148491979 0.010585805981941762 -4.5812207168487715e-05
-0.011995585896948744 -0.002927357257039215 0.011028640023263198 0.004914357391854803 0.008270831341626433 -0.003679777447078901
0.050398429810735695 -0.07316271000769585 8.063753657860939e-19 0.005667023511973028 -1.3115532694184945e-13 -6.250120592517922e-14
0.0515514048030097 -0.0009473347112934888 -0.004383655502820873 -0.016807515270178416 -6.681142455684103e-14 2.3237976213424938e-15
0.062272065763370806 -0.020608763428193955 -0.008226162400035656 -0.006533536773295888 -2.6489606948926214e-14 -4.387413826342779e-15
0.08503261848155248 -0.026115475642097746 -0.011869217369183872 -0.0077692185716721355 2.9073897694735507e-15 5.956132397184899e-15
0.11173230138873996 -0.0353393615050781 -0.014450871809005174 -0.008307230631082421 9.849214407378279e-15 1.5987550367781156e-14
0.13864929257938308 -0.0444661422031105 -0.015760183063815318 -0.008930064593676854 -6.0057769982234735e-15 -9.199008200143355e-15
0.1658607216013833 -0.054248424369319724 -0.015693677992527275 -0.009726090644289035 -2.503998121046805e-14 3.130444037671709e-15
0.19514734560571476 -0.06500394224240115 -0.014274265856147253 -0.011022020158176467 -1.4900244666576912e-14 3.3793470409146376e-14
0.22891661867442095 -0.07777235241978983 -0.011801433310157712 -0.01239396663758383 7.081554581015587e-15 -4.8764567687695215e-15
0.263400424046042 -0.0925576742043115 -0.009139370940109836 -0.010355103302508667 2.7218282288394777e-14 2.4836767842026375e-15
0.2795684941208105 -0.10203613395879842 -0.007864268148372128 2.7328004077457196e-05 4.367351342767292e-14 9.268857925105733e-15
0.2632686387869277 -0.09250948754431801 -0.009141824642336578 0.01041228378063767 6.995762340733166e-14 -8.79374698059543e-15
0.22863403209226296 -0.07766445679254136 -0.011816534610995693 0.012459221594301465 1.3869558035698934e-13 1.78831423411005e-14
0.1946705525818396 -0.0648106646206122 -0.014324168435896205 0.011102704140620588 1.5197557296821318e-13 9.661054508475209e-15
0.16510879886087879 -0.05392506935031902 -0.015815178590022797 0.009831820122843088 1.2973391036515017e-13 -2.2178304115091918e-15
0.13748400603585056 -0.04393737395765409 -0.016005572464411085 0.009075692890293897 3.689394642114423e-14 2.4712897743819906e-15
0.10992974565596021 -0.03450050671336384 -0.014887187193844452 0.00850225156827912 -7.21508830871069e-14 1.9741695257702307e-15
0.08225711762859073 -0.02478390366408501 -0.012566824708574249 0.008083808534827364 -1.0892538769829291e-13 2.20880442842325e-15
0.0577914789984141 -0.01859200503894683 -0.009358929453499736 0.0071167471759557566 -1.4426474067002343e-13 1.032495893253313e-14
0.04139546529968271 0.0026035953537321853 -0.006300250410518288 0.016038519012020466 -1.3274598027789367e-13 -1.0924692140507064e-15
0.03568678757396834 -0.06895515220829353 -0.006428213795770057 0.020416358202673145 -1.1983670349449693e-13 -6.056543070884213e-14
0.02107298020797533 -0.06363871786861752 -0.00015849597167745945 0.0004449334343348087 -4.0284951345918515e-14 -3.705208069613303e-14
0.024902260616880754 0.00014451683820570683 -0.002249623846349178 -0.018464558959986162 -3.740401610945361e-14 -1.5572585538789485e-14
0.03907134381066048 -0.015155715945300187 -0.0051907327528994554 -0.017098439846553688 -2.827611463116636e-14 -1.5386109541385556e-14
0.05783857548871387 -0.021266509274183613 -0.00784301113166194 -0.019398756678336605 -1.2788118884687373e-14 1.8969472260349507e-15
0.07526225981696448 -0.02836261752493016 -0.009755126990090039 -0.020843918590538843 -4.50482021612875e-15 1.1155274837540419e-14
0.09320802707080011 -0.03568683832627548 -0.01072836822451954 -0.021998099051640706 -7.994458739479012e-15 -7.212776925204223e-15
0.11134994031952719 -0.043444332521593305 -0.010748028866484688 -0.023735591419345645 -1.709620129925621e-14 -1.294255501382846e-14
0.1305987246569084 -0.05177291595058188 -0.00988286123061099 -0.026832084126270098 -1.328502398693053e-14 2.2479766529151513e-14
0.15203501601270913 -0.061628599735988415 -0.00835485369542069 -0.03083374289001 -9.733563916891966e-15 -2.7451172303176452e-14
0.17322405091289508 -0.07484692122585139 -0.006679368264299354 -0.02688601512604265 9.752274874696813e-15 -2.5500353781696128e-14
0.1829953814996701 -0.08662484875920727 -0.005834255689104141 5.289772262829061e-05 3.071235079405918e-14 -2.000344876719462e-14
0.17306875995560322 -0.07480563206972843 -0.006630333395415937 0.02699850473953462 3.138621293744502e-14 -4.064526222102155e-14
0.15170732008397914 -0.061535558930998185 -0.008264105748634119 0.03096797280638087 6.797447533232054e-14 -1.956789764945288e-14
0.13006120413860206 -0.051605121107010134 -0.009767147835366221 0.02700844689656892 9.377466183668574e-14 9.16489648929153e-16
0.1105369591650094 -0.043161462033327276 -0.010637050620830582 0.023984032291239646 6.777282855131481e-14 1.0679648896998184e-14
0.09201065198611301 -0.035222262845688454 -0.010668991559468365 0.022360049121338033 2.4601975391245166e-14 6.393792288152123e-14
0.07350926785144506 -0.027612391253467053 -0.009812358379898845 0.02137424441519548 -2.3909507322139936e-14 2.0940314640702923e-14
0.055247803771788395 -0.020094590295661033 -0.00811549142533348 0.02021422482609777 -6.530859837303171e-14 2.4290424814783773e-14
0.035235533333196074 -0.01329026408312338 -0.005825116529215239 0.018675450085306716 -8.544102654117064e-14 1.4020848284473919e-14
0.021602311405842893 0.0019110183713855406 -0.003997116450127235 0.02050533075948199 -6.478984363239766e-14 -5.739623999603122e-15
0.019045716013998185 -0.05987537998082021 -0.005101584739787659 0.015129240034791937 -4.22971729798112e-14 -8.756081797123283e-14
0.010669236625161227 -0.045249518380709376 0.0015200627099358425 -0.025418813331772806 -1.428924761447039e-14 -2.8584990277580324e-15
0.010749070349556761 0.0006673888487116009 8.771541159942168e-05 -0.03194185125625417 -1.6223008586458906e-14 -2.5677038078229797e-14
0.017556088130126393 -0.005435968274908525 -0.0019234736972471116 -0.030983668963793124 -2.670769718053699e-14 -2.2814480068588522e-14
0.029231160809803668 -0.011094849369924956 -0.0036877196378302646 -0.034226726403860416 -1.9115358544800128e-14 -1.922160347556101e-14
0.038555558722716744 -0.014537725155635381 -0.00487677163658511 -0.036154074541690034 -1.9213281376854238e-14 7.821685194062816e-15
0.0473429448923727 -0.018133279455831174 -0.005423245693402795 -0.0380743498789979 -2.409300769280016e-14 7.291435792818046e-15
0.05609724267808798 -0.021894520455894368 -0.005371529857035906 -0.04084682929450414 -1.384037266846834e-14 -2.6189716628016724e-14
0.06481317746081461 -0.02535508632095437 -0.004809984767457502 -0.04556765785603234 -2.586700215731052e-14 -1.914314789585453e-14
0.0749172834710002 -0.0293995218888906 -0.0038573344893768667 -0.05266139530355178 -2.802837782288521e-14 -4.698868518674543e-14
0.08834557205394908 -0.04088757737960863 -0.002723761177121754 -0.048542921688690004 4.194327583818477e-15 -3.503187323561363e-14
0.09599924619193308 -0.06073019051378762 -0.0020433635691480684 8.26545609124768e-05 3.2031109942166555e-15 -5.154238852129317e-14
0.08816997790424562 -0.040860440469352485 -0.0026245470989964 0.04871923254904612 3.665616394405921e-15 -5.418556499759558e-14
0.07455196175189983 -0.029336978394539727 -0.0036640419520367245 0.052873548635931966 2.2491743575025688e-14 -3.846756084242148e-14
0.06422912521368683 -0.02523930863268541 -0.004535543667345444 0.045849857271209174 3.422696916605692e-14 6.252702348941153e-15
0.05524742584810984 -0.02169470276720402 -0.005041880438947201 0.04125035079616824 3.4763421813090905e-14 1.6471768610540338e-14
0.046153163181713364 -0.017796535404173572 -0.005084250780403685 0.03867516582745493 2.0533603724265772e-14 1.0049209050620386e-13
0.03691319536391144 -0.013977810896212282 -0.004603551002546091 0.03705443205548464 -1.082488624833209e-15 5.992674753782165e-14
0.02697652633646481 -0.010197921868928908 -0.0035953811183954904 0.03564027852866839 -2.3820189391917865e-14 4.046441052238739e-14
0.015239166403523323 -0.0042393921897662884 -0.0022376565444464603 0.033362027617560706 -4.08887562412699e-14 2.2189525607577143e-14
0.009590846137971456 0.0003956365484262303 -0.0013472046436769104 0.03546150158303705 -2.222081881629698e-14 -2.0057997688997797e-14
0.010379554933378873 -0.04219839221651807 -0.0021941599199516875 0.028820795554525366 -1.2985142136350512e-14 -1.3028857506758307e-13
0.0031745357068772937 -0.028604594289545 0.004176711971087745 -0.028438670961059224 -3.787051272889034e-15 3.2526607275651376e-15
0.0002329977123019425 0.00012959507737637382 0.002655020410146182 -0.038192225707284325 -8.838924329870185e-15 -2.103526364595834e-14
-0.0013380356724897269 0.0019239511522427858 0.0014070991274156056 -0.03865205735711161 -2.6043981221309832e-14 -2.7873123459917076e-14
0.0008215302689115517 -0.0005209155845281112 0.0005008711717580333 -0.039380558164806165 -2.8254015541572496e-14 -1.9555158273926176e-14
0.0015281745083983846 -0.0007728781394750704 3.3720536753219585e-05 -0.041246229400141665 -2.9893910290972395e-14 6.2032559536122356e-15
0.0012505657059176272 -0.0005476540115244115 -4.825748346381786e-05 -0.04343035493309806 -3.611318871981489e-14 1.4681140960044747e-14
0.0006164517883928576 -0.00040265054275413184 0.00014234656787411693 -0.04657974812371195 -2.7863214868500095e-14 -2.093725854582923e-14
-0.0010964561967534694 0.000698100845241168 0.0005097498692628923 -0.05083648058093344 -3.566959841237076e-14 -3.672298467920221e-14
-0.0020631288668179707 0.002754652007719451 0.0010360533614866272 -0.05845142605862861 -3.77240971547268e-14 -7.524617864559935e-14
0.005659380706209148 -0.007427672555042073 0.0017882284629895597 -0.060357519348991334 -1.704815928455384e-14 -5.723560189165033e-14
0.013026569854540542 -0.04336309781474385 0.002399506335740693 9.271848371741828e-05 -1.9758452534014313e-14 -4.124235946246363e-14
0.0054645542646400555 -0.007415170740198514 0.001937469767828354 0.060555415385291175 -2.0902760799711693e-14 -6.965508356736316e-14
-0.0024635200090178553 0.002785708896633792 0.0013313255451833628 0.058689910089275876 -1.2878679041666152e-14 -6.499140147494392e-14
-0.0017221209740082074 0.0007604197792889428 0.0009412525331374104 0.051154092280446005 -1.9679466499924613e-14 1.548324727977668e-14
-0.00026113105075945204 -0.0002877008505250138 0.0006867389410332244 0.04703525930773711 -2.9106034124754335e-15 2.0188562735619364e-14
8.75454950771539e-05 -0.00034208538345947164 0.0005612827527626522 0.04411422469028376 1.096060210230591e-14 1.1158046329343835e-13
3.0072059350609218e-05 -0.00041059917995170717 0.0006217470627981195 0.04229655468733432 1.826366681045681e-14 6.893694870589023e-14
-0.0009261184255767534 7.547734953727647e-05 0.0009210574156702432 0.04100252851325636 7.129820212416031e-15 6.40342745733373e-14
-0.002691136946326695 0.0023318450228843046 0.0013770615520380498 0.04106083727439773 2.51448845469196e-15 2.1272907209640007e-14
-0.00014365229224384224 -0.00033397389954290956 0.0015878288280732926 0.040007833355723735 9.132195088296883e-15 -2.839125690188432e-14
0.0033132854915317667 -0.026215161888048913 0.0013757708020988976 0.02912951479001894 1.2396442379547512e-14 -1.3802175548305318e-13
-0.003367416731083526 -0.014984068467245383 0.007109557929200668 -0.023046951773268265 1.8708365884028896e-15 -1.130009714273017e-16
-0.009013677089818964 0.0009315883096752988 0.005288669148723047 -0.03370186373906501 -7.43793861137515e-15 -1.579703571728472e-14
-0.018773538181500578 0.007623477911282383 0.004731411624675758 -0.03597594466445021 -2.6177092448970846e-14 -2.4346335765566135e-14
-0.026910691315146167 0.009748717307676107 0.004677143549037696 -0.03492814510121839 -3.3171070599503916e-14 -6.2487585635387366e-15
-0.035528484660049105 0.013106261100294855 0.004929448302847214 -0.03604733477918074 -3.630038977742167e-14 -1.7885405613135563e-15
-0.044949002337730505 0.01704721739815497 0.0053157370733315865 -0.03808378136608215 -5.327294628923538e-14 1.4763946900968328e-14
-0.05471223125266492 0.021222841806396508 0.005649931485113862 -0.040772774704815884 -4.660876073435313e-14 -9.702186428393877e-15
-0.06606713292725834 0.025868219608524846 0.005822379098092945 -0.044125783866763274 -4.3827476065396494e-14 -3.1573810406471114e-14
-0.07889027941505793 0.03415153255902518 0.005897831239802956 -0.04788811873655123 -4.3161391802048815e-14 -9.189391326873408e-14
-0.07788664426759141 0.031004943370698902 0.006201857575781263 -0.06229564973112922 -3.7270646536743685e-14 -4.607741326077136e-14
-0.07053105817084251 -0.03281416003067873 0.006682857890101618 8.327365178426233e-05 -3.884743140234251e-14 -4.7403595805628473e-14
-0.07810175854685152 0.03100282612597474 0.006402112448333634 0.062473272252833834 -4.0573554105772895e-14 -4.8862674431778e-14
-0.07932804263995602 0.034151179518588946 0.00629717867180562 0.04810171815945192 -5.3931006185957246e-14 -6.573212839918602e-14
-0.06673857750710643 0.025877402895999345 0.006414432159900571 0.044409250442774266 -5.072162375979912e-14 1.461569580640809e-14
-0.055623347129847914 0.02125375301371416 0.006414347988203234 0.04117769578338445 -4.1631782012930846e-14 2.6988041792672113e-14
-0.04609178392471398 0.017119996816431636 0.006203716289223279 0.03869466513521565 -1.8997813982764636e-15 1.0408361184651577e-13
-0.03685676106559337 0.013262853408658317 0.00584257443398258 0.036996796906503704 3.4454691432827395e-14 6.791217436498409e-14
-0.028214405282297652 0.009981458064331967 0.005435849956107156 0.036383114337160946 3.775503672719116e-14 5.938874609104361e-14
-0.019568094782513853 0.00762028347778078 0.005017050668371828 0.03767289217449625 4.4097497463486957e-14 2.1860327946692654e-14
-0.00907881710256342 0.0006128511420722118 0.00460786192371209 0.03439779992427073 3.864430612532735e-14 -2.244202274102186e-14
-0.0031138892750209994 -0.013387011518765807 0.005027657904432748 0.022813038224701612 3.1224209415953164e-14 -1.2209482556924112e-13
-0.008813028380020365 -0.006082692322318373 0.009699438349821704 -0.01261257330509462 1.7099968901805596e-15 -2.9213420961807235e-15
-0.017414570752388385 0.002875553462496047 0.0077295547805359905 -0.019263212025626694 -6.807007485887945e-15 -8.888120003446714e-15
-0.03553804018713465 0.012775475371637575 0.007975719145578024 -0.021141872933366664 -2.5387800043664976e-14 -1.451451263866088e-14
-0.05417921896535381 0.019809954644671703 0.008794772491711074 -0.020241636593045117 -4.284233693719122e-14 -1.1640577282472087e-14
-0.07245005795012913 0.027052846209852596 0.00976337897721188 -0.020736819426577447 -5.3710250765177936e-14 9.493009948003533e-15
-0.09094143345384914 0.0347131239308136 0.010588726600414844 -0.022000120225217457 -5.284301269399983e-14 -8.614182772041096e-15
-0.10999619330706552 0.042791576536009374 0.011006453378198671 -0.02367788980074604 -4.3201324746830645e-14 4.30063699496247e-15
-0.12920662645968628 0.0516734022392684 0.010879285655114828 -0.02520038326298498 -5.434843588082543e-14 3.1169863782057328e-15
-0.15393766133369974 0.06061141964906323 0.010324323398779816 -0.02801304349016868 -4.868057590064548e-14 -4.287368393250321e-14
-0.1653067917848237 0.08049129263187707 0.00992016489451159 -0.03728357970860685 -4.829534362216833e-14 -8.259994251080816e-15
-0.16149958796123148 -0.02524164444574428 0.010002307113130306 5.397895452640555e-05 -5.185734925240021e-14 -2.6951741348684582e-14
-0.16554537497949745 0.08047505177224615 0.010173565573638275 0.03739836037032316 -6.838515756273089e-14 -1.2846454043764777e-14
-0.1544199391330555 0.06058072169479687 0.010832525746107696 0.028149866647558103 -9.688518704756982e-14 -2.276928916678661e-14
-0.12993667580969073 0.05163137536787222 0.011640485518935217 0.025379528428061553 -9.223863196134406e-14 2.0839497391188927e-14
-0.1109630852753575 0.042741402725073284 0.012005487164400945 0.023929995528528036 -7.859844663611333e-14 1.8805927138893647e-14
-0.09209320339571829 0.03465772196638551 0.011779419828982507 0.022374778117380954 -2.5257916011533002e-14 5.817645220814252e-14
-0.07364518882484658 0.026989822839577075 0.011040392684632526 0.021316776615381776 4.1277084425169266e-14 3.93033587446634e-14
-0.055136253595811244 0.01968974128693519 0.00995179802910412 0.021089696388499533 7.428255330722139e-14 2.7159508366250695e-14
-0.0359383347966222 0.012477107705284077 0.008658272972033745 0.021979830689987448 9.606632980427299e-14 1.1701377307426e-14
-0.01727360345565835 0.0026222110919580477 0.007463959301734579 0.01943285620300016 7.674856437227609e-14 -9.22674344696825e-15
-0.008478299386649922 -0.005212998927351178 0.008205322290853743 0.012280682715775901 5.460787529630584e-14 -7.772894741048253e-14
-0.011615609796711154 -0.0030221252573564145 0.011150755322193453 -0.005004849083059433 2.271647496845941e-15 -4.794342006730901e-15
-0.02407920355723098 0.004048711150675938 0.009734021920639307 -0.00760851449283601 -5.597518976108162e-15 -2.8576858761286683e-15
-0.05204265370740492 0.015321165312606614 0.011007841772304199 -0.007979119450335753 -2.1725080501938665e-14 -1.2359471085465756e-14
-0.08153921527567037 0.0248527993385154 0.01273769729287439 -0.007885595273694944 -5.495804549296435e-14 -1.009283802366756e-15
-0.10911507074948186 0.034036990706653884 0.014392398312049177 -0.008223040315695106 -8.084486313904293e-14 5.331509973088844e-15
-0.1365084193736202 0.043595529504490395 0.01556746276359444 -0.008876635288341938 -4.9633528623888035e-14 -2.153014095132577e-14
-0.16460469820118934 0.0534809686116394 0.01591651245416671 -0.009552085913492029 -2.9372283685130673e-14 2.952602355318912e-14
-0.19316759320467441 0.06517484993511562 0.015250514618273446 -0.010701982723843928 -4.528089058222773e-14 4.19342295263081e-15
-0.21989485533650083 0.07174327492110931 0.01372861926801521 -0.011274989988399275 -4.857152549088417e-14 2.550406717413689e-14
-0.2559255015661222 0.10875633992409835 0.012144375357453628 -0.024164546551078914 -7.475227034592358e-14 9.318175571426668e-16
-0.2795761922752541 -0.02133434699165975 0.011403153354466369 3.118807308393292e-05 -7.12464077535016e-14 -2.0394601805973078e-14
-0.2561929087835061 0.10873321415571206 0.012454265733504314 0.02423088274815739 -8.358255493973177e-14 3.075664722906879e-15
-0.22043361216300222 0.07169779786530792 0.014353268321358094 0.011353869030464437 -1.4569787975919624e-13 1.6685546173900168e-14
-0.19397790279046728 0.06510782417428654 0.016194785697792716 0.010804267496103791 -1.6846284566982006e-13 1.5322270362216894e-14
-0.1656646488281289 0.0533914485397408 0.017174313502796454 0.009692731670179103 -1.4003191374468635e-13 2.908171750290456e-14
-0.1377321653419141 0.04347719860761317 0.01710204989682515 0.009076758559372124 -6.334085274513346e-14 5.1299567892237885e-15
-0.11027332426569339 0.03386408650078844 0.016102917962600608 0.008514309756981583 5.545732059339392e-14 1.1999190703548823e-14
-0.08222701750170931 0.024558087954901785 0.014404495850377622 0.008286977413660876 1.2758175592375576e-13 2.8592579692787723e-15
-0.051983762739636494 0.014867599753007867 0.012230249993338948 0.00838425038709068 1.6555197967713098e-13 5.046934007865711e-15
-0.02358383846396367 0.0037779403928722886 0.009955571380346816 0.007752970590702207 1.3206251955714954e-13 3.0514870144604522e-15
-0.01107428538846214 -0.0024811219135792532 0.010094988636873092 0.004929280421442028 9.40326375792333e-14 -4.772983223932936e-14
0.047510035827872846 -0.07566380395181008 9.622294280808852e-19 -0.002489647108501023 -0.00913261563100867 -0.0007924798584554993
0.04996252783412005 0.0004617751011893092 -0.005072810672377213 -0.01713039721621633 -0.012451136308376413 0.0009501607396442629
0.06253206927069664 -0.020215208038938327 -0.009688816846193422 -0.006778104711943463 -0.011718321122053389 -0.0009178126319874642
0.08617805336312 -0.02566499878466625 -0.013978935074434738 -0.0077452890678641 -0.009795627580691423 -0.001059060351092046
0.11344351978741885 -0.03488733295391025 -0.017289754549605373 -0.008116130296944106 -0.006298916524568178 -0.0014614775360309348
0.14073190056756535 -0.043824467211883746 -0.019613772471606426 -0.00852188913375483 -0.001919739449725092 -0.0018776868568920948
0.1679510880923612 -0.053222633855962 -0.020791563372716978 -0.009069220447882529 0.003029810528598427 -0.0022675595044477693
0.19645379590316436 -0.06330922935210961 -0.02071419858647142 -0.010110894660612438 0.0077581834131875615 -0.0024429447073213684
0.22837464729025306 -0.07512199924868662 -0.01943273204204436 -0.011351360858179619 0.010401183081293286 -0.0020580102661251565
0.26047521935755685 -0.0889205324983558 -0.017493677125191273 -0.009535638621751396 0.008073137525147602 -0.000891302297944772
0.2754725474003889 -0.09788640790641566 -0.016372043220033574 2.206232292568228e-05 -1.0427412647039965e-05 9.787297133517743e-05
0.26040146823639726 -0.08889139672968017 -0.017505203851158644 0.009581110254559475 -0.008081999302939118 -0.0008786480445965228
0.22821587562405682 -0.07505613680502576 -0.019464104431811454 0.011401001020062846 -0.010372743376864394 -0.002032852926915988
0.19618547465401798 -0.06319000859681671 -0.020783781079317026 0.010168196072631551 -0.007661320960474099 -0.002406560891631226
0.16753015570756508 -0.053021434469256445 -0.020931188805591614 0.00913801407295762 -0.0028160043990767825 -0.0022237147896748137
0.14009007998175052 -0.04349486553095508 -0.01987163304032234 0.008609955768695965 0.0023380424415922743 -0.0018398266714634837
0.11246690923224993 -0.03435973944113789 -0.017738878484985284 0.00821876169894557 0.0070885634502125035 -0.0014393684225906694
0.08470856556185125 -0.024839887174574218 -0.014696580129241061 0.00793335425380483 0.0111464177618854 -0.0011502326048925867
0.05986634528226558 -0.018853772946718472 -0.01088536652038512 0.0070465611538219055 0.01380274611359854 -0.0008431766700222789
0.04304519103916725 0.002719690870204622 -0.006453118072257215 0.016740536226691024 0.012564340321273385 -0.0006786594080498982
0.03724820179503649 -0.07192628119524176 -0.005664332179066375 0.02150140072282567 0.011106346913128987 0.006633145279840459
0.02097669571118644 -0.06521665297833552 -0.0007476955829630966 -0.004246757896099611 -0.004835169867254302 0.0023668297267810316
0.02434980201140658 0.0008528998504044789 -0.002325810521184466 -0.019441199247571803 -0.005861414203197234 0.0019911011111935595
0.03870372553672278 -0.014735970848152487 -0.006048868682738757 -0.01753080052611141 -0.007337293451032567 -0.00022027449279690396
0.058350130683579284 -0.020965579036762126 -0.00910189128865778 -0.01932153393562653 -0.006134442394921971 -0.0005566034989485661
0.07617389621639858 -0.028074234083140394 -0.01146890960701636 -0.02042407344166966 -0.00388590786561228 -0.0008131503111582403
0.09436106514240152 -0.03529139174920359 -0.013051460642317613 -0.02115075856688594 -0.001038904309056124 -0.0009398141911567202
0.11248560207417789 -0.04278210006725017 -0.013826157957983084 -0.022337653427232096 0.0020690367475603654 -0.0008192696247359603
0.13124037287606122 -0.050638498398361736 -0.013761788332796305 -0.024794355801005127 0.004938544734531111 -0.0001474321959543761
0.15159342025412598 -0.05981690651636659 -0.012930771689460472 -0.02837677830203207 0.006500138823857002 0.0015620557647014976
0.17143292388911618 -0.07233825626981671 -0.011645668994477835 -0.024868366660418487 0.005069460560885472 0.004421956602212008
0.18055660875874105 -0.08362157973514439 -0.010824159919817812 4.279007879808244e-05 9.362187161562698e-05 0.006463252787498889
0.1713424552126646 -0.07231490287928519 -0.011615946294955314 0.024957864440043817 -0.004864494716833376 0.004424961241363828
0.15140239067503977 -0.05976321076131545 -0.012877809127957086 0.028478696540840887 -0.006241292935805553 0.001564942442615186
0.13092769116618272 -0.05053923362234124 -0.013700648834221677 0.024919459260768717 -0.004586206619958855 -0.00015274449631323835
0.1120170653232138 -0.042611121709133844 -0.013784309033762302 0.022500766633150468 -0.0015736789457310107 -0.0008499333391756674
0.09368305114109443 -0.03500596339197756 -0.013075134586053977 0.02137293603740774 0.0017527391166789676 -0.0010291254621947942
0.07521001849010578 -0.027608770580216668 -0.011626329087470657 0.020729190852803035 0.00493099332230133 -0.0010142071693452226
0.05692571409166818 -0.020232217311383627 -0.009505891098496269 0.01979527066294715 0.007678185788899 -0.0009600379883380988
0.036404183763796026 -0.013483265677271117 -0.006801551348197888 0.018445372286999544 0.009125890485877272 -0.0008485391820879371
0.022314966860090865 0.0019839038663151337 -0.0038289110049627107 0.02113408952191974 0.006560922383108929 0.000246030639458968
0.019785828252701615 -0.06241398792477394 -0.004286856619461916 0.01597036431033612 0.004290384546354482 0.008580204001956717
0.010787946605454036 -0.04576115482461744 0.0013461377533646479 -0.02752382169175849 -0.0016963582054844283 0.008159966157396671
0.010473111246359973 0.0006027590634724219 0.00010501433575025074 -0.03383884861659062 -0.002134107500092949 0.0030095006024903077
0.01710164874832966 -0.005079495689071028 -0.0023406885606148376 -0.031543581112333935 -0.002985783878194495 0.0007669550015621708
0.029182581906354973 -0.010903695574017765 -0.004330182759976559 -0.034084199376969694 -0.002464867109278008 1.0981108973872442e-05
0.03878366310313104 -0.014405721398114413 -0.005712117098604338 -0.03540560354720493 -0.0011991437377926407 -9.353236331734138e-05
0.04770506847651011 -0.017995785319795767 -0.006546308168169636 -0.03666126468599302 0.0003012103437670538 0.00013688122328489003
0.05647341677611727 -0.021673418082213652 -0.006867436343011536 -0.03854692876726211 0.001856898284915541 0.0008922027097760954
0.06499335745107626 -0.024979593914304207 -0.006704976862785914 -0.04221696113622593 0.0033055965871364858 0.0025753857462759845
0.07461675590491633 -0.02879091873956681 -0.0060966050280817545 -0.048592624846930665 0.004297698782417615 0.005789686008143285
0.08726745637586164 -0.04001659745714988 -0.0050697599159523305 -0.04508875364708135 0.0036906030920469193 0.010614899662979772
0.09447841620362107 -0.05930795738927661 -0.004163171601647791 6.904412845778075e-05 0.00019577514421336052 0.014102650078880521
0.08716201796214161 -0.04000515202738243 -0.004999344499196822 0.04523336765976519 -0.00327675075418545 0.010608544059497585
0.07439734426581028 -0.02876228959160685 -0.0059606496607411226 0.048757989305864405 -0.003817291677984714 0.005770467523111984
0.06464339021794713 -0.024921425362597293 -0.006515698457650624 0.04242121769201794 -0.0027151156526892656 0.002527333876119056
0.05596831949566968 -0.02156468236407365 -0.0066495171774252305 0.038815910331811386 -0.0011120774061200633 0.0007830200206875532
0.047011179623274627 -0.0178008012358952 -0.006344371436553613 0.037032178600685535 0.0006475110590607468 -9.155395053932727e-05
0.037851619241691004 -0.0140706333393711 -0.0056016045798917115 0.035932168033928784 0.002417882141924037 -0.0005402401773903487
0.02790671972325046 -0.010336859952916682 -0.004426597169661089 0.03488872667939365 0.003997480349411496 -0.0007632563398456533
0.01578319688040902 -0.004277392685651399 -0.0028145193585672763 0.03299566230897836 0.004517606477036763 -0.000621207504050679
0.009882334170291017 0.0004288733387600253 -0.0011442470573971102 0.036369503580973704 0.0025699073214391385 0.0018203860352533315
0.010757726461290864 -0.0440047134931187 -0.0013269994340504203 0.030114745123065743 0.0011579007509934065 0.012621470146340158
0.0032017374105283167 -0.028909978462245082 0.004167844607458404 -0.029654141349774902 0.00020197934588937977 0.010462859275537422
-3.494474104649569e-05 -1.3722716695298217e-06 0.0027772973095755186 -0.039667159507937214 0.0006492228102820848 0.0035348281004166262
-0.001885975128409737 0.002156521384001593 0.0013574672697248258 -0.03935352176868253 0.0009294097615706917 0.001058298872633779
0.0003418098706061527 -0.00026867066487941264 0.0004541735087413217 -0.03920800163459001 0.0011928038099549034 0.00020516530752351592
0.0011222334781086894 -0.0005965037906189717 6.23930153961332e-05 -0.04037047077795666 0.0015642943283959768 6.337968178593912e-05
0.0008849376550662568 -0.000408602562152984 1.1867630853360504e-05 -0.04179756015043517 0.001839004081295662 0.0004030072214622637
0.0003058248726904278 -0.0002975908165560235 0.0001880924441387622 -0.04396725522499085 0.0019864538930775963 0.0013514255324246305
-0.0013183972031797944 0.0007398041902231193 0.0005227899694540965 -0.047098245544980405 0.0021785073052092716 0.0032944964856029203
-0.002229979955221218 0.0027289047102756776 0.00100059225790727 -0.053989680035559394 0.002729966742206356 0.006836837243158066
0.005113728550201742 -0.007453531094024424 0.0018662507372028431 -0.056387883422654696 0.002899070978499079 0.01233606758758469
0.012118802940839528 -0.04263746756080419 0.0030970968540067613 7.824439602727714e-05 0.00029763516094126377 0.016830700348938816
0.004993821471837398 -0.0074544583979688816 0.0019774362274679125 0.05655178569743137 -0.002277354446186398 0.012326866267501667
-0.002476642758466565 0.002731481590249743 0.0012196616127481644 0.05417713204590293 -0.0020306044653920496 0.006810840607150357
-0.0017037476563793524 0.0007552765321532202 0.0008401747817132677 0.04732974689252466 -0.0013557777761665695 0.0032331753176096513
-0.0002320632174476535 -0.0002532888031470936 0.0005817061652993396 0.04427221468239152 -0.0010049271561565743 0.0012180433880480072
0.00018231782306117567 -0.0003087156000271513 0.0004369741741450111 0.042221039119928874 -0.0006780020085743064 0.00012929974268460916
0.0002372795840477775 -0.0003948859068829759 0.0004376825776485395 0.0409845779948689 -0.00022210252709815718 -0.00046099624137253326
-0.0006671950168739974 0.00010017374873820192 0.0006463847393383267 0.04014286777889553 0.0002680042385325081 -0.0007392955380082876
-0.002625546394791071 0.002435414996100771 0.0011552937120510728 0.040830283522479575 0.00027969064371877173 -0.0004187386486638593
-0.00015136890291011376 -0.00030210512669719635 0.0018312525120191242 0.04089929754406095 -0.0003943512352211933 0.002668949108322842
0.003412319447537255 -0.02746119097417793 0.002097342592090759 0.030174416445246915 -0.0006263872847761607 0.013364189151606122
-0.003544703622319111 -0.015166905056573893 0.007079899801530674 -0.023659774085395213 0.0018001288170527447 0.009832114975689907
-0.009426466501066258 0.0008084305912189426 0.0055577954871555285 -0.03474967124131935 0.0032137652626789987 0.0030185531556744193
-0.019505392087934115 0.007806958325778737 0.005037557649522211 -0.03665698165376263 0.004709166632290176 0.0009021287191434559
-0.027797470716492228 0.010024373789270223 0.0052177593741496095 -0.034876227839128596 0.004820921624024285 0.00010278753871455912
-0.036550382877676264 0.013334890830364295 0.005818862268197509 -0.03531962135994221 0.004344673574124005 -9.78272881683056e-05
-0.0460418976178092 0.017189569921552673 0.0065593200499127 -0.036661601810027096 0.0033964559768885445 0.00013885960420836476
-0.05572078363939201 0.02121068984488452 0.007239985029605835 -0.03848160999116384 0.002142243640223013 0.0009029143719321757
-0.06672866518460786 0.02561145002050908 0.007747405413581075 -0.04085662894985367 0.000997889811268231 0.0024704012193360963
-0.07891856028102254 0.03352181209639186 0.008056815305576982 -0.044143471300171704 0.0008720287629670627 0.005315095853120541
-0.07786606953131756 0.030093161819992345 0.008533844361472918 -0.0585689215838325 0.001826896166938352 0.010358279152720685
-0.07081961346541817 -0.03257190679234462 0.010210788520411494 6.927874046984153e-05 0.0004014975599817636 0.015547909780064864
-0.07800123897604219 0.030079849416333265 0.008686564523285365 0.058714016563739355 -0.0009930446686007405 0.010352742503981415
-0.07919421836524475 0.03349828863799745 0.008360649176881035 0.04430929822921529 5.1401883550640086e-05 0.005297557636869423
-0.06715245591185375 0.025584228695828725 0.008195700740990495 0.041061098810720405 6.366641959704313e-05 0.0024251085562096977
-0.05629589253486126 0.021190442242014572 0.007813573775321792 0.03875043927800379 -0.0009148875271373694 0.0007982556097067113
-0.0467590164528216 0.017193462470826704 0.007213955020928418 0.03703684231526778 -0.0020121862507242686 -8.423320797636854e-05
-0.037371380114977336 0.01339717234488956 0.006466926232835001 0.03587266575458451 -0.0028693663124276223 -0.0005444806643537445
-0.028581052189049914 0.010153055407024091 0.005706157820336815 0.035720690585263566 -0.003428025584878493 -0.000724518417860959
-0.019945293945744916 0.00781303480989982 0.0051274437737336915 0.03768134206865209 -0.003767321751982461 -0.00029754667967278007
-0.009391834310726193 0.000621105326195359 0.004935083230121991 0.035203682621396046 -0.003085086485374943 0.002378366360624071
-0.003304596536711589 -0.014146575751480811 0.005516015549982739 0.02350773533820859 -0.002145126289928085 0.01170719898511488
-0.009263837563642085 -0.006285450058682454 0.009751891699800782 -0.012783960858938077 0.0038173007232295978 0.005946401065989174
-0.018076178434530715 0.002659541456169496 0.008271391064034793 -0.019883213955738843 0.006149087235262483 0.0013131516387383418
-0.03655473290968224 0.01284899574569965 0.008670507506309717 -0.021619436376492475 0.008665231432237549 0.0001766343309458824
-0.05552221371095678 0.01996867152643115 0.009929595383572198 -0.02027637791520347 0.008470489288533277 -0.0004669968956584588
-0.07412940824233111 0.02713676664868397 0.011518941461072438 -0.020330094553986232 0.007068929106814735 -0.0008027617850902577
-0.09282346949137368 0.03460568561955148 0.013031255421341557 -0.021146041482268146 0.004796534592702005 -0.0009350507176543502
-0.11178054542042791 0.042344117541727365 0.01418979170331826 -0.022283283841190524 0.0019908829287857512 -0.0008123563896801256
-0.13042873924662063 0.050687824584132776 0.014796208196582195 -0.023257708576000596 -0.0006800464223661262 -0.0002567481148509587
-0.15383538233428795 0.058941601488714385 0.014831363163082019 -0.025857032222196496 -0.0020929057206264083 0.0009302084390238715
-0.16448147606365937 0.0778232594880498 0.014369294087501141 -0.03512616612084721 -0.0005741988863664977 0.004122047914758912
-0.16083798916254613 -0.02539848677743614 0.016149319497875358 4.328668934493044e-05 0.0005096370596954632 0.009997481868610431
-0.16463399349934693 0.07779802670188292 0.014564969458202359 0.03521670311559918 0.001629709350079921 0.004126797282805451
-0.1541445864593683 0.05889292080854019 0.01522310140925655 0.025960082547222155 0.0032530928885131432 0.0009365980556683873
-0.1308988227433293 0.050619398810742136 0.015380924620133922 0.023383872423640435 0.0019994044590600298 -0.00025658744313821743
-0.11240613881706055 0.04226150216166203 0.014952403135001995 0.02244770117551052 -0.000487659452464901 -0.0008348055666892724
-0.09357163709605451 0.03451726107656515 0.013929838820022342 0.021373211740743966 -0.0031410276462570962 -0.0010127278720354455
-0.07490670542402839 0.027052277676989835 0.012461697757958941 0.0206661611493618 -0.005391376532406429 -0.0010001505263636209
-0.05614211712579081 0.019871716358855856 0.01074593901843724 0.020767730708605363 -0.007054982265885649 -0.0008821913068899102
-0.0368059322484842 0.01267236752620212 0.00909424897624533 0.022120322560929502 -0.007919900083596495 -0.0004361784943475388
-0.017962593917186128 0.002530868979245527 0.00799008628724445 0.019993459898044998 -0.006192836394145942 0.0009888313508373092
-0.009015803057622332 -0.005702929571789241 0.008627418402600742 0.012557616000398798 -0.00422927870516167 0.006994561244417415
-0.012332269106862682 -0.0033042392843334032 0.011803078220918653 -0.00498328969403836 0.007355112793754365 0.0030520606034370595
-0.025019082467106525 0.0037379836592368433 0.010810856389052218 -0.007960206428571476 0.010135209038188292 0.00013915465333767558
-0.05343875957714654 0.015299375328620461 0.012275934199860228 -0.0082494978208422 0.01295283585619935 -0.0003704459869686456
-0.08346053634940172 0.02489248600374059 0.01465992319988267 -0.007944520230737464 0.012098322539901007 -0.0009088677990341685
-0.11157542167668794 0.033961051639259734 0.01725835727821563 -0.008055811252948145 0.009559095668019518 -0.0013687045952168841
-0.13932220669530207 0.04324828062475978 0.019536124751490167 -0.008483660228302499 0.005752298361040386 -0.0018208462321871411
-0.16735624782487327 0.05267694364646264 0.021126150813882603 -0.008909425948461096 0.001122389956790948 -0.002225521651775488
-0.19507968231153777 0.06362377789168834 0.021775916268182878 -0.009855548100172393 -0.003449917292587649 -0.0025250345366876585
-0.21991643307476882 0.06936741190028348 0.021317513703846522 -0.01042545309009144 -0.006415179768100442 -0.0023870801807289854
-0.25395571159213765 0.10483034802108822 0.01964408966969565 -0.022961240334173322 -0.006126691811586563 -0.001476931485257325
-0.2768114337663692 -0.021668931877111358 0.018892092754524033 2.2512616254400866e-05 0.0006236152482753622 0.007004231206637757
-0.254128855633662 0.10479933280103639 0.01988468059355846 0.023008588034891655 0.007417157771059332 -0.001466628554734293
-0.22026631202105718 0.0693065219871935 0.021801547051741667 0.010480035164056857 0.007830798953007135 -0.002367278658157133
-0.1956085048394293 0.06353528537146208 0.022504936762594813 0.009923274870908752 0.0050565406181237995 -0.002498065926719013
-0.1680530322535138 0.05256409801213685 0.022091095637916155 0.008998086592313307 0.0007058072749842126 -0.0021969125253190934
-0.14013610960772047 0.043114707230212976 0.02070074094593734 0.008604292220470346 -0.003742085646821189 -0.0018034131241956388
-0.11236428843358727 0.03380390380988135 0.018532240571639467 0.008227250575637536 -0.007542553161045224 -0.0013914911176516748
-0.08396607459813417 0.024686841858780288 0.015861098246506573 0.008182853703083541 -0.01047785188451197 -0.001021772562597181
-0.05346861261136942 0.015031522388285186 0.01310522225690522 0.008497701308064603 -0.012317667071133218 -0.0005668499271905532
-0.024737704646846156 0.003605687237611531 0.010904530250844834 0.008053161484896229 -0.010585805981696296 4.5812207154980996e-05
-0.011995585896945883 -0.0029273572570413216 0.01102864002325402 0.0049143573918260805 -0.00827083134142604 0.0036797774469847565
0.034222525054261925 -0.08749598048789287 -3.9979955110402976e-18 -0.03961950086540848 -0.02113671113503619 -0.00747695582969345
0.043382944710337004 0.004379378967360741 -0.005429403784548341 -0.017711521222184255 -0.022806839580940954 0.0023435125960855076
0.06346094464250832 -0.019429117249227405 -0.012297026760416739 -0.006329441107241976 -0.021392149129833334 -0.0005855168014732525
0.08852227178421007 -0.024318038528398533 -0.017493867822099798 -0.006879901342714336 -0.019008883045850973 0.0004004771102701321
0.11732897973136759 -0.033421352621117624 -0.02256268581439636 -0.006832795132158938 -0.0145082738847553 4.109875812899992e-05
0.1464155579194876 -0.04192010784127428 -0.02716615522483767 -0.007007390352872749 -0.008677809885340369 -2.7957935846716937e-05
0.17487928731862556 -0.05053677265737022 -0.031137293319397866 -0.007169569522670777 -0.0013492511850378397 -0.0001311967513043377
0.20258558332766866 -0.05908561306918879 -0.03418489801336894 -0.0075512312123793245 0.006745408250734664 -1.0396371799265854e-05
0.22947528939513878 -0.06784518189435372 -0.035963412643802796 -0.007934280239964338 0.013043721846711003 0.0008513967016478647
0.2528583288725702 -0.07681519548672373 -0.03636109032215781 -0.006388633794931225 0.011918412093504525 0.0032704653980113367
0.2630331214415896 -0.08240432731430516 -0.03615391613761393 2.15053099056091e-05 -0.00011283429683991201 0.005803965224663166
0.25292156145547107 -0.07683077092214131 -0.03639352070275805 0.006431308956135427 -0.012131389200791806 0.003285353017341652
0.22961109095764903 -0.06787737645308323 -0.03603498361887803 0.00797537937382148 -0.01321672996959228 0.0008806455670048743
0.2028162332538333 -0.05913708985476204 -0.034310647974151634 0.007587487273132811 -0.0068446390043615125 3.0376967987094e-05
0.1752493229294912 -0.050613310162626 -0.0313437823633515 0.007194931273311711 0.0013759507094320209 -8.26895471989933e-05
0.1470070818844001 -0.04203435871809017 -0.027499383893164663 0.007008780307019891 0.00890964425754081 2.5623033432938636e-06
0.11829731068063697 -0.03359835826621801 -0.02309139013225651 0.006805863379843289 0.015122412407203656 8.398782642726223e-05
0.09010822182711266 -0.02460138309097106 -0.01835916825731388 0.006748052657116976 0.020066986053332004 0.00015532343779235338
0.06638251141944645 -0.0199868066718155 -0.013522164775659163 0.006084787617674589 0.024155737939761467 0.0001156186992037723
0.049932700186931626 0.003181049677418765 -0.007670877918272464 0.017563007614976516 0.020409738008863813 -0.0027645333729313304
0.04344272835687601 -0.08900445908308505 0.0032758894995049506 0.023410291751072426 0.017242422986639153 0.013774755595984033
0.02048611592578615 -0.07702898636620144 0.004080770579421584 -0.025424902930228813 -0.0035597162987603503 0.0007006331583781176
0.02275185457426543 0.0024839543581306116 -0.0028676435148444297 -0.022088236135119867 -0.0076693003492290255 0.0021298349361022263
0.03748725177925285 -0.013319035103119254 -0.007800191468387376 -0.017390625908049625 -0.01304740830749199 -0.00013983546807789658
0.05915216049209402 -0.01955967482857236 -0.011900841452529703 -0.018057315084763294 -0.010941241538807364 0.00018833785936708754
0.07812732969899666 -0.026489865274060626 -0.015486761415816916 -0.01859590650555657 -0.008153174099491005 -2.9605298166139536e-05
0.09751766843771695 -0.03332001120614378 -0.018737360672659478 -0.018698264935984536 -0.004443148584556158 -3.629277902294741e-05
0.1164547016788908 -0.04013398622890803 -0.021496972830699172 -0.018859187212753762 -8.743764091036293e-06 0.00017845087950692665
0.13471303025776063 -0.04680378679276287 -0.023603562905651555 -0.01936257666670292 0.004754663075419349 0.0010246267134852308
0.15203123206754401 -0.053611966207695955 -0.02485833659741817 -0.020074611412229087 0.008442885018354654 0.0034783931819215466
0.16672275278632534 -0.061660803616930625 -0.02520481035756993 -0.01647125347785673 0.0077811115796950665 0.008832168640073074
0.1730428012028449 -0.06877267705023445 -0.02510482709883014 3.1130793288101206e-05 4.3471576605965e-05 0.014164216839830372
0.16678475625270076 -0.06167992991673003 -0.025217743468446643 0.016532558434461452 -0.0076743842112741685 0.008835373506040183
0.1521635947924732 -0.05365112629446403 -0.024890582541783616 0.02013181075174511 -0.008276095428343365 0.0034812554831787274
0.13493520308529883 -0.046865136861367625 -0.023669505150772357 0.019408425014267434 -0.004484235954568276 0.0010180101253722395
0.11680377946463838 -0.040221958275030785 -0.021622960676144786 0.018878947374682167 0.0004327405762875395 0.0001440476974106539
0.09806347646332766 -0.033444805520488834 -0.01896694133433651 0.018665800476921547 0.005092430784221595 -0.00013631831933085838
0.07899077652248396 -0.026672347712652734 -0.01589610185899118 0.01847600025489897 0.009106351380037288 -0.00023855358059663803
0.06059117711378133 -0.01983323740199533 -0.012585587108030226 0.017755963593606008 0.012421905971588012 -0.0002848553017808832
0.03999060536372587 -0.013862321161928367 -0.00897145670430231 0.016620705536344687 0.01491154950893719 -0.0005652947237128188
0.025259485564970402 0.0021727786202685945 -0.004170101677129602 0.020251578989568295 0.008163812852170648 -0.0015505955054905863
0.02231286898899538 -0.07773497352188537 0.004164594371733124 0.015091729297325114 0.002441426675625839 0.014530877979848134
0.011357615478020002 -0.05563727700380501 0.005779181823561586 -0.0335565969476055 0.000564445951268254 0.014014124162922014
0.010039200139020479 -0.0007337614889160764 0.00031001484679579614 -0.03835977211305378 -0.0017531115548350528 0.00210618327184516
0.01580312004714382 -0.0034455591869375223 -0.003255677113683417 -0.03172246483440076 -0.00526494812326077 0.0006421938208076072
0.028526441931634706 -0.009578073531525242 -0.00574336167288348 -0.032622923707565775 -0.004471741030623579 -8.909263333153276e-06
0.03898284742940857 -0.013056572278607034 -0.007727206232716886 -0.03297648455874775 -0.0028341173601888208 6.960640221759587e-06
0.04861250513606352 -0.016444739846681246 -0.009421904215828182 -0.03310544222808951 -0.0009562636660405809 0.00021287445660153132
0.057996672377604815 -0.019782459753351963 -0.010817355304614966 -0.03318473788147183 0.0012141146958957484 0.0009368298176225009
0.06670164493743147 -0.022746477624151558 -0.011841424811832146 -0.03354529253236907 0.003678851698293945 0.002749096946943979
0.07506882577169005 -0.02566395085172669 -0.01242054623804675 -0.03471103533750492 0.006379305691577934 0.007005807523642573
0.0841119844227353 -0.032692134826696626 -0.012485009359357282 -0.03002260036918229 0.007089714378204816 0.01585719382987066
0.08893759170132674 -0.04520941370678992 -0.012258898645794481 4.5663125874575885e-05 0.0001821153633884051 0.026094246236688913
0.08417185832345482 -0.03271819038845249 -0.012477866553984304 0.030112165359513957 -0.006700079515575393 0.015849774968225306
0.07519503857801199 -0.02571658713282672 -0.012411801248682288 0.034793248884846015 -0.005914044709515639 0.006984483245895111
0.06690863095524074 -0.022826597796812204 -0.011843867049165232 0.03360775390163353 -0.0030898776249506745 0.0026980926798203277
0.05831156152514384 -0.019891447582047014 -0.010854557117414797 0.033201906524905594 -0.0004567798606403125 0.00082352942699953
0.049085420974827744 -0.01658747670013789 -0.009534906119552738 0.03303221102989883 0.0019210932241128208 -1.9253171513335625e-05
0.03970921423773654 -0.013242871821763522 -0.007982384136640357 0.032740879822632234 0.004046860045543003 -0.00045275351655365236
0.0297031507917768 -0.00984155317140177 -0.006247729324597137 0.03208659886103116 0.005977352004192633 -0.0007727325843001725
0.017304981782707448 -0.003758318319780609 -0.00412725909074491 0.03046782046701144 0.006788456861109016 -0.0008929188933852005
0.011146335569900712 -1.503111401256733e-05 -0.000706859215666587 0.03582428004800863 0.0020642537591034887 0.00066583309330307
0.012037023984604775 -0.05562551582500252 0.005206605170887153 0.030649573035114293 -0.0012614594674365107 0.019638530791789517
0.0038498110871559325 -0.03508783064779162 0.006717285419858613 -0.03172841820005559 0.0018223623155770442 0.015365076019512536
-0.00018128328686094726 -0.001948768580407603 0.003253581415080298 -0.042143509635492155 0.0017403001770366436 0.003777979281205887
-0.0032355975068991466 0.002964968017066862 0.001321895300951925 -0.04007149239139123 0.0010887830306775667 0.0009532193901724346
-0.0013389111351526616 0.0005628788575126131 0.0005844996765441958 -0.037850765078229175 0.0015220415543484315 0.00023580560679965909
-0.0003417307895253614 -5.448918394108803e-05 0.00032047850596171324 -0.03784538447663476 0.00204448856081782 0.0002020648643130021
-0.00027257410711958245 1.3211077499360925e-06 0.0002490655068632273 -0.037929462523480686 0.0023202392075700497 0.0005989585892253659
-0.000379984122021181 -2.0734431592020242e-05 0.0002885683870954226 -0.038018471826078544 0.0025103541771671063 0.0015597026292503717
-0.0011109937527892368 0.00046161963578471565 0.00041252619009745815 -0.03775649409430125 0.002998341125350269 0.0036163871879785355
-0.0015813690019662757 0.0016646639776101391 0.0005608256269614201 -0.038964574769915675 0.005080809842790548 0.00803160297301295
0.0030426250006496567 -0.004515021409311963 0.000781061567742769 -0.0381373363588671 0.007853692433536315 0.017678843677792315
0.007519333216329307 -0.028249783715653683 0.0011953426538638685 4.9652870647309204e-05 0.0003137228824336355 0.033503049554860345
0.003099859165384878 -0.004547836549823172 0.0008086897741600474 0.03823466338685039 -0.007195688382462689 0.017668342991245277
-0.0014628268301312994 0.0015990481266035246 0.0006116253417828828 0.03905364383584735 -0.004333333911102952 0.008003172507557957
-0.0009226358122144285 0.00036388546354910073 0.00047594708157650987 0.03782334381791987 -0.002110141925460496 0.0035518208401946667
-0.00010689925611655676 -0.00014850617425272067 0.0003444131996045383 0.03803405914695082 -0.001446465893207017 0.0014227861845820203
0.00011308195473312788 -0.00015376622051396479 0.00026163678814916164 0.03783964506578359 -0.001073533311731337 0.0003207076525318654
0.0002207396586331329 -0.00023855385395820625 0.00022943646936973388 0.03755840552994492 -0.0006449884176730273 -0.0003297155404117967
-0.0005469415712238846 0.000341769804048956 0.000295150110593972 0.03720697532327386 -5.971088354308919e-05 -0.0007267386234346463
-0.002429105730255182 0.0029622324104871174 0.0007483879708642873 0.03878008609122974 5.194632043866994e-05 -0.0006008509156366721
0.00033606266651047315 -0.0011838872159268467 0.0024888496126582293 0.04078989503504972 -0.0016449101280570397 0.0028406140023890607
0.004181647880583978 -0.03518896703000371 0.00606947383904178 0.030787228578609552 -0.0023853074638361125 0.018727182160127517
-0.002961775535860836 -0.01821263668662059 0.007579865971777324 -0.024022852296057978 0.0030742489330013245 0.0132889707252794
-0.00952924926563791 -0.0007317819336674033 0.00595088048662613 -0.03570140505931783 0.004963568474731419 0.003852571401698714
-0.021015970637610713 0.007945844881488875 0.0057998503071177675 -0.03690642040437874 0.007014653360287775 0.0009897598509393329
-0.03038298397962495 0.010191774329648403 0.006870992200594168 -0.03355044295575766 0.007496244701519499 0.0001212731613846608
-0.03962990290077944 0.013066427893771498 0.008356773699506923 -0.032856122874788146 0.006977271674216001 -4.377765104613417e-05
-0.04925104495275622 0.01644764115824381 0.009912920033712186 -0.03302842086980662 0.005640177338198781 0.00021809553554911487
-0.05868367242324518 0.019839936859603405 0.01139191290964755 -0.03310733139005679 0.003886193937315606 0.001018333190962492
-0.0684374513627693 0.023164850923394337 0.012675856865611929 -0.03281154136630542 0.002166272944895057 0.0024854652340865423
-0.07832882280514386 0.028673109800408245 0.013541962584596074 -0.03226107541517775 0.002705302659949132 0.00561718653482586
-0.07847797749180226 0.027223607146922103 0.013786129187392783 -0.04078666525011334 0.008358640981764087 0.012921534398508287
-0.07386534057867032 -0.016906177496516815 0.014191599692759625 4.6754978713253053e-05 0.00044814177343221047 0.03504121695511461
-0.07842327913793767 0.02718380947945001 0.013834502084635485 0.04087869694093507 -0.0074261932039899935 0.012915685689143579
-0.07821781236651854 0.028594103939879784 0.013635447616351708 0.032346621913215856 -0.0016681338468089502 0.005599013446080878
-0.06826766225540816 0.023048867709198128 0.012806304480223492 0.032878823828829826 -0.0009691141438607443 0.002439164018915449
-0.058452938477294145 0.019692794647020843 0.01154284304668898 0.03313098801812385 -0.002502564241302402 0.0009119196808453244
-0.04895452084193111 0.01628027701826149 0.010053881243772027 0.03295823847524319 -0.004096821294691016 -9.370668395783098e-06
-0.039255753143317806 0.01288935583266304 0.00843483488791823 0.032601879179950666 -0.005381715576790816 -0.0005037585462465493
-0.029954673343739597 0.01004929397282563 0.006804548417882754 0.03296423388531204 -0.006073988570068451 -0.0007388782715789148
-0.02066815872813568 0.008051932847541458 0.00550544961010907 0.03599980411536138 -0.006167376077814286 -0.0002701258228141005
-0.009318123418183884 -0.0001957737609650875 0.0054403909887788685 0.03512005188164309 -0.004994752598405938 0.003207627866849565
-0.002795412442290045 -0.018304062405675135 0.0070202277558927065 0.023805779243880183 -0.003538192746343033 0.015518651321131538
-0.008715514850374974 -0.007231808758685724 0.008793476745192524 -0.012562763096007477 0.0055093866788401445 0.008626330727108245
-0.0181762273693087 0.0017985620780648708 0.00851802214751603 -0.01996001504020246 0.009183757707336097 0.0026219558346296415
-0.0383219661088086 0.012717286399902173 0.010075798669596807 -0.021290513051294802 0.013561901400027622 0.0009037505214150529
-0.059086308005952826 0.019852324426224536 0.012910599461950101 -0.01908795581339603 0.014074796598908887 0.000142943452585987
-0.0789223042116963 0.026593706809382132 0.01608377303387416 -0.018464528861545232 0.012419257625917337 -6.605355008659887e-05
-0.0982581202526342 0.03340849171764898 0.019201032421277284 -0.01861205289561643 0.009294585577706347 -3.7159643032424916e-05
-0.11722777619345007 0.040199254647415646 0.022066060183654392 -0.018784963523374745 0.005249423113686003 0.0002338628526681784
-0.13500254071345608 0.047034696703230516 0.024460089231633585 -0.018436232255248493 0.0011283443879808498 0.0009468728476226657
-0.15449864236493488 0.05309651821520132 0.026042703387259083 -0.01901807630763865 -0.0025271957312144565 0.0014851163051603257
-0.16251616758908202 0.06735918326236567 0.025800632019246674 -0.0257604024161748 0.0052747179063615925 0.004829124119525475
-0.15940862227467895 -0.007946183629251258 0.02515011293004845 3.2425418189219136e-05 0.0005952657424903041 0.025794768781776868
-0.16246334735467502 0.06731189005461695 0.025869831986584598 0.02582467519643793 -0.0040409570545308065 0.004834817320254283
-0.15439354043659495 0.05300297835013487 0.02617899753915644 0.019079381183609093 0.0038854637354269264 0.0014929689836409986
-0.13484799658245808 0.04689841080429991 0.024657590180171017 0.01848810161353062 0.0004174369350157272 0.0009479887697183871
-0.11703244057714664 0.04002925638223619 0.02231156137748847 0.018812551253071724 -0.0034934233298881423 0.00020983397106210798
-0.09804158075434452 0.03322278414204776 0.01946838973216957 0.018585208158266097 -0.007383581757274872 -0.00012337209212910644
-0.07872411938485441 0.026424708896920984 0.016326306501310794 0.01832370723005219 -0.010539943138773817 -0.00028832062301590065
-0.05897124856473347 0.019770282699359085 0.013054490697638763 0.0187565920780402 -0.012589174830567287 -0.000325478447320445
-0.03832876230212096 0.012846308685049457 0.010030774980441038 0.020844155856144728 -0.012919311925526776 0.00021602236966980877
-0.018201485795634385 0.002120769280031256 0.008243962133352645 0.01976276434903488 -0.009387644219418564 0.0022855367037712348
-0.008698183405612236 -0.007222371659418431 0.008372852069458123 0.012517255435457949 -0.006035044371684699 0.009902374271104315
-0.01170962393974891 -0.003501443676613473 0.010669778882517859 -0.004811760158730673 0.010532973779851192 0.005590682457816549
-0.02508468974510375 0.0032192035893819225 0.011084272696258859 -0.007810969659330329 0.015819088086417698 0.0018227857979821454
-0.0556079339330019 0.01515498448782431 0.014014465415407375 -0.007670989925217559 0.02201499615046715 0.0009809995730975219
-0.08823209869388723 0.0248016938424818 0.018399355437591393 -0.0069556496127771055 0.02219672097123403 0.0004063835166177963
-0.11829853605775123 0.03350034609354957 0.023069104826574705 -0.006800733148099617 0.01908442533551833 0.0002022017850767155
-0.14725608401488902 0.042093908456659425 0.02758252209980305 -0.006959027746116492 0.013739854489781128 6.557118748422514e-05
-0.1757204093539774 0.0505108864186986 0.03169037481182415 -0.007047674600388855 0.0069126240095370335 -3.731286602450174e-05
-0.20281793135661536 0.05963392556320801 0.03508803501032412 -0.007367204887652728 -0.000638203952798096 -1.8777519994399848e-05
-0.22517291699196612 0.06412529596722166 0.03731847498991974 -0.0075846303514278835 -0.008411922416365163 -0.00013726987717545107
-0.24867460404251399 0.09011896731851893 0.03654489834042687 -0.01838570983185087 -0.012549259475636964 -0.002973238265440796
-0.2628085822081076 -0.0033017790693600393 0.030514676163878995 1.55657118106221e-05 0.0007658614095189316 0.027427732566467404
-0.24862288541472816 0.09006777991627371 0.03663473283601933 0.01841688111709343 0.01413383297673083 -0.0029625590945394583
-0.22507146520415455 0.06402414320352592 0.03749698417580919 0.007615434755133389 0.010148816157332546 -0.00011774613749291707
-0.20267307693467737 0.059486868842953046 0.03535103785272085 0.007395480131512765 0.002604733303535091 4.957137852109163e-06
-0.17554798323077486 0.05032819989858373 0.03202671328939713 0.007067719596335787 -0.004688474777312163 -1.8895455363390334e-05
-0.14709329332187307 0.04189718288393293 0.02796786010690673 0.0069587452453955525 -0.011328487057159749 5.920777213983691e-05
-0.118227020357664 0.03333300490503908 0.023457816910167857 0.006754549777297043 -0.016737553012331492 0.00013177790796575626
-0.08837445441608 0.02474353169094878 0.018716487992167578 0.006829372387615683 -0.020430432256986885 0.00021208269567895557
-0.0559790807649819 0.01529201748351023 0.014159778230921771 0.0074866684204013476 -0.021489210031025652 0.0006850145030574756
-0.025412824320110626 0.0034598814412825367 0.0109964955314723 0.007718554146110761 -0.01648379450838637 0.0016914075823154064
-0.011906404376449648 -0.003429008878174525 0.010412041319160844 0.004736348082426224 -0.011626982921788336 0.0063626927910005885
0.03658585047545204 -0.13596436003592235 1.3444106938820255e-17 -0.07702572481875504 -0.03175513139996007 0.04001522593576028
0.04405060430891309 0.014133763214359281 -0.005096841727163482 -0.03421632969147797 -0.033053328715519636 0.0013608046989119884
0.061382503272669295 -0.019169992638374177 -0.013442582228477714 -0.016130505191653537 -0.03229080714116962 0.011224895822259485
0.08632116583165332 -0.022519628438850765 -0.01889908286450941 -0.01663412404537697 -0.028731769509788792 0.012179438618851932
0.11717523088444089 -0.03239175180802473 -0.024996734338587526 -0.01567720726984167 -0.025675796520886217 0.01672762977201507
0.1484659266681644 -0.04104984788661592 -0.030864948570281735 -0.014224244776554044 -0.02016686181596218 0.020627286346344895
0.1789862640973262 -0.049791967559598714 -0.03638513788587862 -0.011881660662938134 -0.01257830488597623 0.024634358688459375
0.20768504364225807 -0.05817905931595426 -0.04121566470989381 -0.008661065797241463 -0.003065802413530387 0.028571821105200786
0.23176520437872378 -0.06546234988543166 -0.04486279451362986 -0.004507845330986456 0.006206842294983263 0.032630812662221426
0.24709371431564378 -0.06969854746829385 -0.04687419733401474 -0.0008375821547551114 0.008836841117130515 0.03699204781384823
0.252073438947809 -0.06993914265226553 -0.04742801398351035 -0.00010258913096421445 -0.0002124218066136917 0.039966773000448534
0.24728159227828095 -0.06975840382025252 -0.046918458345510256 0.0006270773783935467 -0.009257953659486323 0.03700236702420858
0.23217708767383266 -0.0655932458113513 -0.044958292985099325 0.004281367626616893 -0.006615629584320216 0.03265126758997127
0.2083979809855561 -0.058404583596779046 -0.04137790222556346 0.00840759225105041 0.0026826531434433008 0.02860293642220913
0.18012851192006063 -0.05014966624861665 -0.03664036570554688 0.01159104014193571 0.012240475810823654 0.024671928733455046
0.15022635056722816 -0.041596906519692174 -0.03126107417012487 0.013882164493783829 0.01991773428928991 0.020686336404449165
0.11982073917158356 -0.03319390901470385 -0.02559221048839872 0.0152851297703694 0.025516447594290167 0.016733284347994325
0.09021024572565509 -0.02367191947494647 -0.0198920009647245 0.01607904380948018 0.02891557209384408 0.01249122757396243
0.06766581820730617 -0.020823748048076397 -0.01463252596405027 0.015458390299731022 0.03178519881663419 0.010189576657809883
0.05757426696396591 0.011836225531107674 -0.008735770102545918 0.03550197038508161 0.042501833854496025 0.007485897903946118
0.055678334991681164 -0.14348413864655385 0.011452229561381094 0.046299433956823295 0.055671090343974154 0.015520194002121901
0.02247272764792686 -0.11803453692427796 0.009498436353090738 -0.049439600672957225 -0.026236588138889093 0.023002389983002733
0.020294935374469844 0.009438565019938448 -0.003333289833670064 -0.04096500484356472 -0.021968690293972637 0.006899441011677089
0.032403100768975526 -0.011758408375504565 -0.008693378324198598 -0.03408389995168753 -0.019932596231418274 0.012094689579096953
0.056278607272251764 -0.018061941550822358 -0.01344091145940623 -0.0345209519517017 -0.017623822404697398 0.015684100827915454
0.07641821932723397 -0.02548524310351901 -0.017790830607694978 -0.03374443775236909 -0.015293928543761643 0.020808230193713886
0.09726941973364232 -0.03255484515181877 -0.02210016828520622 -0.030994776656467434 -0.012051850209625709 0.02591791709009419
0.11753037194096996 -0.03952795653885232 -0.026089658611914264 -0.026930521335178034 -0.00754110348608392 0.031056929603457864
0.13658036761035044 -0.046334976676942516 -0.029566410376300516 -0.021002258438527235 -0.001973610566596634 0.036360826380404436
0.15264146617829602 -0.05223093346116583 -0.032209983511316626 -0.012405969346099137 0.003509764887527109 0.04239829960722149
0.16298968685245654 -0.05480220086676772 -0.033797650990462676 -0.0032652352083136415 0.005234265602482371 0.049971993614054536
0.1664143474658676 -0.05280742900961333 -0.03439559004711955 -0.00018291278917093208 -5.088404997132396e-05 0.05584620615583079
0.16318721682901746 -0.054864478375037676 -0.03383392774238383 0.0028877610258221387 -0.005325902015136669 0.049973076469083215
0.15306958625174047 -0.05236602569178389 -0.032289652576264136 0.011992964346612319 -0.0035706744505869903 0.042399082133938386
0.1373080058137285 -0.04656463320688049 -0.029704860468462792 0.020527898748631097 0.001964328748791528 0.036358372983676696
0.11866776055993455 -0.039886418223345835 -0.026314353905592485 0.026366034063016002 0.007606822120118985 0.031045172405602537
0.0989764710474881 -0.033092837058309524 -0.02245260505604156 0.030308047438532944 0.01220803290874807 0.025892189809219576
0.07890511526518038 -0.026265299047556496 -0.018351903922945056 0.032901948751276 0.015580093460445863 0.02074126785225585
0.05987171450793868 -0.019144941830629078 -0.01427488344440251 0.03338361352023047 0.017915508815056085 0.01567044602715706
0.0375595583870875 -0.013256321537118951 -0.01016492724142805 0.03232850698380571 0.020757260661161517 0.011623753744781423
0.024950437183503687 0.008842001637754345 -0.004679497794458317 0.038638578421834276 0.025122434739843984 0.00989620879142501
0.025721944511195877 -0.12382631425386963 0.011801317242608647 0.030937852805482096 0.031065263568268258 0.009342777133653082
0.01158787608310476 -0.08212954788921457 0.010386150850327708 -0.058045167347055886 -0.01597612877064508 0.007618373835867858
0.0068048868745565205 0.0019695772070886905 0.0004977164336896328 -0.06654061257395237 -0.012502990948901978 0.010722623275080754
0.01006892338219655 -0.00036716951167740626 -0.0037534508033881843 -0.058039004008098645 -0.009852762822324215 0.013808658904821412
0.024615425130088554 -0.00814610232849395 -0.006514077463647639 -0.05902799199460429 -0.007990217555330699 0.02000364845056381
0.03648904435932387 -0.01208091848070032 -0.008906949904817298 -0.057023229907604715 -0.006534862965022095 0.026399828985872148
0.04720895160736264 -0.01577362634476738 -0.0111744377887223 -0.05263517701625753 -0.004945414530580267 0.03311874080005869
0.057769878649167716 -0.019349517906265188 -0.013271367780242007 -0.04611035114524632 -0.0028126588573780115 0.03989896472215544
0.06796821004000626 -0.023099805358560623 -0.015082880665552455 -0.03662806619160488 2.7352932859702942e-05 0.047050944175133426
0.07667670371242628 -0.026457202776410855 -0.01650521690929621 -0.021997411998294716 0.0036374465174840854 0.05547264598749528
0.08114831649975301 -0.02527539897309018 -0.017554260063923903 -0.004747702610071404 0.005559928885054106 0.06697102733373853
0.08194287113644111 -0.016741006405753676 -0.018234817657440172 -0.00029229677772593145 7.820572140366676e-05 0.07779717335807852
0.08134870433461029 -0.025341546364234236 -0.017581591208561044 0.00414371626317993 -0.005388075454518911 0.06696499318429767
0.07710692050316617 -0.026598806133421783 -0.016566345127903306 0.021334102676833534 -0.0034200400741261476 0.055458770400653015
0.0686876877349199 -0.023335286213048145 -0.01519188085036627 0.03586169116635889 0.0002630951147482127 0.04702486873057812
0.05886973396328269 -0.019706473042944966 -0.013451960318917995 0.04519030028887617 0.0031964089186046307 0.039853631319511515
0.048813696590205326 -0.016292292719773158 -0.011465320146401675 0.05150184227905492 0.005430217345274895 0.03303837006934984
0.03875366607614555 -0.01280786582948999 -0.009365110116041055 0.05560223948444088 0.007095979036181441 0.02628203226022179
0.027695741537956765 -0.009115577321766048 -0.0072376454282700245 0.05712960213644838 0.008568588143397622 0.01976912608910654
0.013271383248285487 -0.001233072907412055 -0.004863136008803763 0.055280331545524204 0.010655005153191916 0.013860499751731124
0.00894437856201623 0.0031234390617824207 -0.00047242896021441145 0.06286319737163118 0.01369120917315634 0.010887274541977493
0.012985871678975532 -0.08566524856680574 0.010873049289928056 0.05486582756245429 0.017530741322621203 0.007281249898302743
0.003114002301781076 -0.04924841819853572 0.009275593595885973 -0.053677158819008156 -0.007206988778394832 0.002686574525485195
-0.0035509553819775084 -0.0010440797148863138 0.0036075886211538316 -0.07036854737896009 -0.004083295683394868 0.0093119685892587
-0.008917516891783803 0.006226744431675969 0.0013359551898657154 -0.07065089664597264 -0.0006440756298010039 0.014277425867376787
-0.005830409176573508 0.002398314522893049 0.0007615235073614658 -0.06744825233321089 0.0010705834787979084 0.021034541569227197
-0.0033814071881909874 0.0010186591714556746 0.0005498915178781002 -0.0646754169749107 0.0015777484596595523 0.02802129288313769
-0.002281784222690325 0.000716014899662308 0.0004261382685494859 -0.05966281824000738 0.001716054525681509 0.03514434218430406
-0.0012623672474722236 0.00042370462360884946 0.00034329845378511443 -0.052377925651255076 0.0018415377005577035 0.042425040356342494
0.00042327072373936 -0.00029935249593937357 0.00028922231054414986 -0.04213632528409699 0.002320441183519565 0.05000874460837261
0.0023123978468593057 -0.001699374178921841 0.00015652009959251062 -0.025380035861893854 0.004492161420740681 0.058706878192807094
0.0005307143857646479 0.0030900812836869933 -0.00038214987592845025 -0.0015723156174853176 0.007302484186212528 0.07118899835003684
-0.0019860709928134347 0.023823239280264807 -0.0014040020645525973 -0.0003281821725532193 0.00019421511446301553 0.08727426550995739
0.0007310596451277863 0.0030213274986921074 -0.00040002313877965953 0.0008935834994614616 -0.006893643899124114 0.07118076153795923
0.0027385590885713913 -0.0018450938037756159 0.00011525300325685621 0.02463288654179181 -0.004023791109926658 0.058688346920083706
0.001124532770719719 -0.0005375223346643027 0.0002127971328714552 0.04127042372708907 -0.0017596837023848826 0.0499752282859422
-0.0002162634136927341 7.161819987509398e-05 0.0002121530096528332 0.05133415574595153 -0.0011698506738265144 0.04236736250227152
-0.0008068400958101548 0.0002217997735341573 0.00021060798077359756 0.058367090849354146 -0.0009437716792787144 0.0350484248140009
-0.0013903243939067025 0.00035000106482778063 0.00020525484624313246 0.06302559238065894 -0.000766109514191139 0.027862558506961704
-0.0034490028866211503 0.0015874842807494362 0.00021858815817814167 0.06529145955109569 -0.0003152235541631612 0.020814499126651308
-0.006902166980748684 0.0059966252502844045 0.0005632500696631295 0.06792945143296342 0.0012680877779622688 0.014156452748854903
-0.0023961354129679205 -5.988771505723001e-05 0.0029030230293532137 0.06876575441986851 0.004606953785151346 0.009572806372292346
0.0038852187419965685 -0.0517075033013832 0.00932003329600376 0.05316458835339222 0.007857896826930567 0.004210828476394882
-0.0043692964756856046 -0.02359604079914691 0.00810949026969242 -0.04079492703884263 0.00010580284981997497 0.0021213173299973243
-0.012954150488198216 2.1319596044573998e-05 0.006074839147662344 -0.059176430083070504 0.0038255489108988874 0.0072253031185852456
-0.026484394613157332 0.011056355476943273 0.00625599693986305 -0.0650092636487675 0.00867874906135596 0.013199422811809653
-0.03517394640257423 0.01220452072797668 0.00798360920192279 -0.06058874343482333 0.010294675536837267 0.019816663539708353
-0.043194178351267425 0.014281407677979148 0.010005271165458886 -0.05707668599766427 0.009802082804336401 0.02646138864274238
-0.05181551741645361 0.01722956667309068 0.012022937040917406 -0.05260111431976912 0.008413469166432479 0.03312450534834878
-0.06033528721292952 0.020112880670305252 0.013953787245192986 -0.04618821253323404 0.0066215085079609345 0.03997082167798055
-0.06744559833283494 0.022860663862675424 0.015679282002144055 -0.03706466079504161 0.004491708032943509 0.046846236766330165
-0.07182136532078977 0.02310742714165434 0.016868125797836187 -0.02355887847695815 0.003998174325739354 0.054184015855471675
-0.07981797248030081 0.028178538258480233 0.016706427227619208 0.0060560245998985025 0.008172514886699185 0.06434241030248868
-0.08632572392890668 0.0712030865406783 0.014644480234785387 -0.0002953976126954926 0.00031279741362844613 0.0853219820552668
-0.07961681342742781 0.028107044866319254 0.0166979875710333 -0.006667274786824206 -0.007520999210500057 0.06433693525920108
-0.07139762979364321 0.022957295087155417 0.016846775550749496 0.022885186989196837 -0.0032716165087725837 0.05417135746530136
-0.06676028860103914 0.022619147769268433 0.015635639638369607 0.03628302332765593 -0.0036507660778726195 0.046822341485759686
-0.05934158390413813 0.019764908428149708 0.013872886530943825 0.045245479674399944 -0.0056490032654971266 0.03992794923359842
-0.05047403885092554 0.016761577059462712 0.011883568734920809 0.051426474393626305 -0.007336938655165147 0.033049127484618725
-0.041521577057577 0.013684558780121881 0.009778391744151169 0.05557205061684777 -0.008723333930486422 0.02633546319347648
-0.03341542567371492 0.011604720383500829 0.007632631151194083 0.05866552060936273 -0.009404321747697193 0.019645908152972413
-0.02519712106790956 0.011002017464703435 0.005773062341121506 0.06314528245749956 -0.00818083419402252 0.013084551906558044
-0.01230386222227153 0.0005928005028818945 0.005618477441026843 0.05873495316611909 -0.0036224820013266326 0.007545643485505531
-0.003948208815158684 -0.025010852427818035 0.00803608231625358 0.041086563721774806 0.00011456688787949147 0.003546819072455161
-0.01027007874732051 -0.007735040143329204 0.007782608440605821 -0.02258700211454131 0.006532138191735518 0.0031086121274254966
-0.021348741476584547 0.002889691048177401 0.008222816947497344 -0.03409428572064377 0.011913562285614345 0.005186839637145413
-0.04342157093174546 0.015359865593529663 0.010786301472149056 -0.039055309134817 0.01899898076260372 0.010370930607271601
-0.06416772035066387 0.021763379357801295 0.014756780648460909 -0.03631772295884097 0.020520737401004584 0.015648913338579196
-0.0833174185619971 0.02780958411408058 0.018893042122808925 -0.03380789260983382 0.018833791252606435 0.02079086594546889
-0.10195894389823373 0.03408429213417341 0.02292828060028146 -0.030995137682404122 0.0156806361042343 0.025912858781859865
-0.11998591429444547 0.04029041320792224 0.026758990338859437 -0.027011610646051065 0.0115662637278628 0.031092985387447508
-0.13711671737690836 0.04601666291176271 0.030207047725193396 -0.02164274449657463 0.006848977409809644 0.03635098125699623
-0.1481328024133171 0.051631065019305596 0.03274700384712843 -0.012557935237709077 7.133344263068745e-05 0.04073967879029943
-0.16067855927719726 0.0471857008158129 0.0327828407579882 0.006383486005216419 0.003191065400989848 0.04655137139801033
-0.17050530495161734 0.12570099454329858 0.028003893977457263 -0.00018689517126289868 0.00044984971283263406 0.06186604680050331
-0.16047160094119928 0.04710957678382606 0.03278329063038894 -0.00677011640900855 -0.0022584322071396616 0.04655310060113257
-0.1477014037309468 0.05147283567858761 0.03274431800590116 0.012132274102092389 0.0009563384766902505 0.040742234415371226
-0.1364319166205475 0.04576650324277653 0.030193816639008855 0.021150245307217784 -0.005677625507488146 0.036352093802128616
-0.11902281359798805 0.0399402255774493 0.026723803649376904 0.026420523712875232 -0.010232873633233266 0.031087901126345584
-0.10073099259440409 0.03363666313069588 0.02285652165328556 0.03026471760335289 -0.014227647489849204 0.025892818674444977
-0.08194638107738308 0.02730319877205239 0.018769610171340784 0.03287936695737313 -0.017414660336094283 0.020744999904608395
-0.06295697861903078 0.02135741676941152 0.014568901387505422 0.0351932238340129 -0.01944349634194337 0.01557851589936598
-0.04272556555884483 0.015373286727489038 0.010531324980423697 0.038148546972505706 -0.01858833200798413 0.010340816475877439
-0.021113933049287666 0.0031984137570527827 0.007971710993949471 0.034085525348733464 -0.011993191790088318 0.005414114992192667
-0.01016377942422306 -0.008291907992719371 0.007696189624567323 0.022884761130833226 -0.006689300560498891 0.004032849629043904
-0.011637518894361557 -0.0026204531196406264 0.00888415664539332 -0.011136888424880498 0.013077225887249803 0.0037518584377442387
-0.026417258407462785 0.004452795885833408 0.010280854535052503 -0.015970415832317897 0.02115553533406431 0.004338056306429106
-0.05972479826934771 0.017448024007244534 0.014484904203395623 -0.01795532553987733 0.03139101455786424 0.008612668192377103
-0.09402394230394787 0.02660229629962929 0.02021656176828364 -0.017263985382112754 0.032773528744250484 0.012818017047663034
-0.124356091678444 0.034676773777501606 0.026013893408763155 -0.016053389585574826 0.02954153004660172 0.016805535425109156
-0.15323737423682593 0.042628890994003264 0.031660257460230275 -0.014402597189997025 0.024117461546832173 0.020751108334382592
-0.18135380601377976 0.05063756461687623 0.037044960450024464 -0.012238091024573593 0.017026552767434297 0.024753000755093988
-0.20803178374051448 0.05742200978548638 0.04187475210252119 -0.008970584873027761 0.00860695602156169 0.028412971180149172
-0.23337356333373652 0.06756341591338062 0.0457305418401285 -0.004389826102691657 -0.003485506225605983 0.032746966055155896
-0.24513227967337337 0.05483943136297829 0.04594599269888812 0.012200127775242646 -0.025308758982863513 0.029409039514074444
-0.2443764983036759 0.15444859201031655 0.034648320173152426 -0.00012076382231553454 0.0006255126352496723 0.0606498635449423
-0.24490944142444693 0.05476025863104349 0.045954370218394505 -0.012449608362190133 0.026602494228245628 0.02941256866791926
-0.23291415113591757 0.06739970026994029 0.04574414256945307 0.004116676238398037 0.004902471605948266 0.032753018150245984
-0.20731617698757882 0.057165555886802 0.04188698787803365 0.008658558293426486 -0.007003804664309195 0.0284192581234608
-0.18037743381907573 0.05028364658616438 0.03704554880575422 0.011873511629627511 -0.015213468288879574 0.02475537627489382
-0.15206367327996476 0.04218958953215417 0.031636288218783525 0.013975379113712945 -0.022150172757455597 0.02074342575599642
-0.12321832683421606 0.03421632469208749 0.025954070639669206 0.01555892867417812 -0.027632123656224118 0.01678362540762704
-0.09335787178895451 0.026293551790540735 0.02011527534170831 0.016738252887341407 -0.0313788655468588 0.012790669363836302
-0.05978827390365736 0.01751303981480263 0.014339361941371667 0.017577116452363335 -0.031050174246115444 0.008630297136987241
-0.02678162186910491 0.004692350699063627 0.01013950194159487 0.015993140861576778 -0.02166276372274508 0.004494206862954817
-0.011939441946285524 -0.0028151104601430526 0.008861791228683871 0.011227188839023326 -0.013791379210674908 0.004368458892363623
SCALARS Stress_vm float 1
LOOKUP_TABLE default
26929.645184406098
12351.621891736315
13358.479235242785
18488.760704885193
24667.621996280446
30902.741366631384
37044.80834501723
42879.28187599483
47830.084334027146
50907.99645106792
51714.48414933629
50947.37169590672
47913.851417904814
43021.57699992363
37270.63859034683
31249.782703664343
25184.056562596386
19246.067774030813
14475.50181123712
14542.340796531309
29099.783276612132
22862.154633069193
7191.673222553758
9513.897010472601
13627.742411388399
17760.426630252237
21945.33208099357
26105.159235737367
30111.113715736064
33574.63582997633
35717.14841014984
36118.16930949331
35753.14506631576
33651.235095295386
30240.284984459755
26306.054368399895
22243.710453626012
18185.5164553274
14199.893522499067
10171.56884224043
7602.8687514573885
23781.188265828798
16854.613486659957
8899.507924347692
8771.453850544038
10340.755321020933
12013.011006053732
13806.472668720937
15723.459827347326
17769.03290498171
19710.004101597704
20705.262759967885
20347.040481610937
20729.487071868254
19758.272059141083
17847.50337323641
15840.259364658754
13966.291365333835
12204.578508989292
10490.428920720879
8702.478195358282
8337.245894960311
17295.76086610421
11502.944957441117
9781.72025454668
10222.549114459936
9653.541951139203
9394.695796825434
9180.096691311148
9309.244824307085
10091.852181104026
11752.211186808247
13064.987821082957
12366.010910568428
13047.333708860044
11726.250201557805
10037.510679447314
9203.486415668413
9000.58643602655
9124.578182896128
9266.137624144925
9731.933012862055
9480.900025663292
11786.036800709413
7153.052516802745
8810.545135367443
11138.745263365572
11873.77328089551
13037.689058655806
14535.978471481965
16133.940697780841
17572.988963405933
18953.506956868983
21333.420704103748
24240.24511998616
21288.21063120637
18860.67364207493
17418.52690471872
15908.696373137942
14226.485957831741
12634.021162742094
11405.313494624656
10762.94984097635
8692.005636433765
7303.306918111691
4352.928615992124
6946.816769428072
11639.991956674241
15445.955430194406
19116.62813269317
22875.705877120614
26614.084609042693
30154.230079476078
32886.1000558423
35517.21521477191
41803.95364469219
35475.52978326956
32798.12170160716
30007.78592785917
26402.939913356626
22597.286545155537
18789.94733841719
15140.857575400936
11471.190650848986
6919.329065566417
4397.939234605697
3757.613161903718
6693.842103606934
13649.388636048692
20276.69923627821
26171.703478708157
31909.548082595833
37571.842896797716
42938.94494620446
48117.59498972716
50985.0915630207
55656.289348635255
50956.368401268126
48030.17006279575
42792.98877671129
37363.75689897617
31646.969377390946
25897.84428081624
20091.982385191237
13650.758014425568
6781.495306384027
3846.894544200558
17557.04925280985
10370.096579165189
13262.76700486768
18470.911036544414
24300.07544577436
30171.43374146788
35937.32228801132
41542.58110763355
46979.18384565531
51836.292996163065
54216.321804746556
51851.24744218229
47010.18753110045
41593.83118030516
36018.61545763482
30301.77711961986
24515.953296970045
18830.489662108746
13956.143491785027
11235.070857000668
18407.597287743076
14872.495448917392
5646.779999530986
8974.664864480443
13132.097647859682
17184.735776060752
21240.902543900036
25229.700155490944
29073.299704014516
32782.41598764075
36300.20119710247
38403.20184010876
36312.57713065819
32808.96087321242
29118.143638209927
25300.892966578973
21353.450157779484
17364.663833171577
13429.375362542201
9416.201810009825
5972.134730000576
15146.801493541878
11357.43896061764
5245.0507156891545
6105.172729549334
8140.757417765499
10195.869496391591
12238.590054898687
14241.690198767223
16097.018039694633
18011.55128577024
20784.415134087
23620.844162852045
20793.30951237597
18032.302386554347
16132.00261251268
14294.109382748891
12314.916534875583
10307.878347148548
8291.508722778413
6224.306017236992
4963.279523221421
11371.410360461423
8020.846085638378
5829.20280034722
5643.835963223327
5244.705647750696
5377.048053146835
5768.322507398944
6374.00414707689
7036.448301788509
7704.423076702374
9877.044731096463
15502.241091090827
9870.840504251137
7694.223687971946
7030.159577811348
6365.579381192802
5747.074922718496
5322.255319928463
5126.864666210709
5405.326314628837
5561.580283904305
8055.818455370814
5216.7230187778605
5587.2937990261735
7358.7963598465685
8637.56660408331
10380.35981987034
12375.400454593668
14410.488089778706
16529.02734235437
18434.49256510017
18565.32793076533
20152.94256480787
18550.418383393408
18416.536472349424
16502.96771082549
14368.725848034414
12310.589106443096
10279.990405042938
8491.284566608896
7195.348947558667
5451.402695081917
5264.488164773503
3612.237231032826
5214.040154996968
9416.404892450308
13436.524547410027
17409.5173687397
21422.689969514777
25406.91385986911
29255.99377509486
33047.47752361453
35011.6255947003
33028.08437956982
35000.06179191131
33033.85293097751
29231.788574340982
25370.110906179278
21371.820865745452
17346.864762914447
13376.886798860975
9388.337681352026
5189.711622703056
3631.916128153185
3697.8884754102073
6002.252426532726
12215.43700635537
18614.123973090387
24566.49865826479
30382.63235303555
36129.499899898554
41676.983885583904
46213.45755959814
50740.95178907681
50738.427338939204
50741.190188280234
46207.219709118115
41659.906505102284
36101.638546056005
30345.77332793689
24532.50883045735
18613.08791579434
12280.811013209757
6088.176869932592
3772.3851358226884
16304.176507475473
10294.194733461965
12784.790017046893
17774.13500700996
23317.787517120385
28815.733515057665
34283.32973660469
39964.30021632423
46358.92442756619
53148.27757081582
56826.77933662357
53134.87626814268
46329.78045950217
39915.20804104804
34207.51444356943
28702.93599877809
23152.691231525543
17540.6353791738
12374.446289142734
9511.22496209574
14975.367614923567
12747.85524074034
5418.672257054705
8894.03524090769
12879.549572409978
16702.36196696517
20500.104318545753
24291.17123424731
28196.520129794382
32598.247582064327
37589.04867434157
40848.25515437129
37573.35004319481
32563.617706635137
28139.429091521848
24207.258003532625
20383.176510438276
16545.45378907267
12672.143499589856
8637.732586036887
5415.44756535824
12101.628494012115
9177.813788778132
4681.895889124693
6148.878855056279
8269.600568936707
10196.806005054583
12080.813176499769
13945.894958488672
15762.81361966645
18131.902243512497
22305.141269944186
26616.282575593294
22294.452941761952
18102.907529110642
15713.443825707333
13877.395977470482
11994.91697224736
10098.235016325385
8182.366363588095
6169.952595150704
5066.494852485403
9015.478856379843
6625.645480884153
5418.188109209909
5458.304000341339
5371.68927751747
5549.58538776313
5861.639993649683
6327.022967380445
6882.137950148866
7830.6834689384195
10193.653869194419
20287.29072899276
10193.93555415215
7845.300577626322
6903.52891723193
6359.804427531162
5914.232846471865
5637.40280630971
5519.085117105426
5709.634977520147
5608.341645812054
6472.926149632531
4568.07985474309
5374.934488843201
7019.633747228627
8181.102779071202
9853.033915975535
11806.124447444392
13882.194899028584
16267.112770560738
18744.184496573638
18698.610785106663
22680.29875358377
18731.00862845255
18802.819654611063
16357.238655834313
14005.384546974326
11961.680835943733
10039.194957406287
8383.533108378542
7176.297132367965
5404.138610597278
4398.959219140459
3494.172542475453
5065.416359048205
8935.523613694495
12592.38987762428
16329.07176367563
20207.99066471378
24174.51573276139
28223.237745855982
32700.542509990115
35560.276936954186
34879.78444741116
35593.28529136508
32768.025554341315
28325.325015372007
24310.691595326287
20371.026172783386
16501.523694893705
12735.626479393535
8997.129497913778
5035.477337531296
3325.127352519262
3659.243146309511
5735.090994749508
11488.373581413493
17377.340008738327
22961.81106297949
28536.959707382197
34169.108027065064
39831.12009398105
44729.90385693581
51694.415840261114
54739.91507181837
51734.70753121479
44812.49484324497
39954.58766628277
34331.34498207763
28725.917114940978
23147.757865367745
17506.024837964054
11519.861181991646
5716.520327864161
3547.2256736342065
16323.147165268658
10286.894998395172
12571.685489845728
17415.639849505318
22865.353150898212
28278.722370899777
33718.0246522823
39528.70017064353
46295.32070519875
53615.658889875376
57601.53260321098
53590.60237286358
46241.12280767529
39437.490166690106
33575.63034956069
28060.4801227219
22531.75787438932
16909.06301313909
11750.96115466832
8931.654383917079
14237.396667584333
12564.10025944498
5356.049588856209
8803.27480659635
12699.033589811703
16459.609860629374
20211.375243783023
24003.98032440912
28023.62323689652
32697.633571430128
38045.3011620956
41532.77095621038
38018.5500523768
32638.536264028324
27925.152707942587
23855.96813240842
19997.09419313387
16154.647656645753
12269.976522185641
8275.054431976916
5112.896534156143
11500.821741503907
8917.023553967449
4402.479768616884
6077.309044983898
8210.671523572115
10124.934973027443
11993.232413875805
13874.314993119853
15780.385991427127
18340.991626853778
22740.081399037907
27238.014154934466
22722.522798862858
18293.749957754368
15699.234120379066
13759.46383083914
11843.67443289695
9941.200388701303
8027.102078948376
6036.443692845359
4907.0296708717115
8441.553060339123
6312.932083935991
5159.33323343871
5326.62999923053
5370.77995823971
5613.4355773815805
5961.636739093306
6473.819480824427
7138.778546960148
8254.882913263824
9928.730799919462
21324.598329688793
9938.222687577487
8283.160207150018
7177.250094025841
6530.892225677926
6054.559246952321
5768.50481119887
5624.751565784457
5736.9672789325205
5472.487638385151
5907.008119296345
4269.430194642436
5146.4545976308145
6776.69543369578
7947.08817460072
9622.092177217271
11583.0657615395
13703.080706436116
16207.422454115656
18899.832057944226
19019.03959004843
22907.576830092818
19066.84073552873
18987.67355880037
16343.299307401856
13894.109792657522
11834.258201982255
9937.572270549459
8307.138990592357
7068.732005503124
5231.056138505502
3887.4624117279286
3274.761296579618
4790.004263992863
8597.866123959713
12211.51610938991
15904.660695272467
19760.08806355989
23758.787392686165
27945.84619819902
32722.87262596688
35878.38960480078
34892.04635784187
35926.96837735878
32821.18015663748
28096.572182622327
23964.586254410715
20014.10597404818
16183.936339191901
12455.327020962484
8711.773236527997
4755.63420916497
2954.7311903501954
3320.3431257823795
5292.593893729587
11000.013243173598
16825.246883537005
22324.220181792174
27834.658663641756
33468.4799397657
39287.73823418922
44546.20265317297
52068.63095848811
54989.03405113181
52123.37753504341
44660.79143082244
39463.38116816812
33705.10253165376
28117.567811679794
22609.842119422538
17025.982467718415
11034.961940489618
5216.669464889793
3061.2223282934583
16304.176507512879
10294.194733494018
12784.790017072597
17774.13500702093
23317.78751712935
28815.733515060503
34283.32973660974
39964.30021632765
46358.92442757167
53148.27757084626
56826.77933664511
53134.876268176886
46329.78045955145
39915.20804105786
34207.514443553766
28702.93599871424
23152.691231499095
17540.635379146417
12374.446289119616
9511.224962072
14975.36761489058
12747.855240755402
5418.672257067101
8894.03524092265
12879.549572421076
16702.361966973236
20500.10431854456
24291.17123425433
28196.52012980145
32598.247582069
37589.04867436072
40848.25515438669
37573.350043205246
32563.617706685596
28139.42909153334
24207.258003539082
20383.176510405734
16545.453789052728
12672.143499569886
8637.732586018925
5415.4475653443815
12101.628493983017
9177.813788784166
4681.895889122477
6148.878855058941
8269.600568943666
10196.80600505235
12080.813176500385
13945.894958499637
15762.813619672517
18131.90224353396
22305.141269947653
26616.28257559223
22294.45294176175
18102.907529155786
15713.443825715482
13877.395977505861
11994.916972240957
10098.235016309849
8182.366363572516
6169.95259513613
5066.494852471092
9015.478856353888
6625.645480888652
5418.188109210401
5458.304000338744
5371.689277508944
5549.585387755596
5861.639993665072
6327.022967382497
6882.137950138738
7830.683468964191
10193.65386919034
20287.290728963082
10193.935554165459
7845.300577657064
6903.52891723088
6359.80442756699
5914.232846474891
5637.4028063050655
5519.085117089972
5709.634977505111
5608.341645799085
6472.926149610548
4568.079854746234
5374.93448884629
7019.633747229394
8181.102779062981
9853.033915976222
11806.124447439834
13882.194899028573
16267.112770553382
18744.184496575625
18698.61078509579
22680.298753564766
18731.00862845609
18802.81965461747
16357.238655820269
14005.384546983807
11961.680835901028
10039.194957398235
8383.533108364565
7176.29713235168
5404.138610585391
4398.959219120846
3494.172542478496
5065.416359052887
8935.523613695741
12592.389877623373
16329.071763672631
20207.990664702796
24174.51573276696
28223.237745844654
32700.54251000278
35560.27693694366
34879.7844474004
35593.285291368
32768.02555434073
28325.325015345523
24310.691595325916
20371.026172731876
16501.523694872234
12735.626479372802
8997.129497896825
5035.477337521266
3325.127352507057
3659.2431463130984
5735.090994754409
11488.373581414844
17377.34000874739
22961.8110629701
28536.959707364647
34169.10802707337
39831.12009396618
44729.90385695115
51694.41584025166
54739.91507181133
51734.707531219276
44812.49484325334
39954.58766625424
34331.34498207021
28725.917114883723
23147.75786532843
17506.02483793579
11519.861181974227
5716.520327851386
3547.225673619827
17557.049252849414
10370.09657922824
13262.767004909392
18470.91103657581
24300.07544580428
30171.433741499157
35937.32228803325
41542.58110759369
46979.183845651685
51836.29299620597
54216.32180478
51851.24744219626
47010.18753110515
41593.83118027678
36018.61545760046
30301.777119574846
24515.95329692684
18830.48966204253
13956.143491741883
11235.070856956663
18407.597287659948
14872.495448928668
5646.779999554671
8974.66486450943
13132.097647887658
17184.735776088393
21240.902543922486
25229.7001555075
29073.299703995013
32782.415987650886
36300.20119714074
38403.20184013251
36312.577130683785
32808.960873213844
29118.143638205
25300.892966552085
21353.4501577501
17364.663833144612
13429.375362490591
9416.201809987946
5972.13472998299
15146.80149347288
11357.438960622645
5245.050715676712
6105.17272955777
8140.757417785614
10195.86949641764
12238.590054913517
14241.69019877783
16097.018039700351
18011.551285788915
20784.415134143183
23620.844162883222
20793.309512414173
18032.302386543062
16132.002612537104
14294.109382738354
12314.916534865884
10307.878347127013
8291.508722748895
6224.306017229053
4963.279523207431
11371.410360405389
8020.846085645395
5829.202800337912
5643.835963208128
5244.705647752572
5377.048053153944
5768.322507387262
6374.004147078975
7036.448301793941
7704.423076682926
9877.044731144952
15502.241091150685
9870.84050426101
7694.2236879708535
7030.159577827843
6365.579381195842
5747.074922717694
5322.255319925228
5126.8646661953635
5405.326314616412
5561.580283886784
8055.818455329951
5216.723018782775
5587.293799021628
7358.79635984086
8637.566604070837
10380.35981986441
12375.40045457409
14410.488089769728
16529.02734230077
18434.492565077166
18565.32793078382
20152.942564826924
18550.418383409535
18416.536472360043
16502.967710828365
14368.725848017113
12310.589106437808
10279.990405019267
8491.28456656991
7195.3489475391625
5451.402695064863
5264.4881647406155
3612.2372310393835
5214.040154998444
9416.40489245101
13436.524547402541
17409.517368738158
21422.68996951834
25406.913859854285
29255.9937750379
33047.477523584945
35011.62559470478
33028.08437958102
35000.06179191256
33033.8529309745
29231.788574333408
25370.110906147635
21371.82086571847
17346.8647628629
13376.886798816424
9388.337681322113
5189.7116226854805
3631.9161281340944
3697.888475416885
6002.2524265393695
12215.437006366934
18614.123973085934
24566.498658266097
30382.63235305989
36129.4998998769
41676.983885528214
46213.45755955999
50740.95178907676
50738.42733898423
50741.19018827244
46207.219709089186
41659.90650508596
36101.638546009985
30345.773327880386
24532.508830384755
18613.0879157391
12280.811013165941
6088.176869907713
3772.3851358025404
26929.645184437733
12351.621891817977
13358.479235302875
18488.76070494471
24667.621996314585
30902.74136665498
37044.808345021724
42879.28187599694
47830.08433402455
50907.996451102794
51714.48414937241
50947.3716959655
47913.851417906364
43021.57699993026
37270.63859032412
31249.782703602057
25184.056562532372
19246.06777396838
14475.501811177548
14542.340796460061
29099.78327645515
22862.15463308696
7191.673222570518
9513.897010504255
13627.742411426554
17760.426630274953
21945.33208101191
26105.15923575144
30111.11371573995
33574.63582997161
35717.14841018968
36118.169309553865
35753.145066366225
33651.235095293974
30240.28498446567
26306.054368386845
22243.710453580505
18185.51645528658
14199.89352246198
10171.568842199838
7602.868751419173
23781.188265697656
16854.613486681214
8899.507924332713
8771.45385054606
10340.755321021368
12013.011006059303
13806.47266872557
15723.459827356177
17769.032904969812
19710.00410159457
20705.26275998722
20347.040481707794
20729.487071904678
19758.272059153554
17847.503373240914
15840.25936464954
13966.291365314619
12204.578508974771
10490.428920696422
8702.478195318958
8337.245894918196
17295.760866011733
11502.944957458625
9781.720254546313
10222.549114449619
9653.54195111111
9394.69579679678
9180.096691293713
9309.244824281095
10091.85218107325
11752.211186796496
13064.987821067034
12366.010910611763
13047.333708857017
11726.250201552037
10037.5106794664
9203.4864156795
9000.586436039815
9124.578182893481
9266.137624122637
9731.933012815884
9480.900025616656
11786.036800650136
7153.05251681597
8810.545135373346
11138.74526335875
11873.773280878624
13037.689058629623
14535.978471452338
16133.940697752829
17572.988963385345
18953.506956855646
21333.420704059623
24240.245119934276
21288.210631177793
18860.673642063888
17418.52690474918
15908.696373146093
14226.48595782239
12634.021162717578
11405.313494592994
10762.949840926434
8692.005636392507
7303.30691807859
4352.928616003166
6946.816769434482
11639.991956678014
15445.955430196609
19116.628132681813
22875.70587708811
26614.084609020505
30154.230079450455
32886.100055826304
35517.215214742675
41803.9536446174
35475.52978326177
32798.12170160748
30007.785927857123
26402.939913342183
22597.286545122868
18789.947338374444
15140.857575348182
11471.19065080362
6919.329065535115
4397.939234585459
3757.6131619188936
6693.842103618241
13649.388636060698
20276.699236291934
26171.70347870903
31909.548082572765
37571.84289676702
42938.944946154515
48117.59498968639
50985.09156299755
55656.28934858526
50956.36840127622
48030.1700627988
42792.98877668265
37363.75689893946
31646.969377331166
25897.84428074913
20091.982385112362
13650.758014372504
6781.495306354872
3846.8945441847172
SCALARS Statev float 1
LOOKUP_TABLE default
0.0
0.0
0.0
0.0
0.0
0.0
0.0
0.0
0.0
0.0
0.0
0.0
0.0
0.0
0.0
0.0
0.0
0.0
0.0
0.0
0.0
0.0
0.0
0.0
0.0
0.0
0.0
0.0
0.0
0.0
0.0
0.0
0.0
0.0
0.0
0.0
0.0
0.0
0.0
0.0
0.0
0.0
0.0
0.0
0.0
0.0
0.0
0.0
0.0
0.0
0.0
0.0
0.0
0.0
0.0
0.0
0.0
0.0
0.0
0.0
0.0
0.0
0.0
0.0
0.0
0.0
0.0
0.0
0.0
0.0
0.0
0.0
0.0
0.0
0.0
0.0
0.0
0.0
0.0
0.0
0.0
0.0
0.0
0.0
0.0
0.0
0.0
0.0
0.0
0.0
0.0
0.0
0.0
0.0
0.0
0.0
0.0
0.0
0.0
0.0
0.0
0.0
0.0
0.0
0.0
0.0
0.0
0.0
0.0
0.0
0.0
0.0
0.0
0.0
0.0
0.0
0.0
0.0
0.0
0.0
0.0
0.0
0.0
0.0
0.0
0.0
0.0
0.0
0.0
0.0
0.0
0.0
0.0
0.0
0.0
0.0
0.0
0.0
0.0
0.0
0.0
0.0
0.0
0.0
0.0
0.0
0.0
0.0
0.0
0.0
0.0
0.0
0.0
0.0
0.0
0.0
0.0
0.0
0.0
0.0
0.0
0.0
0.0
0.0
0.0
0.0
0.0
0.0
0.0
0.0
0.0
0.0
0.0
0.0
0.0
0.0
0.0
0.0
0.0
0.0
0.0
0.0
0.0
0.0
0.0
0.0
0.0
0.0
0.0
0.0
0.0
0.0
0.0
0.0
0.0
0.0
0.0
0.0
0.0
0.0
0.0
0.0
0.0
0.0
0.0
0.0
0.0
0.0
0.0
0.0
0.0
0.0
0.0
0.0
0.0
0.0
0.0
0.0
0.0
0.0
0.0
0.0
0.0
0.0
0.0
0.0
0.0
0.0
0.0
0.0
0.0
0.0
0.0
0.0
0.0
0.0
0.0
0.0
0.0
0.0
0.0
0.0
0.0
0.0
0.0
0.0
0.0
0.0
0.0
0.0
0.0
0.0
0.0
0.0
0.0
0.0
0.0
0.0
0.0
0.0
0.0
0.0
0.0
0.0
0.0
0.0
0.0
0.0
0.0
0.0
0.0
0.0
0.0
0.0
0.0
0.0
0.0
0.0
0.0
0.0
0.0
0.0
0.0
0.0
0.0
0.0
0.0
0.0
0.0
0.0
0.0
0.0
0.0
0.0
0.0
0.0
0.0
0.0
0.0
0.0
0.0
0.0
0.0
0.0
0.0
0.0
0.0
0.0
0.0
0.0
0.0
0.0
0.0
0.0
0.0
0.0
0.0
0.0
0.0
0.0
0.0
0.0
0.0
0.0
0.0
0.0
0.0
0.0
0.0
0.0
0.0
0.0
0.0
0.0
0.0
0.0
0.0
0.0
0.0
0.0
0.0
0.0
0.0
0.0
0.0
0.0
0.0
0.0
0.0
0.0
0.0
0.0
0.0
0.0
0.0
0.0
0.0
0.0
0.0
0.0
0.0
0.0
0.0
0.0
0.0
0.0
0.0
0.0
0.0
0.0
0.0
0.0
0.0
0.0
0.0
0.0
0.0
0.0
0.0
0.0
0.0
0.0
0.0
0.0
0.0
0.0
0.0
0.0
0.0
0.0
0.0
0.0
0.0
0.0
0.0
0.0
0.0
0.0
0.0
0.0
0.0
0.0
0.0
0.0
0.0
0.0
0.0
0.0
0.0
0.0
0.0
0.0
0.0
0.0
0.0
0.0
0.0
0.0
0.0
0.0
0.0
0.0
0.0
0.0
0.0
0.0
0.0
0.0
0.0
0.0
0.0
0.0
0.0
0.0
0.0
0.0
0.0
0.0
0.0
0.0
0.0
0.0
0.0
0.0
0.0
0.0
0.0
0.0
0.0
0.0
0.0
0.0
0.0
0.0
0.0
0.0
0.0
0.0
0.0
0.0
0.0
0.0
0.0
0.0
0.0
0.0
0.0
0.0
0.0
0.0
0.0
0.0
0.0
0.0
0.0
0.0
0.0
0.0
0.0
0.0
0.0
0.0
0.0
0.0
0.0
0.0
0.0
0.0
0.0
0.0
0.0
0.0
0.0
0.0
0.0
0.0
0.0
0.0
0.0
0.0
0.0
0.0
0.0
0.0
0.0
0.0
0.0
0.0
0.0
0.0
0.0
0.0
0.0
0.0
0.0
0.0
0.0
0.0
0.0
0.0
0.0
0.0
0.0
0.0
0.0
0.0
0.0
0.0
0.0
0.0
0.0
0.0
0.0
0.0
0.0
0.0
0.0
0.0
0.0
0.0
0.0
0.0
0.0
0.0
0.0
0.0
0.0
0.0
0.0
0.0
0.0
0.0
0.0
0.0
0.0
0.0
0.0
0.0
0.0
0.0
0.0
0.0
0.0
0.0
0.0
0.0
0.0
0.0
0.0
0.0
0.0
0.0
0.0
0.0
0.0
0.0
0.0
0.0
0.0
0.0
0.0
0.0
0.0
0.0
0.0
0.0
0.0
0.0
0.0
0.0
0.0
0.0
0.0
0.0
0.0
0.0
0.0
0.0
0.0
0.0
0.0
0.0
0.0
0.0
0.0
0.0
0.0
0.0
0.0
0.0
0.0
0.0
0.0
0.0
0.0
0.0
0.0
0.0
0.0
0.0
0.0
0.0
0.0
0.0
0.0
0.0
0.0
0.0
0.0
0.0
0.0
0.0
0.0
0.0
0.0
0.0
0.0
0.0
0.0
0.0
0.0
0.0
0.0
0.0
0.0
0.0
0.0
0.0
0.0
0.0
0.0
0.0
0.0
0.0
0.0
0.0
0.0
0.0
0.0
0.0
0.0
0.0
0.0
0.0
0.0
0.0
0.0
0.0
0.0
0.0
0.0
0.0
0.0
0.0
0.0
0.0
0.0
0.0
0.0
0.0
0.0
0.0
0.0
0.0
0.0
0.0
0.0
0.0
0.0
0.0
0.0
0.0
0.0
0.0
0.0
0.0
0.0
0.0
0.0
0.0
0.0
0.0
0.0
0.0
0.0
0.0
0.0
0.0
0.0
0.0
0.0
0.0
0.0
0.0
0.0
0.0
0.0
0.0
0.0
0.0
0.0
0.0
0.0
0.0
0.0
0.0
0.0
0.0
0.0
0.0
0.0
0.0
0.0
0.0
0.0
0.0
0.0
0.0
0.0
0.0
0.0
0.0
0.0
0.0
0.0
0.0
0.0
0.0
0.0
0.0
0.0
0.0
0.0
0.0
0.0
0.0
0.0
0.0
0.0
0.0
0.0
0.0
0.0
0.0
0.0
0.0
0.0
0.0
0.0
0.0
0.0
0.0
0.0
0.0
0.0
0.0
0.0
0.0
0.0
0.0
0.0
0.0
0.0
0.0
0.0
0.0
0.0
0.0
0.0
0.0
0.0
0.0
0.0
0.0
0.0
0.0
0.0
0.0
0.0
0.0
0.0
0.0
0.0
0.0
0.0
0.0
0.0
0.0
0.0
0.0
0.0
0.0
0.0
0.0
0.0
0.0
0.0
0.0
0.0
0.0
0.0
0.0
0.0
0.0
0.0
0.0
0.0
0.0
0.0
0.0
0.0
0.0
0.0
0.0
0.0
0.0
0.0
0.0
0.0
0.0
0.0
0.0
0.0
0.0
0.0
0.0
0.0
0.0
0.0
0.0
0.0
0.0
0.0
0.0
0.0
0.0
0.0
0.0
0.0
0.0
0.0
0.0
0.0
0.0
0.0
0.0
0.0
0.0
0.0
0.0
0.0
0.0
0.0
0.0
0.0
0.0
0.0
0.0
0.0
0.0
0.0
0.0
0.0
0.0
0.0
0.0
0.0
0.0
0.0
0.0
0.0
0.0
0.0
0.0
0.0
0.0
0.0
0.0
0.0
0.0
0.0
0.0
0.0
0.0
0.0
0.0
0.0
0.0
0.0
0.0
0.0
0.0
0.0
0.0
0.0
0.0
0.0
0.0
0.0
0.0
0.0
0.0
0.0
0.0
0.0
0.0
0.0
0.0
0.0
0.0
0.0
0.0
0.0
0.0
0.0
0.0
0.0
0.0
0.0
0.0
0.0
0.0
0.0
0.0
0.0
0.0
0.0
0.0
0.0
0.0
0.0
0.0
0.0
0.0
0.0
0.0
0.0
0.0
0.0
0.0
0.0
0.0
0.0
0.0
0.0
0.0
0.0
0.0
0.0
0.0
0.0
0.0
0.0
0.0
0.0
0.0
0.0
0.0
0.0
0.0
0.0
0.0
0.0
0.0
0.0
0.0
0.0
0.0
0.0
0.0
0.0
0.0
0.0
0.0
0.0
0.0
0.0
0.0
0.0
0.0
0.0
0.0
0.0
0.0
0.0
0.0
0.0
0.0
0.0
0.0
0.0
0.0
0.0
0.0
0.0
0.0
0.0
0.0
0.0
0.0
0.0
0.0
0.0
0.0
0.0
0.0
0.0
0.0
0.0
SCALARS Wm float 4
LOOKUP_TABLE default
4159.172898030116 4159.172898030116 0.0 0.0
752.6095213361531 752.6095213361531 0.0 0.0
896.6610246267824 896.6610246267824 0.0 0.0
1877.1678285947835 1877.1678285947835 0.0 0.0
3311.4024169719746 3311.4024169719746 0.0 0.0
5218.78815064527 5218.78815064527 0.0 0.0
7514.806648024201 7514.806648024201 0.0 0.0
10083.44057773451 10083.44057773451 0.0 0.0
12553.748505607493 12553.748505607493 0.0 0.0
14260.889148517545 14260.889148517545 0.0 0.0
14810.095160249763 14810.095160249763 0.0 0.0
14282.46290163965 14282.46290163965 0.0 0.0
12596.882699765898 12596.882699765898 0.0 0.0
10149.23194967792 10149.23194967792 0.0 0.0
7605.17180122268 7605.17180122268 0.0 0.0
5334.459174528522 5334.459174528522 0.0 0.0
3449.151279661329 3449.151279661329 0.0 0.0
2028.11588984692 2028.11588984692 0.0 0.0
1066.2181732998667 1066.2181732998667 0.0 0.0
1188.1013188619293 1188.1013188619293 0.0 0.0
3984.6984476641746 3984.6984476641746 0.0 0.0
3087.6569127949665 3087.6569127949665 0.0 0.0
93.4270720324849 93.4270720324849 0.0 0.0
416.83440915353333 416.83440915353333 0.0 0.0
891.0023281938177 891.0023281938177 0.0 0.0
1529.4259546541978 1529.4259546541978 0.0 0.0
2358.804266497088 2358.804266497088 0.0 0.0
3362.0543751685404 3362.0543751685404 0.0 0.0
4493.574441249502 4493.574441249502 0.0 0.0
5604.421864623503 5604.421864623503 0.0 0.0
6393.097716792191 6393.097716792191 0.0 0.0
6649.654818121895 6649.654818121895 0.0 0.0
6407.088872950302 6407.088872950302 0.0 0.0
5632.2964872461935 5632.2964872461935 0.0 0.0
4535.63765185025 4535.63765185025 0.0 0.0
3418.5653074178795 3418.5653074178795 0.0 0.0
2429.0604816354826 2429.0604816354826 0.0 0.0
1609.7832593133778 1609.7832593133778 0.0 0.0
975.2836154805075 975.2836154805075 0.0 0.0
476.65820430134784 476.65820430134784 0.0 0.0
107.893927760091 107.893927760091 0.0 0.0
3243.0673626783164 3243.0673626783164 0.0 0.0
1717.6809133353463 1717.6809133353463 0.0 0.0
255.0908239643735 255.0908239643735 0.0 0.0
358.21380047881877 358.21380047881877 0.0 0.0
466.2844334958436 466.2844334958436 0.0 0.0
645.0717396440267 645.0717396440267 0.0 0.0
851.8408881511842 851.8408881511842 0.0 0.0
1105.5188546419772 1105.5188546419772 0.0 0.0
1419.2271652497493 1419.2271652497493 0.0 0.0
1760.4348704827025 1760.4348704827025 0.0 0.0
1987.5511831039453 1987.5511831039453 0.0 0.0
2051.8344227102034 2051.8344227102034 0.0 0.0
1993.2959643066563 1993.2959643066563 0.0 0.0
1771.3621595260356 1771.3621595260356 0.0 0.0
1435.0254969317955 1435.0254969317955 0.0 0.0
1125.6118534493316 1125.6118534493316 0.0 0.0
874.7861201217238 874.7861201217238 0.0 0.0
668.1004857812164 668.1004857812164 0.0 0.0
479.82128931247837 479.82128931247837 0.0 0.0
348.5181330528315 348.5181330528315 0.0 0.0
215.86937264004882 215.86937264004882 0.0 0.0
1792.2613339987427 1792.2613339987427 0.0 0.0
792.3177664494609 792.3177664494609 0.0 0.0
370.0948317313691 370.0948317313691 0.0 0.0
461.3733785664411 461.3733785664411 0.0 0.0
422.4061097781488 422.4061097781488 0.0 0.0
416.9349615466407 416.9349615466407 0.0 0.0
410.73304869007586 410.73304869007586 0.0 0.0
403.46250436491744 403.46250436491744 0.0 0.0
417.16307599000345 417.16307599000345 0.0 0.0
482.18066436097087 482.18066436097087 0.0 0.0
553.9853504318125 553.9853504318125 0.0 0.0
601.0063319214864 601.0063319214864 0.0 0.0
551.9538483175305 551.9538483175305 0.0 0.0
477.3168693797068 477.3168693797068 0.0 0.0
409.08897726598843 409.08897726598843 0.0 0.0
391.56468792580955 391.56468792580955 0.0 0.0
394.16048147042153 394.16048147042153 0.0 0.0
393.92882546476704 393.92882546476704 0.0 0.0
389.87754939306393 389.87754939306393 0.0 0.0
424.16939933549367 424.16939933549367 0.0 0.0
339.41494865226554 339.41494865226554 0.0 0.0
833.9666945004567 833.9666945004567 0.0 0.0
300.7617125836593 300.7617125836593 0.0 0.0
340.34313239802674 340.34313239802674 0.0 0.0
545.1884108660237 545.1884108660237 0.0 0.0
642.0795441795709 642.0795441795709 0.0 0.0
774.1997718660846 774.1997718660846 0.0 0.0
957.2822295249077 957.2822295249077 0.0 0.0
1173.9994978928644 1173.9994978928644 0.0 0.0
1385.0553386514678 1385.0553386514678 0.0 0.0
1622.2179722299436 1622.2179722299436 0.0 0.0
1994.2428012937776 1994.2428012937776 0.0 0.0
2232.364468236907 2232.364468236907 0.0 0.0
1985.1270112723037 1985.1270112723037 0.0 0.0
1603.499555412679 1603.499555412679 0.0 0.0
1356.7524472424295 1356.7524472424295 0.0 0.0
1136.5503733890978 1136.5503733890978 0.0 0.0
911.8939637952892 911.8939637952892 0.0 0.0
723.2179493048087 723.2179493048087 0.0 0.0
591.7872982623251 591.7872982623251 0.0 0.0
509.84922036905743 509.84922036905743 0.0 0.0
325.16510002450667 325.16510002450667 0.0 0.0
316.42901285226765 316.42901285226765 0.0 0.0
104.94280887496718 104.94280887496718 0.0 0.0
259.72678168747325 259.72678168747325 0.0 0.0
645.3315144859629 645.3315144859629 0.0 0.0
1154.9404727507338 1154.9404727507338 0.0 0.0
1789.4982260091838 1789.4982260091838 0.0 0.0
2576.2373671278033 2576.2373671278033 0.0 0.0
3497.205285764199 3497.205285764199 0.0 0.0
4501.394547743656 4501.394547743656 0.0 0.0
5275.858097138581 5275.858097138581 0.0 0.0
6434.641950266786 6434.641950266786 0.0 0.0
6999.690290653078 6999.690290653078 0.0 0.0
6418.481359544269 6418.481359544269 0.0 0.0
5244.195750845994 5244.195750845994 0.0 0.0
4454.034318941705 4454.034318941705 0.0 0.0
3437.6199112586214 3437.6199112586214 0.0 0.0
2509.6411951320947 2509.6411951320947 0.0 0.0
1725.3224591259577 1725.3224591259577 0.0 0.0
1106.885773798106 1106.885773798106 0.0 0.0
623.1474458460618 623.1474458460618 0.0 0.0
253.93926116578805 253.93926116578805 0.0 0.0
108.82683681450597 108.82683681450597 0.0 0.0
64.48223070599276 64.48223070599276 0.0 0.0
280.3516807339981 280.3516807339981 0.0 0.0
1017.8517366475712 1017.8517366475712 0.0 0.0
2224.069764535148 2224.069764535148 0.0 0.0
3725.913488254849 3725.913488254849 0.0 0.0
5555.8035219368285 5555.8035219368285 0.0 0.0
7708.634195407927 7708.634195407927 0.0 0.0
10117.104580877105 10117.104580877105 0.0 0.0
12576.889221238569 12576.889221238569 0.0 0.0
14930.417128493278 14930.417128493278 0.0 0.0
12837.543344282427 12837.543344282427 0.0 0.0
14909.575513320531 14909.575513320531 0.0 0.0
12527.51878133097 12527.51878133097 0.0 0.0
10044.69598186493 10044.69598186493 0.0 0.0
7620.170130462593 7620.170130462593 0.0 0.0
5462.904359243174 5462.904359243174 0.0 0.0
3648.1638850154277 3648.1638850154277 0.0 0.0
2183.29568809207 2183.29568809207 0.0 0.0
1014.0761459357743 1014.0761459357743 0.0 0.0
285.4540780121306 285.4540780121306 0.0 0.0
68.29339782503857 68.29339782503857 0.0 0.0
1548.0541781196239 1548.0541781196239 0.0 0.0
638.7278746473697 638.7278746473697 0.0 0.0
948.7196584468631 948.7196584468631 0.0 0.0
1911.5175786702835 1911.5175786702835 0.0 0.0
3277.302119468202 3277.302119468202 0.0 0.0
5059.359797377514 5059.359797377514 0.0 0.0
7195.07808779853 7195.07808779853 0.0 0.0
9662.194467772504 9662.194467772504 0.0 0.0
12436.781484089137 12436.781484089137 0.0 0.0
15165.486074078064 15165.486074078064 0.0 0.0
16475.561055241647 16475.561055241647 0.0 0.0
15173.009705759134 15173.009705759134 0.0 0.0
12450.831266718791 12450.831266718791 0.0 0.0
9682.569305339837 9682.569305339837 0.0 0.0
7222.914733907034 7222.914733907034 0.0 0.0
5096.757064784901 5096.757064784901 0.0 0.0
3327.351476024644 3327.351476024644 0.0 0.0
1975.0497816084278 1975.0497816084278 0.0 0.0
1038.6195354337124 1038.6195354337124 0.0 0.0
762.9628435602136 762.9628435602136 0.0 0.0
1508.7837032374182 1508.7837032374182 0.0 0.0
1241.4079529708622 1241.4079529708622 0.0 0.0
108.01071023851479 108.01071023851479 0.0 0.0
400.35244917095366 400.35244917095366 0.0 0.0
871.2771987371382 871.2771987371382 0.0 0.0
1491.7410585364294 1491.7410585364294 0.0 0.0
2288.0850838070523 2288.0850838070523 0.0 0.0
3242.1316454270504 3242.1316454270504 0.0 0.0
4328.375162186565 4328.375162186565 0.0 0.0
5528.599121055407 5528.599121055407 0.0 0.0
6732.706992918459 6732.706992918459 0.0 0.0
7369.763477951356 7369.763477951356 0.0 0.0
6737.5671185186175 6737.5671185186175 0.0 0.0
5537.884900018525 5537.884900018525 0.0 0.0
4341.959927780012 4341.959927780012 0.0 0.0
3260.387701149023 3260.387701149023 0.0 0.0
2311.8762257705566 2311.8762257705566 0.0 0.0
1521.9419567120683 1521.9419567120683 0.0 0.0
909.8405673014481 909.8405673014481 0.0 0.0
438.27333191611785 438.27333191611785 0.0 0.0
124.16904340729833 124.16904340729833 0.0 0.0
1249.0958150333806 1249.0958150333806 0.0 0.0
745.8751737924164 745.8751737924164 0.0 0.0
87.71359646194655 87.71359646194655 0.0 0.0
171.29374114026731 171.29374114026731 0.0 0.0
288.9244963027473 288.9244963027473 0.0 0.0
463.89702842624195 463.89702842624195 0.0 0.0
672.2189827987116 672.2189827987116 0.0 0.0
917.5020635551858 917.5020635551858 0.0 0.0
1182.311662760828 1182.311662760828 0.0 0.0
1494.9793329080462 1494.9793329080462 0.0 0.0
1971.3227510182119 1971.3227510182119 0.0 0.0
2398.6526865065575 2398.6526865065575 0.0 0.0
1973.6170460142641 1973.6170460142641 0.0 0.0
1499.4951744252737 1499.4951744252737 0.0 0.0
1188.8908776674639 1188.8908776674639 0.0 0.0
925.931402478421 925.931402478421 0.0 0.0
682.2751495472911 682.2751495472911 0.0 0.0
475.5502879669851 475.5502879669851 0.0 0.0
300.70819409222116 300.70819409222116 0.0 0.0
174.71205044078837 174.71205044078837 0.0 0.0
76.7885687348849 76.7885687348849 0.0 0.0
739.4789246141283 739.4789246141283 0.0 0.0
370.87612790822453 370.87612790822453 0.0 0.0
122.34298334211059 122.34298334211059 0.0 0.0
149.66597192595077 149.66597192595077 0.0 0.0
129.1275913870917 129.1275913870917 0.0 0.0
134.2088106213339 134.2088106213339 0.0 0.0
146.40975312739025 146.40975312739025 0.0 0.0
162.67979765762263 162.67979765762263 0.0 0.0
172.58374646352053 172.58374646352053 0.0 0.0
182.07361639164375 182.07361639164375 0.0 0.0
331.0014014866255 331.0014014866255 0.0 0.0
809.6975000502229 809.6975000502229 0.0 0.0
330.51684203285726 330.51684203285726 0.0 0.0
181.81396828491356 181.81396828491356 0.0 0.0
172.48853123858 172.48853123858 0.0 0.0
162.28396866108088 162.28396866108088 0.0 0.0
145.14895963570504 145.14895963570504 0.0 0.0
131.3513128238522 131.3513128238522 0.0 0.0
123.1650588987724 123.1650588987724 0.0 0.0
139.42397519023714 139.42397519023714 0.0 0.0
108.97717666677333 108.97717666677333 0.0 0.0
373.34892984185547 373.34892984185547 0.0 0.0
153.65945975250523 153.65945975250523 0.0 0.0
131.4436849624517 131.4436849624517 0.0 0.0
234.73939331818946 234.73939331818946 0.0 0.0
330.9040355818967 330.9040355818967 0.0 0.0
479.5448700252372 479.5448700252372 0.0 0.0
686.420632920736 686.420632920736 0.0 0.0
938.4465186109178 938.4465186109178 0.0 0.0
1250.0852024387777 1250.0852024387777 0.0 0.0
1545.0870098343116 1545.0870098343116 0.0 0.0
1630.5993157745293 1630.5993157745293 0.0 0.0
2470.406318102814 2470.406318102814 0.0 0.0
1627.1975662252087 1627.1975662252087 0.0 0.0
1540.3577281466642 1540.3577281466642 0.0 0.0
1243.9790108720154 1243.9790108720154 0.0 0.0
930.7691955276126 930.7691955276126 0.0 0.0
677.1117969281403 677.1117969281403 0.0 0.0
468.57803049077086 468.57803049077086 0.0 0.0
319.0431428353138 319.0431428353138 0.0 0.0
224.63691895858526 224.63691895858526 0.0 0.0
123.62711516333295 123.62711516333295 0.0 0.0
156.9469848452732 156.9469848452732 0.0 0.0
67.68405497458446 67.68405497458446 0.0 0.0
143.1391854473682 143.1391854473682 0.0 0.0
430.50122657246436 430.50122657246436 0.0 0.0
896.5735233278206 896.5735233278206 0.0 0.0
1525.7637132247207 1525.7637132247207 0.0 0.0
2324.364213794657 2324.364213794657 0.0 0.0
3282.82136018318 3282.82136018318 0.0 0.0
4361.230891833834 4361.230891833834 0.0 0.0
5669.260369323183 5669.260369323183 0.0 0.0
6020.839184899422 6020.839184899422 0.0 0.0
7767.779778060762 7767.779778060762 0.0 0.0
6014.890584085673 6014.890584085673 0.0 0.0
5660.826150542145 5660.826150542145 0.0 0.0
4349.629951556736 4349.629951556736 0.0 0.0
3268.8841645603256 3268.8841645603256 0.0 0.0
2309.6267506284885 2309.6267506284885 0.0 0.0
1512.4025694698867 1512.4025694698867 0.0 0.0
887.4648632115441 887.4648632115441 0.0 0.0
427.0136549714267 427.0136549714267 0.0 0.0
141.2789664786281 141.2789664786281 0.0 0.0
69.06104738781389 69.06104738781389 0.0 0.0
62.847053653811564 62.847053653811564 0.0 0.0
221.96325964773771 221.96325964773771 0.0 0.0
837.2870765643635 837.2870765643635 0.0 0.0
1914.7631889569873 1914.7631889569873 0.0 0.0
3341.1335197872454 3341.1335197872454 0.0 0.0
5120.738876727337 5120.738876727337 0.0 0.0
7265.606337433932 7265.606337433932 0.0 0.0
9656.73480340931 9656.73480340931 0.0 0.0
12049.948734160598 12049.948734160598 0.0 0.0
13673.013023975845 13673.013023975845 0.0 0.0
20514.992232791657 20514.992232791657 0.0 0.0
13668.760896568307 13668.760896568307 0.0 0.0
12038.851941767882 12038.851941767882 0.0 0.0
9639.791329866026 9639.791329866026 0.0 0.0
7245.289735679638 7245.289735679638 0.0 0.0
5100.572790417575 5100.572790417575 0.0 0.0
3326.403105005673 3326.403105005673 0.0 0.0
1911.0595545460928 1911.0595545460928 0.0 0.0
843.4194498365199 843.4194498365199 0.0 0.0
227.3970840650445 227.3970840650445 0.0 0.0
65.55301447119417 65.55301447119417 0.0 0.0
1097.784642055571 1097.784642055571 0.0 0.0
713.7994231630736 713.7994231630736 0.0 0.0
909.4979257547594 909.4979257547594 0.0 0.0
1799.1683801699685 1799.1683801699685 0.0 0.0
3071.2504430139657 3071.2504430139657 0.0 0.0
4711.903729014209 4711.903729014209 0.0 0.0
6721.44312098996 6721.44312098996 0.0 0.0
9245.136546188105 9245.136546188105 0.0 0.0
12598.890838125817 12598.890838125817 0.0 0.0
16548.9281797447 16548.9281797447 0.0 0.0
18646.91871893875 18646.91871893875 0.0 0.0
16539.780734016033 16539.780734016033 0.0 0.0
12581.215380079786 12581.215380079786 0.0 0.0
9219.095949455519 9219.095949455519 0.0 0.0
6686.474329189208 6686.474329189208 0.0 0.0
4667.663337435879 4667.663337435879 0.0 0.0
3018.3403268150137 3018.3403268150137 0.0 0.0
1741.128403239121 1741.128403239121 0.0 0.0
839.5873951794987 839.5873951794987 0.0 0.0
556.4785344098907 556.4785344098907 0.0 0.0
1083.2923064069826 1083.2923064069826 0.0 0.0
928.887406352416 928.887406352416 0.0 0.0
120.24696338210836 120.24696338210836 0.0 0.0
401.11391992986427 401.11391992986427 0.0 0.0
851.2075596396071 851.2075596396071 0.0 0.0
1429.4260772015248 1429.4260772015248 0.0 0.0
2166.432502638061 2166.432502638061 0.0 0.0
3065.6815019272576 3065.6815019272576 0.0 0.0
4173.33386284472 4173.33386284472 0.0 0.0
5617.759064013969 5617.759064013969 0.0 0.0
7357.71127236883 7357.71127236883 0.0 0.0
8383.289149854596 8383.289149854596 0.0 0.0
7351.434467782744 7351.434467782744 0.0 0.0
5605.513152541321 5605.513152541321 0.0 0.0
4155.537458280969 4155.537458280969 0.0 0.0
3042.6215279612034 3042.6215279612034 0.0 0.0
2138.532125903188 2138.532125903188 0.0 0.0
1398.0014073014997 1398.0014073014997 0.0 0.0
817.2973864703856 817.2973864703856 0.0 0.0
373.329114253041 373.329114253041 0.0 0.0
112.44583754346738 112.44583754346738 0.0 0.0
898.5809046411491 898.5809046411491 0.0 0.0
515.8809208130056 515.8809208130056 0.0 0.0
83.48503255496331 83.48503255496331 0.0 0.0
173.06193279274527 173.06193279274527 0.0 0.0
305.83693311171106 305.83693311171106 0.0 0.0
473.89309477493754 473.89309477493754 0.0 0.0
667.406610469245 667.406610469245 0.0 0.0
893.8277915107012 893.8277915107012 0.0 0.0
1149.892986932652 1149.892986932652 0.0 0.0
1538.99555913844 1538.99555913844 0.0 0.0
2278.5765605799 2278.5765605799 0.0 0.0
3000.6033194127654 3000.6033194127654 0.0 0.0
2276.102120397369 2276.102120397369 0.0 0.0
1533.7791204600198 1533.7791204600198 0.0 0.0
1142.2071883437327 1142.2071883437327 0.0 0.0
884.1921131225422 884.1921131225422 0.0 0.0
656.640341013778 656.640341013778 0.0 0.0
462.9811377700108 462.9811377700108 0.0 0.0
297.5905513220534 297.5905513220534 0.0 0.0
174.82154286839864 174.82154286839864 0.0 0.0
94.23888085817447 94.23888085817447 0.0 0.0
518.2214307667058 518.2214307667058 0.0 0.0
262.39548645234436 262.39548645234436 0.0 0.0
112.16164037646631 112.16164037646631 0.0 0.0
144.07896228075205 144.07896228075205 0.0 0.0
137.7852603711632 137.7852603711632 0.0 0.0
148.37827481244 148.37827481244 0.0 0.0
160.60420535378324 160.60420535378324 0.0 0.0
175.73180885114166 175.73180885114166 0.0 0.0
182.73954697936793 182.73954697936793 0.0 0.0
213.8878845234076 213.8878845234076 0.0 0.0
484.0583625087271 484.0583625087271 0.0 0.0
1365.4173028584132 1365.4173028584132 0.0 0.0
485.5623344708968 485.5623344708968 0.0 0.0
215.9864785728005 215.9864785728005 0.0 0.0
185.35700350139874 185.35700350139874 0.0 0.0
179.0255757341198 179.0255757341198 0.0 0.0
164.94410838554057 164.94410838554057 0.0 0.0
154.42596002368228 154.42596002368228 0.0 0.0
146.9369097334184 146.9369097334184 0.0 0.0
155.85889736190765 155.85889736190765 0.0 0.0
121.24294953433422 121.24294953433422 0.0 0.0
257.6755437237769 257.6755437237769 0.0 0.0
116.10122323158278 116.10122323158278 0.0 0.0
123.02553250661929 123.02553250661929 0.0 0.0
217.93160846754975 217.93160846754975 0.0 0.0
301.12364725957707 301.12364725957707 0.0 0.0
436.24690729333105 436.24690729333105 0.0 0.0
629.9980392401835 629.9980392401835 0.0 0.0
878.5863949264406 878.5863949264406 0.0 0.0
1222.8167166350443 1222.8167166350443 0.0 0.0
1591.3906035492516 1591.3906035492516 0.0 0.0
1713.4322896642514 1713.4322896642514 0.0 0.0
3409.6074938109937 3409.6074938109937 0.0 0.0
1718.8713226629097 1718.8713226629097 0.0 0.0
1600.8161583253623 1600.8161583253623 0.0 0.0
1235.5906148015745 1235.5906148015745 0.0 0.0
893.7875468302238 893.7875468302238 0.0 0.0
646.7795868175801 646.7795868175801 0.0 0.0
453.5616722452448 453.5616722452448 0.0 0.0
317.08322460393146 317.08322460393146 0.0 0.0
228.51073185546468 228.51073185546468 0.0 0.0
126.29295975664574 126.29295975664574 0.0 0.0
110.36482370973577 110.36482370973577 0.0 0.0
59.78992488467251 59.78992488467251 0.0 0.0
133.69482617214908 133.69482617214908 0.0 0.0
388.8455170952392 388.8455170952392 0.0 0.0
795.1046869479255 795.1046869479255 0.0 0.0
1359.1747821959277 1359.1747821959277 0.0 0.0
2100.2560963412475 2100.2560963412475 0.0 0.0
3027.3901003765277 3027.3901003765277 0.0 0.0
4144.6993483367605 4144.6993483367605 0.0 0.0
5712.083607210156 5712.083607210156 0.0 0.0
6166.246286393175 6166.246286393175 0.0 0.0
9922.574093702884 9922.574093702884 0.0 0.0
6175.749556053525 6175.749556053525 0.0 0.0
5729.672917849349 5729.672917849349 0.0 0.0
4168.269692972065 4168.269692972065 0.0 0.0
3054.660611761406 3054.660611761406 0.0 0.0
2127.870999870522 2127.870999870522 0.0 0.0
1382.966734099966 1382.966734099966 0.0 0.0
810.638014882492 810.638014882492 0.0 0.0
394.65453064375896 394.65453064375896 0.0 0.0
133.83232802566332 133.83232802566332 0.0 0.0
54.99678126140684 54.99678126140684 0.0 0.0
59.90047630163069 59.90047630163069 0.0 0.0
202.6090690158391 202.6090690158391 0.0 0.0
746.9991549094805 746.9991549094805 0.0 0.0
1697.1753154818375 1697.1753154818375 0.0 0.0
2977.6477649753897 2977.6477649753897 0.0 0.0
4621.12715584634 4621.12715584634 0.0 0.0
6675.104334590494 6675.104334590494 0.0 0.0
9079.62325793088 9079.62325793088 0.0 0.0
11736.058540712966 11736.058540712966 0.0 0.0
14307.883977251964 14307.883977251964 0.0 0.0
26697.58048743747 26697.58048743747 0.0 0.0
14322.513939603476 14322.513939603476 0.0 0.0
11764.167046834973 11764.167046834973 0.0 0.0
9117.166120759337 9117.166120759337 0.0 0.0
6717.490422662631 6717.490422662631 0.0 0.0
4661.867162601506 4661.867162601506 0.0 0.0
3008.227090157846 3008.227090157846 0.0 0.0
1710.4183220773473 1710.4183220773473 0.0 0.0
746.850559514673 746.850559514673 0.0 0.0
200.62966579898955 200.62966579898955 0.0 0.0
56.23051602295078 56.23051602295078 0.0 0.0
1067.6797223820165 1067.6797223820165 0.0 0.0
734.3920966602792 734.3920966602792 0.0 0.0
895.229555090259 895.229555090259 0.0 0.0
1751.912082349153 1751.912082349153 0.0 0.0
2994.9515766987342 2994.9515766987342 0.0 0.0
4610.218098829966 4610.218098829966 0.0 0.0
6623.08909429683 6623.08909429683 0.0 0.0
9238.497904420408 9238.497904420408 0.0 0.0
12848.51325281824 12848.51325281824 0.0 0.0
17199.652059270327 17199.652059270327 0.0 0.0
19526.391044762244 19526.391044762244 0.0 0.0
17183.21223570052 17183.21223570052 0.0 0.0
12817.361563127439 12817.361563127439 0.0 0.0
9193.312157381908 9193.312157381908 0.0 0.0
6562.51343596065 6562.51343596065 0.0 0.0
4532.318060863184 4532.318060863184 0.0 0.0
2899.261219124825 2899.261219124825 0.0 0.0
1642.8457341015478 1642.8457341015478 0.0 0.0
772.1937682417487 772.1937682417487 0.0 0.0
497.515957963525 497.515957963525 0.0 0.0
996.4026178305797 996.4026178305797 0.0 0.0
881.5608856173094 881.5608856173094 0.0 0.0
120.50677966230344 120.50677966230344 0.0 0.0
398.83047556654077 398.83047556654077 0.0 0.0
836.588760198502 836.588760198502 0.0 0.0
1402.6224499251741 1402.6224499251741 0.0 0.0
2130.302278982773 2130.302278982773 0.0 0.0
3033.8922163888483 3033.8922163888483 0.0 0.0
4184.336278737818 4184.336278737818 0.0 0.0
5738.290022514964 5738.290022514964 0.0 0.0
7641.216953196094 7641.216953196094 0.0 0.0
8760.817313267691 8760.817313267691 0.0 0.0
7630.215319396384 7630.215319396384 0.0 0.0
5717.150902207437 5717.150902207437 0.0 0.0
4153.88337606969 4153.88337606969 0.0 0.0
2994.2462758849842 2994.2462758849842 0.0 0.0
2081.357905498749 2081.357905498749 0.0 0.0
1345.3765942743835 1345.3765942743835 0.0 0.0
773.2966679895185 773.2966679895185 0.0 0.0
346.0934260987967 346.0934260987967 0.0 0.0
98.53047444046415 98.53047444046415 0.0 0.0
833.9098384113497 833.9098384113497 0.0 0.0
491.9749615398802 491.9749615398802 0.0 0.0
73.43823200868646 73.43823200868646 0.0 0.0
169.4030145421675 169.4030145421675 0.0 0.0
304.47753866417514 304.47753866417514 0.0 0.0
471.9329306408324 471.9329306408324 0.0 0.0
665.1142538900755 665.1142538900755 0.0 0.0
895.5136117138228 895.5136117138228 0.0 0.0
1168.0221443413843 1168.0221443413843 0.0 0.0
1596.7160084605448 1596.7160084605448 0.0 0.0
2395.4184042459397 2395.4184042459397 0.0 0.0
3154.7416465114084 3154.7416465114084 0.0 0.0
2390.9864678372915 2390.9864678372915 0.0 0.0
1587.7172003452895 1587.7172003452895 0.0 0.0
1154.9350079680157 1154.9350079680157 0.0 0.0
879.0563945889287 879.0563945889287 0.0 0.0
646.3256547857153 646.3256547857153 0.0 0.0
452.0743715968822 452.0743715968822 0.0 0.0
288.21958207497016 288.21958207497016 0.0 0.0
168.204238784642 168.204238784642 0.0 0.0
86.91236132304088 86.91236132304088 0.0 0.0
473.8088170313815 473.8088170313815 0.0 0.0
244.0351016457051 244.0351016457051 0.0 0.0
100.42483207693589 100.42483207693589 0.0 0.0
135.8790345269771 135.8790345269771 0.0 0.0
135.17761999885724 135.17761999885724 0.0 0.0
149.60871553854912 149.60871553854912 0.0 0.0
164.6720838066019 164.6720838066019 0.0 0.0
183.94498413515416 183.94498413515416 0.0 0.0
199.499812593364 199.499812593364 0.0 0.0
247.91977565158567 247.91977565158567 0.0 0.0
537.8611392378446 537.8611392378446 0.0 0.0
1450.314951004595 1450.314951004595 0.0 0.0
540.1445587114972 540.1445587114972 0.0 0.0
251.21538707366497 251.21538707366497 0.0 0.0
203.59068485759892 203.59068485759892 0.0 0.0
189.2211548601485 189.2211548601485 0.0 0.0
171.9318511165985 171.9318511165985 0.0 0.0
159.95820130901092 159.95820130901092 0.0 0.0
150.46383496132106 150.46383496132106 0.0 0.0
154.59665648665185 154.59665648665185 0.0 0.0
114.80170055644416 114.80170055644416 0.0 0.0
225.8477659244505 225.8477659244505 0.0 0.0
103.18006724568595 103.18006724568595 0.0 0.0
111.89559759679035 111.89559759679035 0.0 0.0
202.69697954372197 202.69697954372197 0.0 0.0
284.986826827044 284.986826827044 0.0 0.0
418.81832020509404 418.81832020509404 0.0 0.0
611.4552833275737 611.4552833275737 0.0 0.0
863.8634649715301 863.8634649715301 0.0 0.0
1225.2403267161271 1225.2403267161271 0.0 0.0
1630.3026429792665 1630.3026429792665 0.0 0.0
1774.9309607708872 1774.9309607708872 0.0 0.0
3559.5884459908357 3559.5884459908357 0.0 0.0
1783.7513938206869 1783.7513938206869 0.0 0.0
1645.4816118189094 1645.4816118189094 0.0 0.0
1245.5592752029715 1245.5592752029715 0.0 0.0
888.3003087785114 888.3003087785114 0.0 0.0
639.1305256061872 639.1305256061872 0.0 0.0
448.2565734191949 448.2565734191949 0.0 0.0
312.6989260399242 312.6989260399242 0.0 0.0
221.25382180192253 221.25382180192253 0.0 0.0
118.35258587508247 118.35258587508247 0.0 0.0
89.79344499457845 89.79344499457845 0.0 0.0
52.17595223736028 52.17595223736028 0.0 0.0
120.15727880716379 120.15727880716379 0.0 0.0
361.784821643604 361.784821643604 0.0 0.0
754.1250825267036 754.1250825267036 0.0 0.0
1302.9207618726714 1302.9207618726714 0.0 0.0
2031.6672361898218 2031.6672361898218 0.0 0.0
2961.973567320272 2961.973567320272 0.0 0.0
4119.479973492863 4119.479973492863 0.0 0.0
5804.336163930353 5804.336163930353 0.0 0.0
6320.9324903726565 6320.9324903726565 0.0 0.0
10306.574392071821 10306.574392071821 0.0 0.0
6336.1040383816535 6336.1040383816535 0.0 0.0
5831.825635693258 5831.825635693258 0.0 0.0
4156.102456441021 4156.102456441021 0.0 0.0
3004.782206972437 3004.782206972437 0.0 0.0
2075.873945349438 2075.873945349438 0.0 0.0
1342.148590293634 1342.148590293634 0.0 0.0
780.7838474421931 780.7838474421931 0.0 0.0
372.2704293060485 372.2704293060485 0.0 0.0
120.97251429699212 120.97251429699212 0.0 0.0
43.30872084113322 43.30872084113322 0.0 0.0
49.19015514080555 49.19015514080555 0.0 0.0
178.63719917488527 178.63719917488527 0.0 0.0
696.6170720918672 696.6170720918672 0.0 0.0
1614.600042050925 1614.600042050925 0.0 0.0
2858.654349032024 2858.654349032024 0.0 0.0
4471.294603229356 4471.294603229356 0.0 0.0
6526.0163130566625 6526.0163130566625 0.0 0.0
9017.012127783166 9017.012127783166 0.0 0.0
11911.963620799059 11911.963620799059 0.0 0.0
14713.36018769904 14713.36018769904 0.0 0.0
27832.32428355195 27832.32428355195 0.0 0.0
14734.883853323503 14734.883853323503 0.0 0.0
11953.973753394226 11953.973753394226 0.0 0.0
9073.687765421293 9073.687765421293 0.0 0.0
6590.93388143292 6590.93388143292 0.0 0.0
4534.834711880912 4534.834711880912 0.0 0.0
2907.430603604445 2907.430603604445 0.0 0.0
1636.3417703306225 1636.3417703306225 0.0 0.0
695.7753534971727 695.7753534971727 0.0 0.0
173.77651559355778 173.77651559355778 0.0 0.0
41.61533864075366 41.61533864075366 0.0 0.0
1097.7846420498618 1097.7846420498618 0.0 0.0
713.7994231548237 713.7994231548237 0.0 0.0
909.4979257482315 909.4979257482315 0.0 0.0
1799.1683801648396 1799.1683801648396 0.0 0.0
3071.2504430135864 3071.2504430135864 0.0 0.0
4711.9037290117685 4711.9037290117685 0.0 0.0
6721.443120984158 6721.443120984158 0.0 0.0
9245.13654617985 9245.13654617985 0.0 0.0
12598.890838109046 12598.890838109046 0.0 0.0
16548.928179732447 16548.928179732447 0.0 0.0
18646.91871891201 18646.91871891201 0.0 0.0
16539.780733981966 16539.780733981966 0.0 0.0
12581.215380064432 12581.215380064432 0.0 0.0
9219.095949455545 9219.095949455545 0.0 0.0
6686.474329200406 6686.474329200406 0.0 0.0
4667.663337463818 4667.663337463818 0.0 0.0
3018.340326830228 3018.340326830228 0.0 0.0
1741.1284032467427 1741.1284032467427 0.0 0.0
839.5873951852177 839.5873951852177 0.0 0.0
556.4785344143758 556.4785344143758 0.0 0.0
1083.292306414996 1083.292306414996 0.0 0.0
928.8874063500988 928.8874063500988 0.0 0.0
120.2469633812026 120.2469633812026 0.0 0.0
401.11391992675635 401.11391992675635 0.0 0.0
851.2075596374799 851.2075596374799 0.0 0.0
1429.4260771989461 1429.4260771989461 0.0 0.0
2166.4325026360757 2166.4325026360757 0.0 0.0
3065.6815019239434 3065.6815019239434 0.0 0.0
4173.333862840528 4173.333862840528 0.0 0.0
5617.759064006886 5617.759064006886 0.0 0.0
7357.7112723542 7357.7112723542 0.0 0.0
8383.289149842665 8383.289149842665 0.0 0.0
7351.434467769524 7351.434467769524 0.0 0.0
5605.513152525079 5605.513152525079 0.0 0.0
4155.537458280156 4155.537458280156 0.0 0.0
3042.6215279627972 3042.6215279627972 0.0 0.0
2138.532125917557 2138.532125917557 0.0 0.0
1398.0014073067448 1398.0014073067448 0.0 0.0
817.2973864752976 817.2973864752976 0.0 0.0
373.3291142556791 373.3291142556791 0.0 0.0
112.4458375442716 112.4458375442716 0.0 0.0
898.5809046486404 898.5809046486404 0.0 0.0
515.8809208122185 515.8809208122185 0.0 0.0
83.48503255491434 83.48503255491434 0.0 0.0
173.06193279208472 173.06193279208472 0.0 0.0
305.83693311079946 305.83693311079946 0.0 0.0
473.8930947749394 473.8930947749394 0.0 0.0
667.406610468893 667.406610468893 0.0 0.0
893.8277915073041 893.8277915073041 0.0 0.0
1149.8929869295434 1149.8929869295434 0.0 0.0
1538.995559135532 1538.995559135532 0.0 0.0
2278.576560577595 2278.576560577595 0.0 0.0
3000.603319408217 3000.603319408217 0.0 0.0
2276.1021203967443 2276.1021203967443 0.0 0.0
1533.779120447489 1533.779120447489 0.0 0.0
1142.207188345313 1142.207188345313 0.0 0.0
884.1921131167163 884.1921131167163 0.0 0.0
656.6403410177096 656.6403410177096 0.0 0.0
462.9811377730673 462.9811377730673 0.0 0.0
297.59055132335 297.59055132335 0.0 0.0
174.82154287046455 174.82154287046455 0.0 0.0
94.23888085904053 94.23888085904053 0.0 0.0
518.2214307714992 518.2214307714992 0.0 0.0
262.39548645162995 262.39548645162995 0.0 0.0
112.16164037641263 112.16164037641263 0.0 0.0
144.0789622807732 144.0789622807732 0.0 0.0
137.78526037154143 137.78526037154143 0.0 0.0
148.3782748138838 148.3782748138838 0.0 0.0
160.60420535261932 160.60420535261932 0.0 0.0
175.73180884991788 175.73180884991788 0.0 0.0
182.73954698077713 182.73954698077713 0.0 0.0
213.88788451744952 213.88788451744952 0.0 0.0
484.0583625095512 484.0583625095512 0.0 0.0
1365.4173028654625 1365.4173028654625 0.0 0.0
485.56233446969446 485.56233446969446 0.0 0.0
215.98647856293957 215.98647856293957 0.0 0.0
185.35700350295303 185.35700350295303 0.0 0.0
179.02557572620825 179.02557572620825 0.0 0.0
164.94410838968642 164.94410838968642 0.0 0.0
154.42596002321625 154.42596002321625 0.0 0.0
146.9369097355616 146.9369097355616 0.0 0.0
155.85889736300106 155.85889736300106 0.0 0.0
121.24294953535673 121.24294953535673 0.0 0.0
257.6755437268269 257.6755437268269 0.0 0.0
116.10122323110485 116.10122323110485 0.0 0.0
123.02553250654486 123.02553250654486 0.0 0.0
217.93160846755507 217.93160846755507 0.0 0.0
301.12364726063714 301.12364726063714 0.0 0.0
436.2469072934741 436.2469072934741 0.0 0.0
629.9980392422319 629.9980392422319 0.0 0.0
878.5863949263171 878.5863949263171 0.0 0.0
1222.8167166373453 1222.8167166373453 0.0 0.0
1591.3906035492894 1591.3906035492894 0.0 0.0
1713.432289665668 1713.432289665668 0.0 0.0
3409.6074938121556 3409.6074938121556 0.0 0.0
1718.8713226604584 1718.8713226604584 0.0 0.0
1600.8161583237652 1600.8161583237652 0.0 0.0
1235.5906148043919 1235.5906148043919 0.0 0.0
893.787546826887 893.787546826887 0.0 0.0
646.7795868254323 646.7795868254323 0.0 0.0
453.5616722469781 453.5616722469781 0.0 0.0
317.08322460657615 317.08322460657615 0.0 0.0
228.5107318573168 228.5107318573168 0.0 0.0
126.29295975755761 126.29295975755761 0.0 0.0
110.3648237114376 110.3648237114376 0.0 0.0
59.78992488446943 59.78992488446943 0.0 0.0
133.69482617198383 133.69482617198383 0.0 0.0
388.84551709501545 388.84551709501545 0.0 0.0
795.1046869480165 795.1046869480165 0.0 0.0
1359.1747821987667 1359.1747821987667 0.0 0.0
2100.2560963461315 2100.2560963461315 0.0 0.0
3027.390100376359 3027.390100376359 0.0 0.0
4144.699348346151 4144.699348346151 0.0 0.0
5712.083607205301 5712.083607205301 0.0 0.0
6166.246286399673 6166.246286399673 0.0 0.0
9922.574093690728 9922.574093690728 0.0 0.0
6175.749556055031 6175.749556055031 0.0 0.0
5729.672917840761 5729.672917840761 0.0 0.0
4168.269692979522 4168.269692979522 0.0 0.0
3054.6606117639863 3054.6606117639863 0.0 0.0
2127.870999883894 2127.870999883894 0.0 0.0
1382.966734107544 1382.966734107544 0.0 0.0
810.6380148872734 810.6380148872734 0.0 0.0
394.65453064659897 394.65453064659897 0.0 0.0
133.83232802665069 133.83232802665069 0.0 0.0
54.996781262126675 54.996781262126675 0.0 0.0
59.90047630151359 59.90047630151359 0.0 0.0
202.60906901564408 202.60906901564408 0.0 0.0
746.9991549080323 746.9991549080323 0.0 0.0
1697.1753154814317 1697.1753154814317 0.0 0.0
2977.6477649800604 2977.6477649800604 0.0 0.0
4621.1271558538165 4621.1271558538165 0.0 0.0
6675.104334598218 6675.104334598218 0.0 0.0
9079.623257937696 9079.623257937696 0.0 0.0
11736.058540703687 11736.058540703687 0.0 0.0
14307.883977252566 14307.883977252566 0.0 0.0
26697.58048740893 26697.58048740893 0.0 0.0
14322.513939598028 14322.513939598028 0.0 0.0
11764.167046815162 11764.167046815162 0.0 0.0
9117.166120762437 9117.166120762437 0.0 0.0
6717.4904226794515 6717.4904226794515 0.0 0.0
4661.86716262727 4661.86716262727 0.0 0.0
3008.2270901786487 3008.2270901786487 0.0 0.0
1710.4183220885777 1710.4183220885777 0.0 0.0
746.850559519178 746.850559519178 0.0 0.0
200.6296658005288 200.6296658005288 0.0 0.0
56.230516023722615 56.230516023722615 0.0 0.0
1548.0541781230886 1548.0541781230886 0.0 0.0
638.727874630116 638.727874630116 0.0 0.0
948.7196584364982 948.7196584364982 0.0 0.0
1911.5175786597597 1911.5175786597597 0.0 0.0
3277.3021194539006 3277.3021194539006 0.0 0.0
5059.359797358523 5059.359797358523 0.0 0.0
7195.078087788417 7195.078087788417 0.0 0.0
9662.19446778642 9662.19446778642 0.0 0.0
12436.781484092693 12436.781484092693 0.0 0.0
15165.486074023614 15165.486074023614 0.0 0.0
16475.561055203718 16475.561055203718 0.0 0.0
15173.009705713408 15173.009705713408 0.0 0.0
12450.831266701589 12450.831266701589 0.0 0.0
9682.569305344181 9682.569305344181 0.0 0.0
7222.914733932598 7222.914733932598 0.0 0.0
5096.757064809839 5096.757064809839 0.0 0.0
3327.3514760555126 3327.3514760555126 0.0 0.0
1975.0497816290274 1975.0497816290274 0.0 0.0
1038.6195354465103 1038.6195354465103 0.0 0.0
762.9628435710421 762.9628435710421 0.0 0.0
1508.7837032601863 1508.7837032601863 0.0 0.0
1241.4079529694454 1241.4079529694454 0.0 0.0
108.0107102359664 108.0107102359664 0.0 0.0
400.35244916623566 400.35244916623566 0.0 0.0
871.2771987306241 871.2771987306241 0.0 0.0
1491.7410585278465 1491.7410585278465 0.0 0.0
2288.0850837981047 2288.0850837981047 0.0 0.0
3242.1316454175617 3242.1316454175617 0.0 0.0
4328.37516219166 4328.37516219166 0.0 0.0
5528.599121051633 5528.599121051633 0.0 0.0
6732.706992888137 6732.706992888137 0.0 0.0
7369.763477932226 7369.763477932226 0.0 0.0
6737.567118499956 6737.567118499956 0.0 0.0
5537.884900009526 5537.884900009526 0.0 0.0
4341.959927785015 4341.959927785015 0.0 0.0
3260.387701159348 3260.387701159348 0.0 0.0
2311.876225780872 2311.876225780872 0.0 0.0
1521.941956723114 1521.941956723114 0.0 0.0
909.8405673114924 909.8405673114924 0.0 0.0
438.27333192095597 438.27333192095597 0.0 0.0
124.16904340818144 124.16904340818144 0.0 0.0
1249.0958150532988 1249.0958150532988 0.0 0.0
745.8751737915964 745.8751737915964 0.0 0.0
87.7135964626833 87.7135964626833 0.0 0.0
171.29374113996315 171.29374113996315 0.0 0.0
288.9244963001676 288.9244963001676 0.0 0.0
463.89702842153565 463.89702842153565 0.0 0.0
672.2189827948816 672.2189827948816 0.0 0.0
917.5020635527522 917.5020635527522 0.0 0.0
1182.3116627645957 1182.3116627645957 0.0 0.0
1494.9793329048314 1494.9793329048314 0.0 0.0
1971.3227510005686 1971.3227510005686 0.0 0.0
2398.6526865006267 2398.6526865006267 0.0 0.0
1973.6170459990562 1973.6170459990562 0.0 0.0
1499.495174427357 1499.495174427357 0.0 0.0
1188.890877661742 1188.890877661742 0.0 0.0
925.9314024825629 925.9314024825629 0.0 0.0
682.2751495484248 682.2751495484248 0.0 0.0
475.5502879693216 475.5502879693216 0.0 0.0
300.7081940968005 300.7081940968005 0.0 0.0
174.71205044144537 174.71205044144537 0.0 0.0
76.78856873570912 76.78856873570912 0.0 0.0
739.4789246263088 739.4789246263088 0.0 0.0
370.8761279070853 370.8761279070853 0.0 0.0
122.3429833431756 122.3429833431756 0.0 0.0
149.66597192714022 149.66597192714022 0.0 0.0
129.12759138770517 129.12759138770517 0.0 0.0
134.2088106197541 134.2088106197541 0.0 0.0
146.40975312818742 146.40975312818742 0.0 0.0
162.67979765782064 162.67979765782064 0.0 0.0
172.58374646478703 172.58374646478703 0.0 0.0
182.07361639439117 182.07361639439117 0.0 0.0
331.00140147334594 331.00140147334594 0.0 0.0
809.6975000370135 809.6975000370135 0.0 0.0
330.51684202843626 330.51684202843626 0.0 0.0
181.81396828473066 181.81396828473066 0.0 0.0
172.488531235323 172.488531235323 0.0 0.0
162.28396866077907 162.28396866077907 0.0 0.0
145.14895963492276 145.14895963492276 0.0 0.0
131.3513128255034 131.3513128255034 0.0 0.0
123.16505890092829 123.16505890092829 0.0 0.0
139.42397519094985 139.42397519094985 0.0 0.0
108.97717666792818 108.97717666792818 0.0 0.0
373.3489298484244 373.3489298484244 0.0 0.0
153.65945975192017 153.65945975192017 0.0 0.0
131.44368496324466 131.44368496324466 0.0 0.0
234.73939331878697 234.73939331878697 0.0 0.0
330.90403558387237 330.90403558387237 0.0 0.0
479.5448700265499 479.5448700265499 0.0 0.0
686.4206329211029 686.4206329211029 0.0 0.0
938.4465186124514 938.4465186124514 0.0 0.0
1250.085202454765 1250.085202454765 0.0 0.0
1545.0870098398746 1545.0870098398746 0.0 0.0
1630.5993157711819 1630.5993157711819 0.0 0.0
2470.4063180845433 2470.4063180845433 0.0 0.0
1627.1975662203247 1627.1975662203247 0.0 0.0
1540.357728150292 1540.357728150292 0.0 0.0
1243.979010869683 1243.979010869683 0.0 0.0
930.7691955315956 930.7691955315956 0.0 0.0
677.1117969298235 677.1117969298235 0.0 0.0
468.57803049481936 468.57803049481936 0.0 0.0
319.0431428398855 319.0431428398855 0.0 0.0
224.6369189604761 224.6369189604761 0.0 0.0
123.62711516482352 123.62711516482352 0.0 0.0
156.94698484848377 156.94698484848377 0.0 0.0
67.68405497416232 67.68405497416232 0.0 0.0
143.1391854472509 143.1391854472509 0.0 0.0
430.5012265728322 430.5012265728322 0.0 0.0
896.573523328901 896.573523328901 0.0 0.0
1525.763713226784 1525.763713226784 0.0 0.0
2324.364213793037 2324.364213793037 0.0 0.0
3282.8213601942566 3282.8213601942566 0.0 0.0
4361.230891850139 4361.230891850139 0.0 0.0
5669.2603693367655 5669.2603693367655 0.0 0.0
6020.83918490083 6020.83918490083 0.0 0.0
7767.779778013141 7767.779778013141 0.0 0.0
6014.890584084949 6014.890584084949 0.0 0.0
5660.826150547346 5660.826150547346 0.0 0.0
4349.6299515612545 4349.6299515612545 0.0 0.0
3268.884164575136 3268.884164575136 0.0 0.0
2309.6267506425247 2309.6267506425247 0.0 0.0
1512.402569484909 1512.402569484909 0.0 0.0
887.4648632211131 887.4648632211131 0.0 0.0
427.0136549763622 427.0136549763622 0.0 0.0
141.27896648013206 141.27896648013206 0.0 0.0
69.06104738913096 69.06104738913096 0.0 0.0
62.847053653433726 62.847053653433726 0.0 0.0
221.96325964656455 221.96325964656455 0.0 0.0
837.287076562484 837.287076562484 0.0 0.0
1914.763188957975 1914.763188957975 0.0 0.0
3341.1335197890935 3341.1335197890935 0.0 0.0
5120.73887672357 5120.73887672357 0.0 0.0
7265.606337450479 7265.606337450479 0.0 0.0
9656.734803446187 9656.734803446187 0.0 0.0
12049.948734190357 12049.948734190357 0.0 0.0
13673.013023975196 13673.013023975196 0.0 0.0
20514.992232633114 20514.992232633114 0.0 0.0
13668.760896564709 13668.760896564709 0.0 0.0
12038.851941786816 12038.851941786816 0.0 0.0
9639.791329874888 9639.791329874888 0.0 0.0
7245.28973570751 7245.28973570751 0.0 0.0
5100.572790453298 5100.572790453298 0.0 0.0
3326.4031050376525 3326.4031050376525 0.0 0.0
1911.0595545663612 1911.0595545663612 0.0 0.0
843.419449845547 843.419449845547 0.0 0.0
227.39708406817408 227.39708406817408 0.0 0.0
65.5530144725292 65.5530144725292 0.0 0.0
4159.172898060076 4159.172898060076 0.0 0.0
752.6095213066243 752.6095213066243 0.0 0.0
896.6610246114249 896.6610246114249 0.0 0.0
1877.167828577874 1877.167828577874 0.0 0.0
3311.4024169519685 3311.4024169519685 0.0 0.0
5218.788150633454 5218.788150633454 0.0 0.0
7514.806648024845 7514.806648024845 0.0 0.0
10083.440577740723 10083.440577740723 0.0 0.0
12553.748505594604 12553.748505594604 0.0 0.0
14260.889148488346 14260.889148488346 0.0 0.0
14810.095160182997 14810.095160182997 0.0 0.0
14282.46290158883 14282.46290158883 0.0 0.0
12596.882699747104 12596.882699747104 0.0 0.0
10149.231949689045 10149.231949689045 0.0 0.0
7605.171801245324 7605.171801245324 0.0 0.0
5334.459174563861 5334.459174563861 0.0 0.0
3449.151279694552 3449.151279694552 0.0 0.0
2028.1158898766666 2028.1158898766666 0.0 0.0
1066.2181733157236 1066.2181733157236 0.0 0.0
1188.1013188819188 1188.1013188819188 0.0 0.0
3984.6984477437627 3984.6984477437627 0.0 0.0
3087.656912787767 3087.656912787767 0.0 0.0
93.4270720307466 93.4270720307466 0.0 0.0
416.83440914834165 416.83440914834165 0.0 0.0
891.0023281847077 891.0023281847077 0.0 0.0
1529.4259546467308 1529.4259546467308 0.0 0.0
2358.8042664880772 2358.8042664880772 0.0 0.0
3362.0543751645864 3362.0543751645864 0.0 0.0
4493.574441249927 4493.574441249927 0.0 0.0
5604.421864620979 5604.421864620979 0.0 0.0
6393.097716768367 6393.097716768367 0.0 0.0
6649.654818095011 6649.654818095011 0.0 0.0
6407.088872918022 6407.088872918022 0.0 0.0
5632.2964872441125 5632.2964872441125 0.0 0.0
4535.637651849925 4535.637651849925 0.0 0.0
3418.56530742397 3418.56530742397 0.0 0.0
2429.060481650498 2429.060481650498 0.0 0.0
1609.7832593265487 1609.7832593265487 0.0 0.0
975.2836154923384 975.2836154923384 0.0 0.0
476.65820430736113 476.65820430736113 0.0 0.0
107.8939277613031 107.8939277613031 0.0 0.0
3243.0673627431347 3243.0673627431347 0.0 0.0
1717.6809133283198 1717.6809133283198 0.0 0.0
255.09082396638496 255.09082396638496 0.0 0.0
358.21380047823516 358.21380047823516 0.0 0.0
466.28443349515135 466.28443349515135 0.0 0.0
645.0717396432535 645.0717396432535 0.0 0.0
851.8408881506559 851.8408881506559 0.0 0.0
1105.518854640573 1105.518854640573 0.0 0.0
1419.227165250762 1419.227165250762 0.0 0.0
1760.434870481604 1760.434870481604 0.0 0.0
1987.5511830930732 1987.5511830930732 0.0 0.0
2051.834422687023 2051.834422687023 0.0 0.0
1993.2959642904495 1993.2959642904495 0.0 0.0
1771.3621595243421 1771.3621595243421 0.0 0.0
1435.025496929952 1435.025496929952 0.0 0.0
1125.6118534501475 1125.6118534501475 0.0 0.0
874.7861201258144 874.7861201258144 0.0 0.0
668.1004857853936 668.1004857853936 0.0 0.0
479.8212893175366 479.8212893175366 0.0 0.0
348.5181330585968 348.5181330585968 0.0 0.0
215.86937264369834 215.86937264369834 0.0 0.0
1792.2613340329294 1792.2613340329294 0.0 0.0
792.3177664446152 792.3177664446152 0.0 0.0
370.0948317320994 370.0948317320994 0.0 0.0
461.3733785679191 461.3733785679191 0.0 0.0
422.4061097810347 422.4061097810347 0.0 0.0
416.934961550563 416.934961550563 0.0 0.0
410.73304869323744 410.73304869323744 0.0 0.0
403.4625043708752 403.4625043708752 0.0 0.0
417.16307599561077 417.16307599561077 0.0 0.0
482.18066436268816 482.18066436268816 0.0 0.0
553.9853504379773 553.9853504379773 0.0 0.0
601.0063319176475 601.0063319176475 0.0 0.0
551.9538483186966 551.9538483186966 0.0 0.0
477.3168693795567 477.3168693795567 0.0 0.0
409.0889772602338 409.0889772602338 0.0 0.0
391.56468792340934 391.56468792340934 0.0 0.0
394.16048147020945 394.16048147020945 0.0 0.0
393.92882546580483 393.92882546580483 0.0 0.0
389.877549398567 389.877549398567 0.0 0.0
424.1693993426319 424.1693993426319 0.0 0.0
339.4149486582853 339.4149486582853 0.0 0.0
833.9666945161306 833.9666945161306 0.0 0.0
300.7617125814553 300.7617125814553 0.0 0.0
340.3431323977924 340.3431323977924 0.0 0.0
545.1884108675335 545.1884108675335 0.0 0.0
642.0795441823636 642.0795441823636 0.0 0.0
774.1997718712902 774.1997718712902 0.0 0.0
957.2822295338178 957.2822295338178 0.0 0.0
1173.999497900093 1173.999497900093 0.0 0.0
1385.0553386588886 1385.0553386588886 0.0 0.0
1622.2179722343612 1622.2179722343612 0.0 0.0
1994.2428013051035 1994.2428013051035 0.0 0.0
2232.3644682543772 2232.3644682543772 0.0 0.0
1985.127011282546 1985.127011282546 0.0 0.0
1603.4995554105574 1603.4995554105574 0.0 0.0
1356.752447241097 1356.752447241097 0.0 0.0
1136.5503733878882 1136.5503733878882 0.0 0.0
911.8939638004982 911.8939638004982 0.0 0.0
723.2179493096386 723.2179493096386 0.0 0.0
591.7872982699841 591.7872982699841 0.0 0.0
509.8492203779141 509.8492203779141 0.0 0.0
325.1651000298955 325.1651000298955 0.0 0.0
316.4290128581325 316.4290128581325 0.0 0.0
104.94280887401801 104.94280887401801 0.0 0.0
259.72678168717795 259.72678168717795 0.0 0.0
645.3315144855007 645.3315144855007 0.0 0.0
1154.9404727497238 1154.9404727497238 0.0 0.0
1789.4982260129561 1789.4982260129561 0.0 0.0
2576.2373671378905 2576.2373671378905 0.0 0.0
3497.20528577625 3497.20528577625 0.0 0.0
4501.394547764347 4501.394547764347 0.0 0.0
5275.858097150154 5275.858097150154 0.0 0.0
6434.641950284491 6434.641950284491 0.0 0.0
6999.69029069095 6999.69029069095 0.0 0.0
6418.481359554823 6418.481359554823 0.0 0.0
5244.195750838676 5244.195750838676 0.0 0.0
4454.034318956218 4454.034318956218 0.0 0.0
3437.61991126822 3437.61991126822 0.0 0.0
2509.6411951513273 2509.6411951513273 0.0 0.0
1725.3224591399273 1725.3224591399273 0.0 0.0
1106.885773813482 1106.885773813482 0.0 0.0
623.1474458547784 623.1474458547784 0.0 0.0
253.93926116989044 253.93926116989044 0.0 0.0
108.82683681644642 108.82683681644642 0.0 0.0
64.48223070508809 64.48223070508809 0.0 0.0
280.3516807326329 280.3516807326329 0.0 0.0
1017.8517366433766 1017.8517366433766 0.0 0.0
2224.0697645298405 2224.0697645298405 0.0 0.0
3725.9134882582252 3725.9134882582252 0.0 0.0
5555.8035219421745 5555.8035219421745 0.0 0.0
7708.634195431157 7708.634195431157 0.0 0.0
10117.104580918682 10117.104580918682 0.0 0.0
12576.889221275273 12576.889221275273 0.0 0.0
14930.417128525083 14930.417128525083 0.0 0.0
12837.543344285496 12837.543344285496 0.0 0.0
14909.575513327178 14909.575513327178 0.0 0.0
12527.518781341465 12527.518781341465 0.0 0.0
10044.695981896868 10044.695981896868 0.0 0.0
7620.170130492423 7620.170130492423 0.0 0.0
5462.904359288645 5462.904359288645 0.0 0.0
3648.163885049579 3648.163885049579 0.0 0.0
2183.2956881210043 2183.2956881210043 0.0 0.0
1014.0761459510738 1014.0761459510738 0.0 0.0
285.454078016369 285.454078016369 0.0 0.0
68.29339782615727 68.29339782615727 0.0 0.0