# vtk DataFile Version 3.0
Some data
ASCII
DATASET UNSTRUCTURED_GRID
POINTS 1029 float
0.0 0.0 0.0
0.8 0.0 0.0
1.6 0.0 0.0
2.4000000000000004 0.0 0.0
3.2 0.0 0.0
4.0 0.0 0.0
4.800000000000001 0.0 0.0
5.6000000000000005 0.0 0.0
6.4 0.0 0.0
7.2 0.0 0.0
8.0 0.0 0.0
8.8 0.0 0.0
9.600000000000001 0.0 0.0
10.4 0.0 0.0
11.200000000000001 0.0 0.0
12.0 0.0 0.0
12.8 0.0 0.0
13.600000000000001 0.0 0.0
14.4 0.0 0.0
15.200000000000001 0.0 0.0
16.0 0.0 0.0
0.0 0.3333333333333333 0.0
0.8 0.3333333333333333 0.0
1.6 0.3333333333333333 0.0
2.4000000000000004 0.3333333333333333 0.0
3.2 0.3333333333333333 0.0
4.0 0.3333333333333333 0.0
4.800000000000001 0.3333333333333333 0.0
5.6000000000000005 0.3333333333333333 0.0
6.4 0.3333333333333333 0.0
7.2 0.3333333333333333 0.0
8.0 0.3333333333333333 0.0
8.8 0.3333333333333333 0.0
9.600000000000001 0.3333333333333333 0.0
10.4 0.3333333333333333 0.0
11.200000000000001 0.3333333333333333 0.0
12.0 0.3333333333333333 0.0
12.8 0.3333333333333333 0.0
13.600000000000001 0.3333333333333333 0.0
14.4 0.3333333333333333 0.0
15.200000000000001 0.3333333333333333 0.0
16.0 0.3333333333333333 0.0
0.0 0.6666666666666666 0.0
0.8 0.6666666666666666 0.0
1.6 0.6666666666666666 0.0
2.4000000000000004 0.6666666666666666 0.0
3.2 0.6666666666666666 0.0
4.0 0.6666666666666666 0.0
4.800000000000001 0.6666666666666666 0.0
5.6000000000000005 0.6666666666666666 0.0
6.4 0.6666666666666666 0.0
7.2 0.6666666666666666 0.0
8.0 0.6666666666666666 0.0
8.8 0.6666666666666666 0.0
9.600000000000001 0.6666666666666666 0.0
10.4 0.6666666666666666 0.0
11.200000000000001 0.6666666666666666 0.0
12.0 0.6666666666666666 0.0
12.8 0.6666666666666666 0.0
13.600000000000001 0.6666666666666666 0.0
14.4 0.6666666666666666 0.0
15.200000000000001 0.6666666666666666 0.0
16.0 0.6666666666666666 0.0
0.0 1.0 0.0
0.8 1.0 0.0
1.6 1.0 0.0
2.4000000000000004 1.0 0.0
3.2 1.0 0.0
4.0 1.0 0.0
4.800000000000001 1.0 0.0
5.6000000000000005 1.0 0.0
6.4 1.0 0.0
7.2 1.0 0.0
8.0 1.0 0.0
8.8 1.0 0.0
9.600000000000001 1.0 0.0
10.4 1.0 0.0
11.200000000000001 1.0 0.0
12.0 1.0 0.0
12.8 1.0 0.0
13.600000000000001 1.0 0.0
14.4 1.0 0.0
15.200000000000001 1.0 0.0
16.0 1.0 0.0
0.0 1.3333333333333333 0.0
0.8 1.3333333333333333 0.0
1.6 1.3333333333333333 0.0
2.4000000000000004 1.3333333333333333 0.0
3.2 1.3333333333333333 0.0
4.0 1.3333333333333333 0.0
4.800000000000001 1.3333333333333333 0.0
5.6000000000000005 1.3333333333333333 0.0
6.4 1.3333333333333333 0.0
7.2 1.3333333333333333 0.0
8.0 1.3333333333333333 0.0
8.8 1.3333333333333333 0.0
9.600000000000001 1.3333333333333333 0.0
10.4 1.3333333333333333 0.0
11.200000000000001 1.3333333333333333 0.0
12.0 1.3333333333333333 0.0
12.8 1.3333333333333333 0.0
13.600000000000001 1.3333333333333333 0.0
14.4 1.3333333333333333 0.0
15.200000000000001 1.3333333333333333 0.0
16.0 1.3333333333333333 0.0
0.0 1.6666666666666665 0.0
0.8 1.6666666666666665 0.0
1.6 1.6666666666666665 0.0
2.4000000000000004 1.6666666666666665 0.0
3.2 1.6666666666666665 0.0
4.0 1.6666666666666665 0.0
4.800000000000001 1.6666666666666665 0.0
5.6000000000000005 1.6666666666666665 0.0
6.4 1.6666666666666665 0.0
7.2 1.6666666666666665 0.0
8.0 1.6666666666666665 0.0
8.8 1.6666666666666665 0.0
9.600000000000001 1.6666666666666665 0.0
10.4 1.6666666666666665 0.0
11.200000000000001 1.6666666666666665 0.0
12.0 1.6666666666666665 0.0
12.8 1.6666666666666665 0.0
13.600000000000001 1.6666666666666665 0.0
14.4 1.6666666666666665 0.0
15.200000000000001 1.6666666666666665 0.0
16.0 1.6666666666666665 0.0
0.0 2.0 0.0
0.8 2.0 0.0
1.6 2.0 0.0
2.4000000000000004 2.0 0.0
3.2 2.0 0.0
4.0 2.0 0.0
4.800000000000001 2.0 0.0
5.6000000000000005 2.0 0.0
6.4 2.0 0.0
7.2 2.0 0.0
8.0 2.0 0.0
8.8 2.0 0.0
9.600000000000001 2.0 0.0
10.4 2.0 0.0
11.200000000000001 2.0 0.0
12.0 2.0 0.0
12.8 2.0 0.0
13.600000000000001 2.0 0.0
14.4 2.0 0.0
15.200000000000001 2.0 0.0
16.0 2.0 0.0
0.0 0.0 1.6666666666666667
0.8 0.0 1.6666666666666667
1.6 0.0 1.6666666666666667
2.4000000000000004 0.0 1.6666666666666667
3.2 0.0 1.6666666666666667
4.0 0.0 1.6666666666666667
4.800000000000001 0.0 1.6666666666666667
5.6000000000000005 0.0 1.6666666666666667
6.4 0.0 1.6666666666666667
7.2 0.0 1.6666666666666667
8.0 0.0 1.6666666666666667
8.8 0.0 1.6666666666666667
9.600000000000001 0.0 1.6666666666666667
10.4 0.0 1.6666666666666667
11.200000000000001 0.0 1.6666666666666667
12.0 0.0 1.6666666666666667
12.8 0.0 1.6666666666666667
13.600000000000001 0.0 1.6666666666666667
14.4 0.0 1.6666666666666667
15.200000000000001 0.0 1.6666666666666667
16.0 0.0 1.6666666666666667
0.0 0.3333333333333333 1.6666666666666667
0.8 0.3333333333333333 1.6666666666666667
1.6 0.3333333333333333 1.6666666666666667
2.4000000000000004 0.3333333333333333 1.6666666666666667
3.2 0.3333333333333333 1.6666666666666667
4.0 0.3333333333333333 1.6666666666666667
4.800000000000001 0.3333333333333333 1.6666666666666667
5.6000000000000005 0.3333333333333333 1.6666666666666667
6.4 0.3333333333333333 1.6666666666666667
7.2 0.3333333333333333 1.6666666666666667
8.0 0.3333333333333333 1.6666666666666667
8.8 0.3333333333333333 1.6666666666666667
9.600000000000001 0.3333333333333333 1.6666666666666667
10.4 0.3333333333333333 1.6666666666666667
11.200000000000001 0.3333333333333333 1.6666666666666667
12.0 0.3333333333333333 1.6666666666666667
12.8 0.3333333333333333 1.6666666666666667
13.600000000000001 0.3333333333333333 1.6666666666666667
14.4 0.3333333333333333 1.6666666666666667
15.200000000000001 0.3333333333333333 1.6666666666666667
16.0 0.3333333333333333 1.6666666666666667
0.0 0.6666666666666666 1.6666666666666667
0.8 0.6666666666666666 1.6666666666666667
1.6 0.6666666666666666 1.6666666666666667
2.4000000000000004 0.6666666666666666 1.6666666666666667
3.2 0.6666666666666666 1.6666666666666667
4.0 0.6666666666666666 1.6666666666666667
4.800000000000001 0.6666666666666666 1.6666666666666667
5.6000000000000005 0.6666666666666666 1.6666666666666667
6.4 0.6666666666666666 1.6666666666666667
7.2 0.6666666666666666 1.6666666666666667
8.0 0.6666666666666666 1.6666666666666667
8.8 0.6666666666666666 1.6666666666666667
9.600000000000001 0.6666666666666666 1.6666666666666667
10.4 0.6666666666666666 1.6666666666666667
11.200000000000001 0.6666666666666666 1.6666666666666667
12.0 0.6666666666666666 1.6666666666666667
12.8 0.6666666666666666 1.6666666666666667
13.600000000000001 0.6666666666666666 1.6666666666666667
14.4 0.6666666666666666 1.6666666666666667
15.200000000000001 0.6666666666666666 1.6666666666666667
16.0 0.6666666666666666 1.6666666666666667
0.0 1.0 1.6666666666666667
0.8 1.0 1.6666666666666667
1.6 1.0 1.6666666666666667
2.4000000000000004 1.0 1.6666666666666667
3.2 1.0 1.6666666666666667
4.0 1.0 1.6666666666666667
4.800000000000001 1.0 1.6666666666666667
5.6000000000000005 1.0 1.6666666666666667
6.4 1.0 1.6666666666666667
7.2 1.0 1.6666666666666667
8.0 1.0 1.6666666666666667
8.8 1.0 1.6666666666666667
9.600000000000001 1.0 1.6666666666666667
10.4 1.0 1.6666666666666667
11.200000000000001 1.0 1.6666666666666667
12.0 1.0 1.6666666666666667
12.8 1.0 1.6666666666666667
13.600000000000001 1.0 1.6666666666666667
14.4 1.0 1.6666666666666667
15.200000000000001 1.0 1.6666666666666667
16.0 1.0 1.6666666666666667
0.0 1.3333333333333333 1.6666666666666667
0.8 1.3333333333333333 1.6666666666666667
1.6 1.3333333333333333 1.6666666666666667
2.4000000000000004 1.3333333333333333 1.6666666666666667
3.2 1.3333333333333333 1.6666666666666667
4.0 1.3333333333333333 1.6666666666666667
4.800000000000001 1.3333333333333333 1.6666666666666667
5.6000000000000005 1.3333333333333333 1.6666666666666667
6.4 1.3333333333333333 1.6666666666666667
7.2 1.3333333333333333 1.6666666666666667
8.0 1.3333333333333333 1.6666666666666667
8.8 1.3333333333333333 1.6666666666666667
9.600000000000001 1.3333333333333333 1.6666666666666667
10.4 1.3333333333333333 1.6666666666666667
11.200000000000001 1.3333333333333333 1.6666666666666667
12.0 1.3333333333333333 1.6666666666666667
12.8 1.3333333333333333 1.6666666666666667
13.600000000000001 1.3333333333333333 1.6666666666666667
14.4 1.3333333333333333 1.6666666666666667
15.200000000000001 1.3333333333333333 1.6666666666666667
16.0 1.3333333333333333 1.6666666666666667
0.0 1.6666666666666665 1.6666666666666667
0.8 1.6666666666666665 1.6666666666666667
1.6 1.6666666666666665 1.6666666666666667
2.4000000000000004 1.6666666666666665 1.6666666666666667
3.2 1.6666666666666665 1.6666666666666667
4.0 1.6666666666666665 1.6666666666666667
4.800000000000001 1.6666666666666665 1.6666666666666667
5.6000000000000005 1.6666666666666665 1.6666666666666667
6.4 1.6666666666666665 1.6666666666666667
7.2 1.6666666666666665 1.6666666666666667
8.0 1.6666666666666665 1.6666666666666667
8.8 1.6666666666666665 1.6666666666666667
9.600000000000001 1.6666666666666665 1.6666666666666667
10.4 1.6666666666666665 1.6666666666666667
11.200000000000001 1.6666666666666665 1.6666666666666667
12.0 1.6666666666666665 1.6666666666666667
12.8 1.6666666666666665 1.6666666666666667
13.600000000000001 1.6666666666666665 1.6666666666666667
14.4 1.6666666666666665 1.6666666666666667
15.200000000000001 1.6666666666666665 1.6666666666666667
16.0 1.6666666666666665 1.6666666666666667
0.0 2.0 1.6666666666666667
0.8 2.0 1.6666666666666667
1.6 2.0 1.6666666666666667
2.4000000000000004 2.0 1.6666666666666667
3.2 2.0 1.6666666666666667
4.0 2.0 1.6666666666666667
4.800000000000001 2.0 1.6666666666666667
5.6000000000000005 2.0 1.6666666666666667
6.4 2.0 1.6666666666666667
7.2 2.0 1.6666666666666667
8.0 2.0 1.6666666666666667
8.8 2.0 1.6666666666666667
9.600000000000001 2.0 1.6666666666666667
10.4 2.0 1.6666666666666667
11.200000000000001 2.0 1.6666666666666667
12.0 2.0 1.6666666666666667
12.8 2.0 1.6666666666666667
13.600000000000001 2.0 1.6666666666666667
14.4 2.0 1.6666666666666667
15.200000000000001 2.0 1.6666666666666667
16.0 2.0 1.6666666666666667
0.0 0.0 3.3333333333333335
0.8 0.0 3.3333333333333335
1.6 0.0 3.3333333333333335
2.4000000000000004 0.0 3.3333333333333335
3.2 0.0 3.3333333333333335
4.0 0.0 3.3333333333333335
4.800000000000001 0.0 3.3333333333333335
5.6000000000000005 0.0 3.3333333333333335
6.4 0.0 3.3333333333333335
7.2 0.0 3.3333333333333335
8.0 0.0 3.3333333333333335
8.8 0.0 3.3333333333333335
9.600000000000001 0.0 3.3333333333333335
10.4 0.0 3.3333333333333335
11.200000000000001 0.0 3.3333333333333335
12.0 0.0 3.3333333333333335
12.8 0.0 3.3333333333333335
13.600000000000001 0.0 3.3333333333333335
14.4 0.0 3.3333333333333335
15.200000000000001 0.0 3.3333333333333335
16.0 0.0 3.3333333333333335
0.0 0.3333333333333333 3.3333333333333335
0.8 0.3333333333333333 3.3333333333333335
1.6 0.3333333333333333 3.3333333333333335
2.4000000000000004 0.3333333333333333 3.3333333333333335
3.2 0.3333333333333333 3.3333333333333335
4.0 0.3333333333333333 3.3333333333333335
4.800000000000001 0.3333333333333333 3.3333333333333335
5.6000000000000005 0.3333333333333333 3.3333333333333335
6.4 0.3333333333333333 3.3333333333333335
7.2 0.3333333333333333 3.3333333333333335
8.0 0.3333333333333333 3.3333333333333335
8.8 0.3333333333333333 3.3333333333333335
9.600000000000001 0.3333333333333333 3.3333333333333335
10.4 0.3333333333333333 3.3333333333333335
11.200000000000001 0.3333333333333333 3.3333333333333335
12.0 0.3333333333333333 3.3333333333333335
12.8 0.3333333333333333 3.3333333333333335
13.600000000000001 0.3333333333333333 3.3333333333333335
14.4 0.3333333333333333 3.3333333333333335
15.200000000000001 0.3333333333333333 3.3333333333333335
16.0 0.3333333333333333 3.3333333333333335
0.0 0.6666666666666666 3.3333333333333335
0.8 0.6666666666666666 3.3333333333333335
1.6 0.6666666666666666 3.3333333333333335
2.4000000000000004 0.6666666666666666 3.3333333333333335
3.2 0.6666666666666666 3.3333333333333335
4.0 0.6666666666666666 3.3333333333333335
4.800000000000001 0.6666666666666666 3.3333333333333335
5.6000000000000005 0.6666666666666666 3.3333333333333335
6.4 0.6666666666666666 3.3333333333333335
7.2 0.6666666666666666 3.3333333333333335
8.0 0.6666666666666666 3.3333333333333335
8.8 0.6666666666666666 3.3333333333333335
9.600000000000001 0.6666666666666666 3.3333333333333335
10.4 0.6666666666666666 3.3333333333333335
11.200000000000001 0.6666666666666666 3.3333333333333335
12.0 0.6666666666666666 3.3333333333333335
12.8 0.6666666666666666 3.3333333333333335
13.600000000000001 0.6666666666666666 3.3333333333333335
14.4 0.6666666666666666 3.3333333333333335
15.200000000000001 0.6666666666666666 3.3333333333333335
16.0 0.6666666666666666 3.3333333333333335
0.0 1.0 3.3333333333333335
0.8 1.0 3.3333333333333335
1.6 1.0 3.3333333333333335
2.4000000000000004 1.0 3.3333333333333335
3.2 1.0 3.3333333333333335
4.0 1.0 3.3333333333333335
4.800000000000001 1.0 3.3333333333333335
5.6000000000000005 1.0 3.3333333333333335
6.4 1.0 3.3333333333333335
7.2 1.0 3.3333333333333335
8.0 1.0 3.3333333333333335
8.8 1.0 3.3333333333333335
9.600000000000001 1.0 3.3333333333333335
10.4 1.0 3.3333333333333335
11.200000000000001 1.0 3.3333333333333335
12.0 1.0 3.3333333333333335
12.8 1.0 3.3333333333333335
13.600000000000001 1.0 3.3333333333333335
14.4 1.0 3.3333333333333335
15.200000000000001 1.0 3.3333333333333335
16.0 1.0 3.3333333333333335
0.0 1.3333333333333333 3.3333333333333335
0.8 1.3333333333333333 3.3333333333333335
1.6 1.3333333333333333 3.3333333333333335
2.4000000000000004 1.3333333333333333 3.3333333333333335
3.2 1.3333333333333333 3.3333333333333335
4.0 1.3333333333333333 3.3333333333333335
4.800000000000001 1.3333333333333333 3.3333333333333335
5.6000000000000005 1.3333333333333333 3.3333333333333335
6.4 1.3333333333333333 3.3333333333333335
7.2 1.3333333333333333 3.3333333333333335
8.0 1.3333333333333333 3.3333333333333335
8.8 1.3333333333333333 3.3333333333333335
9.600000000000001 1.3333333333333333 3.3333333333333335
10.4 1.3333333333333333 3.3333333333333335
11.200000000000001 1.3333333333333333 3.3333333333333335
12.0 1.3333333333333333 3.3333333333333335
12.8 1.3333333333333333 3.3333333333333335
13.600000000000001 1.3333333333333333 3.3333333333333335
14.4 1.3333333333333333 3.3333333333333335
15.200000000000001 1.3333333333333333 3.3333333333333335
16.0 1.3333333333333333 3.3333333333333335
0.0 1.6666666666666665 3.3333333333333335
0.8 1.6666666666666665 3.3333333333333335
1.6 1.6666666666666665 3.3333333333333335
2.4000000000000004 1.6666666666666665 3.3333333333333335
3.2 1.6666666666666665 3.3333333333333335
4.0 1.6666666666666665 3.3333333333333335
4.800000000000001 1.6666666666666665 3.3333333333333335
5.6000000000000005 1.6666666666666665 3.3333333333333335
6.4 1.6666666666666665 3.3333333333333335
7.2 1.6666666666666665 3.3333333333333335
8.0 1.6666666666666665 3.3333333333333335
8.8 1.6666666666666665 3.3333333333333335
9.600000000000001 1.6666666666666665 3.3333333333333335
10.4 1.6666666666666665 3.3333333333333335
11.200000000000001 1.6666666666666665 3.3333333333333335
12.0 1.6666666666666665 3.3333333333333335
12.8 1.6666666666666665 3.3333333333333335
13.600000000000001 1.6666666666666665 3.3333333333333335
14.4 1.6666666666666665 3.3333333333333335
15.200000000000001 1.6666666666666665 3.3333333333333335
16.0 1.6666666666666665 3.3333333333333335
0.0 2.0 3.3333333333333335
0.8 2.0 3.3333333333333335
1.6 2.0 3.3333333333333335
2.4000000000000004 2.0 3.3333333333333335
3.2 2.0 3.3333333333333335
4.0 2.0 3.3333333333333335
4.800000000000001 2.0 3.3333333333333335
5.6000000000000005 2.0 3.3333333333333335
6.4 2.0 3.3333333333333335
7.2 2.0 3.3333333333333335
8.0 2.0 3.3333333333333335
8.8 2.0 3.3333333333333335
9.600000000000001 2.0 3.3333333333333335
10.4 2.0 3.3333333333333335
11.200000000000001 2.0 3.3333333333333335
12.0 2.0 3.3333333333333335
12.8 2.0 3.3333333333333335
13.600000000000001 2.0 3.3333333333333335
14.4 2.0 3.3333333333333335
15.200000000000001 2.0 3.3333333333333335
16.0 2.0 3.3333333333333335
0.0 0.0 5.0
0.8 0.0 5.0
1.6 0.0 5.0
2.4000000000000004 0.0 5.0
3.2 0.0 5.0
4.0 0.0 5.0
4.800000000000001 0.0 5.0
5.6000000000000005 0.0 5.0
6.4 0.0 5.0
7.2 0.0 5.0
8.0 0.0 5.0
8.8 0.0 5.0
9.600000000000001 0.0 5.0
10.4 0.0 5.0
11.200000000000001 0.0 5.0
12.0 0.0 5.0
12.8 0.0 5.0
13.600000000000001 0.0 5.0
14.4 0.0 5.0
15.200000000000001 0.0 5.0
16.0 0.0 5.0
0.0 0.3333333333333333 5.0
0.8 0.3333333333333333 5.0
1.6 0.3333333333333333 5.0
2.4000000000000004 0.3333333333333333 5.0
3.2 0.3333333333333333 5.0
4.0 0.3333333333333333 5.0
4.800000000000001 0.3333333333333333 5.0
5.6000000000000005 0.3333333333333333 5.0
6.4 0.3333333333333333 5.0
7.2 0.3333333333333333 5.0
8.0 0.3333333333333333 5.0
8.8 0.3333333333333333 5.0
9.600000000000001 0.3333333333333333 5.0
10.4 0.3333333333333333 5.0
11.200000000000001 0.3333333333333333 5.0
12.0 0.3333333333333333 5.0
12.8 0.3333333333333333 5.0
13.600000000000001 0.3333333333333333 5.0
14.4 0.3333333333333333 5.0
15.200000000000001 0.3333333333333333 5.0
16.0 0.3333333333333333 5.0
0.0 0.6666666666666666 5.0
0.8 0.6666666666666666 5.0
1.6 0.6666666666666666 5.0
2.4000000000000004 0.6666666666666666 5.0
3.2 0.6666666666666666 5.0
4.0 0.6666666666666666 5.0
4.800000000000001 0.6666666666666666 5.0
5.6000000000000005 0.6666666666666666 5.0
6.4 0.6666666666666666 5.0
7.2 0.6666666666666666 5.0
8.0 0.6666666666666666 5.0
8.8 0.6666666666666666 5.0
9.600000000000001 0.6666666666666666 5.0
10.4 0.6666666666666666 5.0
11.200000000000001 0.6666666666666666 5.0
12.0 0.6666666666666666 5.0
12.8 0.6666666666666666 5.0
13.600000000000001 0.6666666666666666 5.0
14.4 0.6666666666666666 5.0
15.200000000000001 0.6666666666666666 5.0
16.0 0.6666666666666666 5.0
0.0 1.0 5.0
0.8 1.0 5.0
1.6 1.0 5.0
2.4000000000000004 1.0 5.0
3.2 1.0 5.0
4.0 1.0 5.0
4.800000000000001 1.0 5.0
5.6000000000000005 1.0 5.0
6.4 1.0 5.0
7.2 1.0 5.0
8.0 1.0 5.0
8.8 1.0 5.0
9.600000000000001 1.0 5.0
10.4 1.0 5.0
11.200000000000001 1.0 5.0
12.0 1.0 5.0
12.8 1.0 5.0
13.600000000000001 1.0 5.0
14.4 1.0 5.0
15.200000000000001 1.0 5.0
16.0 1.0 5.0
0.0 1.3333333333333333 5.0
0.8 1.3333333333333333 5.0
1.6 1.3333333333333333 5.0
2.4000000000000004 1.3333333333333333 5.0
3.2 1.3333333333333333 5.0
4.0 1.3333333333333333 5.0
4.800000000000001 1.3333333333333333 5.0
5.6000000000000005 1.3333333333333333 5.0
6.4 1.3333333333333333 5.0
7.2 1.3333333333333333 5.0
8.0 1.3333333333333333 5.0
8.8 1.3333333333333333 5.0
9.600000000000001 1.3333333333333333 5.0
10.4 1.3333333333333333 5.0
11.200000000000001 1.3333333333333333 5.0
12.0 1.3333333333333333 5.0
12.8 1.3333333333333333 5.0
13.600000000000001 1.3333333333333333 5.0
14.4 1.3333333333333333 5.0
15.200000000000001 1.3333333333333333 5.0
16.0 1.3333333333333333 5.0
0.0 1.6666666666666665 5.0
0.8 1.6666666666666665 5.0
1.6 1.6666666666666665 5.0
2.4000000000000004 1.6666666666666665 5.0
3.2 1.6666666666666665 5.0
4.0 1.6666666666666665 5.0
4.800000000000001 1.6666666666666665 5.0
5.6000000000000005 1.6666666666666665 5.0
6.4 1.6666666666666665 5.0
7.2 1.6666666666666665 5.0
8.0 1.6666666666666665 5.0
8.8 1.6666666666666665 5.0
9.600000000000001 1.6666666666666665 5.0
10.4 1.6666666666666665 5.0
11.200000000000001 1.6666666666666665 5.0
12.0 1.6666666666666665 5.0
12.8 1.6666666666666665 5.0
13.600000000000001 1.6666666666666665 5.0
14.4 1.6666666666666665 5.0
15.200000000000001 1.6666666666666665 5.0
16.0 1.6666666666666665 5.0
0.0 2.0 5.0
0.8 2.0 5.0
1.6 2.0 5.0
2.4000000000000004 2.0 5.0
3.2 2.0 5.0
4.0 2.0 5.0
4.800000000000001 2.0 5.0
5.6000000000000005 2.0 5.0
6.4 2.0 5.0
7.2 2.0 5.0
8.0 2.0 5.0
8.8 2.0 5.0
9.600000000000001 2.0 5.0
10.4 2.0 5.0
11.200000000000001 2.0 5.0
12.0 2.0 5.0
12.8 2.0 5.0
13.600000000000001 2.0 5.0
14.4 2.0 5.0
15.200000000000001 2.0 5.0
16.0 2.0 5.0
0.0 0.0 6.666666666666667
0.8 0.0 6.666666666666667
1.6 0.0 6.666666666666667
2.4000000000000004 0.0 6.666666666666667
3.2 0.0 6.666666666666667
4.0 0.0 6.666666666666667
4.800000000000001 0.0 6.666666666666667
5.6000000000000005 0.0 6.666666666666667
6.4 0.0 6.666666666666667
7.2 0.0 6.666666666666667
8.0 0.0 6.666666666666667
8.8 0.0 6.666666666666667
9.600000000000001 0.0 6.666666666666667
10.4 0.0 6.666666666666667
11.200000000000001 0.0 6.666666666666667
12.0 0.0 6.666666666666667
12.8 0.0 6.666666666666667
13.600000000000001 0.0 6.666666666666667
14.4 0.0 6.666666666666667
15.200000000000001 0.0 6.666666666666667
16.0 0.0 6.666666666666667
0.0 0.3333333333333333 6.666666666666667
0.8 0.3333333333333333 6.666666666666667
1.6 0.3333333333333333 6.666666666666667
2.4000000000000004 0.3333333333333333 6.666666666666667
3.2 0.3333333333333333 6.666666666666667
4.0 0.3333333333333333 6.666666666666667
4.800000000000001 0.3333333333333333 6.666666666666667
5.6000000000000005 0.3333333333333333 6.666666666666667
6.4 0.3333333333333333 6.666666666666667
7.2 0.3333333333333333 6.666666666666667
8.0 0.3333333333333333 6.666666666666667
8.8 0.3333333333333333 6.666666666666667
9.600000000000001 0.3333333333333333 6.666666666666667
10.4 0.3333333333333333 6.666666666666667
11.200000000000001 0.3333333333333333 6.666666666666667
12.0 0.3333333333333333 6.666666666666667
12.8 0.3333333333333333 6.666666666666667
13.600000000000001 0.3333333333333333 6.666666666666667
14.4 0.3333333333333333 6.666666666666667
15.200000000000001 0.3333333333333333 6.666666666666667
16.0 0.3333333333333333 6.666666666666667
0.0 0.6666666666666666 6.666666666666667
0.8 0.6666666666666666 6.666666666666667
1.6 0.6666666666666666 6.666666666666667
2.4000000000000004 0.6666666666666666 6.666666666666667
3.2 0.6666666666666666 6.666666666666667
4.0 0.6666666666666666 6.666666666666667
4.800000000000001 0.6666666666666666 6.666666666666667
5.6000000000000005 0.6666666666666666 6.666666666666667
6.4 0.6666666666666666 6.666666666666667
7.2 0.6666666666666666 6.666666666666667
8.0 0.6666666666666666 6.666666666666667
8.8 0.6666666666666666 6.666666666666667
9.600000000000001 0.6666666666666666 6.666666666666667
10.4 0.6666666666666666 6.666666666666667
11.200000000000001 0.6666666666666666 6.666666666666667
12.0 0.6666666666666666 6.666666666666667
12.8 0.6666666666666666 6.666666666666667
13.600000000000001 0.6666666666666666 6.666666666666667
14.4 0.6666666666666666 6.666666666666667
15.200000000000001 0.6666666666666666 6.666666666666667
16.0 0.6666666666666666 6.666666666666667
0.0 1.0 6.666666666666667
0.8 1.0 6.666666666666667
1.6 1.0 6.666666666666667
2.4000000000000004 1.0 6.666666666666667
3.2 1.0 6.666666666666667
4.0 1.0 6.666666666666667
4.800000000000001 1.0 6.666666666666667
5.6000000000000005 1.0 6.666666666666667
6.4 1.0 6.666666666666667
7.2 1.0 6.666666666666667
8.0 1.0 6.666666666666667
8.8 1.0 6.666666666666667
9.600000000000001 1.0 6.666666666666667
10.4 1.0 6.666666666666667
11.200000000000001 1.0 6.666666666666667
12.0 1.0 6.666666666666667
12.8 1.0 6.666666666666667
13.600000000000001 1.0 6.666666666666667
14.4 1.0 6.666666666666667
15.200000000000001 1.0 6.666666666666667
16.0 1.0 6.666666666666667
0.0 1.3333333333333333 6.666666666666667
0.8 1.3333333333333333 6.666666666666667
1.6 1.3333333333333333 6.666666666666667
2.4000000000000004 1.3333333333333333 6.666666666666667
3.2 1.3333333333333333 6.666666666666667
4.0 1.3333333333333333 6.666666666666667
4.800000000000001 1.3333333333333333 6.666666666666667
5.6000000000000005 1.3333333333333333 6.666666666666667
6.4 1.3333333333333333 6.666666666666667
7.2 1.3333333333333333 6.666666666666667
8.0 1.3333333333333333 6.666666666666667
8.8 1.3333333333333333 6.666666666666667
9.600000000000001 1.3333333333333333 6.666666666666667
10.4 1.3333333333333333 6.666666666666667
11.200000000000001 1.3333333333333333 6.666666666666667
12.0 1.3333333333333333 6.666666666666667
12.8 1.3333333333333333 6.666666666666667
13.600000000000001 1.3333333333333333 6.666666666666667
14.4 1.3333333333333333 6.666666666666667
15.200000000000001 1.3333333333333333 6.666666666666667
16.0 1.3333333333333333 6.666666666666667
0.0 1.6666666666666665 6.666666666666667
0.8 1.6666666666666665 6.666666666666667
1.6 1.6666666666666665 6.666666666666667
2.4000000000000004 1.6666666666666665 6.666666666666667
3.2 1.6666666666666665 6.666666666666667
4.0 1.6666666666666665 6.666666666666667
4.800000000000001 1.6666666666666665 6.666666666666667
5.6000000000000005 1.6666666666666665 6.666666666666667
6.4 1.6666666666666665 6.666666666666667
7.2 1.6666666666666665 6.666666666666667
8.0 1.6666666666666665 6.666666666666667
8.8 1.6666666666666665 6.666666666666667
9.600000000000001 1.6666666666666665 6.666666666666667
10.4 1.6666666666666665 6.666666666666667
11.200000000000001 1.6666666666666665 6.666666666666667
12.0 1.6666666666666665 6.666666666666667
12.8 1.6666666666666665 6.666666666666667
13.600000000000001 1.6666666666666665 6.666666666666667
14.4 1.6666666666666665 6.666666666666667
15.200000000000001 1.6666666666666665 6.666666666666667
16.0 1.6666666666666665 6.666666666666667
0.0 2.0 6.666666666666667
0.8 2.0 6.666666666666667
1.6 2.0 6.666666666666667
2.4000000000000004 2.0 6.666666666666667
3.2 2.0 6.666666666666667
4.0 2.0 6.666666666666667
4.800000000000001 2.0 6.666666666666667
5.6000000000000005 2.0 6.666666666666667
6.4 2.0 6.666666666666667
7.2 2.0 6.666666666666667
8.0 2.0 6.666666666666667
8.8 2.0 6.666666666666667
9.600000000000001 2.0 6.666666666666667
10.4 2.0 6.666666666666667
11.200000000000001 2.0 6.666666666666667
12.0 2.0 6.666666666666667
12.8 2.0 6.666666666666667
13.600000000000001 2.0 6.666666666666667
14.4 2.0 6.666666666666667
15.200000000000001 2.0 6.666666666666667
16.0 2.0 6.666666666666667
0.0 0.0 8.333333333333334
0.8 0.0 8.333333333333334
1.6 0.0 8.333333333333334
2.4000000000000004 0.0 8.333333333333334
3.2 0.0 8.333333333333334
4.0 0.0 8.333333333333334
4.800000000000001 0.0 8.333333333333334
5.6000000000000005 0.0 8.333333333333334
6.4 0.0 8.333333333333334
7.2 0.0 8.333333333333334
8.0 0.0 8.333333333333334
8.8 0.0 8.333333333333334
9.600000000000001 0.0 8.333333333333334
10.4 0.0 8.333333333333334
11.200000000000001 0.0 8.333333333333334
12.0 0.0 8.333333333333334
12.8 0.0 8.333333333333334
13.600000000000001 0.0 8.333333333333334
14.4 0.0 8.333333333333334
15.200000000000001 0.0 8.333333333333334
16.0 0.0 8.333333333333334
0.0 0.3333333333333333 8.333333333333334
0.8 0.3333333333333333 8.333333333333334
1.6 0.3333333333333333 8.333333333333334
2.4000000000000004 0.3333333333333333 8.333333333333334
3.2 0.3333333333333333 8.333333333333334
4.0 0.3333333333333333 8.333333333333334
4.800000000000001 0.3333333333333333 8.333333333333334
5.6000000000000005 0.3333333333333333 8.333333333333334
6.4 0.3333333333333333 8.333333333333334
7.2 0.3333333333333333 8.333333333333334
8.0 0.3333333333333333 8.333333333333334
8.8 0.3333333333333333 8.333333333333334
9.600000000000001 0.3333333333333333 8.333333333333334
10.4 0.3333333333333333 8.333333333333334
11.200000000000001 0.3333333333333333 8.333333333333334
12.0 0.3333333333333333 8.333333333333334
12.8 0.3333333333333333 8.333333333333334
13.600000000000001 0.3333333333333333 8.333333333333334
14.4 0.3333333333333333 8.333333333333334
15.200000000000001 0.3333333333333333 8.333333333333334
16.0 0.3333333333333333 8.333333333333334
0.0 0.6666666666666666 8.333333333333334
0.8 0.6666666666666666 8.333333333333334
1.6 0.6666666666666666 8.333333333333334
2.4000000000000004 0.6666666666666666 8.333333333333334
3.2 0.6666666666666666 8.333333333333334
4.0 0.6666666666666666 8.333333333333334
4.800000000000001 0.6666666666666666 8.333333333333334
5.6000000000000005 0.6666666666666666 8.333333333333334
6.4 0.6666666666666666 8.333333333333334
7.2 0.6666666666666666 8.333333333333334
8.0 0.6666666666666666 8.333333333333334
8.8 0.6666666666666666 8.333333333333334
9.600000000000001 0.6666666666666666 8.333333333333334
10.4 0.6666666666666666 8.333333333333334
11.200000000000001 0.6666666666666666 8.333333333333334
12.0 0.6666666666666666 8.333333333333334
12.8 0.6666666666666666 8.333333333333334
13.600000000000001 0.6666666666666666 8.333333333333334
14.4 0.6666666666666666 8.333333333333334
15.200000000000001 0.6666666666666666 8.333333333333334
16.0 0.6666666666666666 8.333333333333334
0.0 1.0 8.333333333333334
0.8 1.0 8.333333333333334
1.6 1.0 8.333333333333334
2.4000000000000004 1.0 8.333333333333334
3.2 1.0 8.333333333333334
4.0 1.0 8.333333333333334
4.800000000000001 1.0 8.333333333333334
5.6000000000000005 1.0 8.333333333333334
6.4 1.0 8.333333333333334
7.2 1.0 8.333333333333334
8.0 1.0 8.333333333333334
8.8 1.0 8.333333333333334
9.600000000000001 1.0 8.333333333333334
10.4 1.0 8.333333333333334
11.200000000000001 1.0 8.333333333333334
12.0 1.0 8.333333333333334
12.8 1.0 8.333333333333334
13.600000000000001 1.0 8.333333333333334
14.4 1.0 8.333333333333334
15.200000000000001 1.0 8.333333333333334
16.0 1.0 8.333333333333334
0.0 1.3333333333333333 8.333333333333334
0.8 1.3333333333333333 8.333333333333334
1.6 1.3333333333333333 8.333333333333334
2.4000000000000004 1.3333333333333333 8.333333333333334
3.2 1.3333333333333333 8.333333333333334
4.0 1.3333333333333333 8.333333333333334
4.800000000000001 1.3333333333333333 8.333333333333334
5.6000000000000005 1.3333333333333333 8.333333333333334
6.4 1.3333333333333333 8.333333333333334
7.2 1.3333333333333333 8.333333333333334
8.0 1.3333333333333333 8.333333333333334
8.8 1.3333333333333333 8.333333333333334
9.600000000000001 1.3333333333333333 8.333333333333334
10.4 1.3333333333333333 8.333333333333334
11.200000000000001 1.3333333333333333 8.333333333333334
12.0 1.3333333333333333 8.333333333333334
12.8 1.3333333333333333 8.333333333333334
13.600000000000001 1.3333333333333333 8.333333333333334
14.4 1.3333333333333333 8.333333333333334
15.200000000000001 1.3333333333333333 8.333333333333334
16.0 1.3333333333333333 8.333333333333334
0.0 1.6666666666666665 8.333333333333334
0.8 1.6666666666666665 8.333333333333334
1.6 1.6666666666666665 8.333333333333334
2.4000000000000004 1.6666666666666665 8.333333333333334
3.2 1.6666666666666665 8.333333333333334
4.0 1.6666666666666665 8.333333333333334
4.800000000000001 1.6666666666666665 8.333333333333334
5.6000000000000005 1.6666666666666665 8.333333333333334
6.4 1.6666666666666665 8.333333333333334
7.2 1.6666666666666665 8.333333333333334
8.0 1.6666666666666665 8.333333333333334
8.8 1.6666666666666665 8.333333333333334
9.600000000000001 1.6666666666666665 8.333333333333334
10.4 1.6666666666666665 8.333333333333334
11.200000000000001 1.6666666666666665 8.333333333333334
12.0 1.6666666666666665 8.333333333333334
12.8 1.6666666666666665 8.333333333333334
13.600000000000001 1.6666666666666665 8.333333333333334
14.4 1.6666666666666665 8.333333333333334
15.200000000000001 1.6666666666666665 8.333333333333334
16.0 1.6666666666666665 8.333333333333334
0.0 2.0 8.333333333333334
0.8 2.0 8.333333333333334
1.6 2.0 8.333333333333334
2.4000000000000004 2.0 8.333333333333334
3.2 2.0 8.333333333333334
4.0 2.0 8.333333333333334
4.800000000000001 2.0 8.333333333333334
5.6000000000000005 2.0 8.333333333333334
6.4 2.0 8.333333333333334
7.2 2.0 8.333333333333334
8.0 2.0 8.333333333333334
8.8 2.0 8.333333333333334
9.600000000000001 2.0 8.333333333333334
10.4 2.0 8.333333333333334
11.200000000000001 2.0 8.333333333333334
12.0 2.0 8.333333333333334
12.8 2.0 8.333333333333334
13.600000000000001 2.0 8.333333333333334
14.4 2.0 8.333333333333334
15.200000000000001 2.0 8.333333333333334
16.0 2.0 8.333333333333334
0.0 0.0 10.0
0.8 0.0 10.0
1.6 0.0 10.0
2.4000000000000004 0.0 10.0
3.2 0.0 10.0
4.0 0.0 10.0
4.800000000000001 0.0 10.0
5.6000000000000005 0.0 10.0
6.4 0.0 10.0
7.2 0.0 10.0
8.0 0.0 10.0
8.8 0.0 10.0
9.600000000000001 0.0 10.0
10.4 0.0 10.0
11.200000000000001 0.0 10.0
12.0 0.0 10.0
12.8 0.0 10.0
13.600000000000001 0.0 10.0
14.4 0.0 10.0
15.200000000000001 0.0 10.0
16.0 0.0 10.0
0.0 0.3333333333333333 10.0
0.8 0.3333333333333333 10.0
1.6 0.3333333333333333 10.0
2.4000000000000004 0.3333333333333333 10.0
3.2 0.3333333333333333 10.0
4.0 0.3333333333333333 10.0
4.800000000000001 0.3333333333333333 10.0
5.6000000000000005 0.3333333333333333 10.0
6.4 0.3333333333333333 10.0
7.2 0.3333333333333333 10.0
8.0 0.3333333333333333 10.0
8.8 0.3333333333333333 10.0
9.600000000000001 0.3333333333333333 10.0
10.4 0.3333333333333333 10.0
11.200000000000001 0.3333333333333333 10.0
12.0 0.3333333333333333 10.0
12.8 0.3333333333333333 10.0
13.600000000000001 0.3333333333333333 10.0
14.4 0.3333333333333333 10.0
15.200000000000001 0.3333333333333333 10.0
16.0 0.3333333333333333 10.0
0.0 0.6666666666666666 10.0
0.8 0.6666666666666666 10.0
1.6 0.6666666666666666 10.0
2.4000000000000004 0.6666666666666666 10.0
3.2 0.6666666666666666 10.0
4.0 0.6666666666666666 10.0
4.800000000000001 0.6666666666666666 10.0
5.6000000000000005 0.6666666666666666 10.0
6.4 0.6666666666666666 10.0
7.2 0.6666666666666666 10.0
8.0 0.6666666666666666 10.0
8.8 0.6666666666666666 10.0
9.600000000000001 0.6666666666666666 10.0
10.4 0.6666666666666666 10.0
11.200000000000001 0.6666666666666666 10.0
12.0 0.6666666666666666 10.0
12.8 0.6666666666666666 10.0
13.600000000000001 0.6666666666666666 10.0
14.4 0.6666666666666666 10.0
15.200000000000001 0.6666666666666666 10.0
16.0 0.6666666666666666 10.0
0.0 1.0 10.0
0.8 1.0 10.0
1.6 1.0 10.0
2.4000000000000004 1.0 10.0
3.2 1.0 10.0
4.0 1.0 10.0
4.800000000000001 1.0 10.0
5.6000000000000005 1.0 10.0
6.4 1.0 10.0
7.2 1.0 10.0
8.0 1.0 10.0
8.8 1.0 10.0
9.600000000000001 1.0 10.0
10.4 1.0 10.0
11.200000000000001 1.0 10.0
12.0 1.0 10.0
12.8 1.0 10.0
13.600000000000001 1.0 10.0
14.4 1.0 10.0
15.200000000000001 1.0 10.0
16.0 1.0 10.0
0.0 1.3333333333333333 10.0
0.8 1.3333333333333333 10.0
1.6 1.3333333333333333 10.0
2.4000000000000004 1.3333333333333333 10.0
3.2 1.3333333333333333 10.0
4.0 1.3333333333333333 10.0
4.800000000000001 1.3333333333333333 10.0
5.6000000000000005 1.3333333333333333 10.0
6.4 1.3333333333333333 10.0
7.2 1.3333333333333333 10.0
8.0 1.3333333333333333 10.0
8.8 1.3333333333333333 10.0
9.600000000000001 1.3333333333333333 10.0
10.4 1.3333333333333333 10.0
11.200000000000001 1.3333333333333333 10.0
12.0 1.3333333333333333 10.0
12.8 1.3333333333333333 10.0
13.600000000000001 1.3333333333333333 10.0
14.4 1.3333333333333333 10.0
15.200000000000001 1.3333333333333333 10.0
16.0 1.3333333333333333 10.0
0.0 1.6666666666666665 10.0
0.8 1.6666666666666665 10.0
1.6 1.6666666666666665 10.0
2.4000000000000004 1.6666666666666665 10.0
3.2 1.6666666666666665 10.0
4.0 1.6666666666666665 10.0
4.800000000000001 1.6666666666666665 10.0
5.6000000000000005 1.6666666666666665 10.0
6.4 1.6666666666666665 10.0
7.2 1.6666666666666665 10.0
8.0 1.6666666666666665 10.0
8.8 1.6666666666666665 10.0
9.600000000000001 1.6666666666666665 10.0
10.4 1.6666666666666665 10.0
11.200000000000001 1.6666666666666665 10.0
12.0 1.6666666666666665 10.0
12.8 1.6666666666666665 10.0
13.600000000000001 1.6666666666666665 10.0
14.4 1.6666666666666665 10.0
15.200000000000001 1.6666666666666665 10.0
16.0 1.6666666666666665 10.0
0.0 2.0 10.0
0.8 2.0 10.0
1.6 2.0 10.0
2.4000000000000004 2.0 10.0
3.2 2.0 10.0
4.0 2.0 10.0
4.800000000000001 2.0 10.0
5.6000000000000005 2.0 10.0
6.4 2.0 10.0
7.2 2.0 10.0
8.0 2.0 10.0
8.8 2.0 10.0
9.600000000000001 2.0 10.0
10.4 2.0 10.0
11.200000000000001 2.0 10.0
12.0 2.0 10.0
12.8 2.0 10.0
13.600000000000001 2.0 10.0
14.4 2.0 10.0
15.200000000000001 2.0 10.0
16.0 2.0 10.0
CELLS 720 6480
8 0 1 22 21 147 148 169 168
8 1 2 23 22 148 149 170 169
8 2 3 24 23 149 150 171 170
8 3 4 25 24 150 151 172 171
8 4 5 26 25 151 152 173 172
8 5 6 27 26 152 153 174 173
8 6 7 28 27 153 154 175 174
8 7 8 29 28 154 155 176 175
8 8 9 30 29 155 156 177 176
8 9 10 31 30 156 157 178 177
8 10 11 32 31 157 158 179 178
8 11 12 33 32 158 159 180 179
8 12 13 34 33 159 160 181 180
8 13 14 35 34 160 161 182 181
8 14 15 36 35 161 162 183 182
8 15 16 37 36 162 163 184 183
8 16 17 38 37 163 164 185 184
8 17 18 39 38 164 165 186 185
8 18 19 40 39 165 166 187 186
8 19 20 41 40 166 167 188 187
8 21 22 43 42 168 169 190 189
8 22 23 44 43 169 170 191 190
8 23 24 45 44 170 171 192 191
8 24 25 46 45 171 172 193 192
8 25 26 47 46 172 173 194 193
8 26 27 48 47 173 174 195 194
8 27 28 49 48 174 175 196 195
8 28 29 50 49 175 176 197 196
8 29 30 51 50 176 177 198 197
8 30 31 52 51 177 178 199 198
8 31 32 53 52 178 179 200 199
8 32 33 54 53 179 180 201 200
8 33 34 55 54 180 181 202 201
8 34 35 56 55 181 182 203 202
8 35 36 57 56 182 183 204 203
8 36 37 58 57 183 184 205 204
8 37 38 59 58 184 185 206 205
8 38 39 60 59 185 186 207 206
8 39 40 61 60 186 187 208 207
8 40 41 62 61 187 188 209 208
8 42 43 64 63 189 190 211 210
8 43 44 65 64 190 191 212 211
8 44 45 66 65 191 192 213 212
8 45 46 67 66 192 193 214 213
8 46 47 68 67 193 194 215 214
8 47 48 69 68 194 195 216 215
8 48 49 70 69 195 196 217 216
8 49 50 71 70 196 197 218 217
8 50 51 72 71 197 198 219 218
8 51 52 73 72 198 199 220 219
8 52 53 74 73 199 200 221 220
8 53 54 75 74 200 201 222 221
8 54 55 76 75 201 202 223 222
8 55 56 77 76 202 203 224 223
8 56 57 78 77 203 204 225 224
8 57 58 79 78 204 205 226 225
8 58 59 80 79 205 206 227 226
8 59 60 81 80 206 207 228 227
8 60 61 82 81 207 208 229 228
8 61 62 83 82 208 209 230 229
8 63 64 85 84 210 211 232 231
8 64 65 86 85 211 212 233 232
8 65 66 87 86 212 213 234 233
8 66 67 88 87 213 214 235 234
8 67 68 89 88 214 215 236 235
8 68 69 90 89 215 216 237 236
8 69 70 91 90 216 217 238 237
8 70 71 92 91 217 218 239 238
8 71 72 93 92 218 219 240 239
8 72 73 94 93 219 220 241 240
8 73 74 95 94 220 221 242 241
8 74 75 96 95 221 222 243 242
8 75 76 97 96 222 223 244 243
8 76 77 98 97 223 224 245 244
8 77 78 99 98 224 225 246 245
8 78 79 100 99 225 226 247 246
8 79 80 101 100 226 227 248 247
8 80 81 102 101 227 228 249 248
8 81 82 103 102 228 229 250 249
8 82 83 104 103 229 230 251 250
8 84 85 106 105 231 232 253 252
8 85 86 107 106 232 233 254 253
8 86 87 108 107 233 234 255 254
8 87 88 109 108 234 235 256 255
8 88 89 110 109 235 236 257 256
8 89 90 111 110 236 237 258 257
8 90 91 112 111 237 238 259 258
8 91 92 113 112 238 239 260 259
8 92 93 114 113 239 240 261 260
8 93 94 115 114 240 241 262 261
8 94 95 116 115 241 242 263 262
8 95 96 117 116 242 243 264 263
8 96 97 118 117 243 244 265 264
8 97 98 119 118 244 245 266 265
8 98 99 120 119 245 246 267 266
8 99 100 121 120 246 247 268 267
8 100 101 122 121 247 248 269 268
8 101 102 123 122 248 249 270 269
8 102 103 124 123 249 250 271 270
8 103 104 125 124 250 251 272 271
8 105 106 127 126 252 253 274 273
8 106 107 128 127 253 254 275 274
8 107 108 129 128 254 255 276 275
8 108 109 130 129 255 256 277 276
8 109 110 131 130 256 257 278 277
8 110 111 132 131 257 258 279 278
8 111 112 133 132 258 259 280 279
8 112 113 134 133 259 260 281 280
8 113 114 135 134 260 261 282 281
8 114 115 136 135 261 262 283 282
8 115 116 137 136 262 263 284 283
8 116 117 138 137 263 264 285 284
8 117 118 139 138 264 265 286 285
8 118 119 140 139 265 266 287 286
8 119 120 141 140 266 267 288 287
8 120 121 142 141 267 268 289 288
8 121 122 143 142 268 269 290 289
8 122 123 144 143 269 270 291 290
8 123 124 145 144 270 271 292 291
8 124 125 146 145 271 272 293 292
8 147 148 169 168 294 295 316 315
8 148 149 170 169 295 296 317 316
8 149 150 171 170 296 297 318 317
8 150 151 172 171 297 298 319 318
8 151 152 173 172 298 299 320 319
8 152 153 174 173 299 300 321 320
8 153 154 175 174 300 301 322 321
8 154 155 176 175 301 302 323 322
8 155 156 177 176 302 303 324 323
8 156 157 178 177 303 304 325 324
8 157 158 179 178 304 305 326 325
8 158 159 180 179 305 306 327 326
8 159 160 181 180 306 307 328 327
8 160 161 182 181 307 308 329 328
8 161 162 183 182 308 309 330 329
8 162 163 184 183 309 310 331 330
8 163 164 185 184 310 311 332 331
8 164 165 186 185 311 312 333 332
8 165 166 187 186 312 313 334 333
8 166 167 188 187 313 314 335 334
8 168 169 190 189 315 316 337 336
8 169 170 191 190 316 317 338 337
8 170 171 192 191 317 318 339 338
8 171 172 193 192 318 319 340 339
8 172 173 194 193 319 320 341 340
8 173 174 195 194 320 321 342 341
8 174 175 196 195 321 322 343 342
8 175 176 197 196 322 323 344 343
8 176 177 198 197 323 324 345 344
8 177 178 199 198 324 325 346 345
8 178 179 200 199 325 326 347 346
8 179 180 201 200 326 327 348 347
8 180 181 202 201 327 328 349 348
8 181 182 203 202 328 329 350 349
8 182 183 204 203 329 330 351 350
8 183 184 205 204 330 331 352 351
8 184 185 206 205 331 332 353 352
8 185 186 207 206 332 333 354 353
8 186 187 208 207 333 334 355 354
8 187 188 209 208 334 335 356 355
8 189 190 211 210 336 337 358 357
8 190 191 212 211 337 338 359 358
8 191 192 213 212 338 339 360 359
8 192 193 214 213 339 340 361 360
8 193 194 215 214 340 341 362 361
8 194 195 216 215 341 342 363 362
8 195 196 217 216 342 343 364 363
8 196 197 218 217 343 344 365 364
8 197 198 219 218 344 345 366 365
8 198 199 220 219 345 346 367 366
8 199 200 221 220 346 347 368 367
8 200 201 222 221 347 348 369 368
8 201 202 223 222 348 349 370 369
8 202 203 224 223 349 350 371 370
8 203 204 225 224 350 351 372 371
8 204 205 226 225 351 352 373 372
8 205 206 227 226 352 353 374 373
8 206 207 228 227 353 354 375 374
8 207 208 229 228 354 355 376 375
8 208 209 230 229 355 356 377 376
8 210 211 232 231 357 358 379 378
8 211 212 233 232 358 359 380 379
8 212 213 234 233 359 360 381 380
8 213 214 235 234 360 361 382 381
8 214 215 236 235 361 362 383 382
8 215 216 237 236 362 363 384 383
8 216 217 238 237 363 364 385 384
8 217 218 239 238 364 365 386 385
8 218 219 240 239 365 366 387 386
8 219 220 241 240 366 367 388 387
8 220 221 242 241 367 368 389 388
8 221 222 243 242 368 369 390 389
8 222 223 244 243 369 370 391 390
8 223 224 245 244 370 371 392 391
8 224 225 246 245 371 372 393 392
8 225 226 247 246 372 373 394 393
8 226 227 248 247 373 374 395 394
8 227 228 249 248 374 375 396 395
8 228 229 250 249 375 376 397 396
8 229 230 251 250 376 377 398 397
8 231 232 253 252 378 379 400 399
8 232 233 254 253 379 380 401 400
8 233 234 255 254 380 381 402 401
8 234 235 256 255 381 382 403 402
8 235 236 257 256 382 383 404 403
8 236 237 258 257 383 384 405 404
8 237 238 259 258 384 385 406 405
8 238 239 260 259 385 386 407 406
8 239 240 261 260 386 387 408 407
8 240 241 262 261 387 388 409 408
8 241 242 263 262 388 389 410 409
8 242 243 264 263 389 390 411 410
8 243 244 265 264 390 391 412 411
8 244 245 266 265 391 392 413 412
8 245 246 267 266 392 393 414 413
8 246 247 268 267 393 394 415 414
8 247 248 269 268 394 395 416 415
8 248 249 270 269 395 396 417 416
8 249 250 271 270 396 397 418 417
8 250 251 272 271 397 398 419 418
8 252 253 274 273 399 400 421 420
8 253 254 275 274 400 401 422 421
8 254 255 276 275 401 402 423 422
8 255 256 277 276 402 403 424 423
8 256 257 278 277 403 404 425 424
8 257 258 279 278 404 405 426 425
8 258 259 280 279 405 406 427 426
8 259 260 281 280 406 407 428 427
8 260 261 282 281 407 408 429 428
8 261 262 283 282 408 409 430 429
8 262 263 284 283 409 410 431 430
8 263 264 285 284 410 411 432 431
8 264 265 286 285 411 412 433 432
8 265 266 287 286 412 413 434 433
8 266 267 288 287 413 414 435 434
8 267 268 289 288 414 415 436 435
8 268 269 290 289 415 416 437 436
8 269 270 291 290 416 417 438 437
8 270 271 292 291 417 418 439 438
8 271 272 293 292 418 419 440 439
8 294 295 316 315 441 442 463 462
8 295 296 317 316 442 443 464 463
8 296 297 318 317 443 444 465 464
8 297 298 319 318 444 445 466 465
8 298 299 320 319 445 446 467 466
8 299 300 321 320 446 447 468 467
8 300 301 322 321 447 448 469 468
8 301 302 323 322 448 449 470 469
8 302 303 324 323 449 450 471 470
8 303 304 325 324 450 451 472 471
8 304 305 326 325 451 452 473 472
8 305 306 327 326 452 453 474 473
8 306 307 328 327 453 454 475 474
8 307 308 329 328 454 455 476 475
8 308 309 330 329 455 456 477 476
8 309 310 331 330 456 457 478 477
8 310 311 332 331 457 458 479 478
8 311 312 333 332 458 459 480 479
8 312 313 334 333 459 460 481 480
8 313 314 335 334 460 461 482 481
8 315 316 337 336 462 463 484 483
8 316 317 338 337 463 464 485 484
8 317 318 339 338 464 465 486 485
8 318 319 340 339 465 466 487 486
8 319 320 341 340 466 467 488 487
8 320 321 342 341 467 468 489 488
8 321 322 343 342 468 469 490 489
8 322 323 344 343 469 470 491 490
8 323 324 345 344 470 471 492 491
8 324 325 346 345 471 472 493 492
8 325 326 347 346 472 473 494 493
8 326 327 348 347 473 474 495 494
8 327 328 349 348 474 475 496 495
8 328 329 350 349 475 476 497 496
8 329 330 351 350 476 477 498 497
8 330 331 352 351 477 478 499 498
8 331 332 353 352 478 479 500 499
8 332 333 354 353 479 480 501 500
8 333 334 355 354 480 481 502 501
8 334 335 356 355 481 482 503 502
8 336 337 358 357 483 484 505 504
8 337 338 359 358 484 485 506 505
8 338 339 360 359 485 486 507 506
8 339 340 361 360 486 487 508 507
8 340 341 362 361 487 488 509 508
8 341 342 363 362 488 489 510 509
8 342 343 364 363 489 490 511 510
8 343 344 365 364 490 491 512 511
8 344 345 366 365 491 492 513 512
8 345 346 367 366 492 493 514 513
8 346 347 368 367 493 494 515 514
8 347 348 369 368 494 495 516 515
8 348 349 370 369 495 496 517 516
8 349 350 371 370 496 497 518 517
8 350 351 372 371 497 498 519 518
8 351 352 373 372 498 499 520 519
8 352 353 374 373 499 500 521 520
8 353 354 375 374 500 501 522 521
8 354 355 376 375 501 502 523 522
8 355 356 377 376 502 503 524 523
8 357 358 379 378 504 505 526 525
8 358 359 380 379 505 506 527 526
8 359 360 381 380 506 507 528 527
8 360 361 382 381 507 508 529 528
8 361 362 383 382 508 509 530 529
8 362 363 384 383 509 510 531 530
8 363 364 385 384 510 511 532 531
8 364 365 386 385 511 512 533 532
8 365 366 387 386 512 513 534 533
8 366 367 388 387 513 514 535 534
8 367 368 389 388 514 515 536 535
8 368 369 390 389 515 516 537 536
8 369 370 391 390 516 517 538 537
8 370 371 392 391 517 518 539 538
8 371 372 393 392 518 519 540 539
8 372 373 394 393 519 520 541 540
8 373 374 395 394 520 521 542 541
8 374 375 396 395 521 522 543 542
8 375 376 397 396 522 523 544 543
8 376 377 398 397 523 524 545 544
8 378 379 400 399 525 526 547 546
8 379 380 401 400 526 527 548 547
8 380 381 402 401 527 528 549 548
8 381 382 403 402 528 529 550 549
8 382 383 404 403 529 530 551 550
8 383 384 405 404 530 531 552 551
8 384 385 406 405 531 532 553 552
8 385 386 407 406 532 533 554 553
8 386 387 408 407 533 534 555 554
8 387 388 409 408 534 535 556 555
8 388 389 410 409 535 536 557 556
8 389 390 411 410 536 537 558 557
8 390 391 412 411 537 538 559 558
8 391 392 413 412 538 539 560 559
8 392 393 414 413 539 540 561 560
8 393 394 415 414 540 541 562 561
8 394 395 416 415 541 542 563 562
8 395 396 417 416 542 543 564 563
8 396 397 418 417 543 544 565 564
8 397 398 419 418 544 545 566 565
8 399 400 421 420 546 547 568 567
8 400 401 422 421 547 548 569 568
8 401 402 423 422 548 549 570 569
8 402 403 424 423 549 550 571 570
8 403 404 425 424 550 551 572 571
8 404 405 426 425 551 552 573 572
8 405 406 427 426 552 553 574 573
8 406 407 428 427 553 554 575 574
8 407 408 429 428 554 555 576 575
8 408 409 430 429 555 556 577 576
8 409 410 431 430 556 557 578 577
8 410 411 432 431 557 558 579 578
8 411 412 433 432 558 559 580 579
8 412 413 434 433 559 560 581 580
8 413 414 435 434 560 561 582 581
8 414 415 436 435 561 562 583 582
8 415 416 437 436 562 563 584 583
8 416 417 438 437 563 564 585 584
8 417 418 439 438 564 565 586 585
8 418 419 440 439 565 566 587 586
8 441 442 463 462 588 589 610 609
8 442 443 464 463 589 590 611 610
8 443 444 465 464 590 591 612 611
8 444 445 466 465 591 592 613 612
8 445 446 467 466 592 593 614 613
8 446 447 468 467 593 594 615 614
8 447 448 469 468 594 595 616 615
8 448 449 470 469 595 596 617 616
8 449 450 471 470 596 597 618 617
8 450 451 472 471 597 598 619 618
8 451 452 473 472 598 599 620 619
8 452 453 474 473 599 600 621 620
8 453 454 475 474 600 601 622 621
8 454 455 476 475 601 602 623 622
8 455 456 477 476 602 603 624 623
8 456 457 478 477 603 604 625 624
8 457 458 479 478 604 605 626 625
8 458 459 480 479 605 606 627 626
8 459 460 481 480 606 607 628 627
8 460 461 482 481 607 608 629 628
8 462 463 484 483 609 610 631 630
8 463 464 485 484 610 611 632 631
8 464 465 486 485 611 612 633 632
8 465 466 487 486 612 613 634 633
8 466 467 488 487 613 614 635 634
8 467 468 489 488 614 615 636 635
8 468 469 490 489 615 616 637 636
8 469 470 491 490 616 617 638 637
8 470 471 492 491 617 618 639 638
8 471 472 493 492 618 619 640 639
8 472 473 494 493 619 620 641 640
8 473 474 495 494 620 621 642 641
8 474 475 496 495 621 622 643 642
8 475 476 497 496 622 623 644 643
8 476 477 498 497 623 624 645 644
8 477 478 499 498 624 625 646 645
8 478 479 500 499 625 626 647 646
8 479 480 501 500 626 627 648 647
8 480 481 502 501 627 628 649 648
8 481 482 503 502 628 629 650 649
8 483 484 505 504 630 631 652 651
8 484 485 506 505 631 632 653 652
8 485 486 507 506 632 633 654 653
8 486 487 508 507 633 634 655 654
8 487 488 509 508 634 635 656 655
8 488 489 510 509 635 636 657 656
8 489 490 511 510 636 637 658 657
8 490 491 512 511 637 638 659 658
8 491 492 513 512 638 639 660 659
8 492 493 514 513 639 640 661 660
8 493 494 515 514 640 641 662 661
8 494 495 516 515 641 642 663 662
8 495 496 517 516 642 643 664 663
8 496 497 518 517 643 644 665 664
8 497 498 519 518 644 645 666 665
8 498 499 520 519 645 646 667 666
8 499 500 521 520 646 647 668 667
8 500 501 522 521 647 648 669 668
8 501 502 523 522 648 649 670 669
8 502 503 524 523 649 650 671 670
8 504 505 526 525 651 652 673 672
8 505 506 527 526 652 653 674 673
8 506 507 528 527 653 654 675 674
8 507 508 529 528 654 655 676 675
8 508 509 530 529 655 656 677 676
8 509 510 531 530 656 657 678 677
8 510 511 532 531 657 658 679 678
8 511 512 533 532 658 659 680 679
8 512 513 534 533 659 660 681 680
8 513 514 535 534 660 661 682 681
8 514 515 536 535 661 662 683 682
8 515 516 537 536 662 663 684 683
8 516 517 538 537 663 664 685 684
8 517 518 539 538 664 665 686 685
8 518 519 540 539 665 666 687 686
8 519 520 541 540 666 667 688 687
8 520 521 542 541 667 668 689 688
8 521 522 543 542 668 669 690 689
8 522 523 544 543 669 670 691 690
8 523 524 545 544 670 671 692 691
8 525 526 547 546 672 673 694 693
8 526 527 548 547 673 674 695 694
8 527 528 549 548 674 675 696 695
8 528 529 550 549 675 676 697 696
8 529 530 551 550 676 677 698 697
8 530 531 552 551 677 678 699 698
8 531 532 553 552 678 679 700 699
8 532 533 554 553 679 680 701 700
8 533 534 555 554 680 681 702 701
8 534 535 556 555 681 682 703 702
8 535 536 557 556 682 683 704 703
8 536 537 558 557 683 684 705 704
8 537 538 559 558 684 685 706 705
8 538 539 560 559 685 686 707 706
8 539 540 561 560 686 687 708 707
8 540 541 562 561 687 688 709 708
8 541 542 563 562 688 689 710 709
8 542 543 564 563 689 690 711 710
8 543 544 565 564 690 691 712 711
8 544 545 566 565 691 692 713 712
8 546 547 568 567 693 694 715 714
8 547 548 569 568 694 695 716 715
8 548 549 570 569 695 696 717 716
8 549 550 571 570 696 697 718 717
8 550 551 572 571 697 698 719 718
8 551 552 573 572 698 699 720 719
8 552 553 574 573 699 700 721 720
8 553 554 575 574 700 701 722 721
8 554 555 576 575 701 702 723 722
8 555 556 577 576 702 703 724 723
8 556 557 578 577 703 704 725 724
8 557 558 579 578 704 705 726 725
8 558 559 580 579 705 706 727 726
8 559 560 581 580 706 707 728 727
8 560 561 582 581 707 708 729 728
8 561 562 583 582 708 709 730 729
8 562 563 584 583 709 710 731 730
8 563 564 585 584 710 711 732 731
8 564 565 586 585 711 712 733 732
8 565 566 587 586 712 713 734 733
8 588 589 610 609 735 736 757 756
8 589 590 611 610 736 737 758 757
8 590 591 612 611 737 738 759 758
8 591 592 613 612 738 739 760 759
8 592 593 614 613 739 740 761 760
8 593 594 615 614 740 741 762 761
8 594 595 616 615 741 742 763 762
8 595 596 617 616 742 743 764 763
8 596 597 618 617 743 744 765 764
8 597 598 619 618 744 745 766 765
8 598 599 620 619 745 746 767 766
8 599 600 621 620 746 747 768 767
8 600 601 622 621 747 748 769 768
8 601 602 623 622 748 749 770 769
8 602 603 624 623 749 750 771 770
8 603 604 625 624 750 751 772 771
8 604 605 626 625 751 752 773 772
8 605 606 627 626 752 753 774 773
8 606 607 628 627 753 754 775 774
8 607 608 629 628 754 755 776 775
8 609 610 631 630 756 757 778 777
8 610 611 632 631 757 758 779 778
8 611 612 633 632 758 759 780 779
8 612 613 634 633 759 760 781 780
8 613 614 635 634 760 761 782 781
8 614 615 636 635 761 762 783 782
8 615 616 637 636 762 763 784 783
8 616 617 638 637 763 764 785 784
8 617 618 639 638 764 765 786 785
8 618 619 640 639 765 766 787 786
8 619 620 641 640 766 767 788 787
8 620 621 642 641 767 768 789 788
8 621 622 643 642 768 769 790 789
8 622 623 644 643 769 770 791 790
8 623 624 645 644 770 771 792 791
8 624 625 646 645 771 772 793 792
8 625 626 647 646 772 773 794 793
8 626 627 648 647 773 774 795 794
8 627 628 649 648 774 775 796 795
8 628 629 650 649 775 776 797 796
8 630 631 652 651 777 778 799 798
8 631 632 653 652 778 779 800 799
8 632 633 654 653 779 780 801 800
8 633 634 655 654 780 781 802 801
8 634 635 656 655 781 782 803 802
8 635 636 657 656 782 783 804 803
8 636 637 658 657 783 784 805 804
8 637 638 659 658 784 785 806 805
8 638 639 660 659 785 786 807 806
8 639 640 661 660 786 787 808 807
8 640 641 662 661 787 788 809 808
8 641 642 663 662 788 789 810 809
8 642 643 664 663 789 790 811 810
8 643 644 665 664 790 791 812 811
8 644 645 666 665 791 792 813 812
8 645 646 667 666 792 793 814 813
8 646 647 668 667 793 794 815 814
8 647 648 669 668 794 795 816 815
8 648 649 670 669 795 796 817 816
8 649 650 671 670 796 797 818 817
8 651 652 673 672 798 799 820 819
8 652 653 674 673 799 800 821 820
8 653 654 675 674 800 801 822 821
8 654 655 676 675 801 802 823 822
8 655 656 677 676 802 803 824 823
8 656 657 678 677 803 804 825 824
8 657 658 679 678 804 805 826 825
8 658 659 680 679 805 806 827 826
8 659 660 681 680 806 807 828 827
8 660 661 682 681 807 808 829 828
8 661 662 683 682 808 809 830 829
8 662 663 684 683 809 810 831 830
8 663 664 685 684 810 811 832 831
8 664 665 686 685 811 812 833 832
8 665 666 687 686 812 813 834 833
8 666 667 688 687 813 814 835 834
8 667 668 689 688 814 815 836 835
8 668 669 690 689 815 816 837 836
8 669 670 691 690 816 817 838 837
8 670 671 692 691 817 818 839 838
8 672 673 694 693 819 820 841 840
8 673 674 695 694 820 821 842 841
8 674 675 696 695 821 822 843 842
8 675 676 697 696 822 823 844 843
8 676 677 698 697 823 824 845 844
8 677 678 699 698 824 825 846 845
8 678 679 700 699 825 826 847 846
8 679 680 701 700 826 827 848 847
8 680 681 702 701 827 828 849 848
8 681 682 703 702 828 829 850 849
8 682 683 704 703 829 830 851 850
8 683 684 705 704 830 831 852 851
8 684 685 706 705 831 832 853 852
8 685 686 707 706 832 833 854 853
8 686 687 708 707 833 834 855 854
8 687 688 709 708 834 835 856 855
8 688 689 710 709 835 836 857 856
8 689 690 711 710 836 837 858 857
8 690 691 712 711 837 838 859 858
8 691 692 713 712 838 839 860 859
8 693 694 715 714 840 841 862 861
8 694 695 716 715 841 842 863 862
8 695 696 717 716 842 843 864 863
8 696 697 718 717 843 844 865 864
8 697 698 719 718 844 845 866 865
8 698 699 720 719 845 846 867 866
8 699 700 721 720 846 847 868 867
8 700 701 722 721 847 848 869 868
8 701 702 723 722 848 849 870 869
8 702 703 724 723 849 850 871 870
8 703 704 725 724 850 851 872 871
8 704 705 726 725 851 852 873 872
8 705 706 727 726 852 853 874 873
8 706 707 728 727 853 854 875 874
8 707 708 729 728 854 855 876 875
8 708 709 730 729 855 856 877 876
8 709 710 731 730 856 857 878 877
8 710 711 732 731 857 858 879 878
8 711 712 733 732 858 859 880 879
8 712 713 734 733 859 860 881 880
8 735 736 757 756 882 883 904 903
8 736 737 758 757 883 884 905 904
8 737 738 759 758 884 885 906 905
8 738 739 760 759 885 886 907 906
8 739 740 761 760 886 887 908 907
8 740 741 762 761 887 888 909 908
8 741 742 763 762 888 889 910 909
8 742 743 764 763 889 890 911 910
8 743 744 765 764 890 891 912 911
8 744 745 766 765 891 892 913 912
8 745 746 767 766 892 893 914 913
8 746 747 768 767 893 894 915 914
8 747 748 769 768 894 895 916 915
8 748 749 770 769 895 896 917 916
8 749 750 771 770 896 897 918 917
8 750 751 772 771 897 898 919 918
8 751 752 773 772 898 899 920 919
8 752 753 774 773 899 900 921 920
8 753 754 775 774 900 901 922 921
8 754 755 776 775 901 902 923 922
8 756 757 778 777 903 904 925 924
8 757 758 779 778 904 905 926 925
8 758 759 780 779 905 906 927 926
8 759 760 781 780 906 907 928 927
8 760 761 782 781 907 908 929 928
8 761 762 783 782 908 909 930 929
8 762 763 784 783 909 910 931 930
8 763 764 785 784 910 911 932 931
8 764 765 786 785 911 912 933 932
8 765 766 787 786 912 913 934 933
8 766 767 788 787 913 914 935 934
8 767 768 789 788 914 915 936 935
8 768 769 790 789 915 916 937 936
8 769 770 791 790 916 917 938 937
8 770 771 792 791 917 918 939 938
8 771 772 793 792 918 919 940 939
8 772 773 794 793 919 920 941 940
8 773 774 795 794 920 921 942 941
8 774 775 796 795 921 922 943 942
8 775 776 797 796 922 923 944 943
8 777 778 799 798 924 925 946 945
8 778 779 800 799 925 926 947 946
8 779 780 801 800 926 927 948 947
8 780 781 802 801 927 928 949 948
8 781 782 803 802 928 929 950 949
8 782 783 804 803 929 930 951 950
8 783 784 805 804 930 931 952 951
8 784 785 806 805 931 932 953 952
8 785 786 807 806 932 933 954 953
8 786 787 808 807 933 934 955 954
8 787 788 809 808 934 935 956 955
8 788 789 810 809 935 936 957 956
8 789 790 811 810 936 937 958 957
8 790 791 812 811 937 938 959 958
8 791 792 813 812 938 939 960 959
8 792 793 814 813 939 940 961 960
8 793 794 815 814 940 941 962 961
8 794 795 816 815 941 942 963 962
8 795 796 817 816 942 943 964 963
8 796 797 818 817 943 944 965 964
8 798 799 820 819 945 946 967 966
8 799 800 821 820 946 947 968 967
8 800 801 822 821 947 948 969 968
8 801 802 823 822 948 949 970 969
8 802 803 824 823 949 950 971 970
8 803 804 825 824 950 951 972 971
8 804 805 826 825 951 952 973 972
8 805 806 827 826 952 953 974 973
8 806 807 828 827 953 954 975 974
8 807 808 829 828 954 955 976 975
8 808 809 830 829 955 956 977 976
8 809 810 831 830 956 957 978 977
8 810 811 832 831 957 958 979 978
8 811 812 833 832 958 959 980 979
8 812 813 834 833 959 960 981 980
8 813 814 835 834 960 961 982 981
8 814 815 836 835 961 962 983 982
8 815 816 837 836 962 963 984 983
8 816 817 838 837 963 964 985 984
8 817 818 839 838 964 965 986 985
8 819 820 841 840 966 967 988 987
8 820 821 842 841 967 968 989 988
8 821 822 843 842 968 969 990 989
8 822 823 844 843 969 970 991 990
8 823 824 845 844 970 971 992 991
8 824 825 846 845 971 972 993 992
8 825 826 847 846 972 973 994 993
8 826 827 848 847 973 974 995 994
8 827 828 849 848 974 975 996 995
8 828 829 850 849 975 976 997 996
8 829 830 851 850 976 977 998 997
8 830 831 852 851 977 978 999 998
8 831 832 853 852 978 979 1000 999
8 832 833 854 853 979 980 1001 1000
8 833 834 855 854 980 981 1002 1001
8 834 835 856 855 981 982 1003 1002
8 835 836 857 856 982 983 1004 1003
8 836 837 858 857 983 984 1005 1004
8 837 838 859 858 984 985 1006 1005
8 838 839 860 859 985 986 1007 1006
8 840 841 862 861 987 988 1009 1008
8 841 842 863 862 988 989 1010 1009
8 842 843 864 863 989 990 1011 1010
8 843 844 865 864 990 991 1012 1011
8 844 845 866 865 991 992 1013 1012
8 845 846 867 866 992 993 1014 1013
8 846 847 868 867 993 994 1015 1014
8 847 848 869 868 994 995 1016 1015
8 848 849 870 869 995 996 1017 1016
8 849 850 871 870 996 997 1018 1017
8 850 851 872 871 997 998 1019 1018
8 851 852 873 872 998 999 1020 1019
8 852 853 874 873 999 1000 1021 1020
8 853 854 875 874 1000 1001 1022 1021
8 854 855 876 875 1001 1002 1023 1022
8 855 856 877 876 1002 1003 1024 1023
8 856 857 878 877 1003 1004 1025 1024
8 857 858 879 878 1004 1005 1026 1025
8 858 859 880 879 1005 1006 1027 1026
8 859 860 881 880 1006 1007 1028 1027
CELL_TYPES 720
12
12
12
12
12
12
12
12
12
12
12
12
12
12
12
12
12
12
12
12
12
12
12
12
12
12
12
12
12
12
12
12
12
12
12
12
12
12
12
12
12
12
12
12
12
12
12
12
12
12
12
12
12
12
12
12
12
12
12
12
12
12
12
12
12
12
12
12
12
12
12
12
12
12
12
12
12
12
12
12
12
12
12
12
12
12
12
12
12
12
12
12
12
12
12
12
12
12
12
12
12
12
12
12
12
12
12
12
12
12
12
12
12
12
12
12
12
12
12
12
12
12
12
12
12
12
12
12
12
12
12
12
12
12
12
12
12
12
12
12
12
12
12
12
12
12
12
12
12
12
12
12
12
12
12
12
12
12
12
12
12
12
12
12
12
12
12
12
12
12
12
12
12
12
12
12
12
12
12
12
12
12
12
12
12
12
12
12
12
12
12
12
12
12
12
12
12
12
12
12
12
12
12
12
12
12
12
12
12
12
12
12
12
12
12
12
12
12
12
12
12
12
12
12
12
12
12
12
12
12
12
12
12
12
12
12
12
12
12
12
12
12
12
12
12
12
12
12
12
12
12
12
12
12
12
12
12
12
12
12
12
12
12
12
12
12
12
12
12
12
12
12
12
12
12
12
12
12
12
12
12
12
12
12
12
12
12
12
12
12
12
12
12
12
12
12
12
12
12
12
12
12
12
12
12
12
12
12
12
12
12
12
12
12
12
12
12
12
12
12
12
12
12
12
12
12
12
12
12
12
12
12
12
12
12
12
12
12
12
12
12
12
12
12
12
12
12
12
12
12
12
12
12
12
12
12
12
12
12
12
12
12
12
12
12
12
12
12
12
12
12
12
12
12
12
12
12
12
12
12
12
12
12
12
12
12
12
12
12
12
12
12
12
12
12
12
12
12
12
12
12
12
12
12
12
12
12
12
12
12
12
12
12
12
12
12
12
12
12
12
12
12
12
12
12
12
12
12
12
12
12
12
12
12
12
12
12
12
12
12
12
12
12
12
12
12
12
12
12
12
12
12
12
12
12
12
12
12
12
12
12
12
12
12
12
12
12
12
12
12
12
12
12
12
12
12
12
12
12
12
12
12
12
12
12
12
12
12
12
12
12
12
12
12
12
12
12
12
12
12
12
12
12
12
12
12
12
12
12
12
12
12
12
12
12
12
12
12
12
12
12
12
12
12
12
12
12
12
12
12
12
12
12
12
12
12
12
12
12
12
12
12
12
12
12
12
12
12
12
12
12
12
12
12
12
12
12
12
12
12
12
12
12
12
12
12
12
12
12
12
12
12
12
12
12
12
12
12
12
12
12
12
12
12
12
12
12
12
12
12
12
12
12
12
12
12
12
12
12
12
12
12
12
12
12
12
12
12
12
12
12
12
12
12
12
12
12
12
12
12
12
12
12
12
12
12
12
12
12
12
12
12
12
12
12
12
12
12
12
12
12
12
12
12
12
12
12
12
12
12
12
12
12
12
12
12
12
12
12
12
12
12
12
12
12
12
12
12
12
12
12
12
12
12
12
12
12
12
12
12
12
12
12
12
12
12
12
12
12
12
12
12
12
12
12
12
12
12
12
12
12
12
12
12
12
12
12
12
12
12
12
12
12
12
12
12
12
12
12
12
POINT_DATA 1029
VECTORS Disp float
0.0 0.0 0.0
0.001829292523738425 -0.06633287422785042 0.0015877565699797145
0.004405060430841171 -0.12499765946439219 0.0034187724917425547
0.007967542850976488 -0.181506379632373 0.0048809326055445825
0.01303717701398295 -0.23432698516245504 0.006205858691421892
0.019685065939399747 -0.28221412713622696 0.007301301407640983
0.027883769680782898 -0.32385195738620143 0.008121694232413157
0.03758369234912479 -0.35796799665083867 0.008608756446110047
0.048652274045010095 -0.3833217834769628 0.008721693603910424
0.060760212787003595 -0.3988542401369297 0.008527244956698115
0.07336164547658172 -0.40402986686725545 0.00835126046077669
0.08596755668178327 -0.3989300248206562 0.008534256879970378
0.09808980470439915 -0.38347512039288284 0.008738177275892395
0.10918526544915465 -0.3582021136129962 0.008640152539999276
0.11892960280294695 -0.324170721748668 0.008177369095468661
0.12719811664115738 -0.2826200470713359 0.007396285442760249
0.1339522378596697 -0.23481770522732098 0.006361454943555539
0.1391801905583224 -0.18206862939736312 0.005133870960729476
0.14297326243224642 -0.12560550129931006 0.003792006146314684
0.14594677237906223 -0.06693739068590795 0.002254375650713311
0.14873068912865095 0.0 -1.2871375365241522e-05
0.026033994994527822 -0.002832590834074958 -0.0008336505403313712
0.027157631376916305 -0.06603842082755014 0.0008317615495790325
0.028063488531956823 -0.1253970343110234 0.0021657412176628744
0.030397941453793972 -0.18197553855817886 0.003296322295479019
0.03369134925916324 -0.23500181332512193 0.004242567689750419
0.03803976338650171 -0.2830693323005295 0.005021155163512646
0.043418291232515296 -0.3248892900436936 0.005598122346641154
0.04979280058059074 -0.35918006038658534 0.0059468736501823855
0.05707632799354982 -0.3846855824329143 0.006049117384385338
0.0650569471984229 -0.40030629320918565 0.005946769685343901
0.07337529667879575 -0.40548693233917854 0.0058379072798572795
0.08169838194500625 -0.40038332490024275 0.005944356284599642
0.08969401836168948 -0.384841646347288 0.006046382378335238
0.0970053405701726 -0.35941887577125914 0.00594855813924079
0.10342481894305666 -0.3252155064621819 0.005612809580511335
0.10887211662616297 -0.28348664929049605 0.005062799398741973
0.11332246604780696 -0.23550924499846154 0.004333808551840835
0.11676262815268404 -0.18256179438642284 0.0034673610042900995
0.11930963749860418 -0.12603932938364637 0.0024758364518351716
0.1205185839913966 -0.0666908026540094 0.0012851374796003187
0.12180468121695837 -0.002989252888477009 -0.00033620875041074456
0.050611541633166966 -0.004918105705166169 -0.001362336078860194
0.05119093543731859 -0.0659396006853526 -7.372344846306673e-05
0.05129203032061547 -0.12548759314670282 0.0008786279088057585
0.05219782777552823 -0.1822589605303192 0.001580671144115298
0.05375357283361117 -0.23538887029176647 0.0021178316772841026
0.05584673221144897 -0.28357057901755045 0.0025278181380175096
0.05847446799433803 -0.3254989555753192 0.002813150048558604
0.06162372007635829 -0.3598986206790427 0.002968003582396044
0.06527128899833642 -0.3854980723711832 0.002989419475556564
0.06929139044759905 -0.4011376651730431 0.002884768739136556
0.0733861206483078 -0.4062301764093206 0.0027667875896465535
0.0774856775612398 -0.4012160447529468 0.0028729458548758906
0.08152099108176183 -0.38565703813004326 0.002967462963460347
0.08519636961155067 -0.36014230666328106 0.00293992476723856
0.0883897598552515 -0.32583265584130794 0.002786561945164517
0.09108334300787735 -0.2839989152820996 0.002516048231177943
0.09327112951427284 -0.23591209268763702 0.0021425332578772563
0.09495870961549213 -0.18286633530696877 0.001676129142435537
0.09604070366806758 -0.12615784803002456 0.0010929348672629507
0.09628584794032048 -0.06656897395100145 0.00028759615362269745
0.09693514152427166 -0.005159429760589876 -0.0008561510856337125
0.07446669217188762 -0.006254655329449583 -0.0018345086261238107
0.07462239228697555 -0.0659563551105894 -0.0009543940875349187
0.07411159663368791 -0.12541233304067667 -0.00042196768014274115
0.0737306405977929 -0.18231495948853027 -0.0001739448463446861
0.07352855571602257 -0.23550518492848213 -7.027891132766934e-05
0.07339249987896551 -0.2837265667315598 -4.686182607580863e-05
0.07330037729374739 -0.3256955199564552 -7.494618147356572e-05
0.07326626315421211 -0.3601425522765296 -0.00013904190099526598
0.07334270436611545 -0.3857879658819321 -0.00022476089744914168
0.0734975029388937 -0.401359434833062 -0.00034899495818665474
0.07339577580468694 -0.4061844742727503 -0.0004989782962082378
0.07329889583960661 -0.4014392226654172 -0.00037029680378198123
0.07346888176919356 -0.38594992993617994 -0.0002661016905137262
0.07357275174846052 -0.3603911793634705 -0.00019720278088197996
0.07358133504626524 -0.32603660950563795 -0.00014328805629445474
0.07355112540709047 -0.28416549482049 -0.00011297461763055615
0.07350065103668316 -0.23604290607468958 -0.00011256458351453788
0.07341209296769804 -0.1829416101081596 -0.00015743308719436312
0.0731557507480183 -0.12609070742145495 -0.00029935807229028997
0.0727218762696212 -0.06656065935976951 -0.0006839091722532053
0.07291613720672196 -0.00655863824543534 -0.0014077831750459338
0.09812640983332739 -0.006970123130098685 -0.0023197176950754805
0.09790794500954325 -0.06598310400680696 -0.0017906698043728265
0.0968309947845084 -0.1252281454620503 -0.001701157524888869
0.09525950554822737 -0.18215903075852927 -0.0019186591614851005
0.09331360014424876 -0.2353464261596208 -0.002254478718948168
0.09094008771309817 -0.2835407450633989 -0.0026189142855004
0.08813204840259918 -0.32548130121600155 -0.002961849719216538
0.08490655899179893 -0.3599110936997084 -0.0032473013363952382
0.08138748856930803 -0.38556887962863495 -0.0034355996259467234
0.07772442245971156 -0.4010089117862241 -0.003518137078195381
0.07340569132126998 -0.40523754143930546 -0.0036527142995566694
0.06909185006681376 -0.40109015610716847 -0.0035490746476828598
0.06544400997852307 -0.38573391703853 -0.003496674365070961
0.06195208708744922 -0.36016470342722984 -0.0033361501167205264
0.058767981118420576 -0.3258296717496495 -0.003072920216849802
0.056017928697035015 -0.2839896736248736 -0.0027407790392666525
0.05372057723332545 -0.23589750930993375 -0.0023658587718771817
0.051865770991272764 -0.18280019012860332 -0.001983848624175
0.05037903466594986 -0.12590798864459557 -0.00166957811341869
0.049346058884479294 -0.06657146927246271 -0.0016134004064080427
0.049148648443721264 -0.007313909064819369 -0.0019862618142162006
0.1219443876091961 -0.007237823696077131 -0.0028423324833503584
0.12143088367183194 -0.06595546679408744 -0.002579749903703038
0.11980951346154098 -0.12495165156247268 -0.002929928800496192
0.1170887265786609 -0.18180643779152805 -0.003605830355792066
0.11339274142647837 -0.23491012627523117 -0.004367804692185123
0.1087569847224621 -0.2830086681201828 -0.005103207441980838
0.10319684703665327 -0.3248574832618597 -0.005743601431829898
0.09675839329301272 -0.3591900246155851 -0.00622911084567069
0.08948517529895188 -0.3848251564176923 -0.006501013559726496
0.08194511305166892 -0.4001853290722934 -0.0064084821805325855
0.07341731937122145 -0.4032176790002151 -0.006281513851389631
0.06489458255649994 -0.4002680957959889 -0.006449294744473733
0.05737015927709944 -0.38499337597421146 -0.006582345919227333
0.05012444218340679 -0.3594487148730946 -0.006349548529109182
0.043726967615047116 -0.3252130716544671 -0.005898813533286801
0.038222160823607486 -0.28346709577635093 -0.0052829374264063925
0.033653868355603134 -0.23547271612551512 -0.004551354759109491
0.030027522715863376 -0.18245808009218206 -0.003756331190062307
0.027358170493693858 -0.12563229002709198 -0.002991648222203642
0.025754966159974198 -0.06653595933881547 -0.0024949878717389217
0.025246777188762205 -0.007600757096597223 -0.0025990652531279633
0.14611665399356627 -0.007292416469402697 -0.0033844076132470684
0.14553477804885104 -0.06586270021313279 -0.0033231840951163036
0.14347492815282656 -0.12458815106232193 -0.00406633047948796
0.13956229822192595 -0.18125222328528678 -0.005160042517501372
0.1340725339224421 -0.23418769348820184 -0.006305271663040881
0.1271266890540867 -0.28212056622447557 -0.007367969475339579
0.11874879649876145 -0.3238025339990075 -0.00826013146644447
0.10899130845270323 -0.35799373274505375 -0.008898602566557848
0.09794561812469615 -0.383417585252829 -0.009204746796656602
0.08565395211931298 -0.39904284091889625 -0.00887855958733541
0.07343239015734268 -0.4 -0.007545052675242692
0.061216302288937915 -0.3991272570745086 -0.008929555354758586
0.04894144601490136 -0.3835892155519214 -0.009307003820115397
0.037924887175352945 -0.3582577657921231 -0.009051756396189787
0.028209828316145324 -0.32416549568392183 -0.00846122292518348
0.019887143793443023 -0.2825881459944313 -0.007608101053208426
0.013003460988144495 -0.23475987602776283 -0.006564432477408191
0.007565311110013918 -0.18191029776321066 -0.005399736649473
0.0036676738092379186 -0.12526743503094984 -0.004223938172441648
0.0015864837196397335 -0.06643820203258458 -0.003327975254536196
0.0009895116223254657 -0.007659405231183919 -0.003220736591194003
0.0 0.0 0.0
0.0017111262526889191 -0.06269464961530702 0.0010568355567405156
0.004338294470996147 -0.11990176307547866 0.0020185035096163075
0.008057220716916936 -0.17485201960483712 0.0029122781404979613
0.013190521649398105 -0.226252991588682 0.003602032197822738
0.019790118690034435 -0.27296207157665836 0.0040862025982388046
0.027832077441326694 -0.3138001769873844 0.004331575702637251
0.0372780474218882 -0.34763481403631935 0.004315458038837695
0.048090635774105564 -0.3733579453649831 0.004048485842082304
0.06022557636141486 -0.389805202094103 0.0036445160677364375
0.07337646866136491 -0.3956263064835348 0.003410842337496338
0.08652888850557239 -0.3898349350754872 0.003646917468977883
0.0986686248069023 -0.373417319612386 0.004055021756613788
0.10948999760132373 -0.347723614153181 0.004329954391505113
0.11895024813227578 -0.3139179167502819 0.004360664334475779
0.1270149298942682 -0.2731074435600427 0.004139923550041518
0.13365095632071908 -0.22642252372166266 0.003695599684348851
0.13884466096233727 -0.1750372491541188 0.003061787526903393
0.14266177850343498 -0.12008606706210173 0.002267784691724938
0.14548291210428516 -0.06287098086200507 0.0013443995983644964
0.14765504852213218 0.0 0.0011800692039493014
0.025297364405002236 -0.0018228329268268019 0.000155769913115855
0.026321670201285615 -0.06260341255348595 0.0004845438585764155
0.02757254986241385 -0.120306536351504 0.0012601809755640012
0.03007039537919419 -0.17535864540751153 0.001896227351795501
0.03348776591160808 -0.2269492697682861 0.002389356168118629
0.03788312834907909 -0.27383540715668364 0.0027190543004717467
0.043239532755366426 -0.31485302641774326 0.0028804495745684087
0.049528598516961744 -0.34886576430860033 0.002867039235987843
0.05671083578114444 -0.37477138665444804 0.00269391076862631
0.06473172172371963 -0.39140551866674245 0.002426181040504374
0.07338311105977799 -0.39734306330258407 0.0022550333166160147
0.08203600184400232 -0.39143557613636876 0.002419988811435076
0.09006158668504312 -0.374831431621823 0.002682876901643048
0.0972523613232415 -0.34895563685849074 0.0028543018404449372
0.10355510699356615 -0.31497236071200335 0.0028717310486803473
0.10893273926970212 -0.27398315936667095 0.0027239863720729353
0.11336145463989858 -0.22712248951887415 0.002422151893201119
0.11683181692195274 -0.1755497779685155 0.001980393978831138
0.1194205723512797 -0.12050245886776428 0.0014169898641854268
0.12083087745832677 -0.06280470899372542 0.0007976897926774454
0.1219465209077775 -0.001854259564233412 0.0008930951290312284
0.049591112066774024 -0.003209541098584314 -0.0002804453652857029
0.05015899284067306 -0.06259115151705111 -2.1877986617561352e-05
0.050595032080670274 -0.12045672287144002 0.00048764345012268593
0.051739304845377976 -0.17566700605602714 0.0009021214083217021
0.053447676273823075 -0.22735673597509667 0.0011900243955343698
0.055637589588308514 -0.2743504053769116 0.0013638142016925616
0.05830892678742026 -0.3154724264135861 0.0014307159047845463
0.061437256826062284 -0.3495849718193581 0.0013968701797361471
0.06497909128115967 -0.3755917772903028 0.001270126047506732
0.06894413940323113 -0.39237440224481096 0.0010561999824785675
0.07339028972343203 -0.3984918346939623 0.000867327416996582
0.07783789857336067 -0.3924049321553521 0.0010415301039855486
0.08180747555577456 -0.3756527832079872 0.0012418020126393117
0.0853574024311583 -0.349676328189071 0.0013574371786610555
0.08849833865129401 -0.31559383167840843 0.0013853160786123078
0.09118855858366903 -0.2745009771233986 0.00132174404926282
0.09340688074877546 -0.22753387154302135 0.001167000954122843
0.09515948000744348 -0.1758636340458733 0.0009222077436570426
0.0963771958279547 -0.12066366377718082 0.0005863581996787135
0.096889978185714 -0.06278044841949365 0.0002383848036008397
0.09749182938494491 -0.003238957230082863 0.00027645821540298683
0.07338384821423935 -0.004141052801979708 -0.0008683009598875059
0.07357633876859691 -0.0626339859488594 -0.0005786036061636787
0.07336571988555149 -0.12045010131762375 -0.00028280568119649067
0.07325277901790281 -0.17575773180465773 -9.461948099267669e-05
0.07323182877203092 -0.22749329361322507 -1.2998544880458793e-05
0.07321860593894408 -0.27452060465029116 -2.472423101860834e-06
0.07320457136131198 -0.31567729557413027 -3.918592586981407e-05
0.07318060752673601 -0.3498135342096018 -0.00010891457697932133
0.0730934719860275 -0.37584071793993534 -0.00020845672040703967
0.07302247062653365 -0.3927676909511906 -0.0003888022369281666
0.07339773448608804 -0.39922678887369734 -0.0006452285112651133
0.0737744039481646 -0.39279883406922156 -0.00041196588073618074
0.07370772040262616 -0.37590295608569074 -0.0002540961693378558
0.07362812126514964 -0.3499067451000225 -0.00017503641287213898
0.07361545682140122 -0.31580117102791994 -0.00012118878445402106
0.07361743133953513 -0.27467430422917705 -9.103628629850762e-05
0.07362676501687382 -0.22767427584478084 -9.118387036406416e-05
0.07363950530539771 -0.17595984268399284 -0.00013466348738485658
0.07357207085974946 -0.12065905546442052 -0.00024068619003384109
0.07339659473237084 -0.0628053352901426 -0.00038151094002814544
0.07360567712640027 -0.004171989390278189 -0.0004369463733772439
0.09701320559750606 -0.004671534042238261 -0.001474979125317929
0.09686511682071353 -0.06267235020790343 -0.0011578740598249433
0.09606028067094266 -0.12033318253739508 -0.0010494911769858626
0.09476351975695244 -0.17564355277029692 -0.0010870332029508886
0.09302198227298006 -0.2273590063577609 -0.0012122629725457288
0.09080052946687184 -0.2743503503307475 -0.0013665250104043004
0.08809687777770117 -0.31547329034823157 -0.0015083302145074862
0.0849321622245429 -0.3495657376678636 -0.00161404279450414
0.08125313264141457 -0.3755224162912332 -0.0016785031886707312
0.07709927994401847 -0.3925625281368639 -0.0017778842419841627
0.07340533489222874 -0.3996689090154488 -0.0021272476084327674
0.06971274588614963 -0.3925944253449305 -0.0018097009423651495
0.06556300697843495 -0.3755861562027165 -0.0017418019118652212
0.06189096464949755 -0.3496611662947523 -0.0017074376543879995
0.05873624075289173 -0.3156000194356665 -0.0016278278698749697
0.05604567080176558 -0.2745073840492523 -0.0015029072960438385
0.053840788668698236 -0.2275438112869368 -0.0013472762985274802
0.052120095487432225 -0.1758493936373674 -0.0011887828792595972
0.050845321334319876 -0.12054023742674308 -0.0010682174528850075
0.05005327961461603 -0.06282977705349155 -0.0010281423396337323
0.04991350899250184 -0.004705164189668052 -0.00114916990627218
0.12071690950662603 -0.004899912663920049 -0.002031644104122825
0.12028113376410846 -0.06266447686276355 -0.0017232064716733563
0.11889928676969888 -0.12011902444756237 -0.0018063557304815858
0.11644893715323136 -0.17533307454092256 -0.002068665704912335
0.1129906559691064 -0.22694885911765167 -0.002399779471058925
0.10855670673206505 -0.2738352862686912 -0.00271484487944902
0.10316484394384497 -0.31485063153831216 -0.0029562066048634435
0.09683392911271567 -0.34884833208778654 -0.00308254337429522
0.08966458987248552 -0.3746460050315813 -0.003089867325650429
0.081384064876208 -0.3916333739867333 -0.002993602934906885
0.07341297311356955 -0.3999312129360558 -0.003364441562071432
0.0654432026487365 -0.39166617534091275 -0.0030343686371407104
0.057166638378102444 -0.3747115350882016 -0.003171479460277584
0.050003848605079435 -0.3489463756121364 -0.0032043592958766144
0.04368183871985784 -0.3149806379176261 -0.003115083986475139
0.038300604547363365 -0.2739959593534175 -0.002902049754187872
0.03387768064442039 -0.22713721935175357 -0.0025961870329276595
0.03042819260887403 -0.17554112210178624 -0.002238737295530295
0.027980555787942535 -0.12032355826243818 -0.0018946352034088182
0.026595316378659063 -0.06281349253018359 -0.001664601309868662
0.026160407208378422 -0.004934658657182142 -0.0017973788339018686
0.14462689396754308 -0.004972859407182689 -0.0024589746293544766
0.14404141277055663 -0.06259741012131831 -0.002252261747717219
0.14211842499303765 -0.11980329560406713 -0.0025574862916363343
0.13848061937726452 -0.17481637258587118 -0.003054150666642016
0.1332952151236551 -0.2262509352407038 -0.003595491099627602
0.1266507657714977 -0.272958329842514 -0.0040700259898937
0.11856960672217766 -0.31379832140458847 -0.004401281419563828
0.10907872483609746 -0.34760595863854915 -0.004536649222546376
0.09828781358649417 -0.3733100613655963 -0.004441148688311672
0.08656143313687956 -0.3897558955009297 -0.004092518681198599
0.07342035318223147 -0.4 -0.00393585265720715
0.060280574916064145 -0.3897897632593228 -0.004142641790341521
0.048558064640761914 -0.3733776987714616 -0.004541988969131998
0.03777342839565499 -0.34770706584457345 -0.004688528492224468
0.028290756947300315 -0.31393213375307216 -0.0046023115912491724
0.020218630072577924 -0.2731231013766683 -0.004312654363752404
0.013581427615104898 -0.22644278174956473 -0.003860883452442709
0.008395928036803803 -0.1750256318582249 -0.0033043954680437677
0.004743982173492513 -0.12000497456486381 -0.002730254636880094
0.0027980199603030702 -0.06274141166682357 -0.0022717771356200156
0.0022026997414793473 -0.005006096342144091 -0.0022976333382057085
0.0 0.0 0.0
0.002375501791376199 -0.06109818903706134 0.0004566307815409867
0.004996252783384484 -0.11729245145690002 0.0008568919166661498
0.00862870871842606 -0.1714293044766549 0.0012363768092840352
0.013614058119680125 -0.22220878710669212 0.001505299146762746
0.01997306069715605 -0.26853681958858755 0.0016416857358017953
0.027687248176427336 -0.30931336344899324 0.0016347581242066901
0.03676816950638867 -0.3434816427115544 0.0014869026933329106
0.04733262776674817 -0.3699534070552537 0.001229315969791412
0.05960563423542295 -0.3873522368225273 0.0009520178062455424
0.073380149702513 -0.39368093608026683 0.0008191945987714867
0.08715288897546476 -0.3873451867905008 0.0009522734002246145
0.09942029652614538 -0.3699371396696456 0.0012308890219561311
0.10997447653785752 -0.3434519166373948 0.0014921008787156
0.11903884399153922 -0.3092641619017118 0.001647414436439082
0.1267274921086119 -0.26846120910484494 0.0016672471316895518
0.13304785198971236 -0.22210072477967918 0.0015507486660070883
0.1379741830318328 -0.17128705296617264 0.0013090442404574089
0.1415187085458921 -0.11712164025291402 0.0009748884847186448
0.1439608175600553 -0.060894348176341914 0.0006562760844058253
0.14582322764980737 0.0 0.0006696056037014397
0.02540571111733833 -0.001576329248993251 1.650999704893735e-05
0.026454545902893253 -0.06108856872245183 0.00023433581732601317
0.027840691318467628 -0.11771360162437611 0.0005407013284236076
0.030324918456551702 -0.17196399195133438 0.0008169803262098893
0.033675704386812666 -0.22293560654323039 0.0010161590614606933
0.037942308078182385 -0.26944982932216915 0.0011175383567113505
0.043111810901047556 -0.31042216832099345 0.0011195863402473282
0.04919086828559681 -0.34480058498972155 0.0010294647115098826
0.056235848188655256 -0.3715184487062689 0.0008702972599265845
0.06435021031101465 -0.3892047479162396 0.0006957675275173341
0.0733791405775695 -0.39572023624498276 0.0006077349676000998
0.08240587118688905 -0.38919709088903615 0.000690659728671897
0.09051338609883211 -0.37150080918641204 0.0008608443487969242
0.09754611025438392 -0.3447683751498273 0.0010174112328305797
0.10360615521544413 -0.31036877511982164 0.0011080261063166948
0.10874781678670364 -0.26936735213674134 0.001111353287424885
0.11297446032955075 -0.22281655268470335 0.0010221206645531816
0.11626881863571119 -0.17180455061564365 0.0008453636901186664
0.1186670317387151 -0.11751442718930369 0.0006067829717714537
0.11990923701208832 -0.060837687949879246 0.00041636629686474735
0.12089852842472276 -0.0014984641915670453 0.0005314150770364129
0.04941658464886635 -0.0027173605407593508 -0.00015833986561897875
0.04995598197913674 -0.06106265154329254 -9.137022043064338e-06
0.05046389577349739 -0.11790645024223842 0.00020036184346058022
0.05166614685396226 -0.17230287026985108 0.0003841374622700894
0.05338215396412467 -0.2233785468601552 0.0005079970454721148
0.055544513164269754 -0.2700072942448086 0.0005649214263887452
0.05815266081177188 -0.3110959509517953 0.0005595343600986238
0.061191854841878585 -0.3455915801448185 0.0005010400799335428
0.06465199655687834 -0.37244577816010427 0.00040180567596608647
0.0686535304323701 -0.3903663308337676 0.0002837251226048252
0.07337874219446466 -0.39716516856923045 0.0002128503717727183
0.07810137205273142 -0.39035830774380437 0.00027339032279653243
0.08209494399067613 -0.37242727345135934 0.000381671036653206
0.08554110647930714 -0.34555771803832314 0.00047245246533037986
0.08855928301246549 -0.3110396253062574 0.0005251958790379606
0.09113793842887144 -0.2699197909128416 0.0005296094562724261
0.0932604009747908 -0.22325109022052292 0.0004795365627448913
0.09492310035303905 -0.1721300620208135 0.0003745188664785339
0.09605107294711554 -0.1176834429894666 0.00023308922335734728
0.09650142004107909 -0.060811685515245295 0.0001403338170257257
0.0970393063641436 -0.0026005828301982484 0.00022855832496973901
0.07287996104895908 -0.003483044033348753 -0.0004350741636552514
0.0730400479194846 -0.06106345376147409 -0.00027656462605774815
0.07287646657485305 -0.11792524727808779 -0.00014657282577440605
0.07285145040664127 -0.17241831260025134 -5.217408039450951e-05
0.07291064756190954 -0.2235358449348191 -3.5125559161697257e-06
0.07296367375444922 -0.2701996537104978 5.026821188583074e-06
0.0729991413274142 -0.3113252274077517 -1.4827767493989383e-05
0.07299425624171513 -0.3458414014028187 -5.309894472309443e-05
0.07286730160709227 -0.37271807032041626 -0.00010792222516378149
0.07277125824618894 -0.3908721061436208 -0.00018627379823855158
0.07337867446211077 -0.3981914011362021 -0.00024994857665126444
0.07398313854027266 -0.3908639722235073 -0.00020181976749594614
0.07387805660929206 -0.3726992379193903 -0.00013867974430571147
0.0737354742644227 -0.34580676787326436 -9.80471388851478e-05
0.07370768184365104 -0.311267303551654 -7.153530637580716e-05
0.0737122679426748 -0.27010905218823134 -5.846695343216372e-05
0.0737259136259551 -0.223402829073845 -6.476531906204783e-05
0.07373599590107993 -0.17223525311368365 -9.594348082076139e-05
0.07365919412426922 -0.11769265188453873 -0.0001434439116937614
0.07347344126160066 -0.06081981822743014 -0.00016539883628200865
0.07364405723397738 -0.003331993920446827 -0.00014330945857779297
0.0961646701993984 -0.003921942976683098 -0.0007405789509581475
0.09598743501828247 -0.06106270872128061 -0.0005509030363257217
0.09522202354929327 -0.11781659518457292 -0.0004928553775716149
0.09403689580949064 -0.17231406488088857 -0.0004872024530270761
0.0924422764776438 -0.22340340118476418 -0.0005134841982162464
0.09038185752172352 -0.2700243193515688 -0.0005537226118093703
0.0878380867158623 -0.31110835056914954 -0.0005885345297040587
0.08480977915777979 -0.3455607549702256 -0.000606497822724129
0.08116522019739512 -0.37233207379717315 -0.0006143574208201722
0.07691792312966969 -0.3906768946293495 -0.0006460268308194453
0.0733786132442586 -0.3989417297175974 -0.0006961310302287965
0.06983596178312665 -0.3906689101770494 -0.0006668867133801965
0.06557848934665322 -0.3723134617184286 -0.0006559561116601987
0.061916539946601595 -0.3455262481828127 -0.0006681700166716427
0.05886324375546687 -0.3110501790063847 -0.0006681612487884478
0.05628695069311383 -0.2699326540628425 -0.0006462204468131432
0.05418734211018339 -0.22326754379997715 -0.0006086015035607286
0.05254981268161702 -0.17212588811462115 -0.0005662343704502544
0.05132923689128076 -0.11758196736462798 -0.0005226094446457892
0.0505552832870437 -0.06082427322885692 -0.00047998561707822656
0.05039005346020793 -0.003744799120788851 -0.0005237143650714866
0.11951144191590068 -0.0041149984107038 -0.0010103581614389141
0.11904825003771885 -0.06102976915350839 -0.0008051619563058304
0.11770382407245054 -0.11759995734784935 -0.0008308040776649639
0.11539277674675627 -0.17200063035903046 -0.0009161221345546124
0.11215160270135945 -0.22298022448355592 -0.0010170186434609741
0.10797983592252575 -0.2694834216304383 -0.0011029923542119004
0.10286925575222178 -0.31044144866421347 -0.0011465055602310106
0.09680178138047843 -0.34477425765196695 -0.0011332589224116877
0.08982638182755118 -0.3713213281497314 -0.0010754503540451195
0.08141824314703835 -0.38961822440112126 -0.0010333505098523168
0.07337823422117676 -0.39954856391922117 -0.0010419069909597622
0.06533444423078091 -0.3896106451644919 -0.0010597464139309961
0.05691483487124314 -0.3713034758928076 -0.0011283880985641826
0.04991998558484641 -0.3447407583442692 -0.0012125505749025335
0.04382495259691088 -0.31038436845823336 -0.0012505715796407137
0.0386793717031403 -0.2693926579186122 -0.001227022898871403
0.034467788887305575 -0.22284461355947524 -0.0011500409046705932
0.031188701160738887 -0.17181220913839435 -0.0010366456280549293
0.028853577174729216 -0.1173671087674597 -0.0009019034346112859
0.02750810793589254 -0.06079393883883802 -0.0007774957606227653
0.02705731778301155 -0.003921434576758587 -0.0008547210719908503
0.14306098078261348 -0.004183836729127064 -0.0011615370127271867
0.14244436732727228 -0.06095189449394155 -0.0010139606167328093
0.1405590725359082 -0.11728122036183715 -0.001146650184615136
0.13710049136956792 -0.17148203690062042 -0.0013268434680079415
0.13221301890097856 -0.22227270257440507 -0.00149920815750505
0.12594294920190335 -0.26858241578408765 -0.0016216107045403643
0.11828079823144798 -0.3093440123382478 -0.0016579700473072665
0.10920732441941186 -0.3434487622792203 -0.0015885952727372975
0.09877283000028309 -0.36987617373514464 -0.001430064507088039
0.08721568111192099 -0.3874342588173453 -0.0012650390997405178
0.07337725884105518 -0.4 -0.0011878284744313045
0.05953453773527538 -0.3874273257311367 -0.0012973193472480863
0.04796437327769367 -0.3698595900180774 -0.0014951321168155695
0.037507906533179175 -0.3434171065656938 -0.001686956843529802
0.02840352279375458 -0.30928928308298437 -0.0017889909898878725
0.020702603307827784 -0.2684944348513158 -0.001781463530937743
0.014389911832983061 -0.2221403655634355 -0.0016773872877935054
0.009466174464469951 -0.17129789993300315 -0.001500468317772132
0.005993304373172184 -0.11705395205103722 -0.0012739843743315338
0.004119313203336864 -0.06071882035472155 -0.0010370386854786525
0.003519533908490726 -0.003982421186280247 -0.0010515613163682403
0.0 0.0 0.0
0.002519921490525427 -0.06066965012724891 -1.104123272495409e-15
0.0051551404802833 -0.11654864622805652 -2.0748230762560227e-15
0.008747128066849335 -0.17043741720095262 -3.007573162153491e-15
0.013658402328422959 -0.22105711624898788 -3.901271382163107e-15
0.01992035820570897 -0.26732941302390056 -4.85881246187137e-15
0.02752333158635434 -0.3081760509176956 -6.049080815271862e-15
0.036506430365849774 -0.3425514874040638 -7.443029404826006e-15
0.047038066146940415 -0.36933900612755677 -8.65547699946599e-15
0.05939809223330762 -0.3870570113280797 -9.733171169988885e-15
0.07337810855155352 -0.3935321003741803 -1.0868544641323689e-14
0.08735494164538951 -0.38703574668400503 -1.2068659511549215e-14
0.09970497243023835 -0.36929336185434836 -1.3190067472739674e-14
0.1102183448546156 -0.34247535084190983 -1.3743652044049903e-14
0.11917202768842539 -0.3080607595345377 -1.4791216291055647e-14
0.1267292247406978 -0.26716520789416964 -1.56114292240756e-14
0.13292042829199857 -0.2208363752857424 -1.7366246298219172e-14
0.13772219930627538 -0.17016081185804105 -1.924425013219693e-14
0.14114614005484144 -0.11622935012637492 -2.134718529503896e-14
0.14350134720610783 -0.060330495609915095 -2.3440452854148198e-14
0.14528568658480479 0.0 -2.4989741510072238e-14
0.025397083876179886 -0.0015242231251584905 -2.2810715367929355e-16
0.02645073288657579 -0.06068938626706634 -9.969889835685395e-16
0.02788730993786113 -0.11697799546614474 -1.9313383924816647e-15
0.030357867267633416 -0.17098148961016157 -2.908560297056077e-15
0.03367116748672252 -0.22179335294700947 -3.880289433357447e-15
0.03788409324931986 -0.26825579098646524 -4.92783172083709e-15
0.04299197019379786 -0.30930622642539024 -6.065976968138903e-15
0.04901908728127516 -0.3439057362007836 -7.346529492951731e-15
0.05605184265949485 -0.37095926346963437 -8.564832216581069e-15
0.06422258888255242 -0.38898529620733885 -9.862245942593194e-15
0.07337424775079003 -0.39565785316498836 -1.0986777467004834e-14
0.08252212703252074 -0.38896302767450985 -1.2271058854510616e-14
0.09068112374634993 -0.3709113713708605 -1.3585582296127777e-14
0.09769285904091729 -0.34382557302150396 -1.4581293099782016e-14
0.10368724416020697 -0.3091841984793359 -1.5738423960553254e-14
0.10874655495741413 -0.26808056985162243 -1.6934963505252863e-14
0.1128883093588111 -0.2215551358422701 -1.8464544767456714e-14
0.11609748174254865 -0.17067714318437455 -2.0201176404812454e-14
0.11841308973597962 -0.11661668356468492 -2.2028627953505765e-14
0.1196210350758625 -0.06027625404004604 -2.386358097031109e-14
0.12057332087656203 -0.001436565671004102 -2.5195451489285206e-14
0.04932284151134642 -0.0026516132445218847 -2.5196185418501017e-16
0.0498563033426033 -0.06066362859232391 -9.689936518144494e-16
0.05039774854629948 -0.11718013439244429 -1.8476671280300037e-15
0.05161191215561195 -0.1713235217540413 -2.8569946099400535e-15
0.053320864627274256 -0.22223889197919092 -3.868029281954594e-15
0.0554674680278775 -0.2688163646208277 -4.983300504147687e-15
0.05805515911650841 -0.3099862314394304 -6.140286569506449e-15
0.061077192295688185 -0.3447086922353395 -7.330831731587654e-15
0.06453647686259176 -0.3719068644498874 -8.690206561157699e-15
0.06856892064278813 -0.39017563304582503 -1.0055402131009975e-14
0.0733710340679874 -0.39714146907248016 -1.1219143267522298e-14
0.07816884526198428 -0.39015264802024857 -1.2645257639856134e-14
0.08218803185841428 -0.37185734347647287 -1.4031189366279451e-14
0.08562404143717273 -0.3446255642213686 -1.5308595058884384e-14
0.08861094437977954 -0.30985915378592865 -1.6662266576933408e-14
0.0911487840219806 -0.2686328021794081 -1.80294926395836e-14
0.0932262606979471 -0.22198689158797114 -1.9464105187811e-14
0.09484010355836744 -0.17099808645369163 -2.1035867661897268e-14
0.09592391333159016 -0.11678311112983744 -2.2694457417039195e-14
0.09636402019871734 -0.06025086984444089 -2.432443012331535e-14
0.09688299794538541 -0.002494807499197363 -2.5693350364344795e-14
0.07268131277718944 -0.003409619724351511 -2.1236816173470136e-16
0.07284003956253238 -0.06066157839837147 -9.31746820315565e-16
0.0727046125484185 -0.11720449414426497 -1.780423839048965e-15
0.0727062359952821 -0.17144377500057267 -2.8445952281481693e-15
0.0727867655753091 -0.22239909149515985 -3.857872961731356e-15
0.07285905344612079 -0.26901134429712137 -5.0313862679070224e-15
0.0729118221458975 -0.31021849811105695 -6.21678961366406e-15
0.07292069862496 -0.34496219813082224 -7.457883313052088e-15
0.07280217652622167 -0.3721842435483338 -8.86411520480869e-15
0.07271438573827513 -0.3906889452648245 -1.020425147069477e-14
0.07336811459684062 -0.39818827776973154 -1.1525892268113577e-14
0.0740170427237288 -0.3906655460274081 -1.3077884457485525e-14
0.07391457002330623 -0.3721337454706325 -1.4454354673054745e-14
0.07377069072282748 -0.3448772108811994 -1.600216862999232e-14
0.073742357925903 -0.31008814442797317 -1.749217497326976e-14
0.07374457761775022 -0.268822092160129 -1.897642059647847e-14
0.073751112475411 -0.22213754462961327 -2.0389873411096846e-14
0.07374758482368532 -0.17110205659557923 -2.1810160966212917e-14
0.07365850063285398 -0.1167933249059249 -2.3349654611959348e-14
0.07347847112905292 -0.06025976918386124 -2.4831828292222487e-14
0.07364413540362907 -0.0031948320133563446 -2.6284672034722755e-14
0.09584786244965329 -0.0038434713399179777 -1.6147196063779422e-16
0.09567949161309838 -0.06065822879743214 -8.87131043200181e-16
0.0949464947406701 -0.11709996976109954 -1.7571682273282607e-15
0.09380213779495031 -0.17134522657006324 -2.7670815197636483e-15
0.09225542560915975 -0.22227109523500418 -3.865557111314451e-15
0.0902492893289471 -0.2688391835379681 -5.0462363683439005e-15
0.08776052537538415 -0.3100030085453803 -6.330902718047244e-15
0.08477806620367831 -0.344679604700121 -7.574175180265492e-15
0.0811538120826551 -0.3717920872828925 -9.014715891338286e-15
0.07688903826216613 -0.3904851194022849 -1.0392605097005348e-14
0.07336514765589072 -0.398948264814763 -1.1822140019373045e-14
0.06983593244508067 -0.39046161346775965 -1.3375089715624442e-14
0.06555497180120688 -0.3717412722724512 -1.4955914092920293e-14
0.06190312818108564 -0.34459388006389335 -1.6640493439836812e-14
0.05888111405049595 -0.30987114132136845 -1.8279535147794315e-14
0.056340793468101544 -0.26864705573705305 -1.9931043768019154e-14
0.05427193565802799 -0.2220039998871353 -2.1287624325474974e-14
0.05265511736154716 -0.17099494156412715 -2.263217739983386e-14
0.0514504951298026 -0.11668595092055022 -2.3994267162589618e-14
0.05069830788329899 -0.06026478542358784 -2.5335310379226895e-14
0.050542613419547924 -0.0035871059111976613 -2.6876172102004268e-14
0.11906665433456615 -0.004033955910486315 -1.0809944762147509e-16
0.11862600291556598 -0.06062276221880032 -8.395147679619272e-16
0.11732519725932919 -0.11688684923129325 -1.7280913165960616e-15
0.11507219889685757 -0.17103757844608974 -2.7029852301627738e-15
0.11190727536280068 -0.2218529972826473 -3.8727192488560125e-15
0.10782719310184957 -0.26830104357219364 -5.1661239309051655e-15
0.10281313201741737 -0.30933421303578645 -6.341426346795548e-15
0.09682757377113826 -0.343884355647131 -7.618438081283786e-15
0.0898924693714397 -0.37076126302503676 -9.116251186752603e-15
0.08143380763775947 -0.3893970726243743 -1.0466600954311421e-14
0.07336179019295025 -0.39955553443767516 -1.205073646629078e-14
0.0652838488416341 -0.3893737616054944 -1.3597919999290378e-14
0.05680725269500007 -0.37071077965736005 -1.538300744018501e-14
0.049841854928328565 -0.3437989857605318 -1.7274006015035793e-14
0.04381358511403324 -0.30920257138573315 -1.9062868248665938e-14
0.03874554640079534 -0.26810875895944686 -2.08278591590304e-14
0.034604264774467736 -0.2215849257375862 -2.226371947807622e-14
0.03138102751832081 -0.17068616250956542 -2.3496487951853423e-14
0.029090639414895772 -0.1164758130943506 -2.4662854818410243e-14
0.027787194038664625 -0.06023423371960784 -2.5790232827344202e-14
0.027363279069332544 -0.00375262415997054 -2.7383323165636e-14
0.1424796771522031 -0.00409691685334765 -4.8275653929046557e-17
0.141898896662368 -0.06053841406982841 -7.833073336950404e-16
0.14007175679648465 -0.1165676582872811 -1.6344785038705022e-15
0.13669463129163512 -0.17051981179320508 -2.6286228770745125e-15
0.13191783526892775 -0.22114389330959094 -3.909853893130796e-15
0.12578312421669882 -0.2673928033741858 -5.326692070068839e-15
0.11826699333157213 -0.3082200261897061 -6.290393687664821e-15
0.10932265439657265 -0.34252654627348084 -7.611599812064474e-15
0.09895023401108605 -0.3692666114641796 -8.938073439423657e-15
0.0873331688629086 -0.38713131554262237 -1.0502360600535716e-14
0.073357683854467 -0.4 -1.2177348546061764e-14
0.05937554963537922 -0.3871084863105834 -1.3674777848580665e-14
0.04773839297611781 -0.3692170755351636 -1.5577762446046417e-14
0.037332188419078566 -0.34244257275690276 -1.7879312458192268e-14
0.02834060269706957 -0.30809024954115194 -1.9909427552100072e-14
0.02076572353626968 -0.2672029839884574 -2.1989049164377292e-14
0.014567386162888041 -0.22087942393548768 -2.3340979058706674e-14
0.00973839110971825 -0.17017453567717322 -2.4481461315063705e-14
0.006344684412733886 -0.11616607143282956 -2.5352722561638776e-14
0.004540014835763534 -0.060155526628089956 -2.6179633539663603e-14
0.003986300566340369 -0.0038043141998367366 -2.7679164971505322e-14
0.0 0.0 0.0
0.0023755017913781457 -0.06109818903706239 -0.0004566307815432047
0.0049962527833874865 -0.1172924514569016 -0.0008568919166701318
0.008628708718429887 -0.17142930447665577 -0.0012363768092899065
0.013614058119684351 -0.22220878710669192 -0.0015052991467705723
0.019973060697160344 -0.2685368195885872 -0.0016416857358116065
0.027687248176431683 -0.30931336344899296 -0.0016347581242183347
0.03676816950639343 -0.3434816427115544 -0.0014869026933460778
0.04733262776675343 -0.3699534070552539 -0.0012293159698070228
0.05960563423542867 -0.3873522368225262 -0.0009520178062640236
0.0733801497025191 -0.3936809360802655 -0.0008191945987924513
0.08715288897547184 -0.3873451867904988 -0.0009522734002479004
0.09942029652615346 -0.3699371396696416 -0.0012308890219813878
0.10997447653786611 -0.34345191663738683 -0.0014921008787429709
0.11903884399154768 -0.3092641619017019 -0.0016474144364686768
0.12672749210861878 -0.26846120910483184 -0.001667247131721831
0.13304785198971741 -0.22210072477966786 -0.0015507486660423563
0.13797418303183728 -0.17128705296616287 -0.0013090442404960997
0.14151870854589566 -0.11712164025290683 -0.0009748884847613757
0.14396081756005824 -0.06089434817633773 -0.0006562760844526166
0.14582322764980965 0.0 -0.0006696056037512081
0.025405711117340107 -0.0015763292489933652 -1.650999704941925e-05
0.026454545902895477 -0.06108856872245304 -0.0002343358173280425
0.027840691318470577 -0.1177136016243778 -0.0005407013284275577
0.030324918456555276 -0.17196399195133527 -0.0008169803262157401
0.03367570438681666 -0.22293560654323047 -0.0010161590614685546
0.037942308078186625 -0.26944982932216854 -0.0011175383567213152
0.04311181090105194 -0.31042216832099334 -0.0011195863402593043
0.04919086828560159 -0.3448005849897219 -0.001029464711523825
0.056235848188660176 -0.3715184487062693 -0.0008702972599430368
0.06435021031102009 -0.3892047479162386 -0.0006957675275363741
0.07337914057757564 -0.39572023624498176 -0.0006077349676217437
0.0824058711868955 -0.3891970908890344 -0.0006906597286959569
0.09051338609883905 -0.3715008091864084 -0.0008608443488232367
0.09754611025439155 -0.34476837514981956 -0.0010174112328594645
0.10360615521545147 -0.31036877511981187 -0.0011080261063479875
0.10874781678671039 -0.26936735213672724 -0.0011113532874591342
0.11297446032955659 -0.22281655268469194 -0.0010221206645903264
0.11626881863571623 -0.17180455061563382 -0.0008453636901591038
0.11866703173871984 -0.11751442718929639 -0.0006067829718156084
0.11990923701209269 -0.060837687949875006 -0.00041636629691238535
0.12089852842472673 -0.0014984641915665666 -0.0005314150770866727
0.04941658464886884 -0.002717360540759565 0.00015833986561842803
0.049955981979139426 -0.06106265154329374 9.137022041095456e-06
0.05046389577350035 -0.11790645024224002 -0.00020036184346442995
0.051666146853965686 -0.17230287026985208 -0.00038413746227591676
0.05338215396412842 -0.22337854686015535 -0.0005079970454800328
0.05554451316427374 -0.2700072942448081 -0.0005649214263987981
0.05815266081177621 -0.3110959509517953 -0.0005595343601109137
0.06119185484188297 -0.34559158014481883 -0.0005010400799481135
0.0646519965568829 -0.3724457781601048 -0.00040180567598322955
0.06865353043237538 -0.39036633083376693 -0.00028372512262456217
0.0733787421944704 -0.3971651685692297 -0.0002128503717951359
0.07810137205273736 -0.39035830774380226 -0.0002733903228214583
0.08209494399068237 -0.3724272734513567 -0.0003816710366806524
0.08554110647931383 -0.34555771803831575 -0.0004724524653607039
0.08855928301247218 -0.31103962530624785 -0.0005251958790709601
0.09113793842887813 -0.2699197909128278 -0.0005296094563084391
0.09326040097479701 -0.22325109022051126 -0.000479536562783836
0.09492310035304491 -0.17213006202080386 -0.0003745188665206621
0.09605107294712104 -0.11768344298945918 -0.00023308922340280406
0.09650142004108461 -0.06081168551524109 -0.00014033381707431757
0.09703930636414895 -0.0026005828301973915 -0.00022855832502100264
0.07287996104896194 -0.0034830440333491136 0.0004350741636547752
0.07304004791948761 -0.06106345376147526 0.0002765646260558122
0.07287646657485611 -0.11792524727808923 0.00014657282577066575
0.07285145040664456 -0.17241831260025242 5.217408038877691e-05
0.07291064756191318 -0.22353584493481915 3.5125559082213888e-06
0.07296367375445291 -0.27019965371049726 -5.0268211988576945e-06
0.07299914132741817 -0.3113252274077516 1.482776748139145e-05
0.07299425624171929 -0.34584140140281827 5.309894470805534e-05
0.0728673016070967 -0.3727180703204173 0.00010792222514594755
0.07277125824619393 -0.39087210614362083 0.000186273798218207
0.07337867446211595 -0.3981914011362007 0.000249948576628008
0.07398313854027802 -0.390863972223506 0.0002018197674701213
0.0738780566092978 -0.37269923791938775 0.0001386797442770796
0.07373547426442857 -0.34580676787325715 9.804713885339644e-05
0.07370768184365709 -0.3112673035516453 7.153530634112118e-05
0.07371226794268121 -0.27010905218821823 5.8466953394383154e-05
0.07372591362596169 -0.22340282907383335 6.476531902133243e-05
0.07373599590108634 -0.17223525311367366 9.594348077697403e-05
0.0736591941242756 -0.11769265188453146 0.0001434439116470147
0.07347344126160713 -0.06081981822742606 0.00016539883623240624
0.0736440572339839 -0.003331993920445707 0.00014330945852530558
0.09616467019940142 -0.003921942976683586 0.0007405789509578001
0.09598743501828547 -0.06106270872128158 0.0005509030363238612
0.09522202354929626 -0.11781659518457413 0.0004928553775679536
0.09403689580949375 -0.17231406488088966 0.0004872024530214185
0.0924422764776472 -0.22340340118476393 0.0005134841982083376
0.090381857521727 -0.2700243193515679 0.0005537226117988867
0.08783808671586593 -0.3111083505691493 0.0005885345296912193
0.08480977915778372 -0.34556075497022576 0.0006064978227085864
0.08116522019739955 -0.3723320737971747 0.0006143574208018817
0.07691792312967428 -0.39067689462935007 0.0006460268307984736
0.07337861324426331 -0.3989417297175962 0.00069613103020475
0.06983596178313176 -0.3906689101770485 0.00066688671335341
0.06557848934665828 -0.37231346171842594 0.0006559561116303682
0.06191653994660688 -0.34552624818280586 0.0006681700166385096
0.05886324375547233 -0.311050179006376 0.0006681612487520426
0.05628695069311994 -0.2699326540628294 0.0006462204467736181
0.05418734211019007 -0.2232675437999653 0.0006086015035182016
0.05254981268162397 -0.17212588811461094 0.0005662343704048507
0.05132923689128793 -0.11758196736462068 0.0005226094445977611
0.05055528328705106 -0.060824273228852976 0.0004799856170275746
0.050390053460215425 -0.0037447991207875553 0.0005237143650177671
0.11951144191590385 -0.004114998410704351 0.0010103581614387186
0.11904825003772193 -0.0610297691535092 0.0008051619563040713
0.11770382407245344 -0.11759995734785054 0.0008308040776614492
0.11539277674675913 -0.17200063035903151 0.0009161221345489676
0.11215160270136262 -0.2229802244835557 0.0010170186434531022
0.10797983592252897 -0.26948342163043704 0.0011029923542014643
0.10286925575222548 -0.31044144866421364 0.0011465055602179709
0.09680178138048254 -0.34477425765196673 0.0011332589223956475
0.08982638182755551 -0.3713213281497334 0.001075450354026467
0.08141824314704259 -0.3896182244011214 0.0010333505098308092
0.07337823422118134 -0.3995485639192208 0.0010419069909350194
0.06533444423078555 -0.38961064516449073 0.0010597464139033394
0.05691483487124749 -0.3713034758928052 0.0011283880985331327
0.04991998558485094 -0.34474075834426265 0.0012125505748678835
0.043824952596915684 -0.3103843684582247 0.001250571579602565
0.038679371703146094 -0.26939265791859984 0.0012270228988299477
0.03446778888731251 -0.22284461355946367 0.001150040904626256
0.031188701160746436 -0.1718122091383843 0.0010366456280078867
0.028853577174737344 -0.11736710876745246 0.0009019034345619538
0.02750810793590094 -0.060793938838834126 0.0007774957605711224
0.027057317783020025 -0.003921434576757259 0.0008547210719360566
0.1430609807826167 -0.004183836729127656 0.001161537012727105
0.14244436732727545 -0.060951894493942255 0.0010139606167311951
0.14055907253591116 -0.11728122036183822 0.0011466501846117629
0.13710049136957067 -0.1714820369006213 0.0013268434680023893
0.13221301890098133 -0.22227270257440485 0.0014992081574971999
0.12594294920190663 -0.2685824157840866 0.0016216107045301108
0.11828079823145177 -0.30934401233824765 0.0016579700472940167
0.10920732441941612 -0.3434487622792205 0.0015885952727208966
0.09877283000028741 -0.36987617373514614 0.0014300645070688327
0.08721568111192474 -0.38743425881734506 0.0012650390997186295
0.07337725884105942 -0.4 0.001187828474406362
0.059534537735279516 -0.38742732573113525 0.001297319347219504
0.04796437327769715 -0.3698595900180748 0.0014951321167831215
0.03750790653318255 -0.3434171065656873 0.0016869568434937162
0.028403522793758545 -0.3092892830829757 0.0017889909898479947
0.020702603307833065 -0.2684944348513041 0.0017814635308943953
0.014389911832990276 -0.22214036556342387 0.0016773872877472304
0.009466174464478385 -0.17129789993299321 0.0015004683177233984
0.005993304373181451 -0.11705395205103011 0.0012739843742808508
0.0041193132033463965 -0.06071882035471763 0.001037038685426071
0.0035195339085002534 -0.003982421186278909 0.0010515613163127966
0.0 0.0 0.0
0.0017111262526931298 -0.06269464961530907 -0.0010568355567431111
0.0043382944710023946 -0.11990176307548009 -0.0020185035096209995
0.008057220716924354 -0.17485201960483754 -0.0029122781405045923
0.013190521649406619 -0.22625299158868228 -0.0036020321978310595
0.019790118690044385 -0.27296207157665714 -0.004086202598248644
0.027832077441337817 -0.3138001769873813 -0.004331575702648539
0.03727804742189901 -0.3476348140363126 -0.004315458038850703
0.04809063577411542 -0.3733579453649749 -0.004048485842097287
0.06022557636142567 -0.38980520209409786 -0.003644516067754041
0.07337646866137748 -0.3956263064835279 -0.003410842337516121
0.08652888850558627 -0.38983493507547984 -0.0036469174690001932
0.09866862480691752 -0.3734173196123748 -0.004055021756638374
0.10948999760133915 -0.34772361415316644 -0.004329954391532267
0.11895024813229024 -0.31391791675026337 -0.004360664334505441
0.1270149298942813 -0.2731074435600227 -0.004139923550074221
0.13365095632073015 -0.2264225237216419 -0.0036955996843843096
0.138844660962346 -0.17503724915410068 -0.0030617875269422844
0.1426617785034418 -0.12008606706208724 -0.0022677846917676363
0.1454829121042907 -0.062870980861996 -0.001344399598411279
0.14765504852213657 0.0 -0.0011800692039989908
0.0252973644050058 -0.0018228329268271093 -0.00015576991311640727
0.02632167020129009 -0.06260341255348824 -0.00048454385857875663
0.027572549862419832 -0.12030653635150554 -0.0012601809755684553
0.030070395379201365 -0.1753586454075121 -0.0018962273518019095
0.03348776591161627 -0.22694926976828644 -0.0023893561681268185
0.03788312834908821 -0.273835407156683 -0.0027190543004817665
0.04323953275537642 -0.3148530264177403 -0.0028804495745802464
0.049528598516971695 -0.3488657643085926 -0.002867039236001669
0.056710835781154614 -0.37477138665443976 -0.002693910768642234
0.06473172172373046 -0.39140551866673756 -0.002426181040522858
0.07338311105979 -0.3973430633025773 -0.0022550333166370977
0.08203600184401552 -0.3914355761363613 -0.0024199888114586282
0.0900615866850569 -0.3748314316218122 -0.002682876901669095
0.09725236132325546 -0.3489556368584755 -0.0028543018404735055
0.10355510699357959 -0.3149723607119848 -0.0028717310487116838
0.10893273926971458 -0.27398315936665085 -0.002723986372107199
0.11336145463990999 -0.22712248951885322 -0.0024221518932383635
0.11683181692196265 -0.1755497779684967 -0.001980393978871758
0.11942057235128839 -0.12050245886774982 -0.0014169898642295126
0.12083087745833522 -0.06280470899371647 -0.0007976897927251291
0.12194652090778527 -0.0018542595642321359 -0.0008930951290813821
0.04959111206677895 -0.003209541098584825 0.00028044536528507675
0.0501589928406783 -0.06259115151705336 2.1877986615325083e-05
0.0505950320806762 -0.12045672287144182 -0.0004876434501269192
0.0517393048453849 -0.17566700605602809 -0.0009021214083279009
0.05344767627383086 -0.22735673597509704 -0.0011900243955425137
0.05563758958831706 -0.27435040537691074 -0.0013638142017027542
0.058308926787429306 -0.3154724264135834 -0.001430715904796831
0.06143725682607173 -0.34958497181935044 -0.0013968701797506108
0.06497909128116974 -0.37559177729029497 -0.0012701260475234163
0.06894413940324161 -0.39237440224480635 -0.0010561999824978095
0.0733902897234435 -0.3984918346939564 -0.000867327417018866
0.07783789857337314 -0.3924049321553448 -0.0010415301040102645
0.08180747555578713 -0.37565278320797524 -0.00124180201266669
0.08535740243117082 -0.34967632818905625 -0.0013574371786910908
0.08849833865130657 -0.31559383167838917 -0.0013853160786452836
0.09118855858368122 -0.2745009771233785 -0.001321744049298723
0.09340688074878725 -0.22753387154300042 -0.0011670009541619132
0.09515948000745451 -0.17586363404585398 -0.0009222077436992624
0.09637719582796538 -0.12066366377716667 -0.0005863581997241381
0.09688997818572463 -0.06278044841948471 -0.00023838480364946296
0.09749182938495521 -0.003238957230080644 -0.0002764582154542052
0.07338384821424514 -0.004141052801980419 0.0008683009598870548
0.07357633876860264 -0.06263398594886141 0.0005786036061615572
0.0733657198855576 -0.1204501013176257 0.0002828056811924959
0.07325277901790941 -0.1757577318046588 9.461948098665655e-05
0.07323182877203817 -0.2274932936132258 1.2998544872331551e-05
0.07321860593895205 -0.2745206046502906 2.472423091521295e-06
0.07320457136132044 -0.31567729557412777 3.918592585717785e-05
0.07318060752674482 -0.34981353420959516 0.00010891457696422758
0.073093471986037 -0.3758407179399279 0.00020845672038965078
0.07302247062654378 -0.3927676909511864 0.00038880223690806104
0.07339773448609895 -0.39922678887369256 0.0006452285112419028
0.07377440394817628 -0.392798834069214 0.00041196588071034567
0.07370772040263758 -0.3759029560856782 0.00025409616930919035
0.0736281212651611 -0.3499067451000075 0.00017503641284063486
0.07361545682141304 -0.3158011710279008 0.00012118878441939228
0.07361743133954719 -0.27467430422915645 9.103628626075605e-05
0.0736267650168858 -0.22767427584475952 9.118387032327155e-05
0.07363950530540989 -0.17595984268397358 0.00013466348734103296
0.07357207085976189 -0.12065905546440633 0.00024068618998709885
0.07339659473238343 -0.0628053352901336 0.00038151093997846773
0.07360567712641267 -0.004171989390275348 0.00043694637332477486
0.09701320559751223 -0.004671534042239163 0.001474979125317724
0.09686511682071963 -0.06267235020790521 0.001157874059823001
0.09606028067094885 -0.12033318253739708 0.0010494911769821256
0.09476351975695887 -0.17564355277029786 0.0010870332029450794
0.09302198227298678 -0.22735900635776168 0.0012122629725376233
0.09080052946687919 -0.2743503503307481 0.0013665250103937945
0.08809687777770892 -0.31547329034822924 0.0015083302144944244
0.08493216222455122 -0.349565737667857 0.001614042794488554
0.08125313264142392 -0.3755224162912264 0.001678503188652594
0.07709927994402799 -0.3925625281368602 0.0017778842419632276
0.07340533489223888 -0.39966890901544455 0.0021272476084087024
0.06971274588616025 -0.39259442534492295 0.0018097009423382244
0.0655630069784452 -0.37558615620270336 0.0017418019118352278
0.06189096464950791 -0.3496611662947376 0.0017074376543548405
0.058736240752902805 -0.3156000194356473 0.0016278278698384839
0.05604567080177741 -0.2745073840492317 0.0015029072960043304
0.05384078866871066 -0.22754381128691542 0.0013472762984849092
0.052120095487445485 -0.17584939363734856 0.00118878287921419
0.050845321334334004 -0.12054023742672906 0.001068217452836934
0.05005327961463046 -0.06282977705348244 0.0010281423395829417
0.04991350899251626 -0.0047051641896649005 0.0011491699062184555
0.12071690950663252 -0.004899912663921033 0.0020316441041228804
0.12028113376411487 -0.06266447686276533 0.0017232064716716591
0.1188992867697051 -0.12011902444756428 0.0018063557304780686
0.11644893715323779 -0.17533307454092367 0.002068665704906752
0.11299065596911283 -0.2269488591176525 0.002399779471050993
0.10855670673207166 -0.27383528626869236 0.0027148448794383426
0.10316484394385189 -0.3148506315383097 0.0029562066048499642
0.09683392911272345 -0.3488483320877812 0.0030825433742789616
0.08966458987249473 -0.3746460050315751 0.003089867325631385
0.08138406487621705 -0.3916333739867297 0.002993602934885187
0.07341297311357892 -0.3999312129360534 0.003364441562046511
0.06544320264874598 -0.39166617534090487 0.0030343686371128386
0.0571666383781113 -0.374711535088188 0.003171479460246162
0.05000384860508872 -0.34894637561212183 0.0032043592958417586
0.04368183871986814 -0.31498063791760744 0.003115083986436804
0.03830060454737489 -0.2739959593533968 0.0029020497541464825
0.033877680644433375 -0.2271372193517323 0.002596187032883321
0.030428192608888623 -0.17554112210176792 0.002238737295483261
0.02798055578795834 -0.12032355826242432 0.0018946352033593862
0.026595316378675408 -0.06281349253017449 0.0016646013098167794
0.026160407208394954 -0.004934658657178861 0.0017973788338470126
0.14462689396754985 -0.004972859407183738 0.0024589746293547533
0.14404141277056326 -0.06259741012132006 0.0022522617477157966
0.14211842499304378 -0.119803295604069 0.0025574862916330934
0.13848061937727066 -0.17481637258587251 0.003054150666636709
0.13329521512366144 -0.22625093524070444 0.0035954910996198993
0.12665076577150342 -0.2729583298425152 0.004070025989882896
0.11856960672218342 -0.3137983214045862 0.004401281419549893
0.1090787248361045 -0.3476059586385446 0.004536649222529151
0.09828781358650326 -0.3733100613655902 0.004441148688291517
0.08656143313688938 -0.389755895500926 0.004092518681176074
0.07342035318223991 -0.4 0.0039358526571817275
0.06028057491607114 -0.3897897632593142 0.0041426417903126095
0.048558064640769505 -0.37337769877144794 0.004541988969098963
0.037773428395663354 -0.34770706584455935 0.004688528492187767
0.02829075694730942 -0.3139321337530535 0.004602311591208951
0.02021863007258895 -0.27312310137664836 0.00431265436370918
0.013581427615118453 -0.22644278174954358 0.0038608834523965792
0.008395928036819825 -0.17502563185820716 0.0033043954679950736
0.00474398217351008 -0.12000497456485007 0.0027302546368292487
0.0027980199603215407 -0.06274141166681449 0.0022717771355671365
0.0022026997414981925 -0.0050060963421407825 0.002297633338150051
0.0 0.0 0.0
0.0018292925237454183 -0.06633287422785447 -0.0015877565699839204
0.004405060430850894 -0.12499765946439688 -0.003418772491748776
0.007967542850988479 -0.1815063796323767 -0.004880932605552578
0.013037177013996872 -0.2343269851624566 -0.0062058586914310486
0.019685065939415117 -0.28221412713622474 -0.007301301407651091
0.02788376968079874 -0.3238519573861954 -0.008121694232424786
0.03758369234914061 -0.3579679966508309 -0.008608756446124455
0.04865227404502571 -0.3833217834769543 -0.008721693603927369
0.06076021278701997 -0.3988542401369193 -0.008527244956715743
0.07336164547659976 -0.40402986686724485 -0.008351260460797087
0.08596755668180378 -0.398930024820642 -0.008534256879992885
0.09808980470442086 -0.38347512039286447 -0.008738177275917473
0.10918526544917637 -0.3582021136129735 -0.008640152540026615
0.11892960280296813 -0.32417072174864103 -0.008177369095498228
0.12719811664117658 -0.28262004707130584 -0.007396285442792036
0.1339522378596864 -0.23481770522729056 -0.006361454943590167
0.1391801905583364 -0.18206862939733465 -0.00513387096076739
0.14297326243225808 -0.125605501299289 -0.0037920061463568642
0.14594677237907214 -0.06693739068589394 -0.0022543756507598023
0.1487306891286587 0.0 1.2871375314172572e-05
0.026033994994534154 -0.002832590834075642 0.0008336505403304742
0.027157631376924014 -0.06603842082755453 -0.0008317615495824186
0.02806348853196655 -0.12539703431102844 -0.0021657412176684272
0.030397941453805373 -0.18197553855818294 -0.0032963222954862986
0.033691349259176204 -0.2350018133251235 -0.0042425676897592645
0.038039763386515685 -0.2830693323005275 -0.0050211551635229515
0.04341829123253013 -0.3248892900436876 -0.005598122346653153
0.04979280058060585 -0.3591800603865777 -0.0059468736501967386
0.05707632799356484 -0.3846855824329054 -0.006049117384402114
0.06505694719843866 -0.40030629320917555 -0.005946769685362412
0.07337529667881314 -0.4054869323391677 -0.005837907279877956
0.08169838194502549 -0.40038332490022926 -0.005944356284623446
0.08969401836170982 -0.3848416463472694 -0.006046382378361793
0.09700534057019278 -0.3594188757712369 -0.00594855813926983
0.10342481894307645 -0.3252155064621546 -0.0056128095805427075
0.10887211662618165 -0.2834866492904652 -0.005062799398775918
0.11332246604782402 -0.2355092449984309 -0.00433380855187754
0.11676262815269975 -0.18256179438639444 -0.003467361004330125
0.11930963749861859 -0.1260393293836249 -0.0024758364518788012
0.12051858399141013 -0.0666908026539957 -0.0012851374796478826
0.12180468121697104 -0.0029892528884743804 0.0003362087503592701
0.050611541633175446 -0.0049181057051674556 0.0013623360788595567
0.05119093543732766 -0.06593960068535677 7.372344846016578e-05
0.05129203032062529 -0.12548759314670777 -0.0008786279088106772
0.05219782777553926 -0.1822589605303237 -0.0015806711441220887
0.05375357283362337 -0.2353888702917683 -0.0021178316772926804
0.05584673221146204 -0.2835705790175489 -0.002527818138027947
0.05847446799435203 -0.32549895557531333 -0.0028131500485709697
0.06162372007637275 -0.3598986206790349 -0.0029680035824106847
0.06527128899835097 -0.38549807237117395 -0.0029894194755735425
0.06929139044761404 -0.4011376651730335 -0.0028847687391557507
0.0733861206483246 -0.40623017640931136 -0.0027667875896678516
0.0774856775612583 -0.4012160447529338 -0.002872945854900732
0.08152099108178101 -0.3856570381300253 -0.002967462963488315
0.08519636961156982 -0.3601423066632584 -0.00293992476726906
0.08838975985527023 -0.32583265584128074 -0.002786561945197788
0.09108334300789547 -0.28399891528206844 -0.00251604823121396
0.09327112951429042 -0.23591209268760624 -0.0021425332579160785
0.09495870961550923 -0.18286633530694066 -0.0016761291424774712
0.09604070366808426 -0.12615784803000296 -0.001092934867308152
0.09628584794033702 -0.06656897395098774 -0.0002875961536714369
0.09693514152428759 -0.005159429760585384 0.0008561510855814495
0.07446669217189719 -0.006254655329451386 0.001834508626123541
0.07462239228698543 -0.0659563551105934 0.0009543940875324812
0.07411159663369798 -0.1254123330406815 0.0004219676801383163
0.07373064059780374 -0.1823149594885347 0.00017394484633830536
0.07352855571603423 -0.23550518492848405 7.027891131927233e-05
0.07339249987897792 -0.28372656673155816 4.6861826065371133e-05
0.07330037729376052 -0.3256955199564497 7.494618146073687e-05
0.07326626315422596 -0.36014255227652087 0.00013904190098008653
0.07334270436612952 -0.3857879658819229 0.0002247608974317246
0.073497502938908 -0.4013594348330521 0.00034899495816684886
0.07339577580470304 -0.4061844742727426 0.0004989782961861363
0.0732988958396242 -0.40143922266540455 0.00037029680375625664
0.07346888176921179 -0.38594992993616195 0.0002661016904844806
0.07357275174847874 -0.3603911793634472 0.00019720278084984187
0.07358133504628311 -0.3260366095056102 0.00014328805625922833
0.0735511254071084 -0.28416549482045894 0.0001129746175924647
0.07350065103670131 -0.2360429060746591 0.00011256458347359933
0.07341209296771647 -0.18294161010813154 0.0001574330871506063
0.07315575074803699 -0.1260907074214334 0.0002993580722434977
0.07272187626964005 -0.06656065935975569 0.0006839091722032741
0.07291613720674066 -0.006558638245429682 0.0014077831749927231
0.0981264098333376 -0.0069701231301008085 0.002319717695075561
0.09790794500955347 -0.06598310400681087 0.0017906698043708446
0.09683099478451873 -0.12522814546205496 0.0017011575248849062
0.09525950554823802 -0.18215903075853374 0.0019186591614791383
0.09331360014425985 -0.23534642615962265 0.0022544787189399764
0.09094008771310985 -0.2835407450633971 0.002618914285489835
0.08813204840261174 -0.3254813012159961 0.002961849719203222
0.08490655899181221 -0.35991109369969987 0.0032473013363793998
0.08138748856932163 -0.38556887962862557 0.0034355996259285465
0.07772442245972538 -0.40100891178621456 0.003518137078174939
0.07340569132128548 -0.4052375414393006 0.0036527142995340972
0.0690918500668306 -0.40109015610715626 0.0035490746476563246
0.06544400997854005 -0.38573391703851245 0.00349667436504053
0.06195208708746617 -0.36016470342720536 0.003336150116686679
0.05876798111843775 -0.3258296717496217 0.003072920216812781
0.0560179286970528 -0.28398967362484223 0.0027407790392263657
0.05372057723334413 -0.23589750930990316 0.002365858771834168
0.05186577099129244 -0.18280019012857524 0.0019838486241293826
0.050379034665970254 -0.12590798864457411 0.001669578113370334
0.049346058884500325 -0.06657146927244892 0.0016134004063569343
0.04914864844374242 -0.00731390906481303 0.001986261814162011
0.12194438760920687 -0.0072378236960793756 0.0028423324833507704
0.1214308836718424 -0.06595546679409137 0.0025797499037014983
0.11980951346155137 -0.12495165156247716 0.002929928800492766
0.11708872657867116 -0.18180643779153263 0.0036058303557866714
0.11339274142648875 -0.23491012627523317 0.004367804692177064
0.10875698472247294 -0.2830086681201812 0.005103207441970084
0.10319684703666487 -0.32485748326185454 0.005743601431816077
0.09675839329302521 -0.3591900246155759 0.00622911084565414
0.08948517529896557 -0.38482515641768267 0.006501013559707541
0.0819451130516829 -0.40018532907228427 0.006408482180511295
0.07341731937123605 -0.40321767900021244 0.006281513851366929
0.06489458255651533 -0.400268095795977 0.006449294744446483
0.057370159277114474 -0.38499337597419375 0.006582345919195711
0.050124442183422296 -0.35944871487306984 0.006349548529073585
0.04372696761506348 -0.3252130716544389 0.0058988135332477595
0.03822216082362511 -0.28346709577631946 0.005282937426363993
0.033653868355622354 -0.23547271612548482 0.004551354759064382
0.03002752271588447 -0.18245808009215383 0.0037563311900147365
0.02735817049371634 -0.12563229002707074 0.0029916482221537086
0.02575496615999761 -0.06653595933880183 0.002494987871686726
0.025246777188785912 -0.007600757096590622 0.0025990652530728272
0.14611665399357762 -0.007292416469404954 0.003384407613247809
0.14553477804886192 -0.0658627002131367 0.0033231840951152237
0.14347492815283705 -0.12458815106232647 0.004066330479485138
0.13956229822193572 -0.18125222328529128 0.0051600425174966
0.13407253392245155 -0.23418769348820384 0.0063052716630331304
0.12712668905409646 -0.2821205662244743 0.007367969475328246
0.1187487964987717 -0.3238025339990024 0.008260131466430183
0.1089913084527151 -0.35799373274504476 0.008898602566540481
0.09794561812470966 -0.38341758525281966 0.009204746796636808
0.08565395211932827 -0.3990428409188871 0.008878559587313088
0.07343239015735668 -0.4 0.007545052675220176
0.061216302288950294 -0.39912725707449637 0.008929555354730803
0.04894144601491416 -0.3835892155519036 0.009307003820083055
0.03792488717536649 -0.3582577657920984 0.009051756396152334
0.028209828316160472 -0.3241654956838939 0.008461222925142429
0.019887143793460304 -0.2825881459943993 0.00760810105316364
0.013003460988164421 -0.23475987602773277 0.006564432477361127
0.007565311110036659 -0.18191029776318265 0.005399736649423316
0.0036676738092630678 -0.12526743503092866 0.004223938172390139
0.0015864837196658543 -0.06643820203257104 0.0033279752544830388
0.0009895116223518745 -0.00765940523117723 0.0032207365911380466
SCALARS Stress float 6
LOOKUP_TABLE default
-547.3273802287765 -3036.0323395128967 -1075.0079159225022 -555.4739770650144 229.00335143935976 -288.5713408839549
1209.6093556039452 778.11645520979 500.7519608610761 -246.75237758209687 238.36535131261485 -9.813495424148497
1196.5377342783465 34.722889412762676 117.32977032461984 -116.32575859380377 232.86639765242572 -80.94876794895588
1730.7404816485882 160.92133352219588 213.14074084285448 -119.95762532732277 207.2002608881455 -87.8324900394438
2336.7589822713985 179.54288574862562 286.20179155816373 -113.05678319628579 185.16199414148375 -120.63194547121688
2969.4126104771203 236.01201594073692 382.9096022329622 -102.57868829256698 145.4340996346759 -148.75446884352718
3585.4778810492626 285.79184753656193 479.15958321608053 -85.68505285790724 90.70892946571755 -177.65162515681905
4166.867067616397 332.28865956672996 576.9530048459156 -62.459609114776235 22.109152020440497 -206.04678681593705
4656.421865819151 369.4859870049106 666.5949587181673 -32.50849998318845 -44.76088193368234 -235.31836054470955
4975.737136308995 406.6179759628924 735.8153336684691 -6.04025592402308 -63.727219593672785 -266.76957558075804
5092.833904064218 448.42166944738665 773.1014098630193 -0.739825463875448 1.5318880286569612 -288.2219206760407
4979.352978786614 406.66072736845666 736.0830178678824 4.522192632870834 66.76408889086554 -266.8439929627939
4664.368980744318 369.6045554775079 667.2240673963995 30.875247306740683 47.70886719462373 -235.4658720430932
4180.667341701437 332.5534294595627 578.1305646193505 60.631674887079825 -19.34605632268643 -206.27117612149465
3607.678440784764 286.35856335169643 481.2042442622061 83.58923179232444 -88.27266209733942 -177.9225629815756
3003.6436727208606 236.96208012095303 386.03658516314084 100.11176317600655 -143.63750689375559 -149.18031060910857
2388.4139988900915 181.47195774002964 291.11184033180814 110.22930122823887 -184.01284322766415 -120.67272366337218
1805.6969666884875 163.16573783314647 217.6837932677756 115.9546428567343 -208.52576029231818 -90.08096808133148
1324.3698512567141 48.07803026326078 137.3745026298296 111.47877619994847 -229.22018377466983 -73.48252397464046
1486.735222478692 827.0519325808652 530.3404570950756 256.02382489295087 -306.5036095288152 -53.98484065353522
-22.887195843785484 -2895.4228733247855 -660.7637164739359 333.8901487277937 -401.47420921266036 -111.92447597729806
-606.8481064121542 -2633.3951915817665 -793.9773077776682 -356.535581780061 189.20616446222724 -165.88262007016974
578.2946148281112 421.7123501020344 237.50290509857908 -295.4207080064554 158.42805500399706 -49.7555842183453
596.6334565478982 -40.31138687853582 3.8957773230184065 -245.7973554209439 143.74468436096748 -87.22131908002429
1079.71763896962 7.498184795038231 74.14765726636828 -248.94917272892508 127.0948731109482 -113.10649635503043
1460.6946423898657 -9.06683497386108 101.91026833108315 -243.3493107146454 110.29275392169095 -150.0593523582925
1863.8974681146042 -8.567890807743241 142.22071784469765 -223.5200239654004 86.9123813196039 -186.90805593781454
2256.7058586564385 -8.55849441643987 185.26311029890272 -194.21049039832107 54.382957832230495 -223.96824233211285
2626.2923513687538 -11.909729697184195 229.94459194645154 -151.4585945091451 14.232768509160513 -262.21749793614777
2939.3059338840867 -15.584445533332927 273.1792556686083 -89.46612509256927 -25.310804476997596 -305.75696832126954
3155.5105254650935 14.281375669276892 317.2316142691968 -23.54736929098317 -37.74710770984629 -360.374953947277
3257.0602467215926 95.20770140353247 360.76307105409927 -1.3190826140368563 0.36695228355757836 -402.73706362366386
3159.4301662877933 14.45379315448233 317.7790426630624 20.825199705694843 38.40794722458232 -360.38276299815703
2947.7887101827987 -15.22492361788283 274.33815016488217 86.48772365292344 25.750056134188355 -305.7626115425801
2640.676296886588 -11.332919755398361 231.83687935610536 148.03773135984838 -14.165832322906361 -262.19980517078426
2279.1057963913754 -7.733320674905914 188.0176069853573 190.13966872311815 -54.85689028915476 -223.8834548479843
1897.352058856281 -7.493731131773928 145.9711535169122 218.56764979675776 -88.03869886102181 -186.72252266287757
1508.9574445129106 -7.923531152459296 106.21197545297302 237.27366887890003 -112.35644322432864 -149.57645085751585
1149.6725687415737 10.009256166898322 80.25048288991518 240.74721288624912 -129.1983808779693 -113.00802423421517
694.6628450990419 -38.25849996263125 6.328917763961943 233.13827151811572 -149.69178361452668 -83.82514719789009
674.7857156779844 442.4525106906766 247.430884264479 278.6435943886759 -181.17140437450482 -71.36689032295354
-562.5770893842673 -2719.5231292698695 -763.3553672966672 223.10951542462308 -224.02834304105775 -67.37579663730075
-483.5879514476093 -1835.2815664287414 -500.9205269194919 -418.5949568300156 115.21246709545933 -54.94019593148373
198.44743645570026 128.7073931754868 107.4786320215517 -479.8601868313447 90.16580011199088 -77.32661015654521
209.5694809960225 59.0489104127382 10.208314859678804 -418.55050967394675 71.05357804550455 -99.58167479431998
462.71912211614233 -9.802908533716108 13.735911631883427 -425.6826345768987 57.621761216402824 -144.25708017235536
693.9652837432454 -6.563026446922434 39.21536647394721 -411.2252156804608 47.12641561338913 -190.38338210945938
900.0665944129807 -8.335972202355501 57.99847812470082 -379.580603483642 35.66404709564944 -238.8370730768609
1105.2637986206619 -7.035190158677352 80.63043665926486 -332.52657075975816 20.28359752914836 -287.7329186690894
1302.5098997859445 -10.97109154064196 104.65762999480751 -264.1447081133999 -0.1972567273666077 -339.30969357181544
1470.6117797947359 -16.896486871121276 126.6417708281148 -158.6351826809398 -26.231585462682272 -400.0431201027013
1584.9131191843608 49.95568448130271 161.3182649012574 -34.23823997645272 -40.09564099783114 -482.96413942573696
1689.92533328863 266.60017643125366 245.05482183894694 -2.107909454215903 -0.5639835678931134 -561.037307871149
1588.959799123458 50.15810635339467 162.0805364827906 29.882569205578303 38.85631337378273 -482.9206239248735
1479.2776072280171 -16.47806541402539 128.22089139641477 153.85170199579872 24.66375053472833 -399.9430557738319
1316.9434361323674 -10.31099580948316 107.14196615291665 258.6179651413074 -1.8973205388752592 -339.12164949902046
1127.2097511682734 -6.100926805994949 84.1083913292881 325.89158862128187 -23.051025855273434 -287.4059950925855
931.8138372576145 -7.214854714561587 62.40494201819059 371.4075164348862 -39.16022123994426 -238.2574764620818
738.3055337614128 -5.37040718506978 44.284723297104556 400.97768858896956 -51.172925741820585 -189.53388649197186
522.1533263789643 -8.779157173433694 18.306398981524858 411.99232309949036 -61.79270295728556 -142.5658131426223
269.03024996157177 59.83136310067021 7.47468375350681 398.656237107814 -76.83897947028588 -99.95552705561681
254.4363470153745 170.48048883819092 118.61700775213647 453.34036566160864 -98.73468153742728 -78.51399910104101
-481.2818368196498 -1904.1345326758528 -511.7552366620295 395.66702569155495 -126.42361530768733 -52.50901369022832
-353.7997272664426 -1109.0269460184677 -264.93062206293536 -387.09489532895367 51.97347676698033 -19.374335520114176
-61.89721498270047 -25.740354399638733 41.351015832124425 -507.4654859053841 29.446843870497933 -67.15361963384449
-143.27350737314902 75.15333863869571 4.613109189991685 -509.5016585046555 4.644776176389138 -102.96220577425741
-112.9808298518004 5.70268504643853 -17.90487767824614 -486.4056658649673 -7.720553933610091 -151.69140554736677
-68.38052253517299 -4.918026961574609 -11.679098888525862 -466.4092570312232 -11.377993699267932 -202.07663136855692
-45.23808913959669 -2.0006017974851233 -6.181514745811364 -430.26070846262655 -12.375393213930359 -253.44477536719978
-23.565726564198926 0.7526177314063309 -0.40708664116056625 -377.72542537089583 -13.280319956067096 -305.94981026166556
10.573934529408037 0.15148424586892606 8.640543955451658 -303.86773041485264 -16.733950842733325 -360.6399851573275
41.67628373797479 -16.185812785945206 10.581893153185398 -183.02910477405865 -32.39539486123679 -423.3669100450171
42.68796246349004 79.60190810691505 29.52165099763848 -11.338814549112382 -52.66214557389747 -513.3821996394065
192.3865914568538 564.6362588594928 200.7818163846369 -2.3666983591003827 -1.400589768051566 -629.3817224276634
46.80768243467077 79.84039186184498 30.493988437188293 6.444111775009614 49.71377811851172 -513.3227995524065
50.41006449011807 -15.700313763073874 12.573919029773524 177.6410087144093 29.017724350619552 -423.23327105809614
24.87098722138183 0.8990385845394431 11.720953983554514 297.6232480311302 12.690026700060375 -360.39828090806947
-2.3889312529866 1.7632074032667764 3.7901517763705104 370.19823855186536 8.436423128507064 -305.5338641989297
-15.68746661578381 -0.8513146555041116 -1.0127347416154158 420.9165205476058 6.8060457639522 -252.7530635629688
-29.085948404236948 -3.985100440760296 -6.072786286410175 454.51148351370676 5.524828227351173 -200.93191230998642
-67.51731811194372 5.124323725837688 -14.619370350119551 470.8518717626244 2.273246784804673 -150.10456100951524
-103.25315951504156 82.78711304838603 4.42112486616608 489.87585168087645 -9.144863783432745 -102.08980347713882
-29.72430990819636 3.9715703498775468 46.705859933018516 495.9068828366358 -33.223224412213405 -69.03466133884784
-360.4538899844943 -1162.2719963815061 -282.0671416094248 383.3984737029757 -56.667525194301895 -30.366551513019374
-277.80550571376176 -555.1143180701804 -97.82300457882236 -294.19418537569356 -0.7630013209005515 -15.297961514256926
-261.0237158156611 -73.87751267761888 13.432865470636498 -426.7531015598314 -27.58809310744835 -52.105551335778834
-481.20326337194945 60.24986292690726 -8.98607751096883 -468.81680515925785 -62.5871326539938 -95.18814527735394
-669.4227224575574 13.92055346528878 -46.95797816152118 -436.93805361687697 -74.2404485829271 -142.90863129597122
-827.5211968578964 1.4536016418523618 -60.22144421237276 -411.6107163299947 -70.68809714663308 -190.8273219427328
-991.4102551931583 4.432303790663185 -70.66331590345195 -379.3349590376692 -60.67405648887691 -238.87864433846764
-1154.3762262420132 5.9338874592454065 -82.89919078719808 -333.0880711539988 -47.75126327862869 -288.2511178699033
-1285.4543896727696 17.039776609609763 -86.53784637854828 -267.2932268878725 -32.39212523768763 -337.8334382199452
-1380.3710279830402 -11.205752079773923 -101.19567530916757 -169.895758248186 -28.832987926288094 -390.7501143432628
-1529.1018422034988 28.5401396065676 -136.92300026107634 43.67325432624756 -58.936405433306355 -464.0077666041524
-1250.2549297208875 1021.7952212864026 206.0460918719163 -2.130271244831985 -2.2557505793588324 -615.3027552067016
-1524.8891707222429 28.820323899162013 -135.733387089752 -48.08130855877295 54.237975075570354 -463.9682831186456
-1371.5307571206351 -10.642417492396442 -98.77491080687392 165.03740617156052 23.593388284441755 -390.65882787488823
-1271.2415552341658 17.884930872255225 -82.83874408871029 261.6564182272549 26.327639984675436 -337.6611164831894
-1133.9340232638278 7.025000758886957 -77.95608429600308 326.2895168821394 40.738004318230765 -287.9419415883265
-964.1207977421867 5.6236625024131905 -64.73222679181416 370.86399803052933 52.910615301490935 -238.33505397587493
-794.214619580528 2.027724234053459 -54.31122340098725 400.7599804094939 62.90865815261464 -189.9192057224252
-635.3218453570328 14.007184314402819 -43.282564228009 423.0686582405195 67.81962798833872 -141.67722225696545
-454.523827132361 67.57913247315125 -7.83848950169392 455.37463310787416 58.99640043766076 -94.35974932598994
-243.36491006326824 -57.35535152696156 15.130373542311816 423.56937379499004 26.123668278879478 -54.41569821299284
-283.27562034013437 -587.0637493698323 -110.42526748305913 296.29733453246945 -0.8262035182892014 -25.578022157574015
-258.70617670354056 -222.1431199152727 1.6691192753116515 -162.88703447936822 -47.106765805718034 -22.41787591882129
-418.6430277002327 -69.05025090122108 7.869834184907137 -245.8722527925746 -85.91511263656662 -37.4050935370272
-813.1460167972908 34.663163854510586 -31.301703280203533 -281.6488639526681 -137.01188049933592 -74.7903649560528
-1224.568133782161 14.822727397367471 -86.23398475708545 -261.9066559530338 -147.98608702654016 -112.85274042244252
-1597.767011622543 5.026296205013734 -123.57767482254124 -243.80691785992488 -135.82060999513936 -149.93412941439473
-1956.760417371519 5.401640788292355 -155.5023717192467 -223.52262751847502 -113.08151036726562 -186.87157775350664
-2303.196596470852 8.481204043872353 -186.68354887413022 -194.79526908266598 -83.41055572975937 -224.22826000539357
-2636.3433523858585 5.003478701546813 -223.01981725770472 -156.07748435065778 -49.39166401311177 -262.1464994497696
-2826.1853736585294 55.02425277582719 -217.34201413112308 -90.56203296466578 -0.5144238655882486 -293.79576050748466
-3190.5443156953133 -192.50210281305678 -400.2356613399013 46.03475484528013 -23.01249087298253 -335.7070052739156
-2640.9464030027743 1631.259839714091 222.16704309061578 -1.3478017154651654 -3.2441085062741095 -446.14937596539414
-3186.139198362427 -192.17990425106706 -398.80903146412174 -48.82295487252907 16.28677072421053 -335.7194754885986
-2817.0373740250625 55.66800207404798 -214.45484897435253 87.49236131264058 -6.8966717071737484 -293.81419049548333
-2621.907896750795 5.953928197608805 -218.6521285840862 152.52580750334926 40.94441471726877 -262.15452261102826
-2283.0562770627316 9.679864891023705 -180.9416052254003 190.53262292905788 73.79476177795867 -224.19159466106632
-1931.3848334472164 6.61020104880194 -148.87260872017106 218.25517502389548 102.60322709011889 -186.72705774836567
-1569.9744256433376 5.740668340565064 -117.33993647808504 237.11081940393535 125.58649280832675 -149.60336469688903
-1200.432316813257 15.64069359806689 -82.2705859487821 253.79728726456705 140.21752169684416 -112.3450665818667
-798.1915521218808 39.772663547248804 -30.06332318931208 275.1097137445904 134.0504712117025 -74.57319573947781
-412.09311451490294 -61.43426634577304 7.4113668784493125 245.80907703462952 86.48936387114999 -39.04409850151905
-262.98177070030823 -235.98362505380774 -5.386063265533032 165.0343350783797 48.24014827309243 -29.08305020973376
-225.97904452971017 -95.92521124109444 70.00666036942344 -80.31409921753549 -94.30691745581859 -27.056671425934677
-507.4033326534384 -62.162164962748356 21.896373246979067 -115.17126802124136 -152.56395673583026 -31.284059902053954
-1162.0485694216054 -48.97901735686736 -91.71632222025075 -129.4855207199306 -226.3775088304646 -62.110587925662216
-1866.7464732815952 -126.9449549629499 -219.04689531867803 -124.49989458229976 -236.34756305970984 -92.43762293983895
-2482.285962224409 -188.542710458031 -313.48810039034385 -115.76963643484102 -213.03988014475078 -121.19376508481542
-3064.161686159727 -239.1674761007167 -397.36892129788237 -103.86488358228709 -173.92400154009061 -149.64741587300725
-3628.950962365263 -282.9215782680059 -478.9687537514673 -88.2554641196293 -122.78764014944761 -178.50721698371453
-4176.678607646143 -348.01812409573785 -572.2574176004915 -64.6917178346469 -62.06939438609404 -204.90123447215296
-4664.90289691105 -324.46569622818384 -639.3629184396877 -31.657399779072243 25.135862203034463 -236.15600520585127
-5097.006077627908 -770.4910146001359 -898.7617645638094 87.98169068659519 182.51508881814573 -212.08441957252833
-4122.637325393464 1629.6476310596756 -98.24090505380458 -0.8708929493281126 -4.5109084276357105 -437.37882364143076
-5092.147368110094 -769.9882326948023 -896.996238646425 -89.7808295350633 -191.84491030038072 -212.10987020111907
-4654.93099555129 -323.4812156603419 -635.8209901864927 29.687569026541546 -35.354362543662695 -236.19965012172614
-4161.258200548693 -346.6178225554265 -566.9817842174745 62.44152615440281 50.50820671309579 -204.94657300523218
-3608.1290284539136 -281.28652260850913 -472.2206252105399 85.62628579059572 109.71251169878934 -178.52434813618765
-3039.5483643293446 -237.81861223096493 -390.02968886597165 100.78398399300043 159.73682277005713 -149.5920126632737
-2459.196280690084 -188.50419136682825 -307.67131712326477 112.2038125542604 199.2701225205056 -121.03576015122987
-1854.370028100172 -128.62834185455705 -217.73809832913898 120.70855447613336 226.2898957705604 -92.24040406622241
-1164.5217982845122 -49.599004266718396 -95.37320436428182 126.75805133927825 223.91952581405127 -62.2377197379678
-515.5377229393462 -61.58619551326311 16.978485869136186 115.33515044428873 156.22185377052543 -32.41014564637552
-235.94730042700724 -104.34636553098017 64.07048575050129 80.96530412778034 99.45706161578565 -31.50330932010559
-82.68124790849596 -1838.2366162950354 -576.2753592610592 -285.71755432237995 152.42820529909932 53.920354540098835
1083.6437686963247 521.0923397172426 379.6195115645913 -127.72731650585912 164.47240082325018 -16.900331221798904
1258.587189184687 63.05745036502577 165.92414010804433 -45.64500798498768 154.2703062243927 4.222476933542829
1782.0439306618207 154.5394550023105 252.96499403579722 -49.614673144651064 137.0832911958401 -2.8880560836882267
2355.8320053322636 181.54836563745113 338.16375227159443 -49.274964895203 104.62697513045715 -0.2963852750138627
2948.257630661835 231.87783603922955 444.6752295447916 -50.53406504480607 62.5803597503202 0.2016197296901585
3530.5269710333346 279.3337983059491 559.1339810631999 -51.70362636562999 9.730176815511737 0.9461304179950449
4104.402223723761 330.29842953226876 689.4433582268645 -54.455994320608674 -48.64477103857293 0.07497383489761622
4669.115055838656 380.8390276235649 840.6722379679563 -57.21836711516994 -94.06530177887429 -6.139880060219826
5157.978766880546 403.07216554480453 986.5448361868679 -46.071878328509754 -85.95008721236243 -23.585087004866324
5356.576152890743 374.30525737247604 1041.378495498492 0.1550863700922145 0.8137088717659559 -41.85551844743362
5159.055487904999 403.0122324575729 986.2418029316522 46.37963189511531 87.48597981379848 -23.69244964406365
4671.420275794516 380.7212266048469 839.9865078655486 57.51475509967494 95.31295651193722 -6.350809377800941
4108.306800321178 330.1338708701095 688.2075518418605 54.71745629634682 49.36037743553771 -0.21906467309245847
3536.805226904707 279.1710957690104 557.096977489448 51.88652360567112 -9.922721461973405 0.5963188500761212
2958.347399124378 231.7881596638688 441.4272196400963 50.54408875256995 -64.25224224150293 -0.018478149039603986
2372.6391691215517 181.83625161896947 333.37906124277964 49.08074552778662 -109.05585870561107 -0.6056814404649576
1809.6486733596898 155.18321780860077 245.21516252598857 48.66384127753658 -144.71384173119012 -1.1201209453358296
1313.0432653629182 67.33194673860866 160.5719740868083 43.88067993523521 -174.20003322038073 -0.8337886961177441
1211.752704037017 537.4500524569581 380.93186598051705 126.65630491599325 -147.1856106417671 19.93653874715175
169.15885726274217 -1741.137115431757 -410.1705493346927 168.8242193587386 -124.34439653909729 -99.33717977934175
-272.0258505293025 -1678.493672044112 -508.6414084077932 -183.35266536496502 25.671031000248448 -5.0526429697006225
570.1150764980649 277.78959261382386 200.603084830799 -159.29016443620378 55.307454441132904 -15.359386558575508
717.7394810312752 -15.043502845997894 64.55520342405315 -125.41316760632289 94.09188683252005 1.0084288561996475
1152.7051968765952 17.4383412924119 127.90228421648273 -130.2210222458362 78.90318417392272 -1.3582057166630668
1517.8897637838202 8.987913214532755 167.68652655343212 -134.10509499174677 58.79692860202502 0.2134997463356036
1898.2628488951377 11.180930957722298 221.50762134374037 -134.8432567499462 32.041936907929575 0.26172677178182613
2272.6804131244994 14.189722148537287 282.99280000646326 -136.0037539393272 0.06305599122583322 -1.286905381032481
2638.590730921058 20.559715766559698 355.17832952575475 -139.63396634761224 -34.288435639842355 -7.38913495305663
2988.489360785407 22.481693353947083 437.1975050405145 -144.76883229894605 -60.88619003602522 -25.084566215725538
3268.4943302187316 -25.49927175223579 500.3083233355522 -118.78307796467489 -56.11378543026584 -63.69352384649993
3352.165009516191 -135.55823451864325 494.26652439610973 0.22450091355315616 -0.3134969464835583 -102.1457945181859
3269.712525046575 -25.451217781416176 500.4457021460484 119.22518101822153 55.34411690847682 -63.71663586075983
2991.057825858576 22.576271721744643 437.39180661564995 145.18132753639594 59.68338049315476 -25.105207811410008
2642.821498414316 20.701210723074688 355.2535911642985 139.96460346796735 32.33824005712453 -7.341419173438511
2279.1768007166156 14.382506394768122 282.63727945589415 136.14625510554737 -3.1207253095697243 -1.0388055100483973
1908.2058702356865 11.451803160651439 220.26715200035412 134.60913805465975 -36.72426046296546 0.9830648028904292
1533.2815634956587 9.29419471993945 164.72081760878197 133.2403864536455 -65.67080322150674 1.7203383217453958
1178.6602149025287 18.692697845932837 123.2261155491016 128.04781437726302 -89.5810526800114 2.0542449651093375
762.3782594263861 -14.34664238573103 56.194671906456335 119.86085723347689 -107.53521280533293 4.076644642326202
615.953472779877 282.97212261587316 191.48827217252352 146.04504079041178 -58.873650376607856 11.182179126176985
-232.64803315250248 -1675.6457616766795 -494.40199397850085 108.83458627894575 -17.606442372517723 -104.78998543229778
-252.65977353777288 -1218.9322612539086 -333.11795124579237 -241.99468952629493 -4.070523687116941 -101.06339540573201
248.80947492655505 93.43022067764105 108.48468705906203 -276.6329719693778 12.642631404885671 -15.188821672172717
326.3874931289142 48.762311870421016 51.500995618736965 -228.76777524849285 37.968375888647635 -4.631205438626539
554.2816871668183 4.697329526865864 60.0056736420373 -235.26146904490818 32.2481324322145 0.06424949516674677
759.1175353537443 8.548981875260038 85.41483830562223 -237.8111867213754 20.43834634740644 -0.050196924833774303
947.1908789589208 8.865230172088719 110.15612869271403 -238.74116991441997 6.896132207032484 -1.5351523312967852
1132.8507024125315 11.036296679456434 140.34068776619702 -239.31301357045 -8.755634826069123 -6.755984261547691
1309.427189618472 19.310037290185964 176.59445285096794 -241.91316730228178 -26.53018051644489 -19.8252183673153
1482.7943117762761 29.917725862110046 220.92836932836585 -250.31996637500043 -46.00460835270282 -50.522650410724
1634.32376827189 -50.351028595539134 241.09789641504156 -216.509137276851 -51.1277479197244 -114.3547631960894
1623.1666040319665 -311.64597396812707 163.6018394104948 0.32930138962051414 -1.3133319474351746 -188.1796603609375
1635.6304234494032 -50.28374066438281 241.64400694836127 217.15503865124853 48.31788112203087 -114.30126179008643
1485.5051859422701 30.049045882536568 221.94499613480167 250.9128525346314 42.64936088613604 -50.368869561481546
1313.758493324286 19.500386324881607 177.90515672301342 242.36360986718344 22.282771333853823 -19.457399133255656
1139.2172472747354 11.28923130677451 141.62899762306304 239.43682589975896 3.294085533494036 -5.938914136887247
956.3610517955186 9.155796868147092 110.8755648576005 238.213060311513 -13.854037673967664 0.13884498695370556
772.675715585456 8.943705111807727 84.81612364726362 236.11211410569638 -29.184086867106913 3.2650493984313025
575.6762309654126 5.319923803162655 57.15392159443868 231.39374178666742 -43.10590387656476 5.572590752611421
351.4836787768618 47.68608114528978 42.36482002513827 219.71985913753412 -48.95521774855244 6.43931894290566
273.5288870202569 112.54763677149029 102.56934684379799 258.34817342336993 -14.886445378244396 -4.80168096133672
-241.57775506086443 -1217.4797715468746 -340.0934110280027 221.03057477282945 9.097063467031472 -141.62402013408033
-209.72220459187818 -771.3228065367838 -168.36440171642684 -228.81070817325974 -13.142035929668062 -110.8058366790112
9.538902027951595 -15.953674321716692 59.08021984481787 -303.9195406404115 -12.550241661393219 -27.245042893443586
-35.29540598960032 54.13582752991783 30.43766335524733 -288.97710859216465 -7.851800702145756 -6.874178294557445
-21.38308537565158 6.046577981060406 6.358416717139449 -272.9622481602878 -10.976261209382185 -1.7005212029144825
-5.748128224787466 -1.6052204510217565 3.802967384291912 -272.9234457444692 -14.74390789063314 -1.4571985409123247
-4.171366247266085 -0.22095449063017747 3.3522820324251965 -273.52977781393014 -16.732494285374493 -4.319412903085796
-6.693703080779208 -1.51221715883249 2.9488811862785473 -274.1716718247231 -18.103515700775457 -11.247855499268786
-18.586005259563045 4.095918616134167 3.3878400714641916 -272.2824093354486 -21.622652346329986 -26.079715297739455
-15.840556010490479 30.97722735051968 15.056481907683223 -280.99452958967095 -36.64045559711531 -57.920213747463976
36.40563273919872 -72.59888278783721 3.7869293807284183 -275.0288679715474 -56.63720504974744 -127.49166113789661
-102.86535097800797 -618.7660759584481 -194.0767533208269 0.35807358754335417 -2.2624246330249282 -241.60853044380536
37.794136408219906 -72.50916717725676 4.748424035026705 275.7307455792857 51.891983527428124 -127.4159350330573
-13.008776704935707 31.152881323551227 16.911206544307806 281.63685458537384 31.250004166683343 -57.715186352285066
-14.202955709330917 4.3526396160689185 5.968912951738358 272.7644986864085 15.217369654738803 -25.614092597517086
-0.5789917671864409 -1.1790915467220375 5.930322498509648 274.2840803855685 10.431244422025584 -10.26047729258006
4.021101151671102 0.17232939372181177 6.163718941474949 272.8820557623251 7.741826767097096 -2.31279557104517
5.472928329026262 -1.1514973334287655 5.59836309940516 270.85388603355835 4.651358781069576 2.3777563012925813
-6.91525692730063 5.902695602284537 5.230296176119566 268.31953358173615 0.43060733318648836 5.240903534752018
-21.172640508803994 56.5870442139132 24.656595565220982 279.6640823889532 -0.3746128877073692 4.333059487997969
22.59853072966336 0.6761766557439337 53.64834245303253 294.157896887565 11.862332654332317 -20.485197132704183
-209.4481168589188 -777.2935242238563 -182.2198578426934 222.0232830191622 17.201736518105246 -135.05179442496276
-189.77430611311704 -409.7386496330861 -37.7313997533006 -173.24172328863074 -22.170064420669448 -95.83392349941892
-184.06532163700209 -57.17877358026419 39.20578055906096 -257.46205571604673 -35.79496496200298 -27.78296683922732
-381.7597676592217 35.958725404503944 5.006880582138933 -266.1520702240186 -50.58644250210925 -7.1376912328204805
-582.305005769198 2.9078544606854995 -44.98804163132997 -241.95030977721223 -54.059456982227275 -0.874566067770588
-768.5326280979219 -8.489395483950926 -76.4171002086881 -236.9431938078856 -50.316863035375654 0.31570421415013455
-957.965015960938 -10.387812434119024 -104.63859788632637 -238.18572742646234 -40.67435580444746 -1.5728043428946001
-1143.3539338526823 -10.801876887431876 -132.64837616591058 -238.75479368052584 -28.025437048094865 -7.343748973242374
-1339.6876304296845 -18.50057822153314 -169.78414636496635 -236.62169254688777 -15.622160660514822 -17.92402813026591
-1520.3961868319273 22.900918058577428 -195.33678217061984 -232.65198616592477 -19.509394182565938 -40.50855674150963
-1537.1993994226048 -12.657313285589158 -206.46709154863487 -294.1346051680356 -60.27866092660205 -93.18414229680099
-1893.7540293111633 -1072.227638704052 -623.70200616508 0.3371753285052619 -3.231791635563094 -252.70108381121202
-1535.7260310337856 -12.546868283540677 -205.0849557079682 294.7982952478794 53.5542779132968 -93.14196410435322
-1517.4376150143814 23.118870171992036 -192.63098064574828 233.26890802796595 12.029811395162463 -40.37750081297681
-1335.2456221858058 -18.18028615651824 -165.90956349829437 237.10690261164737 6.988803921874528 -17.590125136334226
-1137.4891451682502 -10.38722510512649 -127.93460395648579 238.9253943602901 18.04733827834286 -6.576343852175049
-950.7662419742808 -9.87973437572115 -99.68351958417807 237.6796043882838 29.544384336442675 0.06757693561191186
-760.1599753904607 -8.067057467518904 -72.31495570890696 235.10970562474213 38.81044887087172 3.6328741317155764
-573.7542772860016 3.226020551634633 -43.57319418507884 237.7228405194842 43.80280218806167 5.328449074213613
-375.01789804355576 39.214191991155076 2.4860683738445677 259.61397198601406 44.47626979216873 1.948022760905185
-178.46038068702006 -46.88802986207055 34.40280787495998 253.26960491589287 36.019850469504725 -23.13193173220259
-192.61799655789557 -416.300447953262 -51.04626293031837 171.67629262462344 25.51581307476523 -111.91335087437375
-203.0899038206889 -181.69029672907104 49.44362880710183 -90.59684924988007 -39.73115393386091 -62.20911582032495
-347.177303755727 -59.07937903483851 37.835910428580085 -143.9424161552041 -66.22902192786617 -18.908335345929142
-720.7013493498242 15.441715678682703 -22.65666504653058 -153.5373537354103 -97.80217355786701 -6.517431644853051
-1136.9545109747805 1.5834567965265118 -98.53757634210424 -137.6535275004985 -101.50093701141752 -1.030842206243003
-1530.3738820381407 -8.508338465522128 -160.09392176592434 -133.15766005878606 -89.56195403321702 0.47634771689384514
-1910.9793366044044 -11.941663956986964 -216.85694226921427 -134.2215353046896 -67.02826137794462 0.26797819490742336
-2285.331089643516 -14.748914053203093 -276.28537266511506 -135.468486948432 -37.85641668558468 -1.6865109566127408
-2634.134953808627 -8.597875676780587 -334.19317575230923 -132.95359799552674 -8.137098952177936 -6.828409958983282
-3043.531845244719 -49.37087533570794 -439.57012766280513 -137.14958875641454 18.224969215094394 -10.709973354588493
-3094.2321897080924 221.27767834356445 -378.12450304814394 -185.772132808252 -38.03883105603478 -34.825414323461885
-3837.434740458422 -1652.8803369175855 -1175.529905774146 0.23383715098222435 -4.292781797258162 -186.01996717656291
-3092.6620145160728 221.4039096558761 -376.3180817092256 186.2356384361952 29.141517219853938 -34.86647105947882
-3040.4165458705443 -49.12060183177741 -436.0049404510168 137.5916912279625 -28.02017116926079 -10.766603247576917
-2629.5720184748357 -8.229604243022413 -329.010670936756 133.3276558668317 -3.0103625124981703 -6.836457473887467
-2279.584005147261 -14.27106823241287 -269.81474618574754 135.66743692064836 25.192956705528818 -1.5132257528253565
-1904.6305660748178 -11.394533915264226 -209.77522251886325 134.02794344870694 53.24698382619772 0.8897025875573765
-1524.5761640609342 -8.006525380754605 -153.65655993299535 132.14211944762607 76.0092053275135 2.0792352622027144
-1133.381321258281 2.313841206180669 -94.54854343495798 135.2638851783994 90.78731848984808 2.3472003415466816
-719.9642492250763 18.1377361680084 -22.47092303380164 150.31843165508457 93.16811484798747 -1.557853627262787
-347.29401320669973 -54.184564999862374 34.13071653849005 142.5199352095089 67.69935735200964 -16.48223584456401
-207.10039402353897 -185.81464768428893 39.116463789995514 90.26866900594656 43.52195460384794 -71.4113529171678
-218.01332437657325 -99.6261090430792 104.7665240208924 -34.70019345213438 -75.95894552760248 -40.31742157064573
-478.4221130716663 -70.19288228666494 43.24561444701591 -56.329108120179846 -114.07996216151518 -13.145089889334583
-1088.0307253160004 -67.4117096329183 -83.86150394612075 -55.31963888415281 -158.76199146963992 -7.074516152170759
-1759.6930637620808 -129.39797910398968 -221.73939840541203 -50.16093470750882 -160.0725070040829 -2.9306503602892673
-2373.971392945226 -184.5644388418315 -335.0150340378936 -49.043748664123505 -137.62806732363728 -1.4581859500351815
-2963.088809258729 -232.07930246145514 -441.3781441441279 -50.18529624576462 -99.08548910945721 -0.47286914049850326
-3546.0543814407583 -283.10300010312466 -554.5526867408192 -50.824576445055754 -49.850653915628925 0.26908316847279146
-4094.566001598478 -309.2026806336299 -663.2299482257769 -53.128881402068316 4.60243235135645 0.1354148073029262
-4586.10254593855 -413.53216671562313 -800.1690077350795 -54.696853495605865 60.662902040593636 0.9899269986423047
-4906.480641783443 -20.034900996916207 -792.737818950577 -132.5892535947139 90.49946737186808 21.441622106557276
-6339.019414086379 -2596.132830353081 -2108.3954952588497 0.11225272962598964 -5.523039011607846 -197.79614831621723
-4904.757186222714 -19.795667025426603 -790.4646152985188 132.8140465176078 -101.92668012137835 21.3646088549003
-4582.70507556697 -413.05687738014586 -795.6601325871648 54.91900063808664 -73.18857805838098 0.8491307988495636
-4089.6555953905495 -308.5025312900184 -656.6154782647749 53.33278940999878 -18.784134401014505 -0.035748590172843375
-3540.0401792718612 -282.21061490603495 -546.1743640767587 50.96913170401773 33.811116182054974 0.13626530298153305
-2956.939630821329 -231.11545477436323 -432.0191486743273 50.18325898105569 81.69582012340634 -0.4269791260170863
-2369.7716720862354 -183.8097692572743 -326.2403653377159 48.71069550929918 120.70350730033395 -0.950321451574029
-1760.4848144118894 -128.9753994060098 -215.9039142922784 49.250281641618145 147.3348480073363 -1.5294425167048957
-1094.3443925898061 -66.3958601583559 -82.72623399453086 53.99039726259678 154.970264647532 -4.940008435388622
-485.0503821730371 -68.61712599878291 40.08403876363817 55.66265009215532 118.87351809008646 -12.197650834060015
-224.98461530896887 -102.7144879296243 96.91604376274532 34.15635636372632 83.84843453279377 -45.884803781592396
380.6929288617199 -1395.8528371844989 -304.5479724968337 -17.954185882102905 65.860208876092 5.714998978473585
1211.194428330344 497.2412639179724 417.4155075677466 -123.53651838592685 89.79184837699316 -6.852120718558111
1254.8524407635948 61.38209495560427 213.2050448501012 -48.88056282651654 84.50712347602698 6.618841096036627
1746.3265815996895 133.20563716352848 301.7546329838729 -55.85545000882509 70.6415450527085 7.637454454947935
2298.942461541702 159.5551623906714 413.36638937530546 -58.529785795417624 45.42487878244131 10.539501461776785
2865.896339862436 204.02565073658246 553.2183633377628 -61.45593125298012 13.844274877494932 13.541010987234296
3438.515715000662 248.51010997657767 716.2659342552537 -65.40303207618255 -21.84959515784544 16.352592580214917
4049.662094376242 303.07999934895366 917.4314046214682 -72.91510572557667 -55.94843807550564 17.617389716251083
4741.436311875279 364.0808329464237 1167.2914176582958 -81.86077541961238 -75.00853183606479 14.841420188475633
5423.379471033922 384.01766542095527 1414.2126948392815 -68.76662467593485 -58.21974176765661 6.427660802581845
5717.0642250855035 332.07929277618035 1507.7672449828347 0.15910329068782847 0.07519768771793313 -0.7058146970564988
5421.708446797046 383.83058671026635 1413.4391378430764 69.09454510513339 58.28364881950524 6.336404167676121
4737.80194347721 363.6863796014069 1165.4945388271358 82.21875735592721 74.80343781436983 14.659997069270142
4043.4265152022645 302.43396831720014 914.0622498191266 73.32833706204235 55.24991077378321 17.35500642994603
3428.557284116624 247.52473348942974 710.3648151776517 65.89913994905797 20.307724033098 16.0364047334075
2850.472587109052 202.61279605955485 543.3324954454373 62.09102717835197 -16.8608829912966 13.267980803988165
2275.1412650738143 157.4492169001683 397.17317299923184 59.26991609830995 -51.119447958045626 10.380060740113189
1710.3986431048909 130.37288248359417 276.6705802535068 57.21168933040046 -80.38282039892086 8.294946670051754
1189.3521583209072 53.965837711310314 168.89477655249854 50.81654678228639 -99.53903447428506 6.080600985749144
1046.0915468795095 464.4737559812263 332.1736270033069 120.72502086582222 -90.60822347181862 4.894178423509008
100.83740063369625 -1473.7945655720523 -518.0933778391925 155.05817828928528 -80.09384793217298 -47.83518230713544
-184.09678740092406 -1427.2700858046544 -497.429354142122 -30.625657906573565 34.86901346534001 -17.06848360707707
598.6654401450558 259.7678128252059 213.92102861911022 -140.20095611232514 42.26981396494617 -14.358902244255924
752.060914051378 -18.70393765114738 106.59080511913295 -126.42404225564026 52.91317392537593 1.5885179768551605
1147.5306627697228 3.554080267401628 174.66496124927684 -139.33798511303087 44.2387672707662 4.013967540466512
1494.9080857350339 -8.670716660466319 230.82915559133767 -147.28899116595395 28.023374030514585 5.864064743887615
1858.7700678665726 -11.217291147686163 309.550945972755 -152.52950889592103 7.492098382378478 6.777506186072066
2226.8309150602868 -12.607096594419465 405.0266838280443 -161.08884683114684 -14.920938083244383 5.908194408908473
2615.919771415336 -7.333179657926104 524.5424462876384 -178.80545048794556 -35.61450529689895 1.063212951463904
3039.342213323264 -9.84519202176527 666.3971372132919 -204.64022813982606 -46.8760011334908 -11.26482522621129
3418.5529739108592 -97.37750915028641 777.9963457818716 -179.3391826471762 -36.55860981394986 -31.889110112308053
3535.6696238451523 -274.5927102010362 775.3700755967918 0.3085822995631309 -0.6751577278559073 -46.60999606378282
3416.8436501166266 -97.44516851670565 778.0205514497002 179.98459932769057 35.080490746573616 -31.910778182824128
3035.674309101168 -9.983403919218121 666.2483504054732 205.37521543864383 45.009324056687404 -11.285642615257592
2609.7627071876964 -7.548708029638796 523.7770341060478 179.7076388992313 33.07360543299453 1.1015228098058079
2217.307085458745 -12.907150583923267 402.8641860797881 162.26514398862014 11.34864624388508 6.12932696521847
1844.4882117318348 -11.603344032421855 304.7066868217298 154.13175026980355 -12.639945552537664 7.421577852565466
1473.9116481758424 -9.051655723137683 221.4643273460452 149.48935711197353 -35.56004799723588 7.3139940101393845
1115.1406493218249 2.285869470501494 156.99249754107575 142.754355742407 -55.371532131914165 6.923350877769574
699.4284925602166 -20.10202822394924 76.26885152220854 133.01951168515635 -65.81171023544321 6.119272947911698
543.2803363146705 250.0438508277571 166.2051747996112 152.4092994370629 -47.314344109474376 -1.7742594191952323
-222.12164373991027 -1407.6959155300656 -569.3238293960701 115.17089646863239 -30.94027317116752 -61.87647116871611
-208.1589842871306 -1023.7710241420546 -344.33891965306515 -198.48909873870136 12.233352443261463 -58.845909788950316
272.00155861244775 129.64070982141217 122.46169932565105 -244.03015829278388 15.390198317743966 -21.703129345096556
351.38577580079345 31.465423339202157 70.96744923079036 -227.47774840626272 21.53209527513041 -5.530925492112734
571.7900420986145 -6.377421559291423 88.4328594125845 -245.79951473811187 17.77548396085266 -0.0791906897146703
761.293724392041 -5.86085975992963 119.52766379118836 -255.32887173497693 8.647671185714675 0.6745122353563681
938.6148997759688 -8.993568440735924 156.14312124778462 -264.38412033169715 -2.1721899793506467 -0.9871242068030974
1116.6755558547277 -10.442254601298478 203.10555894485958 -277.9826593795378 -13.391093400930314 -6.434154157520269
1297.7155883153764 0.028789775921168825 263.6049972504673 -304.44923896331704 -23.8384369263592 -18.572493362742406
1505.9665385753758 14.50969274198908 341.8315251188098 -350.4275830312568 -30.993020065482906 -41.75254332817266
1714.9511629029623 -120.87653661157931 383.16438946342623 -325.15928110874916 -26.61492614466472 -76.54975718517302
1698.084830958822 -519.9878650922883 275.3696222292526 0.4979143890885595 -1.4118399823316243 -101.70180345374168
1713.1753707522844 -120.96650409514874 383.92495063729376 326.2021706243879 23.630414092782864 -76.50392350624084
1502.2088657584106 14.329531279105396 343.1993379724443 351.6201151864152 27.528545754874994 -41.61394848455319
1291.5589906184352 -0.2412340986551823 265.2259808750527 305.92224297079196 19.580160957092698 -18.22596545339007
1107.460232615375 -10.80421728293673 204.31835752311702 279.92243027725135 8.019788986664038 -5.646778995540416
925.3944928336151 -9.39369263292577 155.84327562492535 267.058980293166 -4.66955090650787 0.660244835959417
742.5887774058618 -6.289865590442607 115.85958767181593 259.12621178355215 -17.43665006189316 3.8959628183261255
544.6754808710186 -6.9146106127535765 78.3295641464515 251.60139432268898 -28.827983289241455 5.50425245139003
321.6585650126892 32.32313857939008 53.42227310449674 237.94948780517788 -32.578892863550145 4.47986180829494
241.69549772633056 105.34750496427546 82.65826848091808 262.2800739013171 -18.532985491300426 -13.127783908192743
-218.83793348253255 -1008.6808174403376 -393.1368646654413 217.17364271434053 -8.350245800521654 -91.02021740259421
-186.83019119193543 -649.979939355599 -172.89595277440347 -213.85198088753276 -1.4565818213201456 -75.45331208311235
29.14601656074216 29.630234868620615 69.70719998345707 -286.0612464511532 -4.681895266598229 -25.491548801265125
-9.590841122280995 48.7143970374074 37.18957808206319 -283.79943583176293 -6.702474242352359 -7.631963023926342
10.634053938126064 1.8290462150631406 12.254683335041777 -282.7500117882081 -8.601950552865873 -1.4795575061796946
22.547964017797373 -2.2415158191368962 7.261803498491963 -291.1332027260025 -11.280968714671078 -0.457065013038342
18.04456294899593 -0.6122671080658717 5.452206830991582 -301.42471262332026 -13.262048663441172 -2.9063020784079105
6.53465982530202 -2.168451076027925 4.8365959525043785 -317.07155210361464 -14.325388652211094 -9.745857205603885
-19.61898296921625 10.066614051608639 6.936601252183421 -339.6508092188386 -15.710389220363258 -23.758388117603126
-15.942435512211862 55.57993947256386 30.652356023935262 -389.34865410299636 -19.687260160264184 -49.30411473447501
68.63314464310848 -112.62540791669802 21.79452234053469 -406.64339006732484 -20.906761864295696 -88.96202587229314
-121.83710889845992 -911.5910103644555 -251.9578697660544 0.5642624724958827 -2.1464074107782745 -121.3752429014554
66.79934059420253 -112.74315752638648 23.29378418541972 407.82537762692834 16.423229179069658 -88.89567019859126
-19.770684015232675 55.34649409301689 33.541398262437085 390.70047148468944 14.643782202203178 -49.11663899451746
-25.74475836415141 9.721936664611198 10.946430647185682 341.3202900896342 9.777243578020563 -23.316168156453283
-2.3047732053886847 -2.610911458866483 9.432285200007968 319.2707789593263 7.247070837535066 -8.783966741013334
5.989184436223095 -1.0930283963884881 9.662112577106532 304.4786474993191 4.889437561802005 -0.9324500669871607
6.451972718528721 -2.6657987855816594 9.342400510814386 295.5618605401515 1.6017009165321323 3.3244921259826414
-8.764505964428881 2.303312768383482 10.18135590386143 289.4918349442474 -1.932722874062625 5.33145820741328
-27.42799990029942 45.56663554566661 27.103347794554935 294.4491600180577 -2.016999834452266 3.019749870467516
12.720648445604118 10.546568295221613 41.31614962254741 294.94685728898344 2.843879100244028 -19.247229146719267
-188.24029692380645 -633.5313126215458 -207.2063092620179 217.60396474913944 4.51721599602962 -96.37636407524433
-176.94930692746317 -344.57721222847 -23.70983446817966 -170.62337080782763 -12.981698199843157 -70.90467530531707
-169.06221372246733 -21.44350566148475 47.05694956898165 -250.598590682278 -23.1761917982279 -21.768412180471135
-353.3805169099513 40.54761405603358 0.6043350723964274 -264.3532330798525 -33.96033629078518 -6.505735955445208
-536.740007903034 8.767364776733674 -60.5588046725566 -251.5112584554238 -34.766261711952886 -0.7412562888525532
-715.3536809428484 4.145459076204164 -104.25879903122272 -254.70880788464746 -31.33178058289605 0.705485251133998
-905.2161541250223 6.776166152525814 -146.54474545581274 -264.3865515145329 -24.49367291046495 -1.0013913769480114
-1098.6543059584756 10.934253912061823 -190.56629630881645 -277.5116105133355 -15.448872405793415 -6.511401721158036
-1323.4041706392493 8.424414049900774 -249.23007547211017 -294.63915108109967 -7.196320754652267 -17.815393408850127
-1542.1660087559767 79.57013130467196 -287.7134762558361 -318.3423411073789 -6.288668963935124 -38.3300181715033
-1547.529332362374 9.574965974455743 -301.3767281387351 -422.3720306528228 -13.174731973401464 -74.6991285054262
-2029.4013788729942 -1477.7517633973505 -860.6936579232178 0.49960630227021663 -2.895415096371157 -112.12434937581175
-1549.4330445195087 9.428807294243386 -299.1281863559198 423.41838868185187 7.1613798213099065 -74.65920075015129
-1546.0915208370698 79.28117632501903 -283.2809312870911 319.53820838358 -0.3706866606472191 -38.20354065092733
-1329.5459245400652 8.0024111486305 -242.79366512400725 296.11369334572856 -0.45913283408940514 -17.48876362710809
-1107.1846142737913 10.406752701771076 -182.5288501845017 279.4502832543477 6.5977465895549345 -5.756651031669132
-916.1930145235261 6.198508414410508 -137.73669519058214 267.09261285032983 14.510958538629536 0.6074510193430149
-728.3919413642041 3.8467960373919046 -96.1086767324841 258.69710880739905 20.692545522203922 3.926543253190526
-549.8427607259897 8.822252677481252 -55.31569328322384 257.60113402865625 24.72133835265603 5.224892437019622
-363.44575193239257 36.91475896611631 -1.8197271323901438 271.740447610711 27.168185711814665 2.1457693247991343
-176.95050903643374 -32.533110426724605 29.687724725810217 253.87271121201448 22.248219846791713 -17.15168048539277
-176.76871284203904 -333.14341305502774 -49.54834620704075 169.52693753498727 15.469660744878173 -84.42691575907097
-196.32525729106257 -153.3677451999857 77.94006862373179 -92.19202542497624 -27.528610984801883 -42.88269999501321
-338.00643562866594 -38.9335525906021 42.006585984749144 -143.38856218053309 -44.34437910046835 -9.469843548654287
-689.8724300895501 22.681348592456715 -37.585308705937514 -155.90939694564804 -62.48964975189753 -1.2738052712939032
-1077.9832761287564 10.82756864070465 -133.9667988045441 -146.2238791962307 -61.085259292468855 3.367766074448986
-1452.9040866602102 7.665743497342941 -217.59135055389984 -146.61125880321617 -50.97785413588129 5.7891474886252965
-1827.5966225372504 10.323883870355667 -300.8457824501135 -152.49549145859592 -34.590393697618616 6.743154213783983
-2209.839267578514 13.112602067382673 -392.9594052161896 -160.69675847039335 -14.357328813836311 5.858339348414535
-2583.7106119644445 28.547520211055875 -489.12002384011936 -167.72385992313994 4.90418092995025 1.851548905035353
-3084.8393595631114 -15.940554422505096 -652.1459148879571 -186.46898237185354 15.093070100291918 -6.7082339351970095
-3154.300498988206 340.4793407018039 -574.7220833452357 -253.31369798701965 4.140857353121791 -29.72630707776071
-4159.663795591337 -2206.2094342703845 -1606.962228373166 0.31216362555281596 -3.675267257886261 -72.09722501418835
-3156.306367842588 340.3093081368193 -571.7059405702856 253.96660900747543 -11.75271165963961 -29.760557328042882
-3088.932831354588 -16.276476530854733 -646.1296409420287 187.21213375381947 -23.45980448515609 -6.7543129015934245
-2589.990825397783 28.06044701827839 -480.1867768865026 168.6336953625234 -14.41878215748062 1.8503902147106972
-2218.2737590011434 12.509524345047517 -381.37171161577464 161.88246040004674 3.516774896777728 6.020232452170996
-1837.7169230136567 9.719108323333879 -287.214866532058 154.13373851477434 22.65164167915021 7.303326000499533
-1463.2392247473847 7.323031517292654 -203.11802500753825 149.03481598104298 38.8801192239901 7.212623988579756
-1085.8480303433591 10.50533722299733 -121.11645134049421 149.76728876412915 50.87727595629237 6.361956540399336
-693.5396979518881 20.089625720844808 -31.51785336473649 159.52155692999756 57.11466406513675 3.1455179881949067
-339.57436882484814 -43.99557704947274 34.743134123565305 144.18360503401462 44.659877843022095 -7.13099531860775
-195.92724126536984 -148.145412142868 58.542299026234765 90.55973077195641 30.49960604725285 -50.441547436355236
-219.33665963226989 -89.12469103841056 128.76931144069707 -35.93718529381527 -53.04167880104059 -22.010052428574053
-474.11198482440324 -59.346608003323695 42.665979446164876 -57.40533482118428 -73.09044979460546 -1.0035191346893593
-1050.5242372140056 -59.10882992123385 -102.7161538934437 -59.49157082324176 -93.40987396303011 2.67148548291948
-1678.7254573357045 -115.94148109079096 -263.5265215303979 -57.292213202299884 -87.24751831674821 6.554335089211733
-2262.1504506643005 -163.0667009159438 -403.9709465079325 -58.09479268959612 -68.93578606743357 9.870465830950135
-2837.387851219629 -204.15966871755947 -546.1619168911915 -61.18024203103019 -41.48292087303048 13.131102636123174
-3425.7852814677517 -252.22963524758904 -707.2891472544053 -64.25066789759886 -8.094158342873238 16.049434988758694
-4000.0914436349963 -268.7915368538896 -872.3664641181543 -71.0736641838701 24.879211243792824 18.209383678116502
-4569.808610741435 -397.44546206260026 -1090.4728398939408 -75.18355593834504 46.26331563468345 17.21452053418674
-5063.461543532783 111.33739320066066 -1117.3105637926924 -165.58586779461095 44.18287364067523 10.650948210871727
-7016.864977405172 -3336.9250463126828 -2751.9102679678 0.1623505979530906 -4.497225348656969 -50.51128274016388
-5065.564720858534 111.28415079528394 -1113.446409889457 165.92731755979753 -53.48911854183393 10.57664823121158
-4574.062417176594 -397.531157445612 -1082.6990651661677 75.57717666385042 -56.47210783493937 17.071721092521994
-4006.5103394462803 -268.85951909510436 -860.643393263809 71.56207839593546 -36.46543715113653 18.014898509928308
-3434.154969321125 -252.1771289538076 -691.6915862718336 64.89004754046822 -5.089956311442101 15.843119173223835
-2846.777966558751 -203.73733908831667 -527.0156989583787 62.05018428236701 26.986194567301418 13.005383107408626
-2269.981679893668 -161.78659945868523 -382.0509730879585 59.331133958982896 54.393412218875426 10.034791713965728
-1680.7164730924414 -113.60710111805413 -240.90148014140945 59.010964204863974 75.56143186017823 7.3685521342994456
-1045.2045228742309 -57.22180653367028 -85.0049815054403 61.28149981788775 88.82932984107525 4.087860051874966
-467.4276925326477 -58.62877112294959 46.64300310676994 58.07568378533457 76.33994698446182 -0.33037649395529123
-215.13913334068786 -84.34737411159546 116.94104820034144 35.44007734492073 59.645418328435625 -26.53685658923369
480.6522066734306 -1301.4796176264206 -246.24822328589713 40.867958016802966 -1.7674572916348552e-10 -8.770428827631349e-11
1243.5103232370172 486.31696486095007 436.75464575180627 -121.20804281356848 -9.110467935613542e-11 7.713829575095588e-13
1259.8546256897082 64.45805081264594 243.05325795043214 -47.11685173053579 -3.6583014395574764e-11 -6.1420868391337535e-12
1735.3638834239441 132.26637202831537 337.74125096401025 -56.02801854574868 8.056333378192448e-13 3.853584118473918e-12
2281.569987181006 160.3440800612339 461.6203737546549 -59.907913205052296 1.3327103309812571e-11 1.7955525954960194e-11
2848.0747797644085 206.98677809492727 621.0150349125665 -64.39950428186997 -6.440237232396839e-12 -1.35628175357283e-11
3429.803163910458 255.15202010158197 811.2300928453257 -70.14007676207376 -3.92503252122367e-11 3.3226754680981685e-12
4068.0172894658253 315.83525319080763 1047.513277995848 -79.48572229464966 -2.582767333336733e-11 4.508404760628082e-11
4808.996298795546 385.5976772431623 1337.101318247721 -89.37956709769313 2.0010715306995053e-11 2.4924950992044614e-11
5548.239782053298 414.2287495931969 1617.377354368062 -74.6762257390825 4.441941259258897e-11 -9.339973239264054e-12
5867.589852852552 363.67694785821874 1721.9250124324524 0.19707695262375857 4.803574205070049e-11 5.057287921772513e-12
5545.408178900636 413.99289527926436 1616.4111102114175 75.08858495638891 8.669748252643217e-11 -2.825184530763636e-12
4802.867489550632 385.10082294231495 1334.8304697934682 89.85015572818713 1.760202539280442e-10 -4.382716412010268e-12
4057.5337821062703 315.0162263026772 1043.186844351373 80.0675779369406 2.0329990468859194e-10 -5.415778936423976e-12
3413.0078661235916 253.8655361552591 803.52742212193 70.90254896336175 1.7577608812935352e-10 2.015310140990323e-11
2821.7278953743503 205.07337623779858 607.9358977766055 65.44970834376772 5.951569792550515e-11 1.6497914145929826e-12
2240.427179815946 157.2985398768602 440.1829560233886 61.3143141943728 -9.598688510692455e-11 1.3639089857520048e-11
1672.1669649564897 128.30608093088324 304.5139504803971 58.29669616435809 -1.4692236316449225e-10 8.214595670352765e-12
1156.3252987180317 54.640432796778335 187.80979220124334 51.32269597999312 -1.99557814717366e-10 1.9977353105105067e-11
1004.8496103137952 445.3514860938118 316.93063372502337 115.66239672097791 -1.7782941785782214e-10 -5.200284647344233e-12
85.30317910695192 -1423.9555677508133 -522.1247252638951 147.23335242296994 -1.583682074368653e-10 -7.988187888940956e-11
-158.22396658111612 -1380.0273042221734 -464.4471807098411 3.2086545732772564 -5.452024942620426e-11 -5.291184157485418e-11
605.7710455286522 248.6882025678795 214.1573273100904 -133.1578771153361 -5.065631247802571e-11 -2.035566160074609e-11
766.0819492048167 -16.039104966600696 127.68661415485356 -123.30605658579597 -3.979799823028429e-11 -2.0309032233711832e-11
1144.9812519338675 4.042529394260863 197.65067568012404 -139.89487989190926 -1.8457790851300615e-11 -4.6704862199931085e-12
1487.317013845892 -7.272563198443629 261.1047041305898 -150.31672060532134 -7.80920120235784e-12 1.715960706860642e-12
1850.5188816457767 -8.541676964874949 351.4362571953131 -158.64013739249913 -1.1772159635992097e-11 -4.222788785313014e-12
2224.299872858175 -8.309831582007874 463.2714711372319 -171.17013042896158 -2.531257148330468e-11 -8.797573780583434e-12
2629.4125278434394 -0.9476732274719049 603.2358083117375 -193.50060668017954 -1.5660694963059996e-11 9.013234603116871e-12
3080.3897300317276 -1.2970355746074644 767.0743015488532 -222.3587227638635 -1.237387969865722e-11 -2.8802515927850436e-11
3490.3467112507587 -87.60000229019566 895.5858577333198 -193.88953215871015 1.588335019064857e-11 -2.5566215811068105e-11
3618.7152301189353 -270.03809092263305 895.2108475889094 0.38147396178939164 4.3318196252251084e-11 -3.210343102466595e-11
3487.4041705296754 -87.70725291419166 895.5903241215182 194.7007553333176 4.011740939446895e-11 -3.9054981471053907e-11
3074.1066582298176 -1.5117891012264926 766.826477952739 223.3267269683859 8.200047585393833e-11 -2.1203150346593702e-11
2618.912099073431 -1.275284276283942 602.157022527018 194.77245358136437 1.2171946783823273e-10 -1.1439516001132688e-11
2208.040298770183 -8.763853129110826 460.3382345524839 172.96177133159506 9.098632958171038e-11 2.2928714482617352e-11
1825.9644255533613 -9.125692212480496 345.0080282626928 161.25035424118084 4.353232357923176e-11 8.061845635509712e-11
1450.5671612714837 -7.918306586751395 248.81293678249966 154.14118568684108 -3.975796081245875e-11 3.238886936429708e-11
1089.3186823520475 2.649537150576049 175.42500162578722 145.77565980333011 -9.220502139584141e-11 3.598216169464763e-11
682.5814597176264 -17.30984917045736 90.36054824131652 134.67872657635817 -1.0964290586557013e-10 2.8246793792874314e-11
522.6846836701649 238.67564951953537 153.46216651696935 147.87498143827045 -8.588051103597394e-11 -9.228728892196614e-12
-222.15462282565773 -1360.439661211185 -570.4329990821288 109.10509640462713 -6.098575811019913e-11 -1.177644648464593e-10
-203.73934123600395 -1010.2598461269464 -335.69858039752006 -183.3087499890165 -1.9815329932448833e-11 -5.545230941095269e-12
279.4788650032222 134.0699972024449 125.70932262927252 -230.34988886730065 -2.4571650270033274e-11 -3.3069602611845994e-11
363.51306848883183 31.89687034018991 82.55784982545212 -223.43992041199874 -3.709457740974642e-11 -3.344846621899933e-11
577.8981441532856 -3.7270026681090886 103.10659923640861 -246.82735387425691 -3.046529348238458e-11 -2.4049318092522753e-11
763.1445457285785 -2.6239717464056636 136.71670400895198 -260.72649909940367 -2.4820905747402477e-11 -7.149836278586008e-13
940.1359572079488 -4.232663197218685 179.0851314523312 -274.57463855169374 -2.9402112688980964e-11 -1.599276266972538e-13
1120.9707252682267 -3.910473781404937 234.40189062717582 -294.5684804907792 -2.136882337744339e-11 -3.3025027157407294e-11
1309.6046717334864 9.100867188884115 305.42444728735177 -328.61291723172315 -3.456826491721188e-11 -3.206368504038437e-11
1531.1914008265214 26.62209275263945 395.01902639830246 -379.769677668855 -4.344070936301847e-11 -7.957157155402683e-11
1758.1189496661711 -105.82070562633987 444.61895114129675 -350.06914679267794 1.8457735340149384e-12 -3.2558178375552416e-11
1744.0170472169602 -516.5036745012778 329.94094489358827 0.5960665455018042 1.368292285031103e-11 -7.767364529343013e-11
1755.0536633088016 -105.96198631365387 445.5172449929123 351.3406193442275 3.813588334011797e-12 -7.065414919793511e-11
1524.7379972004946 26.339822011867923 396.6225591636476 381.2996295847685 2.8037169808037277e-11 -6.266975827173837e-11
1299.084085080099 8.673981527042269 307.2859762199337 330.648009167927 4.6998988034729905e-11 1.2665646309528711e-11
1105.2484302328292 -4.493809411992996 235.6911280164387 297.4784913195158 4.029437547514725e-11 3.0265012718189155e-11
917.4150855220095 -4.9363363890387335 178.41392260760713 278.90744587238316 3.211322874285827e-11 1.3583129065963817e-10
730.7029393657152 -3.3019586165933905 131.9037129271479 267.2194619391416 1.677442906800053e-12 7.445782879145213e-11
531.6914978116346 -4.4784282269725395 90.75052490547058 257.0212393890692 -3.502920870035453e-11 6.413752862144406e-11
314.57819214617024 33.63744320493222 62.508630396918406 240.5915453184626 -5.1808231316119446e-11 3.342831567110238e-11
231.78324043245516 99.16002519901981 74.02289262044006 255.73198256953262 -2.8241098695702682e-11 -2.741562532548869e-11
-218.2239370517999 -976.5597132510832 -399.57559359003005 207.84227563327758 -1.1590034487696244e-11 -1.7675505503689237e-10
-184.1174170934343 -642.4702535794793 -169.66295174397177 -205.08656943053705 -5.225573446177023e-12 3.1995517346672386e-12
36.00299440628433 34.51161024922921 70.93601408687479 -275.42470461961153 -1.0410845796560153e-11 -2.8804736373899686e-11
2.260460810897534 49.308347706713676 41.853751194339125 -278.74079824844205 -3.661232428342487e-11 -3.5960734390272364e-11
20.518913379983594 1.1567135708837724 15.894022555754953 -283.9944098425063 -3.968389505892844e-11 -2.5613011711556055e-11
30.576017128947388 -2.61224221583623 9.021392538127024 -297.4487697132194 -3.620337363230419e-11 1.6291412663349547e-12
25.118601406347732 -0.8172599002518192 6.385574636957548 -313.19967499972904 -4.6223871952300044e-11 8.906597681601625e-12
12.743692045650196 -1.9548992696130365 5.905635980592227 -335.91164512489405 -4.145882248618449e-11 -3.5437874856825147e-11
-14.609283294803689 11.273750964883966 8.557150349825198 -366.6092349591552 -5.242236159053171e-11 -2.5353275034945e-11
-11.068939759097502 58.41828439553081 33.630803918806095 -421.5247071526774 -5.0319519384611766e-11 -1.0682543738482764e-10
81.84134375190713 -106.9142321311868 26.007417167322558 -435.2705722276988 -2.0210132178899443e-11 -7.297629167624109e-11
-114.32013986315772 -927.632654324544 -267.59509446117613 0.6686429123052284 -3.1722648813348187e-11 -6.575784361473325e-11
78.67347452635181 -107.09178996766528 27.80206351454714 436.6977071055516 -2.8285724457122186e-11 -8.678091578673275e-11
-17.644964199303807 58.06506809204492 37.08838514026754 423.2445439118851 -1.2888609450534272e-11 -8.167688747562352e-11
-25.05948274246477 10.746393508996656 13.354558226424977 368.8997039459352 -1.6985420014936636e-11 2.2839397040286258e-11
-2.2745303507836754 -2.657748616887262 11.396671454219176 339.1965815473249 -6.419927089940103e-12 3.079336785560827e-11
4.580807356101408 -1.6157918538808786 11.413556265053149 318.13142805646913 1.4664998382318828e-11 1.4206741338895768e-10
3.043081961670082 -3.312753220420642 11.576856049878234 305.02323091900536 2.6345432779795175e-11 9.301115433402174e-11
-12.595762079366676 1.850330830983436 14.046197169281461 295.69131139324156 8.863514089352265e-12 7.644818111884888e-11
-27.80494795484807 44.64190737041477 30.87099192534104 296.1118072664563 3.623920608042397e-12 3.4043268204442256e-11
9.93749545631547 7.192472274414412 34.910780845517976 288.5180290070817 1.4043655127693455e-11 -4.01739752575736e-11
-185.0667361192644 -610.9578040932744 -213.01165952448096 210.06861627403768 1.8596291173622603e-11 -1.8554047187535616e-10
-170.17589686948378 -337.7237584483921 -19.06568542292537 -166.20397913396252 4.444708490147775e-13 9.987566329527908e-13
-160.22223769307172 -16.78090981511063 46.0616022860098 -243.04228657939692 -1.149741413186689e-11 -1.9635681969276675e-11
-340.2046826769094 40.52151096925653 -1.1909835497320773 -259.441908637888 -3.3963332146669245e-11 -3.603783937933258e-11
-523.1872234465937 5.554247073070106 -67.59345136769056 -251.88566178773985 -5.009112569176466e-11 -1.629768542343868e-11
-701.6547995582017 -0.19212032261268586 -118.12692028602844 -259.95674119651005 -5.1773155207435195e-11 4.311939694190414e-12
-892.6231476546106 1.5530985379481108 -167.65094461025024 -274.6426540836461 -6.221718973353774e-11 1.1733836124960817e-11
-1090.2667027429438 4.950697149064256 -219.65858633258202 -294.03443296908364 -6.433403853048358e-11 -1.6388113088794398e-11
-1324.752888357078 1.23777321808865 -287.8849264527466 -318.2147875012665 -6.386183248885402e-11 -3.147659910496259e-11
-1557.9947037587847 72.41604586979167 -335.0892616207067 -345.3470101183347 -5.477368558715057e-11 -1.0322476207136333e-10
-1563.4114436314621 7.140301153811027 -350.5965131976773 -449.2474740222276 -4.8746701120094826e-11 -7.126199630391739e-11
-2062.9013712176043 -1518.9076480415597 -949.2391203387222 0.600531143373346 -5.757155516206147e-11 -5.3105408959197575e-11
-1566.6976950905362 6.926122305192797 -347.8918634295747 450.5284056695559 -5.347862430671313e-11 -6.762790327741186e-11
-1564.7279708244628 71.99157953835959 -329.74881728967557 346.8873905720057 -6.82855993971998e-11 -7.495160048165417e-11
-1335.1966492140873 0.6107604464153542 -280.10516363238355 320.25901761670957 -6.389251974714405e-11 1.7594148360444706e-11
-1104.6603133522392 4.144015642025151 -209.88586453441613 296.95453690042615 -5.31917634938317e-11 2.916911157058166e-11
-911.0745726778675 0.6338033950126678 -156.81255036204553 279.04806588035615 -6.2178595605644205e-12 1.4896078814885527e-10
-723.6095334047867 -0.7304784885190305 -107.75373293088701 266.8038238457954 3.982386642675806e-11 9.533868139399715e-11
-545.3686763743182 5.533198816820447 -60.028456590288926 262.3782283925672 5.139427772249405e-11 7.139921986976105e-11
-357.2043066307096 34.93576443083202 -2.6108626280425593 271.6795108730701 5.904723932026457e-11 3.1174618442264546e-11
-172.67877591512345 -32.895099309903145 24.725248502015834 248.06105714573764 5.233129207748988e-11 -3.537442561096782e-11
-169.0214631060833 -317.1914954674314 -51.595301864019746 164.51710258188461 4.0587699867700167e-11 -1.6150325521380182e-10
-183.32077131318775 -143.9409243272557 83.68596036685791 -90.95605748858536 2.7989555118068665e-12 4.802269693016115e-13
-324.8317447266971 -32.185722396993945 37.823911997787675 -138.9173944153737 -1.0337286582284833e-11 -1.0874912081959565e-11
-672.52174672344 24.30780460435122 -44.91944865634441 -152.4654298077805 -3.98067134810276e-11 -2.203626170427242e-11
-1058.0781899571668 9.073352493071328 -149.79946701990065 -145.97334081565026 -6.071521063688579e-11 -1.32097666138975e-11
-1430.4148921487304 4.723148620483772 -244.64416723619732 -149.54437086495474 -7.47763795327927e-11 -3.1546987244723823e-13
-1805.3527016226928 6.97264527066969 -340.97539314839116 -158.6547131635634 -7.374931915160587e-11 -8.189449118845005e-12
-2194.3963824763728 9.273374878777922 -449.16590143885225 -170.75401298695235 -5.557831972424765e-11 8.845701948700935e-13
-2584.5732747660236 24.27329300997543 -564.1033884941387 -181.7335331469092 -6.585038070383575e-11 -2.4080737404119645e-12
-3118.1120199264797 -23.65412113474177 -748.9487785919093 -202.0171405535456 -5.987277340580022e-11 -6.355699300186757e-11
-3194.398449213169 350.76622987515844 -667.0865740299098 -268.8719690521572 -7.324422318655266e-11 -2.7140983904772042e-11
-4241.160316321726 -2275.901515616508 -1767.5752912109244 0.38927130740715576 -7.43327482899403e-11 -5.831257698929448e-11
-3197.8549500685085 350.5165896199451 -663.4471536294651 269.69971420901703 -8.808251350522767e-11 -5.404510172724031e-12
-3125.1195851267585 -24.148515492804265 -741.6705724470933 203.00384601555282 -1.2701414919824572e-10 -3.031336293091158e-11
-2595.2204856045464 23.5494833008865 -553.2421972117454 183.02544539493041 -1.196915205836646e-10 1.4790335622905104e-11
-2208.5369973268325 8.35465652693292 -434.9518179080617 172.5720831390467 -1.0011717149760457e-10 2.2934265597740477e-11
-1822.1430230185033 5.995323548163878 -323.9801880479746 161.3565729627558 -3.3416158728982737e-11 8.269945839245452e-11
-1447.448348079545 4.018166309258757 -226.0216916943664 153.72675443836062 5.2718329701662014e-11 4.6198600500702014e-11
-1071.018595752632 8.202484285097713 -132.24862039460595 152.08915664756478 9.886808038928052e-11 3.659172964631807e-11
-678.4694767209985 19.830174748141165 -35.24917236626486 158.5083943985256 1.2908035751379998e-10 2.1785018233799747e-11
-326.8871863283287 -39.92832266127438 29.9045842105705 140.14078992513586 1.0583972587241419e-10 -1.4542478332657538e-11
-181.62665486523912 -134.53097516374504 59.00250394472824 88.5626157386998 7.16529058308879e-11 -1.0434630937083966e-10
-205.25256628273792 -81.3080777342892 123.10846908578372 -36.09266165654256 6.162403920484394e-12 -3.4638958368304884e-14
-458.67629454253847 -52.98521702564712 29.014457541309945 -54.869094900267115 -5.2087223423313844e-12 -6.104672323203886e-12
-1028.7676251082726 -57.17408155181757 -119.38547876759957 -57.54172680508699 -3.3431479806722564e-11 -3.75699471533153e-12
-1651.4531864244664 -116.95297564508782 -291.69002437992566 -56.867273608952324 -7.748601760226848e-11 -3.709921259087423e-12
-2230.2307506829643 -165.5375566050306 -448.87302383618044 -59.3007715075163 -1.1006018318937549e-10 -4.702016553892463e-12
-2805.540716867149 -207.8876080507915 -612.1385706590142 -64.01419679124957 -6.380423966945159e-11 -2.2311485992076996e-11
-3403.99198633775 -258.52563807171066 -800.3206788086891 -68.88523495327416 -3.60836915902496e-11 2.2745361150100507e-11
-4005.6384330785186 -279.54550317377124 -999.6080317844195 -77.1777600280201 -4.802735986686457e-11 -3.318234575999668e-12
-4625.6549451532865 -419.33575874303205 -1256.0855998947525 -81.31002395475906 -6.498135363131041e-11 1.609468114338597e-11
-5151.837854995822 107.99639726781761 -1285.4453993670588 -174.26355685850254 -1.1647233177924932e-10 -2.6483260029408484e-12
-7164.039399658307 -3439.3974003741855 -2967.2219146143384 0.22491398937688967 -9.137091083744053e-11 -4.6380455032135615e-11
-5155.485295012917 107.8722473797119 -1280.7664317878537 174.7419428951604 -1.1371925623393508e-10 2.276268062928466e-11
-4632.98829296015 -419.5544944731793 -1246.6390552060818 81.87886320041136 -2.0262014288618957e-10 2.998623571670578e-11
-4016.601526145358 -279.7881564625018 -985.2646729502073 77.91539059699986 -2.1827728513557076e-10 1.9252155425419915e-11
-3418.1078930363196 -258.644950228839 -781.0074748032941 69.89950723698846 -1.7753035153056373e-10 3.503419776507144e-12
-2821.1084562975384 -207.5118608747668 -587.9226595867856 65.45739345728632 -7.22787385498691e-11 6.930456208920077e-12
-2242.8326555360004 -163.92769256127332 -420.0983926305129 61.40127228617272 7.83999531961399e-11 3.274358562066482e-11
-1653.9712900067382 -113.80149977060992 -260.24753973860766 59.761856348497034 1.620459322282386e-10 1.0675904604795505e-12
-1018.9643867949165 -54.76204315221062 -92.80074160902355 60.463344137479 2.1983614928444695e-10 1.1384226894506355e-11
-446.705530990191 -52.06448978642679 37.03595714844148 55.910845605856174 1.804285609807721e-10 -1.6555645743210334e-12
-197.15768347128275 -73.21782566043171 108.16838420178084 35.54769534693558 1.2593481812928076e-10 -6.213518588538136e-11
380.69292886274343 -1395.852837184189 -304.5479724964338 -17.954185881592142 -65.86020887644655 -5.714998978658457
1211.1944283310825 497.2412639181209 417.4155075679743 -123.5365183859516 -89.7918483771499 6.852120718550907
1254.8524407640398 61.38209495568212 213.2050448502038 -48.8805628265238 -84.50712347607889 -6.618841096078784
1746.3265815999557 133.20563716355443 301.75463298389917 -55.85545000877397 -70.6415450527303 -7.6374544549609285
2298.9424615416497 159.55516239033625 413.3663893751373 -58.52978579541173 -45.42487878242993 -10.539501461793218
2865.896339862644 204.02565073700575 553.2183633379407 -61.455931252998894 -13.84427487741805 -13.541010987249772
3438.5157150007094 248.5101099763733 716.2659342552881 -65.40303207618756 21.849595158004256 -16.35259258022459
4049.662094376382 303.07999934864426 917.4314046216058 -72.91510572560583 55.94843807560361 -17.617389716292887
4741.436311875523 364.080832946308 1167.291417658567 -81.86077541967053 75.00853183601706 -14.841420188478374
5423.379471034192 384.01766542101484 1414.2126948395678 -68.76662467591217 58.219741767644265 -6.427660802590348
5717.064225085772 332.0792927759406 1507.7672449830377 0.1591032907766241 -0.07519768762003454 0.7058146970529267
5421.708446797515 383.8305867101578 1413.439137843364 69.09454510509707 -58.28364881931184 -6.336404167685945
4737.801943477596 363.6863796013574 1165.4945388274166 82.21875735597337 -74.80343781411287 -14.659997069239305
4043.426515202212 302.433968316851 914.0622498190413 73.32833706216398 -55.249910773534516 -17.35500642998287
3428.55728411608 247.52473348908373 710.364815177378 65.89913994902378 -20.307724032934942 -16.0364047333333
2850.472587108539 202.61279606028114 543.3324954453556 62.091027178401156 16.860882991344404 -13.26798080397651
2275.1412650731418 157.44921689992375 397.17317299888543 59.26991609834055 51.1194479579552 -10.38006074004946
1710.3986431044702 130.372882483452 276.67058025329897 57.21168933027797 80.38282039866232 -8.2949466700195
1189.3521583205277 53.965837711248824 168.89477655236675 50.81654678229853 99.53903447390128 -6.080600985734457
1046.091546879193 464.4737559811723 332.1736270032058 120.72502086579846 90.60822347146885 -4.894178423491553
100.83740063359444 -1473.7945655715632 -518.0933778390472 155.05817828926422 80.09384793186165 47.83518230694478
-184.09678740073952 -1427.2700858046956 -497.4293541420882 -30.62565790626758 -34.8690134654501 17.068483606959376
598.6654401453177 259.76781282521875 213.9210286191582 -140.20095611231156 -42.269813965051064 14.358902244215866
752.0609140517316 -18.70393765099755 106.5908051192253 -126.42404225562788 -52.913173925451936 -1.5885179768886226
1147.5306627699495 3.5540802674164422 174.66496124929049 -139.33798511298292 -44.23876727080234 -4.013967540479183
1494.9080857350891 -8.670716660662464 230.8291555912528 -147.28899116592595 -28.02337403052976 -5.864064743916306
1858.770067866734 -11.21729114750704 309.55094597284113 -152.52950889596238 -7.4920983823565 -6.777506186093727
2226.830915060347 -12.607096594605421 405.02668382803546 -161.08884683122972 14.920938083309393 -5.908194408916109
2615.919771415447 -7.333179658033337 524.5424462877256 -178.80545048805809 35.61450529692336 -1.0632129514372015
3039.342213323425 -9.845192021839791 666.3971372134383 -204.6402281398507 46.876001133474084 11.264825226236425
3418.552973911146 -97.37750915035888 777.9963457820612 -179.33918264714666 36.55860981395065 31.88911011226105
3535.669623845332 -274.5927102012144 775.3700755968804 0.30858229954618976 0.675157727915461 46.609996063760875
3416.843650116937 -97.44516851649286 778.0205514499548 179.98459932767844 -35.080490746440006 31.910778182793898
3035.674309101209 -9.983403919848953 666.2483504054082 205.3752154387716 -45.00932405654357 11.28564261525512
2609.76270718766 -7.548708029971844 523.7770341059967 179.707638899364 -33.07360543285671 -1.1015228097762173
2217.3070854583925 -12.907150584261306 402.86418607959615 162.26514398878567 -11.34864624379675 -6.12932696516544
1844.4882117315344 -11.603344032285662 304.70668682164256 154.13175026988267 12.639945552548141 -7.421577852509251
1473.9116481754459 -9.051655723117799 221.46432734590138 149.48935711184805 35.56004799717795 -7.313994010051349
1115.1406493214424 2.2858694702092714 156.99249754085236 142.7543557423469 55.371532131732614 -6.923350877701092
699.428492560094 -20.10202822387431 76.26885152219182 133.01951168508288 65.81171023519907 -6.119272947871772
543.2803363144707 250.04385082768843 166.20517479953526 152.40929943701326 47.31434410930971 1.7742594191878478
-222.12164373984388 -1407.6959155295579 -569.3238293958744 115.17089646862162 30.940273171046005 61.876471168475916
-208.15898428709627 -1023.7710241421781 -344.3389196531043 -198.48909873864514 -12.233352443300124 58.84590978893194
272.00155861256775 129.64070982146544 122.46169932567332 -244.03015829274278 -15.390198317806696 21.70312934502852
351.385775801054 31.465423339458845 70.96744923089173 -227.47774840622907 -21.53209527521071 5.530925492084426
571.7900420987727 -6.377421559310566 88.43285941257824 -245.7995147380514 -17.77548396091345 0.0791906897035286
761.2937243921566 -5.860859759930135 119.52766379118268 -255.32887173492614 -8.647671185752666 -0.674512235389823
938.6148997760973 -8.993568440731053 156.14312124780218 -264.3841203317856 2.1721899793296906 0.987124206776687
1116.6755558548357 -10.442254601257357 203.10555894490437 -277.98265937968495 13.39109340091533 6.434154157505361
1297.7155883157268 0.0287897766050651 263.60499725079745 -304.4492389634826 23.83843692633342 18.572493362822698
1505.9665385755084 14.509692741759538 341.83152511885044 -350.42758303126965 30.993020065458456 41.75254332820942
1714.9511629030342 -120.87653661210477 383.1643894633775 -325.1592811087234 26.614926144644198 76.54975718509118
1698.0848309591263 -519.9878650919245 275.369622229468 0.4979143890166968 1.4118399823559937 101.70180345366084
1713.1753707523685 -120.96650409527564 383.92495063733804 326.2021706243349 -23.63041409270551 76.50392350616717
1502.208865758333 14.329531278456114 343.19933797229424 351.6201151866007 -27.528545754823988 41.61394848458238
1291.5589906184596 -0.24123409887989966 265.2259808750504 305.92224297099426 -19.580160957056503 18.225965453406015
1107.4602326150607 -10.804217283698922 204.31835752282888 279.9224302775217 -8.019788986636835 5.646778995633754
925.3944928331994 -9.393692633666546 155.84327562459524 267.0589802932628 4.669550906499194 -0.6602448358593388
742.5887774057084 -6.28986559035424 115.8595876717823 259.12621178336286 17.436650061856465 -3.8959628182208057
544.6754808708384 -6.914610612774637 78.32956414637638 251.60139432262315 28.827983289144644 -5.50425245128705
321.65856501258196 32.3231385793333 53.422273104444386 237.94948780505737 32.578892863442476 -4.479861808241651
241.6954977262449 105.34750496415411 82.65826848085852 262.28007390119234 18.53298549124578 13.127783908154928
-218.8379334824267 -1008.6808174399337 -393.1368646652715 217.17364271429554 8.350245800487741 91.02021740224974
-186.83019119193276 -649.9799393557525 -172.89595277445142 -213.85198088755837 1.4565818213062496 75.45331208312383
29.146016560854257 29.630234868797736 69.70719998351792 -286.06124645117785 4.6818952665576985 25.491548801208864
-9.59084112211137 48.71439703768041 37.18957808215223 -283.7994358317614 6.70247424228378 7.631963023886222
10.63405393825388 1.8290462150660414 12.254683335047947 -282.75001178815796 8.601950552783263 1.4795575061733128
22.547964017990633 -2.241515818872833 7.261803498588277 -291.13320272593654 11.280968714584462 0.4570650130120063
18.044562949174008 -0.6122671078050508 5.4522068310960226 -301.42471262339905 13.262048663374594 2.9063020783400515
6.534659825501655 -2.1684510757917974 4.836595952615657 -317.07155210376163 14.325388652154203 9.745857205600803
-19.618982969025737 10.066614051823342 6.936601252287159 -339.6508092190264 15.710389220283503 23.75838811766392
-15.94243551222446 55.579939472066485 30.65235602381644 -389.34865410306884 19.687260160204445 49.304114734550105
68.63314464297778 -112.62540791742093 21.7945223403092 -406.6433900672607 20.906761864254456 88.96202587221545
-121.83710889827198 -911.5910103642034 -251.9578697659375 0.5642624724213461 2.1464074107591182 121.37524290132345
66.79934059404641 -112.74315752707844 23.293784185196966 407.8253776268595 -16.423229179052434 88.89567019852102
-19.770684015079524 55.346494093085006 33.54139826252802 390.70047148492455 -14.64378220223759 49.11663899454198
-25.744758364179418 9.721936664337191 10.946430647144732 341.320290089847 -9.777243578064606 23.31616815649225
-2.304773205480143 -2.610911459396628 9.432285199856539 319.27077895956234 -7.2470708375642925 8.783966741096018
5.98918443621109 -1.0930283967169014 9.662112577024875 304.47864749944284 -4.8894375618199675 0.9324500671024275
6.451972718575575 -2.6657987854718144 9.342400510859854 295.5618605399877 -1.601700916552019 -3.324492125855442
-8.764505964317143 2.3033127687696715 10.181355903990084 289.49183494410414 1.9327228740488613 -5.331458207297769
-27.427999900328665 45.56663554556583 27.103347794511727 294.4491600179037 2.016999834464932 -3.0197498704044614
12.720648445571738 10.546568295063278 41.31614962248869 294.9468572888514 -2.8438791002197057 19.24722914666345
-188.24029692363814 -633.5313126212286 -207.2063092618623 217.60396474907043 -4.517215996014293 96.37636407488023
-176.9493069275356 -344.57721222860357 -23.709834468230014 -170.62337080784405 12.981698199839206 70.90467530533633
-169.06221372238483 -21.443505661259607 47.05694956905692 -250.598590682318 23.176191798198612 21.76841218043734
-353.3805169098579 40.547614056205816 0.6043350724536092 -264.3532330798886 33.960336290719404 6.505735955413096
-536.7400079029402 8.767364776751155 -60.558804672551005 -251.51125845539005 34.76626171186068 0.7412562888328041
-715.353680942665 4.145459076458185 -104.25879903112893 -254.7088078845732 31.331780582769174 -0.7054852511459883
-905.216154124753 6.776166153062683 -146.54474545561183 -264.38655151462365 24.493672910353464 1.0013913768914513
-1098.6543059584685 10.93425391186768 -190.56629630891183 -277.5116105134727 15.448872405686702 6.5114017211614215
-1323.4041706391113 8.424414049828282 -249.23007547213342 -294.639151081257 7.196320754537547 17.815393408904566
-1542.166008756065 79.57013130411008 -287.7134762560413 -318.34234110743546 6.288668963861913 38.33001817160481
-1547.5293323623366 9.574965974399689 -301.37672813875594 -422.3720306527432 13.174731973306173 74.69912850533915
-2029.4013788731622 -1477.751763397968 -860.6936579234948 0.49960630227052183 2.895415096295217 112.12434937570187
-1549.4330445194507 9.428807294220679 -299.1281863559269 423.4183886818184 -7.161379821365197 74.65920075008675
-1546.0915208370864 79.28117632488694 -283.2809312871435 319.53820838380096 0.37068666053418947 38.20354065095727
-1329.5459245401264 8.002411148241444 -242.79366512413014 296.1136933459473 0.45913283396137505 17.488763627117105
-1107.184614273561 10.40675270185853 -182.5288501843996 279.45028325460385 -6.597746589641926 5.756651031738763
-916.1930145233814 6.1985084140768105 -137.73669519060377 267.0926128504654 -14.510958538665465 -0.6074510192493751
-728.3919413639861 3.8467960374468775 -96.10867673240247 258.69710880723176 -20.69254552219634 -3.92654325307094
-549.8427607258384 8.822252677575882 -55.31569328316479 257.60113402851806 -24.72133835258793 -5.2248924369146525
-363.44575193228866 36.914758966151055 -1.8197271323572544 271.74044761054523 -27.168185711692022 -2.1457693247499994
-176.95050903641453 -32.53311042682915 29.687724725772725 253.87271121190602 -22.248219846693818 17.151680485344862
-176.76871284190722 -333.1434130548526 -49.54834620694595 169.52693753493247 -15.469660744815247 84.42691575874757
-196.32525729111308 -153.36774520005787 77.94006862372183 -92.1920254249844 27.52861098479975 42.882699995025845
-338.00643562865565 -38.93355259045373 42.00658598479472 -143.38856218055423 44.34437910044715 9.469843548632717
-689.8724300895656 22.6813485925377 -37.58530870592413 -155.90939694567032 62.489649751824196 1.273805271276475
-1077.9832761286548 10.827568640807458 -133.96679880450094 -146.22387919619234 61.08525929236354 -3.3677660744660303
-1452.9040866600817 7.665743497461485 -217.59135055384468 -146.61125880313938 50.97785413574265 -5.789147488647165
-1827.596622537087 10.323883870483318 -300.8457824500606 -152.49549145866524 34.59039369745939 -6.743154213776333
-2209.8392675783302 13.112602067396347 -392.9594052162096 -160.69675847044846 14.35732881365224 -5.858339348400223
-2583.7106119643267 28.54752021105778 -489.1200238401862 -167.72385992321145 -4.904180930102109 -1.851548904996407
-3084.8393595631596 -15.940554422617659 -652.1459148880857 -186.46898237191104 -15.09307010037474 6.708233935255589
-3154.300498987916 340.4793407024034 -574.7220833450461 -253.31369798699802 -4.140857353261726 29.72630707772458
-4159.663795591618 -2206.209434271201 -1606.9622283735773 0.3121636255766781 3.6752672577545593 72.09722501411169
-3156.306367842539 340.3093081371143 -571.7059405702503 253.966609007448 11.75271165949973 29.760557327997272
-3088.9328313547076 -16.276476531013934 -646.129640942178 187.21213375395087 23.459804484937212 6.754312901623313
-2589.9908253977965 28.060447018029258 -480.1867768866129 168.63369536265537 14.418782157267245 -1.8503902147192823
-2218.27375900079 12.509524345218008 -381.37171161563856 161.88246040022275 -3.51677489692671 -6.020232452115813
-1837.7169230134637 9.719108322641135 -287.21486653218204 154.13373851484957 -22.65164167920225 -7.303326000436189
-1463.2392247469402 7.323031517379281 -203.11802500736118 149.03481598095806 -38.88011922393569 -7.212623988495595
-1085.8480303431204 10.505337222911951 -121.11645134045277 149.76728876406426 -50.87727595613028 -6.361956540327469
-693.5396979516946 20.089625720848694 -31.5178533646884 159.52155692990783 -57.114664064896424 -3.145517988166881
-339.57436882477305 -43.99557704946285 34.743134123560395 144.18360503395442 -44.6598778428298 7.130995318581771
-195.92724126531465 -148.14541214282173 58.542299026256245 90.55973077194255 -30.49960604712091 50.44154743614881
-219.33665963230496 -89.12469103846101 128.76931144070844 -35.93718529381254 53.04167880105295 22.010052428577744
-474.1119848244003 -59.346608003188535 42.66597944622067 -57.405334821187836 73.09044979459676 1.0035191346768748
-1050.5242372140422 -59.10882992111396 -102.71615389341592 -59.49157082323902 93.40987396294962 -2.671485482933079
-1678.7254573356688 -115.94148109061625 -263.5265215303398 -57.29221320225231 87.24751831662275 -6.5543350892287595
-2262.1504506640895 -163.06670091573804 -403.9709465077963 -58.094792689581496 68.93578606730597 -9.870465830975764
-2837.387851219548 -204.15966871789692 -546.161916891283 -61.18024203100295 41.48292087281765 -13.131102636100039
-3425.785281467343 -252.2296352470338 -707.2891472542517 -64.25066789767338 8.094158342603569 -16.04943498875142
-4000.0914436352336 -268.79153685456123 -872.3664641186278 -71.07366418394727 -24.87921124399984 -18.20938367807878
-4569.808610741474 -397.44546206224004 -1090.4728398940738 -75.18355593831431 -46.26331563477295 -17.2145205341546
-5063.46154353259 111.33739320128643 -1117.3105637925992 -165.5858677946824 -44.182873640757045 -10.650948210892327
-7016.864977405401 -3336.9250463133444 -2751.9102679681755 0.16235059791813855 4.497225348444873 50.51128274009425
-5065.564720858712 111.28415079539003 -1113.4464098896344 165.92731755981256 53.48911854150067 -10.576648231239817
-4574.0624171767895 -397.5311574455151 -1082.6990651663846 75.57717666392303 56.47210783463126 -17.07172109253967
-4006.5103394462603 -268.8595190952442 -860.6433932639405 71.56207839597322 36.46543715086075 -18.014898509941954
-3434.1549693205748 -252.17712895351016 -691.6915862716207 64.89004754055772 5.089956311210091 -15.843119173173172
-2846.777966558178 -203.7373390887633 -527.0156989582664 62.05018428240438 -26.98619456739258 -13.005383107372744
-2269.9816798927263 -161.78659945821002 -382.05097308747975 59.331133958951675 -54.393412218786324 -10.034791713900665
-1680.7164730919355 -113.6071011179965 -240.90148014121544 59.010964204835375 -75.5614318599149 -7.368552134258205
-1045.2045228739992 -57.2218065337108 -85.00498150539721 61.281499817841265 -88.82932984070861 -4.087860051856756
-467.4276925325879 -58.62877112291277 46.64300310674673 58.07568378530393 -76.33994698413318 0.330376493938755
-215.1391333406998 -84.34737411159772 116.94104820030705 35.440077344909895 -59.645418328169235 26.536856589109153
-82.68124790631173 -1838.236616294431 -576.2753592602232 -285.71755432133625 -152.42820529951425 -53.92035454031076
1083.643768697821 521.0923397175493 379.6195115649336 -127.72731650586958 -164.47240082343134 16.900331221780064
1258.5871891853772 63.05745036509843 165.92414010804904 -45.64500798495821 -154.2703062244575 -4.222476933571226
1782.0439306622668 154.53945500230796 252.9649940357175 -49.61467314465518 -137.08329119581708 2.888056083665521
2355.8320053328493 181.54836563756453 338.1637522716703 -49.27496489518752 -104.62697513034131 0.29638527500099854
2948.257630662221 231.87783603876494 444.67522954473793 -50.53406504484552 -62.5803597501316 -0.20161972969549002
3530.526971033509 279.33379830590627 559.133981063239 -51.703626365624736 -9.730176815324583 -0.946130417991297
4104.402223723859 330.29842953327903 689.4433582270714 -54.45599432053808 48.6447710387023 -0.07497383491390441
4669.115055838673 380.8390276236983 840.6722379678669 -57.21836711517778 94.06530177890302 6.139880060197936
5157.978766881171 403.0721655447395 986.5448361871219 -46.07187832861871 85.95008721238864 23.585087004875064
5356.576152891599 374.3052573727716 1041.3784954988942 0.15508637004734727 -0.8137088716838466 41.8555184472995
5159.055487905885 403.01223245816004 986.2418029321724 46.37963189521187 -87.4859798136657 23.692449644047315
4671.420275794613 380.72122660424657 839.986507865418 57.514755099693694 -95.3129565118008 6.350809377796956
4108.306800321315 330.13387087082106 688.2075518421171 54.71745629636544 -49.36037743544051 0.21906467309922428
3536.805226903976 279.1710957685553 557.0969774890954 51.88652360570624 9.922721462011806 -0.5963188500498917
2958.3473991235974 231.7881596638183 441.42721963989607 50.544088752499206 64.25224224151228 0.018478149101969432
2372.639169120438 181.83625161862582 333.3790612424064 49.08074552777584 109.055858705563 0.6056814405005737
1809.6486733589688 155.1832178091073 245.2151625260031 48.663841277475136 144.71384173097184 1.120120945390048
1313.0432653620376 67.33194673820609 160.57197408647886 43.88067993523797 174.200033220055 0.8337886961287619
1211.7527040362827 537.4500524565236 380.9318659801962 126.65630491593971 147.18561064147426 -19.936538747124246
169.1588572627557 -1741.1371154303906 -410.1705493344093 168.82421935859838 124.34439653884235 99.33717977916206
-272.0258505289586 -1678.4936720442583 -508.64140840777515 -183.35266536433568 -25.671031000359363 5.05264296955819
570.1150764986081 277.7895926139014 200.60308483084955 -159.29016443610394 -55.30745444123444 15.359386558522367
717.7394810318236 -15.043502846035887 64.55520342404611 -125.41316760624831 -94.09188683258438 -1.0084288562417487
1152.7051968769917 17.43834129227198 127.90228421641629 -130.22102224583787 -78.9031841739212 1.358205716620201
1517.8897637842913 8.987913214669792 167.6865265535151 -134.10509499178957 -58.796928601968794 -0.21349974635655866
1898.2628488955218 11.180930957680934 221.50762134380787 -134.84325674995384 -32.04193690784685 -0.261726771791563
2272.680413124598 14.189722148322948 282.9928000064256 -136.0037539391585 -0.06305599112967053 1.2869053810712834
2638.59073092136 20.55971576718681 355.17832952599235 -139.6339663474476 34.28843563991228 7.3891349530823565
2988.489360785546 22.481693353829694 437.1975050404876 -144.7688322991373 60.88619003604167 25.08456621576713
3268.494330219114 -25.499271752350992 500.30832333568424 -118.78307796485925 56.11378543024897 63.69352384653137
3352.1650095166333 -135.55823451895404 494.266524396245 0.22450091355318502 0.31349694651085735 102.14579451808605
3269.7125250471163 -25.451217781126573 500.44570214632375 119.2251810182735 -55.344116908381324 63.71663586073962
2991.0578258589267 22.576271722177818 437.39180661586215 145.18132753650872 -59.68338049304148 25.105207811450185
2642.8214984142546 20.701210723125826 355.2535911642795 139.96460346803863 -32.33824005706389 7.341419173450577
2279.1768007164155 14.382506395101242 282.6372794559256 136.1462551055754 3.1207253095932197 1.0388055100857012
1908.2058702351883 11.451803160539242 220.2671520002013 134.60913805468505 36.72426046295099 -0.9830648028548078
1533.2815634949857 9.294194719692435 164.72081760854883 133.24038645368964 65.67080322142769 -1.7203383217036836
1178.6602149021376 18.69269784644626 123.22611554917997 128.0478143771819 89.58105267987196 -2.054244965027036
762.3782594259003 -14.346642386118315 56.19467190624766 119.86085723342197 107.5352128051412 -4.076644642298047
615.9534727795697 282.97212261566153 191.48827217237496 146.04504079033256 58.87365037647087 -11.182179126173398
-232.64803315233763 -1675.645761675427 -494.40199397819737 108.83458627886165 17.606442372456645 104.789985432085
-252.65977353771558 -1218.9322612541082 -333.11795124584387 -241.9946895261487 4.0705236870896675 101.06339540571035
248.80947492685812 93.43022067788038 108.48468705913133 -276.6329719692404 -12.64263140492848 15.188821672100303
326.3874931292122 48.76231187029923 51.50099561868314 -228.76777524836555 -37.96837588870137 4.631205438587774
554.2816871671306 4.69732952667399 60.00567364197658 -235.2614690448992 -32.24813243223484 -0.06424949522828705
759.1175353540746 8.548981875214357 85.41483830564145 -237.81118672140875 -20.438346347402295 0.05019692478827342
947.1908789592122 8.865230172127797 110.15612869277469 -238.74116991440383 -6.896132207015365 1.535152331269301
1132.850702412619 11.036296679186155 140.3406877661346 -239.31301357020303 8.755634826098463 6.755984261628344
1309.4271896184498 19.31003728958115 176.59445285077342 -241.9131673020829 26.530180516480765 19.82521836738393
1482.7943117763502 29.917725861708668 220.928369328284 -250.31996637537142 46.0046083527028 50.522650410818784
1634.3237682721224 -50.35102859577324 241.09789641509406 -216.50913727714251 51.12774791964884 114.35476319612597
1623.1666040319885 -311.6459739692167 163.6018394102856 0.32930138962264 1.3133319474208387 188.17966036084553
1635.6304234497331 -50.283740664199996 241.64400694852262 217.15503865144115 -48.317881121953725 114.3012617900785
1485.5051859427426 30.04904588365268 221.944996135226 250.91285253476562 -42.64936088606536 50.36886956155832
1313.758493324221 19.500386324754604 177.9051567229384 242.36360986729886 -22.282771333824428 19.457399133276287
1139.2172472748418 11.289231307231336 141.62899762320458 239.4368258998785 -3.2940855335023236 5.93891413693784
956.361051795486 9.15579686847893 110.87556485768884 238.21306031156544 13.854037673920617 -0.13884498694881764
772.6757155852188 8.943705111872232 84.8161236472229 236.11211410574495 29.18408686703668 -3.2650493983850604
575.6762309652302 5.31992380332948 57.15392159445368 231.39374178655896 43.10590387648664 -5.572590752510359
351.48367877669455 47.686081145086284 42.364820025053056 219.71985913741398 48.955217748469025 -6.4393189428629505
273.52888702015633 112.54763677145432 102.56934684374212 258.3481734232165 14.886445378203279 4.801680961314224
-241.57775506064914 -1217.4797715459513 -340.09341102776114 221.0305747726414 -9.0970634670373 141.62402013377329
-209.72220459200295 -771.3228065370474 -168.36440171652268 -228.8107081732341 13.14203592965591 110.80583667903637
9.538902028152629 -15.953674321390327 59.08021984492565 -303.9195406403422 12.550241661375571 27.24504289339021
-35.29540598944475 54.135827529866276 30.43766335521037 -288.9771085920351 7.851800702102259 6.87417829452416
-21.38308537538196 6.046577981134108 6.358416717177499 -272.9622481602817 10.976261209342479 1.70052120286234
-5.74812822454166 -1.6052204511422354 3.8029673842848277 -272.9234457445458 14.743907890595855 1.457198540856235
-4.17136624735978 -0.2209544914944378 3.352282032122905 -273.52977781389734 16.732494285350196 4.319412903066643
-6.693703080667636 -1.512217159017763 2.948881186233699 -274.1716718244894 18.103515700747618 11.247855499324796
-18.58600525959984 4.09591861550246 3.387840071250918 -272.28240933526183 21.622652346321313 26.07971529784285
-15.840556010415217 30.97722734994858 15.056481907576535 -280.99452959001474 36.640455597084376 57.92021374758937
36.40563273938201 -72.59888278820912 3.7869293807250552 -275.0288679719482 56.637205049636805 127.49166113794111
-102.86535097798817 -618.7660759592989 -194.0767533209615 0.35807358755542573 2.262424632986131 241.60853044370904
37.79413640839809 -72.5091671771172 4.748424035131437 275.7307455795382 -51.891983527394835 127.415935033057
-13.008776704696892 31.152881324263397 16.91120654453167 281.6368545855162 -31.250004166658286 57.71518635238124
-14.202955709228744 4.352639616118599 5.968912951744445 272.76449868652736 -15.217369654738597 25.614092597520745
-0.5789917670895184 -1.1790915467683063 5.930322498471168 274.2840803857327 -10.431244422072654 10.260477292633096
4.021101151903222 0.17232939420497073 6.1637189416577645 272.882055762422 -7.741826767148774 2.312795571051515
5.472928329162538 -1.1514973331599712 5.598363099504689 270.8538860335722 -4.651358781111768 -2.3777563012528775
-6.915256927301867 5.902695602046214 5.230296176050718 268.31953358158836 -0.4306073332011663 -5.240903534663843
-21.17264050872967 56.58704421387554 24.6565955652274 279.6640823887898 0.3746128877108586 -4.33305948795141
22.598530729686296 0.6761766558379816 53.6483424530345 294.1578968873865 -11.862332654315546 20.485197132657053
-209.44811685879583 -777.2935242233167 -182.21985784256685 222.02328301897077 -17.201736518085088 135.0517944246538
-189.77430611320537 -409.73864963326184 -37.731399753337115 -173.24172328863202 22.170064420669412 95.833923499454
-184.06532163692566 -57.17877358009095 39.205780559123866 -257.46205571600376 35.794964961996584 27.782966839196025
-381.7597676591341 35.95872540454313 5.00688058214704 -266.1520702239311 50.58644250208118 7.137691232780452
-582.3050057690612 2.9078544607214702 -44.988041631309 -241.95030977714896 54.05945698216794 0.8745660677206083
-768.5326280976994 -8.489395483912492 -76.4171002086377 -236.94319380802082 50.31686303529542 -0.31570421418850236
-957.9650159611743 -10.387812435206843 -104.63859788673085 -238.18572742647913 40.674355804366876 1.5728043428616274
-1143.3539338524488 -10.801876887358812 -132.64837616586624 -238.75479368024307 28.025437048033858 7.343748973287413
-1339.6876304296334 -18.500578222243472 -169.78414636519213 -236.62169254672483 15.622160660465726 17.92402813036999
-1520.3961868319402 22.900918057904047 -195.33678217081422 -232.65198616622155 19.509394182491285 40.508556741611116
-1537.1993994225338 -12.6573132858851 -206.46709154864928 -294.13460516844987 60.278660926480875 93.18414229688423
-1893.754029311433 -1072.2276387053737 -623.7020061654097 0.3371753285207091 3.2317916355001306 252.70108381103088
-1535.7260310336594 -12.546868283315838 -205.08495570783725 294.79829524818604 -53.55427791331955 93.14196410439769
-1517.4376150141597 23.11887017269902 -192.63098064552963 233.26890802805 -12.02981139520253 40.37750081302114
-1335.2456221857335 -18.180286156721582 -165.90956349840417 237.10690261171123 -6.988803921945574 17.590125136373246
-1137.4891451680517 -10.387225105397826 -127.9346039565692 238.92539436046394 -18.04733827840187 6.5763438522034665
-950.7662419739372 -9.879734375586663 -99.68351958411031 237.67960438835004 -29.54438433648114 -0.06757693560581612
-760.1599753901113 -8.067057467427748 -72.31495570882319 235.10970562479352 -38.81044887088335 -3.632874131687192
-573.7542772857984 3.226020551216234 -43.573194185164816 237.7228405193625 -43.80280218801217 -5.328449074141766
-375.0178980433424 39.21419199105191 2.48606837384467 259.6139719858796 -44.476269792092914 -1.9480227608670704
-178.46038068693161 -46.888029861982815 34.402807874967074 253.2696049157469 -36.01985046943086 23.13193173215225
-192.61799655780376 -416.30044795300046 -51.046262930259225 171.6762926244658 -25.515813074710085 111.91335087410802
-203.08990382073105 -181.690296729148 49.44362880712667 -90.59684924987805 39.73115393387126 62.209115820352636
-347.1773037557816 -59.079379034846745 37.83591042858307 -143.9424161551846 66.22902192786053 18.908335345908792
-720.7013493497864 15.441715678766252 -22.656665046485095 -153.53735373536804 97.80217355784404 6.517431644823607
-1136.954510974815 1.583456796324581 -98.53757634215042 -137.65352750047802 101.50093701134774 1.0308422062052205
-1530.3738820380588 -8.508338465426267 -160.09392176589017 -133.15766005886172 89.56195403308644 -0.47634771690315914
-1910.9793366044491 -11.94166395735108 -216.85694226936945 -134.22153530474296 67.02826137778979 -0.26797819495297204
-2285.331089643205 -14.74891405305014 -276.28537266505487 -135.4684869482891 37.856416685443214 1.6865109566420315
-2634.134953808624 -8.597875677956202 -334.1931757527123 -132.95359799547478 8.137098952053552 6.828409959012801
-3043.531845244501 -49.3708753358663 -439.5701276628183 -137.14958875661216 -18.224969215170876 10.709973354648405
-3094.2321897080983 221.27767834345312 -378.12450304815826 -185.77213280849375 38.03883105593649 34.82541432350971
-3837.4347404594405 -1652.8803369203324 -1175.5299057750717 0.23383715098136948 4.292781797149336 186.01996717638778
-3092.662014515886 221.40390965655814 -376.31808170892475 186.23563843639286 -29.141517219959933 34.86647105950736
-3040.4165458704965 -49.12060183152284 -436.00494045098384 137.5916912279889 28.02017116911258 10.766603247575073
-2629.5720184746287 -8.229604243227005 -329.0106709368493 133.32765586685056 3.0103625123667057 6.8364574739159805
-2279.5840051468654 -14.271068232619182 -269.8147461857807 135.667436920751 -25.1929567056068 1.5132257528612583
-1904.6305660743378 -11.394533915523338 -209.77522251889184 134.02794344876776 -53.24698382622365 -0.8897025875339584
-1524.5761640601547 -8.00652538051786 -153.65655993276718 132.14211944765714 -76.0092053274911 -2.0792352621772667
-1133.3813212578361 2.313841205755697 -94.5485434350053 135.263885178342 -90.78731848973432 -2.347200341475639
-719.9642492246993 18.13773616799505 -22.470923033753273 150.31843165500524 -93.16811484782214 1.5578536272748167
-347.29401320653665 -54.18456499983008 34.130716538493076 142.51993520944043 -67.69935735186587 16.48223584453165
-207.1003940234081 -185.8146476841588 39.11646379003977 90.26866900586444 -43.521954603737214 71.41135291699719
-218.013324376648 -99.62610904315224 104.76652402093046 -34.70019345213355 75.95894552764875 40.31742157066748
-478.42211307182146 -70.19288228670752 43.245614447010404 -56.32910812016218 114.07996216153093 13.145089889315695
-1088.0307253160859 -67.4117096328848 -83.86150394608133 -55.31963888413334 158.76199146961702 7.074516152146902
-1759.6930637620897 -129.39797910418864 -221.73939840539722 -50.160934707529435 160.07250700399658 2.9306503602506595
-2373.971392945248 -184.5644388416694 -335.0150340378417 -49.04374866414576 137.62806732345237 1.4581859500446543
-2963.0888092589307 -232.07930246153848 -441.3781441443222 -50.185296245866226 99.08548910921225 0.4728691404603911
-3546.0543814405014 -283.1030001031689 -554.5526867408597 -50.824576445043434 49.85065391536308 -0.26908316845523483
-4094.566001598063 -309.20268063438056 -663.229948225975 -53.1288814020389 -4.602432351562382 -0.1354148073169048
-4586.102545937796 -413.5321667153195 -800.1690077348201 -54.696853495712055 -60.66290204066266 -0.9899269986630959
-4906.480641783653 -20.03490099702814 -792.7378189507158 -132.58925359491147 -90.49946737184497 -21.44162210653389
-6339.019414088461 -2596.132830356631 -2108.3954952602976 0.11225272964565391 5.5230390114701855 197.79614831603118
-4904.757186222479 -19.795667024493568 -790.4646152980881 132.81404651775327 101.92668012108639 -21.36460885489275
-4582.705075566648 -413.0568773801314 -795.660132587055 54.91900063805151 73.18857805811537 -0.8491307988657093
-4089.655595390393 -308.50253129036054 -656.6154782649669 53.33278941005019 18.78413440083043 0.03574859014809828
-3540.0401792711878 -282.2106149058014 -546.1743640766052 50.96913170403012 -33.811116182147885 -0.13626530295956973
-2956.9396308206283 -231.11545477499203 -432.0191486744496 50.18325898107429 -81.69582012341932 0.4269791260985354
-2369.7716720848794 -183.80976925672584 -326.2403653372236 48.71069550933798 -120.70350730028129 0.9503214515820928
-1760.4848144111324 -128.97539940632487 -215.90391429224053 49.2502816415798 -147.33484800716352 1.529442516767398
-1094.3443925892432 -66.3958601582893 -82.72623399442507 53.99039726258174 -154.9702646472568 4.940008435394265
-485.0503821727312 -68.61712599870845 40.08403876369431 55.66265009213391 -118.87351808983449 12.197650834041111
-224.9846153087713 -102.71448792952637 96.91604376278296 34.15635636368973 -83.84843453259032 45.884803781489424
-547.3273802252527 -3036.0323395121363 -1075.0079159212166 -555.4739770632331 -229.00335144003205 288.57134088360954
1209.6093556062822 778.1164552103036 500.75196086160867 -246.75237758219453 -238.36535131289884 9.813495424310693
1196.5377342793936 34.7228894127741 117.32977032463036 -116.32575859377835 -232.8663976524624 80.94876794896025
1730.7404816493665 160.9213335219875 213.14074084275123 -119.95762532730436 -207.20026088802854 87.83249003946263
2336.7589822723003 179.54288574905996 286.2017915583992 -113.0567831961985 -185.1619941412362 120.63194547124778
2969.412610477483 236.01201594060325 382.90960223297554 -102.57868829250447 -145.43409963445873 148.7544688435227
3585.4778810493744 285.7918475366462 479.15958321606996 -85.6850528578345 -90.70892946569987 177.65162515690662
4166.867067616082 332.28865956634047 576.9530048454226 -62.45960911482129 -22.109152020480167 206.04678681602883
4656.4218658192385 369.48598700511013 666.5949587178627 -32.508499983208424 44.76088193386703 235.31836054478092
4975.737136309556 406.61797596289983 735.8153336686356 -6.040255924103782 63.72721959382582 266.7695755808306
5092.833904065414 448.42166944806655 773.1014098634624 -0.7398254638285451 -1.5318880286256413 288.22192067623223
4979.352978787215 406.66072736794234 736.0830178678714 4.522192633024737 -66.76408889073296 266.84399296280776
4664.368980744751 369.6045554779566 667.2240673965684 30.875247306892714 -47.70886719451364 235.46587204306607
4180.667341701034 332.5534294589378 578.1305646190035 60.63167488719276 19.346056322809957 206.2711761214798
3607.6784407841774 286.3585633516751 481.204244262045 83.58923179240057 88.27266209749821 177.92256298154058
3003.643672720149 236.9620801215728 386.0365851632973 100.11176317606504 143.63750689381862 149.18031060905184
2388.4139988888637 181.47195773982912 291.1118403315452 110.22930122824535 184.01284322760588 120.67272366331581
1805.6969666871194 163.1657378325071 217.68379326736994 115.95464285666937 208.52576029212327 90.08096808132312
1324.3698512558503 48.07803026336598 137.37450262970629 111.47877619982509 229.22018377435617 73.48252397459939
1486.735222477425 827.0519325799592 530.3404570944812 256.0238248926613 306.5036095284358 53.98484065349763
-22.887195843645316 -2895.422873321937 -660.7637164733148 333.8901487274276 401.4742092121786 111.92447597714039
-606.8481064117912 -2633.3951915823372 -793.9773077777998 -356.5355817790226 -189.20616446241286 165.88262007001774
578.2946148289068 421.7123501022384 237.50290509866977 -295.4207080064001 -158.42805500412203 49.75558421843523
596.6334565487433 -40.31138687836351 3.8957773231032933 -245.79735542089875 -143.74468436099127 87.22131908000864
1079.7176389701788 7.498184794743074 74.14765726627269 -248.94917272882196 -127.09487311088668 113.10649635499063
1460.6946423904512 -9.066834973773037 101.91026833115312 -243.34931071449 -110.2927539215675 150.05935235831106
1863.897468114888 -8.567890808034466 142.22071784463657 -223.5200239652438 -86.91238131948322 186.9080559378623
2256.705858656715 -8.558494416377826 185.26311029897178 -194.21049039822933 -54.38295783218089 223.9682423321966
2626.2923513687037 -11.909729697306298 229.94459194629474 -151.45859450917902 -14.232768509145924 262.2174979361064
2939.305933884356 -15.584445532917893 273.17925566864176 -89.46612509257416 25.310804477037934 305.75696832130507
3155.5105254655227 14.281375669008174 317.2316142692383 -23.54736929109483 37.747107709914225 360.37495394737147
3257.060246722233 95.207701403111 360.76307105424684 -1.3190826140109202 -0.36695228356613097 402.737063623799
3159.430166288239 14.453793153991935 317.77904266300067 20.82519970594329 -38.40794722458686 360.38276299816346
2947.7887101828824 -15.224923618126535 274.338150164735 86.48772365313538 -25.75005613410162 305.7626115426296
2640.6762968864064 -11.332919755476151 231.83687935593287 148.03773136004233 14.165832323000876 262.19980517071536
2279.1057963909643 -7.733320675064761 188.01760698517893 190.13966872333515 54.85689028924703 223.88345484794712
1897.3520588558683 -7.49373113133751 145.9711535169806 218.56764979679525 88.0386988610727 186.7225226629053
1508.9574445122512 -7.923531152507804 106.21197545286708 237.2736688788735 112.35644322427537 149.57645085744423
1149.6725687407786 10.009256166365287 80.25048288963664 240.74721288613088 129.19838087786118 113.00802423418308
694.6628450986314 -38.258499962489104 6.328917763973131 233.13827151789178 149.69178361436198 83.8251471978545
674.7857156774173 442.45251069027603 247.4308842642127 278.6435943884343 181.17140437426707 71.36689032288191
-562.5770893836234 -2719.5231292672165 -763.3553672959436 223.10951542442552 224.0283430408091 67.37579663717399
-483.58795144760023 -1835.2815664293453 -500.9205269196726 -418.5949568298509 -115.21246709554902 54.940195931544565
198.44743645611862 128.70739317584741 107.47863202165226 -479.8601868312202 -90.16580011203664 77.32661015657948
209.5694809965585 59.048910413041405 10.208314859793976 -418.55050967390173 -71.05357804551619 99.58167479429535
462.71912211662556 -9.802908533757321 13.735911631896718 -425.6826345767534 -57.62176121638068 144.25708017225432
693.9652837436468 -6.563026446993182 39.21536647395821 -411.22521568023274 -47.12641561334138 190.38338210943851
900.0665944133722 -8.335972202369934 57.9984781247657 -379.58060348332424 -35.66404709560556 238.8370730768782
1105.2637986209022 -7.035190158851471 80.6304366592681 -332.52657075958217 -20.28359752910686 287.7329186691882
1302.5098997863158 -10.971091540031653 104.65762999506735 -264.1447081133818 0.19725672738372468 339.3096935716575
1470.6117797949414 -16.89648687087826 126.64177082818972 -158.6351826809989 26.23158546266072 400.04312010268507
1584.913119184901 49.955684481345294 161.3182649014401 -34.23823997674667 40.09564099783013 482.96413942587463
1689.9253332888354 266.60017642971053 245.0548218387435 -2.1079094541924057 0.5639835678525174 561.0373078711282
1588.959799123867 50.15810635311564 162.08053648280418 29.882569205970128 -38.85631337385411 482.9206239249474
1479.27760722798 -16.478065414353168 128.22089139618816 153.8517019961809 -24.66375053467493 399.9430557737741
1316.943436132463 -10.310995808943357 107.14196615301434 258.61796514165525 1.897320538961434 339.12164949902893
1127.209751168096 -6.100926805826654 84.10839132922602 325.89158862157956 23.051025855304026 287.4059950924494
931.8138372573458 -7.21485471456908 62.40494201808271 371.40751643501204 39.160221239957224 238.25747646213952
738.3055337611097 -5.370407185249268 44.2847232970071 400.97768858895535 51.172925741791246 189.5338864919074
522.1533263786525 -8.77915717372852 18.30639898140075 411.99232309929647 61.792702957243876 142.5658131425871
269.0302499614647 59.83136310066485 7.474683753517561 398.6562371074838 76.83897947020102 99.95552705558754
254.43634701519056 170.48048883819507 118.61700775205921 453.3403656612502 98.73468153731599 78.51399910094588
-481.28183681925543 -1904.1345326740914 -511.75523666159233 395.6670256912382 126.42361530755872 52.50901369006845
-353.79972726648316 -1109.0269460189165 -264.9306220630466 -387.09489532896015 -51.97347676703537 19.374335520167573
-61.89721498253056 -25.74035439945593 41.351015832167036 -507.46548590540215 -29.446843870512474 67.15361963386809
-143.27350737285286 75.1533386389507 4.613109190071579 -509.50165850459143 -4.644776176400407 102.96220577421909
-112.98082985139231 5.702685046606912 -17.904877678145215 -486.40566586481566 7.720553933619113 151.69140554726985
-68.38052253476495 -4.918026961420263 -11.679098888410747 -466.40925703095587 11.377993699278964 202.0766313685507
-45.23808913910619 -2.00060179710544 -6.181514745568572 -430.26070846231516 12.37539321391825 253.4447753672572
-23.56572656393616 0.7526177312862279 -0.4070866411569414 -377.7254253706136 13.280319956045112 305.94981026171246
10.573934529859393 0.1514842464245687 8.640543955737716 -303.8677304147747 16.73395084275383 360.6399851572562
41.676283738113405 -16.18581278585914 10.581893153246853 -183.0291047741431 32.39539486121666 423.366910044929
42.687962464025134 79.60190810703087 29.521650997891825 -11.338814549451445 52.66214557384144 513.3821996396118
192.38659145663075 564.6362588570322 200.78181638405363 -2.3666983591099005 1.400589767979473 629.3817224276443
46.8076824350994 79.84039186168346 30.49398843729042 6.444111775532916 -49.713778118626145 513.3227995524544
50.41006449015475 -15.700313763236423 12.573919029619134 177.64100871482958 -29.017724350609168 423.2332710580475
24.87098722169945 0.8990385855732637 11.720953983832898 297.6232480314722 -12.690026700017121 360.39828090806725
-2.388931252899532 1.763207403713503 3.7901517764117605 370.1982385521981 -8.436423128521072 305.53386419888216
-15.687466615687086 -0.8513146553805226 -1.0127347416179973 420.91652054774 -6.806045763959549 252.7530635629549
-29.085948404143586 -3.985100440790927 -6.072786286420879 454.51148351369477 -5.524828227330035 200.9319123098749
-67.51731811180775 5.124323725861852 -14.619370350058263 470.85187176242096 -2.2732467847913265 150.10456100948477
-103.25315951497517 82.7871130483344 4.42112486616014 489.87585168044626 9.144863783418893 102.08980347710299
-29.72430990819762 3.971570349908781 46.7058599329766 495.90688283622364 33.22322441218204 69.03466133876181
-360.4538899841286 -1162.2719963803806 -282.06714160912605 383.39847370266347 56.66752519425977 30.366551512864767
-277.8055057138455 -555.1143180704343 -97.82300457886676 -294.19418537574563 0.7630013208843303 15.297961514293661
-261.0237158156292 -73.87751267758686 13.43286547064804 -426.75310155991536 27.58809310743918 52.10555133578751
-481.2032633717633 60.249862927177446 -8.98607751087663 -468.8168051592356 62.58713265399439 95.18814527734565
-669.4227224574313 13.920553465214025 -46.957978161536666 -436.9380536167571 74.2404485829128 142.90863129588868
-827.5211968576459 1.4536016419011237 -60.22144421229965 -411.61071632973625 70.68809714660145 190.82732194270687
-991.4102551927417 4.432303790844976 -70.66331590328272 -379.33495903738435 60.674056488795685 238.87864433859528
-1154.3762262416974 5.933887459161794 -82.899190787182 -333.08807115373685 47.751263278579536 288.2511178699551
-1285.4543896723708 17.039776610020354 -86.53784637835601 -267.29322688781235 32.39212523768274 337.8334382198204
-1380.3710279828074 -11.20575207949911 -101.19567530902329 -169.89575824816512 28.832987926243785 390.7501143431661
-1529.1018422031377 28.540139606329824 -136.92300026094014 43.67325432583166 58.936405433286836 464.0077666043149
-1250.2549297213359 1021.7952212834952 206.04609187120977 -2.1302712449062255 2.255750579285115 615.3027552066299
-1524.8891707219748 28.82032389892605 -135.7333870896637 -48.081308558180844 -54.23797507571993 463.9682831187033
-1371.5307571207627 -10.642417492692557 -98.77491080708748 165.03740617193264 -23.593388284509903 390.6588278747718
-1271.2415552337436 17.88493087323168 -82.83874408842689 261.6564182275571 -26.327639984697157 337.6611164832787
-1133.9340232634847 7.025000759306907 -77.9560842958808 326.2895168824021 -40.73800431827969 287.9419415882525
-964.1207977417295 5.62366250279093 -64.73222679172017 370.86399803067604 -52.910615301513225 238.33505397587476
-794.2146195800937 2.027724234122747 -54.31122340092377 400.7599804094526 -62.908658152560136 189.91920572233303
-635.3218453565482 14.007184314649447 -43.282564227831756 423.0686582403107 -67.81962798827502 141.67722225695243
-454.5238271321212 67.57913247302959 -7.838489501715286 455.3746331074527 -58.9964004376194 94.35974932596358
-243.36491006314273 -57.355351527030365 15.130373542264909 423.5693737946507 -26.123668278838338 54.4156982129139
-283.2756203398395 -587.063749369214 -110.42526748287813 296.29733453223855 0.8262035183131218 25.578022157447876
-258.7061767037226 -222.14311991540742 1.6691192752877164 -162.88703447942925 47.10676580573322 22.417875918851614
-418.64302770032333 -69.05025090124833 7.869834184903704 -245.87225279261472 85.91511263657146 37.40509353703475
-813.1460167972948 34.6631638546049 -31.301703280157433 -281.64886395269656 137.01188049934518 74.79036495607853
-1224.5681337821734 14.822727397337712 -86.23398475706031 -261.90665595299157 147.9860870264633 112.85274042240209
-1597.7670116224585 5.026296204939882 -123.57767482256338 -243.8069178597479 135.82060999501525 149.9341294143851
-1956.7604173713064 5.401640788159124 -155.5023717192381 -223.52262751827158 113.08151036713237 186.87157775358313
-2303.196596470553 8.481204043757547 -186.68354887414478 -194.79526908249866 83.41055572965188 224.22826000541684
-2636.343352385204 5.003478702012268 -223.0198172574303 -156.07748435056158 49.39166401306259 262.1464994497793
-2826.1853736581534 55.0242527759101 -217.3420141309688 -90.56203296469451 0.514423865555047 293.79576050743134
-3190.544315695089 -192.50210281305652 -400.23566133975106 46.03475484499641 23.012490873061605 335.7070052739793
-2640.9464030035483 1631.2598397111824 222.1670430899577 -1.3478017155211894 3.244108506198608 446.1493759654164
-3186.1391983622048 -192.17990425086788 -398.80903146387175 -48.822954872183615 -16.28677072446997 335.7194754886667
-2817.0373740249865 55.66800207420842 -214.45484897431993 87.49236131286705 6.896671706981075 293.814190495429
-2621.9078967504533 5.953928197808857 -218.65212858407094 152.5258075035389 -40.94441471738571 262.154522611124
-2283.0562770622073 9.679864891231068 -180.941605225324 190.5326229292101 -73.79476177803424 224.1915946610238
-1931.3848334463105 6.610201049543745 -148.87260871987968 218.25517502395664 -102.60322709013408 186.72705774834748
-1569.9744256426304 5.74066834047426 -117.3399364780542 237.1108194039288 -125.5864928082609 149.60336469679632
-1200.4323168124151 15.640693598369865 -82.27058594854657 253.7972872644395 -140.2175216967284 112.34506658185113
-798.1915521213767 39.77266354725377 -30.0633231892602 275.10971374432745 -134.05047121155908 74.57319573945038
-412.09311451466766 -61.43426634583057 7.4113668784392726 245.80907703443148 -86.48936387102226 39.04409850146748
-262.9817707000768 -235.98362505353478 -5.386063265437503 165.03433507826108 -48.240148273010504 29.083050209648203
-225.97904452993367 -95.9252112411802 70.0066603694239 -80.31409921758595 94.30691745588013 27.056671425970215
-507.40333265361335 -62.16216496277727 21.896373246987093 -115.1712680212511 152.56395673587275 31.284059902062022
-1162.0485694218892 -48.97901735701717 -91.71632222029685 -129.48552071997324 226.3775088305067 62.110587925695086
-1866.7464732817639 -126.94495496287331 -219.04689531859802 -124.49989458227805 236.34756305959792 92.43762293982812
-2482.2859622244096 -188.5427104580513 -313.48810039036033 -115.76963643472874 213.0398801444686 121.19376508483458
-3064.1616861597167 -239.1674761010312 -397.368921298079 -103.86488358212037 173.92400153987916 149.64741587296882
-3628.9509623647727 -282.9215782679029 -478.96875375136045 -88.25546411953806 122.78764014930877 178.50721698376205
-4176.678607645372 -348.0181240956795 -572.2574176002714 -64.69171783455573 62.069394386023205 204.90123447217485
-4664.902896910247 -324.46569622820357 -639.362918439377 -31.657399779152797 -25.135862203086834 236.15600520577544
-5097.006077627729 -770.4910145999881 -898.7617645636676 87.98169068635454 -182.5150888179462 212.08441957255133
-4122.637325395504 1629.6476310560386 -98.24090505492532 -0.870892949299332 4.51090842762418 437.3788236415089
-5092.147368110035 -769.9882326942086 -896.9962386460045 -89.78082953480691 191.84491030001016 212.10987020119163
-4654.930995550783 -323.4812156598927 -635.8209901860693 29.687569026671667 35.35436254329032 236.19965012178224
-4161.258200548206 -346.6178225554184 -566.9817842174734 62.44152615446012 -50.508206713390955 204.94657300532742
-3608.129028453154 -281.2865226086069 -472.22062521050805 85.62628579071557 -109.7125116989148 178.52434813612638
-3039.5483643278217 -237.81861222973805 -390.02968886545796 100.78398399303337 -159.73682277005832 149.59201266328097
-2459.1962806888623 -188.50419136673963 -307.6713171230581 112.20381255422467 -199.27012252040558 121.03576015115317
-1854.3700280989392 -128.62834185430427 -217.73809832888944 120.70855447605211 -226.2898957704008 92.24040406621293
-1164.5217982836475 -49.59900426640583 -95.37320436406104 126.7580513391333 -223.91952581374778 62.237719737939756
-515.5377229390773 -61.586195513266176 16.97848586916008 115.33515044416922 -156.22185377029393 32.41014564634497
-235.94730042683022 -104.34636553083098 64.07048575053955 80.96530412772424 -99.45706161565354 31.503309320048242
SCALARS Strain float 6
LOOKUP_TABLE default
0.0022866156546730325 -0.008497772502224868 -6.183340514956392e-19 -0.004814107801229537 0.0019846957124746434 -0.00250095162099412
0.002753162769275733 0.0008833602009008403 -0.00031855260794351833 -0.002138520605711478 0.002065833044709394 -8.505029367600487e-05
0.0038364064545237868 -0.0011981245398936594 -0.0008401613892757475 -0.0010081565744796198 0.002018175446321027 -0.0007015559888909409
0.005395072864463614 -0.0014074767774174936 -0.0011811926790279712 -0.0010396327528367918 0.0017957355943638514 -0.0007612149136751647
0.007323451930264537 -0.002024484488000682 -0.0015622958961594923 -0.0009798254543678146 0.0016047372825593459 -0.001045476860750557
0.009279120416749964 -0.0025656154929075167 -0.0019290592856413048 -0.0008890152985355497 0.0012604288635003516 -0.0012892053966438183
0.011186641506078145 -0.0031119979724766266 -0.0022740711178655436 -0.0007426037914351138 0.0007861440553694409 -0.0015396474180257918
0.012980315227642007 -0.0036361912072400437 -0.0025759790443634096 -0.0005413166123280342 0.00019161265084383046 -0.0017857388190714633
0.014485325273674242 -0.004091396867854442 -0.0028039246570968714 -0.00028174033318767693 -0.00038792764342518183 -0.0020394257913875307
0.015443357144732257 -0.0043561592167678945 -0.0029296373333770028 -5.234888467495418e-05 -0.0005523025698118264 -0.002312002988366615
0.015754589934237305 -0.004371196415769351 -0.0029642508739682097 -6.411820686901389e-06 1.3276362915068851e-05 -0.0024979233125258203
0.015455099517385888 -0.004359900238759721 -0.0029324036465954964 3.919233615177372e-05 0.0005786221037207994 -0.0023126479390108727
0.014511067979607113 -0.004099577863215579 -0.0028098933115671644 0.0002675854766584838 0.0004134768490199494 -0.0020407042243734052
0.013024873811592372 -0.003650286474788899 -0.002586118889096495 0.0005254745156881211 -0.00016766582146338367 -0.0017876835263862891
0.011258031995001711 -0.003134354140541497 -0.002290022856595729 0.000724440008866804 -0.0007650297381771065 -0.0015419955458402692
0.009389146910451724 -0.002599806657480405 -0.0019538171356312402 0.0008676352808587321 -0.001244858393079222 -0.001292896025278894
0.007488796198228122 -0.0020746193134217215 -0.0015995131555240117 0.0009553206106447567 -0.0015947779746395998 -0.0010458302717491392
0.005638140357860437 -0.001479494967179112 -0.0012432500602956495 0.0010049402380916282 -0.0018072232558665722 -0.0007807017233715216
0.004229113637962411 -0.0013014842530089158 -0.0009145328727538476 0.0009661493937328453 -0.0019865749260469575 -0.0006368485411135183
0.0035983916852528313 0.0007397640956957086 -0.0005459856314092883 0.0022188731490720547 -0.0026563646159162217 -0.0004678686189972711
0.0034798959369858867 -0.00896775866543101 0.0007157643475887231 0.0028937146223073354 -0.003479443146509466 -0.0009700121251365101
0.001404545477985601 -0.007377158557749258 0.0005936522720683359 -0.003089975042093533 0.0016397867586726523 -0.0014376493739414013
0.0012684334608931253 0.0005899103137467294 -0.00020833061460157006 -0.002560312802722532 0.0013730431433679874 -0.0004312150632256581
0.0020251937980485407 -0.0007349005234659687 -0.0005433361452593239 -0.0021302437469814793 0.001245787264461705 -0.0007559180986935373
0.003517412954504009 -0.001128871346919233 -0.0008400569662101103 -0.002157559496983966 0.0011014889002948483 -0.000980256301743546
0.004776138707942334 -0.0015928276939671192 -0.001111926912979074 -0.0021090273595268357 0.0009558705339879178 -0.0013005143871051856
0.006079338733345035 -0.002034677821985191 -0.0013812605178245402 -0.001937173541033392 0.0007532406381031404 -0.0016198698181277087
0.007345648246305651 -0.0024704972836767495 -0.0016306036632436469 -0.0016831575834521419 0.00047131896787926407 -0.0019410581002116659
0.008536272975646592 -0.0028959360423059825 -0.0018479006485167255 -0.0013126411524127005 0.00012335066041272116 -0.002272551648779997
0.0095400916361451 -0.0032644333413305643 -0.002013123969455416 -0.0007753730841357033 -0.00021936030546727855 -0.0026498937254510343
0.010186855428278706 -0.003425137554170101 -0.0021123531869037164 -0.00020407720052199958 -0.00032714160015199356 -0.0031232496008764474
0.010400896716614599 -0.00330046431309771 -0.002149724377944757 -1.1432049321579137e-05 3.1802531241831773e-06 -0.003490387884738556
0.01019920105180857 -0.0034290298984359664 -0.0021146204838987394 0.00018048506411632906 0.00033286887594637056 -0.003123317279317342
0.009566849140728962 -0.003272876605740627 -0.0020181032860153137 0.0007495602716588156 0.0002231671531629069 -0.0026499426333690375
0.008581750363354472 -0.002910289575427348 -0.001856553779277512 0.0012829936717854097 -0.0001227705467986036 -0.0022723983114800667
0.007416735034993972 -0.0024929011389597834 -0.001644647119098592 0.0016478771289338116 -0.0004754263825060737 -0.0019403232753490906
0.006186029440468936 -0.0020683023161455747 -0.001403287816001423 0.0018942529649052615 -0.0007630020567955611 -0.0016182618630783657
0.004931569704075651 -0.001641581190474068 -0.0011469939951838297 0.0020563717969503867 -0.0009737558412774647 -0.0012963292407650415
0.0037419821567482555 -0.001196558864408468 -0.0008921802152753777 0.002086475845014006 -0.0011197193009423094 -0.0009794028766964909
0.0023474723991953527 -0.0008285200960717211 -0.0006353079525898474 0.0020205316864901996 -0.0012973287913258089 -0.0007264846090483272
0.001559402323971365 0.0005526251023597594 -0.00029246861215372375 0.0024149111513683667 -0.0015701521712455932 -0.0006185130494655534
0.001607621531952214 -0.007739144640884817 0.000737582327665184 0.0019336158003466256 -0.0019415789730223602 -0.0005839235708565509
0.0007242422551895327 -0.005133096743061951 0.0006491344281446947 -0.0036278229591933625 0.0009985080481606362 -0.00047614836473954474
0.0004253054296553111 0.00012309857544108956 3.110727710730309e-05 -0.004158788285871536 0.0007814369343039125 -0.000670163954690036
0.0006293077113810172 -2.2948094479894985e-05 -0.00023459067520984375 -0.003627437750507518 0.0006157976763943602 -0.0008630411815507461
0.0015384640706223166 -0.0005091313955270727 -0.0004071298414761576 -0.003689249499666392 0.000499388597208813 -0.0012502280281603108
0.0022805652724504663 -0.0007550574050402643 -0.0005566843690498396 -0.0035639518692305726 0.0004084289353160334 -0.0016499893116152505
0.0029505594754542824 -0.0009858516465455467 -0.0006984023617949686 -0.0032896985635247388 0.00030908840816228154 -0.0020699212999993693
0.0036106174155683146 -0.0012093448691423028 -0.0008294604862644349 -0.0028818969465845166 0.00017579117858591183 -0.0024936852951321625
0.004248013127498998 -0.0014437378349162302 -0.0009426800415959382 -0.0022892541369829386 -1.7095583038734597e-06 -0.0029406840109557457
0.004792293982025478 -0.001653575173526601 -0.0010315760568298993 -0.0013748382499017176 -0.0002273404073432334 -0.0034670403742234892
0.005071769781232113 -0.0015797124358145414 -0.001097141253994793 -0.000296731413129581 -0.0003474955553145072 -0.004185689208356497
0.005121429446025476 -0.0010463129003575422 -0.0011396761035899824 -1.8268548603077068e-05 -4.887857588376595e-06 -0.004862323334883314
0.0050842940209087735 -0.0015838466477616948 -0.0010988494505342053 0.00025898226644881125 0.00033675471590614175 -0.0041853120740155715
0.004819182531444298 -0.0016624253833379444 -0.001035396570492621 0.001333381417297193 0.00021375250463429577 -0.0034661731500398234
0.004292980483431049 -0.0014584553883169524 -0.0009494925531465021 0.0022413556978914994 -1.6443444670292987e-05 -0.002939054295658142
0.0036793583727041845 -0.0012316545651840968 -0.0008407475199313248 0.002824393768051295 -0.0001997755574123826 -0.002490851957468972
0.003050856036888347 -0.001018268294991081 -0.0007165825091490736 0.0032188651424356557 -0.0003393885840795204 -0.0020648981293381616
0.00242210412975925 -0.0008004916143420797 -0.0005853193822526474 0.003475139967770925 -0.00044349868976244086 -0.0016426270162636894
0.0017309838461217046 -0.0005697235826051876 -0.0004523528392670966 0.003570600133528726 -0.0005355367589631189 -0.0012355703805693597
0.0008294614530177025 -7.706705671282585e-05 -0.00030394600055054277 0.003455020721600832 -0.0006659378220757579 -0.0008662812344819345
0.0005590236601275523 0.0001952149413598047 -2.9526810013114534e-05 0.00392894983573371 -0.0008557005733243051 -0.0006804546588756336
0.000811616979938986 -0.005354078035437496 0.0006795655806220202 0.0034291142226599647 -0.0010956713326665476 -0.00045507811864858237
0.00019462514385992435 -0.003078026137398796 0.0005797245997417837 -0.0033548224261841716 0.00045043679864715765 -0.00016791090784100673
-0.0002219347113748127 -6.525498218153117e-05 0.0002254742888227437 -0.004398034211179908 0.00025520598021097635 -0.0005819980368266384
-0.0005573448057391555 0.0003891715269788082 8.349719936775011e-05 -0.004415681040373629 4.025472686204698e-05 -0.0008923391167101767
-0.00036440057354083616 0.00014989465768493906 4.759521921120546e-05 -0.004215515770829645 -6.691146742462339e-05 -0.0013146588480770762
-0.00021133794926711934 6.366619821849453e-05 3.436821986832614e-05 -0.004042213560937102 -9.860927872696018e-05 -0.001751330805194129
-0.00014261151392198874 4.475093122719743e-05 2.6633641784368532e-05 -0.0037289261400092824 -0.0001072534078540319 -0.0021965213865156995
-7.889795297086653e-05 2.6481538976589826e-05 2.145615336225087e-05 -0.0032736203532143272 -0.00011509610628590922 -0.0026515650222677877
2.6454420230039176e-05 -1.8709530998545332e-05 1.807639440956658e-05 -0.0026335203302621244 -0.00014502757397039773 -0.0031255465380302817
0.00014452486542598637 -0.00010621088617754377 9.782506225260997e-06 -0.0015862522413753947 -0.0002807600887973887 -0.0036691798870568566
3.3169649107177893e-05 0.00019313008022852357 -2.3884367244907302e-05 -9.826972609268133e-05 -0.00045640526164045746 -0.0044493123968750515
-0.00012412943705443404 0.0014889524550228143 -8.775012903412555e-05 -2.051138577876811e-05 -1.2138444656416374e-05 -0.005454641594373059
4.56912278166323e-05 0.0001888329686674491 -2.5001446172519785e-05 5.584896871736613e-05 0.00043085274369387175 -0.004448797596120828
0.0001711599430336945 -0.00011531836273017039 7.203312705522028e-06 0.0015395554088585529 0.0002514869443720647 -0.0036680216825034266
7.028329816980835e-05 -3.359514592305645e-05 1.3299820805904523e-05 0.002579401482936635 0.00010998023140052068 -0.0031234517678698495
-1.3516463356281279e-05 4.476137487555212e-06 1.3259563104260196e-05 0.003208384734116425 7.311566711372865e-05 -0.00264796015639063
-5.042750598880578e-05 1.3862485839016225e-05 1.3162998799229e-05 0.0036479431780793237 5.898572995423977e-05 -0.002190526550879107
-8.68952746202699e-05 2.1875066554838392e-05 1.2828427890284304e-05 0.003939099523785303 4.7881844637021665e-05 -0.0017414099066864698
-0.00021556268041552786 9.921776754818516e-05 1.366175988570385e-05 0.004080716221942514 1.9701472134960078e-05 -0.001300906195415764
-0.0004313854362980173 0.0003747890781434947 3.5203129353869184e-05 0.004245590714567315 -7.925548612308535e-05 -0.0008847782968017894
-0.0001497584633102137 -3.7429821918908744e-06 0.00018143893933503588 0.004297859651250577 -0.0002879346115724943 -0.0005983003982699676
0.00024282617137594785 -0.00323171895634424 0.0005825020810012143 0.0033227867720922663 -0.0004911185516839275 -0.0002631767797794441
-0.0002730810297301939 -0.0014747525499413275 0.0005068431418545309 -0.002549682939922601 -6.61267811447528e-06 -0.00013258233312357157
-0.0008096344055118653 1.3324747529670095e-06 0.00037967744672872994 -0.0036985268801851497 -0.00023909680693120572 -0.00045158144491006235
-0.0016552746633224046 0.0006910222173059599 0.0003909998087418034 -0.004063078978046808 -0.0005424218163346186 -0.0008249639257370379
-0.0021983716501622662 0.0007627825455033989 0.0004989755751205269 -0.0037867964646795178 -0.0006434172210520238 -0.001238541471231671
-0.0026996361469557545 0.0008925879798764383 0.0006253294478414629 -0.003567292874859831 -0.0006126301752707845 -0.0016538367901702891
-0.0032384698385309906 0.0010768479170653693 0.0007514335650576592 -0.0032875696449930214 -0.0005258418229035359 -0.002070281584266728
-0.0037709554508120317 0.001257055041893241 0.0008721117028254303 -0.0028867632833345616 -0.0004138442817480796 -0.0024981763548724825
-0.0042153498958069835 0.0014287914914167792 0.0009799551251346583 -0.0023165412996949707 -0.00028073175205997104 -0.0029278897979062475
-0.0044888353325545985 0.0014442141963597209 0.0010542578623655955 -0.0014724299048177137 -0.0002498858953611792 -0.003386500990975009
-0.004988623280023776 0.001761158641152881 0.00104415170172673 0.0003785015374937215 -0.0005107821804220635 -0.00402140064390275
-0.005395357745561135 0.004450192908802904 0.000915280014674341 -1.8462350788461853e-05 -1.9549838354419196e-05 -0.0053326238784581195
-0.00497605083921682 0.0017566903041424387 0.0010436242231906256 -0.0004167046741753767 0.00047006245065509835 -0.004021058453694868
-0.004462351862102841 0.0014348309429527552 0.0010529234719234431 0.0014303241868204432 0.00020447603179858786 -0.003385709841582312
-0.00417251803756406 0.001413696735563875 0.000977227477399515 0.002267688957969672 0.0002281728798672201 -0.002926396342854275
-0.0037088489940088907 0.0012353067767561761 0.000867055408184899 0.00282784247964545 0.0003530627040913493 -0.002495496827098737
-0.0031546274281844615 0.0010475985662087054 0.0007427230459336882 0.003214154649597966 0.00045855866594622804 -0.0020655704677909788
-0.0025950985661014 0.0008552849237616866 0.0006111494840098206 0.0034732531635487686 0.0005452083706559581 -0.0016459664495942711
-0.0020884641046097405 0.0007252950239663337 0.0004770394469492419 0.0036665950380842653 0.0005877701092322224 -0.0012278692595603412
-0.0015748200667459206 0.0006876260915444852 0.0003608163963202097 0.003946580153601308 0.0005113021371263585 -0.0008177844941585163
-0.0007689913888928704 3.705003143107016e-05 0.00035115484006458626 0.003670934572889695 0.00022640512508359753 -0.0004716027178458965
-0.0002467630509475384 -0.0015631782767428193 0.0005022551447664122 0.0025679102326146 -7.160430491849727e-06 -0.00022167619203225983
-0.0006418799217052017 -0.00048344000895601596 0.00048641302753651896 -0.0014116876321545063 -0.0004082586369828982 -0.00019428825796313136
-0.0013342963422844519 0.00018060569051126383 0.000513926059217809 -0.002130892857535585 -0.0007445976428502396 -0.00032417747732088517
-0.002713848183231899 0.0009599915995925134 0.0006741438420087634 -0.002440956820923115 -0.001187436297660902 -0.0006481831629524445
-0.004010482521914123 0.001360211209863793 0.0009222987905278387 -0.002269857684926239 -0.0012825460875633091 -0.0009780570836611087
-0.005207338660124231 0.0017380990071284652 0.001180815132675719 -0.0021129932881192724 -0.0011771119532911546 -0.0012994291215913827
-0.006372433993640673 0.002130268258384923 0.00143301753751909 -0.0019371961051600473 -0.0009800397565162093 -0.001619553673863753
-0.007499119643405845 0.002518150825491156 0.0016724368961798734 -0.001688225665383009 -0.0007228914829911462 -0.0019433115867134006
-0.00856979483606336 0.002876041431982088 0.0018879404828252813 -0.0013526715310390358 -0.0004280610881136098 -0.002271936328564759
-0.009258300150839862 0.0032269415637090062 0.0020466877404456407 -0.0007848709523605464 -4.458340168490107e-06 -0.0025462299243982503
-0.010042409954831497 0.002949106300991654 0.002048927547375421 0.00039896787532544187 -0.00019944158756601368 -0.00290946071237398
-0.010656581559480603 0.007856312158958174 0.0017502433735909196 -1.1680948200641878e-05 -2.811560705435926e-05 -0.003866627925033462
-0.010029475058826247 0.002944348548989787 0.0020489556643998137 -0.0004231322755615385 0.00014115201294337325 -0.0029095687875678664
-0.00923133773318321 0.0032170522299129127 0.0020465198753698483 0.0007582671313763671 -5.977115479535361e-05 -0.002546389650960766
-0.008526994788782697 0.0028604064526601054 0.00188711353993954 0.0013218903316958312 0.0003548515942164193 -0.0022720058626289406
-0.00743892584987456 0.0024962640985915045 0.0016702377280869984 0.0016512827320519531 0.0006395546020756848 -0.0019429938203958709
-0.0062956870371525 0.002102291445663431 0.0014285326033311127 0.0018915448502070898 0.0008892279681143484 -0.0016183011671525298
-0.005121648817340065 0.0017064499232565158 0.0011731006357090993 0.0020549604348340305 0.0010884162710054184 -0.0012965624940396334
-0.003934811163693288 0.0013348385480889465 0.0009105563367192078 0.0021995764896261087 0.0012152185213725553 -0.0009736572437094968
-0.0026703478474307445 0.0009608304204686319 0.0006582078112768946 0.0023842841857862973 0.0011617707505013244 -0.0006463010297421006
-0.0013196208155822876 0.00019990085981719474 0.0004982319371221557 0.002130345334300011 0.0007495744868832268 -0.0003383821870131295
-0.0006352362140149909 -0.0005182442495468194 0.00048101185153565714 0.0014302975706792145 0.000418081285033431 -0.0002520531018176593
-0.0007273449308940468 -0.00016377831997670383 0.0005552597903355558 -0.0006960555265520204 -0.0008173266179504362 -0.00023449115235811712
-0.0016510786504623366 0.0002782997428639593 0.0006425534084394499 -0.0009981509895173454 -0.0013222209583771923 -0.00027112851915112236
-0.003732799891828189 0.0010905015004522406 0.0009053065127109755 -0.00112220784623944 -0.00196193840986401 -0.0005382917620224044
-0.0058764963939902945 0.0016626435187238415 0.0012635351105156122 -0.0010789990863799043 -0.002048345546517415 -0.0008011260654785825
-0.00777225572989956 0.002167298361088017 0.0016258683380479676 -0.0010033368491019058 -0.0018463456279210664 -0.0010503459640684313
-0.009577335889800392 0.0026643056871217307 0.0019787660912675272 -0.0009001623243797497 -0.0015073413466806438 -0.001296944270899318
-0.011334612875864647 0.003164847788556746 0.0023153100281283843 -0.0007648806890367652 -0.0010641595479616848 -0.00154706254719225
-0.01300198648379083 0.003588875611594071 0.0026171720064068807 -0.0005606615545669525 -0.0005379347513460451 -0.0017758106987587194
-0.014585847708368915 0.0042227134945899995 0.0028581588650069575 -0.0002743641314187098 0.0002178441390928295 -0.0020466853784506986
-0.015320767479595923 0.003427464460191367 0.0028716245436820843 0.0007625079859502635 0.0015817974364236253 -0.0018380649696286059
-0.015273531143984418 0.009653037000645197 0.0021655200108213236 -7.547738894083154e-06 -3.9094539706210525e-05 -0.003790616471559142
-0.015306840089025817 0.0034225161644407787 0.0028721481386502394 -0.000778100522636939 -0.00166265588926969 -0.001838285541743104
-0.014557134445990612 0.004212481266870188 0.0028590089105900393 0.00025729226489670673 -0.00030640447537817 -0.0020470636343883266
-0.012957261061722522 0.0035728472429144547 0.002617936742379192 0.0005411598933381448 0.0004377377915136861 -0.0017762036327120217
-0.011273589613693707 0.0031427279116358862 0.0023153468003605827 0.00074209447685196 0.0009508417680563337 -0.0015472110171802474
-0.009503979580000531 0.002636849345758902 0.0019772680136736134 0.0008734611946060396 0.001384385797340493 -0.0012964641097483632
-0.0077011454271431815 0.0021385202932570793 0.0016221294149792878 0.0009724330421368845 0.0017270077285108803 -0.0010489765879772596
-0.005834866986816597 0.001643346986914147 0.00125720470885754 0.0010461408054597426 0.0019611790966780123 -0.0007994168352405843
-0.0037367671189838703 0.001094564988426409 0.0008962101213369314 0.0010985697782736282 0.0019406358903882599 -0.0005393935710623735
-0.0016738513668202878 0.0002932719186926602 0.000633718871349708 0.0009995713038504282 0.0013539227326777798 -0.00028088792893524194
-0.0007462151216428389 -0.00017594440376008747 0.0005538619517929765 0.0007016993024407156 0.0008619612006700676 -0.0002730286807742227
0.002138907815861149 -0.005468498780480408 4.523155938337964e-19 -0.002476218804127067 0.0013210444459256438 0.0004673097393475603
0.00271143404437259 0.0002737111854632139 -0.00033933773653161846 -0.0011069700763840762 0.001425427473801524 -0.0001464695372555791
0.0039663090401425094 -0.0012143198280759845 -0.0007685641725229213 -0.0003955900692032066 0.0013370093206113978 3.659480009072362e-05
0.005532641986501219 -0.0015198774080232421 -0.0010933667388781632 -0.0004299938339203304 0.0011880551903638884 -2.502981939195021e-05
0.007333061233198437 -0.0020888345388122525 -0.0014101678633977432 -0.00042704969575838004 0.0009067671177971797 -2.568672383448513e-06
0.009150972369955357 -0.0026200067400759673 -0.0016978847015517548 -0.00043796189705502456 0.0005423631178359612 1.74737099063841e-06
0.010929955457408595 -0.003158548291076606 -0.0019460808324619392 -0.0004480980951688544 8.432819906763759e-05 8.199796955942266e-06
0.012661598957986797 -0.0036928508168430985 -0.0021365561258331386 -0.0004719519507785822 -0.0004215880156676766 6.497732357201916e-07
0.014342205587204166 -0.00424032386839469 -0.002247713290235703 -0.0004958925149981919 -0.0008152326154168686 -5.321229385525118e-05
0.015803645554537095 -0.004800949717918207 -0.002272568145135771 -0.00039928961218046473 -0.0007449007558404178 -0.00020440408737550477
0.016439570090098447 -0.005150270457147743 -0.0022596197586015588 1.3440818741187511e-06 7.052143555286258e-06 -0.00036274782654434633
0.015807597590960846 -0.004801923182644702 -0.0022745950439237274 0.0004019568097577915 0.0007582118250528587 -0.00020533456358185392
0.014350693184844589 -0.004242336028310756 -0.0022521864761808784 0.0004984612108638757 0.0008260456231033856 -5.504034794098489e-05
0.012676014578358425 -0.003696068115929192 -0.0021444154983851008 0.0004742179545683058 0.0004277899377746089 -1.898560500155834e-06
0.010953082683090316 -0.0031633318851641123 -0.0019589863977088726 0.0004496832045825452 -8.599691933708104e-05 5.168096700620775e-06
0.009187942617777063 -0.002627147419884943 -0.0017187114933212083 0.00043804876918884415 -0.0005568527660929661 -1.6014395840293608e-07
0.0073935819175431385 -0.002099897391634432 -0.0014432118832645338 0.0004253664612408179 -0.0009451507754485314 -5.249239150714454e-06
0.005631763864197419 -0.00153758644319018 -0.00114744801608162 0.00042175329107196137 -0.0012541866283368272 -9.707714859591615e-06
0.004148906963717428 -0.0012491754169876783 -0.0008451352984788118 0.00038029922610532697 -0.0015097336212431243 -7.2261686996945675e-06
0.0031207937616857598 0.0001988156048389609 -0.00047942986989224533 0.0010976879759385517 -0.001275608625561847 0.00017278333580863765
0.0027151705223087902 -0.005562778692700231 0.0002047430937200044 0.0014631432344423235 -0.0010776514366720635 -0.0008609222247542223
0.001280382245354221 -0.004814311647876471 0.0002550481612140924 -0.0015890564331628933 0.00022248226866885347 -4.378957240404295e-05
0.0014219909108822587 0.00015524714738386844 -0.00017922771967590566 -0.0013805147584470348 0.00047933127182317464 -0.00013311468350762454
0.0023429532361928587 -0.0008324396939420181 -0.00048751196677177997 -0.0010869141192547714 0.0008154630192151697 8.739716753753568e-06
0.003697010030746395 -0.0012224796767850504 -0.0007438025907807386 -0.001128582192797244 0.0006838275961739625 -1.1771116211049484e-05
0.0048829581061780635 -0.0016556165796220402 -0.0009679225884869178 -0.001162244156595124 0.0005095733812174803 1.8503311349079841e-06
0.006094854277348958 -0.00208250070037982 -0.0011710850420403884 -0.0011686415584995725 0.00027769678653531785 2.2682986887603064e-06
0.007278418854926653 -0.002508374139302488 -0.001343560801918147 -0.001178699200807562 5.464852572338272e-07 -1.1153179968996259e-05
0.008419564391111262 -0.0029252366745582715 -0.001475222681601751 -0.0012101610416793446 -0.00029716644221199453 -6.40391695931869e-05
0.009501952004223676 -0.003350747887979512 -0.0015536460373376257 -0.0012546632132576236 -0.0005276803136455356 -0.00021739957386968683
0.010420172049145967 -0.003853800226061871 -0.0015753006473479692 -0.0010294533423605855 -0.0004863194737289059 -0.0005520105400030013
0.010815175075176682 -0.004298292315641232 -0.0015690516936771536 1.9456745842256318e-06 -2.716973536183841e-06 -0.0008852635524908773
0.010424047265790689 -0.0038549956197973367 -0.001576108966778323 0.0010332849021580657 0.0004796490132067409 -0.0005522108441265474
0.00951022467452448 -0.003353195393401695 -0.0015556614088614931 0.0012582381719821606 0.0005172559642739501 -0.0002175784676989253
0.008433450192826906 -0.002929071053835008 -0.0014793440719230633 0.00121302656338909 0.0002802647471617139 -6.362563283651107e-05
0.007300236216537892 -0.0025138723921898204 -0.001351435042258392 0.0011799342109147118 -2.7046286016262488e-05 -9.002981087113076e-06
0.006128967278957772 -0.002090300345033871 -0.0011854338333951268 0.0011666125298070286 -0.0003182769240123229 8.519894958371091e-06
0.004936923532656637 -0.0016670217320379703 -0.000993506366186295 0.0011547500159316453 -0.0005691469612529909 1.4909598788430608e-05
0.0037869485696132065 -0.0012395773376317645 -0.0007865991942514297 0.001109747724602914 -0.0007763691232266683 1.7803456364259783e-05
0.002499412835233773 -0.0008663950726186325 -0.0005607160440191156 0.0010387940960234485 -0.0009319718443127752 3.5330920233495405e-05
0.001578717847811129 0.0001357986637671458 -0.00026063135482067115 0.001265723686850177 -0.0005102383032638628 9.691221909353767e-05
0.0013945543118134263 -0.004858435845124299 0.0002602871482341469 0.0009432330810841696 -0.00015258916722845673 -0.0009081798737464871
0.0007098509673737926 -0.003477329812729355 0.00036119886397236405 -0.0020972873092278 -3.527787195500544e-05 -0.0008758827601829951
0.0006274500086851546 -4.5860093060170455e-05 1.937592792600082e-05 -0.002397485757067852 0.00010956947217568768 -0.00013163645449212636
0.000987695002940572 -0.00021534744917962246 -0.00020347981960355354 -0.001982654052153527 0.0003290592577016163 -4.013711380140834e-05
0.0017829026207205022 -0.0005986295957193283 -0.0003589601045535625 -0.0020389327317225105 0.0002794838144125101 5.568289581684847e-07
0.002436427964331587 -0.0008160357674084976 -0.0004829503895435962 -0.0020610302849185364 0.00017713233501083262 -4.3504001521746095e-07
0.0030382815709982395 -0.0010277962404112429 -0.0005888690134886293 -0.002069090139258348 5.9766479127597796e-05 -1.330465353788702e-05
0.0036247920235961037 -0.0012364037345805017 -0.0006760847065379941 -0.0020740461176106963 -7.588216849260782e-05 -5.85518636001549e-05
0.004168852808587127 -0.0014216548515022642 -0.0007400890507387503 -0.002096580783286564 -0.00022992823114253918 -0.00017181855918345961
0.004691801610730526 -0.0016039969282310327 -0.0007762841398771429 -0.0021694397085834987 -0.00039870660572341573 -0.0004378629702263564
0.005256999026420238 -0.0020432584266722466 -0.0007803130849595191 -0.0018764125230661735 -0.00044310714863752507 -0.000991074614366115
0.005558599481330965 -0.00282558835666984 -0.0007661811653621505 2.8539453768850158e-06 -1.1382210211079338e-05 -0.0016308903897947024
0.005260741145214078 -0.0020448868992790983 -0.0007798666596238072 0.0018820103349778494 0.00041875496972419897 -0.000990610935514088
0.004699689911123524 -0.0016072866958016818 -0.0007757375780421422 0.002174578055300229 0.0003696277943464793 -0.00043653020286620004
0.004181789434699667 -0.0014266623622976853 -0.000740241690572454 0.0021004846188489713 0.00019311735156005998 -0.0001686307924882275
0.003644472595319205 -0.0012432154738750143 -0.0006784098198379669 0.00207511915779789 2.854874129029509e-05 -5.147058918638393e-05
0.0030678388109258927 -0.0010367172937591432 -0.0005959316324716552 0.0020645131893664787 -0.00012006832650768816 1.203323220269065e-06
0.0024818258898590246 -0.000827679488859958 -0.0004988990085397092 0.0020463049889161236 -0.0002529287528482244 2.829709478640243e-05
0.0018564469244870302 -0.0006150970732159716 -0.00039048308278710113 0.0020054124288177324 -0.0003735845002635067 4.829578652261299e-05
0.0010815613614190752 -0.0002348948949843638 -0.0002579536931716812 0.0019042387791919546 -0.00042427855382073286 5.580743083851935e-05
0.0006966459731188744 -9.394446257564896e-07 -4.41787009790914e-05 0.0022390175030024347 -0.00012901585994475504 -4.1614568331566906e-05
0.000752313999038624 -0.0034765947390671672 0.0003254128231810351 0.00191559831469775 7.884121671427375e-05 -0.0012274081744952225
0.00024061319294694527 -0.002192989415480916 0.00041983033874056744 -0.001983026137501518 -0.00011389764472378603 -0.0009603172512180931
-1.1330205429913652e-05 -0.00012179803627847963 0.00020334883844315126 -0.002633969352216808 -0.00010876876106539716 -0.00023612370507647794
-0.00020222484418381002 0.00018531050106738236 8.261845631050044e-05 -0.002504468274465353 -6.804893941857963e-05 -5.9576211886146026e-05
-8.368194595035219e-05 3.517992859534124e-05 3.653122978505291e-05 -0.002365672817389163 -9.512759714796775e-05 -1.4737850425204068e-05
-2.1358174349205366e-05 -3.4055739963028945e-06 2.002990662344977e-05 -0.002365336529785404 -0.00012778053505215062 -1.262905402121403e-05
-1.7035881699342723e-05 8.256924608816882e-08 1.5566594179317384e-05 -0.002370591407720748 -0.00014501495047322755 -3.7434911826724824e-05
-2.3749007630048417e-05 -1.2959019682219075e-06 1.8035524193872803e-05 -0.0023761544891477667 -0.0001568971360733628 -9.748141432703103e-05
-6.943710955280026e-05 2.885122724179995e-05 2.5782886881651264e-05 -0.0023597808809073034 -0.00018739632033486675 -0.00022602419924714728
-9.883556262647644e-05 0.00010404149860444681 3.505160168560793e-05 -0.002435285923110626 -0.00031755061517497947 -0.0005019751858114416
0.00019016406253783544 -0.00028218883807948526 4.881634798443063e-05 -0.0023835835224202684 -0.0004908557770977345 -0.0011049277298617944
0.0004699583260193539 -0.0017656114822297586 7.470891586709175e-05 3.103304425654696e-06 -1.960768015285496e-05 -0.002093940597179545
0.0001937411978363277 -0.0002842397843674817 5.0543110885810374e-05 0.002389666461687607 0.00044973052390435015 -0.0011042714369531572
-9.142667688435167e-05 9.99405079059802e-05 3.822658386240414e-05 0.0024408527397400317 0.00027083336944457216 -0.0005001982817198774
-5.7664738265587886e-05 2.2742841477973503e-05 2.974669259904954e-05 0.0023639589886156076 0.00013188387034106808 -0.00022198880251179346
-6.681203509068788e-06 -9.281635887035264e-06 2.1525824975594163e-05 0.0023771286966749352 9.040411832424795e-05 -8.892413653573799e-05
7.067622170377027e-06 -9.61038878063205e-06 1.6352299259517617e-05 0.0023649778166067964 6.709583198152475e-05 -2.0044228282365016e-05
1.3796228664115611e-05 -1.4909615873114714e-05 1.4339779335746864e-05 0.002347400345624231 4.03117761026109e-05 2.060722127785347e-05
-3.418384820272547e-05 2.136061275881346e-05 1.8446881912080377e-05 0.0023254359577082975 3.731930220956577e-06 4.5421163967839256e-05
-0.0001518191081417979 0.000185139525656616 4.677424817895839e-05 0.0024237553807041935 -3.2466450267902013e-06 3.755318222931749e-05
2.100391665676289e-05 -7.399295099686282e-05 0.00015555310079135885 0.002549368439692091 0.00010280688300421211 -0.00017753837515006908
0.000261352992536796 -0.0021993104393777806 0.000379342114940442 0.0019242017861659667 0.00014908171649024226 -0.001170448885016202
-0.00018511097099066731 -0.0011382897929105098 0.00047374162323519914 -0.0015014282685014092 -0.00019214055831246442 -0.0008305606703283021
-0.0005955780791021312 -4.5736370856247455e-05 0.00037193003041413147 -0.002231337816205672 -0.00031022302967068837 -0.00024078571260661104
-0.0013134981648506906 0.000496615305092091 0.00036249064419517613 -0.002306651275274793 -0.0004384158350182588 -6.18599906844225e-05
-0.001898936498726636 0.0006369858956027571 0.00042943701253740695 -0.0020969026847358005 -0.0004685152938459323 -7.5795725872971e-06
-0.002476868931300381 0.0008166517433601321 0.0005222983562195758 -0.0020535076796683793 -0.0004360794796398649 2.736103189305939e-06
-0.0030781903095492983 0.0010279775724000234 0.0006195575021073087 -0.002064276304362687 -0.00035251108363849117 -1.3630970971720476e-05
-0.0036677295264555755 0.0012399960537271733 0.0007119945568537432 -0.0020692082118980155 -0.00024288712108345637 -6.364582443480369e-05
-0.004277340710179122 0.0014478031827228764 0.0007922410541013321 -0.002050721335406491 -0.00013539205905777594 -0.00015534157712903873
-0.004895551425327763 0.0017920693625310441 0.0008463726615379646 -0.002016317213438113 -0.00016908141624887702 -0.00035107415842650677
-0.004904873593241134 0.0017014754466859682 0.00086163307421278 -0.0025491665781231993 -0.0005224150613638368 -0.0008075958999056834
-0.0046165837861680105 -0.0010566360935377887 0.0008869749807983617 2.9221861806121007e-06 -2.800886084152846e-05 -0.0021900760596970303
-0.004901454946121097 0.0016989880924632714 0.0008646563802907986 0.002554918558815444 0.0004641370752485812 -0.000807230355571092
-0.004888613272907544 0.0017871314962336169 0.0008522154760232279 0.0020216638695757967 0.00010425836542476439 -0.0003499383403791741
-0.004266728890964511 0.0014405542318290932 0.0008003940300146644 0.002054926489300946 6.056963398961874e-05 -0.00015244775118156264
-0.003653308654832476 0.001230799665440904 0.0007214276904184057 0.002070686751122459 0.00015641026507898738 -5.699498005220969e-05
-0.0030596575526209303 0.0010175173136393 0.0006283675777360524 0.002059889904698457 0.0002560513309158251 5.856667752987447e-07
-0.002453484571458343 0.0008055847395409271 0.0005271771804949356 0.002037617448747849 0.00033635722354753017 3.1484909141529555e-05
-0.0018721670839864715 0.0006280808733098505 0.0004252842761174234 0.002060264617835471 0.00037962428562982373 4.6179891976513775e-05
-0.0012917599205101223 0.0005032458029735387 0.00034409060063187005 0.0022499877572120346 0.00038546100486542965 1.6882863927852687e-05
-0.0005823827136362729 -1.2235860061502882e-05 0.0003400244367989445 0.002195003242604303 0.0003121720374023405 -0.00020047674167905877
-0.00017471327764273522 -0.0011440039003559313 0.00043876423474341407 0.001487861202746658 0.00022113704664794074 -0.0009699157075777846
-0.0005447196781469916 -0.00045198804741663795 0.0005495922965734331 -0.000785172693498912 -0.00034433666742679134 -0.0005391456704428197
-0.0011360142105794771 0.00011241012987766799 0.0005323763842191623 -0.0012475009400117587 -0.0005739848567081635 -0.00016387223966470103
-0.0023951228817981804 0.0007948303999919574 0.0006297374168493684 -0.0013306570657068695 -0.0008476188375014932 -5.648440758870792e-05
-0.0036928942503703013 0.0012407702766385703 0.0008069124663712358 -0.0011929972383376538 -0.000879674787432226 -8.933965787412631e-06
-0.004932644013228954 0.0016621066755856855 0.001005235814617245 -0.0011540330538428165 -0.0007762036016211137 4.128346879751731e-06
-0.006141132515788398 0.0020880307323502354 0.0012000645263306811 -0.001163253305974008 -0.0005809115986087441 2.3224776892505736e-06
-0.007326736012093359 0.002512453415464597 0.0013791287614796654 -0.0011740602202198413 -0.0003280889446083266 -1.461642829066616e-05
-0.008437658794599663 0.0029396685439716038 0.0015287555769776993 -0.00115226451596136 -7.05215242521516e-05 -5.917955297790894e-05
-0.009656165147817294 0.003318532388455167 0.001627668961704413 -0.0011886297692222999 0.0001579497331974909 -9.281976907315011e-05
-0.010157260474322487 0.004209948953901481 0.00161253950120408 -0.0016100251510049516 -0.00032966986915230123 -0.00030182025747002854
-0.00996303889216969 -0.000496636476826841 0.00157188205812896 2.0265886419554786e-06 -3.720410890954774e-05 -0.0016121730488634278
-0.010153959209666925 0.004206993128411597 0.0016168644991628209 0.001614042199780644 0.0002525598159054498 -0.0003021760825154874
-0.009649596277285663 0.0033126861468823023 0.001636187346198945 0.001192461323975677 -0.0002428414834668266 -9.331056147901451e-05
-0.00842799978640288 0.0029311506752681695 0.001541099386261995 0.001155506350845858 -2.6089808441586194e-05 -5.924929810704754e-05
-0.0073145275360725435 0.002501828523891537 0.0013944725860938261 0.0011757844533122445 0.0002183389581145972 -1.3114623191191734e-05
-0.0061275987971484095 0.0020764240088760096 0.0012167743582604967 0.0011615755098888202 0.00046147385982701845 7.710755758801887e-06
-0.004920257461555832 0.0016515443060580491 0.0010203941563316685 0.0011452317018794693 0.0006587464461717221 1.8020038939077545e-05
-0.003685703035298655 0.0012356426687137316 0.0008159056686022134 0.0011722870048794538 0.0007868234269119297 2.0342402960062165e-05
-0.0023955476438843517 0.0008028942928189252 0.0006269234362777069 0.0013027597410106698 0.0008074569953491357 -1.3501398102919167e-05
-0.0011375928622275723 0.00013254808000198102 0.000515247633334847 0.0012351727718156883 0.0005867277637173488 -0.00014284604398620497
-0.0005436364628508046 -0.00045139822871406086 0.0005233032543411337 0.0007823284647181647 0.0003771902732333004 -0.0006188983919487096
-0.0007318514962330573 -0.0002188402297879154 0.0006668611801559641 -0.0003007350099184569 -0.0006583108612392346 -0.0003494176536122613
-0.0015677931090658896 0.0002012002243357361 0.000692767043515048 -0.000488185603708234 -0.0009886930053997851 -0.00011392411237422134
-0.0034754958708075653 0.0009471865304856912 0.0008759040884618475 -0.00047943687032931444 -0.0013759372594035091 -6.131247331879751e-05
-0.0055145061683640915 0.0015501058651541076 0.0011499597148480283 -0.00043472810079843986 -0.0013872950607019489 -2.5398969789162112e-05
-0.00739365850360427 0.0020937716308436693 0.0014418190516607492 -0.00042504582175567174 -0.0011927765834713637 -1.2637611566978379e-05
-0.009203505250923408 0.002630869278531417 0.0017239076312397638 -0.00043493923413003173 -0.0008587409056151344 -4.09819921763335e-06
-0.010982525584625156 0.003156930401171044 0.0019806484257411613 -0.00044047966252390994 -0.00043203900060197095 2.3320541267407522e-06
-0.012676120709802194 0.00372712034771214 0.0021930021881461665 -0.00046045030548460934 3.9887747045186934e-05 1.1735949965724724e-06
-0.014073307312011198 0.004007830997954875 0.0023324046868705675 -0.000474039396961891 0.0005257451510184522 8.579367321570852e-06
-0.0155421627526642 0.005632435457411025 0.0022840561462784677 -0.0011491068644876264 0.0007843287172227344 0.00018582739159015742
-0.016425536388009636 -0.0002063611918326663 0.0019071672602434177 9.728569901106001e-07 -4.786633810058634e-05 -0.0017142332854071093
-0.01553893033841846 0.0056292362447699276 0.002289670802253148 0.001151055069819431 -0.0008833645610517772 0.0001851599434091197
-0.014066966575255725 0.004001508950220065 0.0023435615109899484 0.0004759646721967788 -0.0006343010098391505 7.359133589989577e-06
-0.012667067308413504 0.0037179293026886485 0.0022094398657979963 0.0004622175082200459 -0.00016279583147536353 -3.0982111481897087e-07
-0.010971748951923169 0.0031455124936616975 0.0020016695805886815 0.00044173247476813834 0.00029302967357781716 1.1809659591560252e-06
-0.009193330832622144 0.0026185739302476444 0.0017479912566812042 0.00043492157783585767 0.0007080304410694633 -3.700485758902583e-06
-0.007389188772358823 0.0020833128065664234 0.0014661135568844056 0.00042215936108061107 0.001046097063269472 -8.236119246978994e-06
-0.00552340340100774 0.0015464707306839852 0.0011697804995102609 0.0004268357742273445 0.0012769020160634421 -1.3255168478129903e-05
-0.003498692547812962 0.0009557510927231459 0.0008849861394330346 0.0004679167762758288 0.0013430756269451206 -4.281340644001677e-05
-0.0015883015200082306 0.00021624259008008525 0.0006872809707172634 0.0004824096341319914 0.0010302371567806289 -0.00010571297389517552
-0.0007441502735296534 -0.0002143130548858477 0.0006507525824477296 0.0002960217551522728 0.0007266864326174607 -0.0003976682994404224
0.002969377239220246 -0.004728987746979749 7.157428404298838e-20 -0.00015560294431167702 0.0005707884769262323 4.9529991146811766e-05
0.0031226579896153 2.8860943828507094e-05 -0.00031705066702248573 -0.0010706498260113376 0.0007781960192672951 -5.938504622749e-05
0.003908254329406162 -0.001263450502428258 -0.0006055510528855142 -0.0004236315444965056 0.0007323950701255514 5.7363289499008106e-05
0.005386128335184776 -0.001604062424038433 -0.0008736834421502905 -0.0004840805667431375 0.0006122267237900917 6.619127194290268e-05
0.007090219986706241 -0.002180458309614803 -0.001080609659347991 -0.0005072581435602994 0.000393682282781056 9.134234600209287e-05
0.008795743785467002 -0.0027390292007447724 -0.0012258607794730988 -0.0005326180708591625 0.00011998371560482528 0.00011735542855602411
0.010496943005770377 -0.0033264146160007575 -0.001299472710792989 -0.0005668262779935964 -0.0001893631580347592 0.00014172246902853804
0.012278362243950522 -0.003956826834501329 -0.0012946374116535406 -0.0006319309162883816 -0.0004848864633210752 0.00015268404420753224
0.014273415455646424 -0.004695124953045616 -0.0012145457526272873 -0.0007094600536367417 -0.0006500739425791517 0.00012862564163344627
0.01627970120985302 -0.005557533281136852 -0.0010933548203238505 -0.0005959774138580713 -0.0005045710953196211 5.5706393622403286e-05
0.017217034212526135 -0.006117900494147836 -0.001023252701252162 1.378895186030703e-06 6.517132935081606e-07 -6.117060707829337e-06
0.016275091764770218 -0.005555712295605982 -0.0010940752406969848 0.0005988193909111437 0.000505124956435552 5.49155027865331e-05
0.014263492226495462 -0.004691008550299468 -0.0012165065269880925 0.0007125625637513998 0.0006482964610576722 0.00012705330793366356
0.012261592165871147 -0.0039493755372974 -0.0012989863174556562 0.0006355122545378048 0.0004788325600394058 0.00015041005572625574
0.010470634731721492 -0.003313839654329629 -0.0013081993003471704 0.0005711258795584728 0.00017600027495360282 0.00013898217435615232
0.008755629998858221 -0.002718429095688989 -0.0012419770650171384 0.0005381222355457024 -0.0001461276525911033 0.00011498916696791517
0.007029181827013052 -0.002147483715072499 -0.0011086799053098648 0.0005136726061853094 -0.00044303521563625835 8.996052641429708e-05
0.005294285347612332 -0.0015524929484130108 -0.0009185362580767909 0.0004958346408634122 -0.0006966511101238336 7.188953780710954e-05
0.0037416465801390604 -0.0011783608091689938 -0.0006803354075238853 0.00044041007211317743 -0.0008626716321103061 5.269854187649877e-05
0.0026903244399470445 0.00016998067938799266 -0.00040331987951638097 0.0010462835141704344 -0.0007852712700889444 4.241621300373575e-05
0.002328012612190108 -0.004495392574701129 -0.0003540207611922872 0.001343837545173726 -0.0006941466820786959 -0.0004145715799950861
0.0013110434819436534 -0.004076040811139026 -4.6730973934824866e-05 -0.00026542236852369774 0.0003021981166996414 -0.00014792685792797432
0.001521862625705811 5.3306240653196915e-05 -0.00014536315757322378 -0.0012150749529734684 0.0003663383876962245 -0.00012444381945019288
0.0024189828460365282 -0.0009209981780075946 -0.0003780542926697799 -0.0010956750328822136 0.00045858084068660506 1.3767155799427293e-05
0.0036468831677156457 -0.0013103486897942894 -0.0005688682055395228 -0.001207595870979613 0.00038340264967994946 3.478771868406524e-05
0.004760868513519179 -0.0017546396301946045 -0.000716806850436753 -0.0012765045901049158 0.00024286924159774221 5.082189444705326e-05
0.005897566571396803 -0.0022057119843316613 -0.0008157162901430027 -0.0013219224104313548 6.493151931388075e-05 5.873838694593565e-05
0.007030350129634009 -0.0026738812542031346 -0.000864134872372342 -0.0013961033392034035 -0.00012931479672149127 5.120435154382964e-05
0.008202523304754806 -0.0031649061498961366 -0.0008601117707985569 -0.0015496472375623018 -0.0003086590459064399 9.214512245975174e-06
0.009474588765886145 -0.003738556657275907 -0.0008081732305904624 -0.0017735486438785607 -0.0004062586764902218 -9.762848529387293e-05
0.010714557743071416 -0.004521141016860433 -0.0007278543121542709 -0.0015542729162754574 -0.0003168412850542111 -0.00027637228763998094
0.011284788047421501 -0.005226348733445477 -0.0006765099949881003 2.6743799296580045e-06 -5.851366974785876e-06 -0.00040395329921944374
0.01070890345078912 -0.004519681429955343 -0.000725996643434204 0.0015598665275067107 0.00030403091980354176 -0.0002765600775844526
0.009462649417184296 -0.0037352006725706187 -0.0008048630704969901 0.0017799185338016822 0.0003900808084912204 -9.780890266564199e-05
0.008182980697882519 -0.003158702101392493 -0.0008562905521378552 0.0015574662037934042 0.00028663791375259194 9.546531018251855e-06
0.007001066582699829 -0.0026631951068183603 -0.0008615193146088257 0.0014062979145681672 9.835493411369282e-05 5.312083369850757e-05
0.005855190696316633 -0.0021878727119948767 -0.0008171959116269608 0.001335808502338313 -0.00010954619478858915 6.432034138888172e-05
0.0047006261556297195 -0.0017255481612656375 -0.000726645567965875 0.0012955744283036715 -0.00030818708264262584 6.338794808787082e-05
0.0035578571307277197 -0.0012645135819612226 -0.0005941181936554019 0.0012372044164341734 -0.0004798866118098053 6.000237427400084e-05
0.002275261485235713 -0.000842704104828872 -0.0004250969592622368 0.0011528357679379637 -0.0005703681553737228 5.303369888189439e-05
0.0013946854287547941 0.00012399399164492736 -0.0002393069378103926 0.00132088059512116 -0.00041005764894869694 -1.5376914966358314e-05
0.0012366142657930402 -0.003900874245297375 -0.0002679285387169273 0.000998147769394724 -0.0002681490341500558 -0.0005362627501287634
0.000674246662837994 -0.002860072176533253 8.413360958563528e-05 -0.0017202388557353808 0.00010602238784161224 -0.0005099978848375549
0.0006545694528944038 3.7672441466607934e-05 6.563395984977652e-06 -0.0021149280385374153 0.0001333817187537955 -0.00018809378765747724
0.001068853046765946 -0.0003174684805675303 -0.00014629303503736003 -0.001971473819520923 0.0001866114923844861 -4.7934687598292606e-05
0.0018239113691420465 -0.0006814809733754705 -0.0002706364224973678 -0.002130262461063633 0.000154054194327397 -6.863193108478847e-07
0.002423978943942186 -0.0009003575873829762 -0.00035700731866147135 -0.0022128502217031694 7.494648360951307e-05 5.845772706427458e-06
0.0029815667797795076 -0.001124736582492984 -0.0004091442605092633 -0.002291329042874816 -1.8825646487734287e-05 -8.555076458989154e-06
0.003529588548505525 -0.0013545886301372324 -0.00042921477143720597 -0.0024091830479561855 -0.00011605614280805995 -5.576266936526912e-05
0.004062084840691541 -0.0015612246196459194 -0.00041906105392304347 -0.0026385600710156264 -0.00020659978669506499 -0.00016096160914389986
0.004663547244057198 -0.0017994324212210477 -0.0003810378142546267 -0.003037039052937631 -0.0002686061739008183 -0.00036185537551091095
0.005454216023491453 -0.002501037341071762 -0.000316859994746587 -0.0028180471029424455 -0.00023066269325376182 -0.0006634312289381146
0.0059049010127258175 -0.0037067473368290124 -0.00026019822510234036 4.315258038898944e-06 -1.22359465135787e-05 -0.0008814156299324055
0.005447626122632154 -0.0025003220017067803 -0.0003124590311994582 0.0028270854787448506 0.0002047969221373936 -0.0006630340037207275
0.004649834016609821 -0.0017976430994673062 -0.0003725406037960028 0.0030473743316157542 0.00023858072987557275 -0.00036065422019962006
0.004040211888618348 -0.0015575890851555845 -0.00040723115360290934 0.002651326105746901 0.00016969472829480206 -0.00015795836726284956
0.0034980199684776863 -0.0013477926477484504 -0.0004155948235886911 0.002425994395736354 6.950483788443178e-05 -4.8938751294806896e-05
0.002938198726453317 -0.0011125500772350637 -0.00039652321478425486 0.0023145111625408115 -4.0469441189701134e-05 5.7221219115969035e-06
0.0023657262026047566 -0.0008794145837124957 -0.00035010028624269215 0.002245760502124028 -0.00015111763386969548 3.376501109217579e-05
0.0017441699827029724 -0.0006460537470599541 -0.0002766623231034235 0.0021805454174632735 -0.0002498425218400283 4.770352124538197e-05
0.0009864498050250316 -0.00026733704285256105 -0.00017590745991042243 0.0020622288943113985 -0.000282350404817373 3.882546900522178e-05
0.0006176458856425411 2.680458367365527e-05 -7.151544108754928e-05 0.002273093973811305 -0.00016061920759124517 -0.00011377412720432287
0.0006723579038306391 -0.0027502945933196767 -8.293746462860415e-05 0.0018821715701908593 -7.236879693783275e-05 -0.0007888418841556604
0.00020010858815689325 -0.001806873653885618 0.00026049028796618794 -0.0018533838343585854 -1.2623709118100327e-05 -0.0006539287047202958
-2.1840463162681406e-06 -8.576698212639083e-08 0.00017358108184882401 -0.0024791974692433 -4.057642564383106e-05 -0.00022092675627760576
-0.00011787344552707998 0.0001347825864982552 8.484170435841305e-05 -0.0024595951105419174 -5.8088110100367866e-05 -6.61436795406673e-05
2.1363116910301195e-05 -1.679191655624888e-05 2.8385844296949587e-05 -0.00245050010216445 -7.455023812481073e-05 -1.2822831720217683e-05
7.013959237996396e-05 -3.7281486913390566e-05 3.899563462980183e-06 -0.002523154423625341 -9.776839552711656e-05 -3.961230112989092e-06
5.530860344041011e-05 -2.5537660140261353e-05 7.417269290487738e-07 -0.0026123475094021924 -0.00011493775508313374 -2.5187951346259353e-05
1.911405454119497e-05 -1.859942603120482e-05 1.1755777759079113e-05 -0.002747953451564887 -0.0001241533683191397 -8.446409578200372e-05
-8.239982520119956e-05 4.6237761889199446e-05 3.26743730915589e-05 -0.002943640346563514 -0.00013615670657641951 -0.0002059060303526728
-0.00013937374720386398 0.00017055654439668565 6.253701611945258e-05 -0.0033743550022261233 -0.0001706229213889147 -0.0004273023276988958
0.00031960803438656557 -0.0004658456933728274 0.00011664067107538854 -0.003524242713916781 -0.0001811919361572199 -0.0007710042242265313
0.0007574251838023305 -0.0026648417225503653 0.0001935685533760761 4.8902747617659726e-06 -1.8602197560095676e-05 -0.001051918771812535
0.0003121138419883075 -0.00046590364986760427 0.00012358976421693077 0.0035344866061002163 0.0001423346528852267 -0.0007704291417210769
-0.00015479017240622428 0.00017071759939613353 7.622885079702035e-05 0.003386070752867512 0.00012691277908577768 -0.0004256775379526353
-0.00010648422852563633 4.720478326569455e-05 5.251092385684094e-05 0.002958109180776891 8.473611100953615e-05 -0.00020207345735610084
-1.4503951092434295e-05 -1.5830550190959292e-05 3.635663533095861e-05 0.0027670134176477038 6.28079472586482e-05 -7.612771175557903e-05
1.1394863940042153e-05 -1.9294725001385778e-05 2.7310885883859272e-05 0.0026388149449942137 4.2375125535629526e-05 -8.081233913943685e-06
1.4829974003209256e-05 -2.4680369181309795e-05 2.7355161103102228e-05 0.00256153612468119 1.3881407943284237e-05 2.8812265091834322e-05
-4.169968855367827e-05 6.260859288521463e-06 4.039904620891384e-05 0.002508929236183372 -1.6750264908536832e-05 4.6205971130920006e-05
-0.00016409664967455091 0.00015221343725794375 7.22058570031474e-05 0.002551892720156342 -1.7480665231918994e-05 2.6171165544032825e-05
-9.460556432407636e-06 -1.888157041743357e-05 0.0001144532820009941 0.002556206096504415 2.4646952202106695e-05 -0.0001668093192715444
0.0002132699654708897 -0.0017163244358859079 0.00013108391200528774 0.0018859010278257599 3.914920529891177e-05 -0.0008352618219852885
-0.0002215439763949008 -0.0009479315660325707 0.0004424937375953302 -0.0014787358803344552 -0.0001125080510652953 -0.0006145071859794083
-0.0005891541563157016 5.0526911948550845e-05 0.00034736221794721674 -0.002171854452579727 -0.00020086032891795702 -0.0001886595722307363
-0.0012190870054948962 0.0004879348953576377 0.00031484735309523154 -0.002291061353358699 -0.0002943229145201098 -5.638304494716971e-05
-0.0017373419197809167 0.0006265233618313572 0.0003261099608844363 -0.002179764239947 -0.0003013076015035396 -6.424221170049736e-06
-0.0022843989298544473 0.0008334306768947407 0.00036367889176255885 -0.0022074763350003 -0.00027154209838501606 6.1142055098282265e-06
-0.0028776186011134418 0.0010743481200891946 0.000409957503119776 -0.0022913501131260196 -0.00021227849855729385 -8.678725266922053e-06
-0.0034825489774648294 0.0013256681153073642 0.00045249906435034643 -0.002405100624449097 -0.00013389022751682863 -5.643214825015048e-05
-0.004170541574041989 0.0016007156262776412 0.00048421283834896943 -0.002553539309369774 -6.236811320694383e-05 -0.0001544000762101351
-0.004932410017568823 0.0020951132560272723 0.0005035509565985147 -0.002758966956264077 -5.450179768740962e-05 -0.000332193490819805
-0.004866629345710329 0.001880822613749281 0.0005333652725921308 -0.0036605575989910864 -0.00011418101043610013 -0.0006473924470469951
-0.0044262258415893865 -0.002035744174528644 0.0006381742825262834 4.3299212865120096e-06 -2.5093597501868947e-05 -0.0009717443612569564
-0.0048750774360033465 0.0018799905885230291 0.0005429102827055322 0.003669626035242885 6.206529178467937e-05 -0.0006470464065013273
-0.004949638647828165 0.0020936430398741275 0.0005225405735550799 0.002769331139324559 -3.212617725572353e-06 -0.00033109735230815203
-0.004197028494491475 0.0015990142934927379 0.0005122312963114074 0.0025663186756630313 -3.979151228728689e-06 -0.00015156928476837896
-0.0035184932834298544 0.0013244026401309083 0.0004883483609570068 0.0024219024548711695 5.718047044282862e-05 -4.989097560792982e-05
-0.002922438528302177 0.001074591404428683 0.0004508721888071722 0.002314802644702977 0.00012576164066811074 5.264575500936573e-06
-0.0023357112571855084 0.0008373232715546757 0.0004041828895518578 0.002242041609663992 0.00017933539452573373 3.4030041527627275e-05
-0.0017863157618141403 0.0006345659629339906 0.00035663486377108964 0.002232543161581587 0.00021425159905631426 4.528240112083176e-05
-0.001246580871608318 0.0004883146756185104 0.00032046523585830384 0.002355083879292692 0.00023545760950233291 1.8596667481595918e-05
-0.0005869896444205134 3.8819082888192006e-05 0.00030844270188251893 0.0022002301638373435 0.00019281790533881934 -0.00014864789754005046
-0.00020653728354471027 -0.0008841609844676422 0.0003447509718735911 0.0014692334586364393 0.00013407039312225108 -0.0007316999365784711
-0.0005789898477272891 -0.0003928406286659506 0.0006094932312368149 -0.0007989975536831066 -0.00023858129520160554 -0.0003716500666234433
-0.001129761152156342 0.00016622134100859588 0.0005169619415017548 -0.00124270087223125 -0.000384317952204032 -8.207197742166092e-05
-0.0022846708068516167 0.0008030622341036339 0.0005419067191439573 -0.0013512147735289242 -0.0005415769645164029 -1.1039645684536392e-05
-0.003470138356931939 0.001248041970402278 0.0006205997114728896 -0.001267273619700646 -0.0005294055805346514 2.9187305978566618e-05
-0.004633088015144086 0.0016960479155385803 0.0007199338413165152 -0.0012706309096278483 -0.0004418080691775238 5.0172611568099805e-05
-0.005801466843211046 0.0021628553512218203 0.000814453463833156 -0.001321627592641226 -0.0002997834120459158 5.844066985279619e-05
-0.006986284088779567 0.0026465073463525757 0.0008868619814571303 -0.0013927052400768396 -0.00012443018305314754 5.077227435289195e-05
-0.008151796202919132 0.003167989036507998 0.0009247630122862803 -0.0014536067860006592 4.250290139294809e-05 1.604675717689936e-05
-0.00961471139590005 0.003683850093042788 0.0009269601976923934 -0.0016160645138894878 0.00013080660753587054 -5.813802743842048e-05
-0.010280092253984028 0.004863953718006316 0.0008980808804689252 -0.002195385382554166 3.588743039377822e-05 -0.0002576279946739122
-0.010052374322660906 -0.0015874054236039972 0.0010093324686178144 2.7054180882193476e-06 -3.1852316234961604e-05 -0.0006248426167895646
-0.010289624593708495 0.00486237666886904 0.0009103105911381338 0.002201043944731547 -0.00010185683438348084 -0.0002579248301763427
-0.009634036653709061 0.0036808075505268783 0.0009514438380786601 0.0016225051591998614 -0.00020331830553792276 -5.853737848055822e-05
-0.008181176421457657 0.0031637124256784113 0.0009613077887578018 0.0014614920264752753 -0.00012496277869809654 1.603671519413872e-05
-0.007025383676066315 0.002641343885100426 0.0009345251959368227 0.0014029813234671755 3.047871577208136e-05 5.2175347918754185e-05
-0.0058482273185033185 0.0021573288172900217 0.0008706149262501131 0.0013358257337947798 0.00019631422788592056 6.329549200430214e-05
-0.004681669089000876 0.0016907673548125337 0.0007788561098716186 0.0012916350718356333 0.000336961033274507 6.250940790100785e-05
-0.0035088823203602215 0.0012419822724270332 0.0006716211886520399 0.0012979831692890753 0.0004409363916211009 5.513695668345785e-05
-0.00230037076552897 0.0007920229703860795 0.0005683905610152467 0.001382520160059916 0.000494993755231077 2.726115589768169e-05
-0.0011226621198235456 0.0001581793112030438 0.0004993803929528618 0.0012495912436280635 0.0003870522746394459 -6.18019594279272e-05
-0.0005634876911012436 -0.00035643309823709296 0.0005392136501623456 0.0007848510000235798 0.000264329919076135 -0.0004371600777816525
-0.0007707668191765005 -0.00020651495526979315 0.000737692388806328 -0.0003114556058797481 -0.00045969454960902335 -0.00019075378771430537
-0.0015636926541907968 0.00023362397870050857 0.000675678524314931 -0.000497512901783552 -0.0006334505648865638 -8.697165833969549e-06
-0.003339922473565227 0.000956210958036634 0.0007672458874904104 -0.0005155936138013929 -0.0008095522410128566 2.3152874185305264e-05
-0.005216283521831029 0.0015557803752301385 0.0009162451999918165 -0.0004965325144199273 -0.000756145158745031 5.6804237439843e-05
-0.0069734638547903505 0.0021225657274524467 0.0010786473298871077 -0.0005034882033097938 -0.0005974434792509534 8.554403720160023e-05
-0.008707637918456601 0.00270301753905215 0.0012210077969665117 -0.0005302287642689222 -0.00035951864756606194 0.00011380288951307815
-0.01045976548905717 0.0032923089778969673 0.001320384425867262 -0.0005568391217792394 -7.014937230473822e-05 0.00013909510323593458
-0.012192480144478051 0.00397648611824001 0.0013609947667616294 -0.0006159717562602559 0.00021561983077957598 0.00015781465854366295
-0.01374477706718179 0.00433546324376031 0.0013323446064908203 -0.0006515908181323717 0.0004009487355005494 0.00014919251129628003
-0.01587223197451744 0.006551896751327935 0.0012277556043564293 -0.0014350775208867212 0.0003829182382191649 9.23082178275869e-05
-0.017300714610403507 -0.001354308242336536 0.0011807557971584921 1.4070385155706515e-06 -3.897595302157253e-05 -0.0004377644504146433
-0.015883053477100933 0.006549958300065676 0.0012427925370983542 0.0014380367521850206 -0.00046357236069564966 9.166428467053393e-05
-0.013766644501310132 0.004331657624190613 0.0013625966907349263 0.0006550021977534022 -0.0004894249345692975 0.00014795491613523937
-0.01222553155246194 0.003970955335726322 0.0014065585476619772 0.000620204679431488 -0.000316033788643123 0.00015612912041939402
-0.010503314515844625 0.0032852561257469296 0.0013806934773687794 0.0005623804120174033 -4.411295469919039e-05 0.0001373070328345921
-0.008758506850482206 0.0026946692018892716 0.001293796309119125 0.0005377682637805473 0.00023388035291650223 0.00011271332026423458
-0.00702276802709864 0.002112743988119313 0.0011582650357258105 0.000514203160977821 0.0004714095725634482 8.696819485434223e-05
-0.005247879662381795 0.0015429276161736034 0.0009913186404057865 0.0005114283564421171 0.0006548657427880629 6.386078516392312e-05
-0.0033417882882081826 0.0009394701492673992 0.000819076391056423 0.0005311063317550023 0.000769854191955833 3.54281204495659e-05
-0.0015461065404259132 0.00022535545234938755 0.0006815331406781503 0.0005033225928062082 0.0006616128738651967 -2.8632629476024316e-06
-0.000749724118557674 -0.00018295982856497928 0.0006892900014534099 0.0003071473369892886 0.0005169269588463212 -0.00022998609043997013
0.003149901863156782 -0.004572669375475474 5.590417451878382e-20 0.0003541889694785359 -1.3807890649007032e-15 -6.861847787024977e-16
0.0032219628001770614 -5.920841945229888e-05 -0.0002739784689252571 -0.001050469704384229 -7.129052800565819e-16 4.0966748493954236e-18
0.0038920041102024393 -0.0012880477142646549 -0.0005141351500008843 -0.0004083460483313071 -2.8856718447059504e-16 -4.46039079694642e-17
0.005314538655087283 -0.001632217227626844 -0.0007418260855721822 -0.00048557616072984744 6.771604896824504e-18 2.4220907126736718e-17
0.006983268836787273 -0.0022087100940648015 -0.0009031794880599954 -0.0005192019144438045 1.0690318124001799e-16 1.345105260898774e-16
0.008665580786207104 -0.0027791338876940103 -0.0009850114414840202 -0.0005581290371096373 -5.319176326343874e-17 -1.0323383451251236e-16
0.010366295100087998 -0.0033905265230839026 -0.0009808548745275072 -0.000607880665271409 -3.0686944887839233e-16 2.0942042587915322e-17
0.012196709100366292 -0.004062746390159213 -0.000892141616003696 -0.0006888762598870462 -2.014722922185925e-16 3.3759853365535747e-16
0.014307288667161149 -0.004860772026232568 -0.0007375895818795301 -0.0007746229148465974 1.4797496181943176e-16 1.9387398316524779e-16
0.0164625265028832 -0.00578485463777754 -0.0005712106837528696 -0.0006471939564053282 3.4068025127570543e-16 -9.254089058637407e-17
0.017473030882551182 -0.00637725837242418 -0.0004915167592691811 1.7080002561072942e-06 3.6996133322933934e-16 3.5313650603979035e-17
0.016454289924178002 -0.005781842971514551 -0.0005713640401417545 0.0006507677362886707 6.730341686799011e-16 -1.2071913564268288e-17
0.014289627005766302 -0.004854028549536514 -0.0007385334131812549 0.0007787013496442979 1.3769287122435917e-15 1.9134474278474645e-18
0.012166909536366902 -0.004050666538782187 -0.0008952605272375715 0.0006939190087867349 1.58239264722612e-15 -7.779743510646572e-17
0.010319299928801387 -0.0033703168343945985 -0.0009884486618723272 0.0006144887576824374 1.3708258398586245e-15 1.3621814451154207e-16
0.008592750377233253 -0.002746085872358373 -0.0010003482790234143 0.0005672308056460305 4.580334897442365e-16 5.451504048528677e-18
0.006870609103485981 -0.0021562816695830855 -0.0009304491996148335 0.0005313907230179447 -7.533413624090813e-16 8.5532539980792e-17
0.005141069851776789 -0.0015489939790005655 -0.000785426544286052 0.0005052380334244003 -1.1387942929689913e-15 7.062476010911631e-17
0.0036119674373952756 -0.0011620003149299606 -0.0005849330908440062 0.0004447966984932577 -1.5588862123903924e-15 1.4416373707326104e-16
0.002587216581227098 0.0001627247096071932 -0.00039376565065753243 0.0010024074382484803 -1.3925238593519643e-15 -3.8825449203295365e-17
0.0022304242233712086 -0.004309697013012303 -0.000401763362235794 0.0012760223876656677 -1.2391228044724215e-15 -6.219830694324108e-16
0.0013170612629948833 -0.003977419866782828 -9.905998229506961e-06 2.7808339634820297e-05 -4.2527385523446603e-16 -4.1401445802485143e-16
0.0015563912885507803 9.032302387498698e-06 -0.0001406014903962167 -0.0011540349349995892 -3.958720710858484e-16 -1.6019722373183769e-16
0.0024419589881610167 -0.0009472322465816456 -0.0003244207970553497 -0.0010686524904102346 -3.1060549945049424e-16 -1.5656980513522115e-16
0.003614910968038369 -0.0013291568296330315 -0.0004901881957276887 -0.0012124222923965496 -1.4310907517481103e-16 -3.447297040382914e-17
0.0047038912385540315 -0.0017726635953045754 -0.0006096954368787745 -0.0013027449119128657 -6.156711916677085e-17 1.7736446399031422e-17
0.005825501691922083 -0.0022304273953906253 -0.0006705230140297999 -0.0013748811907351604 -9.362519863797799e-17 -3.9296399521968756e-17
0.00695937126997206 -0.0027152707826022214 -0.0006717518041519896 -0.0014834744637178244 -1.9733919495246513e-16 -6.805062698241049e-17
0.008162420291060624 -0.003235807246913528 -0.0006176788269101122 -0.001677005257894947 -1.2616280463644946e-16 6.741874040375878e-17
0.009502188500798281 -0.0038517874834958993 -0.0005221783559608866 -0.001927108930620013 -9.810928518162385e-17 -2.2106289373916357e-16
0.010826503182059488 -0.0046779325766181205 -0.00041746051651611246 -0.001680375945375497 1.2109617118332945e-16 -2.0597046068498645e-16
0.011437211343730198 -0.005414053047449845 -0.000364640980566553 3.3061076689098005e-06 3.3255180547649794e-16 -2.326503044576024e-16
0.010816797497224926 -0.004675352004365373 -0.0004143958372103562 0.001687406546222045 3.133640740014647e-16 -3.058813849454202e-16
0.009481707505247846 -0.0038459724331867656 -0.0005165066092860483 0.0019354983003925417 6.383471106986534e-16 -1.719527704903065e-16
0.008128825258660653 -0.0032253200691880865 -0.000610446739707013 0.0016880279310385543 9.504807634651128e-16 -7.500730857821006e-17
0.00690855994781052 -0.0026975913770864077 -0.0006648156637994047 0.0014990020182072226 7.143755042598887e-16 1.658350750287623e-16
0.005750665749127573 -0.0022013914278576656 -0.0006668119724652059 0.0013975030700903426 3.3640929939741243e-16 6.21234292307038e-16
0.004594329240709074 -0.0017257744533431263 -0.0006132723987430526 0.001335890275952684 -3.0582293967205965e-16 2.501356055877729e-16
0.0034529877357303254 -0.0012559118934758996 -0.0005072182140833311 0.0012633890516287815 -7.185958591544731e-16 2.778111365898863e-16
0.0022022208333211547 -0.0008306415051937595 -0.0003640697830761188 0.0011672156303284024 -8.61238748570939e-16 2.1629621582849e-16
0.0013501444628640075 0.00011943864821131544 -0.0002498197781331398 0.0012815831724649533 -6.69438487349027e-16 -7.470576484898753e-17
0.0011903572508744104 -0.0037422112487960446 -0.00031884904623692576 0.0009455775021734321 -4.794465885299437e-16 -9.163541236575923e-16
0.0006668272890710927 -0.0028280948987895295 9.500391937122196e-05 -0.001588675833238207 -1.5182652650971547e-16 -4.368572425464054e-17
0.0006718168968456578 4.171180304229179e-05 5.482213225247925e-06 -0.001996365703516605 -1.9322430889470374e-16 -2.5983116821851927e-16
0.0010972555081304102 -0.00033974801718031453 -0.00012021710607750305 -0.001936479310237299 -2.901531477852103e-16 -2.5715708520403745e-16
0.0018269475506092427 -0.0006934280856166295 -0.0002304824773638019 -0.002139170400243609 -2.3698193499690984e-16 -1.9378800932110148e-16
0.0024097224201659693 -0.0009086078222255411 -0.00030479822728564436 -0.002259629658861622 -1.9621650572043876e-16 -1.4852722730104156e-18
0.002958934055771345 -0.0011333299659842466 -0.00033895285583626286 -0.002379646867448256 -2.307111284039821e-16 1.023046393693744e-17
0.0035060776673816814 -0.0013684075285001688 -0.00033572061606286117 -0.0025529268309203994 -1.7162814511327128e-16 -2.4561244964943496e-16
0.004050823591302094 -0.0015846928950579244 -0.000300624047964497 -0.002847978616008387 -2.735481256454738e-16 -2.5006445482020356e-16
0.004682330216937465 -0.0018374701180492417 -0.00024108340558479495 -0.0032913372064631995 -3.3847489511841045e-16 -6.114976485783498e-16
0.005521598253372276 -0.002555473586228564 -0.0001702350735688162 -0.0030339326055364166 8.312040190524856e-18 -2.8278618460558444e-16
0.005999952886997594 -0.0037956369071148674 -0.00012771022307035636 5.165910061131753e-06 1.0199923105233002e-16 -5.900346807278731e-16
0.0055106236190167945 -0.0025537775293474206 -0.00016403419368539728 0.0030449520343165913 2.935149156737442e-17 -5.565311395321765e-16
0.004659497609492784 -0.0018335611496579525 -0.00022900262200015748 0.003304596789734424 2.1384151434734704e-16 -5.09611443484919e-16
0.004014320325853295 -0.001577456789543174 -0.00028347147920732517 0.0028656160794554614 3.6238959983471474e-16 9.372250154779382e-17
0.0034529641155049266 -0.001355918922955906 -0.0003151175274326762 0.0025781469247693365 3.15025661476402e-16 2.1336759941335826e-16
0.002884572698854737 -0.0011122834627597575 -0.0003177656737742596 0.0024171978642276034 2.5123754913003647e-16 1.0687112104296442e-15
0.0023070747102417765 -0.0008736131810148434 -0.0002877219376586182 0.0023159020034726223 4.486733521606029e-18 5.767714153232916e-16
0.0016860328960269094 -0.000637370116807 -0.0002247113198997589 0.0022275174080384945 -2.725116749553898e-16 5.033412820928691e-16
0.0009524479002186898 -0.00026496201185995794 -0.00013985353402804542 0.002085126726093252 -4.081941240673527e-16 2.5980872184541703e-16
0.0005994278836220394 2.472728427719287e-05 -8.420029023001301e-05 0.0022163438489358213 -2.2092179657899673e-16 -2.149312222339897e-16
0.0006487221833350984 -0.002637399513528363 -0.00013713499499722252 0.0018012997221550414 -9.746723420760509e-17 -1.3771807045453999e-15
0.0001984084816786686 -0.0017877871430941393 0.00026104449819300794 -0.001777416935064628 -4.1590720608505037e-17 2.44733229450185e-17
1.4562357018168559e-05 8.099692337636055e-06 0.00016593877563406806 -0.002387014106703261 -7.964015528321745e-17 -2.260718230727519e-16
-8.362722953141657e-05 0.0001202469470171371 8.794369546352148e-05 -0.002415753584819812 -2.8322653585903827e-16 -2.8775953855538806e-16
5.134564180662267e-05 -3.2557224032861185e-05 3.1304448234985855e-05 -0.002461284885301767 -3.0914426173736216e-16 -1.9159165288887108e-16
9.551090677418182e-05 -4.830488371990084e-05 2.1075335473172727e-06 -0.002577889337514723 -2.8346794024900574e-16 1.209986565152768e-17
7.816035661775559e-05 -3.422837571068947e-05 -3.0160927162323094e-06 -0.0027143971833312464 -3.6286838520815023e-16 6.002922497191227e-17
3.852823677451263e-05 -2.516565892495794e-05 8.896660492614192e-06 -0.002911234257749412 -3.2333608701037115e-16 -2.7365178130239406e-16
-6.852851229739238e-05 4.363130282791538e-05 3.185936682934486e-05 -0.0031772800363128245 -4.118048667028202e-16 -2.199278695898428e-16
-0.00012894555417804706 0.0001721657504923214 6.475333509291862e-05 -0.003653214128656377 -3.908898762296578e-16 -8.186802134108571e-16
0.00035371129413684383 -0.00046422953468984446 0.00011176427893702751 -0.0037723449593066033 -1.596187531684222e-16 -5.520892987567749e-16
0.0008141606159085443 -0.0027101936134242654 0.00014996914598378166 5.794905240200812e-06 -2.4723597358130504e-16 -4.94596090428942e-16
0.0003415346415410028 -0.00046344817126662787 0.00012109186048982021 0.0037847134615814453 -2.2115901874378714e-16 -6.872088415357282e-16
-0.00015397000056332878 0.00017410680603244038 8.320784657483727e-05 0.0036681193805693816 -9.988327988436222e-17 -6.221406175606001e-16
-0.00010763256087701566 4.752623621282654e-05 5.882828332156322e-05 0.003197130767531522 -1.3138187755029564e-16 1.7203747378503192e-16
-1.632069067329059e-05 -1.7981303159731506e-05 4.2921183815078445e-05 0.0029397037067436763 -5.1392665283470605e-17 2.3135180294946156e-16
5.471593442491485e-06 -2.1380336467457566e-05 3.508017204796403e-05 0.002757139043156359 1.137309020695981e-16 1.1167646600768015e-15
1.8795037094422293e-06 -2.5662448746302083e-05 3.885919142501401e-05 0.0026435346679648817 2.0396251614396093e-16 7.309475053495721e-16
-5.788240159813187e-05 4.717334346744464e-06 5.756608847932061e-05 0.002562658032074711 6.964484886826149e-17 5.945815535887342e-16
-0.00016819605914524237 0.00014574031393086893 8.606634700223281e-05 0.002566302329642456 2.863214883691871e-17 2.709616046619144e-16
-8.978268265563116e-06 -2.0873368720425403e-05 9.92393017543244e-05 0.0025004895847279196 1.0584613706140383e-16 -3.163684998653757e-16
0.00020708034322018472 -0.0016384476180004491 8.598567513092955e-05 0.0018205946743749596 1.398095642079003e-16 -1.4448349201084953e-15
-0.00021046354569363566 -0.0009365042792022108 0.00044434737057478407 -0.001440434485827624 7.736269544628745e-18 8.671076281042273e-18
-0.0005633548181144903 5.822426935673325e-05 0.0003305418217948748 -0.0021063664836880507 -9.161550709149875e-17 -1.541434792578112e-16
-0.0011733461363425404 0.00047646736945757814 0.0002957132265418704 -0.0022484965415283586 -2.662986882872795e-16 -2.7883816403843215e-16
-0.0016819182071939698 0.0006092948317243907 0.00029232147181454827 -0.002183009068827124 -3.930677567557262e-16 -1.2671528187629608e-16
-0.0022205302912520065 0.0008191413187688321 0.00030809051892737515 -0.00225295842370317 -4.03721525408054e-16 3.447042930498738e-17
-0.0028093126461097495 0.0010654510873915686 0.0003322335670824771 -0.002380236335391862 -4.885462634822966e-16 8.681155973114599e-17
-0.0034195144532929984 0.0013264276129058082 0.00035312071781858296 -0.002548298419065701 -5.002438017187683e-16 -1.2340592415137352e-16
-0.004129195807955664 0.00161676372553684 0.0003638986936298146 -0.0027578614916777253 -5.004031894966399e-16 -2.5744126475784126e-16
-0.004930642463445112 0.0021344707849456066 0.00036861445248661607 -0.002993007421025426 -4.308160712176897e-16 -8.122995142191905e-16
-0.0048679152667277376 0.0019378089606752814 0.00038761609848537553 -0.0038934781081925436 -3.796354288688287e-16 -5.5876137728229705e-16
-0.004408191135678417 -0.0020508850019154757 0.00041767861813006373 5.2046032427184896e-06 -4.507761379219413e-16 -4.317233758530971e-16
-0.004881359909177396 0.001937676632870571 0.0004001320280200817 0.0039045795158027963 -4.208761660514401e-16 -5.16496127280202e-16
-0.0049580026649968904 0.002134448719908643 0.00039357366698717007 0.003006357384957201 -5.309933079306961e-16 -5.917422991495377e-16
-0.00417116109419433 0.0016173376810012575 0.0004009020099930454 0.002775578152678297 -4.993216343021146e-16 1.2815439085368113e-16
-0.003476459195615059 0.0013283595633600425 0.00040089674926214693 0.002573605986470536 -4.1653093997158475e-16 2.3701125358654117e-16
-0.0028807364952924803 0.001069999801023194 0.00038773226807602834 0.0024184165709633942 -4.8877189188362147e-17 1.153160395270898e-15
-0.0023035475665964854 0.0008289283380405762 0.00036516090212367893 0.0023122998066637587 3.1548017406194274e-16 7.337300085813025e-16
-0.0017634003301408674 0.0006238411290207043 0.0003397406222565314 0.0022739446460688503 3.9865097442755293e-16 5.565739146960128e-16
-0.0012230059239051114 0.0004762677173614973 0.000313565666773065 0.0023545557608997897 4.58742879837562e-16 2.471667551076466e-16
-0.0005674260689091668 3.83031963801042e-05 0.00028799137023174026 0.0021498624952629706 4.0873945446670687e-16 -2.750951254445154e-16
-0.00019461807968881997 -0.0008366882199212984 0.00031422861902677613 0.001425814889042999 3.185402923421357e-16 -1.2606526879257313e-15
-0.0005508142737502141 -0.00038016827014451034 0.0006062148968632894 -0.0007882858315677646 1.5370259860876534e-17 4.726443845678996e-18
-0.0010884106720230964 0.00017972209140560796 0.0004830971737829705 -0.0012039507515998824 -8.473802307626746e-17 -8.417834605636918e-17
-0.0022211275116927405 0.0007984672107276663 0.0004984824465979236 -0.0013213670583340595 -3.114222509698842e-16 -1.7279472123987727e-16
-0.0033862011853303072 0.0012381221652872155 0.0005496732807310739 -0.0012651022870690557 -4.798962571458173e-16 -9.545891908966514e-17
-0.004528128621879995 0.0016908028881199165 0.0006102111860742228 -0.0012960512141629698 -5.851775820500801e-16 8.982784405631855e-19
-0.005683839590864559 0.002169570245673358 0.0006617954125240095 -0.0013750075140843807 -5.779487381804159e-16 -6.944187859827568e-17
-0.006874762081694564 0.0026744735335113086 0.0006879033361346944 -0.0014798681125537912 -4.329915959333736e-16 2.838195648012347e-17
-0.008075414153736044 0.0032295876399601833 0.0006799553534422003 -0.0015750239539399375 -5.114310820138581e-16 -2.6458344656908953e-17
-0.009621103833361733 0.0037882137280693525 0.0006452702124214758 -0.001750815218130619 -4.740964107977303e-16 -4.923472179539819e-16
-0.010331674486555906 0.005030705789493819 0.0006200103059049379 -0.002330223731785315 -5.732049301593182e-16 -2.0204996868861992e-16
-0.010093724247578345 -0.0015776027778556453 0.0006251441945684342 3.373684664302637e-06 -5.814586838951601e-16 -4.539791665422038e-16
-0.010346585936218846 0.00502969073576439 0.0006358478483503005 0.0023373975231448007 -6.878606333886404e-16 -5.775917667327074e-17
-0.009651246195815958 0.0037862951059314137 0.0006770328591291945 0.0017593666654680345 -9.917303150843316e-16 -2.2509815869988306e-16
-0.008121042238104266 0.003226960960485778 0.0007275303449311246 0.0015862205267561638 -9.355988180983284e-16 1.0808140406964872e-16
-0.00693519282970827 0.0026713376703247785 0.0007503429477729833 0.0014956247205385224 -7.843610853660731e-16 1.7613414863442735e-16
-0.005755825212228449 0.0021661076228936134 0.0007362137393104049 0.0013984236323440486 -2.6162497224256707e-16 6.576884727744949e-16
-0.004602824301546582 0.0016868639274714003 0.0006900245427890545 0.0013322985384659311 4.171618206986116e-16 3.570116817734788e-16
-0.0034460158497324742 0.0012306088304308571 0.0006219873768188446 0.0013181060242788585 7.719510997767319e-16 2.8348371623764836e-16
-0.002246145924785117 0.000779819231581038 0.0005411420607519717 0.0013737394181204713 1.0073872955978537e-15 1.6731865323587822e-16
-0.0010796002159770206 0.00016388819324682945 0.00046649745635816633 0.0012145535126844584 8.261861958729511e-16 -1.1754445615637377e-16
-0.0005298937116651004 -0.00032581243295861924 0.0005128326431780722 0.0007675426697353853 5.569021399630739e-16 -8.123791353162324e-16
-0.0007259756122939081 -0.0001888828285840021 0.0006969222076362875 -0.00031280306769008515 5.077115485842276e-17 7.691059161069047e-19
-0.001504950222324046 0.0002530444469157342 0.0006083763700392014 -0.0004755321558023456 -3.611409673913435e-17 -4.8213115357714775e-17
-0.0032526658567080514 0.0009575728320364449 0.0006879901107680699 -0.0004986949656440714 -2.6317991297548915e-16 -2.795208725939191e-17
-0.005096200954723062 0.0015532999586539682 0.0007961060808030991 -0.000492849704611048 -6.106158872802581e-16 -2.645114487685729e-17
-0.006819691921835187 0.0021273119191691035 0.0008995248945006747 -0.0005139400197317855 -8.529028855787726e-16 -4.0948960802061896e-17
-0.008531776210847266 0.0027247205940234536 0.0009729664227211429 -0.0005547897055242495 -4.978440382651887e-16 -1.728014975034553e-16
-0.010287793637578852 0.003342560538240885 0.0009947820283803851 -0.0005970053695951064 -2.892575163226073e-16 1.9778896944745716e-16
-0.012072974575303801 0.004073428120950533 0.0009531571636374582 -0.0006688739202428474 -3.7639433670549893e-16 -2.127069137144999e-17
-0.01374342845854004 0.00448395468257139 0.0008580387042470618 -0.000704686874274481 -5.064765745471309e-16 1.0096971544450162e-16
-0.015995343847886923 0.006797271245255823 0.0007590234598377442 -0.0015102841594403665 -9.10309273029512e-16 -3.208221991020388e-17
-0.017473512017205862 -0.0013333966869746368 0.0007126970846513003 1.949254574622055e-06 -7.149855929750384e-16 -3.709868783702275e-16
-0.01601205679896823 0.006795825884733029 0.0007783916083402773 0.0015144301717580921 -8.853086720748277e-16 1.8348088890243752e-16
-0.013777100760187908 0.004481112366589311 0.0008970792700796076 0.0007096168144036058 -1.5828555507317946e-15 2.261984544983664e-16
-0.01212361892440515 0.004069239010887059 0.0010121741061070559 0.0006752667185073261 -1.7031342292419052e-15 1.5754135192572183e-16
-0.010354040551755558 0.0033369655337436082 0.00107339459392076 0.0006057957293873735 -1.382115942012577e-15 3.9773279071272927e-17
-0.00860826033386346 0.0027173249129684835 0.0010688781185496416 0.0005672974099632143 -5.639680888090692e-16 5.0669510904752246e-17
-0.0068920827665946375 0.0021165054062955635 0.001006432372662221 0.0005321443598135146 6.1169500725506e-16 2.507996794184203e-16
-0.005139188593846344 0.0015348804971765618 0.0009002809906486593 0.0005179360883536369 1.267893125558861e-15 9.490157141037181e-18
-0.0032489851712217003 0.0009292249845631773 0.0007643906245837157 0.0005240156491914493 1.7151604030270218e-15 9.540640304693537e-17
-0.0014739899039959516 0.00023612127455365222 0.0006222232112714171 0.000484560661917387 1.4056325412436718e-15 -1.508396272470458e-17
-0.0006921428367789597 -0.0001550701195985956 0.0006309367898043117 0.00030808002634010525 9.806608650131388e-16 -4.847874488997372e-16
0.0029693772392226816 -0.004728987746980095 6.522153693858113e-20 -0.00015560294430767412 -0.0005707884769290058 -4.952999114825849e-05
0.0031226579896171777 2.886094382806873e-05 -0.00031705066702260185 -0.0010706498260115126 -0.0007781960192685221 5.938504622743276e-05
0.0039082543294073355 -0.0012634505024285653 -0.0006055510528856768 -0.00042363154449655564 -0.0007323950701259615 -5.736328949933225e-05
0.00538612833518554 -0.001604062424038532 -0.0008736834421504748 -0.0004840805667427606 -0.0006122267237902669 -6.619127194300115e-05
0.007090219986706534 -0.0021804583096155772 -0.001080609659348147 -0.000507258143560252 -0.00039368228278096804 -9.134234600222932e-05
0.008795743785467078 -0.0027390292007438382 -0.0012258607794731352 -0.0005326180708592919 -0.00011998371560422699 -0.0001173554285561431
0.010496943005770677 -0.0033264146160013135 -0.0012994727107927461 -0.0005668262779936627 0.00018936315803599565 -0.00014172246902861038
0.01227836224395109 -0.003956826834502399 -0.001294637411652978 -0.0006319309162886163 0.0004848864633218395 -0.0001526840442078742
0.014273415455647016 -0.004695124953046373 -0.0012145457526265896 -0.0007094600536371217 0.0006500739425787793 -0.0001286256416334644
0.016279701209853552 -0.005557533281137175 -0.0010933548203232914 -0.0005959774138579384 0.0005045710953195308 -5.570639362248552e-05
0.01721703421252697 -0.006117900494148845 -0.0010232527012515747 1.3788951866940518e-06 -6.51713292744517e-07 6.117060707811112e-06
0.01627509176477144 -0.005555712295606898 -0.0010940752406964362 0.0005988193909109174 -0.0005051249564340417 -5.491550278660801e-05
0.014263492226496406 -0.004691008550300354 -0.0012165065269875554 0.0007125625637517336 -0.0006482964610556754 -0.00012705330793344593
0.012261592165871383 -0.003949375537298273 -0.001298986317455556 0.0006355122545386833 -0.0004788325600374691 -0.00015041005572651037
0.010470634731720418 -0.0033138396543297933 -0.0013081993003471947 0.0005711258795582418 -0.00017600027495232745 -0.00013898217435558678
0.008755629998856092 -0.0027184290956863157 -0.0012419770650175827 0.0005381222355461704 0.00014612765259147927 -0.00011498916696782228
0.007029181827011562 -0.0021474837150722583 -0.0011086799053100825 0.0005136726061855828 0.00044303521563555085 -8.996052641379404e-05
0.005294285347611392 -0.0015524929484128478 -0.0009185362580769118 0.0004958346408624675 0.0006966511101218121 -7.188953780686924e-05
0.0037416465801380925 -0.0011783608091687193 -0.0006803354075238863 0.0004404100721132961 0.000862671632107305 -5.269854187636789e-05
0.0026903244399462357 0.00016998067938818278 -0.0004033198795163516 0.0010462835141702457 0.0007852712700862187 -4.241621300359922e-05
0.002328012612189241 -0.004495392574699702 -0.00035402076119220007 0.0013438375451735503 0.0006941466820762653 0.00041457157999360026
0.0013110434819442118 -0.00407604081113934 -4.673097393485373e-05 -0.00026542236852131917 -0.0003021981167005045 0.00014792685792705158
0.0015218626257065425 5.330624065295965e-05 -0.0001453631575733278 -0.001215074952973354 -0.00036633838769704506 0.00012444381944988207
0.002418982846037371 -0.0009209981780075746 -0.00037805429266995696 -0.0010956750328820972 -0.00045858084068720067 -1.3767155799684325e-05
0.003646883167716302 -0.001310348689794439 -0.0005688682055397002 -0.0012075958709792268 -0.0003834026496802369 -3.47877186841667e-05
0.004760868513519594 -0.0017546396301951232 -0.0007168068504368814 -0.0012765045901047033 -0.0002428692415978604 -5.082189444726756e-05
0.005897566571397045 -0.002205711984331377 -0.0008157162901430515 -0.0013219224104316864 -6.493151931370816e-05 -5.873838694610975e-05
0.007030350129634353 -0.002673881254203608 -0.000864134872372254 -0.0013961033392040493 0.00012931479672200014 -5.12043515438946e-05
0.00820252330475515 -0.0031649061498965968 -0.0008601117707982967 -0.0015496472375631906 0.0003086590459066286 -9.21451224576933e-06
0.009474588765886563 -0.0037385566572763524 -0.0008081732305901008 -0.0017735486438787502 0.0004062586764900839 9.762848529406746e-05
0.010714557743072173 -0.004521141016861122 -0.0007278543121538989 -0.0015542729162752234 0.00031684128505421824 0.0002763722876396001
0.011284788047422133 -0.005226348733446238 -0.0006765099949878335 2.6743799295047915e-06 5.851366975256032e-06 0.00040395329921928853
0.010708903450789621 -0.004519681429955172 -0.0007259966434339069 0.001559866527506616 -0.0003040309198024921 0.0002765600775842101
0.009462649417185038 -0.0037352006725725755 -0.0008048630704966528 0.0017799185338026704 -0.0003900808084900991 9.780890266559563e-05
0.008182980697882761 -0.003158702101393415 -0.0008562905521376769 0.001557466203794411 -0.0002866379137515197 -9.546531018034154e-06
0.007001066582699267 -0.002663195106818861 -0.0008615193146087833 0.0014062979145694654 -9.835493411300556e-05 -5.3120833698087426e-05
0.005855190696315698 -0.00218787271199407 -0.000817195911627079 0.0013358085023389727 0.00010954619478866894 -6.432034138843515e-05
0.004700626155628641 -0.0017255481612650485 -0.0007266455679659694 0.0012955744283027256 0.0003081870826421746 -6.338794808718606e-05
0.003557857130727033 -0.0012645135819615288 -0.0005941181936554668 0.001237204416433672 0.000479886611808399 -6.00023742734648e-05
0.002275261485235292 -0.0008427041048285343 -0.00042509695926224513 0.0011528357679373867 0.0005703681553718242 -5.3033698881583185e-05
0.0013946854287543214 0.00012399399164496626 -0.00023930693781037962 0.0013208805951207797 0.00041005764894741254 1.537691496630033e-05
0.0012366142657925852 -0.0039008742452960946 -0.00026792853871685597 0.0009981477693946513 0.000268149034149116 0.000536262750126893
0.0006742466628382418 -0.002860072176533621 8.413360958559851e-05 -0.0017202388557349475 -0.00010602238784190896 0.0005099978848374106
0.0006545694528946954 3.767244146665184e-05 6.563395984888238e-06 -0.002114928038537093 -0.00013338171875428758 0.00018809378765694492
0.0010688530467664078 -0.00031746848056710326 -0.00014629303503752147 -0.001971473819520653 -0.00018661149238511726 4.793468759807297e-05
0.0018239113691425396 -0.0006814809733756679 -0.00027063642249751315 -0.0021302624610631555 -0.00015405419432787165 6.863193107597806e-07
0.0024239789439425338 -0.0009003575873830628 -0.0003570073186615936 -0.0022128502217027683 -7.494648360981544e-05 -5.845772706687724e-06
0.0029815667797798715 -0.0011247365824931135 -0.00040914426050933113 -0.0022913290428755208 1.8825646487569045e-05 8.555076458781799e-06
0.003529588548505769 -0.0013545886301372528 -0.00042921477143720717 -0.0024091830479573374 0.00011605614280794393 5.576266936514951e-05
0.004062084840691682 -0.0015612246196445873 -0.00041906105392298395 -0.002638560071016908 0.00020659978669486406 0.00016096160914452385
0.004663547244057756 -0.0017994324212218386 -0.00038103781425441783 -0.0030370390529377714 0.00026860617390062 0.0003618553755112084
0.0054542160234921835 -0.002501037341073341 -0.0003168599947463263 -0.002818047102942247 0.00023066269325359756 0.0006634312289374989
0.005904901012726229 -0.003706747336828435 -0.0002601982251022939 4.315258038357002e-06 1.2235946513774758e-05 0.0008814156299317622
0.005447626122632481 -0.0025003220017072725 -0.0003124590311992858 0.0028270854787444026 -0.00020479692213678963 0.0006630340037201686
0.004649834016610294 -0.0017976430994689771 -0.00037254060379579747 0.0030473743316172426 -0.0002385807298751714 0.00036065422019981175
0.0040402118886186285 -0.0015575890851563122 -0.0004072311536027346 0.002651326105748519 -0.00016969472829451914 0.00015795836726296996
0.0034980199684776906 -0.0013477926477501424 -0.0004155948235885864 0.0024259943957384575 -6.950483788422196e-05 4.893875129554349e-05
0.0029381987264530257 -0.001112550077236497 -0.0003965232147842078 0.00231451116254161 4.046944118963899e-05 -5.722121910836028e-06
0.002365726202604238 -0.0008794145837120335 -0.0003501002862427347 0.0022457605021225656 0.0001511176338694116 -3.3765011091344524e-05
0.001744169982702515 -0.0006460537470598129 -0.00027666232310346786 0.002180545417462725 0.0002498425218392747 -4.770352124457506e-05
0.0009864498050248147 -0.00026733704285258333 -0.00017590745991043306 0.0020622288943104726 0.0002823504048165359 -3.88254690047974e-05
0.0006176458856424484 2.680458367341873e-05 -7.151544108754157e-05 0.002273093973810341 0.00016061920759081333 0.0001137741272040205
0.0006723579038304303 -0.002750294593318716 -8.293746462855355e-05 0.001882171570190509 7.2368796937574e-05 0.0007888418841529794
0.00020010858815708562 -0.0018068736538860344 0.00026049028796618 -0.0018533838343587838 1.2623709117993345e-05 0.0006539287047203843
-2.184046316145508e-06 -8.576698175871585e-08 0.00017358108184874652 -0.0024791974692434994 4.057642564351609e-05 0.00022092675627717202
-0.00011787344552690152 0.0001347825864988392 8.484170435828284e-05 -0.002459595110541882 5.808811009982898e-05 6.61436795403588e-05
2.136311691067179e-05 -1.6791916556354053e-05 2.838584429685028e-05 -0.0024505001021640775 7.45502381241643e-05 1.282283172016183e-05
7.013959238021641e-05 -3.728148691289057e-05 3.899563462856744e-06 -0.0025231544236248475 9.776839552644053e-05 3.961230112794601e-06
5.530860344061435e-05 -2.55376601396903e-05 7.417269289656911e-07 -0.0026123475094028317 0.00011493775508261498 2.518795134571806e-05
1.9114054541485515e-05 -1.859942603082179e-05 1.1755777759018298e-05 -0.0027479534515660368 0.00012415336831869686 8.446409578198558e-05
-8.239982520091343e-05 4.623776188951278e-05 3.2674373091505464e-05 -0.0029436403465649516 0.00013615670657579753 0.00020590603035317178
-0.00013937374720334806 0.00017055654439529226 6.253701611955433e-05 -0.0033743550022266497 0.00017062292138844546 0.0004273023276994881
0.0003196080343870298 -0.0004658456933745996 0.00011664067107547946 -0.003524242713916264 0.00018119193615688843 0.0007710042242259191
0.000757425183802564 -0.0026648417225498696 0.0001935685533760285 4.890274761151401e-06 1.860219755994422e-05 0.0010519187718115244
0.00031211384198866736 -0.0004659036498693367 0.000123589764217027 0.00353448660609966 -0.00014233465288508485 0.000770429141720527
-0.00015479017240590593 0.00017071759939615353 7.622885079709334e-05 0.003386070752869376 -0.00012691277908604944 0.00042567753795281425
-0.00010648422852544862 4.720478326490006e-05 5.2510923856991e-05 0.0029581091807785913 -8.473611100988032e-05 0.00020207345735637455
-1.4503951092101082e-05 -1.5830550192234002e-05 3.635663533106522e-05 0.0027670134176495573 -6.280794725887423e-05 7.612771175622436e-05
1.1394863940376543e-05 -1.929472500231356e-05 2.731088588391965e-05 0.0026388149449951895 -4.237512553577009e-05 8.081233914851694e-06
1.48299740032073e-05 -2.4680369181051412e-05 2.7355161103098376e-05 0.002561536124679905 -1.3881407943441177e-05 -2.8812265090852388e-05
-4.169968855380507e-05 6.260859289404245e-06 4.039904620885287e-05 0.0025089292361822517 1.6750264908425065e-05 -4.62059711300187e-05
-0.00016409664967450868 0.00015221343725773382 7.220585700313453e-05 0.0025518927201551612 1.748066523201739e-05 -2.6171165543550284e-05
-9.46055643231747e-06 -1.8881570417834804e-05 0.0001144532820009898 0.002556206096503369 -2.4646952201915065e-05 0.00016680931927110445
0.00021326996547095772 -0.0017163244358852456 0.0001310839120053178 0.0018859010278252514 -3.914920529879584e-05 0.0008352618219824523
-0.00022154397639494877 -0.0009479315660328589 0.0004424937375953653 -0.0014787358803346033 0.00011250805106526695 0.0006145071859795578
-0.0005891541563157238 5.0526911949077835e-05 0.0003473622179471664 -0.0021718544525800598 0.00020086032891772747 0.00018865957223047103
-0.0012190870054948281 0.00048793489535801747 0.0003148473530951648 -0.0022910613533590053 0.00029432291451959993 5.638304494691882e-05
-0.0017373419197806606 0.0006265233618313443 0.00032610996088435374 -0.002179764239946754 0.00030130760150281767 6.424221169893628e-06
-0.0022843989298542075 0.0008334306768952138 0.00036367889176244664 -0.002207476334999725 0.0002715420983840297 -6.114205509923736e-06
-0.0028776186011132934 0.0010743481200903443 0.000409957503119652 -0.00229135011312673 0.0002122784985564242 8.678725266482664e-06
-0.0034825489774645514 0.0013256681153069566 0.00045249906435022646 -0.0024051006244501637 0.000133890227515995 5.6432148250177194e-05
-0.0041705415740414895 0.0016007156262773496 0.0004842128383488383 -0.0025535393093710163 6.236811320604234e-05 0.00015440007621057936
-0.004932410017568395 0.0020951132560258455 0.0005035509565984822 -0.0027589669562644885 5.450179768682758e-05 0.00033219349082058973
-0.004866629345710145 0.0018808226137491232 0.0005333652725920859 -0.003660557598990459 0.00011418101043535447 0.0006473924470463086
-0.004426225841589081 -0.002035744174530086 0.0006381742825261572 4.329921286504824e-06 2.5093597501276644e-05 0.0009717443612560948
-0.004875077436003146 0.001879990588522909 0.0005429102827054796 0.0036696260352426613 -6.206529178511003e-05 0.0006470464065008193
-0.004949638647828046 0.0020936430398737975 0.0005225405735550551 0.0027693311393262314 3.212617724685519e-06 0.0003310973523084096
-0.00419702849449121 0.0015990142934917471 0.0005122312963114442 0.002566318675664758 3.979151227730989e-06 0.00015156928476846204
-0.0035184932834293366 0.0013244026401308753 0.0004883483609570288 0.002421902454873192 -5.718047044350158e-05 4.989097560848051e-05
-0.0029224385283014133 0.001074591404427537 0.0004508721888072781 0.002314802644704033 -0.0001257616406683934 -5.264575500204938e-06
-0.00233571125718498 0.0008373232715545507 0.0004041828895518589 0.002242041609662697 -0.00017933539452568266 -3.403004152669293e-05
-0.0017863157618138341 0.0006345659629340915 0.00035663486377104654 0.002232543161580496 -0.00021425159905578262 -4.5282401120021406e-05
-0.0012465808716080645 0.0004883146756184791 0.00032046523585827836 0.002355083879291408 -0.00023545760950138115 -1.8596667481205276e-05
-0.0005869896444203222 3.881908288789678e-05 0.000308442701882483 0.0022002301638364996 -0.00019281790533805818 0.0001486478975396729
-0.00020653728354455542 -0.0008841609844673222 0.00034475097187359945 0.0014692334586360347 -0.0001340703931217638 0.0007316999365759514
-0.0005789898477273754 -0.000392840628666109 0.0006094932312368957 -0.0007989975536831615 0.00023858129520159746 0.00037165006662354317
-0.0011297611521564935 0.00016622134100898795 0.0005169619415017493 -0.0012427008722314295 0.00038431795220386964 8.207197742149325e-05
-0.0022846708068517503 0.000803062234103867 0.0005419067191439387 -0.0013512147735291 0.0005415769645158246 1.1039645684401657e-05
-0.0034701383569317556 0.0012480419704024846 0.0006205997114728362 -0.0012672736197003526 0.0005294055805338322 -2.9187305978719924e-05
-0.0046330880151438485 0.0016960479155387034 0.0007199338413164593 -0.0012706309096272824 0.0004418080691764483 -5.0172611568262497e-05
-0.005801466843210714 0.0021628553512220037 0.0008144534638330523 -0.0013216275926417546 0.0002997834120446642 -5.844066985274809e-05
-0.006986284088779012 0.00264650734635245 0.000886861981456891 -0.001392705240077262 0.00012443018305171381 -5.077227435278869e-05
-0.008151796202918732 0.0031679890365080158 0.0009247630122859738 -0.0014536067860012444 -4.250290139413397e-05 -1.6046757176611797e-05
-0.009614711395899969 0.0036838500930426623 0.0009269601976921498 -0.0016160645138899104 -0.00013080660753652214 5.813802743890224e-05
-0.010280092253983868 0.0048639537180075985 0.000898080880468696 -0.0021953853825539835 -3.588743039487783e-05 0.0002576279946736246
-0.01005237432266064 -0.001587405423605765 0.0010093324686175679 2.705418088366395e-06 3.1852316233936125e-05 0.0006248426167889451
-0.010289624593708638 0.004862376668869833 0.0009103105911379309 0.002201043944731347 0.0001018568343823837 0.0002579248301759895
-0.009634036653709134 0.0036808075505267495 0.0009514438380784626 0.0016225051592008845 0.00020331830553621535 5.853737848076788e-05
-0.00818117642145738 0.0031637124256778623 0.0009613077887577094 0.0014614920264763153 0.00012496277869643795 -1.6036715194181615e-05
-0.007025383676065526 0.0026413438851004465 0.0009345251959367595 0.0014029813234685733 -3.047871577323763e-05 -5.217534791833975e-05
-0.005848227318501988 0.0021573288172878884 0.0008706149262501927 0.0013358257337953586 -0.00019631422788632443 -6.329549200380827e-05
-0.004681669088999781 0.0016907673548121958 0.0007788561098716752 0.0012916350718349746 -0.000336961033274087 -6.250940790035024e-05
-0.003508882320359475 0.0012419822724265741 0.0006716211886520267 0.0012979831692885803 -0.0004409363916198396 -5.513695668290336e-05
-0.0023003707655284366 0.0007920229703858548 0.0005683905610152145 0.0013825201600592104 -0.0004949937552292028 -2.7261155897453735e-05
-0.0011226621198233279 0.00015817931120301233 0.0004993803929527706 0.001249591243627599 -0.00038705227463794626 6.180195942772412e-05
-0.0005634876911011465 -0.00035643309823702243 0.0005392136501623189 0.0007848510000234563 -0.00026432991907510313 0.00043716007778004523
-0.0007707668191765728 -0.0002065149552699159 0.0007376923888064398 -0.00031145560587971183 0.00045969454960912223 0.00019075378771433253
-0.0015636926541909646 0.0002336239787008495 0.000675678524314974 -0.0004975129017836 0.0006334505648864986 8.697165833875218e-06
-0.0033399224735654836 0.0009562109580370022 0.0007672458874904186 -0.0005155936138013217 0.0008095522410122286 -2.315287418541104e-05
-0.005216283521831137 0.0015557803752305652 0.0009162451999918017 -0.0004965325144195545 0.0007561451587440722 -5.6804237439979e-05
-0.006973463854790019 0.002122565727452657 0.0010786473298871426 -0.0005034882033097295 0.0005974434792499403 -8.554403720178222e-05
-0.008707637918455975 0.002703017539051248 0.0012210077969664666 -0.0005302287642687298 0.0003595186475644034 -0.00011380288951290475
-0.010459765489056569 0.003292308977897951 0.0013203844258668552 -0.0005568391217798182 7.014937230263899e-05 -0.00013909510323585473
-0.01219248014447773 0.003976486118238745 0.0013609947667610287 -0.000615971756260835 -0.00021561983078119404 -0.0001578146585433826
-0.013744777067182112 0.004335463243761572 0.001332344606490137 -0.0006515908181321355 -0.000400948735501249 -0.00014919251129604346
-0.015872231974517505 0.006551896751329376 0.0012277556043559725 -0.0014350775208872742 -0.0003829182382198112 -9.230821782769848e-05
-0.01730071461040327 -0.0013543082423378553 0.0011807557971581714 1.4070385153181239e-06 3.897595301991758e-05 0.00043776445041407755
-0.0158830534771014 0.006549958300066277 0.001242792537097885 0.0014380367521851577 0.00046357236069305343 -9.166428467074152e-05
-0.013766644501310604 0.00433165762419137 0.001362596690734362 0.0006550021977539875 0.0004894249345668885 -0.0001479549161353366
-0.012225531552461633 0.003970955335726104 0.001406558547661694 0.0006202046794317527 0.0003160337886409755 -0.0001561291204195198
-0.010503314515843435 0.003285256125747034 0.0013806934773686582 0.000562380412018116 4.411295469737901e-05 -0.00013730703283419454
-0.008758506850480177 0.002694669201887247 0.0012937963091193506 0.0005377682637808316 -0.00023388035291720425 -0.00011271332026395155
-0.007022768027096674 0.002112743988119418 0.001158265035725976 0.0005142031609775962 -0.00047140957256274873 -8.696819485384845e-05
-0.005247879662380515 0.0015429276161731916 0.0009913186404058663 0.0005114283564419233 -0.0006548657427860182 -6.386078516360459e-05
-0.0033417882882074957 0.0009394701492670373 0.00081907639105638 0.0005311063317546252 -0.000769854191952976 -3.542812044942699e-05
-0.0015461065404257515 0.00022535545234947371 0.0006815331406779951 0.0005033225928059692 -0.0006616128738626342 2.8632629474694787e-06
-0.0007497241185576792 -0.000182959828564941 0.0006892900014533192 0.0003071473369892076 -0.0005169269588442482 0.00022998609043900072
0.0021389078158664107 -0.005468498780481322 -2.354751593366955e-19 -0.0024762188041189312 -0.001321044445928889 -0.00046730973934922107
0.0027114340443764933 0.0002737111854625035 -0.000339337736532214 -0.0011069700763841651 -0.0014254274738029417 0.0001464695372554325
0.003966309040144511 -0.0012143198280763728 -0.0007685641725235929 -0.0003955900692029689 -0.0013370093206119037 -3.659480009094421e-05
0.00553264198650264 -0.0015198774080236212 -0.001093366738878801 -0.00042999383392034363 -0.0011880551903637087 2.502981939177381e-05
0.0073330612332000175 -0.0020888345388125115 -0.0014101678633981422 -0.0004270496957582792 -0.00090676711779628 2.5686723833451023e-06
0.009150972369956984 -0.0026200067400776153 -0.0016978847015518457 -0.00043796189705534716 -0.0005423631178344906 -1.7473709906658395e-06
0.010929955457409133 -0.0031585482910769652 -0.0019460808324619331 -0.00044809809516881604 -8.432819906617448e-05 -8.19979695589155e-06
0.012661598957985996 -0.0036928508168402097 -0.0021365561258335124 -0.0004719519507780143 0.0004215880156686875 -6.497732358377398e-07
0.01434220558720416 -0.004240323868394363 -0.002247713290236103 -0.0004958925149982018 0.0008152326154170973 5.321229385507788e-05
0.0158036455545388 -0.004800949717919207 -0.002272568145135515 -0.00039928961218127225 0.0007449007558406259 0.000204404087375572
0.016439570090100372 -0.005150270457148074 -0.0022596197586013896 1.3440818737917829e-06 -7.052143554652961e-06 0.0003627478265432966
0.01580759759096249 -0.004801923182644459 -0.0022745950439234954 0.00040195680975845243 -0.0007582118250518204 0.0002053345635817241
0.014350693184845541 -0.0042423360283122 -0.0022521864761808246 0.0004984612108640044 -0.0008260456231023252 5.504034794094226e-05
0.012676014578357955 -0.003696068115927389 -0.0021444154983850943 0.00047421795456849145 -0.0004277899377738376 1.8985605002536315e-06
0.010953082683088835 -0.003163331885164388 -0.0019589863977088643 0.00044968320458280565 8.599691933738783e-05 -5.16809670042204e-06
0.009187942617774952 -0.0026271474198842058 -0.0017187114933210608 0.00043804876918831945 0.0005568527660930452 1.6014395888454546e-07
0.007393581917540436 -0.0020998973916340536 -0.001443211883264343 0.0004253664612407269 0.0009451507754481626 5.249239150989723e-06
0.005631763864194785 -0.0015375864431880272 -0.0011474480160813864 0.0004217532910715454 0.001254186628335138 9.707714860029306e-06
0.00414890696371545 -0.0012491754169877808 -0.000845135298478646 0.00038029922610533857 0.0015097336212405975 7.226168699770702e-06
0.003120793761684242 0.0001988156048385933 -0.0004794298698921558 0.0010976879759381538 0.0012756086255595604 -0.00017278333580842323
0.0027151705223073586 -0.005562778692696399 0.00020474309371961314 0.0014631432344412282 0.0010776514366700823 0.0008609222247528203
0.0012803822453553654 -0.004814311647877236 0.0002550481612139681 -0.0015890564331579736 -0.0002224822686697219 4.3789572402929184e-05
0.0014219909108837726 0.00015524714738357457 -0.0001792277196763128 -0.001380514758446258 -0.00047933127182396963 0.00013311468350721127
0.0023429532361945466 -0.0008324396939426052 -0.00048751196677226076 -0.001086914119254184 -0.0008154630192156761 -8.739716754074992e-06
0.0036970100307477712 -0.001222479676785813 -0.0007438025907811674 -0.0011285821927972484 -0.0006838275961739496 1.1771116210716395e-05
0.00488295810617928 -0.001655616579622156 -0.0009679225884872128 -0.0011622441565954638 -0.0005095733812170457 -1.8503311350800809e-06
0.006094854277350089 -0.0020825007003803836 -0.0011710850420404908 -0.001168641558499634 -0.0002776967865346722 -2.2682986888443075e-06
0.0072784188549271725 -0.0025083741393031873 -0.0013435608019181553 -0.001178699200806267 -5.464852564807679e-07 1.115317996928693e-05
0.008419564391111379 -0.0029252366745568413 -0.001475222681601874 -0.0012101610416780535 0.00029716644221254097 6.4039169593393e-05
0.009501952004224224 -0.003350747887980037 -0.0015536460373377224 -0.0012546632132590906 0.0005276803136456552 0.000217399573869994
0.010420172049147105 -0.003853800226062709 -0.0015753006473478116 -0.0010294533423620333 0.00048631947372877927 0.000552010540003262
0.010815175075178162 -0.004298292315642708 -0.001569051693676863 1.945674584212979e-06 2.7169735364016737e-06 0.0008852635524900811
0.0104240472657918 -0.003854995619797367 -0.0015761089667782468 0.0010332849021584775 -0.00047964901320599783 0.0005522108441264076
0.009510224674524951 -0.0033531953934007467 -0.001555661408861566 0.001258238171983038 -0.0005172559642730663 0.00021757846769922525
0.008433450192826679 -0.002929071053834757 -0.0014793440719231088 0.001213026563389629 -0.000280264747161247 6.36256328365861e-05
0.00730023621653696 -0.0025138723921887232 -0.0013514350422584155 0.0011799342109149423 2.704628601644168e-05 9.002981087410285e-06
0.006128967278956513 -0.0020903003450336 -0.001185433833395035 0.0011666125298072229 0.0003182769240122114 -8.51989495809666e-06
0.00493692353265505 -0.0016670217320378516 -0.0009935063661861642 0.0011547500159319816 0.000569146961252383 -1.4909598788115153e-05
0.0037869485696115004 -0.0012395773376299242 -0.0007865991942513061 0.0011097477246023112 0.0007763691232255893 -1.7803456363622807e-05
0.0024994128352328563 -0.0008663950726191576 -0.0005607160440189574 0.001038794096023032 0.0009319718443112819 -3.533092023327405e-05
0.0015787178478105395 0.0001357986637669166 -0.00026063135482064947 0.0012657236868495547 0.0005102383032627995 -9.691221909350961e-05
0.0013945543118125347 -0.004858435845120962 0.000260287148233783 0.000943233081083497 0.00015258916722798335 0.0009081798737448297
0.0007098509673741843 -0.0034773298127299635 0.0003611988639723386 -0.0020972873092266566 3.527787195479082e-05 0.0008758827601828252
0.0006274500086857796 -4.586009305977398e-05 1.9375927925720976e-05 -0.002397485757066771 -0.00010956947217602526 0.0001316364544915643
0.0009876950029416218 -0.00021534744918020723 -0.0002034798196038742 -0.001982654052152546 -0.00032905925770203683 4.0137113801106314e-05
0.001782902620721663 -0.0005986295957201291 -0.0003589601045538517 -0.0020389327317224476 -0.0002794838144126746 -5.568289586365831e-07
0.002436427964332606 -0.0008160357674089709 -0.000482950389543794 -0.00206103028491884 -0.00017713233501079743 4.3504001484606114e-07
0.0030382815709990314 -0.0010277962404114912 -0.0005888690134887445 -0.002069090139258222 -5.976647912746074e-05 1.3304653537690113e-05
0.0036247920235966693 -0.0012364037345812652 -0.0006760847065380167 -0.0020740461176087695 7.588216849283438e-05 5.855186360075198e-05
0.004168852808587777 -0.0014216548515038395 -0.0007400890507387713 -0.0020965807832850057 0.00022992823114282004 0.00017181855918400697
0.004691801610731176 -0.0016039969282322663 -0.0007762841398770935 -0.0021694397085863654 0.00039870660572341573 0.0004378629702270852
0.005256999026421102 -0.0020432584266731856 -0.0007803130849593564 -0.0018764125230684462 0.00044310714863694513 0.0009910746143664121
0.00555859948133221 -0.002825588356672931 -0.0007661811653618144 2.85394537690259e-06 1.1382210210975004e-05 0.0016308903897939914
0.0052607411452147606 -0.0020448868992789947 -0.0007798666596237821 0.0018820103349793278 -0.0004187549697236021 0.000990610935513999
0.004699689911123548 -0.0016072866957991601 -0.0007757375780422986 0.002174578055301309 -0.00036962779434592826 0.00043653020286684124
0.004181789434699653 -0.0014266623622979876 -0.0007402416905725066 0.0021004846188498304 -0.0001931173515598226 0.00016863079248839025
0.0036444725953189917 -0.0012432154738739418 -0.0006784098198380487 0.0020751191577987934 -2.8548741290360626e-05 5.147058918678723e-05
0.0030678388109254156 -0.0010367172937582726 -0.0005959316324716564 0.0020645131893669063 0.00012006832650731424 -1.2033232202191248e-06
0.002481825889858298 -0.0008276794888594938 -0.000498899008539673 0.0020463049889164926 0.0002529287528476853 -2.829709478604732e-05
0.0018564469244863257 -0.0006150970732153154 -0.00039048308278704253 0.0020054124288168863 0.00037358450026290385 -4.829578652183027e-05
0.001081561361418832 -0.0002348948949847583 -0.00025795369317160416 0.001904238779191017 0.0004242785538200858 -5.580743083818021e-05
0.000696645973118653 -9.394446257099231e-07 -4.417870097913598e-05 0.002239017503001209 0.0001290158599444343 4.1614568331382666e-05
0.0007523139990382189 -0.0034765947390648136 0.00032541282318073595 0.0019155983146962867 -7.884121671432438e-05 0.0012274081744928342
0.00024061319294688228 -0.0021929894154815092 0.0004198303387406298 -0.0019830261375013217 0.00011389764472369239 0.0009603172512182885
-1.1330205429713123e-05 -0.00012179803627778351 0.0002033488384430005 -0.0026339693522162656 0.0001087687610652564 0.00023612370507606657
-0.00020222484418326594 0.00018531050106712486 8.261845631029507e-05 -0.0025044682744643507 6.804893941824106e-05 5.957621188588393e-05
-8.3681945949641e-05 3.5179928595313026e-05 3.653122978485845e-05 -0.0023656728173891152 9.512759714765439e-05 1.4737850424791814e-05
-2.135817434835041e-05 -3.4055739968811393e-06 2.0029906623315153e-05 -0.002365336529786004 0.00012778053505185197 1.262905402077288e-05
-1.7035881698571503e-05 8.256924387019695e-08 1.556659417926845e-05 -0.0023705914077204945 0.00014501495047303538 3.7434911826561604e-05
-2.3749007629508054e-05 -1.295901968732239e-06 1.803552419380349e-05 -0.0023761544891459257 0.00015689713607314591 9.748141432746967e-05
-6.943710955214824e-05 2.885122724017597e-05 2.5782886881609237e-05 -0.002359780880905884 0.0001873963203347982 0.0002260241992479595
-9.883556262564979e-05 0.00010404149860280686 3.505160168573299e-05 -0.002435285923113299 0.0003175506151747361 0.0005019751858123976
0.00019016406253872205 -0.0002821888380807976 4.881634798459242e-05 -0.0023835835224233714 0.0004908557770968797 0.0011049277298621608
0.00046995832602030757 -0.0017656114822322269 7.47089158674384e-05 3.1033044257427664e-06 1.9607680152552003e-05 0.0020939405971787807
0.00019374119783664392 -0.00028423978436724405 5.054311088584054e-05 0.0023896664616895862 -0.0004497305239040882 0.0011042714369531679
-9.142667688447615e-05 9.994050790774831e-05 3.822658386222021e-05 0.0024408527397411324 -0.000270833369444378 0.0005001982817205854
-5.766473826533668e-05 2.274284147801674e-05 2.9746692598933445e-05 0.0023639589886165183 -0.00013188387034106756 0.00022198880251185602
-6.681203508700779e-06 -9.28163588715012e-06 2.1525824975432055e-05 0.002377128696676218 -9.040411832461315e-05 8.892413653616465e-05
7.0676221704691415e-06 -9.610388779633723e-06 1.6352299259424338e-05 0.002364977816607572 -6.709583198192685e-05 2.004422828241446e-05
1.3796228664185504e-05 -1.4909615872505174e-05 1.433977933567999e-05 0.002347400345624343 -4.031177610293825e-05 -2.060722127754517e-05
-3.418384820244591e-05 2.136061275814272e-05 1.8446881912089624e-05 0.002325435957707154 -3.731930221070609e-06 -4.542116396715637e-05
-0.00015181910814154458 0.0001851395256564313 4.677424817894491e-05 0.0024237553807029168 3.2466450268167507e-06 -3.755318222894887e-05
2.100391665673834e-05 -7.39929509965903e-05 0.00015555310079126014 0.002549368439690692 -0.00010280688300408161 0.00017753837514969896
0.0002613529925365575 -0.002199310439376389 0.0003793421149402255 0.0019242017861644657 -0.0001490817164900821 0.0011704488850137953
-0.00018511097099074546 -0.0011382897929109288 0.0004737416232353279 -0.001501428268501448 0.00019214055831246125 0.000830560670328573
-0.0005955780791021111 -4.573637085587122e-05 0.000371930030414095 -0.002231337816205339 0.0003102230296706422 0.0002407857126063676
-0.00131349816485047 0.0004966153050921287 0.0003624906441950856 -0.0023066512752740976 0.00043841583501803914 6.185999068411072e-05
-0.0018989364987262874 0.0006369858956027151 0.000429437012537316 -0.0020969026847353057 0.00046851529384547255 7.579572586915411e-06
-0.0024768689312997983 0.0008166517433599812 0.0005222983562194914 -0.002053507679669401 0.00043607947963924203 -2.7361031896179787e-06
-0.003078190309548667 0.0010279775723973498 0.0006195575021072842 -0.002064276304362783 0.0003525110836378574 1.3630970971468579e-05
-0.0036677295264549823 0.0012399960537271286 0.0007119945568536004 -0.002069208211895814 0.00024288712108297086 6.364582443514769e-05
-0.0042773407101781265 0.0014478031827208893 0.000792241054101244 -0.0020507213354052415 0.00013539205905740016 0.00015534157712985622
-0.004895551425327013 0.0017920693625292337 0.0008463726615379988 -0.0020163172134404226 0.00016908141624829694 0.0003510741584273114
-0.004904873593240636 0.0017014754466850095 0.0008616330742129393 -0.002549166578126459 0.0005224150613628943 0.0008075958999063373
-0.004616583786167331 -0.0010566360935412604 0.000886974980798804 2.922186180730504e-06 2.800886084102864e-05 0.002190076059695632
-0.00490145494612104 0.0016989880924637615 0.000864656380290874 0.0025549185588178386 -0.0004641370752487638 0.0008072303555714217
-0.0048886132729077094 0.0017871314962353262 0.0008522154760230487 0.002021663869576424 -0.00010425836542507932 0.00034993834037951976
-0.004266728890964003 0.001440554231828584 0.0008003940300144505 0.0020549264893014434 -6.056963399017459e-05 0.00015244775118186514
-0.0036533086548315636 0.001230799665440008 0.000721427690418221 0.0020706867511238298 -0.00015641026507944887 5.699498005242798e-05
-0.0030596575526200946 0.00101751731363942 0.0006283675777358243 0.0020598899046989803 -0.0002560513309161274 -5.856667752515769e-07
-0.0024534845714574522 0.0008055847395408359 0.0005271771804947899 0.002037617448748257 -0.0003363572235476209 -3.1484909141315276e-05
-0.0018721670839854068 0.0006280808733084748 0.00042528427611735956 0.00206026461783453 -0.0003796242856294435 -4.617989197593953e-05
-0.0012917599205093915 0.00050324580297305 0.00034409060063177177 0.0022499877572109916 -0.0003854610048648376 -1.6882863927556405e-05
-0.000582382713636091 -1.2235860061322315e-05 0.0003400244367988079 0.002195003242603151 -0.00031217203740176847 0.00020047674167865932
-0.00017471327764274856 -0.0011440039003552788 0.00043876423474327323 0.001487861202745437 -0.00022113704664751118 0.000969915707575714
-0.000544719678147067 -0.00045198804741686537 0.0005495922965736154 -0.0007851726934989264 0.0003443366674268769 0.0005391456704430346
-0.0011360142105796389 0.00011241012987771736 0.0005323763842192275 -0.0012475009400115904 0.0005739848567081234 0.00016387223966454734
-0.0023951228817981796 0.0007948303999921252 0.0006297374168493944 -0.0013306570657065473 0.0008476188375013123 5.6484407588475805e-05
-0.003692894250370174 0.0012407702766380358 0.0008069124663713104 -0.0011929972383374777 0.0008796747874316807 8.93396578711642e-06
-0.004932644013228829 0.0016621066755858704 0.0010052358146171874 -0.0011540330538434113 0.000776203601620092 -4.128346879824692e-06
-0.0061411325157880725 0.002088030732349311 0.0012000645263305853 -0.0011632533059744174 0.0005809115986075387 -2.3224776895824834e-06
-0.00732673601209262 0.002512453415464669 0.0013791287614794312 -0.0011740602202187345 0.0003280889446072119 1.461642829091077e-05
-0.008437658794598225 0.0029396685439684995 0.0015287555769775466 -0.0011522645159609578 7.052152425118758e-05 5.917955297812396e-05
-0.009656165147816496 0.0033185323884544126 0.0016276689617043217 -0.001188629769223814 -0.00015794973319808493 9.281976907361517e-05
-0.010157260474322402 0.004209948953901269 0.0016125395012041442 -0.0016100251510068578 0.0003296698691515394 0.00030182025747041105
-0.00996303889216943 -0.0004966364768333053 0.0015718820581295718 2.0265886419729783e-06 3.720410890869415e-05 0.001612173048862041
-0.010153959209667242 0.0042069931284132 0.0016168644991629419 0.0016140421997822025 -0.00025255981590628315 0.0003021760825157182
-0.009649596277285784 0.003312686146883054 0.0016361873461987722 0.0011924613239758842 0.00024284148346567262 9.331056147900729e-05
-0.008427999786401977 0.002931150675267301 0.0015410993862617095 0.0011555063508460217 2.6089808440557947e-05 5.924929810727065e-05
-0.007314527536071142 0.002501828523890635 0.0013944725860935577 0.0011757844533130473 -0.00021833895811520525 1.3114623191452939e-05
-0.006127598797146726 0.002076424008874914 0.0012167743582602128 0.0011615755098892894 -0.00046147385982721963 -7.71075575860953e-06
-0.004920257461553911 0.0016515443060578284 0.0010203941563314376 0.0011452317018797189 -0.0006587464461715492 -1.8020038938885872e-05
-0.0036857030352968933 0.0012356426687120828 0.000815905668602054 0.0011722870048789902 -0.0007868234269110461 -2.0342402959498085e-05
-0.002395547643883261 0.0008028942928184982 0.0006269234362775259 0.0013027597410100755 -0.0008074569953478473 1.3501398103023362e-05
-0.0011375928622271174 0.00013254808000192622 0.000515247633334681 0.0012351727718151418 -0.0005867277637162266 0.00014284604398595466
-0.000543636462850568 -0.00045139822871382543 0.000523303254341031 0.0007823284647175254 -0.00037719027323243485 0.0006188983919473807
-0.0007318514962332454 -0.0002188402297881182 0.0006668611801562108 -0.00030073500991846335 0.0006583108612395856 0.00034941765361243195
-0.001567793109066301 0.00020120022433580046 0.0006927670435152092 -0.0004881856037080916 0.0009886930053999113 0.00011392411237407614
-0.003475495870807876 0.0009471865304858218 0.0008759040884620124 -0.0004794368703291931 0.0013759372594033302 6.131247331860923e-05
-0.0055145061683639675 0.0015501058651535213 0.0011499597148482636 -0.00043472810079857327 0.001387295060701288 2.539896978885923e-05
-0.00739365850360454 0.0020937716308441607 0.0014418190516607798 -0.0004250458217558569 0.0011927765834699347 1.2637611567030275e-05
-0.00920350525092376 0.002630869278531494 0.0017239076312394405 -0.000434939234130817 0.0008587409056132128 4.098199217316397e-06
-0.010982525584624316 0.0031569304011707386 0.001980648425740849 -0.00044047966252380163 0.00043203900059989064 -2.3320541265978883e-06
-0.012676120709800094 0.0037271203477097802 0.002193002188145875 -0.00046045030548441847 -3.9887747046793023e-05 -1.173594996697552e-06
-0.01407330731200945 0.004007830997954793 0.0023324046868703936 -0.0004740393969627661 -0.000525745151018992 -8.579367321696843e-06
-0.015542162752664597 0.005632435457411084 0.0022840561462783376 -0.0011491068644891712 -0.000784328717222566 -0.0001858273915899773
-0.016425536388011384 -0.00020636119184001966 0.0019071672602441446 9.728569902781297e-07 4.786633809951307e-05 0.0017142332854056398
-0.015538930338418981 0.005629236244772102 0.00228967080225339 0.0011510550698205697 0.0008833645610495024 -0.00018515994340905585
-0.014066966575254863 0.00400150895021999 0.0023435615109899804 0.00047596467219643095 0.0006343010098370795 -7.359133590179543e-06
-0.012667067308412557 0.0037179293026873205 0.002209439865797585 0.00046221750822045385 0.00016279583147392316 3.0982111465062477e-07
-0.010971748951921505 0.0031455124936617803 0.00200166958058833 0.00044173247476825365 -0.0002930296735785413 -1.1809659589907454e-06
-0.009193330832619365 0.002618573930245277 0.0017479912566807738 0.0004349215778359631 -0.0007080304410695655 3.7004857595518844e-06
-0.0073891887723557 0.0020833128065663145 0.0014661135568841692 0.0004221593610809363 -0.0010460970632690692 8.236119247035596e-06
-0.005523403401005233 0.0015464707306823118 0.0011697804995099755 0.00042683577422701776 -0.001276902016062103 1.325516847862011e-05
-0.003498692547811432 0.0009557510927227419 0.0008849861394327861 0.0004679167762757156 -0.0013430756269429793 4.2813406440060466e-05
-0.0015883015200074337 0.00021624259007997464 0.0006872809707170906 0.0004824096341318294 -0.0010302371567786626 0.00010571297389502854
-0.0007441502735291866 -0.00021431305488576292 0.0006507525824475757 0.00029602175515198764 -0.0007266864326158744 0.00039766829943961677
0.0022866156546817694 -0.008497772502226924 9.317362419797304e-19 -0.004814107801215616 -0.0019846957124798957 0.0025009516209914184
0.002753162769281805 0.000883360200899821 -0.0003185526079444858 -0.0021385206057122426 -0.00206583304471161 8.505029367726952e-05
0.00383640645452691 -0.0011981245398946354 -0.0008401613892766653 -0.0010081565744794042 -0.0020181754463213103 0.0007015559888909777
0.005395072864466232 -0.0014074767774187298 -0.0011811926790287906 -0.0010396327528366237 -0.001795735594362944 0.0007612149136753189
0.0073234519302666475 -0.002024484488000553 -0.0015622958961599917 -0.0009798254543671022 -0.0016047372825574177 0.0010454768607507964
0.009279120416751158 -0.0025656154929083017 -0.0019290592856414676 -0.000889015298535043 -0.0012604288634986479 0.0012892053966438183
0.01118664150607842 -0.003111997972476661 -0.0022740711178657457 -0.0007426037914346202 -0.0007861440553693 0.0015396474180264664
0.012980315227641849 -0.003636191207240337 -0.002575979044364249 -0.000541316612328498 -0.00019161265084414897 0.0017857388190722016
0.014485325273674592 -0.004091396867853476 -0.002803924657098047 -0.0002817403331878438 0.0003879276434266143 0.0020394257913880767
0.015443357144733792 -0.00435615921676866 -0.0029296373333770193 -5.234888467555668e-05 0.0005523025698130095 0.0023120029883671772
0.015754589934239876 -0.0043711964157687735 -0.002964250873968577 -6.411820686522596e-06 -1.3276362914835553e-05 0.0024979233125273113
0.015455099517388158 -0.004359900238761787 -0.002932403646595613 3.919233615291525e-05 -0.0005786221037197504 0.002312647939010966
0.014511067979607849 -0.004099577863214871 -0.0028098933115674562 0.00026758547665970404 -0.0004134768490190821 0.0020407042243732656
0.013024873811592041 -0.003650286474790161 -0.0025861188890966068 0.0005254745156889232 0.0001676658214643576 0.0017876835263861365
0.011258031995000127 -0.003134354140540681 -0.0022900228565956703 0.0007244400088673915 0.0007650297381783461 0.0015419955458399975
0.009389146910448905 -0.0025998066574781454 -0.0019538171356306873 0.0008676352808592485 0.0012448583930797274 0.0012928960252784948
0.007488796198224858 -0.0020746193134209886 -0.0015995131555235137 0.0009553206106448192 0.0015947779746391443 0.001045830271748693
0.00563814035785728 -0.001479494967179392 -0.0012432500602950617 0.0010049402380911075 0.0018072232558650697 0.0007807017233714438
0.004229113637959838 -0.0013014842530076913 -0.0009145328727535349 0.0009661493937318921 0.001986574926044518 0.0006368485411131822
0.003598391685250381 0.000739764095694698 -0.0005459856314091141 0.002218873149069777 0.0026563646159132575 0.0004678686189969739
0.003479895936983178 -0.00896775866542315 0.0007157643475878979 0.002893714622304542 0.0034794431465057316 0.0009700121251352874
0.0014045454779873252 -0.007377158557751179 0.000593652272068128 -0.0030899750420854345 -0.001639786758674103 0.0014376493739402124
0.0012684334608952493 0.0005899103137465496 -0.0002083306146021969 -0.002560312802722117 -0.001373043143368962 0.00043121506322636217
0.0020251937980508474 -0.0007349005234663058 -0.0005433361452599825 -0.0021302437469811358 -0.001245787264461891 0.0007559180986934031
0.003517412954506033 -0.0011288713469205167 -0.0008400569662106334 -0.0021575594969831806 -0.0011014889002943689 0.0009802563017432292
0.00477613870794395 -0.001592827693967485 -0.001111926912979467 -0.0021090273595256274 -0.0009558705339869533 0.0013005143871053155
0.006079338733346207 -0.002034677821986254 -0.00138126051782471 -0.001937173541032175 -0.0007532406381021992 0.0016198698181280435
0.007345648246306355 -0.002470497283676924 -0.0016306036632437438 -0.0016831575834513927 -0.00047131896787888395 0.0019410581002123305
0.00853627297564669 -0.0028959360423060103 -0.0018479006485170408 -0.001312641152412943 -0.00012335066041260976 0.0022725516487796574
0.009540091636145501 -0.003264433341329504 -0.0020131239694559273 -0.0007753730841357779 0.00021936030546759017 0.0026498937254513383
0.010186855428280198 -0.003425137554171363 -0.002112353186903732 -0.00020407720052285339 0.00032714160015252157 0.003123249600877177
0.01040089671661677 -0.0033004643130996915 -0.002149724377944514 -1.1432049321359708e-05 -3.1802531242587106e-06 0.0034903878847396008
0.010199201051810401 -0.003429029898437761 -0.002114620483898889 0.0001804850641182298 -0.0003328688759464118 0.0031233172793174065
0.00956684914072956 -0.0032728766057412138 -0.0020181032860156173 0.0007495602716604932 -0.00022316715316223032 0.0026499426333694
0.008581750363354151 -0.002910289575427363 -0.0018565537792777944 0.0012829936717869692 0.00012277054679932765 0.002272398311479557
0.007416735034993052 -0.0024929011389596112 -0.0016446471190986135 0.0016478771289354691 0.0004754263825067991 0.0019403232753487985
0.006186029440467234 -0.0020683023161439593 -0.0014032878160012306 0.0018942529649055243 0.0007630020567959637 0.0016182618630785621
0.0049315697040738 -0.0016415811904734834 -0.0011469939951835061 0.0020563717969501925 0.0009737558412770419 0.0012963292407645007
0.0037419821567466027 -0.0011965588644090592 -0.0008921802152750199 0.0020864758450130963 0.0011197193009414633 0.0009794028766962315
0.0023474723991939793 -0.0008285200960709299 -0.0006353079525895723 0.00202053168648846 0.001297328791324521 0.0007264846090480662
0.0015594023239702726 0.0005526251023593054 -0.0002924686121536524 0.002414911151366486 0.001570152171243733 0.000618513049464991
0.001607621531951131 -0.007739144640878083 0.0007375823276643904 0.0019336158003450934 0.001941578973020423 0.0005839235708555649
0.0007242422551902663 -0.005133096743063611 0.0006491344281446869 -0.0036278229591920653 -0.0009985080481613388 0.00047614836474001756
0.0004253054296561537 0.00012309857544169755 3.110727710690467e-05 -0.004158788285870569 -0.0007814369343042756 0.0006701639546903079
0.0006293077113822511 -2.2948094479569965e-05 -0.00023459067521025467 -0.0036274377505071697 -0.0006157976763944498 0.0008630411815505463
0.0015384640706237983 -0.0005091313955276538 -0.0004071298414765124 -0.0036892494996652566 -0.0004993885972086387 0.0012502280281595423
0.0022805652724517313 -0.0007550574050408478 -0.0005566843690500997 -0.00356395186922875 -0.0004084289353156587 0.0016499893116150818
0.0029505594754554052 -0.0009858516465459967 -0.0006984023617951151 -0.0032896985635222893 -0.0003090884081619416 0.002069921299999555
0.003610617415569187 -0.0012093448691430123 -0.000829460486264483 -0.0028818969465831475 -0.000175791178585589 0.0024936852951329067
0.004248013127499332 -0.0014437378349149196 -0.0009426800415960443 -0.0022892541369827542 1.7095583040071024e-06 0.002940684010954564
0.0047922939820258074 -0.0016535751735261518 -0.0010315760568300753 -0.0013748382499021493 0.00022734040734307076 0.0034670403742233617
0.005071769781233527 -0.0015797124358150126 -0.0010971412539947643 -0.00029673141313185387 0.0003474955553145106 0.004185689208357587
0.005121429446027668 -0.001046312900362205 -0.0011396761035893915 -1.826854860290141e-05 4.88785758805612e-06 0.004862323334883153
0.005084294020910255 -0.001583846647762872 -0.0010988494505342803 0.00025898226645186973 -0.00033675471590669594 0.004185312074016147
0.00481918253144469 -0.0016624253833386745 -0.0010353965704929745 0.0013333814173001363 -0.0002137525046338773 0.0034661731500394036
0.00429298048343076 -0.001458455388315441 -0.0009494925531467817 0.0022413556978942294 1.644344467097495e-05 0.0029390542956581854
0.003679358372703549 -0.0012316545651833897 -0.0008407475199315025 0.0028243937680537015 0.00019977555741262795 0.002490851957467925
0.0030508560368876377 -0.001018268294990735 -0.000716582509149142 0.00321886514243665 0.0003393885840796194 0.0020648981293386283
0.002422104129758598 -0.000800491614342275 -0.0005853193822524993 0.003475139967770785 0.0004434986897622074 0.0016426270162631935
0.0017309838461211375 -0.000569723582605679 -0.00045235283926692505 0.0035706001335271925 0.0005355367589627885 0.0012355703805690865
0.0008294614530173613 -7.70670567127758e-05 -0.00030394600055040795 0.00345502072159823 0.0006659378220750944 0.0008662812344817163
0.0005590236601270698 0.0001952149413600298 -2.952681001318467e-05 0.003928949835730939 0.0008557005733234348 0.0006804546588748985
0.0008116169799381979 -0.005354078035432957 0.0006795655806213919 0.0034291142226574763 0.0010956713326655482 0.000455078118647333
0.00019462514386029951 -0.003078026137400016 0.0005797245997418909 -0.0033548224261842484 -0.0004504367986475924 0.00016791090784142455
-0.0002219347113745056 -6.52549821811682e-05 0.00022547428882255447 -0.004398034211180073 -0.0002552059802110938 0.0005819980368268193
-0.0005573448057385635 0.0003891715269792361 8.349719936749222e-05 -0.00441568104037314 -4.0254726862127966e-05 0.0008923391167098835
-0.00036440057353985013 0.00014989465768494166 4.759521921098916e-05 -0.0042155157708284345 6.691146742469081e-05 0.0013146588480763123
-0.00021133794926613984 6.366619821846438e-05 3.436821986816434e-05 -0.004042213560934998 9.860927872704751e-05 0.0017513308051940461
-0.00014261151392107682 4.4750931227643916e-05 2.6633641784309677e-05 -0.003728926140006828 0.00010725340785393786 0.002196521386516168
-7.889795296997341e-05 2.6481538975959396e-05 2.1456153362135185e-05 -0.003273620353212135 0.00011509610628574073 0.0026515650222681307
2.6454420230631734e-05 -1.8709530997560144e-05 1.8076394409515092e-05 -0.0026335203302615363 0.000145027573970551 0.003125546538029711
0.00014452486542627132 -0.00010621088617746806 9.782506225243963e-06 -0.0015862522413760526 0.00028076008879723553 0.0036691798870561675
3.316964910844258e-05 0.00019313008022827337 -2.3884367244727477e-05 -9.826972609534892e-05 0.00045640526164003093 0.004449312396876631
-0.00012412943705236883 0.0014889524550161875 -8.775012903345995e-05 -2.051138577889683e-05 1.21384446558397e-05 0.00545464159437289
4.56912278179781e-05 0.00018883296866652056 -2.500144617245376e-05 5.584896872137972e-05 -0.0004308527436947644 0.004448797596121223
0.00017115994303408907 -0.00011531836273061484 7.203312705173962e-06 0.0015395554088618684 -0.0002514869443719875 0.0036680216825030316
7.02832981695837e-05 -3.359514592041451e-05 1.32998208055239e-05 0.0025794014829393697 -0.00010998023140018887 0.003123451767869841
-1.351646335645757e-05 4.476137488717218e-06 1.325956310390132e-05 0.003208384734118985 -7.311566711382935e-05 0.0026479601563902553
-5.042750598862895e-05 1.3862485839239482e-05 1.3162998799025021e-05 0.0036479431780803533 -5.898572995429698e-05 0.0021905265508790207
-8.689527461995452e-05 2.18750665545927e-05 1.2828427890196375e-05 0.0039390995237851755 -4.7881844636854596e-05 0.0017414099066855894
-0.00021556268041519926 9.921776754808803e-05 1.3661759885743925e-05 0.004080716221940913 -1.9701472134851868e-05 0.0013009061954155326
-0.00043138543629776604 0.0003747890781432607 3.5203129353839294e-05 0.004245590714563944 7.925548612296984e-05 0.0008847782968015172
-0.0001497584633102067 -3.7429821917693692e-06 0.00018143893933488347 0.00429785965124738 0.00028793461157224163 0.0005983003982692889
0.00024282617137576408 -0.0032317189563414576 0.0005825020810007684 0.0033227867720898438 0.0004911185516835966 0.000263176779778238
-0.00027308102973017134 -0.001474752549941976 0.000506843141854702 -0.00254968293992304 6.612678114339699e-06 0.00013258233312385883
-0.0008096344055118083 1.3324747530388972e-06 0.0003796774467287059 -0.003698526880185824 0.00023909680693113688 0.0004515814449101299
-0.0016552746633221665 0.0006910222173065169 0.00039099980874166815 -0.004063078978046663 0.0005424218163346127 0.0008249639257369571
-0.002198371650161803 0.0007627825455031089 0.0004989755751204351 -0.0037867964646786057 0.0006434172210519125 0.0012385414712310296
-0.002699636146955114 0.0008925879798763059 0.0006253294478414116 -0.0035672928748578373 0.0006126301752705321 0.0016538367901700879
-0.0032384698385300695 0.0010768479170653897 0.0007514335650576238 -0.003287569644990803 0.0005258418229029223 0.0020702815842677047
-0.003770955450811025 0.001257055041892724 0.0008721117028252781 -0.0028867632833325407 0.00041384428174768396 0.002498176354872884
-0.004215349895806321 0.0014287914914174386 0.0009799551251345074 -0.002316541299694484 0.00028073175205993017 0.0029278897979053
-0.0044888353325542715 0.0014442141963602675 0.0010542578623655714 -0.0014724299048175652 0.00024988589536083656 0.0033865009909742573
-0.004988623280022605 0.00176115864115177 0.001044151701727026 0.0003785015374904759 0.0005107821804219081 0.00402140064390406
-0.005395357745559239 0.004450192908795279 0.0009152800146752356 -1.846235078905575e-05 1.9549838353830668e-05 0.005332623878457571
-0.0049760508392158835 0.0017566903041413915 0.0010436242231908603 -0.0004167046741708062 -0.00047006245065626696 0.004021058453695336
-0.004462351862102765 0.0014348309429522775 0.0010529234719231808 0.0014303241868233339 -0.000204476031799121 0.003385709841581343
-0.004172518037563934 0.001413696735566083 0.0009772274773991022 0.0022676889579720514 -0.00022817287986739195 0.002926396342854973
-0.003708848994008355 0.0012353067767569377 0.0008670554081845784 0.002827842479647471 -0.0003530627040917309 0.002495496827098172
-0.0031546274281835113 0.0010475985662093 0.0007427230459332208 0.003214154649599097 -0.00045855866594640183 0.002065570467790975
-0.0025950985661002198 0.0008552849237614662 0.0006111494840095556 0.0034732531635484495 -0.0005452083706555306 0.001645966449593536
-0.002088464104608669 0.0007252950239665154 0.0004770394469491153 0.0036665950380826455 -0.0005877701092317253 0.001227869259560226
-0.0015748200667450717 0.0006876260915439714 0.00036081639632003996 0.003946580153598006 -0.000511302137126032 0.0008177844941583179
-0.0007689913888923965 3.705003143080374e-05 0.0003511548400643954 0.0036709345728870857 -0.00022640512508327685 0.0004716027178452714
-0.0002467630509473826 -0.001563178276741399 0.0005022551447661331 0.0025679102326128093 7.160430492031961e-06 0.0002216761920312768
-0.0006418799217055976 -0.0004834400089562187 0.000486413027536733 -0.001411687632154984 0.0004082586369830054 0.00019428825796336278
-0.001334296342284685 0.00018060569051126245 0.0005139260592179032 -0.0021308928575359135 0.0007445976428502718 0.00032417747732095076
-0.0027138481832320277 0.0009599915995927481 0.000674143842008818 -0.0024409568209233117 0.001187436297660975 0.0006481831629526394
-0.004010482521914145 0.0013602112098637042 0.0009222987905279506 -0.0022698576849259195 0.0012825460875627024 0.0009780570836608155
-0.005207338660123886 0.0017380990071281732 0.0011808151326756422 -0.0021129932881178816 0.001177111953290187 0.0012994291215913183
-0.006372433993639931 0.0021302682583842747 0.0014330175375190434 -0.0019371961051584694 0.0009800397565151641 0.0016195536738643314
-0.007499119643404827 0.002518150825490535 0.0016724368961796659 -0.001688225665381756 0.0007228914829903143 0.0019433115867135862
-0.008569794836062064 0.002876041431982631 0.0018879404828251048 -0.0013526715310382808 0.000428061088113219 0.002271936328564825
-0.00925830015083895 0.0032269415637088336 0.0020466877404456915 -0.0007848709523607222 4.458340168216e-06 0.0025462299243978314
-0.010042409954830947 0.0029491063009912757 0.002048927547375663 0.0003989678753232253 0.00019944158756662818 0.002909460712374465
-0.01065658155947972 0.007856312158950779 0.0017502433735922484 -1.168094820108164e-05 2.811560705377087e-05 0.0038666279250336713
-0.010029475058825968 0.002944348548989892 0.002048955664400185 -0.0004231322755588369 -0.00014115201294540565 0.002909568787568404
-0.00923133773318314 0.0032170522299132184 0.0020465198753697278 0.0007582671313781411 5.977115479384484e-05 0.0025463896509603603
-0.008526994788781874 0.002860406452660458 0.0018871135399390951 0.0013218903316972726 -0.00035485159421732405 0.0022720058626296805
-0.007438925849873248 0.0024962640985916134 0.0016702377280865717 0.001651282732053138 -0.0006395546020762855 0.001942993820395518
-0.0062956870371506995 0.0021022914456645414 0.0014285326033305046 0.0018915448502075725 -0.0008892279681144749 0.0016183011671523733
-0.005121648817337894 0.0017064499232556415 0.0011731006357086364 0.0020549604348339794 -0.001088416271004898 0.0012965624940389216
-0.003934811163691257 0.00133483854808887 0.0009105563367188841 0.002199576489625142 -0.0012152185213716558 0.0009736572437093696
-0.002670347847429284 0.0009608304204681609 0.0006582078112765924 0.002384284185784229 -0.0011617707505002031 0.0006463010297418994
-0.0013196208155815195 0.00019990085981682097 0.0004982319371219677 0.002130345334298465 -0.0007495744868822279 0.0003383821870127303
-0.0006352362140146254 -0.0005182442495463007 0.00048101185153548844 0.0014302975706783044 -0.0004180812850327923 0.0002520531018169925
-0.0007273449308946179 -0.00016377831997673614 0.0005552597903358332 -0.0006960555265524275 0.000817326617950917 0.00023449115235838936
-0.001651078650462838 0.00027829974286400325 0.0006425534084396568 -0.0009981509895174343 0.0013222209583775256 0.00027112851915118855
-0.003732799891828863 0.0010905015004520956 0.0009053065127112268 -0.0011222078462397032 0.001961938409864338 0.0005382917620226573
-0.005876496393990943 0.0016626435187240799 0.001263535110515935 -0.0010789990863797135 0.0020483455465165434 0.0008011260654785134
-0.007772255729899551 0.002167298361087943 0.0016258683380479385 -0.0010033368491010727 0.0018463456279188685 0.0010503459640685657
-0.00957733588979991 0.002664305687120846 0.00197876609126721 -0.0009001623243785357 0.001507341346678994 0.0012969442708989968
-0.011334612875863348 0.0031648477885563844 0.0023153100281281735 -0.0007648806890360388 0.0010641595479606004 0.0015470625471926142
-0.013001986483788766 0.0035888756115934244 0.002617172006406799 -0.0005606615545662073 0.0005379347513455021 0.0017758106987588508
-0.014585847708366765 0.004222713494588972 0.0028581588650071757 -0.0002743641314192629 -0.00021784413909326506 0.0020466853784500993
-0.015320767479595642 0.003427464460191528 0.0028716245436822083 0.0007625079859484399 -0.0015817974364220541 0.0018380649696287847
-0.01527353114398626 0.00965303700063718 0.0021655200108230705 -7.547738893854414e-06 3.909453970613096e-05 0.0037906164715597727
-0.01530684008902656 0.003422516164442052 0.002872148138650916 -0.0007781005226349291 0.001662655889266802 0.001838285541743656
-0.01455713444598988 0.004212481266870448 0.002859008910590455 0.000257292264897767 0.00030640447537525427 0.00204706363438873
-0.012957261061721067 0.0035728472429142465 0.002617936742378741 0.0005411598933386683 -0.00043773779151600476 0.0017762036327128065
-0.011273589613691369 0.0031427279116350315 0.0023153468003600883 0.0007420944768529328 -0.0009508417680573055 0.0015472110171797857
-0.009503979579997532 0.002636849345760663 0.0019772680136726766 0.0008734611946062578 -0.0013843857973405047 0.0012964641097484029
-0.0077011454271397805 0.00213852029325611 0.0016221294149787301 0.0009724330421365974 -0.0017270077285101173 0.0010489765879766713
-0.005834866986813354 0.0016433469869135216 0.0012572047088569454 0.0010461408054591491 -0.0019611790966767738 0.0007994168352404966
-0.0037367671189817544 0.0010945649884262847 0.0008962101213365341 0.0010985697782725048 -0.001940635890385886 0.0005393935710621508
-0.0016738513668194998 0.00029327191869235803 0.0006337188713495421 0.0009995713038495014 -0.001353922732675972 0.0002808879289349936
-0.0007462151216424762 -0.0001759444037598297 0.000553861951792798 0.000701699302440288 -0.0008619612006690364 0.00027302868077377907
SCALARS Stress_vm float 1
LOOKUP_TABLE default
2376.14516332768
1089.8489904479316
1178.6893442861901
1631.3612386667594
2176.554882024293
2726.712473525209
3268.659559853688
3783.466047881125
4220.301558886572
4491.882039804702
4563.042719062199
4495.356326112154
4227.69277216677
3796.0214999913683
3288.5857579694716
2757.333767964635
2222.1226378715255
1698.1824506459343
1277.250159811993
1283.1477173373335
2567.6279361641728
2017.2489382098165
634.5594019897148
839.4615009238613
1202.4478598283933
1567.096467374723
1936.3528306752703
2303.3964031534033
2656.862974917794
2962.467867352098
3151.513095016663
3186.897292018717
3154.6892705594705
2969.226626054495
2668.260439804001
2321.1224442691064
1962.6803341394093
1604.6043931140052
1252.9317813940254
897.4913684306342
670.8413604206883
2098.3401410962742
1487.1717782333253
785.250699205949
773.9518103418498
912.4195871480474
1059.971559356973
1218.21817665144
1387.3641024134117
1567.855844557657
1739.1180089651955
1826.9349494104058
1795.3271013265555
1829.0723886950855
1743.3769463943938
1574.7797094026623
1397.6699439392512
1232.3198263512272
1076.87457432087
925.6260812377973
767.8657231174211
735.6393436707923
1526.096547004831
1014.9657315380816
863.0929636355695
901.9896277458485
851.7831133346109
828.9437467771461
810.0085315850909
821.403955085565
890.4575453919174
1036.9598106014857
1152.7930430359888
1091.1186097613072
1151.2353272499
1034.6691354305574
885.6627070100991
812.0723307941391
794.1693914149766
805.1098396661715
817.6003785988468
858.6999717205285
836.5500022621483
1039.9444235891333
631.15169265863
777.4010413551403
982.8304644135862
1047.6858777256905
1150.3843287034324
1282.5863357171293
1423.5830027438185
1550.557849712944
1672.3682609012646
1882.3606503608885
2138.8451576428793
1878.3715262803873
1664.177086063973
1536.9288445345903
1403.7085035121079
1255.2781727485299
1114.766573181431
1006.3511906997923
949.6720447891386
766.9416738009206
644.4094339493346
384.08193670495973
612.9544208312797
1027.0581138233931
1362.8784203105947
1686.76130582457
2018.444636214132
2348.301583149465
2660.6673599533233
2901.714710810105
3133.871930715813
3688.584145114266
3130.193804405911
2893.951914846688
2647.745817162533
2329.671168823817
1993.8782245701889
1657.9365298573136
1335.958021355872
1012.163880954651
610.5290351954432
388.05346187587526
331.5541025209072
590.633126788454
1204.357820827068
1789.1205208469696
2309.2679540025138
2815.5483602267486
3315.1626085394983
3788.7304364279166
4245.670146151373
4498.684549679996
4910.8490601702315
4496.150153053599
4237.956182009721
3775.8519508830477
3296.802079318155
2792.3796509420513
2285.1039071259106
1772.8219751596882
1204.4786483290366
598.3672329146835
339.43187154624354
1549.151404658104
915.008521690798
1170.2441474880889
1629.786267929707
2144.124304037586
2662.1853301285687
3170.9402018824026
3665.5218624389418
4145.222104030035
4573.790558488287
4783.793100422939
4575.110068428615
4147.957723330352
3670.043927670844
3178.113128611189
2673.686216434049
2163.1723497290227
1661.5137937109841
1231.4244257427476
991.3297814975734
1624.1997606784514
1312.2790101968237
498.245294076066
791.8821939246271
1158.7144983404778
1516.3002155339207
1874.1972832845552
2226.1500137189355
2565.291150355472
2892.5661165580054
3202.95892915897
3388.5178094245302
3204.0509232946124
2894.9083123406654
2569.2479680759056
2232.4317323421405
1884.1279550961979
1532.1762205714017
1184.9448849272533
830.8413361756842
526.9530644108555
1336.4824847203054
1002.126967111988
462.79859256007245
538.6917114303459
718.3021250973828
899.635543799025
1079.8755930785087
1256.6197234198355
1420.325121151678
1589.2545252163804
1833.9189824232276
2084.1921320198335
1834.7037805052112
1591.085504694513
1423.4119952222181
1261.2449455341523
1086.61028248858
909.5186776874024
731.6037108322579
549.2034721085696
437.93642851861233
1003.3597376845809
707.721713437905
514.3414235592265
497.98552616620077
462.76814538976964
474.44541645405957
508.9696330055274
562.4121306240553
620.8630854541831
679.8020361792633
871.5039468636473
1367.8448021621177
870.9565150804348
678.9020901133508
620.3081980436826
561.668768927563
507.09484612180154
469.61076352284397
452.370411723719
476.9405571725558
490.7276721079548
710.8075107658992
460.29908989167836
492.9965116780945
649.3055611622924
762.1382297712175
915.9141017529497
1091.9470989335196
1271.513654980573
1458.4435890323389
1626.5728733912856
1638.1171703628115
1778.2008145458317
1636.801622063585
1624.9885122669623
1456.1442097783806
1267.8287512955749
1086.2284505682617
907.0579769134517
749.2309911698767
634.8837306659575
481.0061201531167
464.513661596195
318.726814502787
460.0623666168182
830.859255215213
1185.5756953586429
1536.1338854764422
1890.237350250303
2241.786517046976
2581.411215450021
2915.95389914309
3089.2610818866497
2914.242739376849
3088.2407463443615
2914.7517292036687
2579.2754624406825
2238.5391976013766
1885.7488999170048
1530.6057143708667
1180.3135410733312
828.3827365882092
457.9157314138818
320.46318777735354
326.284277241883
529.6105082230381
1077.8326770306028
1642.4227035064607
2167.632234551421
2680.820501737604
3187.897049989885
3677.380931081182
4077.6580199652567
4477.142804920418
4476.920059324173
4477.163840141488
4077.107621389956
3675.874103389525
3185.4386952362597
2677.568234814686
2164.633132093939
1642.3312866837211
1083.6009717509467
537.1920767574414
332.8575119835529
1438.6038094808764
908.3113000098975
1128.0697073848096
1568.3060300281047
2057.4518397443485
2542.5647219155217
3024.9996826419833
3526.26178379374
4090.493331846052
4689.553903310163
5014.127588527403
4688.371435425997
4087.9218052503347
3521.9301212681557
3018.310097960236
2532.611999886949
2042.8845204257414
1547.7031216887879
1091.8629078632912
839.2257319475791
1321.355966019583
1124.8107565343812
478.1181403276621
784.7678153730487
1136.4308446230298
1473.7378206138271
1808.8327339888724
2143.3386383164097
2487.928246747359
2876.315963124996
3316.6807653850815
3604.257807739851
3315.2955920469713
2873.26038588036
2482.8908021927386
2135.9345297231635
1798.5155744471188
1459.8929813867173
1118.1303087850088
762.1528752369737
477.83360870681827
1067.7907494689218
809.8070990089147
413.10846080474704
542.5481342690315
729.6706384351528
899.718176916263
1065.954103809059
1230.5201433966351
1390.8364958542422
1599.873727370851
1968.1007002907925
2348.4955213756557
1967.1576125080746
1597.3153702166624
1386.4803375619613
1224.4761156609582
1058.3750269610784
891.0207367336362
721.9735026681036
544.4075819239486
447.0436634533922
795.4834285020339
584.6157777243534
478.0754214005821
481.61505885337453
473.97258331029263
489.66929892009614
517.2035288523952
558.2667324178276
607.2474661905475
690.9426590264632
899.4400472835362
1790.0550643208785
899.4649018380575
692.2324039096129
609.1349044617658
561.1592141971128
521.8440746884864
497.4178946740728
486.97809856727855
503.79132154485757
494.8536746294738
571.1405426128806
403.0658695356226
474.2589254858736
619.3794482843182
721.8620099176205
869.3853455270366
1041.7168630090334
1224.8995499144933
1435.333479756139
1653.8986320523923
1649.8774222154464
2001.2028311979159
1652.7360554528482
1659.0723224650085
1443.2857637496604
1235.7692247342238
1055.4424266980495
885.8113197703854
739.7235095610652
633.2026881486906
476.8357597576475
388.1434605110154
308.30934198307267
446.9485022686117
788.4285541484077
1111.0932244951287
1440.800449735144
1783.0579998269648
2133.0455058317402
2490.2856834590166
2885.3419861776024
3137.6714944382866
3077.628039477002
3140.5839962971154
2891.2963724400415
2499.293383708198
2145.0610231161527
1797.4434858298785
1456.0167966062854
1123.7317481795278
793.8643674612599
444.30682389900016
293.393589927361
322.87439526238916
506.037440712545
1013.6800218876238
1533.294706651768
2026.04215261417
2517.9670330033077
3014.921296506002
3514.5105965296234
3946.7562226731625
4561.271985907918
4829.992506338034
4564.827135106872
3954.04366263748
3525.4047940819646
3029.2363219458084
2534.639745430839
2042.4492234113093
1544.6492504057676
1016.4583395856055
504.39885245748985
312.99050061390574
1440.2776910493906
907.6672057379959
1109.2663667492727
1536.6741043651305
2017.5311603702708
2495.181385666339
2975.1198222601515
3487.82648564834
4084.881238695759
4730.793431460943
5082.488170872353
4728.582562308017
4080.0990712657976
3479.7785441191163
2962.555619077395
2475.924716709752
1988.0962830308158
1491.9761482151216
1036.8495136452077
788.0871515214358
1256.2408824323586
1108.597081713655
472.5926107804832
776.7595417574057
1120.5029638048945
1452.3185171119947
1783.356639156662
2117.998263918843
2472.672638551537
2885.0853151266924
3356.9383378321004
3664.656260843574
3354.5779457967255
2879.870846826155
2463.9840624652647
2104.9383646237507
1764.4494876292847
1425.4100873491475
1082.6449872497087
730.1518616436028
451.13792948416693
1014.7783889548712
786.796195937287
388.4540972311413
536.2331510272628
724.4710167848738
893.3766152658944
1058.2263894594712
1224.2042641004875
1392.386999244668
1618.322790604468
2006.4777705019555
2403.3541901438634
2004.928482252617
1614.1544080364608
1385.2265400343267
1214.0703380157756
1045.030097020706
877.1647401787998
708.2737128473634
532.6273846618819
432.97320625247914
744.8429170874715
557.0234191699902
455.23528530300433
469.996764638153
473.8923492564749
495.30313918157736
526.0267710980798
571.219365958031
629.8922247329842
728.3720217579674
876.0644823454086
1881.5822055640292
876.9020018420752
730.8670770999736
633.2867730028781
576.255196384729
534.2258159089339
508.9857186363001
496.30160874504685
506.202995198502
482.8665563271017
521.2065987607635
376.7144289386487
454.0989350844593
597.9437147376501
701.213662463613
849.0081332841171
1022.0352142545929
1209.095356452631
1430.0666871304693
1667.6322404081152
1678.1505520634191
2021.2567791284832
1682.3683001912561
1675.3829610709017
1442.0558212415576
1225.950864059118
1044.1992531163564
876.8446121063577
732.982852109986
623.7116475431774
461.56377692609567
343.01138926974465
288.9495261685274
422.6474350576172
758.6352462304854
1077.4867155330403
1403.3524142883743
1743.537182077922
2096.3635934747927
2465.809958667446
2887.312290528018
3165.7402592477156
3078.7099727528343
3170.0266215306324
2895.9864844103104
2479.1093102302575
2114.522316566185
1765.950527120747
1427.994382867548
1098.9994430242295
768.6858738101122
419.6147831608698
260.71157561890357
292.9714522745724
466.9935788576366
970.5894038076516
1484.5806073691285
1969.7841336857332
2455.9992938485207
2953.1011711581236
3466.5651383145196
3930.5472929291277
4594.290966926015
4851.973592748734
4599.12154720916
3940.658067426392
3482.063044249433
2973.9796351458535
2480.961865734262
1994.9860693570624
1502.2925706779927
973.6731123946336
460.2943645485861
270.10785249643095
1438.6038094814505
908.3113000103647
1128.069707385189
1568.3060300283337
2057.451839744526
2542.5647219154116
3024.9996826421293
3526.2617837939974
4090.4933318463077
4689.553903310263
5014.127588527752
4688.3714354264275
4087.921805250708
3521.9301212682753
3018.310097960084
2532.6119998859513
2042.8845204253919
1547.7031216884652
1091.862907862912
839.2257319472061
1321.3559660190163
1124.8107565346077
478.11814032783565
784.7678153732891
1136.430844623186
1473.7378206140108
1808.8327339888476
2143.3386383165935
2487.928246747516
2876.3159631252183
3316.680765385256
3604.2578077401486
3315.2955920470845
2873.2603858809316
2482.89080219286
2135.934529723308
1798.515574446529
1459.8929813864327
1118.1303087848148
762.1528752367165
477.833608706589
1067.7907494684864
809.8070990089949
413.10846080470503
542.5481342690663
729.6706384352153
899.7181769162985
1065.954103809131
1230.5201433967763
1390.8364958541422
1599.8737273712052
1968.1007002909917
2348.4955213757685
1967.1576125080433
1597.315370217426
1386.4803375620463
1224.4761156615418
1058.375026960957
891.0207367334061
721.9735026679482
544.4075819237046
447.04366345320256
795.4834285016595
584.6157777244665
478.07542140058854
481.6150588533403
473.9725833101882
489.66929892003355
517.2035288524947
558.2667324178865
607.2474661901854
690.9426590267726
899.4400472836021
1790.0550643205318
899.4649018382488
692.2324039101569
609.1349044616315
561.1592141977113
521.8440746887148
497.41789467395375
486.9780985670496
503.79132154461104
494.85367462926075
571.1405426125366
403.06586953566824
474.25892548591787
619.3794482843554
721.8620099175417
869.3853455269438
1041.7168630091269
1224.899549914435
1435.3334797559683
1653.8986320522552
1649.8774222153718
2001.2028311974848
1652.7360554528832
1659.0723224651717
1443.2857637494005
1235.769224734512
1055.442426697485
885.8113197701525
739.7235095608423
633.2026881484304
476.83575975744714
388.14346051071624
308.3093419831011
446.9485022686634
788.4285541484769
1111.0932244951166
1440.80044973507
1783.0579998268029
2133.045505831703
2490.285683458724
2885.3419861777124
3137.6714944383625
3077.6280394767955
3140.583996297219
2891.296372440151
2499.2933837079454
2145.0610231161236
1797.4434858291115
1456.016796605966
1123.7317481792
793.8643674609824
444.3068238988366
293.3935899271809
322.87439526242713
506.03744071260803
1013.6800218877222
1533.294706651847
2026.042152614121
2517.967033002941
3014.9212965060124
3514.5105965292423
3946.7562226734576
4561.271985908119
4829.99250633794
4564.827135107016
3954.043662637714
3525.404794081741
3029.2363219455847
2534.6397454300018
2042.4492234108307
1544.6492504053385
1016.4583395852712
504.3988524572798
312.9905006137026
1549.1514046587142
915.0085216918003
1170.244147488755
1629.7862679301609
2144.124304038089
2662.1853301292017
3170.94020188264
3665.5218624383765
4145.222104029911
4573.790558488995
4783.793100423377
4575.110068429043
4147.957723330783
3670.043927670507
3178.113128610801
2673.6862164333916
2163.1723497281964
1661.5137937099428
1231.4244257421217
991.3297814969355
1624.1997606772084
1312.2790101970065
498.2452940764364
791.8821939250939
1158.7144983409255
1516.300215534298
1874.1972832849565
2226.15001371924
2565.2911503551572
2892.5661165581137
3202.9589291596567
3388.517809424972
3204.050923294975
2894.908312340754
2569.2479680757715
2232.431732341741
1884.1279550958207
1532.1762205709138
1184.9448849264652
830.8413361754
526.9530644105512
1336.4824847192228
1002.1269671120458
462.7985925598801
538.6917114304968
718.3021250977374
899.6355437993678
1079.8755930787024
1256.6197234202004
1420.325121151653
1589.254525216664
1833.9189824240511
2084.192132020505
1834.7037805056912
1591.08550469413
1423.4119952224974
1261.2449455338183
1086.610282488419
909.5186776871485
731.6037108317724
549.20347210842
437.9364285183667
1003.3597376837215
707.7217134379903
514.3414235590492
497.9855261659722
462.7681453898345
474.44541645419355
508.96963300531337
562.4121306242013
620.8630854540099
679.8020361789361
871.5039468643794
1367.8448021629144
870.956515080807
678.9020901132152
620.3081980439616
561.6687689276125
507.09484612169575
469.61076352281106
452.37041172348006
476.94055717227224
490.7276721076599
710.8075107652293
460.2990898917681
492.99651167801113
649.3055611621785
762.138229771033
915.9141017528349
1091.9470989332199
1271.513654980383
1458.443589031486
1626.572873390858
1638.1171703629684
1778.2008145460409
1636.8016220638942
1624.9885122670153
1456.1442097785118
1267.8287512951497
1086.2284505680711
907.057976913157
749.230991169302
634.8837306655997
481.0061201528511
464.51366159571296
318.7268145028638
460.0623666168445
830.8592552152309
1185.575695358514
1536.1338854763787
1890.2373502502232
2241.7865170467035
2581.4112154491336
2915.953899142735
3089.261081886624
2914.242739376822
3088.2407463447266
2914.751729203619
2579.275462440501
2238.539197600839
1885.7488999163759
1530.605714370257
1180.3135410725827
828.3827365877833
457.9157314136262
320.4631877770573
326.2842772420142
529.610508223174
1077.8326770307133
1642.4227035063736
2167.632234551457
2680.8205017377513
3187.897049989527
3677.380931080287
4077.658019964724
4477.142804920422
4476.920059324769
4477.163840141854
4077.107621389577
3675.874103389241
3185.4386952356977
2677.568234813635
2164.6331320930058
1642.3312866827862
1083.6009717503646
537.1920767570496
332.85751198323135
2376.1451633281563
1089.8489904491917
1178.6893442871794
1631.3612386676018
2176.55488202479
2726.712473525583
3268.659559853696
3783.4660478812134
4220.30155888672
4491.882039805129
4563.042719062936
4495.356326113022
4227.692772166877
3796.021499991474
3288.5857579689873
2757.333767963511
2222.1226378705464
1698.1824506448893
1277.250159811061
1283.1477173362016
2567.627936161659
2017.248938210078
634.5594019899912
839.4615009243705
1202.4478598289797
1567.096467375075
1936.3528306756593
2303.396403153463
2656.8629749178453
2962.4678673520957
3151.5130950171974
3186.89729201957
3154.6892705603213
2969.226626054701
2668.260439804077
2321.122444268891
1962.6803341386692
1604.6043931134566
1252.9317813934106
897.4913684299952
670.8413604201016
2098.340141094266
1487.1717782336489
785.2506992056847
773.951810341861
912.419587148136
1059.9715593570177
1218.2181766515635
1387.364102413388
1567.8558445574488
1739.118008965058
1826.934949410857
1795.327101327786
1829.0723886957594
1743.376946394679
1574.7797094026266
1397.6699439392003
1232.3198263509805
1076.8745743207091
925.626081237405
767.865723116848
735.6393436701692
1526.0965470033861
1014.9657315383516
863.0929636355588
901.9896277456777
851.7831133342091
828.9437467766899
810.0085315847625
821.4039550853008
890.4575453913203
1036.9598106014207
1152.7930430356957
1091.1186097617597
1151.2353272500047
1034.669135430444
885.662707010259
812.072330794308
794.1693914151294
805.1098396661424
817.6003785985098
858.6999717197884
836.5500022614459
1039.9444235881936
631.1516926588007
777.4010413552569
982.8304644135374
1047.685877725434
1150.3843287030443
1282.5863357167602
1423.5830027433424
1550.557849712663
1672.3682609011348
1882.3606503601497
2138.84515764199
1878.3715262799126
1664.177086063996
1536.928844534711
1403.7085035123207
1255.278172748287
1114.766573181079
1006.351190699243
949.6720447883665
766.9416738003029
644.4094339487883
384.0819367051284
612.9544208313882
1027.0581138234588
1362.878420310623
1686.7613058243533
2018.4446362137887
2348.301583149102
2660.6673599528763
2901.7147108098297
3133.8719307153465
3688.584145113133
3130.193804405698
2893.9519148467957
2647.7458171622475
2329.671168823555
1993.8782245697303
1657.9365298566447
1335.9580213550591
1012.1638809539851
610.5290351949701
388.05346187558916
331.5541025211435
590.6331267886313
1204.3578208272718
1789.1205208472074
2309.267954002409
2815.548360226434
3315.1626085391135
3788.730436427177
4245.6701461507355
4498.6845496795395
4910.849060169436
4496.150153053639
4237.956182009729
3775.851950882494
3296.802079317482
2792.3796509412773
2285.1039071249006
1772.821975158538
1204.4786483282696
598.3672329142325
339.4318715459887
SCALARS Statev float 1
LOOKUP_TABLE default
0.0
0.0
0.0
0.0
0.0
0.0
0.0
0.0
0.0
0.0
0.0
0.0
0.0
0.0
0.0
0.0
0.0
0.0
0.0
0.0
0.0
0.0
0.0
0.0
0.0
0.0
0.0
0.0
0.0
0.0
0.0
0.0
0.0
0.0
0.0
0.0
0.0
0.0
0.0
0.0
0.0
0.0
0.0
0.0
0.0
0.0
0.0
0.0
0.0
0.0
0.0
0.0
0.0
0.0
0.0
0.0
0.0
0.0
0.0
0.0
0.0
0.0
0.0
0.0
0.0
0.0
0.0
0.0
0.0
0.0
0.0
0.0
0.0
0.0
0.0
0.0
0.0
0.0
0.0
0.0
0.0
0.0
0.0
0.0
0.0
0.0
0.0
0.0
0.0
0.0
0.0
0.0
0.0
0.0
0.0
0.0
0.0
0.0
0.0
0.0
0.0
0.0
0.0
0.0
0.0
0.0
0.0
0.0
0.0
0.0
0.0
0.0
0.0
0.0
0.0
0.0
0.0
0.0
0.0
0.0
0.0
0.0
0.0
0.0
0.0
0.0
0.0
0.0
0.0
0.0
0.0
0.0
0.0
0.0
0.0
0.0
0.0
0.0
0.0
0.0
0.0
0.0
0.0
0.0
0.0
0.0
0.0
0.0
0.0
0.0
0.0
0.0
0.0
0.0
0.0
0.0
0.0
0.0
0.0
0.0
0.0
0.0
0.0
0.0
0.0
0.0
0.0
0.0
0.0
0.0
0.0
0.0
0.0
0.0
0.0
0.0
0.0
0.0
0.0
0.0
0.0
0.0
0.0
0.0
0.0
0.0
0.0
0.0
0.0
0.0
0.0
0.0
0.0
0.0
0.0
0.0
0.0
0.0
0.0
0.0
0.0
0.0
0.0
0.0
0.0
0.0
0.0
0.0
0.0
0.0
0.0
0.0
0.0
0.0
0.0
0.0
0.0
0.0
0.0
0.0
0.0
0.0
0.0
0.0
0.0
0.0
0.0
0.0
0.0
0.0
0.0
0.0
0.0
0.0
0.0
0.0
0.0
0.0
0.0
0.0
0.0
0.0
0.0
0.0
0.0
0.0
0.0
0.0
0.0
0.0
0.0
0.0
0.0
0.0
0.0
0.0
0.0
0.0
0.0
0.0
0.0
0.0
0.0
0.0
0.0
0.0
0.0
0.0
0.0
0.0
0.0
0.0
0.0
0.0
0.0
0.0
0.0
0.0
0.0
0.0
0.0
0.0
0.0
0.0
0.0
0.0
0.0
0.0
0.0
0.0
0.0
0.0
0.0
0.0
0.0
0.0
0.0
0.0
0.0
0.0
0.0
0.0
0.0
0.0
0.0
0.0
0.0
0.0
0.0
0.0
0.0
0.0
0.0
0.0
0.0
0.0
0.0
0.0
0.0
0.0
0.0
0.0
0.0
0.0
0.0
0.0
0.0
0.0
0.0
0.0
0.0
0.0
0.0
0.0
0.0
0.0
0.0
0.0
0.0
0.0
0.0
0.0
0.0
0.0
0.0
0.0
0.0
0.0
0.0
0.0
0.0
0.0
0.0
0.0
0.0
0.0
0.0
0.0
0.0
0.0
0.0
0.0
0.0
0.0
0.0
0.0
0.0
0.0
0.0
0.0
0.0
0.0
0.0
0.0
0.0
0.0
0.0
0.0
0.0
0.0
0.0
0.0
0.0
0.0
0.0
0.0
0.0
0.0
0.0
0.0
0.0
0.0
0.0
0.0
0.0
0.0
0.0
0.0
0.0
0.0
0.0
0.0
0.0
0.0
0.0
0.0
0.0
0.0
0.0
0.0
0.0
0.0
0.0
0.0
0.0
0.0
0.0
0.0
0.0
0.0
0.0
0.0
0.0
0.0
0.0
0.0
0.0
0.0
0.0
0.0
0.0
0.0
0.0
0.0
0.0
0.0
0.0
0.0
0.0
0.0
0.0
0.0
0.0
0.0
0.0
0.0
0.0
0.0
0.0
0.0
0.0
0.0
0.0
0.0
0.0
0.0
0.0
0.0
0.0
0.0
0.0
0.0
0.0
0.0
0.0
0.0
0.0
0.0
0.0
0.0
0.0
0.0
0.0
0.0
0.0
0.0
0.0
0.0
0.0
0.0
0.0
0.0
0.0
0.0
0.0
0.0
0.0
0.0
0.0
0.0
0.0
0.0
0.0
0.0
0.0
0.0
0.0
0.0
0.0
0.0
0.0
0.0
0.0
0.0
0.0
0.0
0.0
0.0
0.0
0.0
0.0
0.0
0.0
0.0
0.0
0.0
0.0
0.0
0.0
0.0
0.0
0.0
0.0
0.0
0.0
0.0
0.0
0.0
0.0
0.0
0.0
0.0
0.0
0.0
0.0
0.0
0.0
0.0
0.0
0.0
0.0
0.0
0.0
0.0
0.0
0.0
0.0
0.0
0.0
0.0
0.0
0.0
0.0
0.0
0.0
0.0
0.0
0.0
0.0
0.0
0.0
0.0
0.0
0.0
0.0
0.0
0.0
0.0
0.0
0.0
0.0
0.0
0.0
0.0
0.0
0.0
0.0
0.0
0.0
0.0
0.0
0.0
0.0
0.0
0.0
0.0
0.0
0.0
0.0
0.0
0.0
0.0
0.0
0.0
0.0
0.0
0.0
0.0
0.0
0.0
0.0
0.0
0.0
0.0
0.0
0.0
0.0
0.0
0.0
0.0
0.0
0.0
0.0
0.0
0.0
0.0
0.0
0.0
0.0
0.0
0.0
0.0
0.0
0.0
0.0
0.0
0.0
0.0
0.0
0.0
0.0
0.0
0.0
0.0
0.0
0.0
0.0
0.0
0.0
0.0
0.0
0.0
0.0
0.0
0.0
0.0
0.0
0.0
0.0
0.0
0.0
0.0
0.0
0.0
0.0
0.0
0.0
0.0
0.0
0.0
0.0
0.0
0.0
0.0
0.0
0.0
0.0
0.0
0.0
0.0
0.0
0.0
0.0
0.0
0.0
0.0
0.0
0.0
0.0
0.0
0.0
0.0
0.0
0.0
0.0
0.0
0.0
0.0
0.0
0.0
0.0
0.0
0.0
0.0
0.0
0.0
0.0
0.0
0.0
0.0
0.0
0.0
0.0
0.0
0.0
0.0
0.0
0.0
0.0
0.0
0.0
0.0
0.0
0.0
0.0
0.0
0.0
0.0
0.0
0.0
0.0
0.0
0.0
0.0
0.0
0.0
0.0
0.0
0.0
0.0
0.0
0.0
0.0
0.0
0.0
0.0
0.0
0.0
0.0
0.0
0.0
0.0
0.0
0.0
0.0
0.0
0.0
0.0
0.0
0.0
0.0
0.0
0.0
0.0
0.0
0.0
0.0
0.0
0.0
0.0
0.0
0.0
0.0
0.0
0.0
0.0
0.0
0.0
0.0
0.0
0.0
0.0
0.0
0.0
0.0
0.0
0.0
0.0
0.0
0.0
0.0
0.0
0.0
0.0
0.0
0.0
0.0
0.0
0.0
0.0
0.0
0.0
0.0
0.0
0.0
0.0
0.0
0.0
0.0
0.0
0.0
0.0
0.0
0.0
0.0
0.0
0.0
0.0
0.0
0.0
0.0
0.0
0.0
0.0
0.0
0.0
0.0
0.0
0.0
0.0
0.0
0.0
0.0
0.0
0.0
0.0
0.0
0.0
0.0
0.0
0.0
0.0
0.0
0.0
0.0
0.0
0.0
0.0
0.0
0.0
0.0
0.0
0.0
0.0
0.0
0.0
0.0
0.0
0.0
0.0
0.0
0.0
0.0
0.0
0.0
0.0
0.0
0.0
0.0
0.0
0.0
0.0
0.0
0.0
0.0
0.0
0.0
0.0
0.0
0.0
0.0
0.0
0.0
0.0
0.0
0.0
0.0
0.0
0.0
0.0
0.0
0.0
0.0
0.0
0.0
0.0
0.0
0.0
0.0
0.0
0.0
0.0
0.0
0.0
0.0
0.0
0.0
0.0
0.0
0.0
0.0
0.0
0.0
0.0
0.0
0.0
0.0
0.0
0.0
0.0
0.0
0.0
0.0
0.0
0.0
0.0
0.0
0.0
0.0
0.0
0.0
0.0
0.0
0.0
0.0
0.0
0.0
0.0
0.0
0.0
0.0
0.0
0.0
0.0
0.0
0.0
0.0
0.0
0.0
0.0
0.0
0.0
0.0
0.0
0.0
0.0
0.0
0.0
0.0
0.0
0.0
0.0
0.0
0.0
0.0
0.0
0.0
0.0
0.0
0.0
0.0
0.0
0.0
0.0
0.0
0.0
0.0
0.0
0.0
0.0
0.0
0.0
0.0
0.0
0.0
0.0
0.0
0.0
0.0
0.0
0.0
0.0
0.0
0.0
0.0
0.0
0.0
0.0
0.0
0.0
0.0
0.0
0.0
0.0
0.0
0.0
0.0
0.0
0.0
0.0
0.0
0.0
0.0
0.0
0.0
0.0
0.0
0.0
0.0
0.0
0.0
0.0
0.0
0.0
0.0
0.0
0.0
0.0
0.0
0.0
0.0
0.0
0.0
0.0
0.0
0.0
0.0
0.0
0.0
SCALARS Wm float 4
LOOKUP_TABLE default
30.31491052567176 30.31491052567176 0.0 0.0
5.4855354319545935 5.4855354319545935 0.0 0.0
6.535481789197464 6.535481789197464 0.0 0.0
13.682089242313124 13.682089242313124 0.0 0.0
24.135776618436584 24.135776618436584 0.0 0.0
38.03811472065951 38.03811472065951 0.0 0.0
54.77307549758176 54.77307549758176 0.0 0.0
73.49504490361423 73.49504490361423 0.0 0.0
91.50034683237399 91.50034683237399 0.0 0.0
103.94316109184828 103.94316109184828 0.0 0.0
107.94615195409696 107.94615195409696 0.0 0.0
104.10040543162602 104.10040543162602 0.0 0.0
91.81473848421531 91.81473848421531 0.0 0.0
73.9745776385021 73.9745776385021 0.0 0.0
55.43171883883527 55.43171883883527 0.0 0.0
38.88120463934627 38.88120463934627 0.0 0.0
25.13978499960568 25.13978499960568 0.0 0.0
14.782302453865125 14.782302453865125 0.0 0.0
7.7713308191261685 7.7713308191261685 0.0 0.0
8.659698949753682 8.659698949753682 0.0 0.0
29.04322082175643 29.04322082175643 0.0 0.0
22.504965612138584 22.504965612138584 0.0 0.0
0.6809607099169722 0.6809607099169722 0.0 0.0
3.0381756486772655 3.0381756486772655 0.0 0.0
6.494237320581068 6.494237320581068 0.0 0.0
11.147507475022238 11.147507475022238 0.0 0.0
17.192586612554543 17.192586612554543 0.0 0.0
24.504962900984136 24.504962900984136 0.0 0.0
32.752258794140474 32.752258794140474 0.0 0.0
40.848878259683836 40.848878259683836 0.0 0.0
46.59728989766368 46.59728989766368 0.0 0.0
48.4672543743144 48.4672543743144 0.0 0.0
46.69926705941319 46.69926705941319 0.0 0.0
41.0520476666965 41.0520476666965 0.0 0.0
33.05884438156627 33.05884438156627 0.0 0.0
24.916853413126034 24.916853413126034 0.0 0.0
17.704662193080427 17.704662193080427 0.0 0.0
11.733206738042153 11.733206738042153 0.0 0.0
7.108537265798465 7.108537265798465 0.0 0.0
3.4742125824094394 3.4742125824094394 0.0 0.0
0.7864050970044989 0.7864050970044989 0.0 0.0
23.637703778893517 23.637703778893517 0.0 0.0
12.51963899455033 12.51963899455033 0.0 0.0
1.8592772394857209 1.8592772394857209 0.0 0.0
2.6109083648962517 2.6109083648962517 0.0 0.0
3.3986014112467275 3.3986014112467275 0.0 0.0
4.701726172321836 4.701726172321836 0.0 0.0
6.208801831367885 6.208801831367885 0.0 0.0
8.057781194575883 8.057781194575883 0.0 0.0
10.344302962294913 10.344302962294913 0.0 0.0
12.831259217350171 12.831259217350171 0.0 0.0
14.486638992267025 14.486638992267025 0.0 0.0
14.95517942190419 14.95517942190419 0.0 0.0
14.528510905877537 14.528510905877537 0.0 0.0
12.910904809877206 12.910904809877206 0.0 0.0
10.45945206121897 10.45945206121897 0.0 0.0
8.204232779051706 8.204232779051706 0.0 0.0
6.376042451414848 6.376042451414848 0.0 0.0
4.869575500989299 4.869575500989299 0.0 0.0
3.4972673198471305 3.4972673198471305 0.0 0.0
2.5402396772521687 2.5402396772521687 0.0 0.0
1.5734043467983752 1.5734043467983752 0.0 0.0
13.0632323567995 13.0632323567995 0.0 0.0
5.774956412391571 5.774956412391571 0.0 0.0
2.697505486063084 2.697505486063084 0.0 0.0
3.362806267741586 3.362806267741586 0.0 0.0
3.0787860320566085 3.0787860320566085 0.0 0.0
3.0389085436423113 3.0389085436423113 0.0 0.0
2.9937047404001387 2.9937047404001387 0.0 0.0
2.9407120165791203 2.9407120165791203 0.0 0.0
3.040571198451381 3.040571198451381 0.0 0.0
3.5144640666514446 3.5144640666514446 0.0 0.0
4.037825967475477 4.037825967475477 0.0 0.0
4.380547196223692 4.380547196223692 0.0 0.0
4.023018983916613 4.023018983916613 0.0 0.0
3.479013386148437 3.479013386148437 0.0 0.0
2.9817216179164774 2.9817216179164774 0.0 0.0
2.853992553420263 2.853992553420263 0.0 0.0
2.8729124807770843 2.8729124807770843 0.0 0.0
2.8712240126158135 2.8712240126158135 0.0 0.0
2.8416955283332506 2.8416955283332506 0.0 0.0
3.091638098222748 3.091638098222748 0.0 0.0
2.4738894130576785 2.4738894130576785 0.0 0.0
6.078522423838026 6.078522423838026 0.0 0.0
2.1921580636389586 2.1921580636389586 0.0 0.0
2.4806546540858947 2.4806546540858947 0.0 0.0
3.9737078260972316 3.9737078260972316 0.0 0.0
4.679916995345806 4.679916995345806 0.0 0.0
5.642900016053637 5.642900016053637 0.0 0.0
6.97733079323586 6.97733079323586 0.0 0.0
8.556915186802113 8.556915186802113 0.0 0.0
10.09523520502434 10.09523520502434 0.0 0.0
11.823839471576184 11.823839471576184 0.0 0.0
14.535412104633357 14.535412104633357 0.0 0.0
16.2710064655512 16.2710064655512 0.0 0.0
14.468969962072888 14.468969962072888 0.0 0.0
11.687406785391586 11.687406785391586 0.0 0.0
9.888944280921198 9.888944280921198 0.0 0.0
8.283960229996522 8.283960229996522 0.0 0.0
6.646509918931081 6.646509918931081 0.0 0.0
5.27130945533051 5.27130945533051 0.0 0.0
4.313352543149211 4.313352543149211 0.0 0.0
3.7161315184747394 3.7161315184747394 0.0 0.0
2.3700267228663128 2.3700267228663128 0.0 0.0
2.306352115569254 2.306352115569254 0.0 0.0
0.7648953143665795 0.7648953143665795 0.0 0.0
1.8930672854892945 1.8930672854892945 0.0 0.0
4.703619589898911 4.703619589898911 0.0 0.0
8.417999912989657 8.417999912989657 0.0 0.0
13.04309292666393 13.04309292666393 0.0 0.0
18.777388483669046 18.777388483669046 0.0 0.0
25.490035621618862 25.490035621618862 0.0 0.0
32.80925710477412 32.80925710477412 0.0 0.0
38.454079712649495 38.454079712649495 0.0 0.0
46.90009282322277 46.90009282322277 0.0 0.0
51.01855346491659 51.01855346491659 0.0 0.0
46.782303331567554 46.782303331567554 0.0 0.0
38.22330277258163 38.22330277258163 0.0 0.0
32.46406320842864 32.46406320842864 0.0 0.0
25.055736461469188 25.055736461469188 0.0 0.0
18.291989813149673 18.291989813149673 0.0 0.0
12.57533583207059 12.57533583207059 0.0 0.0
8.06774424088575 8.06774424088575 0.0 0.0
4.541926851401148 4.541926851401148 0.0 0.0
1.8508838583924394 1.8508838583924394 0.0 0.0
0.7932047793449255 0.7932047793449255 0.0 0.0
0.4699908136211339 0.4699908136211339 0.0 0.0
2.043395724461595 2.043395724461595 0.0 0.0
7.418802988287063 7.418802988287063 0.0 0.0
16.2105489642636 16.2105489642636 0.0 0.0
27.157018184011154 27.157018184011154 0.0 0.0
40.494514364748724 40.494514364748724 0.0 0.0
56.185823873378126 56.185823873378126 0.0 0.0
73.74041129464375 73.74041129464375 0.0 0.0
91.6690122718808 91.6690122718808 0.0 0.0
108.82314115189064 108.82314115189064 0.0 0.0
93.56883865836386 93.56883865836386 0.0 0.0
108.67123313705868 108.67123313705868 0.0 0.0
91.3091665755825 91.3091665755825 0.0 0.0
73.21264766144873 73.21264766144873 0.0 0.0
55.54103697015218 55.54103697015218 0.0 0.0
39.81740142115206 39.81740142115206 0.0 0.0
26.59032564136948 26.59032564136948 0.0 0.0
15.91335947277792 15.91335947277792 0.0 0.0
7.391283888417537 7.391283888417537 0.0 0.0
2.0805855025287516 2.0805855025287516 0.0 0.0
0.4977692188632208 0.4977692188632208 0.0 0.0
11.283282770175134 11.283282770175134 0.0 0.0
4.65548772430833 4.65548772430833 0.0 0.0
6.914920890459539 6.914920890459539 0.0 0.0
13.932453828214982 13.932453828214982 0.0 0.0
23.88723021438951 23.88723021438951 0.0 0.0
36.87609131288489 36.87609131288489 0.0 0.0
52.442674013049 52.442674013049 0.0 0.0
70.42471374739222 70.42471374739222 0.0 0.0
90.64781079243595 90.64781079243595 0.0 0.0
110.5364851810567 110.5364851810567 0.0 0.0
120.08521200961337 120.08521200961337 0.0 0.0
110.59132257983583 110.59132257983583 0.0 0.0
90.75021526443305 90.75021526443305 0.0 0.0
70.57321956673741 70.57321956673741 0.0 0.0
52.64556662123323 52.64556662123323 0.0 0.0
37.14866829960931 37.14866829960931 0.0 0.0
24.252024322198366 24.252024322198366 0.0 0.0
14.39552018664899 14.39552018664899 0.0 0.0
7.570172978842876 7.570172978842876 0.0 0.0
5.56099755987435 5.56099755987435 0.0 0.0
10.997052560165278 10.997052560165278 0.0 0.0
9.048234334752074 9.048234334752074 0.0 0.0
0.7872562879565494 0.7872562879565494 0.0 0.0
2.918043796885002 2.918043796885002 0.0 0.0
6.350467020769454 6.350467020769454 0.0 0.0
10.872834052693646 10.872834052693646 0.0 0.0
16.6771366064537 16.6771366064537 0.0 0.0
23.630883628193196 23.630883628193196 0.0 0.0
31.548172912980217 31.548172912980217 0.0 0.0
40.29622999439777 40.29622999439777 0.0 0.0
49.07259570290516 49.07259570290516 0.0 0.0
53.7159011910081 53.7159011910081 0.0 0.0
49.10801963859546 49.10801963859546 0.0 0.0
40.363911133370074 40.363911133370074 0.0 0.0
31.647188021079888 31.647188021079888 0.0 0.0
23.763946309118346 23.763946309118346 0.0 0.0
16.850542799909057 16.850542799909057 0.0 0.0
11.09295895461495 11.09295895461495 0.0 0.0
6.631543354089975 6.631543354089975 0.0 0.0
3.1944372519739224 3.1944372519739224 0.0 0.0
0.9050293251155683 0.9050293251155683 0.0 0.0
9.104268757103638 9.104268757103638 0.0 0.0
5.436450878857759 5.436450878857759 0.0 0.0
0.6393169733059343 0.6393169733059343 0.0 0.0
1.2485065092442944 1.2485065092442944 0.0 0.0
2.1058802960929137 2.1058802960929137 0.0 0.0
3.3812003623184297 3.3812003623184297 0.0 0.0
4.899593937705543 4.899593937705543 0.0 0.0
6.687385604190931 6.687385604190931 0.0 0.0
8.617499956925874 8.617499956925874 0.0 0.0
10.896436821813255 10.896436821813255 0.0 0.0
14.368355026004584 14.368355026004584 0.0 0.0
17.483029283798555 17.483029283798555 0.0 0.0
14.38507742478064 14.38507742478064 0.0 0.0
10.929351378417458 10.929351378417458 0.0 0.0
8.665453796845194 8.665453796845194 0.0 0.0
6.748824419484139 6.748824419484139 0.0 0.0
4.972890192197023 4.972890192197023 0.0 0.0
3.4661373267285223 3.4661373267285223 0.0 0.0
2.1917679841024897 2.1917679841024897 0.0 0.0
1.2734214967024917 1.2734214967024917 0.0 0.0
0.5596878628686996 0.5596878628686996 0.0 0.0
5.389830618975724 5.389830618975724 0.0 0.0
2.7032001095579834 2.7032001095579834 0.0 0.0
0.8917197443790136 0.8917197443790136 0.0 0.0
1.090868463251082 1.090868463251082 0.0 0.0
0.9411706306137096 0.9411706306137096 0.0 0.0
0.9782060485222511 0.9782060485222511 0.0 0.0
1.067134902766952 1.067134902766952 0.0 0.0
1.1857221691007347 1.1857221691007347 0.0 0.0
1.2579089545679367 1.2579089545679367 0.0 0.0
1.3270776486911506 1.3270776486911506 0.0 0.0
2.4125656989081006 2.4125656989081006 0.0 0.0
5.901631855150634 5.901631855150634 0.0 0.0
2.409033896622661 2.409033896622661 0.0 0.0
1.325185154856861 1.325185154856861 0.0 0.0
1.2572149605748588 1.2572149605748588 0.0 0.0
1.182837095358886 1.182837095358886 0.0 0.0
1.0579453732836104 1.0579453732836104 0.0 0.0
0.9573786407395597 0.9573786407395597 0.0 0.0
0.8977115960141231 0.8977115960141231 0.0 0.0
1.0162177520983728 1.0162177520983728 0.0 0.0
0.7943005595103498 0.7943005595103498 0.0 0.0
2.7212235895341292 2.7212235895341292 0.0 0.0
1.11997574710444 1.11997574710444 0.0 0.0
0.9580519123614805 0.9580519123614805 0.0 0.0
1.7109420261513353 1.7109420261513353 0.0 0.0
2.4118560293484195 2.4118560293484195 0.0 0.0
3.495252586072498 3.495252586072498 0.0 0.0
5.003105324073768 5.003105324073768 0.0 0.0
6.8400431869774305 6.8400431869774305 0.0 0.0
9.111480092347527 9.111480092347527 0.0 0.0
11.26165600840387 11.26165600840387 0.0 0.0
11.884928463518285 11.884928463518285 0.0 0.0
18.006019064315655 18.006019064315655 0.0 0.0
11.860134174936302 11.860134174936302 0.0 0.0
11.227185753216796 11.227185753216796 0.0 0.0
9.06697397168409 9.06697397168409 0.0 0.0
6.784085580039829 6.784085580039829 0.0 0.0
4.935256129738501 4.935256129738501 0.0 0.0
3.415318722474952 3.415318722474952 0.0 0.0
2.3254056914706807 2.3254056914706807 0.0 0.0
1.6373082499689018 1.6373082499689018 0.0 0.0
0.9010793796316497 0.9010793796316497 0.0 0.0
1.1439374893835825 1.1439374893835825 0.0 0.0
0.49332790938600307 0.49332790938600307 0.0 0.0
1.0432967577751524 1.0432967577751524 0.0 0.0
3.137788806733206 3.137788806733206 0.0 0.0
6.534844019617251 6.534844019617251 0.0 0.0
11.120814542581272 11.120814542581272 0.0 0.0
16.94156383910328 16.94156383910328 0.0 0.0
23.927458233898726 23.927458233898726 0.0 0.0
31.787648051191614 31.787648051191614 0.0 0.0
41.32146584301872 41.32146584301872 0.0 0.0
43.88401387800315 43.88401387800315 0.0 0.0
56.616917527671774 56.616917527671774 0.0 0.0
43.840656387088465 43.840656387088465 0.0 0.0
41.259991460149436 41.259991460149436 0.0 0.0
31.703092425645877 31.703092425645877 0.0 0.0
23.825874373773264 23.825874373773264 0.0 0.0
16.83414707908816 16.83414707908816 0.0 0.0
11.02342934435209 11.02342934435209 0.0 0.0
6.468453844686151 6.468453844686151 0.0 0.0
3.1123689880409366 3.1123689880409366 0.0 0.0
1.0297382034773144 1.0297382034773144 0.0 0.0
0.5033643764539657 0.5033643764539657 0.0 0.0
0.4580725194690815 0.4580725194690815 0.0 0.0
1.6178207833969516 1.6178207833969516 0.0 0.0
6.102723650238179 6.102723650238179 0.0 0.0
13.9561100665781 13.9561100665781 0.0 0.0
24.35247732890486 24.35247732890486 0.0 0.0
37.32346422675969 37.32346422675969 0.0 0.0
52.95673236791203 52.95673236791203 0.0 0.0
70.38491996132711 70.38491996132711 0.0 0.0
87.82830785531745 87.82830785531745 0.0 0.0
99.65831587108072 99.65831587108072 0.0 0.0
149.52736258102584 149.52736258102584 0.0 0.0
99.62732344443931 99.62732344443931 0.0 0.0
87.74742680634753 87.74742680634753 0.0 0.0
70.26142428176611 70.26142428176611 0.0 0.0
52.808651011635796 52.808651011635796 0.0 0.0
37.17647993044988 37.17647993044988 0.0 0.0
24.24511194242981 24.24511194242981 0.0 0.0
13.929115433711441 13.929115433711441 0.0 0.0
6.147420601242639 6.147420601242639 0.0 0.0
1.6574262302304559 1.6574262302304559 0.0 0.0
0.4777954216162088 0.4777954216162088 0.0 0.0
8.001408937836693 8.001408937836693 0.0 0.0
5.202660763807685 5.202660763807685 0.0 0.0
6.629045946984352 6.629045946984352 0.0 0.0
13.113575656148232 13.113575656148232 0.0 0.0
22.385383984790195 22.385383984790195 0.0 0.0
34.34359269305203 34.34359269305203 0.0 0.0
48.99049686323187 48.99049686323187 0.0 0.0
67.38490898639742 67.38490898639742 0.0 0.0
91.82937517629959 91.82937517629959 0.0 0.0
120.61996203546592 120.61996203546592 0.0 0.0
135.91155895596407 135.91155895596407 0.0 0.0
120.55328916457064 120.55328916457064 0.0 0.0
91.7005442907518 91.7005442907518 0.0 0.0
67.19510722096044 67.19510722096044 0.0 0.0
48.73562027597549 48.73562027597549 0.0 0.0
34.021138314620444 34.021138314620444 0.0 0.0
21.999738694861534 21.999738694861534 0.0 0.0
12.690540415605637 12.690540415605637 0.0 0.0
6.119489953268538 6.119489953268538 0.0 0.0
4.05599800578769 4.05599800578769 0.0 0.0
7.8957788356216785 7.8957788356216785 0.0 0.0
6.7703698072469205 6.7703698072469205 0.0 0.0
0.8764425103938018 0.8764425103938018 0.0 0.0
2.9235939191208113 2.9235939191208113 0.0 0.0
6.204185697937702 6.204185697937702 0.0 0.0
10.418639641963306 10.418639641963306 0.0 0.0
15.790448987616267 15.790448987616267 0.0 0.0
22.34479371472011 22.34479371472011 0.0 0.0
30.418125369251975 30.418125369251975 0.0 0.0
40.946088934943404 40.946088934943404 0.0 0.0
53.62805643372325 53.62805643372325 0.0 0.0
61.10317284638705 61.10317284638705 0.0 0.0
53.582306768180366 53.582306768180366 0.0 0.0
40.85683231609924 40.85683231609924 0.0 0.0
30.288412942091092 30.288412942091092 0.0 0.0
22.176716776246735 22.176716776246735 0.0 0.0
15.587091867168816 15.587091867168816 0.0 0.0
10.189595050767757 10.189595050767757 0.0 0.0
5.957025050698108 5.957025050698108 0.0 0.0
2.7210791598934287 2.7210791598934287 0.0 0.0
0.8195825438623237 0.8195825438623237 0.0 0.0
6.5494751942748 6.5494751942748 0.0 0.0
3.7600946966435624 3.7600946966435624 0.0 0.0
0.6084962934162017 0.6084962934162017 0.0 0.0
1.2613943052185517 1.2613943052185517 0.0 0.0
2.229149758860262 2.229149758860262 0.0 0.0
3.454058563796164 3.454058563796164 0.0 0.0
4.864518060800073 4.864518060800073 0.0 0.0
6.514831239061187 6.514831239061187 0.0 0.0
8.381210367336408 8.381210367336408 0.0 0.0
11.217257329275592 11.217257329275592 0.0 0.0
16.60783195422599 16.60783195422599 0.0 0.0
21.87045919472584 21.87045919472584 0.0 0.0
16.589796533640627 16.589796533640627 0.0 0.0
11.179236339138418 11.179236339138418 0.0 0.0
8.325190985113617 8.325190985113617 0.0 0.0
6.444599792708321 6.444599792708321 0.0 0.0
4.786046089796025 4.786046089796025 0.0 0.0
3.3745247217769085 3.3745247217769085 0.0 0.0
2.1690444609540895 2.1690444609540895 0.0 0.0
1.274219552773334 1.274219552773334 0.0 0.0
0.6868777305748724 0.6868777305748724 0.0 0.0
3.777153941753124 3.777153941753124 0.0 0.0
1.9125186399175376 1.9125186399175376 0.0 0.0
0.8175111195821079 0.8175111195821079 0.0 0.0
1.0501464972097883 1.0501464972097883 0.0 0.0
1.0042736722625145 1.0042736722625145 0.0 0.0
1.0814828416977078 1.0814828416977078 0.0 0.0
1.1705938259068966 1.1705938259068966 0.0 0.0
1.2808541968094511 1.2808541968094511 0.0 0.0
1.3319314084556706 1.3319314084556706 0.0 0.0
1.5589618995349392 1.5589618995349392 0.0 0.0
3.5281500212135173 3.5281500212135173 0.0 0.0
9.95209970373553 9.95209970373553 0.0 0.0
3.539112002497478 3.539112002497478 0.0 0.0
1.5742578952593627 1.5742578952593627 0.0 0.0
1.3510092304984946 1.3510092304984946 0.0 0.0
1.3048614334922428 1.3048614334922428 0.0 0.0
1.2022260218932543 1.2022260218932543 0.0 0.0
1.1255625278520385 1.1255625278520385 0.0 0.0
1.070977182420551 1.070977182420551 0.0 0.0
1.1360067599943489 1.1360067599943489 0.0 0.0
0.88370194197738 0.88370194197738 0.0 0.0
1.8781164534863801 1.8781164534863801 0.0 0.0
0.8462255069617385 0.8462255069617385 0.0 0.0
0.8966946317763151 0.8966946317763151 0.0 0.0
1.588435338794167 1.588435338794167 0.0 0.0
2.194796092303264 2.194796092303264 0.0 0.0
3.1796672766032112 3.1796672766032112 0.0 0.0
4.591858684171522 4.591858684171522 0.0 0.0
6.403741465917853 6.403741465917853 0.0 0.0
8.912728627179892 8.912728627179892 0.0 0.0
11.599148422097024 11.599148422097024 0.0 0.0
12.488672105227264 12.488672105227264 0.0 0.0
24.851562711017344 24.851562711017344 0.0 0.0
12.528315515769034 12.528315515769034 0.0 0.0
11.667848343206073 11.667848343206073 0.0 0.0
9.005833576083836 9.005833576083836 0.0 0.0
6.5145379081619055 6.5145379081619055 0.0 0.0
4.714174136287536 4.714174136287536 0.0 0.0
3.305869183382474 3.305869183382474 0.0 0.0
2.3111204604245352 2.3111204604245352 0.0 0.0
1.6655432606929887 1.6655432606929887 0.0 0.0
0.9205098871604128 0.9205098871604128 0.0 0.0
0.8044146848410622 0.8044146848410622 0.0 0.0
0.4357900639486449 0.4357900639486449 0.0 0.0
0.974459776621637 0.974459776621637 0.0 0.0
2.8341733676438263 2.8341733676438263 0.0 0.0
5.795269404337161 5.795269404337161 0.0 0.0
9.90659992287022 9.90659992287022 0.0 0.0
15.30810985793495 15.30810985793495 0.0 0.0
22.065699663967198 22.065699663967198 0.0 0.0
30.209417348086145 30.209417348086145 0.0 0.0
41.63359103146281 41.63359103146281 0.0 0.0
44.94384076654501 44.94384076654501 0.0 0.0
72.32253941009228 72.32253941009228 0.0 0.0
45.01310712718794 45.01310712718794 0.0 0.0
41.76179401602154 41.76179401602154 0.0 0.0
30.381214218915133 30.381214218915133 0.0 0.0
22.264465892997702 22.264465892997702 0.0 0.0
15.509386253642301 15.509386253642301 0.0 0.0
10.080012019711598 10.080012019711598 0.0 0.0
5.908486973825488 5.908486973825488 0.0 0.0
2.8765134507161894 2.8765134507161894 0.0 0.0
0.9754619846326466 0.9754619846326466 0.0 0.0
0.4008543390771162 0.4008543390771162 0.0 0.0
0.4365958386542643 0.4365958386542643 0.0 0.0
1.476754140663304 1.476754140663304 0.0 0.0
5.444643225707617 5.444643225707617 0.0 0.0
12.370180104671265 12.370180104671265 0.0 0.0
21.703143337594582 21.703143337594582 0.0 0.0
33.68195064042123 33.68195064042123 0.0 0.0
48.65274794104999 48.65274794104999 0.0 0.0
66.17853439050712 66.17853439050712 0.0 0.0
85.5404604002371 85.5404604002371 0.0 0.0
104.28569170167074 104.28569170167074 0.0 0.0
194.59031484407853 194.59031484407853 0.0 0.0
104.39232492221907 104.39232492221907 0.0 0.0
85.74533451110092 85.74533451110092 0.0 0.0
66.4521725768498 66.4521725768498 0.0 0.0
48.96168688141061 48.96168688141061 0.0 0.0
33.97889180890331 33.97889180890331 0.0 0.0
21.9260264756768 21.9260264756768 0.0 0.0
12.466704238207162 12.466704238207162 0.0 0.0
5.443560160361581 5.443560160361581 0.0 0.0
1.462326889653187 1.462326889653187 0.0 0.0
0.40984664591934683 0.40984664591934683 0.0 0.0
7.781983593289338 7.781983593289338 0.0 0.0
5.352754320863318 5.352754320863318 0.0 0.0
6.525048255488894 6.525048255488894 0.0 0.0
12.769139280174542 12.769139280174542 0.0 0.0
21.829265409760044 21.829265409760044 0.0 0.0
33.60243793548808 33.60243793548808 0.0 0.0
48.273625121598705 48.273625121598705 0.0 0.0
67.33652200261217 67.33652200261217 0.0 0.0
93.64879489070375 93.64879489070375 0.0 0.0
125.36288488797607 125.36288488797607 0.0 0.0
142.3217576952296 142.3217576952296 0.0 0.0
125.24306015568384 125.24306015568384 0.0 0.0
93.42173996717459 93.42173996717459 0.0 0.0
67.00717722387414 67.00717722387414 0.0 0.0
47.83210809236289 47.83210809236289 0.0 0.0
33.03464892105676 33.03464892105676 0.0 0.0
21.131808319391855 21.131808319391855 0.0 0.0
11.974188776917034 11.974188776917034 0.0 0.0
5.628278883001744 5.628278883001744 0.0 0.0
3.626238225839873 3.626238225839873 0.0 0.0
7.262467069194977 7.262467069194977 0.0 0.0
6.425421598378098 6.425421598378098 0.0 0.0
0.8783362300090448 0.8783362300090448 0.0 0.0
2.9069506072806472 2.9069506072806472 0.0 0.0
6.097633840662814 6.097633840662814 0.0 0.0
10.22327638527712 10.22327638527712 0.0 0.0
15.527107086639885 15.527107086639885 0.0 0.0
22.113091554124683 22.113091554124683 0.0 0.0
30.498318537782435 30.498318537782435 0.0 0.0
41.82460139695312 41.82460139695312 0.0 0.0
55.69444067860861 55.69444067860861 0.0 0.0
63.8548575623585 63.8548575623585 0.0 0.0
55.61425321064889 55.61425321064889 0.0 0.0
41.67052496009704 41.67052496009704 0.0 0.0
30.276356854124288 30.276356854124288 0.0 0.0
21.824124692616273 21.824124692616273 0.0 0.0
15.170366855056383 15.170366855056383 0.0 0.0
9.806029246359959 9.806029246359959 0.0 0.0
5.636317574348654 5.636317574348654 0.0 0.0
2.5225667465507997 2.5225667465507997 0.0 0.0
0.7181578140470188 0.7181578140470188 0.0 0.0
6.078108017547641 6.078108017547641 0.0 0.0
3.5858516357874004 3.5858516357874004 0.0 0.0
0.535268306239004 0.535268306239004 0.0 0.0
1.2347255943717943 1.2347255943717943 0.0 0.0
2.2192415578628295 2.2192415578628295 0.0 0.0
3.4397715404560887 3.4397715404560887 0.0 0.0
4.847809790593628 4.847809790593628 0.0 0.0
6.527118655291172 6.527118655291172 0.0 0.0
8.513348126030342 8.513348126030342 0.0 0.0
11.63796363307124 11.63796363307124 0.0 0.0
17.459455612050775 17.459455612050775 0.0 0.0
22.993925256096766 22.993925256096766 0.0 0.0
17.427152613572716 17.427152613572716 0.0 0.0
11.572374135012435 11.572374135012435 0.0 0.0
8.417960081857679 8.417960081857679 0.0 0.0
6.407167146481158 6.407167146481158 0.0 0.0
4.710865567612389 4.710865567612389 0.0 0.0
3.2950287140928216 3.2950287140928216 0.0 0.0
2.1007423967581427 2.1007423967581427 0.0 0.0
1.2259880927797544 1.2259880927797544 0.0 0.0
0.6334770209562824 0.6334770209562824 0.0 0.0
3.4534442896985067 3.4534442896985067 0.0 0.0
1.778695537039985 1.778695537039985 0.0 0.0
0.7319651944260582 0.7319651944260582 0.0 0.0
0.9903797882306725 0.9903797882306725 0.0 0.0
0.985267397098162 0.985267397098162 0.0 0.0
1.0904511393411573 1.0904511393411573 0.0 0.0
1.2002433197569329 1.2002433197569329 0.0 0.0
1.3407174628717673 1.3407174628717673 0.0 0.0
1.454091742923612 1.454091742923612 0.0 0.0
1.8070097109875936 1.8070097109875936 0.0 0.0
3.92030163472814 3.92030163472814 0.0 0.0
10.570892110275347 10.570892110275347 0.0 0.0
3.936944765205896 3.936944765205896 0.0 0.0
1.8310303919837532 1.8310303919837532 0.0 0.0
1.4839088315038738 1.4839088315038738 0.0 0.0
1.379173821254085 1.379173821254085 0.0 0.0
1.2531574932648817 1.2531574932648817 0.0 0.0
1.1658853044610094 1.1658853044610094 0.0 0.0
1.096683837393764 1.096683837393764 0.0 0.0
1.1268066810134345 1.1268066810134345 0.0 0.0
0.8367536925951183 0.8367536925951183 0.0 0.0
1.646133734823591 1.646133734823591 0.0 0.0
0.7520472419064183 0.7520472419064183 0.0 0.0
0.8155720169663182 0.8155720169663182 0.0 0.0
1.4773948930017964 1.4773948930017964 0.0 0.0
2.0771798547543425 2.0771798547543425 0.0 0.0
3.0526357558805843 3.0526357558805843 0.0 0.0
4.456706335326493 4.456706335326493 0.0 0.0
6.296430633848017 6.296430633848017 0.0 0.0
8.930393563080532 8.930393563080532 0.0 0.0
11.882766108281357 11.882766108281357 0.0 0.0
12.936916686046875 12.936916686046875 0.0 0.0
25.944726966828995 25.944726966828995 0.0 0.0
13.001206064142972 13.001206064142972 0.0 0.0
11.993400865101526 11.993400865101526 0.0 0.0
9.078492024188279 9.078492024188279 0.0 0.0
6.474543146061807 6.474543146061807 0.0 0.0
4.658422521206869 4.658422521206869 0.0 0.0
3.2672019771432885 3.2672019771432885 0.0 0.0
2.2791646793197247 2.2791646793197247 0.0 0.0
1.6126499128174292 1.6126499128174292 0.0 0.0
0.8626349851889022 0.8626349851889022 0.0 0.0
0.6544763388136035 0.6544763388136035 0.0 0.0
0.38029419849562257 0.38029419849562257 0.0 0.0
0.8757888275721389 0.8757888275721389 0.0 0.0
2.6369364213927886 2.6369364213927886 0.0 0.0
5.496581883552966 5.496581883552966 0.0 0.0
9.496581961460716 9.496581961460716 0.0 0.0
14.8081871065763 14.8081871065763 0.0 0.0
21.58889901266173 21.58889901266173 0.0 0.0
30.025601211811956 30.025601211811956 0.0 0.0
42.305991066634384 42.305991066634384 0.0 0.0
46.07130013120972 46.07130013120972 0.0 0.0
75.12139749395593 75.12139749395593 0.0 0.0
46.18188080003596 46.18188080003596 0.0 0.0
42.506353229418465 42.506353229418465 0.0 0.0
30.292531036945366 30.292531036945366 0.0 0.0
21.900917799312907 21.900917799312907 0.0 0.0
15.130395984566347 15.130395984566347 0.0 0.0
9.782501334859393 9.782501334859393 0.0 0.0
5.6908892838557446 5.6908892838557446 0.0 0.0
2.7133627364035187 2.7133627364035187 0.0 0.0
0.8817308241070159 0.8817308241070159 0.0 0.0
0.31566372196248454 0.31566372196248454 0.0 0.0
0.35853165722937136 0.35853165722937136 0.0 0.0
1.302030678290733 1.302030678290733 0.0 0.0
5.077423980405172 5.077423980405172 0.0 0.0
11.768314760986682 11.768314760986682 0.0 0.0
20.83583754249809 20.83583754249809 0.0 0.0
32.58986802260141 32.58986802260141 0.0 0.0
47.566091977369254 47.566091977369254 0.0 0.0
65.72218144347995 65.72218144347995 0.0 0.0
86.82257751697077 86.82257751697077 0.0 0.0
107.24108099216785 107.24108099216785 0.0 0.0
202.86110749800525 202.86110749800525 0.0 0.0
107.39796025981954 107.39796025981954 0.0 0.0
87.12877623556825 87.12877623556825 0.0 0.0
66.13527244189315 66.13527244189315 0.0 0.0
48.03925583129671 48.03925583129671 0.0 0.0
33.05299200322946 33.05299200322946 0.0 0.0
21.191352407987846 21.191352407987846 0.0 0.0
11.926783419022266 11.926783419022266 0.0 0.0
5.071288956812492 5.071288956812492 0.0 0.0
1.2666026757802946 1.2666026757802946 0.0 0.0
0.30332118868596364 0.30332118868596364 0.0 0.0
8.001408937836286 8.001408937836286 0.0 0.0
5.202660763807067 5.202660763807067 0.0 0.0
6.629045946983898 6.629045946983898 0.0 0.0
13.113575656147738 13.113575656147738 0.0 0.0
22.385383984790064 22.385383984790064 0.0 0.0
34.34359269305209 34.34359269305209 0.0 0.0
48.990496863231314 48.990496863231314 0.0 0.0
67.38490898639681 67.38490898639681 0.0 0.0
91.82937517629816 91.82937517629816 0.0 0.0
120.61996203546478 120.61996203546478 0.0 0.0
135.9115589559618 135.9115589559618 0.0 0.0
120.55328916456833 120.55328916456833 0.0 0.0
91.70054429075044 91.70054429075044 0.0 0.0
67.19510722096015 67.19510722096015 0.0 0.0
48.735620275976174 48.735620275976174 0.0 0.0
34.02113831462256 34.02113831462256 0.0 0.0
21.99973869486279 21.99973869486279 0.0 0.0
12.690540415606234 12.690540415606234 0.0 0.0
6.119489953268868 6.119489953268868 0.0 0.0
4.055998005788048 4.055998005788048 0.0 0.0
7.8957788356222975 7.8957788356222975 0.0 0.0
6.770369807246752 6.770369807246752 0.0 0.0
0.8764425103937087 0.8764425103937087 0.0 0.0
2.923593919120603 2.923593919120603 0.0 0.0
6.204185697937592 6.204185697937592 0.0 0.0
10.418639641963104 10.418639641963104 0.0 0.0
15.79044898761618 15.79044898761618 0.0 0.0
22.34479371471991 22.34479371471991 0.0 0.0
30.418125369251666 30.418125369251666 0.0 0.0
40.94608893494285 40.94608893494285 0.0 0.0
53.62805643372254 53.62805643372254 0.0 0.0
61.1031728463865 61.1031728463865 0.0 0.0
53.58230676817933 53.58230676817933 0.0 0.0
40.856832316098256 40.856832316098256 0.0 0.0
30.288412942091135 30.288412942091135 0.0 0.0
22.17671677624664 22.17671677624664 0.0 0.0
15.587091867169653 15.587091867169653 0.0 0.0
10.189595050768133 10.189595050768133 0.0 0.0
5.957025050698496 5.957025050698496 0.0 0.0
2.721079159893633 2.721079159893633 0.0 0.0
0.8195825438624131 0.8195825438624131 0.0 0.0
6.5494751942752725 6.5494751942752725 0.0 0.0
3.7600946966434683 3.7600946966434683 0.0 0.0
0.6084962934162145 0.6084962934162145 0.0 0.0
1.2613943052185235 1.2613943052185235 0.0 0.0
2.2291497588602325 2.2291497588602325 0.0 0.0
3.454058563796149 3.454058563796149 0.0 0.0
4.864518060799901 4.864518060799901 0.0 0.0
6.514831239061024 6.514831239061024 0.0 0.0
8.38121036733623 8.38121036733623 0.0 0.0
11.217257329275172 11.217257329275172 0.0 0.0
16.607831954225404 16.607831954225404 0.0 0.0
21.870459194725665 21.870459194725665 0.0 0.0
16.589796533640634 16.589796533640634 0.0 0.0
11.17923633913724 11.17923633913724 0.0 0.0
8.325190985113615 8.325190985113615 0.0 0.0
6.444599792707827 6.444599792707827 0.0 0.0
4.78604608979643 4.78604608979643 0.0 0.0
3.3745247217770813 3.3745247217770813 0.0 0.0
2.169044460954292 2.169044460954292 0.0 0.0
1.2742195527734443 1.2742195527734443 0.0 0.0
0.6868777305749519 0.6868777305749519 0.0 0.0
3.77715394175347 3.77715394175347 0.0 0.0
1.9125186399174547 1.9125186399174547 0.0 0.0
0.8175111195821195 0.8175111195821195 0.0 0.0
1.0501464972098162 1.0501464972098162 0.0 0.0
1.0042736722625223 1.0042736722625223 0.0 0.0
1.0814828416977462 1.0814828416977462 0.0 0.0
1.1705938259068953 1.1705938259068953 0.0 0.0
1.2808541968091798 1.2808541968091798 0.0 0.0
1.3319314084557594 1.3319314084557594 0.0 0.0
1.5589618995348553 1.5589618995348553 0.0 0.0
3.528150021213523 3.528150021213523 0.0 0.0
9.952099703735882 9.952099703735882 0.0 0.0
3.5391120024974643 3.5391120024974643 0.0 0.0
1.574257895258781 1.574257895258781 0.0 0.0
1.3510092304986063 1.3510092304986063 0.0 0.0
1.3048614334918631 1.3048614334918631 0.0 0.0
1.2022260218936291 1.2022260218936291 0.0 0.0
1.1255625278520833 1.1255625278520833 0.0 0.0
1.070977182420658 1.070977182420658 0.0 0.0
1.1360067599944415 1.1360067599944415 0.0 0.0
0.8837019419774667 0.8837019419774667 0.0 0.0
1.8781164534865535 1.8781164534865535 0.0 0.0
0.8462255069616902 0.8462255069616902 0.0 0.0
0.8966946317762992 0.8966946317762992 0.0 0.0
1.5884353387941443 1.5884353387941443 0.0 0.0
2.1947960923032626 2.1947960923032626 0.0 0.0
3.1796672766034773 3.1796672766034773 0.0 0.0
4.5918586841715365 4.5918586841715365 0.0 0.0
6.403741465917862 6.403741465917862 0.0 0.0
8.912728627179993 8.912728627179993 0.0 0.0
11.5991484220969 11.5991484220969 0.0 0.0
12.488672105227616 12.488672105227616 0.0 0.0
24.851562711017344 24.851562711017344 0.0 0.0
12.528315515768886 12.528315515768886 0.0 0.0
11.667848343205819 11.667848343205819 0.0 0.0
9.005833576083601 9.005833576083601 0.0 0.0
6.514537908161685 6.514537908161685 0.0 0.0
4.714174136287915 4.714174136287915 0.0 0.0
3.3058691833826535 3.3058691833826535 0.0 0.0
2.311120460424642 2.311120460424642 0.0 0.0
1.6655432606931648 1.6655432606931648 0.0 0.0
0.920509887160494 0.920509887160494 0.0 0.0
0.8044146848411589 0.8044146848411589 0.0 0.0
0.4357900639486221 0.4357900639486221 0.0 0.0
0.9744597766216153 0.9744597766216153 0.0 0.0
2.834173367643754 2.834173367643754 0.0 0.0
5.795269404337242 5.795269404337242 0.0 0.0
9.906599922870264 9.906599922870264 0.0 0.0
15.308109857935197 15.308109857935197 0.0 0.0
22.065699663967592 22.065699663967592 0.0 0.0
30.209417348086443 30.209417348086443 0.0 0.0
41.63359103146237 41.63359103146237 0.0 0.0
44.943840766545726 44.943840766545726 0.0 0.0
72.32253941009158 72.32253941009158 0.0 0.0
45.013107127187844 45.013107127187844 0.0 0.0
41.761794016021184 41.761794016021184 0.0 0.0
30.381214218915634 30.381214218915634 0.0 0.0
22.264465892997936 22.264465892997936 0.0 0.0
15.509386253643402 15.509386253643402 0.0 0.0
10.080012019712107 10.080012019712107 0.0 0.0
5.908486973825831 5.908486973825831 0.0 0.0
2.876513450716392 2.876513450716392 0.0 0.0
0.9754619846327243 0.9754619846327243 0.0 0.0
0.40085433907717094 0.40085433907717094 0.0 0.0
0.4365958386542466 0.4365958386542466 0.0 0.0
1.476754140663276 1.476754140663276 0.0 0.0
5.4446432257074635 5.4446432257074635 0.0 0.0
12.37018010467126 12.37018010467126 0.0 0.0
21.703143337594927 21.703143337594927 0.0 0.0
33.68195064042195 33.68195064042195 0.0 0.0
48.65274794105049 48.65274794105049 0.0 0.0
66.17853439050783 66.17853439050783 0.0 0.0
85.54046040023638 85.54046040023638 0.0 0.0
104.28569170167061 104.28569170167061 0.0 0.0
194.59031484407777 194.59031484407777 0.0 0.0
104.39232492221862 104.39232492221862 0.0 0.0
85.74533451109994 85.74533451109994 0.0 0.0
66.4521725768501 66.4521725768501 0.0 0.0
48.96168688141168 48.96168688141168 0.0 0.0
33.978891808905296 33.978891808905296 0.0 0.0
21.926026475678274 21.926026475678274 0.0 0.0
12.466704238207976 12.466704238207976 0.0 0.0
5.443560160361902 5.443560160361902 0.0 0.0
1.4623268896532946 1.4623268896532946 0.0 0.0
0.409846645919406 0.409846645919406 0.0 0.0
11.28328277017539 11.28328277017539 0.0 0.0
4.655487724307088 4.655487724307088 0.0 0.0
6.914920890458762 6.914920890458762 0.0 0.0
13.93245382821419 13.93245382821419 0.0 0.0
23.88723021438838 23.88723021438838 0.0 0.0
36.876091312883425 36.876091312883425 0.0 0.0
52.442674013048254 52.442674013048254 0.0 0.0
70.42471374739297 70.42471374739297 0.0 0.0
90.64781079243684 90.64781079243684 0.0 0.0
110.53648518105287 110.53648518105287 0.0 0.0
120.08521200961036 120.08521200961036 0.0 0.0
110.59132257983357 110.59132257983357 0.0 0.0
90.7502152644314 90.7502152644314 0.0 0.0
70.57321956673795 70.57321956673795 0.0 0.0
52.645566621234515 52.645566621234515 0.0 0.0
37.148668299611394 37.148668299611394 0.0 0.0
24.252024322200654 24.252024322200654 0.0 0.0
14.395520186650607 14.395520186650607 0.0 0.0
7.570172978843894 7.570172978843894 0.0 0.0
5.560997559875092 5.560997559875092 0.0 0.0
10.997052560167058 10.997052560167058 0.0 0.0
9.048234334752 9.048234334752 0.0 0.0
0.7872562879563435 0.7872562879563435 0.0 0.0
2.9180437968846475 2.9180437968846475 0.0 0.0
6.350467020769038 6.350467020769038 0.0 0.0
10.872834052693053 10.872834052693053 0.0 0.0
16.67713660645297 16.67713660645297 0.0 0.0
23.630883628192542 23.630883628192542 0.0 0.0
31.548172912980707 31.548172912980707 0.0 0.0
40.296229994397216 40.296229994397216 0.0 0.0
49.072595702903136 49.072595702903136 0.0 0.0
53.715901191006246 53.715901191006246 0.0 0.0
49.10801963859376 49.10801963859376 0.0 0.0
40.36391113336967 40.36391113336967 0.0 0.0
31.647188021080133 31.647188021080133 0.0 0.0
23.76394630911927 23.76394630911927 0.0 0.0
16.850542799909814 16.850542799909814 0.0 0.0
11.092958954615826 11.092958954615826 0.0 0.0
6.631543354090685 6.631543354090685 0.0 0.0
3.1944372519742283 3.1944372519742283 0.0 0.0
0.905029325115643 0.905029325115643 0.0 0.0
9.104268757105126 9.104268757105126 0.0 0.0
5.436450878857748 5.436450878857748 0.0 0.0
0.6393169733060021 0.6393169733060021 0.0 0.0
1.2485065092442398 1.2485065092442398 0.0 0.0
2.105880296092735 2.105880296092735 0.0 0.0
3.3812003623180735 3.3812003623180735 0.0 0.0
4.899593937705092 4.899593937705092 0.0 0.0
6.687385604190678 6.687385604190678 0.0 0.0
8.617499956925998 8.617499956925998 0.0 0.0
10.896436821813413 10.896436821813413 0.0 0.0
14.368355026003002 14.368355026003002 0.0 0.0
17.483029283797784 17.483029283797784 0.0 0.0
14.385077424779606 14.385077424779606 0.0 0.0
10.929351378417676 10.929351378417676 0.0 0.0
8.665453796845027 8.665453796845027 0.0 0.0
6.748824419484091 6.748824419484091 0.0 0.0
4.972890192197224 4.972890192197224 0.0 0.0
3.466137326728701 3.466137326728701 0.0 0.0
2.191767984102793 2.191767984102793 0.0 0.0
1.2734214967025517 1.2734214967025517 0.0 0.0
0.5596878628687821 0.5596878628687821 0.0 0.0
5.389830618976626 5.389830618976626 0.0 0.0
2.7032001095579035 2.7032001095579035 0.0 0.0
0.891719744379104 0.891719744379104 0.0 0.0
1.090868463251132 1.090868463251132 0.0 0.0
0.9411706306137166 0.9411706306137166 0.0 0.0
0.9782060485221787 0.9782060485221787 0.0 0.0
1.0671349027669306 1.0671349027669306 0.0 0.0
1.1857221691008306 1.1857221691008306 0.0 0.0
1.2579089545683257 1.2579089545683257 0.0 0.0
1.3270776486910192 1.3270776486910192 0.0 0.0
2.4125656989074367 2.4125656989074367 0.0 0.0
5.901631855149885 5.901631855149885 0.0 0.0
2.4090338966219833 2.4090338966219833 0.0 0.0
1.3251851548571396 1.3251851548571396 0.0 0.0
1.2572149605744714 1.2572149605744714 0.0 0.0
1.182837095358879 1.182837095358879 0.0 0.0
1.0579453732833535 1.0579453732833535 0.0 0.0
0.9573786407396856 0.9573786407396856 0.0 0.0
0.8977115960142714 0.8977115960142714 0.0 0.0
1.0162177520984088 1.0162177520984088 0.0 0.0
0.7943005595104745 0.7943005595104745 0.0 0.0
2.7212235895346084 2.7212235895346084 0.0 0.0
1.1199757471043688 1.1199757471043688 0.0 0.0
0.958051912361517 0.958051912361517 0.0 0.0
1.710942026151395 1.710942026151395 0.0 0.0
2.411856029348607 2.411856029348607 0.0 0.0
3.495252586072533 3.495252586072533 0.0 0.0
5.0031053240738625 5.0031053240738625 0.0 0.0
6.840043186977726 6.840043186977726 0.0 0.0
9.11148009234838 9.11148009234838 0.0 0.0
11.261656008404612 11.261656008404612 0.0 0.0
11.88492846351751 11.88492846351751 0.0 0.0
18.006019064314664 18.006019064314664 0.0 0.0
11.860134174936034 11.860134174936034 0.0 0.0
11.227185753217116 11.227185753217116 0.0 0.0
9.066973971683774 9.066973971683774 0.0 0.0
6.784085580040437 6.784085580040437 0.0 0.0
4.935256129738438 4.935256129738438 0.0 0.0
3.4153187224753165 3.4153187224753165 0.0 0.0
2.325405691471022 2.325405691471022 0.0 0.0
1.6373082499690672 1.6373082499690672 0.0 0.0
0.9010793796317721 0.9010793796317721 0.0 0.0
1.1439374893838077 1.1439374893838077 0.0 0.0
0.49332790938596105 0.49332790938596105 0.0 0.0
1.0432967577751566 1.0432967577751566 0.0 0.0
3.13778880673326 3.13778880673326 0.0 0.0
6.534844019617354 6.534844019617354 0.0 0.0
11.120814542581357 11.120814542581357 0.0 0.0
16.941563839103235 16.941563839103235 0.0 0.0
23.92745823389951 23.92745823389951 0.0 0.0
31.787648051192914 31.787648051192914 0.0 0.0
41.321465843019226 41.321465843019226 0.0 0.0
43.88401387800329 43.88401387800329 0.0 0.0
56.61691752766843 56.61691752766843 0.0 0.0
43.84065638708822 43.84065638708822 0.0 0.0
41.25999146014941 41.25999146014941 0.0 0.0
31.7030924256466 31.7030924256466 0.0 0.0
23.825874373774205 23.825874373774205 0.0 0.0
16.8341470790891 16.8341470790891 0.0 0.0
11.023429344353262 11.023429344353262 0.0 0.0
6.468453844686907 6.468453844686907 0.0 0.0
3.112368988041276 3.112368988041276 0.0 0.0
1.0297382034774327 1.0297382034774327 0.0 0.0
0.5033643764540648 0.5033643764540648 0.0 0.0
0.45807251946905286 0.45807251946905286 0.0 0.0
1.6178207833968894 1.6178207833968894 0.0 0.0
6.1027236502381115 6.1027236502381115 0.0 0.0
13.95611006657811 13.95611006657811 0.0 0.0
24.352477328904783 24.352477328904783 0.0 0.0
37.32346422675939 37.32346422675939 0.0 0.0
52.95673236791297 52.95673236791297 0.0 0.0
70.38491996132962 70.38491996132962 0.0 0.0
87.82830785531982 87.82830785531982 0.0 0.0
99.6583158710809 99.6583158710809 0.0 0.0
149.52736258101515 149.52736258101515 0.0 0.0
99.62732344443909 99.62732344443909 0.0 0.0
87.74742680634905 87.74742680634905 0.0 0.0
70.26142428176661 70.26142428176661 0.0 0.0
52.80865101163832 52.80865101163832 0.0 0.0
37.17647993045223 37.17647993045223 0.0 0.0
24.245111942432178 24.245111942432178 0.0 0.0
13.929115433712917 13.929115433712917 0.0 0.0
6.147420601243365 6.147420601243365 0.0 0.0
1.6574262302306706 1.6574262302306706 0.0 0.0
0.4777954216163046 0.4777954216163046 0.0 0.0
30.31491052567392 30.31491052567392 0.0 0.0
5.4855354319522895 5.4855354319522895 0.0 0.0
6.535481789196325 6.535481789196325 0.0 0.0
13.682089242311875 13.682089242311875 0.0 0.0
24.135776618435212 24.135776618435212 0.0 0.0
38.0381147206586 38.0381147206586 0.0 0.0
54.7730754975819 54.7730754975819 0.0 0.0
73.49504490361412 73.49504490361412 0.0 0.0
91.50034683237286 91.50034683237286 0.0 0.0
103.94316109184683 103.94316109184683 0.0 0.0
107.94615195409185 107.94615195409185 0.0 0.0
104.10040543162205 104.10040543162205 0.0 0.0
91.81473848421409 91.81473848421409 0.0 0.0
73.97457763850264 73.97457763850264 0.0 0.0
55.43171883883659 55.43171883883659 0.0 0.0
38.881204639348915 38.881204639348915 0.0 0.0
25.13978499960826 25.13978499960826 0.0 0.0
14.782302453867217 14.782302453867217 0.0 0.0
7.771330819127382 7.771330819127382 0.0 0.0
8.659698949755068 8.659698949755068 0.0 0.0
29.04322082176237 29.04322082176237 0.0 0.0
22.504965612137923 22.504965612137923 0.0 0.0
0.6809607099168211 0.6809607099168211 0.0 0.0
3.0381756486768143 3.0381756486768143 0.0 0.0
6.494237320580407 6.494237320580407 0.0 0.0
11.147507475021483 11.147507475021483 0.0 0.0
17.192586612553868 17.192586612553868 0.0 0.0
24.504962900983664 24.504962900983664 0.0 0.0
32.75225879414083 32.75225879414083 0.0 0.0
40.84887825968339 40.84887825968339 0.0 0.0
46.597289897661895 46.597289897661895 0.0 0.0
48.46725437431234 48.46725437431234 0.0 0.0
46.69926705941081 46.69926705941081 0.0 0.0
41.05204766669586 41.05204766669586 0.0 0.0
33.05884438156639 33.05884438156639 0.0 0.0
24.91685341312699 24.91685341312699 0.0 0.0
17.7046621930813 17.7046621930813 0.0 0.0
11.733206738043346 11.733206738043346 0.0 0.0
7.108537265799231 7.108537265799231 0.0 0.0
3.474212582409938 3.474212582409938 0.0 0.0
0.7864050970045624 0.7864050970045624 0.0 0.0
23.6377037788984 23.6377037788984 0.0 0.0
12.519638994549698 12.519638994549698 0.0 0.0
1.8592772394858985 1.8592772394858985 0.0 0.0
2.6109083648962486 2.6109083648962486 0.0 0.0
3.3986014112466316 3.3986014112466316 0.0 0.0
4.701726172321786 4.701726172321786 0.0 0.0
6.208801831368033 6.208801831368033 0.0 0.0
8.057781194575663 8.057781194575663 0.0 0.0
10.344302962294966 10.344302962294966 0.0 0.0
12.831259217350265 12.831259217350265 0.0 0.0
14.486638992266169 14.486638992266169 0.0 0.0
14.955179421902535 14.955179421902535 0.0 0.0
14.528510905876553 14.528510905876553 0.0 0.0
12.910904809877106 12.910904809877106 0.0 0.0
10.45945206121845 10.45945206121845 0.0 0.0
8.204232779051685 8.204232779051685 0.0 0.0
6.376042451415246 6.376042451415246 0.0 0.0
4.86957550098971 4.86957550098971 0.0 0.0
3.497267319847569 3.497267319847569 0.0 0.0
2.540239677252614 2.540239677252614 0.0 0.0
1.5734043467985686 1.5734043467985686 0.0 0.0
13.063232356802065 13.063232356802065 0.0 0.0
5.774956412391115 5.774956412391115 0.0 0.0
2.697505486063113 2.697505486063113 0.0 0.0
3.3628062677416746 3.3628062677416746 0.0 0.0
3.0787860320568354 3.0787860320568354 0.0 0.0
3.0389085436426195 3.0389085436426195 0.0 0.0
2.9937047404004815 2.9937047404004815 0.0 0.0
2.940712016579497 2.940712016579497 0.0 0.0
3.0405711984517225 3.0405711984517225 0.0 0.0
3.514464066651748 3.514464066651748 0.0 0.0
4.037825967475455 4.037825967475455 0.0 0.0
4.380547196223654 4.380547196223654 0.0 0.0
4.023018983916463 4.023018983916463 0.0 0.0
3.4790133861479933 3.4790133861479933 0.0 0.0
2.9817216179162114 2.9817216179162114 0.0 0.0
2.8539925534201673 2.8539925534201673 0.0 0.0
2.872912480777075 2.872912480777075 0.0 0.0
2.871224012616025 2.871224012616025 0.0 0.0
2.841695528333593 2.841695528333593 0.0 0.0
3.0916380982233376 3.0916380982233376 0.0 0.0
2.4738894130580373 2.4738894130580373 0.0 0.0
6.078522423839149 6.078522423839149 0.0 0.0
2.1921580636387925 2.1921580636387925 0.0 0.0
2.480654654085835 2.480654654085835 0.0 0.0
3.973707826097324 3.973707826097324 0.0 0.0
4.679916995345923 4.679916995345923 0.0 0.0
5.6429000160540115 5.6429000160540115 0.0 0.0
6.9773307932364 6.9773307932364 0.0 0.0
8.556915186802572 8.556915186802572 0.0 0.0
10.095235205025002 10.095235205025002 0.0 0.0
11.8238394715762 11.8238394715762 0.0 0.0
14.535412104634753 14.535412104634753 0.0 0.0
16.27100646555206 16.27100646555206 0.0 0.0
14.468969962073754 14.468969962073754 0.0 0.0
11.687406785391103 11.687406785391103 0.0 0.0
9.888944280921313 9.888944280921313 0.0 0.0
8.283960229996346 8.283960229996346 0.0 0.0
6.646509918931363 6.646509918931363 0.0 0.0
5.271309455331026 5.271309455331026 0.0 0.0
4.313352543149716 4.313352543149716 0.0 0.0
3.716131518475344 3.716131518475344 0.0 0.0
2.37002672286666 2.37002672286666 0.0 0.0
2.3063521155696556 2.3063521155696556 0.0 0.0
0.7648953143665403 0.7648953143665403 0.0 0.0
1.8930672854892077 1.8930672854892077 0.0 0.0
4.703619589898899 4.703619589898899 0.0 0.0
8.417999912989714 8.417999912989714 0.0 0.0
13.043092926664242 13.043092926664242 0.0 0.0
18.77738848366965 18.77738848366965 0.0 0.0
25.490035621619928 25.490035621619928 0.0 0.0
32.80925710477549 32.80925710477549 0.0 0.0
38.45407971265043 38.45407971265043 0.0 0.0
46.90009282322423 46.90009282322423 0.0 0.0
51.01855346491905 51.01855346491905 0.0 0.0
46.78230333156876 46.78230333156876 0.0 0.0
38.223302772581604 38.223302772581604 0.0 0.0
32.46406320842955 32.46406320842955 0.0 0.0
25.055736461469692 25.055736461469692 0.0 0.0
18.291989813151037 18.291989813151037 0.0 0.0
12.575335832071744 12.575335832071744 0.0 0.0
8.067744240886817 8.067744240886817 0.0 0.0
4.541926851401808 4.541926851401808 0.0 0.0
1.8508838583927472 1.8508838583927472 0.0 0.0
0.793204779345053 0.793204779345053 0.0 0.0
0.46999081362110123 0.46999081362110123 0.0 0.0
2.0433957244614493 2.0433957244614493 0.0 0.0
7.41880298828683 7.41880298828683 0.0 0.0
16.21054896426322 16.21054896426322 0.0 0.0
27.15701818401123 27.15701818401123 0.0 0.0
40.49451436474917 40.49451436474917 0.0 0.0
56.18582387338017 56.18582387338017 0.0 0.0
73.7404112946465 73.7404112946465 0.0 0.0
91.66901227188363 91.66901227188363 0.0 0.0
108.82314115189314 108.82314115189314 0.0 0.0
93.56883865836394 93.56883865836394 0.0 0.0
108.67123313705846 108.67123313705846 0.0 0.0
91.30916657558335 91.30916657558335 0.0 0.0
73.21264766145094 73.21264766145094 0.0 0.0
55.54103697015471 55.54103697015471 0.0 0.0
39.81740142115492 39.81740142115492 0.0 0.0
26.59032564137226 26.59032564137226 0.0 0.0
15.913359472780098 15.913359472780098 0.0 0.0
7.391283888418718 7.391283888418718 0.0 0.0
2.080585502529054 2.080585502529054 0.0 0.0
0.4977692188633003 0.4977692188633003 0.0 0.0