# vtk DataFile Version 3.0
Some data
ASCII
DATASET UNSTRUCTURED_GRID
POINTS 1029 float
0.0 0.0 0.0
0.8 0.0 0.0
1.6 0.0 0.0
2.4000000000000004 0.0 0.0
3.2 0.0 0.0
4.0 0.0 0.0
4.800000000000001 0.0 0.0
5.6000000000000005 0.0 0.0
6.4 0.0 0.0
7.2 0.0 0.0
8.0 0.0 0.0
8.8 0.0 0.0
9.600000000000001 0.0 0.0
10.4 0.0 0.0
11.200000000000001 0.0 0.0
12.0 0.0 0.0
12.8 0.0 0.0
13.600000000000001 0.0 0.0
14.4 0.0 0.0
15.200000000000001 0.0 0.0
16.0 0.0 0.0
0.0 0.3333333333333333 0.0
0.8 0.3333333333333333 0.0
1.6 0.3333333333333333 0.0
2.4000000000000004 0.3333333333333333 0.0
3.2 0.3333333333333333 0.0
4.0 0.3333333333333333 0.0
4.800000000000001 0.3333333333333333 0.0
5.6000000000000005 0.3333333333333333 0.0
6.4 0.3333333333333333 0.0
7.2 0.3333333333333333 0.0
8.0 0.3333333333333333 0.0
8.8 0.3333333333333333 0.0
9.600000000000001 0.3333333333333333 0.0
10.4 0.3333333333333333 0.0
11.200000000000001 0.3333333333333333 0.0
12.0 0.3333333333333333 0.0
12.8 0.3333333333333333 0.0
13.600000000000001 0.3333333333333333 0.0
14.4 0.3333333333333333 0.0
15.200000000000001 0.3333333333333333 0.0
16.0 0.3333333333333333 0.0
0.0 0.6666666666666666 0.0
0.8 0.6666666666666666 0.0
1.6 0.6666666666666666 0.0
2.4000000000000004 0.6666666666666666 0.0
3.2 0.6666666666666666 0.0
4.0 0.6666666666666666 0.0
4.800000000000001 0.6666666666666666 0.0
5.6000000000000005 0.6666666666666666 0.0
6.4 0.6666666666666666 0.0
7.2 0.6666666666666666 0.0
8.0 0.6666666666666666 0.0
8.8 0.6666666666666666 0.0
9.600000000000001 0.6666666666666666 0.0
10.4 0.6666666666666666 0.0
11.200000000000001 0.6666666666666666 0.0
12.0 0.6666666666666666 0.0
12.8 0.6666666666666666 0.0
13.600000000000001 0.6666666666666666 0.0
14.4 0.6666666666666666 0.0
15.200000000000001 0.6666666666666666 0.0
16.0 0.6666666666666666 0.0
0.0 1.0 0.0
0.8 1.0 0.0
1.6 1.0 0.0
2.4000000000000004 1.0 0.0
3.2 1.0 0.0
4.0 1.0 0.0
4.800000000000001 1.0 0.0
5.6000000000000005 1.0 0.0
6.4 1.0 0.0
7.2 1.0 0.0
8.0 1.0 0.0
8.8 1.0 0.0
9.600000000000001 1.0 0.0
10.4 1.0 0.0
11.200000000000001 1.0 0.0
12.0 1.0 0.0
12.8 1.0 0.0
13.600000000000001 1.0 0.0
14.4 1.0 0.0
15.200000000000001 1.0 0.0
16.0 1.0 0.0
0.0 1.3333333333333333 0.0
0.8 1.3333333333333333 0.0
1.6 1.3333333333333333 0.0
2.4000000000000004 1.3333333333333333 0.0
3.2 1.3333333333333333 0.0
4.0 1.3333333333333333 0.0
4.800000000000001 1.3333333333333333 0.0
5.6000000000000005 1.3333333333333333 0.0
6.4 1.3333333333333333 0.0
7.2 1.3333333333333333 0.0
8.0 1.3333333333333333 0.0
8.8 1.3333333333333333 0.0
9.600000000000001 1.3333333333333333 0.0
10.4 1.3333333333333333 0.0
11.200000000000001 1.3333333333333333 0.0
12.0 1.3333333333333333 0.0
12.8 1.3333333333333333 0.0
13.600000000000001 1.3333333333333333 0.0
14.4 1.3333333333333333 0.0
15.200000000000001 1.3333333333333333 0.0
16.0 1.3333333333333333 0.0
0.0 1.6666666666666665 0.0
0.8 1.6666666666666665 0.0
1.6 1.6666666666666665 0.0
2.4000000000000004 1.6666666666666665 0.0
3.2 1.6666666666666665 0.0
4.0 1.6666666666666665 0.0
4.800000000000001 1.6666666666666665 0.0
5.6000000000000005 1.6666666666666665 0.0
6.4 1.6666666666666665 0.0
7.2 1.6666666666666665 0.0
8.0 1.6666666666666665 0.0
8.8 1.6666666666666665 0.0
9.600000000000001 1.6666666666666665 0.0
10.4 1.6666666666666665 0.0
11.200000000000001 1.6666666666666665 0.0
12.0 1.6666666666666665 0.0
12.8 1.6666666666666665 0.0
13.600000000000001 1.6666666666666665 0.0
14.4 1.6666666666666665 0.0
15.200000000000001 1.6666666666666665 0.0
16.0 1.6666666666666665 0.0
0.0 2.0 0.0
0.8 2.0 0.0
1.6 2.0 0.0
2.4000000000000004 2.0 0.0
3.2 2.0 0.0
4.0 2.0 0.0
4.800000000000001 2.0 0.0
5.6000000000000005 2.0 0.0
6.4 2.0 0.0
7.2 2.0 0.0
8.0 2.0 0.0
8.8 2.0 0.0
9.600000000000001 2.0 0.0
10.4 2.0 0.0
11.200000000000001 2.0 0.0
12.0 2.0 0.0
12.8 2.0 0.0
13.600000000000001 2.0 0.0
14.4 2.0 0.0
15.200000000000001 2.0 0.0
16.0 2.0 0.0
0.0 0.0 1.6666666666666667
0.8 0.0 1.6666666666666667
1.6 0.0 1.6666666666666667
2.4000000000000004 0.0 1.6666666666666667
3.2 0.0 1.6666666666666667
4.0 0.0 1.6666666666666667
4.800000000000001 0.0 1.6666666666666667
5.6000000000000005 0.0 1.6666666666666667
6.4 0.0 1.6666666666666667
7.2 0.0 1.6666666666666667
8.0 0.0 1.6666666666666667
8.8 0.0 1.6666666666666667
9.600000000000001 0.0 1.6666666666666667
10.4 0.0 1.6666666666666667
11.200000000000001 0.0 1.6666666666666667
12.0 0.0 1.6666666666666667
12.8 0.0 1.6666666666666667
13.600000000000001 0.0 1.6666666666666667
14.4 0.0 1.6666666666666667
15.200000000000001 0.0 1.6666666666666667
16.0 0.0 1.6666666666666667
0.0 0.3333333333333333 1.6666666666666667
0.8 0.3333333333333333 1.6666666666666667
1.6 0.3333333333333333 1.6666666666666667
2.4000000000000004 0.3333333333333333 1.6666666666666667
3.2 0.3333333333333333 1.6666666666666667
4.0 0.3333333333333333 1.6666666666666667
4.800000000000001 0.3333333333333333 1.6666666666666667
5.6000000000000005 0.3333333333333333 1.6666666666666667
6.4 0.3333333333333333 1.6666666666666667
7.2 0.3333333333333333 1.6666666666666667
8.0 0.3333333333333333 1.6666666666666667
8.8 0.3333333333333333 1.6666666666666667
9.600000000000001 0.3333333333333333 1.6666666666666667
10.4 0.3333333333333333 1.6666666666666667
11.200000000000001 0.3333333333333333 1.6666666666666667
12.0 0.3333333333333333 1.6666666666666667
12.8 0.3333333333333333 1.6666666666666667
13.600000000000001 0.3333333333333333 1.6666666666666667
14.4 0.3333333333333333 1.6666666666666667
15.200000000000001 0.3333333333333333 1.6666666666666667
16.0 0.3333333333333333 1.6666666666666667
0.0 0.6666666666666666 1.6666666666666667
0.8 0.6666666666666666 1.6666666666666667
1.6 0.6666666666666666 1.6666666666666667
2.4000000000000004 0.6666666666666666 1.6666666666666667
3.2 0.6666666666666666 1.6666666666666667
4.0 0.6666666666666666 1.6666666666666667
4.800000000000001 0.6666666666666666 1.6666666666666667
5.6000000000000005 0.6666666666666666 1.6666666666666667
6.4 0.6666666666666666 1.6666666666666667
7.2 0.6666666666666666 1.6666666666666667
8.0 0.6666666666666666 1.6666666666666667
8.8 0.6666666666666666 1.6666666666666667
9.600000000000001 0.6666666666666666 1.6666666666666667
10.4 0.6666666666666666 1.6666666666666667
11.200000000000001 0.6666666666666666 1.6666666666666667
12.0 0.6666666666666666 1.6666666666666667
12.8 0.6666666666666666 1.6666666666666667
13.600000000000001 0.6666666666666666 1.6666666666666667
14.4 0.6666666666666666 1.6666666666666667
15.200000000000001 0.6666666666666666 1.6666666666666667
16.0 0.6666666666666666 1.6666666666666667
0.0 1.0 1.6666666666666667
0.8 1.0 1.6666666666666667
1.6 1.0 1.6666666666666667
2.4000000000000004 1.0 1.6666666666666667
3.2 1.0 1.6666666666666667
4.0 1.0 1.6666666666666667
4.800000000000001 1.0 1.6666666666666667
5.6000000000000005 1.0 1.6666666666666667
6.4 1.0 1.6666666666666667
7.2 1.0 1.6666666666666667
8.0 1.0 1.6666666666666667
8.8 1.0 1.6666666666666667
9.600000000000001 1.0 1.6666666666666667
10.4 1.0 1.6666666666666667
11.200000000000001 1.0 1.6666666666666667
12.0 1.0 1.6666666666666667
12.8 1.0 1.6666666666666667
13.600000000000001 1.0 1.6666666666666667
14.4 1.0 1.6666666666666667
15.200000000000001 1.0 1.6666666666666667
16.0 1.0 1.6666666666666667
0.0 1.3333333333333333 1.6666666666666667
0.8 1.3333333333333333 1.6666666666666667
1.6 1.3333333333333333 1.6666666666666667
2.4000000000000004 1.3333333333333333 1.6666666666666667
3.2 1.3333333333333333 1.6666666666666667
4.0 1.3333333333333333 1.6666666666666667
4.800000000000001 1.3333333333333333 1.6666666666666667
5.6000000000000005 1.3333333333333333 1.6666666666666667
6.4 1.3333333333333333 1.6666666666666667
7.2 1.3333333333333333 1.6666666666666667
8.0 1.3333333333333333 1.6666666666666667
8.8 1.3333333333333333 1.6666666666666667
9.600000000000001 1.3333333333333333 1.6666666666666667
10.4 1.3333333333333333 1.6666666666666667
11.200000000000001 1.3333333333333333 1.6666666666666667
12.0 1.3333333333333333 1.6666666666666667
12.8 1.3333333333333333 1.6666666666666667
13.600000000000001 1.3333333333333333 1.6666666666666667
14.4 1.3333333333333333 1.6666666666666667
15.200000000000001 1.3333333333333333 1.6666666666666667
16.0 1.3333333333333333 1.6666666666666667
0.0 1.6666666666666665 1.6666666666666667
0.8 1.6666666666666665 1.6666666666666667
1.6 1.6666666666666665 1.6666666666666667
2.4000000000000004 1.6666666666666665 1.6666666666666667
3.2 1.6666666666666665 1.6666666666666667
4.0 1.6666666666666665 1.6666666666666667
4.800000000000001 1.6666666666666665 1.6666666666666667
5.6000000000000005 1.6666666666666665 1.6666666666666667
6.4 1.6666666666666665 1.6666666666666667
7.2 1.6666666666666665 1.6666666666666667
8.0 1.6666666666666665 1.6666666666666667
8.8 1.6666666666666665 1.6666666666666667
9.600000000000001 1.6666666666666665 1.6666666666666667
10.4 1.6666666666666665 1.6666666666666667
11.200000000000001 1.6666666666666665 1.6666666666666667
12.0 1.6666666666666665 1.6666666666666667
12.8 1.6666666666666665 1.6666666666666667
13.600000000000001 1.6666666666666665 1.6666666666666667
14.4 1.6666666666666665 1.6666666666666667
15.200000000000001 1.6666666666666665 1.6666666666666667
16.0 1.6666666666666665 1.6666666666666667
0.0 2.0 1.6666666666666667
0.8 2.0 1.6666666666666667
1.6 2.0 1.6666666666666667
2.4000000000000004 2.0 1.6666666666666667
3.2 2.0 1.6666666666666667
4.0 2.0 1.6666666666666667
4.800000000000001 2.0 1.6666666666666667
5.6000000000000005 2.0 1.6666666666666667
6.4 2.0 1.6666666666666667
7.2 2.0 1.6666666666666667
8.0 2.0 1.6666666666666667
8.8 2.0 1.6666666666666667
9.600000000000001 2.0 1.6666666666666667
10.4 2.0 1.6666666666666667
11.200000000000001 2.0 1.6666666666666667
12.0 2.0 1.6666666666666667
12.8 2.0 1.6666666666666667
13.600000000000001 2.0 1.6666666666666667
14.4 2.0 1.6666666666666667
15.200000000000001 2.0 1.6666666666666667
16.0 2.0 1.6666666666666667
0.0 0.0 3.3333333333333335
0.8 0.0 3.3333333333333335
1.6 0.0 3.3333333333333335
2.4000000000000004 0.0 3.3333333333333335
3.2 0.0 3.3333333333333335
4.0 0.0 3.3333333333333335
4.800000000000001 0.0 3.3333333333333335
5.6000000000000005 0.0 3.3333333333333335
6.4 0.0 3.3333333333333335
7.2 0.0 3.3333333333333335
8.0 0.0 3.3333333333333335
8.8 0.0 3.3333333333333335
9.600000000000001 0.0 3.3333333333333335
10.4 0.0 3.3333333333333335
11.200000000000001 0.0 3.3333333333333335
12.0 0.0 3.3333333333333335
12.8 0.0 3.3333333333333335
13.600000000000001 0.0 3.3333333333333335
14.4 0.0 3.3333333333333335
15.200000000000001 0.0 3.3333333333333335
16.0 0.0 3.3333333333333335
0.0 0.3333333333333333 3.3333333333333335
0.8 0.3333333333333333 3.3333333333333335
1.6 0.3333333333333333 3.3333333333333335
2.4000000000000004 0.3333333333333333 3.3333333333333335
3.2 0.3333333333333333 3.3333333333333335
4.0 0.3333333333333333 3.3333333333333335
4.800000000000001 0.3333333333333333 3.3333333333333335
5.6000000000000005 0.3333333333333333 3.3333333333333335
6.4 0.3333333333333333 3.3333333333333335
7.2 0.3333333333333333 3.3333333333333335
8.0 0.3333333333333333 3.3333333333333335
8.8 0.3333333333333333 3.3333333333333335
9.600000000000001 0.3333333333333333 3.3333333333333335
10.4 0.3333333333333333 3.3333333333333335
11.200000000000001 0.3333333333333333 3.3333333333333335
12.0 0.3333333333333333 3.3333333333333335
12.8 0.3333333333333333 3.3333333333333335
13.600000000000001 0.3333333333333333 3.3333333333333335
14.4 0.3333333333333333 3.3333333333333335
15.200000000000001 0.3333333333333333 3.3333333333333335
16.0 0.3333333333333333 3.3333333333333335
0.0 0.6666666666666666 3.3333333333333335
0.8 0.6666666666666666 3.3333333333333335
1.6 0.6666666666666666 3.3333333333333335
2.4000000000000004 0.6666666666666666 3.3333333333333335
3.2 0.6666666666666666 3.3333333333333335
4.0 0.6666666666666666 3.3333333333333335
4.800000000000001 0.6666666666666666 3.3333333333333335
5.6000000000000005 0.6666666666666666 3.3333333333333335
6.4 0.6666666666666666 3.3333333333333335
7.2 0.6666666666666666 3.3333333333333335
8.0 0.6666666666666666 3.3333333333333335
8.8 0.6666666666666666 3.3333333333333335
9.600000000000001 0.6666666666666666 3.3333333333333335
10.4 0.6666666666666666 3.3333333333333335
11.200000000000001 0.6666666666666666 3.3333333333333335
12.0 0.6666666666666666 3.3333333333333335
12.8 0.6666666666666666 3.3333333333333335
13.600000000000001 0.6666666666666666 3.3333333333333335
14.4 0.6666666666666666 3.3333333333333335
15.200000000000001 0.6666666666666666 3.3333333333333335
16.0 0.6666666666666666 3.3333333333333335
0.0 1.0 3.3333333333333335
0.8 1.0 3.3333333333333335
1.6 1.0 3.3333333333333335
2.4000000000000004 1.0 3.3333333333333335
3.2 1.0 3.3333333333333335
4.0 1.0 3.3333333333333335
4.800000000000001 1.0 3.3333333333333335
5.6000000000000005 1.0 3.3333333333333335
6.4 1.0 3.3333333333333335
7.2 1.0 3.3333333333333335
8.0 1.0 3.3333333333333335
8.8 1.0 3.3333333333333335
9.600000000000001 1.0 3.3333333333333335
10.4 1.0 3.3333333333333335
11.200000000000001 1.0 3.3333333333333335
12.0 1.0 3.3333333333333335
12.8 1.0 3.3333333333333335
13.600000000000001 1.0 3.3333333333333335
14.4 1.0 3.3333333333333335
15.200000000000001 1.0 3.3333333333333335
16.0 1.0 3.3333333333333335
0.0 1.3333333333333333 3.3333333333333335
0.8 1.3333333333333333 3.3333333333333335
1.6 1.3333333333333333 3.3333333333333335
2.4000000000000004 1.3333333333333333 3.3333333333333335
3.2 1.3333333333333333 3.3333333333333335
4.0 1.3333333333333333 3.3333333333333335
4.800000000000001 1.3333333333333333 3.3333333333333335
5.6000000000000005 1.3333333333333333 3.3333333333333335
6.4 1.3333333333333333 3.3333333333333335
7.2 1.3333333333333333 3.3333333333333335
8.0 1.3333333333333333 3.3333333333333335
8.8 1.3333333333333333 3.3333333333333335
9.600000000000001 1.3333333333333333 3.3333333333333335
10.4 1.3333333333333333 3.3333333333333335
11.200000000000001 1.3333333333333333 3.3333333333333335
12.0 1.3333333333333333 3.3333333333333335
12.8 1.3333333333333333 3.3333333333333335
13.600000000000001 1.3333333333333333 3.3333333333333335
14.4 1.3333333333333333 3.3333333333333335
15.200000000000001 1.3333333333333333 3.3333333333333335
16.0 1.3333333333333333 3.3333333333333335
0.0 1.6666666666666665 3.3333333333333335
0.8 1.6666666666666665 3.3333333333333335
1.6 1.6666666666666665 3.3333333333333335
2.4000000000000004 1.6666666666666665 3.3333333333333335
3.2 1.6666666666666665 3.3333333333333335
4.0 1.6666666666666665 3.3333333333333335
4.800000000000001 1.6666666666666665 3.3333333333333335
5.6000000000000005 1.6666666666666665 3.3333333333333335
6.4 1.6666666666666665 3.3333333333333335
7.2 1.6666666666666665 3.3333333333333335
8.0 1.6666666666666665 3.3333333333333335
8.8 1.6666666666666665 3.3333333333333335
9.600000000000001 1.6666666666666665 3.3333333333333335
10.4 1.6666666666666665 3.3333333333333335
11.200000000000001 1.6666666666666665 3.3333333333333335
12.0 1.6666666666666665 3.3333333333333335
12.8 1.6666666666666665 3.3333333333333335
13.600000000000001 1.6666666666666665 3.3333333333333335
14.4 1.6666666666666665 3.3333333333333335
15.200000000000001 1.6666666666666665 3.3333333333333335
16.0 1.6666666666666665 3.3333333333333335
0.0 2.0 3.3333333333333335
0.8 2.0 3.3333333333333335
1.6 2.0 3.3333333333333335
2.4000000000000004 2.0 3.3333333333333335
3.2 2.0 3.3333333333333335
4.0 2.0 3.3333333333333335
4.800000000000001 2.0 3.3333333333333335
5.6000000000000005 2.0 3.3333333333333335
6.4 2.0 3.3333333333333335
7.2 2.0 3.3333333333333335
8.0 2.0 3.3333333333333335
8.8 2.0 3.3333333333333335
9.600000000000001 2.0 3.3333333333333335
10.4 2.0 3.3333333333333335
11.200000000000001 2.0 3.3333333333333335
12.0 2.0 3.3333333333333335
12.8 2.0 3.3333333333333335
13.600000000000001 2.0 3.3333333333333335
14.4 2.0 3.3333333333333335
15.200000000000001 2.0 3.3333333333333335
16.0 2.0 3.3333333333333335
0.0 0.0 5.0
0.8 0.0 5.0
1.6 0.0 5.0
2.4000000000000004 0.0 5.0
3.2 0.0 5.0
4.0 0.0 5.0
4.800000000000001 0.0 5.0
5.6000000000000005 0.0 5.0
6.4 0.0 5.0
7.2 0.0 5.0
8.0 0.0 5.0
8.8 0.0 5.0
9.600000000000001 0.0 5.0
10.4 0.0 5.0
11.200000000000001 0.0 5.0
12.0 0.0 5.0
12.8 0.0 5.0
13.600000000000001 0.0 5.0
14.4 0.0 5.0
15.200000000000001 0.0 5.0
16.0 0.0 5.0
0.0 0.3333333333333333 5.0
0.8 0.3333333333333333 5.0
1.6 0.3333333333333333 5.0
2.4000000000000004 0.3333333333333333 5.0
3.2 0.3333333333333333 5.0
4.0 0.3333333333333333 5.0
4.800000000000001 0.3333333333333333 5.0
5.6000000000000005 0.3333333333333333 5.0
6.4 0.3333333333333333 5.0
7.2 0.3333333333333333 5.0
8.0 0.3333333333333333 5.0
8.8 0.3333333333333333 5.0
9.600000000000001 0.3333333333333333 5.0
10.4 0.3333333333333333 5.0
11.200000000000001 0.3333333333333333 5.0
12.0 0.3333333333333333 5.0
12.8 0.3333333333333333 5.0
13.600000000000001 0.3333333333333333 5.0
14.4 0.3333333333333333 5.0
15.200000000000001 0.3333333333333333 5.0
16.0 0.3333333333333333 5.0
0.0 0.6666666666666666 5.0
0.8 0.6666666666666666 5.0
1.6 0.6666666666666666 5.0
2.4000000000000004 0.6666666666666666 5.0
3.2 0.6666666666666666 5.0
4.0 0.6666666666666666 5.0
4.800000000000001 0.6666666666666666 5.0
5.6000000000000005 0.6666666666666666 5.0
6.4 0.6666666666666666 5.0
7.2 0.6666666666666666 5.0
8.0 0.6666666666666666 5.0
8.8 0.6666666666666666 5.0
9.600000000000001 0.6666666666666666 5.0
10.4 0.6666666666666666 5.0
11.200000000000001 0.6666666666666666 5.0
12.0 0.6666666666666666 5.0
12.8 0.6666666666666666 5.0
13.600000000000001 0.6666666666666666 5.0
14.4 0.6666666666666666 5.0
15.200000000000001 0.6666666666666666 5.0
16.0 0.6666666666666666 5.0
0.0 1.0 5.0
0.8 1.0 5.0
1.6 1.0 5.0
2.4000000000000004 1.0 5.0
3.2 1.0 5.0
4.0 1.0 5.0
4.800000000000001 1.0 5.0
5.6000000000000005 1.0 5.0
6.4 1.0 5.0
7.2 1.0 5.0
8.0 1.0 5.0
8.8 1.0 5.0
9.600000000000001 1.0 5.0
10.4 1.0 5.0
11.200000000000001 1.0 5.0
12.0 1.0 5.0
12.8 1.0 5.0
13.600000000000001 1.0 5.0
14.4 1.0 5.0
15.200000000000001 1.0 5.0
16.0 1.0 5.0
0.0 1.3333333333333333 5.0
0.8 1.3333333333333333 5.0
1.6 1.3333333333333333 5.0
2.4000000000000004 1.3333333333333333 5.0
3.2 1.3333333333333333 5.0
4.0 1.3333333333333333 5.0
4.800000000000001 1.3333333333333333 5.0
5.6000000000000005 1.3333333333333333 5.0
6.4 1.3333333333333333 5.0
7.2 1.3333333333333333 5.0
8.0 1.3333333333333333 5.0
8.8 1.3333333333333333 5.0
9.600000000000001 1.3333333333333333 5.0
10.4 1.3333333333333333 5.0
11.200000000000001 1.3333333333333333 5.0
12.0 1.3333333333333333 5.0
12.8 1.3333333333333333 5.0
13.600000000000001 1.3333333333333333 5.0
14.4 1.3333333333333333 5.0
15.200000000000001 1.3333333333333333 5.0
16.0 1.3333333333333333 5.0
0.0 1.6666666666666665 5.0
0.8 1.6666666666666665 5.0
1.6 1.6666666666666665 5.0
2.4000000000000004 1.6666666666666665 5.0
3.2 1.6666666666666665 5.0
4.0 1.6666666666666665 5.0
4.800000000000001 1.6666666666666665 5.0
5.6000000000000005 1.6666666666666665 5.0
6.4 1.6666666666666665 5.0
7.2 1.6666666666666665 5.0
8.0 1.6666666666666665 5.0
8.8 1.6666666666666665 5.0
9.600000000000001 1.6666666666666665 5.0
10.4 1.6666666666666665 5.0
11.200000000000001 1.6666666666666665 5.0
12.0 1.6666666666666665 5.0
12.8 1.6666666666666665 5.0
13.600000000000001 1.6666666666666665 5.0
14.4 1.6666666666666665 5.0
15.200000000000001 1.6666666666666665 5.0
16.0 1.6666666666666665 5.0
0.0 2.0 5.0
0.8 2.0 5.0
1.6 2.0 5.0
2.4000000000000004 2.0 5.0
3.2 2.0 5.0
4.0 2.0 5.0
4.800000000000001 2.0 5.0
5.6000000000000005 2.0 5.0
6.4 2.0 5.0
7.2 2.0 5.0
8.0 2.0 5.0
8.8 2.0 5.0
9.600000000000001 2.0 5.0
10.4 2.0 5.0
11.200000000000001 2.0 5.0
12.0 2.0 5.0
12.8 2.0 5.0
13.600000000000001 2.0 5.0
14.4 2.0 5.0
15.200000000000001 2.0 5.0
16.0 2.0 5.0
0.0 0.0 6.666666666666667
0.8 0.0 6.666666666666667
1.6 0.0 6.666666666666667
2.4000000000000004 0.0 6.666666666666667
3.2 0.0 6.666666666666667
4.0 0.0 6.666666666666667
4.800000000000001 0.0 6.666666666666667
5.6000000000000005 0.0 6.666666666666667
6.4 0.0 6.666666666666667
7.2 0.0 6.666666666666667
8.0 0.0 6.666666666666667
8.8 0.0 6.666666666666667
9.600000000000001 0.0 6.666666666666667
10.4 0.0 6.666666666666667
11.200000000000001 0.0 6.666666666666667
12.0 0.0 6.666666666666667
12.8 0.0 6.666666666666667
13.600000000000001 0.0 6.666666666666667
14.4 0.0 6.666666666666667
15.200000000000001 0.0 6.666666666666667
16.0 0.0 6.666666666666667
0.0 0.3333333333333333 6.666666666666667
0.8 0.3333333333333333 6.666666666666667
1.6 0.3333333333333333 6.666666666666667
2.4000000000000004 0.3333333333333333 6.666666666666667
3.2 0.3333333333333333 6.666666666666667
4.0 0.3333333333333333 6.666666666666667
4.800000000000001 0.3333333333333333 6.666666666666667
5.6000000000000005 0.3333333333333333 6.666666666666667
6.4 0.3333333333333333 6.666666666666667
7.2 0.3333333333333333 6.666666666666667
8.0 0.3333333333333333 6.666666666666667
8.8 0.3333333333333333 6.666666666666667
9.600000000000001 0.3333333333333333 6.666666666666667
10.4 0.3333333333333333 6.666666666666667
11.200000000000001 0.3333333333333333 6.666666666666667
12.0 0.3333333333333333 6.666666666666667
12.8 0.3333333333333333 6.666666666666667
13.600000000000001 0.3333333333333333 6.666666666666667
14.4 0.3333333333333333 6.666666666666667
15.200000000000001 0.3333333333333333 6.666666666666667
16.0 0.3333333333333333 6.666666666666667
0.0 0.6666666666666666 6.666666666666667
0.8 0.6666666666666666 6.666666666666667
1.6 0.6666666666666666 6.666666666666667
2.4000000000000004 0.6666666666666666 6.666666666666667
3.2 0.6666666666666666 6.666666666666667
4.0 0.6666666666666666 6.666666666666667
4.800000000000001 0.6666666666666666 6.666666666666667
5.6000000000000005 0.6666666666666666 6.666666666666667
6.4 0.6666666666666666 6.666666666666667
7.2 0.6666666666666666 6.666666666666667
8.0 0.6666666666666666 6.666666666666667
8.8 0.6666666666666666 6.666666666666667
9.600000000000001 0.6666666666666666 6.666666666666667
10.4 0.6666666666666666 6.666666666666667
11.200000000000001 0.6666666666666666 6.666666666666667
12.0 0.6666666666666666 6.666666666666667
12.8 0.6666666666666666 6.666666666666667
13.600000000000001 0.6666666666666666 6.666666666666667
14.4 0.6666666666666666 6.666666666666667
15.200000000000001 0.6666666666666666 6.666666666666667
16.0 0.6666666666666666 6.666666666666667
0.0 1.0 6.666666666666667
0.8 1.0 6.666666666666667
1.6 1.0 6.666666666666667
2.4000000000000004 1.0 6.666666666666667
3.2 1.0 6.666666666666667
4.0 1.0 6.666666666666667
4.800000000000001 1.0 6.666666666666667
5.6000000000000005 1.0 6.666666666666667
6.4 1.0 6.666666666666667
7.2 1.0 6.666666666666667
8.0 1.0 6.666666666666667
8.8 1.0 6.666666666666667
9.600000000000001 1.0 6.666666666666667
10.4 1.0 6.666666666666667
11.200000000000001 1.0 6.666666666666667
12.0 1.0 6.666666666666667
12.8 1.0 6.666666666666667
13.600000000000001 1.0 6.666666666666667
14.4 1.0 6.666666666666667
15.200000000000001 1.0 6.666666666666667
16.0 1.0 6.666666666666667
0.0 1.3333333333333333 6.666666666666667
0.8 1.3333333333333333 6.666666666666667
1.6 1.3333333333333333 6.666666666666667
2.4000000000000004 1.3333333333333333 6.666666666666667
3.2 1.3333333333333333 6.666666666666667
4.0 1.3333333333333333 6.666666666666667
4.800000000000001 1.3333333333333333 6.666666666666667
5.6000000000000005 1.3333333333333333 6.666666666666667
6.4 1.3333333333333333 6.666666666666667
7.2 1.3333333333333333 6.666666666666667
8.0 1.3333333333333333 6.666666666666667
8.8 1.3333333333333333 6.666666666666667
9.600000000000001 1.3333333333333333 6.666666666666667
10.4 1.3333333333333333 6.666666666666667
11.200000000000001 1.3333333333333333 6.666666666666667
12.0 1.3333333333333333 6.666666666666667
12.8 1.3333333333333333 6.666666666666667
13.600000000000001 1.3333333333333333 6.666666666666667
14.4 1.3333333333333333 6.666666666666667
15.200000000000001 1.3333333333333333 6.666666666666667
16.0 1.3333333333333333 6.666666666666667
0.0 1.6666666666666665 6.666666666666667
0.8 1.6666666666666665 6.666666666666667
1.6 1.6666666666666665 6.666666666666667
2.4000000000000004 1.6666666666666665 6.666666666666667
3.2 1.6666666666666665 6.666666666666667
4.0 1.6666666666666665 6.666666666666667
4.800000000000001 1.6666666666666665 6.666666666666667
5.6000000000000005 1.6666666666666665 6.666666666666667
6.4 1.6666666666666665 6.666666666666667
7.2 1.6666666666666665 6.666666666666667
8.0 1.6666666666666665 6.666666666666667
8.8 1.6666666666666665 6.666666666666667
9.600000000000001 1.6666666666666665 6.666666666666667
10.4 1.6666666666666665 6.666666666666667
11.200000000000001 1.6666666666666665 6.666666666666667
12.0 1.6666666666666665 6.666666666666667
12.8 1.6666666666666665 6.666666666666667
13.600000000000001 1.6666666666666665 6.666666666666667
14.4 1.6666666666666665 6.666666666666667
15.200000000000001 1.6666666666666665 6.666666666666667
16.0 1.6666666666666665 6.666666666666667
0.0 2.0 6.666666666666667
0.8 2.0 6.666666666666667
1.6 2.0 6.666666666666667
2.4000000000000004 2.0 6.666666666666667
3.2 2.0 6.666666666666667
4.0 2.0 6.666666666666667
4.800000000000001 2.0 6.666666666666667
5.6000000000000005 2.0 6.666666666666667
6.4 2.0 6.666666666666667
7.2 2.0 6.666666666666667
8.0 2.0 6.666666666666667
8.8 2.0 6.666666666666667
9.600000000000001 2.0 6.666666666666667
10.4 2.0 6.666666666666667
11.200000000000001 2.0 6.666666666666667
12.0 2.0 6.666666666666667
12.8 2.0 6.666666666666667
13.600000000000001 2.0 6.666666666666667
14.4 2.0 6.666666666666667
15.200000000000001 2.0 6.666666666666667
16.0 2.0 6.666666666666667
0.0 0.0 8.333333333333334
0.8 0.0 8.333333333333334
1.6 0.0 8.333333333333334
2.4000000000000004 0.0 8.333333333333334
3.2 0.0 8.333333333333334
4.0 0.0 8.333333333333334
4.800000000000001 0.0 8.333333333333334
5.6000000000000005 0.0 8.333333333333334
6.4 0.0 8.333333333333334
7.2 0.0 8.333333333333334
8.0 0.0 8.333333333333334
8.8 0.0 8.333333333333334
9.600000000000001 0.0 8.333333333333334
10.4 0.0 8.333333333333334
11.200000000000001 0.0 8.333333333333334
12.0 0.0 8.333333333333334
12.8 0.0 8.333333333333334
13.600000000000001 0.0 8.333333333333334
14.4 0.0 8.333333333333334
15.200000000000001 0.0 8.333333333333334
16.0 0.0 8.333333333333334
0.0 0.3333333333333333 8.333333333333334
0.8 0.3333333333333333 8.333333333333334
1.6 0.3333333333333333 8.333333333333334
2.4000000000000004 0.3333333333333333 8.333333333333334
3.2 0.3333333333333333 8.333333333333334
4.0 0.3333333333333333 8.333333333333334
4.800000000000001 0.3333333333333333 8.333333333333334
5.6000000000000005 0.3333333333333333 8.333333333333334
6.4 0.3333333333333333 8.333333333333334
7.2 0.3333333333333333 8.333333333333334
8.0 0.3333333333333333 8.333333333333334
8.8 0.3333333333333333 8.333333333333334
9.600000000000001 0.3333333333333333 8.333333333333334
10.4 0.3333333333333333 8.333333333333334
11.200000000000001 0.3333333333333333 8.333333333333334
12.0 0.3333333333333333 8.333333333333334
12.8 0.3333333333333333 8.333333333333334
13.600000000000001 0.3333333333333333 8.333333333333334
14.4 0.3333333333333333 8.333333333333334
15.200000000000001 0.3333333333333333 8.333333333333334
16.0 0.3333333333333333 8.333333333333334
0.0 0.6666666666666666 8.333333333333334
0.8 0.6666666666666666 8.333333333333334
1.6 0.6666666666666666 8.333333333333334
2.4000000000000004 0.6666666666666666 8.333333333333334
3.2 0.6666666666666666 8.333333333333334
4.0 0.6666666666666666 8.333333333333334
4.800000000000001 0.6666666666666666 8.333333333333334
5.6000000000000005 0.6666666666666666 8.333333333333334
6.4 0.6666666666666666 8.333333333333334
7.2 0.6666666666666666 8.333333333333334
8.0 0.6666666666666666 8.333333333333334
8.8 0.6666666666666666 8.333333333333334
9.600000000000001 0.6666666666666666 8.333333333333334
10.4 0.6666666666666666 8.333333333333334
11.200000000000001 0.6666666666666666 8.333333333333334
12.0 0.6666666666666666 8.333333333333334
12.8 0.6666666666666666 8.333333333333334
13.600000000000001 0.6666666666666666 8.333333333333334
14.4 0.6666666666666666 8.333333333333334
15.200000000000001 0.6666666666666666 8.333333333333334
16.0 0.6666666666666666 8.333333333333334
0.0 1.0 8.333333333333334
0.8 1.0 8.333333333333334
1.6 1.0 8.333333333333334
2.4000000000000004 1.0 8.333333333333334
3.2 1.0 8.333333333333334
4.0 1.0 8.333333333333334
4.800000000000001 1.0 8.333333333333334
5.6000000000000005 1.0 8.333333333333334
6.4 1.0 8.333333333333334
7.2 1.0 8.333333333333334
8.0 1.0 8.333333333333334
8.8 1.0 8.333333333333334
9.600000000000001 1.0 8.333333333333334
10.4 1.0 8.333333333333334
11.200000000000001 1.0 8.333333333333334
12.0 1.0 8.333333333333334
12.8 1.0 8.333333333333334
13.600000000000001 1.0 8.333333333333334
14.4 1.0 8.333333333333334
15.200000000000001 1.0 8.333333333333334
16.0 1.0 8.333333333333334
0.0 1.3333333333333333 8.333333333333334
0.8 1.3333333333333333 8.333333333333334
1.6 1.3333333333333333 8.333333333333334
2.4000000000000004 1.3333333333333333 8.333333333333334
3.2 1.3333333333333333 8.333333333333334
4.0 1.3333333333333333 8.333333333333334
4.800000000000001 1.3333333333333333 8.333333333333334
5.6000000000000005 1.3333333333333333 8.333333333333334
6.4 1.3333333333333333 8.333333333333334
7.2 1.3333333333333333 8.333333333333334
8.0 1.3333333333333333 8.333333333333334
8.8 1.3333333333333333 8.333333333333334
9.600000000000001 1.3333333333333333 8.333333333333334
10.4 1.3333333333333333 8.333333333333334
11.200000000000001 1.3333333333333333 8.333333333333334
12.0 1.3333333333333333 8.333333333333334
12.8 1.3333333333333333 8.333333333333334
13.600000000000001 1.3333333333333333 8.333333333333334
14.4 1.3333333333333333 8.333333333333334
15.200000000000001 1.3333333333333333 8.333333333333334
16.0 1.3333333333333333 8.333333333333334
0.0 1.6666666666666665 8.333333333333334
0.8 1.6666666666666665 8.333333333333334
1.6 1.6666666666666665 8.333333333333334
2.4000000000000004 1.6666666666666665 8.333333333333334
3.2 1.6666666666666665 8.333333333333334
4.0 1.6666666666666665 8.333333333333334
4.800000000000001 1.6666666666666665 8.333333333333334
5.6000000000000005 1.6666666666666665 8.333333333333334
6.4 1.6666666666666665 8.333333333333334
7.2 1.6666666666666665 8.333333333333334
8.0 1.6666666666666665 8.333333333333334
8.8 1.6666666666666665 8.333333333333334
9.600000000000001 1.6666666666666665 8.333333333333334
10.4 1.6666666666666665 8.333333333333334
11.200000000000001 1.6666666666666665 8.333333333333334
12.0 1.6666666666666665 8.333333333333334
12.8 1.6666666666666665 8.333333333333334
13.600000000000001 1.6666666666666665 8.333333333333334
14.4 1.6666666666666665 8.333333333333334
15.200000000000001 1.6666666666666665 8.333333333333334
16.0 1.6666666666666665 8.333333333333334
0.0 2.0 8.333333333333334
0.8 2.0 8.333333333333334
1.6 2.0 8.333333333333334
2.4000000000000004 2.0 8.333333333333334
3.2 2.0 8.333333333333334
4.0 2.0 8.333333333333334
4.800000000000001 2.0 8.333333333333334
5.6000000000000005 2.0 8.333333333333334
6.4 2.0 8.333333333333334
7.2 2.0 8.333333333333334
8.0 2.0 8.333333333333334
8.8 2.0 8.333333333333334
9.600000000000001 2.0 8.333333333333334
10.4 2.0 8.333333333333334
11.200000000000001 2.0 8.333333333333334
12.0 2.0 8.333333333333334
12.8 2.0 8.333333333333334
13.600000000000001 2.0 8.333333333333334
14.4 2.0 8.333333333333334
15.200000000000001 2.0 8.333333333333334
16.0 2.0 8.333333333333334
0.0 0.0 10.0
0.8 0.0 10.0
1.6 0.0 10.0
2.4000000000000004 0.0 10.0
3.2 0.0 10.0
4.0 0.0 10.0
4.800000000000001 0.0 10.0
5.6000000000000005 0.0 10.0
6.4 0.0 10.0
7.2 0.0 10.0
8.0 0.0 10.0
8.8 0.0 10.0
9.600000000000001 0.0 10.0
10.4 0.0 10.0
11.200000000000001 0.0 10.0
12.0 0.0 10.0
12.8 0.0 10.0
13.600000000000001 0.0 10.0
14.4 0.0 10.0
15.200000000000001 0.0 10.0
16.0 0.0 10.0
0.0 0.3333333333333333 10.0
0.8 0.3333333333333333 10.0
1.6 0.3333333333333333 10.0
2.4000000000000004 0.3333333333333333 10.0
3.2 0.3333333333333333 10.0
4.0 0.3333333333333333 10.0
4.800000000000001 0.3333333333333333 10.0
5.6000000000000005 0.3333333333333333 10.0
6.4 0.3333333333333333 10.0
7.2 0.3333333333333333 10.0
8.0 0.3333333333333333 10.0
8.8 0.3333333333333333 10.0
9.600000000000001 0.3333333333333333 10.0
10.4 0.3333333333333333 10.0
11.200000000000001 0.3333333333333333 10.0
12.0 0.3333333333333333 10.0
12.8 0.3333333333333333 10.0
13.600000000000001 0.3333333333333333 10.0
14.4 0.3333333333333333 10.0
15.200000000000001 0.3333333333333333 10.0
16.0 0.3333333333333333 10.0
0.0 0.6666666666666666 10.0
0.8 0.6666666666666666 10.0
1.6 0.6666666666666666 10.0
2.4000000000000004 0.6666666666666666 10.0
3.2 0.6666666666666666 10.0
4.0 0.6666666666666666 10.0
4.800000000000001 0.6666666666666666 10.0
5.6000000000000005 0.6666666666666666 10.0
6.4 0.6666666666666666 10.0
7.2 0.6666666666666666 10.0
8.0 0.6666666666666666 10.0
8.8 0.6666666666666666 10.0
9.600000000000001 0.6666666666666666 10.0
10.4 0.6666666666666666 10.0
11.200000000000001 0.6666666666666666 10.0
12.0 0.6666666666666666 10.0
12.8 0.6666666666666666 10.0
13.600000000000001 0.6666666666666666 10.0
14.4 0.6666666666666666 10.0
15.200000000000001 0.6666666666666666 10.0
16.0 0.6666666666666666 10.0
0.0 1.0 10.0
0.8 1.0 10.0
1.6 1.0 10.0
2.4000000000000004 1.0 10.0
3.2 1.0 10.0
4.0 1.0 10.0
4.800000000000001 1.0 10.0
5.6000000000000005 1.0 10.0
6.4 1.0 10.0
7.2 1.0 10.0
8.0 1.0 10.0
8.8 1.0 10.0
9.600000000000001 1.0 10.0
10.4 1.0 10.0
11.200000000000001 1.0 10.0
12.0 1.0 10.0
12.8 1.0 10.0
13.600000000000001 1.0 10.0
14.4 1.0 10.0
15.200000000000001 1.0 10.0
16.0 1.0 10.0
0.0 1.3333333333333333 10.0
0.8 1.3333333333333333 10.0
1.6 1.3333333333333333 10.0
2.4000000000000004 1.3333333333333333 10.0
3.2 1.3333333333333333 10.0
4.0 1.3333333333333333 10.0
4.800000000000001 1.3333333333333333 10.0
5.6000000000000005 1.3333333333333333 10.0
6.4 1.3333333333333333 10.0
7.2 1.3333333333333333 10.0
8.0 1.3333333333333333 10.0
8.8 1.3333333333333333 10.0
9.600000000000001 1.3333333333333333 10.0
10.4 1.3333333333333333 10.0
11.200000000000001 1.3333333333333333 10.0
12.0 1.3333333333333333 10.0
12.8 1.3333333333333333 10.0
13.600000000000001 1.3333333333333333 10.0
14.4 1.3333333333333333 10.0
15.200000000000001 1.3333333333333333 10.0
16.0 1.3333333333333333 10.0
0.0 1.6666666666666665 10.0
0.8 1.6666666666666665 10.0
1.6 1.6666666666666665 10.0
2.4000000000000004 1.6666666666666665 10.0
3.2 1.6666666666666665 10.0
4.0 1.6666666666666665 10.0
4.800000000000001 1.6666666666666665 10.0
5.6000000000000005 1.6666666666666665 10.0
6.4 1.6666666666666665 10.0
7.2 1.6666666666666665 10.0
8.0 1.6666666666666665 10.0
8.8 1.6666666666666665 10.0
9.600000000000001 1.6666666666666665 10.0
10.4 1.6666666666666665 10.0
11.200000000000001 1.6666666666666665 10.0
12.0 1.6666666666666665 10.0
12.8 1.6666666666666665 10.0
13.600000000000001 1.6666666666666665 10.0
14.4 1.6666666666666665 10.0
15.200000000000001 1.6666666666666665 10.0
16.0 1.6666666666666665 10.0
0.0 2.0 10.0
0.8 2.0 10.0
1.6 2.0 10.0
2.4000000000000004 2.0 10.0
3.2 2.0 10.0
4.0 2.0 10.0
4.800000000000001 2.0 10.0
5.6000000000000005 2.0 10.0
6.4 2.0 10.0
7.2 2.0 10.0
8.0 2.0 10.0
8.8 2.0 10.0
9.600000000000001 2.0 10.0
10.4 2.0 10.0
11.200000000000001 2.0 10.0
12.0 2.0 10.0
12.8 2.0 10.0
13.600000000000001 2.0 10.0
14.4 2.0 10.0
15.200000000000001 2.0 10.0
16.0 2.0 10.0
CELLS 720 6480
8 0 1 22 21 147 148 169 168
8 1 2 23 22 148 149 170 169
8 2 3 24 23 149 150 171 170
8 3 4 25 24 150 151 172 171
8 4 5 26 25 151 152 173 172
8 5 6 27 26 152 153 174 173
8 6 7 28 27 153 154 175 174
8 7 8 29 28 154 155 176 175
8 8 9 30 29 155 156 177 176
8 9 10 31 30 156 157 178 177
8 10 11 32 31 157 158 179 178
8 11 12 33 32 158 159 180 179
8 12 13 34 33 159 160 181 180
8 13 14 35 34 160 161 182 181
8 14 15 36 35 161 162 183 182
8 15 16 37 36 162 163 184 183
8 16 17 38 37 163 164 185 184
8 17 18 39 38 164 165 186 185
8 18 19 40 39 165 166 187 186
8 19 20 41 40 166 167 188 187
8 21 22 43 42 168 169 190 189
8 22 23 44 43 169 170 191 190
8 23 24 45 44 170 171 192 191
8 24 25 46 45 171 172 193 192
8 25 26 47 46 172 173 194 193
8 26 27 48 47 173 174 195 194
8 27 28 49 48 174 175 196 195
8 28 29 50 49 175 176 197 196
8 29 30 51 50 176 177 198 197
8 30 31 52 51 177 178 199 198
8 31 32 53 52 178 179 200 199
8 32 33 54 53 179 180 201 200
8 33 34 55 54 180 181 202 201
8 34 35 56 55 181 182 203 202
8 35 36 57 56 182 183 204 203
8 36 37 58 57 183 184 205 204
8 37 38 59 58 184 185 206 205
8 38 39 60 59 185 186 207 206
8 39 40 61 60 186 187 208 207
8 40 41 62 61 187 188 209 208
8 42 43 64 63 189 190 211 210
8 43 44 65 64 190 191 212 211
8 44 45 66 65 191 192 213 212
8 45 46 67 66 192 193 214 213
8 46 47 68 67 193 194 215 214
8 47 48 69 68 194 195 216 215
8 48 49 70 69 195 196 217 216
8 49 50 71 70 196 197 218 217
8 50 51 72 71 197 198 219 218
8 51 52 73 72 198 199 220 219
8 52 53 74 73 199 200 221 220
8 53 54 75 74 200 201 222 221
8 54 55 76 75 201 202 223 222
8 55 56 77 76 202 203 224 223
8 56 57 78 77 203 204 225 224
8 57 58 79 78 204 205 226 225
8 58 59 80 79 205 206 227 226
8 59 60 81 80 206 207 228 227
8 60 61 82 81 207 208 229 228
8 61 62 83 82 208 209 230 229
8 63 64 85 84 210 211 232 231
8 64 65 86 85 211 212 233 232
8 65 66 87 86 212 213 234 233
8 66 67 88 87 213 214 235 234
8 67 68 89 88 214 215 236 235
8 68 69 90 89 215 216 237 236
8 69 70 91 90 216 217 238 237
8 70 71 92 91 217 218 239 238
8 71 72 93 92 218 219 240 239
8 72 73 94 93 219 220 241 240
8 73 74 95 94 220 221 242 241
8 74 75 96 95 221 222 243 242
8 75 76 97 96 222 223 244 243
8 76 77 98 97 223 224 245 244
8 77 78 99 98 224 225 246 245
8 78 79 100 99 225 226 247 246
8 79 80 101 100 226 227 248 247
8 80 81 102 101 227 228 249 248
8 81 82 103 102 228 229 250 249
8 82 83 104 103 229 230 251 250
8 84 85 106 105 231 232 253 252
8 85 86 107 106 232 233 254 253
8 86 87 108 107 233 234 255 254
8 87 88 109 108 234 235 256 255
8 88 89 110 109 235 236 257 256
8 89 90 111 110 236 237 258 257
8 90 91 112 111 237 238 259 258
8 91 92 113 112 238 239 260 259
8 92 93 114 113 239 240 261 260
8 93 94 115 114 240 241 262 261
8 94 95 116 115 241 242 263 262
8 95 96 117 116 242 243 264 263
8 96 97 118 117 243 244 265 264
8 97 98 119 118 244 245 266 265
8 98 99 120 119 245 246 267 266
8 99 100 121 120 246 247 268 267
8 100 101 122 121 247 248 269 268
8 101 102 123 122 248 249 270 269
8 102 103 124 123 249 250 271 270
8 103 104 125 124 250 251 272 271
8 105 106 127 126 252 253 274 273
8 106 107 128 127 253 254 275 274
8 107 108 129 128 254 255 276 275
8 108 109 130 129 255 256 277 276
8 109 110 131 130 256 257 278 277
8 110 111 132 131 257 258 279 278
8 111 112 133 132 258 259 280 279
8 112 113 134 133 259 260 281 280
8 113 114 135 134 260 261 282 281
8 114 115 136 135 261 262 283 282
8 115 116 137 136 262 263 284 283
8 116 117 138 137 263 264 285 284
8 117 118 139 138 264 265 286 285
8 118 119 140 139 265 266 287 286
8 119 120 141 140 266 267 288 287
8 120 121 142 141 267 268 289 288
8 121 122 143 142 268 269 290 289
8 122 123 144 143 269 270 291 290
8 123 124 145 144 270 271 292 291
8 124 125 146 145 271 272 293 292
8 147 148 169 168 294 295 316 315
8 148 149 170 169 295 296 317 316
8 149 150 171 170 296 297 318 317
8 150 151 172 171 297 298 319 318
8 151 152 173 172 298 299 320 319
8 152 153 174 173 299 300 321 320
8 153 154 175 174 300 301 322 321
8 154 155 176 175 301 302 323 322
8 155 156 177 176 302 303 324 323
8 156 157 178 177 303 304 325 324
8 157 158 179 178 304 305 326 325
8 158 159 180 179 305 306 327 326
8 159 160 181 180 306 307 328 327
8 160 161 182 181 307 308 329 328
8 161 162 183 182 308 309 330 329
8 162 163 184 183 309 310 331 330
8 163 164 185 184 310 311 332 331
8 164 165 186 185 311 312 333 332
8 165 166 187 186 312 313 334 333
8 166 167 188 187 313 314 335 334
8 168 169 190 189 315 316 337 336
8 169 170 191 190 316 317 338 337
8 170 171 192 191 317 318 339 338
8 171 172 193 192 318 319 340 339
8 172 173 194 193 319 320 341 340
8 173 174 195 194 320 321 342 341
8 174 175 196 195 321 322 343 342
8 175 176 197 196 322 323 344 343
8 176 177 198 197 323 324 345 344
8 177 178 199 198 324 325 346 345
8 178 179 200 199 325 326 347 346
8 179 180 201 200 326 327 348 347
8 180 181 202 201 327 328 349 348
8 181 182 203 202 328 329 350 349
8 182 183 204 203 329 330 351 350
8 183 184 205 204 330 331 352 351
8 184 185 206 205 331 332 353 352
8 185 186 207 206 332 333 354 353
8 186 187 208 207 333 334 355 354
8 187 188 209 208 334 335 356 355
8 189 190 211 210 336 337 358 357
8 190 191 212 211 337 338 359 358
8 191 192 213 212 338 339 360 359
8 192 193 214 213 339 340 361 360
8 193 194 215 214 340 341 362 361
8 194 195 216 215 341 342 363 362
8 195 196 217 216 342 343 364 363
8 196 197 218 217 343 344 365 364
8 197 198 219 218 344 345 366 365
8 198 199 220 219 345 346 367 366
8 199 200 221 220 346 347 368 367
8 200 201 222 221 347 348 369 368
8 201 202 223 222 348 349 370 369
8 202 203 224 223 349 350 371 370
8 203 204 225 224 350 351 372 371
8 204 205 226 225 351 352 373 372
8 205 206 227 226 352 353 374 373
8 206 207 228 227 353 354 375 374
8 207 208 229 228 354 355 376 375
8 208 209 230 229 355 356 377 376
8 210 211 232 231 357 358 379 378
8 211 212 233 232 358 359 380 379
8 212 213 234 233 359 360 381 380
8 213 214 235 234 360 361 382 381
8 214 215 236 235 361 362 383 382
8 215 216 237 236 362 363 384 383
8 216 217 238 237 363 364 385 384
8 217 218 239 238 364 365 386 385
8 218 219 240 239 365 366 387 386
8 219 220 241 240 366 367 388 387
8 220 221 242 241 367 368 389 388
8 221 222 243 242 368 369 390 389
8 222 223 244 243 369 370 391 390
8 223 224 245 244 370 371 392 391
8 224 225 246 245 371 372 393 392
8 225 226 247 246 372 373 394 393
8 226 227 248 247 373 374 395 394
8 227 228 249 248 374 375 396 395
8 228 229 250 249 375 376 397 396
8 229 230 251 250 376 377 398 397
8 231 232 253 252 378 379 400 399
8 232 233 254 253 379 380 401 400
8 233 234 255 254 380 381 402 401
8 234 235 256 255 381 382 403 402
8 235 236 257 256 382 383 404 403
8 236 237 258 257 383 384 405 404
8 237 238 259 258 384 385 406 405
8 238 239 260 259 385 386 407 406
8 239 240 261 260 386 387 408 407
8 240 241 262 261 387 388 409 408
8 241 242 263 262 388 389 410 409
8 242 243 264 263 389 390 411 410
8 243 244 265 264 390 391 412 411
8 244 245 266 265 391 392 413 412
8 245 246 267 266 392 393 414 413
8 246 247 268 267 393 394 415 414
8 247 248 269 268 394 395 416 415
8 248 249 270 269 395 396 417 416
8 249 250 271 270 396 397 418 417
8 250 251 272 271 397 398 419 418
8 252 253 274 273 399 400 421 420
8 253 254 275 274 400 401 422 421
8 254 255 276 275 401 402 423 422
8 255 256 277 276 402 403 424 423
8 256 257 278 277 403 404 425 424
8 257 258 279 278 404 405 426 425
8 258 259 280 279 405 406 427 426
8 259 260 281 280 406 407 428 427
8 260 261 282 281 407 408 429 428
8 261 262 283 282 408 409 430 429
8 262 263 284 283 409 410 431 430
8 263 264 285 284 410 411 432 431
8 264 265 286 285 411 412 433 432
8 265 266 287 286 412 413 434 433
8 266 267 288 287 413 414 435 434
8 267 268 289 288 414 415 436 435
8 268 269 290 289 415 416 437 436
8 269 270 291 290 416 417 438 437
8 270 271 292 291 417 418 439 438
8 271 272 293 292 418 419 440 439
8 294 295 316 315 441 442 463 462
8 295 296 317 316 442 443 464 463
8 296 297 318 317 443 444 465 464
8 297 298 319 318 444 445 466 465
8 298 299 320 319 445 446 467 466
8 299 300 321 320 446 447 468 467
8 300 301 322 321 447 448 469 468
8 301 302 323 322 448 449 470 469
8 302 303 324 323 449 450 471 470
8 303 304 325 324 450 451 472 471
8 304 305 326 325 451 452 473 472
8 305 306 327 326 452 453 474 473
8 306 307 328 327 453 454 475 474
8 307 308 329 328 454 455 476 475
8 308 309 330 329 455 456 477 476
8 309 310 331 330 456 457 478 477
8 310 311 332 331 457 458 479 478
8 311 312 333 332 458 459 480 479
8 312 313 334 333 459 460 481 480
8 313 314 335 334 460 461 482 481
8 315 316 337 336 462 463 484 483
8 316 317 338 337 463 464 485 484
8 317 318 339 338 464 465 486 485
8 318 319 340 339 465 466 487 486
8 319 320 341 340 466 467 488 487
8 320 321 342 341 467 468 489 488
8 321 322 343 342 468 469 490 489
8 322 323 344 343 469 470 491 490
8 323 324 345 344 470 471 492 491
8 324 325 346 345 471 472 493 492
8 325 326 347 346 472 473 494 493
8 326 327 348 347 473 474 495 494
8 327 328 349 348 474 475 496 495
8 328 329 350 349 475 476 497 496
8 329 330 351 350 476 477 498 497
8 330 331 352 351 477 478 499 498
8 331 332 353 352 478 479 500 499
8 332 333 354 353 479 480 501 500
8 333 334 355 354 480 481 502 501
8 334 335 356 355 481 482 503 502
8 336 337 358 357 483 484 505 504
8 337 338 359 358 484 485 506 505
8 338 339 360 359 485 486 507 506
8 339 340 361 360 486 487 508 507
8 340 341 362 361 487 488 509 508
8 341 342 363 362 488 489 510 509
8 342 343 364 363 489 490 511 510
8 343 344 365 364 490 491 512 511
8 344 345 366 365 491 492 513 512
8 345 346 367 366 492 493 514 513
8 346 347 368 367 493 494 515 514
8 347 348 369 368 494 495 516 515
8 348 349 370 369 495 496 517 516
8 349 350 371 370 496 497 518 517
8 350 351 372 371 497 498 519 518
8 351 352 373 372 498 499 520 519
8 352 353 374 373 499 500 521 520
8 353 354 375 374 500 501 522 521
8 354 355 376 375 501 502 523 522
8 355 356 377 376 502 503 524 523
8 357 358 379 378 504 505 526 525
8 358 359 380 379 505 506 527 526
8 359 360 381 380 506 507 528 527
8 360 361 382 381 507 508 529 528
8 361 362 383 382 508 509 530 529
8 362 363 384 383 509 510 531 530
8 363 364 385 384 510 511 532 531
8 364 365 386 385 511 512 533 532
8 365 366 387 386 512 513 534 533
8 366 367 388 387 513 514 535 534
8 367 368 389 388 514 515 536 535
8 368 369 390 389 515 516 537 536
8 369 370 391 390 516 517 538 537
8 370 371 392 391 517 518 539 538
8 371 372 393 392 518 519 540 539
8 372 373 394 393 519 520 541 540
8 373 374 395 394 520 521 542 541
8 374 375 396 395 521 522 543 542
8 375 376 397 396 522 523 544 543
8 376 377 398 397 523 524 545 544
8 378 379 400 399 525 526 547 546
8 379 380 401 400 526 527 548 547
8 380 381 402 401 527 528 549 548
8 381 382 403 402 528 529 550 549
8 382 383 404 403 529 530 551 550
8 383 384 405 404 530 531 552 551
8 384 385 406 405 531 532 553 552
8 385 386 407 406 532 533 554 553
8 386 387 408 407 533 534 555 554
8 387 388 409 408 534 535 556 555
8 388 389 410 409 535 536 557 556
8 389 390 411 410 536 537 558 557
8 390 391 412 411 537 538 559 558
8 391 392 413 412 538 539 560 559
8 392 393 414 413 539 540 561 560
8 393 394 415 414 540 541 562 561
8 394 395 416 415 541 542 563 562
8 395 396 417 416 542 543 564 563
8 396 397 418 417 543 544 565 564
8 397 398 419 418 544 545 566 565
8 399 400 421 420 546 547 568 567
8 400 401 422 421 547 548 569 568
8 401 402 423 422 548 549 570 569
8 402 403 424 423 549 550 571 570
8 403 404 425 424 550 551 572 571
8 404 405 426 425 551 552 573 572
8 405 406 427 426 552 553 574 573
8 406 407 428 427 553 554 575 574
8 407 408 429 428 554 555 576 575
8 408 409 430 429 555 556 577 576
8 409 410 431 430 556 557 578 577
8 410 411 432 431 557 558 579 578
8 411 412 433 432 558 559 580 579
8 412 413 434 433 559 560 581 580
8 413 414 435 434 560 561 582 581
8 414 415 436 435 561 562 583 582
8 415 416 437 436 562 563 584 583
8 416 417 438 437 563 564 585 584
8 417 418 439 438 564 565 586 585
8 418 419 440 439 565 566 587 586
8 441 442 463 462 588 589 610 609
8 442 443 464 463 589 590 611 610
8 443 444 465 464 590 591 612 611
8 444 445 466 465 591 592 613 612
8 445 446 467 466 592 593 614 613
8 446 447 468 467 593 594 615 614
8 447 448 469 468 594 595 616 615
8 448 449 470 469 595 596 617 616
8 449 450 471 470 596 597 618 617
8 450 451 472 471 597 598 619 618
8 451 452 473 472 598 599 620 619
8 452 453 474 473 599 600 621 620
8 453 454 475 474 600 601 622 621
8 454 455 476 475 601 602 623 622
8 455 456 477 476 602 603 624 623
8 456 457 478 477 603 604 625 624
8 457 458 479 478 604 605 626 625
8 458 459 480 479 605 606 627 626
8 459 460 481 480 606 607 628 627
8 460 461 482 481 607 608 629 628
8 462 463 484 483 609 610 631 630
8 463 464 485 484 610 611 632 631
8 464 465 486 485 611 612 633 632
8 465 466 487 486 612 613 634 633
8 466 467 488 487 613 614 635 634
8 467 468 489 488 614 615 636 635
8 468 469 490 489 615 616 637 636
8 469 470 491 490 616 617 638 637
8 470 471 492 491 617 618 639 638
8 471 472 493 492 618 619 640 639
8 472 473 494 493 619 620 641 640
8 473 474 495 494 620 621 642 641
8 474 475 496 495 621 622 643 642
8 475 476 497 496 622 623 644 643
8 476 477 498 497 623 624 645 644
8 477 478 499 498 624 625 646 645
8 478 479 500 499 625 626 647 646
8 479 480 501 500 626 627 648 647
8 480 481 502 501 627 628 649 648
8 481 482 503 502 628 629 650 649
8 483 484 505 504 630 631 652 651
8 484 485 506 505 631 632 653 652
8 485 486 507 506 632 633 654 653
8 486 487 508 507 633 634 655 654
8 487 488 509 508 634 635 656 655
8 488 489 510 509 635 636 657 656
8 489 490 511 510 636 637 658 657
8 490 491 512 511 637 638 659 658
8 491 492 513 512 638 639 660 659
8 492 493 514 513 639 640 661 660
8 493 494 515 514 640 641 662 661
8 494 495 516 515 641 642 663 662
8 495 496 517 516 642 643 664 663
8 496 497 518 517 643 644 665 664
8 497 498 519 518 644 645 666 665
8 498 499 520 519 645 646 667 666
8 499 500 521 520 646 647 668 667
8 500 501 522 521 647 648 669 668
8 501 502 523 522 648 649 670 669
8 502 503 524 523 649 650 671 670
8 504 505 526 525 651 652 673 672
8 505 506 527 526 652 653 674 673
8 506 507 528 527 653 654 675 674
8 507 508 529 528 654 655 676 675
8 508 509 530 529 655 656 677 676
8 509 510 531 530 656 657 678 677
8 510 511 532 531 657 658 679 678
8 511 512 533 532 658 659 680 679
8 512 513 534 533 659 660 681 680
8 513 514 535 534 660 661 682 681
8 514 515 536 535 661 662 683 682
8 515 516 537 536 662 663 684 683
8 516 517 538 537 663 664 685 684
8 517 518 539 538 664 665 686 685
8 518 519 540 539 665 666 687 686
8 519 520 541 540 666 667 688 687
8 520 521 542 541 667 668 689 688
8 521 522 543 542 668 669 690 689
8 522 523 544 543 669 670 691 690
8 523 524 545 544 670 671 692 691
8 525 526 547 546 672 673 694 693
8 526 527 548 547 673 674 695 694
8 527 528 549 548 674 675 696 695
8 528 529 550 549 675 676 697 696
8 529 530 551 550 676 677 698 697
8 530 531 552 551 677 678 699 698
8 531 532 553 552 678 679 700 699
8 532 533 554 553 679 680 701 700
8 533 534 555 554 680 681 702 701
8 534 535 556 555 681 682 703 702
8 535 536 557 556 682 683 704 703
8 536 537 558 557 683 684 705 704
8 537 538 559 558 684 685 706 705
8 538 539 560 559 685 686 707 706
8 539 540 561 560 686 687 708 707
8 540 541 562 561 687 688 709 708
8 541 542 563 562 688 689 710 709
8 542 543 564 563 689 690 711 710
8 543 544 565 564 690 691 712 711
8 544 545 566 565 691 692 713 712
8 546 547 568 567 693 694 715 714
8 547 548 569 568 694 695 716 715
8 548 549 570 569 695 696 717 716
8 549 550 571 570 696 697 718 717
8 550 551 572 571 697 698 719 718
8 551 552 573 572 698 699 720 719
8 552 553 574 573 699 700 721 720
8 553 554 575 574 700 701 722 721
8 554 555 576 575 701 702 723 722
8 555 556 577 576 702 703 724 723
8 556 557 578 577 703 704 725 724
8 557 558 579 578 704 705 726 725
8 558 559 580 579 705 706 727 726
8 559 560 581 580 706 707 728 727
8 560 561 582 581 707 708 729 728
8 561 562 583 582 708 709 730 729
8 562 563 584 583 709 710 731 730
8 563 564 585 584 710 711 732 731
8 564 565 586 585 711 712 733 732
8 565 566 587 586 712 713 734 733
8 588 589 610 609 735 736 757 756
8 589 590 611 610 736 737 758 757
8 590 591 612 611 737 738 759 758
8 591 592 613 612 738 739 760 759
8 592 593 614 613 739 740 761 760
8 593 594 615 614 740 741 762 761
8 594 595 616 615 741 742 763 762
8 595 596 617 616 742 743 764 763
8 596 597 618 617 743 744 765 764
8 597 598 619 618 744 745 766 765
8 598 599 620 619 745 746 767 766
8 599 600 621 620 746 747 768 767
8 600 601 622 621 747 748 769 768
8 601 602 623 622 748 749 770 769
8 602 603 624 623 749 750 771 770
8 603 604 625 624 750 751 772 771
8 604 605 626 625 751 752 773 772
8 605 606 627 626 752 753 774 773
8 606 607 628 627 753 754 775 774
8 607 608 629 628 754 755 776 775
8 609 610 631 630 756 757 778 777
8 610 611 632 631 757 758 779 778
8 611 612 633 632 758 759 780 779
8 612 613 634 633 759 760 781 780
8 613 614 635 634 760 761 782 781
8 614 615 636 635 761 762 783 782
8 615 616 637 636 762 763 784 783
8 616 617 638 637 763 764 785 784
8 617 618 639 638 764 765 786 785
8 618 619 640 639 765 766 787 786
8 619 620 641 640 766 767 788 787
8 620 621 642 641 767 768 789 788
8 621 622 643 642 768 769 790 789
8 622 623 644 643 769 770 791 790
8 623 624 645 644 770 771 792 791
8 624 625 646 645 771 772 793 792
8 625 626 647 646 772 773 794 793
8 626 627 648 647 773 774 795 794
8 627 628 649 648 774 775 796 795
8 628 629 650 649 775 776 797 796
8 630 631 652 651 777 778 799 798
8 631 632 653 652 778 779 800 799
8 632 633 654 653 779 780 801 800
8 633 634 655 654 780 781 802 801
8 634 635 656 655 781 782 803 802
8 635 636 657 656 782 783 804 803
8 636 637 658 657 783 784 805 804
8 637 638 659 658 784 785 806 805
8 638 639 660 659 785 786 807 806
8 639 640 661 660 786 787 808 807
8 640 641 662 661 787 788 809 808
8 641 642 663 662 788 789 810 809
8 642 643 664 663 789 790 811 810
8 643 644 665 664 790 791 812 811
8 644 645 666 665 791 792 813 812
8 645 646 667 666 792 793 814 813
8 646 647 668 667 793 794 815 814
8 647 648 669 668 794 795 816 815
8 648 649 670 669 795 796 817 816
8 649 650 671 670 796 797 818 817
8 651 652 673 672 798 799 820 819
8 652 653 674 673 799 800 821 820
8 653 654 675 674 800 801 822 821
8 654 655 676 675 801 802 823 822
8 655 656 677 676 802 803 824 823
8 656 657 678 677 803 804 825 824
8 657 658 679 678 804 805 826 825
8 658 659 680 679 805 806 827 826
8 659 660 681 680 806 807 828 827
8 660 661 682 681 807 808 829 828
8 661 662 683 682 808 809 830 829
8 662 663 684 683 809 810 831 830
8 663 664 685 684 810 811 832 831
8 664 665 686 685 811 812 833 832
8 665 666 687 686 812 813 834 833
8 666 667 688 687 813 814 835 834
8 667 668 689 688 814 815 836 835
8 668 669 690 689 815 816 837 836
8 669 670 691 690 816 817 838 837
8 670 671 692 691 817 818 839 838
8 672 673 694 693 819 820 841 840
8 673 674 695 694 820 821 842 841
8 674 675 696 695 821 822 843 842
8 675 676 697 696 822 823 844 843
8 676 677 698 697 823 824 845 844
8 677 678 699 698 824 825 846 845
8 678 679 700 699 825 826 847 846
8 679 680 701 700 826 827 848 847
8 680 681 702 701 827 828 849 848
8 681 682 703 702 828 829 850 849
8 682 683 704 703 829 830 851 850
8 683 684 705 704 830 831 852 851
8 684 685 706 705 831 832 853 852
8 685 686 707 706 832 833 854 853
8 686 687 708 707 833 834 855 854
8 687 688 709 708 834 835 856 855
8 688 689 710 709 835 836 857 856
8 689 690 711 710 836 837 858 857
8 690 691 712 711 837 838 859 858
8 691 692 713 712 838 839 860 859
8 693 694 715 714 840 841 862 861
8 694 695 716 715 841 842 863 862
8 695 696 717 716 842 843 864 863
8 696 697 718 717 843 844 865 864
8 697 698 719 718 844 845 866 865
8 698 699 720 719 845 846 867 866
8 699 700 721 720 846 847 868 867
8 700 701 722 721 847 848 869 868
8 701 702 723 722 848 849 870 869
8 702 703 724 723 849 850 871 870
8 703 704 725 724 850 851 872 871
8 704 705 726 725 851 852 873 872
8 705 706 727 726 852 853 874 873
8 706 707 728 727 853 854 875 874
8 707 708 729 728 854 855 876 875
8 708 709 730 729 855 856 877 876
8 709 710 731 730 856 857 878 877
8 710 711 732 731 857 858 879 878
8 711 712 733 732 858 859 880 879
8 712 713 734 733 859 860 881 880
8 735 736 757 756 882 883 904 903
8 736 737 758 757 883 884 905 904
8 737 738 759 758 884 885 906 905
8 738 739 760 759 885 886 907 906
8 739 740 761 760 886 887 908 907
8 740 741 762 761 887 888 909 908
8 741 742 763 762 888 889 910 909
8 742 743 764 763 889 890 911 910
8 743 744 765 764 890 891 912 911
8 744 745 766 765 891 892 913 912
8 745 746 767 766 892 893 914 913
8 746 747 768 767 893 894 915 914
8 747 748 769 768 894 895 916 915
8 748 749 770 769 895 896 917 916
8 749 750 771 770 896 897 918 917
8 750 751 772 771 897 898 919 918
8 751 752 773 772 898 899 920 919
8 752 753 774 773 899 900 921 920
8 753 754 775 774 900 901 922 921
8 754 755 776 775 901 902 923 922
8 756 757 778 777 903 904 925 924
8 757 758 779 778 904 905 926 925
8 758 759 780 779 905 906 927 926
8 759 760 781 780 906 907 928 927
8 760 761 782 781 907 908 929 928
8 761 762 783 782 908 909 930 929
8 762 763 784 783 909 910 931 930
8 763 764 785 784 910 911 932 931
8 764 765 786 785 911 912 933 932
8 765 766 787 786 912 913 934 933
8 766 767 788 787 913 914 935 934
8 767 768 789 788 914 915 936 935
8 768 769 790 789 915 916 937 936
8 769 770 791 790 916 917 938 937
8 770 771 792 791 917 918 939 938
8 771 772 793 792 918 919 940 939
8 772 773 794 793 919 920 941 940
8 773 774 795 794 920 921 942 941
8 774 775 796 795 921 922 943 942
8 775 776 797 796 922 923 944 943
8 777 778 799 798 924 925 946 945
8 778 779 800 799 925 926 947 946
8 779 780 801 800 926 927 948 947
8 780 781 802 801 927 928 949 948
8 781 782 803 802 928 929 950 949
8 782 783 804 803 929 930 951 950
8 783 784 805 804 930 931 952 951
8 784 785 806 805 931 932 953 952
8 785 786 807 806 932 933 954 953
8 786 787 808 807 933 934 955 954
8 787 788 809 808 934 935 956 955
8 788 789 810 809 935 936 957 956
8 789 790 811 810 936 937 958 957
8 790 791 812 811 937 938 959 958
8 791 792 813 812 938 939 960 959
8 792 793 814 813 939 940 961 960
8 793 794 815 814 940 941 962 961
8 794 795 816 815 941 942 963 962
8 795 796 817 816 942 943 964 963
8 796 797 818 817 943 944 965 964
8 798 799 820 819 945 946 967 966
8 799 800 821 820 946 947 968 967
8 800 801 822 821 947 948 969 968
8 801 802 823 822 948 949 970 969
8 802 803 824 823 949 950 971 970
8 803 804 825 824 950 951 972 971
8 804 805 826 825 951 952 973 972
8 805 806 827 826 952 953 974 973
8 806 807 828 827 953 954 975 974
8 807 808 829 828 954 955 976 975
8 808 809 830 829 955 956 977 976
8 809 810 831 830 956 957 978 977
8 810 811 832 831 957 958 979 978
8 811 812 833 832 958 959 980 979
8 812 813 834 833 959 960 981 980
8 813 814 835 834 960 961 982 981
8 814 815 836 835 961 962 983 982
8 815 816 837 836 962 963 984 983
8 816 817 838 837 963 964 985 984
8 817 818 839 838 964 965 986 985
8 819 820 841 840 966 967 988 987
8 820 821 842 841 967 968 989 988
8 821 822 843 842 968 969 990 989
8 822 823 844 843 969 970 991 990
8 823 824 845 844 970 971 992 991
8 824 825 846 845 971 972 993 992
8 825 826 847 846 972 973 994 993
8 826 827 848 847 973 974 995 994
8 827 828 849 848 974 975 996 995
8 828 829 850 849 975 976 997 996
8 829 830 851 850 976 977 998 997
8 830 831 852 851 977 978 999 998
8 831 832 853 852 978 979 1000 999
8 832 833 854 853 979 980 1001 1000
8 833 834 855 854 980 981 1002 1001
8 834 835 856 855 981 982 1003 1002
8 835 836 857 856 982 983 1004 1003
8 836 837 858 857 983 984 1005 1004
8 837 838 859 858 984 985 1006 1005
8 838 839 860 859 985 986 1007 1006
8 840 841 862 861 987 988 1009 1008
8 841 842 863 862 988 989 1010 1009
8 842 843 864 863 989 990 1011 1010
8 843 844 865 864 990 991 1012 1011
8 844 845 866 865 991 992 1013 1012
8 845 846 867 866 992 993 1014 1013
8 846 847 868 867 993 994 1015 1014
8 847 848 869 868 994 995 1016 1015
8 848 849 870 869 995 996 1017 1016
8 849 850 871 870 996 997 1018 1017
8 850 851 872 871 997 998 1019 1018
8 851 852 873 872 998 999 1020 1019
8 852 853 874 873 999 1000 1021 1020
8 853 854 875 874 1000 1001 1022 1021
8 854 855 876 875 1001 1002 1023 1022
8 855 856 877 876 1002 1003 1024 1023
8 856 857 878 877 1003 1004 1025 1024
8 857 858 879 878 1004 1005 1026 1025
8 858 859 880 879 1005 1006 1027 1026
8 859 860 881 880 1006 1007 1028 1027
CELL_TYPES 720
12
12
12
12
12
12
12
12
12
12
12
12
12
12
12
12
12
12
12
12
12
12
12
12
12
12
12
12
12
12
12
12
12
12
12
12
12
12
12
12
12
12
12
12
12
12
12
12
12
12
12
12
12
12
12
12
12
12
12
12
12
12
12
12
12
12
12
12
12
12
12
12
12
12
12
12
12
12
12
12
12
12
12
12
12
12
12
12
12
12
12
12
12
12
12
12
12
12
12
12
12
12
12
12
12
12
12
12
12
12
12
12
12
12
12
12
12
12
12
12
12
12
12
12
12
12
12
12
12
12
12
12
12
12
12
12
12
12
12
12
12
12
12
12
12
12
12
12
12
12
12
12
12
12
12
12
12
12
12
12
12
12
12
12
12
12
12
12
12
12
12
12
12
12
12
12
12
12
12
12
12
12
12
12
12
12
12
12
12
12
12
12
12
12
12
12
12
12
12
12
12
12
12
12
12
12
12
12
12
12
12
12
12
12
12
12
12
12
12
12
12
12
12
12
12
12
12
12
12
12
12
12
12
12
12
12
12
12
12
12
12
12
12
12
12
12
12
12
12
12
12
12
12
12
12
12
12
12
12
12
12
12
12
12
12
12
12
12
12
12
12
12
12
12
12
12
12
12
12
12
12
12
12
12
12
12
12
12
12
12
12
12
12
12
12
12
12
12
12
12
12
12
12
12
12
12
12
12
12
12
12
12
12
12
12
12
12
12
12
12
12
12
12
12
12
12
12
12
12
12
12
12
12
12
12
12
12
12
12
12
12
12
12
12
12
12
12
12
12
12
12
12
12
12
12
12
12
12
12
12
12
12
12
12
12
12
12
12
12
12
12
12
12
12
12
12
12
12
12
12
12
12
12
12
12
12
12
12
12
12
12
12
12
12
12
12
12
12
12
12
12
12
12
12
12
12
12
12
12
12
12
12
12
12
12
12
12
12
12
12
12
12
12
12
12
12
12
12
12
12
12
12
12
12
12
12
12
12
12
12
12
12
12
12
12
12
12
12
12
12
12
12
12
12
12
12
12
12
12
12
12
12
12
12
12
12
12
12
12
12
12
12
12
12
12
12
12
12
12
12
12
12
12
12
12
12
12
12
12
12
12
12
12
12
12
12
12
12
12
12
12
12
12
12
12
12
12
12
12
12
12
12
12
12
12
12
12
12
12
12
12
12
12
12
12
12
12
12
12
12
12
12
12
12
12
12
12
12
12
12
12
12
12
12
12
12
12
12
12
12
12
12
12
12
12
12
12
12
12
12
12
12
12
12
12
12
12
12
12
12
12
12
12
12
12
12
12
12
12
12
12
12
12
12
12
12
12
12
12
12
12
12
12
12
12
12
12
12
12
12
12
12
12
12
12
12
12
12
12
12
12
12
12
12
12
12
12
12
12
12
12
12
12
12
12
12
12
12
12
12
12
12
12
12
12
12
12
12
12
12
12
12
12
12
12
12
12
12
12
12
12
12
12
12
12
12
12
12
12
12
12
12
12
12
12
12
12
12
12
12
12
12
12
12
12
12
12
12
12
12
12
12
12
12
12
12
12
12
12
12
12
12
12
12
12
12
12
12
12
12
12
12
12
12
12
12
12
12
12
12
12
12
12
12
12
12
12
12
12
12
POINT_DATA 1029
VECTORS Disp float
0.0 0.0 0.0
0.01097575514240906 -0.39799724536714337 0.009526539419859807
0.026430362585024157 -0.7499859567864228 0.020512634950426885
0.04780525710583513 -1.0890382777943288 0.029285595633229536
0.07822306208387142 -1.4059619109748505 0.03723515214848906
0.11811039563637621 -1.693284762817513 0.043807808445801476
0.16730261808468544 -1.943111744317389 0.04873016539443091
0.2255021540947424 -2.1478079799051977 0.051652538676600385
0.29191364427005095 -2.29993070086193 0.05233016162338122
0.3645612767219876 -2.393125440821723 0.0511634697400907
0.4401698728594225 -2.4241792012037027 0.050107562764543735
0.5158053400906003 -2.3935801489241655 0.05120554127968294
0.5885388282262908 -2.300850722357608 0.052429063655206436
0.6551115926948412 -2.149212681678335 0.05184091523983093
0.7135776168176103 -1.9450243304924175 0.049064214572634955
0.7631886998469071 -1.695720282428452 0.04437771265637459
0.8037134271580211 -1.4089062313643337 0.03816872966111734
0.8350811433499672 -1.0924117763845302 0.030803225764129152
0.8578395745935351 -0.7536330077961125 0.02275203687760247
0.8756806342744505 -0.40162434411560755 0.01352625390396145
0.892384134772002 0.0 -7.722825254725955e-05
0.1562039699671606 -0.016995545004457078 -0.005001903241994733
0.16294578826149003 -0.3962305249653389 0.004990569297458341
0.168380931191728 -0.7523822058662113 0.01299444730595001
0.18238764872275062 -1.0918532313491598 0.019777933772837066
0.20214809555496466 -1.4100108799508555 0.025455406138457308
0.22823858031899802 -1.6984159938033274 0.030126930981023224
0.2605097473950816 -1.9493357402623406 0.033588734079786305
0.2987568034835343 -2.1550803623196835 0.03568124190102114
0.34245796796128725 -2.308113494597636 0.036294704306218735
0.39034168319051155 -2.4018377592552564 0.03568061811195474
0.44025178007272203 -2.4329215940352427 0.03502744367902077
0.4901902916699615 -2.402299949401681 0.035666137707451764
0.5381641101700574 -2.3090498780840445 0.0362782942698462
0.5820320434209677 -2.1565132546279155 0.03569134883526421
0.6205489136582834 -1.9512930387734937 0.03367685748287152
0.65323269975694 -1.7009198957434222 0.030376796392238045
0.6799347962868267 -1.413055469991181 0.026002851310808192
0.7005757689161096 -1.0953707663188887 0.020804166025475353
0.715857824991643 -0.7562359763021341 0.014855018710715645
0.7231115039484087 -0.40014481592421447 0.007710824877275239
0.7308280873017879 -0.017935517330885137 -0.0020172525028230256
0.3036692497990005 -0.029508634231008492 -0.008174016473167426
0.30714561262391016 -0.39563760411215654 -0.0004423406907942168
0.307752181923689 -0.752925558880287 0.005271767452807547
0.31318696665316387 -1.0935537631820043 0.00948402686465321
0.3225214370016612 -1.4123332217507205 0.012706990063655325
0.3350803932686878 -1.7014234741054537 0.015166908828044168
0.35084680796601947 -1.9529937334520926 0.016878900291279034
0.3697423204581403 -2.15939172407443 0.017808021494289703
0.39162773399000733 -2.3129884342272478 0.017936516853237876
0.4157483426855806 -2.4068259910383953 0.017308612434702293
0.4403167238898094 -2.437381058456063 0.016600725537750636
0.46491406536737756 -2.407296268517905 0.017237675129100342
0.48912594649051105 -2.313942228780565 0.017804777780580365
0.5111782176692465 -2.1608538399800485 0.017639548603234502
0.5303385591314629 -1.9549959350482584 0.016719371670769867
0.5465000580472287 -1.7039934916930488 0.015096289386830788
0.5596267770856085 -1.4154725561262351 0.012855199547004377
0.5697522576929337 -1.0971980118421645 0.010056774854330638
0.5762442220083941 -0.7569470881804071 0.006557609203269797
0.5777150876419126 -0.3994138437061658 0.0017255769214008063
0.5816108491456253 -0.030956578563579334 -0.005136906514166255
0.44680015303133136 -0.03752793197671185 -0.011007051756747793
0.44773435372186055 -0.39573813066357766 -0.005726364525225722
0.44466957980213184 -0.7524739982441329 -0.002531806080884289
0.4423838435867585 -1.0938897569312704 -0.001043669078108122
0.44117133429613575 -1.4130311095710146 -0.0004216734680196981
0.44035499927379146 -1.702359400389509 -0.00028117095652315985
0.43980226376247744 -1.9541731197389034 -0.0004496770889253666
0.43959757892526263 -2.1608553136593445 -0.0008342514060710047
0.4400562261966868 -2.314727795291745 -0.0013485653848062575
0.4409850176333576 -2.4081566089985147 -0.0020939697492442615
0.4403746548280972 -2.437106845636609 -0.002993869777381841
0.43979337503759663 -2.4086353359927273 -0.002221780822856223
0.4408132906151165 -2.3156995796173807 -0.0015966101432767555
0.44143651049072063 -2.1623470761811925 -0.001183216685507764
0.4414880102775529 -1.9562196570342454 -0.000859728338005978
0.4413067524425041 -1.7049929689233845 -0.0006778477060424545
0.44100390622005886 -1.416257436448549 -0.0006753875013677977
0.4404725578061468 -1.0976496606493127 -0.0009445985234660983
0.43893450448806803 -0.7565442445289902 -0.0017961484340630503
0.4363312576176836 -0.3993639561587741 -0.004103455033863718
0.43749682324028827 -0.03935182947266288 -0.008446699050645478
0.58875845899998 -0.041820738780608005 -0.013918306170457173
0.5874476700572742 -0.3958986240408837 -0.010744018826253147
0.5809859687070619 -0.7513688727723751 -0.010206945149362063
0.5715570332893725 -1.092954184551268 -0.011511954968953199
0.5598816008654983 -1.4120785569578467 -0.013526872313746857
0.5456405262785888 -1.7012444703805423 -0.015713485713076132
0.5287922904155876 -1.952887807296177 -0.017771098315393502
0.509439353950781 -2.1594665621984195 -0.0194838080184822
0.4883249314158422 -2.3134132777719687 -0.02061359775580393
0.4663465347582721 -2.4060534707174632 -0.021108822469304588
0.44043414792760704 -2.431425248635912 -0.021916285797476023
0.4145511004008556 -2.4065409366432235 -0.02129444788626938
0.3926640598711111 -2.3144035022314857 -0.020980046190633112
0.3717125225246688 -2.1609882205637505 -0.020016900700557522
0.35260788671048937 -1.9549780304983129 -0.018437521301357666
0.3361075721821676 -1.7039380417496859 -0.01644467423588236
0.3223234633999016 -1.4153850558600134 -0.014195152631563505
0.31119462594757435 -1.0968011407719733 -0.011903091745367286
0.302274207995629 -0.7554479318678362 -0.010017468680846726
0.29607635330679943 -0.3994288156349328 -0.009680402438801784
0.29489189066224974 -0.043883454388972926 -0.01191757088567314
0.7316663256552006 -0.04342694217647913 -0.017053994900105496
0.7285853020310151 -0.3957328007645665 -0.01547849942223416
0.718857080769265 -0.7497099093749074 -0.017579572803006736
0.702532359471982 -1.0908386267492627 -0.021634982134796983
0.680356448558883 -1.4094607576515075 -0.026206828153172428
0.6525419083347775 -1.6980520087212394 -0.030619244651963102
0.6191810822199127 -1.9491448995713199 -0.034461608591083354
0.5805503597580668 -2.155140147693685 -0.03737466507414833
0.5369110517936994 -2.3089509385063156 -0.039006081358494996
0.4916706783100168 -2.4011119744338796 -0.038450893083336324
0.44050391622733104 -2.419306074001333 -0.03768908310847244
0.38936749533899645 -2.4016085747761413 -0.03869576846702218
0.34422095566259825 -2.309960255845572 -0.03949407551558239
0.3007466531004315 -2.1566922892389444 -0.03809729117490613
0.2623618056902566 -1.9512784299272201 -0.03539288120000069
0.22933296494160132 -1.700802574658551 -0.03169762455874443
0.2019232101335528 -1.4128362967535033 -0.027308128554977856
0.180165136295095 -1.0947484805534475 -0.022537987140708253
0.1641490229620624 -0.7537937401628088 -0.017949889333569363
0.1545297969597341 -0.3992157560330504 -0.014969927230794816
0.15148066313245948 -0.04560454257964211 -0.015594391519150031
0.8766999239614324 -0.04375449881643262 -0.02030644567948488
0.8732086682931383 -0.3951762012788385 -0.019939104570713385
0.8608495689169892 -0.7475289063739993 -0.024397982876955687
0.8373737893315794 -1.0875133397118169 -0.030960255105053475
0.8044352035346725 -1.405126160929333 -0.03783162997830848
0.7627601343245316 -1.6927233973469875 -0.04420781685212049
0.7124927789925686 -1.9428152039942044 -0.049560788798778545
0.6539478507162094 -2.147962396470495 -0.05339161539948737
0.5876737087481594 -2.3005055115171267 -0.05522848078009216
0.5139237127158589 -2.3942570455135086 -0.053271357524162524
0.44059434094407446 -2.4 -0.04527031605158714
0.36729781373367737 -2.3947635424472677 -0.05357733212873658
0.2936486760894401 -2.301535293311835 -0.05584202292092044
0.22754932305212933 -2.149546594753109 -0.05431053837740677
0.16925896989685837 -1.9449929741039442 -0.050767337551398437
0.11932286276061345 -1.6955288759670337 -0.04564860631958403
0.07802076592878462 -1.4085592561669857 -0.039386594864791714
0.04539186665996969 -1.091461786579618 -0.032398419897190917
0.022006042855289114 -0.7516046101859559 -0.025343629035008045
0.00951890231768939 -0.39862921219566383 -0.01996785152758584
0.005937069733799908 -0.04595643138716247 -0.01932441954755156
0.0 0.0 0.0
0.010266757516130199 -0.3761678976918882 0.0063410133404316945
0.026029766825977477 -0.7194105784529514 0.012111021057675787
0.04834332430150878 -1.0491121176291245 0.017473668842954957
0.07914312989640235 -1.3575179495322 0.02161219318689634
0.11874071214022769 -1.6377724294600706 0.024517215589385792
0.16699246464798875 -1.8828010619244153 0.025989454215772756
0.22366828453135892 -2.0858088842180127 0.025892748232964558
0.2885438146446521 -2.240147672189985 0.02429091505241815
0.3613534581684844 -2.338831212564701 0.02186709640632412
0.4402588119681522 -2.373757838901329 0.020465054024863514
0.519173331033382 -2.339009610453108 0.021881504813736803
0.5920117488413631 -2.2405039176745496 0.024330130539535144
0.6569399856079029 -2.0863416849193728 0.025979726348864585
0.713701488793643 -1.8835075005020112 0.026163986006670095
0.7620895793656218 -1.6386446613605683 0.024839541300040038
0.8019057379243518 -1.3585351423302967 0.022173598105861864
0.8330679657740927 -1.0502234949249798 0.018370725161159753
0.8559706710207025 -0.7205164023728203 0.013606708150058844
0.8728974726258206 -0.3772258851721557 0.008066397589865285
0.8859302911329191 0.0 0.007080415223353273
0.15178418643002362 -0.010936997560967313 0.0009346194786935961
0.15793002120772542 -0.3756204753209609 0.002907263151446629
0.16543529917449443 -0.7218392181091032 0.00756108585336086
0.1804223722751778 -1.05215187244517 0.011377364110738817
0.20092659546966557 -1.361695618609828 0.01433613700866817
0.2272987700944962 -1.643012442940218 0.016314325802778078
0.2594371965322249 -1.8891181585065706 0.017282697447347978
0.29717159110179686 -2.0931945858516965 0.017202235415853577
0.34026501468688364 -2.248628319926783 0.016163464611668878
0.38839033034231973 -2.348433112000534 0.014557086242918137
0.4402986663586497 -2.384058379815616 0.01353019989956561
0.49221601106398316 -2.348613456818394 0.014519932868465837
0.5403695201102267 -2.248988589731178 0.01609726140969618
0.5835141679394262 -2.093733821151235 0.017125811042489142
0.6213306419613897 -1.8898341642723469 0.017230386291881273
0.6535964356182256 -1.6438989562003352 0.016343918232214205
0.680168727839419 -1.3627349371135618 0.014532911358959488
0.7009909015317628 -1.053298667811368 0.01188236387271316
0.7165234341077424 -0.7230147532067976 0.008501939184812016
0.7249852647500291 -0.3768282539624757 0.004786138755736893
0.7316791254467414 -0.01112555738541522 0.005358570773841458
0.29754667240066524 -0.019257246591518 -0.0016826721917170219
0.3009539570440601 -0.37554690910235067 -0.00013126791971823298
0.3035701924840424 -0.7227403372287188 0.0029258607007116373
0.3104358290722878 -1.0540020363362625 0.005412728449894253
0.32068605764295954 -1.3641404158506936 0.007140146373158072
0.3338255375298729 -1.646102432261586 0.008182885210096302
0.34985356072454715 -1.8928345584816308 0.008584295428633747
0.3686235409563996 -2.097509830916232 0.00838122107833103
0.38987454768697655 -2.2535506637419065 0.007620756284938066
0.41366483641939633 -2.3542464134689363 0.0063371998947511065
0.44034173834058926 -2.3909510081638845 0.0052039645018339435
0.4670273914401507 -2.354429592932289 0.006249180623754472
0.4908448533346349 -2.2539166992481716 0.00745081207565945
0.5121444145869427 -2.098057969134711 0.008144623071769802
0.5309900319077645 -1.8935629900707807 0.008311896471456588
0.5471313515020226 -1.6470058627407047 0.007930464295336623
0.5604412844926702 -1.3652032292584468 0.007002005724474086
0.5709568800446876 -1.0551818042755166 0.005533246461656355
0.5782631749677605 -0.7239819826632944 0.0035181491977621646
0.5813398691143181 -0.37668269051708625 0.0014303088212706105
0.5849509763097089 -0.01943374338052225 0.0016587492920646118
0.44030308928546674 -0.024846316811894018 -0.00520980575932852
0.4414580326116126 -0.3758039156932011 -0.003471621636996128
0.4401943193133393 -0.7227006079058199 -0.0016968340872047117
0.4395166741074456 -1.0545463908280446 -0.0005677168859950581
0.43939097263221 -1.364959761679464 -7.799126933561035e-05
0.43931163563368825 -1.647123627901871 -1.4834538677631595e-05
0.4392274281678954 -1.8940637734449002 -0.00023511555530158698
0.43908364516043996 -2.098881205257695 -0.0006534874619741957
0.43856083191618617 -2.2550443076396953 -0.0012507403225557696
0.4381348237592213 -2.356606145707204 -0.002332813421702463
0.4403864069165392 -2.3953607332422764 -0.0038713710677463447
0.44264642368898716 -2.3567930044155028 -0.0024717952845891766
0.442246322415761 -2.2554177365143997 -0.001524577016217722
0.44176872759090524 -2.0994404706004204 -0.0010502184774451697
0.44169274092841404 -1.8948070261678511 -0.0007271327069589016
0.44170458803721635 -1.6480458253753791 -0.0005462177180483989
0.4417605901012494 -1.3660456550690094 -0.0005471032224625465
0.44183703183239165 -1.055759056104232 -0.0008079809246082384
0.4414324251585009 -0.7239543327867316 -0.0014441171405233147
0.4403795683942269 -0.3768320117409797 -0.002289065640510834
0.4416340627584056 -0.025031936341701626 -0.0026216782406255504
0.5820792335850776 -0.028029204253446464 -0.008849874751911286
0.5811907009243219 -0.37603410124746695 -0.006947244358964798
0.5763616840256947 -0.7219990952244464 -0.006296947061942474
0.5685811185417484 -1.0538613166218775 -0.0065221992177464765
0.5581318936379116 -1.3641540381466761 -0.007273577835331996
0.5448031768012577 -1.6461021019846034 -0.00819915006250002
0.5285812666662294 -1.892839742089504 -0.009049981287137956
0.5095929733472769 -2.0973944260072708 -0.009684256767133869
0.48751879584850943 -2.253134497747475 -0.010071019132149991
0.4625956796641395 -2.355375168821248 -0.010667305452049582
0.44043200935339843 -2.3980134540927587 -0.01276348565076147
0.41827647531691436 -2.355566552069761 -0.010858205654374212
0.39337804187063347 -2.253516937216559 -0.010450811471395328
0.3713457878970064 -2.097966997768809 -0.010244625926556873
0.3524174445173647 -1.8936001166143273 -0.009766967219502735
0.33627402481059815 -1.64704430429583 -0.009017443776537279
0.3230447320121836 -1.365262867721944 -0.008083657791458674
0.3127205729245781 -1.0550963618244777 -0.007132697275869682
0.30507192800589494 -0.7232414245606654 -0.006409304717640885
0.30031967768766765 -0.37697866232107485 -0.006168854038152255
0.29948105395498215 -0.02823098513804427 -0.006895019438003986
0.7243014570398063 -0.029399475983538207 -0.01218986462474083
0.7216868025847 -0.3759868611766267 -0.01033923883005586
0.7133957206182409 -0.7207141466854502 -0.010838134382918146
0.698693622919428 -1.0519984472456305 -0.012411994229517461
0.6779439358146733 -1.361693154706024 -0.01439867682641484
0.6513402403924169 -1.6430117176122596 -0.01628906927677712
0.6189890636630897 -1.8891037892299927 -0.01773723962928313
0.5810035746763116 -2.0930899925268034 -0.018495260245893846
0.5379875392349314 -2.2478760301895666 -0.01853920395404243
0.48830438925728353 -2.3498002439204657 -0.017961617609595134
0.44047783868145785 -2.399587277616374 -0.020186649372601496
0.39265921589245867 -2.349997052045654 -0.018206211823037572
0.3429998302686609 -2.248269210529478 -0.019028876761884753
0.3000230916305118 -2.0936782536731067 -0.019226155775506373
0.26209103231916636 -1.889883827506087 -0.018690503919121495
0.2298036272841828 -1.6439757561208184 -0.017412298525418424
0.2032660838665054 -1.3628233161108418 -0.015577122197875574
0.18256915565320578 -1.0532467326109876 -0.013432423773507401
0.16788333472760325 -0.7219413495748379 -0.011367811220794104
0.1595718982718947 -0.3768809551812265 -0.009987607859569625
0.156962443250208 -0.02960795194312996 -0.01078427300378983
0.8677613638053195 -0.02983715644311393 -0.01475384777613118
0.8642484766233984 -0.3755844607279549 -0.013513570486318915
0.8527105499582825 -0.7188197736244798 -0.015344917749848072
0.8308837162636376 -1.0488982355153187 -0.018324903999896898
0.7997712907419673 -1.3575056114443362 -0.021572946597831016
0.7599045946290133 -1.6377499790551995 -0.024420155939453105
0.7114176403330831 -1.8827899284276475 -0.02640768851749583
0.6544723490165941 -2.08563575183138 -0.027219895335414784
0.5897268815189812 -2.239860368193647 -0.026646892130024715
0.5193685988213013 -2.3385353730056506 -0.024555112087357042
0.4405221190934494 -2.4 -0.023615115943420938
0.3616834494964726 -2.3387385795561193 -0.02485585074225285
0.291348387844639 -2.240266192629031 -0.027251933815027867
0.22664057037397878 -2.0862423950677265 -0.02813117095361046
0.16974454168382824 -1.8835928025187574 -0.027613869547784855
0.12131178043546675 -1.6387386082603201 -0.025875926182821304
0.08148856569060174 -1.3586566904977009 -0.023165300714982132
0.050375568220762036 -1.0501537911496115 -0.019826372808602024
0.028463893040874003 -0.7200298473893886 -0.016381527821632352
0.01678811976172395 -0.3764484700010649 -0.013630662814084364
0.013216198448778475 -0.03003657805290201 -0.013785800029618352
0.0 0.0 0.0
0.014253010748272387 -0.3665891342224108 0.0027397846892355964
0.029977516700332267 -0.7037547087414633 0.005141351499976349
0.051772252310595054 -1.0285758268600103 0.0074182608556726
0.0816843487181325 -1.3332527226402415 0.009031794880537106
0.11983836418300237 -1.6112209175316137 0.009850114414764275
0.1661234890586379 -1.8558801806940124 0.009808548745187018
0.22060901703839753 -2.0608898562693443 0.008921416159933589
0.28399576660053866 -2.219720442331528 0.007375895818667027
0.35763380541256445 -2.324113420935176 0.005712106837366425
0.44028089821508287 -2.362085616481652 0.004915167592505644
0.5229173338527838 -2.3240711207431017 0.005713640401209279
0.5965217791568677 -2.219622838018028 0.007385334131591976
0.6598468592271522 -2.060711499824577 0.00895260527213429
0.7142330639492502 -1.8555849714105022 0.009884486618451939
0.7603649526517113 -1.6107672546293443 0.010003482789927909
0.7982871119383476 -1.3326043486783175 0.009304491995804711
0.8278450981910913 -1.0277223177972536 0.007854265442479694
0.8491122512754664 -0.7027298415176413 0.00584933090801884
0.8637649053604582 -0.3653660890581448 0.003937656506114456
0.8749393658989807 0.0 0.004017633621867706
0.15243426670405252 -0.009457975493965428 9.905998229182054e-05
0.1587272754173869 -0.36653141233475434 0.0014060149039451274
0.16704414791084013 -0.7062816097463223 0.0032442079705190165
0.18194951073935403 -1.0317839517080931 0.004901881957225099
0.20205422632092898 -1.33761363925947 0.006096954368719369
0.22765384846915246 -1.6166989759331047 0.006705230140212666
0.2586708654063467 -1.8625330099260096 0.006717518041418605
0.2951452097136401 -2.068803509938347 0.006176788268978881
0.33741508913198015 -2.2291106922376165 0.005221783559461143
0.38610126186612337 -2.3352284874974454 0.004174605164986203
0.4402748434654382 -2.3743214174699445 0.0036464098054652177
0.49443522712134885 -2.335182545334306 0.004143958371881866
0.5430803165930084 -2.229004855118625 0.005165066092618472
0.5852766615263241 -2.06861025089917 0.006104467396801632
0.6216369312926953 -1.862212650719157 0.0066481566376982515
0.6524869007202642 -1.6162041128207325 0.006668119724322628
0.6778467619773657 -1.3368993161084692 0.006132723987068435
0.6976129118143433 -1.0308273036940818 0.005072182140435952
0.7120021904323783 -0.7050865631359818 0.0036406978303262913
0.7194554220726253 -0.3650261276993692 0.002498197780861809
0.7253911705484373 -0.008990785149411257 0.0031884904618739384
0.29649950789323454 -0.01630416324456551 -0.0009500391937165653
0.2997358918748592 -0.36637590925979874 -5.4822132270467783e-05
0.30278337464102745 -0.7074387014534983 0.001202171060739454
0.30999688112382157 -1.0338172216191914 0.0023048247735834287
0.3202929237848006 -1.3402712811610178 0.0030479822727836657
0.3332670789856734 -1.6200437654689333 0.003389528558270416
0.34891596487068555 -1.8665757057108254 0.00335720616051691
0.36715112905132696 -2.0735494808689263 0.0030062404795090443
0.3879119793413225 -2.234674668960627 0.0024108340556858844
0.4119211825942628 -2.342197985002612 0.0017023507354999789
0.44027245316682195 -2.382991011415425 0.0012771022304902554
0.46860823231642107 -2.3421498464629216 0.0016403419366184924
0.4925696639440872 -2.2345636407083056 0.0022900262197417015
0.513246638875877 -2.0733463082301435 0.0028347147917836485
0.5313556980748309 -1.866237751837772 0.0031511752740093144
0.5468276305732723 -1.619518745477334 0.0031776567373930165
0.559562405848798 -1.3395065413233889 0.0028772193762058498
0.5695386021182943 -1.032780372125102 0.0022471131985830582
0.5763064376827609 -0.7061006579369606 0.0013985353398325105
0.5790085202465424 -0.36487011309156575 0.0008420029018208978
0.5822358381849337 -0.01560349698120554 0.0013713499494667487
0.43727976629380283 -0.020898264200104256 -0.00261044498193473
0.4382402875169571 -0.3663807225688882 -0.0016593877563600384
0.4372587994491691 -0.707551483668597 -0.0008794369546716106
0.4371087024398985 -1.0345098756015938 -0.00031304448240588114
0.4374638853715105 -1.3412150696090015 -2.107533554965396e-05
0.43778204252674763 -1.6211979222630675 3.016092706239751e-05
0.4379948479645361 -1.8679513644465615 -8.896660504738238e-05
0.43796553745034367 -2.0750484084169343 -0.0003185936684392811
0.4372038096426093 -2.23630842192249 -0.0006475333511041487
0.43662754947718674 -2.3452326368617262 -0.001117642789569231
0.44027204677271 -2.389148406817269 -0.0014996914600658253
0.44389883124168245 -2.3451838333411374 -0.0012109186051489848
0.4432683396557975 -2.2361954275164857 -0.0008320784660254895
0.44241284558658345 -2.0748406072397914 -0.0005882828335247038
0.442246091061954 -1.8676038213101451 -0.00042921183848963285
0.44227360765609525 -1.6206543131296733 -0.0003508017208497077
0.4423554817557752 -1.3404169744433179 -0.00038859191465007804
0.4424159754065245 -1.0334115186823258 -0.0005756608852241049
0.4419551647456601 -0.7061559113073911 -0.000860663470483173
0.4408406475696487 -0.36491890936467575 -0.0009923930180326568
0.4418643434039087 -0.01999196352270139 -0.0008598567518270378
0.5769880211964502 -0.02353165786011174 -0.004443473705752635
0.5759246101097555 -0.3663762523277276 -0.0033054182179685877
0.5713321412958174 -0.7068995711075068 -0.002957132265456393
0.5642213748569986 -1.033884389285419 -0.0029232147182028582
0.5546536588659144 -1.3404204071086703 -0.0030809051893543296
0.5422911451303917 -1.6201459161094889 -0.0033223356709313413
0.5270285202952218 -1.866650103414949 -0.003531207178316567
0.508858674946729 -2.073364529821374 -0.003638986936455418
0.48699132118442573 -2.233992442783033 -0.0036861445250501324
0.4615075387780826 -2.344061367776096 -0.0038761609850636006
0.44027167946561147 -2.393650378305631 -0.00417678618154315
0.4190157706988175 -2.3440134610623904 -0.00400132028046717
0.39347093607998074 -2.2338807703107233 -0.0039357366701683405
0.3714992396796681 -2.0731574890970723 -0.0040090201002594885
0.35317946253285715 -1.8663010740385346 -0.004008967492982184
0.33772170415873 -1.6195959243773344 -0.00387732268115142
0.3251240526611383 -1.3396052628001114 -0.003651609021656076
0.31529887608973395 -1.032755328687946 -0.0033974062230130745
0.30797542134770817 -0.7054918041879281 -0.0031356566682041493
0.30333169972228274 -0.36494563937323543 -0.00287991370281724
0.3023403207612674 -0.022468794724756578 -0.0031422861907980065
0.7170686514954758 -0.02468999046423625 -0.006062148968637666
0.7142895002263846 -0.36617861492109605 -0.004830971737849649
0.7062229444347685 -0.7055997440871631 -0.004984824466017274
0.6923566604805959 -1.032003782154268 -0.005496732807370313
0.6729096162082074 -1.33788134690142 -0.006102111860826904
0.647879015535199 -1.616900529782706 -0.006617954125351732
0.6172155345133742 -1.8626486919853282 -0.006879033361487638
0.5808106882829156 -2.068645545911821 -0.0067995535345910735
0.5389582909653616 -2.227927968898379 -0.006452702124407628
0.4885094588823046 -2.337709346406731 -0.006200103059269594
0.4402694053271351 -2.3972913835153506 -0.006251441945938146
0.39200666538476037 -2.3376638709870523 -0.0063584784837848645
0.3414890092275338 -2.2278208553569816 -0.0067703285916088886
0.2995199135091497 -2.068444550065813 -0.0072753034496627796
0.2629497155815311 -1.8623062107496215 -0.007503429478114371
0.23207623021889123 -1.6163559475119458 -0.007362137393516907
0.20680673332386398 -1.3370676813571019 -0.006900245428329523
0.1871322069644486 -1.030873254830581 -0.006219873768652455
0.17312146304837744 -0.7042026526049157 -0.005411420608006088
0.16504864761535112 -0.3647636330331212 -0.004664974564091259
0.1623439066980627 -0.023528607460575716 -0.005128326432321795
0.8583658846957656 -0.025103020374775846 -0.006969222076367576
0.8546662039637147 -0.3657113669636957 -0.006083763700411606
0.8433544352155224 -0.7036873221710872 -0.006879901107718479
0.8226029482174682 -1.0288922214038072 -0.007961060808092968
0.7932781134059185 -1.3336362154465145 -0.008995248945095326
0.7556576952114593 -1.6114944947046017 -0.009729664227329463
0.7096847893887224 -1.8560640740295353 -0.009947820283958108
0.6552439465165075 -2.0606925736753503 -0.009531571636557728
0.5926369800017526 -2.2192570424108635 -0.008580387042676312
0.523294086671604 -2.324605552904082 -0.007590234598607362
0.4402635530464267 -2.4 -0.007126970846772627
0.3572072264117496 -2.3245639543869254 -0.007783916083700815
0.2877862396662555 -2.2191575401085926 -0.00897079270113959
0.22504743919916217 -2.060502639394356 -0.010121741061449177
0.17042113676260462 -1.8557356984981224 -0.010733945939617979
0.12421561984702187 -1.6109666091081567 -0.010688781185932543
0.08633947099791942 -1.332842193380859 -0.010064323727080044
0.056797046786816616 -1.0277873995982307 -0.009002809906965807
0.035959826239011936 -0.7023237123063795 -0.007643906246336043
0.02471587921999038 -0.364312922128422 -0.006222232113233259
0.02111720345091063 -0.023894527117705525 -0.006309367898590466
0.0 0.0 0.0
0.015119528943184003 -0.36401790076353757 -2.1504937488558735e-14
0.03093084288174859 -0.6992918773684087 -4.04310252932157e-14
0.05248276840116354 -1.0226245032057903 -5.846627389721314e-14
0.08195041397063045 -1.3263426974939965 -7.618457110496255e-14
0.11952214923436114 -1.6039764781434305 -9.497880859928677e-14
0.16513998951823733 -1.849056305506164 -1.18535365683513e-13
0.21903858219519917 -2.0553089244243243 -1.4565210508451622e-13
0.2822283968817146 -2.2160340367652727 -1.6973527948498746e-13
0.3563885533999041 -2.3223420679684654 -1.9008833493552265e-13
0.440268651309367 -2.36119260224508 -2.1259143996559759e-13
0.5241296498723897 -2.3222144801041087 -2.373607423040295e-13
0.5982298345814989 -2.215760171126142 -2.583797404950244e-13
0.6613100691277517 -2.0548521050515234 -2.6882970527277497e-13
0.7150321661306132 -1.8483645572073388 -2.8841810803197515e-13
0.7603753484442571 -1.6029912473651624 -3.0570941111862174e-13
0.7975225697520845 -1.3250182517146354 -3.406957176825465e-13
0.8263331958377738 -1.020964871148399 -3.7859856045840723e-13
0.8468768403291875 -0.697376100758365 -4.1986168003793403e-13
0.8610080832367957 -0.36198297365955145 -4.614297152187429e-13
0.8717141195089801 0.0 -4.916927562486236e-13
0.15238250325711566 -0.009145338750956241 -4.493356620717543e-15
0.1587043973194992 -0.36413631760244397 -1.9532559024282798e-14
0.16732385962722263 -0.7018679727969372 -3.79220172369737e-14
0.18214720360586845 -1.02588893766105 -5.672668098311296e-14
0.20202700492041886 -1.3307601176821298 -7.622524960950862e-14
0.22730455949601458 -1.6095347459188207 -9.658513688212134e-14
0.25795182116288284 -1.8558373585523311 -1.19203263033823e-13
0.29411452368774016 -2.0634344172046353 -1.4417396698023337e-13
0.33631105595704974 -2.2257555808177383 -1.6838623803635173e-13
0.38533553329538495 -2.3339117772440114 -1.9307211564194982e-13
0.4402454865048045 -2.373947118989928 -2.153713314811965e-13
0.49513276219519087 -2.3337781660471424 -2.413433026862107e-13
0.5440867424781648 -2.2254682282252154 -2.6657797430137403e-13
0.5861571542455746 -2.06295343812909 -2.8506790702782596e-13
0.6221234649613155 -1.8551051908761285 -3.085050934501639e-13
0.6524793297445676 -1.6084834191098758 -3.32304474921257e-13
0.6773298561529603 -1.3293308150538024 -3.6261481762516474e-13
0.6965848904554016 -1.0240628591064063 -3.9703571986068126e-13
0.7104785384159997 -0.6997001013882275 -4.335252117456491e-13
0.7177262104553014 -0.36165752424033587 -4.696641664014663e-13
0.7234399252595004 -0.008619394026030413 -4.958792234799938e-13
0.29593704906813445 -0.01590967946714185 -4.980897162950089e-15
0.2991378200556788 -0.36398177155398687 -1.9148853383256e-14
0.3023864912778602 -0.7030808063547376 -3.620997392331323e-14
0.3096714729337418 -1.0279411305243298 -5.594367732017558e-14
0.3199251877637237 -1.3334333518752222 -7.611757362591074e-14
0.3328048081673516 -1.6128981877249955 -9.787937678736821e-14
0.34833095469913744 -1.8599173886365692 -1.2117621293959074e-13
0.3664631537742116 -2.068252153411974 -1.439098134283776e-13
0.38721886117563287 -2.23144118669926 -1.7138644675204878e-13
0.4114135238568102 -2.3410537982749324 -1.965965722733999e-13
0.4402262044080046 -2.3828488144348805 -2.1997482634338454e-13
0.46901307157198213 -2.340915888121559 -2.487916701106355e-13
0.4931281911505588 -2.231144060858889 -2.757054055382949e-13
0.5137442486231153 -2.067753385328278 -3.008469047667103e-13
0.5316656662787608 -1.8591549227156823 -3.272392111133095e-13
0.5468927041319706 -1.6117968130765956 -3.5419512009079697e-13
0.559357564187776 -1.3319213495280084 -3.827826311710417e-13
0.5690406213503039 -1.0259885187223088 -4.136464106107048e-13
0.5755434799896437 -0.7006986667791416 -4.4676209046180485e-13
0.5781841211924107 -0.3615052190667056 -4.787197278288915e-13
0.5812979876724198 -0.014968844995193971 -5.058238531880373e-13
0.4360878766632047 -0.020457718346122953 -4.3151069075933106e-15
0.43704023737526504 -0.36396947039027244 -1.8428221320779803e-14
0.4362276752905828 -0.703226964865662 -3.516559111381734e-14
0.43623741597176696 -1.0286626500035208 -5.5696628327601104e-14
0.4367205934519277 -1.334394548971036 -7.617948389856101e-14
0.43715432067680243 -1.6140680657827666 -9.897318451215017e-14
0.4374709328754666 -1.8613109886663242 -1.2284673338383983e-13
0.43752419174983875 -2.069773188784868 -1.464033593555168e-13
0.4368130591574137 -2.2331054612899464 -1.7440182275831574e-13
0.43628631442973753 -2.344133671588928 -2.008069851928058e-13
0.4402086875811337 -2.3891296666183877 -2.2593690550704396e-13
0.4441022563424607 -2.343993276164508 -2.5690535789976236e-13
0.4434874201399215 -2.2328024728238414 -2.8391379060832504e-13
0.4426241443370513 -2.0692632652872636 -3.150758936239664e-13
0.442454147555509 -1.8605288665679482 -3.4423186426804636e-13
0.4424674657065912 -1.612932552960916 -3.7296513805255367e-13
0.44250667485255607 -1.3328252677778623 -4.011713990510061e-13
0.44248550894220184 -1.026612339573634 -4.293810938082901e-13
0.4419510037972122 -0.7007599494356681 -4.59668446898527e-13
0.44087082677440587 -0.3615586151032285 -4.888464916474964e-13
0.4418648124218655 -0.019168992080150958 -5.175157658494075e-13
0.5750871746979972 -0.023060828039523047 -3.357642497120876e-15
0.57407694967867 -0.3639493727846391 -1.7564618303924856e-14
0.5696789684441024 -0.7025998185666711 -3.473642840266205e-14
0.5628128267697767 -1.0280713594204578 -5.449549225919968e-14
0.5535325536550282 -1.3336265714100977 -7.604918073990898e-14
0.5414957359737528 -1.6130351012278585 -9.914027128707564e-14
0.5265631522523808 -1.8600180512722657 -1.2468075401364836e-13
0.5086683972221457 -2.068077628200663 -1.4905278918130485e-13
0.48692287249601685 -2.2307525236973076 -1.7728407145730073e-13
0.46133422957309056 -2.3429107164136953 -2.0503387335253021e-13
0.44019088593544364 -2.393689588888574 -2.3237816467674963e-13
0.4190155946705801 -2.342769680806615 -2.6360587809115897e-13
0.3933298308073377 -2.230447633634741 -2.9411395594168373e-13
0.3714187690866096 -2.067563280383438 -3.2803584107591144e-13
0.3532866843030716 -1.8592268479283152 -3.5997825110942373e-13
0.33804476080870194 -1.6118823344224567 -3.9257134728148256e-13
0.3256316139482553 -1.3320239993229928 -4.190959244212228e-13
0.31593070416936153 -1.0259696493849215 -4.456775263086624e-13
0.3087029707788903 -0.7001157055234176 -4.721790265822501e-13
0.3041898472998646 -0.3615887125415889 -4.990101911024525e-13
0.3032556805173575 -0.021522635467200516 -5.292936637335792e-13
0.7143999260074888 -0.02420373546293295 -2.3655371639265223e-15
0.7117560174934854 -0.36373657331284903 -1.6689568698622928e-14
0.703951183556062 -0.7013210953878368 -3.3884103479694045e-14
0.6904331933812213 -1.0262254706766136 -5.349315703320622e-14
0.6714436521768725 -1.331117983695961 -7.637145404302857e-14
0.6469631586111588 -1.6098062614332123 -1.019440193072646e-13
0.6168787921045663 -1.8560052782147056 -1.248708125154685e-13
0.580965442626904 -2.0633061338827265 -1.4985725525194352e-13
0.5393548162287273 -2.2245675781501753 -1.8080987931888945e-13
0.4886028458266579 -2.3363824357462386 -2.0663273815462582e-13
0.44017074115780813 -2.39733320662605 -2.371956066195678e-13
0.3917030930499092 -2.3362425696330185 -2.6808249483661127e-13
0.3408435161701092 -2.224264677944202 -3.026645781123974e-13
0.2990511295700762 -2.062793914563256 -3.399986639591051e-13
0.2628815106843013 -1.8552154283145086 -3.754053357027054e-13
0.23247327840486998 -1.608652553756821 -4.1042983472973816e-13
0.2076255886468916 -1.3295095544256954 -4.3864089581388075e-13
0.18828616510999446 -1.0241169750575523 -4.62670506934895e-13
0.1745438364894341 -0.6988548785662214 -4.854678452363417e-13
0.1667231642320409 -0.36140540231770873 -5.081057065487389e-13
0.16417967441604767 -0.022515744959839226 -5.394609219395056e-13
0.8548780629133219 -0.02458150112010169 -1.1793385076466357e-15
0.8513933799743096 -0.3632304844190167 -1.5746899180255246e-14
0.8404305407789974 -0.6994059497237622 -3.210105676102024e-14
0.8201677877498913 -1.0231188707593006 -5.1768674605084406e-14
0.7915070116136294 -1.3268633598576256 -7.699665249723546e-14
0.7546987453002414 -1.6043568202451586 -1.0487524785065388e-13
0.7096019599894758 -1.849320157138236 -1.2344518433200018e-13
0.6559359263795054 -2.0551592776408327 -1.5046714823499005e-13
0.5937014040666128 -2.2155996687850372 -1.7672881871598573e-13
0.5239990131775596 -2.3227878932557244 -2.069177210059552e-13
0.4401461031269161 -2.4 -2.3885600708337833e-13
0.35625329781239184 -2.3226509178635557 -2.707591362708454e-13
0.28643035785681703 -2.215302453211034 -3.0629266607818953e-13
0.22399313051458894 -2.0546554365414798 -3.5176999222437847e-13
0.17004361618253264 -1.8485414972470295 -3.9215387022944414e-13
0.12459434121772628 -1.603217903930877 -4.33401153473053e-13
0.08740431697741596 -1.3252765436131015 -4.606525194608701e-13
0.058430346658367535 -1.0210472140631934 -4.826726246584886e-13
0.038068106476444874 -0.696996428597095 -4.994738046206933e-13
0.02724008901461472 -0.36093315976860063 -5.158517927331348e-13
0.023917803398075525 -0.02282588519903667 -5.454174076453376e-13
0.0 0.0 0.0
0.014253010748311975 -0.3665891342224299 -0.0027397846892792533
0.0299775167003929 -0.7037547087414932 -0.0051413515000543605
0.05177225231067178 -1.0285758268600262 -0.007418260855787664
0.0816843487182156 -1.333252722640233 -0.009031794880689148
0.11983836418308617 -1.6112209175316035 -0.009850114414957367
0.16612348905872443 -1.8558801806940026 -0.009808548745414042
0.22060901703849328 -2.0608898562693407 -0.008921416160190506
0.2839957666006424 -2.2197204423315275 -0.007375895818971601
0.35763380541267537 -2.324113420935143 -0.0057121068377289485
0.4402808982152055 -2.362085616481622 -0.004915167592915297
0.5229173338529254 -2.324071120743067 -0.005713640401664577
0.5965217791570281 -2.2196228380179317 -0.007385334132086633
0.6598468592273213 -2.060711499824413 -0.008952605272671098
0.7142330639494147 -1.8555849714102983 -0.009884486619032413
0.7603649526518491 -1.6107672546290828 -0.010003482790561246
0.7982871119384478 -1.332604348678093 -0.00930449199649647
0.8278450981911765 -1.027722317797065 -0.007854265443239743
0.8491122512755368 -0.7027298415174988 -0.005849330908858867
0.8637649053605181 -0.3653660890580616 -0.0039376565070344954
0.8749393658990253 0.0 -0.004017633622846385
0.15243426670408797 -0.009457975493967683 -9.905998230130696e-05
0.15872727541743134 -0.3665314123347775 -0.0014060149039849304
0.1670441479108988 -0.7062816097463541 -0.0032442079705963392
0.1819495107394246 -1.031783951708107 -0.004901881957339572
0.20205422632100822 -1.337613639259468 -0.006096954368872888
0.22765384846923634 -1.6166989759330903 -0.006705230140408008
0.2586708654064336 -1.8625330099260056 -0.006717518041652151
0.2951452097137341 -2.06880350993835 -0.0061767882692515255
0.3374150891320772 -2.229110692237621 -0.005221783559782919
0.38610126186622884 -2.335228487497429 -0.004174605165359437
0.4402748434655599 -2.3743214174699214 -0.0036464098058884955
0.49443522712147847 -2.335182545334274 -0.004143958372353854
0.5430803165931478 -2.229004855118548 -0.00516506609313457
0.585276661526476 -2.0686102508990096 -0.006104467397368809
0.6216369312928385 -1.862212650718959 -0.006648156638312935
0.6524869007203963 -1.6162041128204505 -0.006668119724995222
0.6778467619774803 -1.3368993161082416 -0.006132723987798693
0.697612911814444 -1.030827303693889 -0.005072182141231021
0.7120021904324704 -0.7050865631358382 -0.003640697831194644
0.7194554220727103 -0.365026127699286 -0.0024981977817990072
0.7253911705485188 -0.00899078514940161 -0.003188490462862531
0.2964995078932835 -0.01630416324456995 0.0009500391937057727
0.2997358918749131 -0.36637590925982255 5.48221322318136e-05
0.30278337464108585 -0.7074387014535285 -0.001202171060814694
0.30999688112388923 -1.033817221619212 -0.002304824773697835
0.320292923784875 -1.340271281161016 -0.0030479822729381624
0.3332670789857519 -1.620043765468918 -0.0033895285584672977
0.34891596487077037 -1.866575705710821 -0.0033572061607571907
0.3671511290514139 -2.073549480868932 -0.003006240479795956
0.3879119793414121 -2.2346746689606305 -0.0024108340560207173
0.41192118259436594 -2.342197985002597 -0.0017023507358877735
0.44027245316693603 -2.382991011415405 -0.001277102230929468
0.4686082323165379 -2.342149846462881 -0.0016403419371075268
0.4925696639442117 -2.234563640708242 -0.0022900262202812005
0.5132466388760103 -2.073346308229985 -0.0028347147923788924
0.5313556980749645 -1.8662377518375786 -0.0031511752746578845
0.546827630573405 -1.619518745477061 -0.0031776567381013466
0.5595624058489203 -1.3395065413231562 -0.002877219376971191
0.5695386021184101 -1.0327803721249105 -0.002247113199412261
0.576306437682867 -0.7061006579368146 -0.0013985353407270588
0.579008520246651 -0.3648701130914832 -0.0008420029027772717
0.5822358381850384 -0.015603496981188122 -0.0013713499504754444
0.4372797662938599 -0.020898264200111406 0.0026104449819252533
0.438240287517016 -0.36638072256891085 0.001659387756322006
0.4372587994492281 -0.7075514836686237 0.0008794369545983523
0.4371087024399635 -1.0345098756016113 0.000313044482292984
0.43746388537158093 -1.3412150696090008 2.1075335394293736e-05
0.4377820425268206 -1.6211979222630553 -3.0160927263672037e-05
0.43799484796461413 -1.8679513644465544 8.896660480026162e-05
0.4379655374504253 -2.0750484084169276 0.0003185936681437252
0.4372038096426952 -2.23630842192251 0.000647533350754452
0.43662754947728344 -2.345232636861724 0.0011176427891695236
0.44027204677281395 -2.389148406817241 0.0014996914596089436
0.4438988312417871 -2.345183833341108 0.0012109186046421318
0.44326833965591095 -2.2361954275164364 0.0008320784654626311
0.4424128455866992 -2.0748406072396457 0.0005882828329011256
0.44224609106207374 -1.8676038213099688 0.0004292118378072662
0.4422736076562211 -1.6206543131294062 0.0003508017201061754
0.44235548175590556 -1.3404169744430876 0.0003885919138489311
0.44241597540665056 -1.0334115186821256 0.0005756608843624566
0.4419551647457847 -0.7061559113072476 0.0008606634695627928
0.4408406475697752 -0.36491890936459404 0.0009923930170560652
0.4418643434040366 -0.019991963522679113 0.0008598567507938704
0.5769880211965108 -0.02353165786012185 0.0044434737057456155
0.5759246101098153 -0.3663762523277456 0.003305418217931977
0.5713321412958754 -0.706899571107531 0.0029571322653845697
0.5642213748570606 -1.0338843892854386 0.0029232147180909118
0.5546536588659805 -1.340420407108668 0.003080905189198723
0.5422911451304577 -1.6201459161094705 0.0033223356707257267
0.5270285202952938 -1.866650103414944 0.003531207178064136
0.5088586749468071 -2.0733645298213736 0.0036389869361492955
0.4869913211845123 -2.2339924427830544 0.0036861445246913743
0.4615075387781711 -2.3440613677761 0.003876160984651749
0.4402716794657065 -2.3936503783056047 0.004176786181068726
0.41901577069891793 -2.3440134610623664 0.004001320279940844
0.39347093608007894 -2.233880770310667 0.003935736669581066
0.3714992396797706 -2.0731574890969373 0.004009020099607276
0.3531794625329645 -1.8663010740383559 0.004008967492265624
0.3377217041588507 -1.6195959243770726 0.003877322680373127
0.32512405266127103 -1.339605262799879 0.0036516090208190614
0.31529887608987 -1.0327553286877411 0.003397406222118901
0.3079754213478499 -0.7054918041877852 0.0031356566672584175
0.30333169972242885 -0.3649456393731554 0.0028799137018199255
0.302340320761415 -0.022468794724731234 0.0031422861897400594
0.7170686514955368 -0.024689990464248322 0.006062148968633677
0.7142895002264446 -0.3661786149211102 0.004830971737814746
0.7062229444348268 -0.7055997440871862 0.004984824465947676
0.6923566604806527 -1.0320037821542885 0.005496732807259437
0.6729096162082687 -1.3378813469014135 0.006102111860671628
0.6478790155352635 -1.6169005297826806 0.006617954125146746
0.6172155345134451 -1.8626486919853338 0.006879033361230443
0.5808106882829952 -2.068645545911815 0.0067995535342748135
0.5389582909654471 -2.227927968898408 0.006452702124040775
0.4885094588823872 -2.3377093464067285 0.006200103058846293
0.440269405327225 -2.3972913835153413 0.006251441945450084
0.3920066653848506 -2.337663870987021 0.006358478483239999
0.34148900922762 -2.227820855356938 0.006770328590997325
0.29951991350923696 -2.068444550065677 0.00727530344898089
0.26294971558162533 -1.8623062107494484 0.007503429477363522
0.23207623021900464 -1.6163559475116978 0.007362137392700057
0.20680673332400032 -1.3370676813568683 0.00690024542745594
0.1871322069645978 -1.030873254830377 0.006219873767725725
0.17312146304853823 -0.7042026526047727 0.005411420607034349
0.16504864761551719 -0.36476363303304304 0.004664974563074175
0.16234390669823068 -0.023528607460549023 0.005128326431242276
0.8583658846958261 -0.025103020374788985 0.006969222076365776
0.8546662039637776 -0.3657113669637069 0.006083763700379523
0.8433544352155813 -0.7036873221711096 0.006879901107651395
0.8226029482175198 -1.0288922214038254 0.0079610608079836
0.7932781134059737 -1.333636215446508 0.008995248944940545
0.7556576952115235 -1.611494494704583 0.009729664227127103
0.7096847893887935 -1.856064074029535 0.009947820283695329
0.6552439465165882 -2.060692573675342 0.009531571636233272
0.5926369800018377 -2.219257042410887 0.008580387042297678
0.5232940866716791 -2.3246055529040746 0.007590234598174653
0.44026355304650866 -2.4 0.007126970846279109
0.3572072264118307 -2.32456395438689 0.007783916083137539
0.2877862396663232 -2.2191575401085455 0.008970792700500557
0.22504743919922526 -2.0605026393942287 0.010121741060738137
0.17042113676268095 -1.8557356984979494 0.010733945938833122
0.1242156198471239 -1.6109666091079213 0.010688781185077333
0.08633947099806089 -1.3328421933806271 0.010064323726167237
0.056797046786984245 -1.0277873995980304 0.009002809906006071
0.03595982623919549 -0.7023237123062376 0.0076439062453377725
0.02471587922017897 -0.3643129221283439 0.006222232112197216
0.021117203451099076 -0.023894527117679018 0.006309367897498011
0.0 0.0 0.0
0.010266757516213917 -0.3761678976919284 -0.006341013340482634
0.026029766826101065 -0.7194105784529765 -0.012111021057767611
0.04834332430165505 -1.0491121176291323 -0.01747366884308442
0.07914312989657157 -1.3575179495321987 -0.021612193187059786
0.11874071214042196 -1.637772429460042 -0.024517215589579425
0.16699246464820836 -1.882801061924353 -0.025989454215992358
0.22366828453157228 -2.085808884217869 -0.025892748233218823
0.2885438146448442 -2.2401476721898215 -0.024290915052710936
0.3613534581686975 -2.338831212564598 -0.021867096406667678
0.4402588119684 -2.3737578389011835 -0.020465054025250472
0.519173331033654 -2.339009610452957 -0.021881504814174176
0.5920117488416639 -2.240503917674321 -0.024330130540015628
0.6569399856082047 -2.0863416849190743 -0.025979726349396104
0.7137014887939279 -1.8835075005016373 -0.026163986007253816
0.7620895793658773 -1.6386446613601664 -0.024839541300681306
0.8019057379245677 -1.358535142329872 -0.022173598106556416
0.833067965774264 -1.0502234949246183 -0.01837072516192282
0.8559706710208353 -0.7205164023725315 -0.013606708150898449
0.8728974726259312 -0.37722588517197486 -0.008066397590785482
0.8859302911330017 0.0 -0.0070804152243305815
0.15178418643009411 -0.010936997560973627 -0.0009346194787045166
0.15793002120781374 -0.3756204753210055 -0.0029072631514926845
0.16543529917461264 -0.7218392181091318 -0.007561085853448053
0.18042237227531974 -1.0521518724451793 -0.011377364110864137
0.2009265954698269 -1.3616956186098306 -0.014336137008829093
0.22729877009467658 -1.643012442940202 -0.016314325802974376
0.25943719653241976 -1.8891181585065124 -0.01728269744757959
0.2971715911019929 -2.093194585851539 -0.01720223541612341
0.3402650146870839 -2.248628319926612 -0.016163464611980604
0.38839033034253356 -2.3484331120004365 -0.01455708624327975
0.44029866635888854 -2.3840583798154764 -0.013530199899979046
0.4922160110642416 -2.348613456818244 -0.01451993286892704
0.5403695201104989 -2.2489885897309514 -0.016097261410205625
0.5835141679397016 -2.0937338211509258 -0.017125811043049572
0.6213306419616552 -1.88983416427197 -0.017230386292496888
0.6535964356184704 -1.6438989561999315 -0.01634391823288679
0.6801687278396435 -1.3627349371131412 -0.014532911359690787
0.7009909015319579 -1.0532986678109924 -0.011882363873511218
0.7165234341079122 -0.7230147532065081 -0.008501939185679042
0.7249852647501961 -0.37682825396229747 -0.004786138756675105
0.7316791254468945 -0.01112555738538981 -0.005358570774828509
0.297546672400763 -0.019257246591527936 0.0016826721917044614
0.3009539570441637 -0.37554690910239436 0.0001312679196742344
0.30357019248415895 -0.7227403372287537 -0.0029258607007947896
0.3104358290724242 -1.054002036336274 -0.005412728450015683
0.3206860576431114 -1.364140415850699 -0.007140146373318281
0.33382553753004135 -1.6461024322615705 -0.008182885210296111
0.3498535607247242 -1.8928345584815705 -0.008584295428875227
0.36862354095658467 -2.097509830916084 -0.008381221078612982
0.38987454768717444 -2.253550663741743 -0.0076207562852658815
0.41366483641960344 -2.354246413468841 -0.006337199895128806
0.4403417383408149 -2.3909510081637517 -0.0052039645022719265
0.46702739144039457 -2.3544295929321457 -0.00624918062423885
0.4908448533348836 -2.2539166992479323 -0.007450812076195779
0.512144414587191 -2.0980579691344143 -0.008144623072359428
0.530990031908011 -1.8935629900703947 -0.008311896472103824
0.5471313515022621 -1.6470058627402986 -0.007930464296042397
0.5604412844929021 -1.3652032292580296 -0.007002005725242241
0.570956880044904 -1.0551818042751286 -0.0055332464624861305
0.578263174967969 -0.7239819826630104 -0.0035181491986555676
0.581339869114526 -0.3766826905169069 -0.0014303088222274848
0.5849509763099092 -0.019433743380478652 -0.0016587492930728554
0.44030308928557915 -0.024846316811907833 0.005209805759319298
0.44145803261172495 -0.3758039156932398 0.003471621636954201
0.4401943193134578 -0.7227006079058568 0.0016968340871260342
0.4395166741075738 -1.0545463908280621 0.0005677168858766974
0.43939097263235233 -1.364959761679473 7.799126917577574e-05
0.43931163563384407 -1.6471236279018542 1.4834538474347692e-05
0.43922742816806215 -1.8940637734448453 0.00023511555505365065
0.4390836451606138 -2.0988812052575616 0.0006534874616784653
0.4385608319163744 -2.2550443076395417 0.001250740322213812
0.43813482375942114 -2.3566061457071243 0.002332813421306332
0.440386406916754 -2.3953607332421734 0.0038713710672892655
0.4426464236892165 -2.356793004415354 0.002471795284081897
0.4422463224159855 -2.2554177365141532 0.00152457701565568
0.4417687275911302 -2.0994404706001193 0.0010502184768256765
0.4416927409286471 -1.8948070261674685 0.0007271327062778563
0.4417045880374534 -1.6480458253749672 0.0005462177173066017
0.4417605901014855 -1.3660456550685827 0.0005471032216600128
0.4418370318326312 -1.0557590561038466 0.0008079809237458231
0.4414324251587447 -0.7239543327864507 0.0014441171396034189
0.44037956839447545 -0.3768320117408001 0.002289065639532894
0.44163406275865086 -0.025031936341645078 0.0026216782395923257
0.5820792335851973 -0.028029204253464342 0.008849874751907114
0.5811907009244413 -0.37603410124750114 0.006947244358926272
0.5763616840258161 -0.7219990952244848 0.006296947061868334
0.5685811185418749 -1.0538613166218955 0.006522199217632266
0.5581318936380419 -1.3641540381466872 0.007273577835172214
0.5448031768014009 -1.6461021019846112 0.008199150062293265
0.5285812666663807 -1.8928397420894547 0.00904998128688104
0.5095929733474424 -2.097394426007131 0.009684256766827319
0.48751879584869295 -2.253134497747337 0.010071019131792763
0.46259567966432874 -2.355375168821164 0.01066730545163615
0.44043200935359683 -2.3980134540926765 0.012763485650286378
0.41827647531712375 -2.3555665520696065 0.010858205653845186
0.39337804187083386 -2.2535169372162933 0.010450811470806908
0.37134578789721 -2.0979669977685163 0.010244625925905184
0.35241744451758344 -1.8936001166139476 0.009766967218785332
0.3362740248108314 -1.6470443042954201 0.009017443775759556
0.3230447320124282 -1.3652628677215173 0.008083657790620865
0.3127205729248393 -1.0550963618241034 0.007132697274975376
0.30507192800617466 -0.7232414245603873 0.006409304716694087
0.30031967768795287 -0.37697866232089206 0.006168854037151942
0.29948105395526703 -0.028230985137981723 0.006895019436945823
0.7243014570399349 -0.02939947598355702 0.012189864624741907
0.7216868025848245 -0.3759868611766606 0.010339238830022055
0.7133957206183605 -0.7207141466854858 0.010838134382848684
0.6986936229195517 -1.0519984472456505 0.012411994229407383
0.677943935814798 -1.3616931547060342 0.014398676826258389
0.6513402403925447 -1.643011717612279 0.01628906927656656
0.6189890636632245 -1.8891037892299372 0.0177372396290181
0.581003574676465 -2.093089992526691 0.01849526024557324
0.5379875392351138 -2.2478760301894307 0.018539203953666178
0.4883043892574631 -2.349800243920389 0.017961617609167403
0.4404778386816418 -2.3995872776163236 0.020186649372110226
0.39265921589264413 -2.3499970520454943 0.018206211822488688
0.3429998302688343 -2.2482692105292013 0.01902887676126687
0.300023091630695 -2.093678253672816 0.01922615577482015
0.2620910323193678 -1.8898838275057128 0.018690503918367594
0.22980362728440956 -1.6439757561204047 0.017412298524603687
0.20326608386676093 -1.3628233161104155 0.01557712219700156
0.18256915565349394 -1.0532467326106247 0.013432423772580422
0.16788333472791567 -0.72194134957456 0.011367811219820103
0.159571898272218 -0.3768809551810437 0.009987607858547517
0.1569624432505347 -0.0296079519430652 0.010784273002709148
0.8677613638054513 -0.02983715644313354 0.014753847776136685
0.864248476623529 -0.37558446072798907 0.013513570486290871
0.8527105499584016 -0.7188197736245111 0.015344917749783991
0.8308837162637528 -1.0488982355153416 0.018324903999792117
0.7997712907420895 -1.3575056114443427 0.0215729465976788
0.7599045946291265 -1.6377499790552075 0.02442015593923924
0.7114176403331938 -1.882789928427596 0.026407688517220772
0.6544723490167362 -2.085635751831279 0.027219895335073914
0.5897268815191612 -2.2398603681935323 0.026646892129627536
0.5193685988214991 -2.3385353730055707 0.024555112086911586
0.4405221190936155 -2.4 0.023615115942920033
0.3616834494966097 -2.3387385795559497 0.024855850741683207
0.2913483878447874 -2.2402661926287637 0.027251933814376784
0.22664057037414093 -2.0862423950674445 0.028131170952887245
0.16974454168400646 -1.883592802518384 0.027613869546992548
0.12131178043568551 -1.6387386082599182 0.025875926181969416
0.08148856569087005 -1.358656690497282 0.023165300714072055
0.050375568221079005 -1.0501537911492609 0.019826372807641705
0.028463893041220843 -0.7200298473891174 0.016381527820630296
0.016788119762089652 -0.37644847000088455 0.013630662813042373
0.013216198449151858 -0.030036578052836705 0.013785800028521642
0.0 0.0 0.0
0.010975755142547155 -0.39799724536722136 -0.00952653941994216
0.026430362585216763 -0.7499859567865139 -0.02051263495054841
0.04780525710607261 -1.0890382777943945 -0.029285595633386386
0.0782230620841468 -1.405961910974875 -0.03723515214866799
0.11811039563667941 -1.6932847628174608 -0.043807808445998964
0.16730261808499713 -1.943111744317254 -0.04873016539465661
0.22550215409505267 -2.1478079799050342 -0.051652538676880765
0.2919136442703556 -2.2999307008617444 -0.05233016162370788
0.36456127672230765 -2.393125440821507 -0.05116346974043211
0.4401698728597756 -2.424179201203489 -0.05010756276494242
0.5158053400910056 -2.393580148923885 -0.051205541280125985
0.5885388282267189 -2.300850722357241 -0.052429063655697446
0.6551115926952693 -2.149212681677879 -0.05184091524036774
0.7135776168180261 -1.9450243304918733 -0.04906421457321448
0.7631886998472862 -1.695720282427845 -0.04437771265699766
0.8037134271583481 -1.4089062313637286 -0.038168729661797754
0.8350811433502413 -1.0924117763839567 -0.030803225764873484
0.8578395745937618 -0.7536330077956939 -0.022752036878432448
0.8756806342746399 -0.40162434411533154 -0.013526253904876932
0.892384134772154 0.0 7.722825154158208e-05
0.15620396996728494 -0.016995545004470373 0.005001903241976892
0.162945788261642 -0.39623052496542494 -0.004990569297524691
0.16838093119191952 -0.7523822058663074 -0.01299444730605882
0.1823876487229753 -1.091853231349238 -0.01977793377298111
0.20214809555522056 -1.4100108799508781 -0.02545540613863039
0.22823858031927224 -1.6984159938032835 -0.030126930981225618
0.26050974739537247 -1.9493357402622091 -0.033588734080021165
0.29875680348383177 -2.155080362319515 -0.035681241901301834
0.3424579679615805 -2.3081134945974453 -0.03629470430654655
0.39034168319082224 -2.401837759255045 -0.035680618112317354
0.44025178007306554 -2.4329215940350197 -0.0350274436794267
0.49019029167034117 -2.402299949401412 -0.03566613770791692
0.5381641101704583 -2.309049878083666 -0.03627829427036651
0.5820320434213626 -2.156513254627472 -0.03569134883583304
0.6205489136586737 -1.951293038772954 -0.03367685748348687
0.6532326997573088 -1.7009198957428087 -0.03037679639290537
0.6799347962871628 -1.4130554699905653 -0.0260028513115286
0.7005757689164183 -1.09537076631832 -0.020804166026261835
0.7158578249919282 -0.7562359763017074 -0.014855018711573645
0.7231115039486748 -0.40014481592394285 -0.007710824878211803
0.7308280873020375 -0.017935517330833508 0.0020172525018097636
0.30366924979916754 -0.029508634231034246 0.008174016473154765
0.30714561262408907 -0.39563760411223736 0.0004423406907372008
0.30775218192388204 -0.7529255588803819 -0.005271767452904339
0.31318696665338075 -1.0935537631820875 -0.009484026864787573
0.32252143700190106 -1.4123332217507498 -0.01270699006382396
0.33508039326894395 -1.7014234741054104 -0.015166908828248723
0.35084680796629386 -1.9529937334519683 -0.016878900291522503
0.36974232045842464 -2.1593917240742537 -0.01780802149457866
0.39162773399029205 -2.3129884342270555 -0.017936516853571366
0.41574834268587646 -2.406825991038197 -0.01730861243507915
0.44031672389014065 -2.437381058455875 -0.016600725538168083
0.4649140653677416 -2.407296268517643 -0.017237675129586
0.4891259464908898 -2.313942228780199 -0.017804777781130418
0.511178217669625 -2.1608538399795916 -0.017639548603831715
0.5303385591318317 -1.954995935047712 -0.016719371671422692
0.5465000580475867 -1.7039934916924275 -0.01509628938753857
0.5596267770859557 -1.4154725561256154 -0.012855199547767943
0.5697522576932724 -1.0971980118416063 -0.010056774855155387
0.5762442220087225 -0.7569470881799758 -0.0065576092041590515
0.5777150876422388 -0.39941384370589395 -0.0017255769223601869
0.5816108491459379 -0.03095657856349095 0.005136906513136946
0.4468001530315204 -0.03752793197674796 0.011007051756742653
0.447734353722053 -0.3957381306636551 0.005726364525177517
0.4446695798023299 -0.7524739982442242 0.0025318060807968286
0.44238384358697086 -1.0938897569313537 0.0010436690779828499
0.44117133429636435 -1.4130311095710475 0.0004216734678536419
0.4403549992740349 -1.7023594003894689 0.0002811709563176877
0.439802263762735 -1.9541731197387782 0.0004496770886733883
0.43959757892553625 -2.160855313659163 0.0008342514057704933
0.44005622619696205 -2.3147277952915544 0.0013485653844623952
0.44098501763363923 -2.408156608998308 0.0020939697488551925
0.4403746548284133 -2.4371068456364497 0.002993869776950653
0.4397933750379436 -2.408635335992463 0.0022217808223514027
0.44081329061547514 -2.3156995796170197 0.0015966101427000987
0.441436510491079 -2.1623470761807275 0.001183216684877015
0.4414880102779055 -1.9562196570336874 0.0008597283373141417
0.44130675244285894 -1.704992968922762 0.000677847705293267
0.4410039062204162 -1.4162574364479374 0.0006753875005613245
0.4404725578065107 -1.0976496606487536 0.0009445985226047561
0.43893450448843685 -0.7565442445285594 0.0017961484331422486
0.4363312576180554 -0.39936395615849923 0.004103455032880352
0.43749682324065675 -0.03935182947255166 0.008446699049597538
0.5887584590001804 -0.04182073878065013 0.013918306170458906
0.5874476700574757 -0.39589862404096 0.010744018826214003
0.5809859687072645 -0.7513688727724647 0.010206945149283893
0.5715570332895822 -1.0929541845513522 0.01151195496883575
0.559881600865714 -1.412078556957883 0.013526872313585616
0.5456405262788171 -1.7012444703804994 0.01571348571286791
0.5287922904158342 -1.9528878072960625 0.01777109831513052
0.5094393539510438 -2.1594665621982414 0.01948380801816977
0.488324931416111 -2.313413277771773 0.020613597755444673
0.46634653475854365 -2.406053470717284 0.0211088224689033
0.44043414792791036 -2.4314252486358026 0.021916285797034016
0.41455110040118776 -2.406540936642971 0.021294447885748174
0.39266405987144587 -2.3144035022311296 0.02098004619003238
0.3717125225250005 -2.1609882205632607 0.020016900699892752
0.3526078867108283 -1.9549780304977564 0.018437521300629395
0.33610757218251874 -1.703938041749056 0.016444674235088653
0.32232346340026935 -1.4153850558594059 0.014195152630715495
0.31119462594796365 -1.0968011407714124 0.01190309174446932
0.30227420799603244 -0.7554479318674041 0.010017468679894401
0.2960763533072148 -0.3994288156346586 0.009680402437794925
0.2948918906626673 -0.043883454388847956 0.011917570884605714
0.7316663256554112 -0.043426942176524444 0.017053994900114285
0.7285853020312218 -0.395732800764643 0.015478499422204129
0.718857080769471 -0.7497099093749948 0.017579572802938828
0.7025323594721836 -1.0908386267493495 0.021634982134690513
0.680356448559085 -1.409460757651547 0.026206828153014592
0.6525419083349905 -1.6980520087212065 0.030619244651751407
0.6191810822201426 -1.9491448995712097 0.034461608590810655
0.5805503597583137 -2.1551401476934964 0.03737466507382179
0.5369110517939713 -2.3089509385061184 0.039006081358121954
0.49167067831028877 -2.4011119744336957 0.03845089308291833
0.4405039162276189 -2.419306074001277 0.03768908310802718
0.3893674953393005 -2.4016085747758993 0.03869576846648648
0.3442209556628947 -2.3099602558452195 0.03949407551495959
0.3007466531007348 -2.1566922892384377 0.03809729117420627
0.2623618056905792 -1.9512784299266572 0.03539288119923055
0.22933296494194919 -1.700802574657916 0.03169762455790842
0.2019232101339342 -1.412836296752901 0.02730812855408946
0.1801651362955113 -1.0947484805528804 0.022537987139770725
0.16414902296250622 -0.7537937401623838 0.017949889332585317
0.15452979696019728 -0.3992157560327785 0.014969927229766457
0.15148066313292843 -0.04560454257951135 0.015594391518063718
0.876699923961654 -0.04375449881647829 0.020306445679500507
0.8732086682933531 -0.39517620127891523 0.019939104570692638
0.8608495689171951 -0.7475289063740889 0.024397982876900433
0.8373737893317713 -1.0875133397119001 0.030960255104959117
0.8044352035348558 -1.405126160929368 0.0378316299781569
0.7627601343247218 -1.6927233973469633 0.04420781685189974
0.7124927789927669 -1.9428152039940918 0.04956078879849624
0.6539478507164433 -2.1479623964703154 0.0533916153991469
0.5876737087484258 -2.3005055115169464 0.05522848077970362
0.5139237127161594 -2.3942570455133163 0.05327135752372526
0.44059434094435085 -2.4 0.0452703160511454
0.3672978137339183 -2.394763542447017 0.053577332128187716
0.29364867608969003 -2.30153529331147 0.055842022920280836
0.2275493230523948 -2.1495465947525956 0.05431053837666478
0.16925896989715714 -1.944992974103387 0.05076733755059055
0.11932286276095458 -1.695528875966394 0.04564860631870174
0.078020765929179 -1.4085592561663864 0.039386594863863506
0.04539186666041765 -1.091461786579056 0.032398419896210506
0.02200604285578799 -0.75160461018553 0.025343629033992027
0.009518902318207005 -0.3986292121953933 0.019967851526538342
0.0059370697343227525 -0.04595643138703019 0.019324419546448944
SCALARS Stress float 6
LOOKUP_TABLE default
-2554.1944410789383 -14168.150917737308 -5016.703607644875 -2592.211892976313 1068.6823067149521 -1346.6662574601983
5644.843659482269 3631.210124313537 2336.8424840188504 -1151.5110953833305 1112.3716394582627 -45.79631197894764
5583.842759965186 162.0401505920686 547.5389281820505 -542.8535401045351 1086.7098557114964 -377.7609170953318
8076.78891436146 750.9662231074982 994.6567906022727 -559.8022515275209 966.9345508122324 -409.88495351781
10904.87525059901 837.8668001574753 1335.6083606039767 -527.5983215829946 864.0893059953632 -562.9490788658471
13857.258848896248 1101.3894077254527 1786.9114770882918 -478.70054536600645 678.6924649638482 -694.1875212703728
16732.23011156732 1333.6952885078672 2236.0780550103696 -399.8635800039021 423.30833750799565 -829.0409173979692
19445.379648874263 1550.6804113054384 2692.447355944867 -291.47817586841194 103.17604276211941 -961.5516718075432
21729.96870715209 1724.2679393567316 3110.7764740178795 -151.70633325425524 -208.88411569110073 -1098.1523492081917
23220.106636098717 1897.550554491567 3433.8048904497796 -28.1878609775341 -297.3936914375237 -1244.9246860431779
23766.558218952905 2092.634457414073 3607.806579354861 -3.4525188320120463 7.148810799706619 -1345.0356298206757
23236.980567666047 1897.750061054312 3435.0540833837053 21.103565618506224 311.5657481581534 -1245.2719671591278
21767.055243473817 1724.821258890888 3113.7123145154424 144.08448743082414 222.64138024304296 -1098.8407362016462
19509.780927945463 1551.9160041451837 2697.9426348919055 282.9478161393258 -90.28159617166659 -962.5988219007135
16835.832723674084 1336.339962317938 2245.6198065624967 390.0830816969824 -411.93908978559415 -830.3052939144679
14017.003806039951 1105.8230405608415 1801.504064093255 467.18822815460396 -670.3083655036753 -696.1747828429246
11145.931994831251 846.8691361211557 1358.5219215498503 514.4034057316676 -858.7266017306376 -563.1393770967098
8426.585844555668 761.4401098912911 1015.8577019183064 541.1216666662892 -973.1202146994444 -420.3778510463911
6180.392639204763 224.36414122817538 641.0810122737435 520.2342889333701 -1069.6941909504676 -342.9184452153241
6938.097704908713 3859.5756853819553 2474.9221331137155 1194.777849501526 -1430.3501778033299 -251.92925638352682
-106.80691393853672 -13511.973408866415 -3083.5640102153397 1558.154027398534 -1873.54630966162 -522.3142212281236
-2831.9578299259 -12289.177560720145 -3705.227436297417 -1663.8327149772213 882.9621008235666 -774.1188936615812
2698.7082025301697 1967.9909671424857 1108.3468904601802 -1378.629970697654 739.330923351886 -232.1927263523101
2784.2894638894727 -188.11980543331438 18.18029417438812 -1147.0543252978969 670.8085270179662 -407.0328223737391
5038.682315191624 34.9915290440093 346.0224005769477 -1161.76280606883 593.10940785147 -527.83031632433
6816.574997819321 -42.31189654534195 475.58125221173117 -1135.630116669177 514.6995183020696 -700.2769776722762
8698.188184535535 -39.98349043617829 663.6966832754872 -1043.0934451728276 405.5911128257777 -872.2375943768437
10531.294007064504 -39.939640607985304 864.5611813955678 -906.3156218596353 253.78713655122402 -1045.185130882832
12256.030973051997 -55.57873859136618 1073.0747624147182 -706.8067743747753 66.4195863762167 -1223.6816570348185
13716.76102479062 -72.72741248769357 1274.8365264539236 -417.5085837639168 -118.11708755976731 -1426.8658521656607
14725.715785497372 66.64641979017249 1480.4141999211465 -109.8877233564046 -176.15316931277462 -1681.7497850863792
15199.61448469647 444.30260655920034 1683.560998252943 -6.155718865936674 1.712443989676204 -1879.439630242129
14744.007442672093 67.45103472085684 1482.9688657598651 97.18426529038778 179.2370870481141 -1681.7862273245364
13756.347314189165 -71.04964354707614 1280.2447007716416 403.6093770452849 120.16692862684285 -1426.8921871991174
12323.15605214128 -52.886958858132445 1081.9054369964147 690.8427463449633 -66.10721750625785 -1223.5990907975706
10635.82704983154 -36.08882981502345 877.415499266301 887.3184540397742 -255.9988213485827 -1044.7894559585316
8854.309608000542 -34.97074528546519 681.1987164111205 1019.9823657179313 -410.8472613509814 -871.3717724262503
7041.801407733332 -36.97647871147927 495.6558854476767 1107.2771214359093 -524.330068380785 -698.023437335816
5365.138654132991 46.70986211410177 374.5022534873766 1123.4869934708852 -602.9257774315828 -527.3707797602235
3241.7599437979907 -178.53966649468862 29.53494956444929 1087.9786004195764 -698.5616568687489 -391.18402025745115
3149.0000065016584 2064.7783832260843 1154.6774599029507 1300.3367738150155 -845.4665537491248 -333.0454881741825
-2625.3597504634986 -12691.107936609013 -3562.3250473886533 1041.1777386498377 -1045.4656008597447 -314.420384308056
-2256.7437734233577 -8564.647310003795 -2337.6291256250674 -1953.4431318751474 537.6581797789524 -256.3875810134158
926.0880367924057 600.6345014841746 501.5669494336266 -2239.347538547501 420.77373385602925 -360.85751406408286
977.9909113138809 275.5615819252136 47.63880267831552 -1953.2357118120983 331.5833642123918 -464.7144823740407
2159.3559032077746 -45.74690649221938 64.10092094842742 -1986.5189613598968 268.90155234332934 -673.1997074719644
3238.504657468795 -30.627456751420475 183.00504354560164 -1919.0510065102844 219.9232728626943 -888.4557831781353
4200.310773926852 -38.901203611041986 270.65956458204136 -1771.3761495919352 166.43221977987648 -1114.5730076921964
5157.897726896992 -32.830887404517185 376.2753710774157 -1551.7906635463057 94.65678846976245 -1342.7536204555292
6078.379532334932 -51.19842718753281 488.4022733100246 -1232.6753045275461 -0.9205313940922126 -1583.4452366670741
6862.854972373857 -78.85027206719387 590.9949305300025 -740.2975191749779 -122.41406549260611 -1866.867893811868
7396.261222854757 233.12652757637494 752.8185695361357 -159.77845322018396 -187.11299132347384 -2253.832650651992
7886.318222015767 1244.1341567036773 1143.5891685873978 -9.836910787405843 -2.6319233171072556 -2618.174103398483
7415.145729237826 234.07116297977893 756.3758369168255 139.45198962118855 181.32946241057095 -2253.629578315957
6903.295500401428 -76.89763859132256 598.364159854127 717.9746093107123 115.09750249561186 -1866.4009269454216
6145.736035285122 -48.117980447589815 499.99584204619106 1206.8838373235385 -8.854162514033787 -1582.5676976626603
5260.3121721198595 -28.470991766534475 392.5058262021375 1520.827413563448 -107.57145399101466 -1341.2279771001831
4348.464573872495 -33.6693219991096 291.22306275282807 1733.235076695827 -182.74769911973817 -1111.8682234883834
3445.425824222713 -25.06190019605351 206.66204205374012 1871.2292134174647 -238.80698679524622 -884.4914702966626
2436.7155231044044 -40.96940014268726 85.42986191409814 1922.630841133193 -288.3659471342485 -665.3071279995384
1255.474499821224 279.2130278012868 34.8818575156747 1860.3957731727116 -358.5819041952777 -466.4591262602899
1187.3696194066843 795.5756145794484 553.5460361776164 2115.588373090007 -460.7618471754002 -366.3986624721658
-2245.9819051609597 -8885.961152498536 -2388.1911044254634 1846.4461198961321 -589.9768714367098 -245.04206388844017
-1651.0653939101385 -5175.459081421136 -1236.3429029606766 -1806.4428448691765 242.54289157932243 -90.41356576034447
-288.8536699194997 -120.12165386532189 192.97140721670542 -2368.172267559549 137.41860472898875 -313.3835582915082
-668.609701076382 350.71558031211305 21.52784288587864 -2377.6744063556694 21.675622156542627 -480.490293613724
-527.2438726433211 26.612530214433708 -83.55609583283838 -2269.8931073707395 -36.02925169013154 -707.8932258887289
-319.10910516463326 -22.95079248764897 -54.50246147990093 -2176.576532814293 -53.09730393020497 -943.0242797206593
-211.11108265199059 -9.33614172037898 -28.84706881332938 -2007.8833061610485 -57.75183499867629 -1182.7422850472287
-109.97339063249518 3.512216083959447 -1.8997376572185454 -1762.7186517315859 -61.974826461765794 -1427.7657812211191
49.3450278051898 0.7069264832938567 40.32253846012374 -1418.0494086019753 -78.09177059912619 -1682.9865973997048
194.48932410890757 -75.53379300681013 49.38216804566355 -854.1358222769313 -151.17850935236262 -1975.7122468759453
199.21049149580267 371.4755711722158 137.76770465619163 -52.91446789108119 -245.7566793447342 -2395.783598314809
897.8040934680687 2634.9692080341915 936.9818097994739 -11.044592343666729 -6.5360855845774 -2937.114704662572
218.43585135950468 372.5884953583268 142.30527937270787 30.072521610552794 231.99763121853175 -2395.5063979107194
235.24696762086978 -73.26813089432795 58.67828880623471 828.9913739969571 135.41604696931282 -1975.0885982720686
116.0646070325366 4.195513390444553 54.69778525567379 1388.9084908095413 59.2201246004368 -1681.8586442381388
-11.14834584697303 8.228301214192266 17.68737495678585 1727.5917799061706 39.36997459970423 -1425.8246995960667
-73.2081775391314 -3.9728017225773273 -4.7260954593113045 1964.2770958881877 31.76154689850348 -1179.5142966264646
-135.7344258862666 -18.59713538904905 -28.339669335841812 2121.053589732609 25.782531727863418 -937.6822574474875
-315.0808178561225 23.913510720261886 -68.22372830065184 2197.3087348948698 10.608484995977904 -700.4879513780929
-481.8480777378062 386.33986089094964 20.63191604151548 2286.0873078472678 -42.67603098936565 -476.4190828940958
-138.7134462381995 18.533994966530482 217.96067968791817 2314.2321199071234 -155.04171392395173 -322.16175291529606
-1682.1181532636115 -5423.935983120855 -1316.313327512508 1789.192877282595 -264.4484509070241 -141.71057372804134
-1296.4256933315846 -2590.5334843285445 -456.5073547016161 -1372.9061984203447 -3.560672830823032 -71.39048706636277
-1218.1106738073415 -344.7617258295169 62.68670552931532 -1991.514473946928 -128.74443450138682 -243.1592395671785
-2245.615229069931 281.16602699263166 -41.935028384433906 -2187.811757410693 -292.07328571865804 -444.2113446280341
-3123.9727048042914 64.96258283448181 -219.13723142199547 -2039.0442502127278 -346.45542672059673 -666.9069460486763
-3861.7655853381916 6.783474328562114 -281.03340632479933 -1920.8500095414363 -329.8777866846618 -890.5275023998512
-4626.5811909023505 20.684084359114234 -329.7621408823212 -1770.2298088440991 -283.14559694866506 -1114.7670069125013
-5387.089055796277 27.691474813791984 -386.8628903389565 -1554.4109987198044 -222.83922863405905 -1345.1718833927314
-5998.7871518075435 79.51895750784912 -403.8432831011308 -1247.3683921428942 -151.1632511091335 -1576.5560450253959
-6441.731463920159 -52.29350970941332 -472.24648477733837 -792.8468718226964 -134.55394365568793 -1823.5005336006434
-7135.8085969469 133.18731817427954 -638.9740012161657 203.80852019469904 -275.0365586880825 -2165.3695774854255
-5834.523005359215 4768.377699362264 961.5484287407553 -9.941265810888108 -10.526836037155588 -2871.412857630767
-7116.14946337058 134.49484486905428 -633.4224730851645 -224.37943994821046 253.11055035102078 -2165.1853212205715
-6400.4768665631755 -49.66461496571329 -460.9495837653667 770.1745621313559 110.10247866002535 -1823.0745300836309
-5932.460591095115 83.46301073366786 -386.5808057483358 1221.0632850588192 122.86231992815644 -1575.7518769221736
-5291.692108567068 32.783336874198426 -363.7950600481401 1522.6844121143079 190.11068681833305 -1343.729060746179
-4499.2303894664665 26.243758343113736 -302.0837250286461 1730.6986574754153 246.91620474050364 -1112.230251886852
-3706.3348913793775 9.462713090507119 -253.4523758719519 1870.2132419125437 293.57373804600974 -886.289626705377
-2964.835278336259 65.36686013235251 -201.98529973147214 1974.3204051247749 316.4915972795295 -661.1603705328218
-2121.1111932860263 315.3692848756295 -36.57961767428088 2125.0816211731885 275.31653537618126 -440.34549685510274
-1135.7029136299363 -267.6583071264803 70.60840986403124 1976.6570777124598 121.91045196836332 -253.9399249945779
-1321.9528949224305 -2739.6308303961528 -515.3179149218655 1382.720894486619 -3.855616418556224 -119.36410340255503
-1207.2954912836851 -1036.6678929383609 7.789223284430509 -760.1394942374355 -219.83157376000386 -104.61675428767487
-1953.667462602062 -322.2345042061272 36.72589286250833 -1147.4038463661134 -400.93719230407476 -174.55710317288893
-3794.681411720709 161.7614313233311 -146.07461530680018 -1314.3613651129492 -639.3887756636425 -349.02170312836597
-5714.6512909853645 69.17272785209465 -402.42526220084187 -1222.2310611147989 -690.6017394577443 -526.6461219717812
-7456.246054240851 23.456048955772772 -576.6958158394488 -1137.765616680428 -633.8295133113623 -699.6926039342152
-9131.54861440163 25.20765701715708 -725.6777346893512 -1043.1055950869143 -527.7137150484467 -872.0673628493153
-10748.250783531732 39.57895220734549 -871.1898947452958 -909.0445890531511 -389.24926007333704 -1046.398546691907
-12302.935644468922 23.34956727191383 -1040.7591472034721 -728.3615936359687 -230.4944320615536 -1223.3503307647215
-13188.865077069704 256.7798462909548 -1014.2627326102831 -422.6228205002591 -2.4006447054126636 -1371.0468823677063
-14889.206806578872 -898.3431464664948 -1867.7664195899135 214.82885594830847 -107.39162407212356 -1566.6326912778297
-12324.416547334919 7612.545918698845 1036.7795344309072 -6.2897413396250865 -15.139173029397458 -2082.030421171021
-14868.649592359927 -896.8395531743855 -1861.1088135025036 -227.84045607602218 76.00493004395382 -1566.6908856135524
-13146.174412118526 259.7840096776045 -1000.7892952146096 408.2976861242322 -32.18446796839022 -1371.1328889797803
-12235.57018484221 27.784998253314367 -1020.3766000606829 711.7871016810044 191.07393534619894 -1223.3877721846177
-10654.262626298438 45.172702823285405 -844.3941577194095 889.1522403345249 344.37555496315673 -1046.227441752179
-9013.129222760524 30.847604891727904 -694.7388406949233 1018.5241501114656 478.81505975408027 -871.3929361588247
-7326.5473196758685 26.78978558737814 -547.5863702321699 1106.5171572191962 586.0702997732466 -698.1490352528307
-5602.017478468163 72.98990345487194 -383.92940109582264 1184.3873405697707 654.3484345862844 -524.2769773822606
-3724.8939099053414 185.60576322183792 -140.29550821647075 1283.8453308100043 625.5688656557272 -348.00824678484844
-1923.101201071778 -286.69324294770144 34.58637876570522 1147.1090261629106 403.6170313995169 -182.20579300734335
-1227.2482632693095 -1101.2569169189903 -25.134961906042413 770.1602303667446 225.12069194150752 -135.72090097915532
-1054.568874473142 -447.650985792362 326.6977483898546 -374.79912968195106 -440.0989481272217 -126.26446665420403
-2367.8822190502474 -290.0901031598741 102.18307515219317 -537.4659174329576 -711.9651314338732 -145.9922795429957
-5422.893323967763 -228.5687476626829 -428.0095036940717 -604.2657633598741 -1056.4283745424138 -289.8494103198146
-8711.483541983194 -592.4097898290869 -1022.2188448217522 -580.9995080518337 -1102.9552942791754 -431.3755737191833
-11584.00115705049 -879.8659821404694 -1462.9444684904547 -540.258303362772 -994.186107343355 -565.5709037291625
-14299.421202079897 -1116.114888464271 -1854.3882993898928 -484.70279005097564 -811.6453405222699 -698.3546074076365
-16935.104491041344 -1320.3006985837633 -2235.1875175079977 -411.85883255853525 -573.0089873663984 -833.0336792571853
-19491.16683568428 -1624.0845791126014 -2670.534615468884 -301.89468322803395 -289.6571738030586 -956.2057608697122
-21769.546852249794 -1514.173249056989 -2983.6936193825927 -147.7345323016657 117.30069028212411 -1102.0613576271642
-23786.028362262794 -3595.624734810522 -4194.221567969346 410.58122320662244 851.7370811548498 -989.7272913378182
-19238.9741851428 7605.0222783199215 -458.4575569038335 -4.0641670973294595 -21.050905995355194 -2041.101176992409
-23763.354384515955 -3593.2784192506447 -4185.982447022348 -418.97720449981875 -895.2762480718709 -989.8460609381381
-21723.01131258213 -1509.5790064218004 -2967.1646208762127 138.54198879004934 -164.98702520647154 -1102.2650339015927
-19419.20493590053 -1617.5498385909098 -2645.914993015915 291.3937887202071 235.70496465925868 -956.4173406910973
-16837.9354661273 -1312.6704388407254 -2203.6962509844534 399.5893336887401 511.9917212595542 -833.1136246354732
-14184.55903354835 -1109.820190415202 -1820.1385480421472 470.32525863404834 745.4385062601166 -698.096059095339
-11476.24930989783 -879.6862263797881 -1435.7994799098674 523.6177919206912 929.9272384308482 -564.8335473730307
-8653.726797810139 -600.2655953235793 -1016.1111255375939 563.306587556089 1056.0195135979131 -430.45521897572473
-5434.435058667326 -231.46201991359573 -445.0749537016527 591.5375729175881 1044.9577871344372 -290.44269211062453
-2405.84270705215 -287.402245728054 79.2329340561669 538.2307020742617 729.0353175970614 -151.2473463499639
-1101.0874019940366 -486.94970581184407 298.9956001689086 377.83808593005693 464.1329542078515 -147.0154434940929
-385.84582357685076 -8578.437542716787 -2689.2850098880904 -1333.3485868401442 711.3316247278602 251.62832118671713
5057.00425391702 2431.7642520150534 1771.5577206359533 -596.0608103610585 767.537870508246 -78.86821236857779
5873.406882864195 294.26810170453336 774.3126538391034 -213.01003726347722 719.9280957139265 19.704892356431632
8316.205009758563 721.1841233468731 1180.503305502664 -231.53514134185272 639.7220255812524 -13.477595057356051
10993.882691551884 847.2257063058211 1578.0975106006908 -229.94983617768554 488.2592172767664 -1.3831312834790999
13758.535609759787 1082.0965681883317 2075.1510712118125 -235.82563687565863 292.04167883660614 0.9408920720985972
16475.792531489467 1303.5577254262255 2609.2919116276 -241.2835897055635 45.40749180720087 4.415275284324923
19153.87704404335 1541.3926711523204 3217.402338392012 -254.12797349573023 -227.00893151279223 0.3498778970128782
21789.203593903447 1777.2487955654726 3923.137110510682 -267.0190465371531 -438.9714083016342 -28.652773614010876
24070.56757876558 1881.00343920655 4603.875902200905 -215.0020988665492 -401.1004069915671 -110.06373935611215
24997.35538015111 1746.757867742919 4859.7663123255315 0.7237363931537715 3.7973080681638174 -195.3257527558573
24075.592276888445 1880.7237514698636 4602.461747014356 216.43828217673084 408.2679057984449 -110.56476500585275
21799.961287041206 1776.699057484721 3919.9370367047873 268.4021904644608 444.7937970563851 -29.637110429501284
19172.09840150481 1540.6247307264005 3211.6352419306318 255.34812938248808 230.3484280329677 -1.0223018075945376
16505.09105889526 1302.7984469185942 2599.785894951338 242.1371101596393 -46.30603348927532 2.7828213008013174
13805.621195923759 1081.6780784378036 2059.993691657121 235.8724141785471 -299.84379712755486 -0.08623136171311074
11072.316122579094 848.5691742296293 1555.7689524706607 229.04347912964235 -508.9273406271575 -2.8265133886822826
8445.027142352175 724.1883497700235 1144.3374251211476 227.09792596187924 -675.3312614138829 -5.227231078162573
6127.535238367017 314.2157514478516 749.3358790735854 204.77650636472893 -812.9334883636457 -3.8910139152987693
5654.845952180077 2508.1002448038353 1777.6820412458794 591.0627562752682 -686.8661829964849 93.03718082020454
789.4080005605978 -8125.306538691993 -1914.129230230328 787.8463570081581 -580.2738505170313 -463.57350563784115
-1269.4539691383695 -7832.970469544429 -2373.659905904769 -855.6457717046782 119.79814466744577 -23.579000525609274
2660.5370236585345 1296.351432199227 936.1477292114186 -743.3541007029927 258.1014540583567 -71.67713727369292
3349.450911479664 -70.20301328102744 301.25761597943693 -585.2614488299089 439.09547188511095 4.706001328765502
5379.290918759229 81.3789260331433 596.8773263448829 -607.6981038140013 368.21485947869473 -6.338293344870247
7083.485564325269 41.94359499956088 782.5371239157904 -625.8237766280225 274.3856668102489 0.996332149447789
8858.559961513241 52.17767780545047 1033.7022329388521 -629.2685314996704 149.529038904503 1.22139160162405
10605.841927913953 66.21870335740981 1320.6330666956433 -634.6841850493538 0.29426129313052996 -6.00555844437894
12313.423410965797 95.94534024976058 1657.4988711216758 -651.6251762884316 -160.01269965221047 -34.482629780035744
13946.283683659567 104.91456898126802 2040.2550235192048 -675.587884060984 -284.1355535017872 -117.06130900639562
15252.973541015854 -118.99660150819 2334.772175564475 -554.3210305008317 -261.8643320085769 -297.23644461686985
15643.436711070523 -632.6050944193024 2306.577113846443 1.047670928819607 -1.4629857503180221 -476.68037441905847
15258.658450216302 -118.77234964380176 2335.413276681849 556.3841780830409 258.27254557354576 -297.34430068370705
13958.269854005259 105.3559346951192 2041.1617642041847 677.5128618355693 278.52244230193617 -117.15763645272524
12333.166992605216 96.60565004364153 1657.8500921022787 653.1681495166612 150.9117869334517 -34.25995614267945
10636.15840334878 67.11836317319144 1318.973970794454 635.3491904932586 -14.563384778048928 -4.847759046569461
8904.96072777269 53.441748085180464 1027.9133760032398 628.1759775884261 -171.37988216094845 4.587635746959165
7155.313962986224 43.37290869642736 768.6971488429714 621.7884701163366 -306.4637483677904 8.028245501571256
5500.414336216589 87.23258994581178 575.0552058959283 597.5564670940769 -418.0449125077976 9.586476503963368
3557.765210660586 -66.95099779831223 262.2418022314065 559.3506670899561 -501.8309930927155 19.024341664186977
2874.4495396419884 1320.536572208798 893.6119368062965 681.5435236894783 -274.7437017582603 52.1835025888511
-1085.690821379708 -7819.68022116768 -2307.2093052353916 507.89473596894703 -82.16339773873865 -489.0199320184582
-1179.0789431777896 -5688.350552522377 -1554.550439148482 -1129.3085511235186 -18.995777206661778 -471.62917856029486
1161.1108829907948 436.0076964960824 506.261872942736 -1290.953869191583 58.99894655600122 -70.88116780382606
1523.1416346016854 227.55745539592428 240.33797955452587 -1067.5829511601728 177.18575414698586 -21.61229204720207
2586.647873445865 21.920871126742412 280.02647699690397 -1097.886855542623 150.49128468378245 0.29983097690166693
3542.548498317552 39.89524875070079 398.60257875945484 -1109.7855380330382 95.37894962150692 -0.23425231620816844
4420.224101807447 41.37107413278949 514.061933897899 -1114.125459600411 32.1819502996986 -7.164044212717666
5286.63661125767 51.50271783404679 654.9232095741733 -1116.7940633273931 -40.859629188121765 -31.52792655328015
6110.660218220008 90.11350735817771 824.1074466387937 -1128.928114076331 -123.80750907662573 -92.5176857132079
6919.7067882882775 139.6160540274032 1030.9990568660376 -1168.1598430820122 -214.68817231283737 -235.77236858278127
7626.844251934742 -234.9714667722659 1125.123516604538 -1010.3759739574834 -238.5961569596221 -533.6555615816441
7574.777485481122 -1454.3478785116884 763.4752505825453 1.5367398161857047 -6.128882421589329 -878.1717483518398
7632.941976096818 -234.65745643083136 1127.6720324260398 1013.3901803689158 225.48344523692637 -533.4058883540084
6932.357534395447 140.22888077853585 1035.7433152935032 1170.9266451603808 199.03035080228148 -235.05472461982768
6130.872968850126 91.00180285276775 830.2240647093053 1131.030179379667 103.9862662248277 -90.8011959552768
5316.347153951131 52.683079431310254 660.9353222414939 1117.3718541991393 15.372399156121322 -27.714932638466248
4463.0182417140495 42.727052049186774 517.4193026683175 1111.6609481200528 -64.65217581228944 0.6479432723876606
3605.8200060671707 41.73729051915043 395.80857701999616 1101.8565324924323 -136.19240538017058 15.236897192894547
2686.4890778412605 24.826311082395804 266.718300774751 1079.8374616717372 -201.1608847578064 26.00542351227803
1640.257167627366 222.53504534687175 197.70249345165075 1025.359342642318 -228.45768282716472 30.050155066903915
1276.4681394291622 525.2223049338677 478.6569519383206 1205.6248093104457 -69.47007843212974 -22.40784448645269
-1127.3628569516359 -5681.57226722565 -1587.1025847988392 1031.4760156079599 42.45296284609417 -660.9120939605627
-978.7036214294793 -3599.506430507072 -785.7005413440485 -1067.7833048090438 -61.329501005148835 -517.093904502104
44.514876130012674 -74.45048016909739 275.70769260887965 -1418.2911896561652 -58.56779441994735 -127.14353350310779
-164.71189461791553 252.6338618074595 142.04242899175995 -1348.559840097354 -36.64173661015959 -32.0794987082606
-99.7877317534619 28.21736391284978 29.67261134697298 -1273.8238247481468 -51.22255231062997 -7.935765614202447
-26.824598382725622 -7.491028770569292 17.74718112692299 -1273.6427468076197 -68.80490348974044 -6.80025985793353
-19.46637582141764 -1.0311209579161518 15.643982817193278 -1276.4722964646041 -78.08497333197441 -20.15726021456533
-31.237281043791555 -7.05701340827542 13.761445535848058 -1279.467801846905 -84.48307327052356 -52.489992329244906
-86.73469121315622 19.114286871915613 15.80992033185218 -1270.6512435642567 -100.90571094957694 -121.70533805535914
-73.92259471401704 144.5603943083341 70.26358223741718 -1311.3078047499775 -170.98879278685808 -270.29433082033506
169.89295278143211 -338.7947863422695 17.672337108964317 -1283.468050531853 -264.30695689961846 -594.9610853096221
-480.0383045594735 -2887.5750211198774 -905.6915154917777 1.671010072762118 -10.557981621071677 -1127.5064754056625
176.3726365693466 -338.376113496214 22.159312161419344 1286.7434793648938 242.16258979511932 -594.6076968206229
-60.70762462347158 145.38011283914727 78.91896387229359 1314.3053213969704 145.83335277801527 -269.3375363102105
-66.28045997847526 20.31231820348616 27.854927106323064 1272.900993869492 71.01439172204631 -119.53243212161725
-2.701961579747774 -5.502427216539027 27.67483832727649 1279.9923751327733 48.67914063592956 -47.88222736486328
18.76513870724612 0.8042038360140125 28.76402172648636 1273.4495935573873 36.12852491297965 -10.793045998522437
25.54033220124655 -5.373654224839882 26.125694463172614 1263.9848014891434 21.706340978265274 11.096196072954003
-32.2711989937323 27.54591281225795 24.40804882250068 1252.1578233822593 2.0095008881739407 24.457549828834782
-98.80565570792587 264.07287299914225 115.06411263795934 1305.0990511492823 -1.7481934760380438 20.220944277273695
105.45981007162224 3.155491059724169 250.35893144758958 1372.7368521434123 55.35755238691995 -95.59758661969038
-977.4245453425741 -3627.3697797156788 -850.3593366001572 1036.1086540905162 80.27477041794249 -630.2417073180334
-885.6134285285108 -1912.1136982888008 -176.07986551587572 -808.4613753476061 -103.46030062989024 -447.2249763306058
-858.9715009732538 -266.8342767083677 182.96030927543794 -1201.4895933424527 -167.04316982276126 -129.6538452499977
-1781.5455824106589 167.80738522133072 23.365442716603695 -1242.0429943792237 -236.0700650100451 -33.30922575345579
-2717.4233602569684 13.569987484089616 -209.944194279333 -1129.1014456274218 -252.27746591751347 -4.081308316705338
-3586.485597791726 -39.61717892600996 -356.6131343078335 -1105.734904436669 -234.8120274990415 1.4732863325795649
-4470.503407817431 -48.476458021796695 -488.31345680162246 -1111.5333946566589 -189.81366042136585 -7.339753600430205
-5335.651691314264 -50.40875880938797 -619.0257554417018 -1114.1890371746574 -130.78537289156662 -34.2708285413702
-6251.875608671992 -86.33603170068547 -792.3260163699308 -1104.2345652174922 -72.90341641586163 -83.64546460718492
-7095.182205213256 106.87095094251964 -911.5716501284718 -1085.7092687734353 -91.0438395190146 -189.03993145951983
-7173.597197306828 -59.06746200331553 -963.5130938962021 -1372.6281574481027 -281.3004176580253 -434.85933071800616
-8837.518803444751 -5003.728980595468 -2910.609362096871 1.5734848640024865 -15.081694299497833 -1179.2717244537214
-7166.721478159576 -58.552051992573794 -957.0631266395193 1375.7253778179936 249.91996359548713 -434.6624991533291
-7081.375536735549 107.88806079697403 -898.9445763490519 1088.5882374629425 56.13911984391492 -188.42833712692791
-6231.146236869292 -84.84133539888653 -774.2446296595881 1106.498878854277 32.61441830162531 -82.08725063614513
-5308.28267745462 -48.473717158073434 -597.0281517974948 1114.985173681796 84.22091196549133 -30.689604643260896
-4436.909129216191 -46.1054270864992 -465.1897580596121 1109.1714871450918 137.8737935701799 0.31535903272009946
-3547.4132184914497 -37.64626818095415 -337.4697933081807 1097.1786262480646 181.1154280643409 16.953412614834395
-2677.519960670313 15.054762575501936 -203.34157286363418 1109.3732557582216 204.41307687806545 24.86609567969671
-1750.0835242058004 182.99956262410535 11.601652410488455 1211.5318692687617 207.55592569719124 9.09077288416995
-832.8151098735544 -218.810806023432 160.54643674983768 1181.9248229421473 168.09263552471504 -107.94901475070868
-898.8839839376637 -1942.735423783858 -238.21589367517728 801.1560322493771 119.07379434916565 -522.2623040817296
-947.7528844970602 -847.8880514029249 230.73693443274664 -422.78529649978833 -185.4120516914002 -290.3092071615229
-1620.160750860215 -275.7037688287867 176.56758200021923 -671.7312753919148 -309.06876899679423 -88.23889828115671
-3363.272963634448 72.06133983269507 -105.73110355125588 -716.5076507656581 -456.41014327036174 -30.414681009582683
-5305.7877178838 7.389465051625499 -459.84202292977784 -642.3831283355556 -473.67103938733976 -4.8105969626926735
-7141.7447828478025 -39.70557950828237 -747.104968242635 -621.4024136079827 -417.9557854895264 2.2229560120781926
-8917.903570823055 -55.72776513279995 -1011.9990639239693 -626.3671647555054 -312.7985530983139 1.250564909110888
-10664.878418338702 -68.82826558367745 -1289.3317391050148 -632.1862724251522 -176.66327786691218 -7.870384463795722
-12292.629784439712 -40.12341982330642 -1559.5681535099004 -620.450123978251 -37.97312844412548 -31.865913141421878
-14203.148611136809 -230.39741822785317 -2051.3272624232864 -640.0314141963806 85.04985633714793 -49.979875654022045
-14439.750218635798 1032.6291656002609 -1764.581014226025 -866.9366197701862 -177.51454492810038 -162.5186001758081
-17908.028788793654 -7713.441572252551 -5485.806226936575 1.0912400362911883 -20.032981720815773 -868.0931801585788
-14432.422734408847 1033.218245058483 -1756.151047978535 869.0996460322623 135.99374702549835 -162.71019827742023
-14188.610547397207 -229.22947521613563 -2034.689722105883 642.094559063463 -130.76079879089724 -50.244148488427115
-12271.336086218947 -38.40481979807504 -1535.3831310380738 622.195727378825 -14.048358392373087 -31.903468211355552
-10638.05869069251 -66.59831841874524 -1259.1354822013052 633.1147056298987 117.56713129245011 -7.061720179544787
-8888.275975021112 -53.174491604408466 -978.9510384216777 625.4637360938126 248.48592452257543 4.151945408856318
-7114.688765622715 -37.36378510740026 -717.0639463536127 616.6632240884545 354.70962486238597 9.70309789031056
-5289.112832542769 10.797925631627969 -441.2265360294073 631.2314641660022 423.6741529535547 10.953601593983343
-3359.833163053891 84.64276878315924 -104.86430749176044 701.4860143908937 434.78453595823845 -7.269983594032441
-1620.7053949659428 -252.8613033322738 159.2766771798019 665.0930309784669 315.9303343101561 -76.91710060816438
-966.4685054443536 -867.1350225276351 182.54349768639548 421.2537886950197 203.10245481848335 -333.2529802809481
-1017.3955137585347 -464.92184220151114 488.9104454301889 -161.93423611002558 -354.47507912872794 -188.14796732971334
-2232.636527668522 -327.56678400458 201.81286741919638 -262.8691712284979 -532.3731567538638 -61.34375281697599
-5077.476718143235 -314.5879782887115 -391.35368508297313 -258.1583147929596 -740.8892935254637 -33.01440871043849
-8211.900964225388 -603.8572358167065 -1034.7838592253836 -234.08436196759544 -747.0050326866774 -13.676368348059993
-11078.533167082183 -861.3007145967136 -1563.4034921787563 -228.87082710018518 -642.2643141788095 -6.8048677669048026
-13827.747776545855 -1083.036744824589 -2059.7646726757825 -234.19804914693293 -462.3989491793748 -2.206722656263702
-16548.253780059506 -1321.1473338139847 -2587.9125381246417 -237.18135674257064 -232.63638494121295 1.2557214530522494
-19107.974674126566 -1442.9458429577892 -3095.0730917202122 -247.93477987579104 21.478017638576674 0.6319357674408881
-21401.811881039008 -1929.816777994225 -3734.12203609084 -255.251982979277 283.0935428563911 4.619659327253377
-22896.909661650803 -93.49620465559502 -3699.443155103112 -618.7498501080561 422.33084773667866 100.06090316401776
-29582.090599043695 -12115.28654160782 -9839.178977858557 0.5238460707744359 -25.774182054217427 -923.0486921437252
-22888.866869041038 -92.37977945736338 -3688.8348713970736 619.7988837471635 -475.65784056838345 99.70150798971711
-21385.957019317673 -1927.5987611040484 -3713.0806187418957 256.28866964434144 -341.5466976074616 3.962610395005317
-19085.05944516291 -1439.6784793544095 -3064.2055652381755 248.88635058014253 -87.65929387238285 -0.16682675390516266
-16520.187503275603 -1316.9828695595813 -2548.8136990259004 237.85594795263899 157.78520884961392 0.6359047474100041
-13799.051610508111 -1078.5387889483407 -2016.0893604812663 234.1885419113373 381.2471605765615 -1.9925692540621398
-11058.934469742779 -857.7789231959173 -1522.4550382417299 227.31657904321358 563.2830340691606 -4.434833440687626
-8215.595800595223 -601.8851972242254 -1007.5516000300191 229.8346476608341 687.5626240357502 -7.1373984111908815
-5106.940498757185 -309.8473474048653 -386.05575864154264 251.95518722536917 723.1945683569049 -23.053372698601198
-2263.568450143287 -320.21325466093015 187.05884756343832 259.75903376342467 554.7430844217654 -56.92237055901746
-1049.928204776261 -479.33427700545957 452.2748708927795 159.39632969756795 391.29269448735147 -214.12908431462392
1776.5670013582205 -6513.979906864036 -1421.2238716517454 -83.78620078189465 307.34764142061147 26.669995232390683
5652.240665546226 2320.4592316187427 1947.939035317756 -576.503752467908 419.02862575908546 -31.97656335338811
5855.97805690016 286.4497764589768 994.9568759675916 -228.1092931901705 394.3665762215563 30.887925114559994
8149.524047467596 621.6263067592574 1408.188287257098 -260.6587667079082 329.6605435798737 35.64145412313649
10728.398153866798 744.5907578264215 1929.043150419858 -273.1390003787396 211.98276765267246 49.18434015452838
13374.182919361348 952.1197034379431 2581.685695576071 -286.79434584733775 64.60661609651278 63.19138460722688
16046.40667000337 1159.7138465599269 3342.574359856511 -305.2141496881789 -101.96477740202025 76.31209870759515
18898.423107082483 1414.3733302906055 4281.3465548941 -340.2704933850224 -261.0927110187005 82.21448534226909
22126.70278874284 1699.043887080239 5447.3599490656425 -382.01695195832025 -350.0398152359562 69.25996087909884
25309.10419814972 1792.0824386299864 6599.6592425778035 -320.91091515457066 -271.6921282496933 29.995750411630578
26679.633050392724 1549.7033662876743 7036.247143248701 0.7424820229285594 0.3509225431613363 -3.2938019195803485
25301.306085052795 1791.2094046530256 6596.049309933478 322.4412104898757 271.99036115928317 29.56988611563043
22109.742402896085 1697.203104809461 5438.974514526019 383.68753432699714 349.08270980241485 68.41331965658074
18869.323737614035 1411.358518815479 4265.623832489462 342.1989062889636 257.83291694482597 80.99003000637201
15999.93399255196 1155.1154229573774 3315.0358041656627 307.52931976268513 94.76937882028713 74.83655542290535
13302.205406516083 945.5263816063206 2535.5516454125177 289.7581268323524 -78.68412062759664 61.917243751822255
10617.32590368556 734.7630121989404 1853.474807331155 276.5929417919652 -238.55742380578565 48.4402834541866
7981.860334496389 608.4067849246737 1291.1293745186194 266.9878835416207 -375.11982852995675 38.70975112698277
5550.3100721694655 251.84057598636312 788.1756239132336 237.14388498404074 -464.51549421518575 28.37613793352793
4881.760552108616 2167.544194580609 1550.1435926838956 563.3834307075988 -422.83837620345855 22.83949930977482
470.5745362907616 -6877.707972676326 -2417.76909658482 723.6048320175242 -373.7712903517427 -223.23085076759685
-859.1183412043862 -6660.593733758709 -2321.3369859977993 -142.91973689664093 162.72206283793332 -79.65292350002639
2793.772054012324 1212.2497931848657 998.2981335565232 -654.2711285243477 197.2591318361267 -67.00821047344725
3509.617598908623 -87.28504237283889 497.4237572228145 -589.9788638597331 246.9281449849826 7.413083891804849
5355.143092928101 16.585707914233897 815.1031524970014 -650.2439305274711 206.44758059714596 18.731848521981973
6976.237733433091 -40.46334441351961 1077.2027260937373 -687.3486254411463 130.77574547633415 27.365635471212794
8674.260316713158 -52.34735868577763 1444.5710812069383 -711.8043748469662 34.96312578525927 31.6283622019101
10391.877603614028 -58.83311744152601 1890.1245245289892 -751.7479518773466 -69.63104438800613 27.57157390857712
12207.62559993516 -34.22150507134542 2447.864749339227 -834.4254356092117 -166.20102471901853 4.961660440668062
14183.59699550346 -45.944229436495206 3109.8533069913997 -954.9877313182143 -218.75467195666988 -52.56918438853045
15953.247211578951 -454.428376034925 3630.649613645348 -836.9161856872668 -170.6068457986599 -148.81584719105217
16499.79157794088 -1281.4326476033607 3618.3936861165257 1.4400507306601549 -3.150736062885442 -217.51331496434128
15945.270367209045 -454.74411974577237 3630.7625734294174 839.928130195033 163.70895681840352 -148.9169648535558
14166.48010914039 -46.589218286907794 3109.1589685585886 958.4176720451229 210.04351226535252 -52.666332203932434
12178.89263354548 -35.22730413605492 2444.2928258285906 838.6356481958477 154.34349202098778 5.140439779803769
10347.433065478494 -60.23336938872578 1880.0328683736075 757.237338612248 52.96034913778959 28.603525838627018
8607.611654752101 -54.14893882060381 1421.964538501174 719.2815012583819 -58.98641257937055 34.63402997886747
6878.254358158436 -42.24106004310663 1033.5001942820402 697.6169998567826 -165.94689065476578 34.13197204751145
5203.989696839525 10.667390862637284 732.6316551929235 666.1869934649119 -258.4004832834343 32.308970762910945
3263.999631950603 -93.80946504534023 355.9213071043859 620.7577211983037 -307.12131443334056 28.55660709026596
2535.308236137599 1166.8713038637547 775.6241490659486 711.2433973735525 -220.80027251166032 -8.279877289608834
-1036.5676707872556 -6569.2476058135135 -2656.844537183843 537.4641835211304 -144.38794146605278 -288.75686545520773
-971.4085933402372 -4777.5981126652805 -1606.9149583818144 -926.2824607809506 57.088978068436866 -274.6142456819181
1269.3406068592856 604.989979166922 571.4879301867986 -1138.80740536659 71.82092548261458 -101.28127027744576
1639.8002870712132 146.8386422481786 331.1814297434691 -1061.5628258960069 100.48311128369053 -25.810985630015793
2668.3535297956655 -29.761300608436837 412.6866772596487 -1147.0644021113546 82.95225848393125 -0.36955655215236916
3552.704047164115 -27.35067887907142 557.7957643591052 -1191.5347347630282 40.35579886679994 3.147723764942631
4380.202865622823 -41.96998605309273 728.6678991572973 -1233.7925615468484 -10.136886570000788 -4.606579631243384
5211.152593987817 -48.73052147449077 947.8259417411152 -1297.2524104355439 -62.4917692043805 -30.026052734106003
6056.006078803722 0.13435228589333903 1230.1566538335942 -1420.763115160173 -111.24603899015668 -86.67163569160458
7027.843846683843 67.71189946553034 1595.2137838871001 -1635.328720811032 -144.63409363926544 -194.84520219713417
8003.105426877454 -564.0905041868508 1788.1004841608055 -1517.4099785074634 -124.20298867516092 -357.2322001977622
7924.395877803974 -2426.6100371024354 1285.0582370666673 2.32360048065958 -6.58858658375323 -474.608416117547
7994.818396841583 -564.5103524475937 1791.6497696379317 1522.2767962454752 110.27526576697379 -357.0183096960408
7010.308040207508 66.8711459730479 1601.5969105386762 1640.893870867713 128.46654685627004 -194.198426259819
6027.27528955404 -1.1257591259681012 1237.7212440834467 1427.637133862929 91.37408446646494 -85.05450544756931
5168.147752207417 -50.41968065134602 953.4856684419228 1306.3046746250197 37.42568193759248 -26.351635311073963
4318.507633226323 -43.83723228601286 727.2686195837151 1246.2752413673386 -21.79123756411657 3.0811425682041564
3465.414294563908 -29.352706087078214 540.6780758030583 1209.2556549913058 -81.37103362272103 18.181159818903993
2541.8189107332714 -32.26818286047035 365.5379660169338 1174.1398401734646 -134.53058868387913 25.686511439847788
1501.0733033943097 150.84131337172812 249.30394115518394 1110.4309430921608 -152.03483336386236 20.906021772099564
1127.9123227235139 491.62168983305065 385.73858624452225 1223.9736782075108 -86.48726562635017 -61.26299157173009
-1021.2436895856595 -4707.177148059467 -1834.6387017734646 1013.4769993346986 -38.96781373598517 -424.761014547131
-871.8742255626087 -3033.2397169943442 -806.84777961439 -997.9759108088965 -6.79738183298414 -352.1154563879417
136.01474395062027 138.27442938699775 325.3002665897297 -1334.9524834390058 -21.84884457761814 -118.96056107284244
-44.75725857070343 227.33385284057195 173.55136438283216 -1324.3973672152993 -31.278213131280886 -35.615827445197084
49.62558504468173 8.535549002889619 57.18852223003004 -1319.500055011702 -40.142435913691976 -6.904601695584217
105.22383208361751 -10.460407155193801 33.88841632668716 -1358.6216127211792 -52.644520668835405 -2.132970060918299
84.20796042912482 -2.8572465020429525 25.44363187862119 -1406.648658907407 -61.8895604296576 -13.56274303202033
30.495079184920925 -10.11943835446135 22.57078111163676 -1479.6672431477743 -66.8518137105275 -45.4806669581693
-91.55525385626802 46.977532239287086 32.3708058428404 -1585.0371096853653 -73.31514969567475 -110.87247788056095
-74.39803238936642 259.3730508745392 143.04432811222904 -1816.960385812525 -91.87388074829538 -230.08586875960918
320.28800833346435 -525.5852369427475 101.70777092231292 -1897.6691536481032 -97.5648887003152 -415.15612073769637
-568.5731748618949 -4254.091381703771 -1175.8033922432692 2.633224870036771 -10.016567916839406 -566.417800207486
311.7302561064296 -526.1347351222098 108.70432619850583 1903.1850955908071 76.64173616952188 -414.84646092708294
-92.26319207152929 258.28363909969374 156.52652522381553 1823.268866926472 68.33765027684466 -229.2109819727958
-120.14220569744279 45.369037772045196 51.08334302147749 1592.8280204172079 45.627136697110416 -108.80878472851334
-10.755608292128734 -12.184253474935616 44.01733093289068 1489.9303018081578 33.81966390836662 -40.99184478984579
27.949527369631586 -5.100799180595807 45.089858693980666 1420.9003549957695 22.817375288267478 -4.351433645389765
30.109206020044653 -12.440394331484981 43.597869050860204 1379.2886825220528 7.474604276986685 15.514296587955219
-40.901027833521 10.748792920152704 47.51299421850932 1350.9618964076913 -9.019373412417515 24.880138301254643
-127.99733286789525 212.6442992134817 126.48228970813412 1374.096080085547 -9.412665894149008 14.092166062168682
59.363026079471844 49.21731871091462 192.80869823866468 1376.4186673500128 13.271435801244941 -89.82040268493182
-878.4547189792212 -2956.479458903948 -966.9627765573816 1015.4851688306105 21.080341314938998 -449.75636568627533
-825.7634323280873 -1608.0269904001218 -110.64589418490151 -796.2423971035035 -60.58125826612857 -330.8884847582343
-788.956997372192 -100.06969308793984 219.59909798827485 -1169.4600898507979 -108.15556172530015 -101.5859235090065
-1649.1090789135815 189.22219892912838 2.8202303382118776 -1233.6484210398128 -158.48156935730339 -30.360101125665388
-2504.7867035485065 40.91436895790789 -282.6077551387278 -1173.7192061251978 -162.24255465635227 -3.459196014683246
-3338.3171777333096 19.345475690196174 -486.54106214499757 -1188.6411034613811 -146.21497605442542 3.2922645051703543
-4224.342052583131 31.62210871353351 -683.8754787927966 -1233.8039070670172 -114.30380691631775 -4.673159758757809
-5127.053427805272 51.02651825823048 -889.3093827731619 -1295.0541823934389 -72.09473789425427 -30.38654136433259
-6175.886129647681 39.31393223497736 -1163.0736855348625 -1374.9827050430808 -33.5828301889203 -83.13850257326014
-7196.774707524823 371.3272794235402 -1342.6628891922974 -1485.5975918334523 -29.34712183200108 -178.8734181325227
-7221.8035510236605 44.68317454734867 -1406.4247313137728 -1971.069476379831 -61.48208254309713 -348.59593302554373
-9470.539768068818 -6896.174895839825 -4016.5704036355464 2.3314960759643544 -13.511937116643479 -523.2469637548312
-7230.687541092043 44.00110070354222 -1395.9315363288074 1975.952480513207 33.419772499522104 -348.40960350092655
-7215.093763904455 369.9788228540435 -1321.9776793380358 1491.1783057883374 -1.7298710835168738 -178.2831897026449
-6204.54764785331 37.34458536295117 -1133.037103911077 1381.8639022790603 -2.1426198928814677 -81.61423025850308
-5166.861533279874 48.56484594070522 -851.8013008617484 1304.1013218513913 30.789484084376678 -26.86437147989906
-4275.567401110689 28.926372605169938 -642.7712442215229 1246.4321933007268 67.7178065137141 2.83477142416716
-3399.1623930364844 17.951714838427236 -448.5071580866429 1207.2531744360053 96.56521243726941 18.323868514852276
-2565.9328833889313 41.170512497823346 -258.139901987649 1202.1386254680056 115.36624564613268 24.382831372693495
-1696.080175686315 172.268875175073 -8.492059951550797 1268.122088851239 126.78486665575248 10.013590182443739
-825.7690421703134 -151.82118199075558 138.54271538741577 1184.7393189904876 103.82502595214089 -80.04117559867252
-824.9206599304522 -1554.6692609252518 -231.2256156334736 791.1257084976237 72.1917501430455 -393.99227354395373
-916.1845340249901 -715.7161442666769 363.72032024420014 -430.22945198351994 -128.46685126246751 -200.11926664341087
-1577.3633662687416 -181.68991209106224 196.0307345948102 -669.1466235094498 -206.94043580240995 -44.19260322716478
-3219.404673752626 105.84629343277422 -175.39810729404533 -727.5771857464607 -291.61836550936897 -5.944424599536576
-5030.58862193615 50.528653656820424 -625.1783944212968 -682.3781029159637 -285.06454336577775 15.716241680642453
-6780.219071083086 35.77346965401524 -1015.4263025849999 -684.1858744150501 -237.89665263531793 27.016021613479086
-8528.784238508399 48.17812472770365 -1403.9469847669031 -711.6456268062004 -161.4218372568852 31.46805299769308
-10312.583248698345 61.19214298330339 -1833.8105576733835 -749.9182061937661 -67.0008677990381 27.338916959869174
-12057.316189166266 133.22176098239532 -2282.560111253027 -782.7113463066806 22.886177672665813 8.640561557546278
-14395.91701128856 -74.38925396948024 -3043.3476028070795 -870.1885844012154 70.43432713467394 -31.305091696858618
-14720.068995276033 1588.9035899389935 -2682.0363889439036 -1182.130590606093 19.324000980611665 -138.7227663632866
-19411.76437941642 -10295.64402657297 -7499.157065731301 1.4567635853069163 -17.151247204112277 -336.453716733743
-14729.429716600658 1588.1101046335195 -2667.9610559962553 1185.1775087006897 -54.8459877457281 -138.8826008643472
-14415.01987965035 -75.95689046611037 -3015.2716577241604 873.6566241833688 -109.47908759843847 -31.520126873215435
-12086.623851857245 130.94875275262788 -2240.8716254697097 786.957245024083 -67.28765006894312 8.635154335871082
-10351.944208673747 58.37778028050028 -1779.734654205713 755.4514818656173 16.411616184896022 28.094418110725826
-8576.012307400351 45.35583884752737 -1340.33604381527 719.2907797351675 105.70766116991156 34.08218800247414
-6828.449715493929 34.174147078846524 -947.8841167039224 695.4958079124759 181.44055637943222 33.65891194687804
-5067.290808272957 49.02490704171183 -565.2101062562276 698.9140142331289 237.42728779711499 29.68913052192752
-3236.5185904448026 93.7515866980567 -147.08331570240716 744.4339323407996 266.53509897184847 14.679083945032353
-1584.6803878505523 -205.31269289743773 162.1346259099213 672.856823492616 208.41276326831516 -33.27797815361635
-914.3271259060383 -691.3452566673054 273.19739545553324 422.6120769363151 142.33149488780055 -235.39388803735724
-1023.5710782852208 -415.91522484640075 600.923453389621 -167.7068647046848 -247.5278344048701 -102.7135780000284
-2212.522595849484 -276.9508373502185 199.10790408131794 -267.8915624991515 -341.0887657082772 -4.683089295266347
-4902.446440334574 -275.8412062979567 -479.34205150262034 -277.6273305083175 -435.9127451616191 12.466932253617841
-7834.052134237826 -541.0602450917231 -1229.790433809674 -267.3636616112978 -407.1550854794209 30.586897082837652
-10556.702103103684 -760.9779376089397 -1885.1977503709636 -271.1090325519246 -321.7003349829908 46.062173877619344
-13241.143305693327 -952.745120682315 -2548.7556121582625 -285.50779614420264 -193.58696407632445 61.27847896864451
-15986.997980182836 -1177.0716311556846 -3300.6826871853955 -299.8364501886232 -37.77273893531094 74.89736328054188
-18667.09340362907 -1254.3605053248154 -4071.0434992175656 -331.67709952404294 116.10298580411492 84.97712383144045
-21325.77351678615 -1854.7454896257434 -5088.873252834137 -350.8565943779588 215.89547296230683 80.33442915946833
-23629.48720314656 519.5745016014905 -5214.115964362943 -772.7340497073778 206.18674365669554 49.70442498403326
-32745.36989454371 -15572.316882768237 -12842.247917170804 0.7576361241554466 -20.98705162828071 -235.71931945548505
-23639.30203067442 519.3260370417303 -5196.083246151018 774.3274819445803 -249.61588653121098 49.35769174546344
-21345.624613488613 -1855.1454014053695 -5052.5956374376265 352.69349109802414 -263.53650323183683 79.66803176465594
-18697.04825074995 -1254.6777557736427 -4016.335835228917 333.95636584704414 -170.1720400392838 84.06952637951507
-16026.056523502002 -1176.826601781384 -3227.894069267474 302.82022185471084 -23.753129453000515 73.93455614169757
-13284.963843947386 -950.7742490733972 -2459.4065951390676 289.5675266509437 125.93557464875411 60.6917878346803
-10593.247839513273 -755.0041308078553 -1782.904541079819 276.87862514219887 253.83592368967254 46.829027998693725
-7843.34354110484 -530.1664718846424 -1124.206907328476 275.38449962280305 352.62001534912423 34.386576626934804
-4877.621106751056 -267.03509715792285 -396.68991369337687 285.9803324838783 414.5368725933872 19.076680242150687
-2181.329231821059 -273.60093190747585 217.66734783125048 271.01985766511655 356.25308592900205 -1.541756971901453
-1003.9826222574397 -393.6210791876379 545.7248916015948 165.38702761003478 278.3452855339965 -123.8386640836764
2243.0436311528524 -6073.571548922961 -1149.158375331031 190.71713741657612 -2.4833131107016015e-09 -1.2476517596837766e-09
5803.048175114426 2269.479169352951 2038.1883468441451 -565.6375331303859 -1.236075686250615e-09 1.9703350062627578e-11
5879.321586558949 300.80423712922425 1134.2485371042699 -219.87864140898574 -4.519971064098627e-10 -1.1848788616930506e-10
8098.364789317121 617.24306946255 1576.125837831636 -261.4640865467054 6.925482409769756e-11 5.0744297652727255e-11
10647.326606849952 748.2723736179353 2154.2284108544522 -279.570261623298 1.9187418320854022e-10 2.5791813129671937e-10
13291.015638901199 965.9382977730638 2898.0701629216655 -300.5310199808639 -1.280144878990086e-10 -1.4660717084780117e-10
16005.74809824556 1190.7094271383437 3785.740433272961 -327.32035822244825 -5.211304721086663e-10 1.0788836490860376e-10
18984.080684166893 1473.8978482248406 4888.395297308689 -370.93337070822884 -2.961786371713515e-10 5.146412185297322e-10
22441.98272770237 1799.4558271292344 6239.80615181463 -417.1046464561034 3.067486264995978e-10 3.597784292708184e-10
25891.785649579197 1933.0674981066654 7547.760987048968 -348.48905344949577 5.956168891430025e-10 3.561240191629622e-11
27382.08597997595 1697.159090003172 8035.650058014155 0.9196924455839124 6.846452293984839e-10 3.242917046009097e-11
25878.571501537015 1931.966844631814 7543.251847649344 350.4133964638395 1.2723868625386103e-09 -1.5208456716209184e-10
22413.38161790164 1797.1371737286365 6229.208859031415 419.3007267312704 2.6033413202952715e-09 4.6019854593737364e-10
18935.15764982438 1470.0757227401637 4868.2052736328205 373.6486970390161 2.956215938709761e-09 3.278444182797102e-11
15927.370041911052 1184.7058353908103 3749.794636566548 330.8785618278033 2.4334322751284887e-09 9.378098297929682e-11
13168.063511753946 957.0090891152196 2837.03418962645 305.431972270443 8.020905051253635e-10 -1.2743273103410502e-10
10455.326839150415 734.0598527617976 2054.1871281125673 286.133466240077 -1.4294583294827135e-09 1.3871570558876556e-10
7803.4458364699185 598.7617110084734 1421.0651022431646 272.0512487675455 -2.2122792486811704e-09 1.0591127974635128e-10
5396.18472735516 254.9886863849476 876.4456969406019 239.50591457398107 -2.813434818449423e-09 1.576550001658461e-10
4689.298181467385 2078.3069351066824 1479.009624051796 539.7578513651216 -2.473851790085746e-09 1.1658007892378919e-11
398.08150249800923 -6645.125982842006 -2436.582051233179 687.0889779744577 -2.2879600436453984e-09 -1.160220364226916e-09
-738.3785107109248 -6440.127419707155 -2167.420176646951 14.973721344926902 -7.540063018396381e-10 -7.512901412098927e-10
2826.9315458040737 1160.54494531844 999.4008607816342 -621.4034265380953 -7.004973268109893e-10 -3.205791188065632e-10
3575.049096292961 -74.84915651014867 595.8708660567454 -575.4282640670366 -5.201727937276246e-10 -3.112579083364153e-10
5343.245842361689 18.86513717191592 922.3698198405224 -652.8427728287951 -2.5177809837018117e-10 -2.7057023288534765e-11
6940.8127312839615 -33.93862826144218 1218.4886192752492 -701.4780294905873 -1.0227378666183284e-10 7.293299297828071e-11
8635.754781014382 -39.86115917073882 1640.035866909591 -740.3206411631164 -1.5990919699504502e-10 -3.161471084922596e-11
10380.066073336207 -38.77921404988127 2161.933531970865 -798.7939419997117 -3.326418585025692e-10 -2.800852882955951e-10
12270.591796599407 -4.422475062195676 2815.100438784958 -903.0028311733737 -2.349466177165027e-10 1.550355399615455e-10
14375.152073475847 -6.052832686176156 3579.680073889739 -1037.6740395657782 -1.44211531605265e-10 -3.391154024257048e-10
16288.284652500399 -408.8000106876309 4179.400669419564 -904.8178167412548 2.156843592615587e-10 -4.162927780271275e-10
16887.33774055324 -1260.1777576403804 4177.650622079036 1.7802118204041042 5.76290182241479e-10 -3.267830450681686e-10
16274.552795806343 -409.30051359556165 4179.421512566637 908.6035248888884 6.346357883657561e-10 -7.653619960024116e-10
14345.831071738512 -7.055015807096308 3578.5235637766145 1042.191392520692 1.3365357709460568e-09 -2.3141266680681838e-10
12221.589795676005 -5.951326624195863 2810.066105123514 908.9381167124433 1.7920544492788792e-09 2.9338309559534537e-11
10304.188060929486 -40.89798126790268 2148.245094577617 807.154932879635 1.24862303829687e-09 7.326006468133528e-11
8521.167319252072 -42.58656365803403 1610.0374652259206 752.501653123804 5.475258579856757e-10 1.1213632244988503e-09
6769.3134192719235 -36.952097403023636 1161.127038319947 719.3255332043271 -5.560465421439176e-10 4.218556615143143e-10
5083.487184313753 12.364506701869688 818.6500075880003 680.2864124160826 -1.3088540251615655e-09 4.811784304337152e-10
3185.3801453519372 -80.77929612805502 421.6825584607056 628.5007240237309 -1.6339076758242754e-09 2.757680750420377e-10
2439.1951904620482 1113.81969775862 716.1567770799478 690.083246712499 -1.2354653411428274e-09 -1.014157646750391e-10
-1036.7215731877432 -6348.718418989803 -2662.02066238481 509.157116555056 -7.565811865895e-10 -1.6900152388643619e-09
-950.7835924352958 -4714.5459485960055 -1566.5933751898303 -855.4408332814854 -2.8175495270232886e-10 -1.0128653471497273e-10
1304.234703350207 625.6599869463644 586.6435056041246 -1074.9661480473078 -3.039422047379503e-10 -5.049303197779409e-10
1696.394319615766 148.8520615864712 385.269965851874 -1042.7196285893035 -5.035669659037012e-10 -4.479698834103374e-10
2696.858006050613 -17.392679118481407 481.16412976993644 -1151.860984745944 -4.3098322827228586e-10 -4.5204395782150186e-10
3561.3412134019413 -12.245201484466696 638.0112853746914 -1216.723662462402 -3.6418512650016055e-10 8.359135605928714e-11
4387.30113363666 -19.752428257357252 835.7306134421174 -1281.3483132386089 -4.2658693244490564e-10 9.663292388495393e-11
5231.19671791857 -18.248877643751026 1093.8754895932075 -1374.6529089536814 -3.015585559040801e-10 -3.9957903652521054e-10
6111.488468087843 42.47071354644594 1425.314087338895 -1533.5269470799064 -4.899018968274049e-10 -4.3338088673294806e-10
7145.559870520798 124.23643283973637 1843.4221231886693 -1772.2584957902 -5.551772930267873e-10 -9.443912318829462e-10
8204.555098440675 -493.8299595913486 2074.888438657622 -1633.656018367157 6.190103984948792e-11 -7.218288189392297e-10
8138.746220344395 -2410.3504810066283 1539.7244095019196 2.7816438777234977 1.359752033192052e-10 -8.936811290993774e-10
8190.250428777133 -494.4892694539173 2079.0804766360857 1639.5895569396305 3.347677690612727e-11 -1.042647301829902e-09
7115.443986936346 122.91916939045385 1850.9052760963748 1779.3982713981973 4.383619023329288e-10 -6.397549157100002e-10
6062.392397041697 40.47858045953123 1434.0012223589272 1543.0240427824149 7.250590960961034e-10 2.559801259849337e-10
5157.826007754967 -20.97111058725347 1099.8919307435515 1388.2329594889468 6.163923954582984e-10 4.206670567441506e-10
4281.270399103834 -23.036236482619014 832.5983055017324 1301.568080734773 4.662035375802009e-10 1.9159978048577386e-09
3409.9470503754424 -15.409140210210087 615.5506603271573 1247.024155714814 -5.762440524748058e-11 1.0879879219771738e-09
2481.2269897895053 -20.899331724942616 423.5024495596965 1199.4324504832812 -4.794749042247304e-10 8.427729625282154e-10
1468.031563350088 156.97473495651673 291.7069418528169 1122.7605448205115 -8.193742628836986e-10 4.310003465235468e-10
1081.6551220188214 462.7467842619302 345.4401655623604 1193.4159186586292 -3.9854756994639473e-10 -3.7196912217041245e-10
-1018.3783729095179 -4557.278661841552 -1864.6861034212695 969.9306196226551 -2.3540785987208324e-10 -2.512486219075072e-09
-859.214613102498 -2998.1945167059494 -791.7604414723338 -957.0706573429684 -4.895076011202093e-11 2.7893243270682433e-11
168.01397389617776 161.05418116207724 331.0347324052222 -1285.3152882253578 -1.4463708009060383e-10 -4.103235529129279e-10
10.548817117714048 230.10562263055132 195.31750557337935 -1300.790391825852 -5.123947377505544e-10 -5.315996531862766e-10
95.75492910739356 5.397996665562365 74.17210526080856 -1325.307245931347 -5.695249827297744e-10 -2.8405011676113645e-10
142.68807993655963 -12.190463671605977 42.09983184555503 -1388.0942586602657 -5.608548625524179e-10 5.611711095809824e-11
117.220139893784 -3.8138795435447057 29.799348302241086 -1461.5984833289376 -6.722384315871466e-10 1.5195222857755653e-10
59.47056288059572 -9.122863256192392 27.559634576641336 -1567.5876772451443 -5.645311995650104e-10 -2.776121554859401e-10
-68.17665537599385 52.610837835077255 39.93336829852084 -1710.843096474783 -7.086542186396372e-10 -5.723728158102404e-10
-51.65505221075085 272.61866050570256 156.9437516185871 -1967.1153000479594 -7.680973634904831e-10 -1.377360892007573e-09
381.92627084271993 -498.9330832799274 121.3679467805427 -2031.2626703972785 -2.866998860540093e-10 -1.1208038941390441e-09
-533.4939860272 -4328.9523868464 -1248.777107484848 3.120333589014357 -3.4428748740822357e-10 -9.514846688318812e-10
367.142881123325 -499.7616865127256 129.74296306854367 2037.9226331592072 -4.3947672584421227e-10 -1.2414340666566659e-09
-82.34316626043635 270.97031777097334 173.07913065730128 1975.1412049247306 -2.1299127739293766e-10 -1.192575371788962e-09
-116.9442527993948 50.14983637024859 62.32127172103908 1721.5319517463563 -2.7569212884825944e-10 2.6835689226345494e-10
-10.614474968344904 -12.40282687530864 53.184466787655836 1582.917380551577 -3.3916147668122676e-11 3.541296145215256e-10
21.377100996469267 -7.54036198105516 53.26326257152708 1484.6133309269076 1.9568999198860126e-10 2.0867596539630995e-09
14.201049154622272 -15.459515028272317 54.025328232833196 1423.4417442869774 3.564539774458808e-10 1.3473415716447334e-09
-58.780223037278155 8.634877211211021 65.5489201232392 1379.89278650263 1.223665613281355e-10 1.1148457712550908e-09
-129.7564237895457 208.32890106193528 144.0646289849411 1381.8551005784552 1.644201441663995e-11 4.6254844399129524e-10
46.37497879639685 33.564870613505775 162.91697727919015 1346.4174687007478 1.5940629372046544e-10 -5.56747092872456e-10
-863.6447685564042 -2851.136419103662 -994.0544111145513 980.3202092792559 2.3404789217806865e-10 -2.6316335777210043e-09
-794.1541853901156 -1576.0442060925466 -88.97319863991414 -775.6185692921176 5.2701176755931556e-11 -9.876544027065393e-12
-747.7037759006951 -78.31091247161369 214.9541440013558 -1134.1973373712951 -1.5559631361128368e-10 -2.634805706946963e-10
-1587.6218524940136 189.100384520743 -5.557923233100784 -1210.7289069765668 -5.24763899001357e-10 -4.81581885480864e-10
-2441.5403760845347 25.919819677647837 -315.4361063814955 -1175.4664216758786 -6.686885489770589e-10 -2.453515168809872e-10
-3274.389064605538 -0.8965615055388154 -551.2589613345942 -1213.131458916116 -7.491468556608538e-10 2.2994051107616542e-11
-4165.574689055638 7.247793172404919 -782.3710748489573 -1281.665719054258 -9.882127338656232e-10 1.2298606577587634e-10
-5087.9112794664825 23.10325336098903 -1025.0734028849722 -1372.1606871854285 -8.767191868319646e-10 -1.4482726129472212e-10
-6182.180145665467 5.776275015634347 -1343.4629901125882 -1485.0023416714312 -8.767891412908568e-10 -4.771374406686846e-10
-7270.641950872782 337.9415473888374 -1563.7498875632432 -1611.6193805542728 -8.393992168009845e-10 -1.4694485628297116e-09
-7295.920070279559 33.32140538044108 -1636.1170615896465 -2096.4882121041746 -7.175889327193374e-10 -9.150076252240069e-10
-9626.87306568157 -7088.235690860701 -4429.78256157982 2.802478667349277 -7.333211815563345e-10 -8.499601023004288e-10
-7311.255910421519 32.321904093993446 -1623.4953626696786 2102.465893124677 -7.72273800464518e-10 -9.328693373333863e-10
-7302.0638638462315 335.96070451518636 -1538.8278140168347 1618.80782267152 -9.952810797742018e-10 -1.0611835854490437e-09
-6230.917696331761 2.850215418132567 -1307.157430283395 1494.5420822099234 -9.750070473213412e-10 3.0892088886957936e-10
-5155.0814623109545 19.3387396624849 -979.4673678271942 1385.7878388667284 -7.510926325338119e-10 6.133435981325874e-10
-4251.681339164411 2.9577491771739117 -731.7919016894389 1302.2243074384082 -7.475547958435413e-11 2.0607275885708987e-09
-3376.844489224028 -3.408899611882834 -502.85075367750795 1245.0845112785898 6.111883221748826e-10 1.2250918057787885e-09
-2545.0538230828815 25.8215944767423 -280.1327974225952 1224.4317324995359 7.070430907418768e-10 1.089980772306376e-09
-1666.9534309446378 163.03356734362083 -12.184025597920144 1267.8377174091872 8.52428239106473e-10 4.1744030454538006e-10
-805.8342876049187 -153.51046344690005 115.38449300906555 1157.6182666810703 7.444392879918382e-10 -4.5866777043102047e-10
-788.7668278291859 -1480.2269788494584 -240.77807536592306 767.7464787156472 5.979221562313342e-10 -2.3376980351486054e-09
-855.4969327958116 -671.7243135276852 390.53448171196163 -424.4616016135777 2.6795676788538003e-11 -4.0032865911143745e-11
-1515.8814753920635 -150.20003785283438 176.51158932305216 -648.2811739389574 -1.5130696695564438e-10 -1.3491696648770812e-10
-3138.4348180453935 113.43642148548585 -209.62409373040683 -711.505339103551 -5.11964470817361e-10 -2.75636846680527e-10
-4937.698219801813 42.34231163686585 -699.0641794253798 -681.2089238055427 -8.656917405147624e-10 -1.8180679184354176e-10
-6675.269496698013 22.041360224413857 -1141.67278043714 -697.8737307025651 -1.1044185566078113e-09 7.207301422340606e-11
-8424.97927423823 32.53901126680674 -1591.2185013564836 -740.3886614278252 -1.0166261443789182e-09 -7.227995979519619e-11
-10240.51645155609 43.27574942882953 -2096.1075400478444 -796.8520606041325 -7.994883088890958e-10 3.678901627779396e-11
-12061.341948903995 113.27536737824784 -2632.4824796370435 -848.0898213513344 -1.038209407333568e-09 -3.22670778984957e-11
-14551.18942631899 -110.385898629008 -3495.0943000929533 -942.746655918078 -9.208690476825154e-10 -7.223117659549416e-10
-14907.192762990971 1636.909072752219 -3113.0706788034763 -1254.7358555773237 -9.639856135557068e-10 -1.5258239116633376e-10
-19792.08147616739 -10620.873739544388 -8248.684692316312 1.8165994332634705 -1.0505295522378333e-09 -6.597353774395742e-10
-14923.323100317966 1635.7440848953051 -3096.086716935013 1258.5986663091298 -1.283010697683551e-09 -1.2543965866029794e-10
-14583.891397260879 -112.69307230737226 -3461.1293380879656 947.3512814070782 -1.7588986933603223e-09 -4.870344127994031e-10
-12111.028932818752 109.89758874465096 -2581.7969203171074 854.1187451755428 -1.7892176629175083e-09 5.215057274909896e-10
-10306.5059875286 38.98839711930778 -2029.7751502392819 805.3363879806838 -1.453931100514616e-09 3.6222469468327745e-10
-8503.334107421366 27.978176559830928 -1511.9075442232477 752.997340491141 -5.065169395024327e-10 1.2369572033321674e-09
-6754.7589577086865 18.751442777235734 -1054.767894574441 717.3915207113245 7.690090786383053e-10 7.148275305013385e-10
-4998.086780182976 38.27825999723889 -617.1602285092409 709.7493976892534 1.4304002426968054e-09 5.424154458921748e-10
-3166.1908913682014 92.54081548908769 -164.49613771089892 739.705840527473 1.828157625283211e-09 1.9161439102077793e-10
-1525.4735361999565 -186.33217241929003 139.55472631581316 653.9903529846797 1.4834589112666663e-09 -1.7563195342518156e-10
-847.5910560383074 -627.8112174316077 275.3450184085166 413.292206780805 1.037597563424697e-09 -1.4927081792848185e-09
-957.8453093200073 -379.43769609398373 574.5061890671601 -168.43242106431893 9.992007221626409e-12 -4.5922377012175275e-11
-2140.48937453392 -247.26434611976788 135.4008018592887 -256.05577620133107 -6.089173609780119e-11 -4.815969845139989e-11
-4800.915583841571 -266.8123805747604 -557.132234248987 -268.5280584244282 -4.255458208035634e-10 -1.255013870604671e-10
-7706.781536649978 -545.7805530073123 -1361.220113771785 -265.38061017409456 -1.1614300632345476e-09 -4.1040948417503387e-11
-10407.7435031939 -772.5085974950783 -2094.740777904108 -276.7369337016473 -1.556661466395326e-09 3.26103588577098e-11
-13092.52334537959 -970.1421708970686 -2856.6466630709383 -298.7329183580707 -8.823282104941654e-10 -3.439240003899613e-10
-15885.295936241899 -1206.452977676222 -3734.829834439572 -321.46442978166215 -6.580580524939705e-10 4.305746870159055e-10
-18692.979354357067 -1304.5456814779918 -4664.83748165503 -360.1628801298211 -8.657066175032924e-10 1.2256506920493848e-10
-21586.38974404149 -1956.9002074667678 -5861.732799504205 -379.4467784558316 -9.076748241909627e-10 4.669331588047498e-10
-24041.909989974058 503.98318725679303 -5998.745197040364 -813.2299320068413 -1.4981929030710717e-09 1.0450484921875614e-10
-33432.18386506952 -16050.521201744823 -13847.035601530613 1.0495986153822798 -1.429139917519251e-09 -4.2384584730825736e-10
-24058.931376727785 503.40382110315585 -5976.910015008608 815.4624001777636 -1.6450201201223535e-09 2.553885991574134e-10
-21620.612033816273 -1957.9209742164162 -5817.648924294853 382.10136160189984 -2.793918874033352e-09 2.746158855870817e-10
-18744.140455341454 -1305.6780634879183 -4597.901807095564 363.60515611904117 -3.21305382300352e-09 2.715285774002041e-10
-15951.170167506443 -1207.0097677414299 -3644.701549082673 326.1977004391461 -2.6070146041945463e-09 1.8041745875052584e-10
-13165.172796056653 -968.3886840762559 -2743.6390780691236 305.4678361335632 -1.136203131579805e-09 1.7399770513293333e-10
-10466.552392509751 -764.9958986203528 -1960.4591656117107 286.539270668285 1.0775886849501148e-09 2.785434105589957e-10
-7718.5326867048125 -531.0736655945485 -1214.4885187817795 278.88866295977635 2.400161847049276e-09 7.789324740770098e-12
-4755.167138381234 -255.55620137938917 -433.0701275110227 282.1622726419447 3.1645583931094734e-09 6.52029541470256e-11
-2084.625811288722 -242.96761900301684 172.8344666926148 260.9172794943829 2.5735742426036268e-09 1.3859136061000754e-11
-920.0691895327652 -341.6831864155359 504.78579294170976 165.88924495225137 1.8049135519504489e-09 -9.207923312715138e-10
1776.5670013732943 -6513.979906859363 -1421.223871645821 -83.78620077425589 -307.34764142565143 -26.669995235021783
5652.240665556423 2320.4592316196386 1947.9390353205147 -576.5037524683038 -419.0286257612679 31.976563353333816
5855.978056906303 286.44977645960535 994.9568759688345 -228.10929319050155 -394.36657622225647 -30.8879251150347
8149.524047472477 621.6263067626853 1408.1882872586848 -260.6587667073788 -329.6605435800965 -35.64145412319063
10728.398153864737 744.5907578196146 1929.0431504163932 -273.1390003782752 -211.9827676524866 -49.184340154894564
13374.182919363457 952.1197034417245 2581.685695577585 -286.79434584727767 -64.6066160954686 -63.191384607066496
16046.40667000397 1159.7138465556984 3342.5743598566883 -305.2141496885162 101.96477740441722 -76.31209870762163
18898.42310708491 1414.3733302876838 4281.346554896616 -340.2704933860939 261.0927110201301 -82.21448534265132
22126.702788746443 1699.0438870802404 5447.359949070094 -382.0169519584169 350.0398152351657 -69.25996087935206
25309.104198147987 1792.0824386165243 6599.659242575903 -320.91091515440496 271.6921282495378 -29.99575041174061
26679.63305039787 1549.7033662858867 7036.247143252464 0.7424820226622302 -0.35092254161751146 3.2938019198251993
25301.306085060918 1791.2094046554596 6596.049309939303 322.4412104906113 -271.9903611566535 -29.569886116170323
22109.742402895226 1697.2031047945777 5438.974514523919 383.6875343285469 -349.08270979879813 -68.41331965610762
18869.323737613795 1411.3585188129102 4265.623832489064 342.1989062903157 -257.83291694140803 -80.9900300065619
15999.933992542505 1155.1154229477381 3315.035804159424 307.5293197624852 -94.76937881797936 -74.83655542202837
13302.205406510697 945.5263816201139 2535.551645412875 289.75812683186354 78.68412062825426 -61.91724375151199
10617.325903675452 734.7630121962673 1853.4748073263704 276.59294179174327 238.55742380444823 -48.44028345314006
7981.860334491916 608.4067849259652 1291.1293745172484 266.98788354130664 375.1198285261643 -38.709751126600345
5550.310072164861 251.84057598536717 788.1756239115671 237.14388498388763 464.51549420964005 -28.376137933347742
4881.760552103584 2167.5441945785897 1550.1435926819797 563.3834307063377 422.83837619850846 -22.839499309542013
470.5745362888791 -6877.707972669391 -2417.769096582859 723.6048320181221 373.77129034727545 223.23085076484256
-859.1183412017526 -6660.593733759415 -2321.336985997361 -142.91973689229226 -162.7220628394788 79.65292349835262
2793.7720540157648 1212.249793184285 998.2981335568757 -654.2711285240839 -197.25913183759658 67.00821047290916
3509.617598913345 -87.2850423712855 497.42375722387686 -589.9788638594734 -246.92814498601726 -7.413083892203799
5355.143092930818 16.58570791325251 815.1031524966627 -650.2439305267699 -206.44758059762043 -18.73184852216418
6976.237733433987 -40.46334441607599 1077.2027260926275 -687.3486254407543 -130.77574547653023 -27.36563547161958
8674.260316715694 -52.34735868260463 1444.5710812084405 -711.8043748475626 -34.96312578487984 -31.628362201973587
10391.877603615085 -58.83311744333832 1890.1245245292562 -751.7479518785427 69.6310443889355 -27.571573908822693
12207.625599936015 -34.22150507424917 2447.8647493399408 -834.4254356108759 166.20102471935192 -4.961660440455791
14183.596995506272 -45.94422943574561 3109.853306994274 -954.9877313190761 218.7546719564097 52.56918438912106
15953.247211580861 -454.4283760412187 3630.6496136458063 -836.9161856866729 170.60684579873177 148.81584719024139
16499.79157794452 -1281.4326476050107 3618.393686118378 1.440050730405246 3.1507360637912463 217.51331496407056
15945.27036721455 -454.7441197408744 3630.762573434079 839.9281301946917 -163.7089568166031 148.9169648530447
14166.480109138927 -46.589218300357516 3109.1589685558165 958.417672047462 -210.0435122632806 52.666332203979636
12178.892633545589 -35.22730413793236 2444.2928258287466 838.6356481978485 -154.3434920190346 -5.140439779329034
10347.433065472305 -60.233369395681436 1880.0328683697649 757.2373386150596 -52.960349136515 -28.60352583761319
8607.611654748398 -54.1489388178498 1421.9645385003112 719.2815012592765 58.98641257947026 -34.634029978026504
6878.254358153621 -42.2410600418771 1033.5001942805277 697.6169998545975 165.94689065390534 -34.13197204607857
5203.989696835522 10.667390862235958 732.6316551913234 666.1869934643585 258.40048328090245 -32.308970762054216
3263.9996319482584 -93.8094650449541 355.9213071038042 620.757721196869 307.12131442984173 -28.556607089777934
2535.308236135413 1166.8713038625594 775.6241490650189 711.2433973725354 220.80027250934464 8.279877289495534
-1036.5676707849414 -6569.247605805507 -2656.844537180405 537.464183520924 144.3879414643668 288.75686545174074
-971.4085933393309 -4777.598112666917 -1606.9149583822227 -926.2824607802131 -57.08897806894758 274.6142456816429
1269.3406068611066 604.9899791678323 571.4879301872033 -1138.8074053660644 -71.8209254834577 101.28127027648833
1639.8002870746373 146.83864225151171 331.1814297447171 -1061.5628258957647 -100.48311128482979 25.810985629623822
2668.353529797706 -29.761300609313402 412.6866772593054 -1147.064402110203 -82.95225848472771 0.36955655204034876
3552.704047165834 -27.350678878833115 557.7957643591232 -1191.5347347621691 -40.355798867355126 -3.1477237653360013
4380.202865624372 -41.96998605325908 728.6678991574298 -1233.792561548198 10.136886569733955 4.606579630856552
5211.152593990225 -48.73052147210293 947.8259417426307 -1297.2524104379634 62.4917692040847 30.026052733940496
6056.006078806755 0.13435229081348066 1230.1566538364089 -1420.7631151622738 111.24603898982139 86.6716356924921
7027.843846684346 67.71189945959969 1595.2137838865563 -1635.3287208114273 144.63409363891387 194.84520219777042
8003.105426880254 -564.0905041905238 1788.10048416164 -1517.4099785072387 124.20298867485872 357.23220019679655
7924.395877807873 -2426.6100370987615 1285.058237069077 2.323600479643371 6.588586584166119 474.6084161165429
7994.818396843484 -564.5103524479659 1791.6497696393412 1522.2767962444643 -110.27526576600347 357.01830969518323
7010.30804020534 66.87114596074264 1601.5969105353947 1640.8938708710014 -128.46654685551076 194.19842625992652
6027.275289553276 -1.125759132061512 1237.7212440822425 1427.6371338653466 -91.37408446587638 85.05450544798246
5168.147752203317 -50.41968066090374 953.4856684383532 1306.304674628368 -37.4256819372904 26.351635312350588
4318.507633220776 -43.83723229461264 727.2686195796637 1246.2752413687244 21.791237564031828 -3.081142566754128
3465.414294561215 -29.352706086876783 540.6780758021289 1209.2556549887845 81.37103362218576 -18.18115981721823
2541.81891073159 -32.26818285811956 365.5379660169593 1174.139840171939 134.53058868240123 -25.686511438271094
1501.0733033927127 150.84131337076988 249.303941154427 1110.4309430903277 152.03483336230357 -20.90602177141329
1127.9123227229695 491.6216898323594 385.73858624418995 1223.9736782057719 86.48726562553733 61.2629915712118
-1021.2436895845632 -4707.177148053893 -1834.638701771217 1013.4769993336464 38.9678137354996 424.7610145421622
-871.8742255630217 -3033.2397169967567 -806.8477796152832 -997.9759108090891 6.7973818327944535 352.11545638808025
136.0147439520122 138.27442938978803 325.30026659061485 -1334.9524834393335 21.848844577052475 118.96056107204927
-44.75725856852294 227.33385284371863 173.55136438382573 -1324.3973672150398 31.27821313025188 35.61582744465748
49.62558504676057 8.535549003739021 57.18852223040216 -1319.5000550108766 40.14243591249524 6.904601695435341
105.22383208489534 -10.4604071549195 33.888416326620195 -1358.6216127206048 52.644520667691545 2.1329700605045927
84.20796043109357 -2.857246500319734 25.443631879355415 -1406.6486589088217 61.889560428679815 13.562743031250728
30.495079186680975 -10.119438353570077 22.570781112286923 -1479.6672431498885 66.85181370968753 45.480666958015014
-91.5552538535148 46.97753224286663 32.37080584453133 -1585.0371096881458 73.31514969457957 110.87247788159769
-74.39803238964137 259.37305086765576 143.04432811057094 -1816.960385813128 91.87388074750076 230.0858687605878
320.28800833357263 -525.585236949703 101.70777092065185 -1897.6691536473097 97.56488869966084 415.1561207365113
-568.573174859069 -4254.091381699945 -1175.8033922416562 2.6332248688596023 10.016567916598088 566.417800205504
311.7302561049758 -526.134735129733 108.70432619627549 1903.1850955897182 -76.64173616929259 414.8464609260289
-92.26319207069203 258.2836390970938 156.52652522366492 1823.2688669295487 -68.33765027735633 229.21098197297667
-120.14220570054148 45.369037761820636 51.08334301822987 1592.8280204202642 -45.62713669778643 108.80878472886626
-10.755608292727256 -12.184253480571861 44.01733093156526 1489.9303018115584 -33.81966390882369 40.991844791083146
27.949527369411303 -5.100799185331958 45.08985869280029 1420.9003549972324 -22.81737528854059 4.351433647159139
30.10920601999629 -12.440394331766997 43.59786905075014 1379.288682519636 -7.474604277273587 -15.51429658605675
-40.90102783203623 10.748792926017803 47.512994220455674 1350.9618964054298 9.019373412171568 -24.880138299564862
-127.99733286855925 212.64429921185155 126.48228970740229 1374.096080083608 9.41266589426607 -14.09216606143832
59.36302607973124 49.21731871026049 192.80869823852208 1376.4186673481793 -13.271435800858773 89.82040268420555
-878.4547189769117 -2956.4794588997856 -966.962776555311 1015.485168829714 -21.08034131468396 449.75636568101766
-825.7634323294022 -1608.0269904025615 -110.64589418585015 -796.2423971038921 60.58125826605215 330.8884847584914
-788.9569973711306 -100.06969308419272 219.5990979894732 -1169.4600898514757 108.15556172487754 101.5859235084972
-1649.1090789125417 189.22219893102198 2.8202303387572547 -1233.6484210400129 158.48156935631354 30.360101125101302
-2504.7867035477534 40.914368956775085 -282.6077551392199 -1173.7192061248331 162.24255465503373 3.459196014460524
-3338.3171777317066 19.34547569285919 -486.5410621442758 -1188.641103460444 146.21497605264295 -3.2922645054651114
-4224.342052579376 31.622108720492115 -683.8754787901963 -1233.80390706802 114.3038069147028 4.673159758026165
-5127.053427805898 51.02651825242215 -889.3093827756345 -1295.0541823954948 72.0947378926364 30.38654136431642
-6175.886129645206 39.313932235655 -1163.073685534522 -1374.9827050448002 33.58283018739221 83.13850257427248
-7196.7747075241805 371.32727942114354 -1342.6628891930084 -1485.5975918336867 29.3471218309864 178.87341813389165
-7221.8035510223435 44.68317454721127 -1406.4247313136461 -1971.0694763790414 61.48208254165001 348.5959330246592
-9470.539768070266 -6896.1748958472035 -4016.5704036389416 2.3314960755207457 13.511937115506955 523.2469637527312
-7230.68754109111 44.00110070459616 -1395.9315363283436 1975.9524805129397 -33.419772500245095 348.4096034999522
-7215.093763905454 369.97882285092527 -1321.9776793392982 1491.1783057909813 1.7298710817979264 178.28318970320842
-6204.547647853 37.34458535986172 -1133.037103911606 1381.863902282164 2.142619891076974 81.61423025858788
-5166.86153327668 48.56484594097288 -851.8013008605207 1304.1013218551527 -30.78948408558776 26.86437148088222
-4275.56740110928 28.926372598335185 -642.7712442226137 1246.4321933021233 -67.71780651420238 -2.8347714228990792
-3399.1623930324845 17.951714841803444 -448.50715808439656 1207.2531744335404 -96.56521243718042 -18.323868513126552
-2565.932883386404 41.17051250040644 -258.1399019863214 1202.138625466059 -115.36624564517543 -24.3828313713279
-1696.080175684504 172.26887517556472 -8.492059951044375 1268.1220888490423 -126.78486665396785 -10.013590181841638
-825.769042169946 -151.8211819920263 138.54271538697625 1184.7393189891707 -103.82502595071684 80.04117559810379
-824.9206599289131 -1554.6692609228428 -231.22561563226137 791.1257084968123 -72.19175014215934 393.99227353926204
-916.1845340257787 -715.716144268111 363.7203202439483 -430.2294519837783 128.46685126244537 200.11926664361252
-1577.3633662677473 -181.68991208780832 196.0307345960563 -669.1466235096444 206.9404358020644 44.19260322684791
-3219.4046737529147 105.84629343337093 -175.39810729407085 -727.5771857467198 291.6183655082858 5.944424599212726
-5030.588621935465 50.52865365776315 -625.1783944210357 -682.378102915646 285.064543364225 -15.71624168080959
-6780.21907108069 35.77346965690377 -1015.426302583688 -684.1858744139475 237.89665263332984 -27.016021613656836
-8528.784238506367 48.17812472877086 -1403.9469847664618 -711.645626807192 161.42183725453458 -31.46805299778476
-10312.58324869695 61.19214298155403 -1833.8105576745972 -749.9182061951003 67.00086779635177 -27.33891695972321
-12057.316189162617 133.22176098652886 -2282.5601112522063 -782.7113463076344 -22.886177674727747 -8.640561557003796
-14395.917011288553 -74.3892539698735 -3043.3476028082146 -870.1885844016965 -70.43432713576875 31.3050916978531
-14720.068995273854 1588.903589943214 -2682.036388942986 -1182.1305906057398 -19.32400098264034 138.72276636242182
-19411.764379420827 -10295.644026585052 -7499.157065737453 1.4567635851036762 17.151247202189232 336.4537167325031
-14729.429716599527 1588.110104638286 -2667.961055995407 1185.177508699859 54.84598774374374 138.8826008636444
-14415.019879653635 -75.95689047207516 -3015.271657727854 873.656624185171 109.47908759534138 31.520126873767794
-12086.62385185737 130.94875274957806 -2240.8716254711044 786.9572450261909 67.28765006600148 -8.635154335962259
-10351.944208669516 58.37778028047935 -1779.7346542046748 755.4514818676986 -16.41161618710501 -28.09441810985086
-8576.01230739695 45.355838838921294 -1340.3360438163872 719.2907797359942 -105.7076611707209 -34.08218800166197
-6828.449715486685 34.17414708183738 -947.8841167006224 695.495807911143 -181.44055637869104 -33.65891194557045
-5067.290808269113 49.024907041449524 -565.2101062552761 698.9140142322383 -237.4272877947923 -29.689130520945422
-3236.518590441808 93.75158669877679 -147.08331570151753 744.4339323392993 -266.5350989684009 -14.679083944561949
-1584.680387849737 -205.31269289799693 162.1346259095729 672.8568234917484 -208.41276326557985 33.27797815329926
-914.3271259050596 -691.3452566664596 273.1973954559509 422.6120769360273 -142.3314948859475 235.393888034368
-1023.5710782843948 -415.9152248467519 600.9234533903337 -167.70686470451633 247.52783440502884 102.7135780001034
-2212.522595848367 -276.95083734711915 199.1079040828413 -267.89156249887185 341.0887657081299 4.68308929507862
-4902.446440336714 -275.8412062985448 -479.3420515034272 -277.6273305086641 435.9127451604685 -12.466932253767151
-7834.052134237528 -541.0602450895775 -1229.7904338090336 -267.3636616110708 407.15508547757605 -30.58689708306776
-10556.702103100994 -760.9779376075593 -1885.1977503696232 -271.10903255145 321.70033498103084 -46.06217387766655
-13241.143305693267 -952.745120687953 -2548.755612160236 -285.5077961446874 193.58696407320429 -61.27847896811309
-15986.997980178281 -1177.0716311498918 -3300.682687184353 -299.8364501892132 37.77273893133127 -74.89736328068756
-18667.09340362683 -1254.360505322898 -4071.043499219201 -331.6770995250811 -116.10298580685459 -84.97712383093096
-21325.77351678652 -1854.7454896221136 -5088.873252836271 -350.8565943782928 -215.89547296357475 -80.33442915957474
-23629.487203147 519.5745016034373 -5214.115964364766 -772.7340497081798 -206.18674365784415 -49.704424984353416
-32745.369894547308 -15572.316882777654 -12842.247917176375 0.7576361235587088 20.987051625386524 235.7193194539908
-23639.30203067698 519.3260370426049 -5196.083246153543 774.3274819447884 249.61588652659512 -49.357691745869076
-21345.62461349236 -1855.14540140513 -5052.595637441442 352.69349109826305 263.53650322738963 -79.66803176494486
-18697.04825075271 -1254.677755782231 -4016.3358352337295 333.9563658476413 170.17204003535213 -84.06952637978002
-16026.05652349427 -1176.8266017778733 -3227.8940692646806 302.82022185597606 23.75312944962578 -73.93455614080597
-13284.963843938738 -950.7742490791932 -2459.4065951371326 289.5675266510906 -125.93557465008644 -60.69178783412451
-10593.247839500633 -755.0041308042968 -1782.904541074146 276.87862514153016 -253.83592368828164 -46.829027998012066
-7843.343541097764 -530.1664718845303 -1124.2069073259593 275.3844996226927 -352.6200153452746 -34.38657662631594
-4877.621106747387 -267.03509715725744 -396.68991369230065 285.98033248314624 -414.5368725881875 -19.076680241965363
-2181.329231820485 -273.60093190748 217.66734783068335 271.01985766467953 -356.25308592431304 1.5417569716079313
-1003.9826222578034 -393.62107918805 545.7248916009379 165.3870276097382 -278.34528553016986 123.83866408190072
-385.8458235456627 -8578.437542708421 -2689.2850098762265 -1333.348586825291 -711.3316247337384 -251.62832118975078
5057.0042539385195 2431.764252019815 1771.5577206410435 -596.0608103612282 -767.5378705108222 78.86821236828959
5873.406882873671 294.26810170497066 774.312653838944 -213.01003726310935 -719.9280957148073 -19.704892356848248
8316.205009765305 721.1841233472779 1180.503305501809 -231.5351413415022 -639.7220255809386 13.477595057085438
10993.882691558738 847.2257063048908 1578.0975106005392 -229.9498361778184 -488.25921727514276 1.3831312833170033
13758.535609764467 1082.0965681801008 2075.151071210435 -235.82563687598144 -292.0416788337625 -0.9408920717057319
16475.79253149147 1303.5577254233876 2609.2919116274566 -241.28358970582693 -45.40749180447471 -4.415275284086013
19153.877044042496 1541.3926711622464 3217.4023383930553 -254.12797349475525 227.0089315145169 -0.3498778968902183
21789.203593905317 1777.248795571176 3923.1371105113863 -267.01904653719896 438.97140830206604 28.652773613844772
24070.567578775346 1881.0034392064347 4603.875902205358 -215.00209886729465 401.1004069919333 110.06373935623239
24997.3553801603 1746.757867741091 4859.766312328535 0.7237363933433301 -3.7973080672161594 195.3257527535818
24075.592276900046 1880.723751476219 4602.46174702061 216.43828217767305 -408.26790579649855 110.56476500601704
21799.96128704559 1776.6990574832491 3919.9370367059055 268.4021904649944 -444.79379705438333 29.637110428982954
19172.09840150651 1540.624730736369 3211.6352419341033 255.34812938358826 -230.348428031747 1.0223018076616048
16505.09105888768 1302.798446918482 2599.7858949490883 242.13711016018658 46.306033489897004 -2.782821300096227
13805.62119591089 1081.6780784335444 2059.9936916527427 235.87241417858257 299.8437971278617 0.08623136262863174
11072.31612256079 848.5691742187521 1555.7689524627262 229.04347912966415 508.9273406264153 2.826513388985537
8445.027142341736 724.1883497768741 1144.3374251211972 227.0979259607281 675.331261410742 5.2272310791462875
6127.535238355695 314.21575144425276 749.3358790698304 204.77650636449334 812.9334883589094 3.891013915397342
5654.845952168952 2508.100244797023 1777.682041240821 591.0627562741986 686.8661829921145 -93.03718081988265
789.4080005586623 -8125.306538673338 -1914.1292302272668 787.8463570068465 580.2738505134038 463.5735056351334
-1269.4539691335474 -7832.970469546472 -2373.659905904536 -855.6457716955213 -119.79814466903564 23.579000523556516
2660.5370236662857 1296.3514322004207 936.1477292121881 -743.3541007014984 -258.1014540597789 71.67713727290685
3349.4509114872503 -70.20301328219584 301.2576159790925 -585.2614488288684 -439.09547188600885 -4.706001329327381
5379.290918765883 81.37892603369076 596.8773263449191 -607.6981038138713 -368.2148594786783 6.338293344190097
7083.4855643306755 41.94359499848618 782.5371239156985 -625.8237766289254 -274.38566680945223 -0.9963321496796782
8858.55996151679 52.17767780122148 1033.702232938142 -629.26853149971 -149.52903890330848 -1.2213916016507023
10605.841927916656 66.2187033577362 1320.6330666964745 -634.6841850470548 -0.2942612917294871 6.005558444901256
12313.42341096733 95.94534025170904 1657.4988711221642 -651.6251762858128 160.01269965322413 34.48262978099949
13946.28368366269 104.91456898203383 2040.2550235199499 -675.5878840636766 284.1355535019218 117.06130900693717
15252.97354102276 -118.99660150769283 2334.7721755674515 -554.321030503483 261.8643320083908 297.23644461749143
15643.43671107768 -632.6050944208229 2306.577113849377 1.0476709288963058 1.462985750724603 476.6803744175553
15258.658450221781 -118.772349644203 2335.413276683876 556.3841780842332 -258.2725455721534 297.34430068373456
13958.269854010601 105.35593470116999 2041.1617642072936 677.5128618374908 -278.52244230043107 117.1576364532939
12333.166992603587 96.60565004249999 1657.8500921013233 653.1681495179454 -150.9117869328413 34.25995614250873
10636.158403345207 67.11836317677563 1318.9739707944036 635.3491904932616 14.563384778417808 4.847759047264478
8904.960727765543 53.441748084079826 1027.9133760011532 628.1759775886733 171.3798821608205 -4.587635746739758
7155.313962974894 43.37290868850819 768.6971488379106 621.7884701169146 306.4637483666936 -8.02824550102586
5500.414336211261 87.23258995398534 575.0552058973982 597.5564670927615 418.04491250571067 -9.586476502774067
3557.7652106543214 -66.95099780252016 262.2418022290062 559.3506670890583 501.8309930899577 -19.02434166375467
2874.44953963831 1320.5365722066254 893.6119368045856 681.5435236877041 274.7437017563431 -52.183502588727414
-1085.690821377264 -7819.680221149966 -2307.20930523112 507.8947359676291 82.16339773776384 489.01993201532247
-1179.0789431769686 -5688.350552525004 -1554.5504391491602 -1129.3085511216323 18.995777206303096 471.6291785599326
1161.110882995063 436.00769649979173 506.2618729438052 -1290.9538691896553 -58.99894655661639 70.88116780281891
1523.141634605684 227.5574553939088 240.33797955356272 -1067.582951158287 -177.18575414772837 21.61229204660346
2586.6478734504385 21.920871125015466 280.0264769963164 -1097.8868555428865 -150.4912846840853 -0.29983097767584654
3542.5484983219385 39.895248749402164 398.6025787593669 -1109.7855380340652 -95.37894962144674 0.23425231554071946
4420.224101812348 41.37107413500903 514.0619338994895 -1114.1254595999728 -32.181950299466045 7.164044212534954
5286.636611260347 51.502717834219226 654.9232095747824 -1116.7940633235798 40.8596291886372 31.527926554347914
6110.660218218887 90.11350734767385 824.1074466351632 -1128.9281140734583 123.8075090771109 92.517685714647
6919.706788289132 139.6160540208612 1030.9990568644237 -1168.1598430866982 214.68817231270836 235.77236858398473
7626.844251937065 -234.97146677808757 1125.1235166042864 -1010.3759739610967 238.59615695861334 533.655561582011
7574.777485481694 -1454.3478785256407 763.4752505801059 1.5367398156155154 6.128882421464615 878.1717483503494
7632.941976101067 -234.65745643001432 1127.6720324278315 1013.3901803710041 -225.4834452357624 533.4058883537701
6932.357534400169 140.22888078834427 1035.7433152971103 1170.9266451626472 -199.03035080131684 235.05472462094872
6130.872968848004 91.00180284879637 830.2240647073459 1131.0301793811152 -103.98626622443955 90.80119595533054
5316.347153950062 52.683079432454285 660.9353222412136 1117.3718542010463 -15.372399156302988 27.714932639173085
4463.018241713134 42.72705205257882 517.4193026691054 1111.6609481207072 64.65217581153365 -0.6479432723007221
3605.820006063894 41.737290520417915 395.80857701951453 1101.856532492982 136.19240537925714 -15.2368971920744
2686.489077838689 24.82631108525435 266.71830077515654 1079.8374616701926 201.16088475675934 -26.005423511025207
1640.2571676241134 222.53504534217132 197.70249344964532 1025.3593426405473 228.45768282599164 -30.050155066265308
1276.4681394276424 525.2223049335903 478.6569519375645 1205.62480930789 69.47007843152092 22.40784448615275
-1127.3628569490857 -5681.572267212723 -1587.102584795681 1031.476015605001 -42.452962846263404 660.9120939561304
-978.7036214309037 -3599.5064305107107 -785.7005413452571 -1067.7833048089226 61.32950100502633 517.0939045024629
44.51487613285721 -74.45048016431083 275.70769261043586 -1418.2911896553078 58.56779441963731 127.14353350234965
-164.71189461612494 252.6338618063676 142.04242899094052 -1348.5598400954602 36.641736609599384 32.079498707713476
-99.7877317504299 28.217363911430215 29.672611346562633 -1273.8238247479542 51.2225523100348 7.935765613397163
-26.82459837878113 -7.491028771376525 17.747181127077486 -1273.6427468086501 68.8049034892289 6.800259857065629
-19.466375821205162 -1.031120966544929 15.643982814353034 -1276.4722964644 78.08497333161547 20.157260214361468
-31.237281042541653 -7.057013412047299 13.761445534732077 -1279.4678018437205 84.48307327015722 52.48999233041211
-86.73469121068813 19.1142868697122 15.809920331563154 -1270.6512435613129 100.90571094947245 121.70533805679324
-73.92259471357808 144.56039429909455 70.26358223517234 -1311.3078047550744 170.9887927862964 270.29433082212114
169.89295278486324 -338.79478634511304 17.672337109901182 -1283.4680505372205 264.3069568981057 594.9610853103217
-480.03830456349294 -2887.5750211421177 -905.6915154977839 1.6710100730236022 10.557981620525505 1127.5064754041211
176.37263657395602 -338.3761134892781 22.159312165026027 1286.7434793684142 -242.16258979446337 594.6076968209788
-60.70762461964388 145.38011285052585 78.91896387587381 1314.3053213991031 -145.83335277770524 269.3375363116077
-66.28045997766816 20.31231820247754 27.854927105761995 1272.900993871152 -71.01439172218144 119.53243212184911
-2.701961579564937 -5.5024272201866316 27.674838325557268 1279.9923751353583 -48.67914063653345 47.88222736570754
18.765138708529424 0.8042038382497898 28.7640217271321 1273.4495935590858 -36.12852491365603 10.793045998436952
25.540332203624235 -5.373654219897195 26.12569446498308 1263.9848014894098 -21.706340978935337 -11.096196072071077
-32.271198994967925 27.545912806463143 24.408048820410364 1252.1578233800428 -2.009500888356561 -24.457549827818006
-98.80565570733441 264.07287299703813 115.0641126374751 1305.0990511473042 1.748193476132735 -20.220944276683664
105.45981007240879 3.15549106131445 250.35893144781255 1372.736852141187 -55.35755238666384 95.5975866189965
-977.4245453406638 -3627.3697797077502 -850.3593365982673 1036.1086540880078 -80.27477041765137 630.2417073135737
-885.6134285293348 -1912.1136982909015 -176.07986551612106 -808.4613753472473 103.4603006297881 447.22497633114347
-858.9715009719838 -266.8342767059792 182.96030927635442 -1201.4895933419625 167.04316982265297 129.6538452495167
-1781.5455824092105 167.80738522213295 23.365442716817103 -1242.0429943781023 236.07006500968916 33.30922575291093
-2717.423360255876 13.569987483522748 -209.94419427957078 -1129.1014456264604 252.27746591666266 4.081308316095951
-3586.485597788799 -39.617178925180106 -356.6131343071219 -1105.734904438564 234.81202749783037 -1.4732863331286157
-4470.503407820599 -48.47645803717985 -488.3134568074001 -1111.533394657049 189.81366042025914 7.339753600132075
-5335.651691309953 -50.40875880745802 -619.0257554405933 -1114.189037170502 130.78537289064548 34.27082854202042
-6251.875608669892 -86.33603170787563 -792.3260163719202 -1104.2345652151648 72.90341641518613 83.6454646086309
-7095.1822052120515 106.87095093625841 -911.5716501300503 -1085.7092687773682 91.04383951788473 189.03993146076516
-7173.597197303637 -59.067462002059614 -963.5130938941422 -1372.6281574541986 281.3004176562697 434.859330718612
-8837.518803450508 -5003.728980618485 -2910.6093621031655 1.5734848637532757 15.08169429859092 1179.27172445133
-7166.721478156595 -58.55205198682743 -957.0631266365425 1375.7253778225418 -249.91996359558786 434.6624991538552
-7081.375536730932 107.88806081063979 -898.9445763445167 1088.5882374638388 -56.139119844454044 188.42833712746025
-6231.146236868133 -84.8413354025007 -774.2446296612119 1106.498878855028 -32.61441830272247 82.08725063674054
-5308.282677451026 -48.47371716037229 -597.0281517979538 1114.9851736842527 -84.22091196634703 30.689604643638358
-4436.909129211209 -46.10542708398301 -465.1897580584686 1109.171487146545 -137.8737935707467 -0.3153590326060116
-3547.413218486519 -37.64626817954863 -337.46979330706176 1097.1786262487458 -181.11542806456262 -16.953412614368776
-2677.5199606680867 15.054762567438576 -203.34157286565468 1109.3732557563762 -204.41307687734732 -24.866095678761624
-1750.0835242018168 182.99956262449376 11.601652411323922 1211.5318692672706 -207.55592569606725 -9.09077288361678
-832.8151098722014 -218.81080602174072 160.54643675006366 1181.9248229400757 -168.09263552368074 107.94901474994128
-898.8839839364865 -1942.7354237803215 -238.2158936744446 801.1560322467454 -119.07379434836969 522.262304077917
-947.7528844985861 -847.8880514039212 230.73693443291592 -422.7852964998894 185.4120516915084 290.30920716194754
-1620.1607508618104 -275.7037688293354 176.56758199992896 -671.7312753912454 309.06876899679423 88.23889828088498
-3363.272963633044 72.0613398361993 -105.73110354966649 -716.5076507651693 456.4101432700558 30.414681009194787
-5305.787717883661 7.389465049793263 -459.84202292996605 -642.3831283356603 473.67103938632397 4.810596962186432
-7141.744782846157 -39.705579505831 -747.1049682415844 -621.4024136090984 417.9557854876355 -2.222956012330201
-8917.903570821138 -55.72776513185687 -1011.9990639236012 -626.367164755852 312.7985530961505 -1.2505649099114895
-10664.878418333436 -68.82826558056094 -1289.331739103602 -632.1862724231182 176.6632778649494 7.870384464503515
-12292.629784438715 -40.12341983870041 -1559.5681535149529 -620.4501239768148 37.9731284423344 31.865913141732673
-14203.148611136934 -230.3974182377756 -2051.327262426751 -640.0314141988778 -85.04985633816175 49.97987565476059
-14439.750218635945 1032.629165599077 -1764.5810142260634 -866.9366197740188 177.5145449267033 162.518600176469
-17908.028788807904 -7713.44157229043 -5485.806226949139 1.091240036563537 20.0329817193008 868.0931801562009
-14432.422734407728 1033.2182450646656 -1756.1510479757062 869.0996460353322 -135.9937470268631 162.71019827764331
-14188.61054739791 -229.22947521632977 -2034.6897221069526 642.0945590638669 130.76079878879426 50.2441484883612
-12271.336086216173 -38.404819801345084 -1535.3831310395183 622.1957273786624 14.048358390505324 31.903468211706862
-10638.058690685719 -66.59831841847515 -1259.13548220058 633.1147056313237 -117.56713129353695 7.061720179962673
-8888.275975012493 -53.17449160414072 -978.9510384203958 625.4637360948425 -248.48592452301202 -4.151945408365161
-7114.688765612753 -37.36378510705675 -717.0639463515784 616.663224088755 -354.7096248620729 -9.703097890159402
-5289.112832536652 10.797925624580792 -441.2265360304582 631.2314641651748 -423.6741529519213 -10.953601593070722
-3359.8331630487683 84.64276878231169 -104.86430749136736 701.4860143897898 -434.7845359558857 7.2699835942335085
-1620.7053949640733 -252.86130333274795 159.27667717940906 665.093030977322 -315.9303343080735 76.91710060774139
-966.4685054426926 -867.1350225259868 182.5434976868995 421.2537886936445 -203.10245481690686 333.2529802784917
-1017.3955137583966 -464.9218422016191 488.91044543146336 -161.93423611097555 354.47507912936675 188.14796733004823
-2232.6365276707916 -327.5667840055379 201.81286741904756 -262.86917122732655 532.373156754066 61.3437528167686
-5077.476718144037 -314.5879782850754 -391.3536850812715 -258.1583147923911 740.8892935251025 33.014408710074164
-8211.900964225297 -603.857235818638 -1034.7838592248543 -234.08436196850255 747.0050326855005 13.676368347709213
-11078.533167080917 -861.3007145933292 -1563.4034921771192 -228.87082709984526 642.2643141760656 6.804867766923497
-13827.7477765439 -1083.0367448145648 -2059.7646726734997 -234.19804914762068 462.3989491757733 2.2067226554731896
-16548.25378005588 -1321.1473338155827 -2587.9125381254257 -237.18135674311324 232.63638493741158 -1.2557214526783333
-19107.974674118206 -1442.9458429640974 -3095.073091720744 -247.93477987536397 -21.478017641377697 -0.6319357683618705
-21401.811881037207 -1929.8167780111473 -3734.1220360961047 -255.25198298116345 -283.09354285739965 -4.6196593273855875
-22896.909661652226 -93.49620465366104 -3699.4431551032585 -618.7498501094507 -422.330847736414 -100.06090316384935
-29582.090599074767 -12115.286541659623 -9839.178977879716 0.5238460709656465 25.77418205243616 923.0486921410557
-22888.866869040365 -92.37977944939357 -3688.8348713934893 619.7988837491204 475.6578405641776 -99.70150798950276
-21385.95701931691 -1927.5987611117653 -3713.0806187440326 256.2886696439211 341.54669760366113 -3.9626103953138596
-19085.05944516177 -1439.6784793614706 -3064.205565242174 248.88635058046927 87.6592938698374 0.16682675435881933
-16520.187503265417 -1316.9828695562715 -2548.813699023509 237.85594795314844 -157.78520885088278 -0.6359047473957489
-13799.051610495582 -1078.5387889522744 -2016.0893604806402 234.18854191176305 -381.24716057673646 1.9925692549687035
-11058.934469727057 -857.7789231962583 -1522.455038238225 227.3165790437781 -563.2830340684179 4.434833440858144
-8215.595800585286 -601.8851972301263 -1007.5516000302999 229.83464766035453 -687.5626240332949 7.137398412018787
-5106.940498751037 -309.8473474082109 -386.05575864198516 251.95518722509777 -723.1945683528777 23.053372698731643
-2263.568450139352 -320.21325466134203 187.0588475636698 259.75903376333764 -554.7430844181157 56.92237055881238
-1049.928204773387 -479.334277004122 452.27487089331385 159.39632969723127 -391.29269448440846 214.12908431311553
-2554.1944410286583 -14168.15091772628 -5016.703607626478 -2592.2118929508565 -1068.6823067244604 1346.6662574552402
5644.843659515195 3631.210124319749 2336.842484026061 -1151.511095384747 -1112.3716394622568 45.796311981297904
5583.842759980878 162.04015059373947 547.5389281829935 -542.8535401041371 -1086.7098557119627 377.7609170951599
8076.788914370478 750.9662230996695 994.6567905987117 -559.8022515271872 -966.9345508104867 409.8849535181217
10904.875250611847 837.8668001638559 1335.6083606075383 -527.5983215815806 -864.0893059918351 562.9490788660124
13857.258848899568 1101.3894077197917 1786.9114770870535 -478.700545364809 -678.6924649604989 694.187521270248
16732.230111566496 1333.6952885039527 2236.0780550080794 -399.8635800032248 -423.30833750767596 829.0409173995965
19445.379648873324 1550.6804113088422 2692.447355941897 -291.4781758690471 -103.17604276258679 961.5516718085387
21729.96870715388 1724.2679393608423 3110.776474014775 -151.7063332542925 208.88411569382163 1098.1523492090346
23220.106636106368 1897.5505544906548 3433.8048904521297 -28.187860978518017 297.39369143933015 1244.9246860434812
23766.558218973187 2092.6344574297277 3607.8065793639907 -3.4525188309496286 -7.148810799834646 1345.0356298223696
23236.98056767649 1897.7500610499717 3435.0540833846876 21.103565620221957 -311.5657481561081 1245.2719671601878
21767.055243482228 1724.821258903016 3113.7123145200603 144.0844874333738 -222.64138024135133 1098.840736201136
19509.780927936852 1551.9160041308376 2697.9426348842057 282.94781614030086 90.2815961735316 962.5988219006581
16835.832723662614 1336.339962309765 2245.619806557215 390.0830816988126 411.9390897879154 830.3052939140025
14017.003806025983 1105.8230405604309 1801.5040640915745 467.1882281551883 670.3083655046612 696.1747828422048
11145.931994815779 846.8691361236714 1358.5219215480117 514.4034057322981 858.7266017298119 563.1393770955468
8426.585844534873 761.4401098793317 1015.857701911172 541.1216666650012 973.1202146965348 420.3778510464408
6180.392639191651 224.36414122955324 641.081012271613 520.2342889324268 1069.6941909458053 342.9184452148348
6938.097704892307 3859.575685371965 2474.9221331064714 1194.7778494987504 1430.350177797509 251.92925638291695
-106.80691393442248 -13511.97340882523 -3083.5640102058396 1558.1540273936841 1873.5463096550611 522.3142212260285
-2831.957829920586 -12289.177560728362 -3705.2274362992875 -1663.8327149624502 -882.9621008261824 774.118893659438
2698.70820254143 1967.9909671451508 1108.3468904614328 -1378.629970696763 -739.3309233536021 232.1927263535175
2784.289463901582 -188.11980543058021 18.18029417573326 -1147.05432529738 -670.8085270183839 407.0328223734072
5038.682315199551 34.991529039788944 346.02240057537813 -1161.7628060674283 -593.109407850593 527.8303163236333
6816.574997827489 -42.311896544047116 475.58125221282813 -1135.6301166670432 -514.6995183001881 700.2769776726287
8698.188184540239 -39.98349043795202 663.6966832754921 -1043.0934451704386 -405.5911128241348 872.237594377376
10531.294007066646 -39.9396406115525 864.5611813946953 -906.3156218576354 -253.78713655041383 1045.1851308845037
12256.030973054365 -55.57873858548488 1073.0747624156604 -706.8067743749895 -66.41958637594932 1223.6816570341648
13716.7610247934 -72.72741248452691 1274.8365264534143 -417.50858376421525 118.11708756016564 1426.8658521658592
14725.715785504164 66.64641978669319 1480.4141999219605 -109.88772335787323 176.15316931364092 1681.7497850878683
15199.614484705226 444.30260655224004 1683.560998254557 -6.1557188656712185 -1.712443989797305 1879.439630244187
14744.007442679727 67.45103471710907 1482.9688657604422 97.18426529343998 -179.23708704797292 1681.786227325159
13756.347314191484 -71.04964354615123 1280.244700771049 403.6093770485461 -120.16692862568341 1426.8921871993712
12323.1560521382 -52.886958860203045 1081.9054369936698 690.8427463475059 66.10721750735414 1223.5990907966502
10635.827049827049 -36.088829815590174 877.415499264806 887.318454043158 255.99882134981235 1044.7894559574595
8854.309607992824 -34.97074528320973 681.1987164102586 1019.9823657192775 410.8472613517946 871.3717724261078
7041.80140772519 -36.97647870835151 495.6558854477372 1107.277121436106 524.3300683800773 698.0234373350447
5365.138654120502 46.70986210325884 374.5022534820348 1123.4869934689893 602.9257774299496 527.370779759797
3241.759943792952 -178.5396664913211 29.534949565249573 1087.9786004164637 698.5616568664567 391.1840202568626
3149.0000064937667 2064.778383221162 1154.6774598993397 1300.3367738123634 845.46655374566 333.0454881732566
-2625.3597504540917 -12691.107936571243 -3562.3250473782796 1041.1777386466238 1045.4656008562476 314.4203843062307
-2256.7437734233545 -8564.64731001285 -2337.6291256278014 -1953.4431318724853 -537.6581797802263 256.38758101429585
926.0880367983679 600.6345014895111 501.566949435145 -2239.347538545922 -420.773733856725 360.8575140645423
977.99091132132 275.56158192944696 47.63880267985562 -1953.2357118112936 -331.58336421261504 464.7144823736814
2159.3559032153767 -45.74690649118749 64.1009209491588 -1986.5189613577352 -268.90155234302654 673.1997074705748
3238.5046574740168 -30.62745675362343 183.00504354528522 -1919.0510065067335 -219.92327286184738 888.455783177844
4200.310773932681 -38.90120361028367 270.6595645833491 -1771.37614958741 -166.43221977935073 1114.5730076933064
5157.897726901216 -32.830887405310655 376.27537107814163 -1551.790663543279 -94.65678846924578 1342.7536204566934
6078.379532339073 -51.19842718116362 488.4022733121523 -1232.6753045269575 0.9205313944122038 1583.4452366658616
6862.854972375842 -78.85027206654198 590.9949305299969 -740.2975191761393 122.41406549234267 1866.8678938113135
7396.261222863818 233.12652757946708 752.818569539925 -159.7784532244916 187.1129913235707 2253.832650654081
7886.318222017559 1244.1341566793983 1143.5891685836111 -9.836910787595514 2.6319233166838885 2618.1741033979247
7415.145729246598 234.07116298203948 756.3758369199708 139.4519896270255 -181.32946241157003 2253.6295783170744
6903.295500400243 -76.89763859814624 598.3641598497752 717.9746093160403 -115.09750249486223 1866.4009269445833
6145.7360352866735 -48.11798043932433 499.9958420480631 1206.883837328847 8.854162515321804 1582.5676976630602
5260.312172118891 -28.470991760340134 392.50582620288026 1520.827413567651 107.57145399139822 1341.2279770984862
4348.46457386967 -33.66932199707415 291.22306275230716 1733.2350766980692 182.74769911992684 1111.8682234889955
3445.4258242184005 -25.06190019924575 206.6620420521446 1871.2292134167888 238.80698679486946 884.4914702959608
2436.7155230990666 -40.96940014857919 85.42986191145118 1922.6308411301022 288.36594713380185 665.307127998626
1255.4744998198428 279.2130278024482 34.881857516206196 1860.3957731676987 358.58190419416695 466.45912625982186
1187.3696194039078 795.5756145793474 553.5460361763935 2115.5883730848573 460.76184717388304 366.39866247077146
-2245.9819051558197 -8885.961152473708 -2388.1911044195085 1846.4461198913928 589.9768714348756 245.04206388611684
-1651.065393911979 -5175.459081428248 -1236.3429029627744 -1806.4428448692686 -242.54289158004693 90.41356576110238
-288.85366991731166 -120.12165386293375 192.9714072171821 -2368.17226755967 -137.41860472930523 313.3835582918404
-668.6097010720093 350.7155803155043 21.52784288694029 -2377.6744063546616 -21.67562215659831 480.4902936132533
-527.2438726379421 26.612530215964483 -83.55609583176135 -2269.8931073683866 36.02925169025814 707.8932258874596
-319.1091051604376 -22.95079248908169 -54.50246148000447 -2176.5765328104667 53.09730393034617 943.024279720392
-211.11108264658196 -9.336141718657881 -28.847068811511335 -2007.8833061557016 57.751834998588386 1182.7422850480762
-109.97339062890529 3.5122160810543726 -1.8997376576082452 -1762.7186517272273 61.974826461309746 1427.7657812222878
49.34502780887556 0.7069264855877506 40.322538461192266 -1418.0494086011336 78.0917705993485 1682.986597399153
194.489324111464 -75.53379300359161 49.38216804712194 -854.1358222776151 151.17850935208767 1975.71224687447
199.2104915004245 371.4755711666563 137.7677046569543 -52.914467896372955 245.75667934425928 2395.7835983185273
897.8040934670962 2634.969208004016 936.9818097938974 -11.044592344335612 6.536085583486997 2937.114704662319
218.43585136631032 372.588495357503 142.30527937483185 30.072521617851635 -231.99763122043345 2395.5063979121487
235.24696761985123 -73.26813089943565 58.67828880231161 828.9913740022818 -135.41604696911682 1975.088598271432
116.06460703731187 4.195513405126221 54.69778525991029 1388.9084908143486 -59.220124599713486 1681.8586442378285
-11.148345846744576 8.228301217153582 17.687374956166504 1727.5917799111849 -39.36997459992923 1425.824699595252
-73.20817753690673 -3.972801718399513 -4.726095458467647 1964.277095890346 -31.761546898599228 1179.5142966261783
-135.73442588729955 -18.59713539455074 -28.339669338367216 2121.0535897318096 -25.78253172759579 937.6822574459721
-315.08081785341614 23.913510722071937 -68.22372829914305 2197.308734891524 -10.608484995710961 700.4879513775495
-481.8480777361047 386.33986089194514 20.631916042199954 2286.0873078412287 42.67603098926858 476.4190828936977
-138.7134462383212 18.533994967038694 217.96067968725032 2314.2321199010285 155.04171392343028 322.1617529139889
-1682.118153258664 -5423.935983104886 -1316.3133275083446 1789.1928772782153 264.44845090640774 141.71057372577926
-1296.4256933326355 -2590.533484332367 -456.50735470222094 -1372.90619842128 3.560672830593967 71.39048706696607
-1218.1106738067178 -344.761725828888 62.68670552960923 -1991.514473947652 128.74443450133828 243.15923956734764
-2245.6152290677724 281.16602699499094 -41.935028383664644 -2187.8117574100593 292.073285718634 444.2113446279021
-3123.9727048026853 64.96258283361303 -219.13723142224686 -2039.0442502111462 346.4554267203854 666.9069460475972
-3861.7655853359497 6.783474326742821 -281.0334063249051 -1920.850009537848 329.8777866841391 890.5275023996064
-4626.581190897882 20.68408435778238 -329.76214088159753 -1770.2298088396506 283.14559694751335 1114.767006914429
-5387.089055792883 27.691474809014775 -386.8628903402685 -1554.410998715779 222.83922863332413 1345.171883393473
-5998.787151801923 79.51895751307524 -403.8432830987307 -1247.3683921419206 151.16325110897893 1576.5560450239443
-6441.7314639169745 -52.293509705112 -472.2464847753911 -792.8468718232239 134.55394365527195 1823.500533599863
-7135.808596944089 133.1873181661756 -638.9740012160338 203.80852018837612 275.0365586878683 2165.3695774866574
-5834.523005365361 4768.377699320759 961.548428731266 -9.941265810618304 10.526836036036713 2871.4128576304147
-7116.149463368177 134.4948448616515 -633.4224730855776 -224.37943993993883 -253.11055035336923 2165.1853212216756
-6400.476866566458 -49.66461497170149 -460.9495837699063 770.1745621363916 -110.1024786608615 1823.074530082191
-5932.460591086474 83.46301075359233 -386.5808057416234 1221.0632850627653 -122.86231992842617 1575.7518769235003
-5291.692108562883 32.783336877629566 -363.7950600474319 1522.6844121182432 -190.11068681911593 1343.7290607451966
-4499.230389459274 26.24375835062166 -302.08372502652713 1730.698657477337 -246.9162047408672 1112.2302518870308
-3706.334891374264 9.462713088862667 -253.45237587236755 1870.213241911931 -293.5737380452224 886.2896267039453
-2964.8352783275113 65.36686013934694 -201.98529972728045 1974.3204051220296 -316.4915972784563 661.1603705326312
-2121.1111932824624 315.3692848745227 -36.57961767433145 2125.0816211669753 -275.3165353756105 440.3454968549335
-1135.702913628303 -267.6583071273435 70.60840986332225 1976.657077707337 -121.9104519677951 253.93992499336585
-1321.9528949181959 -2739.630830387009 -515.3179149191834 1382.7208944832885 3.855616418915673 119.36410340069746
-1207.2954912852326 -1036.6678929401414 7.78922328455743 -760.1394942380384 219.831573760082 104.61675428812958
-1953.6674626025897 -322.234504206216 36.72589286287032 -1147.4038463666257 400.93719230417867 174.55710317307987
-3794.6814117215445 161.76143132313396 -146.07461530689815 -1314.3613651131077 639.3887756640224 349.0217031286999
-5714.65129098576 69.17272785239817 -402.4252622003522 -1222.231061114481 690.6017394568693 526.6461219712528
-7456.246054238196 23.45604895760433 -576.6958158383072 -1137.7656166779802 633.8295133095517 699.6926039339303
-9131.548614399857 25.207657010483945 -725.6777346909836 -1043.1055950835603 527.7137150465517 872.0673628505252
-10748.250783525811 39.57895220914166 -871.1898947440704 -909.0445890509235 389.2492600719708 1046.398546692207
-12302.935644460598 23.349567275893655 -1040.7591472006275 -728.3615936350037 230.4944320608954 1223.3503307650906
-13188.865077067703 256.77984628555424 -1014.2627326108442 -422.6228205008234 2.4006447050542654 1371.0468823670337
-14889.20680657215 -898.3431464578744 -1867.7664195839563 214.8288559443184 107.39162407306996 1566.632691278721
-12324.416547346935 7612.545918653406 1036.7795344202948 -6.289741339934977 15.139173028366137 2082.0304211713624
-14868.649592357287 -896.8395531729633 -1861.1088134994225 -227.84045607165058 -76.00493004762822 1566.6908856143496
-13146.174412117203 259.78400968153545 -1000.7892952137338 408.2976861276887 32.18446796571542 1371.1328889785664
-12235.570184832717 27.784998266780505 -1020.3766000557831 711.787101684058 -191.07393534807622 1223.3877721859253
-10654.262626290436 45.17270282657288 -844.394157718375 889.1522403364071 -344.3755549642861 1046.2274417515782
-9013.129222748461 30.847604899550376 -694.7388406920173 1018.5241501123479 -478.8150597541803 871.392936158867
-7326.547319664905 26.789785588166055 -547.5863702307047 1106.5171572190375 -586.0702997721152 698.1490352514437
-5602.017478455965 72.98990346058609 -383.9294010919587 1184.3873405677093 -654.3484345847077 524.2769773821977
-3724.8939098981086 185.6057632218053 -140.295508215762 1283.8453308061028 -625.5688656536897 348.008246784187
-1923.101201067934 -286.69324294777863 34.58637876593694 1147.1090261600914 -403.6170313976575 182.20579300665048
-1227.248263265909 -1101.2569169148899 -25.13496190459992 770.1602303650631 -225.12069194030352 135.7209009779244
-1054.5688744755878 -447.65098579334483 326.69774839029736 -374.7991296823259 440.0989481280176 126.26446665465284
-2367.882219052974 -290.0901031608254 102.1830751521348 -537.4659174332468 711.9651314344405 145.99227954320472
-5422.893323972621 -228.56874766615766 -428.00950369530193 -604.2657633603262 1056.428374542978 289.84941032011295
-8711.483541985588 -592.409789826937 -1022.2188448203258 -580.9995080513851 1102.955294277864 431.3755737191798
-11584.001157048502 -879.8659821352894 -1462.944468488197 -540.2583033618504 994.186107339452 565.5709037293053
-14299.42120208065 -1116.1148884713418 -1854.388299393178 -484.70279004887595 811.6453405189976 698.3546074069769
-16935.10449103175 -1320.3006985777765 -2235.187517504351 -411.85883255843305 573.0089873643217 833.0336792579682
-19491.166835674037 -1624.0845791152437 -2670.534615466541 -301.89468322782193 289.65717380199834 956.2057608702204
-21769.54685224293 -1514.1732490677196 -2983.6936193825168 -147.73453230225073 -117.30069028284998 1102.0613576265089
-23786.02836225599 -3595.624734799313 -4194.221567962746 410.5812232042443 -851.7370811522386 989.7272913386305
-19238.97418517293 7605.022278266196 -458.4575569204635 -4.064167097164159 21.050905994951563 2041.1011769934373
-23763.354384515987 -3593.2784192426698 -4185.982447017012 -418.97720449625206 895.2762480661892 989.8460609390621
-21723.01131257071 -1509.5790064059352 -2967.1646208664306 138.54198879234417 164.98702520096592 1102.2650339023376
-19419.204935888698 -1617.5498385801923 -2645.9149930118906 291.39378872083034 -235.70496466321723 956.4173406922434
-16837.93546611535 -1312.6704388402086 -2203.696250982955 399.5893336893165 -511.9917212609522 833.1136246352627
-14184.55903352986 -1109.8201904053674 -1820.1385480380338 470.32525863452787 -745.4385062602676 698.0960590957279
-11476.249309879186 -879.6862263752926 -1435.7994799055298 523.6177919198421 -929.9272384295291 564.8335473719103
-8653.726797792875 -600.2655953212587 -1016.1111255346204 563.3065875548848 -1056.0195135957367 430.4552189756115
-5434.435058654104 -231.46201990799378 -445.07495369801813 591.5375729159521 -1044.95778712988 290.4426921103923
-2405.8427070484254 -287.4022457278783 79.23293405654366 538.2307020723457 -729.0353175936415 151.247346349634
-1101.0874019917765 -486.9497058098831 298.99560016932753 377.83808592901073 -464.1329542059368 147.01544349328577
SCALARS Strain float 6
LOOKUP_TABLE default
0.013719693928011329 -0.05098663501337126 -3.113693114106808e-18 -0.028884646807447508 0.011908174274824766 -0.015005709725984225
0.016518976615640092 0.005300161205413477 -0.0019113156476568633 -0.012831123634271257 0.012394998268249488 -0.0005103017620513139
0.023018438727141283 -0.007188747239365707 -0.005040968335650654 -0.006048939446879198 0.012109052677928053 -0.004209335933347807
0.03237043718677953 -0.008444860664492671 -0.00708715607416474 -0.006237796517020906 0.01077441356619306 -0.004567289482055038
0.04394071158158821 -0.012146906928014616 -0.009373775376955632 -0.005878952726210518 0.009628423695376004 -0.006272861164504915
0.05567472250050872 -0.015393692957442771 -0.011574355713849412 -0.005334091791220712 0.007562573181024532 -0.007735232379869507
0.06711984903647882 -0.018671987834853902 -0.013644426707194878 -0.004455622748614386 0.004716864332231311 -0.009237884508149384
0.07788189136585351 -0.0218171472434581 -0.015455874266181486 -0.0032478996739626733 0.0011496759050638372 -0.01071443291442691
0.08691195164202824 -0.024548381207117817 -0.016823547942577833 -0.0016904419991194252 -0.0023275658605578457 -0.01223655474832017
0.09266014286835719 -0.026136955300598706 -0.017577824000259937 -0.0003140933080362292 -0.003313815418875295 -0.013872017930195298
0.09452753960538286 -0.026227178494620227 -0.01778550524380813 -3.847092412809195e-05 7.965817748300567e-05 -0.01498753987514471
0.09273059710429256 -0.026159401432545873 -0.017594421879567675 0.00023515401689225545 0.003471732622333238 -0.013875887634059047
0.08706640787765059 -0.024597467179310474 -0.016859359869402773 0.0016055128599438183 0.0024808610941359447 -0.01224422534624626
0.07814924286957474 -0.021901718848740075 -0.015516713334579803 0.0031528470941240457 -0.0010059949287701802 -0.010726101158322681
0.06754819197004124 -0.01880612484322808 -0.013740137139578924 0.004346640053195997 -0.0045901784290407225 -0.009251973275046647
0.056334881462756836 -0.01559883994491028 -0.011722902813800725 0.005205811685151608 -0.007469150358469666 -0.007757376151678693
0.044932777189412514 -0.012447715880542975 -0.00959707893315328 0.0057319236638672475 -0.009568667847854895 -0.006274981630505619
0.033828842147196156 -0.008876969803075042 -0.00745950036178164 0.006029641428565282 -0.010843339535221524 -0.004684210340231063
0.025374681827802163 -0.0078089055180648355 -0.005487197236526179 0.005796896362400673 -0.011919449556304343 -0.003821091246684946
0.02159035011154187 0.004438584574179264 -0.0032759137884576946 0.013313238894445554 -0.01593818769552163 -0.0028072117139876234
0.02087937562193925 -0.05380655199265529 0.0042945860855403035 0.017362287733868255 -0.02087665887908548 -0.005820072750827337
0.008427272867911782 -0.04426295134651277 0.003561913632412998 -0.018539850252601606 0.009838720552034148 -0.00862589624365727
0.007610600765354629 0.003539461882480266 -0.001249983687607026 -0.01536187681634475 0.008238258860206718 -0.002587290379354227
0.012151162788287873 -0.004409403140796267 -0.0032600168715534897 -0.012781462481890743 0.007474723586771558 -0.0045355085921642245
0.02110447772702294 -0.006773228081513343 -0.005040341797258948 -0.012945356981909606 0.006608933401773351 -0.005881537810470608
0.02865683224765463 -0.009556966163805095 -0.006671561477873484 -0.012654164157170337 0.00573522320393691 -0.007803086322633942
0.03647603240007308 -0.01220806693191072 -0.008287563106947086 -0.011623041246210752 0.004519443828629512 -0.00971921890877037
0.044073889477835144 -0.014822983702055184 -0.009783621979462991 -0.010098945500721275 0.002827913807284683 -0.011646348601265809
0.051217637853878575 -0.017375616253848584 -0.01108740389110054 -0.007875846914462614 0.0007401039624778084 -0.013635309892673845
0.05724054981686081 -0.019586600047976754 -0.01207874381672992 -0.004652238504798384 -0.0013161618328086495 -0.015899362352703342
0.06112113256964677 -0.020550825325008557 -0.012674119121421959 -0.001224463203114803 -0.001962849600913783 -0.018739497605248998
0.06240538029965627 -0.01980278587854054 -0.0128983462676731 -6.859229593481091e-05 1.908151874224562e-05 -0.020942327308413403
0.061195206310834575 -0.020574179390609015 -0.012687722903391558 0.0010829103846648424 0.001997213255678966 -0.01873990367590196
0.05740109484437887 -0.01963725963443624 -0.01210861971609001 0.004497361629933919 0.0013390029189843198 -0.015899655800218786
0.051490502180141236 -0.017461737452569136 -0.01113932267566504 0.007697962030701998 -0.0007366232807840959 -0.013634389868886716
0.04450041020998271 -0.014957406833761495 -0.009867882714594146 0.009887262773586973 -0.002852558295027535 -0.011641939652109084
0.03711617664283971 -0.012409813896895286 -0.008419726896014303 0.011365517789428443 -0.004578012340768184 -0.009709571178463836
0.029589418224481003 -0.009849487142852406 -0.00688196397110922 0.012338230781713793 -0.005842535047671318 -0.0077779754445981685
0.02245189294051001 -0.007179353186451247 -0.005353081291657316 0.012518855070103472 -0.006718315805665781 -0.00587641726018521
0.014084834395186851 -0.004971120576441934 -0.003811847715542183 0.012123190118960335 -0.007783972747965493 -0.004358907654296959
0.009356413943840614 0.003315750614162655 -0.0017548116729230062 0.014489466908224244 -0.009420913027489463 -0.0037110782967978433
0.00964572919172416 -0.04643486784536905 0.004425493965998693 0.011601694802097526 -0.011649473838150797 -0.003503541425146567
0.004345453531137086 -0.030798580458382113 0.0038948065688702445 -0.021766937755179152 0.005991048288965384 -0.002856890188435294
0.00255183257793033 0.0007385914526416787 0.00018664366264558926 -0.024952729715243253 0.004688621605824284 -0.004020983728142601
0.0037758462682835614 -0.00013768856688203116 -0.001407544051257546 -0.021764626503049056 0.0036947860583666737 -0.005178247089310388
0.009230784423732614 -0.0030547883731664952 -0.002442779048855373 -0.022135496998009305 0.002996331583254193 -0.007501368168972856
0.013683391634702446 -0.004530344430238956 -0.0033401062142983545 -0.02138371121539916 0.0024505736118983984 -0.009899935869699195
0.017703356852723843 -0.005915109879272189 -0.004190414170768719 -0.01973819138116687 0.0018545304489758097 -0.012419527799999162
0.021663704493407748 -0.007256069214844317 -0.004976762917587175 -0.01729138167951596 0.0010547470715200967 -0.014962111770790562
0.025488078764992435 -0.008662427009491207 -0.0056560802495752 -0.013735524821879752 -1.0257349820151742e-05 -0.01764410406571923
0.028753763892150203 -0.009921451041163955 -0.00618945634097989 -0.008249029499379255 -0.0013640424440606337 -0.020802242245332548
0.030430618687376298 -0.0094782746148885 -0.006582847523970712 -0.0017803884787405755 -0.002084973331890075 -0.025114135250123463
0.03072857667612309 -0.006277877402049506 -0.006838056621550012 -0.0001096112916307139 -2.9327145533322432e-05 -0.029173940009297
0.030505764125438563 -0.009503079886569295 -0.006593096703207521 0.0015538935986388529 0.0020205282954324504 -0.025111872444092423
0.028915095188668142 -0.009974552300005268 -0.006212379422952551 0.008000288503749122 0.0012825150278081097 -0.02079703890024863
0.025757882900594817 -0.008750732329915205 -0.005696955318878819 0.013448134187320713 -9.866066801372748e-05 -0.017634325773955267
0.022076150236238847 -0.007389927391127267 -0.005044485119587967 0.016946362608279374 -0.0011986533444713968 -0.014945111744829655
0.018305136221341105 -0.00610960976994367 -0.004299495054896498 0.019313190854611438 -0.0020363315044770775 -0.012389388776014072
0.014532624778565635 -0.004802949686052015 -0.0035119162935181737 0.020850839806650482 -0.0026609921385755543 -0.00985576209759128
0.010385903076740975 -0.003418341495635703 -0.002714117035604572 0.021423600801197512 -0.0032132205537817133 -0.007413422283423186
0.004976768718111805 -0.0004624023402842013 -0.0018236760033045812 0.020730124329637424 -0.003995626932461403 -0.0051976874069002855
0.003354141960769506 0.0011712896481604843 -0.00017716086007811725 0.023573699014430266 -0.005134203439954166 -0.00408272795326088
0.004869701879640911 -0.03212446821266664 0.004077393483738525 0.020574685335984427 -0.00657402799600877 -0.0027304687118994077
0.0011677508631615205 -0.018468156824399236 0.0034783475984515658 -0.020128934557113305 0.002702620791883809 -0.0010074654470439484
-0.0013316082682496907 -0.00039152989309088 0.0013528457329377555 -0.026388205267092103 0.0015312358812659443 -0.003491988220962451
-0.0033440688344388166 0.0023350291618681484 0.0005009831962077452 -0.026494086242248575 0.00024152836117296339 -0.005354034700266768
-0.002186403441247594 0.0008993679461040365 0.00028557131526783726 -0.025293094624988046 -0.0004014688045473129 -0.007887953088474014
-0.0012680276956044526 0.0003819971893102503 0.0002062093192104522 -0.024253281365643725 -0.0005916556723648279 -0.010507984831172755
-0.0008556690835364493 0.00026850558736727715 0.00015980185070731576 -0.022373556840079058 -0.0006435204471279596 -0.013179128319097788
-0.00047338771783051267 0.00015888923387359324 0.00012873692017426657 -0.01964172211929467 -0.0006905766377166923 -0.015909390133606753
0.0001587265213808147 -0.0001122571859839644 0.00010845836645808341 -0.015801121981565122 -0.0008701654438191524 -0.01875327922816818
0.0008671491925593942 -0.0006372653170821085 5.869503735029183e-05 -0.009517513448229037 -0.001684560532783689 -0.022015079322332667
0.0001990178946315247 0.0011587804813979993 -0.00014330620347492167 -0.0005896183565027828 -0.002738431569841476 -0.02669587438122391
-0.0007447766223505824 0.008933714730227945 -0.0005265007742187039 -0.0001230683146859555 -7.283066794229099e-05 -0.03272784956624028
0.0002741473668870949 0.001132997812022443 -0.0001500086770397744 0.0003350938122348045 0.002585116462150025 -0.026692785576720068
0.00102695965820256 -0.0006919101763818038 4.321987623542059e-05 0.009237332453109431 0.0015089216662294896 -0.022008130095031078
0.0004216997890228155 -0.00020157087555339195 7.979892483755594e-05 0.015476408897592976 0.0006598813884050012 -0.018740710607224893
-8.109878013535141e-05 2.6856824919188454e-05 7.955737862824558e-05 0.01925030840466992 0.00043869400268246953 -0.015887760938355144
-0.00030256503593378836 8.317491504413922e-05 7.897799279643346e-05 0.021887659068468925 0.00035391437972620424 -0.013143159305266392
-0.0005213716477232956 0.00013125039933202162 7.6970567343151e-05 0.02363459714273391 0.00028729106782458976 -0.01044845944012851
-0.0012933760824942614 0.0005953066052875206 8.197055931471594e-05 0.024484297331684588 0.00011820883281227261 -0.007805437172498476
-0.0025883126177894873 0.0022487344688563284 0.00021121877612384043 0.025473544287439556 -0.0004755329167387448 -0.005308669780819491
-0.0008985507798623309 -2.2457893150489296e-05 0.0010886336360117314 0.02578715790753518 -0.0017276076694381273 -0.0035898023896272827
0.0014569570282558354 -0.019390313738090397 0.003495012486011956 0.0199367206325764 -0.002946711310106782 -0.0015790606786835917
-0.0016384861783822807 -0.008848515299650963 0.003041058851127533 -0.015298097639540839 -3.9676068686389744e-05 -0.000795493998739613
-0.004857806433073848 7.994848516766308e-06 0.002278064680373007 -0.022191161281122394 -0.001434580841586876 -0.0027094886694626324
-0.009931647979938603 0.004146133303838147 0.002345998852451751 -0.024378473868289993 -0.003254530898007871 -0.004949783554426373
-0.013190229900977235 0.004576695273011502 0.0029938534507240305 -0.022720778788084203 -0.0038605033263148726 -0.00743124882739909
-0.016197816881739723 0.00535552787926033 0.0037519766870489145 -0.021403757249175415 -0.003675781051628845 -0.00992302074102681
-0.019430819031194146 0.006461087502404465 0.004508601390345665 -0.019725417869976888 -0.0031550509374278154 -0.01242168950559667
-0.022625732704879907 0.0075423302513754325 0.005232670216953326 -0.01732057970001997 -0.0024830656904936844 -0.01498905812923325
-0.02529209937484091 0.008572748948489105 0.005879730750808995 -0.013899247798163632 -0.0016843905123589639 -0.017567338787426667
-0.026933011995318133 0.008665285178143621 0.006325547174192358 -0.008834579428883238 -0.001499315372163573 -0.02031900594583689
-0.029931739680147007 0.01056695184695351 0.006264910210352998 0.002271009225024412 -0.003064693082524623 -0.024128403863408778
-0.03237214647338528 0.02670115745291469 0.005491680088028728 -0.00011077410474914586 -0.0001172990301281882 -0.031995743270743615
-0.029856305035309904 0.01054014182487915 0.006261745339137098 -0.002500228045134032 0.002820374703912078 -0.02412635072217174
-0.02677411117261667 0.00860898565771277 0.006317540831542667 0.008581945120893135 0.0012268561907833831 -0.020314259049502764
-0.025035108225388535 0.008482180413371825 0.0058633648644003875 0.013606133747799225 0.0013690372791997647 -0.01755837805713258
-0.02225309396406329 0.007411840660537683 0.005202332449112956 0.01696705487784606 0.0021183762245471764 -0.014972980962600461
-0.018927764569117406 0.006285591397250176 0.004456338275607045 0.019284927897583345 0.0027513519956796914 -0.012393422806739522
-0.015570591396620728 0.005131709542568484 0.0036668969040628985 0.020839518981310253 0.0032712502239410795 -0.009875798697573605
-0.012530784627670322 0.00435177014379779 0.002862236681698562 0.0219995702285322 0.003526620655400227 -0.007367215557365665
-0.009448920400484341 0.004125756549272381 0.0021648983779235043 0.023679480921642456 0.003067812822762995 -0.0049067069649567354
-0.004613948333362032 0.0002223001885856349 0.0021069290403897155 0.022025607437365965 0.0013584307505044224 -0.00282961630708202
-0.0014805783056870978 -0.009379069660468862 0.003013530868601495 0.015407461395707337 -4.296258294976885e-05 -0.0013300571521996857
-0.003851279530231907 -0.0029006400537368976 0.002918478165218799 -0.008470125792930848 -0.0024495518218972815 -0.0011657295477770205
-0.008005778053709778 0.001083634143067756 0.0030835563553069803 -0.01278535714522177 -0.004467585857102494 -0.0019450648639264584
-0.016283089099395676 0.005759949597563638 0.004044863052053154 -0.014645740925543976 -0.0071246177859663066 -0.003889098977716054
-0.024062895131488803 0.00816126725917696 0.005533792743167712 -0.013619146109564696 -0.0076952765253860324 -0.005868342501971092
-0.03124403196075288 0.010428594042770427 0.00708489079605455 -0.012677959728724432 -0.00706267171975471 -0.007796574729552422
-0.03823460396185632 0.012781609550332128 0.008598105225111593 -0.011623176630968186 -0.005880238539110762 -0.009717322043178486
-0.044994717860444136 0.015108904952959237 0.010034621377080125 -0.010129353992306646 -0.004337348897959579 -0.011659869520281294
-0.05141876901638341 0.017256248591886993 0.011327642896952697 -0.008116029186229654 -0.0025683665286854187 -0.01363161797137876
-0.05554980090503121 0.019361649382263053 0.012280126442671537 -0.0047092257141462075 -2.675004100334792e-05 -0.015277379546382997
-0.06025445972898021 0.017694637805933087 0.012293565284244716 0.0023938072519943 -0.0011966495253759276 -0.017456764274238753
-0.06393948935688781 0.04713787295386697 0.01050146024152257 -7.008568921245168e-05 -0.00016869364232746453 -0.023199767550191385
-0.06017685035295799 0.017666091293933088 0.012293733986390772 -0.0025387936534166803 0.0008469120776336567 -0.017457412725408433
-0.05538802639910307 0.019302313379475813 0.012279119252218588 0.004549602788241905 -0.0003586269287899106 -0.015278337905774313
-0.051161968732713524 0.017162438715961775 0.01132268123963986 0.00793134199016064 0.002129109565286697 -0.013632035175771119
-0.044633555099268876 0.0149775845915527 0.010021426368527531 0.009907696392299716 0.0038373276124469475 -0.011657962922381195
-0.037774122222939924 0.012613748673978015 0.0085711956199956 0.01134926910124241 0.005335367808688179 -0.00970980700291284
-0.03072989290406642 0.010238699539541901 0.007038603814261369 0.012329762609013584 0.006530497626044246 -0.0077793749642456785
-0.023608866982181446 0.008009031288532547 0.005463338020320512 0.013197458937776503 0.007291311128246783 -0.005841943462259472
-0.01602208708460061 0.005764982522820815 0.003949246867665159 0.014305705114739076 0.006970624503020438 -0.003877806178459345
-0.007917724893501848 0.0011994051589034802 0.0029893916227351166 0.012782072005814674 0.004497446921308483 -0.0020302931220818605
-0.0038114172840932664 -0.0031094654972843635 0.002886071109216121 0.0085817854240859 0.002508487710205145 -0.0015123186109103706
-0.004364069585367366 -0.0009826699198603856 0.0033315587420122187 -0.004176333159312637 -0.004903959707703373 -0.0014069469141469097
-0.009906471902776872 0.0016697984571838512 0.0038553204506366766 -0.005988905937110119 -0.007933325750263061 -0.001626771114907586
-0.02239679935097437 0.006543009002724544 0.005431839076264574 -0.006733247077438756 -0.01177163045918667 -0.003229750572135009
-0.03525897836394802 0.009975861112337964 0.007581210663093944 -0.006473994518291502 -0.012290073279110502 -0.004806756392870695
-0.046633534379404915 0.013003790166523038 0.009755210028286478 -0.006020021094613441 -0.011078073767539854 -0.006302075784410452
-0.05746401533881507 0.0159858341227556 0.01187259654760043 -0.005400973946282199 -0.00904404808010469 -0.00778166562539937
-0.06800767725520149 0.018989086731346975 0.013891860168769627 -0.004589284134224306 -0.006384957287795624 -0.009282375283151359
-0.0780119189027558 0.021533253669571196 0.015703032038443542 -0.0033639693273984834 -0.0032276085080902486 -0.010654864192548238
-0.08751508625021909 0.02533628096756687 0.017148953190040464 -0.0016461847885041376 0.0013070648345712775 -0.012280112270703433
-0.09192460487755308 0.020564786761113757 0.017229747262083286 0.00457504791573028 0.009490784618581076 -0.011028389817764361
-0.0916411868638634 0.05791822200399862 0.012993120064899716 -4.528643336949834e-05 -0.00023456723823382116 -0.02274369882934394
-0.0918410405341464 0.02053509698661922 0.017232888831890236 -0.004668603135854326 -0.009975935335656244 -0.011029713250453725
-0.08734280667596762 0.02527488760121104 0.017154053463535542 0.0015437535893751966 -0.0018384268522995684 -0.012282381806331833
-0.07774356637036361 0.021437083457505335 0.01570762045427778 0.0032469593600254424 0.002626426749060959 -0.010657221796272164
-0.06764153768219744 0.018856367469828016 0.013892080802168142 0.004452566861102907 0.005705050608321098 -0.009283266103081366
-0.05702387748004617 0.015821096074551007 0.011863608082057643 0.005240767167636273 0.00830631478404117 -0.007778784658490796
-0.046206872562902304 0.01283112175955307 0.009732776489885735 0.005834598252829973 0.010362046371085964 -0.006293859527870703
-0.035009201920934624 0.009860081921488507 0.007543228253153339 0.006276844832767268 0.011767074580090166 -0.00479650101144396
-0.022420602713925226 0.006567389930558906 0.005377260728025417 0.006591418669652383 0.011643815342354083 -0.0032363614263755114
-0.010043108200930765 0.0017596315121597415 0.0038023132281008783 0.005997427823112658 0.008123536396081033 -0.0016853275736138282
-0.0044772907298618655 -0.0010556664225611734 0.003323171710759926 0.004210195814648962 0.005171767204029984 -0.0016381720846483188
0.012833446895162741 -0.032810992682901996 3.181455749887152e-18 -0.014857312824789182 0.007926266675539622 0.002803858436080763
0.016268604266235904 0.0016422671127821471 -0.002036026419187263 -0.006641820458308829 0.008552564842806358 -0.0008788172235354334
0.023797854240861612 -0.007285918968455782 -0.004611385035135158 -0.0023735404152216023 0.008022055923669471 0.00021956880054307157
0.03319585191901555 -0.009119264448136011 -0.006560200433267075 -0.002579963003523292 0.007128331142190811 -0.00015017891635300595
0.04399836739919932 -0.012533007232884266 -0.008461007180385576 -0.002562298174551675 0.005440602706797595 -1.5412034301608667e-05
0.05490583421974145 -0.015720040440442014 -0.010187308209311154 -0.0026277713823287846 0.003254178707035604 1.04842259463526e-05
0.06557973274445694 -0.018951289746466114 -0.011676484994773154 -0.0026885885710050054 0.0005059691944224673 4.919878173899484e-05
0.07596959374791461 -0.022157104901051005 -0.012819336755000021 -0.0028317117046670493 -0.0025295280940000513 3.898639423060618e-06
0.08605323352320345 -0.02544194321039379 -0.013486279741414255 -0.002975355089985738 -0.004891395692503946 -0.00031927376312734004
0.0948218733271876 -0.028805698307500117 -0.013635408870817276 -0.002395737673084113 -0.004469404535048555 -0.0012264245242537242
0.09863742054056096 -0.030901622742860388 -0.013557718551611413 8.064491238119988e-06 4.231286133104129e-05 -0.0021764869592787524
0.09484558554575666 -0.02881153909585941 -0.01364757026354209 0.0024117408585407284 0.004549270950324922 -0.001232007381493956
0.08610415910907544 -0.025454016169883846 -0.013513118857084328 0.0029907672651757326 0.004956273738627913 -0.0003302420876427208
0.07605608747017492 -0.022176408695586975 -0.012866492990308984 0.0028453077274055933 0.00256673962665275 -1.1391362999008029e-05
0.06571849609857418 -0.018979991311007305 -0.011753918386254905 0.002698099227492792 -0.0005159815160233741 3.1008580208613026e-05
0.05512765570669287 -0.015762884519300156 -0.010312268959933993 0.0026282926151329324 -0.0033411165965638078 -9.608637451945945e-07
0.04436149150529425 -0.012599384349794844 -0.008659271299593778 0.0025521987674440166 -0.005670904652702209 -3.149543490249354e-05
0.03379058318521915 -0.00922551865916466 -0.006884688096494835 0.00253051974643264 -0.007525119770039643 -5.82462891566649e-05
0.024893441782329963 -0.0074950525019319755 -0.005070811790875089 0.002281795356635483 -0.009058401727479622 -4.33570121989414e-05
0.01872476257013538 0.0011928936290400022 -0.0028765792193540967 0.006586127855638602 -0.007653651753388662 0.0010367000148535682
0.016291023133873057 -0.03337667215624562 0.0012284585623244916 0.008778859406662115 -0.006465908620046411 -0.005165533348535479
0.007682293472127273 -0.028885869887277017 0.0015302889672859639 -0.009534338598994076 0.0013348936120088754 -0.0002627374344280396
0.008531945465294264 0.0009314828843064259 -0.0010753663180539635 -0.008283088550690102 0.0028759876309361046 -0.0007986881010495418
0.014057719417157721 -0.00499463816365126 -0.0029250718006292972 -0.006521484715533189 0.004892778115291259 5.2438300520507596e-05
0.022182060184481957 -0.007334878060706887 -0.00446281554468359 -0.006771493156784388 0.0041029655770480926 -7.062669727104406e-05
0.02929774863707401 -0.009933699477740272 -0.005807535530921381 -0.006973464939569469 0.003057440287313816 1.1101986808221438e-05
0.03656912566409956 -0.012495004202272975 -0.007026510252243162 -0.007011849350996408 0.001666180719221223 1.3609792132528003e-05
0.04367051312956291 -0.015050244835823314 -0.008061364811510312 -0.007072195204836214 3.278911551703799e-06 -6.69190798091218e-05
0.05051738634666173 -0.017551420047328865 -0.008851336089612678 -0.007260966250071582 -0.0017829986532676787 -0.0003842350175493251
0.05701171202532678 -0.020104487327881837 -0.00932187622402727 -0.007527979279537068 -0.0031660818818768266 -0.0013043974432141211
0.06252103229485383 -0.02312280135635348 -0.009451803884090558 -0.006176720054152694 -0.002917916842380978 -0.0033120632400163445
0.06489105045103964 -0.025789753893833214 -0.00941431016206666 1.1674047492986876e-05 -1.630184121782618e-05 -0.005311581314954901
0.06254428359473553 -0.023129973718771638 -0.00945665380067097 0.00619970941292639 0.0028778940792478177 -0.003313265064761068
0.05706134804715192 -0.02011917236043296 -0.009333968453168315 0.007549429031882382 0.003103535785649835 -0.0013054708061877767
0.050600701156976916 -0.017574426323007836 -0.008876064431538766 0.007278159380329307 0.0016815884829726009 -0.00038175379701837846
0.04380141729924965 -0.015083234353154572 -0.008108610253551975 0.0070796052654950575 -0.0001622777160982907 -5.401788651920819e-05
0.03677380367376837 -0.012541802070204269 -0.007112603000374625 0.006999675178842191 -0.0019096615440788865 5.111936975192158e-05
0.029621541195960784 -0.010002130392224797 -0.0059610381971219265 0.006928500095581976 -0.0034148817675265 8.945759273176247e-05
0.022721691417702205 -0.0074374640258051804 -0.004719595165511821 0.006658486347619716 -0.0046582147393720765 0.0001068207381870388
0.01499647701141649 -0.005198370435711097 -0.003364296264116807 0.006232764576145001 -0.005591831065889642 0.00021198552140090204
0.009472307086874406 0.0008147919826041735 -0.0015637881289240275 0.0075943421211107625 -0.003061429819591636 0.0005814733145614592
0.008367325870890384 -0.029150615070783356 0.0015617228894090878 0.0056593984865109925 -0.0009155350033743783 -0.005449079242490856
0.004259105804243524 -0.020863978876390073 0.002167193183835255 -0.012583723855376084 -0.00021166723173130704 -0.0052552965611003
0.003764700052110708 -0.00027516055836022946 0.00011625556755712569 -0.01438491454241976 0.0006574168330526276 -0.0007898187269567888
0.005926170017642339 -0.001292084695075289 -0.0012208789176204272 -0.011895924312927499 0.001974355546209312 -0.00024082268281167856
0.01069741572432325 -0.003591777574311804 -0.002153760627320935 -0.012233596390332445 0.001676902886476353 3.3409737429708722e-06
0.0146185677859907 -0.004896214604453855 -0.002897702337261498 -0.012366181709510895 0.0010627940100681002 -2.6102400947873476e-06
0.018229689425992276 -0.006166777442479871 -0.0035332140809321254 -0.012414540835547713 0.000358598874767969 -7.982792122742807e-05
0.02174875214157923 -0.007418422407494203 -0.004056508239228638 -0.012444276705648058 -0.00045529301095345543 -0.00035131118159410855
0.025013116851518365 -0.008529929108997743 -0.004440534304434199 -0.012579484699707884 -0.0013795693868538293 -0.0010309113550905724
0.028150809664372934 -0.009623981569367999 -0.004657704839265598 -0.01301663825148642 -0.002392239634342892 -0.0026271778213508086
0.03154199415850797 -0.012259550560004539 -0.004681878509760693 -0.011258475138383664 -0.002658642891835434 -0.005946447686195622
0.0333515968879715 -0.016953530139990406 -0.004597086992178113 1.7123672238554128e-05 -6.829326126910338e-05 -0.009785342338776709
0.0315644468712785 -0.012269321395662714 -0.004679199957744553 0.011292062009826439 0.0025125298183540107 -0.0059436656130874305
0.02819813946674497 -0.009643720174832572 -0.004654425468251598 0.01304746833178789 0.002217766766082389 -0.0026191812171928383
0.025090736608206023 -0.008559974173778965 -0.004441450143435255 0.012602907713087929 0.0011587041093623312 -0.0010117847549301379
0.021866835571924946 -0.007459292843256477 -0.0040704589190281686 0.01245071494679033 0.0001712924477396974 -0.0003088235351143286
0.01840703286556603 -0.006220303762565789 -0.0035755897948313315 0.012387079136194737 -0.0007204099590510171 7.219939320742099e-06
0.01489095533916558 -0.004966076933171362 -0.002993394051239555 0.012277829933487671 -0.0015175725170932458 0.00016978256872063175
0.01113868154693143 -0.0036905824392960878 -0.0023428984967242754 0.012032474572913426 -0.0022415070015867422 0.00028977471913670035
0.0064893681685190795 -0.0014093693699008959 -0.001547722159031187 0.011425432675156947 -0.002545671322931021 0.0003348445850311202
0.004179875838717746 -5.636667755988103e-06 -0.00026507220587397194 0.013434105018029968 -0.0007740951596721075 -0.00024968740999174645
0.004513883994238436 -0.02085956843442958 0.001952476939089899 0.011493589888202085 0.00047304730028502356 -0.007364449046988399
0.001443679157682325 -0.013157936492892694 0.0025189820324439172 -0.011898156825015107 -0.0006833858683430704 -0.005761903507309115
-6.798123257962468e-05 -0.0007307882176743876 0.0012200930306597048 -0.015803816113311133 -0.0006526125663936552 -0.001416742230463031
-0.001213349065104361 0.001111863006408336 0.0004957107378638025 -0.015026809646798768 -0.00040829363651314135 -0.0003574572713204302
-0.0005020916757058148 0.0002110795715777328 0.00021918737871067168 -0.014194036904336333 -0.0005707655828897884 -8.842710255805088e-05
-0.00012814904609834035 -2.0433443973667904e-05 0.0001201794397410126 -0.01419201917871367 -0.0007666832103142013 -7.577432413103818e-05
-0.00010221529019662884 4.954154735474773e-07 9.339956507566606e-05 -0.014223548446320147 -0.000870089702841848 -0.00022460947096216287
-0.00014249404578018968 -7.775411809824921e-06 0.00010821314516339467 -0.014256926934866292 -0.0009413828164428388 -0.0005848884859548536
-0.00041662265731825366 0.00017310736344164333 0.00015469732128951615 -0.014158685285430966 -0.0011243779220095303 -0.0013561451954742646
-0.0005930133757616653 0.0006242489916474475 0.0002103096101106323 -0.014611715538643861 -0.0019053036910534108 -0.0030118511148557116
0.0011409843752205923 -0.001693133028467606 0.00029289808790250715 -0.01430150113449856 -0.0029451346625953678 -0.00662956637916453
0.0028197499561036198 -0.01059366889331054 0.0004482534951948038 1.8619826526620684e-05 -0.00011764608092040185 -0.012563643583090978
0.0011624471870136164 -0.0017054387062081697 0.0003032586653121705 0.01433799877006843 0.0026983831434311536 -0.006625628621716098
-0.000548560061301213 0.0005996430474198391 0.00022935950317537856 0.014645116438424272 0.0016250002166693274 -0.003001189690313871
-0.00034598842959185664 0.000136457048852352 0.00017848015559491674 0.014183753931688319 0.0007913032220456301 -0.001331932815069614
-4.008722105554561e-05 -5.568981531958645e-05 0.0001291549498549027 0.01426277218005117 0.0005424247099433221 -0.0005335448192088118
4.2405733022117694e-05 -5.766233268824489e-05 9.81137955578236e-05 0.014189866899639674 0.0004025749918875374 -0.00012026536969755916
8.277737198455904e-05 -8.945769524566365e-05 8.603867601531494e-05 0.014084402073736547 0.000241870656615021 0.00012364332766998337
-0.00020510308921782916 0.00012816367655816665 0.0001106812914725975 0.013952615746258983 2.2391581325368227e-05 0.00027252698380713476
-0.0009109146488529526 0.0011108371539434083 0.0002806454890739622 0.014542532284234529 -1.9479870161511254e-05 0.00022531909337530605
0.00012602349994047846 -0.00044395770598292704 0.0009333186047493184 0.015296210638168646 0.0006168412980256154 -0.0010652302509049215
0.0015681179552234426 -0.013195862636283019 0.0022760526896455305 0.01154521071700796 0.0008944902989427512 -0.00702269331011449
-0.0011106658259446543 -0.006829738757466267 0.00284244973941136 -0.009008569611015907 -0.0011528433498758327 -0.004983364021969586
-0.0035734684746143376 -0.00027441822513849705 0.002231580182485367 -0.013388026897243919 -0.0018613381780250705 -0.0014447142756427534
-0.007880988989108384 0.002979691830554678 0.0021749438651716985 -0.013839907651654082 -0.002630495010111862 -0.000371159944109697
-0.011393618992364376 0.003821915373621137 0.002576622075225101 -0.012581416108419707 -0.0028110917630805813 -4.547743552890739e-05
-0.014861213587806734 0.0048999104601600224 0.003133790137317757 -0.01232104607800856 -0.00261647687784612 1.6416619134246086e-05
-0.0184691418573014 0.00616786543441721 0.0037173450126434335 -0.012385657826174063 -0.0021150665018378283 -8.17858258332392e-05
-0.022006377158737954 0.007439976322360878 0.0042719673411230775 -0.012415249271375398 -0.0014573227265058716 -0.0003818749466039159
-0.02566404426107495 0.008686819096337011 0.00475344632460803 -0.01230432801242436 -0.0008123523543481474 -0.0009320494627660104
-0.029373308551960863 0.010752416175193694 0.005078235969226137 -0.012097903280618204 -0.0010144884974973088 -0.002106444950549333
-0.02942924155944436 0.010208852680106758 0.005169798445272295 -0.015294999468708805 -0.0031344903681890194 -0.004845575399429248
-0.027699502717015698 -0.006339816561145493 0.005321849884779857 1.7533117057125416e-05 -0.00016805316505154444 -0.013140456358198214
-0.029408729676728085 0.010193928554772982 0.005187938281740658 0.015329511352832077 0.0027848224514924543 -0.004843382133422854
-0.029331679637442484 0.01072278897738195 0.005113292856139426 0.012129983217444943 0.0006255501925467214 -0.0020996300422715967
-0.025600373345792994 0.008643325390970786 0.004802364180089409 0.012329558935804497 0.0003634178039326513 -0.0009146865070884817
-0.02191985192900514 0.007384797992646379 0.004328566142512641 0.012424120506740029 0.0009384615904725749 -0.0003419698803104507
-0.01835794531573816 0.006105103881841003 0.0037702054664192795 0.012359339428188839 0.001536307985496253 3.514000650450736e-06
-0.01472090742876251 0.004833508437251528 0.003163063082972229 0.012225704692478611 0.002018143341288254 0.00018890945485088088
-0.011233002503930405 0.003768485239866859 0.0025517056567062615 0.012361587707019837 0.0022777457137839797 0.00027707935185955826
-0.007750559523069032 0.0030194748178403626 0.002064543603792772 0.013499926543280368 0.002312766029197128 0.0001012971835664729
-0.0034942962818205053 -7.34151603700981e-05 0.0020401466207953622 0.013170019455640414 0.00187303222441806 -0.0012028604500791075
-0.0010482796658568992 -0.006864023402142538 0.002632585408462539 0.008927167216492216 0.001326822279890579 -0.005819494245481546
-0.003268318068882884 -0.0027119282845011945 0.003297553779440347 -0.004711036160997586 -0.002066020004561294 -0.0032348740226569865
-0.006816085263478427 0.0006744607792679813 0.0031942583053153548 -0.007485005640080221 -0.003443909140250041 -0.00098323343799004
-0.014370737290794987 0.0047689823999499704 0.0037784245010968396 -0.007983942394245463 -0.005085713025012406 -0.00033890644553510207
-0.022157365502229704 0.00744462165983834 0.004841474798228 -0.007157983430025011 -0.00527804872460137 -5.360379472718594e-05
-0.029595864079381945 0.009972640053509722 0.006031414887703657 -0.0069241983230597165 -0.004657221609739921 2.477008127766897e-05
-0.0368467950947397 0.012528184394105735 0.007200387157983408 -0.00697951983584677 -0.003485469591666276 1.3934866130423187e-05
-0.043960416072565775 0.015074720492784303 0.008274772568878713 -0.007044361321309327 -0.0019685336676595485 -8.769856973944945e-05
-0.05062595276759898 0.017638011263835685 0.009172533461867175 -0.006913587095758035 -0.0004231291455199369 -0.00035507731786199077
-0.05793699088689254 0.01991119433074286 0.009766013770226208 -0.007131778615331058 0.0009476983991853822 -0.0005569186144309986
-0.06094356284592097 0.025259693723395926 0.00967523700722002 -0.009660150906011723 -0.0019780192149131065 -0.0018109215448164526
-0.05977823335301551 -0.0029798188608611002 0.009431292348760282 1.2159531833531428e-05 -0.00022322465346034205 -0.009673038293194757
-0.060923755257998 0.025241958770463136 0.009701186994971195 0.009684253198647089 0.0015153588954271199 -0.0018130564950911575
-0.057897577663716754 0.019876116881291084 0.009817124077192044 0.00715476794385035 -0.0014570489008123547 -0.0005598633688716336
-0.050567998718434114 0.01758690405162415 0.009246596317573005 0.006933038105077913 -0.0001565388506575483 -0.00035549578864077665
-0.043887165216455644 0.015010971143354795 0.008366835516565894 0.007054706719875682 0.0013100337486873428 -7.868773914364348e-05
-0.03676559278291314 0.012458544053264825 0.007300646149568256 0.006969453059331359 0.002768843158965684 4.6264534555651916e-05
-0.029521544769360614 0.00990926583636504 0.006122364937994493 0.006871390211271402 0.003952478677037762 0.00010812023363500868
-0.022114218211813818 0.007413856012299385 0.0048954340116167385 0.007033722029278263 0.004720940561482022 0.00012205441776154811
-0.014373285863319422 0.004817365756915169 0.0037615406176689853 0.00781655844606956 0.00484474197210563 -8.100838861910748e-05
-0.00682555717337202 0.0007952884800150222 0.003091485800011067 0.007411036630902515 0.003520366582312814 -0.0008570762639195051
-0.003261818777108357 -0.0027083893722866536 0.0031398195260484716 0.004693970788315853 0.002263141639405749 -0.0037133903517016535
-0.004391108977401495 -0.0013130413787271662 0.004001167080935185 -0.0018044100595116766 -0.00394986516743462 -0.0020965059216739904
-0.009406758654398086 0.0012072013460153505 0.004156602261090533 -0.0029291136222585846 -0.005932158032400112 -0.0006835446742463292
-0.020852975224850426 0.0056831191829111 0.005255424530771164 -0.002876621221977906 -0.008255623556426306 -0.0003678748399160746
-0.03308703701019703 0.009300635190935724 0.006899758289088149 -0.0026083686047821447 -0.008323770364222554 -0.00015239381873553758
-0.04436195102164021 0.012562629785063494 0.008650914309963948 -0.0025502749305441465 -0.007156659500848811 -7.582566940278295e-05
-0.0552210315055526 0.015785215671179964 0.01034344578743731 -0.00260963540478001 -0.005152445433712118 -2.4589195312417137e-05
-0.06589515350776197 0.01894158240703511 0.01188389055444613 -0.002642877975132409 -0.0025922340036299094 1.399232476269243e-05
-0.07605672425881373 0.02236272208626945 0.013158013128878895 -0.0027627018329022214 0.00023932648225886874 7.0415699803606145e-06
-0.08443984387205809 0.024046985987759353 0.013994428121224749 -0.002844236381769178 0.0031544709061140015 5.1476203932067556e-05
-0.09325297651595749 0.033794612744445396 0.013704336877666548 -0.006894641186917662 0.004705972303350906 0.0011149643495420296
-0.09855321832801797 -0.0012381671508775826 0.011443003561444358 5.837141931860435e-06 -0.0002871980286041918 -0.010285399712458036
-0.09323358203050634 0.03377541746860558 0.013738024813510726 0.006906330418897018 -0.005300187366332637 0.0011109596604566435
-0.08440179945155862 0.024009053701341005 0.014061369065934253 0.002855788033179805 -0.0038058060590538726 4.415480154367933e-05
-0.07600240385050673 0.022307575816140658 0.013256639194787277 0.0027733050493219985 -0.0009767749888632599 -1.8589266867194475e-06
-0.06583049371157002 0.018873074961988808 0.01201001748353414 0.0026503948486145392 0.0017581780414670824 7.085795756611366e-06
-0.0551599849957666 0.015711443581494358 0.010487947540095443 0.0026095294670122685 0.0042481826464242 -2.2202914545488224e-05
-0.04433513263419042 0.012499876839423668 0.0087966813413135 0.002532956166481627 0.006276582379627502 -4.9416715481893475e-05
-0.033140420406079826 0.00927882438412787 0.0070186829970675345 0.002561014645363684 0.007661412096397663 -7.953101086755656e-05
-0.020992155286898833 0.005734506556347998 0.005309916836601603 0.0028075006576542935 0.00805845376169037 -0.0002568804386414911
-0.00952980912005973 0.001297455540484711 0.004123685824305775 0.002894457804792593 0.006181422940699039 -0.0006342778433718191
-0.004464901641181842 -0.001285878329316163 0.003904515494688332 0.0017761305309157165 0.004360118595715728 -0.0023860097966484995
0.017816263435340485 -0.028373926481896277 5.421010862427522e-19 -0.0009336176658560394 0.0034247308615444915 0.00029717994687545647
0.01873594793770767 0.00017316566296941095 -0.0019023040021359573 -0.006423898956070962 0.004669176115601362 -0.00035631027736623543
0.023449525976451658 -0.0075807030145771045 -0.0036333063173148643 -0.002541789266975909 0.0043943704207544615 0.0003441797369908665
0.03231677001112514 -0.00962437454424857 -0.005242100652904024 -0.002904483400459356 0.0036733603427469 0.00039714763165772464
0.042541319920254575 -0.013082749857685008 -0.006483657956091752 -0.003043548861362917 0.002362093696700713 0.0005480540760079927
0.05277446271281583 -0.016434175204472247 -0.0073551646768442265 -0.0031957084251561865 0.000719902293646223 0.0007041325713373949
0.06298165803462191 -0.01995848769599207 -0.007796836264767384 -0.0034009576679547766 -0.001136178948194616 0.0008503348141702058
0.07367017346368798 -0.023740961007008336 -0.007767824469933058 -0.003791585497719602 -0.0029093187799228903 0.0009161042652424209
0.08564049273385424 -0.02817074971826543 -0.0072872745157763616 -0.004256760321820474 -0.0039004436554857503 0.000771753849795871
0.09767820725909007 -0.03334519968680796 -0.006560128921954261 -0.003575864483150474 -0.003027426571924922 0.00033423836172991376
0.10330220527513699 -0.036707402964877144 -0.006139516207522826 8.273371112709214e-06 3.910279766238369e-06 -3.670236424651665e-05
0.09765055058861535 -0.033334273773611686 -0.006564451444192246 0.0035929163454597158 0.003030749738631283 0.0003294930167173695
0.08558095335898022 -0.02814605130179127 -0.007299039161938052 0.004275375382500661 0.003889778766368889 0.0007623198476017024
0.0735695529952391 -0.023696253223779593 -0.007793917904740017 0.0038130735272196635 0.0028729953602421956 0.0009024603343566669
0.06282380839034954 -0.01988303792596335 -0.007849195802087549 0.0034267552773556173 0.0010560016497121092 0.0008338930461408687
0.05253377999318591 -0.01631057457416541 -0.007451862390103721 0.003228733413274126 -0.0008767659155639988 0.0006899350018060446
0.04217509096211242 -0.012884902290454654 -0.006652079431860764 0.0030820356371108622 -0.0026582112938353763 0.0005397631584893271
0.0317657120856993 -0.009314957690484574 -0.005511217548461505 0.002975007845177937 -0.004179906660761731 0.0004313372268432826
0.02244987948085437 -0.007070164855021681 -0.00408201244514361 0.002642460432679356 -0.005176029792682732 0.00031619125125927587
0.016141946639696404 0.0010198840763267808 -0.002419919277098014 0.006277701085027424 -0.004711627620551973 0.00025449727802319834
0.013968075673153 -0.026972355448233738 -0.002124124567153489 0.008063025271051436 -0.004164880092489992 -0.002487429479981326
0.007866260891667967 -0.024456244866848238 -0.00028038584360942664 -0.0015925342111343566 0.0018131887001942596 -0.00088756114757154
0.00913117575424224 0.00031983744391804984 -0.0008721789454398488 -0.007290449717842771 0.0021980303261741182 -0.0007466629167040099
0.014513897076229442 -0.005525989068052498 -0.002268325756019634 -0.006574050197293845 0.0027514850441184343 8.260293479450949e-05
0.021881299006305522 -0.007862092138771759 -0.0034132092332386623 -0.0072455752258774285 0.0023004158980824184 0.00020872631210223388
0.028565211081124014 -0.010527837781164347 -0.004300841102623317 -0.00765902754063036 0.001457215449593231 0.0003049313666793352
0.03538539942838607 -0.013234271905979006 -0.004894297740862398 -0.007931534462580709 0.00038958911589253523 0.0003524303216783821
0.04218210077780476 -0.016043287525219562 -0.005184809234240157 -0.00837662003520486 -0.0007758887803237311 0.00030722610926674763
0.04921513982852092 -0.018989436899373182 -0.005160670624799324 -0.009297883425360226 -0.0018519542754404199 5.528707348149616e-05
0.05684753259530205 -0.022431339943648786 -0.004849039383551178 -0.010641291863260769 -0.0024375520589455767 -0.000585770911758251
0.06428734645841132 -0.027126846101153144 -0.0043671258729333605 -0.00932563749765753 -0.0019010477103278704 -0.0016582337258429156
0.06770872828451593 -0.03135809240065962 -0.004059059969934295 1.604627957087291e-05 -3.510820184380477e-05 -0.0024237197953166675
0.06425342070473122 -0.02711808857973032 -0.004355979860612153 0.009359199165030512 0.0018241855188331243 -0.0016593604655107655
0.05677589650310952 -0.02241120403541628 -0.004829178422988827 0.010679511202789272 0.002340484850956325 -0.0005868534159867397
0.049097884187304285 -0.018952212608349908 -0.005137743312832263 0.009344797222754447 0.0017198274825193675 5.7279186117504585e-05
0.04200639949621246 -0.015979170640904206 -0.005169115887656933 0.008437787487394481 0.0005901296046784312 0.00031872500220148493
0.035131144177919016 -0.013127236271984716 -0.0049031754697639535 0.00801485101402175 -0.0006572771687410578 0.00038592204833564215
0.02820375693379945 -0.010353288967607014 -0.004359873407796631 0.007773446569832154 -0.0018491224958668974 0.0003803276885293135
0.02134714278438288 -0.00758708149177276 -0.0035647091619330578 0.007423226498608768 -0.002879319670872092 0.000360014245643763
0.013651568911426215 -0.0050562246289790665 -0.0025505817555736645 0.006917014607637643 -0.003422208932256687 0.0003182021932916173
0.008368112572536859 0.0007439639498685771 -0.0014358416268619673 0.007925283570733481 -0.0024603458937010594 -9.226148979847949e-05
0.007419685594765092 -0.02340524547180832 -0.0016075712323012016 0.0059888866163774765 -0.0016088942049071271 -0.0032175765007860253
0.004045479977030847 -0.01716043305920819 0.000504801657513612 -0.010321433134416106 0.0006361343270483528 -0.003059987309027002
0.003927416717370556 0.0002260346487990782 3.938037590972505e-05 -0.01268956823122775 0.0008002903125206494 -0.0011285627259485479
0.006413118280601438 -0.0019048108834118507 -0.0008777582102243542 -0.011828842917126952 0.0011196689543040504 -0.0002876081255915324
0.010943468214858221 -0.004088885840250962 -0.0016238185349850597 -0.012781574766383112 0.0009243251659638471 -4.117915866696493e-06
0.01454387366365742 -0.005402145524297322 -0.0021420439119702577 -0.013277101330216602 0.0004496789016585962 3.507463623792035e-05
0.017889400678678082 -0.006748419494944341 -0.0024548655630582538 -0.013747974257236954 -0.00011295387892310055 -5.13304587483176e-05
0.021177531291033454 -0.008127531780827908 -0.002575288628626477 -0.014455098287711455 -0.0006963368568487872 -0.00033457601618038413
0.024372509044148113 -0.009367347717880864 -0.0025143663235424815 -0.015831360426070848 -0.001239598720175763 -0.0009657696548499681
0.027981283464334934 -0.010796594527310742 -0.0022862268855328356 -0.018222234317609727 -0.0016116370434087854 -0.0021711322530540114
0.0327252961409372 -0.015006224046420649 -0.001901159968484311 -0.01690828261765392 -0.0013839761595230973 -0.003980587373631867
0.035429406076348896 -0.022240484020986783 -0.0015611893506161754 2.589154821420285e-05 -7.341567907627691e-05 -0.005288493779595613
0.03268575673579073 -0.015001932010248553 -0.001874754187200979 0.016962512872450045 0.001228781532831581 -0.00397820402232719
0.02789900409965993 -0.010785858596790363 -0.002235243622780546 0.018284245989669917 0.0014314843792553704 -0.002163925321181225
0.02424127133171477 -0.009345534510931912 -0.0024433869216211944 0.015907956634472767 0.0010181683697690483 -0.0009477502035593149
0.020988119810872122 -0.00808675588648265 -0.0024935689415351483 0.014555966374394212 0.00041702902730473266 -0.00029363250775251554
0.017629192358729485 -0.006675300463410925 -0.002379139288707245 0.01388706697523609 -0.00024281664714275104 3.433273147420313e-05
0.014194357215638739 -0.005276487502273117 -0.00210060171745706 0.013474563012759132 -0.0009067058032244179 0.00020259006655352893
0.010465019896226816 -0.0038763224823659802 -0.0016599739386210014 0.01308327250478928 -0.0014990551310485006 0.0002862211274725178
0.005918698830155032 -0.001604022257113832 -0.0010554447594626785 0.012373373365883206 -0.0016941024289113666 0.00023295281403190916
0.003705875313858064 0.00016082750204005766 -0.0004290926465247989 0.013638563842882843 -0.0009637152455507312 -0.0006826447632276843
0.004034147422989282 -0.016501767559935203 -0.0004976247877711316 0.0112930294211579 -0.00043421278162940926 -0.004733051304952988
0.001200651528942812 -0.01084124192331933 0.001562941727797261 -0.011120303006156228 -7.574225471028243e-05 -0.003923572228322772
-1.3104277896082155e-05 -5.146018932822332e-07 0.00104148649109331 -0.01487518481546334 -0.00024345855386483965 -0.0013255605376686233
-0.00070724067316163 0.000808695518987279 0.0005090502261508634 -0.014757570663256022 -0.0003485286606055677 -0.0003968620772463788
0.0001281787014633197 -0.0001007514993412151 0.00017031506578180794 -0.01470300061298737 -0.00044730142875239583 -7.693699032222719e-05
0.0004208375542806718 -0.00022368892147864788 2.3397380777828715e-05 -0.015138926541750277 -0.0005866103731669893 -2.3767380678635883e-05
0.00033185162064097647 -0.0001532259608335099 4.450361573596913e-06 -0.015674085056397627 -0.0006896265305017839 -0.00015112770807133098
0.0001146843272475253 -0.00011159655618544798 7.053466655362142e-05 -0.016487720709362066 -0.0007449202099172195 -0.0005067845746773692
-0.0004943989512042297 0.0002774265713285822 0.00019604623854833705 -0.017661842079352192 -0.0008169402394658165 -0.0012354361820984816
-0.0008362424832231067 0.001023339266390574 0.00037522209671440984 -0.020246130013339983 -0.0010237375283379691 -0.0025638139661790954
0.0019176482063129182 -0.0027950741602260224 0.0006998440264504957 -0.021145456283507166 -0.0010871516169461538 -0.0046260253453627226
0.00454455110280978 -0.015989050335309278 0.0011614113202561213 2.9341648552376736e-05 -0.00011161318535900305 -0.006311512630883433
0.0018726830519296468 -0.00279542189920307 0.0007415385852996804 0.02120691963658397 0.0008540079173172691 -0.004622574850330003
-0.000928741034436889 0.0010243055963747693 0.00045737310478014215 0.020316424517181658 0.0007614766745133411 -0.002554065227697621
-0.0006389053711521992 0.0002832286996066003 0.00031506554313902774 0.017748655084649387 0.0005084166660536734 -0.0012124407441179849
-8.702370655512033e-05 -9.498330114460935e-05 0.0002181398119844002 0.016602080505863134 0.00037684768355040983 -0.00045676627051625664
6.836918363827682e-05 -0.00011576835000023751 0.00016386531530262948 0.015832889669953512 0.0002542507532121801 -4.8487403477367245e-05
8.897984401829269e-05 -0.000148082215083935 0.00016413096661841198 0.015369216748102474 8.328844765795306e-05 0.00017287359055133443
-0.00025019813132195204 3.756515573417116e-05 0.00024239427725365674 0.015053575417113569 -0.00010050158945259773 0.0002772358267853578
-0.000984579898047378 0.000913280623548899 0.0004332351420190936 0.015311356320952615 -0.00010488399139192731 0.00015702699326420596
-5.676333859459142e-05 -0.00011328942250470918 0.000686719692006596 0.015337236579042372 0.00014788171321378373 -0.0010008559156319638
0.0012796197928250802 -0.010297946615326545 0.0007865034720324104 0.011315406166969053 0.00023489523179497432 -0.005011570931931958
-0.0013292638583683883 -0.0056875893961979935 0.0026549624255723767 -0.008872415282010217 -0.0006750483063939772 -0.003687043115877392
-0.003534924937895504 0.00030316147168831637 0.00208417330768417 -0.013031126715480323 -0.001205161973510395 -0.0011319574333860428
-0.0073145220329730795 0.0029276093721505143 0.001889084118572321 -0.013746368120157686 -0.0017659374871240622 -0.0003382982696859088
-0.010424051518689406 0.003759140170988807 0.001956659765307593 -0.013078585439681089 -0.0018078456090276987 -3.854532702072879e-05
-0.013706393579129355 0.005000584061372712 0.002182073350576783 -0.013244858009998214 -0.0016292525903203441 3.6685233057687744e-05
-0.017265711606682832 0.006446088720541917 0.0024597450187202638 -0.013748100678746992 -0.0012736709913528164 -5.2072351597773525e-05
-0.02089529386478915 0.007954008691850267 0.00271499438610398 -0.014430603746670843 -0.0008033413651071108 -0.00033859288948880734
-0.025023249444247556 0.009604293757669838 0.002905277030095444 -0.015321235856194727 -0.00037420867924783284 -0.0009264004572454419
-0.02959446010540398 0.012570679536166024 0.0030213057395918103 -0.01655380173757278 -0.00032701078612790596 -0.0019931609449053158
-0.029199776074258908 0.01128493568249319 0.0032001916355533636 -0.021963345593946863 -0.0006850860626228259 -0.003884354682284568
-0.026557355049540682 -0.012214465047123422 0.0038290456951587263 2.5979527703746663e-05 -0.00015056158501370736 -0.005830466167553186
-0.02925046461601917 0.011279943531127977 0.0032574616962331797 0.02201775621143379 0.00037239175070900214 -0.003882278439010165
-0.029697831886968392 0.012561858239256705 0.003135243441330363 0.01661598683592809 -1.927570635894075e-05 -0.0019865841138299325
-0.025182170966952227 0.009594085760967767 0.0030733877778686505 0.015397912053966923 -2.3874907377726265e-05 -0.0009094157085956009
-0.02111095970058629 0.007946415840785181 0.0029300901657428264 0.014531414729201707 0.00034308282265459167 -0.00029934585363354765
-0.017534631169824292 0.006447548426591465 0.0027052331328434125 0.013888815868208611 0.0007545698440099525 3.15874530115361e-05
-0.014014267543122547 0.005023939629323865 0.002425097337311873 0.013452249658000584 0.001076012367157992 0.00020418024916579391
-0.010717894570893834 0.0038073957776173016 0.0021398091826272006 0.013395258969500345 0.001285509594342449 0.00027169440672443105
-0.007479485229657006 0.00292988805371334 0.0019227914151506128 0.014130503275770322 0.0014127456570209643 0.00011158000489014173
-0.0035219378665255164 0.00023291449733179562 0.0018506562112959723 0.013201380983036292 0.0011569074320379462 -0.0008918873852422882
-0.0012392237012692378 -0.005304965906811487 0.002068505831242408 0.008815400751830085 0.0008044223587366315 -0.004390199619489013
-0.003473939086364035 -0.0023570437719961624 0.003656959387421539 -0.00479398532210165 -0.0014314877712103358 -0.0022299003997408454
-0.006778566912942067 0.0009973280460479034 0.0031017716490117516 -0.00745620523339051 -0.0023059077132266785 -0.0004924318645312174
-0.013708024841117902 0.004818373404629145 0.0032514403148652784 -0.008107288641174878 -0.0032494617871041227 -6.62378741090498e-05
-0.02082083014160057 0.007488251822417815 0.0037235982688391908 -0.0076036417182063255 -0.0031764334832181254 0.00017512383586992355
-0.027798528090873017 0.010176287493233538 0.004319603047901542 -0.007623785457767679 -0.0026508484150786923 0.0003010356694074249
-0.03480880105927079 0.012977132107330404 0.004886720783002553 -0.007929765555841033 -0.0017987004722903853 0.0003506440191169973
-0.04191770453267712 0.015879044078120567 0.00532117188874748 -0.00835623144044596 -0.0007465810983315769 0.00030463364612388
-0.04891077721750782 0.019007934219036127 0.005548578073723194 -0.008721640715989104 0.0002550174083526987 9.62805430695012e-05
-0.057688268375381796 0.022103100558253496 0.0055617611861584855 -0.009696387083328258 0.0007848396452147881 -0.00034882816462209273
-0.06168055352389157 0.02918372230802114 0.005388485282816548 -0.01317231229532511 0.0002153245823556633 -0.001545767968047712
-0.06031424593596516 -0.009524432541554129 0.00605599481170929 1.6232508522082756e-05 -0.00019111389741694937 -0.003749055700747195
-0.061737747562250776 0.02917426001319769 0.005461863546830848 0.013206263668378857 -0.0006111410063090481 -0.0015475489810597542
-0.057804219922256664 0.022084845303196068 0.005708663028474627 0.009735030955186795 -0.0012199098332391605 -0.0003512242708737403
-0.049087058528751705 0.018982274554074335 0.005767846732549912 0.008768952158840862 -0.0007497766721965872 9.622029117084102e-05
-0.04215230205641155 0.015848063310618287 0.005607151175623826 0.008417887940788358 0.00018287229463168222 0.0003130520875196397
-0.03508936391104195 0.012943972903766305 0.005223689557502394 0.008014954402762998 0.0011778853673216742 0.0003797729520275348
-0.028090014534026615 0.01014460412887861 0.004673136659231081 0.007749810431024299 0.0020217661996561956 0.000375056447407934
-0.021053293922179073 0.007451893634573188 0.004029727131913419 0.007787899015740052 0.002645618349738779 0.00033082174010152056
-0.013802224593185907 0.004752137822323133 0.0034103433660925913 0.008295120960368425 0.0029699625314000325 0.00016356693538731537
-0.006735972718946714 0.0009490758672201717 0.0029962823577184545 0.0074975474617745815 0.0023223136478465545 -0.0003708117565688074
-0.0033809261466105386 -0.0021385985894234066 0.003235281900975112 0.004709106000147263 0.0015859795144637808 -0.0026229604667015022
-0.004624600915063481 -0.0012390897316188103 0.004426154332838996 -0.0018687336352804854 -0.002758167297654276 -0.0011445227262860517
-0.009382155925151906 0.0014017438722011405 0.00405407114589095 -0.0029850774107044713 -0.0038007033893209365 -5.2182995004404224e-05
-0.020039534841404107 0.005737265748227638 0.0046034753249447925 -0.0030935616828078566 -0.004857313446086337 0.00013891724511167798
-0.03129770113100257 0.009334682251382575 0.00549747119995354 -0.0029791950865254062 -0.004536870952484337 0.0003408254246374134
-0.04184078312875553 0.012735394364715324 0.006471883979326207 -0.0030209292198636844 -0.00358466087552413 0.000513264223208031
-0.05224582751074745 0.01621810523431288 0.007326046781804473 -0.0031813725856068916 -0.0021571118854208566 0.0006828173370790209
-0.06275859293434494 0.019753853867378466 0.007922306555211714 -0.0033410347306731415 -0.00042089623384979573 0.0008345706194118515
-0.07315488086685626 0.023858916709413452 0.0081659686005793 -0.0036958305375543706 0.0012937189846744812 0.0009468879512643031
-0.08246866240306469 0.02601277946254549 0.007994067638954399 -0.003909544908784437 0.00240569241300839 0.0008951550677769439
-0.09523339184707873 0.039311380507946844 0.007366533626145037 -0.008610465125311944 0.0022975094293172936 0.0005538493069648104
-0.10380428766240907 -0.008125849453948496 0.0070845347829546265 8.442231097449172e-06 -0.00023385571814337473 -0.0026265867025034935
-0.09529832086260695 0.03929974980038149 0.007456755222594629 0.008628220513097334 -0.002781434164203552 0.0005499857080211558
-0.08259986700786717 0.025989945745167723 0.008175580144416475 0.003930013186521109 -0.0029365496074393155 0.0008877294968066035
-0.07335318931478185 0.023825732014369962 0.008439351285977609 0.0037212280765813793 -0.001896202731865991 0.0009367747225147828
-0.06301988709508773 0.01971153675449725 0.008284160864217812 0.0033742824720956618 -0.0002646777281907943 0.0008238421970075828
-0.05255104110292831 0.016168015211367032 0.007762777854716374 0.0032266095826818074 0.0014032821175140604 0.0006762799215863222
-0.04213660816262827 0.012676463928728498 0.006949590214356446 0.0030852189658700443 0.0028284574353984702 0.0005218091691280938
-0.03148727797431717 0.009257565697051131 0.005947911842435808 0.003068570138653815 0.003929194456746634 0.0003831647109855703
-0.020050729729266418 0.005636820895608599 0.004914458346339866 0.0031866379905344613 0.004619125151754085 0.0002125687226983079
-0.009276639242563334 0.0013521327140975949 0.0040891988440705535 0.003019935556839838 0.003969677243208222 -1.7179577686896277e-05
-0.0044983447113496975 -0.0010977589713894009 0.004135740008721885 0.0018428840219401367 0.0031015617530925866 -0.0013799165426464062
0.018899411178979995 -0.027436016252868744 3.3881317890172014e-19 0.002125133816925109 -2.6882413396017713e-14 -1.3494901810601201e-14
0.019331776801092857 -0.00035525051671926665 -0.0016438708135544542 -0.006302818226309828 -1.3388023193316653e-14 2.0691320835528049e-16
0.02335202466123719 -0.007728286285585435 -0.0030848109000092103 -0.00245007628998583 -4.908000275725272e-15 -1.402025874954263e-15
0.03188723193055116 -0.009793303365779039 -0.004450956513438078 -0.002913456964377607 6.738689196494202e-16 4.176482293685724e-16
0.041899613020748495 -0.013252260564399982 -0.005419076928367875 -0.0031152114866599156 2.112577250450425e-15 2.453874776986442e-15
0.05199348471725427 -0.016674803326171054 -0.00591006864891649 -0.003348774222644323 -1.3179426083462231e-15 -1.6761087960268095e-15
0.06219777060052373 -0.020343159138501345 -0.005885129247180316 -0.0036472839916220573 -5.718966560085484e-15 9.676504389433127e-16
0.07318025460217333 -0.02437647834093306 -0.005352849696037224 -0.004133257559320036 -3.257292303720724e-15 5.49982558410364e-15
0.08584373200294054 -0.02916463215739698 -0.00442553749129159 -0.004647737489082613 3.347494536339729e-15 4.309419032559603e-15
0.09877515901728279 -0.03470912782663736 -0.003427264102528612 -0.0038831637384371125 6.514687945461013e-15 5.74159589230433e-16
0.10483818529530352 -0.03826355023454545 -0.002949100555626281 1.024800153555852e-05 7.252309646918476e-15 3.554150246679044e-16
0.09872573954508229 -0.034691057829100314 -0.0034281842408621544 0.0039046064177396707 1.3879614010848737e-14 -1.5992388619975872e-15
0.08573776203460118 -0.029124171297220388 -0.00443120047910358 0.004672208097863109 2.841780291445127e-14 4.3044655838840595e-15
0.07300145721819644 -0.024303999232700144 -0.005371563163441613 0.004163514052720664 3.1929096682131036e-14 2.2726910414369583e-16
0.061915799572815906 -0.020221901006369055 -0.005930691971245302 0.003686932546082802 2.6290792646096106e-14 1.0832399430574235e-15
0.051556502263419596 -0.016476515234139563 -0.006002089674146745 0.003403384833871294 8.644105057935801e-15 -1.1920531835935e-15
0.041223654620947806 -0.012937690017501339 -0.005582695197690354 0.0031883443381041615 -1.5437853090067427e-14 1.4468881279726398e-15
0.030846419110689288 -0.009293963874022187 -0.004712559265715828 0.0030314282005526336 -2.3957818693319533e-14 1.3122878163903534e-15
0.021671804624388714 -0.006972001889587346 -0.0035095985450633096 0.002668780190966534 -3.062653958023874e-14 1.843804378924216e-15
0.01552329948737045 0.0009763482576466635 -0.0023625939039446844 0.006014444629496026 -2.691902893626162e-14 9.836085396695837e-17
0.013382545340230641 -0.025858182078091214 -0.002410580173414225 0.007656134326001096 -2.4654635429575966e-14 -1.2588888265163689e-14
0.007902367577979416 -0.02386451920071276 -5.943598937793813e-05 0.00016685003784211227 -8.158731462236564e-15 -8.145495725402768e-15
0.00933834773131685 5.4193814326032334e-05 -0.0008436089423790175 -0.006924209609995896 -7.568551091841763e-15 -3.4249285943118227e-15
0.014651753928980774 -0.005683393479493322 -0.0019465247823346062 -0.006411914942461294 -5.6438152559062406e-15 -3.2655898384720272e-15
0.021689465808247654 -0.00797494097780899 -0.002941129174369402 -0.0072745337543779634 -2.756820345736679e-15 -4.525663155861837e-16
0.028223347431341347 -0.010635981571838779 -0.0036581726212776768 -0.007816469471466848 -1.1224679446689015e-15 7.372913586080332e-16
0.034953010151539954 -0.013382564372347605 -0.004023138084186203 -0.008249287144389848 -1.6922396914743204e-15 -1.7940496636024983e-16
0.04175622761982843 -0.01629162469560781 -0.004030510824921228 -0.008900846782283858 -3.6967279145585716e-15 -2.7619406599028312e-15
0.04897452174635431 -0.019414843481474413 -0.003706072961469123 -0.010062031547360899 -2.5551934700052126e-15 1.499129732027496e-15
0.057013131004777985 -0.02311072490098097 -0.0031330701357732177 -0.011562653583732648 -1.4985723843482027e-15 -3.695110081629316e-15
0.06495901909234678 -0.028067595459700487 -0.0025047630991036924 -0.010082255672259378 2.3529414839586725e-15 -4.609932769718272e-15
0.06862326806237867 -0.032484318284700824 -0.0021878458834061133 1.983664599945585e-05 6.278732094926751e-15 -4.0411060999237525e-15
0.0649007849833501 -0.028052112026175257 -0.0024863750232707164 0.010124439277333735 6.892556966527682e-15 -7.94743570541219e-15
0.056890245031489824 -0.02307583459912072 -0.0030990396557259102 0.011612989802372301 1.454729027262078e-14 -2.8134233224369476e-15
0.04877295155196925 -0.01935192041513172 -0.0036626804382511326 0.010128167586224927 1.9335355765212527e-14 1.6526629240468105e-16
0.04145135968687073 -0.016185548262515167 -0.003988893982803356 0.008994012109230601 1.34640620821455e-14 1.1408110784164038e-15
0.03450399449477807 -0.013208348567149576 -0.004000871834795354 0.00838501842052374 5.8491080902334236e-15 1.2126476038598621e-14
0.027565975444271307 -0.010354646720059557 -0.00367963439246014 0.008015341655705771 -6.048103234597771e-15 4.830903336866185e-15
0.020717926414399655 -0.007535471360864931 -0.003043309284500093 0.007580334309779273 -1.416887576233608e-14 5.301550417744459e-15
0.013213324999937296 -0.004983849031164936 -0.0021844186984562803 0.007003293781978406 -1.775920448025825e-14 2.952167319197202e-15
0.008100866777187852 0.0007166318892687356 -0.0014989186687982448 0.007689499034796109 -1.343577891088285e-14 -1.1293998505509939e-15
0.007142143505248727 -0.022453267492790963 -0.0019130942774209412 0.00567346501304205 -8.285530600374638e-15 -1.8317216233382227e-14
0.004000963734430453 -0.016968569392750054 0.0005700235162267013 -0.009532054999422617 -3.0425914744483876e-15 -1.0872243860413078e-15
0.004030901381078614 0.000250270818257334 3.289327935068433e-05 -0.011978194221098594 -3.3353936118970173e-15 -5.4409771230602005e-15
0.006583533048789394 -0.0020384881030873813 -0.0007213026364662447 -0.011618875861423865 -5.459269858347341e-15 -4.871374571085996e-15
0.01096168530366469 -0.004160568513705839 -0.0013828948641843794 -0.012835022401455011 -4.650810685631883e-15 -4.8114486841336485e-15
0.014458334521006127 -0.005451646933359844 -0.0018287893637165486 -0.013557777953152928 -3.893685521168299e-15 6.80533374878417e-16
0.017753604334633608 -0.006799979795918455 -0.0020337171350213144 -0.01427788120465989 -4.601106262891409e-15 9.976896153847392e-16
0.021036466004287532 -0.008210445170989481 -0.0020143236963822307 -0.015317560985485644 -3.322866206365363e-15 -4.097769215963276e-15
0.02430494154780966 -0.009508157370348687 -0.0018037442877915002 -0.017087871696033846 -5.276955122055036e-15 -4.8559517951823894e-15
0.028093981301624046 -0.01102482070831221 -0.0014465004335119805 -0.019748023238803376 -6.0659620772576806e-15 -1.0157348052930448e-14
0.033129589520232254 -0.015332841517374423 -0.0010214104414163262 -0.018203595633233937 5.786658045098259e-16 -7.424176020048162e-15
0.03599971732198238 -0.022773821442688535 -0.0007662613384259175 3.099546035186394e-05 1.55953631017741e-15 -9.91333480148543e-15
0.03306374171409634 -0.015322665176049034 -0.0009842051621178057 0.018269712205899187 2.7670745265961395e-16 -1.1253218951297328e-14
0.027956985656958287 -0.011001366897939591 -0.0013740157320068706 0.019827580738435813 4.802471405442174e-15 -7.08523070400667e-15
0.024085921955126266 -0.009464740737260231 -0.0017008288752487627 0.017193696476719394 7.851400803918392e-15 2.5816276742231248e-15
0.020717784693034515 -0.008135513537729767 -0.0018907051646001598 0.015468881548591855 6.724820937807044e-15 4.594350751620582e-15
0.017307436193134535 -0.006673700776560374 -0.0019065940426483089 0.014503187185331492 5.121046611423604e-15 2.092398723361165e-14
0.01384244826145828 -0.005241679086089589 -0.0017263316259531123 0.013895412020822841 -5.441833049853401e-16 1.1753097139185348e-14
0.010116197376167254 -0.003824220700841632 -0.0013482679193985959 0.013365104448241846 -5.24693119220666e-15 9.093871082598362e-15
0.0057146874013167745 -0.0015897720711611893 -0.0008391212041678707 0.012510760356570987 -8.841550555523147e-15 4.723555463328859e-15
0.003596567301735067 0.00014836370566114393 -0.0005052017413794509 0.013298063093624614 -4.3677870141637124e-15 -4.075316066597459e-15
0.003892333100011381 -0.01582439708118083 -0.0008228099699826582 0.01080779833293762 -2.4808527763564917e-15 -2.725123187004297e-14
0.0011904508900754357 -0.010726722858571814 0.0015662669891579942 -0.01066450161039266 -5.317262031883079e-16 2.7416762436727193e-16
8.737414211131698e-05 4.859815402166551e-05 0.000995632653804613 -0.014322084640225143 -1.5870788570068045e-15 -4.39533866659729e-15
-0.0005017633771863217 0.0007214816820996867 0.0005276621727809889 -0.014494521508916714 -5.575806980571193e-15 -5.761731559526459e-15
0.0003080738508405825 -0.0001953433441921232 0.00018782668940965918 -0.014767709311806343 -6.134085549073555e-15 -3.1173082507256894e-15
0.0005730654406471986 -0.0002898293023131731 1.2645201283183948e-05 -0.015467336025072038 -5.943437914404399e-15 4.600506987081227e-16
0.00046896213971181223 -0.00020537025429440085 -1.8096556297821316e-05 -0.016286383099952825 -7.249765159944924e-15 1.6245583708569128e-15
0.0002311694206476857 -0.0001509939535443814 5.337996295429271e-05 -0.017467405546447975 -6.220493497605334e-15 -3.2091367866034226e-15
-0.000411171073783073 0.0002617878169655772 0.00019115620097490162 -0.019063680217862793 -7.711131089061895e-15 -5.9460018831357375e-15
-0.0007736733250632194 0.0010329945029287826 0.0003885200105575798 -0.02191928477196164 -8.25229895675501e-15 -1.469495098521678e-14
0.0021222677648250056 -0.0027853772081435158 0.000670585673621626 -0.022634069755855035 -3.1640576931505487e-15 -1.209124624425642e-14
0.00488496369545203 -0.01626116168054011 0.0008998148759024298 3.476943142091735e-05 -3.826290074170589e-15 -1.0132594362079889e-14
0.002049207849242433 -0.0027806890275854533 0.0007265511629373347 0.022708280769488193 -4.84626840865026e-15 -1.34699448318433e-14
-0.0009238200033808762 0.0010446408362214073 0.0004992470794464361 0.02200871628344606 -2.3760321579661964e-15 -1.2692490559008257e-14
-0.0006457953652577442 0.00028515741725961094 0.00035296969992774837 0.019182784605174426 -2.8879930326187824e-15 2.9215860416695327e-15
-9.792414403753016e-05 -0.00010788781894907608 0.0002575271028890691 0.017638222240433387 -3.237813087032717e-16 3.846363060954622e-15
3.282956065438305e-05 -0.00012828201879187018 0.0002104810322867644 0.016542834258901174 2.1799218754712992e-15 2.2624937811915533e-14
1.1277022256678475e-05 -0.00015397469247629237 0.00023315514854970243 0.015861208007769745 3.853345153538839e-15 1.4415419948227495e-14
-0.0003472944095898965 2.8304006080691857e-05 0.0003453965308759684 0.015375948192457415 1.2652880757295804e-15 1.2098237654203058e-14
-0.0010091763548725 0.0008744418835858496 0.0005163980820137894 0.015397813977873615 1.8428472316938185e-16 5.092509462625676e-15
-5.386960959170465e-05 -0.00012524021232492166 0.0005954358105266162 0.015002937508379489 1.791421743883642e-15 -6.050671438493846e-15
0.0012424820593245063 -0.009830685708009835 0.0005159140507862725 0.010923568046254191 2.524461420612932e-15 -2.853140358520523e-14
-0.001262781274159016 -0.005619025675215021 0.0026660842234494738 -0.00864260691496897 4.925983632228428e-16 -1.0068172424243516e-16
-0.0033801289086842373 0.00034934561613514614 0.001983250930770169 -0.012638198902136818 -1.6808742033880622e-15 -2.815600197111391e-15
-0.007040076818058249 0.002858804216737971 0.001774279359252288 -0.013490979249167598 -5.688187076848157e-15 -5.2899104909832906e-15
-0.01009150924317136 0.0036557689903603963 0.0017539288308881305 -0.01309805441295992 -7.24417643655894e-15 -2.5626270311503163e-15
-0.013323181747514986 0.004914847912612654 0.0018485431135659154 -0.013517750542208395 -8.103161865731946e-15 3.457757897281505e-16
-0.01685587587665457 0.006392706524331179 0.001993401402497119 -0.014281418012320099 -1.0605786353448188e-14 1.1812789245044253e-15
-0.020517086719754368 0.007958565677428062 0.0021187243069142104 -0.015289790514353075 -9.61518028931288e-15 -1.568461072826155e-15
-0.024775174847727476 0.009700582353211463 0.0021833921617814126 -0.016547168950053533 -9.427234875033922e-15 -5.083122643504204e-15
-0.02958385478065946 0.012806824709657067 0.0022116867149224503 -0.01795804452617476 -9.013563888869182e-15 -1.5994692549592404e-14
-0.029207491600358227 0.011626853764034209 0.0023256965909146045 -0.023360868649160742 -7.865172077333089e-15 -1.0046928837926378e-14
-0.026449146814069017 -0.012305310011494399 0.0025060717087835617 3.1227619436650056e-05 -8.13498087015379e-15 -9.051912458523173e-15
-0.029288159455066166 0.011626059797234243 0.002400792168122404 0.02342747709481815 -8.42663061927768e-15 -9.676985504147168e-15
-0.02974801598998155 0.012806692319459372 0.002361442001924822 0.018038144309767322 -1.0814755734282928e-14 -1.1445326023734603e-14
-0.025026966565166356 0.009704026086011076 0.002405412059960029 0.01665346891605354 -1.0433942214933367e-14 3.3574895251173298e-15
-0.020858755173692317 0.007970157380159897 0.0024053804955743406 0.015441635918801887 -8.132165967911827e-15 6.706630693506521e-15
-0.017284418971760158 0.006419998806142398 0.002326393608457363 0.014510499425744523 -7.685697442512927e-16 2.238035196619817e-14
-0.013821285399587692 0.004973570028250439 0.0021909654127425402 0.013873798839962303 6.617723574263868e-15 1.3393786405489772e-14
-0.010580401980853095 0.0037430467741222904 0.002038443733539592 0.013643667876423014 7.635197338197626e-15 1.1669854129260984e-14
-0.00733803554343558 0.002857606304170098 0.0018813940006387692 0.014127334565416018 9.180104118826533e-15 4.434037907891444e-15
-0.0034045564134579857 0.00022981917827959514 0.001727948221391149 0.012899174971588646 8.091881504456886e-15 -5.016606840222218e-15
-0.0011677084781338265 -0.00502012931953241 0.0018853717141614195 0.00855488933425954 6.467035565914381e-15 -2.5338102926583672e-14
-0.0033048856425043093 -0.002281009620867997 0.0036372893811814017 -0.004729714989408077 2.9227549471367437e-16 -3.653422508097248e-16
-0.006530464032141757 0.0010783325484336713 0.002898583042699318 -0.007223704509605453 -1.7059243557701609e-15 -1.4996582805865827e-15
-0.013326765070165024 0.004790803264363569 0.002990894679589486 -0.007928202350010486 -5.622426826955122e-15 -2.947906743472513e-15
-0.020317207111993446 0.007428732991735541 0.003298039684388924 -0.007590613722405524 -9.481088806303876e-15 -1.983839253896086e-15
-0.027168771731289027 0.010144817328707777 0.0036612671164495585 -0.007776307284972175 -1.18835740943804e-14 5.969820449612528e-16
-0.03410303754519128 0.013017421474050059 0.003970772475149542 -0.008250045084482287 -1.100116905124876e-14 -9.395662145441491e-16
-0.041248572490159244 0.016046841201044194 0.0041274200168154255 -0.008879208675303498 -8.699467131368342e-15 2.3787056851153066e-16
-0.048452484922399404 0.019377525839745623 0.004079732120659767 -0.009450143723629166 -1.110538459694714e-14 -2.8600575683809804e-16
-0.05772662300015384 0.022729282368406056 0.003871621274534521 -0.01050489130880124 -9.819300591813046e-15 -7.849542413632116e-15
-0.06199004691932453 0.03018423473695728 0.0037200618354347667 -0.01398134239071845 -1.0533437034258462e-14 -1.8558983153451128e-15
-0.06056234548546797 -0.009465616667139238 0.003750865167416467 2.0242107971217735e-05 -1.1457381843672874e-14 -7.136147548532021e-15
-0.062079515617311676 0.03017814441459033 0.003815087090107459 0.014024385138872865 -1.3850862324487137e-14 -1.3974247919847776e-15
-0.05790747717489561 0.02271777063556013 0.0040621971547818644 0.010556199992820672 -1.9054299221885236e-14 -5.0866022548515244e-15
-0.04872625342862995 0.019361765762937366 0.004365182069593101 0.009517323160527605 -1.929828621530889e-14 5.384950975797012e-15
-0.041611156978253884 0.016028026021928394 0.00450205768664337 0.008973748323213526 -1.5722669400889343e-14 3.774734566803009e-15
-0.0345349512733811 0.012996645737369847 0.004417282435865089 0.008390541794044963 -5.481472921235481e-15 1.3324621083148774e-14
-0.027616945809297175 0.01012118356483693 0.0041401472567356365 0.007993791230783719 8.294903866968954e-15 7.576106625731271e-15
-0.020676095098410896 0.0073836529825918856 0.003731924260913453 0.007908636145679904 1.552273764984357e-14 5.818269314689789e-15
-0.013476875548720981 0.004678915389483939 0.0032468523645121316 0.00824243650873429 1.9851297932945225e-14 2.1690091264953484e-15
-0.006477601295866548 0.0009833291594825008 0.0027989847381496287 0.007287321076114715 1.6104806832735463e-14 -1.942969914191066e-15
-0.0031793622699915567 -0.001954874597754219 0.0030769958590692236 0.004605256018414486 1.1228160328585757e-14 -1.617373498585123e-14
-0.004355853673765424 -0.0011332969715062689 0.004181533245820004 -0.0018768184061445363 5.816744655384731e-17 -3.8624702394796095e-16
-0.009029701333952925 0.0015182666814970468 0.0036502582202373405 -0.002853192934815385 -5.66089059308994e-16 -5.635818417851213e-16
-0.01951599514026143 0.005745436992224133 0.004127940664610963 -0.0029921697938716514 -4.7627917235115724e-15 -1.3299094898250319e-15
-0.03057720572835488 0.009319799751938786 0.004776636484822972 -0.0029570982276546625 -1.2555020499800673e-14 -3.4827284285665616e-16
-0.04091815153103117 0.012763871515006029 0.00539714936701076 -0.0030836401183906115 -1.669446373676886e-14 2.2827876741682296e-16
-0.05119065726509593 0.016348323564161736 0.005837798536336972 -0.003328738233133774 -9.64532680071059e-15 -3.5248496829676235e-15
-0.06172676182545991 0.020055363229408207 0.005968692170296032 -0.003582032217567549 -7.148819161422945e-15 4.376897065269669e-15
-0.0724378474517894 0.024440568725681094 0.005718942981837303 -0.004013243521446896 -9.097770822287521e-15 9.949181235813231e-16
-0.08246057075121609 0.026903728095414983 0.005148232225492198 -0.004228121245651293 -9.77484830274114e-15 5.040889580754104e-15
-0.09597206308731045 0.04078362747154436 0.004554140759034604 -0.00906170495664689 -1.6330154866154786e-14 1.1564913523359754e-15
-0.10484107210322982 -0.008000380121848965 0.004276182507915523 1.1695527429267242e-05 -1.5349043379613708e-14 -4.73163446357977e-15
-0.09607234079381181 0.04077495530838917 0.004670349650051506 0.009086581030551556 -1.7784114025171105e-14 2.8595019147675815e-15
-0.08266260456112681 0.026886674199502494 0.005382475620492046 0.004257700886420993 -3.0351074301396275e-14 3.181455749887152e-15
-0.07274171354642778 0.024415434065328992 0.006073044636656198 0.004051600311041073 -3.4749275939355284e-14 2.987437771120871e-15
-0.06212424331053921 0.02002179320243712 0.00644036756353533 0.00363477437632088 -2.8160379437385322e-14 1.9042384856449157e-15
-0.051649562003197966 0.01630394947783233 0.006413268711302964 0.0034037844597741796 -1.220346116910867e-14 1.826907765692387e-15
-0.04135249659959919 0.012699032437781798 0.006038594235974185 0.003192866158875279 1.1654400860171277e-14 3.2843736411103386e-15
-0.030835131563106934 0.009209282983076165 0.005401685943891565 0.0031076165301233993 2.599553601892457e-14 1.2784098866319704e-16
-0.019493911027345528 0.005575349907379242 0.004586343747502145 0.003144093895153168 3.431254575175097e-14 7.395343018523626e-16
-0.008843939423980856 0.0014167276473244861 0.0037333392676291437 0.0029073639715086 2.786204426896699e-14 9.3363359578158e-17
-0.004152857020674005 -0.0009304207175922989 0.0037856207388265476 0.0018484801580394119 1.956431978228368e-14 -9.957095911672376e-15
0.017816263435389966 -0.028373926481903032 6.2680438096818225e-19 -0.0009336176657733064 -0.003424730861599069 -0.00029717994690392865
0.018735947937745544 0.00017316566295715106 -0.0019023040021383375 -0.006423898956075066 -0.004669176115625 0.00035631027736568704
0.023449525976474858 -0.007580703014583164 -0.0036333063173181516 -0.0025417892669798575 -0.004394370420762006 -0.00034417973699621147
0.032316770011139175 -0.009624374544242625 -0.005242100652907783 -0.00290448340045387 -0.003673360342749287 -0.00039714763165834974
0.04254131992025899 -0.01308274985770474 -0.006483657956095076 -0.0030435488613580874 -0.002362093696698726 -0.0005480540760117891
0.05277446271281797 -0.016434175204460416 -0.007355164676845332 -0.0031957084251553556 -0.0007199022936348182 -0.0007041325713356193
0.06298165803462938 -0.019958487696009254 -0.0077968362647621425 -0.0034009576679579602 0.0011361789482205867 -0.0008503348141707702
0.07367017346369872 -0.02374096100702864 -0.007767824469921945 -0.003791585497730687 0.0029093187799384525 -0.0009161042652463781
0.08564049273386375 -0.028170749718279695 -0.007287274515762359 -0.004256760321822111 0.003900443655477357 -0.0007717538497985985
0.09767820725910192 -0.03334519968685745 -0.006560128921943272 -0.00357586448314873 0.003027426571923242 -0.0003342383617313008
0.10330220527515623 -0.03670740296489806 -0.006139516207511363 8.273371110756566e-06 -3.910279749844998e-06 3.6702364249193554e-05
0.09765055058863897 -0.03333427377362055 -0.006564451444181038 0.0035929163454661026 -0.0030307497386027555 -0.00032949301672238035
0.08558095335899746 -0.028146051301847982 -0.007299039161927173 0.004275375382518094 -0.0038897787663296868 -0.00076231984759718
0.0735695529952416 -0.023696253223790563 -0.00779391790473818 0.0038130735272346792 -0.002872995360205217 -0.0009024603343585739
0.06282380839032985 -0.019883037925981943 -0.00784919580208962 0.003426755277352988 -0.0010560016496870676 -0.0008338930461309636
0.052533779993145756 -0.016310574574103873 -0.007451862390112676 0.0032287334132699544 0.0008767659155710918 -0.0006899350018029651
0.042175090962079595 -0.012884902290446015 -0.006652079431864712 0.0030820356371081183 0.0026582112938207956 -0.0005397631584778488
0.03176571208568065 -0.009314957690472222 -0.005511217548463265 0.002975007845173879 0.004179906660720584 -0.00043133722683948096
0.022449879480838517 -0.0070701648550181816 -0.004082012445143575 0.0026424604326779413 0.005176029792622634 -0.0003161912512571627
0.01614194663968032 0.001019884076327013 -0.0024199192770972145 0.006277701085013807 0.00471162762049841 -0.00025449727802068754
0.013968075673134035 -0.026972355448204827 -0.002124124567151666 0.008063025271058224 0.0041648800924416265 0.002487429479951552
0.00786626089167923 -0.024456244866854927 -0.0002803858436100069 -0.0015925342110870069 -0.0018131887002109932 0.0008875611475534337
0.009131175754256784 0.0003198374439109517 -0.0008721789454419457 -0.007290449717839792 -0.002198030326190039 0.0007466629166981467
0.014513897076245803 -0.005525989068053157 -0.0022683257560230387 -0.00657405019729143 -0.0027514850441296384 -8.260293479883267e-05
0.02188129900631838 -0.007862092138778648 -0.0034132092332422215 -0.00724557522586996 -0.002300415898087462 -0.0002087263121041055
0.028565211081132323 -0.01052783778117439 -0.004300841102625861 -0.00765902754062554 -0.0014572154495953564 -0.0003049313666836924
0.035385399428390835 -0.013234271905971463 -0.004894297740863335 -0.007931534462587167 -0.00038958911588844074 -0.0003524303216792738
0.04218210077781108 -0.016043287525227955 -0.005184809234238114 -0.008376620035218323 0.0007758887803338655 -0.00030722610926925365
0.04921513982852727 -0.01898943689938711 -0.005160670624793771 -0.009297883425378762 0.001851954275444112 -5.52870734791965e-05
0.05684753259530921 -0.022431339943654406 -0.004849039383543663 -0.010641291863269727 0.0024375520589427885 0.0005857709117642814
0.06428734645842667 -0.02712684610118101 -0.004367125872926001 -0.009325637497651805 0.001901047710328601 0.0016582337258342686
0.06770872828453095 -0.031358092400674546 -0.004059059969929102 1.6046279567634073e-05 3.510820185368687e-05 0.002423719795314234
0.06425342070474228 -0.027118088579721776 -0.0043559798606057085 0.009359199165027008 -0.001824185518813585 0.0016593604655047965
0.05677589650312339 -0.022411204035465232 -0.004829178422981714 0.010679511202815465 -0.0023404848509340787 0.0005868534159875387
0.04909788418730664 -0.018952212608358276 -0.005137743312829349 0.009344797222776449 -0.0017198274824982709 -5.7279186112407195e-05
0.0420063994962002 -0.015979170640920536 -0.005169115887656514 0.008437787487424388 -0.0005901296046646109 -0.0003187250021905411
0.03513114417790119 -0.013127236271967699 -0.004903175469766345 0.00801485101403231 0.0006572771687422234 -0.00038592204832673044
0.02820375693377977 -0.010353288967594722 -0.004359873407798451 0.007773446569809151 0.0018491224958576042 -0.00038032768851391187
0.021347142784368778 -0.0075870814917681165 -0.003564709161934253 0.007423226498602651 0.0028793196708444494 -0.0003600142456345325
0.013651568911416567 -0.0050562246289738355 -0.0025505817555736537 0.006917014607622583 0.0034222089322188025 -0.00031820219328625935
0.008368112572530326 0.0007439639498677093 -0.0014358416268616316 0.007925283570722709 0.002460345893675975 9.226148979724558e-05
0.007419685594760555 -0.023405245471782174 -0.001607571232299789 0.005988886616375758 0.001608894204888843 0.003217576500748557
0.004045479977037039 -0.01716043305921558 0.0005048016575128321 -0.010321433134407925 -0.0006361343270538661 0.0030599873090240135
0.003927416717376458 0.00022603464879991295 3.938037590801502e-05 -0.012689568231222106 -0.0008002903125298182 0.0011285627259381569
0.006413118280610041 -0.0019048108834042975 -0.0008777582102275734 -0.011828842917124409 -0.001119668954316416 0.00028760812558721615
0.010943468214868225 -0.004088885840256312 -0.0016238185349879222 -0.012781574766371318 -0.0009243251659724557 4.117915865623451e-06
0.01454387366366419 -0.005402145524298854 -0.002142043911972647 -0.0132771013302071 -0.0004496789016645771 -3.507463624227631e-05
0.017889400678684587 -0.006748419494947628 -0.002454865563059469 -0.013747974257251432 0.000112953878920057 5.1330458744125963e-05
0.021177531291038686 -0.008127531780823226 -0.0025752886286262155 -0.014455098287737672 0.0006963368568456058 0.0003345760161784383
0.02437250904415106 -0.009367347717865898 -0.002514366323540721 -0.015831360426094024 0.0012395987201721862 0.0009657696548597532
0.027981283464345048 -0.010796594527334197 -0.002286226885528348 -0.018222234317613543 0.001611637043405053 0.0021711322530609868
0.03272529614095252 -0.015006224046442708 -0.0019011599684796618 -0.016908282617652242 0.001383976159519998 0.003980587373621041
0.035429406076357556 -0.022240484020978647 -0.0015611893506155858 2.5891548203241103e-05 7.341567908077462e-05 0.005288493779584703
0.032685756735797294 -0.015001932010252395 -0.0018747541871970172 0.016962512872439665 -0.001228781532821113 0.003978204022317826
0.027899004099670253 -0.01078585859683279 -0.0022352436227760213 0.018284245989704868 -0.0014314843792471918 0.0021639253211826874
0.024241271331720545 -0.009345534510954214 -0.0024433869216175744 0.015907956634499495 -0.0010181683697626945 0.0009477502035639839
0.02098811981087171 -0.008086755886514708 -0.002493568941532974 0.014555966374430516 -0.00041702902730152044 0.00029363250776657645
0.01762919235872234 -0.006675300463433563 -0.0023791392887064604 0.013887066975251439 0.00024281664714170576 -3.4332731458550694e-05
0.014194357215628221 -0.0052764875022687134 -0.0021006017174578385 0.013474563012731998 0.0009067058032185284 -0.0002025900665351432
0.010465019896216786 -0.0038763224823546755 -0.0016599739386217447 0.013083272504773265 0.0014990551310326075 -0.0002862211274555522
0.005918698830150511 -0.0016040222571143195 -0.001055444759462641 0.012373373365863881 0.001694102428894465 -0.00023295281402437303
0.003705875313857131 0.0001608275020379447 -0.0004290926465246295 0.013638563842864498 0.0009637152455418285 0.0006826447632220882
0.0040341474229844045 -0.01650176755991622 -0.0004976247877701095 0.011293029421146239 0.0004342127816241406 0.00473305130489918
0.0012006515289451315 -0.010841241923327818 0.001562941727797083 -0.01112030300615836 7.574225470828526e-05 0.003923572228324286
-1.31042778948679e-05 -5.146018846445046e-07 0.0010414864910917886 -0.0148751848154668 0.000243458553858669 0.0013255605376600486
-0.0007072406731577567 0.0008086955189963623 0.0005090502261483594 -0.014757570663253387 0.0003485286605943792 0.00039686207724049666
0.00012817870147054672 -0.00010075149933987273 0.0001703150657797177 -0.014703000612978584 0.0004473014287394821 7.693699032067588e-05
0.00042083755428571864 -0.00022368892147788024 2.3397380775586056e-05 -0.015138926541744232 0.0005866103731544095 2.376738067433393e-05
0.0003318516206458182 -0.00015322596082910464 4.450361571995566e-06 -0.015674085056412455 0.0006896265304912192 0.00015112770806307085
0.00011468432725295739 -0.00011159655618441404 7.053466655294846e-05 -0.016487720709384975 0.0007449202099082288 0.0005067845746757364
-0.000494398951199307 0.0002774265713382898 0.00019604623854746017 -0.01766184207938229 0.0008169402394538717 0.0012354361821096504
-0.0008362424832136401 0.0010233392663636046 0.0003752220967164632 -0.020246130013347418 0.00102373752832932 0.002563813966189637
0.0019176482063241935 -0.002795074160255484 0.000699844026452141 -0.021145456283499113 0.0010871516169392045 0.004626025345349854
0.004544551102814718 -0.01598905033529846 0.0011614113202545603 2.9341648540241126e-05 0.00011161318535649972 0.006311512630861832
0.0018726830519355756 -0.0027954218992286913 0.0007415385853016404 0.021206919636572646 -0.0008540079173147231 0.004622574850318665
-0.0009287410344299559 0.0010243055963627373 0.00045737310478187763 0.020316424517214802 -0.0007614766745189239 0.002554065227699794
-0.0006389053711482502 0.0002832286995711742 0.0003150655431422251 0.017748655084682638 -0.0005084166660609395 0.0012124407441223236
-8.702370654878154e-05 -9.49833011657795e-05 0.0002181398119866259 0.01660208050589984 -0.00037684768355545023 0.0004567662705293253
6.836918364491806e-05 -0.00011576835001726068 0.0001638653153038694 0.0158328896699693 -0.0002542507532153128 4.8487403496440075e-05
8.897984401845504e-05 -0.0001480822150840018 0.00016413096661835498 0.015369216748076321 -8.328844766099708e-05 -0.00017287359053093002
-0.000250198131325484 3.756515575405749e-05 0.00024239427725256113 0.0150535754170894 0.0001005015894499697 -0.00027723582676699024
-0.0009845798980471093 0.0009132806235439159 0.0004332351420189259 0.015311356320931535 0.00010488399139327876 -0.00015702699325631706
-5.6763338592589186e-05 -0.00011328942250829683 0.0006867196920065213 0.015337236579022608 -0.00014788171320968637 0.0010008559156241454
0.001279619792826768 -0.010297946615314664 0.0007865034720329523 0.011315406166959184 -0.0002348952317921359 0.005011570931874994
-0.00132926385836936 -0.005687589396205339 0.0026549624255731404 -0.008872415282014238 0.0006750483063930175 0.003687043115880251
-0.0035349249378971628 0.00030316147170096 0.00208417330768315 -0.013031126715487572 0.001205161973505782 0.0011319574333804863
-0.007314522032971753 0.0029276093721563134 0.00188908411857092 -0.013746368120159873 0.0017659374871134288 0.0003382982696798947
-0.010424051518684313 0.0037591401709842934 0.0019566597653060277 -0.013078585439676741 0.001807845609013322 3.8545327018372794e-05
-0.013706393579126806 0.005000584061380959 0.002182073350574477 -0.013244858009988177 0.0016292525903008998 -3.66852330608636e-05
-0.0172657116066792 0.006446088720562203 0.0024597450187177202 -0.013748100678758035 0.001273670991335372 5.207235158982173e-05
-0.0208952938647816 0.007954008691830813 0.002714994386101714 -0.014430603746692939 0.0008033413650897064 0.0003385928894886417
-0.025023249444238414 0.00960429375766899 0.0029052770300929116 -0.01532123585621423 0.00037420867923107227 0.0009264004572563031
-0.029594460105397503 0.012570679536153874 0.0030213057395910136 -0.016553801737576194 0.0003270107861168587 0.001993160944920619
-0.029199776074253624 0.011284935682492605 0.0032001916355523545 -0.02196334559393807 0.0006850860626072822 0.0038843546822746483
-0.026557355049533188 -0.012214465047149898 0.003829045695155625 2.5979527700008863e-05 0.0001505615850016613 0.005830466167530776
-0.029250464616017147 0.011279943531129993 0.0032574616962326368 0.02201775621143114 -0.000372391750716715 0.0038822784389995536
-0.02969783188696706 0.012561858239247138 0.003135243441330304 0.01661598683595657 1.927570634032724e-05 0.001986584113836139
-0.025182170966946478 0.009594085760953672 0.0030733877778699667 0.015397912054001076 2.3874907357991953e-05 0.0009094157085963121
-0.0211109597005749 0.007946415840780523 0.002930090165743592 0.014531414729242962 -0.00034308282266777476 0.00029934585364458385
-0.01753463116980845 0.006447548426562736 0.002705233132845638 0.013888815868223485 -0.0007545698440152669 -3.1587452998108e-05
-0.01401426754311296 0.005023939629329131 0.002425097337311988 0.013452249657973783 -0.0010760123671570419 -0.00020418024914692422
-0.010717894570888235 0.0038073957776229273 0.0021398091826263146 0.013395258969479023 -0.001285509594332073 -0.00027169440670953037
-0.007479485229650728 0.0029298880537123703 0.0019227914151498785 0.014130503275746538 -0.001412745657001578 -0.00011158000488345054
-0.0035219378665218423 0.00023291449732651588 0.0018506562112952842 0.013201380983022126 -0.0011569074320225369 0.0008918873852360818
-0.001239223701267374 -0.0053049659068048795 0.002068505831242535 0.008815400751821757 -0.0008044223587270171 0.004390199619438222
-0.0034739390863652393 -0.0023570437720006904 0.003656959387423276 -0.004793985322104519 0.0014314877712100858 0.002229900399743012
-0.006778566912943708 0.0009973280460581545 0.0031017716490116215 -0.007456205233392709 0.0023059077132229966 0.0004924318645278551
-0.013708024841119881 0.004818373404631921 0.0032514403148647666 -0.008107288641177483 0.0032494617870924528 6.623787410556414e-05
-0.02082083014159881 0.007488251822419823 0.0037235982688382597 -0.007603641718203046 0.0031764334832014938 -0.00017512383587198313
-0.027798528090868257 0.010176287493240163 0.004319603047900422 -0.007623785457755612 0.002650848415057178 -0.00030103566940935516
-0.03480880105926466 0.012977132107331058 0.004886720783000551 -0.00792976555585145 0.001798700472264966 -0.00035064401911790756
-0.041917704532667646 0.015879044078113476 0.00532117188874289 -0.008356231440459452 0.0007465810983024832 -0.0003046336461225309
-0.04891077721749874 0.019007934219046986 0.005548578073716925 -0.008721640715999865 -0.00025501740837526754 -9.628054306348369e-05
-0.05768826837537993 0.02210310055825191 0.005561761186154092 -0.009696387083333037 -0.0007848396452268409 0.0003488281646329022
-0.06168055352388879 0.029183722308038004 0.005388485282812208 -0.01317231229532127 -0.00021532458237762705 0.0015457679680389532
-0.06031424593596032 -0.009524432541592083 0.006055994811704225 1.6232508520124463e-05 0.0001911138973961743 0.0037490557007335387
-0.06173774756225301 0.029174260013214864 0.005461863546827026 0.013206263668371025 0.0006111410062875617 0.0015475489810521709
-0.05780421992225853 0.02208484530318141 0.005708663028470857 0.009735030955206435 0.001219909833205616 0.00035122427087945534
-0.04908705852874669 0.018982274554063646 0.005767846732548042 0.008768952158862964 0.0007497766721645369 -9.622029117167603e-05
-0.04215230205639523 0.015848063310610148 0.005607151175622897 0.008417887940811636 -0.0001828722946556032 -0.00031305208750999667
-0.035089363911015664 0.012943972903726791 0.005223689557504233 0.00801495440277241 -0.0011778853673303257 -0.00037977295201865565
-0.028090014534004247 0.01014460412887735 0.004673136659232058 0.0077498104310098756 -0.0020217661996481053 -0.0003750564473939299
-0.0210532939221638 0.007451893634565934 0.004029727131912926 0.007787899015730915 -0.002645618349713637 -0.0003308217400908388
-0.013802224593175412 0.004752137822321492 0.0034103433660916684 0.008295120960352365 -0.002969962531362719 -0.000163566935382336
-0.006735972718942223 0.0009490758672173263 0.0029962823577166834 0.007497547461765438 -0.0023223136478168925 0.0003708117565653456
-0.0033809261466081295 -0.002138598589421682 0.0032352819009745814 0.004709106000144371 -0.0015859795144437078 0.002622960466669123
-0.004624600915060531 -0.001239089731621969 0.004426154332841357 -0.0018687336352796351 0.0027581672976560597 0.0011445227262867805
-0.009382155925152952 0.0014017438722100227 0.004054071145891986 -0.002985077410701337 0.0038007033893192885 5.2182995002519216e-05
-0.020039534841411178 0.005737265748229403 0.004603475324944826 -0.003093561682810735 0.004857313446073784 -0.00013891724511341482
-0.03129770113100479 0.009334682251389274 0.005497471199953166 -0.0029791950865226645 0.004536870952464337 -0.00034082542463996274
-0.041840783128747706 0.012735394364716317 0.006471883979326739 -0.003020929219859416 0.003584660875502776 -0.0005132642232084111
-0.05224582751073764 0.01621810523429226 0.007326046781803236 -0.003181372585611869 0.0021571118853871956 -0.0006828173370736388
-0.06275859293433453 0.01975385386739634 0.007922306555203264 -0.0033410347306792355 0.0004208962338067877 -0.0008345706194132904
-0.07315488086684742 0.02385891670941877 0.008165968600567312 -0.0036958305375659594 -0.0012937189847043423 -0.000946887951258545
-0.08246866240306826 0.02601277946256259 0.007994067638941282 -0.003909544908786291 -0.0024056924130220043 -0.0008951550677778772
-0.09523339184708073 0.03931138050796072 0.00736653362613555 -0.008610465125319874 -0.0022975094293298487 -0.0005538493069686631
-0.10380428766240517 -0.008125849453975046 0.007084534782947668 8.442231091009499e-06 0.0002338557181115965 0.0026265867024871862
-0.09529832086261573 0.03929974980039415 0.007456755222586191 0.008628220513099246 0.002781434164153728 -0.000549985708025693
-0.08259986700787841 0.025989945745177125 0.008175580144404922 0.003930013186523141 0.0029365496073914645 -0.0008877294968091182
-0.07335318931477645 0.02382573201434475 0.008439351285971704 0.0037212280765879183 0.0018962027318234198 -0.0009367747225176105
-0.0630198870950634 0.01971153675449801 0.00828416086421541 0.003374282472109279 0.0002646777281541666 -0.0008238421969976915
-0.05255104110288758 0.01616801521132922 0.007762777854720843 0.0032266095826840994 -0.001403282117528453 -0.0006762799215804215
-0.04213660816258726 0.01267646392872242 0.006949590214359812 0.0030852189658631497 -0.0028284574353832945 -0.0005218091691206506
-0.03148727797429086 0.009257565697039477 0.005947911842437312 0.003068570138652659 -0.003929194456704994 -0.00038316471097892723
-0.020050729729253314 0.005636820895605223 0.004914458346338929 0.0031866379905264915 -0.004619125151697768 -0.00021256872269621868
-0.009276639242560284 0.0013521327140975437 0.0040891988440674674 0.003019935556835194 -0.003969677243157381 1.7179577683790783e-05
-0.0044983447113498805 -0.0010977589713899857 0.004135740008720121 0.0018428840219370261 -0.0031015617530511168 0.0013799165426271682
0.012833446895267398 -0.03281099268292086 -1.179069862577986e-18 -0.014857312824628124 -0.007926266675603293 -0.002803858436113554
0.016268604266313165 0.0016422671127686139 -0.002036026419198867 -0.006641820458310795 -0.0085525648428342 0.0008788172235323782
0.023797854240900706 -0.007285918968465936 -0.004611385035148212 -0.002373540415217599 -0.008022055923678946 -0.00021956880054758166
0.033195851919044055 -0.009119264448140691 -0.006560200433279617 -0.0025799630035198188 -0.007128331142187352 0.00015017891635029208
0.04399836739922933 -0.0125330072328955 -0.008461007180393647 -0.0025622981745527756 -0.005440602706780025 1.541203429969524e-05
0.054905834219772943 -0.0157200404404806 -0.010187308209312473 -0.0026277713823324145 -0.003254178707004899 -1.048422594221534e-05
0.06557973274446886 -0.018951289746478608 -0.011676484994772765 -0.0026885885710073963 -0.0005059691943928095 -4.919878173683664e-05
0.07596959374789743 -0.02215710490101049 -0.012819336755007073 -0.0028317117046560486 0.00252952809401869 -3.89863942201647e-06
0.08605323352320327 -0.025441943210372166 -0.013486279741420882 -0.0029753550899863273 0.004891395692508427 0.0003192737631259868
0.09482187332722236 -0.0288056983075168 -0.013635408870810934 -0.0023957376730932363 0.004469404535052549 0.0012264245242545675
0.09863742054059772 -0.030901622742878467 -0.013557718551608136 8.064491240924467e-06 -4.231286132052988e-05 0.0021764869592543756
0.09484558554578973 -0.028811539095860754 -0.013647570263538411 0.0024117408585517396 -0.0045492709503041 0.0012320073814958096
0.08610415910909411 -0.025454016169892756 -0.013513118857083237 0.0029907672651814142 -0.00495627373860645 0.00033024208763743443
0.07605608747016504 -0.022176408695554477 -0.012866492990308984 0.0028453077274176006 -0.0025667396266394354 1.1391362999758304e-05
0.06571849609854541 -0.018979991310997906 -0.011753918386254609 0.0026980992274993564 0.0005159815160301421 -3.1008580201415936e-05
0.05512765570664994 -0.0157628845192955 -0.01031226895993092 0.002628292615132993 0.0033411165965671224 9.608637550246015e-07
0.04436149150524165 -0.012599384349807629 -0.008659271299590389 0.0025521987674449525 0.0056709046526941575 3.149543490595329e-05
0.03379058318516721 -0.009225518659122292 -0.0068846880964901205 0.0025305197464194017 0.0075251197700056584 5.824628916736896e-05
0.024893441782292004 -0.007495052501929919 -0.005070811790872067 0.0022817953566329685 0.009058401727428372 4.3357012199925476e-05
0.018724762570104005 0.001192893629032329 -0.00287657921935273 0.0065861278556273465 0.007653651753341433 -0.0010367000148500036
0.016291023133838147 -0.03337667215616942 0.001228458562316382 0.008778859406648108 0.006465908620007109 0.005165533348506201
0.0076822934721495345 -0.028885869887291887 0.00153028896728346 -0.009534338598895206 -0.001334893612026095 0.0002627374344058733
0.008531945465324075 0.0009314828843010379 -0.0010753663180619278 -0.008283088550674073 -0.0028759876309515163 0.0007986881010410908
0.01405771941719124 -0.004994638163665845 -0.002925071800638743 -0.006521484715521685 -0.004892778115300939 -5.243830052674626e-05
0.022182060184508925 -0.0073348780607126515 -0.004462815544692461 -0.006771493156782999 -0.004102965577047948 7.062669726383227e-05
0.02929774863709807 -0.009933699477750205 -0.005807535530927251 -0.006973464939579555 -0.0030574402873052155 -1.1101986810783615e-05
0.0365691256641205 -0.012495004202293028 -0.00702651025224528 -0.0070118493509969005 -0.0016661807192082806 -1.3609792132870167e-05
0.043670513129572715 -0.015050244835826192 -0.008061364811510707 -0.007072195204811353 -3.278911536485816e-06 6.691907981458886e-05
0.05051738634666511 -0.01755142004732311 -0.008851336089615091 -0.0072609662500434016 0.0017829986532786708 0.00038423501755944736
0.05701171202533787 -0.02010448732788245 -0.009321876224029082 -0.007527979279565694 0.0031660818818782894 0.0013043974432201512
0.06252103229487795 -0.0231228013563645 -0.009451803884087376 -0.006176720054181341 0.0029179168423789856 0.003312063240023499
0.06489105045106756 -0.025789753893852328 -0.00941431016206146 1.1674047493016502e-05 1.6301841222152252e-05 0.005311581314938445
0.06254428359475643 -0.02312997371878312 -0.009456653800668919 0.006199709412939054 -0.0028778940792327685 0.0033132650647615574
0.05706134804716253 -0.020119172360417624 -0.009333968453169578 0.007549429031903476 -0.0031035357856334916 0.001305470806194431
0.05060070115697273 -0.01757442632300999 -0.00887606443153927 0.007278159380342737 -0.0016815884829659991 0.00038175379701636103
0.04380141729923043 -0.015083234353136401 -0.008108610253552185 0.007079605265496004 0.00016227771610230062 5.401788652643649e-05
0.036773803673742694 -0.012541802070197996 -0.007112603000373043 0.006999675178845371 0.0019096615440775562 -5.111936974914471e-05
0.02962154119592973 -0.010002130392236274 -0.005961038197118972 0.00692850009558856 0.0034148817675144928 -8.94575927259086e-05
0.02272169141766789 -0.0074374640257655975 -0.004719595165509241 0.0066584863476053975 0.004658214739349627 -0.00010682073817413354
0.01499647701139886 -0.0051983704357181915 -0.0033642962641136976 0.006232764576135168 0.005591831065859881 -0.0002119855213962749
0.009472307086863984 0.0008147919826020336 -0.0015637881289238408 0.007594342121091923 0.0030614298195709663 -0.0005814733145601794
0.008367325870873105 -0.02915061507071802 0.0015617228894016894 0.005659398486496737 0.0009155350033638017 0.005449079242456981
0.004259105804250918 -0.020863978876401325 0.0021671931838346983 -0.01258372385535541 0.00021166723172740733 0.005255296561096429
0.00376470005212247 -0.0002751605583513252 0.00011625556755161582 -0.014384914542399228 -0.0006574168330592407 0.0007898187269458854
0.005926170017662773 -0.0012920846950876007 -0.0012208789176268934 -0.01189592431290703 -0.001974355546217338 0.00024082268280512954
0.010697415724345287 -0.0035917775743244005 -0.002153760627326921 -0.01223359639033475 -0.00167690288647972 -3.3409737513688905e-06
0.014618567786010707 -0.00489621460446382 -0.002897702337265738 -0.012366181709522266 -0.001062794010067473 2.610240087376619e-06
0.01822968942600791 -0.0061667774424781505 -0.003533214080934427 -0.012414540835543298 -0.00035859887476546244 7.982792122534138e-05
0.021748752141589566 -0.00741842240749916 -0.004056508239229593 -0.01244427670560733 0.000455293010958986 0.00035131118160562397
0.02501311685153144 -0.00852992910903483 -0.004440534304434812 -0.012579484699676605 0.0013795693868591064 0.0010309113551061073
0.02815080966438673 -0.009623981569394252 -0.004657704839265195 -0.013016638251537227 0.0023922396343416183 0.0026271778213643082
0.03154199415852526 -0.012259550560031786 -0.004681878509757412 -0.01125847513842397 0.002658642891824366 0.005946447686199246
0.03335159688799439 -0.01695353014004555 -0.004597086992171585 1.7123672232513028e-05 6.829326126759643e-05 0.009785342338761483
0.03156444687129285 -0.012269321395664683 -0.004679199957743541 0.01129206200984916 -0.0025125298183413265 0.0059436656130847955
0.02819813946674773 -0.009643720174802733 -0.0046544254682547625 0.01304746833181214 -0.0022177667660719146 0.002619181217204831
0.025090736608204645 -0.008559974173790041 -0.004441450143435845 0.01260290771310394 -0.0011587041093580844 0.001011784754930858
0.021866835571919485 -0.007459292843248472 -0.00407045891902944 0.012450714946810335 -0.00017129244774169344 0.00030882353512212576
0.018407032865556974 -0.00622030376255274 -0.0035755897948311654 0.012387079136202727 0.0007204099590429306 -7.2199393199685814e-06
0.014890955339151133 -0.004966076933162222 -0.0029933940512390255 0.012277829933493765 0.0015175725170832898 -0.00016978256871180795
0.011138681546916772 -0.003690582439281364 -0.002342898496722938 0.01203247457289649 0.002241507001575396 -0.00028977471912302265
0.006489368168513765 -0.0014093693699137203 -0.0015477221590295964 0.011425432675137683 0.0025456713229182817 -0.0003348445850244025
0.004179875838712647 -5.636667753974116e-06 -0.0002650722058748761 0.013434105018002173 0.0007740951596655447 0.0002496874099885965
0.00451388399422905 -0.020859568434382934 0.001952476939083717 0.011493589888170338 -0.00047304730028692406 0.007364449046940409
0.001443679157682258 -0.013157936492904572 0.00251898203244522 -0.011898156825013538 0.000683385868341754 0.005761903507313008
-6.798123257582607e-05 -0.0007307882176601682 0.0012200930306566526 -0.015803816113301724 0.0006526125663903269 0.0014167422304548123
-0.0012133490650944852 0.0011118630064030966 0.0004957107378595421 -0.015026809646778175 0.0004082936365070978 0.0003574572713145777
-0.0005020916756909592 0.00021107957156800934 0.00021918737870695905 -0.014194036904334264 0.0005707655828832908 8.84271025491427e-05
-0.00012814904608109132 -2.0433443982542865e-05 0.00012017943973780349 -0.014192019178724485 0.0007666832103085712 7.577432412178843e-05
-0.00010221529018135049 4.954154391905131e-07 9.339956507440733e-05 -0.014223548446318103 0.0008700897028379782 0.00022460947095986054
-0.00014249404576892138 -7.775411826531044e-06 0.00010821314516193696 -0.014256926934831944 0.0009413828164388352 0.0005848884859673787
-0.0004166226573048683 0.0001731073634290276 0.00015469732128802938 -0.014158685285398636 0.001124377922008403 0.0013561451954898322
-0.0005930133757454338 0.0006242489916097205 0.00021030961011238175 -0.014611715538698927 0.001905303691047509 0.0030118511148748447
0.0011409843752372463 -0.001693133028485524 0.0002928980879056998 -0.014301501134556834 0.002945134662578883 0.0066295663791720765
0.0028197499561220577 -0.010593668893386995 0.000448253495202511 1.8619826529214258e-05 0.0001176460809145082 0.012563643583074827
0.0011624471870196691 -0.0017054387061904448 0.00030325866531277974 0.01433799877010606 -0.0026983831434239935 0.006625628621719492
-0.0005485600613039266 0.0005996430474586383 0.00022935950317123975 0.014645116438447134 -0.0016250002166659028 0.0030011896903290453
-0.00034598842958654644 0.00013645704884755747 0.00017848015559276622 0.014183753931706445 -0.0007913032220471664 0.001331932815072112
-4.008722104803145e-05 -5.5689815330059965e-05 0.00012915494985206208 0.014262772180078766 -0.0005424247099498653 0.0005335448192182241
4.240573302399652e-05 -5.76623326814485e-05 9.81137955561269e-05 0.014189866899657667 -0.0004025749918948334 0.0001202653696964995
8.277737198607412e-05 -8.945769523172384e-05 8.603867601371756e-05 0.014084402073739207 -0.00024187065662228257 -0.00012364332766041648
-0.00020510308921304265 0.0001281636765380849 0.00011068129147268971 0.01395261574623517 -2.2391581327316315e-05 -0.00027252698379599675
-0.0009109146488473182 0.001110837153934496 0.00028064548907383665 0.014542532284212917 1.9479870162566318e-05 -0.00022531909336893672
0.00012602349994134904 -0.00044395770597758485 0.0009333186047472853 0.015296210638144504 -0.0006168412980229035 0.001065230250897459
0.0015681179552192316 -0.013195862636254664 0.002276052689641101 0.011545210716980841 -0.0008944902989395957 0.007022693310066226
-0.0011106658259450865 -0.006829738757473734 0.002842449739413986 -0.00900856961101232 0.0011528433498748135 0.0049833640219754324
-0.0035734684746132474 -0.00027441822513132316 0.0022315801824846064 -0.013388026897238356 0.001861338178023882 0.0014447142756374813
-0.007880988989103959 0.002979691830556287 0.002174943865169795 -0.01383990765164201 0.002630495010107954 0.0003711599441038389
-0.011393618992358865 0.003821915373617576 0.00257662207522345 -0.012581416108409415 0.0028110917630714055 4.5477435522061955e-05
-0.014861213587796233 0.004899910460158312 0.0031337901373160687 -0.012321046078028832 0.0026164768778331646 -1.6416619140546774e-05
-0.01846914185728822 0.006167865434363047 0.003717345012642653 -0.012385657826178384 0.0021150665018258028 8.178582582979461e-05
-0.02200637715872402 0.007439976322361948 0.004271967341119916 -0.012415249271330983 0.0014573227264958915 0.000381874946611053
-0.025664044261054845 0.00868681909630598 0.004753446324606141 -0.01230432801239939 0.0008123523543408669 0.0009320494627817004
-0.029373308551946017 0.010752416175166386 0.0050782359692259854 -0.012097903280661482 0.0010144884974851792 0.002106444950562988
-0.029429241559435035 0.010208852680102859 0.005169798445275464 -0.01529499946877444 0.003134490368170251 0.004845575399436227
-0.027699502717003083 -0.006339816561225637 0.005321849884789583 1.7533117054915074e-05 0.00016805316504174553 0.013140456358172063
-0.029408729676726822 0.010193928554790371 0.005187938281742197 0.015329511352880828 -0.002784822451493724 0.004843382133428886
-0.029331679637446074 0.010722788977428127 0.005113292856135392 0.012129983217454855 -0.000625550192552408 0.0020996300422776865
-0.025600373345781535 0.00864332539095547 0.004802364180085642 0.012329558935813164 -0.00036341780394456163 0.0009146865070948232
-0.021919851928986617 0.007384797992633031 0.004328566142509134 0.012424120506766164 -0.0009384615904818893 0.00034196988031467133
-0.018357945315722015 0.0061051038818442935 0.003770205466414656 0.012359339428203485 -0.0015363079855023674 -3.5140006492576868e-06
-0.014720907428745055 0.0048335084372506535 0.0031630630829689293 0.012225704692485852 -0.002018143341290633 -0.0001889094548459613
-0.011233002503908464 0.0037684852398328903 0.0025517056567051256 0.012361587707000011 -0.0022777457137761496 -0.00027707935184928984
-0.007750559523054035 0.0030194748178358956 0.0020645436037907946 0.013499926543263747 -0.0023127660291849335 -0.00010129718356045194
-0.0034942962818172757 -7.341516036517226e-05 0.0020401466207924978 0.013170019455617913 -0.001873032224406882 0.0012028604500708684
-0.0010482796658572652 -0.006864023402130246 0.002632585408459698 0.008927167216464114 -0.0013268222798819753 0.005819494245440214
-0.0032683180688878404 -0.002711928284503829 0.00329755377944418 -0.004711036160998446 0.002066020004562444 0.0032348740226615332
-0.006816085263483933 0.000674460779268111 0.0031942583053168137 -0.007485005640073928 0.0034439091402499195 0.0009832334379870245
-0.014370737290795518 0.004768982399960648 0.0037784245010973445 -0.007983942394240214 0.005085713025009045 0.00033890644553094047
-0.022157365502226585 0.007444621659830896 0.004841474798229316 -0.00715798343002578 0.005278048724590387 5.360379472147989e-05
-0.029595864079379468 0.00997264005351703 0.006031414887702883 -0.006924198323071847 0.004657221609719386 -2.4770081280100816e-05
-0.036846795094733466 0.01252818439410545 0.007200387157981392 -0.006979519835850838 0.003485469591642869 -1.3934866138839415e-05
-0.043960416072549774 0.015074720492788315 0.008274772568874053 -0.007044361321287412 0.001968533667638366 8.769856974701389e-05
-0.05062595276756924 0.01763801126377773 0.009172533461864087 -0.006913587095742687 0.00042312914550061634 0.0003550773178651918
-0.0579369908868762 0.019911194330707 0.009766013770224348 -0.00713177861535855 -0.0009476983991964416 0.0005569186144389356
-0.06094356284591996 0.025259693723389785 0.009675237007221605 -0.009660150906052668 0.0019780192148979754 0.0018109215448232486
-0.05977823335301178 -0.0029798188609857067 0.009431292348773126 1.2159531836808754e-05 0.000223224653444042 0.009673038293169539
-0.06092375525800459 0.02524195877048583 0.009701186994973942 0.009684253198680314 -0.0015153588954421207 0.0018130564950937878
-0.05789757766371819 0.019876116881294325 0.009817124077188674 0.007154767943854353 0.0014570489007895747 0.0005598633688703933
-0.050567998718416524 0.017586904051607358 0.009246596317567607 0.006933038105076574 0.0001565388506372904 0.0003554957886447874
-0.04388716521642837 0.015010971143345363 0.008366835516560103 0.007054706719891645 -0.001310033748699083 7.868773914821777e-05
-0.03676559278287927 0.012458544053253192 0.0073006461495625005 0.006969453059342216 -0.002768843158970412 -4.626453455053139e-05
-0.02952154476932222 0.00990926583635259 0.006122364937990052 0.0068713902112748654 -0.003952478677034316 -0.00010812023363325676
-0.022114218211778263 0.007413856012263963 0.004895434011613498 0.007033722029269059 -0.004720940561464341 -0.00012205441775151252
-0.014373285863297459 0.00481736575690483 0.0037615406176652864 0.00781655844605777 -0.0048447419720801434 8.100838862119499e-05
-0.006825557173363102 0.0007952884800113649 0.003091485800007684 0.0074110366308901745 -0.003520366582290278 0.0008570762639148758
-0.0032618187771041008 -0.002708389372282515 0.00313981952604643 0.004693970788300882 -0.002263141639388628 0.003713390351675007
-0.004391108977402938 -0.0013130413787296122 0.0040011670809404175 -0.0018044100595206287 0.003949865167441184 0.002096505921677537
-0.009406758654406095 0.001207201346014626 0.004156602261093935 -0.002929113622247855 0.005932158032402312 0.0006835446742439689
-0.02085297522486007 0.005683119182924374 0.005255424530774709 -0.0028766212219721136 0.008255623556422374 0.00036787483991220535
-0.033087037010195 0.009300635190926845 0.006899758289092657 -0.0026083686047915877 0.00832377036420983 0.00015239381873168357
-0.04436195102164139 0.012562629785075085 0.008650914309964904 -0.0025502749305416515 0.007156659500819124 7.58256694030547e-05
-0.055221031505559785 0.015785215671214065 0.010343445787431795 -0.0026096354047877813 0.005152445433673247 2.458919530392317e-05
-0.06589515350774394 0.018941582407024222 0.011883890554440273 -0.002642877975136529 0.0025922340035886885 -1.3992324758868829e-05
-0.07605672425877034 0.022362722086235534 0.01315801312887409 -0.0027627018328968845 -0.00023932648228930085 -7.041569990020842e-06
-0.08443984387202316 0.024046985987696463 0.013994428121221779 -0.002844236381790124 -0.0031544709061250053 -5.147620393359257e-05
-0.0932529765159661 0.03379461274445421 0.013704336877665185 -0.006894641186934253 -0.004705972303348055 -0.0011149643495403047
-0.09855321832805594 -0.0012381671510291875 0.011443003561459882 5.837141934259557e-06 0.0002871980285849061 0.010285399712429366
-0.0932335820305175 0.03377541746863389 0.01373802481351506 0.006906330418919278 0.005300187366286757 -0.001110959660454565
-0.08440179945154301 0.024009053701312635 0.014061369065934087 0.0028557880331748576 0.0038058060590126044 -4.415480154754776e-05
-0.0760024038504881 0.022307575816113485 0.013256639194778002 0.0027733050493252585 0.0009767749888356908 1.8589266910186615e-06
-0.06583049371153465 0.01887307496198661 0.012010017483527228 0.0026503948486200756 -0.0017581780414808092 -7.085795756309903e-06
-0.05515998499571032 0.01571144358145991 0.010487947540087321 0.002609529467016687 -0.004248182646426142 2.2202914555413634e-05
-0.044335132634129054 0.012499876839399961 0.008796681341308885 0.0025329561664881664 -0.006276582379619365 4.941671548367436e-05
-0.03314042040603076 0.00927882438409215 0.007018682997061331 0.002561014645358178 -0.007661412096371098 7.953101087643026e-05
-0.02099215528686837 0.005734506556327846 0.005309916836596276 0.002807500657651122 -0.008058453761646859 0.00025688043864298946
-0.009529809120043135 0.0012974555404775831 0.004123685824302338 0.002894457804791308 -0.006181422940659515 0.0006342778433695794
-0.004464901641172249 -0.0012858783293145748 0.003904515494685283 0.0017761305309119488 -0.004360118595683817 0.0023860097966321085
0.013719693928183917 -0.05098663501341113 5.597193715456417e-18 -0.028884646807171656 -0.01190817427492768 0.015005709725930638
0.016518976615760465 0.005300161205389367 -0.0019113156476757178 -0.012831123634286562 -0.0123949982682928 0.000510301762076658
0.0230184387272034 -0.007188747239380492 -0.0050409683356684755 -0.006048939446874879 -0.012109052677933205 0.004209335933346219
0.032370437186831254 -0.008444860664530984 -0.007087156074181174 -0.006237796517017581 -0.010774413566174193 0.004567289482058577
0.043940711581629245 -0.012146906928009245 -0.009373775376964915 -0.005878952726195072 -0.009628423695337741 0.00627286116450706
0.05567472250053139 -0.015393692957468017 -0.011574355713851719 -0.005334091791208146 -0.007562573180988406 0.007735232379868407
0.0671198490364832 -0.018671987834864866 -0.013644426707198546 -0.004455622748607443 -0.004716864332227863 0.009237884508165956
0.077881891365849 -0.021817147243441255 -0.015455874266197154 -0.0032478996739693272 -0.0011496759050688477 0.01071443291443774
0.08691195164203426 -0.02454838120710283 -0.016823547942598147 -0.001690441999120701 0.0023275658605872215 0.012236554748329652
0.09266014286838752 -0.026136955300612885 -0.01757782400025865 -0.0003140933080465133 0.0033138154188945383 0.013872017930198866
0.09452753960543626 -0.02622717849459334 -0.017785505243815156 -3.847092411650302e-05 -7.96581774834129e-05 0.014987539875164161
0.09273059710433947 -0.02615940143258015 -0.01759442187957107 0.00023515401691102575 -0.003471732622310918 0.013875887634070291
0.08706640787766472 -0.024597467179275023 -0.016859359869409077 0.0016055128599718432 -0.0024808610941180406 0.012244225346240931
0.07814924286956691 -0.02190171884877919 -0.015516713334582972 0.0031528470941348656 0.001005994928790646 0.010726101158321137
0.06754819197001044 -0.01880612484324126 -0.013740137139576383 0.004346640053214606 0.004590178429065326 0.00925197327504139
0.056334881462701186 -0.015598839944891448 -0.0117229028137898 0.005205811685158062 0.007469150358480623 0.007757376151669837
0.044932777189346976 -0.012447715880510612 -0.009597078933144798 0.00573192366387426 0.009568667847845921 0.006274981630493396
0.03382884214713351 -0.008876969803090558 -0.00745950036177039 0.0060296414285522975 0.010843339535189716 0.0046842103402320884
0.025374681827748994 -0.007808905518040168 -0.005487197236520394 0.005796896362389994 0.011919449556253743 0.003821091246679222
0.02159035011149502 0.004438584574166237 -0.003275913788454873 0.013313238894414383 0.01593818769545896 0.0028072117139812816
0.02087937562189242 -0.05380655199250057 0.0042945860855233015 0.017362287733815825 0.020876658879014427 0.005820072750804503
0.008427272867946303 -0.044262951346551324 0.00356191363240884 -0.018539850252441824 -0.009838720552062453 0.008625896243634074
0.0076106007653966 0.003539461882475983 -0.001249983687619202 -0.015361876816335187 -0.008238258860225367 0.002587290379367389
0.01215116278833328 -0.004409403140802027 -0.003260016871566459 -0.012781462481885197 -0.007474723586776125 0.004535508592160815
0.02110447772706311 -0.0067732280815395625 -0.005040341797270181 -0.012945356981894543 -0.00660893340176389 0.00588153781046307
0.028656832247685584 -0.009556966163812085 -0.0066715614778807735 -0.012654164157147344 -0.0057352232039166165 0.0078030863226375
0.03647603240009489 -0.012208066931924765 -0.008287563106950745 -0.011623041246185253 -0.0045194438286118525 0.009719218908776354
0.044073889477849654 -0.01482298370207092 -0.009783621979464942 -0.010098945500699725 -0.0028279138072760204 0.011646348601283402
0.051217637853879984 -0.01737561625382901 -0.011087403891107048 -0.007875846914464722 -0.0007401039624750157 0.013635309892667185
0.05724054981686908 -0.019586600047966498 -0.012078743816739564 -0.004652238504801572 0.0013161618328132354 0.015899362352704834
0.06112113256967825 -0.020550825325033474 -0.012674119121422555 -0.0012244632031308666 0.001962849600923141 0.018739497605264444
0.062405380299699345 -0.019802785878580094 -0.012898346267668592 -6.859229593198716e-05 -1.908151874351859e-05 0.020942327308435156
0.061195206310870304 -0.02057417939063638 -0.012687722903393926 0.0010829103846995674 -0.0019972132556775805 0.018739903675909112
0.05740109484438832 -0.01963725963443724 -0.012108619716096522 0.00449736162996901 -0.0013390029189719605 0.015899655800221617
0.051490502180134616 -0.01746173745256918 -0.011139322675670079 0.007697962030728635 0.0007366232807963309 0.013634389868876488
0.04450041020996644 -0.0149574068337572 -0.009867882714593983 0.009887262773623107 0.0028525582950408505 0.011641939652097547
0.037116176642805684 -0.012409813896873989 -0.008419726896011141 0.01136551778944335 0.004578012340777024 0.009709571178462393
0.029589418224443203 -0.009849487142830416 -0.006881963971102692 0.012338230781716515 0.005842535047663668 0.007777975444590275
0.022451892940478335 -0.007179353186474327 -0.005353081291650367 0.012518855070082857 0.006718315805648133 0.005876417260180534
0.014084834395160468 -0.004971120576423023 -0.0038118477155367563 0.012123190118926572 0.007783972747940825 0.004358907654290768
0.00935641394381837 0.0033157506141563847 -0.0017548116729220215 0.014489466908195007 0.00942091302745193 0.0037110782967877216
0.009645729191703362 -0.04643486784523641 0.004425493965982957 0.011601694802063259 0.011649473838112843 0.0035035414251268016
0.004345453531151908 -0.030798580458416363 0.003894806568870177 -0.021766937755150737 -0.00599104828897925 0.002856890188444851
0.002551832577946587 0.0007385914526547691 0.00018664366263778103 -0.024952729715225736 -0.004688621605831734 0.00402098372814751
0.0037758462683073323 -0.00013768856687508053 -0.0014075440512657286 -0.02176462650304069 -0.003694786058369112 0.005178247089306612
0.00923078442376192 -0.0030547883731735555 -0.002442779048863132 -0.022135496997986392 -0.0029963315832508323 0.007501368168957825
0.013683391634727081 -0.004530344430254049 -0.003340106214303407 -0.02138371121536111 -0.0024505736118894395 0.0098999358696956
0.017703356852745544 -0.005915109879278541 -0.0041904141707715635 -0.01973819138111769 -0.0018545304489700398 0.012419527800010892
0.021663704493425442 -0.00725606921485335 -0.0049767629175883656 -0.017291381679483114 -0.0010547470715144332 0.014962111770803243
0.02548807876499893 -0.008662427009472014 -0.005656080249579405 -0.013735524821872975 1.0257349823464338e-05 0.01764410406570639
0.028753763892157433 -0.009921451041163007 -0.006189456340983289 -0.00824902949939234 0.0013640424440577018 0.020802242245326244
0.030430618687405434 -0.009478274614894084 -0.006582847523970204 -0.0017803884787868643 0.0020849733318908455 0.025114135250145483
0.030728576676165756 -0.006277877402145553 -0.006838056621537692 -0.00010961129163210997 2.9327145528689643e-05 0.02917394000929222
0.03050576412546824 -0.009503079886576575 -0.00659309670320829 0.0015538935987010282 -0.0020205282954431857 0.025111872444104132
0.028915095188677187 -0.009974552300030096 -0.006212379422960782 0.008000288503807433 -0.001282515027799836 0.020797038900239647
0.025757882900588665 -0.008750732329883156 -0.005696955318883372 0.013448134187378677 9.866066802782218e-05 0.017634325773958976
0.022076150236226062 -0.007389927391100059 -0.00504448511959132 0.01694636260832509 0.0011986533444756592 0.014945111744811357
0.018305136221327508 -0.006109609769930266 -0.004299495054897703 0.019313190854635266 0.0020363315044790277 0.012389388776020938
0.014532624778553589 -0.0048029496860583195 -0.0035119162935154224 0.02085083980664346 0.002660992138571564 0.009855762097583123
0.010385903076729295 -0.0034183414956499357 -0.0027141170356015532 0.02142360080116384 0.0032132205537766835 0.00741342228341344
0.0049767687181039195 -0.00046240234027826276 -0.0018236760033020884 0.020730124329583134 0.003995626932449184 0.005197687406894799
0.0033541419607595515 0.0011712896481653095 -0.00017716086007962337 0.023573699014374568 0.005134203439937704 0.004082727953245933
0.004869701879623821 -0.03212446821257717 0.004077393483725876 0.02057468533593338 0.006574027995988693 0.002730468711874253
0.0011677508631657316 -0.01846815682442384 0.0034783475984540096 -0.020128934557114446 -0.002702620791891754 0.0010074654470521244
-0.0013316082682440357 -0.0003915298930839813 0.0013528457329339892 -0.026388205267092773 -0.0015312358812692678 0.0034919882209660407
-0.003344068834426307 0.0023350291618759425 0.0005009831962024766 -0.02649408624223796 -0.0002415283611733898 0.005354034700261943
-0.002186403441228504 0.0008993679461025275 0.0002855713152636904 -0.025293094624962313 0.00040146880454875985 0.007887953088460013
-0.0012680276955850573 0.000381997189299833 0.00020620931920671898 -0.024253281365602453 0.0005916556723664383 0.010507984831169844
-0.0008556690835183629 0.00026850558736620195 0.0001598018507060029 -0.022373556840021555 0.0006435204471268682 0.013179128319106344
-0.0004733877178116053 0.0001588892338588138 0.00012873692017184132 -0.019641722119247817 0.0006905766377117767 0.015909390133619652
0.00015872652139194414 -0.00011225718598137171 0.0001084583664552154 -0.015801121981556376 0.0008701654438214947 0.018753279228162164
0.0008671491925643304 -0.0006372653170750949 5.869503734914832e-05 -0.00951751344823733 0.0016845605327805377 0.02201507932231647
0.00019901789465700225 0.0011587804813695311 -0.00014330620347068531 -0.0005896183565589601 0.002738431569836014 0.026695874381263293
-0.0007447766223097542 0.008933714730108717 -0.0005265007742031686 -0.00012306831469224822 7.283066793070154e-05 0.03272784956623738
0.0002741473669136264 0.0011329978120082677 -0.00015000867703829774 0.0003350938123130396 -0.002585116462170341 0.02669278557673544
0.001026959658209656 -0.0006919101763956735 4.321987622664977e-05 0.009237332453168988 -0.0015089216662276539 0.02200813009502413
0.00042169978901907966 -0.00020157087550355183 7.979892483080155e-05 0.015476408897645878 -0.0006598813883969334 0.01874071060722169
-8.109878013750585e-05 2.6856824933315033e-05 7.955737862176945e-05 0.01925030840472344 -0.0004386940026847751 0.015887760938347047
-0.0003025650359308388 8.317491505711871e-05 7.897799279199736e-05 0.021887659068491768 -0.0003539143797271825 0.013143159305263797
-0.0005213716477176348 0.0001312503993144357 7.697056734078556e-05 0.023634597142725682 -0.0002872910678218466 0.010448459440112134
-0.001293376082487071 0.0005953066052905371 8.197055931535909e-05 0.024484297331648138 -0.00011820883280925731 0.007805437172492865
-0.0025883126177845173 0.0022487344688577695 0.00021121877612329828 0.025473544287373806 0.0004755329167375658 0.005308669780815196
-0.0008985507798625565 -2.245789314708589e-05 0.001088633636008473 0.025787157907469382 0.0017276076694325005 0.0035898023896130736
0.0014569570282516283 -0.019390313738035448 0.0034950124860031245 0.019936720632529124 0.002946711310100031 0.0015790606786591542
-0.0016384861783809634 -0.008848515299664687 0.0030410588511310707 -0.015298097639550782 3.967606868374396e-05 0.0007954939987460063
-0.004857806433072482 7.99484851810641e-06 0.0022780646803726387 -0.022191161281130547 0.001434580841586302 0.00270948866946458
-0.009931647979933473 0.004146133303844068 0.0023459988524493366 -0.024378473868283512 0.003254530898007618 0.004949783554425047
-0.01319022990096902 0.0045766952730060435 0.0029938534507220893 -0.022720778788067227 0.0038605033263129423 0.007431248827387488
-0.01619781688172812 0.005355527879250714 0.0037519766870480415 -0.021403757249136273 0.0036757810516233475 0.009923020741023896
-0.019430819031174863 0.006461087502393059 0.004508601390344784 -0.01972541786992862 0.003155050937415249 0.01242168950561757
-0.02262573270485829 0.007542330251352971 0.005232670216949683 -0.017320579699977013 0.002483065690485651 0.014989058129241317
-0.025292099374826953 0.008572748948499766 0.005879730750805467 -0.013899247798152922 0.0016843905123572526 0.01756733878741062
-0.02693301199531252 0.008665285178154477 0.0063255471741911415 -0.008834579428887811 0.0014993153721593068 0.020319005945827924
-0.029931739680125375 0.01056695184691905 0.006264910210360288 0.00227100922495561 0.003064693082522317 0.024128403863423152
-0.032372146473347435 0.02670115745276014 0.005491680088048582 -0.00011077410474620878 0.00011729903011612794 0.03199574327073912
-0.029856305035290243 0.01054014182484618 0.006261745339141791 -0.002500228045044185 -0.002820374703937577 0.02412635072218419
-0.026774111172616993 0.008608985657699388 0.006317540831535284 0.008581945120948124 -0.0012268561907924486 0.020314259049487464
-0.02503510822538596 0.00848218041343495 0.005863364864392536 0.013606133747841823 -0.0013690372792025255 0.017558378057146978
-0.022253093964051066 0.007411840660545203 0.005202332449106436 0.01696705487788859 -0.0021183762245556856 0.014972980962589127
-0.01892776456909933 0.006285591397268982 0.004456338275597458 0.019284927897604227 -0.0027513519956837524 0.012393422806741473
-0.015570591396596894 0.005131709542555014 0.0036668969040567767 0.020839518981304057 -0.003271250223932388 0.009875798697558691
-0.012530784627648037 0.004351770143809661 0.002862236681696363 0.0219995702285021 -0.003526620655388586 0.007367215557363747
-0.009448920400468012 0.004125756549263531 0.002164898377920187 0.02367948092157521 -0.003067812822756878 0.004906706964954771
-0.004613948333353231 0.0002223001885809856 0.0021069290403857898 0.02202560743731085 -0.0013584307504982242 0.0028296163070690526
-0.0014805783056844077 -0.009379069660439516 0.0030135308685959312 0.015407461395671052 4.296258295357605e-05 0.0013300571521795434
-0.0038512795302366636 -0.0029006400537422076 0.002918478165223427 -0.008470125792937929 0.0024495518218981666 0.0011657295477819148
-0.008005778053712572 0.0010836341430671358 0.0030835563553092415 -0.012785357145227643 0.004467585857103614 0.0019450648639285173
-0.01628308909939875 0.00575994959756376 0.004044863052054082 -0.014645740925545667 0.007124617785970196 0.003889098977719494
-0.02406289513149119 0.00816126725917815 0.005533792743169874 -0.013619146109561182 0.007695276525376482 0.005868342501965496
-0.03124403196074569 0.010428594042772965 0.007084890796053717 -0.012677959728697853 0.007062671719735295 0.007796574729549425
-0.03823460396183893 0.01278160955030419 0.008598105225110899 -0.0116231766309322 0.0058802385390900715 0.009717322043191114
-0.044994717860423 0.015108904952956073 0.01003462137707552 -0.010129353992282113 0.004337348897944812 0.011659869520284883
-0.05141876901635707 0.017256248591889695 0.01132764289694912 -0.008116029186218714 0.0025683665286787183 0.013631617971382461
-0.05554980090501557 0.019361649382239193 0.012280126442673456 -0.004709225714152244 2.675004099977912e-05 0.015277379546376112
-0.060254459728970304 0.017694637805951763 0.012293565284250546 0.00239380725194958 0.0011966495253861666 0.01745676427424871
-0.06393948935686768 0.047137872953705084 0.010501460241550164 -7.008568921669208e-05 0.00016869364231633047 0.023199767550195146
-0.06017685035295253 0.017666091293931326 0.012293733986398669 -0.0025387936533684983 -0.0008469120776734647 0.017457412725416437
-0.05538802639910353 0.019302313379488623 0.012279119252215623 0.004549602788279868 0.00035862692876103555 0.015278337905761538
-0.051161968732697155 0.017162438715998075 0.011322681239631661 0.007931341990192953 -0.002129109565306805 0.013632035175785514
-0.044633555099240996 0.014977584591554035 0.010021426368517765 0.009907696392319382 -0.0038373276124593057 0.011657962922374856
-0.03777412222290311 0.01261374867399266 0.008571195619982834 0.011349269101251256 -0.005335367808689402 0.009709807002912841
-0.030729892904023646 0.010238699539529392 0.007038603814252736 0.012329762609011823 -0.006530497626032064 0.007779374964230626
-0.02360886698214249 0.008009031288534852 0.005463338020314175 0.013197458937754356 -0.007291311128229651 0.005841943462258628
-0.01602208708457126 0.005764982522811071 0.003949246867659122 0.014305705114697118 -0.006970624502998281 0.003877806178452366
-0.007917724893486107 0.001199405158897791 0.002989391622731363 0.012782072005784172 -0.004497446921288408 0.0020302931220742286
-0.003811417284086049 -0.0031094654972733385 0.002886071109212741 0.008581785424067751 -0.0025084877101921458 0.001512318610897124
-0.004364069585376225 -0.0009826699198615364 0.0033315587420182885 -0.004176333159318309 0.004903959707711762 0.0014069469141518185
-0.009906471902786814 0.0016697984571832167 0.0038553204506410607 -0.005988905937112937 0.00793332575026937 0.0016267711149098453
-0.022396799350988657 0.006543009002717853 0.005431839076269863 -0.006733247077443306 0.011771630459192607 0.0032297505721381623
-0.03525897836396224 0.009975861112348248 0.0075812106631001994 -0.006473994518286502 0.012290073279096425 0.004806756392870712
-0.04663353437940602 0.013003790166537355 0.009755210028286863 -0.006020021094602867 0.011078073767497629 0.00630207578441169
-0.05746401533880547 0.01598583412273025 0.011872596547596308 -0.005400973946259264 0.009044048080069256 0.0077816656253916865
-0.06800767725517386 0.018989086731353584 0.013891860168765289 -0.004589284134221994 0.006384957287773365 0.00928237528315962
-0.07801191890271311 0.021533253669544415 0.015703032038443795 -0.0033639693273953795 0.003227608508078914 0.010654864192553525
-0.08751508625017751 0.02533628096751509 0.017148953190045658 -0.001646184788511959 -0.0013070648345796761 0.012280112270696093
-0.09192460487754694 0.020564786761138626 0.01722974726208821 0.004575047915703338 -0.00949078461855274 0.011028389817773328
-0.09164118686390069 0.05791822200383165 0.012993120064935224 -4.5286433367220866e-05 0.00023456723823013156 0.022743698829355122
-0.09184104053416292 0.02053509698664742 0.017232888831902708 -0.0046686031358154105 0.009975935335594845 0.011029713250463407
-0.08734280667595223 0.0252748876012479 0.01715405346354244 0.0015437535893993984 0.001838426852239797 0.012282381806340137
-0.0777435663703331 0.021437083457526308 0.015707620454266526 0.003246959360032063 -0.0026264267491040907 0.010657221796284677
-0.06764153768215023 0.01885636746981131 0.013892080802158802 0.004452566861109731 -0.005705050608336548 0.009283266103078487
-0.057023877479986364 0.015821096074565614 0.011863608082039396 0.005240767167641457 -0.008306314784042946 0.007778784658494959
-0.046206872562835594 0.012831121759544067 0.009732776489874882 0.005834598252820887 -0.010362046371071637 0.0062938595278591745
-0.03500920192086943 0.009860081921473253 0.00754322825314128 0.006276844832754345 -0.011767074580066511 0.004796501011442398
-0.02242060271388166 0.0065673899305612755 0.005377260728017038 0.006591418669634554 -0.011643815342304853 0.003236361426372817
-0.010043108200915803 0.0017596315121554053 0.0038023132280975876 0.005997427823092184 -0.008123536396044033 0.001685327573610225
-0.004477290729855337 -0.0010556664225564996 0.0033231717107563875 0.004210195814637822 -0.00517176720400923 0.0016381720846395718
SCALARS Stress_vm float 1
LOOKUP_TABLE default
11088.677428867271
5085.961955422509
5500.550273335503
7613.0191137767615
10157.256116114837
12724.658209786005
15253.74461265257
17656.17489011386
19694.74060813335
20962.116185747404
21294.199355616205
20978.32952185063
19729.232936782257
17714.766999963642
15346.73353719471
12867.557583847138
10369.905643410471
7924.851436355826
5960.500745795844
5988.0226809153455
11982.263702114762
9413.82837831704
2961.2772092860196
3917.48700431184
5611.423345865368
7313.116847750178
9036.313209818674
10749.183214716797
12398.693882950973
13824.850047640131
14707.06111007105
14872.187362744198
14721.883262605794
13856.390921589438
12451.882052421352
10831.904739925174
9159.174892658917
7488.153834538621
5847.014979844625
4188.293052681106
3130.5930153008485
9792.253991795471
6940.134965092029
3664.503262963452
3611.775114929356
4257.958073359261
4946.533943667493
5685.018157707619
6474.3658112631965
7316.660607934924
8115.884041836001
8525.69643057779
8378.193139508334
8535.671147241736
8135.759083173203
7348.971977213636
6522.4597383859555
5750.825856309281
5025.414680167832
4319.58837911443
3583.373374553512
3432.983603801187
7121.783886031658
4736.5067471794955
4027.767163634674
4209.284929481994
3974.9878622303017
3868.4041516303932
3780.039814066856
3833.218457067203
4155.468545160197
4839.145782806127
5379.700867503833
5091.886845542964
5372.431527170776
4828.455965343227
4133.0926327149655
3789.6708770394216
3706.1238266013656
3757.179251778518
3815.468433465765
4007.2665347012353
3903.9000105615055
4853.073976755183
2945.3745657412055
3627.871526325916
4586.542167265438
4889.200762720582
5368.460200618655
5985.402900017039
6643.387346141525
7235.936631992066
7804.385217537811
8784.349701686524
9981.277402340242
8765.733789314507
7766.1597349669
7172.334607827834
6550.6396830569
5857.964806162754
5202.244008183452
4696.3055566038365
4431.802875688587
3579.061144408776
3007.2440251007342
1792.3823712903927
2860.453963880674
4792.937864511161
6360.09929478349
7871.552760516611
9419.408302337197
10958.740721367285
12416.447679782656
13541.335317113799
14624.735676671422
17213.392677210933
14607.571087229786
13505.108935952052
12356.147146761923
10871.79878784841
9304.76504800002
7737.037139340018
6234.470766333407
4723.43144446041
2849.135497581998
1810.9161554228917
1547.2524784312463
2756.2879250135284
5620.336497194827
8349.229097287047
10776.583785346484
13139.225681062497
15470.758839854507
17680.742036666903
19813.127348709466
20993.861231836378
22917.295614133982
20982.034047583755
19777.128849381774
17620.64243746095
15385.07637015844
13031.105037739211
10663.818233263946
8273.169217420413
5620.900358874327
2792.380420271839
1584.0154005509867
7229.373221741038
4270.039767890721
5461.139354945358
7605.669250339767
10005.913418844562
12423.531540600974
14797.720942119537
17105.76869137985
19344.369818805677
21344.355939604447
22324.367801965378
21350.513652664944
19357.136042211223
17126.871662469628
14831.194600194449
12477.202343363397
10094.804298742212
7753.731037326796
5746.647320138882
4626.205646993626
7579.598883176072
6123.968714255555
2325.144705688646
3695.450238315355
5407.334325589166
7076.067672493342
8746.253988661905
10388.700064023255
11971.358701655177
13498.641877269345
14947.141669401646
15813.083110641926
14952.23764203884
13509.57212425941
11989.823851023513
10418.0147509371
8792.597123785465
7150.155696004431
5529.742796333248
3877.2595688233946
2459.1143005863146
6236.918262036575
4676.592513192134
2159.726765281898
2513.8946533421276
3352.0765837870435
4198.299204395876
5039.419434367684
5864.225375961321
6628.183898702967
7416.5211176745515
8558.288584633214
9726.229949419905
8561.950975686857
7425.065688577969
6642.5893110360075
5885.809745830638
5070.847984948057
4244.420495878538
3414.1506505532734
2562.94953650797
2043.7033330893053
4682.345442534433
3302.701329378438
2400.2599766113635
2323.932455443224
2159.584678485479
2214.078610119007
2375.19162069353
2624.5899429129163
2897.3610654490285
3172.4095021717617
4067.0184186903025
6383.275743411416
4064.4637370405644
3168.2097538660264
2894.771590866752
2621.120921664344
2366.442615236266
2191.5168964405384
2111.0619213790205
2225.722600139979
2290.062469839512
3317.101716911987
2148.0624194955863
2300.6503878326926
3030.0926187588634
3556.6450722670365
4274.265808180873
5095.753128358735
5933.730389909869
6806.0700821498085
7590.67340915821
7644.5467950248885
8298.270467872695
7638.40756963051
7583.27972391124
6795.33964563257
5916.534172716074
5069.066102653288
4232.937225600228
3496.411292129406
2962.790743109926
2244.6952273836837
2167.730420785316
1487.3918010133941
2146.957710879741
3877.3431910058475
5532.686578342341
7168.624798891702
8821.107634502892
10461.67041288764
12046.585672099545
13607.78486266745
14416.55171546797
13599.79945042031
14411.790149606539
13602.174736285508
12036.61882472638
10446.516255478937
8800.161532950162
7142.826667071982
5508.129858348041
3865.786104081943
2136.940079933838
1495.4948762961712
1522.659960462334
2471.51570504175
5029.885826143938
7664.639283033187
10115.617094576666
12510.495674776757
14876.852899955928
17161.111011711793
19029.070759839182
20893.333089623553
20892.293610167704
20893.431253992723
19026.50223315982
17154.079149155816
14865.380577777596
12495.318429142057
10101.621283115988
7664.212671199522
5056.804534843578
2506.8963582042848
1553.3350559249727
6713.484444248811
4238.786066716065
5264.3253011325
7318.761473469606
9601.441918809789
11865.302035609257
14116.66518566164
16455.888324368705
19088.96888194396
21884.58488210787
23399.2620797906
21879.066698651313
19076.96842450229
16435.673899254045
14085.4471238158
11818.85599948332
9533.461095327706
7222.614567886938
5095.360236700035
3916.3867490927396
6166.3278414310325
5249.116863830308
2231.2179881973157
3662.2498050764916
5303.3439415773655
6877.4431628655275
8441.219425282337
10002.246978809475
11610.331818152425
13422.807827913388
15477.84357179244
16819.86976944953
15471.379429551103
13408.54846744109
11586.823743568037
9967.694472040997
8393.072680760326
6812.83391314282
5217.941441001219
3556.7134177759863
2229.8901739675566
4983.02349752716
3779.0997953768187
1927.8394837562103
2531.8912932568173
3405.1296460317963
4198.684825609693
4974.452484441297
5742.42733585075
6490.570313984098
7466.0773943934
9184.469934686356
10959.645766419279
9180.068858371289
7454.1383943416395
6470.241575290416
5714.221873080987
4939.083459156025
4158.096771425362
3369.209679121179
2540.5687156475665
2086.2037627847817
3712.255999680679
2728.2069627149995
2231.0186332031863
2247.536941316544
2211.8720554481897
2285.123394960582
2413.616467976792
2605.2447512796693
2833.8215088866887
3224.399075451361
4197.386887319907
8353.590300166814
4197.502875243577
3230.417884905751
2842.6295541559116
2618.7429995797856
2435.272348545581
2321.2835084799035
2272.564459982794
2351.0261672113625
2309.3171482732055
2665.3225321971095
1880.9740578337176
2213.208318934545
2890.437425328415
3368.6893796166664
4057.1316124602245
4861.345360709933
5716.197899600462
6698.222905526695
7718.193616241791
7699.427970337704
9338.946545591496
7712.768258777504
7742.337504837721
6735.333564165956
5766.923048757514
4925.397991263462
4133.7861589299355
3452.043044622019
2954.945878030057
2225.2335455376306
1811.3361490542152
1438.7769292548303
2085.759677254589
3679.3332526948084
5185.101714313024
6723.735432099293
8320.937332527239
9954.212360548285
11621.333189472543
13464.929268824337
14642.466974042503
14362.264184226216
14656.058649386265
13492.716404723269
11663.369123974027
10010.284774544558
8388.069600547495
6794.745050833658
5244.081491509265
3704.7003814894265
2073.4318448638105
1369.1700863292976
1506.7471778919423
2361.5080566601087
4730.50676881201
7155.375297712028
9454.863378869035
11750.51282068424
14069.632717028197
16401.049450467144
18418.195705801296
21285.93593423171
22539.96502957419
21302.52663049944
18452.203758977917
16451.889039053513
14136.436169085066
11828.318812021062
9531.429709260718
7208.363168566352
4743.472251403606
2353.8613114706086
1460.6223361998868
6721.295891571563
4235.780293449408
5176.576378167354
7171.145820377691
9415.14541506803
11644.17979977991
13883.89250388128
16276.52359968612
19062.77911390878
22077.036013480356
23718.278130735423
22066.71862411152
19040.46233257444
16238.966539223167
13825.25955569705
11554.315344647855
9277.782654150818
6962.555358344188
4838.631063681583
3677.740040434493
5862.4574513542575
5173.453048001311
2205.43218364409
3624.877861537301
5229.013831094057
6777.486413194269
8322.330982732608
9883.991898287475
11539.138979903799
13463.731470589666
15665.71224321569
17101.7292172669
15654.697080387768
13439.397285188657
11498.592291505513
9823.045701579147
8234.09760893814
6651.91374096697
5052.343273836447
3407.375354339559
2105.3103375932187
4735.632481792128
3671.7155810427826
1812.7857870784894
2502.4213714622915
3380.864744997451
4169.090871243615
4938.389817477417
5712.9532324664615
6497.8059964724
7552.173022821915
9363.562929012674
11215.652887333761
9356.332917179592
7532.720570836367
6464.390520159241
5665.661577406492
4876.807119429201
4093.4354541699468
3305.2773266230256
2485.594461757331
2020.5416291797837
3475.9336130773563
2599.442622795152
2124.4313314149026
2193.31823497753
2211.4976298635106
2311.414649512574
2454.791598454303
2665.6903744655424
2939.497048750395
3399.0694348719207
4088.3009176142787
8780.716959293
4092.209341935696
3410.713026469337
2955.33827401073
2689.1909164604017
2493.0538075715885
2375.2666869669847
2316.074174144591
2362.280644262415
2253.377262861643
2432.2974608851805
1758.0006683810002
2119.1283637285605
2790.4040021091887
3272.3304248322856
3962.03795532569
4769.497666519442
5642.444996775105
6673.644539936766
7782.283788568738
7831.369242961753
9432.531635927318
7851.052067565292
7818.453818329287
6729.59383246193
5721.104032274283
4872.929847874545
4091.941523165725
3420.586643181935
2910.654355204031
2153.964292323529
1600.7198165928828
1348.4311221203482
1972.354696936734
3540.297815744969
5028.271339156909
6548.977933346599
8136.506849699425
9783.030102877776
11507.11314044217
13474.12402246027
14773.454543155463
14367.313206176268
14793.457567145144
13514.60359391125
11569.176781077205
9867.770810641015
8241.10245989886
6663.973786720214
5128.664067450513
3587.200744449526
1958.202321418883
1216.6540195554333
1367.2001106155
2179.3033680041167
4529.417217773025
6928.0428343932535
9192.32595720384
11461.330037964764
13781.1387987327
16177.30397879257
18342.554033664106
21440.024512321823
22642.543432824412
21462.567220309837
18389.737647986418
16249.627539830693
13878.571630680844
11577.822040098348
9309.934990340651
7010.6986631706695
4543.807857844624
2148.040367894559
1260.5033116501204
6713.484444257209
4238.786066723035
5264.3253011381
7318.761473471853
9601.441918812501
11865.302035608529
14116.665185664493
16455.888324371797
19088.968881946643
21884.584882114475
23399.262079795666
21879.0666986569
19076.96842451141
16435.673899254863
14085.447123815355
11818.85599946833
9533.461095321616
7222.614567881671
5095.360236695076
3916.386749087392
6166.327841423395
5249.116863833813
2231.2179881999364
3662.24980508003
5303.34394157978
6877.443162868137
8441.219425281864
10002.2469788119
11610.331818154762
13422.807827915547
15477.843571797832
16819.869769453235
15471.379429552724
13408.54846745088
11586.823743568248
9967.694472043848
8393.072680751617
6812.833913138668
5217.941440997269
3556.7134177718067
2229.8901739649295
4983.023497520866
3779.099795378127
1927.83948375572
2531.8912932575786
3405.1296460330914
4198.684825609686
4974.45248444222
5742.427335852212
6490.57031398472
7466.077394397948
9184.469934689227
10959.64576642032
9180.068858371678
7454.138394353133
6470.241575291495
5714.221873088909
4939.083459153612
4158.096771422259
3369.209679117469
2540.5687156438285
2086.2037627819964
3712.255999674942
2728.206962716237
2231.0186332032126
2247.536941315614
2211.872055446049
2285.1233949601083
2413.6164679790145
2605.2447512795143
2833.821508884464
3224.399075457234
4197.386887319177
8353.590300162992
4197.502875244525
3230.4178849158734
2842.6295541552636
2618.7429995889875
2435.2723485468473
2321.2835084781573
2272.5644599790658
2351.026167208316
2309.317148270181
2665.32253219238
1880.9740578346796
2213.2083189354794
2890.437425328447
3368.6893796152312
4057.131612459682
4861.345360710284
5716.1978995986765
6698.222905524852
7718.193616241217
7699.427970336005
9338.946545586465
7712.768258778628
7742.337504839268
6735.333564163851
5766.923048760539
4925.397991254466
4133.786158927932
3452.043044619183
2954.9458780265545
2225.233545535082
1811.336149049847
1438.776929255469
2085.75967725517
3679.3332526953704
5185.101714313257
6723.73543209841
8320.937332524585
9954.212360547554
11621.333189470057
13464.929268825807
14642.466974041912
14362.264184224021
14656.058649387156
13492.716404724311
11663.369123970097
10010.28477454324
8388.069600536899
6794.745050829401
5244.081491504645
3704.7003814857203
2073.431844861301
1369.1700863266574
1506.7471778919103
2361.5080566605284
4730.506768813421
7155.375297713178
9454.863378867303
11750.512820679414
14069.632717028317
16401.049450464463
18418.195705804595
21285.935934232122
22539.965029573807
21302.526630500826
18452.203758981515
16451.889039048256
14136.436169081444
11828.318812008945
9531.429709252494
7208.36316855981
4743.472251399367
2353.8613114675522
1460.6223361969598
7229.373221749902
4270.039767905034
5461.139354954828
7605.669250346376
10005.913418851946
12423.531540610318
14797.720942124202
17105.768691372497
19344.369818802785
21344.355939614845
22324.367801972792
21350.51365267175
19357.13604221532
17126.8716624646
14831.194600187137
12477.202343355244
10094.804298732017
7753.731037312254
5746.647320129522
4626.205646984348
7579.598883157747
6123.968714257952
2325.1447056937936
3695.4502383221225
5407.334325594864
7076.067672499599
8746.253988668273
10388.700064026889
11971.358701652796
13498.641877269856
14947.141669411556
15813.08311064697
14952.237642045631
13509.572124260532
11989.823851022567
10418.01475093099
8792.59712378018
7150.15569599875
5529.742796321745
3877.2595688187926
2459.1143005816652
6236.918262020787
4676.592513193055
2159.726765279149
2513.894653344354
3352.0765837914796
4198.29920440162
5039.419434370615
5864.225375963768
6628.183898704535
7416.521117677695
8558.288584646336
9726.229949426079
8561.950975696118
7425.065688574426
6642.589311040307
5885.809745827581
5070.847984945427
4244.420495875222
3414.1506505460716
2562.949536505908
2043.70333308515
4682.345442522186
3302.7013293799546
2400.259976609089
2323.932455439816
2159.584678486109
2214.0786101204085
2375.1916206900764
2624.5899429144324
2897.361065447545
3172.4095021661237
4067.0184187044024
6383.275743421076
4064.463737046532
3168.2097538656794
2894.771590870012
2621.1209216650027
2366.4426152356123
2191.5168964396953
2111.061921375348
2225.722600136534
2290.062469835887
3317.1017169024344
2148.0624194963366
2300.650387831618
3030.092618757416
3556.645072264512
4274.265808179503
5095.753128354401
5933.730389907487
6806.070082137608
7590.673409153851
7644.5467950269
8298.270467877135
7638.407569634565
7583.279723912581
6795.339645634026
5916.534172710895
5069.066102651234
4232.937225595928
3496.411292120655
2962.790743105669
2244.6952273798543
2167.730420777989
1487.3918010147706
2146.9577108800927
3877.3431910068925
5532.6865783409785
7168.624798891082
8821.107634504093
10461.670412883474
12046.585672087416
13607.78486265888
14416.551715468268
13599.799450421055
14411.790149610439
13602.174736283032
12036.6188247237
10446.516255472316
8800.161532942373
7142.826667061857
5508.129858337111
3865.78610407542
2136.9400799298724
1495.4948762918189
1522.6599604644177
2471.5157050432954
5029.885826146858
7664.639283032518
10115.617094576928
12510.495674781856
14876.852899950776
17161.111011699402
19029.07075982558
20893.33308962433
20892.29361017699
20893.43125399625
19026.50223315233
17154.079149150857
14865.380577769209
12495.318429128156
10101.621283100434
7664.212671185815
5056.80453483403
2506.896358198434
1553.3350559204418
11088.677428874016
5085.961955440426
5500.5502733493395
7613.019113789961
10157.25611612179
12724.658209792135
15253.744612653725
17656.174890112445
19694.74060813462
20962.116185753537
21294.1993556253
20978.329521862976
19729.23293678192
17714.76699996645
15346.733537190394
12867.55758383373
10369.905643395025
7924.8514363415225
5960.500745782266
5988.02268089913
11982.263702079781
9413.828378320886
2961.2772092899195
3917.487004318911
5611.423345874183
7313.11684775471
9036.313209823802
10749.183214718953
12398.693882948899
13824.850047640859
14707.06111007934
14872.18736275626
14721.883262617428
13856.390921589918
12451.882052422648
10831.904739922558
9159.174892650015
7488.15383452887
5847.014979837
4188.293052671983
3130.593015292222
9792.253991766363
6940.13496509657
3664.503262959938
3611.775114929354
4257.958073360112
4946.533943668317
5685.01815770849
6474.365811263747
7316.660607931139
8115.884041836071
8525.696430583319
8378.193139526595
8535.671147250281
8135.759083177246
7348.971977213469
6522.459738383704
5750.825856306008
5025.414680164402
4319.588379109251
3583.373374544375
3432.9836037922382
7121.783886010883
4736.506747183282
4027.767163634209
4209.284929479334
3974.9878622243227
3868.404151623644
3780.039814061681
3833.218457061861
4155.468545153684
4839.14578280544
5379.70086749745
5091.886845551226
5372.431527170814
4828.455965343006
4133.092632718012
3789.670877041877
3706.1238266038636
3757.179251777058
3815.4684334601266
4007.266534691044
3903.9000105510577
4853.073976741791
2945.3745657440486
3627.87152632685
4586.542167263993
4889.200762717111
5368.460200613299
5985.40290000989
6643.3873461338135
7235.936631987551
7804.385217534892
8784.349701678171
9981.277402325893
8765.73378930673
7766.159734966616
7172.334607831538
6550.639683059468
5857.9648061594635
5202.24400817808
4696.305556596917
4431.8028756773465
3579.061144399602
3007.2440250927903
1792.382371292299
2860.453963881845
4792.937864511775
6360.099294784516
7871.552760514545
9419.40830233016
10958.740721362548
12416.447679775536
13541.33531710829
14624.73567666773
17213.39267719286
14607.571087225846
13505.10893595558
12356.1471467601
10871.798787845044
9304.765047991665
7737.0371393314545
6234.470766322245
4723.431444450631
2849.135497575218
1810.9161554187358
1547.2524784341597
2756.287925016049
5620.3364971977135
8349.229097291061
10776.583785346922
13139.225681057782
15470.758839849206
17680.7420366552
19813.127348698225
20993.86123183143
22917.29561412242
20982.034047584362
19777.128849384935
17620.642437454826
15385.076370149687
13031.105037725836
10663.818233250622
8273.169217403622
5620.900358863213
2792.3804202653555
1584.0154005472396
SCALARS Statev float 1
LOOKUP_TABLE default
0.0
0.0
0.0
0.0
0.0
0.0
0.0
0.0
0.0
0.0
0.0
0.0
0.0
0.0
0.0
0.0
0.0
0.0
0.0
0.0
0.0
0.0
0.0
0.0
0.0
0.0
0.0
0.0
0.0
0.0
0.0
0.0
0.0
0.0
0.0
0.0
0.0
0.0
0.0
0.0
0.0
0.0
0.0
0.0
0.0
0.0
0.0
0.0
0.0
0.0
0.0
0.0
0.0
0.0
0.0
0.0
0.0
0.0
0.0
0.0
0.0
0.0
0.0
0.0
0.0
0.0
0.0
0.0
0.0
0.0
0.0
0.0
0.0
0.0
0.0
0.0
0.0
0.0
0.0
0.0
0.0
0.0
0.0
0.0
0.0
0.0
0.0
0.0
0.0
0.0
0.0
0.0
0.0
0.0
0.0
0.0
0.0
0.0
0.0
0.0
0.0
0.0
0.0
0.0
0.0
0.0
0.0
0.0
0.0
0.0
0.0
0.0
0.0
0.0
0.0
0.0
0.0
0.0
0.0
0.0
0.0
0.0
0.0
0.0
0.0
0.0
0.0
0.0
0.0
0.0
0.0
0.0
0.0
0.0
0.0
0.0
0.0
0.0
0.0
0.0
0.0
0.0
0.0
0.0
0.0
0.0
0.0
0.0
0.0
0.0
0.0
0.0
0.0
0.0
0.0
0.0
0.0
0.0
0.0
0.0
0.0
0.0
0.0
0.0
0.0
0.0
0.0
0.0
0.0
0.0
0.0
0.0
0.0
0.0
0.0
0.0
0.0
0.0
0.0
0.0
0.0
0.0
0.0
0.0
0.0
0.0
0.0
0.0
0.0
0.0
0.0
0.0
0.0
0.0
0.0
0.0
0.0
0.0
0.0
0.0
0.0
0.0
0.0
0.0
0.0
0.0
0.0
0.0
0.0
0.0
0.0
0.0
0.0
0.0
0.0
0.0
0.0
0.0
0.0
0.0
0.0
0.0
0.0
0.0
0.0
0.0
0.0
0.0
0.0
0.0
0.0
0.0
0.0
0.0
0.0
0.0
0.0
0.0
0.0
0.0
0.0
0.0
0.0
0.0
0.0
0.0
0.0
0.0
0.0
0.0
0.0
0.0
0.0
0.0
0.0
0.0
0.0
0.0
0.0
0.0
0.0
0.0
0.0
0.0
0.0
0.0
0.0
0.0
0.0
0.0
0.0
0.0
0.0
0.0
0.0
0.0
0.0
0.0
0.0
0.0
0.0
0.0
0.0
0.0
0.0
0.0
0.0
0.0
0.0
0.0
0.0
0.0
0.0
0.0
0.0
0.0
0.0
0.0
0.0
0.0
0.0
0.0
0.0
0.0
0.0
0.0
0.0
0.0
0.0
0.0
0.0
0.0
0.0
0.0
0.0
0.0
0.0
0.0
0.0
0.0
0.0
0.0
0.0
0.0
0.0
0.0
0.0
0.0
0.0
0.0
0.0
0.0
0.0
0.0
0.0
0.0
0.0
0.0
0.0
0.0
0.0
0.0
0.0
0.0
0.0
0.0
0.0
0.0
0.0
0.0
0.0
0.0
0.0
0.0
0.0
0.0
0.0
0.0
0.0
0.0
0.0
0.0
0.0
0.0
0.0
0.0
0.0
0.0
0.0
0.0
0.0
0.0
0.0
0.0
0.0
0.0
0.0
0.0
0.0
0.0
0.0
0.0
0.0
0.0
0.0
0.0
0.0
0.0
0.0
0.0
0.0
0.0
0.0
0.0
0.0
0.0
0.0
0.0
0.0
0.0
0.0
0.0
0.0
0.0
0.0
0.0
0.0
0.0
0.0
0.0
0.0
0.0
0.0
0.0
0.0
0.0
0.0
0.0
0.0
0.0
0.0
0.0
0.0
0.0
0.0
0.0
0.0
0.0
0.0
0.0
0.0
0.0
0.0
0.0
0.0
0.0
0.0
0.0
0.0
0.0
0.0
0.0
0.0
0.0
0.0
0.0
0.0
0.0
0.0
0.0
0.0
0.0
0.0
0.0
0.0
0.0
0.0
0.0
0.0
0.0
0.0
0.0
0.0
0.0
0.0
0.0
0.0
0.0
0.0
0.0
0.0
0.0
0.0
0.0
0.0
0.0
0.0
0.0
0.0
0.0
0.0
0.0
0.0
0.0
0.0
0.0
0.0
0.0
0.0
0.0
0.0
0.0
0.0
0.0
0.0
0.0
0.0
0.0
0.0
0.0
0.0
0.0
0.0
0.0
0.0
0.0
0.0
0.0
0.0
0.0
0.0
0.0
0.0
0.0
0.0
0.0
0.0
0.0
0.0
0.0
0.0
0.0
0.0
0.0
0.0
0.0
0.0
0.0
0.0
0.0
0.0
0.0
0.0
0.0
0.0
0.0
0.0
0.0
0.0
0.0
0.0
0.0
0.0
0.0
0.0
0.0
0.0
0.0
0.0
0.0
0.0
0.0
0.0
0.0
0.0
0.0
0.0
0.0
0.0
0.0
0.0
0.0
0.0
0.0
0.0
0.0
0.0
0.0
0.0
0.0
0.0
0.0
0.0
0.0
0.0
0.0
0.0
0.0
0.0
0.0
0.0
0.0
0.0
0.0
0.0
0.0
0.0
0.0
0.0
0.0
0.0
0.0
0.0
0.0
0.0
0.0
0.0
0.0
0.0
0.0
0.0
0.0
0.0
0.0
0.0
0.0
0.0
0.0
0.0
0.0
0.0
0.0
0.0
0.0
0.0
0.0
0.0
0.0
0.0
0.0
0.0
0.0
0.0
0.0
0.0
0.0
0.0
0.0
0.0
0.0
0.0
0.0
0.0
0.0
0.0
0.0
0.0
0.0
0.0
0.0
0.0
0.0
0.0
0.0
0.0
0.0
0.0
0.0
0.0
0.0
0.0
0.0
0.0
0.0
0.0
0.0
0.0
0.0
0.0
0.0
0.0
0.0
0.0
0.0
0.0
0.0
0.0
0.0
0.0
0.0
0.0
0.0
0.0
0.0
0.0
0.0
0.0
0.0
0.0
0.0
0.0
0.0
0.0
0.0
0.0
0.0
0.0
0.0
0.0
0.0
0.0
0.0
0.0
0.0
0.0
0.0
0.0
0.0
0.0
0.0
0.0
0.0
0.0
0.0
0.0
0.0
0.0
0.0
0.0
0.0
0.0
0.0
0.0
0.0
0.0
0.0
0.0
0.0
0.0
0.0
0.0
0.0
0.0
0.0
0.0
0.0
0.0
0.0
0.0
0.0
0.0
0.0
0.0
0.0
0.0
0.0
0.0
0.0
0.0
0.0
0.0
0.0
0.0
0.0
0.0
0.0
0.0
0.0
0.0
0.0
0.0
0.0
0.0
0.0
0.0
0.0
0.0
0.0
0.0
0.0
0.0
0.0
0.0
0.0
0.0
0.0
0.0
0.0
0.0
0.0
0.0
0.0
0.0
0.0
0.0
0.0
0.0
0.0
0.0
0.0
0.0
0.0
0.0
0.0
0.0
0.0
0.0
0.0
0.0
0.0
0.0
0.0
0.0
0.0
0.0
0.0
0.0
0.0
0.0
0.0
0.0
0.0
0.0
0.0
0.0
0.0
0.0
0.0
0.0
0.0
0.0
0.0
0.0
0.0
0.0
0.0
0.0
0.0
0.0
0.0
0.0
0.0
0.0
0.0
0.0
0.0
0.0
0.0
0.0
0.0
0.0
0.0
0.0
0.0
0.0
0.0
0.0
0.0
0.0
0.0
0.0
0.0
0.0
0.0
0.0
0.0
0.0
0.0
0.0
0.0
0.0
0.0
0.0
0.0
0.0
0.0
0.0
0.0
0.0
0.0
0.0
0.0
0.0
0.0
0.0
0.0
0.0
0.0
0.0
0.0
0.0
0.0
0.0
0.0
0.0
0.0
0.0
0.0
0.0
0.0
0.0
0.0
0.0
0.0
0.0
0.0
0.0
0.0
0.0
0.0
0.0
0.0
0.0
0.0
0.0
0.0
0.0
0.0
0.0
0.0
0.0
0.0
0.0
0.0
0.0
0.0
0.0
0.0
0.0
0.0
0.0
0.0
0.0
0.0
0.0
0.0
0.0
0.0
0.0
0.0
0.0
0.0
0.0
0.0
0.0
0.0
0.0
0.0
0.0
0.0
0.0
0.0
0.0
0.0
0.0
0.0
0.0
0.0
0.0
0.0
0.0
0.0
0.0
0.0
0.0
0.0
0.0
0.0
0.0
0.0
0.0
0.0
0.0
0.0
0.0
0.0
0.0
0.0
0.0
0.0
0.0
0.0
0.0
0.0
0.0
0.0
0.0
0.0
0.0
0.0
0.0
0.0
0.0
0.0
0.0
0.0
0.0
0.0
0.0
0.0
0.0
0.0
0.0
0.0
0.0
0.0
0.0
0.0
0.0
0.0
0.0
0.0
0.0
0.0
0.0
0.0
0.0
0.0
0.0
0.0
0.0
0.0
0.0
0.0
0.0
0.0
0.0
0.0
0.0
0.0
0.0
0.0
0.0
0.0
0.0
0.0
0.0
0.0
0.0
0.0
0.0
0.0
0.0
0.0
0.0
0.0
0.0
0.0
0.0
SCALARS Wm float 4
LOOKUP_TABLE default
664.0420374534178 664.0420374534178 0.0 0.0
120.15955388307535 120.15955388307535 0.0 0.0
143.15841834242698 143.15841834242698 0.0 0.0
299.70342183293485 299.70342183293485 0.0 0.0
528.68934802506 528.68934802506 0.0 0.0
833.2172769779515 833.2172769779515 0.0 0.0
1199.7932377289217 1199.7932377289217 0.0 0.0
1609.8942241406228 1609.8942241406228 0.0 0.0
2004.296753142407 2004.296753142407 0.0 0.0
2276.854104930714 2276.854104930714 0.0 0.0
2364.538817238808 2364.538817238808 0.0 0.0
2280.2985106677393 2280.2985106677393 0.0 0.0
2011.1834392445724 2011.1834392445724 0.0 0.0
1620.3982925594064 1620.3982925594064 0.0 0.0
1214.2206880717051 1214.2206880717051 0.0 0.0
851.6849926206951 851.6849926206951 0.0 0.0
550.6819503271697 550.6819503271697 0.0 0.0
323.8033716575634 323.8033716575634 0.0 0.0
170.22944357639318 170.22944357639318 0.0 0.0
189.68896937534527 189.68896937534527 0.0 0.0
636.1859294399776 636.1859294399776 0.0 0.0
492.9667598806922 492.9667598806922 0.0 0.0
14.916307830015192 14.916307830015192 0.0 0.0
66.55062848309373 66.55062848309373 0.0 0.0
142.25496652617653 142.25496652617653 0.0 0.0
244.1839163596893 244.1839163596893 0.0 0.0
376.60016293451434 376.60016293451434 0.0 0.0
536.7762995287761 536.7762995287761 0.0 0.0
717.4316626297729 717.4316626297729 0.0 0.0
894.7864887920239 894.7864887920239 0.0 0.0
1020.7042932666546 1020.7042932666546 0.0 0.0
1061.6654902324242 1061.6654902324242 0.0 0.0
1022.9380825498041 1022.9380825498041 0.0 0.0
899.236873919882 899.236873919882 0.0 0.0
724.1473584568117 724.1473584568117 0.0 0.0
545.7986786201261 545.7986786201261 0.0 0.0
387.81707586308806 387.81707586308806 0.0 0.0
257.0135412932141 257.0135412932141 0.0 0.0
155.71108366931944 155.71108366931944 0.0 0.0
76.10193009853705 76.10193009853705 0.0 0.0
17.226045989332576 17.226045989332576 0.0 0.0
517.779162328183 517.779162328183 0.0 0.0
274.2401822063327 274.2401822063327 0.0 0.0
40.72709517824717 40.72709517824717 0.0 0.0
57.191424291482065 57.191424291482065 0.0 0.0
74.44568255309048 74.44568255309048 0.0 0.0
102.99036919062874 102.99036919062874 0.0 0.0
136.0025593597492 136.0025593597492 0.0 0.0
176.50408162265563 176.50408162265563 0.0 0.0
226.58988253699377 226.58988253699377 0.0 0.0
281.0661607127844 281.0661607127844 0.0 0.0
317.32692280801837 317.32692280801837 0.0 0.0
327.59020698539416 327.59020698539416 0.0 0.0
318.24411868077823 318.24411868077823 0.0 0.0
282.8107814492805 282.8107814492805 0.0 0.0
229.11220046346773 229.11220046346773 0.0 0.0
179.71207421962956 179.71207421962956 0.0 0.0
139.66593161280036 139.66593161280036 0.0 0.0
106.66707508412736 106.66707508412736 0.0 0.0
76.6069395 76.6069395 0.0 0.0
55.64344085633593 55.64344085633593 0.0 0.0
34.46510677641965 34.46510677641965 0.0 0.0
286.14748582483594 286.14748582483594 0.0 0.0
126.49926243540388 126.49926243540388 0.0 0.0
59.08831686938617 59.08831686938617 0.0 0.0
73.66159711087009 73.66159711087009 0.0 0.0
67.44019078932897 67.44019078932897 0.0 0.0
66.56668240024894 66.56668240024894 0.0 0.0
65.57650215280907 65.57650215280907 0.0 0.0
64.41570716163429 64.41570716163429 0.0 0.0
66.60310252068277 66.60310252068277 0.0 0.0
76.98363079144535 76.98363079144535 0.0 0.0
88.44776830378143 88.44776830378143 0.0 0.0
95.9550081104369 95.9550081104369 0.0 0.0
88.12342429743262 88.12342429743262 0.0 0.0
76.20709074214423 76.20709074214423 0.0 0.0
65.31401425740236 65.31401425740236 0.0 0.0
62.51613470706051 62.51613470706051 0.0 0.0
62.930571922598446 62.930571922598446 0.0 0.0
62.893586365949766 62.893586365949766 0.0 0.0
62.246770837593985 62.246770837593985 0.0 0.0
67.72171272191144 67.72171272191144 0.0 0.0
54.19005162124207 54.19005162124207 0.0 0.0
133.14881505615773 133.14881505615773 0.0 0.0
48.01878289455277 48.01878289455277 0.0 0.0
54.33824286974727 54.33824286974727 0.0 0.0
87.04327327153732 87.04327327153732 0.0 0.0
102.51264354135449 102.51264354135449 0.0 0.0
123.60659354859186 123.60659354859186 0.0 0.0
152.83703219263376 152.83703219263376 0.0 0.0
187.4375116546026 187.4375116546026 0.0 0.0
221.13410324776663 221.13410324776663 0.0 0.0
258.9988331516511 258.9988331516511 0.0 0.0
318.39528805558615 318.39528805558615 0.0 0.0
356.41313457476565 356.41313457476565 0.0 0.0
316.93988624296287 316.93988624296287 0.0 0.0
256.0103025128633 256.0103025128633 0.0 0.0
216.61534191291338 216.61534191291338 0.0 0.0
181.45848804869794 181.45848804869794 0.0 0.0
145.59046726480418 145.59046726480418 0.0 0.0
115.466976813295 115.466976813295 0.0 0.0
94.48312270555398 94.48312270555398 0.0 0.0
81.40111589246024 81.40111589246024 0.0 0.0
51.914960215268955 51.914960215268955 0.0 0.0
50.52018070806266 50.52018070806266 0.0 0.0
16.754878513038655 16.754878513038655 0.0 0.0
41.467259361666194 41.467259361666194 0.0 0.0
103.03184412306422 103.03184412306422 0.0 0.0
184.39460043197133 184.39460043197133 0.0 0.0
285.7063356460022 285.7063356460022 0.0 0.0
411.31493019596286 411.31493019596286 0.0 0.0
558.3541199842697 558.3541199842697 0.0 0.0
718.6801991968437 718.6801991968437 0.0 0.0
842.3289067343412 842.3289067343412 0.0 0.0
1027.3371306432985 1027.3371306432985 0.0 0.0
1117.5511853186165 1117.5511853186165 0.0 0.0
1024.75697544275 1024.75697544275 0.0 0.0
837.2737841285572 837.2737841285572 0.0 0.0
711.1187961022661 711.1187961022661 0.0 0.0
548.8408839503046 548.8408839503046 0.0 0.0
400.68236963186206 400.68236963186206 0.0 0.0
275.4602102657169 275.4602102657169 0.0 0.0
176.72232015430987 176.72232015430987 0.0 0.0
99.48999710266348 99.48999710266348 0.0 0.0
40.54323984808125 40.54323984808125 0.0 0.0
17.374991667794156 17.374991667794156 0.0 0.0
10.295054547417598 10.295054547417598 0.0 0.0
44.760173679141914 44.760173679141914 0.0 0.0
162.50739211789283 162.50739211789283 0.0 0.0
355.088825130025 355.088825130025 0.0 0.0
594.8690388125067 594.8690388125067 0.0 0.0
887.0242187164222 887.0242187164222 0.0 0.0
1230.7392076692054 1230.7392076692054 0.0 0.0
1615.2689257438542 1615.2689257438542 0.0 0.0
2007.9913357793355 2007.9913357793355 0.0 0.0
2383.7490897932375 2383.7490897932375 0.0 0.0
2049.606651893692 2049.606651893692 0.0 0.0
2380.421575182061 2380.421575182061 0.0 0.0
2000.1089879434749 2000.1089879434749 0.0 0.0
1603.7083691653772 1603.7083691653772 0.0 0.0
1216.615279821787 1216.615279821787 0.0 0.0
872.1921954349604 872.1921954349604 0.0 0.0
582.4557522769647 582.4557522769647 0.0 0.0
348.57894889961034 348.57894889961034 0.0 0.0
161.9045917520099 161.9045917520099 0.0 0.0
45.574808311709425 45.574808311709425 0.0 0.0
10.903534945130342 10.903534945130342 0.0 0.0
247.15804697914913 247.15804697914913 0.0 0.0
101.97752525696812 101.97752525696812 0.0 0.0
151.46995578453647 151.46995578453647 0.0 0.0
305.1876078931508 305.1876078931508 0.0 0.0
523.2449888734799 523.2449888734799 0.0 0.0
807.7633871959586 807.7633871959586 0.0 0.0
1148.746260415343 1148.746260415343 0.0 0.0
1542.6392357117672 1542.6392357117672 0.0 0.0
1985.6221221065837 1985.6221221065837 0.0 0.0
2421.279547258432 2421.279547258432 0.0 0.0
2630.4424940847703 2630.4424940847703 0.0 0.0
2422.4807494829124 2422.4807494829124 0.0 0.0
1987.8652715336514 1987.8652715336514 0.0 0.0
1545.8922259100889 1545.8922259100889 0.0 0.0
1153.1905823198924 1153.1905823198924 0.0 0.0
813.7341314426279 813.7341314426279 0.0 0.0
531.2357306692539 531.2357306692539 0.0 0.0
315.3309836373635 315.3309836373635 0.0 0.0
165.82312141361527 165.82312141361527 0.0 0.0
121.81253666580545 121.81253666580545 0.0 0.0
240.88823161267902 240.88823161267902 0.0 0.0
198.1997590894536 198.1997590894536 0.0 0.0
17.24469115655072 17.24469115655072 0.0 0.0
63.91916435392355 63.91916435392355 0.0 0.0
139.1057069321632 139.1057069321632 0.0 0.0
238.16725011080572 238.16725011080572 0.0 0.0
365.3093338895997 365.3093338895997 0.0 0.0
517.6297682959874 517.6297682959874 0.0 0.0
691.056402801366 691.056402801366 0.0 0.0
882.6808393373044 882.6808393373044 0.0 0.0
1074.9253706747534 1074.9253706747534 0.0 0.0
1176.6360464900097 1176.6360464900097 0.0 0.0
1075.7013248834553 1075.7013248834553 0.0 0.0
884.1633811169995 884.1633811169995 0.0 0.0
693.2253088926781 693.2253088926781 0.0 0.0
520.5444796442924 520.5444796442924 0.0 0.0
369.10776179200195 369.10776179200195 0.0 0.0
242.9890419558276 242.9890419558276 0.0 0.0
145.26262766234373 145.26262766234373 0.0 0.0
69.97350757542033 69.97350757542033 0.0 0.0
19.824485924051945 19.824485924051945 0.0 0.0
199.42718187682945 199.42718187682945 0.0 0.0
119.08436658771281 119.08436658771281 0.0 0.0
14.004110128357405 14.004110128357405 0.0 0.0
27.348284781217654 27.348284781217654 0.0 0.0
46.128885693706515 46.128885693706515 0.0 0.0
74.06451606495085 74.06451606495085 0.0 0.0
107.32462292239013 107.32462292239013 0.0 0.0
146.4858409557355 146.4858409557355 0.0 0.0
188.76460889847127 188.76460889847127 0.0 0.0
238.68426403662366 238.68426403662366 0.0 0.0
314.7359362409398 314.7359362409398 0.0 0.0
382.96225142016 382.96225142016 0.0 0.0
315.1022370332453 315.1022370332453 0.0 0.0
239.40525079996038 239.40525079996038 0.0 0.0
189.81502814777477 189.81502814777477 0.0 0.0
147.83164588707734 147.83164588707734 0.0 0.0
108.93016268240166 108.93016268240166 0.0 0.0
75.92504324183707 75.92504324183707 0.0 0.0
48.010238280458864 48.010238280458864 0.0 0.0
27.894042586457353 27.894042586457353 0.0 0.0
12.25985042846128 12.25985042846128 0.0 0.0
118.06315914136967 118.06315914136967 0.0 0.0
59.21305645536622 59.21305645536622 0.0 0.0
19.532942226348734 19.532942226348734 0.0 0.0
23.895254987397085 23.895254987397085 0.0 0.0
20.61615397531989 20.61615397531989 0.0 0.0
21.4274073796623 21.4274073796623 0.0 0.0
23.37537610315477 23.37537610315477 0.0 0.0
25.973006397528597 25.973006397528597 0.0 0.0
27.554243461222253 27.554243461222253 0.0 0.0
29.0693698385904 29.0693698385904 0.0 0.0
52.84676795762403 52.84676795762403 0.0 0.0
129.2740626136725 129.2740626136725 0.0 0.0
52.76940453648347 52.76940453648347 0.0 0.0
29.02791514052396 29.02791514052396 0.0 0.0
27.539041661945078 27.539041661945078 0.0 0.0
25.909809435475843 25.909809435475843 0.0 0.0
23.174081302272388 23.174081302272388 0.0 0.0
20.971187187645786 20.971187187645786 0.0 0.0
19.66419253516752 19.66419253516752 0.0 0.0
22.260046125762727 22.260046125762727 0.0 0.0
17.398994512636275 17.398994512636275 0.0 0.0
59.60785717074577 59.60785717074577 0.0 0.0
24.53284420471406 24.53284420471406 0.0 0.0
20.985935067563503 20.985935067563503 0.0 0.0
37.47784206880582 37.47784206880582 0.0 0.0
52.83122278780545 52.83122278780545 0.0 0.0
76.56280716078656 76.56280716078656 0.0 0.0
109.59201908852756 109.59201908852756 0.0 0.0
149.8297747014743 149.8297747014743 0.0 0.0
199.58514473031772 199.58514473031772 0.0 0.0
246.68431709882196 246.68431709882196 0.0 0.0
260.3369752728522 260.3369752728522 0.0 0.0
394.4182377127955 394.4182377127955 0.0 0.0
259.79386135215424 259.79386135215424 0.0 0.0
245.9292530694932 245.9292530694932 0.0 0.0
198.6102470797696 198.6102470797696 0.0 0.0
148.60403453980902 148.60403453980902 0.0 0.0
108.10579608919163 108.10579608919163 0.0 0.0
74.81187190387118 74.81187190387118 0.0 0.0
50.93754546832491 50.93754546832491 0.0 0.0
35.86490896378546 35.86490896378546 0.0 0.0
19.737963160098367 19.737963160098367 0.0 0.0
25.05772136537758 25.05772136537758 0.0 0.0
10.806248951459057 10.806248951459057 0.0 0.0
22.853206316262476 22.853206316262476 0.0 0.0
68.73263473954552 68.73263473954552 0.0 0.0
143.14444812751174 143.14444812751174 0.0 0.0
243.5992130259183 243.5992130259183 0.0 0.0
371.1015594077172 371.1015594077172 0.0 0.0
524.1261755757397 524.1261755757397 0.0 0.0
696.3020576931891 696.3020576931891 0.0 0.0
905.13842505941 905.13842505941 0.0 0.0
961.2705260194589 961.2705260194589 0.0 0.0
1240.1822277432107 1240.1822277432107 0.0 0.0
960.3207888729936 960.3207888729936 0.0 0.0
903.7918410265149 903.7918410265149 0.0 0.0
694.4498836670217 694.4498836670217 0.0 0.0
521.901001485012 521.901001485012 0.0 0.0
368.7486168144715 368.7486168144715 0.0 0.0
241.46600978238317 241.46600978238317 0.0 0.0
141.6901846554898 141.6901846554898 0.0 0.0
68.17581870724011 68.17581870724011 0.0 0.0
22.556208902585677 22.556208902585677 0.0 0.0
11.02609575042154 11.02609575042154 0.0 0.0
10.033986703430369 10.033986703430369 0.0 0.0
35.43803991546885 35.43803991546885 0.0 0.0
133.67893806881662 133.67893806881662 0.0 0.0
305.70579305178336 305.70579305178336 0.0 0.0
533.4361336427656 533.4361336427656 0.0 0.0
817.5630011839082 817.5630011839082 0.0 0.0
1160.0066056185408 1160.0066056185408 0.0 0.0
1541.767560805654 1541.767560805654 0.0 0.0
1923.8614755294648 1923.8614755294648 0.0 0.0
2182.9954294049735 2182.9954294049735 0.0 0.0
3275.366899720883 3275.366899720883 0.0 0.0
2182.31654651146 2182.31654651146 0.0 0.0
1922.0897923648465 1922.0897923648465 0.0 0.0
1539.0624127024116 1539.0624127024116 0.0 0.0
1156.7629131961114 1156.7629131961114 0.0 0.0
814.343339640437 814.343339640437 0.0 0.0
531.0843163762045 531.0843163762045 0.0 0.0
305.114481030321 305.114481030321 0.0 0.0
134.65801581938723 134.65801581938723 0.0 0.0
36.305589288077435 36.305589288077435 0.0 0.0
10.466012920835931 10.466012920835931 0.0 0.0
175.26925864030048 175.26925864030048 0.0 0.0
113.96324098836106 113.96324098836106 0.0 0.0
145.2079224605296 145.2079224605296 0.0 0.0
287.25024570468224 287.25024570468224 0.0 0.0
490.34734830782776 490.34734830782776 0.0 0.0
752.2895126502264 752.2895126502264 0.0 0.0
1073.1270120501267 1073.1270120501267 0.0 0.0
1476.0529218505567 1476.0529218505567 0.0 0.0
2011.5040530524027 2011.5040530524027 0.0 0.0
2642.1560861929424 2642.1560861929424 0.0 0.0
2977.1154510377623 2977.1154510377623 0.0 0.0
2640.695630321275 2640.695630321275 0.0 0.0
2008.6820383309982 2008.6820383309982 0.0 0.0
1471.8953522290255 1471.8953522290255 0.0 0.0
1067.5439915037225 1067.5439915037225 0.0 0.0
745.2262141363351 745.2262141363351 0.0 0.0
481.8998655466128 481.8998655466128 0.0 0.0
277.98374357151187 277.98374357151187 0.0 0.0
134.04620057516627 134.04620057516627 0.0 0.0
88.84582315979048 88.84582315979048 0.0 0.0
172.95545242808575 172.95545242808575 0.0 0.0
148.30359328662053 148.30359328662053 0.0 0.0
19.19829747872367 19.19829747872367 0.0 0.0
64.04073866872417 64.04073866872417 0.0 0.0
135.90144388224928 135.90144388224928 0.0 0.0
228.21821260178078 228.21821260178078 0.0 0.0
345.8866193642352 345.8866193642352 0.0 0.0
489.4582265801523 489.4582265801523 0.0 0.0
666.3029379109136 666.3029379109136 0.0 0.0
896.9158691448733 896.9158691448733 0.0 0.0
1174.7118246928694 1174.7118246928694 0.0 0.0
1338.4527510815976 1338.4527510815976 0.0 0.0
1173.7096874406298 1173.7096874406298 0.0 0.0
894.9607208026891 894.9607208026891 0.0 0.0
663.461613198405 663.461613198405 0.0 0.0
485.77653493909474 485.77653493909474 0.0 0.0
341.4321224099845 341.4321224099845 0.0 0.0
223.20103675084152 223.20103675084152 0.0 0.0
130.48743945576373 130.48743945576373 0.0 0.0
59.604693468482644 59.604693468482644 0.0 0.0
17.952791311266246 17.952791311266246 0.0 0.0
143.46494107482013 143.46494107482013 0.0 0.0
82.36412049655497 82.36412049655497 0.0 0.0
13.328989314383087 13.328989314383087 0.0 0.0
27.630589368251098 27.630589368251098 0.0 0.0
48.82907856217335 48.82907856217335 0.0 0.0
75.66046036150564 75.66046036150564 0.0 0.0
106.55629287095222 106.55629287095222 0.0 0.0
142.70607218177582 142.70607218177582 0.0 0.0
183.58873281044302 183.58873281044302 0.0 0.0
245.71177293381106 245.71177293381106 0.0 0.0
363.79122937741414 363.79122937741414 0.0 0.0
479.06802401556604 479.06802401556604 0.0 0.0
363.39616710499513 363.39616710499513 0.0 0.0
244.8789307672566 244.8789307672566 0.0 0.0
182.36163947343584 182.36163947343584 0.0 0.0
141.16766642971797 141.16766642971797 0.0 0.0
104.83738007810035 104.83738007810035 0.0 0.0
73.91828749716167 73.91828749716167 0.0 0.0
47.51248406156119 47.51248406156119 0.0 0.0
27.91152384466072 27.91152384466072 0.0 0.0
15.045918981213914 15.045918981213914 0.0 0.0
82.73779984047967 82.73779984047967 0.0 0.0
41.89333738075554 41.89333738075554 0.0 0.0
17.907417177735606 17.907417177735606 0.0 0.0
23.003248485324637 23.003248485324637 0.0 0.0
21.998413451569494 21.998413451569494 0.0 0.0
23.68966482895772 23.68966482895772 0.0 0.0
25.64162307285142 25.64162307285142 0.0 0.0
28.056854392316 28.056854392316 0.0 0.0
29.17569047330792 29.17569047330792 0.0 0.0
34.148747864898816 34.148747864898816 0.0 0.0
77.28341888243386 77.28341888243386 0.0 0.0
217.99874878787878 217.99874878787878 0.0 0.0
77.52353888478291 77.52353888478291 0.0 0.0
34.483803584674696 34.483803584674696 0.0 0.0
29.593586340159455 29.593586340159455 0.0 0.0
28.58272809912224 28.58272809912224 0.0 0.0
26.334519984065018 26.334519984065018 0.0 0.0
24.65522151700415 24.65522151700415 0.0 0.0
23.459540468599005 23.459540468599005 0.0 0.0
24.88400032811655 24.88400032811655 0.0 0.0
19.357313872159732 19.357313872159732 0.0 0.0
41.13976438393518 41.13976438393518 0.0 0.0
18.536400076539934 18.536400076539934 0.0 0.0
19.641916137436343 19.641916137436343 0.0 0.0
34.79435764270544 34.79435764270544 0.0 0.0
48.07656838355898 48.07656838355898 0.0 0.0
69.64997422621035 69.64997422621035 0.0 0.0
100.58374388929484 100.58374388929484 0.0 0.0
140.27267297263845 140.27267297263845 0.0 0.0
195.23153373211866 195.23153373211866 0.0 0.0
254.07702075963505 254.07702075963505 0.0 0.0
273.561858704523 273.561858704523 0.0 0.0
544.3684988810508 544.3684988810508 0.0 0.0
274.43023966451426 274.43023966451426 0.0 0.0
255.58187875804515 255.58187875804515 0.0 0.0
197.27097897174997 197.27097897174997 0.0 0.0
142.69964682733368 142.69964682733368 0.0 0.0
103.26303934552597 103.26303934552597 0.0 0.0
72.41440169284807 72.41440169284807 0.0 0.0
50.62463034618083 50.62463034618083 0.0 0.0
36.48339121305295 36.48339121305295 0.0 0.0
20.163584532049764 20.163584532049764 0.0 0.0
17.620542400280506 17.620542400280506 0.0 0.0
9.545893982490062 9.545893982490062 0.0 0.0
21.34534604470116 21.34534604470116 0.0 0.0
62.0819994158923 62.0819994158923 0.0 0.0
126.94421445153054 126.94421445153054 0.0 0.0
217.00208521003995 217.00208521003995 0.0 0.0
335.32107742926166 335.32107742926166 0.0 0.0
483.3447273518659 483.3447273518659 0.0 0.0
661.7312305494602 661.7312305494602 0.0 0.0
911.9754647372215 911.9754647372215 0.0 0.0
984.4858215362816 984.4858215362816 0.0 0.0
1584.2107263738844 1584.2107263738844 0.0 0.0
986.0030872788625 986.0030872788625 0.0 0.0
914.7837254106672 914.7837254106672 0.0 0.0
665.4944065621964 665.4944065621964 0.0 0.0
487.6986617493601 487.6986617493601 0.0 0.0
339.72999652433333 339.72999652433333 0.0 0.0
220.8006424250126 220.8006424250126 0.0 0.0
129.42422261292015 129.42422261292015 0.0 0.0
63.009450447076816 63.009450447076816 0.0 0.0
21.367299210240525 21.367299210240525 0.0 0.0
8.7806339331636 8.7806339331636 0.0 0.0
9.563544315867551 9.563544315867551 0.0 0.0
32.34800338775372 32.34800338775372 0.0 0.0
119.26381830305604 119.26381830305604 0.0 0.0
270.9663151873594 270.9663151873594 0.0 0.0
475.4030037084101 475.4030037084101 0.0 0.0
737.7963761352328 737.7963761352328 0.0 0.0
1065.728689622383 1065.728689622383 0.0 0.0
1449.6275281843427 1449.6275281843427 0.0 0.0
1873.746635700425 1873.746635700425 0.0 0.0
2284.357169266269 2284.357169266269 0.0 0.0
4262.461834704518 4262.461834704518 0.0 0.0
2286.692948582599 2286.692948582599 0.0 0.0
1878.2343620234565 1878.2343620234565 0.0 0.0
1455.6215177952163 1455.6215177952163 0.0 0.0
1072.4959351735044 1072.4959351735044 0.0 0.0
744.3008128983757 744.3008128983757 0.0 0.0
480.2852141632883 480.2852141632883 0.0 0.0
273.0806569808527 273.0806569808527 0.0 0.0
119.24009397369319 119.24009397369319 0.0 0.0
32.03197734676989 32.03197734676989 0.0 0.0
8.97760861174213 8.97760861174213 0.0 0.0
170.4627904588266 170.4627904588266 0.0 0.0
117.25101026434466 117.25101026434466 0.0 0.0
142.92987387791155 142.92987387791155 0.0 0.0
279.70543594224046 279.70543594224046 0.0 0.0
478.1656824136209 478.1656824136209 0.0 0.0
736.054666274577 736.054666274577 0.0 0.0
1057.4240802700901 1057.4240802700901 0.0 0.0
1474.9930146718964 1474.9930146718964 0.0 0.0
2051.3580771349043 2051.3580771349043 0.0 0.0
2746.0488604027796 2746.0488604027796 0.0 0.0
3117.529569288046 3117.529569288046 0.0 0.0
2743.424123662511 2743.424123662511 0.0 0.0
2046.384484553683 2046.384484553683 0.0 0.0
1467.778783320629 1467.778783320629 0.0 0.0
1047.7527382606115 1047.7527382606115 0.0 0.0
723.6173617449043 723.6173617449043 0.0 0.0
462.8880246767779 462.8880246767779 0.0 0.0
262.2922045420215 262.2922045420215 0.0 0.0
123.28632056027391 123.28632056027391 0.0 0.0
79.43202133949927 79.43202133949927 0.0 0.0
159.0828851526497 159.0828851526497 0.0 0.0
140.7475719274267 140.7475719274267 0.0 0.0
19.239779027226938 19.239779027226938 0.0 0.0
63.676170259523126 63.676170259523126 0.0 0.0
133.56744681037222 133.56744681037222 0.0 0.0
223.9388196307631 223.9388196307631 0.0 0.0
340.1181678189786 340.1181678189786 0.0 0.0
484.3828372045264 484.3828372045264 0.0 0.0
668.0595531904457 668.0595531904457 0.0 0.0
916.1595084986683 916.1595084986683 0.0 0.0
1219.9755573024681 1219.9755573024681 0.0 0.0
1398.7278531202794 1398.7278531202794 0.0 0.0
1218.219066892084 1218.219066892084 0.0 0.0
912.7844950384969 912.7844950384969 0.0 0.0
663.1975270087263 663.1975270087263 0.0 0.0
478.05307603564626 478.05307603564626 0.0 0.0
332.3038445662512 332.3038445662512 0.0 0.0
214.79910470352633 214.79910470352633 0.0 0.0
123.4624064826076 123.4624064826076 0.0 0.0
55.256318852494836 55.256318852494836 0.0 0.0
15.731102938585927 15.731102938585927 0.0 0.0
133.1397375696729 133.1397375696729 0.0 0.0
78.5473611811806 78.5473611811806 0.0 0.0
11.724944936223416 11.724944936223416 0.0 0.0
27.046416603749986 27.046416603749986 0.0 0.0
48.612041405758696 48.612041405758696 0.0 0.0
75.347505979466 75.347505979466 0.0 0.0
106.19030156177553 106.19030156177553 0.0 0.0
142.97522557102542 142.97522557102542 0.0 0.0
186.48318392325942 186.48318392325942 0.0 0.0
254.92726017411348 254.92726017411348 0.0 0.0
382.4458748656999 382.4458748656999 0.0 0.0
503.67732285478024 503.67732285478024 0.0 0.0
381.73828416024224 381.73828416024224 0.0 0.0
253.49053536857855 253.49053536857855 0.0 0.0
184.39372793910857 184.39372793910857 0.0 0.0
140.34771181856388 140.34771181856388 0.0 0.0
103.19056581230491 103.19056581230491 0.0 0.0
72.17694338636416 72.17694338636416 0.0 0.0
46.01634103875277 46.01634103875277 0.0 0.0
26.855023383080773 26.855023383080773 0.0 0.0
13.876187142937543 13.876187142937543 0.0 0.0
75.64700481044335 75.64700481044335 0.0 0.0
38.96196914140771 38.96196914140771 0.0 0.0
16.03355083764854 16.03355083764854 0.0 0.0
21.69407070734525 21.69407070734525 0.0 0.0
21.582084804506895 21.582084804506895 0.0 0.0
23.886113590868728 23.886113590868728 0.0 0.0
26.291089291540928 26.291089291540928 0.0 0.0
29.368147233926713 29.368147233926713 0.0 0.0
31.851588109021222 31.851588109021222 0.0 0.0
39.582185445210115 39.582185445210115 0.0 0.0
85.87342135643422 85.87342135643422 0.0 0.0
231.55327239677308 231.55327239677308 0.0 0.0
86.23798579271018 86.23798579271018 0.0 0.0
40.108353646743694 40.108353646743694 0.0 0.0
32.5047254564953 32.5047254564953 0.0 0.0
30.210526054347806 30.210526054347806 0.0 0.0
27.45016365397997 27.45016365397997 0.0 0.0
25.53848385453427 25.53848385453427 0.0 0.0
24.022639592118907 24.022639592118907 0.0 0.0
24.682474442450534 24.682474442450534 0.0 0.0
18.328921881752077 18.328921881752077 0.0 0.0
36.05822944019587 36.05822944019587 0.0 0.0
16.473444061602823 16.473444061602823 0.0 0.0
17.86494152367697 17.86494152367697 0.0 0.0
32.362038939312946 32.362038939312946 0.0 0.0
45.50020828006773 45.50020828006773 0.0 0.0
66.86737423241706 66.86737423241706 0.0 0.0
97.62325878354754 97.62325878354754 0.0 0.0
137.9220507103083 137.9220507103083 0.0 0.0
195.6184806116489 195.6184806116489 0.0 0.0
260.2896093149715 260.2896093149715 0.0 0.0
283.3805663819707 283.3805663819707 0.0 0.0
568.3140427442106 568.3140427442106 0.0 0.0
284.7888123197835 284.7888123197835 0.0 0.0
262.7130414829371 262.7130414829371 0.0 0.0
198.86254771061778 198.86254771061778 0.0 0.0
141.82356958177718 141.82356958177718 0.0 0.0
102.04181139474933 102.04181139474933 0.0 0.0
71.5674042922834 71.5674042922834 0.0 0.0
49.92464536769009 49.92464536769009 0.0 0.0
35.32477303203897 35.32477303203897 0.0 0.0
18.895846407272007 18.895846407272007 0.0 0.0
14.336172990619255 14.336172990619255 0.0 0.0
8.330268175693313 8.330268175693313 0.0 0.0
19.183978687579142 19.183978687579142 0.0 0.0
57.76156365078054 57.76156365078054 0.0 0.0
120.40152419043514 120.40152419043514 0.0 0.0
208.02072396679435 208.02072396679435 0.0 0.0
324.37036978654146 324.37036978654146 0.0 0.0
472.90050467544967 472.90050467544967 0.0 0.0
657.704774936829 657.704774936829 0.0 0.0
926.7042527028822 926.7042527028822 0.0 0.0
1009.1825928832953 1009.1825928832953 0.0 0.0
1645.5191515773806 1645.5191515773806 0.0 0.0
1011.6048402640145 1011.6048402640145 0.0 0.0
931.093145709066 931.093145709066 0.0 0.0
663.551819240804 663.551819240804 0.0 0.0
479.73521364231 479.73521364231 0.0 0.0
331.4282906616071 331.4282906616071 0.0 0.0
214.2837305190527 214.2837305190527 0.0 0.0
124.65778883869696 124.65778883869696 0.0 0.0
59.43566675895017 59.43566675895017 0.0 0.0
19.314136930391093 19.314136930391093 0.0 0.0
6.91455054451511 6.91455054451511 0.0 0.0
7.853564072262338 7.853564072262338 0.0 0.0
28.520720973479236 28.520720973479236 0.0 0.0
111.21995435574014 111.21995435574014 0.0 0.0
257.7825754975226 257.7825754975226 0.0 0.0
456.4048441462891 456.4048441462891 0.0 0.0
713.8745253353703 713.8745253353703 0.0 0.0
1041.9257085940744 1041.9257085940744 0.0 0.0
1439.6312083716405 1439.6312083716405 0.0 0.0
1901.831154100145 1901.831154100145 0.0 0.0
2349.094379170254 2349.094379170254 0.0 0.0
4443.6318896354815 4443.6318896354815 0.0 0.0
2352.5307880758014 2352.5307880758014 0.0 0.0
1908.5383756421113 1908.5383756421113 0.0 0.0
1448.6798838729887 1448.6798838729887 0.0 0.0
1052.2902679523008 1052.2902679523008 0.0 0.0
724.019163282655 724.019163282655 0.0 0.0
464.1923259999692 464.1923259999692 0.0 0.0
261.25379968128664 261.25379968128664 0.0 0.0
111.08556789387593 111.08556789387593 0.0 0.0
27.744677681205317 27.744677681205317 0.0 0.0
6.644189827563724 6.644189827563724 0.0 0.0
175.26925864007293 175.26925864007293 0.0 0.0
113.96324098801387 113.96324098801387 0.0 0.0
145.207922460267 145.207922460267 0.0 0.0
287.2502457044768 287.2502457044768 0.0 0.0
490.3473483077825 490.3473483077825 0.0 0.0
752.2895126501546 752.2895126501546 0.0 0.0
1073.1270120499073 1073.1270120499073 0.0 0.0
1476.0529218501424 1476.0529218501424 0.0 0.0
2011.5040530518136 2011.5040530518136 0.0 0.0
2642.1560861924854 2642.1560861924854 0.0 0.0
2977.1154510366982 2977.1154510366982 0.0 0.0
2640.695630319866 2640.695630319866 0.0 0.0
2008.6820383302586 2008.6820383302586 0.0 0.0
1471.8953522290512 1471.8953522290512 0.0 0.0
1067.5439915042691 1067.5439915042691 0.0 0.0
745.226214137421 745.226214137421 0.0 0.0
481.8998655472776 481.8998655472776 0.0 0.0
277.98374357184264 277.98374357184264 0.0 0.0
134.04620057539572 134.04620057539572 0.0 0.0
88.84582315997827 88.84582315997827 0.0 0.0
172.9554524284237 172.9554524284237 0.0 0.0
148.30359328653157 148.30359328653157 0.0 0.0
19.198297478685014 19.198297478685014 0.0 0.0
64.04073866860415 64.04073866860415 0.0 0.0
135.901443882162 135.901443882162 0.0 0.0
228.21821260166706 228.21821260166706 0.0 0.0
345.8866193642076 345.8866193642076 0.0 0.0
489.45822658000156 489.45822658000156 0.0 0.0
666.3029379106883 666.3029379106883 0.0 0.0
896.9158691445044 896.9158691445044 0.0 0.0
1174.7118246923521 1174.7118246923521 0.0 0.0
1338.4527510810244 1338.4527510810244 0.0 0.0
1173.7096874400809 1173.7096874400809 0.0 0.0
894.960720802105 894.960720802105 0.0 0.0
663.461613198393 663.461613198393 0.0 0.0
485.7765349391265 485.7765349391265 0.0 0.0
341.4321224105363 341.4321224105363 0.0 0.0
223.2010367510676 223.2010367510676 0.0 0.0
130.48743945595913 130.48743945595913 0.0 0.0
59.60469346858549 59.60469346858549 0.0 0.0
17.95279131129581 17.95279131129581 0.0 0.0
143.4649410751273 143.4649410751273 0.0 0.0
82.3641204965227 82.3641204965227 0.0 0.0
13.32898931438713 13.32898931438713 0.0 0.0
27.630589368220342 27.630589368220342 0.0 0.0
48.8290785621342 48.8290785621342 0.0 0.0
75.66046036149845 75.66046036149845 0.0 0.0
106.55629287091239 106.55629287091239 0.0 0.0
142.70607218165793 142.70607218165793 0.0 0.0
183.5887328102856 183.5887328102856 0.0 0.0
245.7117729336834 245.7117729336834 0.0 0.0
363.79122937730057 363.79122937730057 0.0 0.0
479.0680240153362 479.0680240153362 0.0 0.0
363.39616710507687 363.39616710507687 0.0 0.0
244.87893076676306 244.87893076676306 0.0 0.0
182.36163947351193 182.36163947351193 0.0 0.0
141.1676664294883 141.1676664294883 0.0 0.0
104.83738007828657 104.83738007828657 0.0 0.0
73.91828749725997 73.91828749725997 0.0 0.0
47.51248406162258 47.51248406162258 0.0 0.0
27.911523844737157 27.911523844737157 0.0 0.0
15.045918981240447 15.045918981240447 0.0 0.0
82.73779984067608 82.73779984067608 0.0 0.0
41.89333738072051 41.89333738072051 0.0 0.0
17.90741717773563 17.90741717773563 0.0 0.0
23.00324848532562 23.00324848532562 0.0 0.0
21.99841345159544 21.99841345159544 0.0 0.0
23.68966482898635 23.68966482898635 0.0 0.0
25.641623072836946 25.641623072836946 0.0 0.0
28.0568543922602 28.0568543922602 0.0 0.0
29.17569047338981 29.17569047338981 0.0 0.0
34.148747864726595 34.148747864726595 0.0 0.0
77.28341888236093 77.28341888236093 0.0 0.0
217.99874878812386 217.99874878812386 0.0 0.0
77.5235388847045 77.5235388847045 0.0 0.0
34.483803584273595 34.483803584273595 0.0 0.0
29.593586340274044 29.593586340274044 0.0 0.0
28.582728098742177 28.582728098742177 0.0 0.0
26.334519984219018 26.334519984219018 0.0 0.0
24.655221517006527 24.655221517006527 0.0 0.0
23.459540468674334 23.459540468674334 0.0 0.0
24.884000328169815 24.884000328169815 0.0 0.0
19.357313872200944 19.357313872200944 0.0 0.0
41.13976438405467 41.13976438405467 0.0 0.0
18.536400076522416 18.536400076522416 0.0 0.0
19.641916137428396 19.641916137428396 0.0 0.0
34.794357642705656 34.794357642705656 0.0 0.0
48.076568383583414 48.076568383583414 0.0 0.0
69.6499742262705 69.6499742262705 0.0 0.0
100.58374388933467 100.58374388933467 0.0 0.0
140.27267297267514 140.27267297267514 0.0 0.0
195.23153373221388 195.23153373221388 0.0 0.0
254.0770207596305 254.0770207596305 0.0 0.0
273.5618587045471 273.5618587045471 0.0 0.0
544.3684988811253 544.3684988811253 0.0 0.0
274.43023966444565 274.43023966444565 0.0 0.0
255.58187875795716 255.58187875795716 0.0 0.0
197.27097897178962 197.27097897178962 0.0 0.0
142.69964682723977 142.69964682723977 0.0 0.0
103.2630393458387 103.2630393458387 0.0 0.0
72.41440169294498 72.41440169294498 0.0 0.0
50.62463034628387 50.62463034628387 0.0 0.0
36.483391213129714 36.483391213129714 0.0 0.0
20.163584532088215 20.163584532088215 0.0 0.0
17.62054240034604 17.62054240034604 0.0 0.0
9.545893982482808 9.545893982482808 0.0 0.0
21.345346044694434 21.345346044694434 0.0 0.0
62.081999415880986 62.081999415880986 0.0 0.0
126.94421445155623 126.94421445155623 0.0 0.0
217.0020852101244 217.0020852101244 0.0 0.0
335.3210774294526 335.3210774294526 0.0 0.0
483.3447273518535 483.3447273518535 0.0 0.0
661.7312305498624 661.7312305498624 0.0 0.0
911.9754647370016 911.9754647370016 0.0 0.0
984.4858215365421 984.4858215365421 0.0 0.0
1584.2107263733174 1584.2107263733174 0.0 0.0
986.003087278906 986.003087278906 0.0 0.0
914.7837254103342 914.7837254103342 0.0 0.0
665.4944065624554 665.4944065624554 0.0 0.0
487.69866174947424 487.69866174947424 0.0 0.0
339.729996524885 339.729996524885 0.0 0.0
220.80064242530068 220.80064242530068 0.0 0.0
129.4242226131125 129.4242226131125 0.0 0.0
63.009450447193316 63.009450447193316 0.0 0.0
21.367299210282603 21.367299210282603 0.0 0.0
8.780633933192018 8.780633933192018 0.0 0.0
9.563544315866492 9.563544315866492 0.0 0.0
32.348003387748754 32.348003387748754 0.0 0.0
119.26381830299736 119.26381830299736 0.0 0.0
270.96631518734756 270.96631518734756 0.0 0.0
475.4030037086124 475.4030037086124 0.0 0.0
737.7963761355006 737.7963761355006 0.0 0.0
1065.7286896226794 1065.7286896226794 0.0 0.0
1449.6275281846397 1449.6275281846397 0.0 0.0
1873.7466356999537 1873.7466356999537 0.0 0.0
2284.3571692663677 2284.3571692663677 0.0 0.0
4262.461834703577 4262.461834703577 0.0 0.0
2286.692948582355 2286.692948582355 0.0 0.0
1878.234362022772 1878.234362022772 0.0 0.0
1455.6215177954082 1455.6215177954082 0.0 0.0
1072.4959351741632 1072.4959351741632 0.0 0.0
744.3008128994323 744.3008128994323 0.0 0.0
480.28521416414736 480.28521416414736 0.0 0.0
273.0806569812969 273.0806569812969 0.0 0.0
119.24009397388822 119.24009397388822 0.0 0.0
32.03197734683092 32.03197734683092 0.0 0.0
8.977608611770378 8.977608611770378 0.0 0.0
247.15804697930366 247.15804697930366 0.0 0.0
101.97752525626841 101.97752525626841 0.0 0.0
151.46995578411804 151.46995578411804 0.0 0.0
305.1876078927266 305.1876078927266 0.0 0.0
523.2449888728464 523.2449888728464 0.0 0.0
807.763387195229 807.763387195229 0.0 0.0
1148.7462604149157 1148.7462604149157 0.0 0.0
1542.6392357123411 1542.6392357123411 0.0 0.0
1985.6221221066235 1985.6221221066235 0.0 0.0
2421.2795472564717 2421.2795472564717 0.0 0.0
2630.4424940830745 2630.4424940830745 0.0 0.0
2422.4807494811025 2422.4807494811025 0.0 0.0
1987.8652715329408 1987.8652715329408 0.0 0.0
1545.8922259103003 1545.8922259103003 0.0 0.0
1153.1905823208922 1153.1905823208922 0.0 0.0
813.7341314437166 813.7341314437166 0.0 0.0
531.2357306705014 531.2357306705014 0.0 0.0
315.33098363819795 315.33098363819795 0.0 0.0
165.8231214141483 165.8231214141483 0.0 0.0
121.81253666621339 121.81253666621339 0.0 0.0
240.88823161362942 240.88823161362942 0.0 0.0
198.19975908939986 198.19975908939986 0.0 0.0
17.244691156448226 17.244691156448226 0.0 0.0
63.91916435373025 63.91916435373025 0.0 0.0
139.1057069319044 139.1057069319044 0.0 0.0
238.16725011045133 238.16725011045133 0.0 0.0
365.30933388919146 365.30933388919146 0.0 0.0
517.629768295677 517.629768295677 0.0 0.0
691.056402801505 691.056402801505 0.0 0.0
882.6808393372007 882.6808393372007 0.0 0.0
1074.9253706735597 1074.9253706735597 0.0 0.0
1176.6360464893544 1176.6360464893544 0.0 0.0
1075.7013248825342 1075.7013248825342 0.0 0.0
884.1633811166654 884.1633811166654 0.0 0.0
693.2253088928409 693.2253088928409 0.0 0.0
520.5444796446722 520.5444796446722 0.0 0.0
369.1077617924365 369.1077617924365 0.0 0.0
242.98904195629652 242.98904195629652 0.0 0.0
145.26262766276486 145.26262766276486 0.0 0.0
69.97350757559512 69.97350757559512 0.0 0.0
19.824485924097456 19.824485924097456 0.0 0.0
199.42718187763356 199.42718187763356 0.0 0.0
119.08436658768852 119.08436658768852 0.0 0.0
14.004110128385314 14.004110128385314 0.0 0.0
27.348284781189513 27.348284781189513 0.0 0.0
46.128885693614386 46.128885693614386 0.0 0.0
74.0645160647691 74.0645160647691 0.0 0.0
107.32462292223804 107.32462292223804 0.0 0.0
146.48584095560167 146.48584095560167 0.0 0.0
188.76460889855704 188.76460889855704 0.0 0.0
238.6842640365629 238.6842640365629 0.0 0.0
314.73593624018616 314.73593624018616 0.0 0.0
382.9622514198059 382.9622514198059 0.0 0.0
315.10223703268844 315.10223703268844 0.0 0.0
239.40525080003144 239.40525080003144 0.0 0.0
189.81502814755845 189.81502814755845 0.0 0.0
147.83164588723548 147.83164588723548 0.0 0.0
108.93016268242194 108.93016268242194 0.0 0.0
75.92504324193742 75.92504324193742 0.0 0.0
48.010238280639356 48.010238280639356 0.0 0.0
27.89404258649572 27.89404258649572 0.0 0.0
12.259850428501657 12.259850428501657 0.0 0.0
118.06315914187364 118.06315914187364 0.0 0.0
59.213056455317535 59.213056455317535 0.0 0.0
19.532942226397775 19.532942226397775 0.0 0.0
23.895254987450688 23.895254987450688 0.0 0.0
20.616153975334303 20.616153975334303 0.0 0.0
21.427407379605818 21.427407379605818 0.0 0.0
23.375376103215572 23.375376103215572 0.0 0.0
25.97300639748858 25.97300639748858 0.0 0.0
27.554243461361587 27.554243461361587 0.0 0.0
29.069369838739853 29.069369838739853 0.0 0.0
52.84676795704865 52.84676795704865 0.0 0.0
129.27406261323196 129.27406261323196 0.0 0.0
52.76940453623643 52.76940453623643 0.0 0.0
29.02791514054936 29.02791514054936 0.0 0.0
27.5390416618243 27.5390416618243 0.0 0.0
25.909809435476035 25.909809435476035 0.0 0.0
23.174081302244762 23.174081302244762 0.0 0.0
20.971187187682656 20.971187187682656 0.0 0.0
19.66419253527227 19.66419253527227 0.0 0.0
22.260046125791916 22.260046125791916 0.0 0.0
17.39899451268527 17.39899451268527 0.0 0.0
59.60785717102376 59.60785717102376 0.0 0.0
24.532844204690317 24.532844204690317 0.0 0.0
20.98593506759955 20.98593506759955 0.0 0.0
37.477842068830284 37.477842068830284 0.0 0.0
52.83122278788803 52.83122278788803 0.0 0.0
76.56280716084304 76.56280716084304 0.0 0.0
109.59201908851935 109.59201908851935 0.0 0.0
149.82977470156732 149.82977470156732 0.0 0.0
199.5851447309198 199.5851447309198 0.0 0.0
246.68431709901478 246.68431709901478 0.0 0.0
260.33697527274035 260.33697527274035 0.0 0.0
394.4182377120536 394.4182377120536 0.0 0.0
259.7938613519281 259.7938613519281 0.0 0.0
245.92925306964767 245.92925306964767 0.0 0.0
198.61024707963367 198.61024707963367 0.0 0.0
148.60403454008033 148.60403454008033 0.0 0.0
108.10579608926587 108.10579608926587 0.0 0.0
74.8118719040349 74.8118719040349 0.0 0.0
50.937545468512184 50.937545468512184 0.0 0.0
35.86490896386907 35.86490896386907 0.0 0.0
19.737963160157257 19.737963160157257 0.0 0.0
25.05772136550742 25.05772136550742 0.0 0.0
10.806248951444495 10.806248951444495 0.0 0.0
22.853206316252223 22.853206316252223 0.0 0.0
68.73263473955215 68.73263473955215 0.0 0.0
143.14444812755525 143.14444812755525 0.0 0.0
243.5992130260094 243.5992130260094 0.0 0.0
371.1015594076584 371.1015594076584 0.0 0.0
524.1261755761556 524.1261755761556 0.0 0.0
696.3020576938878 696.3020576938878 0.0 0.0
905.1384250599727 905.1384250599727 0.0 0.0
961.2705260195072 961.2705260195072 0.0 0.0
1240.1822277412332 1240.1822277412332 0.0 0.0
960.3207888728818 960.3207888728818 0.0 0.0
903.7918410267315 903.7918410267315 0.0 0.0
694.4498836672235 694.4498836672235 0.0 0.0
521.9010014855994 521.9010014855994 0.0 0.0
368.7486168150756 368.7486168150756 0.0 0.0
241.4660097829752 241.4660097829752 0.0 0.0
141.6901846558944 141.6901846558944 0.0 0.0
68.17581870743861 68.17581870743861 0.0 0.0
22.556208902649285 22.556208902649285 0.0 0.0
11.026095750476502 11.026095750476502 0.0 0.0
10.03398670340804 10.03398670340804 0.0 0.0
35.43803991542208 35.43803991542208 0.0 0.0
133.67893806876899 133.67893806876899 0.0 0.0
305.70579305182525 305.70579305182525 0.0 0.0
533.4361336428215 533.4361336428215 0.0 0.0
817.5630011836903 817.5630011836903 0.0 0.0
1160.0066056191524 1160.0066056191524 0.0 0.0
1541.7675608071775 1541.7675608071775 0.0 0.0
1923.86147553073 1923.86147553073 0.0 0.0
2182.9954294049317 2182.9954294049317 0.0 0.0
3275.3668997140862 3275.3668997140862 0.0 0.0
2182.31654651154 2182.31654651154 0.0 0.0
1922.0897923656307 1922.0897923656307 0.0 0.0
1539.062412702706 1539.062412702706 0.0 0.0
1156.7629131973133 1156.7629131973133 0.0 0.0
814.3433396417757 814.3433396417757 0.0 0.0
531.0843163775854 531.0843163775854 0.0 0.0
305.1144810311378 305.1144810311378 0.0 0.0
134.65801581976945 134.65801581976945 0.0 0.0
36.30558928820654 36.30558928820654 0.0 0.0
10.46601292089101 10.46601292089101 0.0 0.0
664.0420374546562 664.0420374546562 0.0 0.0
120.15955388187874 120.15955388187874 0.0 0.0
143.1584183417839 143.1584183417839 0.0 0.0
299.7034218322466 299.7034218322466 0.0 0.0
528.6893480242593 528.6893480242593 0.0 0.0
833.217276977461 833.217276977461 0.0 0.0
1199.7932377288698 1199.7932377288698 0.0 0.0
1609.8942241408693 1609.8942241408693 0.0 0.0
2004.2967531421987 2004.2967531421987 0.0 0.0
2276.8541049293644 2276.8541049293644 0.0 0.0
2364.538817236062 2364.538817236062 0.0 0.0
2280.2985106657998 2280.2985106657998 0.0 0.0
2011.1834392438745 2011.1834392438745 0.0 0.0
1620.3982925597356 1620.3982925597356 0.0 0.0
1214.220688072678 1214.220688072678 0.0 0.0
851.6849926221433 851.6849926221433 0.0 0.0
550.6819503285157 550.6819503285157 0.0 0.0
323.8033716587798 323.8033716587798 0.0 0.0
170.22944357702963 170.22944357702963 0.0 0.0
189.68896937619468 189.68896937619468 0.0 0.0
636.1859294432456 636.1859294432456 0.0 0.0
492.9667598803972 492.9667598803972 0.0 0.0
14.916307829943145 14.916307829943145 0.0 0.0
66.55062848286727 66.55062848286727 0.0 0.0
142.2549665258294 142.2549665258294 0.0 0.0
244.18391635937644 244.18391635937644 0.0 0.0
376.6001629341495 376.6001629341495 0.0 0.0
536.7762995286287 536.7762995286287 0.0 0.0
717.4316626297937 717.4316626297937 0.0 0.0
894.7864887918145 894.7864887918145 0.0 0.0
1020.7042932658154 1020.7042932658154 0.0 0.0
1061.6654902311768 1061.6654902311768 0.0 0.0
1022.9380825484993 1022.9380825484993 0.0 0.0
899.2368739198852 899.2368739198852 0.0 0.0
724.1473584567145 724.1473584567145 0.0 0.0
545.7986786204085 545.7986786204085 0.0 0.0
387.81707586369976 387.81707586369976 0.0 0.0
257.01354129374926 257.01354129374926 0.0 0.0
155.71108366979465 155.71108366979465 0.0 0.0
76.10193009880119 76.10193009880119 0.0 0.0
17.226045989382097 17.226045989382097 0.0 0.0
517.7791623308476 517.7791623308476 0.0 0.0
274.2401822060424 274.2401822060424 0.0 0.0
40.72709517834318 40.72709517834318 0.0 0.0
57.19142429146696 57.19142429146696 0.0 0.0
74.44568255303109 74.44568255303109 0.0 0.0
102.99036919060072 102.99036919060072 0.0 0.0
136.0025593596957 136.0025593596957 0.0 0.0
176.50408162259401 176.50408162259401 0.0 0.0
226.5898825370995 226.5898825370995 0.0 0.0
281.0661607128487 281.0661607128487 0.0 0.0
317.32692280744027 317.32692280744027 0.0 0.0
327.5902069845649 327.5902069845649 0.0 0.0
318.2441186801273 318.2441186801273 0.0 0.0
282.8107814490752 282.8107814490752 0.0 0.0
229.11220046342686 229.11220046342686 0.0 0.0
179.71207421963223 179.71207421963223 0.0 0.0
139.66593161295268 139.66593161295268 0.0 0.0
106.66707508428186 106.66707508428186 0.0 0.0
76.60693950022204 76.60693950022204 0.0 0.0
55.64344085656868 55.64344085656868 0.0 0.0
34.46510677656585 34.46510677656585 0.0 0.0
286.14748582623844 286.14748582623844 0.0 0.0
126.4992624352156 126.4992624352156 0.0 0.0
59.08831686943058 59.08831686943058 0.0 0.0
73.66159711093452 73.66159711093452 0.0 0.0
67.4401907894434 67.4401907894434 0.0 0.0
66.56668240041917 66.56668240041917 0.0 0.0
65.57650215296597 65.57650215296597 0.0 0.0
64.41570716186071 64.41570716186071 0.0 0.0
66.60310252091382 66.60310252091382 0.0 0.0
76.98363079146118 76.98363079146118 0.0 0.0
88.44776830398095 88.44776830398095 0.0 0.0
95.95500811044003 95.95500811044003 0.0 0.0
88.12342429736256 88.12342429736256 0.0 0.0
76.20709074208786 76.20709074208786 0.0 0.0
65.3140142572148 65.3140142572148 0.0 0.0
62.516134706978505 62.516134706978505 0.0 0.0
62.930571922609175 62.930571922609175 0.0 0.0
62.8935863659974 62.8935863659974 0.0 0.0
62.246770837821146 62.246770837821146 0.0 0.0
67.72171272220545 67.72171272220545 0.0 0.0
54.19005162148099 54.19005162148099 0.0 0.0
133.14881505680614 133.14881505680614 0.0 0.0
48.01878289447677 48.01878289447677 0.0 0.0
54.33824286973246 54.33824286973246 0.0 0.0
87.04327327158776 87.04327327158776 0.0 0.0
102.51264354145604 102.51264354145604 0.0 0.0
123.60659354879309 123.60659354879309 0.0 0.0
152.8370321929754 152.8370321929754 0.0 0.0
187.4375116549504 187.4375116549504 0.0 0.0
221.13410324804218 221.13410324804218 0.0 0.0
258.99883315187805 258.99883315187805 0.0 0.0
318.39528805602157 318.39528805602157 0.0 0.0
356.41313457552286 356.41313457552286 0.0 0.0
316.93988624342217 316.93988624342217 0.0 0.0
256.0103025127444 256.0103025127444 0.0 0.0
216.61534191295885 216.61534191295885 0.0 0.0
181.45848804860032 181.45848804860032 0.0 0.0
145.59046726502402 145.59046726502402 0.0 0.0
115.46697681350297 115.46697681350297 0.0 0.0
94.48312270588919 94.48312270588919 0.0 0.0
81.40111589281713 81.40111589281713 0.0 0.0
51.91496021548495 51.91496021548495 0.0 0.0
50.520180708310754 50.520180708310754 0.0 0.0
16.754878512999703 16.754878512999703 0.0 0.0
41.467259361644565 41.467259361644565 0.0 0.0
103.03184412305005 103.03184412305005 0.0 0.0
184.39460043194794 184.39460043194794 0.0 0.0
285.70633564616753 285.70633564616753 0.0 0.0
411.31493019633626 411.31493019633626 0.0 0.0
558.3541199847457 558.3541199847457 0.0 0.0
718.6801991977114 718.6801991977114 0.0 0.0
842.3289067348427 842.3289067348427 0.0 0.0
1027.337130644012 1027.337130644012 0.0 0.0
1117.5511853202895 1117.5511853202895 0.0 0.0
1024.7569754431513 1024.7569754431513 0.0 0.0
837.2737841283047 837.2737841283047 0.0 0.0
711.1187961027979 711.1187961027979 0.0 0.0
548.8408839507345 548.8408839507345 0.0 0.0
400.682369632609 400.682369632609 0.0 0.0
275.46021026627136 275.46021026627136 0.0 0.0
176.72232015494038 176.72232015494038 0.0 0.0
99.48999710301443 99.48999710301443 0.0 0.0
40.54323984824419 40.54323984824419 0.0 0.0
17.374991667870884 17.374991667870884 0.0 0.0
10.295054547382883 10.295054547382883 0.0 0.0
44.760173679083636 44.760173679083636 0.0 0.0
162.50739211773111 162.50739211773111 0.0 0.0
355.0888251298384 355.0888251298384 0.0 0.0
594.8690388126047 594.8690388126047 0.0 0.0
887.0242187166631 887.0242187166631 0.0 0.0
1230.7392076701508 1230.7392076701508 0.0 0.0
1615.26892574556 1615.26892574556 0.0 0.0
2007.991335780735 2007.991335780735 0.0 0.0
2383.74908979443 2383.74908979443 0.0 0.0
2049.6066518939933 2049.6066518939933 0.0 0.0
2380.421575182382 2380.421575182382 0.0 0.0
2000.1089879439696 2000.1089879439696 0.0 0.0
1603.7083691666644 1603.7083691666644 0.0 0.0
1216.6152798230064 1216.6152798230064 0.0 0.0
872.1921954367813 872.1921954367813 0.0 0.0
582.4557522783894 582.4557522783894 0.0 0.0
348.57894890082383 348.57894890082383 0.0 0.0
161.90459175264732 161.90459175264732 0.0 0.0
45.5748083118884 45.5748083118884 0.0 0.0
10.903534945177526 10.903534945177526 0.0 0.0