# vtk DataFile Version 3.0
Some data
ASCII
DATASET UNSTRUCTURED_GRID
POINTS 1029 float
0.0 0.0 0.0
0.8 0.0 0.0
1.6 0.0 0.0
2.4000000000000004 0.0 0.0
3.2 0.0 0.0
4.0 0.0 0.0
4.800000000000001 0.0 0.0
5.6000000000000005 0.0 0.0
6.4 0.0 0.0
7.2 0.0 0.0
8.0 0.0 0.0
8.8 0.0 0.0
9.600000000000001 0.0 0.0
10.4 0.0 0.0
11.200000000000001 0.0 0.0
12.0 0.0 0.0
12.8 0.0 0.0
13.600000000000001 0.0 0.0
14.4 0.0 0.0
15.200000000000001 0.0 0.0
16.0 0.0 0.0
0.0 0.3333333333333333 0.0
0.8 0.3333333333333333 0.0
1.6 0.3333333333333333 0.0
2.4000000000000004 0.3333333333333333 0.0
3.2 0.3333333333333333 0.0
4.0 0.3333333333333333 0.0
4.800000000000001 0.3333333333333333 0.0
5.6000000000000005 0.3333333333333333 0.0
6.4 0.3333333333333333 0.0
7.2 0.3333333333333333 0.0
8.0 0.3333333333333333 0.0
8.8 0.3333333333333333 0.0
9.600000000000001 0.3333333333333333 0.0
10.4 0.3333333333333333 0.0
11.200000000000001 0.3333333333333333 0.0
12.0 0.3333333333333333 0.0
12.8 0.3333333333333333 0.0
13.600000000000001 0.3333333333333333 0.0
14.4 0.3333333333333333 0.0
15.200000000000001 0.3333333333333333 0.0
16.0 0.3333333333333333 0.0
0.0 0.6666666666666666 0.0
0.8 0.6666666666666666 0.0
1.6 0.6666666666666666 0.0
2.4000000000000004 0.6666666666666666 0.0
3.2 0.6666666666666666 0.0
4.0 0.6666666666666666 0.0
4.800000000000001 0.6666666666666666 0.0
5.6000000000000005 0.6666666666666666 0.0
6.4 0.6666666666666666 0.0
7.2 0.6666666666666666 0.0
8.0 0.6666666666666666 0.0
8.8 0.6666666666666666 0.0
9.600000000000001 0.6666666666666666 0.0
10.4 0.6666666666666666 0.0
11.200000000000001 0.6666666666666666 0.0
12.0 0.6666666666666666 0.0
12.8 0.6666666666666666 0.0
13.600000000000001 0.6666666666666666 0.0
14.4 0.6666666666666666 0.0
15.200000000000001 0.6666666666666666 0.0
16.0 0.6666666666666666 0.0
0.0 1.0 0.0
0.8 1.0 0.0
1.6 1.0 0.0
2.4000000000000004 1.0 0.0
3.2 1.0 0.0
4.0 1.0 0.0
4.800000000000001 1.0 0.0
5.6000000000000005 1.0 0.0
6.4 1.0 0.0
7.2 1.0 0.0
8.0 1.0 0.0
8.8 1.0 0.0
9.600000000000001 1.0 0.0
10.4 1.0 0.0
11.200000000000001 1.0 0.0
12.0 1.0 0.0
12.8 1.0 0.0
13.600000000000001 1.0 0.0
14.4 1.0 0.0
15.200000000000001 1.0 0.0
16.0 1.0 0.0
0.0 1.3333333333333333 0.0
0.8 1.3333333333333333 0.0
1.6 1.3333333333333333 0.0
2.4000000000000004 1.3333333333333333 0.0
3.2 1.3333333333333333 0.0
4.0 1.3333333333333333 0.0
4.800000000000001 1.3333333333333333 0.0
5.6000000000000005 1.3333333333333333 0.0
6.4 1.3333333333333333 0.0
7.2 1.3333333333333333 0.0
8.0 1.3333333333333333 0.0
8.8 1.3333333333333333 0.0
9.600000000000001 1.3333333333333333 0.0
10.4 1.3333333333333333 0.0
11.200000000000001 1.3333333333333333 0.0
12.0 1.3333333333333333 0.0
12.8 1.3333333333333333 0.0
13.600000000000001 1.3333333333333333 0.0
14.4 1.3333333333333333 0.0
15.200000000000001 1.3333333333333333 0.0
16.0 1.3333333333333333 0.0
0.0 1.6666666666666665 0.0
0.8 1.6666666666666665 0.0
1.6 1.6666666666666665 0.0
2.4000000000000004 1.6666666666666665 0.0
3.2 1.6666666666666665 0.0
4.0 1.6666666666666665 0.0
4.800000000000001 1.6666666666666665 0.0
5.6000000000000005 1.6666666666666665 0.0
6.4 1.6666666666666665 0.0
7.2 1.6666666666666665 0.0
8.0 1.6666666666666665 0.0
8.8 1.6666666666666665 0.0
9.600000000000001 1.6666666666666665 0.0
10.4 1.6666666666666665 0.0
11.200000000000001 1.6666666666666665 0.0
12.0 1.6666666666666665 0.0
12.8 1.6666666666666665 0.0
13.600000000000001 1.6666666666666665 0.0
14.4 1.6666666666666665 0.0
15.200000000000001 1.6666666666666665 0.0
16.0 1.6666666666666665 0.0
0.0 2.0 0.0
0.8 2.0 0.0
1.6 2.0 0.0
2.4000000000000004 2.0 0.0
3.2 2.0 0.0
4.0 2.0 0.0
4.800000000000001 2.0 0.0
5.6000000000000005 2.0 0.0
6.4 2.0 0.0
7.2 2.0 0.0
8.0 2.0 0.0
8.8 2.0 0.0
9.600000000000001 2.0 0.0
10.4 2.0 0.0
11.200000000000001 2.0 0.0
12.0 2.0 0.0
12.8 2.0 0.0
13.600000000000001 2.0 0.0
14.4 2.0 0.0
15.200000000000001 2.0 0.0
16.0 2.0 0.0
0.0 0.0 1.6666666666666667
0.8 0.0 1.6666666666666667
1.6 0.0 1.6666666666666667
2.4000000000000004 0.0 1.6666666666666667
3.2 0.0 1.6666666666666667
4.0 0.0 1.6666666666666667
4.800000000000001 0.0 1.6666666666666667
5.6000000000000005 0.0 1.6666666666666667
6.4 0.0 1.6666666666666667
7.2 0.0 1.6666666666666667
8.0 0.0 1.6666666666666667
8.8 0.0 1.6666666666666667
9.600000000000001 0.0 1.6666666666666667
10.4 0.0 1.6666666666666667
11.200000000000001 0.0 1.6666666666666667
12.0 0.0 1.6666666666666667
12.8 0.0 1.6666666666666667
13.600000000000001 0.0 1.6666666666666667
14.4 0.0 1.6666666666666667
15.200000000000001 0.0 1.6666666666666667
16.0 0.0 1.6666666666666667
0.0 0.3333333333333333 1.6666666666666667
0.8 0.3333333333333333 1.6666666666666667
1.6 0.3333333333333333 1.6666666666666667
2.4000000000000004 0.3333333333333333 1.6666666666666667
3.2 0.3333333333333333 1.6666666666666667
4.0 0.3333333333333333 1.6666666666666667
4.800000000000001 0.3333333333333333 1.6666666666666667
5.6000000000000005 0.3333333333333333 1.6666666666666667
6.4 0.3333333333333333 1.6666666666666667
7.2 0.3333333333333333 1.6666666666666667
8.0 0.3333333333333333 1.6666666666666667
8.8 0.3333333333333333 1.6666666666666667
9.600000000000001 0.3333333333333333 1.6666666666666667
10.4 0.3333333333333333 1.6666666666666667
11.200000000000001 0.3333333333333333 1.6666666666666667
12.0 0.3333333333333333 1.6666666666666667
12.8 0.3333333333333333 1.6666666666666667
13.600000000000001 0.3333333333333333 1.6666666666666667
14.4 0.3333333333333333 1.6666666666666667
15.200000000000001 0.3333333333333333 1.6666666666666667
16.0 0.3333333333333333 1.6666666666666667
0.0 0.6666666666666666 1.6666666666666667
0.8 0.6666666666666666 1.6666666666666667
1.6 0.6666666666666666 1.6666666666666667
2.4000000000000004 0.6666666666666666 1.6666666666666667
3.2 0.6666666666666666 1.6666666666666667
4.0 0.6666666666666666 1.6666666666666667
4.800000000000001 0.6666666666666666 1.6666666666666667
5.6000000000000005 0.6666666666666666 1.6666666666666667
6.4 0.6666666666666666 1.6666666666666667
7.2 0.6666666666666666 1.6666666666666667
8.0 0.6666666666666666 1.6666666666666667
8.8 0.6666666666666666 1.6666666666666667
9.600000000000001 0.6666666666666666 1.6666666666666667
10.4 0.6666666666666666 1.6666666666666667
11.200000000000001 0.6666666666666666 1.6666666666666667
12.0 0.6666666666666666 1.6666666666666667
12.8 0.6666666666666666 1.6666666666666667
13.600000000000001 0.6666666666666666 1.6666666666666667
14.4 0.6666666666666666 1.6666666666666667
15.200000000000001 0.6666666666666666 1.6666666666666667
16.0 0.6666666666666666 1.6666666666666667
0.0 1.0 1.6666666666666667
0.8 1.0 1.6666666666666667
1.6 1.0 1.6666666666666667
2.4000000000000004 1.0 1.6666666666666667
3.2 1.0 1.6666666666666667
4.0 1.0 1.6666666666666667
4.800000000000001 1.0 1.6666666666666667
5.6000000000000005 1.0 1.6666666666666667
6.4 1.0 1.6666666666666667
7.2 1.0 1.6666666666666667
8.0 1.0 1.6666666666666667
8.8 1.0 1.6666666666666667
9.600000000000001 1.0 1.6666666666666667
10.4 1.0 1.6666666666666667
11.200000000000001 1.0 1.6666666666666667
12.0 1.0 1.6666666666666667
12.8 1.0 1.6666666666666667
13.600000000000001 1.0 1.6666666666666667
14.4 1.0 1.6666666666666667
15.200000000000001 1.0 1.6666666666666667
16.0 1.0 1.6666666666666667
0.0 1.3333333333333333 1.6666666666666667
0.8 1.3333333333333333 1.6666666666666667
1.6 1.3333333333333333 1.6666666666666667
2.4000000000000004 1.3333333333333333 1.6666666666666667
3.2 1.3333333333333333 1.6666666666666667
4.0 1.3333333333333333 1.6666666666666667
4.800000000000001 1.3333333333333333 1.6666666666666667
5.6000000000000005 1.3333333333333333 1.6666666666666667
6.4 1.3333333333333333 1.6666666666666667
7.2 1.3333333333333333 1.6666666666666667
8.0 1.3333333333333333 1.6666666666666667
8.8 1.3333333333333333 1.6666666666666667
9.600000000000001 1.3333333333333333 1.6666666666666667
10.4 1.3333333333333333 1.6666666666666667
11.200000000000001 1.3333333333333333 1.6666666666666667
12.0 1.3333333333333333 1.6666666666666667
12.8 1.3333333333333333 1.6666666666666667
13.600000000000001 1.3333333333333333 1.6666666666666667
14.4 1.3333333333333333 1.6666666666666667
15.200000000000001 1.3333333333333333 1.6666666666666667
16.0 1.3333333333333333 1.6666666666666667
0.0 1.6666666666666665 1.6666666666666667
0.8 1.6666666666666665 1.6666666666666667
1.6 1.6666666666666665 1.6666666666666667
2.4000000000000004 1.6666666666666665 1.6666666666666667
3.2 1.6666666666666665 1.6666666666666667
4.0 1.6666666666666665 1.6666666666666667
4.800000000000001 1.6666666666666665 1.6666666666666667
5.6000000000000005 1.6666666666666665 1.6666666666666667
6.4 1.6666666666666665 1.6666666666666667
7.2 1.6666666666666665 1.6666666666666667
8.0 1.6666666666666665 1.6666666666666667
8.8 1.6666666666666665 1.6666666666666667
9.600000000000001 1.6666666666666665 1.6666666666666667
10.4 1.6666666666666665 1.6666666666666667
11.200000000000001 1.6666666666666665 1.6666666666666667
12.0 1.6666666666666665 1.6666666666666667
12.8 1.6666666666666665 1.6666666666666667
13.600000000000001 1.6666666666666665 1.6666666666666667
14.4 1.6666666666666665 1.6666666666666667
15.200000000000001 1.6666666666666665 1.6666666666666667
16.0 1.6666666666666665 1.6666666666666667
0.0 2.0 1.6666666666666667
0.8 2.0 1.6666666666666667
1.6 2.0 1.6666666666666667
2.4000000000000004 2.0 1.6666666666666667
3.2 2.0 1.6666666666666667
4.0 2.0 1.6666666666666667
4.800000000000001 2.0 1.6666666666666667
5.6000000000000005 2.0 1.6666666666666667
6.4 2.0 1.6666666666666667
7.2 2.0 1.6666666666666667
8.0 2.0 1.6666666666666667
8.8 2.0 1.6666666666666667
9.600000000000001 2.0 1.6666666666666667
10.4 2.0 1.6666666666666667
11.200000000000001 2.0 1.6666666666666667
12.0 2.0 1.6666666666666667
12.8 2.0 1.6666666666666667
13.600000000000001 2.0 1.6666666666666667
14.4 2.0 1.6666666666666667
15.200000000000001 2.0 1.6666666666666667
16.0 2.0 1.6666666666666667
0.0 0.0 3.3333333333333335
0.8 0.0 3.3333333333333335
1.6 0.0 3.3333333333333335
2.4000000000000004 0.0 3.3333333333333335
3.2 0.0 3.3333333333333335
4.0 0.0 3.3333333333333335
4.800000000000001 0.0 3.3333333333333335
5.6000000000000005 0.0 3.3333333333333335
6.4 0.0 3.3333333333333335
7.2 0.0 3.3333333333333335
8.0 0.0 3.3333333333333335
8.8 0.0 3.3333333333333335
9.600000000000001 0.0 3.3333333333333335
10.4 0.0 3.3333333333333335
11.200000000000001 0.0 3.3333333333333335
12.0 0.0 3.3333333333333335
12.8 0.0 3.3333333333333335
13.600000000000001 0.0 3.3333333333333335
14.4 0.0 3.3333333333333335
15.200000000000001 0.0 3.3333333333333335
16.0 0.0 3.3333333333333335
0.0 0.3333333333333333 3.3333333333333335
0.8 0.3333333333333333 3.3333333333333335
1.6 0.3333333333333333 3.3333333333333335
2.4000000000000004 0.3333333333333333 3.3333333333333335
3.2 0.3333333333333333 3.3333333333333335
4.0 0.3333333333333333 3.3333333333333335
4.800000000000001 0.3333333333333333 3.3333333333333335
5.6000000000000005 0.3333333333333333 3.3333333333333335
6.4 0.3333333333333333 3.3333333333333335
7.2 0.3333333333333333 3.3333333333333335
8.0 0.3333333333333333 3.3333333333333335
8.8 0.3333333333333333 3.3333333333333335
9.600000000000001 0.3333333333333333 3.3333333333333335
10.4 0.3333333333333333 3.3333333333333335
11.200000000000001 0.3333333333333333 3.3333333333333335
12.0 0.3333333333333333 3.3333333333333335
12.8 0.3333333333333333 3.3333333333333335
13.600000000000001 0.3333333333333333 3.3333333333333335
14.4 0.3333333333333333 3.3333333333333335
15.200000000000001 0.3333333333333333 3.3333333333333335
16.0 0.3333333333333333 3.3333333333333335
0.0 0.6666666666666666 3.3333333333333335
0.8 0.6666666666666666 3.3333333333333335
1.6 0.6666666666666666 3.3333333333333335
2.4000000000000004 0.6666666666666666 3.3333333333333335
3.2 0.6666666666666666 3.3333333333333335
4.0 0.6666666666666666 3.3333333333333335
4.800000000000001 0.6666666666666666 3.3333333333333335
5.6000000000000005 0.6666666666666666 3.3333333333333335
6.4 0.6666666666666666 3.3333333333333335
7.2 0.6666666666666666 3.3333333333333335
8.0 0.6666666666666666 3.3333333333333335
8.8 0.6666666666666666 3.3333333333333335
9.600000000000001 0.6666666666666666 3.3333333333333335
10.4 0.6666666666666666 3.3333333333333335
11.200000000000001 0.6666666666666666 3.3333333333333335
12.0 0.6666666666666666 3.3333333333333335
12.8 0.6666666666666666 3.3333333333333335
13.600000000000001 0.6666666666666666 3.3333333333333335
14.4 0.6666666666666666 3.3333333333333335
15.200000000000001 0.6666666666666666 3.3333333333333335
16.0 0.6666666666666666 3.3333333333333335
0.0 1.0 3.3333333333333335
0.8 1.0 3.3333333333333335
1.6 1.0 3.3333333333333335
2.4000000000000004 1.0 3.3333333333333335
3.2 1.0 3.3333333333333335
4.0 1.0 3.3333333333333335
4.800000000000001 1.0 3.3333333333333335
5.6000000000000005 1.0 3.3333333333333335
6.4 1.0 3.3333333333333335
7.2 1.0 3.3333333333333335
8.0 1.0 3.3333333333333335
8.8 1.0 3.3333333333333335
9.600000000000001 1.0 3.3333333333333335
10.4 1.0 3.3333333333333335
11.200000000000001 1.0 3.3333333333333335
12.0 1.0 3.3333333333333335
12.8 1.0 3.3333333333333335
13.600000000000001 1.0 3.3333333333333335
14.4 1.0 3.3333333333333335
15.200000000000001 1.0 3.3333333333333335
16.0 1.0 3.3333333333333335
0.0 1.3333333333333333 3.3333333333333335
0.8 1.3333333333333333 3.3333333333333335
1.6 1.3333333333333333 3.3333333333333335
2.4000000000000004 1.3333333333333333 3.3333333333333335
3.2 1.3333333333333333 3.3333333333333335
4.0 1.3333333333333333 3.3333333333333335
4.800000000000001 1.3333333333333333 3.3333333333333335
5.6000000000000005 1.3333333333333333 3.3333333333333335
6.4 1.3333333333333333 3.3333333333333335
7.2 1.3333333333333333 3.3333333333333335
8.0 1.3333333333333333 3.3333333333333335
8.8 1.3333333333333333 3.3333333333333335
9.600000000000001 1.3333333333333333 3.3333333333333335
10.4 1.3333333333333333 3.3333333333333335
11.200000000000001 1.3333333333333333 3.3333333333333335
12.0 1.3333333333333333 3.3333333333333335
12.8 1.3333333333333333 3.3333333333333335
13.600000000000001 1.3333333333333333 3.3333333333333335
14.4 1.3333333333333333 3.3333333333333335
15.200000000000001 1.3333333333333333 3.3333333333333335
16.0 1.3333333333333333 3.3333333333333335
0.0 1.6666666666666665 3.3333333333333335
0.8 1.6666666666666665 3.3333333333333335
1.6 1.6666666666666665 3.3333333333333335
2.4000000000000004 1.6666666666666665 3.3333333333333335
3.2 1.6666666666666665 3.3333333333333335
4.0 1.6666666666666665 3.3333333333333335
4.800000000000001 1.6666666666666665 3.3333333333333335
5.6000000000000005 1.6666666666666665 3.3333333333333335
6.4 1.6666666666666665 3.3333333333333335
7.2 1.6666666666666665 3.3333333333333335
8.0 1.6666666666666665 3.3333333333333335
8.8 1.6666666666666665 3.3333333333333335
9.600000000000001 1.6666666666666665 3.3333333333333335
10.4 1.6666666666666665 3.3333333333333335
11.200000000000001 1.6666666666666665 3.3333333333333335
12.0 1.6666666666666665 3.3333333333333335
12.8 1.6666666666666665 3.3333333333333335
13.600000000000001 1.6666666666666665 3.3333333333333335
14.4 1.6666666666666665 3.3333333333333335
15.200000000000001 1.6666666666666665 3.3333333333333335
16.0 1.6666666666666665 3.3333333333333335
0.0 2.0 3.3333333333333335
0.8 2.0 3.3333333333333335
1.6 2.0 3.3333333333333335
2.4000000000000004 2.0 3.3333333333333335
3.2 2.0 3.3333333333333335
4.0 2.0 3.3333333333333335
4.800000000000001 2.0 3.3333333333333335
5.6000000000000005 2.0 3.3333333333333335
6.4 2.0 3.3333333333333335
7.2 2.0 3.3333333333333335
8.0 2.0 3.3333333333333335
8.8 2.0 3.3333333333333335
9.600000000000001 2.0 3.3333333333333335
10.4 2.0 3.3333333333333335
11.200000000000001 2.0 3.3333333333333335
12.0 2.0 3.3333333333333335
12.8 2.0 3.3333333333333335
13.600000000000001 2.0 3.3333333333333335
14.4 2.0 3.3333333333333335
15.200000000000001 2.0 3.3333333333333335
16.0 2.0 3.3333333333333335
0.0 0.0 5.0
0.8 0.0 5.0
1.6 0.0 5.0
2.4000000000000004 0.0 5.0
3.2 0.0 5.0
4.0 0.0 5.0
4.800000000000001 0.0 5.0
5.6000000000000005 0.0 5.0
6.4 0.0 5.0
7.2 0.0 5.0
8.0 0.0 5.0
8.8 0.0 5.0
9.600000000000001 0.0 5.0
10.4 0.0 5.0
11.200000000000001 0.0 5.0
12.0 0.0 5.0
12.8 0.0 5.0
13.600000000000001 0.0 5.0
14.4 0.0 5.0
15.200000000000001 0.0 5.0
16.0 0.0 5.0
0.0 0.3333333333333333 5.0
0.8 0.3333333333333333 5.0
1.6 0.3333333333333333 5.0
2.4000000000000004 0.3333333333333333 5.0
3.2 0.3333333333333333 5.0
4.0 0.3333333333333333 5.0
4.800000000000001 0.3333333333333333 5.0
5.6000000000000005 0.3333333333333333 5.0
6.4 0.3333333333333333 5.0
7.2 0.3333333333333333 5.0
8.0 0.3333333333333333 5.0
8.8 0.3333333333333333 5.0
9.600000000000001 0.3333333333333333 5.0
10.4 0.3333333333333333 5.0
11.200000000000001 0.3333333333333333 5.0
12.0 0.3333333333333333 5.0
12.8 0.3333333333333333 5.0
13.600000000000001 0.3333333333333333 5.0
14.4 0.3333333333333333 5.0
15.200000000000001 0.3333333333333333 5.0
16.0 0.3333333333333333 5.0
0.0 0.6666666666666666 5.0
0.8 0.6666666666666666 5.0
1.6 0.6666666666666666 5.0
2.4000000000000004 0.6666666666666666 5.0
3.2 0.6666666666666666 5.0
4.0 0.6666666666666666 5.0
4.800000000000001 0.6666666666666666 5.0
5.6000000000000005 0.6666666666666666 5.0
6.4 0.6666666666666666 5.0
7.2 0.6666666666666666 5.0
8.0 0.6666666666666666 5.0
8.8 0.6666666666666666 5.0
9.600000000000001 0.6666666666666666 5.0
10.4 0.6666666666666666 5.0
11.200000000000001 0.6666666666666666 5.0
12.0 0.6666666666666666 5.0
12.8 0.6666666666666666 5.0
13.600000000000001 0.6666666666666666 5.0
14.4 0.6666666666666666 5.0
15.200000000000001 0.6666666666666666 5.0
16.0 0.6666666666666666 5.0
0.0 1.0 5.0
0.8 1.0 5.0
1.6 1.0 5.0
2.4000000000000004 1.0 5.0
3.2 1.0 5.0
4.0 1.0 5.0
4.800000000000001 1.0 5.0
5.6000000000000005 1.0 5.0
6.4 1.0 5.0
7.2 1.0 5.0
8.0 1.0 5.0
8.8 1.0 5.0
9.600000000000001 1.0 5.0
10.4 1.0 5.0
11.200000000000001 1.0 5.0
12.0 1.0 5.0
12.8 1.0 5.0
13.600000000000001 1.0 5.0
14.4 1.0 5.0
15.200000000000001 1.0 5.0
16.0 1.0 5.0
0.0 1.3333333333333333 5.0
0.8 1.3333333333333333 5.0
1.6 1.3333333333333333 5.0
2.4000000000000004 1.3333333333333333 5.0
3.2 1.3333333333333333 5.0
4.0 1.3333333333333333 5.0
4.800000000000001 1.3333333333333333 5.0
5.6000000000000005 1.3333333333333333 5.0
6.4 1.3333333333333333 5.0
7.2 1.3333333333333333 5.0
8.0 1.3333333333333333 5.0
8.8 1.3333333333333333 5.0
9.600000000000001 1.3333333333333333 5.0
10.4 1.3333333333333333 5.0
11.200000000000001 1.3333333333333333 5.0
12.0 1.3333333333333333 5.0
12.8 1.3333333333333333 5.0
13.600000000000001 1.3333333333333333 5.0
14.4 1.3333333333333333 5.0
15.200000000000001 1.3333333333333333 5.0
16.0 1.3333333333333333 5.0
0.0 1.6666666666666665 5.0
0.8 1.6666666666666665 5.0
1.6 1.6666666666666665 5.0
2.4000000000000004 1.6666666666666665 5.0
3.2 1.6666666666666665 5.0
4.0 1.6666666666666665 5.0
4.800000000000001 1.6666666666666665 5.0
5.6000000000000005 1.6666666666666665 5.0
6.4 1.6666666666666665 5.0
7.2 1.6666666666666665 5.0
8.0 1.6666666666666665 5.0
8.8 1.6666666666666665 5.0
9.600000000000001 1.6666666666666665 5.0
10.4 1.6666666666666665 5.0
11.200000000000001 1.6666666666666665 5.0
12.0 1.6666666666666665 5.0
12.8 1.6666666666666665 5.0
13.600000000000001 1.6666666666666665 5.0
14.4 1.6666666666666665 5.0
15.200000000000001 1.6666666666666665 5.0
16.0 1.6666666666666665 5.0
0.0 2.0 5.0
0.8 2.0 5.0
1.6 2.0 5.0
2.4000000000000004 2.0 5.0
3.2 2.0 5.0
4.0 2.0 5.0
4.800000000000001 2.0 5.0
5.6000000000000005 2.0 5.0
6.4 2.0 5.0
7.2 2.0 5.0
8.0 2.0 5.0
8.8 2.0 5.0
9.600000000000001 2.0 5.0
10.4 2.0 5.0
11.200000000000001 2.0 5.0
12.0 2.0 5.0
12.8 2.0 5.0
13.600000000000001 2.0 5.0
14.4 2.0 5.0
15.200000000000001 2.0 5.0
16.0 2.0 5.0
0.0 0.0 6.666666666666667
0.8 0.0 6.666666666666667
1.6 0.0 6.666666666666667
2.4000000000000004 0.0 6.666666666666667
3.2 0.0 6.666666666666667
4.0 0.0 6.666666666666667
4.800000000000001 0.0 6.666666666666667
5.6000000000000005 0.0 6.666666666666667
6.4 0.0 6.666666666666667
7.2 0.0 6.666666666666667
8.0 0.0 6.666666666666667
8.8 0.0 6.666666666666667
9.600000000000001 0.0 6.666666666666667
10.4 0.0 6.666666666666667
11.200000000000001 0.0 6.666666666666667
12.0 0.0 6.666666666666667
12.8 0.0 6.666666666666667
13.600000000000001 0.0 6.666666666666667
14.4 0.0 6.666666666666667
15.200000000000001 0.0 6.666666666666667
16.0 0.0 6.666666666666667
0.0 0.3333333333333333 6.666666666666667
0.8 0.3333333333333333 6.666666666666667
1.6 0.3333333333333333 6.666666666666667
2.4000000000000004 0.3333333333333333 6.666666666666667
3.2 0.3333333333333333 6.666666666666667
4.0 0.3333333333333333 6.666666666666667
4.800000000000001 0.3333333333333333 6.666666666666667
5.6000000000000005 0.3333333333333333 6.666666666666667
6.4 0.3333333333333333 6.666666666666667
7.2 0.3333333333333333 6.666666666666667
8.0 0.3333333333333333 6.666666666666667
8.8 0.3333333333333333 6.666666666666667
9.600000000000001 0.3333333333333333 6.666666666666667
10.4 0.3333333333333333 6.666666666666667
11.200000000000001 0.3333333333333333 6.666666666666667
12.0 0.3333333333333333 6.666666666666667
12.8 0.3333333333333333 6.666666666666667
13.600000000000001 0.3333333333333333 6.666666666666667
14.4 0.3333333333333333 6.666666666666667
15.200000000000001 0.3333333333333333 6.666666666666667
16.0 0.3333333333333333 6.666666666666667
0.0 0.6666666666666666 6.666666666666667
0.8 0.6666666666666666 6.666666666666667
1.6 0.6666666666666666 6.666666666666667
2.4000000000000004 0.6666666666666666 6.666666666666667
3.2 0.6666666666666666 6.666666666666667
4.0 0.6666666666666666 6.666666666666667
4.800000000000001 0.6666666666666666 6.666666666666667
5.6000000000000005 0.6666666666666666 6.666666666666667
6.4 0.6666666666666666 6.666666666666667
7.2 0.6666666666666666 6.666666666666667
8.0 0.6666666666666666 6.666666666666667
8.8 0.6666666666666666 6.666666666666667
9.600000000000001 0.6666666666666666 6.666666666666667
10.4 0.6666666666666666 6.666666666666667
11.200000000000001 0.6666666666666666 6.666666666666667
12.0 0.6666666666666666 6.666666666666667
12.8 0.6666666666666666 6.666666666666667
13.600000000000001 0.6666666666666666 6.666666666666667
14.4 0.6666666666666666 6.666666666666667
15.200000000000001 0.6666666666666666 6.666666666666667
16.0 0.6666666666666666 6.666666666666667
0.0 1.0 6.666666666666667
0.8 1.0 6.666666666666667
1.6 1.0 6.666666666666667
2.4000000000000004 1.0 6.666666666666667
3.2 1.0 6.666666666666667
4.0 1.0 6.666666666666667
4.800000000000001 1.0 6.666666666666667
5.6000000000000005 1.0 6.666666666666667
6.4 1.0 6.666666666666667
7.2 1.0 6.666666666666667
8.0 1.0 6.666666666666667
8.8 1.0 6.666666666666667
9.600000000000001 1.0 6.666666666666667
10.4 1.0 6.666666666666667
11.200000000000001 1.0 6.666666666666667
12.0 1.0 6.666666666666667
12.8 1.0 6.666666666666667
13.600000000000001 1.0 6.666666666666667
14.4 1.0 6.666666666666667
15.200000000000001 1.0 6.666666666666667
16.0 1.0 6.666666666666667
0.0 1.3333333333333333 6.666666666666667
0.8 1.3333333333333333 6.666666666666667
1.6 1.3333333333333333 6.666666666666667
2.4000000000000004 1.3333333333333333 6.666666666666667
3.2 1.3333333333333333 6.666666666666667
4.0 1.3333333333333333 6.666666666666667
4.800000000000001 1.3333333333333333 6.666666666666667
5.6000000000000005 1.3333333333333333 6.666666666666667
6.4 1.3333333333333333 6.666666666666667
7.2 1.3333333333333333 6.666666666666667
8.0 1.3333333333333333 6.666666666666667
8.8 1.3333333333333333 6.666666666666667
9.600000000000001 1.3333333333333333 6.666666666666667
10.4 1.3333333333333333 6.666666666666667
11.200000000000001 1.3333333333333333 6.666666666666667
12.0 1.3333333333333333 6.666666666666667
12.8 1.3333333333333333 6.666666666666667
13.600000000000001 1.3333333333333333 6.666666666666667
14.4 1.3333333333333333 6.666666666666667
15.200000000000001 1.3333333333333333 6.666666666666667
16.0 1.3333333333333333 6.666666666666667
0.0 1.6666666666666665 6.666666666666667
0.8 1.6666666666666665 6.666666666666667
1.6 1.6666666666666665 6.666666666666667
2.4000000000000004 1.6666666666666665 6.666666666666667
3.2 1.6666666666666665 6.666666666666667
4.0 1.6666666666666665 6.666666666666667
4.800000000000001 1.6666666666666665 6.666666666666667
5.6000000000000005 1.6666666666666665 6.666666666666667
6.4 1.6666666666666665 6.666666666666667
7.2 1.6666666666666665 6.666666666666667
8.0 1.6666666666666665 6.666666666666667
8.8 1.6666666666666665 6.666666666666667
9.600000000000001 1.6666666666666665 6.666666666666667
10.4 1.6666666666666665 6.666666666666667
11.200000000000001 1.6666666666666665 6.666666666666667
12.0 1.6666666666666665 6.666666666666667
12.8 1.6666666666666665 6.666666666666667
13.600000000000001 1.6666666666666665 6.666666666666667
14.4 1.6666666666666665 6.666666666666667
15.200000000000001 1.6666666666666665 6.666666666666667
16.0 1.6666666666666665 6.666666666666667
0.0 2.0 6.666666666666667
0.8 2.0 6.666666666666667
1.6 2.0 6.666666666666667
2.4000000000000004 2.0 6.666666666666667
3.2 2.0 6.666666666666667
4.0 2.0 6.666666666666667
4.800000000000001 2.0 6.666666666666667
5.6000000000000005 2.0 6.666666666666667
6.4 2.0 6.666666666666667
7.2 2.0 6.666666666666667
8.0 2.0 6.666666666666667
8.8 2.0 6.666666666666667
9.600000000000001 2.0 6.666666666666667
10.4 2.0 6.666666666666667
11.200000000000001 2.0 6.666666666666667
12.0 2.0 6.666666666666667
12.8 2.0 6.666666666666667
13.600000000000001 2.0 6.666666666666667
14.4 2.0 6.666666666666667
15.200000000000001 2.0 6.666666666666667
16.0 2.0 6.666666666666667
0.0 0.0 8.333333333333334
0.8 0.0 8.333333333333334
1.6 0.0 8.333333333333334
2.4000000000000004 0.0 8.333333333333334
3.2 0.0 8.333333333333334
4.0 0.0 8.333333333333334
4.800000000000001 0.0 8.333333333333334
5.6000000000000005 0.0 8.333333333333334
6.4 0.0 8.333333333333334
7.2 0.0 8.333333333333334
8.0 0.0 8.333333333333334
8.8 0.0 8.333333333333334
9.600000000000001 0.0 8.333333333333334
10.4 0.0 8.333333333333334
11.200000000000001 0.0 8.333333333333334
12.0 0.0 8.333333333333334
12.8 0.0 8.333333333333334
13.600000000000001 0.0 8.333333333333334
14.4 0.0 8.333333333333334
15.200000000000001 0.0 8.333333333333334
16.0 0.0 8.333333333333334
0.0 0.3333333333333333 8.333333333333334
0.8 0.3333333333333333 8.333333333333334
1.6 0.3333333333333333 8.333333333333334
2.4000000000000004 0.3333333333333333 8.333333333333334
3.2 0.3333333333333333 8.333333333333334
4.0 0.3333333333333333 8.333333333333334
4.800000000000001 0.3333333333333333 8.333333333333334
5.6000000000000005 0.3333333333333333 8.333333333333334
6.4 0.3333333333333333 8.333333333333334
7.2 0.3333333333333333 8.333333333333334
8.0 0.3333333333333333 8.333333333333334
8.8 0.3333333333333333 8.333333333333334
9.600000000000001 0.3333333333333333 8.333333333333334
10.4 0.3333333333333333 8.333333333333334
11.200000000000001 0.3333333333333333 8.333333333333334
12.0 0.3333333333333333 8.333333333333334
12.8 0.3333333333333333 8.333333333333334
13.600000000000001 0.3333333333333333 8.333333333333334
14.4 0.3333333333333333 8.333333333333334
15.200000000000001 0.3333333333333333 8.333333333333334
16.0 0.3333333333333333 8.333333333333334
0.0 0.6666666666666666 8.333333333333334
0.8 0.6666666666666666 8.333333333333334
1.6 0.6666666666666666 8.333333333333334
2.4000000000000004 0.6666666666666666 8.333333333333334
3.2 0.6666666666666666 8.333333333333334
4.0 0.6666666666666666 8.333333333333334
4.800000000000001 0.6666666666666666 8.333333333333334
5.6000000000000005 0.6666666666666666 8.333333333333334
6.4 0.6666666666666666 8.333333333333334
7.2 0.6666666666666666 8.333333333333334
8.0 0.6666666666666666 8.333333333333334
8.8 0.6666666666666666 8.333333333333334
9.600000000000001 0.6666666666666666 8.333333333333334
10.4 0.6666666666666666 8.333333333333334
11.200000000000001 0.6666666666666666 8.333333333333334
12.0 0.6666666666666666 8.333333333333334
12.8 0.6666666666666666 8.333333333333334
13.600000000000001 0.6666666666666666 8.333333333333334
14.4 0.6666666666666666 8.333333333333334
15.200000000000001 0.6666666666666666 8.333333333333334
16.0 0.6666666666666666 8.333333333333334
0.0 1.0 8.333333333333334
0.8 1.0 8.333333333333334
1.6 1.0 8.333333333333334
2.4000000000000004 1.0 8.333333333333334
3.2 1.0 8.333333333333334
4.0 1.0 8.333333333333334
4.800000000000001 1.0 8.333333333333334
5.6000000000000005 1.0 8.333333333333334
6.4 1.0 8.333333333333334
7.2 1.0 8.333333333333334
8.0 1.0 8.333333333333334
8.8 1.0 8.333333333333334
9.600000000000001 1.0 8.333333333333334
10.4 1.0 8.333333333333334
11.200000000000001 1.0 8.333333333333334
12.0 1.0 8.333333333333334
12.8 1.0 8.333333333333334
13.600000000000001 1.0 8.333333333333334
14.4 1.0 8.333333333333334
15.200000000000001 1.0 8.333333333333334
16.0 1.0 8.333333333333334
0.0 1.3333333333333333 8.333333333333334
0.8 1.3333333333333333 8.333333333333334
1.6 1.3333333333333333 8.333333333333334
2.4000000000000004 1.3333333333333333 8.333333333333334
3.2 1.3333333333333333 8.333333333333334
4.0 1.3333333333333333 8.333333333333334
4.800000000000001 1.3333333333333333 8.333333333333334
5.6000000000000005 1.3333333333333333 8.333333333333334
6.4 1.3333333333333333 8.333333333333334
7.2 1.3333333333333333 8.333333333333334
8.0 1.3333333333333333 8.333333333333334
8.8 1.3333333333333333 8.333333333333334
9.600000000000001 1.3333333333333333 8.333333333333334
10.4 1.3333333333333333 8.333333333333334
11.200000000000001 1.3333333333333333 8.333333333333334
12.0 1.3333333333333333 8.333333333333334
12.8 1.3333333333333333 8.333333333333334
13.600000000000001 1.3333333333333333 8.333333333333334
14.4 1.3333333333333333 8.333333333333334
15.200000000000001 1.3333333333333333 8.333333333333334
16.0 1.3333333333333333 8.333333333333334
0.0 1.6666666666666665 8.333333333333334
0.8 1.6666666666666665 8.333333333333334
1.6 1.6666666666666665 8.333333333333334
2.4000000000000004 1.6666666666666665 8.333333333333334
3.2 1.6666666666666665 8.333333333333334
4.0 1.6666666666666665 8.333333333333334
4.800000000000001 1.6666666666666665 8.333333333333334
5.6000000000000005 1.6666666666666665 8.333333333333334
6.4 1.6666666666666665 8.333333333333334
7.2 1.6666666666666665 8.333333333333334
8.0 1.6666666666666665 8.333333333333334
8.8 1.6666666666666665 8.333333333333334
9.600000000000001 1.6666666666666665 8.333333333333334
10.4 1.6666666666666665 8.333333333333334
11.200000000000001 1.6666666666666665 8.333333333333334
12.0 1.6666666666666665 8.333333333333334
12.8 1.6666666666666665 8.333333333333334
13.600000000000001 1.6666666666666665 8.333333333333334
14.4 1.6666666666666665 8.333333333333334
15.200000000000001 1.6666666666666665 8.333333333333334
16.0 1.6666666666666665 8.333333333333334
0.0 2.0 8.333333333333334
0.8 2.0 8.333333333333334
1.6 2.0 8.333333333333334
2.4000000000000004 2.0 8.333333333333334
3.2 2.0 8.333333333333334
4.0 2.0 8.333333333333334
4.800000000000001 2.0 8.333333333333334
5.6000000000000005 2.0 8.333333333333334
6.4 2.0 8.333333333333334
7.2 2.0 8.333333333333334
8.0 2.0 8.333333333333334
8.8 2.0 8.333333333333334
9.600000000000001 2.0 8.333333333333334
10.4 2.0 8.333333333333334
11.200000000000001 2.0 8.333333333333334
12.0 2.0 8.333333333333334
12.8 2.0 8.333333333333334
13.600000000000001 2.0 8.333333333333334
14.4 2.0 8.333333333333334
15.200000000000001 2.0 8.333333333333334
16.0 2.0 8.333333333333334
0.0 0.0 10.0
0.8 0.0 10.0
1.6 0.0 10.0
2.4000000000000004 0.0 10.0
3.2 0.0 10.0
4.0 0.0 10.0
4.800000000000001 0.0 10.0
5.6000000000000005 0.0 10.0
6.4 0.0 10.0
7.2 0.0 10.0
8.0 0.0 10.0
8.8 0.0 10.0
9.600000000000001 0.0 10.0
10.4 0.0 10.0
11.200000000000001 0.0 10.0
12.0 0.0 10.0
12.8 0.0 10.0
13.600000000000001 0.0 10.0
14.4 0.0 10.0
15.200000000000001 0.0 10.0
16.0 0.0 10.0
0.0 0.3333333333333333 10.0
0.8 0.3333333333333333 10.0
1.6 0.3333333333333333 10.0
2.4000000000000004 0.3333333333333333 10.0
3.2 0.3333333333333333 10.0
4.0 0.3333333333333333 10.0
4.800000000000001 0.3333333333333333 10.0
5.6000000000000005 0.3333333333333333 10.0
6.4 0.3333333333333333 10.0
7.2 0.3333333333333333 10.0
8.0 0.3333333333333333 10.0
8.8 0.3333333333333333 10.0
9.600000000000001 0.3333333333333333 10.0
10.4 0.3333333333333333 10.0
11.200000000000001 0.3333333333333333 10.0
12.0 0.3333333333333333 10.0
12.8 0.3333333333333333 10.0
13.600000000000001 0.3333333333333333 10.0
14.4 0.3333333333333333 10.0
15.200000000000001 0.3333333333333333 10.0
16.0 0.3333333333333333 10.0
0.0 0.6666666666666666 10.0
0.8 0.6666666666666666 10.0
1.6 0.6666666666666666 10.0
2.4000000000000004 0.6666666666666666 10.0
3.2 0.6666666666666666 10.0
4.0 0.6666666666666666 10.0
4.800000000000001 0.6666666666666666 10.0
5.6000000000000005 0.6666666666666666 10.0
6.4 0.6666666666666666 10.0
7.2 0.6666666666666666 10.0
8.0 0.6666666666666666 10.0
8.8 0.6666666666666666 10.0
9.600000000000001 0.6666666666666666 10.0
10.4 0.6666666666666666 10.0
11.200000000000001 0.6666666666666666 10.0
12.0 0.6666666666666666 10.0
12.8 0.6666666666666666 10.0
13.600000000000001 0.6666666666666666 10.0
14.4 0.6666666666666666 10.0
15.200000000000001 0.6666666666666666 10.0
16.0 0.6666666666666666 10.0
0.0 1.0 10.0
0.8 1.0 10.0
1.6 1.0 10.0
2.4000000000000004 1.0 10.0
3.2 1.0 10.0
4.0 1.0 10.0
4.800000000000001 1.0 10.0
5.6000000000000005 1.0 10.0
6.4 1.0 10.0
7.2 1.0 10.0
8.0 1.0 10.0
8.8 1.0 10.0
9.600000000000001 1.0 10.0
10.4 1.0 10.0
11.200000000000001 1.0 10.0
12.0 1.0 10.0
12.8 1.0 10.0
13.600000000000001 1.0 10.0
14.4 1.0 10.0
15.200000000000001 1.0 10.0
16.0 1.0 10.0
0.0 1.3333333333333333 10.0
0.8 1.3333333333333333 10.0
1.6 1.3333333333333333 10.0
2.4000000000000004 1.3333333333333333 10.0
3.2 1.3333333333333333 10.0
4.0 1.3333333333333333 10.0
4.800000000000001 1.3333333333333333 10.0
5.6000000000000005 1.3333333333333333 10.0
6.4 1.3333333333333333 10.0
7.2 1.3333333333333333 10.0
8.0 1.3333333333333333 10.0
8.8 1.3333333333333333 10.0
9.600000000000001 1.3333333333333333 10.0
10.4 1.3333333333333333 10.0
11.200000000000001 1.3333333333333333 10.0
12.0 1.3333333333333333 10.0
12.8 1.3333333333333333 10.0
13.600000000000001 1.3333333333333333 10.0
14.4 1.3333333333333333 10.0
15.200000000000001 1.3333333333333333 10.0
16.0 1.3333333333333333 10.0
0.0 1.6666666666666665 10.0
0.8 1.6666666666666665 10.0
1.6 1.6666666666666665 10.0
2.4000000000000004 1.6666666666666665 10.0
3.2 1.6666666666666665 10.0
4.0 1.6666666666666665 10.0
4.800000000000001 1.6666666666666665 10.0
5.6000000000000005 1.6666666666666665 10.0
6.4 1.6666666666666665 10.0
7.2 1.6666666666666665 10.0
8.0 1.6666666666666665 10.0
8.8 1.6666666666666665 10.0
9.600000000000001 1.6666666666666665 10.0
10.4 1.6666666666666665 10.0
11.200000000000001 1.6666666666666665 10.0
12.0 1.6666666666666665 10.0
12.8 1.6666666666666665 10.0
13.600000000000001 1.6666666666666665 10.0
14.4 1.6666666666666665 10.0
15.200000000000001 1.6666666666666665 10.0
16.0 1.6666666666666665 10.0
0.0 2.0 10.0
0.8 2.0 10.0
1.6 2.0 10.0
2.4000000000000004 2.0 10.0
3.2 2.0 10.0
4.0 2.0 10.0
4.800000000000001 2.0 10.0
5.6000000000000005 2.0 10.0
6.4 2.0 10.0
7.2 2.0 10.0
8.0 2.0 10.0
8.8 2.0 10.0
9.600000000000001 2.0 10.0
10.4 2.0 10.0
11.200000000000001 2.0 10.0
12.0 2.0 10.0
12.8 2.0 10.0
13.600000000000001 2.0 10.0
14.4 2.0 10.0
15.200000000000001 2.0 10.0
16.0 2.0 10.0
CELLS 720 6480
8 0 1 22 21 147 148 169 168
8 1 2 23 22 148 149 170 169
8 2 3 24 23 149 150 171 170
8 3 4 25 24 150 151 172 171
8 4 5 26 25 151 152 173 172
8 5 6 27 26 152 153 174 173
8 6 7 28 27 153 154 175 174
8 7 8 29 28 154 155 176 175
8 8 9 30 29 155 156 177 176
8 9 10 31 30 156 157 178 177
8 10 11 32 31 157 158 179 178
8 11 12 33 32 158 159 180 179
8 12 13 34 33 159 160 181 180
8 13 14 35 34 160 161 182 181
8 14 15 36 35 161 162 183 182
8 15 16 37 36 162 163 184 183
8 16 17 38 37 163 164 185 184
8 17 18 39 38 164 165 186 185
8 18 19 40 39 165 166 187 186
8 19 20 41 40 166 167 188 187
8 21 22 43 42 168 169 190 189
8 22 23 44 43 169 170 191 190
8 23 24 45 44 170 171 192 191
8 24 25 46 45 171 172 193 192
8 25 26 47 46 172 173 194 193
8 26 27 48 47 173 174 195 194
8 27 28 49 48 174 175 196 195
8 28 29 50 49 175 176 197 196
8 29 30 51 50 176 177 198 197
8 30 31 52 51 177 178 199 198
8 31 32 53 52 178 179 200 199
8 32 33 54 53 179 180 201 200
8 33 34 55 54 180 181 202 201
8 34 35 56 55 181 182 203 202
8 35 36 57 56 182 183 204 203
8 36 37 58 57 183 184 205 204
8 37 38 59 58 184 185 206 205
8 38 39 60 59 185 186 207 206
8 39 40 61 60 186 187 208 207
8 40 41 62 61 187 188 209 208
8 42 43 64 63 189 190 211 210
8 43 44 65 64 190 191 212 211
8 44 45 66 65 191 192 213 212
8 45 46 67 66 192 193 214 213
8 46 47 68 67 193 194 215 214
8 47 48 69 68 194 195 216 215
8 48 49 70 69 195 196 217 216
8 49 50 71 70 196 197 218 217
8 50 51 72 71 197 198 219 218
8 51 52 73 72 198 199 220 219
8 52 53 74 73 199 200 221 220
8 53 54 75 74 200 201 222 221
8 54 55 76 75 201 202 223 222
8 55 56 77 76 202 203 224 223
8 56 57 78 77 203 204 225 224
8 57 58 79 78 204 205 226 225
8 58 59 80 79 205 206 227 226
8 59 60 81 80 206 207 228 227
8 60 61 82 81 207 208 229 228
8 61 62 83 82 208 209 230 229
8 63 64 85 84 210 211 232 231
8 64 65 86 85 211 212 233 232
8 65 66 87 86 212 213 234 233
8 66 67 88 87 213 214 235 234
8 67 68 89 88 214 215 236 235
8 68 69 90 89 215 216 237 236
8 69 70 91 90 216 217 238 237
8 70 71 92 91 217 218 239 238
8 71 72 93 92 218 219 240 239
8 72 73 94 93 219 220 241 240
8 73 74 95 94 220 221 242 241
8 74 75 96 95 221 222 243 242
8 75 76 97 96 222 223 244 243
8 76 77 98 97 223 224 245 244
8 77 78 99 98 224 225 246 245
8 78 79 100 99 225 226 247 246
8 79 80 101 100 226 227 248 247
8 80 81 102 101 227 228 249 248
8 81 82 103 102 228 229 250 249
8 82 83 104 103 229 230 251 250
8 84 85 106 105 231 232 253 252
8 85 86 107 106 232 233 254 253
8 86 87 108 107 233 234 255 254
8 87 88 109 108 234 235 256 255
8 88 89 110 109 235 236 257 256
8 89 90 111 110 236 237 258 257
8 90 91 112 111 237 238 259 258
8 91 92 113 112 238 239 260 259
8 92 93 114 113 239 240 261 260
8 93 94 115 114 240 241 262 261
8 94 95 116 115 241 242 263 262
8 95 96 117 116 242 243 264 263
8 96 97 118 117 243 244 265 264
8 97 98 119 118 244 245 266 265
8 98 99 120 119 245 246 267 266
8 99 100 121 120 246 247 268 267
8 100 101 122 121 247 248 269 268
8 101 102 123 122 248 249 270 269
8 102 103 124 123 249 250 271 270
8 103 104 125 124 250 251 272 271
8 105 106 127 126 252 253 274 273
8 106 107 128 127 253 254 275 274
8 107 108 129 128 254 255 276 275
8 108 109 130 129 255 256 277 276
8 109 110 131 130 256 257 278 277
8 110 111 132 131 257 258 279 278
8 111 112 133 132 258 259 280 279
8 112 113 134 133 259 260 281 280
8 113 114 135 134 260 261 282 281
8 114 115 136 135 261 262 283 282
8 115 116 137 136 262 263 284 283
8 116 117 138 137 263 264 285 284
8 117 118 139 138 264 265 286 285
8 118 119 140 139 265 266 287 286
8 119 120 141 140 266 267 288 287
8 120 121 142 141 267 268 289 288
8 121 122 143 142 268 269 290 289
8 122 123 144 143 269 270 291 290
8 123 124 145 144 270 271 292 291
8 124 125 146 145 271 272 293 292
8 147 148 169 168 294 295 316 315
8 148 149 170 169 295 296 317 316
8 149 150 171 170 296 297 318 317
8 150 151 172 171 297 298 319 318
8 151 152 173 172 298 299 320 319
8 152 153 174 173 299 300 321 320
8 153 154 175 174 300 301 322 321
8 154 155 176 175 301 302 323 322
8 155 156 177 176 302 303 324 323
8 156 157 178 177 303 304 325 324
8 157 158 179 178 304 305 326 325
8 158 159 180 179 305 306 327 326
8 159 160 181 180 306 307 328 327
8 160 161 182 181 307 308 329 328
8 161 162 183 182 308 309 330 329
8 162 163 184 183 309 310 331 330
8 163 164 185 184 310 311 332 331
8 164 165 186 185 311 312 333 332
8 165 166 187 186 312 313 334 333
8 166 167 188 187 313 314 335 334
8 168 169 190 189 315 316 337 336
8 169 170 191 190 316 317 338 337
8 170 171 192 191 317 318 339 338
8 171 172 193 192 318 319 340 339
8 172 173 194 193 319 320 341 340
8 173 174 195 194 320 321 342 341
8 174 175 196 195 321 322 343 342
8 175 176 197 196 322 323 344 343
8 176 177 198 197 323 324 345 344
8 177 178 199 198 324 325 346 345
8 178 179 200 199 325 326 347 346
8 179 180 201 200 326 327 348 347
8 180 181 202 201 327 328 349 348
8 181 182 203 202 328 329 350 349
8 182 183 204 203 329 330 351 350
8 183 184 205 204 330 331 352 351
8 184 185 206 205 331 332 353 352
8 185 186 207 206 332 333 354 353
8 186 187 208 207 333 334 355 354
8 187 188 209 208 334 335 356 355
8 189 190 211 210 336 337 358 357
8 190 191 212 211 337 338 359 358
8 191 192 213 212 338 339 360 359
8 192 193 214 213 339 340 361 360
8 193 194 215 214 340 341 362 361
8 194 195 216 215 341 342 363 362
8 195 196 217 216 342 343 364 363
8 196 197 218 217 343 344 365 364
8 197 198 219 218 344 345 366 365
8 198 199 220 219 345 346 367 366
8 199 200 221 220 346 347 368 367
8 200 201 222 221 347 348 369 368
8 201 202 223 222 348 349 370 369
8 202 203 224 223 349 350 371 370
8 203 204 225 224 350 351 372 371
8 204 205 226 225 351 352 373 372
8 205 206 227 226 352 353 374 373
8 206 207 228 227 353 354 375 374
8 207 208 229 228 354 355 376 375
8 208 209 230 229 355 356 377 376
8 210 211 232 231 357 358 379 378
8 211 212 233 232 358 359 380 379
8 212 213 234 233 359 360 381 380
8 213 214 235 234 360 361 382 381
8 214 215 236 235 361 362 383 382
8 215 216 237 236 362 363 384 383
8 216 217 238 237 363 364 385 384
8 217 218 239 238 364 365 386 385
8 218 219 240 239 365 366 387 386
8 219 220 241 240 366 367 388 387
8 220 221 242 241 367 368 389 388
8 221 222 243 242 368 369 390 389
8 222 223 244 243 369 370 391 390
8 223 224 245 244 370 371 392 391
8 224 225 246 245 371 372 393 392
8 225 226 247 246 372 373 394 393
8 226 227 248 247 373 374 395 394
8 227 228 249 248 374 375 396 395
8 228 229 250 249 375 376 397 396
8 229 230 251 250 376 377 398 397
8 231 232 253 252 378 379 400 399
8 232 233 254 253 379 380 401 400
8 233 234 255 254 380 381 402 401
8 234 235 256 255 381 382 403 402
8 235 236 257 256 382 383 404 403
8 236 237 258 257 383 384 405 404
8 237 238 259 258 384 385 406 405
8 238 239 260 259 385 386 407 406
8 239 240 261 260 386 387 408 407
8 240 241 262 261 387 388 409 408
8 241 242 263 262 388 389 410 409
8 242 243 264 263 389 390 411 410
8 243 244 265 264 390 391 412 411
8 244 245 266 265 391 392 413 412
8 245 246 267 266 392 393 414 413
8 246 247 268 267 393 394 415 414
8 247 248 269 268 394 395 416 415
8 248 249 270 269 395 396 417 416
8 249 250 271 270 396 397 418 417
8 250 251 272 271 397 398 419 418
8 252 253 274 273 399 400 421 420
8 253 254 275 274 400 401 422 421
8 254 255 276 275 401 402 423 422
8 255 256 277 276 402 403 424 423
8 256 257 278 277 403 404 425 424
8 257 258 279 278 404 405 426 425
8 258 259 280 279 405 406 427 426
8 259 260 281 280 406 407 428 427
8 260 261 282 281 407 408 429 428
8 261 262 283 282 408 409 430 429
8 262 263 284 283 409 410 431 430
8 263 264 285 284 410 411 432 431
8 264 265 286 285 411 412 433 432
8 265 266 287 286 412 413 434 433
8 266 267 288 287 413 414 435 434
8 267 268 289 288 414 415 436 435
8 268 269 290 289 415 416 437 436
8 269 270 291 290 416 417 438 437
8 270 271 292 291 417 418 439 438
8 271 272 293 292 418 419 440 439
8 294 295 316 315 441 442 463 462
8 295 296 317 316 442 443 464 463
8 296 297 318 317 443 444 465 464
8 297 298 319 318 444 445 466 465
8 298 299 320 319 445 446 467 466
8 299 300 321 320 446 447 468 467
8 300 301 322 321 447 448 469 468
8 301 302 323 322 448 449 470 469
8 302 303 324 323 449 450 471 470
8 303 304 325 324 450 451 472 471
8 304 305 326 325 451 452 473 472
8 305 306 327 326 452 453 474 473
8 306 307 328 327 453 454 475 474
8 307 308 329 328 454 455 476 475
8 308 309 330 329 455 456 477 476
8 309 310 331 330 456 457 478 477
8 310 311 332 331 457 458 479 478
8 311 312 333 332 458 459 480 479
8 312 313 334 333 459 460 481 480
8 313 314 335 334 460 461 482 481
8 315 316 337 336 462 463 484 483
8 316 317 338 337 463 464 485 484
8 317 318 339 338 464 465 486 485
8 318 319 340 339 465 466 487 486
8 319 320 341 340 466 467 488 487
8 320 321 342 341 467 468 489 488
8 321 322 343 342 468 469 490 489
8 322 323 344 343 469 470 491 490
8 323 324 345 344 470 471 492 491
8 324 325 346 345 471 472 493 492
8 325 326 347 346 472 473 494 493
8 326 327 348 347 473 474 495 494
8 327 328 349 348 474 475 496 495
8 328 329 350 349 475 476 497 496
8 329 330 351 350 476 477 498 497
8 330 331 352 351 477 478 499 498
8 331 332 353 352 478 479 500 499
8 332 333 354 353 479 480 501 500
8 333 334 355 354 480 481 502 501
8 334 335 356 355 481 482 503 502
8 336 337 358 357 483 484 505 504
8 337 338 359 358 484 485 506 505
8 338 339 360 359 485 486 507 506
8 339 340 361 360 486 487 508 507
8 340 341 362 361 487 488 509 508
8 341 342 363 362 488 489 510 509
8 342 343 364 363 489 490 511 510
8 343 344 365 364 490 491 512 511
8 344 345 366 365 491 492 513 512
8 345 346 367 366 492 493 514 513
8 346 347 368 367 493 494 515 514
8 347 348 369 368 494 495 516 515
8 348 349 370 369 495 496 517 516
8 349 350 371 370 496 497 518 517
8 350 351 372 371 497 498 519 518
8 351 352 373 372 498 499 520 519
8 352 353 374 373 499 500 521 520
8 353 354 375 374 500 501 522 521
8 354 355 376 375 501 502 523 522
8 355 356 377 376 502 503 524 523
8 357 358 379 378 504 505 526 525
8 358 359 380 379 505 506 527 526
8 359 360 381 380 506 507 528 527
8 360 361 382 381 507 508 529 528
8 361 362 383 382 508 509 530 529
8 362 363 384 383 509 510 531 530
8 363 364 385 384 510 511 532 531
8 364 365 386 385 511 512 533 532
8 365 366 387 386 512 513 534 533
8 366 367 388 387 513 514 535 534
8 367 368 389 388 514 515 536 535
8 368 369 390 389 515 516 537 536
8 369 370 391 390 516 517 538 537
8 370 371 392 391 517 518 539 538
8 371 372 393 392 518 519 540 539
8 372 373 394 393 519 520 541 540
8 373 374 395 394 520 521 542 541
8 374 375 396 395 521 522 543 542
8 375 376 397 396 522 523 544 543
8 376 377 398 397 523 524 545 544
8 378 379 400 399 525 526 547 546
8 379 380 401 400 526 527 548 547
8 380 381 402 401 527 528 549 548
8 381 382 403 402 528 529 550 549
8 382 383 404 403 529 530 551 550
8 383 384 405 404 530 531 552 551
8 384 385 406 405 531 532 553 552
8 385 386 407 406 532 533 554 553
8 386 387 408 407 533 534 555 554
8 387 388 409 408 534 535 556 555
8 388 389 410 409 535 536 557 556
8 389 390 411 410 536 537 558 557
8 390 391 412 411 537 538 559 558
8 391 392 413 412 538 539 560 559
8 392 393 414 413 539 540 561 560
8 393 394 415 414 540 541 562 561
8 394 395 416 415 541 542 563 562
8 395 396 417 416 542 543 564 563
8 396 397 418 417 543 544 565 564
8 397 398 419 418 544 545 566 565
8 399 400 421 420 546 547 568 567
8 400 401 422 421 547 548 569 568
8 401 402 423 422 548 549 570 569
8 402 403 424 423 549 550 571 570
8 403 404 425 424 550 551 572 571
8 404 405 426 425 551 552 573 572
8 405 406 427 426 552 553 574 573
8 406 407 428 427 553 554 575 574
8 407 408 429 428 554 555 576 575
8 408 409 430 429 555 556 577 576
8 409 410 431 430 556 557 578 577
8 410 411 432 431 557 558 579 578
8 411 412 433 432 558 559 580 579
8 412 413 434 433 559 560 581 580
8 413 414 435 434 560 561 582 581
8 414 415 436 435 561 562 583 582
8 415 416 437 436 562 563 584 583
8 416 417 438 437 563 564 585 584
8 417 418 439 438 564 565 586 585
8 418 419 440 439 565 566 587 586
8 441 442 463 462 588 589 610 609
8 442 443 464 463 589 590 611 610
8 443 444 465 464 590 591 612 611
8 444 445 466 465 591 592 613 612
8 445 446 467 466 592 593 614 613
8 446 447 468 467 593 594 615 614
8 447 448 469 468 594 595 616 615
8 448 449 470 469 595 596 617 616
8 449 450 471 470 596 597 618 617
8 450 451 472 471 597 598 619 618
8 451 452 473 472 598 599 620 619
8 452 453 474 473 599 600 621 620
8 453 454 475 474 600 601 622 621
8 454 455 476 475 601 602 623 622
8 455 456 477 476 602 603 624 623
8 456 457 478 477 603 604 625 624
8 457 458 479 478 604 605 626 625
8 458 459 480 479 605 606 627 626
8 459 460 481 480 606 607 628 627
8 460 461 482 481 607 608 629 628
8 462 463 484 483 609 610 631 630
8 463 464 485 484 610 611 632 631
8 464 465 486 485 611 612 633 632
8 465 466 487 486 612 613 634 633
8 466 467 488 487 613 614 635 634
8 467 468 489 488 614 615 636 635
8 468 469 490 489 615 616 637 636
8 469 470 491 490 616 617 638 637
8 470 471 492 491 617 618 639 638
8 471 472 493 492 618 619 640 639
8 472 473 494 493 619 620 641 640
8 473 474 495 494 620 621 642 641
8 474 475 496 495 621 622 643 642
8 475 476 497 496 622 623 644 643
8 476 477 498 497 623 624 645 644
8 477 478 499 498 624 625 646 645
8 478 479 500 499 625 626 647 646
8 479 480 501 500 626 627 648 647
8 480 481 502 501 627 628 649 648
8 481 482 503 502 628 629 650 649
8 483 484 505 504 630 631 652 651
8 484 485 506 505 631 632 653 652
8 485 486 507 506 632 633 654 653
8 486 487 508 507 633 634 655 654
8 487 488 509 508 634 635 656 655
8 488 489 510 509 635 636 657 656
8 489 490 511 510 636 637 658 657
8 490 491 512 511 637 638 659 658
8 491 492 513 512 638 639 660 659
8 492 493 514 513 639 640 661 660
8 493 494 515 514 640 641 662 661
8 494 495 516 515 641 642 663 662
8 495 496 517 516 642 643 664 663
8 496 497 518 517 643 644 665 664
8 497 498 519 518 644 645 666 665
8 498 499 520 519 645 646 667 666
8 499 500 521 520 646 647 668 667
8 500 501 522 521 647 648 669 668
8 501 502 523 522 648 649 670 669
8 502 503 524 523 649 650 671 670
8 504 505 526 525 651 652 673 672
8 505 506 527 526 652 653 674 673
8 506 507 528 527 653 654 675 674
8 507 508 529 528 654 655 676 675
8 508 509 530 529 655 656 677 676
8 509 510 531 530 656 657 678 677
8 510 511 532 531 657 658 679 678
8 511 512 533 532 658 659 680 679
8 512 513 534 533 659 660 681 680
8 513 514 535 534 660 661 682 681
8 514 515 536 535 661 662 683 682
8 515 516 537 536 662 663 684 683
8 516 517 538 537 663 664 685 684
8 517 518 539 538 664 665 686 685
8 518 519 540 539 665 666 687 686
8 519 520 541 540 666 667 688 687
8 520 521 542 541 667 668 689 688
8 521 522 543 542 668 669 690 689
8 522 523 544 543 669 670 691 690
8 523 524 545 544 670 671 692 691
8 525 526 547 546 672 673 694 693
8 526 527 548 547 673 674 695 694
8 527 528 549 548 674 675 696 695
8 528 529 550 549 675 676 697 696
8 529 530 551 550 676 677 698 697
8 530 531 552 551 677 678 699 698
8 531 532 553 552 678 679 700 699
8 532 533 554 553 679 680 701 700
8 533 534 555 554 680 681 702 701
8 534 535 556 555 681 682 703 702
8 535 536 557 556 682 683 704 703
8 536 537 558 557 683 684 705 704
8 537 538 559 558 684 685 706 705
8 538 539 560 559 685 686 707 706
8 539 540 561 560 686 687 708 707
8 540 541 562 561 687 688 709 708
8 541 542 563 562 688 689 710 709
8 542 543 564 563 689 690 711 710
8 543 544 565 564 690 691 712 711
8 544 545 566 565 691 692 713 712
8 546 547 568 567 693 694 715 714
8 547 548 569 568 694 695 716 715
8 548 549 570 569 695 696 717 716
8 549 550 571 570 696 697 718 717
8 550 551 572 571 697 698 719 718
8 551 552 573 572 698 699 720 719
8 552 553 574 573 699 700 721 720
8 553 554 575 574 700 701 722 721
8 554 555 576 575 701 702 723 722
8 555 556 577 576 702 703 724 723
8 556 557 578 577 703 704 725 724
8 557 558 579 578 704 705 726 725
8 558 559 580 579 705 706 727 726
8 559 560 581 580 706 707 728 727
8 560 561 582 581 707 708 729 728
8 561 562 583 582 708 709 730 729
8 562 563 584 583 709 710 731 730
8 563 564 585 584 710 711 732 731
8 564 565 586 585 711 712 733 732
8 565 566 587 586 712 713 734 733
8 588 589 610 609 735 736 757 756
8 589 590 611 610 736 737 758 757
8 590 591 612 611 737 738 759 758
8 591 592 613 612 738 739 760 759
8 592 593 614 613 739 740 761 760
8 593 594 615 614 740 741 762 761
8 594 595 616 615 741 742 763 762
8 595 596 617 616 742 743 764 763
8 596 597 618 617 743 744 765 764
8 597 598 619 618 744 745 766 765
8 598 599 620 619 745 746 767 766
8 599 600 621 620 746 747 768 767
8 600 601 622 621 747 748 769 768
8 601 602 623 622 748 749 770 769
8 602 603 624 623 749 750 771 770
8 603 604 625 624 750 751 772 771
8 604 605 626 625 751 752 773 772
8 605 606 627 626 752 753 774 773
8 606 607 628 627 753 754 775 774
8 607 608 629 628 754 755 776 775
8 609 610 631 630 756 757 778 777
8 610 611 632 631 757 758 779 778
8 611 612 633 632 758 759 780 779
8 612 613 634 633 759 760 781 780
8 613 614 635 634 760 761 782 781
8 614 615 636 635 761 762 783 782
8 615 616 637 636 762 763 784 783
8 616 617 638 637 763 764 785 784
8 617 618 639 638 764 765 786 785
8 618 619 640 639 765 766 787 786
8 619 620 641 640 766 767 788 787
8 620 621 642 641 767 768 789 788
8 621 622 643 642 768 769 790 789
8 622 623 644 643 769 770 791 790
8 623 624 645 644 770 771 792 791
8 624 625 646 645 771 772 793 792
8 625 626 647 646 772 773 794 793
8 626 627 648 647 773 774 795 794
8 627 628 649 648 774 775 796 795
8 628 629 650 649 775 776 797 796
8 630 631 652 651 777 778 799 798
8 631 632 653 652 778 779 800 799
8 632 633 654 653 779 780 801 800
8 633 634 655 654 780 781 802 801
8 634 635 656 655 781 782 803 802
8 635 636 657 656 782 783 804 803
8 636 637 658 657 783 784 805 804
8 637 638 659 658 784 785 806 805
8 638 639 660 659 785 786 807 806
8 639 640 661 660 786 787 808 807
8 640 641 662 661 787 788 809 808
8 641 642 663 662 788 789 810 809
8 642 643 664 663 789 790 811 810
8 643 644 665 664 790 791 812 811
8 644 645 666 665 791 792 813 812
8 645 646 667 666 792 793 814 813
8 646 647 668 667 793 794 815 814
8 647 648 669 668 794 795 816 815
8 648 649 670 669 795 796 817 816
8 649 650 671 670 796 797 818 817
8 651 652 673 672 798 799 820 819
8 652 653 674 673 799 800 821 820
8 653 654 675 674 800 801 822 821
8 654 655 676 675 801 802 823 822
8 655 656 677 676 802 803 824 823
8 656 657 678 677 803 804 825 824
8 657 658 679 678 804 805 826 825
8 658 659 680 679 805 806 827 826
8 659 660 681 680 806 807 828 827
8 660 661 682 681 807 808 829 828
8 661 662 683 682 808 809 830 829
8 662 663 684 683 809 810 831 830
8 663 664 685 684 810 811 832 831
8 664 665 686 685 811 812 833 832
8 665 666 687 686 812 813 834 833
8 666 667 688 687 813 814 835 834
8 667 668 689 688 814 815 836 835
8 668 669 690 689 815 816 837 836
8 669 670 691 690 816 817 838 837
8 670 671 692 691 817 818 839 838
8 672 673 694 693 819 820 841 840
8 673 674 695 694 820 821 842 841
8 674 675 696 695 821 822 843 842
8 675 676 697 696 822 823 844 843
8 676 677 698 697 823 824 845 844
8 677 678 699 698 824 825 846 845
8 678 679 700 699 825 826 847 846
8 679 680 701 700 826 827 848 847
8 680 681 702 701 827 828 849 848
8 681 682 703 702 828 829 850 849
8 682 683 704 703 829 830 851 850
8 683 684 705 704 830 831 852 851
8 684 685 706 705 831 832 853 852
8 685 686 707 706 832 833 854 853
8 686 687 708 707 833 834 855 854
8 687 688 709 708 834 835 856 855
8 688 689 710 709 835 836 857 856
8 689 690 711 710 836 837 858 857
8 690 691 712 711 837 838 859 858
8 691 692 713 712 838 839 860 859
8 693 694 715 714 840 841 862 861
8 694 695 716 715 841 842 863 862
8 695 696 717 716 842 843 864 863
8 696 697 718 717 843 844 865 864
8 697 698 719 718 844 845 866 865
8 698 699 720 719 845 846 867 866
8 699 700 721 720 846 847 868 867
8 700 701 722 721 847 848 869 868
8 701 702 723 722 848 849 870 869
8 702 703 724 723 849 850 871 870
8 703 704 725 724 850 851 872 871
8 704 705 726 725 851 852 873 872
8 705 706 727 726 852 853 874 873
8 706 707 728 727 853 854 875 874
8 707 708 729 728 854 855 876 875
8 708 709 730 729 855 856 877 876
8 709 710 731 730 856 857 878 877
8 710 711 732 731 857 858 879 878
8 711 712 733 732 858 859 880 879
8 712 713 734 733 859 860 881 880
8 735 736 757 756 882 883 904 903
8 736 737 758 757 883 884 905 904
8 737 738 759 758 884 885 906 905
8 738 739 760 759 885 886 907 906
8 739 740 761 760 886 887 908 907
8 740 741 762 761 887 888 909 908
8 741 742 763 762 888 889 910 909
8 742 743 764 763 889 890 911 910
8 743 744 765 764 890 891 912 911
8 744 745 766 765 891 892 913 912
8 745 746 767 766 892 893 914 913
8 746 747 768 767 893 894 915 914
8 747 748 769 768 894 895 916 915
8 748 749 770 769 895 896 917 916
8 749 750 771 770 896 897 918 917
8 750 751 772 771 897 898 919 918
8 751 752 773 772 898 899 920 919
8 752 753 774 773 899 900 921 920
8 753 754 775 774 900 901 922 921
8 754 755 776 775 901 902 923 922
8 756 757 778 777 903 904 925 924
8 757 758 779 778 904 905 926 925
8 758 759 780 779 905 906 927 926
8 759 760 781 780 906 907 928 927
8 760 761 782 781 907 908 929 928
8 761 762 783 782 908 909 930 929
8 762 763 784 783 909 910 931 930
8 763 764 785 784 910 911 932 931
8 764 765 786 785 911 912 933 932
8 765 766 787 786 912 913 934 933
8 766 767 788 787 913 914 935 934
8 767 768 789 788 914 915 936 935
8 768 769 790 789 915 916 937 936
8 769 770 791 790 916 917 938 937
8 770 771 792 791 917 918 939 938
8 771 772 793 792 918 919 940 939
8 772 773 794 793 919 920 941 940
8 773 774 795 794 920 921 942 941
8 774 775 796 795 921 922 943 942
8 775 776 797 796 922 923 944 943
8 777 778 799 798 924 925 946 945
8 778 779 800 799 925 926 947 946
8 779 780 801 800 926 927 948 947
8 780 781 802 801 927 928 949 948
8 781 782 803 802 928 929 950 949
8 782 783 804 803 929 930 951 950
8 783 784 805 804 930 931 952 951
8 784 785 806 805 931 932 953 952
8 785 786 807 806 932 933 954 953
8 786 787 808 807 933 934 955 954
8 787 788 809 808 934 935 956 955
8 788 789 810 809 935 936 957 956
8 789 790 811 810 936 937 958 957
8 790 791 812 811 937 938 959 958
8 791 792 813 812 938 939 960 959
8 792 793 814 813 939 940 961 960
8 793 794 815 814 940 941 962 961
8 794 795 816 815 941 942 963 962
8 795 796 817 816 942 943 964 963
8 796 797 818 817 943 944 965 964
8 798 799 820 819 945 946 967 966
8 799 800 821 820 946 947 968 967
8 800 801 822 821 947 948 969 968
8 801 802 823 822 948 949 970 969
8 802 803 824 823 949 950 971 970
8 803 804 825 824 950 951 972 971
8 804 805 826 825 951 952 973 972
8 805 806 827 826 952 953 974 973
8 806 807 828 827 953 954 975 974
8 807 808 829 828 954 955 976 975
8 808 809 830 829 955 956 977 976
8 809 810 831 830 956 957 978 977
8 810 811 832 831 957 958 979 978
8 811 812 833 832 958 959 980 979
8 812 813 834 833 959 960 981 980
8 813 814 835 834 960 961 982 981
8 814 815 836 835 961 962 983 982
8 815 816 837 836 962 963 984 983
8 816 817 838 837 963 964 985 984
8 817 818 839 838 964 965 986 985
8 819 820 841 840 966 967 988 987
8 820 821 842 841 967 968 989 988
8 821 822 843 842 968 969 990 989
8 822 823 844 843 969 970 991 990
8 823 824 845 844 970 971 992 991
8 824 825 846 845 971 972 993 992
8 825 826 847 846 972 973 994 993
8 826 827 848 847 973 974 995 994
8 827 828 849 848 974 975 996 995
8 828 829 850 849 975 976 997 996
8 829 830 851 850 976 977 998 997
8 830 831 852 851 977 978 999 998
8 831 832 853 852 978 979 1000 999
8 832 833 854 853 979 980 1001 1000
8 833 834 855 854 980 981 1002 1001
8 834 835 856 855 981 982 1003 1002
8 835 836 857 856 982 983 1004 1003
8 836 837 858 857 983 984 1005 1004
8 837 838 859 858 984 985 1006 1005
8 838 839 860 859 985 986 1007 1006
8 840 841 862 861 987 988 1009 1008
8 841 842 863 862 988 989 1010 1009
8 842 843 864 863 989 990 1011 1010
8 843 844 865 864 990 991 1012 1011
8 844 845 866 865 991 992 1013 1012
8 845 846 867 866 992 993 1014 1013
8 846 847 868 867 993 994 1015 1014
8 847 848 869 868 994 995 1016 1015
8 848 849 870 869 995 996 1017 1016
8 849 850 871 870 996 997 1018 1017
8 850 851 872 871 997 998 1019 1018
8 851 852 873 872 998 999 1020 1019
8 852 853 874 873 999 1000 1021 1020
8 853 854 875 874 1000 1001 1022 1021
8 854 855 876 875 1001 1002 1023 1022
8 855 856 877 876 1002 1003 1024 1023
8 856 857 878 877 1003 1004 1025 1024
8 857 858 879 878 1004 1005 1026 1025
8 858 859 880 879 1005 1006 1027 1026
8 859 860 881 880 1006 1007 1028 1027
CELL_TYPES 720
12
12
12
12
12
12
12
12
12
12
12
12
12
12
12
12
12
12
12
12
12
12
12
12
12
12
12
12
12
12
12
12
12
12
12
12
12
12
12
12
12
12
12
12
12
12
12
12
12
12
12
12
12
12
12
12
12
12
12
12
12
12
12
12
12
12
12
12
12
12
12
12
12
12
12
12
12
12
12
12
12
12
12
12
12
12
12
12
12
12
12
12
12
12
12
12
12
12
12
12
12
12
12
12
12
12
12
12
12
12
12
12
12
12
12
12
12
12
12
12
12
12
12
12
12
12
12
12
12
12
12
12
12
12
12
12
12
12
12
12
12
12
12
12
12
12
12
12
12
12
12
12
12
12
12
12
12
12
12
12
12
12
12
12
12
12
12
12
12
12
12
12
12
12
12
12
12
12
12
12
12
12
12
12
12
12
12
12
12
12
12
12
12
12
12
12
12
12
12
12
12
12
12
12
12
12
12
12
12
12
12
12
12
12
12
12
12
12
12
12
12
12
12
12
12
12
12
12
12
12
12
12
12
12
12
12
12
12
12
12
12
12
12
12
12
12
12
12
12
12
12
12
12
12
12
12
12
12
12
12
12
12
12
12
12
12
12
12
12
12
12
12
12
12
12
12
12
12
12
12
12
12
12
12
12
12
12
12
12
12
12
12
12
12
12
12
12
12
12
12
12
12
12
12
12
12
12
12
12
12
12
12
12
12
12
12
12
12
12
12
12
12
12
12
12
12
12
12
12
12
12
12
12
12
12
12
12
12
12
12
12
12
12
12
12
12
12
12
12
12
12
12
12
12
12
12
12
12
12
12
12
12
12
12
12
12
12
12
12
12
12
12
12
12
12
12
12
12
12
12
12
12
12
12
12
12
12
12
12
12
12
12
12
12
12
12
12
12
12
12
12
12
12
12
12
12
12
12
12
12
12
12
12
12
12
12
12
12
12
12
12
12
12
12
12
12
12
12
12
12
12
12
12
12
12
12
12
12
12
12
12
12
12
12
12
12
12
12
12
12
12
12
12
12
12
12
12
12
12
12
12
12
12
12
12
12
12
12
12
12
12
12
12
12
12
12
12
12
12
12
12
12
12
12
12
12
12
12
12
12
12
12
12
12
12
12
12
12
12
12
12
12
12
12
12
12
12
12
12
12
12
12
12
12
12
12
12
12
12
12
12
12
12
12
12
12
12
12
12
12
12
12
12
12
12
12
12
12
12
12
12
12
12
12
12
12
12
12
12
12
12
12
12
12
12
12
12
12
12
12
12
12
12
12
12
12
12
12
12
12
12
12
12
12
12
12
12
12
12
12
12
12
12
12
12
12
12
12
12
12
12
12
12
12
12
12
12
12
12
12
12
12
12
12
12
12
12
12
12
12
12
12
12
12
12
12
12
12
12
12
12
12
12
12
12
12
12
12
12
12
12
12
12
12
12
12
12
12
12
12
12
12
12
12
12
12
12
12
12
12
12
12
12
12
12
12
12
12
12
12
12
12
12
12
12
12
12
12
12
12
12
12
12
12
12
12
12
12
12
12
12
12
12
12
12
12
12
12
12
12
12
12
12
12
12
12
12
12
12
12
12
12
12
12
12
12
12
12
12
12
12
12
12
12
12
12
12
12
12
12
POINT_DATA 1029
VECTORS Disp float
0.0 0.0 0.0
0.014634340189873512 -0.5306629938228674 0.01270205255980857
0.03524048344669372 -0.9999812757152462 0.027350179933895637
0.06374034280777485 -1.4520510370591246 0.03904746084429643
0.10429741611182217 -1.8746158812998301 0.04964686953130833
0.15748052751516284 -2.257713017090053 0.05841041126105777
0.22307015744624473 -2.5908156590898943 0.06497355385922951
0.30066953879298863 -2.86374397320697 0.06887005156878526
0.3892181923600654 -3.0665742678159376 0.06977354883115416
0.4860817022959736 -3.190833921095665 0.06821795965343072
0.586893163812546 -3.2322389349383096 0.06681008368603009
0.6877404534541101 -3.191440198565609 0.06827405503954331
0.7847184376350287 -3.067800963143547 0.06990541820690549
0.8734821235931013 -2.8656169089045345 0.0691212203197344
0.9514368224234634 -2.5933657739899854 0.06541895276346914
1.0175849331292004 -2.2609603765713757 0.059170283541786856
1.0716179028773616 -1.8785416418192087 0.05089163954810362
1.1134415244666303 -1.4565490351794583 0.04107096768544491
1.1437860994580606 -1.0048440103948777 0.03033604917006713
1.1675741790326204 -0.5354991254875154 0.018035005205204235
1.18984551302936 0.0 -0.00010297100348277622
0.20827195995621256 -0.022660726672611254 -0.006669204322661184
0.217261051015318 -0.5283073666204605 0.006654092396607264
0.2245079082556341 -1.0031762744882984 0.017325929741259925
0.243183531630331 -1.455804308465565 0.026370578363773753
0.2695307940732826 -1.8800145066011698 0.033940541517931994
0.30431810709199386 -2.264554658404471 0.04016924130801793
0.34734632986010633 -2.5991143203498286 0.04478497877303347
0.3983424046447098 -2.873440483092949 0.04757498920134365
0.4566106239483796 -3.077484659463549 0.04839293907493537
0.5204555775873421 -3.202450345673707 0.04757415748257978
0.5870023734302826 -3.2438954587137 0.04670325823866427
0.6535870555599292 -3.203066599202296 0.047554850276566224
0.7175521468933898 -3.078733170778799 0.048371059026421435
0.7760427245612738 -2.8753510061706398 0.04758846511364094
0.8273985515443636 -2.6017240516980857 0.04490247664378065
0.8709769330092443 -2.26789319432467 0.04050239518959839
0.9065797283824315 -1.8840739599883385 0.034670468414353076
0.9341010252214808 -1.4604943550919371 0.02773888803390242
0.9544770999888621 -1.008314635069574 0.019806691614215593
0.9641486719312186 -0.5335264212323242 0.01028109983628742
0.9744374497357267 -0.023914023107852515 -0.002689670003851241
0.4048923330653336 -0.03934484564134747 -0.010898688630891381
0.4095274834985463 -0.5275168054828848 -0.0005897875877294473
0.41033624256491763 -1.0039007451737316 0.007029023270403398
0.41758262220421727 -1.4580716842426924 0.0126453691528615
0.4300285826688798 -1.8831109623343234 0.016942653418195
0.4467738576915822 -2.2685646321406425 0.020222545104043966
0.4677957439546901 -2.6039916446028313 0.02250520038835415
0.49298976061085137 -2.8791889654326126 0.023744028659032246
0.5221703119866733 -3.083984578969696 0.02391535580429282
0.5543311235807709 -3.2091013213845607 0.023078149912908248
0.587088965186403 -3.249841411274785 0.022134300716969074
0.6198854204898211 -3.209728358023927 0.022983566838762556
0.6521679286539996 -3.085256305040825 0.023739703707396302
0.6815709568923146 -2.881138453306818 0.023519398137597725
0.7071180788419391 -2.6066612467311074 0.022292495560973995
0.7286667440629631 -2.2719913222575068 0.02012838584904976
0.7461690361141382 -1.8872967415017468 0.017140266062609166
0.7596696769239064 -1.4629306824563049 0.01340903313903854
0.7683256293445226 -1.0092627842406072 0.008743478937618097
0.770286783522548 -0.5325517916082589 0.002300769228452829
0.7754811321941656 -0.04127543808478228 -0.006849208685643497
0.5957335373751097 -0.05003724263561907 -0.014676069008998286
0.5969791382958154 -0.5276508408847802 -0.007635152700304828
0.5928927730695103 -1.003298664325527 -0.0033757414411857965
0.5898451247823446 -1.4585196759083818 -0.0013915587708203307
0.588228445728181 -1.884041479428047 -0.0005622312907062255
0.5871399990317214 -2.2698125338527144 -0.0003748946087142855
0.5864030183499678 -2.6055641596519106 -0.0005995694519209986
0.5861301052336808 -2.8811404182124973 -0.0011123352081183098
0.5867416349289138 -3.086303727055695 -0.0017980871797685582
0.5879800235111429 -3.2108754786647222 -0.0027919596656891528
0.5871662064374565 -3.2494757941821693 -0.003991826369874957
0.5863911667167845 -3.2115137813236925 -0.0029623744305152877
0.5877510541534776 -3.0875994394899147 -0.0021288135244161956
0.5885820139876174 -2.8831294349083416 -0.0015776222473968989
0.588650680370061 -2.6082928760457604 -0.0011463044507324576
0.5884090032566625 -2.273323958564618 -0.0009037969414532402
0.5880052082934023 -1.888343248598164 -0.0009005166685586634
0.5872967437415193 -1.463532880865836 -0.0012594646980281165
0.5852460059840802 -1.0087256593720504 -0.0023948645788290502
0.5817750101569009 -0.5324852748784036 -0.005471273378568755
0.583329097653708 -0.052469105963562794 -0.011262265400950515
0.7850112786666433 -0.05576098504081446 -0.018557741560610623
0.7832635600763691 -0.5278648320545211 -0.01432535843500806
0.7746479582760851 -1.001825163696517 -0.013609260199156273
0.7620760443858318 -1.4572722460683807 -0.015349273291947851
0.746508801153999 -1.882771409277158 -0.01803582975167667
0.7275207017047848 -2.2683259605074255 -0.02095131428411964
0.705056387220781 -2.603850409728274 -0.023694797753880885
0.6792524719343724 -2.8792887495979342 -0.025978410691336277
0.6510999085544547 -3.084551037029329 -0.027484797007767826
0.6217953796776974 -3.2080712942899816 -0.028145096625771544
0.5872455305701397 -3.2419003315145667 -0.029221714396667743
0.5527348005344674 -3.20872124885768 -0.02839259718173517
0.5235520798281409 -3.0858713363087205 -0.027973394920894318
0.49561669669955233 -2.881317627418422 -0.026689200934133822
0.47014384894731065 -2.6066373739978497 -0.024583361735206213
0.4481434295762132 -2.271917388999687 -0.021926232314578253
0.42976461786652337 -1.8871800744801166 -0.018926870175490794
0.4149261679300844 -1.4624015210293813 -0.015870788993900327
0.40303227732748825 -1.0072639091571782 -0.013356624907877115
0.39476847107571394 -0.5325717541799481 -0.012907203251821623
0.3931891875496471 -0.058511272518644505 -0.01589009451432225
0.9755551008736062 -0.05790258956864274 -0.0227386598668082
0.9714470693746918 -0.5276437343527651 -0.020637999229649318
0.9584761076923577 -0.9996132124998935 -0.023439430404016134
0.9367098126293135 -1.4544515023323736 -0.028846642846406995
0.907141931411847 -1.8792810102020383 -0.03494243753757866
0.8700558777797041 -2.2640693449616864 -0.04082565953596988
0.8255747762932147 -2.5988598660951316 -0.0459488114548028
0.7740671463440868 -2.8735201969249555 -0.04983288676556125
0.7158814023915966 -3.0786012513417953 -0.052008108478026296
0.6555609044133565 -3.2014826325785335 -0.051267857444482846
0.5873385549697756 -3.225741432001787 -0.050252110811329645
0.5191566604519954 -3.2021447663682365 -0.051594357956073714
0.4589612742167982 -3.0799470077941704 -0.05265876735416286
0.4009955374672402 -2.8755897189853497 -0.05079638823326909
0.34981574092033657 -2.601704573236396 -0.047190508266735404
0.30577728658879083 -2.2677367662115087 -0.04226349941173327
0.26923094684472143 -1.8837817290047696 -0.03641083807338162
0.24022018172677267 -1.4596646407380158 -0.030050649521025416
0.21886536394939246 -1.00505832021714 -0.023933185778176887
0.20603972927961875 -0.5322876747107721 -0.01995990297448092
0.20197421750991867 -0.060806056772870376 -0.020792522025626255
1.1689332319485843 -0.05833933175524726 -0.027075260905980496
1.1642782243908578 -0.5269016017051282 -0.026585472760954923
1.1477994252226593 -0.9967052084986825 -0.032530643835947955
1.1164983857754454 -1.450017786282444 -0.04128034014008292
1.072580271379568 -1.8735015479058068 -0.050442173304427095
1.0170135124327118 -2.2569645297960137 -0.05894375580284732
0.9499903719900916 -2.590420271992308 -0.06608105173173116
0.8719304676216113 -2.8639498619606996 -0.07118882053268406
0.7835649449975413 -3.0673406820228744 -0.07363797437349384
0.6852316169544723 -3.1923427273513747 -0.07102847669892044
0.5874591212587703 -3.1999999999999997 -0.06036042140214873
0.4897304183115833 -3.1930180565964084 -0.07143644283836068
0.39153156811926215 -3.068713724415854 -0.07445603056128286
0.3033990974028419 -2.8660621263375696 -0.07241405116994108
0.225678626529142 -2.593323965472027 -0.06768978340193722
0.15909715034747318 -2.2607051679561536 -0.060864808426193184
0.10402768790502641 -1.8780790082227452 -0.05251545981980533
0.06052248887993164 -1.4552823821062415 -0.04319789319633998
0.029341390473685655 -1.0021394802480024 -0.03379150538009756
0.01269186975688375 -0.5315056162609229 -0.02662380203687063
0.007916092978363157 -0.06127524184956437 -0.025765892730162967
0.0 0.0 0.0
0.013689010021506392 -0.5015571969225286 0.008454684453906092
0.03470635576797018 -0.9592141046039535 0.016148028076895367
0.06445776573534721 -1.3988161568388573 0.023298225123931666
0.1055241731952068 -1.8100239327096252 0.028816257582518438
0.15832094952030923 -2.183696572613454 0.032689620785836405
0.22265661953065846 -2.510401415899244 0.03465260562101726
0.298224379375152 -2.7810785122907067 0.03452366431060382
0.3847250861928749 -2.9868635629200004 0.032387886736539105
0.48180461089131166 -3.1184416167529525 0.029156128541742682
0.5870117492908594 -3.165010451868467 0.02728673869979026
0.6922311080444962 -3.118679480604187 0.029175339751617506
0.7893489984551381 -2.987338556899455 0.03244017405267681
0.8759199808105262 -2.7817889132258955 0.03463963513177859
0.9516019850581876 -2.511343334002759 0.03488531467551453
1.0161194391541646 -2.184859548480832 0.033119388400001976
1.0692076505658106 -1.8113801897738055 0.029564797474425728
1.110757287698807 -1.4002979932333712 0.02449430021481599
1.1412942280276257 -0.9606885364971441 0.018142277533340776
1.1638632968344544 -0.5029678468962381 0.010755196786408792
1.1812403881772569 0.0 0.009440553631054442
0.20237891524003407 -0.014582663414624534 0.0012461593049244576
0.21057336161030352 -0.5008273004279589 0.0038763508685925505
0.22058039889932876 -0.9624522908121558 0.010081447804475435
0.2405631630335735 -1.40286916326025 0.015169818814309842
0.26790212729289187 -1.8155941581464639 0.019114849344880145
0.3030650267926671 -2.190683257253652 0.02175243440369131
0.34591626204297277 -2.518824211342119 0.023043596596448657
0.3962287881357356 -2.7909261144689514 0.022936313887786778
0.4536866862491824 -2.998171093235733 0.021551286148869916
0.5178537737897603 -3.1312441493340604 0.019409448323864566
0.5870648884781953 -3.178744506420846 0.018040266532722834
0.6562880147519703 -3.1314846090912356 0.01935991049125265
0.7204926934802943 -2.9986514529749586 0.021463015212888254
0.7780188905858954 -2.791645094868382 0.022834414723274705
0.8284408559485178 -2.51977888569654 0.0229738483891257
0.871461914157637 -2.1918652749338543 0.021791890976230854
0.906891637119232 -1.8169799161514923 0.01937721514521883
0.9346545353756951 -1.4043982237485573 0.015843151830217526
0.9553645788103385 -0.9640196709424484 0.011335918913009394
0.9666470196667222 -0.5024376719499978 0.006381518340902744
0.9755721672623402 -0.014834076513890437 0.007144761031704532
0.39672889653422533 -0.025676328788693564 -0.002243562922290029
0.4012719427254186 -0.5007292121364777 -0.00017502389296078779
0.40476025664539456 -0.9636537829716442 0.0039011476009429146
0.4139144387630551 -1.4053360484483732 0.007216971266516704
0.42758141019061785 -1.818853887800951 0.009520195164199073
0.4451007167065022 -2.194803243015474 0.01091051361344708
0.46647141429940275 -2.523779411308867 0.011445727238160518
0.4914980546085394 -2.796679774554998 0.011174961437753764
0.5198327302493069 -3.0047342183225614 0.010161008379892587
0.551553115225864 -3.138995217958596 0.008449599859638767
0.5871223177874519 -3.1879346775518718 0.0069386193357432605
0.6227031885868639 -3.1392394572430935 0.00833224083163398
0.6544598044461771 -3.0052222656642877 0.009934416100835904
0.6828592194492545 -2.797410625513015 0.010859497428978503
0.7079867092103533 -2.5247506534277884 0.011082528628555717
0.7295084686693656 -2.196007816987681 0.010573952393723614
0.7472550459902314 -1.820270972344672 0.009336007632567955
0.7612758400595905 -1.4069090723674216 0.007377661948805487
0.7710175666236885 -0.965309310217776 0.0046908655969406556
0.7751198254857654 -0.5022435873561455 0.0019070784282793738
0.7799346350796216 -0.025911657840702325 0.0022116657226668554
0.5870707857139628 -0.03312842241586238 -0.006946407679105506
0.588610710148824 -0.501071887590945 -0.004628828849331617
0.5869257590844592 -0.9636008105411116 -0.002262445449612456
0.5860222321432678 -1.4060618544374168 -0.0007569558480030528
0.5858546301762856 -1.8199463489059786 -0.00010398835912690566
0.5857488475115902 -2.196164837202523 -1.9779384919765842e-05
0.585636570890533 -2.525418364593227 -0.00031348740708882596
0.5854448602139263 -2.7985082736769447 -0.0008713166159894963
0.5847477758882533 -3.0067257435196106 -0.001667653763435234
0.5841797650123001 -3.1421415276096165 -0.0031104178956355946
0.5871818758887217 -3.1938143109897226 -0.0051618280903665496
0.5901952315853164 -3.1423906725540456 -0.003295727046160808
0.5896617632210153 -3.0072236486859283 -0.0020327693550037346
0.5890249701212087 -2.7992539608006304 -0.0014002913033117968
0.5889236545712209 -2.5264093682238813 -0.0009695102760023966
0.5889394507162895 -2.1973944338339155 -0.0007282902907937224
0.589014120135001 -1.8213942067587598 -0.0007294709633511149
0.5891160424431904 -1.4076787414723748 -0.001077307899550536
0.5885765668780021 -0.9652724437156931 -0.0019254895207757403
0.5871727578589697 -0.5024426823213364 -0.003052087520764405
0.5888454170112085 -0.03337591512227668 -0.00349557098758883
0.7761056447801132 -0.03737227233793245 -0.011799833002549266
0.774920934565772 -0.5013788016633003 -0.009262992478623458
0.7684822453676016 -0.9626654602992802 -0.00839592941592988
0.7581081580556726 -1.4051484221625268 -0.008696265623671874
0.7441758581838893 -1.8188720508622611 -0.009698103780456555
0.7264042357350166 -2.1948028026461675 -0.010932200083351606
0.7047750222216443 -2.5237863227860324 -0.012066641716206304
0.6794572977963735 -2.7965259013430455 -0.012912342356204875
0.6500250611313514 -3.0041793303299835 -0.013428025509563927
0.6167942395521925 -3.1405002250950123 -0.014223073936101406
0.587242679137871 -3.1973512721236927 -0.01701798086772185
0.5577019670892231 -3.1407554027597238 -0.014477607539210215
0.5245040558275175 -3.004689249622139 -0.013934415295243762
0.4951277171960136 -2.7972893303584834 -0.013659501235464683
0.46988992602315616 -2.5248001554858472 -0.013022622959398763
0.44836536641413205 -2.196059072394517 -0.01202325836878309
0.43072630934957673 -1.8203504902960037 -0.010778210388682975
0.41696076389943365 -1.4067951490993704 -0.009510263034568794
0.4067625706745208 -0.9643218994142707 -0.008545739623601778
0.4004262369168835 -0.5026382164281304 -0.008225138717621445
0.3993080719399696 -0.03764131351740091 -0.009193359250762223
0.9657352760530868 -0.0391993013113884 -0.016253152832988706
0.9622490701129448 -0.5013158149021797 -0.013785651773411579
0.9511942941576658 -0.9609521955806174 -0.014450845843897723
0.931591497225913 -1.4026645963275304 -0.01654932563936718
0.9039252477529058 -1.8155908729413923 -0.019198235768567704
0.868453653856562 -2.1906822901497076 -0.021718759035723085
0.82531875155079 -2.5188050523066856 -0.02364965283906919
0.7746714329017528 -2.790786656702426 -0.02466034699455501
0.7173167189799128 -2.997168040252772 -0.02471893860542383
0.65107251900972 -3.133066991893971 -0.023948823479497644
0.5873037849086201 -3.199449703488505 -0.02691553249684379
0.5235456211899543 -3.133329402727581 -0.024274949097430328
0.4573331070248925 -2.997692280706034 -0.025371835682566492
0.40003078884069043 -2.7915710048975444 -0.025634874367401653
0.34945470975889265 -2.5198451033415283 -0.02492067189222793
0.3064048363789112 -2.191967674827833 -0.023216398033962003
0.2710214451553363 -1.8170977548145335 -0.020769496263909348
0.2434255408709318 -1.4043289768147145 -0.017909898364755813
0.22384444630345846 -0.9625884660998352 -0.015157081627808423
0.21276253102917875 -0.5025079402416649 -0.013316810479513132
0.20928325766692918 -0.03947726925751578 -0.014379030671811843
1.1570151517404412 -0.039782875257489324 -0.019671797034842578
1.152331302164544 -0.5007792809706175 -0.01801809398176222
1.1369473999443898 -0.9584263648326568 -0.020459890333137963
1.107844955018196 -1.398530980687113 -0.0244332053332068
1.0663617209892982 -1.810007481925808 -0.02876392879712346
1.0132061261720244 -2.183666638740295 -0.032560207919292386
0.9485568537774471 -2.5103865712368942 -0.035210251356689204
0.8726297986887932 -2.7808476691085287 -0.036293193780586375
0.7863025086919789 -2.986480490924876 -0.035529189506737224
0.6924914650950739 -3.1180471640075504 -0.032740149449849626
0.5873628254579466 -3.1999999999999997 -0.031486821257937364
0.4822445993286511 -3.1183181060748675 -0.033141134323053094
0.38846451712620217 -2.9870215901721013 -0.03633591175342778
0.3021874271653161 -2.781656526757038 -0.03750822793821133
0.2263260555784442 -2.5114570700250884 -0.03681849273045026
0.16174904058062198 -2.1849848110138366 -0.034501234910503005
0.10865142092079566 -1.8115422539970083 -0.03088706762005515
0.06716742429433464 -1.4002050548662124 -0.02643516374488522
0.03795185738781232 -0.9600397965192349 -0.02184203709559537
0.022384159682275733 -0.5019312933347833 -0.018174217085534416
0.017621597931681363 -0.04004877073721169 -0.018381066706251156
0.0 0.0 0.0
0.01900401433103372 -0.488785512296558 0.0036530462523116872
0.03997002226711595 -0.9383396116552993 0.006855135333296526
0.06902966974746957 -1.371434435813367 0.009891014474222498
0.10891246495752295 -1.7776702968536764 0.012042393174039805
0.15978448557735261 -2.148294556708838 0.013133485886340546
0.22149798541153445 -2.4745069075920294 0.013078064993568811
0.2941453560512134 -2.7478531416924645 0.011895221546562466
0.37866102213406433 -2.959627256442036 0.009834527758202531
0.4768450738834259 -3.0988178945802365 0.007616142449794974
0.5870411976201118 -3.149447488642215 0.006553556789976784
0.697223111803711 -3.0987614943241555 0.007618187201578324
0.7953623722091552 -2.9594971173574116 0.00984711217542033
0.879795812302873 -2.747615333099484 0.011936807029473126
0.9523107519323359 -2.474113295214057 0.01317931549122428
1.0138199368689578 -2.1476896728391934 0.01333797705318587
1.0643828159178144 -1.776805798237816 0.012405989327681614
1.1037934642548106 -1.3702964237297246 0.01047235392324156
1.1321496683673153 -0.9369731220235603 0.007799107877286992
1.1516865404806411 -0.48715478541088203 0.005250208674741307
1.1665858211986735 0.0 0.005356844829073901
0.2032456889387423 -0.012610633991955243 0.0001320799763886672
0.21163636722318932 -0.48870854977968253 0.0018746865385907705
0.22272553054779526 -0.9417088129951117 0.004325610627353136
0.2425993476524827 -1.3757119356108123 0.0065358426096251195
0.26940563509458487 -1.7834848523459805 0.008129272491614804
0.3035384646255512 -2.155598634577492 0.008940306853603095
0.344894487208477 -2.4833773465680262 0.008956690721874973
0.393526946284868 -2.7584046799178012 0.008235717691951541
0.44988678550931904 -2.9721475896501555 0.006962378079257195
0.5148016824881732 -3.1136379833299275 0.005566140219952185
0.5870331246205894 -3.1657618899599393 0.004861879740586694
0.6592469694951357 -3.113576727112426 0.005525277829139061
0.7241070887906828 -2.972006473491537 0.006886754790118079
0.7803688820351036 -2.758147001198944 0.00813928986235786
0.8288492417236001 -2.48295020095893 0.00886420885021508
0.8699825342936959 -2.1549388170943806 0.008890826299041676
0.903795682636502 -1.782532421478018 0.008176965316030026
0.9301505490858099 -1.3744364049254956 0.0067629095205138535
0.9493362539098592 -0.9401154175146813 0.004854263773694593
0.9592738960968563 -0.4867015035991815 0.0033309303744029108
0.9671882273979411 -0.011987713532550473 0.004251320615747994
0.3953326771909881 -0.02173888432608954 -0.0012667189249560796
0.39964785583315504 -0.4885012123464085 -7.309617636360198e-05
0.40371116618804703 -0.9432516019380135 0.0016028947476466942
0.4133291748317736 -1.3784229621589421 0.003073099698102153
0.4270572317130801 -1.787028374881378 0.00406397636369927
0.4443561053142447 -2.160058353958598 0.0045193714110119895
0.46522128649426053 -2.4887676076144443 0.0044762748806707105
0.48953483873511605 -2.7647326411585738 0.004008320639322471
0.517215972455109 -2.9795662252808355 0.003214445407553826
0.549228243459027 -3.1229306466701483 0.002269800980635016
0.5870299375557717 -3.1773213485539107 0.0017028029739510932
0.6248109764219028 -3.122866461950585 0.0021871225821183744
0.6567595519254573 -2.9794181876111097 0.00305336829294569
0.6843288518345108 -2.764461744306906 0.003779619722329853
0.708474264099783 -2.488317002450417 0.004201567031959362
0.729103507431041 -2.159358327303181 0.004236875649798347
0.7460832077984101 -1.7860087217645808 0.0038362925015435157
0.7593848028244072 -1.3770404961668565 0.0029961509313737754
0.7684085835770309 -0.9414675439159873 0.0018647137863673907
0.77201136032874 -0.4864934841221095 0.0011226705356799655
0.7763144509132621 -0.02080466264161152 0.0018284665992033577
0.5830396883917489 -0.027864352266808525 -0.0034805933092470756
0.5843203833559549 -0.4885076300918612 -0.002212517008483334
0.5830117325989044 -0.9434019782248118 -0.0011725826062349365
0.5828116032532102 -1.3793465008021446 -0.0004173926432174727
0.5832851804953607 -1.788286759478689 -2.8100447412430708e-05
0.5837093900356761 -2.16159722968411 4.021456939996637e-05
0.5839931306193936 -2.490601819262093 -0.00011862214008368526
0.5839540499338047 -2.7667312112225835 -0.0004247915579437124
0.5829384128568256 -2.9817445625633163 -0.0008633778015017001
0.5821700659695946 -3.1269768491489707 -0.0014901903861258108
0.587029395696958 -3.1855312090897057 -0.0019995886134600055
0.5918651083222546 -3.1269117777882074 -0.0016145581402408561
0.5910244528744071 -2.9815939033553476 -0.0011094379547474413
0.5898837941154559 -2.7664541429864373 -0.0007843771114184854
0.5896614547492838 -2.4901384284135815 -0.0005722824513766344
0.5896981435414722 -2.1608724175063005 -0.000467735627862308
0.5898073090077114 -1.7872226325911496 -0.0005181225529344609
0.5898879672087101 -1.3778820249098225 -0.0007675478470382936
0.5892735529942241 -0.9415412150765597 -0.0011475512940555973
0.5877875300928761 -0.4865585458195907 -0.0013231906907932222
0.5891524578718893 -0.026655951363606788 -0.0011464756691903662
0.7693173615952815 -0.03137554381348545 -0.0059246316076710225
0.7678994801463557 -0.4885016697703138 -0.004407224290628273
0.761776188394437 -0.9425327614766917 -0.003942843020614971
0.752295166476011 -1.3785125190472454 -0.003897619624280314
0.7395382118212316 -1.7872272094782478 -0.004107873585819572
0.7230548601738676 -2.16019455481267 -0.004429780894593118
0.702704693726974 -2.488866804553277 -0.004708276237777936
0.6784782332623175 -2.7644860397618363 -0.00485198258196736
0.649321761579247 -2.9786565903773754 -0.004914859366764574
0.6153433850374591 -3.1254151570347943 -0.005168214646787082
0.587028905954163 -3.1915338377408524 -0.005569048242099209
0.5586876942651042 -3.1253512814165405 -0.0053350937073349735
0.524627914773322 -2.9785076937476673 -0.005247648893608205
0.4953323195729048 -2.764209985462812 -0.005345360133735535
0.47090595004382285 -2.4884014320514343 -0.005345289990703805
0.45029560554498443 -2.1594612325031792 -0.005169763574934853
0.4334987368815266 -1.7861403504002076 -0.00486881202894586
0.4203985014529863 -1.3770071049173147 -0.004529874964093149
0.41063389513028353 -0.9406557389172764 -0.004180875557685624
0.4044422662963821 -0.4865941858310036 -0.0038398849371744006
0.40312042768169476 -0.029958392966347735 -0.004189714921153749
0.9560915353273178 -0.03291998728565163 -0.008082865291517844
0.9523860003018632 -0.4882381532281386 -0.006441295650469714
0.941630592579707 -0.9407996587829008 -0.006646432621362994
0.9231422139741419 -1.3760050428723776 -0.007328977076504031
0.8972128216109555 -1.7838417958685808 -0.00813614914778418
0.8638386873802761 -2.155867373043628 -0.008823938833821739
0.8229540460178425 -2.4835315893137815 -0.009172044482007893
0.7744142510438976 -2.758194061215765 -0.009066071379484286
0.7186110546204951 -2.970570625197837 -0.008603602832576737
0.6513459451764235 -3.116945795208974 -0.00826680407906408
0.5870258737695319 -3.196388511353809 -0.008335255927961483
0.5226755538463653 -3.116885161316092 -0.008477971311761565
0.45531867897006334 -2.9704278071426726 -0.009027104788866324
0.3993598846788835 -2.757926066754465 -0.009700404599610487
0.35059962077539114 -2.483074947666217 -0.010004572637551187
0.3094349736252 -2.155141263349325 -0.009816183191425864
0.2757423110984928 -1.782756908476197 -0.009200327237847158
0.24950960928593544 -1.3744976731074943 -0.008293165024948394
0.23082861739783733 -0.9389368701399248 -0.007215227477423719
0.22006486348713397 -0.4863515107108507 -0.006219966085541272
0.21645854226408193 -0.0313714766141069 -0.006837768576520622
1.1444878462610408 -0.03347069383303766 -0.00929229610182443
1.139554938618306 -0.48761515595160476 -0.008111684933885675
1.1244725802873814 -0.9382497628947984 -0.009173201476964482
1.0968039309566384 -1.371856295205096 -0.010614747744134696
1.0577041512079037 -1.7781816205953733 -0.011993665260142925
1.0075435936152881 -2.148659326272822 -0.012972885636460154
0.9462463858516375 -2.474752098706059 -0.013263760378638387
0.8736585953553522 -2.7475900982338035 -0.012708762182109161
0.79018264000235 -2.9590093898811496 -0.011440516056937562
0.6977254488954906 -3.099474070538778 -0.010120312798183113
0.5870180707285914 -3.1999999999999997 -0.00950262779574212
0.47627630188235687 -3.099418605849256 -0.010378554778319326
0.38371498622169675 -2.9588767201448185 -0.011961056934912832
0.3000632522655714 -2.7473368525258555 -0.01349565474866464
0.2272281823501585 -2.474314264664216 -0.014311927919561249
0.16562082646270906 -2.147955478810939 -0.014251708247984083
0.11511929466389814 -1.777122924507872 -0.013419098302850865
0.07572939571575493 -1.3703831994643598 -0.012003746542701928
0.047946434985344295 -0.9364316164085431 -0.010191874995198963
0.0329545056266467 -0.48575056283791845 -0.008296309484398768
0.028156271267872623 -0.03185936949028003 -0.008412490531546586
0.0 0.0 0.0
0.02015937192425321 -0.4853572010180604 -3.2436163224355905e-14
0.04124112384234347 -0.9323891698245623 -6.096398514642297e-14
0.06997702453490152 -1.3634993376077387 -8.821562087379758e-14
0.10926721862752947 -1.7684569299920112 -1.1470574690656084e-13
0.159362865645841 -2.138635304191247 -1.4287948383296266e-13
0.22018665269101026 -2.465408407341548 -1.7805677358190545e-13
0.292051442926957 -2.740411899232414 -2.1902747846977203e-13
0.3763045291756354 -2.9547120490203467 -2.5493782113157514e-13
0.47518473786655313 -3.0964560906246206 -2.8601705512464536e-13
0.5870248684125009 -3.148256802993438 -3.19645948323102e-13
0.6988395331631994 -3.096285973472163 -3.563104673059232e-13
0.7976397794420151 -2.954346894834868 -3.879323582055951e-13
0.8817467588370156 -2.73980280673538 -4.0414863670076715e-13
0.9533762215074995 -2.4644860762764806 -4.336581784073114e-13
1.0138337979256942 -2.1373216631535863 -4.59510399593955e-13
1.0633634263361356 -1.7666910022862248 -5.123786305948721e-13
1.1017775944503951 -1.3612864948645684 -5.690827698392404e-13
1.1291691204389502 -0.929834801011181 -6.307711158317255e-13
1.148010777649097 -0.4826439648794166 -6.934767010529373e-13
1.1622854926786765 0.0 -7.390718134635347e-13
0.20317667100949655 -0.012193785001276084 -6.7296204519634935e-15
0.21160586309267657 -0.4855150901366034 -2.941434639415059e-14
0.22309847950297704 -0.9358239637292658 -5.703795754489837e-14
0.2428629381411746 -1.367851916881418 -8.538452156153762e-14
0.269369339893912 -1.7743468235761894 -1.1457456781172288e-13
0.30307274599470924 -2.146046327891768 -1.4521659105403462e-13
0.34393576155053385 -2.4744498114031055 -1.789292259439383e-13
0.3921526982503419 -2.751245889606163 -2.164750788514889e-13
0.4484147412760857 -2.9676741077569653 -2.5289350323551545e-13
0.5137807110605306 -3.11188236965868 -2.902083979144565e-13
0.5869939820064212 -3.1652628253199033 -3.2405686389315344e-13
0.6601770162602705 -3.1117042213962107 -3.6262356954757095e-13
0.725448989970902 -2.9672909709669653 -4.0048057147113583e-13
0.7815428723274498 -2.75060458417214 -4.2849560568696256e-13
0.8294979532817717 -2.473473587834867 -4.636731202955268e-13
0.8699724396594434 -2.1446445588132024 -4.996384369987113e-13
0.9031064748706366 -1.7724410867384481 -5.452289228666576e-13
0.928779853940562 -1.3654171454752473 -5.968673894105792e-13
0.9473047178880297 -0.9329334685176653 -6.514015410473657e-13
0.9569682806071 -0.4822100323204622 -7.057950735037272e-13
0.9645865670126978 -0.011492525368041955 -7.452366810556932e-13
0.39458273209085953 -0.021212905956191686 -7.464392036928726e-15
0.3988504267409194 -0.48530902873865944 -2.874434329546514e-14
0.40318198837049574 -0.9374410751396671 -5.4488190921207576e-14
0.41289529724500595 -1.3705881740324581 -8.401478821530399e-14
0.4265669170183172 -1.7779111358336477 -1.142900420864077e-13
0.44373974422315665 -2.150530916966668 -1.471746840784992e-13
0.46444127293220444 -2.4798898515154226 -1.8209493622780317e-13
0.4886175383656356 -2.757669537882616 -2.1588646626917158e-13
0.5162918149008641 -2.975254915598998 -2.574443308326355e-13
0.5485513651424339 -3.1214050643665745 -2.9535790121271414e-13
0.5869682725440252 -3.17713175257984 -3.3071398486934224e-13
0.6253507620959935 -3.121221184162093 -3.73795790119794e-13
0.6575042548674301 -2.974858747811867 -4.140976869943264e-13
0.684992331497506 -2.757004513771052 -4.521692934926816e-13
0.7088875550383681 -2.478873230287603 -4.918701357970442e-13
0.7291902721759813 -2.1490624174354958 -5.324142658400617e-13
0.7458100855837243 -1.7758951327040546 -5.753181511002028e-13
0.7587208284670957 -1.367984691629784 -6.217950389919744e-13
0.7673913066528837 -0.9342648890388838 -6.71320308664977e-13
0.7709121615899062 -0.48200695875562233 -7.193029884892882e-13
0.7750639835632529 -0.01995845999359432 -7.600728511270917e-13
0.581450502217623 -0.02727695779483386 -6.443598620814466e-15
0.5827203165003706 -0.4852926271870404 -2.76261868125787e-14
0.5816369003874611 -0.9376359531542336 -5.28460365710071e-14
0.5816498879623738 -1.3715502000047144 -8.355721120152305e-14
0.5822941246025879 -1.7791927319614005 -1.1437784552565557e-13
0.5828724275690891 -2.1520907543770296 -1.4894291336055042e-13
0.5832945771673093 -2.481747984888427 -1.8446170706088502e-13
0.583365588999804 -2.759697585046474 -2.195895108390993e-13
0.5824174122099052 -2.977473948386582 -2.6200407228204675e-13
0.5817150859063377 -3.125511562118566 -3.0187515635304977e-13
0.586944916774866 -3.185506222157848 -3.3947760082937707e-13
0.5921363417899691 -3.125324368219358 -3.859235872636855e-13
0.5913165601865831 -2.977069963765135 -4.2622299688736443e-13
0.5901655257827553 -2.7590176870497016 -4.733529999284662e-13
0.5899388634073675 -2.4807051554239568 -5.174266506272035e-13
0.5899566209421427 -2.150576737281258 -5.605902910797508e-13
0.59000889980343 -1.777100357037195 -6.02938645158143e-13
0.5899806785896247 -1.3688164527648836 -6.454450233694191e-13
0.5892680050629711 -0.9343465992475869 -6.907296306200341e-13
0.5878277690325631 -0.48207815347098615 -7.344257557220898e-13
0.5891530832291756 -0.025558656106871202 -7.775936088097231e-13
0.7667828995973482 -0.030747770719367698 -4.950329000504524e-15
0.7654359329049123 -0.48526583037952986 -2.629016594822094e-14
0.7595719579254896 -0.9367997580889125 -5.210184454876602e-14
0.75041710235972 -1.37076181256063 -8.189299010174964e-14
0.738043404873387 -1.7781687618801472 -1.1411110169673824e-13
0.7219943146316872 -2.150713468303822 -1.488724846306717e-13
0.7020842030031937 -2.480024068363016 -1.8718486615256023e-13
0.6782245296295468 -2.7574368376008693 -2.2399826647014757e-13
0.6492304966613762 -2.974336698263065 -2.6660129469704676e-13
0.6151123060974771 -3.1238809552182567 -3.0830657604343247e-13
0.5869211812472825 -3.1915861185180985 -3.491864063662601e-13
0.5586874595607972 -3.123692907742169 -3.9604048510700443e-13
0.524439774409807 -2.973930178179665 -4.419517529483281e-13
0.4952250254488352 -2.7567510405112703 -4.92706587524879e-13
0.4710489124041188 -2.478969130571113 -5.409070457668993e-13
0.45072634774495846 -2.149176445896644 -5.898739426814826e-13
0.43417548526436167 -1.7760319990973694 -6.297080929476594e-13
0.42124093889250125 -1.367959532513268 -6.697277260043689e-13
0.41160396103853863 -0.9334876073645857 -7.094305899460279e-13
0.40558646306650303 -0.48211828338880053 -7.497074327150444e-13
0.404340907356494 -0.028696847289604217 -7.952061417119707e-13
0.952533234676674 -0.03227164728391429 -3.443760183649113e-15
0.9490080233246683 -0.4849820977504764 -2.4997209819825616e-14
0.9386015780747702 -0.935094793850467 -5.0854646079629584e-14
0.9205775911749801 -1.3683006275688365 -8.022606107450164e-14
0.8952582029025129 -1.7748239782612991 -1.1444394370179918e-13
0.8626175448148931 -2.1464083485776273 -1.5268794031422404e-13
0.822505056139437 -2.474673704286272 -1.8748835423957026e-13
0.7746205901692239 -2.7510748451769556 -2.2514194750543679e-13
0.7191397549716576 -2.966090104200224 -2.721561133232682e-13
0.6514704611022349 -3.115176580994982 -3.10831352925038e-13
0.586894321543771 -3.1964442755014004 -3.5634654133823094e-13
0.5222707907332377 -3.1149900928440397 -4.0262330324447084e-13
0.4544580215601723 -2.965686237258947 -4.5460207535832484e-13
0.39873483942679394 -2.7503918860843584 -5.10786870537188e-13
0.3505086809124264 -2.47362057108604 -5.641762544103927e-13
0.3099643712065172 -2.144870071675797 -6.167973567124977e-13
0.2768341181958761 -1.7726794059009718 -6.588802265557638e-13
0.25104822014667616 -1.3654893000767758 -6.950180162284963e-13
0.2327251153192598 -0.9318065047549909 -7.292080946967775e-13
0.22229755230940082 -0.4818738697569603 -7.633227814107842e-13
0.21890623255474295 -0.030020993279789413 -8.104118371560064e-13
1.1398374172177879 -0.03277533482680604 -1.7580710150316536e-15
1.1351911732991042 -0.4843073125586997 -2.3614103829682507e-14
1.1205740543720186 -0.9325412662983674 -4.824518012606816e-14
1.0935570503332082 -1.3641584943457516 -7.751156628794588e-14
1.0553426821515215 -1.7691511464768548 -1.1539168289063142e-13
1.0062649937336674 -2.1391424269935553 -1.57705476982988e-13
0.9461359466526456 -2.4657602095176485 -1.852069743131406e-13
0.8745812351726903 -2.7402123701877654 -2.2582301221190955e-13
0.7916018720888404 -2.9541328917133716 -2.662439741634714e-13
0.6986653509034382 -3.097050524340964 -3.1082238576961333e-13
0.5868614708359168 -3.1999999999999997 -3.587726002186911e-13
0.4750043970832177 -3.0968678904847553 -4.0601128999066106e-13
0.38190714380911656 -2.9537366042813904 -4.594115064663075e-13
0.2986575073528147 -2.739540582055322 -5.281135440862077e-13
0.22672482157673907 -2.464721996329402 -5.886319019048325e-13
0.16612578829032792 -2.137623871907868 -6.511484152031641e-13
0.11653908930324267 -1.7670353914841792 -6.919654027351398e-13
0.07790712887783724 -1.3613962854176291 -7.249979198369479e-13
0.05075747530193635 -0.9293285714628233 -7.50169932023638e-13
0.03632011868616075 -0.4812442130248157 -7.748940984969181e-13
0.03189040453077529 -0.03043451359871942 -8.193451764273825e-13
0.0 0.0 0.0
0.019004014331092965 -0.4887855122965868 -0.0036530462523772875
0.039970022267206806 -0.9383396116553449 -0.006855135333414011
0.06902966974758477 -1.371434435813391 -0.009891014474395212
0.10891246495764786 -1.7776702968536637 -0.012042393174268449
0.15978448557747799 -2.1482945567088243 -0.013133485886631532
0.22149798541166532 -2.4745069075920147 -0.013078064993911018
0.294145356051357 -2.7478531416924588 -0.011895221546949091
0.3786610221342196 -2.959627256442038 -0.009834527758660998
0.4768450738835932 -3.098817894580188 -0.007616142450340126
0.587041197620297 -3.14944748864217 -0.006553556790592837
0.6972231118039232 -3.098761494324105 -0.0076181872022633695
0.7953623722093963 -2.959497117357264 -0.009847112176164484
0.8797958123031259 -2.74761533309924 -0.011936807030280248
0.9523107519325846 -2.4741132952137534 -0.013179315492097063
1.0138199368691658 -2.1476896728388 -0.013337977054138259
1.0643828159179656 -1.7768057982374805 -0.012405989328721147
1.1037934642549392 -1.3702964237294417 -0.010472353924383896
1.132149668367422 -0.9369731220233461 -0.00779910787854936
1.1516865404807317 -0.48715478541075824 -0.0052502086761237925
1.1665858211987419 0.0 -0.0053568448305443194
0.20324568893879572 -0.012610633991958699 -0.00013207997640294754
0.21163636722325607 -0.4887085497797178 -0.0018746865386506655
0.22272553054788344 -0.9417088129951603 -0.004325610627469276
0.24259934765258873 -1.3757119356108347 -0.0065358426097970705
0.26940563509470417 -1.7834848523459779 -0.008129272491845694
0.30353846462567674 -2.155598634577473 -0.008940306853896884
0.34489448720860777 -2.483377346568019 -0.008956690722226877
0.3935269462850092 -2.7584046799178044 -0.008235717692362018
0.4498867855094646 -2.972147589650162 -0.006962378079741488
0.5148016824883315 -3.113637983329905 -0.005566140220513693
0.5870331246207723 -3.165761889959902 -0.0048618797412231865
0.6592469694953299 -3.113576727112379 -0.0055252778298489295
0.7241070887908915 -2.9720064734914198 -0.006886754790893783
0.7803688820353331 -2.7581470011987026 -0.008139289863210287
0.8288492417238162 -2.482950200958637 -0.00886420885113887
0.8699825342938949 -2.1549388170939556 -0.008890826300052425
0.9037956826366753 -1.7825324214776785 -0.008176965317127478
0.9301505490859614 -1.3744364049252062 -0.0067629095217084725
0.9493362539099974 -0.9401154175144656 -0.0048542637749995
0.9592738960969853 -0.4867015035990572 -0.003330930375811136
0.9671882273980634 -0.011987713532536196 -0.0042513206172334035
0.39533267719106174 -0.021738884326096268 0.0012667189249398602
0.39964785583323614 -0.48850121234644484 7.309617630548072e-05
0.40371116618813496 -0.9432516019380597 -0.001602894747759669
0.4133291748318755 -1.3784229621589732 -0.003073099698274093
0.42705723171319165 -1.7870283748813742 -0.004063976363931624
0.44435610531436265 -2.1600583539585743 -0.004519371411308002
0.465221286494388 -2.4887676076144403 -0.004476274881032232
0.4895348387352466 -2.7647326411585795 -0.004008320639754061
0.5172159724552443 -2.9795662252808417 -0.0032144454080575684
0.5492282434591821 -3.1229306466701274 -0.002269800981218083
0.5870299375559416 -3.1773213485538805 -0.0017028029746115154
0.6248109764220784 -3.122866461950526 -0.0021871225828536244
0.6567595519256447 -2.979418187611016 -0.0030533682937561564
0.684328851834712 -2.7644617443066695 -0.0037796197232245216
0.7084742640999844 -2.488317002450129 -0.004201567032934026
0.7291035074312395 -2.1593583273027734 -0.0042368756508628785
0.7460832077985944 -1.78600872176423 -0.0038362925026935507
0.7593848028245812 -1.3770404961665692 -0.0029961509326197266
0.7684085835771908 -0.9414675439157676 -0.0018647137877115482
0.7720113603289036 -0.4864934841219868 -0.0011226705371170786
0.7763144509134197 -0.020804662641585238 -0.0018284666007189804
0.5830396883918345 -0.027864352266819194 0.003480593309232891
0.584320383356043 -0.48850763009189574 0.002212517008426218
0.5830117325989931 -0.9434019782248529 0.0011725826061250108
0.5828116032533082 -1.3793465008021717 0.0004173926430476999
0.583285180495466 -1.788286759478688 2.8100447179124237e-05
0.5837093900357861 -2.161597229684092 -4.0214569702231704e-05
0.5839931306195116 -2.490601819262083 0.00011862213971213085
0.5839540499339272 -2.7667312112225755 0.0004247915574995232
0.5829384128569557 -2.9817445625633483 0.0008633778009763199
0.5821700659697402 -3.1269768491489627 0.0014901903855253195
0.587029395697114 -3.1855312090896644 0.001999588612773171
0.5918651083224115 -3.1269117777881643 0.0016145581394791755
0.5910244528745779 -2.9815939033552765 0.0011094379539015615
0.58988379411563 -2.7664541429862206 0.0007843771104813434
0.5896614547494636 -2.4901384284133163 0.0005722824503513079
0.589698143541661 -2.1608724175059 0.00046773562674513034
0.589807309007907 -1.787222632590805 0.0005181225517308189
0.5898879672089002 -1.3778820249095216 0.0007675478457440162
0.5892735529944115 -0.9415412150763449 0.0011475512926728037
0.5877875300930661 -0.48655854581946806 0.001323190689325755
0.5891524578720815 -0.026655951363573432 0.0011464756676380495
0.7693173615953729 -0.03137554381350059 0.005924631607660544
0.7678994801464454 -0.4885016697703414 0.004407224290573226
0.7617761883945245 -0.9425327614767286 0.003942843020507198
0.7522951664761041 -1.3785125190472742 0.003897619624112044
0.7395382118213314 -1.787227209478246 0.004107873585585797
0.7230548601739663 -2.160194554812643 0.004429780894284703
0.7027046937270828 -2.4888668045532714 0.004708276237398617
0.6784782332624356 -2.7644860397618363 0.004851982581508018
0.6493217615793774 -2.978656590377409 0.004914859366226319
0.615343385037592 -3.1254151570348006 0.0051682146461687365
0.5870289059543061 -3.191533837740815 0.005569048241386349
0.5586876942652548 -3.125351281416508 0.005335093706544114
0.5246279147734698 -2.9785076937475843 0.005247648892725609
0.4953323195730589 -2.7642099854626103 0.005345360132755355
0.47090595004398417 -2.4884014320511696 0.0053452899896274724
0.4502956055451659 -2.1594612325027867 0.0051697635737656174
0.4334987368817263 -1.7861403503998612 0.004868812027688213
0.4203985014531908 -1.3770071049170065 0.004529874962749741
0.41063389513049653 -0.9406557389170628 0.0041808755562649244
0.4044422662966013 -0.48659418583088304 0.0038398849356758667
0.40312042768191614 -0.02995839296630985 0.004189714919564266
0.9560915353274094 -0.0329199872856698 0.00808286529151193
0.9523860003019534 -0.4882381532281601 0.0064412956504173785
0.9416305925797944 -0.940799658782935 0.006646432621258542
0.9231422139742275 -1.3760050428724089 0.007328977076337541
0.8972128216110473 -1.7838417958685688 0.008136149147550691
0.863838687380373 -2.155867373043588 0.008823938833513878
0.8229540460179493 -2.483531589313791 0.009172044481622125
0.7744142510440177 -2.7581940612157547 0.009066071379009362
0.7186110546206241 -2.9705706251978774 0.008603602832025948
0.6513459451765476 -3.116945795208971 0.00826680407842826
0.5870258737696663 -3.1963885113537915 0.00833525592722775
0.5226755538465004 -3.11688516131605 0.008477971310942871
0.4553186789701925 -2.970427807142613 0.00902710478794784
0.39935988467901445 -2.7579260667542624 0.009700404598586173
0.350599620775532 -2.483074947665959 0.010004572636423646
0.30943497362537054 -2.1551412633489546 0.009816183190198873
0.27574231109869735 -1.7827569084758461 0.009200327236534484
0.24950960928615917 -1.374497673107188 0.008293165023556105
0.23082861739807833 -0.9389368701397116 0.007215227475963858
0.2200648634873831 -0.4863515107107335 0.006219966084013165
0.216458542264334 -0.03137147661406681 0.006837768574898758
1.144487846261133 -0.033470693833057626 0.00929229610182191
1.1395549386183996 -0.4876151559516219 0.00811168493383757
1.1244725802874695 -0.9382497628948326 0.009173201476864045
1.0968039309567161 -1.3718562952051236 0.010614747743970672
1.0577041512079854 -1.7781816205953618 0.01199366525991029
1.007543593615385 -2.1486593262727913 0.01297288563615637
0.9462463858517444 -2.474752098706057 0.013263760378243667
0.8736585953554734 -2.747590098233793 0.012708762181622344
0.7901826400024781 -2.959009389881183 0.011440516056369771
0.6977254488956041 -3.099474070538769 0.01012031279753279
0.5870180707287154 -3.1999999999999997 0.00950262779500007
0.476276301882479 -3.0994186058492086 0.010378554777473332
0.38371498622179795 -2.9588767201447546 0.011961056933952479
0.30006325226566544 -2.7473368525256676 0.013495654747596288
0.2272281823502722 -2.474314264663957 0.014311927918382098
0.16562082646286197 -2.147955478810587 0.014251708246699682
0.11511929466410986 -1.7771229245075268 0.013419098301479433
0.07572939571600626 -1.3703831994640598 0.012003746541260258
0.04794643498561942 -0.9364316164083312 0.010191874993699328
0.032954505626929184 -0.48575056283780066 0.008296309482842257
0.028156271268155435 -0.031859369490240194 0.008412490529905298
0.0 0.0 0.0
0.013689010021631866 -0.5015571969225894 -0.008454684453982633
0.0347063557681558 -0.9592141046039918 -0.016148028077033517
0.06445776573556658 -1.39881615683887 -0.023298225124126565
0.10552417319546092 -1.8100239327096235 -0.02881625758276434
0.1583209495206004 -2.183696572613414 -0.032689620786127194
0.22265661953098895 -2.5104014158991514 -0.03465260562134755
0.2982243793754719 -2.7810785122904917 -0.0345236643109868
0.3847250861931625 -2.986863562919755 -0.03238788673697918
0.4818046108916314 -3.1184416167527975 -0.029156128542258873
0.587011749291233 -3.165010451868248 -0.02728673870037136
0.6922311080449055 -3.118679480603964 -0.02917533975227459
0.7893489984555906 -2.987338556899111 -0.03244017405339956
0.8759199808109815 -2.7817889132254523 -0.03463963513257749
0.9516019850586153 -2.5113433340021984 -0.03488531467639243
1.0161194391545498 -2.1848595484802336 -0.033119388400966
1.0692076505661365 -1.811380189773169 -0.029564797475469938
1.1107572876990643 -1.400297993232829 -0.024494300215963178
1.1412942280278264 -0.9606885364967125 -0.018142277534602853
1.1638632968346214 -0.5029678468959663 -0.010755196787791408
1.1812403881773803 0.0 -0.009440553632522993
0.2023789152401398 -0.014582663414634208 -0.0012461593049408577
0.21057336161043616 -0.500827300428026 -0.0038763508686618154
0.2205803988995063 -0.9624522908121993 -0.010081447804606637
0.24056316303378672 -1.4028691632602648 -0.015169818814498517
0.2679021272931341 -1.8155941581464694 -0.019114849345122236
0.3030650267929377 -2.1906832572536277 -0.02175243440398621
0.3459162620432654 -2.518824211342035 -0.0230435965967966
0.3962287881360298 -2.7909261144687116 -0.022936313888192304
0.4536866862494833 -2.998171093235478 -0.0215512861493384
0.5178537737900814 -3.131244149333919 -0.01940944832440789
0.5870648884785534 -3.178744506420641 -0.01804026653334362
0.656288014752358 -3.131484609091009 -0.019359910491945197
0.720492693480703 -2.9986514529746233 -0.02146301521365429
0.7780188905863101 -2.7916450948679197 -0.022834414724117003
0.8284408559489164 -2.519778885695975 -0.022973848390051017
0.8714619141580048 -2.1918652749332526 -0.021791890977241678
0.9068916371195692 -1.8169799161508622 -0.01937721514631813
0.9346545353759892 -1.404398223747995 -0.01584315183141703
0.9553645788105939 -0.9640196709420138 -0.011335918914312383
0.9666470196669728 -0.50243767194973 -0.006381518342312505
0.9755721672625708 -0.014834076513852353 -0.0071447610331876995
0.39672889653437227 -0.025676328788708517 0.0022435629222711147
0.4012719427255742 -0.5007292121365444 0.00017502389289460277
0.40476025664556986 -0.9636537829716957 -0.003901147601068031
0.41391443876326034 -1.4053360484483923 -0.007216971266699498
0.4275814101908463 -1.818853887800961 -0.009520195164440068
0.44510071670675566 -2.194803243015453 -0.01091051361374761
0.46647141429966804 -2.5237794113087766 -0.01144572723852282
0.49149805460881707 -2.7966797745547733 -0.011174961438177337
0.519832730249604 -3.00473421832232 -0.010161008380384752
0.5515531152261751 -3.1389952179584535 -0.008449599860206318
0.5871223177877909 -3.187934677551672 -0.006938619336401186
0.6227031885872301 -3.13923945724288 -0.008332240832361525
0.6544598044465506 -3.00522226566393 -0.009934416101642236
0.6828592194496275 -2.7974106255125726 -0.010859497429864553
0.7079867092107245 -2.5247506534272084 -0.01108252862952835
0.7295084686697259 -2.1960078169870716 -0.010573952394784187
0.7472550459905797 -1.8202709723440478 -0.009336007633722394
0.7612758400599148 -1.4069090723668405 -0.007377661950052378
0.7710175666240018 -0.9653093102173503 -0.004690865598283161
0.7751198254860779 -0.5022435873558759 -0.0019070784297171737
0.7799346350799221 -0.025911657840636856 -0.0022116657241818866
0.5870707857141317 -0.03312842241588332 0.00694640767909168
0.5886107101489936 -0.5010718875910037 0.004628828849268507
0.586925759084638 -0.9636008105411674 0.0022624454494941724
0.5860222321434607 -1.4060618544374435 0.000756955847824847
0.5858546301765001 -1.819946348905993 0.00010398835888677328
0.5857488475118235 -2.1961648372024998 1.9779384614351494e-05
0.5856365708907835 -2.5254183645931443 0.00031348740671686276
0.5854448602141872 -2.798508273676749 0.0008713166155452921
0.5847477758885359 -3.0067257435193833 0.0016676537629218538
0.5841797650126 -3.1421415276095015 0.0031104178950406543
0.5871818758890444 -3.19381431098957 0.0051618280896798
0.5901952315856611 -3.142390672553824 0.003295727045398348
0.5896617632213533 -3.007223648685561 0.00203276935415905
0.589024970121547 -2.7992539608001805 0.0014002913023811675
0.5889236545715705 -2.5264093682233097 0.0009695102749789837
0.5889394507166461 -2.1973944338332965 0.0007282902896792579
0.5890141201353551 -1.8213942067581184 0.0007294709621451582
0.5891160424435502 -1.4076787414717982 0.0010773078982546066
0.5885765668783682 -0.9652724437152707 0.0019254895193935
0.5871727578593433 -0.5024426823210674 0.003052087519294914
0.5888454170115769 -0.03337591512219167 0.0034955709860363094
0.7761056447802931 -0.03737227233795951 0.011799833002543003
0.7749209345659509 -0.5013788016633521 0.009262992478565565
0.7684822453677842 -0.9626654602993386 0.008395929415818442
0.7581081580558627 -1.405148422162553 0.008696265623500487
0.744175858184085 -1.8188720508622775 0.009698103780216627
0.726404235735232 -2.194802802646177 0.010932200083040673
0.7047750222218718 -2.523786322785961 0.012066641715820928
0.6794572977966229 -2.796525901342837 0.01291234235574452
0.6500250611316273 -3.0041793303297766 0.013428025509027264
0.6167942395524778 -3.1405002250948884 0.014223073935480283
0.5872426791381687 -3.19735127212357 0.017017980867008342
0.5577019670895377 -3.1407554027594937 0.014477607538415399
0.5245040558278179 -3.0046892496217437 0.013934415294359438
0.4951277171963195 -2.7972893303580433 0.013659501234485859
0.469889926023485 -2.5248001554852824 0.013022622958320537
0.44836536641448244 -2.196059072393901 0.01202325836761468
0.43072630934994416 -1.8203504902953627 0.010778210387424282
0.4169607638998258 -1.4067951490988089 0.00951026303322529
0.4067625706749411 -0.9643218994138535 0.00854573962217901
0.40042623691731216 -0.5026382164278556 0.008225138716118467
0.39930807194039697 -0.03764131351730714 0.009193359249172257
0.9657352760532806 -0.039199301311416614 0.016253152832990333
0.9622490701131323 -0.5013158149022309 0.013785651773360875
0.9511942941578457 -0.9609521955806721 0.014450845843793582
0.9315914972260997 -1.4026645963275601 0.01654932563920191
0.903925247753093 -1.8155908729414083 0.019198235768333204
0.8684536538567544 -2.1906822901497365 0.02171875903540688
0.825318751550994 -2.5188050523066003 0.02364965283867087
0.7746714329019843 -2.7907866567022577 0.02466034699407301
0.717316718980187 -2.9971680402525718 0.024718938604858853
0.6510725190099902 -3.133066991893856 0.02394882347885536
0.5873037849088965 -3.199449703488433 0.026915532496106127
0.5235456211902331 -3.133329402727342 0.02427494909660593
0.4573331070251532 -2.997692280705622 0.025371835681637936
0.40003078884096654 -2.7915710048971096 0.025634874366370512
0.3494547097591959 -2.519845103340969 0.02492067189109489
0.3064048363792515 -2.1919676748272128 0.023216398032738127
0.2710214451557203 -1.8170977548138942 0.020769496262596533
0.2434255408713647 -1.4043289768141725 0.01790989836336307
0.22384444630392744 -0.9625884660994181 0.015157081626344951
0.21276253102966408 -0.502507940241391 0.01331681047797742
0.20928325766741956 -0.03947726925741829 0.01437903067018815
1.1570151517406377 -0.03978287525751866 0.019671797034850936
1.1523313021647417 -0.500779280970669 0.018018093981720336
1.136947399944569 -0.9584263648327048 0.020459890333041984
1.1078449550183689 -1.3985309806871478 0.02443320533304978
1.066361720989483 -1.81000748192582 0.028763928796895342
1.0132061261721943 -2.1836666387403048 0.03256020791897192
0.9485568537776138 -2.510386571236814 0.03521025135627559
0.872629798689009 -2.7808476691083777 0.03629319378007408
0.7863025086922504 -2.9864804909247074 0.0355291895061407
0.6924914650953722 -3.118047164007431 0.03274014944918105
0.5873628254581971 -3.1999999999999997 0.03148682125718532
0.482244599328857 -3.118318106074618 0.033141134322197875
0.3884645171264244 -2.9870215901717043 0.036335911752449566
0.3021874271655608 -2.7816565267566147 0.03750822793712447
0.2263260555787119 -2.51145707002453 0.03681849272925966
0.16174904058095096 -2.184984811013231 0.034501234909222855
0.10865142092119874 -1.811542253996384 0.030887067618688258
0.06716742429481093 -1.4002050548656864 0.026435163743442517
0.03795185738833298 -0.9600397965188288 0.021842037094089786
0.022384159682824676 -0.5019312933345124 0.01817421708396892
0.017621597932241766 -0.04004877073711376 0.01838106670460343
0.0 0.0 0.0
0.014634340190081242 -0.5306629938229851 -0.012702052559932304
0.03524048344698304 -0.9999812757153832 -0.027350179934078178
0.06374034280813078 -1.452051037059223 -0.039047460844532235
0.10429741611223614 -1.8746158812998672 -0.04964686953157678
0.15748052751561817 -2.2577130170899737 -0.0584104112613538
0.22307015744671221 -2.5908156590896936 -0.06497355385956928
0.3006695387934544 -2.863743973206725 -0.06887005156920703
0.3892181923605228 -3.0665742678156684 -0.06977354883164656
0.4860817022964562 -3.1908339210953445 -0.06821795965394492
0.5868931638130771 -3.232238934937989 -0.06681008368662852
0.6877404534547181 -3.1914401985651892 -0.06827405504020939
0.784718437635673 -3.0678009631430028 -0.06990541820764318
0.8734821235937436 -2.86561690890385 -0.06912122032054188
0.9514368224240879 -2.5933657739891736 -0.06541895276434094
1.0175849331297706 -2.260960376570465 -0.05917028354272328
1.0716179028778532 -1.8785416418183034 -0.05089163954912693
1.1134415244670435 -1.4565490351786003 -0.04107096768656412
1.1437860994584006 -1.004844010394249 -0.030336049171313953
1.1675741790329046 -0.5354991254871022 -0.018035005206580326
1.1898455130295882 0.0 0.00010297100197168254
0.20827195995639933 -0.022660726672631314 0.006669204322634383
0.2172610510155465 -0.5283073666205902 -0.006654092396706906
0.22450790825592215 -1.0031762744884423 -0.017325929741423794
0.24318353163066825 -1.455804308465685 -0.026370578363990132
0.2695307940736669 -1.8800145066012033 -0.03394054151819177
0.30431810709240625 -2.2645546584044056 -0.04016924130832189
0.34734632986054326 -2.5991143203496336 -0.044784978773386
0.3983424046451567 -2.8734404830927 -0.0475749892017653
0.45661062394882046 -3.0774846594632637 -0.04839293907542824
0.5204555775878086 -3.2024503456733946 -0.04757415748312539
0.5870023734307993 -3.243895458713361 -0.0467032582392745
0.6535870555605011 -3.203066599201892 -0.04755485027726572
0.7175521468939927 -3.0787331707782366 -0.04837105902720296
0.7760427245618676 -2.875351006169974 -0.047588465114496284
0.827398551544951 -2.601724051697279 -0.04490247664470555
0.8709769330097986 -2.2678931943237504 -0.040502395190601614
0.9065797283829375 -1.8840739599874183 -0.034670468415436
0.9341010252219435 -1.4604943550910852 -0.027738888035084393
0.9544770999892913 -1.0083146350689338 -0.019806691615504853
0.9641486719316191 -0.5335264212319171 -0.010281099837694875
0.9744374497361016 -0.023914023107775167 0.002689670002328694
0.4048923330655847 -0.03934484564138621 0.010898688630872396
0.40952748349881524 -0.5275168054830066 0.0005897875876437653
0.4103362425652082 -1.0039007451738757 -0.0070290232705490984
0.41758262220454295 -1.4580716842428167 -0.012645369153063612
0.4300285826692404 -1.8831109623343676 -0.016942653418448566
0.44677385769196704 -2.268564632140577 -0.020222545104351293
0.4677957439551023 -2.603991644602645 -0.022505200388719854
0.49298976061127864 -2.879188965432353 -0.023744028659465757
0.5221703119871008 -3.0839845789694116 -0.02391535580479344
0.5543311235812157 -3.2091013213842623 -0.023078149913473466
0.5870889651869003 -3.249841411274505 -0.022134300717597262
0.6198854204903691 -3.2097283580235354 -0.022983566839491917
0.6521679286545697 -3.085256305040277 -0.023739703708222634
0.6815709568928838 -2.8811384533061357 -0.023519398138495257
0.7071180788424936 -2.6066612467302877 -0.022292495561954537
0.7286667440635008 -2.271991322256576 -0.020128385850113662
0.7461690361146595 -1.8872967415008182 -0.017140266063756855
0.7596696769244158 -1.4629306824554684 -0.013409033140278005
0.768325629345016 -1.0092627842399589 -0.008743478938954271
0.7702867835230385 -0.5325517916078518 -0.002300769229894392
0.7754811321946355 -0.04127543808464977 0.006849208684096938
0.5957335373753943 -0.05003724263567346 0.014676069008990506
0.5969791382961044 -0.5276508408848968 0.007635152700232504
0.5928927730698078 -1.0032986643256654 0.0033757414410543946
0.5898451247826642 -1.458519675908508 0.0013915587706318023
0.588228445728525 -1.8840414794280986 0.000562231290456276
0.5871399990320871 -2.269812533852656 0.00037489460840543006
0.5864030183503552 -2.6055641596517236 0.0005995694515423957
0.5861301052340926 -2.881140418212227 0.0011123352076674736
0.5867416349293275 -3.0863037270554097 0.0017980871792522676
0.5879800235115652 -3.21087547866441 0.0027919596651053984
0.5871662064379316 -3.249475794181938 0.003991826369226746
0.5863911667173061 -3.211513781323297 0.0029623744297564082
0.5877510541540173 -3.087599439489372 0.002128813523549434
0.5885820139881548 -2.8831294349076493 0.001577622246448533
0.5886506803705905 -2.6082928760449247 0.0011463044496931988
0.588409003257196 -2.2733239585636866 0.0009037969403272708
0.5880052082939393 -1.8883432485972484 0.0009005166673468697
0.5872967437420658 -1.4635328808649977 0.0012594646967336483
0.5852460059846343 -1.008725659371404 0.002394864577445561
0.5817750101574599 -0.5324852748779915 0.005471273377091149
0.583329097654261 -0.052469105963396004 0.011262265399376114
0.785011278666945 -0.05576098504087782 0.01855774156061319
0.7832635600766715 -0.5278648320546366 0.014325358434949406
0.7746479582763903 -1.0018251636966533 0.013609260199038924
0.7620760443861468 -1.4572722460685075 0.015349273291771283
0.7465088011543237 -1.8827714092772143 0.01803582975143438
0.727520701705128 -2.2683259605073616 0.02095131428380693
0.7050563872211528 -2.603850409728104 0.02369479775348548
0.6792524719347667 -2.8792887495976665 0.0259784106908672
0.6510999085548586 -3.0845510370290365 0.027484797007229212
0.6217953796781048 -3.208071294289711 0.028145096625168654
0.5872455305705954 -3.241900331514408 0.029221714396004076
0.5527348005349668 -3.2087212488573065 0.028392597180951294
0.5235520798286449 -3.085871336308189 0.027973394919991675
0.4956166967000504 -2.8813176274176926 0.026689200933134746
0.4701438489478199 -2.6066373739970157 0.024583361734111756
0.44814342957674125 -2.271917388998745 0.021926232313385967
0.42976461786707537 -1.887180074479207 0.018926870174217215
0.41492616793066883 -1.4624015210285433 0.015870788992551045
0.40303227732809477 -1.0072639091565294 0.013356624906446388
0.39476847107633806 -0.5325717541795377 0.012907203250308912
0.39318918755027443 -0.058511272518456954 0.01589009451271859
0.9755551008739229 -0.057902589568710965 0.022738659866821474
0.971447069375003 -0.5276437343528807 0.020637999229604385
0.9584761076926679 -0.9996132125000261 0.02343943040391423
0.9367098126296162 -1.454451502332505 0.028846642846247154
0.9071419314121499 -1.8792810102020996 0.03494243753734167
0.8700558777800245 -2.264069344961638 0.040825659535651856
0.8255747762935608 -2.598859866094965 0.04594881145439318
0.7740671463444573 -2.8735201969246713 0.04983288676507097
0.715881402392005 -3.0786012513414955 0.05200810847746591
0.6555609044137651 -3.2014826325782573 0.05126785744385485
0.587338554970208 -3.225741432001706 0.05025211081066147
0.5191566604524516 -3.2021447663678764 0.05159435795526862
0.4589612742172431 -3.0799470077936446 0.052658767353227234
0.4009955374676958 -2.8755897189845894 0.050796388232217805
0.3498157409208205 -2.6017045732355517 0.04719050826557825
0.305777286589314 -2.267736766210555 0.042263499410477696
0.2692309468452941 -1.883781729003867 0.03641083807204714
0.24022018172739765 -1.4596646407371652 0.03005064951961715
0.21886536395005857 -1.0050583202165022 0.02393318577669862
0.2060397292803141 -0.5322876747103641 0.019959902972935997
0.20197421751062267 -0.06080605677267445 0.020792522023994328
1.168933231948919 -0.058339331755316345 0.02707526090600426
1.1642782243911818 -0.5269016017052438 0.026585472760923802
1.1477994252229693 -0.9967052084988175 0.03253064383586511
1.1164983857757331 -1.4500177862825718 0.04128034013994129
1.072580271379842 -1.8735015479058577 0.05044217330419938
1.0170135124329969 -2.2569645297959786 0.05894375580251635
0.9499903719903892 -2.5904202719921408 0.06608105173130757
0.8719304676219617 -2.8639498619604287 0.07118882053217179
0.7835649449979423 -3.0673406820226012 0.07363797437290893
0.6852316169549256 -3.1923427273510834 0.07102847669826279
0.5874591212591865 -3.1999999999999997 0.06036042140148578
0.4897304183119455 -3.1930180565960344 0.0714364428375357
0.3915315681196366 -3.0687137244153098 0.07445603056032199
0.303399097403241 -2.866062126336799 0.07241405116882675
0.22567862652959023 -2.593323965471193 0.06768978340072383
0.1590971503479855 -2.2607051679551926 0.0608648084248678
0.10402768790561855 -1.878079008221846 0.052515459818410604
0.06052248888060442 -1.4552823821054006 0.043197893194867464
0.029341390474434507 -1.0021394802473647 0.03379150537857123
0.01269186975766037 -0.5315056162605174 0.02662380203529711
0.007916092979147648 -0.06127524184936603 0.025765892728506594
SCALARS Stress float 6
LOOKUP_TABLE default
-3283.964281390414 -18216.194037093792 -6450.047495545264 -3332.8438623998077 1374.0201086329369 -1731.4280453064387
7257.656133619494 4668.698731260925 3004.5117651673845 -1480.5142654928397 1430.1921078747582 -58.88097254425632
7179.2264056693875 208.3373364750359 703.9786219483626 -697.9545515630494 1397.1983859147829 -485.69260769408925
10384.442889893593 965.5280011392526 1278.8444450606858 -719.7457519641998 1243.201565330249 -526.9949402372278
14020.55389362746 1077.2573144885357 1717.2107493481853 -678.3406991783506 1110.9719648517207 -723.7916728274432
17816.47566286803 1416.0720956486705 2297.4576134001077 -615.4721297565135 872.604597811223 -892.5268130620058
21512.867286301574 1714.7510852245252 2874.957499299111 -514.110317148066 544.2535767962801 -1065.9097509401784
25001.20240569675 1993.7319573957002 3461.7180290732035 -374.7576546875049 132.6549121226751 -1236.28072089513
27938.53119490623 2216.915922025104 3999.5697523064855 -195.05099989823435 -268.56529160287835 -1411.9101632677184
29854.422817839066 2439.707855776191 4414.892002006721 -36.24153554199884 -382.3633175624358 -1600.6174534838844
30557.003424363127 2690.5300166693482 4638.608459167382 -4.4389527841607475 9.191328170818991 -1729.33152405506
29876.117872712046 2439.964364212337 4416.498107207465 27.133155794507303 400.5845333462871 -1601.063957775959
27986.213884465746 2217.6273328569996 4003.3444043759387 185.2514838392835 286.2532031699932 -1412.795232259397
25084.004050218373 1995.3205767610193 3468.783387719753 363.79004932136036 -116.07633793492451 -1237.6270567296112
21646.070644726547 1718.151380124989 2887.225465581489 501.53539075289467 -529.6359725810335 -1067.5353778900396
18021.86203633987 1421.772480721045 2316.2195109770023 600.670579055813 -861.8250413617421 -895.0818636553068
14330.48399335783 1088.8317464426516 1746.671041993399 661.3758073694675 -1104.0770593684076 -724.0363419817145
10834.181800145274 978.9944270028504 1306.1027596093675 695.7278571425097 -1251.1545617569275 -540.4858084882505
7946.219107551331 288.46818157960837 824.2470157811367 668.8726572002556 -1375.3211026511804 -440.89514384840476
8920.41133488503 4962.311595492406 3182.0427425758144 1536.1429493590958 -1839.0216571763044 -323.9090439217529
-137.32317506413932 -17372.537239976078 -3964.5822988493665 2003.3408923701122 -2408.845255279922 -671.5468558649825
-3641.0886384768414 -15800.37114949882 -4763.863846668569 -2139.213490685958 1135.236986773127 -995.2957204222439
3469.767688967141 2530.2741006118276 1425.0174305917546 -1772.5242480400673 950.5683300238211 -298.5335053101441
3579.800739286383 -241.86832127121687 23.37466393870268 -1474.7841325258594 862.4681061659971 -523.3279144805628
6478.305833817778 44.98910877089698 444.885943599002 -1493.6950363744036 762.5692386662994 -678.6389781315353
8764.167854339183 -54.40100984380754 611.461609986631 -1460.095864289272 661.756523531463 -900.3561141501967
11183.38480868857 -51.407344846990625 853.3243070683959 -1341.1201437937143 521.4742879191541 -1121.4483356276585
13540.235151940376 -51.350966495563014 1111.5786617944796 -1165.2629423911785 326.29774699465185 -1343.809453992136
15757.75410820993 -71.45837818789106 1379.667551676432 -908.7515670531117 85.39661105517837 -1573.304987616155
17635.835603300824 -93.50667320008354 1639.075534011434 -536.7967505533172 -151.86482686263648 -1834.5418099270612
18933.063152780505 85.6882540158379 1903.3896856123556 -141.2842157433381 -226.48264625929795 -2162.2497236821964
19542.36148032211 571.2462084344476 2164.5784263247874 -7.914495685117153 2.2017137009659806 -2416.4223817393163
18956.580997720157 86.72275892683888 1906.674255976807 124.95119822974418 230.44768334768574 -2162.296577988516
17686.732261101035 -91.34954170312133 1646.0289009924115 518.9263419150872 154.500336806116 -1834.575669256161
15844.057781325993 -67.99751853104054 1391.0212761390744 888.2263881575018 -84.99499393645304 -1573.1988310256381
13674.634778356229 -46.39992404765312 1128.1056419140648 1140.8380123364846 -329.141341733647 -1343.3007290898543
11384.11235314478 -44.96238679670266 875.8269210996733 1311.4058987800736 -528.2321931654454 -1120.3351359763972
9053.744667087438 -47.54118691499301 637.2718527184537 1423.6420132751643 -674.1386593468392 -897.4587051463435
6898.035412458434 60.055537004108565 481.5028973411907 1444.4832773200146 -775.1902852694686 -678.0481454061468
4167.977070597949 -229.5509997800643 37.97350658245041 1398.829629111312 -898.1507016886793 -502.95088318836963
4048.714294074744 2654.7150641486155 1484.5853055900636 1671.861566333889 -1087.0284262492428 -428.201341938329
-3375.462536311173 -16317.138775644773 -4580.132203786573 1338.6570925500591 -1344.1700582486928 -404.25477982482425
-2901.5277086875367 -11011.689398577095 -3005.5231615181574 -2511.5697409826953 691.2748025729558 -329.64117558863677
1190.6846187326935 772.2443590503682 644.8717921287247 -2879.1611209899556 540.9948006720693 -463.9596609395804
1257.416885974874 354.29346247519294 61.24988915789056 -2511.303058044104 426.321468273066 -597.4900487668566
2776.314732695198 -58.81745120525016 82.41546979046733 -2554.09580746307 345.7305672985687 -865.5424810356399
4163.791702460368 -39.37815867924007 235.2921988449246 -2467.351294085195 282.758493680686 -1142.300292657762
5400.399566477139 -50.01583321452374 347.99086874821677 -2277.483620904232 213.98428257419485 -1433.0224384612318
6631.58279172503 -42.211140947661896 483.78261995706004 -1995.1594245596161 121.70158517563141 -1726.3975120141959
7815.059398716251 -65.82654924117617 627.9457799699087 -1584.8682486777475 -1.183540363709259 -2035.8581614289428
8823.67067876611 -101.3789212294695 759.8506249669347 -951.8110960814396 -157.3895127762102 -2400.258720615116
9509.47871509659 299.73410688140837 967.9095894019567 -205.42943985360637 -240.5738459874646 -2897.7848365519594
10139.551999736015 1599.601058628366 1470.3289310436219 -12.647456726856237 -3.383901407757515 -3366.2238472263193
9533.758794732967 300.9486381161323 972.4832188923234 179.29541522622645 233.1378802421346 -2897.5237435490108
8875.66564337384 -98.86839247403687 769.3253483843228 923.1102119701351 147.98250320873302 -2399.6583346444
7901.66061679635 -61.865974860257275 642.8517969172669 1551.7077908439405 -11.383923232107435 -2034.7298969950023
6763.2585070110445 -36.60556084568499 504.65034797309295 1955.349531723676 -138.3061551311561 -1724.4359705579113
5590.883023551365 -43.28912828423858 374.4296521110703 2228.4450986085544 -234.96132743970674 -1429.5448587703593
4429.833202572594 -32.22244310921996 265.7083397833933 2405.866131537299 -307.03755445107686 -1137.2033189529905
3132.919958277638 -52.67494304077885 109.83839388955523 2471.9539386004635 -370.7562177440382 -855.3948788566744
1614.1814997703937 358.98817860099456 44.84810251992138 2391.937422651212 -461.0338768226328 -599.733162334779
1526.6180820946524 1022.8829330309321 711.7020465142693 2720.042193973763 -592.4080892257991 -471.083994607257
-2887.6910209222483 -11424.807196072788 -3070.5314199764684 2374.0021541528345 -758.5416918473991 -315.0540821424432
-2122.79836359898 -6654.161676113387 -1589.5837323781575 -2322.569371974964 311.84086060199746 -116.24601312041607
-371.3832898965253 -154.442126398308 248.10609499295765 -3044.792915433964 176.68106322301657 -402.92171780338157
-859.6410442416036 450.9200318289592 27.67865513863673 -3057.009951028847 27.86865705840407 -617.7732346463166
-677.8849791136909 34.21611027419882 -107.4292660715198 -2918.433995191223 -46.3233236016224 -910.1484332858215
-410.28313521147106 -29.508161769211835 -70.07459333096212 -2798.4555421902382 -68.2679621960733 -1212.4597882126052
-271.4285348384496 -12.003610782924174 -37.08908847412961 -2581.5642507790144 -74.2523592840795 -1520.6686522035457
-141.39435938481486 4.515706394069097 -2.4425198448782 -2266.352552226488 -79.6819197364837 -1835.6988615700516
63.44360717776968 0.9089054775583012 51.84326373397058 -1823.2063824878583 -100.40370505587873 -2163.839910942091
250.05770242519168 -97.11487672509966 63.49135891500164 -1098.1746286413572 -194.37236916735677 -2540.201460268724
256.1277747795405 477.61144865044923 177.12990598613254 -68.03288728713908 -315.972873443267 -3080.293197832486
1154.3195487454766 3387.8175531939137 1204.6908983151507 -14.200190156590184 -8.403538608822632 -3776.290334566182
280.84609460533676 479.0423511778378 182.9639306227279 38.664670640215746 298.28266870931054 -3079.936797313645
302.4603869409994 -94.20188257896694 75.44351417931301 1065.8460522811151 174.10634610326983 -2539.3996263500344
149.22592332797862 5.394231502233483 70.32572390065847 1785.7394881832413 76.1401602006417 -2162.3896854495456
-14.33358751843258 10.579244415804526 22.74091065779111 2221.189431307049 50.618538771151734 -1833.2031851951162
-94.12479969230588 -5.107887927040196 -6.0764084467301815 2525.499123284783 40.836274583770354 -1516.5183813767715
-174.5156904249524 -23.91060264252193 -36.43671771719187 2727.068901085115 33.14896936443665 -1205.5914738613924
-405.1039086721291 30.745942355096872 -87.71622210061527 2825.1112305800057 13.639480709177512 -900.6273660575296
-619.5189570913776 496.72267828899686 26.526749196496002 2939.255110090271 -54.86918270060798 -612.5388208640443
-178.34585944889494 23.829422099886116 280.23515959891415 2975.4412970242042 -199.33934647368184 -414.20796803414004
-2162.723339910681 -6973.631978300029 -1692.4028496592855 2300.3908422210507 -340.0051511663188 -182.199309079082
-1666.8330342834965 -3330.685908422663 -586.9380274735505 -1765.1651122548533 -4.5780079253092065 -91.78776908527644
-1566.142294895194 -443.26507606644594 80.59719282343544 -2560.518609360589 -165.5285586446281 -312.63330801500854
-2887.219580233199 361.4991775615382 -53.916465065920214 -2812.900830957009 -375.52279592402584 -571.1288716647738
-4016.5363347489383 83.52332078639228 -281.74786897148124 -2621.6283217021673 -445.4426914979722 -857.45178777708
-4965.127181149746 8.721609850436685 -361.3286652750636 -2469.6642979822823 -424.128582880405 -1144.9639316571472
-5948.461531160622 26.593822748071027 -423.9798954201016 -2276.0097542286594 -364.04433893415245 -1433.2718660303735
-6926.257357452761 35.6033247601899 -497.39514472169054 -1998.5284269258811 -286.5075796724335 -1729.5067072191396
-7712.7263380387285 102.23865965133449 -519.2270782734607 -1603.759361326451 -194.35275142606372 -2027.000629317972
-8282.226167898287 -67.23451248702754 -607.1740518581453 -1019.3745494858722 -172.9979275572251 -2344.5006860577114
-9174.61105321622 171.24083765638605 -821.5380015626391 262.0395259660586 -353.61843259892123 -2784.0465996237535
-7501.5295783185675 6130.77132775656 1236.276551238721 -12.781627471071179 -13.534503476452524 -3691.81653123951
-9149.335024332973 172.9219434066318 -814.4003225371448 -288.4878513637532 325.42785045087294 -2783.809698712363
-8229.184542723999 -63.85450495588422 -592.6494648411314 990.2244370251958 141.56032970564607 -2343.9529672504395
-7627.449331409544 107.30958522564418 -497.03246453474316 1569.9385093608958 157.96583990753075 -2025.966698900152
-6803.604139587534 42.150004551107 -467.7365057768794 1957.737101289345 244.42802590927818 -1727.651649531136
-5784.724786458056 33.741975011107996 -388.3933607516424 2225.183988182645 317.46369180925115 -1430.0103238544255
-4765.287717488698 12.166345401657455 -325.8673404069716 2404.5598824594526 377.45194891637357 -1139.5152343356706
-3811.9310721474285 84.04310588460052 -259.69538536900717 2538.411949446747 406.9177679309327 -850.063333542391
-2727.1429627968173 405.47479484054105 -47.030937009662196 2732.247798652073 353.9784026266752 -566.1584959567195
-1460.1894603817832 -344.1321091628288 90.78224125368833 2541.4162427737606 156.7420096737178 -326.49418927891264
-1699.6537220437124 -3522.382496224644 -662.551604899836 1777.7840071973746 -4.957221109520077 -153.46813294627654
-1552.2370602221051 -1332.858719492278 10.014715651315313 -977.3222068766825 -282.6405948342821 -134.50725551267573
-2511.8581662031092 -414.3015054084076 47.219005108637745 -1475.2335167567094 -515.4906758194901 -224.43056122233764
-4878.876100783987 207.9789831298214 -187.8102196802421 -1689.893183716873 -822.0712829961741 -448.74218973650824
-7347.408802695335 88.93636438221485 -517.4039085435332 -1571.4399357191005 -887.9165221602029 -677.1164425354234
-9586.60206973903 30.157777228352593 -741.4660489366785 -1462.841507160679 -814.9236599719453 -899.604776486986
-11740.562504230315 32.40984473935677 -933.0142303140385 -1341.135765111877 -678.4890622054315 -1121.2294665205168
-13819.179578826665 50.887224267593815 -1120.1012932436759 -1168.7716144971 -500.4633343803439 -1345.3695600324072
-15818.060114316873 30.020872207528463 -1338.1189035469483 -936.4649061034639 -296.34998407922427 -1572.878996697412
-16957.112241946732 330.14551665857704 -1304.0520847851649 -543.3721977853666 -3.0865431925118703 -1762.7745630439113
-19143.26589417213 -1155.0126168848785 -2401.4139680442645 276.20852907737265 -138.07494523508936 -2014.242031643057
-15845.67841799892 9787.55903833567 1333.002258556098 -8.08681029395765 -19.464651037897656 -2676.89625579106
-19116.83519017782 -1153.079425511157 -2392.854188789998 -292.9377292416239 97.72062434149274 -2014.316852931741
-16902.22424415309 334.00801244200363 -1286.729093847855 524.9541678737328 -41.38003024547786 -1762.885142974206
-15731.447380513318 35.72356918083848 -1311.9127715075701 915.1548450180405 245.6664883018766 -1572.927135665843
-13698.33766238591 58.07918934297945 -1085.6496313542693 1143.1957375728653 442.768570666653 -1345.1495679671766
-11588.309000695353 39.66120628579027 -893.2356523235562 1309.5310501434974 615.6193625410308 -1120.3623464898865
-9419.8465538706 34.44401004092291 -704.039618869989 1422.6649164249056 753.5189568515545 -897.6201881825918
-7202.593900889285 93.84416158447435 -493.6235156949404 1522.7837235900151 841.3051301826632 -674.070399491385
-4789.149312736415 238.63598128540366 -180.3799391354844 1650.6582824705717 804.3028272719247 -447.43917443781436
-2472.558687092889 -368.6055980757503 44.468201270112964 1474.854462209941 518.9361832281651 -234.2645910094867
-1577.8906242037203 -1415.9017503247542 -32.31637959355022 990.2060104719826 289.4408896392061 -174.49830125903333
-1355.8742671803857 -575.5512674475458 420.03996221521675 -481.88459530525853 -565.8415047349613 -162.34002855535545
-3044.419995922166 -372.97298977754315 131.37823948110417 -691.027608128412 -915.383740415004 -187.70435941245725
-6972.2914165300435 -293.87410413790815 -550.297933321034 -776.9131243197866 -1358.2650529832026 -372.66352755401317
-11200.478839692343 -761.669729778709 -1314.281371913013 -746.9993674954363 -1418.0853783591074 -554.6257376390826
-14893.715773351534 -1131.2562627529474 -1880.928602345343 -694.6178186092858 -1278.2392808703369 -727.1625905087598
-18384.970116958993 -1435.0048565931245 -2384.2135277858097 -623.1893014936961 -1043.5440092434383 -897.8844952386816
-21773.705774195707 -1697.5294696050921 -2873.8125225096323 -529.532784718043 -736.7258409004002 -1071.0433019022657
-25060.071645879783 -2088.1087445713906 -3433.5445056021026 -388.1503070074979 -372.41636631876645 -1229.4074068326909
-27989.417381464264 -1946.7941773574762 -3836.17751063437 -189.94439867339366 150.81517322019806 -1416.9360312348244
-30582.036465765686 -4622.946087615394 -5392.570587389965 527.8901441232456 1095.0905329144766 -1272.5065174342349
-24735.823952318147 9777.885786423476 -589.4454303004836 -5.225357696766764 -27.06545056536259 -2624.272941847175
-30552.884208663672 -4619.929396181483 -5381.977431887279 -538.6849772148296 -1151.069461807699 -1272.6592212059531
-27929.585973322173 -1940.8872939716864 -3814.925941127826 178.12541415847167 -212.1261752662937 -1417.1979007304762
-24967.54920330253 -2079.706935331085 -3401.890705306495 374.6491569255213 303.0492402755447 -1229.6794380314343
-21648.774170737546 -1687.7191356520873 -2833.323751266031 513.7577147423192 658.2750701903376 -1071.1460888171218
-18237.290185994894 -1426.9116733937753 -2340.1781331980505 604.7039039580727 958.4209366201536 -897.5520759799166
-14755.177684157205 -1131.025148202639 -1846.0279027414351 673.2228753268822 1195.620735125962 -726.2145609083583
-11126.220168614873 -771.7700511293574 -1306.4285899767176 724.2513268578983 1357.7393746264704 -553.4424243974618
-6987.1307897165825 -297.59402560356057 -572.2392261881697 760.5483080370552 1343.5171548876897 -373.42631842805014
-3093.2263376390542 -369.51717307880006 101.87091521508128 692.0109026672176 937.3311226250961 -194.46087387855917
-1415.6838025643747 -626.0781931870424 384.4229145027218 485.79182476731273 596.7423696960259 -189.01985592106126
-496.0874874568318 -11029.41969778037 -3457.6521555711593 -1714.3053259379626 914.5692317925991 323.5221272399672
6501.862612179143 3126.5540383051084 2277.717069389292 -766.3638990357695 986.8344049390925 -101.40198733108497
7551.523135112075 378.3447021925264 995.5448406509926 -273.8700479102557 925.621837346481 25.334861601145153
10692.263583976575 927.2367300187384 1517.7899642186583 -297.6880388682616 822.4997471760806 -17.328336502376306
14134.992031995702 1089.29019382129 2028.9825136294894 -295.6497893712086 627.7618507848139 -1.7783116501297327
17689.545783976482 1391.2670162398938 2668.0513772714876 -303.20439026861953 375.48215850466573 1.209718378468117
21183.161826200645 1676.0027898329868 3354.8038863779375 -310.2217581928313 58.38106089529298 5.676782508538644
24626.413342340853 1981.790577195022 4136.660149360721 -326.73596592304364 -291.86862623053054 0.44984301077772004
28014.69033501629 2285.0341657246386 5044.033427798062 -343.3102026906575 -564.3918106735231 -36.8392803609899
30947.8726012678 2418.432993267288 5919.269017115009 -276.4312699713213 -515.7005232749392 -141.5105220293941
32139.456917335534 2245.8315442426792 6248.27097298979 0.9305182200427815 4.882253230501108 -251.1331106862752
30954.332927427837 2418.0733947477684 5917.450817590037 278.2777913701999 524.9158788838101 -142.15469786468464
28028.521654767304 2284.32735962234 5039.919047191667 345.0885305972601 571.8777390726209 -38.10485626656751
24649.840801935563 1980.8032252172063 4129.245311053235 328.30473777776433 296.16226461394865 -1.3143880381111082
21220.831361439956 1675.0265746112418 3342.5818649388107 311.3191416335675 -59.53632877203907 3.577913101056758
17750.084394760834 1390.7289579908324 2648.5633178447915 303.26453251561463 -385.5134534498482 -0.11086889342194528
14235.835014747492 1091.017509724752 2000.274367463045 294.4844731667894 -654.3351522351695 -3.634088642606808
10857.892040169154 931.0993068462215 1471.290975155778 291.9830476653879 -868.283050389726 -6.720725671868301
7878.259592187957 403.9916804329671 963.4318445235589 263.28407961179533 -1045.200199325234 -5.002732176821866
7270.51622423364 3224.7003147489736 2285.5911958885276 759.9378294969064 -883.1136638530826 119.61923248315149
1014.953143578433 -10446.822692606733 -2461.023296010816 1012.9453161532281 -746.0663792365858 -596.0230786774752
-1632.1551031783636 -10070.962032272815 -3051.848450449456 -1100.1159921921355 154.02618600088215 -30.315857818724616
3420.6904589898045 1666.737555685175 1203.6185089864152 -955.7409866183161 331.84472664638326 -92.15631935197737
4306.436886188114 -90.2610170758299 387.3312205450138 -752.47900563855 564.5513209951442 6.050573136989948
6916.231181262484 104.6300477575583 767.413705300999 -781.3261334752638 473.4191050441378 -8.149234300729432
9107.338582704191 53.92747928479417 1006.1191593202868 -804.6305699504172 352.7815716134172 1.2809984778803696
11389.577093374382 67.08558574968004 1329.0457280642001 -809.0595404995506 192.25162144891692 1.570360630639864
13636.082478745935 85.13833288643607 1697.956800036472 -816.0225236346159 0.37833594850788765 -7.721432285558664
15831.544385526697 123.35829460610813 2131.069977155811 -837.8037980851152 -205.73061383844666 -44.33480971696393
17930.93616470411 134.89016011885045 2623.1850302385737 -868.612993792218 -365.3171402166167 -150.50739729380817
19610.96598130497 -152.99563050938144 3001.849940011235 -712.6984677864551 -336.6827125825901 -382.1611430788446
20112.9900570894 -813.3494071097565 2965.5991463735495 1.3470054796223518 -1.8809816789618645 -612.8747671104811
19618.275150277546 -152.70730668454905 3002.6742128765395 715.3510861063131 332.0647014518615 -382.29981516473333
17946.34695514896 135.4576303201621 2624.3508396902726 871.0879652170314 358.1002829598435 -150.63124686773818
15856.928990493596 124.2072643418997 2131.5215469890563 839.7876208071142 194.02944034305847 -44.04851504058534
13675.06080430687 86.29503836486957 1695.8236767358133 816.8775306342607 -18.724351857541986 -6.232833059808709
11449.23522142358 68.71081896681963 1321.6029120044707 807.6548283279752 -220.34556277845903 5.898388817591766
9199.689380983871 55.765168324324485 988.3249056555596 799.4423187208831 -394.0248193302145 10.322029930629496
7071.961289422734 112.15618707309788 739.3566932949466 768.2868862639617 -537.4863160817162 12.325469790909779
4574.269556564744 -86.07985431153986 337.1680314407399 719.1651434014709 -645.2112768337918 24.459867853952247
3695.7208366831865 1697.8327356973 1148.9296330369418 876.2702447437263 -353.2419022608168 67.0930747570762
-1395.8881989173321 -10053.874570075508 -2966.4119638748093 653.0075176744227 -105.63865423562737 -628.7399125954671
-1515.9586412288907 -7313.5935675298315 -1998.7077074769606 -1451.9681371590598 -24.423142122884137 -606.3803724347113
1492.8568495597601 560.5813240667799 650.9081223551818 -1659.7978318181395 75.85578842911598 -91.13293003359026
1958.3249587734208 292.57387122309376 309.0059737128981 -1372.6066514919116 227.81025533182043 -27.787232632208823
3325.690123001739 28.18397716258523 360.03404185304964 -1411.5688142689867 193.48879459345156 0.38549697014604156
4554.705212122488 51.29389125059414 512.4890298334648 -1426.8671203281667 122.63007808487463 -0.3011815494808936
5683.145273752884 53.19138102837846 660.9367721547129 -1432.447019486162 41.37679324253897 -9.210913987760248
6797.104214474045 66.21778007158058 842.0441265950321 -1435.878081420691 -52.533808956069095 -40.53590556831223
7856.563137712143 115.86022374877867 1059.5667171077994 -1451.479003811847 -159.1810830984829 -118.9513102026001
8896.765870656267 179.5063551799417 1325.5702159708949 -1501.9197982476144 -276.0276501165744 -303.13590246340215
9805.942609629785 -302.106171563302 1446.587378491407 -1299.054823659382 -306.7664875197857 -686.1285791762679
9738.99962418937 -1869.875843799445 981.6110364631414 1.97580833442114 -7.879991684916874 -1129.0779621669105
9813.782540695454 -301.7024439824714 1449.864041690361 1302.9302319018386 289.9072867334154 -685.8075707409253
8913.031115650225 180.29427528353665 1331.6699768047383 1505.47711520591 255.89616531732588 -302.2132173683387
7882.550959950772 117.00231795375933 1067.4309403407858 1454.1816592023229 133.69662800342653 -116.74439479954955
6835.303483651893 67.73538783961696 849.7739857389449 1436.6209553990614 19.76451320064826 -35.63348482078953
5738.166310775708 54.93478120542589 665.2533891448372 1429.278361868671 -83.12422604447637 0.8330699216167425
4636.054293515182 53.66223066588158 508.89674188235676 1416.6726846329768 -175.10452120320826 19.59029639091708
3454.0573857969393 31.91954282131579 342.9235295680641 1388.3624507209547 -258.6354232601521 33.43554451581717
2108.9020726640542 286.11648687480135 254.18892015220302 1318.3191548259156 -293.73130649223293 38.635913657485574
1641.1733221237373 675.2858206294943 615.4160810638119 1550.089040542276 -89.31867226995334 -28.810085768330605
-1449.4665303663694 -7304.8786292919385 -2040.5604661702494 1326.1834486392333 54.582380802122586 -849.7441208068834
-1258.3332275522248 -4627.936839223829 -1010.1864102995958 -1372.864249040322 -78.85221557807385 -664.8350200741577
57.23341216694076 -95.72204593212251 354.48131906841354 -1823.517243843873 -75.30144996850693 -163.47025736123726
-211.77243593726777 324.8149651813354 182.62598013241717 -1733.8626515539934 -47.110804213127466 -41.24506976780143
-128.29851225472925 36.27946788768104 38.15050030307482 -1637.7734889619646 -65.85756725658024 -10.203127218380658
-34.48876934942564 -9.631322705040155 22.817804306005733 -1637.540674466889 -88.46344734395497 -8.743191245991882
-25.02819748522563 -1.3257269471797546 20.1136921929865 -1641.1786668828338 -100.39496571259079 -25.916477418825764
-40.1622184844508 -9.073302952832337 17.69328711781808 -1645.0300309455652 -108.62109420499296 -67.48713299461477
-111.51603155867855 24.57551169546263 20.327040427784425 -1633.6944560110016 -129.73591407800933 -156.4782917852639
-95.043336060993 185.86336411130904 90.33889144803163 -1685.9671775352297 -219.84273358316827 -347.52128248297834
218.43379643264095 -435.59329672610033 22.721576282397127 -1650.1732078261252 -339.8232302997971 -764.9499668265221
-617.1921058615962 -3712.596455721963 -1164.4605199172386 2.14844152128687 -13.57454779858855 -1449.6511826648418
226.76481844562346 -435.0550030671535 28.490544207013095 1654.3844734675943 311.3519011652803 -764.4956101979451
-78.05266023016216 186.91728793534872 101.46723926421416 1689.821127510047 187.50002500035632 -346.29111811281956
-85.21773425820221 26.11583768898798 35.81347770781624 1636.586992117917 91.30421792832765 -153.68455558504002
-3.473950602022068 -7.07454927689493 35.58193499285186 1645.704482313568 62.58746653186055 -61.56286375479978
24.126606908665423 1.0339763592391655 36.98231364776708 1637.2923345735624 46.45096060240213 -13.87677342675071
32.83756997279442 -6.908984004125922 33.590178595244936 1625.1233162001954 27.908152686315606 14.266537808184939
-41.491541563781524 35.416173615254344 31.381777057264266 1609.9172014917203 2.5836439990460818 31.44542120852981
-127.03584305323558 339.5222652845801 147.93957339161693 1677.9844943349663 -2.2476773263508685 25.998356927905593
135.59118437790733 4.057059934014491 321.8900547184484 1764.9473813277611 71.1739959260573 -122.9111827968367
-1256.6887011550557 -4663.761145349951 -1093.3191470576305 1332.1396981167313 103.21041910881087 -810.3107665521868
-1138.645836679713 -2458.4318978002075 -226.38839852054642 -1039.4503397328654 -133.02038652415274 -575.0035409964917
-1104.39192982306 -343.072641482471 235.2346833539845 -1544.7723342976992 -214.76978977213622 -166.69780103579157
-2290.558605956621 215.75235242778786 30.041283492897257 -1596.912421344817 -303.51865501297925 -42.82614739736747
-3493.8300346162287 17.44712676564566 -269.92824978760433 -1451.7018586640797 -324.35674189406365 -5.247396407230102
-4611.195768589761 -50.93637290496663 -458.5026012530531 -1421.6591628471363 -301.90117821325214 1.8942252846604954
-5747.790095765687 -62.32687459967859 -627.8315873165708 -1429.1143645585246 -244.04613482763347 -9.436826057793345
-6860.123603118961 -64.8112613270283 -795.8902569968441 -1432.528762081227 -168.15262228925417 -44.062493838858906
-8038.125782579236 -111.00346933181257 -1018.7048781909149 -1419.7301552794402 -93.73296396333649 -107.54416878040132
-9122.3771209878 137.40550835544312 -1172.0206930220445 -1395.911916994332 -117.05636509599573 -243.05134044774923
-9223.1963965384 -75.94387972102592 -1238.8025492964846 -1764.8076310039714 -361.6719655604477 -559.104853780025
-11362.524175855538 -6433.365832187782 -3742.212036979867 2.0230519672996454 -19.390749813733905 -1516.2065028695217
-9214.356186205516 -75.28120970551382 -1230.5097342513718 1768.78977147875 321.3256674798779 -558.8517846256218
-9104.625690088422 138.7132210244372 -1155.785883877387 1399.6134481665042 72.17886837073608 -242.26500487741464
-8011.47373311783 -109.08171694053712 -995.4573809905921 1422.6414156696108 41.932823530533575 -105.54075081797033
-6824.934871013948 -62.32335063222939 -767.607623739902 1433.552366162285 108.28402966986442 -39.45806311266624
-5704.597451849975 -59.27840625349873 -598.1011175050605 1426.0776263293944 177.266306018844 0.40546161338978637
-4560.9598523466175 -48.402344803097776 -433.8897342530859 1410.658233747251 232.862693225635 21.797244790563173
-3442.5256637196685 19.3561233115015 -261.4391651104236 1426.337043117856 262.8168131290344 31.970694445270198
-2250.107388265136 235.28515194520006 14.91641024198336 1557.6838319172616 266.85761875365444 11.68813656534378
-1070.7622841231685 -281.32817917277333 206.4168472499391 1519.6176294974423 216.1191028175938 -138.79159039388927
-1155.7079793485834 -2497.802687722712 -306.27757758246787 1030.0577557495565 153.09487844902114 -671.4801052482953
-1218.5394229249816 -1090.1417803754023 296.6617728419831 -543.5810954997664 -238.38692360323222 -373.25469492195765
-2083.0638225346147 -354.4762742083912 227.01546257172683 -863.6544969327801 -397.37413156732464 -113.4500120757832
-4324.208096101771 92.65029407102581 -135.93999028012135 -921.2241224130391 -586.8130413476736 -39.104589869540796
-6821.7270658507405 9.500740781628712 -591.2254580522637 -825.9211650027692 -609.0056220696126 -6.185053237826706
-9182.243292233405 -51.05003079649796 -960.5635305978366 -798.9459603531557 -537.3717242011713 2.858086301258473
-11465.87601963057 -71.64998374235309 -1301.1416536168797 -805.3292118285699 -402.16956826959364 1.6078691687675808
-13711.986537865365 -88.49348432405995 -1657.712235993152 -812.8109216894259 -227.13850011485263 -10.119065739195985
-15804.80972285217 -51.58725406133231 -2005.1590545138388 -797.7215879717223 -48.82259371407226 -40.97045975315857
-18261.191071459994 -296.2252520053968 -2637.420765971789 -822.8975325381743 109.34981529063937 -64.25984012639087
-18565.39313824524 1327.6660700572252 -2268.7470182907523 -1114.6327968469577 -228.23298633612507 -208.95248594025077
-23024.608442731565 -9917.28202145992 -7053.179434630412 1.4030229033562645 -25.75669078397251 -1116.119803061364
-18555.972087096812 1328.4234579325282 -2257.9084902583386 1117.4138306119723 174.84910331829184 -209.19882635659374
-18242.499275225375 -294.72361099235155 -2616.029642707847 825.5501473672475 -168.12102701715017 -64.59961948492746
-15777.432110853952 -49.37762545397029 -1974.0640256203922 799.9659352012305 -18.062175076131147 -41.01874484317851
-13677.504030892214 -85.62640939693641 -1618.8884771167411 814.0046215242605 151.15774023312494 -9.079354516437654
-11427.78339645714 -68.36720349145719 -1258.6513351137135 804.1676606919007 319.4819029576945 5.338215525822225
-9147.45698437323 -48.03915227963816 -921.9393595971871 792.8527166850471 456.05523196608897 12.475411573231185
-6800.287927555978 13.88304724176788 -567.2912606089893 811.5833110705667 544.7239109405457 14.083202049386745
-4319.785495355865 108.82641700694569 -134.82553820377845 901.9105899312015 559.0086890894415 -9.347121763758246
-2083.7640792422935 -325.1073899986367 204.78429923119393 855.1196112582656 406.1961441132721 -98.89341506770182
-1242.6023641430488 -1114.8878861072465 234.69878273958037 541.6120140364962 261.13172762389786 -428.4681175043046
-1308.0799462619063 -597.7566542594648 628.5991441241126 -208.20116071271272 -455.7536731655226 -241.9045294239258
-2870.5326784315102 -421.15729372054653 259.47368668156156 -337.9746487226698 -684.4797729692048 -78.8705393360972
-6528.184351898499 -404.47025779953043 -503.16902367800844 -331.91783330511095 -952.5719488185816 -42.447096913431764
-10558.158382575722 -776.3878746199873 -1330.4363904321897 -300.96560824337894 -960.4350420260248 -17.583902161911737
-14243.828357678256 -1107.3866330530204 -2010.0902042302152 -294.2624919862412 -825.7684039446435 -8.749115700358637
-17778.53285556059 -1392.475814775854 -2648.268864869819 -301.11177747490933 -594.5129346598554 -2.837214843762432
-21276.32628865033 -1698.618000621229 -3327.3161204477155 -304.9474586689093 -299.1039234963817 1.6144990108464103
-24567.39600959119 -1855.2160838031887 -3979.379689354445 -318.7732884114892 27.614594106438574 0.8124888439584872
-27516.615275619726 -2481.1930002762188 -4801.014046401189 -328.1811209731682 363.9774122440397 5.93956199237907
-29438.883850691273 -120.20940598391616 -4756.42691370287 -795.5355215674149 542.9968042333077 128.64973263943088
-38034.11648447907 -15576.796982059535 -12650.372971529512 0.67351637641449 -33.13823406975496 -1186.7768898993845
-29428.54311733787 -118.77400215861803 -4742.787691796349 796.8842791031719 -611.5600807314254 128.18765312979514
-27496.23045340998 -2478.3412642755557 -4773.960795525816 329.51400382838847 -439.1314683529935 5.094784793746989
-24537.93357235468 -1851.0151877423402 -3939.692869592955 319.9967364599423 -112.70480640762216 -0.21449154069716414
-21240.241075642367 -1693.2636894343414 -3277.0461844625756 305.81479022515316 202.8666970923255 0.8175918181704986
-17741.63778494198 -1386.6927286497203 -2592.1148920481915 301.09955388601384 490.174920741509 -2.5618747550500203
-14218.630032527863 -1102.8586155352261 -1957.4421920243376 292.2641730556512 724.2210438035106 -5.701928709412277
-10562.908886482033 -773.8523964315265 -1295.4234857533736 295.5016898494893 884.0090880463877 -9.176655100123531
-6566.066355546028 -398.3751609482872 -496.35740396756216 323.9423835753916 929.8215878879206 -29.64005061256101
-2910.302293042293 -411.70275599337714 240.50423258119892 333.9759005529579 713.2411085426384 -73.18590500446464
-1349.9076918552528 -616.2869275783016 581.4962625765882 204.93813818269967 503.09060719828915 -275.30882269037414
2284.1575731760217 -8375.117023111567 -1827.2878349806622 -107.72511529056423 395.1612532547606 34.28999387008994
7267.166569989418 2983.447583510451 2504.4930454090845 -741.2191103159633 538.7510902616038 -41.11272431156675
7529.114644587095 368.29256973334344 1279.2302691015418 -293.28337695869186 507.0427408563165 39.71304657579823
10477.959489601804 799.2338229748814 1810.5277979016087 -335.13270005304884 423.84927031714926 45.8247267296945
13793.654769258314 957.3309743480168 2480.1983362540695 -351.17871477261815 272.5492726966047 63.23700876999141
17195.378039179854 1224.1539044209762 3319.3101800265185 -368.73558751802136 83.06564926731417 81.24606592351766
20631.094290003904 1491.060659861845 4297.595605528858 -392.41819245623145 -131.09757094507538 98.11555548117644
24297.97256624807 1818.4799960883752 5504.588427720126 -437.4906343519708 -335.6906284524693 105.70433829707011
28448.617871237362 2184.484997671567 7003.748505938793 -491.1646525176737 -450.05119101807134 89.04852113013813
32540.27682619035 2304.105992524754 8485.276169027324 -412.59974805610784 -349.3184506069929 38.56596481479776
34302.38535050223 1992.4757566528713 9046.60346988889 0.9546197438353161 0.4511861271153942 -4.234888182269138
32530.250680781908 2302.983520269421 8480.634827056942 414.56727062961625 349.7018929195848 38.01842500579571
28426.811660868698 2182.1182776160954 6992.96723296338 493.3125441348647 448.82062688941454 87.95998241561318
24260.559091217918 1814.6038099038722 5484.37349891406 439.97002237100855 331.4994646435098 104.13003857966386
20571.343704710358 1485.1484009445694 4262.1888910698935 395.39483969486565 121.84634419728927 96.218428401064
17102.835522665933 1215.676776350256 3259.994972673699 372.5461630699794 -101.16529795009858 79.60788482375428
13650.847590455736 944.6953013998714 2383.039037998327 355.61949658972003 -306.7166877507231 62.28036444109135
10262.391858640192 782.2372949038262 1660.0234815247027 343.27013598255496 -482.29692239615497 49.7696800203742
7136.112949933733 323.7950262685238 1013.3686593176014 304.89928069412156 -597.2342068486163 36.483605914515344
6276.5492812838365 2786.842535889739 1993.0417620226713 724.350125195633 -543.6493408334896 29.365070541150622
605.0244038026668 -8842.767393442813 -3108.5602670381104 930.3490697370809 -480.5630875955538 -287.011093844323
-1104.5807244055943 -8563.6205148336 -2984.5761248546246 -183.75394743829577 209.21408079153025 -102.41090164297641
3591.9926408736665 1558.6068769522724 1283.5261717157875 -841.2057366742067 253.6188837892254 -86.15341346595824
4512.365484311737 -112.22362590803992 639.5448307151461 -758.5442535340187 317.47904355208817 9.531107860850648
6885.183976622686 21.324481604130742 1047.989767496331 -836.0279106782236 265.43260362496954 24.083805242514053
8969.448514414556 -52.02429996051279 1384.974933549007 -883.7339469956468 168.1402441839959 35.18438846288272
11152.620407202601 -67.30374688226286 1857.3056758370324 -915.1770533745962 44.952590295528665 40.66503711689725
13360.985490361169 -75.64257956664333 2430.1601029658664 -966.5330809848832 -89.52562849876281 35.44916645403004
15695.518628487396 -43.99907794907727 3147.2546777210987 -1072.8327029257248 -213.68703178162738 6.379277709506058
18236.053279931315 -59.07115213371399 3998.382823273309 -1227.841368837426 -281.2560068015588 -67.58895135649875
20511.31784345716 -584.2650549020514 4667.978074685904 -1076.0350958839574 -219.35165888408915 -191.33466067443806
21214.01774306585 -1647.5562612042786 4652.220453577671 1.8514937966574836 -4.050946366434851 -279.6599763826873
20501.061900696444 -584.6710111032979 4668.123308693762 1079.9075959648658 210.48294448112395 -191.46466909753815
18214.04585461003 -59.900423509595626 3997.490102432997 1232.2512926287368 270.05594434140505 -67.71385569057365
15658.576243130057 -45.292248174862365 3142.6622046364723 1078.2458333942811 198.44163259853138 6.609136859803976
13303.842512759193 -77.44290349943535 2417.185116480569 973.5908639297518 68.0918774627925 36.77596179277556
11066.929270397228 -69.6200641976147 1828.2401209305192 924.7905016178164 -75.83967331657782 44.52946711567253
8843.469889062118 -54.309934341744736 1328.7859640770025 896.9361426733151 -213.3602879849668 43.8839640610652
6690.843895937893 13.715216823691046 941.9549852484798 856.5261344551013 -332.2291927933715 41.54010526657538
4196.57095536561 -120.61216934432134 457.6131091342824 798.1170701123879 -394.8702614146101 36.71563768753325
3259.6820178920857 1500.2631049682823 997.2310487995398 914.455796623438 -283.8860646580572 -10.645556515234698
-1332.7298624406828 -8446.175493190605 -3415.942976379741 691.0253788130287 -185.64163902798308 -371.25882701417436
-1248.9539057231843 -6142.626144856067 -2066.0335179197077 -1190.9345924327222 73.40011465939543 -353.07545873393724
1632.0093516765985 777.8442589290256 734.7701959545976 -1464.1809497571062 92.34118990615968 -130.2187760710976
2108.3146548062205 188.79254003336285 425.8046953845421 -1364.8664904377904 129.19257165040148 -33.185552952908715
3430.740252595353 -38.26452935245846 530.5971564773062 -1474.7970884289225 106.65290376501301 -0.4751441385237809
4567.762346354201 -35.16515855876025 717.1659827474491 -1531.973230409508 51.88602711449271 4.047073412003414
5631.689398657749 -53.96141064018483 936.858727487604 -1586.3047219883942 -13.033139875627555 -5.922745240043919
6700.053335127546 -62.65352760898872 1218.6333536673656 -1667.8959562737157 -80.34656040568001 -38.604924943545754
7786.293529890342 0.17273865351072804 1581.6299835001118 -1826.6954337768036 -143.0306215589248 -111.43496017434985
9035.799231450725 87.05815645762249 2050.9891507122643 -2102.5654981851035 -185.95812039340692 -250.51525996744178
10289.706977412307 -725.2592196708513 2298.986336776775 -1950.955686652522 -159.68955686804705 -459.298543111534
10188.50898574714 -3119.927190561242 1652.2177333707227 2.9874863317062403 -8.47103989331912 -610.2108207225152
10279.052224508727 -725.7990245789592 2303.5497038183125 1957.2130237436602 141.7824845576954 -459.0235410378314
9013.253194552859 85.97718768054588 2059.196027835558 2109.7206911149133 165.17127452957507 -249.6836909051515
7749.35394371268 -1.4474045899716286 1591.3558852501537 1835.5334578234465 117.4809657425985 -109.35579271793402
6644.761395696029 -64.82530369389944 1225.910145139858 1679.5345816602921 48.118733919688154 -33.88067397085366
5552.366957005916 -56.362155796357236 935.0596537505365 1602.353881757679 -28.017305439721692 3.9614690163493123
4455.532664440231 -37.7391935399175 695.1575260329013 1554.7572707034394 -104.61990037225634 23.375776910006284
3268.0528852289763 -41.48766367817498 469.9773848788808 1509.6083659374792 -172.9678997366289 33.02551470836135
1929.951390078919 193.93883147841873 320.5336386283913 1427.6969268330608 -195.473357182276 26.87917084985986
1450.17298635886 632.085029785299 495.9496108858472 1573.68044341021 -111.19791294826217 -78.76670344940646
-1313.0276008965182 -6052.084904649388 -2358.821187995079 1303.041856287669 -50.10147480345 -546.1213044182117
-1120.981147151963 -3899.8796361360146 -1037.375716647203 -1283.1118853258301 -8.739490928135718 -452.7198724988015
174.87609936514784 177.78140921185712 418.24319990112974 -1716.367478707331 -28.091371599838972 -152.9492928080206
-57.54504673369665 292.28638222366817 223.13746849227041 -1702.7966149911633 -40.21484545459412 -45.79177814387595
63.80432362910308 10.974277289431937 73.52810001013695 -1696.5000707294098 -51.61170331769713 -8.877345037162875
135.28778410744513 -13.44909491412755 43.570820991341165 -1746.7992163558147 -67.68581228860629 -2.7423900783235977
108.26737769477438 -3.6736026447047685 32.713240987035086 -1808.5482757377283 -79.5722919810754 -17.4378124695237
39.20795895177401 -13.010706456565712 29.01957571458912 -1902.4293126177533 -85.95233191360516 -58.475143231569454
-117.71389781471945 60.39968430860578 41.619607512615474 -2037.9048553089453 -94.26233532321103 -142.55032870314972
-95.65461307190627 333.479636839522 183.91413614441961 -2336.0919246158915 -118.12356096218271 -295.8246884048788
411.7988678569014 -675.7524474980946 130.76713404261255 -2439.860340404997 -125.4405711862312 -533.7721552343606
-731.0226533940493 -5469.546062190686 -1511.7472185985973 3.3855748322778974 -12.878444464505755 -728.2514574098604
400.7960435655752 -676.4589451562996 139.7627051125513 2446.9522657594202 98.53937507527041 -533.3740211919629
-118.624104092534 332.07896455555976 201.2483895728667 2344.2028289049586 87.86269321305878 -294.6998339646514
-154.4685501824485 58.33161999202552 65.67858388441984 2047.9217405359311 58.66346146763398 -139.89700893616825
-13.828639232463143 -15.665468753055581 56.59371119954158 1915.624673752799 43.48242502497366 -52.70380044365452
35.93510661813595 -6.5581703745557975 57.97267546378648 1826.8718849942964 29.336625370563777 -5.594700401144457
38.71183631200511 -15.994792710257007 56.0544030660155 1773.3711632429656 9.610205498967476 19.946952755935655
-52.58703578601319 13.819876611765812 61.08813542381807 1736.9510096671927 -11.596337244569263 31.988749244447806
-164.56799940121942 273.3998132751651 162.62008676792593 1766.6949601103845 -12.101999006788372 18.118499222845976
76.32389067353081 63.27940977078203 247.8968977353348 1769.681143736049 17.063274601642735 -115.48337488070857
-1129.4417815450988 -3801.187875734459 -1243.237855574093 1305.6237884969385 27.10329597638898 -578.2581844542711
-1061.6958415646416 -2067.4632733717767 -142.2590068091724 -1023.740224847516 -77.89018919938498 -425.4280518320262
-1014.3732823358366 -128.6610339703332 282.34169741347904 -1503.5915440940084 -139.0571507897558 -130.6104730830547
-2120.283101460866 243.28568433690094 3.6260104345802118 -1586.1193984798717 -203.76201774517435 -39.03441573305821
-3220.4400474199724 52.60418865943982 -363.35282803581816 -1509.0675507324654 -208.59757027262376 -4.447537733168318
-4292.122085657542 24.87275445809348 -625.5527941866854 -1528.2528473075688 -187.99068349879738 4.23291150663201
-5431.296924749855 40.65699691742024 -879.2684727334947 -1586.3193090858601 -146.96203746406619 -6.008348261116844
-6591.92583574934 65.60552347543153 -1143.397777850842 -1665.069663076597 -92.69323443558731 -39.06841032521594
-7940.425023832376 50.54648430236585 -1495.3804528302605 -1767.8349064834367 -43.17792452871182 -106.892360451077
-9252.996052531378 477.4207878298707 -1726.280857532877 -1910.0540466426512 -37.7320137841104 -229.98010902715194
-9285.175994172212 57.449795848244946 -1808.260368831154 -2534.2321839170236 -79.04839184129527 -448.19477103299266
-12176.40827322999 -8866.510580361915 -5164.161947529902 2.9976378116873796 -17.372490578584607 -672.7460962565174
-9296.598267117774 56.57284376295715 -1794.769118136483 2540.5103320878634 42.96827892802426 -447.95520450130334
-9276.54912501943 475.68705795673844 -1699.6855877196745 1917.2292502987139 -2.224119964683581 -229.22124390301028
-7977.275547239947 48.01446689574496 -1456.7619907426426 1776.682160072864 -2.7547970053014224 -104.93258176060132
-6643.107685645964 62.44051620968958 -1095.1731011079546 1676.701699522757 39.58647953703862 -34.5399061880691
-5497.158087141777 37.19105049556144 -826.4201711408197 1602.5556771006302 87.06575123191911 3.6447061169153576
-4370.351648190917 23.080776219532638 -576.6520603978071 1552.1826528465951 124.15527313372324 23.55925951913288
-3299.056564357416 52.93351606924979 -331.8941596982523 1545.606804173415 148.32803011659294 31.349354621998955
-2180.674511596903 221.4885537970171 -10.918362794713284 1630.4426856663088 163.00911427184752 12.874615948869316
-1061.703054219034 -195.19866255927752 178.12634835536937 1523.2362672737302 133.48931908143265 -102.91008291260587
-1060.6122770537381 -1998.8604783330127 -297.2900772432291 1017.1616252115217 92.81796446971087 -506.5614945569614
-1177.9515437463142 -920.2064712000056 467.64041174262644 -553.1521525502798 -165.17166590889875 -257.29619997010604
-2028.0386137742726 -233.6013155457504 252.03951590761247 -860.3313730835886 -266.0662746031556 -56.81906129209047
-4139.234580539547 136.0880915566527 -225.51185223517558 -935.4563816740349 -374.93789851218065 -7.642831628005107
-6467.899656775925 64.9654118442284 -803.8007928275979 -877.3432751777364 -366.51155575623244 20.206596446550055
-8717.424519964448 45.99446098385728 -1305.5481033235285 -879.6675528194014 -305.8671248171604 34.73488493159123
-10965.579735225374 61.943303221042726 -1805.0746947001935 -914.9729487506278 -207.54236218776288 40.45892528282817
-13259.035605469211 78.67561240749498 -2357.7564312938816 -964.1805508200872 -86.14397288475921 35.15003609139232
-15502.26367178428 171.2851212638158 -2934.720143038737 -1006.3431595368588 29.425085579018265 11.109293431393036
-18509.036157368755 -95.64332653026136 -3912.8754893218857 -1118.8138942298503 90.55842060166995 -40.24940361012889
-18925.802993925925 2042.8760442058647 -3448.3325000708546 -1519.8821879223078 24.84514411771378 -178.35784246712353
-24957.982773532734 -13237.256605587785 -9641.773370223209 1.8729817522633372 -22.05160354826449 -432.5833500866163
-18937.83820705858 2041.8558488131139 -3430.2356434242247 1523.7996540436718 -70.51626995895329 -178.56334396854248
-18533.596988119858 -97.6588591658454 -3876.7778456430924 1123.2728025211554 -140.75882691254483 -40.525877408337664
-15539.944952387888 168.36268211115723 -2881.120661317824 1011.8021721735113 -86.51269294593969 11.102341289099108
-13309.64255400953 75.0571460761524 -2288.230269692645 971.2947623984186 21.100649380570946 36.12139471390737
-11026.301538087102 58.31464994834116 -1723.289199190798 924.802431087898 135.90985007573317 43.81995600324881
-8779.435348493931 43.93818910053092 -1218.708150048582 894.2088958876877 233.28071534520882 43.27574393171707
-6515.08818206648 63.032023339314506 -726.698708044012 898.6037325857527 305.26365573945606 38.17173924247946
-4161.238187715521 120.53775432633651 -189.10712018887915 957.1293415812752 342.68798439269597 18.873107929358817
-2037.4462129510816 -263.973462296606 208.45880474133722 865.1016302048623 267.959267059505 -42.785971911815366
-1175.5634475938537 -888.8724728582386 351.2537941569968 543.3583846325201 182.99763628448176 -302.6492846197325
-1316.019957795417 -534.748146231031 772.6158686438412 -215.6231117630677 -318.2500728062525 -132.06031457146761
-2844.6719089497215 -356.079648021808 255.9958766759242 -344.43200892730954 -438.5426987677957 -6.021114808193943
-6303.145423287781 -354.65297952486503 -616.2969233601947 -356.94942493940675 -560.4592437794205 16.028912897500945
-10072.352744020951 -695.6488865464141 -1581.1591291839216 -343.7532792147521 -523.4851099025052 39.32601053509251
-13572.902703991069 -978.4002054964676 -2423.825679048147 -348.5687561380457 -413.61471640714063 59.22279498539841
-17024.327107320885 -1224.958012305863 -3276.971501346322 -367.08145218536595 -248.8975252415495 78.78661581693802
-20554.711688806736 -1513.3778114868396 -4243.734883523837 -385.5040073850937 -48.56495006018245 96.29660993211692
-24000.548661806737 -1612.749221130291 -5234.198784706533 -426.44198510194053 149.27526746235486 109.25630206919678
-27418.851664435904 -2384.6727723727195 -6542.837039355596 -451.1013356289153 277.5798938087716 103.2871232049742
-30380.769261187867 668.0243591990164 -6703.86338275264 -993.5152067665309 265.0972418443148 63.90568926516168
-42101.18986440809 -20021.550277835257 -16511.461607786376 0.9741035881299993 -26.983352093827985 -303.0676964432201
-30393.38832515321 667.7049047665024 -6680.678459337218 995.5639053572525 -320.93471125510797 63.45988938688866
-27444.374503055777 -2385.1869446610417 -6496.194390989509 453.4630599829248 -338.83264701293416 102.43032655432886
-24039.06203667922 -1613.1571145664432 -5163.860359579943 429.37247037464414 -218.7926229077479 108.08939105934448
-20604.929815931526 -1513.0627737163932 -4150.149517628577 389.3402852415669 -30.539737867982055 95.05871503918354
-17080.667799363553 -1222.4240345235678 -3162.0941937510934 372.3011056940719 161.91716740592054 78.03229864470136
-13619.890079376391 -970.7195967523483 -2292.3058385315753 355.98680375437254 326.360473315723 60.20875028402419
-10084.298838565372 -681.642606708898 -1445.4088808514314 354.06578522933654 453.36859116360955 44.211312806085616
-6271.227137252897 -343.3308392038875 -510.0298890349461 367.6889989079983 532.9759790491089 24.527160311376875
-2804.5661551991966 -351.77262673849145 279.8580186400056 348.4541027123606 458.0396819091231 -1.9822589638657924
-1290.8348000457463 -506.0842446699995 701.6462892019603 212.64046407015735 357.87250997262464 -159.22113953632635
2883.91324005674 -7808.877705757746 -1477.4893397103015 245.20774810847055 -3.6782612511387924e-09 -1.8302284132687419e-09
7461.06193943497 2917.901789168042 2620.5278745143246 -727.2482568821056 -1.847765052076511e-09 4.2525094556822296e-11
7559.127754149558 386.74830488219806 1458.3195477064787 -282.7011103830318 -6.99765134726249e-10 -1.7863888146507634e-10
10412.183300552928 793.5982321675065 2026.4475057843247 -336.16811127429116 8.574052579035651e-11 1.6112622347463912e-10
13689.419923094538 962.0644803664219 2769.7222425273 -359.4474792298485 3.1297364699867103e-10 3.838094286834348e-10
17088.448678588054 1241.9206685657575 3726.090209470239 -386.3970256892948 -1.654277825835493e-10 -2.746212146575999e-10
20578.81898345727 1530.912120604752 4867.3805570633795 -420.84046057123567 -7.474301177978759e-10 1.4801404546460617e-10
24408.10373678296 1895.0115191447414 6285.079667965904 -476.9143337678678 -4.678151199755121e-10 8.934382123015894e-10
28853.977792758407 2313.5860634529563 8022.607909474777 -536.2774025865887 4.102100881198112e-10 5.377369660664044e-10
33289.43869231561 2485.3724975668115 9704.264126205384 -448.05735443508905 9.080691754093095e-10 1.8027090931127532e-10
35205.5391171109 2182.0616871455254 10331.550074588238 1.1824617155297261 1.0861578303433816e-09 -2.0108803511220685e-11
33272.44907340419 2483.957371666669 9698.466661261691 450.5315097392008 1.909874924876931e-09 -4.126494701495176e-10
28817.20493730163 2310.6049376506594 8008.98281875334 539.1009343686837 3.809042414815167e-09 6.252269812989653e-10
24345.20269262817 1890.0973578026496 6259.12106609553 480.4054676217224 4.269236519860442e-09 -3.012967653148735e-11
20478.047196743293 1523.1932169307706 4821.164532727775 425.4152937780549 3.6400840397465828e-09 8.483613811449686e-11
16930.367372257013 1230.4402574355454 3647.6153866632376 392.69825006155537 1.1948579903275913e-09 -1.305648922311775e-10
13442.563078910081 943.7912392656384 2641.0977361454975 367.88588516582973 -2.0895050134583926e-09 1.5078249759881146e-10
10033.00178974852 769.8364855812241 1827.0837028842213 349.78017698665354 -3.2080582634819166e-09 9.971978798262171e-11
6937.951792314682 327.8425967800072 1126.8587532094743 307.9361758812785 -4.132834963144205e-09 2.4820190347440985e-10
6029.097661887481 2672.1089165663207 1901.5838023527529 693.974380326915 -3.677309345917479e-09 5.511147094239277e-13
511.8190746396624 -8543.73340651263 -3132.748351586103 883.4001145385987 -3.326814379533971e-09 -1.666347060336193e-09
-949.3437994852603 -8280.163825338854 -2786.68308426069 19.251927444224133 -1.1183424186711477e-09 -1.1086092044365614e-09
3634.626273177631 1492.1292154098403 1284.943963862404 -798.9472626917802 -1.0367037228675713e-09 -4.5570835993657965e-10
4596.491695235113 -96.23462979809561 766.119684930535 -739.8363395145996 -7.757753328618833e-10 -4.332134651008346e-10
6869.887511609084 24.255176363997315 1185.9040540808544 -839.3692793512902 -3.716784657825656e-10 -2.9386715283408193e-11
8923.90208308019 -43.63537919388631 1566.6282247821916 -901.9003236305624 -1.370302760150821e-10 1.3953860289461772e-10
11103.11328987602 -51.25006179113444 2108.6175431690494 -951.8408243521706 -2.2765339613428637e-10 -7.176836902544892e-11
13345.79923714581 -49.85898949340636 2779.62882681863 -1027.0207825703567 -4.650172469311542e-10 -3.3910607655229796e-10
15776.475167054607 -5.686039367706927 3619.4148498647264 -1161.0036400796869 -3.5490244076896715e-10 4.0118486310802837e-10
18482.338380181674 -7.782213454916393 4602.445809285423 -1334.152336584963 -2.240657659413614e-10 -5.67756508473849e-10
20942.080267500227 -525.600013739705 5373.515146396564 -1163.3371929533148 2.78411460552519e-10 -5.926250601362426e-10
21712.291380710576 -1620.228545538541 5371.265085529305 2.288843768777343 8.737028878158526e-10 -4.570375189416609e-10
20924.42502318033 -526.2435174780778 5373.541944728798 1168.204531999891 9.450438209768208e-10 -1.085514345078309e-09
18444.639949377204 -9.070734611083363 4600.958867711315 1339.9603618125752 1.9323531663673066e-09 -4.3326986443048554e-10
15713.472594440855 -7.651705659333466 3612.942135158397 1168.634721487271 2.65761085360694e-09 5.4209969846397144e-11
13248.241792624436 -52.583118771840304 2762.0294073142254 1037.770627987967 1.8399158030479867e-09 3.12159187387806e-11
10955.786553325152 -54.754153273808164 2070.048169576446 967.5021254443312 8.059113931757622e-10 1.6435932614911053e-09
8703.40296763689 -47.509839517017596 1492.877620697793 924.8471141195794 -7.872700269473398e-10 6.809133257235089e-10
6535.912094118866 15.897222902041678 1052.550009756278 874.6539588207326 -1.8860739636750168e-09 7.152185510506115e-10
4095.488758310721 -103.85909502156544 542.1632894499113 808.0723594594912 -2.389832221005861e-09 3.6305580763951184e-10
3136.1081020228207 1432.053897118244 920.7729991028846 887.2498886304668 -1.7995225587430497e-09 -1.4739187648160623e-10
-1332.927736956515 -8162.6379672739895 -3422.5979944953806 654.6305784280858 -1.1320226978028813e-09 -2.4559732025863923e-09
-1222.4360474169587 -6061.559076767341 -2014.1914823873274 -1099.8524999331546 -4.0518899346864146e-10 -1.4234613487928982e-10
1676.87319002227 804.419983217379 754.2559357770384 -1382.0993332036155 -4.5986148222709744e-10 -7.452651828998569e-10
2181.0784109347933 191.38122203935134 495.34709895228775 -1340.6395224719192 -7.361086185042609e-10 -6.887266312816109e-10
3467.388864922319 -22.362016010673628 618.6395954180665 -1480.9641232447102 -6.150081000022567e-10 -5.777343048407602e-10
4578.867274374125 -15.743830481270805 820.300224052718 -1564.3589945941892 -5.483870302303018e-10 1.4978773776874732e-10
5640.815743247372 -25.39597918819014 1074.5107887110648 -1647.447831306018 -6.300726607122442e-10 1.6924683876595736e-10
6725.824351609495 -23.462842684303745 1406.4113437624953 -1767.4108829394377 -4.2301201430561264e-10 -6.950338082845064e-10
7857.62803039798 54.60520313017219 1832.5466837206973 -1971.677503388111 -7.097231691233219e-10 -4.866462788299941e-10
9187.148404954007 159.73255650517243 2370.1141583839144 -2278.618066016623 -8.207418078498563e-10 -1.403733129734519e-09
10548.713697995765 -634.9242337583875 2667.713706846046 -2100.414880758151 6.502098859328953e-11 -1.1171898961492843e-09
10464.102283299775 -3099.0220470075888 1979.645669359594 3.5763992712962795 1.564803842057927e-10 -1.206871935721665e-09
10530.321979857668 -635.7719178656919 2673.1034699618713 2108.043716065068 5.7602034253534384e-11 -1.5829049182514154e-09
9148.427983203836 158.03893207281968 2379.7353549804866 2287.797777512706 6.514152550707308e-10 -9.590448435403687e-10
7794.504510483166 52.04388916388263 1843.715857319073 1983.8880550057977 1.0871946398705035e-09 3.739821785586628e-10
6631.490581400389 -26.962856467222814 1414.1467680995352 1784.8709479136335 9.325083899502928e-10 5.08590947134735e-10
5504.4905131337355 -29.618018335401004 1070.4835356448093 1673.4446752295596 6.649159625671253e-10 2.7839099914217513e-09
4384.217636197553 -19.811751698897538 791.4222775635666 1603.3167716329147 -3.363792577815161e-11 1.6975827410448119e-09
3190.148986872921 -26.870569360109652 544.5031494342946 1542.1274363359405 -7.157392456491607e-10 1.1913381392503197e-09
1887.4691528789492 201.824659229809 375.051782382312 1443.549271912295 -1.1606869632085903e-09 6.596228008248772e-10
1390.6994425958221 594.9601511937732 444.1373557230929 1534.3918954184617 -5.786856688283493e-10 -5.723217455511076e-10
-1309.3436223119206 -5859.358279511206 -2397.453561541678 1247.05365380081 -3.4595304398976623e-10 -3.6791369950606168e-09
-1104.704502560415 -3854.8215214795487 -1017.9777104645907 -1230.519416583952 -7.09505371121466e-11 5.686828785655962e-11
216.01796643798042 207.0696614938435 425.6160845209463 -1652.5482277185176 -2.4792540243012695e-10 -6.097056193254957e-10
13.56276486564247 295.8500862389194 251.1225071656659 -1672.4447894903135 -7.566764437250129e-10 -8.005791585219413e-10
123.11348028074521 6.940281426626449 95.36413533510985 -1703.9664590545576 -8.24402102139743e-10 -4.390630081729796e-10
183.4561027759164 -15.673453291791475 54.128355230154256 -1784.6926182771238 -8.545170127050028e-10 7.065548146556466e-11
150.71160843492248 -4.90355941412477 38.31344781682098 -1879.1980499935494 -9.760480201848054e-10 2.521498565499769e-10
76.46215227510484 -11.729395614846878 35.43381588427393 -2015.4698707425564 -7.959526093781477e-10 -4.047988610977882e-10
-87.65569976904517 67.64250578819336 51.34290209814804 -2199.6554097529865 -1.0587816456908428e-09 -8.677587537420095e-10
-66.41363855701371 350.5097063628968 201.78482350903107 -2529.1482429195044 -1.1173685310339465e-09 -2.1223875990017405e-09
491.0480625123508 -641.4853927880168 156.04450300373855 -2611.6234333682773 -4.2077508144444664e-10 -1.5134595798826922e-09
-685.9208391774679 -5565.795925944663 -1605.5705667658967 4.011857471130051 -5.201992447911863e-10 -1.348651856858396e-09
472.04084715848137 -642.5507398020311 166.81238108799374 2620.1862426332737 -6.467372193341703e-10 -1.8909656063215152e-09
-105.86978519107356 348.3904085654228 222.53031084605456 2539.46726347526 -3.112831832574603e-10 -1.880519295838212e-09
-150.35689645757637 64.47836104423146 80.1273493542013 2213.398223673706 -4.4350234595924576e-10 4.057376656874112e-10
-13.64718210213654 -15.946491696962301 68.38002872687355 2035.1794892798123 -4.5225684308647374e-11 5.838733940777274e-10
27.48484413824324 -9.694751118576068 68.48133759189324 1908.7885683336115 2.858637770941641e-10 3.093961975508819e-09
18.25849176968624 -19.876519323761826 69.4611362986848 1830.139385511477 5.050571627585043e-10 1.9675312490363694e-09
-75.57457247663572 11.10198498582162 84.27718301557118 1774.1478683608764 2.0111667886624218e-10 1.7116041917120128e-09
-166.8296877295077 267.8514442222668 185.22595155200858 1776.6708436013353 6.693745557839748e-11 6.624925052989283e-10
59.624972738197705 43.15483364569698 209.4646850732176 1731.1081740443033 2.495559592308183e-10 -8.133835827095481e-10
-1110.4004167158037 -3665.746824562509 -1278.0699571475582 1260.4116976448008 3.251574565155124e-10 -3.866084341552778e-09
-1021.0553812158929 -2026.3425506905905 -114.39411253704856 -997.2238748041972 7.34938221391701e-11 -4.360956040727615e-13
-961.333426157929 -100.68545889225804 276.36961371606867 -1458.2537194777 -2.3199719922928352e-10 -3.993398944857063e-10
-2041.2280960640892 243.12906581192644 -7.145901299876014 -1556.6514518270283 -7.646989708121055e-10 -7.331821816336515e-10
-3139.123340680339 33.32548244368751 -405.5607082044953 -1511.3139707260343 -9.619464114152265e-10 -3.1949731749136845e-10
-4209.928797349994 -1.1527219353350198 -708.7615217157057 -1559.7404471774453 -1.0686435070184075e-09 4.444622447863367e-11
-5355.738885928639 9.318591220289811 -1005.9056676632077 -1647.8559244975877 -1.4687218663489432e-09 2.237494634016457e-10
-6541.600216457023 29.704182891307294 -1317.9515179952277 -1764.2065978089488 -1.2919364883456907e-09 -2.57386112423319e-10
-7948.517330141564 7.42663930461894 -1727.309558716429 -1909.2887250056688 -1.28108057495524e-09 -8.483760360888937e-10
-9347.968222550428 434.49627521300226 -2010.5355697242746 -2072.0820607131823 -1.2378013336533655e-09 -2.297948498153346e-09
-9380.468661787509 42.841806917138534 -2103.5790791865306 -2695.484844134318 -1.0459267896223423e-09 -1.3799947851111938e-09
-12377.408227304873 -9113.44588824995 -5695.434722031088 3.603186857632907 -1.0674302830526727e-09 -1.306099672859773e-09
-9400.186170542176 41.55673383482518 -2087.3511805753196 2703.1704340174024 -1.1697752766437475e-09 -1.4054979402544632e-09
-9388.36782494497 431.9494772347756 -1978.4929037354912 2081.324343435372 -1.4618640742369848e-09 -1.5683720988590721e-09
-8011.179895283632 3.6645626804047833 -1680.6309817927895 1921.554105698308 -1.4214327215267275e-09 3.6468472686124187e-10
-6627.961880114995 24.86409384943266 -1259.3151872072747 1781.727221399467 -1.1273647571030665e-09 8.09681655056238e-10
-5466.447436068663 3.802820371223331 -940.8753021719201 1674.2883952772268 -9.861134131483595e-11 3.0230951075793655e-09
-4341.657200431581 -4.38287092971084 -646.5223975855707 1600.8229430719898 9.148680701898115e-10 1.778159175458427e-09
-3272.212058250206 33.19919289815724 -360.1707395437091 1574.2693703568218 1.045064035309906e-09 1.6934138535873444e-09
-2143.225839786468 209.6145865844572 -15.665175768928076 1630.0770652408257 1.2585454900460036e-09 5.921845236400713e-10
-1036.0726554922965 -197.3705958605447 148.35149101156026 1488.3663428759173 1.0905082392653753e-09 -6.581699629748528e-10
-1014.1287786374713 -1903.148972806655 -309.57181118475376 987.1026154916082 8.67425686834622e-10 -3.4244145297179784e-09
-1099.9246278807216 -863.6455459643437 502.11576220102666 -545.7363449314951 3.832600903308503e-11 -7.004041790992233e-11
-1948.9904683614618 -193.1143343822315 226.94347198680916 -833.5043664930388 -2.243296659543148e-10 -2.2602630878054697e-10
-4035.1304803447847 145.8468276237113 -269.5166919393231 -914.7925788474591 -7.506273380641915e-10 -4.017031152159234e-10
-6348.469139745459 54.44011496281168 -898.7968021179367 -875.8400448925993 -1.2868066612270468e-09 -2.735927040475872e-10
-8582.489352898821 28.338891715225103 -1467.865003419877 -897.266225188671 -1.6107327693859474e-09 2.017475075888342e-10
-10832.116209734913 41.835871628759946 -2045.8523588865762 -951.9282789780473 -1.5100892203356864e-09 -1.091784440632182e-10
-13166.378294858026 55.64024926314481 -2694.9954086332677 -1024.5240779193525 -1.210269662266228e-09 2.0832668923276287e-11
-15507.439648589936 145.63975805704985 -3384.620330961379 -1090.401198880153 -1.5417684906537943e-09 6.151479325922082e-11
-18708.672119551684 -141.92472680845196 -4493.692671547213 -1212.1028433235274 -1.354563794464525e-09 -1.0850838005893593e-09
-19166.39069527364 2104.597379251186 -4002.519444175866 -1613.2318143139742 -1.3877000659689998e-09 -2.39304132065854e-10
-25446.961897928766 -13655.409093699145 -10605.451747262958 2.3356278422446213 -1.5459915569948635e-09 -8.040936805286947e-10
-19187.129700408565 2103.0995377228955 -3980.6829217730206 1618.1982852546234 -1.897523693727976e-09 -2.4709589929727827e-10
-18750.71751076381 -144.89109296658427 -4450.023434683996 1218.0230760951795 -2.613176786070426e-09 -8.17725887003462e-10
-15571.322913623086 141.29689981757457 -3319.4531832632383 1098.1526723684747 -2.656172615189689e-09 7.334817198056953e-10
-13251.221983966456 50.127939151292495 -2609.710907451131 1035.4324988319086 -2.1846269238068317e-09 5.136775449443576e-10
-10932.85813811339 35.97194129239566 -1943.8811282865713 968.1394377738668 -7.159577375404069e-10 1.7729693269075142e-09
-8684.690088483709 24.108997856776735 -1356.1301501672856 922.3605266285939 1.140233907293009e-09 1.062322896316914e-09
-6426.111574522033 49.214905710937835 -793.4917223692672 912.5349398863646 2.095335016605304e-09 8.24472934368714e-10
-4070.816860331706 118.98104848493344 -211.49503420036064 951.0503663927528 2.677054578015259e-09 2.724342973436933e-10
-1961.3231179715672 -239.56993596753856 179.42750526320748 840.844739551981 2.172854451920614e-09 -2.44152698058997e-10
-1089.759929192251 -807.1858509837024 354.0150236680398 531.3756944324753 1.5166623512641308e-09 -2.194145309886153e-09
-1231.5153976972924 -487.8484664065854 738.6508145150143 -216.5559699395977 4.8547832420808845e-11 -1.0043166298601136e-10
-2752.0577672583154 -317.9113021538874 174.08674524771155 -329.2145694015814 -7.570299942472047e-11 -9.801581768442702e-11
-6172.605750654579 -343.0444893109357 -716.3128726061701 -345.25036083123535 -6.640270555635652e-10 -2.1617374557081348e-10
-9908.719118551135 -701.7178538663418 -1750.140146278038 -341.20364165211475 -1.6674235325808695e-09 -4.568789790937444e-12
-13381.384504108944 -993.225339639662 -2693.2381430208375 -355.8046290448899 -2.3366464318996805e-09 5.056399743352813e-11
-16833.24430120273 -1247.325648295841 -3672.8314239477386 -384.08518074558714 -1.303507524141878e-09 -5.050324602962064e-10
-20423.951918025403 -1551.153828443294 -4801.924072850768 -413.31140971925277 -9.367742137555979e-10 7.176801375408104e-10
-24033.830598456476 -1677.2730190426646 -5997.648190697571 -463.06656016676055 -1.314744757507924e-09 5.013234272155387e-11
-27753.929670907575 -2516.014552454825 -7536.5135993602225 -487.86014372894704 -1.3112169128248752e-09 6.560156862178701e-10
-30911.02712996673 647.9783836130172 -7712.672396195103 -1045.5813411519619 -2.1406323380546155e-09 2.9971758408464666e-10
-42984.23639794523 -20636.384402242067 -17803.3314876809 1.3494839334444322 -1.988523123941377e-09 -6.221885229251711e-10
-30932.91177007813 647.2334842765238 -7684.598590724245 1048.4516573715723 -2.367578133544157e-09 3.6124703228779254e-10
-27797.92975776263 -2517.3269668480666 -7479.834331234453 491.27317920250897 -4.1819205875981424e-09 4.6551917876058724e-10
-24099.609156865423 -1678.7289387665412 -5911.588037691661 467.4923435816522 -4.763599292800791e-09 3.9269565377253457e-10
-20508.647358223432 -1551.8697013829635 -4686.0448488205075 419.3970434219507 -3.899515155225686e-09 4.971347777882329e-10
-16926.650737787462 -1245.071165238589 -3527.535957516555 392.74436074291447 -1.7122490092447151e-09 2.476330251965919e-10
-13456.995933229351 -983.5661553696278 -2520.590355787383 368.4076337162025 1.5702248390425666e-09 3.3024960544025816e-10
-9923.82774005099 -682.8089986211394 -1561.485238434202 358.5711380910878 3.5311149559902333e-09 3.360156597409514e-11
-6113.786320777625 -328.57225891783315 -556.8044496580059 362.7800648255276 4.643572637519355e-09 7.655032163711439e-11
-2680.233185942872 -312.3869387179547 222.2157428905321 335.46507363572726 3.750036725591599e-09 4.212452608953754e-11
-1182.9461008277467 -439.3069539628534 649.0103052108394 213.28617208137354 2.6482922521609e-09 -1.3491217032424174e-09
2284.1575731980656 -8375.117023104813 -1827.2878349720247 -107.72511527930858 -395.16125326219185 -34.289993873970246
7267.166570004279 2983.4475835114945 2504.493045413037 -741.219110316475 -538.7510902648505 41.112724311451274
7529.114644596142 368.29256973422184 1279.2302691033753 -293.2833769591406 -507.0427408573365 -39.71304657643089
10477.959489608445 799.2338229784089 1810.5277979033651 -335.13270005225854 -423.8492703174832 -45.82472672987928
13793.654769255785 957.3309743391497 2480.1983362494943 -351.1787147720643 -272.54927269642025 -63.237008770587025
17195.378039182935 1224.153904426036 3319.3101800286 -368.7355875178294 -83.06564926585528 -81.24606592316067
20631.094290005833 1491.060659858104 4297.595605530098 -392.41819245670047 131.09757094866276 -98.11555548128916
24297.97256625145 1818.4799960843523 5504.588427723809 -437.49063435359284 335.69062845458524 -105.7043382977825
28448.61787124378 2184.4849976734913 7003.748505946225 -491.1646525179441 450.05119101688905 -89.048521130479
32540.276826187594 2304.1059925036493 8485.27616902414 -412.59974805610995 349.3184506067477 -38.56596481492981
34302.385350511 1992.4757566535482 9046.603469895825 0.9546197431150567 -0.4511861248806297 4.2348881826245
32530.250680794063 2302.983520273778 8480.634827065785 414.56727063049806 -349.701892915677 -38.018425006525774
28426.811660865984 2182.118277591588 6992.967232958926 493.31254413694853 -448.8206268840091 -87.95998241480574
24260.559091219093 1814.6038099030504 5484.37349891484 439.97002237359 -331.49946463837665 -104.13003857991964
20571.34370469697 1485.1484009304602 4262.188891060872 395.3948396945445 -121.84634419394432 -96.21842839959787
17102.83552265688 1215.6767763683533 3259.9949726732207 372.54616306942216 101.16529795117256 -79.6078848233149
13650.84759044093 944.6953013963025 2383.039037991442 355.6194965893448 306.7166877488296 -62.2803644395669
10262.391858633964 782.2372949066283 1660.0234815230212 343.270135981844 482.2969223905132 -49.7696800198142
7136.112949926725 323.79502626663833 1013.368659314877 304.89928069356864 597.234206840515 -36.48360591432196
6276.549281276763 2786.8425358873324 1993.0417620201433 724.3501251941399 543.6493408262279 -29.365070540801828
605.0244038001911 -8842.767393432607 -3108.560267035103 930.3490697377229 480.56308758901537 287.0110938402349
-1104.5807244018229 -8563.620514834673 -2984.5761248540225 -183.7539474319 -209.214080793825 102.41090164050942
3591.992640878565 1558.6068769511608 1283.5261717161877 -841.2057366737982 -253.61888379138793 86.15341346515795
4512.3654843187005 -112.22362590573476 639.5448307167135 -758.5442535336838 -317.47904355360447 -9.531107861425179
6885.183976626696 21.324481602633128 1047.989767495822 -836.0279106770934 -265.43260362568356 -24.083805242815206
8969.448514416255 -52.024299963120455 1384.9749335478155 -883.7339469951731 -168.1402441843179 -35.184388463546746
11152.620407207034 -67.30374687605524 1857.3056758399166 -915.1770533752899 -44.95259029504484 -40.66503711689305
13360.985490362567 -75.64257956988351 2430.1601029659955 -966.5330809865198 89.5256285001018 -35.44916645434298
15695.5186284893 -43.99907795150792 3147.254677722863 -1072.832702928286 213.68703178213534 -6.379277709115653
18236.053279935484 -59.07115213246577 3998.3828232775613 -1227.8413688387209 281.2560068011796 67.58895135725997
20511.317843460423 -584.265054910595 4667.978074686935 -1076.035095883052 219.3516588842033 191.33466067304462
21214.017743071312 -1647.5562612065116 4652.220453580564 1.8514937959487145 4.050946367765678 279.6599763822449
20501.06190070458 -584.6710110958305 4668.123308700746 1079.907595964456 -210.48294447845677 191.46466909695488
18214.04585460734 -59.9004235313599 3997.4901024281166 1232.251292632583 -270.055944338351 67.71385569070794
15658.576243130754 -45.29224817695753 3142.662204637093 1078.245833397276 -198.44163259560625 -6.609136859164123
13303.842512749923 -77.44290350959457 2417.1851164748705 973.5908639336188 -68.09187746091096 -36.775961791285106
11066.929270390769 -69.62006419594177 1828.24012092829 924.7905016190747 75.83967331671987 -44.52946711457486
8843.469889055546 -54.309934338600335 1328.7859640753572 896.9361426701156 213.36028798372976 -43.88396405903861
6690.84389593171 13.715216822946116 941.954985246001 856.5261344542225 332.2291927896122 -41.540105265363
4196.57095536232 -120.6121693436565 457.61310913347626 798.1170701102786 394.87026140945073 -36.715637686765355
3259.6820178887 1500.2631049664244 997.2310487981007 914.455796622005 283.8860646546379 10.645556515061482
-1332.7298624380267 -8446.175493179067 -3415.9429763749645 691.0253788127127 185.6416390255004 371.2588270090559
-1248.953905721834 -6142.626144858364 -2066.033517920274 -1190.9345924316883 -73.40011466013274 353.07545873354377
1632.009351679263 777.8442589302689 734.770195955154 -1464.1809497564816 -92.34118990741253 130.21877606965404
2108.314654811211 188.79254003799952 425.8046953862893 -1364.86649043742 -129.19257165207122 33.18555295236639
3430.740252598445 -38.264529353317634 530.5971564769222 -1474.7970884271194 -106.65290376620382 0.475144138263599
4567.762346356799 -35.16515855813114 717.1659827475271 -1531.9732304083527 -51.88602711530929 -4.047073412600889
5631.689398660601 -53.9614106392934 936.8587274882826 -1586.304721990564 13.033139875202913 5.922745239451101
6700.053335130748 -62.65352760647062 1218.6333536692266 -1667.8959562770315 80.34656040520434 38.6049249434274
7786.293529894469 0.17273865958369772 1581.629983503741 -1826.695433779907 143.0306215584032 111.43496017593027
9035.799231451098 87.05815644794663 2050.989150711082 -2102.5654981857215 185.95812039290104 250.51525996846868
10289.706977417474 -725.2592196727016 2298.9863367793996 -1950.9556866522096 159.68955686762214 459.298543110171
10188.508985752129 -3119.9271905574706 1652.2177333735967 2.987486330172321 8.471039893926141 610.2108207210804
10279.052224512412 -725.799024578341 2303.549703821016 1957.2130237421384 -141.78248455624026 459.02354103656694
9013.25319454937 85.97718766157861 2059.1960278303527 2109.720691119825 -165.1712745284529 249.68369090533247
7749.353943711132 -1.44740459984902 1591.3558852480217 1835.5334578269615 -117.48096574177812 109.35579271841617
6644.761395690183 -64.82530370694 1225.9101451349818 1679.534581665008 -48.11873391921346 33.88067397286846
5552.366956997952 -56.362155808682495 935.0596537447668 1602.3538817599176 28.01730543960532 -3.9614690142144178
4455.532664436238 -37.739193539800304 695.1575260314731 1554.7572706997307 104.6199003714385 -23.375776907569737
3268.0528852265065 -41.48766367459444 469.9773848789926 1509.60836593534 172.9678997344544 -33.025514706059845
1929.951390076643 193.9388314768031 320.5336386272359 1427.6969268305345 195.47335717995756 -26.879170848820557
1450.1729863581465 632.0850297843316 495.9496108854039 1573.6804434074563 111.19791294706704 78.76670344865782
-1313.0276008947233 -6052.0849046410585 -2358.821187991683 1303.0418562863185 50.10147480273051 546.1213044108932
-1120.9811471528055 -3899.8796361396285 -1037.3757166486073 -1283.1118853261025 8.739490927860853 452.71987249901235
174.87609936723274 177.78140921595622 418.2431999024272 -1716.3674787079112 28.091371599028818 152.9492928068359
-57.545046730321914 292.28638222838754 223.13746849380607 -1702.7966149908195 40.21484545307628 45.79177814306968
63.80432363246811 10.97427729169606 73.52810001102313 -1696.5000707281697 51.61170331595556 8.87734503695103
135.28778410902004 -13.44909491435247 43.570820990935076 -1746.7992163549236 67.68581228692494 2.7423900777379187
108.2673776976811 -3.6736026423643464 32.71324098808457 -1808.548275739874 79.57229197957331 17.437812468448566
39.207958954424136 -13.010706454898418 29.019575715678695 -1902.429312620874 85.95233191237197 58.475143231435624
-117.71389781148025 60.39968431177374 41.619607514173964 -2037.9048553130308 94.2623353215845 142.55032870463586
-95.65461307243618 333.479636828942 183.914136141847 -2336.0919246165304 118.12356096100469 295.824688406431
411.79886785683124 -675.7524475082975 130.76713404016863 -2439.860340403818 125.4405711852211 533.7721552325473
-731.0226533909544 -5469.546062187239 -1511.747218597195 3.3855748306085367 12.878444464122252 728.251457406914
400.796043563898 -676.4589451664662 139.76270510963553 2446.9522657575276 -98.53937507487329 533.3740211903928
-118.62410409085103 332.0789645525196 201.24838957298306 2344.202828909342 -87.86269321378873 294.6998339647827
-154.4685501868243 58.331619977581155 65.67858387990863 2047.9217405404904 -58.66346146859158 139.8970089367657
-13.828639234179157 -15.665468763099568 56.593711196833844 1915.6246737577446 -43.482425025676015 52.70380044534493
35.93510661858858 -6.558170379737833 57.97267546286045 1826.871884996514 -29.336625370964416 5.59470040373285
38.71183631127071 -15.994792712658207 56.054403065078304 1773.3711632394275 -9.610205499375086 -19.946952753160488
-52.58703578334795 13.819876621234878 61.088135427111496 1736.9510096640215 11.596337244204932 -31.98874924202002
-164.5679994027219 273.3998132718075 162.62008676641727 1766.694960107501 12.101999006923725 -18.11849922167594
76.3238906740798 63.27940977030492 247.8968977353087 1769.6811437332976 -17.063274601091376 115.48337487963052
-1129.4417815417357 -3801.1878757284635 -1243.2378555711002 1305.6237884955092 -27.103295975990886 578.2581844465469
-1061.6958415667223 -2067.463273375487 -142.25900681065565 -1023.7402248481192 77.89018919923095 425.42805183242154
-1014.3732823341956 -128.66103396470942 282.3416974152818 -1503.591544094924 139.05715078909617 130.6104730822971
-2120.2831014589974 243.28568434048603 3.6260104357026246 -1586.1193984801002 203.76201774372024 39.03441573222127
-3220.4400474186396 52.60418865847634 -363.3528280362388 -1509.0675507319745 208.59757027066297 4.4475377328720125
-4292.122085654637 24.87275446348155 -625.5527941850316 -1528.252847306236 187.9906834961857 -4.232911507067384
-5431.296924743818 40.65699692872899 -879.2684727292432 -1586.3193090874267 146.96203746170266 6.00834826011133
-6591.925835750113 65.60552346668732 -1143.3977778544615 -1665.0696630797713 92.69323443322294 39.06841032519658
-7940.4250238278455 50.5464843056311 -1495.3804528287862 -1767.834906485952 43.17792452651296 106.89236045259074
-9252.99605253023 477.42078782722945 -1726.28085753355 -1910.054046643211 37.73201378260937 229.98010902928198
-9285.1759941711 57.44979584612827 -1808.2603688317554 -2534.2321839159617 79.04839183915385 448.1947710315253
-12176.408273231964 -8866.510580372202 -5164.161947534641 2.9976378108884867 17.372490576901345 672.7460962534931
-9296.598267117408 56.572843762365196 -1794.7691181367557 2540.510332087483 -42.96827892908082 447.9552044998221
-9276.549125021516 475.6870579505735 -1699.6855877221892 1917.2292503026076 2.2241199621152257 229.22124390387287
-7977.275547239645 48.01446689106081 -1456.7619907434967 1776.6821600771877 2.75479700264477 104.9325817606998
-6643.107685642046 62.44051620826877 -1095.1731011069558 1676.7016995282656 -39.586479538798294 34.539906189561506
-5497.158087140204 37.19105048395061 -826.4201711430148 1602.555677102798 -87.06575123267757 -3.64470611502247
-4370.351648184915 23.080776224799386 -576.6520603943704 1552.182652843012 -124.15527313359323 -23.55925951653863
-3299.056564353858 52.93351607281308 -331.89415969639373 1545.6068041704095 -148.32803011516785 -31.349354620091393
-2180.674511594652 221.48855379704185 -10.918362794310026 1630.4426856629118 -163.00911426921002 -12.874615947940521
-1061.703054218666 -195.198662561329 178.1263483546114 1523.236267271879 -133.48931907933473 102.91008291180903
-1060.6122770514442 -1998.860478329388 -297.29007724142826 1017.1616252102597 -92.81796446840822 506.5614945500579
-1177.9515437473751 -920.2064712021662 467.6404117422609 -553.1521525504993 165.17166590889386 257.296199970424
-2028.0386137729454 -233.60131554105837 252.0395159093721 -860.3313730841022 266.06627460266856 56.819061291651906
-4139.234580540059 136.08809155740983 -225.51185223526636 -935.456381674438 374.93789851058864 7.642831627526622
-6467.899656774889 64.96541184526329 -803.8007928273131 -877.3432751771569 366.51155575399156 -20.206596446737404
-8717.42451996036 45.99446098954474 -1305.548103320994 -879.6675528178092 305.8671248142449 -34.73488493189394
-10965.579735222194 61.94330322337571 -1805.074694699328 -914.9729487521427 207.54236218439 -40.458925282982605
-13259.035605466142 78.67561240703421 -2357.756431294767 -964.1805508220956 86.14397288086468 -35.150036091162605
-15502.26367177904 171.28512126945049 -2934.7201430377327 -1006.3431595381531 -29.425085582062287 -11.109293430573993
-18509.036157368977 -95.64332653108309 -3912.875489323626 -1118.8138942305043 -90.55842060332485 40.24940361152496
-18925.802993922654 2042.8760442126586 -3448.3325000692603 -1519.8821879217035 -24.84514412076433 178.35784246584325
-24957.98277353886 -13237.256605604956 -9641.773370231944 1.8729817518354785 22.051603545436738 432.58335008453486
-18937.83820705735 2041.8558488189467 -3430.2356434234516 1523.7996540422168 70.51626995608777 178.56334396761233
-18533.59698812599 -97.65885917741286 -3876.7778456497817 1123.2728025240338 140.75882690798818 40.52587740899976
-15539.94495238906 168.3626821046933 -2881.1206613207905 1011.8021721766544 86.5126929416233 -11.102341289236644
-13309.642554002929 75.05714607681085 -2288.2302696907964 971.2947624014147 -21.10064938379693 -36.1213947126949
-11026.301538082482 58.314649934442116 -1723.2891991928702 924.8024310893604 -135.90985007699157 -43.81995600198194
-8779.435348483581 43.93818910441396 -1218.7081500439572 894.2088958856581 -233.28071534412678 -43.27574392988362
-6515.088182061073 63.03202333837922 -726.698708042871 898.6037325842474 -305.26365573601026 -38.17173924107391
-4161.238187711007 120.53775432753515 -189.10712018753404 957.1293415790134 -342.68798438763883 -18.87310792870907
-2037.4462129498415 -263.9734622974294 208.45880474081588 865.1016302037096 -267.9592670554881 42.78597191135791
-1175.5634475923923 -888.8724728568947 351.253794157628 543.3583846321208 -182.99763628176575 302.6492846153486
-1316.0199577954372 -534.7481462322065 772.6158686443299 -215.62311176241917 318.25007280646645 132.060314571605
-2844.6719089486432 -356.0796480177429 255.99587667785403 -344.43200892742055 438.5426987676329 6.021114807954815
-6303.145423291135 -354.6529795266748 -616.2969233616897 -356.9494249395828 560.4592437777272 -16.028912897733644
-10072.352744020705 -695.6488865430938 -1581.159129182979 -343.7532792142774 523.4851098997297 -39.3260105353215
-13572.902703987304 -978.4002054950403 -2423.8256790463897 -348.5687561375117 413.6147164042538 -59.22279498554719
-17024.32710732006 -1224.9580123133685 -3276.971501348663 -367.0814521858762 248.8975252370157 -78.78661581606312
-20554.71168879847 -1513.3778114744161 -4243.734883520716 -385.5040073862837 48.56495005435726 -96.29660993237235
-24000.548661805235 -1612.7492211314648 -5234.198784710754 -426.44198510362367 -149.27526746627058 -109.25630206827033
-27418.85166443755 -2384.6727723701256 -6542.837039359797 -451.1013356290541 -277.57989381065454 -103.28712320505846
-30380.76926118809 668.0243592026012 -6703.863382754931 -993.5152067674326 -265.0972418460956 -63.90568926580511
-42101.189864415355 -20021.550277853363 -16511.461607796406 0.9741035876134383 26.983352089573124 303.06769644094106
-30393.388325157033 667.7049047688299 -6680.678459340736 995.5639053573067 320.9347112483596 -63.45988938757029
-27444.37450306202 -2385.18694466175 -6496.194390995819 453.46305998319144 338.8326470063648 -102.43032655504939
-24039.062036684365 -1613.1571145814648 -5163.860359588178 429.3724703756376 218.7926229020005 -108.08939105980211
-20604.929815920215 -1513.0627737115428 -4150.149517624716 389.3402852435061 30.53973786301558 -95.05871503811626
-17080.66779935046 -1222.4240345312323 -3162.094193747909 372.3011056941539 -161.91716740787027 -78.03229864379001
-13619.890079359142 -970.7195967501465 -2292.3058385245263 355.9868037533278 -326.36047331366865 -60.20875028305848
-10084.298838554985 -681.642606709076 -1445.4088808478637 354.0657852293306 -453.36859115791555 -44.21131280516677
-6271.227137247294 -343.33083920222833 -510.02988903315446 367.6889989069828 -532.9759790414706 -24.527160311080323
-2804.5661551980393 -351.7726267378541 279.8580186394245 348.4541027116567 -458.0396819022353 1.9822589634805219
-1290.8348000460269 -506.0842446705158 701.646289201076 212.64046406967725 -357.8725099670045 159.2211395337073
-496.08748741111197 -11029.419697768339 -3457.6521555538357 -1714.3053259161481 -914.5692318012659 -323.52212724442404
6501.8626122110145 3126.5540383125444 2277.717069396979 -766.3638990359583 -986.8344049428842 101.40198733063706
7551.5231351258435 378.3447021927454 995.5448406505927 -273.8700479097351 -925.621837347792 -25.334861601743537
10692.263583986727 927.2367300200419 1517.789964217619 -297.6880388675925 -822.4997471756426 17.328336502057443
14134.99203200518 1089.2901938184211 2028.982513628668 -295.6497893715063 -627.7618507823788 1.7783116498882894
17689.54578398597 1391.2670162333177 2668.0513772720305 -303.20439026910685 -375.4821585004771 -1.2097183778085672
21183.161826202067 1676.0027898253352 3354.8038863762526 -310.22175819324417 -58.381060891422656 -5.676782508292256
24626.41334234157 1981.7905772150934 4136.660149364471 -326.7359659213592 291.8686262330755 -0.44984301028440754
28014.6903350182 2285.0341657310064 5044.033427798119 -343.3102026903482 564.3918106742332 36.83928036049669
30947.87260128059 2418.4329932625233 5919.269017119579 -276.43126997232446 515.7005232755412 141.51052202928125
32139.456917347386 2245.8315442352537 6248.270972992413 0.9305182193609838 -4.882253229100266 251.13311068305072
30954.33292744586 2418.0733947591657 5917.450817600216 278.2777913711858 -524.9158788810785 142.15469786513944
28028.52165477297 2284.327359617769 5039.9190471924785 345.088530597754 -571.8777390696887 38.104856265618
24649.840801938582 1980.8032252338874 4129.245311059094 328.3047377788709 -296.16226461213154 1.3143880382888629
21220.831361428027 1675.0265746098994 3342.5818649348935 311.31914163435727 59.53632877286393 -3.577913100108006
17750.08439474367 1390.7289579880417 2648.5633178399266 303.26453251511606 385.51345345029125 0.11086889482654971
14235.835014719847 1091.017509707844 2000.274367450796 294.48447316647787 654.3351522340256 3.634088643029802
10857.89204015351 931.0993068557216 1471.2909751555533 291.9830476638337 868.2830503851314 6.720725673318108
7878.259592172188 403.99168042921593 963.4318445188142 263.284079611223 1045.200199318216 5.002732177021997
7270.5162242169035 3224.700314738836 2285.591195880908 759.9378294949846 883.1136638466991 -119.61923248267719
1014.9531435749084 -10446.822692579646 -2461.0232960066282 1012.9453161516844 746.0663792311282 596.0230786734983
-1632.155103171249 -10070.962032275893 -3051.848450449133 -1100.115992178712 -154.02618600325482 30.3158578156981
3420.690459001189 1666.7375556867555 1203.6185089874955 -955.7409866161331 -331.8447266484923 92.1563193508168
4306.436886199558 -90.26101707691508 387.33122054473324 -752.4790056370066 -564.5513209964718 -6.050573137778862
6916.231181272135 104.63004775808204 767.4137053009011 -781.3261334750814 -473.41910504413363 8.149234299695841
9107.338582711911 53.92747928271231 1006.1191593199464 -804.6305699516159 -352.7815716122243 -1.2809984781641335
11389.577093380329 67.0855857450491 1329.04572806388 -809.0595404995793 -192.25162144710407 -1.5703606306871372
13636.082478750299 85.13833288770905 1697.956800038148 -816.0225236312846 -0.3783359464663357 7.72143228628935
15831.544385530311 123.35829461199509 2131.069977157885 -837.8037980811058 205.73061383993158 44.33480971833003
17930.936164708106 134.89016011849876 2623.1850302390676 -868.6129937966783 365.31714021684377 150.50739729476203
19610.96598131449 -152.99563050963437 3001.8499400151363 -712.6984677906078 336.68271258233665 382.161143079711
20112.990057099672 -813.3494071125518 2965.599146377669 1.3470054797361595 1.8809816796189658 612.8747671082331
19618.27515028622 -152.7073066840911 3002.674212880017 715.3510861078006 -332.06470144981307 382.2998151648216
17946.34695515692 135.4576303286092 2624.350839694789 871.0879652196106 -358.1002829575976 150.631246868445
15856.9289904912 124.20726434029741 2131.521546987635 839.7876208088835 -194.0294403421804 44.04851504028515
13675.060804301605 86.29503837048972 1695.8236767358335 816.8775306344882 18.72435185811488 6.232833060926682
11449.23522141428 68.71081896795918 1321.6029120025341 807.6548283282233 220.3455627782561 -5.898388817185204
9199.68938096733 55.76516831262651 988.3249056481036 799.4423187215845 394.0248193285712 -10.322029929858935
7071.961289415011 112.15618708505892 739.3566932971008 768.2868862620174 537.4863160786604 -12.325469789138008
4574.269556555634 -86.07985431720644 337.16803143741834 719.1651434001067 645.2112768298196 -24.459867853296846
3695.720836677887 1697.8327356941643 1148.929633034464 876.2702447409747 353.24190225798276 -67.09307475692714
-1395.8881989133363 -10053.874570049273 -2966.4119638683655 653.00751767252 105.63865423416811 628.7399125908573
-1515.9586412279707 -7313.593567533885 -1998.7077074780952 -1451.9681371563768 24.423142122354907 606.380372434196
1492.85684956591 560.5813240719555 650.9081223566297 -1659.7978318151283 -75.85578843002287 91.13293003210332
1958.3249587795317 292.5738712203844 309.00597371159654 -1372.6066514890356 -227.81025533291964 27.787232631296533
3325.690123008653 28.183977160296973 360.0340418523001 -1411.5688142694028 -193.48879459393513 -0.38549697123205107
4554.705212129388 51.29389124964588 512.4890298337474 -1426.8671203296212 -122.63007808477228 0.3011815484468334
5683.145273759137 53.19138102982313 660.9367721562285 -1432.4470194855096 -41.37679324213702 9.210913987447952
6797.104214478771 66.21778007378299 842.0441265968313 -1435.8780814147585 52.53380895685212 40.53590557005254
7856.5631377089785 115.8602237294187 1059.5667171009363 -1451.4790038079868 159.1810830991875 118.9513102044626
8896.765870657624 179.50635517028564 1325.5702159686514 -1501.9197982549172 276.02765011634483 303.13590246515537
9805.942609633503 -302.10617157143037 1446.5873784913783 -1299.0548236645457 306.7664875182711 686.1285791768607
9738.999624191387 -1869.8758438173165 981.6110364606604 1.9758083337133208 7.879991684795284 1129.0779621646964
9813.782540701224 -301.70244398235087 1449.864041692568 1302.9302319048365 -289.9072867317008 685.8075707405352
8913.031115657379 180.29427529845557 1331.669976810233 1505.4771152092192 -255.89616531589058 302.2132173700229
7882.550959947506 117.00231794682057 1067.4309403375137 1454.1816592043824 -133.69662800284726 116.74439479958377
6835.303483650241 67.73538784053646 849.7739857383275 1436.6209554018767 -19.764513200919748 35.63348482196959
5738.166310774636 54.93478121159275 665.2533891464022 1429.2783618696049 83.1242260433911 -0.8330699214581481
4636.054293510476 53.662230668502026 508.8967418818953 1416.6726846336428 175.10452120181057 -19.590296389734593
3454.057385793023 31.919542824979132 342.92352956843894 1388.3624507186057 258.63542325862153 -33.435544513959556
2108.902072659707 286.11648686868506 254.18892014963433 1318.319154823325 293.7313064904891 -38.63591365655741
1641.1733221210873 675.2858206286504 615.416081062452 1550.0890405386322 89.31867226906411 28.81008576791101
-1449.466530362976 -7304.878629273011 -2040.5604661657376 1326.1834486349017 -54.58238080234432 849.7441208003376
-1258.3332275541675 -4627.936839229188 -1010.1864103013361 -1372.8642490402353 78.85221557789426 664.8350200746875
57.23341217135379 -95.72204592479223 354.48131907086 -1823.5172438426905 75.30144996805276 163.47025736013856
-211.7724359348703 324.81496517917594 182.62598013097195 -1733.8626515511983 47.11080421227039 41.24506976706782
-128.29851224978185 36.279467886817436 38.150500302974514 -1637.7734889616552 65.85756725570617 10.20312721723688
-34.48876934337663 -9.631322705112046 22.817804306611688 -1637.5406744685383 88.46344734326024 8.743191244751317
-25.02819748445073 -1.325726958628901 20.11369218932537 -1641.1786668824918 100.39496571208868 25.91647741844523
-40.16221848366825 -9.073302961038696 17.693287115111367 -1645.030030940943 108.62109420444764 67.4871329962861
-111.5160315564809 24.575511688782534 20.327040425995897 -1633.6944560066834 129.73591407786466 156.47829178735057
-95.0433360595782 185.86336409927688 90.33889144550591 -1685.9671775426457 219.84273358234083 347.52128248557904
218.433796437345 -435.5932967311606 22.721576283494713 -1650.1732078338407 339.8232302974834 764.9499668274959
-617.1921058664698 -3712.5964557524676 -1164.46051992512 2.148441521765779 13.574547797772276 1449.6511826623387
226.76481845195855 -435.05500305845874 28.490544211716326 1654.3844734727545 -311.35190116430255 764.4956101983521
-78.05266022493275 186.91728795117317 101.4672392690433 1689.8211275130288 -187.5000249998439 346.29111811515014
-85.21773425703924 26.11583768816646 35.81347770709585 1636.586992120423 -91.30421792858428 153.68455558533728
-3.473950602673767 -7.074549284648949 35.58193498936466 1645.7044823174622 -62.587466532768936 61.56286375594054
24.12660691051128 1.033976362320355 36.9823136486241 1637.2923345762185 -46.45096060335983 13.876773426580911
32.837569976475926 -6.908983996131831 33.59017859817267 1625.123316200327 -27.908152687297154 -14.266537806894547
-41.49154156540784 35.41617360685423 31.381777054230025 1609.917201488553 -2.583643999355473 -31.44542120700555
-127.03584305220372 339.5222652817778 147.93957339103608 1677.9844943321505 2.247677326483966 -25.99835692704937
135.59118437894597 4.0570599362651265 321.8900547187205 1764.947381324409 -71.17399592568181 122.9111827958223
-1256.688701152362 -4663.7611453383515 -1093.319147054901 1332.1396981131543 -103.21041910839544 810.3107665456246
-1138.6458366810823 -2458.4318978032406 -226.3883985209485 -1039.4503397323313 133.02038652402766 575.0035409972766
-1104.3919298211083 -343.07264147875577 235.2346833554354 -1544.7723342969964 214.76978977196706 166.69780103509765
-2290.558605954531 215.75235242885114 30.041283493168677 -1596.9124213432096 303.5186550124699 42.826147396572686
-3493.8300346145274 17.447126765098965 -269.92824978784483 -1451.7018586624827 324.3567418928336 5.247396406324329
-4611.195768585281 -50.93637290365714 -458.5026012519115 -1421.6591628499536 301.90117821145867 -1.8942252854572992
-5747.790095769946 -62.32687462139726 -627.8315873246642 -1429.1143645591399 244.0461348260728 9.436826057313176
-6860.123603112527 -64.81126132397705 -795.8902569951402 -1432.5287620752024 168.15262228795984 44.062493839750324
-8038.125782575322 -111.00346934034324 -1018.7048781929932 -1419.730155275615 93.73296396225751 107.54416878256723
-9122.377120986293 137.4055083453713 -1172.0206930246218 -1395.9119170001504 117.05636509433344 243.05134044952615
-9223.196396533145 -75.94387971790403 -1238.802549292879 -1764.8076310128497 361.671965557901 559.1048537811806
-11362.524175864051 -6433.365832221362 -3742.2120369890013 2.0230519669798426 19.390749812363296 1516.2065028658815
-9214.356186201248 -75.28120969680593 -1230.5097342470021 1768.7897714851956 -321.3256674800878 558.851784626382
-9104.625690081864 138.71322104402572 -1155.785883870959 1399.6134481679073 -72.1788683714496 242.26500487821292
-8011.4737331162805 -109.0817169468812 -995.45738099337 1422.641415670785 -41.93282353216228 105.54075081855483
-6824.934871008065 -62.323350634271385 -767.6076237400441 1433.5523661660015 -108.28402967113725 39.45806311328601
-5704.59745184302 -59.27840625060424 -598.1011175037245 1426.0776263315872 -177.26630601963643 -0.40546161336327646
-4560.959852339503 -48.40234480147931 -433.88973425157354 1410.658233748205 -232.86269322599185 -21.797244789834966
-3442.525663716572 19.35612329905097 -261.43916511364887 1426.3370431151184 -262.8168131280188 -31.97069444401823
-2250.1073882595797 235.28515194489592 14.916410242848064 1557.683831915027 -266.85761875199535 -11.688136564501784
-1070.7622841213856 -281.32817917047294 206.4168472501666 1519.6176294943202 -216.11910281604875 138.79159039271923
-1155.707979347154 -2497.802687717555 -306.2775775814931 1030.0577557456165 -153.09487844784846 671.4801052426967
-1218.5394229271153 -1090.1417803766938 296.6617728423108 -543.5810955000586 238.38692360342029 373.2546949225908
-2083.063822537003 -354.47627420910703 227.01546257131918 -863.6544969316274 397.37413156733203 113.45001207541182
-4324.208096099663 92.65029407594864 -135.93999027782968 -921.224122412258 586.8130413472657 39.10458986896963
-6821.727065850868 9.500740778244145 -591.2254580528464 -825.9211650029142 609.005622068123 6.185053237062018
-9182.243292231771 -51.05003079449885 -960.5635305969761 -798.945960354581 537.3717241983614 -2.858086301676306
-11465.876019627342 -71.6499837408618 -1301.1416536161898 -805.3292118290293 402.1695682663948 -1.6078691697839314
-13711.986537856354 -88.4934843167284 -1657.712235989954 -812.8109216865266 227.13850011194177 10.119065740032443
-15804.80972284999 -51.587254081941055 -2005.15905452045 -797.7215879698641 48.82259371143642 40.970459753581025
-18261.191071460747 -296.22525202110467 -2637.420765977409 -822.8975325417059 -109.34981529208659 64.25984012747752
-18565.393138245345 1327.6660700559585 -2268.7470182906018 -1114.6327968523624 228.23298633407646 208.9524859412728
-23024.608442752316 -9917.28202151505 -7053.179434648504 1.4030229039535556 25.756690781749057 1116.1198030578082
-18555.972087095575 1328.4234579405297 -2257.9084902546147 1117.413830616312 -174.84910332038916 209.1988263570721
-18242.499275225906 -294.7236109918539 -2616.029642709074 825.5501473676866 168.12102701401528 64.59961948486156
-15777.432110850306 -49.37762546016416 -1974.0640256230638 799.9659352013238 18.062175073371634 41.01874484366002
-13677.504030881737 -85.62640939481898 -1618.8884771150724 814.0046215264587 -151.15774023469783 9.079354517071085
-11427.78339644407 -68.36720348975464 -1258.6513351112926 804.1676606935573 -319.4819029582753 -5.338215525107134
-9147.45698435947 -48.039152281364224 -921.9393595951088 792.8527166853876 -456.05523196565196 -12.475411572977327
-6800.287927547053 13.883047231457589 -567.2912606105327 811.5833110694217 -544.7239109381778 -14.083202048054106
-4319.785495348753 108.82641700481717 -134.8255382035841 901.9105899296874 -559.0086890859784 9.34712176411838
-2083.7640792395205 -325.10738999932704 204.7842992306299 855.1196112564814 -406.1961441102092 98.8934150670841
-1242.6023641406211 -1114.8878861048192 234.69878274032692 541.6120140346493 -261.13172762157257 428.46811750068696
-1308.0799462605494 -597.7566542591144 628.5991441264861 -208.201160714516 455.75367316642223 241.9045294244305
-2870.532678434337 -421.15729372167715 259.47368668157395 -337.9746487209169 684.4797729696426 78.87053933582173
-6528.184351899963 -404.4702577944378 -503.16902367568287 -331.91783330432344 952.5719488180899 42.447096913006845
-10558.158382575952 -776.3878746239392 -1330.436390431859 -300.9656082452748 960.4350420242723 17.583902161359564
-14243.828357677352 -1107.3866330500978 -2010.0902042287062 -294.2624919853264 825.7684039405957 8.74911570041618
-17778.532855557103 -1392.475814759376 -2648.268864865741 -301.11177747565637 594.5129346544434 2.837214842754804
-21276.326288644115 -1698.618000622693 -3327.316120448337 -304.94745867003803 299.1039234906848 -1.6144990105607455
-24567.396009578184 -1855.2160838110306 -3979.3796893547387 -318.7732884107821 -27.61459411055453 -0.8124888450905203
-27516.615275616856 -2481.193000299464 -4801.014046408571 -328.18112097564835 -363.97741224544154 -5.939561992496095
-29438.883850694132 -120.20940598223885 -4756.426913703753 -795.5355215693157 -542.996804232862 -128.64973263893665
-38034.116484523336 -15576.796982132331 -12650.372971558996 0.673516376718652 33.13823406711565 1186.7768898956074
-29428.543117338777 -118.77400215106933 -4742.787691792876 796.8842791057439 611.5600807251235 -128.18765312922946
-27496.230453408083 -2478.341264285792 -4773.9607955283445 329.5140038277842 439.1314683472726 -5.0947847941327
-24537.933572352074 -1851.0151877509713 -3939.6928695979987 319.9967364605735 112.70480640387755 0.21449154135719084
-21240.241075627513 -1693.263689429602 -3277.0461844590936 305.8147902257291 -202.8666970941831 -0.8175918182354422
-17741.637784922015 -1386.692728652002 -2592.1148920457886 301.09955388660916 -490.17492074172077 2.5618747562562163
-14218.630032506217 -1102.8586155390142 -1957.4421920206316 292.26417305627024 -724.2210438023465 5.701928709755185
-10562.908886466144 -773.8523964371666 -1295.423485752468 295.5016898489403 -884.009088042801 9.176655101235566
-6566.066355537507 -398.37516095432784 -496.35740396871074 323.9423835750438 -929.8215878820047 29.64005061273809
-2910.3022930362035 -411.70275599322696 240.50423258187215 333.9759005528106 -713.2411085372576 73.18590500416553
-1349.9076918511803 -616.2869275766474 581.4962625772414 204.93813818214662 -503.0906071939734 275.30882268814537
-3283.9642813162336 -18216.194037077646 -6450.047495518163 -3332.843862362385 -1374.0201086469453 1731.4280452991477
7257.656133668217 4668.6987312705005 3004.5117651782034 -1480.514265495017 -1430.1921078806158 58.880972547713924
7179.2264056922695 208.33733647742446 703.9786219496797 -697.9545515622918 -1397.198385915493 485.6926076937935
10384.442889905862 965.528001125212 1278.8444450543673 -719.745751963614 -1243.2015653276944 526.9949402379102
14020.553893646736 1077.2573144983212 1717.2107493537417 -678.3406991764039 -1110.9719648464131 723.7916728276174
17816.4756628721 1416.072095638732 2297.457613397622 -615.4721297547171 -872.604597806361 892.5268130620275
21512.867286301014 1714.7510852203413 2874.957499296336 -514.110317146913 -544.253576795992 1065.9097509425978
25001.202405692708 1993.7319573942661 3461.7180290661477 -374.75765468892143 -132.65491212338398 1236.2807208969837
27938.531194912914 2216.9159220399106 3999.5697523054628 -195.05099989845291 268.5652916068684 1411.9101632688667
29854.422817850216 2439.7078557739687 4414.892002009615 -36.241535543559166 382.3633175653945 1600.6174534843447
30557.00342439449 2690.5300166973225 4638.608459182766 -4.438952782348224 -9.191328170866754 1729.3315240572495
29876.117872728053 2439.9643642080173 4416.498107209698 27.13315579755914 -400.58453334342 1601.0639577776087
27986.21388447839 2217.627332875286 4003.344404383151 185.2514838429514 -286.2532031675898 1412.7952322583162
25084.0040502063 1995.3205767412296 3468.7833877089606 363.79004932358197 116.07633793740722 1237.6270567296842
21646.070644711086 1718.1513801151796 2887.2254655747856 501.5353907559743 529.635972584423 1067.535377889341
18021.862036319457 1421.7724807207055 2316.2195109746835 600.670579056798 861.8250413631674 895.0818636540824
14330.483993334497 1088.831746445006 1746.6710419900512 661.3758073705847 1104.0770593670263 724.0363419801181
10834.181800115235 978.9944269869075 1306.10275959952 695.7278571404711 1251.1545617527806 540.4858084883775
7946.21910753149 288.46818158052696 824.2470157776522 668.8726571994777 1375.3211026441402 440.8951438476174
8920.411334860966 4962.31159547774 3182.042742565084 1536.1429493552318 1839.0216571676792 323.90904392088044
-137.32317505833873 -17372.5372399156 -3964.5822988354803 2003.3408923631355 2408.8452552703184 671.5468558618405
-3641.0886384690307 -15800.371149510976 -4763.863846671342 -2139.2134906641763 -1135.2369867769642 995.295720419096
3469.767688983954 2530.2741006160786 1425.0174305937862 -1772.5242480387376 -950.5683300263706 298.5335053119269
3579.8007393036323 -241.86832126840056 23.374663940094283 -1474.784132525161 -862.4681061666038 523.3279144801106
6478.305833829187 44.98910876429871 444.8859435965383 -1493.6950363721603 -762.5692386649637 678.6389781303701
8764.167854351133 -54.40100984246255 611.461609988147 -1460.095864285978 -661.7565235286983 900.3561141506921
11183.384808695428 -51.40734484985902 853.3243070683066 -1341.1201437904685 -521.4742879166793 1121.4483356283047
13540.235151944082 -51.350966499386615 1111.5786617938024 -1165.2629423883384 -326.2977469934808 1343.8094539947647
15757.754108211684 -71.45837818359387 1379.6675516759917 -908.7515670531694 -85.39661105483887 1573.304987614903
17635.835603306175 -93.50667319232747 1639.0755340119183 -536.7967505538393 151.8648268632329 1834.5418099277874
18933.063152790925 85.68825401174635 1903.3896856139133 -141.2842157455272 226.48264626055436 2162.249723684692
19542.36148033535 571.2462084242615 2164.578426327179 -7.914495684502185 -2.2017137010153522 2416.42238174269
18956.580997731002 86.72275892045441 1906.6742559771387 124.95119823406701 -230.44768334733692 2162.2965779896294
17686.732261105262 -91.34954169979689 1646.0289009925114 518.9263419196476 -154.50033680437943 1834.5756692563957
15844.057781321188 -67.99751853476144 1391.0212761346677 888.2263881613572 84.99499393805309 1573.1988310244608
13674.634778350131 -46.399924046885985 1128.1056419125396 1140.8380123412696 329.1413417355238 1343.3007290883181
11384.112353133662 -44.962386792850936 875.8269210985435 1311.4058987818933 528.232193166633 1120.335135976395
9053.74466707513 -47.541186910579256 637.271852718415 1423.6420132754133 674.1386593459417 897.458705145121
6898.035412440183 60.05553698887287 481.50289733363024 1444.4832773173355 775.1902852669101 678.0481454056126
4167.977070590943 -229.55099977457274 37.97350658394511 1398.8296291069869 898.150701685377 502.95088318740125
4048.7142940628355 2654.7150641412236 1484.585305584593 1671.8615663300998 1087.0284262441783 428.2013419369861
-3375.462536297704 -16317.138775589385 -4580.132203771485 1338.657092545623 1344.170058243491 404.25477982211953
-2901.5277086873475 -11011.68939859029 -3005.5231615220687 -2511.5697409787763 -691.2748025748609 329.64117558992695
1190.684618741605 772.2443590583024 644.8717921310248 -2879.161120987743 -540.99480067308 463.95966094031473
1257.4168859854633 354.2934624807823 61.24988915983553 -2511.3030580429845 -426.32146827338937 597.4900487662048
2776.314732706121 -58.81745120408471 82.41546979136524 -2554.0958074597525 -345.73056729814664 865.5424810337512
4163.791702467223 -39.37815868424991 235.2921988436967 -2467.3512940799756 -282.75849367944295 1142.3002926572735
5400.3995664854165 -50.01583321399705 347.9908687499128 -2277.4836208975903 -213.98428257339265 1433.0224384630105
6631.5827917315555 -42.2111409480163 483.7826199584224 -1995.15942455541 -121.70158517473793 1726.3975120157781
7815.059398722458 -65.82654923129593 627.9457799733844 -1584.868248676934 1.1835403642052755 2035.8581614267823
8823.670678769076 -101.378921228305 759.8506249669776 -951.8110960829133 157.3895127758385 2400.258720614225
9509.47871511078 299.73410688775004 967.9095894085006 -205.42943985991104 240.5738459875125 2897.784836555264
10139.551999736195 1599.6010585864115 1470.3289310352554 -12.647456727262664 3.3839014070664373 3366.2238472255513
9533.75879474552 300.94863811792084 972.4832188963843 179.2954152347008 -233.13788024343444 2897.5237435505646
8875.665643372966 -98.86839248180229 769.325348378934 923.1102119780145 -147.98250320754855 2399.658334643213
7901.660616797435 -61.8659748504099 642.8517969189139 1551.7077908516378 11.383923234117718 2034.729896995339
6763.258507009842 -36.60556083552981 504.6503479746974 1955.3495317299673 138.30615513167973 1724.4359705554357
5590.883023547272 -43.28912828054598 374.42965211045873 2228.4450986118245 234.96132743988923 1429.5448587711353
4429.833202566475 -32.22244311355168 265.7083397812143 2405.8661315362574 307.03755445053736 1137.2033189519857
3132.9199582700435 -52.67494304890472 109.83839388588045 2471.9539385960597 370.7562177434659 855.3948788552939
1614.181499768651 358.98817860316353 44.84810252095191 2391.937422643878 461.0338768210054 599.73316233415
1526.6180820907953 1022.8829330310231 711.7020465126068 2720.04219396599 592.4080892235397 471.08399460515
-2887.691020914793 -11424.807196036307 -3070.5314199677396 2374.0021541459328 758.5416918447247 315.05408213904786
-2122.7983636018052 -6654.161676123874 -1589.5837323813046 -2322.5693719750398 -311.8408606029981 116.24601312150986
-371.383289893553 -154.4421263951566 248.10609499350082 -3044.7929154341637 -176.6810632235265 402.9217178039355
-859.6410442350508 450.9200318341896 27.678655140329774 -3057.009951027411 -27.86865705854421 617.7732346456935
-677.8849791059117 34.21611027592328 -107.4292660701228 -2918.4339951877832 46.32332360176426 910.1484332838859
-410.2831352056867 -29.508161772022483 -70.07459333147544 -2798.4555421845484 68.267962196299 1212.4597882120777
-271.4285348304205 -12.003610780183326 -37.08908847139296 -2581.564250771117 74.25235928402336 1520.6686522047924
-141.39435937934815 4.515706390202652 -2.442519845338886 -2266.3525522199507 79.68191973590383 1835.6988615716045
63.44360718420353 0.9089054834619219 51.84326373677261 -1823.2063824867553 100.40370505631027 2163.839910941352
250.05770242905675 -97.11487671964755 63.49135891738893 -1098.1746286421576 194.37236916694286 2540.2014602667673
256.1277747865886 477.61144864249684 177.1299059874586 -68.03288729542007 315.9728734424449 3080.2931978381557
1154.319548743297 3387.8175531471193 1204.690898305886 -14.200190157472377 8.403538607176003 3776.2903345655586
280.84609461475884 479.0423511749018 182.96393062516992 38.66467065141772 -298.2826687120717 3079.9367973156795
302.46038693861254 -94.20188258795652 75.44351417276908 1065.846052288741 -174.1063461030572 2539.399626349263
149.22592333414184 5.394231522475565 70.32572390601973 1785.7394881900675 -76.14016019958804 2162.3896854488394
-14.333587517484148 10.579244420873032 22.740910657391154 2221.189431314426 -50.61853877140631 1833.2031851940299
-94.12479968909156 -5.107887921355456 -6.076408445715781 2525.499123287799 -40.836274583961895 1516.5183813762537
-174.51569042692824 -23.910602651401494 -36.43671772127799 2727.068901084111 -33.14896936401547 1205.5914738591016
-405.1039086684291 30.745942357195794 -87.71622209867184 2825.1112305749684 -13.639480708755533 900.627366056887
-619.5189570889183 496.72267828997957 26.52674919735667 2939.2551100814203 54.86918270044796 612.5388208634076
-178.34585944907536 23.82942210074131 280.23515959797015 2975.4412970152102 199.3393464729765 414.20796803221606
-2162.723339903681 -6973.63197827669 -1692.4028496532665 2300.390842214653 340.0051511653744 182.1993090757689
-1666.8330342854706 -3330.685908428487 -586.9380274746521 -1765.1651122564017 4.578007925014964 91.78776908617779
-1566.142294894364 -443.2650760657505 80.59719282379838 -2560.5186093617344 165.52855864459386 312.6333080152763
-2887.219580230072 361.49917756474076 -53.91646506484347 -2812.9008309558653 375.5227959239961 571.1288716645479
-4016.5363347467182 83.52332078493242 -281.7478689720117 -2621.6283216999927 445.4426914977018 857.4517877755263
-4965.127181146486 8.721609847764885 -361.3286652752185 -2469.664297977032 424.1285828797467 1144.963931656705
-5948.4615311534135 26.5938227471808 -423.97989541842355 -2276.009754222003 364.0443389324044 1433.2718660331682
-6926.257357447335 35.60332475477307 -497.3951447231433 -1998.5284269199842 286.5075796714572 1729.506707220346
-7712.726338030068 102.23865966039759 -519.2270782693785 -1603.7593613252182 194.3527514258233 2027.0006293158233
-8282.226167892222 -67.23451247780838 -607.1740518537705 -1019.3745494864701 172.99792755661767 2344.5006860563526
-9174.61105321216 171.24083764445695 -821.5380015624462 262.0395259566645 353.6184325983966 2784.0465996256526
-7501.529578326695 6130.771327697384 1236.27655122556 -12.78162747110818 13.534503474759203 3691.8165312388496
-9149.335024329657 172.92194339478252 -814.4003225381867 -288.48785135155873 -325.42785045434806 2783.8096987137524
-8229.184542729772 -63.85450496666133 -592.6494648486793 990.2244370324266 -141.56032970669992 2343.9529672485914
-7627.449331395848 107.30958525808273 -497.03246452379676 1569.938509367132 -157.96583990797166 2025.966698901749
-6803.604139581248 42.15000455608258 -467.73650577580565 1957.7371012952167 -244.42802591040987 1727.6516495297901
-5784.724786446581 33.74197502448147 -388.39336074757074 2225.183988185243 -317.4636918097073 1430.0103238545175
-4765.287717481465 12.166345399083554 -325.867340407661 2404.559882458496 -377.45194891524807 1139.5152343335637
-3811.9310721347274 84.04310589422126 -259.69538536315025 2538.4119494428714 -406.9177679294023 850.0633335419594
-2727.1429627912216 405.4747948393926 -47.030937009436464 2732.247798642985 -353.9784026257865 566.1584959564816
-1460.189460379285 -344.13210916366575 90.78224125281363 2541.416242766133 -156.74200967288567 326.49418927708047
-1699.6537220377145 -3522.3824962114495 -662.5516048960061 1777.784007192727 4.95722111009141 153.4681329435557
-1552.2370602243254 -1332.8587194949555 10.014715651488359 -977.3222068776574 282.6405948344345 134.5072555133976
-2511.8581662037764 -414.3015054082923 47.219005109296035 -1475.2335167574006 515.490675819701 224.4305612225538
-4878.876100785246 207.97898313008054 -187.8102196802301 -1689.8931837171504 822.071282996769 448.74218973696594
-7347.408802696802 88.9363643810064 -517.4039085435784 -1571.4399357188486 887.9165221588099 677.1164425345775
-9586.602069734396 30.157777232632434 -741.4660489343702 -1462.8415071574432 814.9236599692516 899.6047764864697
-11740.562504228297 32.40984472797602 -933.0142303171092 -1341.1357651068427 678.4890622025746 1121.2294665222425
-13819.179578817986 50.88722427030095 -1120.101293241859 -1168.7716144938377 500.4633343783104 1345.3695600329966
-15818.0601143045 30.020872213951336 -1338.1189035424536 -936.4649061018421 296.34998407822394 1572.8789966978545
-16957.112241942243 330.1455166541443 -1304.0520847845246 -543.3721977863368 3.086543192008694 1762.7745630430886
-19143.265894161865 -1155.0126168716881 -2401.4139680352314 276.20852907108906 138.0749452365177 2014.2420316443208
-15845.678418015716 9787.559038270976 1333.0022585415034 -8.086810294535212 19.464651036366703 2676.896255791552
-19116.835190173693 -1153.0794255083465 -2392.854188785203 -292.9377292349851 -97.7206243470296 2014.3168529327845
-16902.224244151228 334.0080124471354 -1286.729093846717 524.9541678787401 41.38003024154834 1762.8851429724145
-15731.447380498425 35.72356920305444 -1311.9127714992703 915.1548450226636 -245.66648830472084 1572.9271356679822
-13698.33766237462 58.07918934625152 -1085.649631353301 1143.195737575389 -442.7685706684253 1345.1495679666025
-11588.30900067569 39.66120630144101 -893.2356523174409 1309.5310501444392 -615.6193625411019 1120.362346489973
-9419.846553854313 34.444010042955966 -704.0396188675759 1422.6649164246317 -753.5189568499496 897.6201881802695
-7202.593900871602 93.8441615921468 -493.6235156895226 1522.7837235872082 -841.3051301803687 674.0703994914996
-4789.149312725879 238.63598128493703 -180.3799391345376 1650.6582824647514 -804.3028272689415 447.43917443688383
-2472.5586870871075 -368.6055980756226 44.46820127058698 1474.8544622055756 -518.936183225451 234.2645910084942
-1577.89062419873 -1415.90175031879 -32.31637959141855 990.206010469217 -289.4408896374396 174.49830125720922
-1355.87426718386 -575.551267449051 420.0399622159115 -481.8845953056981 565.841504736253 162.34002855606084
-3044.419995926265 -372.97298977865523 131.37823948105523 -691.0276081286418 915.3837404158921 187.70435941270037
-6972.29141653727 -293.8741041419949 -550.2979333225943 -776.9131243206159 1358.265052984018 372.6635275545435
-11200.478839697038 -761.6697297773798 -1314.2813719118558 -746.999367494724 1418.0853783571497 554.6257376389464
-14893.715773347209 -1131.2562627417524 -1880.9286023406578 -694.6178186080094 1278.2392808644681 727.1625905092426
-18384.97011696121 -1435.0048566060377 -2384.213527791835 -623.1893014910939 1043.5440092386175 897.8844952375264
-21773.705774183047 -1697.5294695992707 -2873.8125225054696 -529.5327847179724 736.7258408971956 1071.0433019031625
-25060.0716458646 -2088.108744575369 -3433.544505598781 -388.15030700677846 372.4163663168482 1229.4074068331533
-27989.417381453513 -1946.794177372748 -3836.1775106341693 -189.94439867426968 -150.81517322136273 1416.9360312338817
-30582.036465755562 -4622.946087598348 -5392.570587380317 527.8901441199562 -1095.09053291036 1272.5065174354609
-24735.823952361665 9777.885786347031 -589.4454303238572 -5.2253576964271815 27.065450564875846 2624.2729418486224
-30552.884208664458 -4619.929396170457 -5381.977431879954 -538.6849772094547 1151.0694617993404 1272.65922120724
-27929.585973306137 -1940.8872939498108 -3814.925941113972 178.12541416179533 212.12617525817578 1417.1979007316966
-24967.54920328618 -2079.7069353177053 -3401.89070530142 374.6491569266271 -303.049240281472 1229.679438033269
-21648.77417072119 -1687.7191356541646 -2833.3237512649057 513.7577147434974 -658.275070192517 1071.146088816809
-18237.290185966667 -1426.911673377604 -2340.1781331911234 604.703903958797 -958.4209366204939 897.5520759802854
-14755.177684129187 -1131.0251481948312 -1846.02790273466 673.2228753253939 -1195.6207351239868 726.2145609069448
-11126.220168590553 -771.770051128357 -1306.4285899733075 724.251326856134 -1357.7393746232342 553.4424243971106
-6987.130789698005 -297.5940255970597 -572.2392261835676 760.5483080348249 -1343.5171548810195 373.4263184275804
-3093.226337633853 -369.5171730791982 101.87091521540603 692.0109026644275 -937.3311226200901 194.46087387807688
-1415.68380256092 -626.0781931839851 384.42291450346374 485.791824765705 -596.7423696932419 189.01985591986448
SCALARS Strain float 6
LOOKUP_TABLE default
0.018292925237341863 -0.06798218001783374 -4.153849573335089e-18 -0.03851286240994641 0.01587756569976072 -0.020007612967983583
0.022025302154183565 0.0070668816072205366 -0.0025484208635414797 -0.01710816484569507 0.0165266643576645 -0.0006804023494007314
0.030691251636188317 -0.009584996319156389 -0.006721291114200156 -0.0080652525958395 0.016145403570570805 -0.0056124479111313895
0.04316058291570527 -0.011259814219321136 -0.009449541432218853 -0.008317062022696633 0.014365884754926327 -0.006089719309407585
0.05858761544211749 -0.016195875904018595 -0.012498367169273923 -0.007838603634949039 0.012837898260506608 -0.008363814886006049
0.07423296333401407 -0.020524923943254413 -0.01543247428513281 -0.007112122388296664 0.010083430908038577 -0.010313643173160431
0.0894931320486411 -0.024895983779803305 -0.018192568942927357 -0.005940830331487874 0.006289152442977916 -0.012317179344197852
0.10384252182113801 -0.029089529657937405 -0.020607832354908845 -0.004330532898612795 0.0015329012067509902 -0.014285910552566982
0.11588260218936561 -0.032731174942834396 -0.022431397256769035 -0.0022539226654914373 -0.0031034211474108616 -0.01631540633109381
0.12354685715780032 -0.034849273734124525 -0.023437098667012806 -0.0004187910773765448 -0.004418420558499641 -0.018496023906925153
0.1260367194738352 -0.03496957132617285 -0.023714006991743888 -5.129456550489954e-05 0.00010621090330841392 -0.019983386500192157
0.12364079613905153 -0.03487920191006044 -0.023459229172755492 0.0003135386891840086 0.004628976829778848 -0.018501183512078183
0.11608854383686953 -0.03279662290575493 -0.022479146492537204 0.0021406838132551824 0.003307814792185037 -0.016325633794996842
0.10419899049277169 -0.029202291798314503 -0.020688951112773482 0.004203796125493354 -0.001341326571692614 -0.01430146821109713
0.09006425596006198 -0.02507483312430062 -0.018320182852772763 0.005795520070924519 -0.0061202379053827945 -0.012335964366729015
0.07511317528368645 -0.020798453259883585 -0.015630537085070936 0.006941082246867676 -0.009958867144625096 -0.010343168202239291
0.05991036958589351 -0.016596954507389666 -0.01279610524420674 0.0076425648851577 -0.012758223797144266 -0.008366642174010135
0.045105122862936796 -0.011835959737436303 -0.009946000482377348 0.008039521904756774 -0.0144577860469668 -0.0062456137869751575
0.03383290910374393 -0.010411874024088632 -0.007316262982035824 0.00772919514986933 -0.015892599408411468 -0.005094788328914407
0.028787133482062112 0.005918112765573733 -0.004367885051277263 0.017750985192593875 -0.021250916927368153 -0.0037429489519843024
0.02783916749592442 -0.0717420693235574 0.0057261147807223115 0.023149716978496337 -0.02783554517212074 -0.0077600970011054106
0.011236363823881844 -0.05901726846202128 0.004749218176551387 -0.024719800336811433 0.013118294069378485 -0.011501194991545071
0.010147467687138482 0.0047192825099739285 -0.0016666449168088265 -0.020482502421795338 0.010984345146942015 -0.0034497205058059803
0.01620155038438312 -0.005879204187728103 -0.004346689162070691 -0.017041949975854294 0.00996629811569583 -0.0060473447895528845
0.028139303636030337 -0.00903097077535168 -0.006720455729678348 -0.017260475975881102 0.008811911202365578 -0.007842050413963434
0.038209109663539326 -0.01274262155173988 -0.00889541530383111 -0.01687221887623013 0.007646964271918152 -0.010404115096846451
0.0486347098667648 -0.01627742257588417 -0.011050084142595973 -0.01549738832828234 0.006025925104842359 -0.012958958545029594
0.0587651859704474 -0.019763978269405628 -0.013044829305950882 -0.013465260667630574 0.0037705517430484405 -0.01552846480168736
0.0682901838051708 -0.02316748833846289 -0.014783205188134127 -0.01050112921928161 0.000986805283304139 -0.01818041319023106
0.07632073308914519 -0.026115466730637745 -0.016104991755639276 -0.006202984673061501 -0.0017548824437457426 -0.021199149803602463
0.08149484342618948 -0.027401100433343206 -0.016898825495229128 -0.0016326176041478132 -0.002617132801218539 -0.024985996806995696
0.08320717373286708 -0.02640371450471299 -0.017197795023564864 -9.14563945825368e-05 2.5442024989127722e-05 -0.027923103077878896
0.08159360841444195 -0.027432239187476823 -0.016916963871188146 0.0014438805128797801 0.002662951007572888 -0.024986538234534894
0.07653479312584036 -0.026183012845916544 -0.016144826288119904 0.005996482173242145 0.0017853372253143938 -0.021199541066959468
0.06865400290685865 -0.023282316603424547 -0.01485243023421973 0.010263949374266008 -0.0009821643743775262 -0.018179186491850886
0.0593338802799816 -0.019943209111683 -0.013157176952792974 0.013183017031445277 -0.003803411060034149 -0.015522586202815063
0.04948823552379256 -0.016546418529197682 -0.011226302528020524 0.015154023719236673 -0.006104016454356736 -0.012946094904616423
0.039452557632647836 -0.013132649523806609 -0.009175951961480544 0.016450974375622526 -0.007790046730229659 -0.010370633926134137
0.029935857254019118 -0.009572470915269535 -0.00713744172221094 0.016691806760141054 -0.00895775440755717 -0.00783522301358171
0.018779779193586203 -0.006628160768594297 -0.005082463620723723 0.016164253491951552 -0.010378630330623475 -0.005811876872397963
0.01247521859179045 0.004421000818884793 -0.002339748897230805 0.01931928921096837 -0.012561217369989714 -0.004948104395731449
0.01286097225563521 -0.06191315712717352 0.005900658621333469 0.015468926402799342 -0.015532631784205457 -0.00467138856686388
0.005793938041515825 -0.041064773944511815 0.005193075425160813 -0.029022583673576074 0.007988064385287425 -0.003809186917913302
0.0034024434372399944 0.0009847886035205156 0.0002488582168611938 -0.033270306286993956 0.006251495474432641 -0.005361311637523919
0.005034461691044348 -0.00018358475584287482 -0.001876725401676291 -0.029019502004065317 0.00492638141115549 -0.0069043294524160385
0.012307712564976361 -0.004073051164225358 -0.003257038731806878 -0.029513995997349423 0.003995108777672432 -0.010001824225299596
0.01824452217960306 -0.00604045924031577 -0.004453474952397559 -0.02851161495387118 0.003267431482531942 -0.01319991449293369
0.023604475803631453 -0.007886813172364697 -0.005587218894358133 -0.026317588508225704 0.0024727072653015214 -0.01655937039999703
0.028884939324543293 -0.009674758953122885 -0.006635683890116178 -0.023055175572688724 0.0014063294286952974 -0.019949482361053077
0.033984105019989566 -0.011549902679321494 -0.007541440332767086 -0.01831403309583391 -1.3676466425529062e-05 -0.023525472087624188
0.038338351856199694 -0.013228601388218967 -0.008252608454640141 -0.010998705999166069 -0.0018187232587473239 -0.02773632299377523
0.04057415824983106 -0.012637699486523511 -0.008777130031961683 -0.0023738513049789893 -0.002779964442521382 -0.03348551366682498
0.04097143556815639 -0.008370503202703236 -0.009117408828735487 -0.00014614838884284683 -3.910286071172999e-05 -0.038898586679060695
0.04067435216724784 -0.012670773182094763 -0.008790795604277146 0.002071858131507607 0.0026940377272426574 -0.03348249659212215
0.03855346025155849 -0.013299403066673939 -0.00828317256393624 0.010667051338324813 0.0017100200370784094 -0.02772938520033412
0.034343843867462254 -0.011667643106552755 -0.007595940425171531 0.01793084558308836 -0.00013154755734987223 -0.02351243436527509
0.02943486698165535 -0.009853236521511934 -0.006725980159450962 0.02259515014436539 -0.0015982044592939232 -0.019926815659778083
0.02440684829512453 -0.008146146359923204 -0.005732660073195689 0.025750921139478328 -0.0027151086726364152 -0.016519185034681565
0.019376833038089566 -0.006403932914737671 -0.004682555058024723 0.027801119742206334 -0.003547989518101198 -0.013141016130123003
0.013847870768990163 -0.0045577886608481775 -0.0036188227141398348 0.028564801068269405 -0.004284294071708965 -0.00988456304456549
0.006635691624150894 -0.0006165364537148097 -0.0024315680044064663 0.027640165772856152 -0.00532750257661653 -0.006930249875868167
0.004472189281026775 0.0015617195308809564 -0.00023621448010407238 0.03143159868591542 -0.006845604586608143 -0.005443637271016389
0.006492935839521977 -0.04283262428356548 0.005436524644986215 0.027432913781319092 -0.008765370661346965 -0.0036406249492009395
0.0015570011508821118 -0.02462420909920051 0.0046377967979356685 -0.026838579409487084 0.00360349438917856 -0.0013432872627248832
-0.0017754776909996092 -0.00052203985745432 0.0018037943105839254 -0.03518427368945818 0.0020416478416881087 -0.004655984294616792
-0.0044587584459192 0.00311337221582232 0.0006679775949440037 -0.03532544832299946 0.00032203781489717546 -0.007138712933690304
-0.0029152045883307793 0.0011991572614674939 0.0003807617536903656 -0.033724126166653205 -0.0005352917393964078 -0.01051727078463491
-0.0016907035941394581 0.0005093295857481722 0.0002749457589475904 -0.03233770848752952 -0.0007888742298210089 -0.014010646441566575
-0.001140892111383304 0.0003580074498253457 0.00021306913427671039 -0.02983140912011068 -0.0008580272628380193 -0.017572171092130245
-0.0006311836237754029 0.0002118523118350729 0.0001716492268993016 -0.02618896282572759 -0.0009207688502883807 -0.021212520178142694
0.0002116353618413667 -0.00014967624798186866 0.00014461115527728555 -0.021068162642083308 -0.001160220591757408 -0.02500437230422098
0.0011561989234137927 -0.0008496870894506331 7.826004979999324e-05 -0.012690017930968397 -0.002246080710378158 -0.029353439096440316
0.00026535719283916903 0.0015450406418686304 -0.0001910749379678662 -0.0007861578086568549 -0.0036512420931221153 -0.035594499174956454
-0.0009930354964739732 0.011911619640326684 -0.0007020010322949567 -0.0001640910862520023 -9.710755725720837e-05 -0.04363713275498704
0.0003655298225131467 0.001510663749370751 -0.00020001156938731412 0.0004467917496283433 0.0034468219495308854 -0.03559038076895841
0.0013692795442705687 -0.0009225469018440116 5.762650164747559e-05 0.012316443270806532 0.002011895554971615 -0.02934417346004393
0.0005622663853646049 -0.0002687611674057133 0.00010639856645105875 0.02063521186345289 0.000879841851207089 -0.02498761414297074
-0.00010813170684689745 3.5809099886762946e-05 0.00010607650483803621 0.025667077872884813 0.0005849253369107068 -0.02118368125114268
-0.00040342004791177777 0.00011089988672992462 0.0001053039903957107 0.029183545424624077 0.00047188583963485634 -0.017524212407020835
-0.0006951621969645306 0.00017500053244465366 0.00010262742312452971 0.03151279619031541 0.0003830547570999237 -0.013931279253507834
-0.001724501443326333 0.000793742140385477 0.00010929407908654828 0.03264572977558757 0.00015761177708366715 -0.010407249563331491
-0.003451083490386516 0.002998312625143487 0.00028162503483198395 0.033964725716594674 -0.0006340438889848263 -0.007078226374428054
-0.0011980677064826052 -2.9943857533829937e-05 0.001451511514682611 0.03438287721005438 -0.002303476892584551 -0.004786403186171534
0.001942609371008879 -0.02585375165079329 0.0046600166480170145 0.026582294176774234 -0.003928948413476921 -0.0021054142382465092
-0.0021846482378427923 -0.011798020399535461 0.004054745134836814 -0.02039746351938875 -5.290142491484618e-05 -0.0010606586649856526
-0.006477075244098875 1.0659798022545656e-05 0.0030374195738307594 -0.029588215041499038 -0.001912774455449119 -0.0036126515592842605
-0.013242197306585745 0.0055281777384502285 0.003127998469935831 -0.03250463182439053 -0.004339374530677506 -0.006599711405903443
-0.0175869732013037 0.006102260364012389 0.0039918046009655836 -0.03029437171744708 -0.005147337768420709 -0.00990833176986766
-0.021597089175654366 0.00714070383901301 0.005002635582732061 -0.02853834299890434 -0.004901041402173096 -0.01323069432137059
-0.02590775870826124 0.008614783336542007 0.006011468520460812 -0.02630055715997342 -0.0042067345832385306 -0.016562252674128856
-0.030167643606507602 0.010056440335167083 0.0069768936226047434 -0.023094106266697327 -0.003310754253992339 -0.019985410838977362
-0.033722799166453994 0.01143033193131338 0.00783964100107883 -0.01853233039755069 -0.0022458540164787917 -0.023423118383231533
-0.03591068266042197 0.011553713570848207 0.008434062898922335 -0.011779439238505664 -0.0019990871628839087 -0.027092007927779133
-0.039908986240196814 0.01408926912928403 0.008353213613802082 0.003028012300046617 -0.004086257443365449 -0.03217120515120906
-0.0431628619645187 0.035601543270572085 0.007322240117367532 -0.00014769880633268767 -0.00015639870683852727 -0.042660991027657066
-0.039808406713749224 0.014053522433184393 0.00834899378551497 -0.0033336373935295735 0.0037604996052118755 -0.03216846762956413
-0.0356988148968219 0.011478647543616433 0.008423387775390326 0.011442593494517048 0.0016358082543767546 -0.027085678732671006
-0.03338014430051886 0.011309573884487653 0.007817819819201481 0.018141511663728117 0.0018253830389318732 -0.023411170742845336
-0.02967079195208693 0.009882454214047067 0.006936443265484467 0.022622739837123033 0.0028245016327294484 -0.019963974616803173
-0.025237019425492044 0.008380788529663962 0.005941784367477094 0.025713237196776983 0.003668469327573401 -0.01652456374231801
-0.020760788528830457 0.006842279390090871 0.004889195872084685 0.02778602530841859 0.004361666965255672 -0.013167731596766988
-0.016707712836896895 0.005802360191730743 0.0038163155755989186 0.02933276030471554 0.00470216087386806 -0.009822954076489207
-0.012598560533981548 0.00550100873236562 0.0028865311705652042 0.03157264122886496 0.004090417097018708 -0.006542275953277016
-0.006151931111150734 0.0002964002514471981 0.0028092387205201044 0.02936747658316094 0.0018112410006735945 -0.0037728217427778258
-0.001974104407583518 -0.012505426213961385 0.004018041158136021 0.020543281860946158 -5.728344393239268e-05 -0.0017734095362675253
-0.005135039373643154 -0.0038675200716491477 0.0038913042202916967 -0.01129350105724165 -0.0032660690958629924 -0.0015543060637022335
-0.010674370738280422 0.0014448455240891453 0.004111408473742641 -0.01704714286029847 -0.005956781142803129 -0.0025934198185690225
-0.021710785465861412 0.007679932796751391 0.005393150736071047 -0.01952765456739409 -0.009499490381288807 -0.0051854653036217295
-0.03208386017531925 0.010881689678905182 0.007378390324223888 -0.018158861479420342 -0.010260368700516945 -0.007824456669296997
-0.041658709281005915 0.013904792057026962 0.009446521061406577 -0.016903946304967037 -0.00941689562634162 -0.01039543297273809
-0.05097947194914503 0.017042146067118586 0.011464140300148076 -0.015497568841292431 -0.007840318052150401 -0.012956429390904061
-0.059992957147260724 0.020145206603948237 0.013379495169440168 -0.013505805323077094 -0.0057831318639494 -0.01554649269370772
-0.06855835868851129 0.023008331455851815 0.015103523862603748 -0.010821372248306572 -0.003424488704915148 -0.018175490628503974
-0.07406640120670634 0.02581553250968179 0.01637350192356148 -0.006278967618855785 -3.566672133634813e-05 -0.02036983939517501
-0.08033927963863817 0.023592850407910912 0.016391420378991124 0.003191743002668058 -0.001595532700496514 -0.023275685698985787
-0.08525265247585073 0.06285049727184952 0.014001946988691515 -9.344758561826417e-05 -0.0002249248564375404 -0.030933023400253123
-0.0802358004706108 0.02355478839190806 0.016391645315186033 -0.003385058204565753 0.0011292161035046425 -0.02327655030054499
-0.0738507018654721 0.025736417839299867 0.01637215900295782 0.006066137050986377 -0.0004781692383905097 -0.020371117207701107
-0.06821595831028861 0.022883251621277842 0.015096908319520473 0.010575122653543666 0.0028388127537122445 -0.01817604690102775
-0.05951140679903087 0.01997011278873396 0.013361901824704488 0.013210261856398165 0.005116436816593526 -0.015543950563175878
-0.05036549629725959 0.016818331565298977 0.011428260826662765 0.015132358801657576 0.007113823744918345 -0.012946409337216904
-0.0409731905387613 0.01365159938605732 0.009384805085683358 0.016439683478686882 0.008707330168061411 -0.010372499952330623
-0.03147848930958055 0.010678708384709894 0.007284450693761763 0.017596611917038745 0.009721748170998436 -0.007789257949678439
-0.021362782779471234 0.007686643363763426 0.005265662490221085 0.019074273486324247 0.009294166004029951 -0.0051704082379475415
-0.010556966524671134 0.0015992068785380057 0.003985855496980675 0.017042762674424068 0.005996595895080152 -0.0027070574961094466
-0.005081889712125131 -0.0041459539963799264 0.0038480948122886476 0.011442380565452255 0.0033446502802746895 -0.002016424814548339
-0.00581875944715804 -0.0013102265598135179 0.0044420783226827455 -0.0055684442124167444 -0.0065386129436041 -0.0018759292188621195
-0.013208629203703106 0.0022263979429107527 0.005140427267515618 -0.00798520791614915 -0.010577767667017722 -0.002169028153210476
-0.02986239913463273 0.008724012003632932 0.007242452101685989 -0.008977662769917823 -0.015695507278916696 -0.0043063340961799305
-0.04701197115193198 0.013301148149789076 0.01010828088412568 -0.008631992691057667 -0.016386764372149077 -0.006409008523829097
-0.06217804583920834 0.017338386888694636 0.013006946704382176 -0.008026694792818045 -0.01477076502338941 -0.008402767712545858
-0.07661868711842257 0.02131444549701933 0.015830128730132956 -0.007201298595039641 -0.012058730773477406 -0.010375554167201444
-0.09067690300693776 0.025318782308470286 0.018522480225025173 -0.0061190455122980495 -0.0085132763837348 -0.012376500377536615
-0.10401589187034414 0.028711004892767754 0.02093737605125861 -0.0044852924365310475 -0.004303478010792532 -0.01420648559006591
-0.11668678166696195 0.03378170795676279 0.022865270920053967 -0.002194913051338116 0.0017427531127650324 -0.016373483027603372
-0.12256613983673173 0.027419715681476154 0.022972996349442464 0.006100063887644333 0.01265437949145165 -0.01470451975701841
-0.12218824915180553 0.07722429600536163 0.017324160086526815 -6.038191116188138e-05 -0.0003127563176444487 -0.030324931772457056
-0.1224547207121924 0.02738012931548517 0.022977185109184547 -0.006224804181145975 -0.013301247114218036 -0.01470628433393641
-0.11645707556796332 0.033699850134948535 0.022872071284713053 0.0020583381191654946 -0.002451235803073756 -0.016376509075108285
-0.10365808849382507 0.02858277794333988 0.020943493939037834 0.00432927914669681 0.0035019023320755744 -0.014209629061696639
-0.09018871690960542 0.025141823293105832 0.018522774402892173 0.0059367558148011625 0.007606734144423753 -0.01237768813744218
-0.07603183664007236 0.021094794766064517 0.015818144109414102 0.0069876895568486965 0.011075086378721696 -0.010371712877989266
-0.06160916341721341 0.017108162346074 0.012977035319850089 0.007779464337109187 0.01381606182811984 -0.00839181270382946
-0.04667893589458789 0.013146775895322827 0.010057637670872862 0.008369126443690634 0.0156894327734591 -0.006395334681926085
-0.029894136951904973 0.00875651990741225 0.00716968097070131 0.008788558226205041 0.015525087123144344 -0.004315148568501261
-0.01339081093457658 0.0023461753495478315 0.005069750970801725 0.00799657043081985 0.010831381861444318 -0.002247103431485517
-0.0059697209731507505 -0.0014075552300821374 0.004430895614347086 0.005613594419532759 0.006895689605375479 -0.0021842294461985653
0.017111262526882994 -0.04374799024387363 3.869246503057644e-18 -0.019809750433058507 0.010568355567382622 0.0037384779147733496
0.021691472354981357 0.0021896894837093723 -0.0027147018922490667 -0.008855760611079549 0.011403419790407657 -0.0011717562980478257
0.03173047232115049 -0.009714558624606755 -0.006148513380179732 -0.003164720553629455 0.01069607456489266 0.0002927584007242892
0.04426113589202288 -0.012159019264178084 -0.008746933911022176 -0.003439950671366004 0.00950444152292282 -0.0002002385551381764
0.05866448986560125 -0.016710676310515787 -0.01128134290718055 -0.0034163975660677194 0.007254136942400682 -2.054937906843768e-05
0.07320777895965723 -0.020960053920594524 -0.013583077612415157 -0.0035036951764376083 0.004338904942718714 1.3978967928899995e-05
0.08743964365927666 -0.02526838632862463 -0.015568646659698211 -0.0035847847613396057 0.0006746255925665174 6.55983756535953e-05
0.10129279166388529 -0.029542806534734727 -0.01709244900666682 -0.0037756156062222993 -0.0033727041253314364 5.198185900657823e-06
0.11473764469759978 -0.033922590947196345 -0.01798170632188548 -0.003967140119980916 -0.006521860923338537 -0.0004256983508374066
0.1264291644362403 -0.03840759774332537 -0.01818054516109072 -0.003194316897446212 -0.005959206046732249 -0.0016352326990059522
0.13151656072074022 -0.041202163657136644 -0.018076958068815974 1.0752654985878409e-05 5.6417148441392776e-05 -0.0029019826123737893
0.12646078072767386 -0.038415385461146354 -0.018196760351389483 0.0032156544780551416 0.0060656946004344365 -0.0016426765086585402
0.1148055454787687 -0.03393868822651143 -0.018017491809445535 0.003987689686901082 0.006608364984838613 -0.00044032278352491703
0.10140811662690591 -0.02956854492746029 -0.01715532398707838 0.003793743636542419 0.0034223195022051196 -1.5188483996746297e-05
0.08762466146477403 -0.02530665508134372 -0.015671891181673458 0.0035974656366553185 -0.0006879753546987295 4.1344773611974864e-05
0.07350354094226436 -0.021017179359068338 -0.013749691946580286 0.003504390153513012 -0.004454822128753336 -1.281151658298316e-06
0.05914865534040132 -0.016799179133059707 -0.011545695066126594 0.0034029316899268514 -0.0075612062036054814 -4.199391320330636e-05
0.04505411091363435 -0.012300691545558722 -0.009179584128661001 0.003374026328577641 -0.010033493026723869 -7.766171887508018e-05
0.03319125570977958 -0.009993403335912423 -0.006761082387834047 0.003042393808847458 -0.012077868969978171 -5.7809349598752835e-05
0.024966350093519454 0.0015905248387209259 -0.003835438959138875 0.0087815038075192 -0.01020486900452276 0.0013822666864717697
0.02172136417850307 -0.04450222954167126 0.0016379447497670051 0.011705145875548642 -0.00862121149339902 -0.006887377798049781
0.010243057962836786 -0.038514493183040295 0.002040385289714952 -0.012712451465329622 0.001779858149344026 -0.00035031657923825755
0.011375927287059181 0.001241977179076413 -0.0014338217574049465 -0.011044118067588747 0.003834650174580746 -0.0010649174680669275
0.01874362588954374 -0.006659517551536123 -0.003900095734172037 -0.008695312954045124 0.006523704153721644 6.991773402742923e-05
0.02957608024597693 -0.009779837414273908 -0.005950420726244587 -0.009028657542380544 0.0054706207693984675 -9.41689296966634e-05
0.0390636648494335 -0.01324493263698837 -0.007743380707895153 -0.009297953252759953 0.004076587049754085 1.4802649077741243e-05
0.04875883421880052 -0.01666000560303004 -0.009368680336324453 -0.009349132467994778 0.0022215742922974983 1.814638950975477e-05
0.05822735083941778 -0.020066993114435303 -0.010748486415347544 -0.009429593606445514 4.3718820708781334e-06 -8.922543974458534e-05
0.06735651512888106 -0.023401893396437768 -0.01180178145281763 -0.009681288333428033 -0.0023773315376892103 -0.0005123133567303728
0.07601561603376542 -0.026805983103840685 -0.012429168298703455 -0.010037305706045165 -0.004221442509169552 -0.0017391965909513605
0.08336137639313304 -0.030830401808465857 -0.012602405178788275 -0.008235626738867003 -0.0038905557898426184 -0.004416084320022155
0.08652140060138121 -0.034386338525107016 -0.012552413549423271 1.5565396654272745e-05 -2.1735788290325754e-05 -0.007082108419942204
0.0833923781263118 -0.03083996495836018 -0.012608871734228144 0.008266279217230865 0.0038371921056652644 -0.004417686753014646
0.07608179739620317 -0.0268255631472493 -0.012445291270891003 0.010065905375842175 0.004138047714201742 -0.0017406277415829762
0.06746760154263975 -0.023432568430679104 -0.011834752575384916 0.009704212507104239 0.0022421179772973416 -0.0005090050626912992
0.05840188973233847 -0.020110979137544272 -0.010811480338069671 0.00943947368732833 -0.00021637028813144326 -7.202384869132018e-05
0.04903173823169638 -0.016722402760273335 -0.009483470667167012 0.009332900238456525 -0.0025462153921062213 6.815915966970382e-05
0.0394953882612863 -0.013336173856299816 -0.007948050929496913 0.009238000127441451 -0.004553175690037256 0.00011927679030922316
0.03029558855694152 -0.009916618701075571 -0.0062927935540165675 0.00887798179682746 -0.006210952985832123 0.00014242765091688434
0.01999530268189192 -0.006931160580947743 -0.004485728352156298 0.008310352768194376 -0.00745577475452251 0.0002826473618678746
0.012629742782501036 0.0010863893101388993 -0.0020850508385653506 0.010125789494815986 -0.0040819064261241635 0.0007752977527484626
0.011156434494522473 -0.03886748676105344 0.002082297185879767 0.007545864648682075 -0.0012207133378335107 -0.007265438989990799
0.005678807738991603 -0.02781863850185671 0.002889590911780587 -0.01677829847383703 -0.00028222297564207684 -0.007007062081467581
0.005019600069480794 -0.0003668807444791936 0.00015500742340975485 -0.019179886056563455 0.0008765557774032363 -0.001053091635943338
0.00790156002352286 -0.0017227795934341367 -0.0016278385568270107 -0.015861232417238913 0.0026324740616122384 -0.0003210969104163616
0.014263220965764547 -0.004789036765750278 -0.002871680836427802 -0.016311461853775466 0.002235870515302017 4.454631655760901e-06
0.019491423714654434 -0.006528286139271707 -0.00386360311634872 -0.016488242279347663 0.00141705868009156 -3.4803201270331726e-06
0.024306252567990554 -0.0082223699233064 -0.004710952107909594 -0.016552721114062734 0.0004781318330246438 -0.00010643722830311572
0.028998336188773195 -0.009891229876662097 -0.005408677652305029 -0.01659236894086212 -0.0006070573479371727 -0.0004684149087900411
0.033350822468690075 -0.011373238811990078 -0.005920712405912932 -0.016772646266272645 -0.0018394258491380776 -0.0013745484734528932
0.03753441288582788 -0.01283197542581701 -0.006210273119021698 -0.017355517668642278 -0.0031896528457912073 -0.0035029037617997187
0.04205599221134066 -0.01634606741333398 -0.0062425046796819724 -0.015011300184509493 -0.0035448571891164593 -0.007928596914926402
0.04446879585062492 -0.02260470685331513 -0.006129449322905391 2.2831562978484413e-05 -9.105768169235626e-05 -0.013047123118371907
0.042085929161703214 -0.016359095194214673 -0.006238933276993257 0.015056082679758961 0.0033500397578074396 -0.007924887484117423
0.037597519288994075 -0.012858293566454296 -0.006205900624335183 0.01739662444238083 0.0029570223547775863 -0.0034922416229233957
0.03345431547761003 -0.011413298898372178 -0.005921933524580362 0.016803876950782625 0.001544938812483735 -0.0013490463399061512
0.02915578076256936 -0.00994572379101109 -0.00542727855870439 0.01660095326238853 0.00022838993031888124 -0.00041176471348501186
0.02454271048742388 -0.0082937383500913 -0.0047674530597754256 0.016516105514926556 -0.00096054661206903 9.626585760830288e-06
0.019854607118890612 -0.0066214359109014395 -0.003991192068319691 0.0163704399113154 -0.0020234300227921754 0.0002263767582946882
0.014851575395910735 -0.0049207765857260275 -0.0031238646622994306 0.016043299430552663 -0.0029886760021168406 0.0003863662921826234
0.008652490891359426 -0.0018791591598671471 -0.0020636295453752137 0.015233910233543386 -0.0033942284305763164 0.00044645944670857965
0.005573167784958236 -7.515557007872753e-06 -0.0003534296078318581 0.017912140024042962 -0.0010321268795635604 -0.00033291654665606394
0.006018511992320234 -0.02781275791257933 0.0026033025854540538 0.015324786517607172 0.0006307297337134037 -0.009819265395988857
0.0019249055435766771 -0.017543915323858343 0.0033586427099253605 -0.015864209100021245 -0.0009111811577909586 -0.007682538009745708
-9.064164343972037e-05 -0.0009743842902338666 0.0016267907075464482 -0.021071754817750456 -0.0008701500885249518 -0.001888989640618316
-0.0016177987534727258 0.0014824840085455595 0.0006609476504852576 -0.020035746195734127 -0.000544391515351438 -0.00047660969509450633
-0.0006694555676084942 0.0002814394287695551 0.00029224983828085707 -0.01892538253911563 -0.0007610207771868986 -0.00011790280341185967
-0.0001708653947984625 -2.724459196487924e-05 0.00016023925298813734 -0.018922692238284237 -0.0010222442804190357 -0.00010103243217568053
-0.00013628705359534444 6.60553959277823e-07 0.0001245327534342747 -0.018964731261758225 -0.001160119603789715 -0.00029947929461704377
-0.00018999206103993251 -1.0367215747058738e-05 0.00014428419355119238 -0.019009235913150718 -0.0012551770885908483 -0.0007798513146050552
-0.0005554968764248302 0.00023080981792905096 0.00020626309505237858 -0.018878247047238974 -0.0014991705626792933 -0.0018081935939638432
-0.0007906845010163641 0.0008323319888661548 0.0002804128134800552 -0.01948228738485339 -0.002540404921405282 -0.004015801486471148
0.0015213125002927763 -0.0022575107046240374 0.00039053078386900014 -0.01906866817932668 -0.003926846216796529 -0.008839421838884875
0.003759666608135217 -0.014124891857731739 0.0005976713269244837 2.4826435360513098e-05 -0.0001568614412278586 -0.016751524777458587
0.0015499295826835078 -0.0022739182749452417 0.0004043448870823279 0.019117331693409824 0.003597844191242841 -0.008834171495620933
-0.0007314134150672585 0.0007995240632233616 0.00030581267090062545 0.019526821917895322 0.002166666955559485 -0.004001586253749205
-0.0004613179061214481 0.0001819427317978537 0.00023797354079352302 0.018911671908918053 0.0010550709627273498 -0.0017759104200936791
-5.344962807448707e-05 -7.425308708736435e-05 0.00017220659980674542 0.019017029573401303 0.0007232329465905845 -0.0007113930922779516
5.654097736256887e-05 -7.688311025515738e-05 0.00013081839407727794 0.018919822532850645 0.0005367666558500059 -0.00016035382626434857
0.00011036982931304438 -0.00011927692699707227 0.00011471823468726022 0.018779202764980678 0.00032249420881972794 0.00016485777022759725
-0.00027347078562434894 0.00017088490207672568 0.00014757505529694567 0.01860348766168113 2.985544176687223e-05 0.00036336931174288107
-0.0012145528651379368 0.0014811162052579445 0.00037419398543203484 0.01939004304564782 -2.597316021550954e-05 0.0003004254578337014
0.00016803133325401538 -0.0005919436079772624 0.0012444248063326595 0.020394947517563093 0.0008224550640343613 -0.001420307001207526
0.0020908239402984987 -0.017594483515047925 0.003034736919528043 0.01539361428934756 0.0011926537319238962 -0.009363591080156851
-0.0014808877679264704 -0.00910631834328908 0.003789932985881874 -0.012011426148023408 -0.0015371244665012454 -0.006644485362626113
-0.004764624632819771 -0.0003658909668520115 0.002975440243313936 -0.01785070252966108 -0.002481784237366872 -0.001926285700857769
-0.01050798531881216 0.003972922440741292 0.002899925153562389 -0.0184532102022064 -0.003507326680149774 -0.0004948799254803888
-0.015191491989820206 0.005095887164829635 0.0034354961003002587 -0.016775221477894914 -0.0037481223507753268 -6.06365807055399e-05
-0.019814951450410047 0.006533213946879508 0.004178386849757127 -0.01642806143734489 -0.003488635837130038 2.1888825511825772e-05
-0.02462552247640309 0.008223820579222486 0.004956460016857952 -0.016514210434898813 -0.0028200886691187336 -0.00010904776777852639
-0.029341836211651914 0.009919968429812702 0.005695956454830879 -0.016553665695162777 -0.0019430969686754453 -0.0005091665954714713
-0.03421872568143307 0.011582425461776947 0.006337928432810671 -0.016405770683230004 -0.0010831364724649506 -0.001242732617018994
-0.03916441140261309 0.014336554900258515 0.006770981292300971 -0.016130537707490067 -0.0013526513299976996 -0.0028085932673968944
-0.0392389887459253 0.013611803573467784 0.006893064593695336 -0.020393332624937702 -0.004179320490920147 -0.0064607671992367435
-0.03693267028935587 -0.00845308874817333 0.007095799846370558 2.3377489402871924e-05 -0.00022407088673604032 -0.017520608477601583
-0.0392116395689709 0.013591904739696709 0.006917251042320059 0.020439348470427585 0.003713096601989799 -0.006457842844562719
-0.039108906183255944 0.01429705196984071 0.006817723808185827 0.016173310956591178 0.0008340669233953026 -0.0027995067230281753
-0.034133831127725785 0.011524433854630034 0.006403152240119482 0.01643941191440479 0.0004845570719089197 -0.0012195820094517806
-0.02922646923867595 0.009846397323528766 0.005771421523350721 0.01656549400898649 0.0012512821206296387 -0.00045595984041347745
-0.024477260420987208 0.008140138509123573 0.005026940621893016 0.016479119237584598 0.0020484106473287254 4.685334199781835e-06
-0.01962787657168651 0.006444677916339657 0.0042174174439634764 0.01630093958996921 0.002690857788384913 0.0002518792731351013
-0.01497733667190997 0.005024646986490554 0.0034022742089421516 0.016482116942694695 0.003036994285046269 0.00036943913581223933
-0.010334079364093827 0.004025966423787074 0.0027527248050574463 0.0179999020577096 0.003083688038930629 0.00013506291142181216
-0.0046590617090945 -9.788688049266972e-05 0.0027201954943941657 0.01756002594085773 0.0024973762992251164 -0.0016038139334400086
-0.0013977062211424232 -0.009152031202858698 0.0035101138779505487 0.011902889621993486 0.0017690963731883276 -0.007759325660645506
-0.004357757425177511 -0.0036159043793353644 0.004396738372587105 -0.006281381547997198 -0.002754693339415126 -0.004313165363542635
-0.009088113684638143 0.000899281039024207 0.00425901107375388 -0.00998000752011058 -0.004591878853666806 -0.001310977917320112
-0.019160983054394967 0.0063586431999353024 0.005037899334795941 -0.01064525652566158 -0.006780950700017399 -0.0004518752607143725
-0.029543154002974976 0.00992616221312097 0.0064552997309708935 -0.009543977906699192 -0.007037398299470288 -7.147172630352826e-05
-0.03946115210584429 0.013296853404679532 0.008041886516938343 -0.009232264430747483 -0.0062096288129898924 3.302677503694939e-05
-0.04912906012632239 0.01670424585880848 0.009600516210644443 -0.009306026447796559 -0.004647292788891732 1.857982150632957e-05
-0.05861388809675586 0.02009962732370733 0.01103303009183847 -0.009392481761744668 -0.002624711556881715 -0.0001169314263194682
-0.06750127035679837 0.023517348351773885 0.012230044615823086 -0.009218116127674493 -0.0005641721940284825 -0.0004734364238151067
-0.07724932118252055 0.026548259107661294 0.013021351693634864 -0.009509038153774532 0.0012635978655805434 -0.0007425581525724759
-0.08125808379455783 0.03367959163119208 0.012900316009625627 -0.012880201208010936 -0.0026373589532174484 -0.0024145620597544144
-0.07970431113735342 -0.0039730918144602004 0.012575056465010446 1.6212709107085157e-05 -0.00029763287128108904 -0.012897384390929693
-0.08123167367732963 0.0336559450272845 0.012934915993293638 0.012912337598186448 0.002020478527234347 -0.0024174086601209664
-0.07719677021828987 0.02650148917505519 0.013089498769588962 0.009539690591799776 -0.0019427318677525496 -0.0007464844918266582
-0.06742399829124984 0.023449205402168938 0.01232879509009758 0.009244050806769856 -0.00020871846754540508 -0.00047399438485443265
-0.058516220288611996 0.020014628191137165 0.01115578068875526 0.009406275626501823 0.0017467116649162073 -0.00010491698552369765
-0.04902079037722273 0.016611392071021355 0.009734194866092226 0.009292604079106872 0.0036917908786218514 6.168604607543191e-05
-0.03936205969248707 0.013212354448492808 0.008163153250660339 0.009161853615027313 0.005269971569385319 0.00014416031151311652
-0.029485624282423642 0.009885141349737118 0.0065272453488231085 0.009378296039037656 0.006294587415311915 0.00016273922368195345
-0.019164381151095655 0.006423154342554313 0.0050153874902259515 0.010422077928093644 0.006459655962810192 -0.00010801118482560085
-0.009100742897830787 0.0010603846400207015 0.004121981066681895 0.00988138217453896 0.0046938221097524825 -0.0011427683518932161
-0.004349091702811934 -0.0036111858297161728 0.0041864260347316915 0.006258627717754785 0.003017522185875615 -0.004951187135604384
-0.005854811969871431 -0.0017507218383028397 0.005334889441246813 -0.002405880079347424 -0.005266486889912618 -0.0027953412288987153
-0.01254234487253211 0.0016096017946865514 0.005542136348120776 -0.003905484829682584 -0.007909544043199936 -0.0009113928989949283
-0.027803966966467565 0.0075774922438819215 0.007007232707695036 -0.0038354949626372087 -0.011007498075236311 -0.0004904997865552382
-0.04411604934693229 0.01240084692125262 0.00919967771878447 -0.003477824806370818 -0.011098360485632976 -0.00020319175831480548
-0.059149268028857255 0.01675017304675277 0.011534552413285253 -0.003400366574061976 -0.009542212667802811 -0.00010110089253736191
-0.07362804200740687 0.021046954228237796 0.01379126104991614 -0.003479513873042102 -0.006869927244955698 -3.2785593750339956e-05
-0.08786020467701947 0.025255443209373358 0.015845187405927833 -0.0035238373001746865 -0.003456312004844974 1.8656433014720196e-05
-0.10140896567841771 0.029816962781691377 0.017544017505172472 -0.0036836024438670575 0.00031910197634225663 9.38875997467164e-06
-0.11258645849607458 0.03206264798368689 0.01865923749496688 -0.0037923151756905187 0.004205961208153053 6.863493857748724e-05
-0.12433730202127032 0.04505948365926219 0.018272449170221205 -0.009192854915890562 0.006274629737805379 0.0014866191327227263
-0.1314042911040144 -0.0016508895344843819 0.015257338081921989 7.782855906020769e-06 -0.0003829307048058653 -0.01371386628328081
-0.12431144270734013 0.045033889958140554 0.018317366418012394 0.009208440558526721 -0.007066916488449487 0.0014812795472773585
-0.1125357326020844 0.03201207160179713 0.018748492087911014 0.0038077173775725595 -0.005074408078743566 5.887306872682534e-05
-0.10133653846734879 0.029743434421519995 0.01767551892638293 0.003697740065760172 -0.0013023666518202114 -2.4785689147993975e-06
-0.08777399161543387 0.025164099949319448 0.0160133566447128 0.003533859798155952 0.0023442373886226244 9.447727676296789e-06
-0.07354664666103039 0.02094859144198953 0.013983930053462724 0.0034793726226828832 0.0056642435285676725 -2.9603886058801425e-05
-0.05911351017892953 0.016666502452575133 0.011728908455086338 0.003377274888642943 0.008368776506172676 -6.588895397565997e-05
-0.04418722720811459 0.012371765845506227 0.009358243996091413 0.0034146861938169617 0.010215216128534323 -0.0001060413478235318
-0.02798954038253686 0.007646008741801609 0.007079889115469582 0.0037433342102050726 0.010744605015591817 -0.0003425072515227238
-0.012706412160081889 0.0017299407206448406 0.0054982477657415565 0.003859277073056474 0.00824189725426901 -0.0008457037911626455
-0.005953202188242984 -0.0017145044390877292 0.00520602065958492 0.0023681740412220187 0.005813491460956902 -0.003181346395532675
0.023755017913792142 -0.03783190197586575 6.742382260144231e-19 -0.0012448235544704359 0.004566307815389604 0.00039623992916599463
0.024981263916947452 0.00023088755062616867 -0.002536405336181557 -0.00856519860809525 0.006225568154134375 -0.00047508036982225817
0.031266034635272374 -0.010107604019436714 -0.004844408423086896 -0.0033890523559673724 0.005859160561006233 0.0004589063159872128
0.043089026681504355 -0.012832499392336183 -0.006989467537205959 -0.003872644533946275 0.004897813790330839 0.0005295301755433839
0.05672175989367689 -0.01744366647691319 -0.00864487727478994 -0.004058065148483803 0.003149458262270577 0.0007307387680092748
0.0703659502837571 -0.021912233605960823 -0.00980688623579378 -0.004260944566874824 0.0009598697248651544 0.0009388434284496087
0.0839755440461629 -0.026611316927991284 -0.010395781686358593 -0.004534610223938867 -0.001514905264255782 0.0011337797522269777
0.09822689795158114 -0.031654614676009316 -0.010357099293246852 -0.005055447330290262 -0.0038790917065624026 0.0012214723536554625
0.11418732364513276 -0.03756099962435941 -0.009716366021038206 -0.0056756804290933995 -0.005200591540651529 0.0010290051330599434
0.13023760967877965 -0.04446026624907207 -0.0087468385626086 -0.004767819310869758 -0.0040365687625686176 0.0004456511489715219
0.13773627370017819 -0.048943203953173704 -0.008186021610032969 1.1031161483866802e-05 5.2137063570061815e-06 -4.893648566168704e-05
0.1302007341181519 -0.04444569836481142 -0.008752601925592136 0.0047905551272765575 0.004040999651513125 0.00043932402228919533
0.11410793781197615 -0.03752806840237626 -0.009732052215919416 0.005700500510002585 0.005186371688497388 0.0010164264634693527
0.09809273732698795 -0.03159500429837831 -0.010391890539654815 0.005084098036288643 0.0038306604803242774 0.0012032804458090751
0.08376507785380283 -0.026510717234618945 -0.010465594402784453 0.004569007036474326 0.0014080021996139556 0.0011118573948560302
0.0700450399909239 -0.021747432765560633 -0.00993581652013844 0.004304977884365029 -0.0011690212207552252 0.000919913335741304
0.05623345461615798 -0.017179869720606415 -0.008869439242481424 0.004109380849481046 -0.003544281725117711 0.000719684211319239
0.04235428278093813 -0.012419943587313072 -0.007348290064615521 0.003966677126907685 -0.005573208881020274 0.0005751163024577024
0.029933172641144076 -0.009426886473363304 -0.005442683260191465 0.0035232805769083646 -0.006901373056915213 0.0004215883350120703
0.021522595519598835 0.001359845435101608 -0.0032265590361306782 0.008370268113371257 -0.006282170160740531 0.0003393297040310779
0.01862410089754041 -0.035963140597651384 -0.0028321660895380537 0.010750700361405656 -0.005553173456658048 -0.0033165726399777486
0.01048834785555876 -0.03260832648913434 -0.0003738477914793557 -0.0021233789481768482 0.002417584933591385 -0.001183414863429586
0.012174901005658096 0.0004264499252241739 -0.0011629052605865893 -0.009720599623790722 0.0029307071015647083 -0.0009955505556062765
0.01935186276830835 -0.007367985424071186 -0.003024434341359739 -0.008765400263059376 0.003668646725490949 0.00011013724639228047
0.02917506534174351 -0.010482789518362491 -0.004550945644318569 -0.009660766967837114 0.0030672211974438614 0.00027830174946914246
0.03808694810816784 -0.014037117041552864 -0.005734454803498416 -0.010212036720839139 0.0019429539327922615 0.00040657515557155206
0.04718053257118251 -0.01764569587464009 -0.006525730321150957 -0.010575379283440083 0.0005194521545252668 0.0004699070955724429
0.05624280103707293 -0.02139105003362283 -0.006913078978988274 -0.011168826713604016 -0.0010345183737639147 0.00040963481235694053
0.06562018643802632 -0.02531924919916323 -0.0068808941664009774 -0.0123971779004768 -0.0024692723672542238 7.371609797630587e-05
0.07579671012706571 -0.029908453258199817 -0.0064653858447368436 -0.014188389151011746 -0.0032500694119286288 -0.0007810278823425574
0.08571646194454403 -0.036169128134867994 -0.005822834497246433 -0.012434183330213087 -0.002534730280437922 -0.002210978301125888
0.09027830437935162 -0.04181078986754408 -0.005412079959914065 2.1395039428198575e-05 -4.681093579041429e-05 -0.003231626393755705
0.08567122760630821 -0.03615745143964442 -0.005807973147484584 0.012478932220038996 0.002432247358447187 -0.0022124806206822115
0.07570119533747986 -0.02988160538054745 -0.0064389045639866175 0.014239348270379067 0.003120646467944074 -0.0007824712213141157
0.06546384558307325 -0.025269616811132562 -0.00685032441711096 0.012459729630335833 0.0022931033100269875 7.637224815766105e-05
0.05600853266162018 -0.021305560854539527 -0.006892154516876808 0.011250383316522972 0.0007868394729036396 0.0004249666696046721
0.046841525570563806 -0.017502981695981645 -0.00653756729301915 0.010686468018694998 -0.0008763695583238402 0.0005145627311142883
0.0376050092450712 -0.013804385290147164 -0.005813164543729216 0.01036459542644635 -0.002465496661158435 0.0005071035847058087
0.028462857045848163 -0.010116108655698156 -0.00475294554924432 0.009897635331480262 -0.003839092894499643 0.0004800189941915235
0.018202091881904033 -0.006741632838640435 -0.0034007756740982407 0.009222686143519657 -0.00456294524301201 0.00042426959105583916
0.011157483430051253 0.0009919519331587903 -0.0019144555024825614 0.010567044760980693 -0.0032804611916033115 -0.00012301531973155222
0.009892914126356159 -0.031206993962417273 -0.0021434283097349315 0.007985182155172313 -0.0021451922732113955 -0.004290102001051295
0.005393973302708721 -0.022880577412279952 0.0006730688766847687 -0.013761910845888854 0.0008481791027308853 -0.00407998307870307
0.00523655562316185 0.00030137953173195155 5.2507167879612715e-05 -0.016919424308304135 0.0010670537500269777 -0.001504750301265643
0.008550824374136588 -0.0025397478445501223 -0.0011703442802992207 -0.015771790556169684 0.0014928919390715016 -0.0003834775007890319
0.014591290953145626 -0.0054518477869980935 -0.0021650913799802158 -0.017042099688511544 0.0012324335546181019 -5.490554489326721e-06
0.0193918315515444 -0.007202860699063105 -0.0028560585492940086 -0.017702801773621175 0.0005995718688784471 4.676618165009989e-05
0.02385253423823778 -0.008997892659927623 -0.003273154084078276 -0.018330632342978843 -0.0001506051718965112 -6.844061166315796e-05
0.028236708388044627 -0.010836709041100791 -0.0034337181715027834 -0.01927346438360977 -0.0009284491424654446 -0.0004461013549045197
0.03249667872553028 -0.012489796957173083 -0.003352488431390896 -0.021108480568089363 -0.0016527982935691822 -0.001287692873128101
0.037308377952444315 -0.014395459369741268 -0.0030483025140450094 -0.024296312423474402 -0.0021488493912124617 -0.0028948430040692907
0.043633728187914236 -0.02000829872856573 -0.002534879957980237 -0.022544376823539825 -0.0018453015460307626 -0.005307449831510465
0.04723920810179734 -0.02965397869464976 -0.002081585800822192 3.4522064279762413e-05 -9.788757210088813e-05 -0.007051325039460278
0.043581008981053444 -0.02000257601367257 -0.0024996722496023333 0.0226166838299285 0.0016383753771104304 -0.00530427202977016
0.03719867213288005 -0.01438114479571617 -0.0029803248303750004 0.024378994652885944 0.001908645839008091 -0.002885233761571897
0.032321695108953614 -0.01246071268124051 -0.0032578492288292023 0.02121060884596125 0.0013575578263588955 -0.0012636669380756374
0.027984159747831437 -0.010782341181976511 -0.0033247585887142767 0.01940795516585395 0.0005560387030722754 -0.00039151001033167825
0.023505589811641876 -0.008900400617880996 -0.003172185718276808 0.018516089300312486 -0.00032375552952513696 4.577697529981436e-05
0.01892580962085382 -0.007035316669697256 -0.0028008022899429813 0.01796608401701612 -0.0012089410709675476 0.0002701200887380191
0.013953359861638003 -0.005168429976490376 -0.002213298584828185 0.017444363339720995 -0.00199874017473348 0.000381628169963292
0.007891598440207908 -0.0021386963428172826 -0.0014072596792835937 0.016497831154514263 -0.002258803238550077 0.00031060375204267895
0.00494116708514439 0.00021443666938632564 -0.0005721235286996036 0.018184751790515558 -0.0012849536607352152 -0.0009101930176374063
0.005378863230652538 -0.022002356746584486 -0.0006634997170280791 0.015057372561545788 -0.0005789503755063766 -0.00631073507327519
0.0016008687052575868 -0.014454989231093887 0.0020839223037297195 -0.0148270706748757 -0.00010098967294728042 -0.0052314296377638635
-1.747237052782185e-05 -6.861358579233371e-07 0.0013886486547911964 -0.019833579753951242 -0.00032461140515350107 -0.001767414050225631
-0.0009429875642154479 0.0010782606919827037 0.0006787336348678826 -0.019676760884341966 -0.00046470488080827346 -0.0005291494363290253
0.00017090493528515034 -0.00013433533245480034 0.00022708675437584837 -0.019604000817317193 -0.0005964019050041273 -0.00010258265376287946
0.0005611167390411299 -0.000298251895305083 3.1196507703757864e-05 -0.02018523538900084 -0.0007821471642234615 -3.168984090500222e-05
0.0004424688275205589 -0.00020430128110881718 5.933815431245964e-06 -0.020898780075193076 -0.0009195020406698405 -0.0002015036107596945
0.00015291243633037296 -0.0001487954082496693 9.40462220713087e-05 -0.021983627612475326 -0.000993226946556918 -0.0006757127662329537
-0.0006591986016050069 0.0003699020951064019 0.00026139498473097105 -0.02354912277246216 -0.0010892536526229959 -0.0016472482427938044
-0.0011149899776313039 0.0013644523551894418 0.0005002961289519686 -0.02699484001778457 -0.0013649833711182426 -0.00341841862156893
0.0025568642750827906 -0.0037267655469687905 0.0009331253686001141 -0.02819394171134524 -0.0014495354892626888 -0.006168033793818331
0.006059401470412472 -0.02131873378041296 0.0015485484270081216 3.912219806417278e-05 -0.00014881758047869848 -0.00841535017451308
0.002496910735905633 -0.0037272291989334737 0.0009887181137324644 0.02827589284877614 0.001138677223091272 -0.00616343313377371
-0.0012383213792491867 0.0013657407951636242 0.0006098308063732529 0.02708856602290367 0.0010153022326842716 -0.003405420303593013
-0.0008518738282020466 0.00037763826614017383 0.0004200873908515324 0.02366487344619507 0.0006778888880708218 -0.001616587658819584
-0.00011603160873977929 -0.000126644401525614 0.0002908530826454902 0.02213610734114542 0.000502463578066608 -0.0006090216940174897
9.11589115172879e-05 -0.00015435779999708007 0.00021848708706993862 0.02111051955993519 0.0003390010042822804 -6.464987130250314e-05
0.00011863979202366412 -0.0001974429534404215 0.00021884128882445237 0.02049228899747297 0.00011105126354371575 0.00023049812073509975
-0.0003335975084295434 5.0086874312874765e-05 0.0003231923696715267 0.020071433889486876 -0.00013400211927045032 0.00036964776904704205
-0.001312773197396245 0.0012177074980665508 0.0005776468560255027 0.02041514176127385 -0.00013984532185616283 0.00020936932435268132
-7.56844514592623e-05 -0.0001510525633410708 0.0009156262560089932 0.020449648772059556 0.00019717561761877097 -0.0013344745541767
0.001706159723766546 -0.013730595487104346 0.0010486712960433705 0.015087208222629633 0.00031319364239369295 -0.006682094575914056
-0.00177235181115736 -0.007583452528264695 0.003539949900763289 -0.01182988704268174 -0.0009000644085260062 -0.0049160574878367135
-0.0047132332505278466 0.0004042152955839181 0.00277889774357915 -0.01737483562064148 -0.0016068826313479208 -0.0015092765778484372
-0.00975269604396537 0.003903479162866254 0.0025187788247633316 -0.01832849082687797 -0.0023545833161661323 -0.0004510643595817928
-0.013898735358253287 0.005012186894650285 0.0026088796870769944 -0.017438113919574876 -0.00241046081203855 -5.139376936095902e-05
-0.018275191438839645 0.00666744541516237 0.002909431134102732 -0.01765981067999817 -0.0021723367870962133 4.891364407673636e-05
-0.023020948808910945 0.008594784960722088 0.003279660024960818 -0.0183308009049932 -0.001698227988472746 -6.942980212899814e-05
-0.02786039181971871 0.010605344922467728 0.0036199925148057365 -0.01924080499555486 -0.0010711218201440436 -0.0004514571859814345
-0.03336433259232926 0.012805725010227208 0.0038737027067942613 -0.02042831447492182 -0.0004989449056646773 -0.0012352006096579664
-0.03945928014053642 0.016760906048219195 0.004028407652789195 -0.022071735650094206 -0.0004360143815048438 -0.0026575479265371644
-0.038933034765677554 0.015046580909995255 0.004266922180737929 -0.029284460791930096 -0.0009134480834987313 -0.005179139576380831
-0.035409806732721746 -0.01628595339615549 0.005105394260211794 3.463937026946429e-05 -0.00020074878001892336 -0.007773954890074009
-0.039000619488025474 0.015039924708173166 0.004343282261644249 0.029357008281906943 0.0004965223342791085 -0.0051763712520147475
-0.039597109182624574 0.016749144319012865 0.00418032458844054 0.022154649114565092 -2.5700941813452508e-05 -0.002648778818436286
-0.03357622795593697 0.012792114347957875 0.004097850370491588 0.020530549405286962 -3.1833209838372676e-05 -0.0012125542781239295
-0.02814794626745025 0.01059522112104755 0.003906786887657356 0.019375219638931584 0.0004574437635392434 -0.00039912780484134064
-0.023379508226435152 0.008596731235463746 0.0036069775104579645 0.018518421157608468 0.001006093125346603 4.211660401689651e-05
-0.018685690057498774 0.0066985861724288085 0.0032334631164159786 0.01793633287733688 0.0014346831562115376 0.0002722403322211777
-0.014290526094526872 0.00507652770349209 0.002853078910169719 0.017860345292669604 0.0017140127924578767 0.0003622592089655429
-0.009972646972877607 0.003906517404952546 0.002563721886867705 0.018840671034364435 0.0018836608760295635 0.00014877333985360703
-0.004695917155368004 0.0003105526631099716 0.0024675416150615214 0.017601841310717663 0.0015425432427183202 -0.0011891831803233096
-0.0016522982683592022 -0.007073287875750183 0.002758007774990106 0.011753867669109588 0.001072563144983041 -0.005853599492656406
-0.00463191878181829 -0.0031427250293283465 0.004875945849895579 -0.006391980429469697 -0.0019086503616138188 -0.0029732005329878887
-0.009038089217256729 0.0013297707280635043 0.004135695532015975 -0.009941606977854789 -0.00307454361763619 -0.0006565758193751632
-0.018277366454825795 0.006424497872839923 0.004335253753154059 -0.010809718188233008 -0.004332615716140219 -8.831716547905395e-05
-0.027761106855469706 0.009984335763223811 0.004964797691786085 -0.010138188957608906 -0.004235244644293203 0.00023349844782667652
-0.03706470412116608 0.013568383324311865 0.005759470730535975 -0.01016504727702395 -0.0035344645534414023 0.0004013808925429788
-0.046411734745695606 0.01730284280977241 0.006515627710671118 -0.010573020741119384 -0.002398267296390567 0.0004675253588234524
-0.05589027271023653 0.02117205877082741 0.007094895851664506 -0.011141641920589775 -0.0009954414644449776 0.0004061781948333032
-0.0652143696233421 0.025343912292048437 0.00739810409829896 -0.011628854287982552 0.0003400232111358027 0.0001283740574284443
-0.07691769116717126 0.02947080074434009 0.007415681581545499 -0.012928516111101487 0.0010464528602861234 -0.00046510421949513093
-0.08224073803185207 0.03891162974402383 0.007184647043756042 -0.017563083060435195 0.00028709944313891437 -0.002061023957397414
-0.08041899458128642 -0.012699243388721585 0.008074659748946235 2.164334469359437e-05 -0.0002548185298906371 -0.004998740934332889
-0.08231699674966773 0.03889901335092594 0.007282484729108308 0.01760835155783838 -0.0008148546750805189 -0.0020633986414141468
-0.07707229322967613 0.02944646040427415 0.007611550704633565 0.012980041273579303 -0.0016265464443216374 -0.0004682990278304841
-0.06544941137167018 0.02530969940543464 0.007690462310067259 0.011691936211784566 -0.0009997022295969357 0.00012829372156229283
-0.056203069408552214 0.021130751080828424 0.007476201567499123 0.01122385058771599 0.00024382972617553473 0.00041740278336031
-0.046785818548061464 0.01725863053836025 0.006964919410003563 0.010686605870349569 0.001570513823096847 0.0005063639360373431
-0.037453352712040304 0.013526138838503822 0.006230848878975141 0.010333080574701278 0.0026956882662104247 0.000500075263210744
-0.028071058562909656 0.009935858179432227 0.005372969509218239 0.010383865354322983 0.003527491132987982 0.00044109565346865914
-0.018402966124250946 0.006336183763099819 0.004547124488123764 0.011060161280493707 0.003959950041869853 0.00021808924718359112
-0.00898129695859715 0.0012654344896277279 0.003995043143624942 0.009996729949033709 0.0030964181971310937 -0.0004944156754253255
-0.004507901528815071 -0.0028514647858984203 0.004313709201300428 0.0062788080001974994 0.0021146393526199833 -0.0034972806222713644
-0.006166134553418704 -0.0016521196421581347 0.005901539110452244 -0.002491644847040323 -0.003677556396872326 -0.001526030301714762
-0.012509541233537131 0.0018689918296016035 0.005405428194521582 -0.003980103214271795 -0.005067604519094563 -6.957732667247932e-05
-0.026719379788542094 0.007649687664307346 0.006137967099926915 -0.004124748910410279 -0.0064764179281169565 0.00018522299348234524
-0.04173026817467347 0.012446243001844859 0.007329961599938789 -0.003972260115369784 -0.00604916126998287 0.0004544338995164771
-0.05578771083834392 0.0169805258196225 0.00862917863910242 -0.004027905626484646 -0.004779547834036307 0.0006843522976095603
-0.06966110334766641 0.021624140312418935 0.009768062375740403 -0.004241830114142408 -0.0028761491805667874 0.0009104231161065389
-0.08367812391246003 0.026338471823167266 0.0105630754069512 -0.00445471297422869 -0.0005611949784711524 0.0011127608258824026
-0.09753984115580466 0.03181188894588434 0.010887958134108169 -0.004927774050068482 0.0017249586462320513 0.0012625172683544382
-0.10995821653741347 0.03468370595006307 0.010658756851941299 -0.005212726545045165 0.0032075898840121368 0.0011935400903688447
-0.12697785579609924 0.05241517401058717 0.009822044834861644 -0.011480620167080197 0.003063345905756481 0.0007384657426192576
-0.13840571688320852 -0.010834465938573042 0.009446046377273578 1.1256308129769382e-05 -0.00031180762419407207 -0.0035021156033421875
-0.127064427816809 0.05239966640050637 0.009942340296794127 0.011504294017462592 -0.003708578885611695 0.0007333142773603268
-0.11013315601049092 0.0346532609935635 0.010900773525890509 0.005240017582025616 -0.003915399476591477 0.0011836393290734497
-0.09780425241971145 0.03176764268582813 0.011252468381304965 0.004961637435440522 -0.002528270309155731 0.0012490329633525336
-0.08402651612678896 0.026282049006003456 0.011045547818958487 0.004499043296125347 -0.00035290363758622205 0.0010984562626756697
-0.07006805480391277 0.02155735361515821 0.010350370472955563 0.004302146110242642 0.0018710428233557437 0.0009017065621159977
-0.05618214421684634 0.016901951904975804 0.009266120285808959 0.00411362528782782 0.0037712765805354535 0.0006957455588375017
-0.04198303729909614 0.012343420929403548 0.00793054912324807 0.004091426851538897 0.005238925942333201 0.0005108862813146392
-0.026734306305692658 0.007515761194144656 0.0065526111284535645 0.00424885065404746 0.006158833535676664 0.00028342496359798954
-0.012368852323419813 0.0018028436187966926 0.0054522651254278595 0.004026580742453638 0.005292902990948227 -2.2906103582461195e-05
-0.005997792948467607 -0.001463678628519315 0.005514320011629551 0.0024571786959212754 0.0041354156707933964 -0.0018398887235302123
0.025199214905316528 -0.036581355003828274 6.776263578034403e-19 0.002833511755914157 -4.054737909363684e-14 -2.021515279389957e-14
0.025775702401464668 -0.00047366735562871006 -0.0021918277514066916 -0.008403757635081416 -2.0329935922647896e-14 4.4230366439725055e-16
0.031136032881655177 -0.010304381714110716 -0.004113081200013162 -0.0032667683866481256 -7.61130931501916e-15 -1.9794414588339415e-15
0.042516309240741235 -0.013057737821038674 -0.0059346086845853095 -0.0038846092858363522 9.776217107983903e-16 1.386267674003544e-15
0.05586615069433716 -0.01766968075253376 -0.007225435904492477 -0.004153615315545397 3.2924899108109293e-15 4.223787389723982e-15
0.06932464628967543 -0.022233071101563334 -0.007880091531891622 -0.0044650322968554975 -1.9788358302766547e-15 -2.8875149883991758e-15
0.08293036080069743 -0.027124212184671714 -0.00784683899624395 -0.004863045322158361 -8.301288801325357e-15 1.7691943287982681e-15
0.09757367280289071 -0.03250197112124506 -0.007137132928053463 -0.005511010079094544 -4.975071732620656e-15 9.358236841700007e-15
0.11445830933724753 -0.0388861762098565 -0.005900716655059058 -0.006196983318777958 4.669889149856721e-15 5.793840884490975e-15
0.131700212023041 -0.046278837102178345 -0.004569685470040528 -0.005177551651249691 9.796693282450829e-15 1.855679780844721e-15
0.13978424706040382 -0.0510180669793962 -0.003932134074170887 1.3664002046651514e-05 1.1631847760917684e-14 8.727149862150507e-17
0.13163431939344616 -0.04625474377214332 -0.004570912321152506 0.005206141890319511 2.104015949639347e-14 -3.888572406782198e-15
0.11431701604613513 -0.038832228396291954 -0.005908267305475443 0.006229610797149571 4.229892464394612e-14 6.794762777602437e-15
0.09733527629092778 -0.03240533231028134 -0.007162084217926012 0.005551352070294904 4.7359909234340886e-14 9.178449016447598e-17
0.08255439943042414 -0.026962534675157874 -0.0079075892949964 0.004915910061437946 3.994198114106991e-14 1.1043005702579545e-15
0.06874200301789754 -0.021968686978848566 -0.008002786232197235 0.0045378464451576225 1.3236070564776915e-14 -1.7765465747804354e-15
0.05496487282793798 -0.0172502533566705 -0.007443593596920829 0.004251125784138451 -2.3141607580949922e-14 1.870384272809056e-15
0.04112855881425909 -0.012391951832036141 -0.0062834123542876335 0.004041904267401974 -3.549099897434335e-14 1.4511232927089113e-15
0.02889573949918877 -0.009296002519453077 -0.0046794647267509055 0.0035583735879589685 -4.567804061427275e-14 2.7698553357619754e-15
0.020697732649829024 0.001301797676863018 -0.0031501252052595287 0.008019259505998239 -4.0528415720013714e-14 4.7789598884087625e-17
0.017843393786974353 -0.0344775761041258 -0.0032141068978854643 0.01020817910133509 -3.663393102325968e-14 -1.8519148888007653e-14
0.010536490103974986 -0.03181935893428753 -7.924798583748422e-05 0.00022246671713018208 -1.2335395020973e-14 -1.223145391394953e-14
0.012451130308425293 7.225841910147305e-05 -0.001124811923172431 -0.009232279479994122 -1.1407895637795436e-14 -5.052019593681026e-15
0.019535671905311268 -0.0075778579726572285 -0.002595366376446722 -0.008549219923280485 -8.532320425820757e-15 -4.81850955078196e-15
0.02891928774433436 -0.010633254637079375 -0.003921505565826656 -0.009699378339170452 -4.124459224131259e-15 -4.473350401039411e-16
0.037631129908459175 -0.014181308762454662 -0.004877563495038149 -0.010421959295287385 -1.5958060492206024e-15 1.4324987322646837e-15
0.04660401353538863 -0.01784341916313137 -0.005364184112249993 -0.01099904952584901 -2.562129822810278e-15 -6.880482511864572e-16
0.05567497015977039 -0.021722166260811988 -0.005374014433230556 -0.011867795709704873 -5.288951649686999e-15 -3.819630701139276e-15
0.06529936232846992 -0.025886457975303156 -0.004941430615294067 -0.0134160420631444 -3.853222333761487e-15 3.835934391308027e-15
0.0760175080063679 -0.03081429986797746 -0.0041774268476996055 -0.015416871444980286 -2.4133764377123196e-15 -5.959554410291806e-15
0.08661202545645963 -0.03742346061292998 -0.003339684132139763 -0.013443007563015214 3.0253602832023933e-15 -6.826516348729106e-15
0.09149769074983741 -0.043312424379602595 -0.002917127844542965 2.6448861329600717e-05 9.599347311234786e-15 -5.37368543759853e-15
0.0865343799778004 -0.03740281603489486 -0.0033151666976963977 0.013499252369777306 1.0488446455748576e-14 -1.2015528275035464e-14
0.07585366004198701 -0.030767779465498413 -0.004132052874303559 0.01548398640316647 2.1442315493156762e-14 -4.284624684127575e-15
0.06503060206929344 -0.025802560553508436 -0.004883573917670444 0.013504223448297674 2.9304090756613124e-14 2.8679857967672806e-16
0.055268479582495866 -0.021580731016683164 -0.005318525310406184 0.011992016145639373 2.036825908131347e-14 6.549021578945019e-16
0.04600532599304045 -0.01761113142286436 -0.005334495779728231 0.011180024560692576 8.808673395191945e-15 1.8187528712894016e-14
0.036754633925699075 -0.013806195626744858 -0.004906179189947251 0.010687122207604876 -8.802798374669789e-15 7.41870079907711e-15
0.02762390188587075 -0.010047295147823194 -0.004057745712666698 0.01010711241303935 -2.0916819640811983e-14 7.856271243365104e-15
0.017617766666586314 -0.006645132041554179 -0.002912558264608227 0.00933772504264131 -2.6497442003688317e-14 4.1246099959958704e-15
0.010801155702917625 0.000955509185691355 -0.0019985582250642135 0.010252665379729296 -1.9981950647476833e-14 -1.5949833684705816e-15
0.009522858006997285 -0.029937689990391484 -0.0025507923698944194 0.007564620017390603 -1.2531077419480636e-14 -2.723347805946852e-14
0.0053346183125748455 -0.022624759190336626 0.0007600313549687819 -0.012709406665895102 -4.4751478049534846e-15 -1.5911412270218361e-15
0.005374535174772596 0.0003336944243443305 4.385770580072459e-05 -0.015970925628130985 -5.057592223441012e-15 -8.225181196948664e-15
0.008778044065054053 -0.00271798413745172 -0.0009617368486219091 -0.015491834481897953 -8.178537845400448e-15 -7.571580081661144e-15
0.014615580404888414 -0.0055474246849443205 -0.0018438598189128744 -0.017113363201939086 -6.83285797852608e-15 -6.543851289834979e-15
0.019277779361344175 -0.007268862577817293 -0.0024383858182892683 -0.018077037270867652 -5.9819067627369e-15 1.3867928344308417e-15
0.023671472446179502 -0.009066639727891674 -0.0027116228466959975 -0.019037174939539422 -6.962993261806034e-15 1.6308298027983836e-15
0.028048621339049312 -0.010947260227982834 -0.0026857649285108825 -0.020423414647304166 -4.6971110947155795e-15 -7.183096890732432e-15
0.032406588730412265 -0.012677543160467543 -0.0024049923837229604 -0.022783828928041656 -7.883975997003898e-15 -6.141449653516984e-15
0.03745864173549893 -0.014699760944424477 -0.0019286672446834176 -0.026330697651744946 -9.095000177517052e-15 -1.5515746239896933e-14
0.044172786026975774 -0.020443788689828223 -0.0013618805885559305 -0.024271460844315244 7.510408209243386e-16 -1.1766378615798295e-14
0.0479996230959748 -0.030365095256915293 -0.0010216817845687832 4.132728046874521e-05 1.9291747120956087e-15 -1.360863461849493e-14
0.04408498895212813 -0.020430220234721942 -0.0013122735494916 0.024359616274530878 5.765084115931692e-16 -1.733620977892661e-14
0.03727598087594544 -0.014668489197254721 -0.0018320209760105547 0.02643677431792174 7.23479808776694e-15 -1.0401896629198132e-14
0.032114562606836254 -0.01261965431634263 -0.0022677718336663144 0.022924928635623378 1.1869947451841447e-14 3.9859473143985524e-15
0.027623712924047104 -0.010847351383634766 -0.002520940219468016 0.020625175398116105 1.0246326111182434e-14 5.7464612495533585e-15
0.023076581590847713 -0.008898267702083145 -0.0025421253901983685 0.01933758291376695 7.415862232852184e-15 3.093384990976618e-14
0.018456597681946484 -0.006988905448120541 -0.002301775501271121 0.01852721602775984 -5.06853504208659e-16 1.8417125463576767e-14
0.013488263168224601 -0.005098960934454851 -0.0017976905591980505 0.017820139264325324 -7.852168215768604e-15 1.3302842172008972e-14
0.007619583201756578 -0.00211969609488228 -0.0011188282722236818 0.01668101380876336 -1.2937912849761033e-14 7.22502502162152e-15
0.0047954230689807986 0.00019781827421409422 -0.0006736023218391138 0.01773075079150136 -6.390829388078451e-15 -6.278065903513735e-15
0.005189777466683512 -0.02109919610824386 -0.0010970799599767022 0.0144103977772525 -3.767647442133332e-15 -4.067210977731772e-14
0.0015872678534345544 -0.014302297144763986 0.0020883559855439894 -0.01421933548052515 -7.629021409220958e-16 5.608916651446416e-16
0.00011649885614887001 6.47975386944754e-05 0.0013275102050728644 -0.019096112853635494 -2.629132670036935e-15 -6.701507838241527e-15
-0.00066901783624793 0.0009619755761319164 0.000703549563707984 -0.019326028678555075 -8.37482057850945e-15 -8.737941061898527e-15
0.00041076513445427443 -0.0002604577922579036 0.0002504355858795514 -0.019690279082408238 -9.109447171465421e-15 -4.8522384027416265e-15
0.0007640872541970368 -0.00038643906974968186 1.6860268377466112e-05 -0.02062311470009259 -9.294904188233803e-15 7.075740546865633e-16
0.0006252828529508723 -0.00027382700572980805 -2.412874173066014e-05 -0.021715177466595705 -1.0759783296006124e-14 2.743763332854754e-15
0.00030822589419679644 -0.0002013252713900009 7.117328393874398e-05 -0.023289874061918757 -8.79723590930517e-15 -4.5220988412197904e-15
-0.0005482280983775667 0.0003490504226203947 0.0002548749346329701 -0.025418240290480128 -1.1710048171948806e-14 -9.447819046201622e-15
-0.0010315644334164178 0.0013773260039004098 0.0005180266807434054 -0.029225713029289314 -1.2375216580922267e-14 -2.3038184858090172e-14
0.0028296903531005164 -0.0037138362775237855 0.0008941142314953387 -0.030178759674476415 -4.6943883073066305e-15 -1.7090183977198914e-14
0.00651328492726963 -0.02168154890738627 0.0011997531678699521 4.635924189049744e-05 -5.779037924946522e-15 -1.5241253354877915e-14
0.002732277132323154 -0.003707585370115002 0.0009687348839160088 0.03027770769265108 -7.137043709390216e-15 -2.054583445650765e-14
-0.0012317600045086469 0.001392854448302906 0.0006656627725947003 0.02934495504460065 -3.3903255514110308e-15 -2.053627992486262e-14
-0.0008610604870097565 0.0003802098896718638 0.00047062626656994844 0.025577046140230018 -4.787914508968898e-15 4.402443578958859e-15
-0.00013056552538286216 -0.00014385042526458779 0.00034336947051838207 0.023517629653903346 -5.25602578496133e-16 6.186125559286965e-15
4.377274753904179e-05 -0.0001710426917225603 0.00028064137638223087 0.02205711234519219 3.202374499069018e-15 3.409965587891986e-14
1.5036029676208766e-05 -0.00020529958997241756 0.00031087353139958366 0.02114827734368957 5.6614352352750245e-15 2.159471874322444e-14
-0.0004630592127868047 3.773867477383008e-05 0.0004605287078346924 0.02050126425661316 2.1657217916270545e-15 1.8612668101648105e-14
-0.00134556847316347 0.0011659225114470583 0.0006885307760185199 0.020530418637168955 6.021159116545612e-16 7.524715442755459e-15
-7.182614612218765e-05 -0.00016698694976734197 0.0007939144140356927 0.02000391667784357 2.7083514264288934e-15 -9.022459428881247e-15
0.0016566427457655845 -0.013107580944014829 0.0006878854010485247 0.014564757395006279 3.681218741294345e-15 -4.2723528707877545e-14
-0.0016837083655449972 -0.007492034233620643 0.0035547789645994686 -0.011523475886625917 8.015150907347487e-16 -5.503681278079542e-17
-0.004506838544911658 0.0004657941548461307 0.0026443345743604497 -0.016850931869518877 -2.5724661658656223e-15 -4.307108326679493e-15
-0.009386769090745104 0.0038117389556499358 0.0023657058123366516 -0.017987972332223497 -8.49466134098583e-15 -8.033775467791715e-15
-0.013455345657564038 0.004874358653817006 0.002338571774517708 -0.017464072550612202 -1.0765138238298666e-14 -3.653568197764176e-15
-0.017764242330020545 0.006553130550151927 0.00246472415142161 -0.018023667389607485 -1.1843734746739241e-14 4.719701463418852e-16
-0.022474501168870835 0.008523608699104089 0.002657868536663347 -0.019041890683086374 -1.605106852146281e-14 2.398451717181699e-15
-0.027356115626337645 0.010611420903232601 0.0028249657425529658 -0.02038638735246253 -1.4270954667425012e-14 -2.774473359390406e-15
-0.033033566463635936 0.012934109804277928 0.002911189549042612 -0.02206289193340066 -1.4185427633158377e-14 -8.752418549032998e-15
-0.03944513970754354 0.01707576627953703 0.002948915619897266 -0.02394405936823873 -1.3590169512003023e-14 -2.518470187170413e-14
-0.03894332213380851 0.015502471685376273 0.0031009287878867443 -0.0311478248655503 -1.1730978779591933e-14 -1.5247772120439984e-14
-0.03526552908542495 -0.01640708001532855 0.0033414289450456667 4.1636825912084254e-05 -1.1891026078492107e-14 -1.4048895239423403e-14
-0.03905087927342211 0.015501413062977979 0.0032010562241637243 0.03123663612642347 -1.284619400464997e-14 -1.5284479140242196e-14
-0.03966402131997626 0.017075589759282153 0.0031485893359001435 0.0240508590796954 -1.612439701073956e-14 -1.7411446633433525e-14
-0.03336928875355518 0.012938701448014884 0.003207216079947266 0.022204625221403356 -1.5648053209774528e-14 4.251617504238969e-15
-0.027811673564922923 0.010626876506874295 0.003207173994099381 0.02058884789172978 -1.2329978245275309e-14 9.377786362122636e-15
-0.023045891962348172 0.00855999840819175 0.0031018581446101414 0.019347332567651407 -1.1037703276329733e-15 3.339964413438638e-14
-0.018428380532785754 0.0066314267043347756 0.0029212872169902203 0.018498398453278487 1.00162577749063e-14 1.9764737941999413e-14
-0.014107202641139384 0.004990729032162099 0.002717924978052867 0.018191557168566606 1.1508714581375326e-14 1.8351534620273183e-14
-0.009784047391248883 0.0038101417388936433 0.002508525334185164 0.018836446087225612 1.3873964301090551e-14 6.575455783162931e-15
-0.0045394085512779625 0.00030642557103880623 0.00230393096185508 0.01719889996212072 1.211833859307435e-14 -7.330978678927666e-15
-0.0015569446375113963 -0.0066935057593773325 0.0025138289522154043 0.011406519112347089 9.54387258242026e-15 -3.7879232086049375e-14
-0.004406514190007129 -0.00304134616115744 0.004849719174908933 -0.006306286652542695 4.4108054882141534e-16 -6.562370818193747e-16
-0.00870728537618993 0.0014377767312451026 0.003864777390266127 -0.009631606012808033 -2.5300162626810258e-15 -2.429082122620309e-15
-0.017769020093555174 0.006387737685817656 0.0039878595727864605 -0.010570936466681604 -8.295766146509259e-15 -4.474780192654376e-15
-0.027089609482660745 0.009904977322317664 0.004397386245852473 -0.01012081829653775 -1.4184921954488866e-14 -2.8914621619333808e-15
-0.036225028975054335 0.0135264231049387 0.004881689488600458 -0.010368409713292705 -1.7840074103864408e-14 1.8099874355380352e-15
-0.04547071672692233 0.017356561965400343 0.005294363300200685 -0.011000060112637485 -1.661006876203623e-14 -1.2325007008907873e-15
-0.05499809665354319 0.021395788268050466 0.005503226689089002 -0.01183894490040252 -1.3348930081702026e-14 3.695909680731524e-16
-0.06460331322986214 0.02583670111965665 0.005439642827548094 -0.012600191631504791 -1.6868379929630903e-14 3.94727517815871e-16
-0.07696883066686809 0.030305709824539746 0.005162161699380805 -0.014006521745070435 -1.485492162763523e-14 -1.1791332206424407e-14
-0.08265339589242919 0.040245646315939285 0.0049600824472477 -0.01864178985429352 -1.5414171319411618e-14 -2.8193559411995167e-15
-0.08074979398062324 -0.012620822222851963 0.005001153556556769 2.698947728996815e-05 -1.7044666120679362e-14 -9.167634099777056e-15
-0.08277268748974906 0.040237525886121346 0.00508678278681133 0.01869918018516418 -2.0893258572351157e-14 -2.3315632194029212e-15
-0.07720996956652729 0.03029036084741226 0.005416262873044245 0.014074933323764919 -2.879813087216382e-14 -8.560223385169208e-15
-0.06496833790484116 0.025815687683923266 0.005820242759458999 0.012689764214036215 -2.9191327801444e-14 7.947767742327513e-15
-0.05548154263767298 0.021370701362565057 0.0060027435821924475 0.011964997764281428 -2.398894164841697e-14 5.668927241693489e-15
-0.046046601697843935 0.017328860983164114 0.005889709914487423 0.011187389058722165 -8.00625028513774e-15 1.9614020287496772e-14
-0.0368225944124006 0.013494911419785425 0.005520196342314491 0.010658388307709293 1.2520312477753981e-14 1.1603053722908721e-14
-0.027568126797885156 0.00984487064345841 0.004975899014551348 0.010544848194241757 2.317802322141828e-14 9.078790508005447e-15
-0.01796916739829707 0.006238553852643304 0.004329136486016272 0.010989915344981671 2.9632038196867466e-14 3.0717531247564586e-15
-0.008636801727823024 0.0013111055459773284 0.0037319796508663307 0.009716428101488497 2.4024803752854297e-14 -2.7588913412927157e-15
-0.00423914969332235 -0.0026064994636728215 0.004102661145425814 0.006140341357886356 1.6784737120155435e-14 -2.4228042532284388e-14
-0.005807804898354425 -0.001511062628675119 0.005575377661093902 -0.0025024245415251724 4.0406859715819143e-16 -9.282125849191525e-16
-0.012039601778605705 0.002024355575329886 0.004867010960316976 -0.00380425724641866 -7.674525077938643e-16 -1.0127125917372415e-15
-0.02602132685368501 0.007660582656298981 0.005503920886148559 -0.003989559725161968 -7.25743250218347e-15 -2.2862842261744953e-15
-0.04076960763781062 0.01242639966925408 0.006368848646431611 -0.003942797636870071 -1.8543109756019582e-14 -1.790830938402932e-16
-0.054557535374712876 0.017018495353333225 0.007196199156015967 -0.004111520157852307 -2.558687311506047e-14 4.77645267088489e-16
-0.0682542096867974 0.021797764752216852 0.0077837313817849625 -0.004438317644173104 -1.456626635173812e-14 -5.668398693134402e-15
-0.08230234910061074 0.026740484305869186 0.007958256227064617 -0.0047760429567557045 -1.0482683243575458e-14 7.434672452330537e-15
-0.09658379660237838 0.032587424967572075 0.007625257309119453 -0.005350991361927937 -1.431042513221764e-14 7.908712747195512e-16
-0.10994742766828258 0.035871637460556716 0.0068643096339922015 -0.005637494994201029 -1.459322571638333e-14 7.506690581637887e-15
-0.12796275078307726 0.05437816996205329 0.0060721876787147725 -0.012082273275532771 -2.3896415580907174e-14 2.9468072947069768e-15
-0.13978809613763793 -0.010667173495797821 0.005701576677222657 1.559403656691097e-05 -2.2236884913724025e-14 -7.124455105728122e-15
-0.12809645439175005 0.054366607077854255 0.0062271328667377985 0.012115441374070642 -2.626512288911309e-14 3.958096871092831e-15
-0.11021680608150188 0.03584889893267059 0.007176634160659596 0.005676934515228448 -4.596636385325453e-14 4.9353424992626405e-15
-0.09698895139523594 0.03255391208711027 0.008097392848878282 0.00540213374805514 -5.256101001487046e-14 4.337486316299821e-15
-0.08283232441405429 0.026695724269913453 0.008587156751383006 0.004846365835097231 -4.282167780360769e-14 4.641198449867323e-15
-0.06886608267093537 0.02173859930378575 0.00855102494840513 0.004538379279696705 -1.875234722278213e-14 2.7341952486825694e-15
-0.05513666213280667 0.016932043250378344 0.008051458981299088 0.004257154878498772 1.7391280473025295e-14 3.903317556328001e-15
-0.04111350875081643 0.012279043977439756 0.0072022479251886585 0.004143488706830549 3.8993927444636034e-14 3.206256874582758e-16
-0.025991881369797843 0.007433799876502724 0.006115124996669488 0.004192125193538738 5.1326185055572404e-14 9.870712103579593e-16
-0.011791919231975688 0.001888970196433865 0.0049777856901723075 0.0038764852953458357 4.1504275602281815e-14 4.19938606457948e-16
-0.005537142694231839 -0.0012405609567900477 0.005047494318435571 0.0024646402107184467 2.9276711263626076e-14 -1.488132533866704e-14
0.023755017913866187 -0.03783190197587604 2.439454888092385e-19 -0.0012448235543463008 -0.004566307815471616 -0.0003962399292088506
0.02498126391700425 0.00023088755060680897 -0.0025364053361850588 -0.008565198608101128 -0.0062255681541701574 0.0004750803698211816
0.03126603463530736 -0.010107604019446506 -0.004844408423091762 -0.0033890523559724833 -0.005859160561017517 -0.00045890631599451953
0.04308902668152565 -0.012832499392331108 -0.006989467537211501 -0.0038726445339374665 -0.004897813790334492 -0.0005295301755450615
0.056721759893683256 -0.017443666476942964 -0.008644877274794883 -0.004058065148477134 -0.0031494582622682865 -0.0007307387680155584
0.07036595028376086 -0.021912233605945665 -0.009806886235795289 -0.0042609445668729635 -0.0009598697248487743 -0.0009388434284460713
0.08397554404617433 -0.02661131692801247 -0.010395781686350842 -0.004534610223943958 0.0015149052642951196 -0.0011337797522282865
0.09822689795159645 -0.031654614676037314 -0.01035709929323033 -0.0050554473303081075 0.0038790917065857525 -0.0012214723536626442
0.11418732364514761 -0.03756099962437144 -0.009716366021017265 -0.0056756804290961586 0.0052005915406386945 -0.0010290051330637995
0.1302376096787984 -0.04446026624915106 -0.008746838562591855 -0.004767819310868516 0.0040365687625661135 -0.00044565114897350577
0.13773627370020616 -0.04894320395319467 -0.00818602161001551 1.1031161477427238e-05 -5.2137063324012855e-06 4.8936485665847755e-05
0.13020073411818686 -0.04444569836482101 -0.008752601925575485 0.004790555127286424 -0.0040409996514703065 -0.0004393240222972777
0.11410793781200163 -0.037528068402467606 -0.00973205221590348 0.005700500510026126 -0.005186371688437969 -0.001016426463460797
0.09809273732699267 -0.03159500429838768 -0.010391890539652001 0.005084098036315928 -0.0038306604802680264 -0.0012032804458120654
0.08376507785377495 -0.026510717234650445 -0.010465594402787626 0.004569007036470081 -0.001408002199576775 -0.0011118573948403323
0.07004503999086308 -0.021747432765468915 -0.009935816520151944 0.004304977884357993 0.00116902122076677 -0.0009199133357364754
0.05623345461610829 -0.017179869720593845 -0.008869439242487268 0.00410938084947745 0.0035442817250966934 -0.0007196842113023796
0.04235428278091024 -0.012419943587292929 -0.007348290064618226 0.003966677126900298 0.005573208880958183 -0.0005751163024516375
0.029933172641120366 -0.009426886473358754 -0.005442683260191622 0.003523280576903513 0.006901373056825534 -0.00042158833500974263
0.02152259551957503 0.001359845435103311 -0.0032265590361293794 0.008370268113353322 0.006282170160660444 -0.00033932970402716
0.018624100897512787 -0.03596314059760856 -0.0028321660895351745 0.01075070036141315 0.0055531734565855 0.003316572639932718
0.010488347855575453 -0.03260832648914438 -0.00037384779148023846 -0.002123378948106167 -0.002417584933616675 0.0011834148634023475
0.012174901005679835 0.00042644992521289737 -0.0011629052605897196 -0.00972059962378622 -0.0029307071015885733 0.0009955505555973956
0.019351862768332923 -0.00736798542407221 -0.0030244343413648785 -0.00876540026305571 -0.003668646725507718 -0.00011013724639859037
0.029175065341762972 -0.010482789518373182 -0.0045509456443239395 -0.009660766967824917 -0.0030672211974516334 -0.0002783017494724062
0.038086948108180016 -0.014037117041565822 -0.005734454803502298 -0.010212036720833434 -0.0019429539327957338 -0.00040657515557860583
0.047180532571189725 -0.017645695874624636 -0.006525730321152292 -0.010575379283448413 -0.0005194521545197217 -0.00046990709557268295
0.056242801037082735 -0.021391050033637726 -0.006913078978985294 -0.011168826713622753 0.0010345183737787847 -0.0004096348123606663
0.06562018643803548 -0.02531924919918039 -0.006880894166392745 -0.012397177900504836 0.002469272367259752 -7.371609797213173e-05
0.07579671012707641 -0.029908453258205864 -0.006465385844725652 -0.014188389151025578 0.0032500694119244776 0.0007810278823511819
0.08571646194456738 -0.03616912813490958 -0.005822834497235304 -0.012434183330203758 0.0025347302804392506 0.0022109783011111904
0.09027830437937406 -0.0418107898675651 -0.005412079959905866 2.139503942069099e-05 4.681093580514325e-05 0.003231626393750796
0.08567122760632444 -0.03615745143963156 -0.0058079731474747695 0.012478932220034454 -0.002432247358417863 0.0022124806206751243
0.07570119533750193 -0.029881605380627833 -0.006438904563976141 0.014239348270420709 -0.0031206464679105657 0.000782471221315215
0.06546384558307793 -0.02526961681114371 -0.006850324417106553 0.012459729630368467 -0.0022931033099949805 -7.637224815025072e-05
0.056008532661601204 -0.021305560854563435 -0.0068921545168762 0.011250383316566212 -0.0007868394728828886 -0.00042496666958800417
0.046841525570537064 -0.017502981695960512 -0.00653756729302261 0.010686468018709486 0.0008763695583254691 -0.000514562731101858
0.037605009245041565 -0.013804385290124479 -0.005813164543731869 0.01036459542641096 0.0024654966611447927 -0.0005071035846831284
0.0284628570458263 -0.010116108655690957 -0.0047529455492460486 0.00989763533147088 0.0038390928944581904 -0.00048001899417800465
0.018202091881889915 -0.006741632838632405 -0.0034007756740982932 0.00922268614349669 0.00456294524295509 -0.00042426959104748766
0.011157483430041172 0.0009919519331571412 -0.0019144555024820128 0.010567044760964749 0.003280461191565657 0.0001230153197295906
0.009892914126347551 -0.031206993962377833 -0.002143428309732738 0.007985182155168774 0.0021451922731840207 0.0042901020009948705
0.005393973302718061 -0.022880577412290767 0.0006730688766835729 -0.013761910845877306 -0.0008481791027390855 0.004079983078698699
0.00523655562317079 0.0003013795317331861 5.250716787700426e-05 -0.01691942430829682 -0.001067053750040787 0.0015047503012497881
0.00855082437414957 -0.0025397478445388345 -0.0011703442803040628 -0.015771790556165715 -0.0014928919390900122 0.0003834775007829072
0.014591290953160448 -0.0054518477870052155 -0.0021650913799846454 -0.01704209968849235 -0.0012324335546311704 5.490554486877037e-06
0.019391831551554533 -0.007202860699064585 -0.0028560585492977326 -0.017702801773608196 -0.0005995718688874519 -4.676618165654838e-05
0.023852534238247736 -0.008997892659928803 -0.0032731540840801312 -0.01833063234300213 0.0001506051718918374 6.844061165667633e-05
0.02823670838805253 -0.01083670904109585 -0.0034337181715022175 -0.01927346438364724 0.0009284491424602961 0.0004461013549025346
0.03249667872553526 -0.012489796957155746 -0.003352488431388436 -0.02110848056812397 0.001652798293563583 0.0012876928731448785
0.037308377952459684 -0.014395459369779753 -0.0030483025140381915 -0.024296312423480827 0.002148849391206914 0.0028948430040803856
0.04363372818793575 -0.020008298728587174 -0.0025348799579732874 -0.022544376823536376 0.0018453015460261415 0.005307449831495078
0.04723920810181014 -0.029653978694643222 -0.0020815858008211416 3.452206426314357e-05 9.788757210755571e-05 0.007051325039444575
0.043581008981064345 -0.020002576013678167 -0.0024996722495963177 0.0226166838299123 -0.0016383753770944486 0.005304272029756239
0.03719867213289599 -0.01438114479578528 -0.002980324830368442 0.024378994652940116 -0.0019086458389957048 0.0028852337615741415
0.032321695108962295 -0.012460712681276201 -0.0032578492288237153 0.021210608845999953 -0.0013575578263497257 0.0012636669380812534
0.027984159747829675 -0.010782341182019695 -0.003324758588710944 0.019407955165906703 -0.0005560387030670834 0.0003915100103537685
0.023505589811631176 -0.008900400617915874 -0.003172185718275532 0.01851608930033632 0.0003237555295237056 -4.577697527615984e-05
0.018925809620838518 -0.007035316669689824 -0.002800802289944123 0.017966084016974828 0.001208941070958588 -0.00027012008871076345
0.013953359861622801 -0.005168429976472693 -0.0022132985848291754 0.017444363339697237 0.0019987401747094983 -0.0003816281699379733
0.007891598440201552 -0.0021386963428190633 -0.0014072596792835514 0.016497831154485727 0.0022588032385245536 -0.0003106037520312787
0.0049411670851431284 0.00021443666938352856 -0.0005721235286993612 0.018184751790486155 0.0012849536607218884 0.0009101930176290902
0.0053788632306451326 -0.022002356746555807 -0.0006634997170265442 0.015057372561530108 0.0005789503754984352 0.006310735073194385
0.0016008687052606043 -0.014454989231106496 0.0020839223037294363 -0.014827070674878783 0.00010098967294422471 0.005231429637766176
-1.74723705259133e-05 -6.861358447536248e-07 0.0013886486547888398 -0.01983357975395729 0.0003246114051445075 0.0017674140502126222
-0.0009429875642092733 0.001078260691996495 0.000678733634864105 -0.01967676088433802 0.0004647048807914934 0.0005291494363201864
0.0001709049352955778 -0.00013433533245132382 0.0002270867543725206 -0.01960400081730386 0.0005964019049848689 0.00010258265376055374
0.0005611167390487245 -0.0002982518953073866 3.119650770034446e-05 -0.020185235388990908 0.000782147164204886 3.168984089853698e-05
0.00044246882752849756 -0.0002043012811034631 5.9338154289878305e-06 -0.020898780075216228 0.00091950204065348 0.00020150361074781225
0.0001529124363381495 -0.00014879540824746794 9.404622207039671e-05 -0.021983627612509455 0.0009932269465433058 0.0006757127662312778
-0.000659198601597439 0.00036990209511549737 0.00026139498472946363 -0.023549122772507154 0.0010892536526050747 0.0016472482428103318
-0.0011149899776168627 0.0013644523551488777 0.0005002961289551561 -0.026994840017792496 0.0013649833711053 0.0034184186215854826
0.00255686427509893 -0.0037267655470095613 0.0009331253686027584 -0.02819394171133281 0.0014495354892517306 0.006168033793799089
0.006059401470419547 -0.021318733780402194 0.0015485484270057821 3.9122198046030546e-05 0.0001488175804746343 0.008415350174480413
0.0024969107359150036 -0.003727229198972089 0.0009887181137352805 0.02827589284875676 -0.0011386772230871194 0.006163433133756554
-0.0012383213792384372 0.0013657407951474594 0.0006098308063755808 0.0270885660229526 -0.0010153022326925523 0.003405420303594804
-0.0008518738281964325 0.00037763826608919106 0.00042008739085635556 0.02366487344624512 -0.0006778888880813681 0.001616587658826313
-0.00011603160873063461 -0.00012664440156147925 0.0002908530826489225 0.02213610734120038 -0.0005024635780742499 0.0006090216940364872
9.115891152710268e-05 -0.00015435780001961657 0.00021848708707195404 0.021110519559959406 -0.000339001004286822 6.464987133112123e-05
0.0001186397920245614 -0.0001974429534466364 0.00021884128882442849 0.020492288997433834 -0.00011105126354821616 -0.000230498120704571
-0.000333597508434665 5.008687434455774e-05 0.0003231923696700153 0.020071433889451436 0.00013400211926644046 -0.00036964776901995895
-0.0013127731973963262 0.001217707498057198 0.0005776468560252686 0.02041514176124218 0.00013984532185775734 -0.00020936932434014856
-7.568445145624227e-05 -0.0001510525633443648 0.0009156262560088012 0.02044964877202959 -0.00019717561761267168 0.0013344745541648932
0.0017061597237693238 -0.013730595487086905 0.001048671296044171 0.015087208222613889 -0.00031319364238930063 0.006682094575828688
-0.0017723518111594269 -0.007583452528275897 0.0035399499007643834 -0.011829887042688307 0.0009000644085243152 0.004916057487841028
-0.004713233250530238 0.00040421529560341683 0.0027788977435775565 -0.017374835620651737 0.0016068826313407507 0.001509276577840094
-0.009752696043963338 0.00390347916287682 0.0025187788247611623 -0.0183284908268807 0.002354583316150172 0.00045106435957252
-0.01389873535824575 0.005012186894644417 0.0026088796870747124 -0.01743811391956916 0.002410460812016934 5.1393769357779064e-05
-0.01827519143883611 0.0066674454151782 0.0029094311340992192 -0.017659810679983495 0.0021723367870673397 -4.891364408168594e-05
-0.023020948808905303 0.00859478496075595 0.0032796600249568623 -0.01833080090501039 0.0016982279884465274 6.94298021175524e-05
-0.02786039181970662 0.010605344922437919 0.0036199925148024327 -0.01924080499558889 0.0010711218201179356 0.0004514571859813735
-0.03336433259231589 0.012805725010231505 0.0038737027067905546 -0.020428314474950006 0.0004989449056401897 0.0012352006096746188
-0.03945928014052726 0.01676090604820604 0.004028407652788157 -0.02207173565009994 0.0004360143814882446 0.002657547926560857
-0.03893303476566952 0.015046580909987287 0.004266922180736578 -0.029284460791917714 0.0009134480834752151 0.005179139576364766
-0.03540980673271078 -0.01628595339619084 0.005105394260207253 3.4639370260905735e-05 0.00020074878000045149 0.007773954890040595
-0.03900061948802268 0.01503992470817194 0.00434328226164343 0.029357008281902436 -0.000496522334290791 0.005176371251998303
-0.039597109182622416 0.0167491443189951 0.004180324588440415 0.022154649114608148 2.570094178527635e-05 0.002648778818445751
-0.03357622795592855 0.012792114347937603 0.00409785037049357 0.020530549405335805 3.183320980896906e-05 0.0012125542781251178
-0.028147946267433104 0.010595221121036856 0.003906786887658432 0.019375219638992587 -0.0004574437635587729 0.0003991278048578319
-0.02337950822641115 0.008596731235417541 0.0036069775104613654 0.018518421157632015 -0.0010060931253548307 -4.211660399629697e-05
-0.018685690057484435 0.006698586172438286 0.0032334631164161955 0.017936332877297498 -0.0014346831562101518 -0.00027224033219264403
-0.01429052609451858 0.005076527703500425 0.0028530789101685033 0.017860345292636762 -0.0017140127924422123 -0.00036225920894399874
-0.00997264697286842 0.003906517404950023 0.0025637218868665313 0.018840671034327405 -0.001883660876000441 -0.00014877333984344898
-0.004695917155362736 0.00031055266310182585 0.002467541615060451 0.017601841310696958 -0.001542543242695154 0.001189183180314425
-0.0016522982683564436 -0.007073287875740053 0.0027580077749902398 0.011753867669095995 -0.0010725631449686089 0.005853599492580163
-0.004631918781819879 -0.003142725029335574 0.004875945849898132 -0.006391980429472635 0.0019086503616138077 0.002973200532991331
-0.009038089217259352 0.0013297707280793037 0.0041356955320157604 -0.00994160697785961 0.003074543617630757 0.0006565758193702037
-0.018277366454828785 0.006424497872843825 0.004335253753153328 -0.010809718188237595 0.004332615716122661 8.831716547378249e-05
-0.02776110685546703 0.00998433576322618 0.004964797691784639 -0.010138188957602963 0.004235244644268441 -0.00023349844782914647
-0.037064704121159114 0.013568383324326241 0.00575947073053429 -0.010165047277006218 0.0035344645534092375 -0.0004013808925460584
-0.04641173474568628 0.017302842809776862 0.006515627710667865 -0.010573020741135714 0.002398267296353006 -0.00046752535882512396
-0.055890272710222066 0.021172058770821765 0.007094895851657502 -0.011141641920611374 0.0009954414644017396 -0.0004061781948308187
-0.0652143696233283 0.025343912292064383 0.007398104098289444 -0.011628854287997434 -0.0003400232111695342 -0.00012837405741936042
-0.07691769116716883 0.029470800744339398 0.007415681581539298 -0.012928516111109165 -0.0010464528603043653 0.0004651042195108209
-0.08224073803184867 0.038911629744047056 0.007184647043749853 -0.017563083060428333 -0.00028709944317237876 0.002061023957383936
-0.08041899458127949 -0.012699243388777282 0.008074659748938737 2.164334468967094e-05 0.00025481852985932354 0.004998740934310674
-0.08231699674967098 0.03889901335094933 0.007282484729102565 0.01760835155782303 0.0008148546750486743 0.0020633986414032544
-0.0770722932296788 0.029446460404244538 0.007611550704627756 0.012980041273610049 0.0016265464442713393 0.0004682990278378378
-0.06544941137166292 0.02530969940541415 0.007690462310064385 0.01169193621181855 0.0009997022295491623 -0.00012829372156381946
-0.056203069408527526 0.02113075108081929 0.007476201567497721 0.011223850587749537 -0.0002438297262111432 -0.0004174027833466196
-0.04678581854802167 0.01725863053829919 0.006964919410006475 0.010686605870364883 -0.001570513823110463 -0.0005063639360235023
-0.03745335271200706 0.013526138838501511 0.006230848878976622 0.010333080574679148 -0.002695688266198416 -0.0005000752631903248
-0.028071058562886858 0.009935858179420314 0.005372969509217423 0.010383865354307116 -0.0035274911329500535 -0.0004410956534530476
-0.018402966124235066 0.006336183763097454 0.004547124488122247 0.011060161280468963 -0.003959950041813974 -0.00021808924717627782
-0.008981296958590217 0.0012654344896234524 0.003995043143622219 0.00999672994902065 -0.0030964181970866817 0.0004944156754202134
-0.004507901528811394 -0.002851464785895505 0.004313709201299569 0.006278808000193068 -0.002114639352589967 0.003497280622222883
-0.0061661345534167545 -0.001652119642163543 0.005901539110455805 -0.0024916448470346216 0.0036775563968746653 0.001526030301716172
-0.012509541233539612 0.00186899182961488 0.005405428194523187 -0.003980103214271312 0.005067604519092698 6.957732666979153e-05
-0.026719379788552152 0.007649687664306761 0.006137967099927067 -0.004124748910413159 0.006476417928098231 -0.00018522299348475518
-0.04173026817467765 0.012446243001856074 0.007329961599938188 -0.00397226011536447 0.0060491612699523625 -0.0004544338995194012
-0.05578771083833215 0.01698052581962182 0.008629178639103221 -0.004027905626478049 0.004779547834004394 -0.0006843522976108013
-0.06966110334765065 0.021624140312388913 0.009768062375738889 -0.004241830114148852 0.002876149180516564 -0.0009104231160972846
-0.08367812391244463 0.026338471823201457 0.010563075406938238 -0.0044547129742408525 0.0005611949784067498 -0.0011127608258850322
-0.09753984115579145 0.03181188894588477 0.010887958134089968 -0.004927774050086741 -0.0017249586462756154 -0.001262517268344707
-0.10995821653741836 0.03468370595008376 0.010658756851922083 -0.005212726545047841 -0.003207589884032881 -0.0011935400903694577
-0.12697785579610185 0.05241517401060667 0.00982204483484756 -0.011480620167091088 -0.0030633459057758804 -0.0007384657426267109
-0.13840571688320324 -0.010834465938626294 0.009446046377263229 1.1256308122588752e-05 0.0003118076241468915 0.0035021156033170227
-0.12706442781682328 0.05239966640052481 0.009942340296781163 0.011504294017463362 0.0037085788855370184 -0.000733314277367453
-0.11013315601050841 0.03465326099357634 0.010900773525872693 0.00524001758202911 0.00391539947651919 -0.0011836393290801828
-0.09780425241970359 0.03176764268578418 0.011252468381295776 0.004961637435451548 0.0025282703090923316 -0.0012490329633574385
-0.08402651612675217 0.026282049006004914 0.011045547818954485 0.004499043296146698 0.0003529036375314326 -0.001098456262663086
-0.07006805480385153 0.021557353615103702 0.0103503704729622 0.0043021461102439006 -0.0018710428233772874 -0.0009017065621062634
-0.056182144216784795 0.016901951904957725 0.009266120285814068 0.004113625287816834 -0.003771276580512791 -0.000695745558826746
-0.041983037299056496 0.012343420929385302 0.007930549123250254 0.00409142685153841 -0.005238925942270468 -0.0005108862813045258
-0.026734306305673184 0.007515761194141332 0.006552611128451983 0.004248850654035959 -0.006158833535592307 -0.00028342496359493264
-0.012368852323415025 0.0018028436187984343 0.0054522651254231445 0.004026580742446024 -0.005292902990872094 2.2906103578117248e-05
-0.005997792948467211 -0.0014636786285201586 0.0055143200116268346 0.002457178695916069 -0.00413541567073128 0.0018398887235012702
0.017111262527039837 -0.04374799024390262 -1.751664134921893e-18 -0.01980975043281713 -0.010568355567478286 -0.0037384779148225767
0.02169147235509737 0.002189689483689993 -0.0027147018922665 -0.008855760611081837 -0.011403419790449468 0.0011717562980429934
0.03173047232120917 -0.009714558624622473 -0.006148513380199245 -0.0031647205536236484 -0.010696074564907078 -0.00029275840073093715
0.04426113589206568 -0.012159019264184731 -0.008746933911041099 -0.0034399506713592124 -0.009504441522917953 0.00020023855513459738
0.058664489865646166 -0.01671067631053714 -0.01128134290719249 -0.0034163975660704963 -0.007254136942373921 2.0549379065510178e-05
0.07320777895970496 -0.020960053920641642 -0.013583077612416679 -0.0035036951764429248 -0.004338904942672435 -1.3978967921881474e-05
0.08743964365929463 -0.025268386328652154 -0.015568646659697465 -0.0035847847613438596 -0.0006746255925231952 -6.559837565076243e-05
0.10129279166385846 -0.029542806534659592 -0.017092449006677366 -0.003775615606203778 0.003372704125359452 -5.198185896335096e-06
0.11473764469759963 -0.0339225909471703 -0.01798170632189566 -0.00396714011997872 0.006521860923345904 0.0004256983508331622
0.12642916443629415 -0.03840759774336361 -0.01818054516108143 -0.0031943168974578992 0.005959206046738838 0.0016352326990056588
0.1315165607207963 -0.04120216365718065 -0.018076958068810694 1.0752654982119697e-05 -5.641714842579932e-05 0.0029019826123377456
0.1264607807277232 -0.038415385461136 -0.018196760351383803 0.0032156544780677465 -0.006065694600404087 0.0016426765086627769
0.11480554547879733 -0.03393868822653614 -0.0180174918094436 0.003987689686907255 -0.006608364984806312 0.0004403227835144673
0.10140811662689038 -0.029568544927402577 -0.017155323987078478 0.0037937436365561915 -0.0034223195021850636 1.5188483998423714e-05
0.08762466146473018 -0.025306655081329333 -0.015671891181673153 0.0035974656366648205 0.0006879753547080538 -4.134477360152026e-05
0.07350354094220085 -0.021017179359055463 -0.0137496919465755 0.003504390153508791 0.004454822128758059 1.281151673477675e-06
0.059148655340321536 -0.016799179133080322 -0.011545695066121731 0.0034029316899248504 0.0075612062035929385 4.199391320832509e-05
0.045054110913556135 -0.012300691545497613 -0.009179584128654059 0.0033740263285598326 0.01003349302667318 7.766171889105847e-05
0.03319125570972315 -0.009993403335903579 -0.006761082387829368 0.003042393808841565 0.01207786896990088 5.7809349600730284e-05
0.02496635009347127 0.0015905248387089316 -0.0038354389591369583 0.008781503807499709 0.010204869004451958 -0.0013822666864665618
0.021721364178448777 -0.04450222954155703 0.0016379447497547885 0.01170514587553063 0.00862121149333917 0.00688737779800585
0.010243057962870441 -0.038514493183062826 0.0020403852897112 -0.012712451465181396 -0.0017798581493701255 0.0003503165792048751
0.01137592728710408 0.0012419771790674293 -0.0014338217574168725 -0.011044118067564529 -0.0038346501746039717 0.001064917468054122
0.018743625889594107 -0.006659517551555787 -0.003900095734186355 -0.00869531295402801 -0.0065237041537363006 -6.991773403629964e-05
0.029576080246017374 -0.009779837414283694 -0.005950420726257917 -0.009028657542378226 -0.005470620769398394 9.4168929685394e-05
0.03906366484946937 -0.013244932637005945 -0.007743380707903822 -0.009297953252773902 -0.004076587049740986 -1.4802649081031082e-05
0.04875883421883205 -0.01666000560305867 -0.009368680336327505 -0.009349132467995451 -0.002221574292277631 -1.814638951037404e-05
0.05822735083943257 -0.020066993114437968 -0.010748486415347733 -0.0094295936064086 -4.371882048158971e-06 8.922543975281205e-05
0.0673565151288862 -0.023401893396422686 -0.011801781452820981 -0.009681288333384363 0.0023773315377056048 0.0005123133567453585
0.07601561603378226 -0.02680598310384666 -0.012429168298706023 -0.010037305706092764 0.004221442509172004 0.0017391965909612696
0.08336137639316887 -0.03083040180848328 -0.012602405178783506 -0.00823562673891178 0.0038905557898398575 0.004416084320031902
0.0865214006014229 -0.03438633852513638 -0.012552413549415394 1.55653966554431e-05 2.1735788297319356e-05 0.007082108419917618
0.08339237812634341 -0.030839964958374017 -0.012608871734225039 0.00826627921724758 -0.0038371921056427234 0.004417686753015626
0.07608179739622017 -0.026825563147228497 -0.012445291270892746 0.010065905375871168 -0.004138047714177009 0.001740627741591184
0.06746760154263347 -0.02343256843068111 -0.011834752575385799 0.009704212507124473 -0.0022421179772876016 0.0005090050626880563
0.05840188973230915 -0.02011097913751458 -0.010811480338069999 0.009439473687330783 0.0002163702881375705 7.202384870367458e-05
0.04903173823165798 -0.016722402760256765 -0.009483470667164751 0.009332900238459634 0.0025462153921040967 -6.815915966531451e-05
0.03949538826124023 -0.01333617385631861 -0.007948050929492556 0.009238000127450073 0.00455317569001913 -0.00011927679030087921
0.03029558855689051 -0.009916618701017364 -0.006292793554012775 0.008877981796805936 0.006210952985798273 -0.00014242765089740112
0.019995302681864852 -0.006931160580956468 -0.0044857283521516035 0.00831035276817912 0.007455774754478509 -0.0002826473618606714
0.01262974278248563 0.0010863893101355313 -0.0020850508385651238 0.010125789494786121 0.004081906426092989 -0.0007752977527467646
0.011156434494497568 -0.03886748676095532 0.00208229718586863 0.007545864648660772 0.0012207133378174715 0.007265438989939929
0.0056788077390023456 -0.027818638501873667 0.0028895909117797624 -0.016778298473807084 0.0002822229756362425 0.007007062081461817
0.005019600069498476 -0.00036688074446658244 0.00015500742340148483 -0.01917988605653082 -0.0008765557774132201 0.0010530916359269313
0.007901560023553822 -0.0017227795934522056 -0.0016278385568368294 -0.015861232417207494 -0.0026324740616243568 0.00032109691040640255
0.014263220965797739 -0.004789036765767913 -0.0028716808364368553 -0.016311461853779807 -0.002235870515307286 -4.454631667914848e-06
0.019491423714684587 -0.006528286139285397 -0.003863603116355082 -0.016488242279364095 -0.0014170586800904608 3.4803201156175537e-06
0.024306252568013602 -0.008222369923308478 -0.004710952107912988 -0.016552721114055678 -0.0004781318330203864 0.00010643722829987714
0.028998336188788353 -0.00989122987666321 -0.005408677652306287 -0.016592368940797988 0.0006070573479457234 0.00046841490880897274
0.033350822468709934 -0.01137323881205611 -0.005920712405913507 -0.016772646266228524 0.001839425849145925 0.0013745484734743033
0.037534412885848766 -0.012831975425856767 -0.006210273119020761 -0.017355517668721183 0.0031896528457888464 0.003502903761819494
0.04205599221136687 -0.016346067413373813 -0.006242504679676612 -0.015011300184566907 0.003544857189099811 0.007928596914932499
0.044468795850659375 -0.022604706853392276 -0.006129449322895725 2.283156297007869e-05 9.105768169067821e-05 0.013047123118347768
0.04208592916172479 -0.016359095194222958 -0.006238933276991487 0.01505608267979255 -0.003350039757788454 0.007924887484112736
0.03759751928899837 -0.012858293566407183 -0.006205900624339942 0.017396624442417203 -0.002957022354761839 0.003492241622941631
0.033454315477608736 -0.011413298898392177 -0.005921933524581221 0.016803876950806033 -0.0015449388124773287 0.001349046339907026
0.029155780762561596 -0.009945723791002326 -0.0054272785587061514 0.016600953262419452 -0.00022838993032198114 0.00041176471349752404
0.024542710487409664 -0.00829373835006675 -0.004767453059775234 0.016516105514937457 0.000960546612057076 -9.626585759247414e-06
0.019854607118868148 -0.0066214359108844965 -0.00399119206831899 0.016370439911323066 0.0020234300227768482 -0.000226376758281754
0.01485157539588881 -0.004920776585705369 -0.0031238646622974817 0.016043299430526986 0.002988676002099887 -0.0003863662921621832
0.008652490891351958 -0.0018791591598850588 -0.0020636295453728155 0.01523391023351484 0.003394228430557053 -0.0004464594466983134
0.005573167784950135 -7.515557006017114e-06 -0.0003534296078331961 0.017912140024002213 0.0010321268795537388 0.0003329165466514412
0.006018511992305187 -0.027812757912509027 0.002603302585444777 0.015324786517559206 -0.0006307297337160387 0.009819265395916642
0.0019249055435772804 -0.017543915323876454 0.0033586427099272834 -0.015864209100019528 0.000911181157788962 0.007682538009751532
-9.06416434335984e-05 -0.0009743842902116306 0.0016267907075418848 -0.021071754817737223 0.0008701500885199511 0.0018889896406061714
-0.0016177987534579635 0.0014824840085356792 0.0006609476504788147 -0.020035746195703138 0.0005443915153420892 0.0004766096950860559
-0.0006694555675861547 0.00028143942875895307 0.0002922498382752298 -0.018925382539112325 0.0007610207771772333 0.00011790280339912416
-0.00017086539477322916 -2.7244591974537513e-05 0.0001602392529831445 -0.018922692238302067 0.00102224428041111 0.00010103243216190495
-0.00013628705357286396 6.605539129957429e-07 0.0001245327534322974 -0.018964731261754474 0.0011601196037840805 0.00029947929461310156
-0.0001899920610227413 -1.0367215776462843e-05 0.00014428419354907862 -0.019009235913099644 0.001255177088584885 0.000779851314623465
-0.0005554968764047295 0.0002308098179038917 0.00020626309505038376 -0.01887824704719116 0.001499170562677695 0.001808193593987055
-0.0007906845009919524 0.0008323319888151283 0.00028041281348278174 -0.019482287384935498 0.002540404921396128 0.004015801486499757
0.001521312500317816 -0.0022575107046532623 0.0003905307838740232 -0.019068668179412284 0.003926846216771249 0.008839421838895628
0.0037596666081632143 -0.014124891857846197 0.0005976713269360721 2.482643536528363e-05 0.00015686144121889638 0.01675152477743198
0.0015499295826931331 -0.0022739182749218546 0.00040434488708316826 0.019117331693466452 -0.0035978441912320473 0.008834171495625369
-0.0007314134150713205 0.0007995240632792545 0.0003058126708943606 0.019526821917928556 -0.002166666955553953 0.004001586253774252
-0.0004613179061142739 0.00018194273179334656 0.00023797354079015527 0.01891167190894564 -0.0010550709627301076 0.0017759104200968773
-5.344962806303144e-05 -7.425308711139466e-05 0.00017220659980256588 0.019017029573443558 -0.00072323294660064 0.0007113930922908909
5.654097736542051e-05 -7.688311024490971e-05 0.00013081839407464127 0.018919822532879608 -0.0005367666558606686 0.0001603538262624755
0.00011036982931502831 -0.00011927692697229024 0.00011471823468481433 0.018779202764982808 -0.0003224942088306221 -0.00016485777021328917
-0.00027347078561682837 0.00017088490204704996 0.00014757505529688943 0.01860348766164591 -2.985544177016199e-05 -0.0003633693117261681
-0.001214552865129311 0.0014811162052453621 0.0003741939854318269 0.019390043045616336 2.5973160216995124e-05 -0.00030042545782416464
0.00016803133325534752 -0.0005919436079694161 0.0012444248063296173 0.02039494751752627 -0.0008224550640301609 0.0014203070011963115
0.0020908239402918716 -0.017594483515005477 0.0030347369195214196 0.015393614289307685 -0.0011926537319193534 0.0093635910800844
-0.00148088776792769 -0.009106318343299911 0.0037899329858857916 -0.012011426148017344 0.0015371244664998493 0.006644485362634804
-0.00476462463281806 -0.0003658909668407613 0.0029754402433128536 -0.01785070252965338 0.00248178423736504 0.0019262857008500022
-0.010507985318805108 0.003972922440743038 0.0028999251535595156 -0.018453210202188368 0.003507326680144076 0.0004948799254716389
-0.015191491989811927 0.005095887164825125 0.003435496100297769 -0.016775221477878133 0.003748122350761713 6.063658069557897e-05
-0.019814951450394136 0.006533213946877537 0.004178386849754574 -0.01642806143737561 0.0034886358371103527 -2.1888825520824257e-05
-0.024625522476383215 0.008223820579144779 0.004956460016856668 -0.016514210434905262 0.002820088669101226 0.00010904776777328352
-0.02934183621163072 0.009919968429815587 0.005695956454826055 -0.016553665695096115 0.0019430969686609367 0.0005091665954814312
-0.03421872568140289 0.011582425461736389 0.006337928432807754 -0.016405770683189047 0.0010831364724532568 0.001242732617042633
-0.039164411402590686 0.0143365549002177 0.006770981292300864 -0.016130537707554956 0.001352651329979274 0.0028085932674172566
-0.039238988745911536 0.013611803573467904 0.006893064593699977 -0.020393332625035874 0.004179320490892023 0.0064607671992489984
-0.03693267028933753 -0.008453088748293876 0.007095799846385313 2.3377489399558683e-05 0.00022407088672117323 0.01752060847756186
-0.039211639568969205 0.013591904739722476 0.0069172510423221485 0.020439348470499143 -0.003713096601991953 0.006457842844571669
-0.03910890618326134 0.014297051969908915 0.006817723808179819 0.016173310956606426 -0.0008340669234034401 0.0027995067230370523
-0.03413383112770802 0.011524433854605609 0.006403152240113813 0.016439411914417845 -0.00048455707192685595 0.0012195820094591963
-0.02922646923864813 0.009846397323511625 0.005771421523345285 0.016565494009027158 -0.0012512821206437691 0.0004559598404200077
-0.02447726042096305 0.008140138509125741 0.005026940621886106 0.016479119237608024 -0.0020484106473375807 -4.685334198992705e-06
-0.01962787657166037 0.006444677916336321 0.004217417443958698 0.016300939589979836 -0.0026908577883886604 -0.0002518792731271228
-0.014977336671876873 0.005024646986438381 0.00340227420894039 0.016482116942664476 -0.003036994285034878 -0.00036943913579813684
-0.010334079364071049 0.004025966423778809 0.002752724805054438 0.017999902057684897 -0.003083688038912322 -0.0001350629114125115
-0.004659061709090091 -9.788688048551446e-05 0.002720195494389912 0.01756002594082328 -0.0024973762992081604 0.001603813933427209
-0.001397706221143927 -0.009152031202839932 0.0035101138779462977 0.01190288962195008 -0.0017690963731753408 0.007759325660583636
-0.0043577574251853456 -0.003615904379338742 0.004396738372592863 -0.006281381548000299 0.0027546933394171523 0.004313165363549552
-0.00908811368464679 0.0008992810390246042 0.004259011073756098 -0.009980007520098557 0.004591878853666811 0.0013109779173159724
-0.019160983054395397 0.006358643199950736 0.005037899334796703 -0.010645256525653223 0.006780950700012651 0.0004518752607080398
-0.029543154002970456 0.009926162213108021 0.006455299730972876 -0.009543977906700711 0.007037398299453828 7.147172629508281e-05
-0.03946115210584086 0.013296853404686296 0.00804188651693729 -0.009232264430763557 0.006209628812958925 -3.302677504123337e-05
-0.04912906012631186 0.016704245858809107 0.009600516210641386 -0.009306026447801631 0.004647292788856422 -1.8579821517799256e-05
-0.05861388809673116 0.020099627323719886 0.011033030091831314 -0.00939248176171287 0.0026247115568497365 0.00011693142632928098
-0.06750127035675431 0.023517348351690174 0.012230044615818477 -0.00921811612765349 0.0005641721939993427 0.000473436423819502
-0.07724932118249635 0.026548259107604107 0.01302135169363198 -0.009509038153814193 -0.001263597865596786 0.0007425581525845773
-0.0812580837945567 0.033679591631186265 0.012900316009627974 -0.012880201208071347 0.0026373589531947855 0.002414562059765205
-0.07970431113734817 -0.003973091814644692 0.012575056465030108 1.62127091133107e-05 0.0002976328712566244 0.012897384390890847
-0.08123167367733941 0.033655945027313484 0.012934915993297718 0.012912337598235355 -0.002020478527257288 0.0024174086601257924
-0.07719677021829148 0.026501489175059918 0.013089498769583813 0.00953969059180476 0.0019427318677180739 0.0007464844918256917
-0.06742399829122324 0.02344920540214229 0.012328795090089478 0.009244050806770323 0.00020871846751500868 0.00047399438486002253
-0.05851622028857189 0.02001462819112908 0.011155780688746376 0.00940627562652623 -0.001746711664933653 0.00010491698553068864
-0.0490207903771723 0.016611392071006568 0.009734194866083637 0.009292604079124711 -0.003691790878628426 -6.168604606765741e-05
-0.03936205969242923 0.0132123544484678 0.008163153250653796 0.009161853615031756 -0.005269971569380319 -0.00014416031151039027
-0.029485624282370525 0.009885141349683754 0.006527245348818308 0.009378296039024825 -0.006294587415285644 -0.00016273922366708912
-0.019164381151062913 0.006423154342536943 0.005015387490220426 0.010422077928076522 -0.006459655962771946 0.00010801118482925408
-0.009100742897817439 0.00106038464001486 0.0041219810666768475 0.009881382174519523 -0.004693822109718672 0.001142768351886372
-0.00434909170280562 -0.00361118582970993 0.00418642603472867 0.0062586277177340225 -0.003017522185849948 0.0049511871355644235
-0.005854811969870089 -0.0017507218383061981 0.005334889441254698 -0.0024058800793662874 0.00526648688992261 0.0027953412289042022
-0.012542344872543002 0.0016096017946854804 0.005542136348125874 -0.0039054848296636016 0.007909544043204255 0.0009113928989917583
-0.027803966966482997 0.007577492243902084 0.007007232707700316 -0.003835494962629061 0.011007498075230744 0.000490499786549958
-0.04411604934692879 0.01240084692123688 0.009199677718791188 -0.0034778248063896833 0.01109836048561362 0.00020319175830903023
-0.05914926802885912 0.016750173046764502 0.011534552413286726 -0.0034003665740537513 0.00954221266775826 0.00010110089253793247
-0.07362804200741824 0.021046954228295927 0.013791261049907994 -0.003479513873051263 0.006869927244896384 3.278559373859992e-05
-0.08786020467699089 0.02525544320935834 0.015845187405919166 -0.003523837300186009 0.0034563120047823182 -1.8656433011020844e-05
-0.10140896567835224 0.02981696278164179 0.017544017505164836 -0.0036836024438590613 -0.00031910197638780803 -9.388759987282672e-06
-0.11258645849602304 0.03206264798359364 0.018659237494961747 -0.003792315175718517 -0.004205961208168717 -6.86349385797869e-05
-0.12433730202128335 0.04505948365927488 0.018272449170219005 -0.009192854915912152 -0.006274629737800697 -0.0014866191327173998
-0.13140429110407198 -0.0016508895347015276 0.015257338081945702 7.782855909388518e-06 0.00038293070477684373 0.013713866283238065
-0.12431144270735785 0.045033889958172146 0.01831736641801872 0.009208440558556139 0.007066916488380136 -0.0014812795472717247
-0.11253573260206018 0.032012071601754066 0.01874849208791085 0.0038077173775656094 0.005074408078680716 -5.887306873149638e-05
-0.10133653846732035 0.02974343442148479 0.017675518926369135 0.003697740065766832 0.001302366651778965 2.4785689220087727e-06
-0.08777399161538119 0.025164099949316975 0.016013356644702513 0.0035338597981630663 -0.0023442373886431063 -9.447727676413964e-06
-0.0735466466609458 0.02094859144194729 0.013983930053450435 0.003479372622689708 -0.0056642435285701115 2.960388607254881e-05
-0.05911351017883749 0.01666650245253049 0.01172890845507936 0.003377274888650424 -0.008368776506160075 6.588895397899745e-05
-0.04418722720804108 0.012371765845458458 0.00935824399608216 0.003414686193810344 -0.01021521612849464 0.00010604134783624007
-0.02798954038249143 0.007646008741767767 0.0070798891154615715 0.003743334210200834 -0.010744605015526498 0.0003425072515247641
-0.012706412160057032 0.0017299407206360748 0.005498247765736456 0.0038592770730548416 -0.008241897254209627 0.0008457037911593254
-0.005953202188228661 -0.0017145044390864221 0.0052060206595803925 0.0023681740412159606 -0.00581349146090922 0.0031813463955080484
0.01829292523760152 -0.06798218001789398 7.779150587583494e-18 -0.03851286240953315 -0.015877565699915337 0.02000761296790312
0.022025302154364372 0.007066881607184877 -0.0025484208635698047 -0.01710816484571882 -0.01652666435772924 0.0006804023494388026
0.03069125163628094 -0.009584996319177454 -0.006721291114226792 -0.008065252595831372 -0.016145403570578584 0.005612447911128305
0.04316058291578316 -0.011259814219385772 -0.009449541432243401 -0.008317062022690308 -0.014365884754898098 0.0060897193094144545
0.058587615442179615 -0.01619587590400916 -0.012498367169287452 -0.00783860363492708 -0.01283789826044835 0.008363814886008505
0.0742329633340475 -0.020524923943295973 -0.015432474285135953 -0.007112122388277179 -0.010083430907984673 0.01031364317315997
0.08949313204864755 -0.024895983779819313 -0.018192568942933012 -0.005940830331476056 -0.006289152442974287 0.012317179344224468
0.10384252182113152 -0.029089529657924294 -0.020607832354932118 -0.004330532898627124 -0.0015329012067587509 0.014285910552585594
0.11588260218937607 -0.03273117494278642 -0.022431397256800416 -0.0022539226654936947 0.003103421147455003 0.01631540633110688
0.12354685715784651 -0.03484927373415127 -0.023437098667011613 -0.00041879107739335513 0.004418420558531163 0.018496023906930358
0.12603671947391376 -0.034969571326116604 -0.023714006991754282 -5.12945654862376e-05 -0.00010621090330888204 0.01998338650021739
0.12364079613912213 -0.03487920191010566 -0.023459229172760856 0.000313538689215671 -0.0046289768297465604 0.018501183512095846
0.11608854383689081 -0.032796622905701754 -0.022479146492546162 0.00214068381329624 -0.0033078147921584266 0.016325633794985722
0.10419899049275946 -0.029202291798371298 -0.020688951112778617 0.004203796125515442 0.0013413265717210974 0.01430146821109797
0.09006425596001694 -0.02507483312431615 -0.018320182852769085 0.005795520070955976 0.006120237905420219 0.012335964366721361
0.07511317528360313 -0.020798453259856086 -0.01563053708505435 0.0069410822468778674 0.009958867144641214 0.01034316820222588
0.05991036958579547 -0.016596954507344684 -0.012796105244194186 0.007642564885168964 0.012758223797129379 0.00836664217399189
0.045105122862842344 -0.0118359597374546 -0.009946000482360556 0.008039521904734477 0.014457786046920572 0.006245613786976443
0.0338329091036633 -0.010411874024054099 -0.00731626298202665 0.007729195149858719 0.015892599408334325 0.005094788328905647
0.028787133481992206 0.005918112765555382 -0.0043678850512733555 0.01775098519255022 0.021250916927273187 0.003742948951974648
0.02783916749585444 -0.07174206932332561 0.0057261147806968084 0.023149716978419093 0.027835545172014836 0.007760097001070974
0.011236363823933943 -0.05901726846207923 0.004749218176545138 -0.024719800336571295 -0.013118294069420895 0.011501194991510305
0.010147467687201778 0.004719282509967754 -0.001666644916827052 -0.020482502421780808 -0.010984345146970154 0.003449720505825635
0.01620155038445109 -0.005879204187738802 -0.004346689162090291 -0.01704194997584637 -0.009966298115702519 0.006047344789547867
0.028139303636090438 -0.009030970775390798 -0.006720455729694965 -0.017260475975857042 -0.008811911202351056 0.007842050413950828
0.03820910966358623 -0.01274262155175116 -0.008895415303841716 -0.016872218876194257 -0.007646964271887672 0.010404115096851796
0.04863470986679765 -0.016277422575904112 -0.011050084142601401 -0.015497388328245779 -0.006025925104815215 0.012958958545037171
0.05876518597046897 -0.019763978269426684 -0.013044829305953637 -0.013465260667598705 -0.0037705517430354617 0.015528464801715325
0.06829018380517325 -0.023167488338442243 -0.014783205188143786 -0.010501129219282387 -0.00098680528330026 0.01818041319021886
0.07632073308915743 -0.02611546673061504 -0.0161049917556539 -0.006202984673067239 0.0017548824437523247 0.021199149803608756
0.08149484342623683 -0.02740110043337701 -0.016898825495230498 -0.0016326176041716292 0.00261713280123241 0.024985996807022112
0.08320717373293288 -0.02640371450477471 -0.01719779502355852 -9.145639457617183e-05 -2.5442024990147584e-05 0.027923103077914926
0.08159360841449578 -0.027432239187518824 -0.016916963871192316 0.0014438805129285547 -0.002662951007569388 0.024986538234546683
0.07653479312585403 -0.026183012845910052 -0.0161448262881292 0.00599648217329354 -0.0017853372252953168 0.021199541066962722
0.06865400290684882 -0.023282316603427874 -0.014852430234227566 0.010263949374308102 0.00098216437439534 0.01817918649183725
0.059333880279956834 -0.019943209111671654 -0.013157176952792721 0.013183017031498483 0.003803411060054863 0.01552258620279749
0.049488235523741646 -0.016546418529166072 -0.011226302528015954 0.015154023719257694 0.006104016454369744 0.012946094904616172
0.03945255763259049 -0.01313264952377246 -0.009175951961470719 0.016450974375625392 0.00779004673021926 0.010370633926121179
0.02993585725397098 -0.009572470915301959 -0.007137441722200416 0.01669180676011126 0.008957754407529413 0.007835223013575369
0.018779779193547206 -0.00662816076856448 -0.005082463620715475 0.016164253491902973 0.010378630330586992 0.005811876872387746
0.01247521859175647 0.004421000818875498 -0.002339748897229427 0.01931928921092605 0.012561217369933727 0.004948104395716507
0.012860972255603087 -0.061913157126974684 0.0059006586213098304 0.01546892640274946 0.015532631784147953 0.004671388566834142
0.00579393804153828 -0.04106477394456314 0.005193075425160762 -0.029022583673533095 -0.007988064385308314 0.003809186917927556
0.0034024434372646843 0.0009847886035400674 0.0002488582168494996 -0.033270306286969 -0.00625149547444385 0.005361311637531799
0.005034461691079794 -0.0001835847558343756 -0.0018767254016886393 -0.029019502004052695 -0.004926381411159086 0.006904329452409323
0.012307712565020154 -0.004073051164235166 -0.003257038731818466 -0.029513995997313375 -0.003995108777667618 0.010001824225278424
0.018244522179640073 -0.006040459240342975 -0.004453474952405097 -0.02851161495381325 -0.003267431482518337 0.01319991449292825
0.023604475803663687 -0.007886813172374491 -0.005587218894362208 -0.02631758850815197 -0.0024727072652927446 0.01655937040001647
0.028884939324569772 -0.009674758953134636 -0.0066356838901182194 -0.023055175572641622 -0.0014063294286860036 0.019949482361071382
0.03398410501999911 -0.01154990267929143 -0.0075414403327730495 -0.01831403309582484 1.3676466430967996e-05 0.02352547208760143
0.038338351856210644 -0.013228601388218499 -0.00825260845464521 -0.010998705999183019 0.0018187232587432787 0.027736322993765484
0.04057415824987469 -0.012637699486523869 -0.008777130031960286 -0.0023738513050484632 0.0027799644425219655 0.03348551366686075
0.04097143556822081 -0.008370503202865165 -0.009117408828717644 -0.00014614838884684624 3.9102860704153165e-05 0.0388985866790521
0.04067435216729331 -0.012670773182107638 -0.008790795604278237 0.0020718581316006464 -0.002694037727257489 0.03348249659213963
0.03855346025157176 -0.013299403066701763 -0.008283172563948239 0.010667051338411976 -0.0017100200370655121 0.027729385200320814
0.03434384386745244 -0.011667643106512348 -0.007595940425178421 0.01793084558317383 0.00013154755737145068 0.023512434365279267
0.029434866981635655 -0.009853236521469386 -0.00672598015945571 0.022595150144434563 0.0015982044592998648 0.019926815659750744
0.02440684829510356 -0.00814614635990305 -0.005732660073197683 0.025750921139514476 0.0027151086726386483 0.01651918503469055
0.01937683303807178 -0.006403932914745634 -0.00468255505802068 0.02780111974219486 0.003547989518095148 0.013141016130111715
0.013847870768972911 -0.004557788660868682 -0.0036188227141353757 0.028564801068220427 0.004284294071702301 0.009884563044550416
0.006635691624139245 -0.000616536453705149 -0.002431568004402663 0.027640165772774776 0.005327502576598365 0.006930249875860773
0.004472189281012248 0.001561719530888383 -0.00023621448010633338 0.031431598685830356 0.006845604586583312 0.00544363727099334
0.006492935839496281 -0.042832624283431216 0.00543652464496729 0.027432913781242498 0.008765370661317221 0.003640624949163347
0.0015570011508877408 -0.0246242090992374 0.004637796797939291 -0.026838579409488406 -0.003603494389189935 0.001343287262737076
-0.0017754776909914925 -0.0005220398574450668 0.0018037943105783983 -0.03518427368946021 -0.002041647841693597 0.004655984294622679
-0.004458758445900183 0.003113372215833787 0.0006679775949361328 -0.03532544832298349 -0.00032203781489848144 0.007138712933683294
-0.0029152045883018185 0.0011991572614636794 0.000380761753684172 -0.033724126166614826 0.0005352917393982174 0.010517270784613685
-0.0016907035941106244 0.0005093295857301196 0.00027494575894170025 -0.03233770848746736 0.0007888742298233942 0.014010646441561272
-0.0011408921113560237 0.00035800744982264954 0.00021306913427464563 -0.029831409120024115 0.0008580272628370026 0.017572171092143533
-0.0006311836237465952 0.00021185231181169328 0.00017164922689531814 -0.02618896282565604 0.0009207688502818217 0.021212520178160523
0.00021163536185762346 -0.0001496762479703244 0.00014461115527330745 -0.02106816264207105 0.0011602205917618919 0.025004372304212534
0.001156198923420396 -0.0008496870894371 7.826004979824677e-05 -0.01269001793097797 0.0022460807103736715 0.029353439096418077
0.0002653571928775823 0.0015450406418254167 -0.00019107493796115596 -0.0007861578087465253 0.0036512420931132227 0.03559449917501831
-0.000993035496411946 0.011911619640144852 -0.0007020010322718348 -0.00016409108626199592 9.710755723918503e-05 0.04363713275498097
0.0003655298225535438 0.001510663749344772 -0.00020001156938516553 0.00044679174975028506 -0.0034468219495612557 0.03559038076898099
0.0013692795442803928 -0.0009225469018687266 5.7626501634227883e-05 0.012316443270892189 -0.002011895554969138 0.029344173460035154
0.0005622663853583018 -0.0002687611673340257 0.00010639856644041644 0.02063521186352908 -0.0008798418511954016 0.024987614142963643
-0.00010813170684916408 3.580909990724191e-05 0.00010607650482852626 0.025667077872966255 -0.0005849253369137522 0.021183681251130463
-0.0004034200479069793 0.00011089988674843805 0.00010530399038880618 0.029183545424657894 -0.00047188583963655474 0.017524212407015738
-0.0006951621969563946 0.0001750005324156349 0.0001026274231210251 0.03151279619030403 -0.000383054757095498 0.013931279253482844
-0.001724501443315648 0.0007937421403878543 0.00010929407908742404 0.03264572977553234 -0.00015761177707894578 0.01040724956332411
-0.0034510834903786346 0.0029983126251440853 0.0002816250348312373 0.033964725716497 0.0006340438889830823 0.007078226374421144
-0.001198067706483219 -2.9943857528813523e-05 0.0014515115146777377 0.034382877209955205 0.002303476892576553 0.004786403186150329
0.00194260937100149 -0.025853751650710754 0.00466001664800388 0.02658229417670355 0.003928948413466638 0.0021054142382098727
-0.0021846482378419687 -0.01179802039955624 0.004054745134842109 -0.02039746351940527 5.2901424911431534e-05 0.0010606586649954727
-0.006477075244096729 1.0659798024157356e-05 0.003037419573830306 -0.029588215041511576 0.0019127744554485132 0.003612651559287156
-0.013242197306578 0.005528177738458924 0.003127998469932288 -0.03250463182437875 0.0043393745306772435 0.00659971140590105
-0.017586973201291742 0.006102260364004162 0.003991804600962476 -0.030294371717422455 0.005147337768417682 0.009908331769850311
-0.021597089175636894 0.007140703838998133 0.0050026355827306485 -0.028538342998846625 0.004901041402165459 0.013230694321365928
-0.025907758708231806 0.008614783336526653 0.0060114685204597515 -0.026300557159900057 0.004206734583219422 0.016562252674159592
-0.030167643606475687 0.010056440335137598 0.006976893622598724 -0.023094106266631966 0.0033107542539812245 0.019985410838990154
-0.03372279916643382 0.011430331931333835 0.007839641001073608 -0.018532330397536222 0.0022458540164761913 0.02342311838320772
-0.035910682660413626 0.0115537135708711 0.008434062898921164 -0.011779439238512247 0.001999087162877163 0.027092007927764367
-0.03990898624016451 0.014089269129228768 0.008353213613813021 0.0030280122999427 0.004086257443360443 0.03217120515123046
-0.04316286196446117 0.035601543270346384 0.007322240117397437 -0.00014769880633194472 0.00015639870682004697 0.04266099102764943
-0.03980840671371895 0.014053522433131845 0.008348993785521536 -0.0033336373933947226 -0.0037604996052501894 0.03216846762958046
-0.03569881489682284 0.011478647543590077 0.008423387775379342 0.011442593494597312 -0.0016358082543890668 0.027085678732649963
-0.033380144300515655 0.011309573884590874 0.00781781981918933 0.018141511663795074 -0.001825383038936473 0.023411170742864352
-0.029670791952068183 0.009882454214059016 0.0069364432654747295 0.022622739837187617 -0.0028245016327419986 0.01996397461678765
-0.025237019425465322 0.008380788529698304 0.005941784367462766 0.025713237196806824 -0.003668469327578833 0.016524563742319635
-0.020760788528795277 0.006842279390071527 0.00488919587207576 0.02778602530840807 -0.004361666965243048 0.013167731596743833
-0.016707712836862895 0.005802360191748517 0.0038163155755954505 0.029332760304671985 -0.004702160873850971 0.009822954076484742
-0.012598560533956743 0.005501008732352789 0.002886531170560422 0.03157264122876464 -0.004090417097009126 0.006542275953274354
-0.006151931111137766 0.0002964002514411773 0.0028092387205142675 0.029367476583077128 -0.0018112410006644033 0.0037728217427578535
-0.0019741044075796046 -0.012505426213917734 0.0040180411581277956 0.02054328186089415 5.728344393863833e-05 0.001773409536237426
-0.005135039373649871 -0.0038675200716577376 0.0038913042202986764 -0.011293501057251734 0.0032660690958641898 0.0015543060637100052
-0.010674370738284386 0.0014448455240893198 0.0041114084737461035 -0.017047142860306643 0.005956781142805296 0.0025934198185716714
-0.021710785465866737 0.007679932796753709 0.005393150736072382 -0.01952765456739686 0.009499490381295128 0.005185465303626928
-0.032083860175323636 0.010881689678903161 0.007378390324227138 -0.01815886147941687 0.010260368700501907 0.007824456669288115
-0.041658709280994764 0.013904792057034912 0.009446521061405075 -0.016903946304930747 0.009416895626312052 0.01039543297273268
-0.05097947194911817 0.01704214606707406 0.011464140300146976 -0.015497568841237194 0.007840318052119122 0.012956429390923107
-0.05999295714722952 0.020145206603945556 0.013379495169433375 -0.013505805323040902 0.005783131863927015 0.015546492693714362
-0.06855835868847243 0.02300833145585606 0.015103523862598766 -0.010821372248289043 0.003424488704904196 0.018175490628509046
-0.07406640120668252 0.025815532509653044 0.016373501923564224 -0.006278967618865804 3.566672133082586e-05 0.020369839395165634
-0.08033927963862308 0.023592850407941627 0.01639142037899968 0.0031917430025992784 0.0015955327005120765 0.023275685699000254
-0.08525265247582095 0.06285049727161225 0.01400194698873319 -9.344758562474203e-05 0.0002249248564206225 0.030933023400258688
-0.08023580047060296 0.023554788391907947 0.016391645315197607 -0.003385058204493148 -0.001129216103565358 0.02327655030055608
-0.0738507018654723 0.025736417839318352 0.016372159002953572 0.006066137051042182 0.0004781692383471676 0.020371117207681526
-0.06821595831026417 0.022883251621340084 0.015096908319508362 0.010575122653594051 -0.002838812753743067 0.01817604690105048
-0.05951140679898864 0.019970112788733847 0.013361901824690008 0.01321026185642674 -0.005116436816612803 0.015543950563168525
-0.05036549629720399 0.016818331565328346 0.01142826082664373 0.015132358801668999 -0.007113823744919394 0.012946409337217475
-0.04097319053869768 0.013651599386041597 0.00938480508567036 0.01643968347868385 -0.008707330168043507 0.010372499952306009
-0.03147848930952219 0.010678708384713558 0.00728445069375244 0.017596611917006975 -0.009721748170973038 0.007789257949679101
-0.021362782779427172 0.007686643363747282 0.005265662490212195 0.019074273486260337 -0.009294166003997016 0.005170408237937045
-0.010556966524647441 0.0015992068785304508 0.0039858554969751415 0.017042762674376637 -0.005996595895050101 0.002707057496098316
-0.005081889712114337 -0.00414595399636364 0.0038480948122837054 0.011442380565422574 -0.003344650280255234 0.002016424814528264
-0.005818759447171499 -0.0013102265598161037 0.0044420783226919985 -0.005568444212421878 0.006538612943618041 0.0018759292188697666
-0.013208629203718592 0.0022263979429107536 0.0051404272675220795 -0.007985207916152395 0.010577767667027364 0.0021690281532133434
-0.0298623991346555 0.00872401200362574 0.007242452101693874 -0.008977662769926092 0.01569550727892586 0.004306334096185336
-0.047011971151954664 0.01330114814979989 0.010108280884134908 -0.008631992691049693 0.01638676437212762 0.006409008523827823
-0.06217804583921022 0.017338386888726614 0.01300694670438243 -0.008026694792803596 0.014770765023324898 0.008402767712550472
-0.07661868711840797 0.021314445496976864 0.015830128730126663 -0.007201298595009465 0.012058730773424339 0.010375554167189195
-0.09067690300689686 0.02531878230847453 0.018522480225019188 -0.006119045512296617 0.008513276383699949 0.012376500377546796
-0.1040158918702792 0.028711004892726502 0.020937376051258626 -0.00448529243652435 0.004303478010772462 0.014206485590071634
-0.1166867816668976 0.033781707956683046 0.022865270920060955 -0.002194913051347624 -0.0017427531127780485 0.016373483027592495
-0.1225661398367226 0.027419715681521597 0.02297299634944905 0.0061000638876072665 -0.012654379491407188 0.014704519757031912
-0.12218824915186265 0.07722429600511899 0.017324160086580286 -6.0381911158221765e-05 0.00031275631763906 0.030324931772473238
-0.12245472071221858 0.027380129315525067 0.022977185109202693 -0.006224804181087134 0.013301247114125787 0.014706284333951044
-0.11645707556794038 0.033699850135004324 0.022872071284723457 0.0020583381192021246 0.0024512358029842615 0.016376509075121237
-0.10365808849377908 0.02858277794337067 0.020943493939021375 0.0043292791467083305 -0.003501902332140758 0.014209629061716252
-0.09018871690953476 0.025141823293075807 0.01852277440287851 0.0059367558148135735 -0.007606734144447409 0.012377688137438645
-0.07603183663998231 0.021094794766087038 0.01581814410938696 0.006987689556856488 -0.011075086378725063 0.010371712877993901
-0.0616091634171132 0.017108162346062467 0.012977035319833423 0.007779464337093667 -0.013816061828098341 0.00839181270381316
-0.046678935894490084 0.013146775895293863 0.010057637670854973 0.008369126443671384 -0.015689432773423537 0.006395334681922495
-0.02989413695184005 0.008756519907412599 0.0071696809706888655 0.008788558226180016 -0.015525087123070595 0.0043151485684967406
-0.013390810934554324 0.002346175349539837 0.005069750970796923 0.007996570430789014 -0.01083138186138902 0.002247103431480091
-0.005969720973140915 -0.0014075552300746956 0.004430895614341905 0.005613594419515337 -0.006895689605344618 0.002184229446185399
SCALARS Stress_vm float 1
LOOKUP_TABLE default
14256.87097997349
6539.093942685644
7072.136065717225
9788.167431998152
13059.329292147833
16360.274841153634
19611.957359125543
22700.796287288467
25321.809353314144
26951.292238815375
27378.25631436315
26972.137956664053
25366.15663300697
22776.12899995392
19731.514547822608
16544.002607806648
13332.735827244422
10189.09470388872
7663.500958882224
7698.886304036059
15405.767617009036
12103.493629266024
3807.3564119392845
5036.769005543934
7214.687158969552
9402.578804250668
11618.11698405286
13820.378418921904
15941.17784950775
17774.80720410886
18909.07857008911
19121.383752097467
18928.13562334906
17815.359756329904
16009.562638828133
13926.7346656187
11776.082004849546
9627.6263586944
7517.590688373536
5384.948210591351
4025.0481625309158
12590.0408465978
8923.030669404778
4711.50419523935
4643.7108620520385
5474.517522891065
6359.829356144353
7309.309059910166
8324.184614481219
9407.135067345022
10434.708053788587
10961.609696456346
10771.96260793422
10974.434332167293
10460.261678365454
9448.678256418036
8386.019663639927
7393.91895811304
6461.2474459310315
5553.756487434041
4607.194338713007
4413.836062031595
9156.579282043263
6089.794389231348
5178.557781816483
5411.9377664770855
5110.698680011003
4973.662480668464
4860.051189515096
4928.423730515191
5342.745272348185
6221.758863607038
6916.75825822042
6546.711658551278
6907.411963507271
6208.01481258569
5313.976242061335
4872.4339847655365
4765.016348487263
4830.659038001445
4905.602271600398
5152.199830331827
5019.300013580385
6239.666541544019
3786.9101559532514
4664.406248133751
5896.98278648486
6286.115266355227
6902.305972224596
7695.518014309068
8541.498016467795
9303.347098275144
10034.209565404102
11294.163902170088
12833.070945867312
11270.229157691969
9985.062516386672
9221.573067206256
8422.25102107336
7531.669036495193
6688.5994390940705
6038.107144206259
5698.032268744207
4601.650042812371
3866.456603701757
2304.4916202305703
3677.726524989803
6162.348682943296
8177.2705218652045
10120.567834950469
12110.667817292395
14089.809498901728
15964.004159721015
17410.288264860086
18803.231584291603
22131.504870702556
18781.16282643871
17363.711489081656
15886.4749029799
13978.027012949207
11963.269347429537
9947.619179153045
8015.748128144754
6072.983285736263
3663.1742111779113
2328.320771258809
1989.3246151259814
3543.798760731937
7226.146924964848
10734.723125084112
13855.60772401738
16893.290161367757
19890.975651243007
22732.3826185732
25474.0208769135
26992.107298074206
29465.09436103083
26976.90091832181
25427.73709206356
22655.111705308627
19780.812475920306
16754.277905667266
13710.623442770682
10636.93185097182
7226.871889982633
3590.203397493277
2036.5912292803862
9294.90842795362
5490.051130145452
7021.464884929795
9778.717607579974
12864.745824229378
15973.111980774001
19025.641211297025
21993.131174631293
24871.332624178278
27442.743350916804
28702.75860252426
27450.660410568576
24887.746339986526
22020.263566034664
19068.6787716805
16042.1172986121
12979.034098385184
9969.082762279959
7388.546554466083
5947.978688993177
9745.198564086237
7873.674061186692
2989.47176445695
4751.2931635484165
6952.286990043309
9097.801293206161
11245.18369970873
13356.900082316151
15391.746902127914
17355.39669934574
19217.75357494258
20331.106856537845
19224.305539763696
17369.449874048543
15415.487808459911
13394.590394063802
11304.767730582445
9193.057323435805
7109.669309572831
4985.0480170595965
3161.7183864685876
8018.894908335079
6012.761802676409
2776.791555362936
3232.150268583152
4309.812750583271
5397.813262794817
6479.253558472696
7539.7183405222395
8521.950726902698
9535.527151294347
11003.513894526419
12505.152792109631
11008.222683025215
9546.51302817319
8540.471971331657
7567.469673212631
6519.661694933489
5457.112066131105
4389.622264997558
3295.2208326533705
2627.6185711153375
6020.158426117626
4246.330280629851
3086.048541357909
2987.913156998801
2776.6088723384746
2846.67249872426
3053.8177980343667
3374.4727837449554
3725.1785127187704
4078.812217078451
5229.023681171547
8207.06881295417
5225.739090480791
4073.412540686283
3721.8491882566573
3370.0126135689447
3042.5690767324836
2817.6645811384137
2714.222470344797
2861.643343037418
2944.36603265164
4264.845064602367
2761.794539351846
2957.979070071079
3895.8333669760123
4572.829378629695
5495.484610518382
6551.68259360451
7629.081929884193
8750.661534191171
9759.437240346402
9828.703022173959
10669.20488726294
9820.809732382126
9749.931073599892
8736.86525867101
7606.972507778507
6517.370703412
5442.347861487219
4495.385947024487
3809.3023839991843
2886.036720922607
2787.0819695820337
1912.3608870173248
2760.3741997028537
4985.155531293857
7113.454172155256
9216.803312861259
11341.424101504317
13450.719102283918
15488.467292698439
17495.723394857756
18535.566491315574
17485.45643625292
18529.444478065736
17488.510375224738
15475.652774649145
13431.235185616984
11314.493399508254
9183.634286237853
7081.881246449012
4970.296419535039
2747.4943884869526
1922.7791266669046
1957.7056634518297
3177.6630493396683
6466.996062185389
9854.536221043763
13005.793407313871
16084.92301042774
19127.38229994334
22064.285586486298
24465.948119792836
26862.856829515556
26861.52035592602
26862.98304084824
24462.645728350293
22055.244620344445
19112.632171430225
16065.409408898498
12987.798792580883
9853.987720115756
6501.605830514907
3223.1524605490104
1997.1450719040108
8631.622856892596
5449.867800064377
6768.418244313978
9409.836180176799
12344.711038470849
15255.388331498125
18149.99809585113
21157.570702758956
24542.95999107012
28137.323419850905
30084.765531159384
28130.228612550443
24527.530831502518
21131.580727613502
18109.860587764088
15195.671999338612
12257.307122565806
9286.218730141883
6551.177447186996
5035.354391691845
7928.1357961275135
6748.864539211304
2868.708841968387
4708.6068922417635
6818.58506774323
8842.426923684938
10852.996403934874
12860.031829897587
14927.569480481126
17257.895778745136
19900.084592303003
21625.546846434998
19891.77355227967
17239.56231528075
14897.344813159349
12815.607178338563
10791.093446693878
8759.357888327759
6708.781852717186
4572.9172514270995
2867.0016522447213
6406.744496822298
4858.842594056474
2478.6507648295833
3255.288805616279
4378.023830612362
5398.309061498379
6395.724622853402
7383.120860378455
8345.018975122033
9599.242364218348
11808.604201739283
14090.973128253212
11802.94567504954
9583.892221295668
8318.882025373396
7346.856693960444
6350.25016177309
5346.124420404497
4331.841016013827
3266.445491547442
2682.2619807241144
4772.900571019041
3507.694666348232
2868.4525284041592
2889.690353121406
2843.835499862046
2938.0157935207476
3103.221173112646
3349.6003945012612
3643.484797138653
4145.655954150058
5396.640283697408
10740.330385929052
5396.789411028167
4153.39442344856
3654.809426771794
3366.955285172501
3131.06444813043
2984.507368045669
2921.8685914067455
3022.7479292723924
2969.122047780384
3426.8432556830558
2418.3952172150925
2845.553552916136
3716.2766897082256
4331.17205950727
5216.312073163262
6250.301178055787
7349.397299486113
8612.000878533765
9923.391792309696
9899.264533291442
12007.216987189522
9916.416332713547
9954.433934791985
8659.71458249967
7414.615348401869
6332.654560198075
5314.867918624296
4438.341057372121
3799.2161288967486
2861.0145585488413
2328.860763070503
1849.8560518991687
2681.6910136132483
4730.571324893972
6666.559346974559
8644.80269841402
10698.34799896395
12798.273034990703
14941.714100750147
17312.05191705922
18826.028966624777
18465.768236863023
18843.503977782166
17347.778234645648
14995.760302253042
12870.36613870116
10784.660914991677
8736.100779644446
6742.390489084707
4763.186204773069
2665.8409433967795
1760.3615395666889
1937.246371575461
3036.2246442775117
6082.080131330941
9199.76823991653
12156.25291568993
15107.802198023614
18089.527779036
21087.063579171503
23680.53733602963
27367.631915438633
28979.95503802375
27388.96281064197
23724.26197582983
21152.428764498192
18175.417931682856
15207.838472600604
12254.695340480404
9267.895502444326
6098.750037519893
3026.393114748584
1877.9430036861177
8641.666146308464
5446.003234436615
6655.598200501855
9220.044626201096
12105.18696223179
14971.088314003498
17850.718933562177
20926.95891388066
24509.2874321661
28384.760588759997
30494.929025230776
28371.495373860336
24480.5944275957
20878.67126471748
17775.33371446857
14855.548300262084
11928.577698196008
8951.856889301633
6221.097081877657
4728.522909130543
7537.445294598949
6651.582490288637
2835.5556646858327
4660.557250548538
6723.017782836188
8713.91110267972
10700.139834942369
12707.989583512688
14836.03583130446
17310.51189075733
20141.630026991195
21987.937565056505
20127.467674785014
17279.22508095702
14783.904374793228
12629.630187744699
10586.696925777589
8552.46052410136
6495.869923505301
4380.911169866239
2706.827576905524
6088.670333733459
4720.777175627029
2330.724583386469
3217.3989061662123
4346.826100711778
5360.259691600039
6349.3583367566
7345.225584598894
8354.32199546415
9709.936743628967
12038.866623016662
14420.125140855913
12029.570893515967
9684.926448219288
8311.359240203477
7284.422028093371
6270.180582123143
5262.988441076282
4249.642277087263
3195.7643079741465
2597.839237517343
4469.057502528928
3342.1405150228256
2731.411711819514
2819.980587828095
2843.354095538869
2971.818835087367
3156.1606265829355
3427.3161957400516
3779.3533483922492
4370.232130550399
5256.386894075752
11289.493233374926
5261.412011061882
4385.202462604127
3799.720638013597
3457.5311783049133
3205.3548954485386
3053.9143118142943
2977.809652472079
3037.217971195286
2897.1993379657893
3127.2395925669243
2260.286573632837
2724.5936105086175
3587.662288426262
4207.281974785191
5094.048799704347
6132.211285524108
7254.572138709398
8580.40012277443
10005.793442444476
10068.903312379263
12127.540674762662
10094.209801156414
10052.297766423335
8652.334927451253
7355.705184351405
6265.1955186956475
5261.067672642316
4397.897112663041
3742.269885263061
2769.3826615593025
2058.068335619625
1733.6971570118076
2535.884610347565
4551.811477386957
6464.920293202653
8420.114485731277
10461.223092470786
12578.181560841313
14794.859751995473
17323.873743162476
18994.441555484238
18472.25983651152
19020.159729187373
17375.91890645717
14874.65586138619
12687.133899395276
10595.703162727872
8567.966297213185
6593.996658151824
4612.115242864222
2517.688698967624
1564.2694537142088
1757.8287136485935
2801.9614731485212
5823.536422851878
8907.483644220885
11818.704802119615
14735.995763098257
17718.60702694076
20799.390829874315
23583.283757567417
27565.74580155481
29111.841556487718
27594.72928325634
23643.94840455439
20892.378265497486
17843.87781087592
14885.771194413883
11969.916416154396
9013.755424078474
5842.038674372336
2761.766187293279
1620.6471149786748
8631.622856904985
5449.867800074667
6768.418244322257
9409.836180180611
12344.711038474521
15255.38833149744
18149.998095854437
21157.570702763103
24542.959991073676
28137.323419861397
30084.76553116534
28130.22861255837
24527.530831516546
21131.580727614037
18109.860587763964
15195.671999316948
12257.307122556747
9286.218730133807
6551.177447179785
5035.35439168411
7928.135796116259
6748.864539216444
2868.7088419722936
4708.606892246947
6818.585067746927
8842.426923688176
10852.996403933968
12860.03182990109
14927.569480483913
17257.895778748134
19900.084592311105
21625.546846439847
19891.77355228237
17239.562315296123
14897.344813159334
12815.607178342803
10791.093446681554
8759.357888321398
6708.781852711097
4572.917251421107
2867.0016522407445
6406.7444968127775
4858.842594058372
2478.6507648291526
3255.288805617433
4378.023830613944
5398.3090614983175
6395.72462285439
7383.120860381503
8345.018975122506
9599.242364225816
11808.60420174183
14090.973128255353
11802.945675049948
9583.89222131323
8318.88202537508
7346.856693971512
6350.250161769926
5346.1244203997485
4331.841016008552
3266.4454915421975
2682.261980719768
4772.900571010763
3507.694666349937
2868.4525284043452
2889.690353120104
2843.8354998590207
2938.015793519991
3103.221173116353
3349.6003945008147
3643.4847971366826
4145.655954158379
5396.640283694704
10740.330385924417
5396.789411028726
4153.394423463513
3654.8094267711767
3366.955285185213
3131.0644481318527
2984.507368043135
2921.868591401538
3022.7479292678286
2969.122047775809
3426.8432556759903
2418.395217216579
2845.5535529173444
3716.2766897084052
4331.172059505187
5216.312073163231
6250.301178056422
7349.397299483563
8612.000878531777
9923.391792309469
9899.264533288626
12007.21698718244
9916.416332714745
9954.433934793435
8659.714582496143
7414.615348406391
6332.654560183955
5314.867918621675
4438.34105736765
3799.2161288913508
2861.0145585452415
2328.86076306397
1849.8560518999664
2681.6910136143197
4730.571324894754
6666.559346974804
8644.802698413061
10698.347998960386
12798.273034990456
14941.714100746172
17312.05191706118
18826.028966624537
18465.768236858894
18843.503977783268
17347.77823464642
14995.760302246385
12870.36613869949
10784.660914975686
8736.100779637849
6742.390489077678
4763.186204767666
2665.8409433932043
1760.361539562799
1937.2463715756858
3036.2246442785467
6082.080131332546
9199.768239918489
12156.252915687142
15107.802198016487
18089.52777903742
21087.06357916657
23680.53733603322
27367.631915439433
28979.95503802166
27388.962810644716
23724.261975835012
21152.428764489643
18175.417931677202
15207.838472583011
12254.695340467464
9267.89550243443
6098.750037513934
3026.393114744072
1877.943003681659
9294.908427966802
5490.051130166395
7021.464884943858
9778.717607589455
12864.745824240581
15973.111980786349
19025.641211304835
21993.13117461854
24871.332624174735
27442.74335093389
28702.758602536887
27450.660410578206
24887.746339993217
22020.263566026544
19068.678771669678
16042.117298599333
12979.034098370168
9969.082762258673
7388.546554451949
5947.978688979389
9745.198564059234
7873.674061190311
2989.4717644646166
4751.293163558287
6952.286990051723
9097.80129321567
11245.183699717256
13356.90008232173
15391.746902122979
17355.396699347137
19217.75357495754
20331.10685654568
19224.30553977303
17369.449874050824
15415.487808458382
13394.590394054549
11304.767730573949
9193.057323427462
7109.6693095560695
4985.048017052444
3161.718386461896
8018.894908311938
6012.7618026778255
2776.7915553586663
3232.150268586169
4309.81275058999
5397.813262802921
6479.253558477515
7539.718340525079
8521.95072690547
9535.527151299975
11003.513894545415
12505.152792117859
11008.222683039003
9546.513028167701
8540.471971338766
7567.469673208261
6519.66169492923
5457.112066125726
4389.622264987066
3295.2208326503337
2627.618571109409
6020.15842609951
4246.330280632244
3086.048541354677
2987.913156993791
2776.608872339409
2846.6724987265607
3053.817798029817
3374.4727837466426
3725.1785127183066
4078.812217069757
5229.023681192613
8207.068812967913
5225.739090489527
4073.41254068562
3721.8491882619787
3370.0126135706214
3042.569076731469
2817.6645811368326
2714.222470339678
2861.6433430324705
2944.3660326461923
4264.845064588399
2761.794539352854
2957.979070069529
3895.8333669739914
4572.829378625808
5495.484610516377
6551.682593597996
7629.081929881381
8750.661534173658
9759.437240339248
9828.703022177815
10669.204887268825
9820.809732388328
9749.931073602325
8736.865258671925
7606.972507771914
6517.370703408573
5442.34786148076
4495.385947011366
3809.3023839926464
2886.036720916867
2787.0819695711557
1912.3608870194353
2760.3741997032907
4985.155531295231
7113.454172152991
9216.80331285986
11341.424101505801
13450.719102278417
15488.467292681278
17495.72339484525
18535.56649131605
17485.45643625435
18529.444478070847
17488.510375221416
15475.652774644814
13431.2351856079
11314.493399497405
9183.634286222108
7081.88124643331
4970.296419525213
2747.494388481073
1922.7791266606962
1957.70566345461
3177.663049341869
6466.996062189776
9854.536221042405
13005.793407313777
16084.923010435754
19127.382299935554
22064.28558646851
24465.948119773653
26862.85682951654
26861.520355940243
26862.983040852185
24462.64572833953
22055.244620337504
19112.63217141811
16065.409408878739
12987.798792557376
9853.987720096417
6501.605830500722
3223.152460540478
1997.145071897346
14256.870979983552
6539.093942712265
7072.13606573741
9788.167432018312
13059.329292158156
16360.27484116292
19611.957359126987
22700.79628728806
25321.809353314093
26951.292238825008
27378.25631437441
26972.137956681257
25366.15663300656
22776.128999957557
19731.51454781625
16544.00260778665
13332.735827222195
10189.094703867215
7663.500958862382
7698.886304012518
15405.767616957497
12103.4936292717
3807.356411945064
5036.769005554391
7214.6871589827415
9402.578804257259
11618.116984060558
13820.37841892479
15941.177849506252
17774.807204108416
18909.078570101843
19121.383752114947
18928.135623366397
17815.359756330294
16009.562638829942
13926.734665614407
11776.082004836211
9627.626358680047
7517.5906883619955
5384.9482105782245
4025.0481625181733
12590.040846554912
8923.030669411486
4711.504195234369
4643.710862052237
5474.517522892011
6359.829356145973
7309.309059911508
8324.184614481612
9407.13506733944
10434.708053788585
10961.609696463884
10771.962607962745
10974.434332180841
10460.261678370556
9448.678256418305
8386.019663636063
7393.918958107815
6461.247445925944
5553.756487426559
4607.194338699459
4413.836062018112
9156.57928201266
6089.794389236807
5178.557781815876
5411.937766473263
5110.698680002321
4973.662480658468
4860.051189507708
4928.423730506876
5342.745272338562
6221.758863606078
6916.758258210013
6546.711658565261
6907.411963506402
6208.014812584203
5313.97624206637
4872.433984768545
4765.016348490636
4830.659037999418
4905.602271591844
5152.1998303168475
5019.300013564935
6239.666541524369
3786.91015595768
4664.406248135248
5896.9827864824165
6286.115266350142
6902.305972216908
7695.518014298267
8541.498016457366
9303.347098268847
10034.20956540115
11294.163902156914
12833.07094584705
11270.229157680316
9985.062516385431
9221.573067213681
8422.251021076314
7531.669036491215
6688.5994390861515
6038.107144196277
5698.032268727671
4601.650042798758
3866.456603690439
2304.491620233514
3677.726524991511
6162.348682944547
8177.270521866403
10120.567834948002
12110.667817281561
14089.80949889472
15964.004159710883
17410.28826485274
18803.23158428615
22131.504870677156
18781.162826432992
17363.711489086534
15886.47490297786
13978.027012943683
11963.269347418085
9947.619179141011
8015.748128128225
6072.983285721563
3663.174211167662
2328.3207712523795
1989.3246151302606
3543.7987607357236
7226.146924969678
10734.723125089966
13855.607724018915
16893.290161360044
19890.975651234723
22732.38261855562
25474.020876896495
26992.10729806723
29465.094361015173
26976.90091832287
25427.737092067997
22655.111705298896
19780.812475906874
16754.27790564766
13710.62344275124
10636.931850946603
7226.8718899660125
3590.203397483719
2036.5912292748803
SCALARS Statev float 1
LOOKUP_TABLE default
0.0
0.0
0.0
0.0
0.0
0.0
0.0
0.0
0.0
0.0
0.0
0.0
0.0
0.0
0.0
0.0
0.0
0.0
0.0
0.0
0.0
0.0
0.0
0.0
0.0
0.0
0.0
0.0
0.0
0.0
0.0
0.0
0.0
0.0
0.0
0.0
0.0
0.0
0.0
0.0
0.0
0.0
0.0
0.0
0.0
0.0
0.0
0.0
0.0
0.0
0.0
0.0
0.0
0.0
0.0
0.0
0.0
0.0
0.0
0.0
0.0
0.0
0.0
0.0
0.0
0.0
0.0
0.0
0.0
0.0
0.0
0.0
0.0
0.0
0.0
0.0
0.0
0.0
0.0
0.0
0.0
0.0
0.0
0.0
0.0
0.0
0.0
0.0
0.0
0.0
0.0
0.0
0.0
0.0
0.0
0.0
0.0
0.0
0.0
0.0
0.0
0.0
0.0
0.0
0.0
0.0
0.0
0.0
0.0
0.0
0.0
0.0
0.0
0.0
0.0
0.0
0.0
0.0
0.0
0.0
0.0
0.0
0.0
0.0
0.0
0.0
0.0
0.0
0.0
0.0
0.0
0.0
0.0
0.0
0.0
0.0
0.0
0.0
0.0
0.0
0.0
0.0
0.0
0.0
0.0
0.0
0.0
0.0
0.0
0.0
0.0
0.0
0.0
0.0
0.0
0.0
0.0
0.0
0.0
0.0
0.0
0.0
0.0
0.0
0.0
0.0
0.0
0.0
0.0
0.0
0.0
0.0
0.0
0.0
0.0
0.0
0.0
0.0
0.0
0.0
0.0
0.0
0.0
0.0
0.0
0.0
0.0
0.0
0.0
0.0
0.0
0.0
0.0
0.0
0.0
0.0
0.0
0.0
0.0
0.0
0.0
0.0
0.0
0.0
0.0
0.0
0.0
0.0
0.0
0.0
0.0
0.0
0.0
0.0
0.0
0.0
0.0
0.0
0.0
0.0
0.0
0.0
0.0
0.0
0.0
0.0
0.0
0.0
0.0
0.0
0.0
0.0
0.0
0.0
0.0
0.0
0.0
0.0
0.0
0.0
0.0
0.0
0.0
0.0
0.0
0.0
0.0
0.0
0.0
0.0
0.0
0.0
0.0
0.0
0.0
0.0
0.0
0.0
0.0
0.0
0.0
0.0
0.0
0.0
0.0
0.0
0.0
0.0
0.0
0.0
0.0
0.0
0.0
0.0
0.0
0.0
0.0
0.0
0.0
0.0
0.0
0.0
0.0
0.0
0.0
0.0
0.0
0.0
0.0
0.0
0.0
0.0
0.0
0.0
0.0
0.0
0.0
0.0
0.0
0.0
0.0
0.0
0.0
0.0
0.0
0.0
0.0
0.0
0.0
0.0
0.0
0.0
0.0
0.0
0.0
0.0
0.0
0.0
0.0
0.0
0.0
0.0
0.0
0.0
0.0
0.0
0.0
0.0
0.0
0.0
0.0
0.0
0.0
0.0
0.0
0.0
0.0
0.0
0.0
0.0
0.0
0.0
0.0
0.0
0.0
0.0
0.0
0.0
0.0
0.0
0.0
0.0
0.0
0.0
0.0
0.0
0.0
0.0
0.0
0.0
0.0
0.0
0.0
0.0
0.0
0.0
0.0
0.0
0.0
0.0
0.0
0.0
0.0
0.0
0.0
0.0
0.0
0.0
0.0
0.0
0.0
0.0
0.0
0.0
0.0
0.0
0.0
0.0
0.0
0.0
0.0
0.0
0.0
0.0
0.0
0.0
0.0
0.0
0.0
0.0
0.0
0.0
0.0
0.0
0.0
0.0
0.0
0.0
0.0
0.0
0.0
0.0
0.0
0.0
0.0
0.0
0.0
0.0
0.0
0.0
0.0
0.0
0.0
0.0
0.0
0.0
0.0
0.0
0.0
0.0
0.0
0.0
0.0
0.0
0.0
0.0
0.0
0.0
0.0
0.0
0.0
0.0
0.0
0.0
0.0
0.0
0.0
0.0
0.0
0.0
0.0
0.0
0.0
0.0
0.0
0.0
0.0
0.0
0.0
0.0
0.0
0.0
0.0
0.0
0.0
0.0
0.0
0.0
0.0
0.0
0.0
0.0
0.0
0.0
0.0
0.0
0.0
0.0
0.0
0.0
0.0
0.0
0.0
0.0
0.0
0.0
0.0
0.0
0.0
0.0
0.0
0.0
0.0
0.0
0.0
0.0
0.0
0.0
0.0
0.0
0.0
0.0
0.0
0.0
0.0
0.0
0.0
0.0
0.0
0.0
0.0
0.0
0.0
0.0
0.0
0.0
0.0
0.0
0.0
0.0
0.0
0.0
0.0
0.0
0.0
0.0
0.0
0.0
0.0
0.0
0.0
0.0
0.0
0.0
0.0
0.0
0.0
0.0
0.0
0.0
0.0
0.0
0.0
0.0
0.0
0.0
0.0
0.0
0.0
0.0
0.0
0.0
0.0
0.0
0.0
0.0
0.0
0.0
0.0
0.0
0.0
0.0
0.0
0.0
0.0
0.0
0.0
0.0
0.0
0.0
0.0
0.0
0.0
0.0
0.0
0.0
0.0
0.0
0.0
0.0
0.0
0.0
0.0
0.0
0.0
0.0
0.0
0.0
0.0
0.0
0.0
0.0
0.0
0.0
0.0
0.0
0.0
0.0
0.0
0.0
0.0
0.0
0.0
0.0
0.0
0.0
0.0
0.0
0.0
0.0
0.0
0.0
0.0
0.0
0.0
0.0
0.0
0.0
0.0
0.0
0.0
0.0
0.0
0.0
0.0
0.0
0.0
0.0
0.0
0.0
0.0
0.0
0.0
0.0
0.0
0.0
0.0
0.0
0.0
0.0
0.0
0.0
0.0
0.0
0.0
0.0
0.0
0.0
0.0
0.0
0.0
0.0
0.0
0.0
0.0
0.0
0.0
0.0
0.0
0.0
0.0
0.0
0.0
0.0
0.0
0.0
0.0
0.0
0.0
0.0
0.0
0.0
0.0
0.0
0.0
0.0
0.0
0.0
0.0
0.0
0.0
0.0
0.0
0.0
0.0
0.0
0.0
0.0
0.0
0.0
0.0
0.0
0.0
0.0
0.0
0.0
0.0
0.0
0.0
0.0
0.0
0.0
0.0
0.0
0.0
0.0
0.0
0.0
0.0
0.0
0.0
0.0
0.0
0.0
0.0
0.0
0.0
0.0
0.0
0.0
0.0
0.0
0.0
0.0
0.0
0.0
0.0
0.0
0.0
0.0
0.0
0.0
0.0
0.0
0.0
0.0
0.0
0.0
0.0
0.0
0.0
0.0
0.0
0.0
0.0
0.0
0.0
0.0
0.0
0.0
0.0
0.0
0.0
0.0
0.0
0.0
0.0
0.0
0.0
0.0
0.0
0.0
0.0
0.0
0.0
0.0
0.0
0.0
0.0
0.0
0.0
0.0
0.0
0.0
0.0
0.0
0.0
0.0
0.0
0.0
0.0
0.0
0.0
0.0
0.0
0.0
0.0
0.0
0.0
0.0
0.0
0.0
0.0
0.0
0.0
0.0
0.0
0.0
0.0
0.0
0.0
0.0
0.0
0.0
0.0
0.0
0.0
0.0
0.0
0.0
0.0
0.0
0.0
0.0
0.0
0.0
0.0
0.0
0.0
0.0
0.0
0.0
0.0
0.0
0.0
0.0
0.0
0.0
0.0
0.0
0.0
0.0
0.0
0.0
0.0
0.0
0.0
0.0
0.0
0.0
0.0
0.0
0.0
0.0
0.0
0.0
0.0
0.0
0.0
0.0
0.0
0.0
0.0
0.0
0.0
0.0
0.0
0.0
0.0
0.0
0.0
0.0
0.0
0.0
0.0
0.0
0.0
0.0
0.0
0.0
0.0
0.0
0.0
0.0
0.0
0.0
0.0
0.0
0.0
0.0
0.0
0.0
0.0
0.0
0.0
0.0
0.0
0.0
0.0
0.0
0.0
0.0
0.0
0.0
0.0
0.0
0.0
0.0
0.0
0.0
0.0
0.0
0.0
0.0
0.0
0.0
0.0
0.0
0.0
0.0
0.0
0.0
0.0
0.0
0.0
0.0
0.0
0.0
0.0
0.0
0.0
0.0
0.0
0.0
0.0
0.0
0.0
0.0
0.0
0.0
0.0
0.0
0.0
0.0
0.0
0.0
0.0
0.0
0.0
0.0
0.0
0.0
0.0
0.0
0.0
0.0
0.0
0.0
0.0
0.0
0.0
0.0
0.0
0.0
0.0
0.0
0.0
0.0
0.0
0.0
0.0
0.0
0.0
0.0
0.0
0.0
0.0
0.0
0.0
0.0
0.0
0.0
0.0
0.0
0.0
0.0
0.0
0.0
0.0
0.0
0.0
0.0
0.0
0.0
0.0
0.0
0.0
0.0
0.0
0.0
0.0
0.0
0.0
0.0
0.0
0.0
0.0
0.0
0.0
0.0
0.0
0.0
0.0
0.0
0.0
0.0
0.0
0.0
0.0
0.0
0.0
0.0
0.0
0.0
0.0
0.0
0.0
0.0
0.0
0.0
0.0
0.0
0.0
0.0
0.0
0.0
0.0
0.0
0.0
SCALARS Wm float 4
LOOKUP_TABLE default
1134.8147656151323 1134.8147656151323 0.0 0.0
205.34669235600197 205.34669235600197 0.0 0.0
244.65060612764296 244.65060612764296 0.0 0.0
512.178219478303 512.178219478303 0.0 0.0
903.5037613936265 903.5037613936265 0.0 0.0
1423.926823227713 1423.926823227713 0.0 0.0
2050.386880749469 2050.386880749469 0.0 0.0
2751.229039114425 2751.229039114425 0.0 0.0
3425.2433157170094 3425.2433157170094 0.0 0.0
3891.0302536542913 3891.0302536542913 0.0 0.0
4040.879059353112 4040.879059353112 0.0 0.0
3896.916571490111 3896.916571490111 0.0 0.0
3437.012319234055 3437.012319234055 0.0 0.0
2769.1799688265687 2769.1799688265687 0.0 0.0
2075.042674743563 2075.042674743563 0.0 0.0
1455.4872293706885 1455.4872293706885 0.0 0.0
941.0880232604809 941.0880232604809 0.0 0.0
553.3638332929121 553.3638332929121 0.0 0.0
290.9136398257561 290.9136398257561 0.0 0.0
324.16900012366955 324.16900012366955 0.0 0.0
1087.210064551639 1087.210064551639 0.0 0.0
842.4556376213311 842.4556376213311 0.0 0.0
25.491227089919633 25.491227089919633 0.0 0.0
113.73170914487484 113.73170914487484 0.0 0.0
243.10665197523554 243.10665197523554 0.0 0.0
417.2981500893178 417.2981500893178 0.0 0.0
643.5909197411182 643.5909197411182 0.0 0.0
917.3239586968048 917.3239586968048 0.0 0.0
1226.0549756682474 1226.0549756682474 0.0 0.0
1529.1455394135103 1529.1455394135103 0.0 0.0
1744.3327952084358 1744.3327952084358 0.0 0.0
1814.3334405174505 1814.3334405174505 0.0 0.0
1748.1502298265752 1748.1502298265752 0.0 0.0
1536.7510259197456 1536.7510259197456 0.0 0.0
1237.5317653229422 1237.5317653229422 0.0 0.0
932.7427551528336 932.7427551528336 0.0 0.0
662.7600652134538 662.7600652134538 0.0 0.0
439.22334004797517 439.22334004797517 0.0 0.0
266.1024859141084 266.1024859141084 0.0 0.0
130.05440784864751 130.05440784864751 0.0 0.0
29.438454554494545 29.438454554494545 0.0 0.0
884.8587974805666 884.8587974805666 0.0 0.0
468.6628112977598 468.6628112977598 0.0 0.0
69.6005770148763 69.6005770148763 0.0 0.0
97.73729536982266 97.73729536982266 0.0 0.0
127.22396329239979 127.22396329239979 0.0 0.0
176.0054109253784 176.0054109253784 0.0 0.0
232.42159956446818 232.42159956446818 0.0 0.0
301.63668370297194 301.63668370297194 0.0 0.0
387.23082265735576 387.23082265735576 0.0 0.0
480.3280685589356 480.3280685589356 0.0 0.0
542.295904806267 542.295904806267 0.0 0.0
559.8353462443747 559.8353462443747 0.0 0.0
543.8633468665469 543.8633468665469 0.0 0.0
483.3095384966067 483.3095384966067 0.0 0.0
391.54133835527955 391.54133835527955 0.0 0.0
307.1189832588776 307.1189832588776 0.0 0.0
238.68212026969655 238.68212026969655 0.0 0.0
182.28871815803947 182.28871815803947 0.0 0.0
130.91744376086032 130.91744376086032 0.0 0.0
95.09186878518635 95.09186878518635 0.0 0.0
58.89915075009389 58.89915075009389 0.0 0.0
489.01180007042007 489.01180007042007 0.0 0.0
216.18093848650528 216.18093848650528 0.0 0.0
100.97899029991025 100.97899029991025 0.0 0.0
125.88400032745793 125.88400032745793 0.0 0.0
115.2519268165092 115.2519268165092 0.0 0.0
113.7591444895766 113.7591444895766 0.0 0.0
112.06697576824521 112.06697576824521 0.0 0.0
110.08323494835678 110.08323494835678 0.0 0.0
113.82138466140937 113.82138466140937 0.0 0.0
131.5611904148743 131.5611904148743 0.0 0.0
151.15283038665072 151.15283038665072 0.0 0.0
163.98232927583751 163.98232927583751 0.0 0.0
150.59854263555047 150.59854263555047 0.0 0.0
130.2341221505952 130.2341221505952 0.0 0.0
111.61839702978928 111.61839702978928 0.0 0.0
106.83696024261228 106.83696024261228 0.0 0.0
107.54521280051141 107.54521280051141 0.0 0.0
107.48200632639463 107.48200632639463 0.0 0.0
106.37663080672232 106.37663080672232 0.0 0.0
115.73303377638933 115.73303377638933 0.0 0.0
92.60809897674564 92.60809897674564 0.0 0.0
227.54469269638244 227.54469269638244 0.0 0.0
82.06170811806297 82.06170811806297 0.0 0.0
92.86135043898877 92.86135043898877 0.0 0.0
148.7526183355009 148.7526183355009 0.0 0.0
175.18900158663246 175.18900158663246 0.0 0.0
211.23751144474994 211.23751144474994 0.0 0.0
261.1908750990738 261.1908750990738 0.0 0.0
320.3213710258256 320.3213710258256 0.0 0.0
377.9071676082219 377.9071676082219 0.0 0.0
442.6161049456583 442.6161049456583 0.0 0.0
544.1216877980603 544.1216877980603 0.0 0.0
609.092293803785 609.092293803785 0.0 0.0
541.6344785945631 541.6344785945631 0.0 0.0
437.50885494461835 437.50885494461835 0.0 0.0
370.18482956952454 370.18482956952454 0.0 0.0
310.1035175027668 310.1035175027668 0.0 0.0
248.80685659378568 248.80685659378568 0.0 0.0
197.32731188401965 197.32731188401965 0.0 0.0
161.4669504341098 161.4669504341098 0.0 0.0
139.11045241431083 139.11045241431083 0.0 0.0
88.72008108781351 88.72008108781351 0.0 0.0
86.33647238492645 86.33647238492645 0.0 0.0
28.633252806715785 28.633252806715785 0.0 0.0
70.86548073625865 70.86548073625865 0.0 0.0
176.07628951903322 176.07628951903322 0.0 0.0
315.1211873159234 315.1211873159234 0.0 0.0
488.2578963892257 488.2578963892257 0.0 0.0
702.9167278242372 702.9167278242372 0.0 0.0
954.1993790490294 954.1993790490294 0.0 0.0
1228.188662470787 1228.188662470787 0.0 0.0
1439.4981446251343 1439.4981446251343 0.0 0.0
1755.667983898321 1755.667983898321 0.0 0.0
1909.8393097131852 1909.8393097131852 0.0 0.0
1751.2586271795165 1751.2586271795165 0.0 0.0
1430.8591918908148 1430.8591918908148 0.0 0.0
1215.2666012205855 1215.2666012205855 0.0 0.0
937.9417325276678 937.9417325276678 0.0 0.0
684.7462114352057 684.7462114352057 0.0 0.0
470.74777848065327 470.74777848065327 0.0 0.0
302.0096424827428 302.0096424827428 0.0 0.0
170.0234493829012 170.0234493829012 0.0 0.0
69.28637741355122 69.28637741355122 0.0 0.0
29.69299529990685 29.69299529990685 0.0 0.0
17.59373541776307 17.59373541776307 0.0 0.0
76.49290728250834 76.49290728250834 0.0 0.0
277.71703852411144 277.71703852411144 0.0 0.0
606.8291149277517 606.8291149277517 0.0 0.0
1016.601556493136 1016.601556493136 0.0 0.0
1515.8802064978117 1515.8802064978117 0.0 0.0
2103.2720019372773 2103.2720019372773 0.0 0.0
2760.414136436377 2760.414136436377 0.0 0.0
3431.5571734131213 3431.5571734131213 0.0 0.0
4073.708458270198 4073.708458270198 0.0 0.0
3502.675675765332 3502.675675765332 0.0 0.0
4068.021901544883 4068.021901544883 0.0 0.0
3418.0866335859914 3418.0866335859914 0.0 0.0
2740.6577210825203 2740.6577210825203 0.0 0.0
2079.134912768139 2079.134912768139 0.0 0.0
1490.5330175023755 1490.5330175023755 0.0 0.0
995.3878681176865 995.3878681176865 0.0 0.0
595.704060710945 595.704060710945 0.0 0.0
276.68688272450754 276.68688272450754 0.0 0.0
77.88507729199486 77.88507729199486 0.0 0.0
18.633598108610556 18.633598108610556 0.0 0.0
422.38079117430567 422.38079117430567 0.0 0.0
174.27451109326 174.27451109326 0.0 0.0
258.8546096127214 258.8546096127214 0.0 0.0
521.55042028397 521.55042028397 0.0 0.0
894.1996227907654 894.1996227907654 0.0 0.0
1380.4273934660503 1380.4273934660503 0.0 0.0
1963.1501392060204 1963.1501392060204 0.0 0.0
2636.293613907057 2636.293613907057 0.0 0.0
3393.3293014732676 3393.3293014732676 0.0 0.0
4137.84614066154 4137.84614066154 0.0 0.0
4495.295198236762 4495.295198236762 0.0 0.0
4139.898935429278 4139.898935429278 0.0 0.0
3397.162732110222 3397.162732110222 0.0 0.0
2641.85281212139 2641.85281212139 0.0 0.0
1970.7452639653332 1970.7452639653332 0.0 0.0
1390.6310979763289 1390.6310979763289 0.0 0.0
907.855402494816 907.855402494816 0.0 0.0
538.8849441819406 538.8849441819406 0.0 0.0
283.3834547315159 283.3834547315159 0.0 0.0
208.17155759515126 208.17155759515126 0.0 0.0
411.6659890166126 411.6659890166126 0.0 0.0
338.71351581694836 338.71351581694836 0.0 0.0
29.47031821658017 29.47031821658017 0.0 0.0
109.23466802317184 109.23466802317184 0.0 0.0
237.72472419580825 237.72472419580825 0.0 0.0
407.0159671642573 407.0159671642573 0.0 0.0
624.2954553073141 624.2954553073141 0.0 0.0
884.6034905219249 884.6034905219249 0.0 0.0
1180.980970391526 1180.980970391526 0.0 0.0
1508.4575874861698 1508.4575874861698 0.0 0.0
1836.993915709551 1836.993915709551 0.0 0.0
2010.812394398922 2010.812394398922 0.0 0.0
1838.319982800912 1838.319982800912 0.0 0.0
1510.9911775409194 1510.9911775409194 0.0 0.0
1184.687522866366 1184.687522866366 0.0 0.0
889.584587031972 889.584587031972 0.0 0.0
630.7867793900294 630.7867793900294 0.0 0.0
415.25616925041703 415.25616925041703 0.0 0.0
248.24659504302238 248.24659504302238 0.0 0.0
119.58123901758971 119.58123901758971 0.0 0.0
33.87905897286311 33.87905897286311 0.0 0.0
340.81112022160147 340.81112022160147 0.0 0.0
203.50925082382423 203.50925082382423 0.0 0.0
23.93232665496404 23.93232665496404 0.0 0.0
46.73685645415044 46.73685645415044 0.0 0.0
78.8319679389408 78.8319679389408 0.0 0.0
126.57256875035627 126.57256875035627 0.0 0.0
183.41243466086578 183.41243466086578 0.0 0.0
250.33700563252103 250.33700563252103 0.0 0.0
322.5893141122713 322.5893141122713 0.0 0.0
407.8995182107867 407.8995182107867 0.0 0.0
537.8680378220241 537.8680378220241 0.0 0.0
654.4634120633942 654.4634120633942 0.0 0.0
538.4940276302135 538.4940276302135 0.0 0.0
409.1316486763079 409.1316486763079 0.0 0.0
324.38442828707304 324.38442828707304 0.0 0.0
252.63691922455146 252.63691922455146 0.0 0.0
186.1562221376618 186.1562221376618 0.0 0.0
129.75211702144185 129.75211702144185 0.0 0.0
82.04710579814996 82.04710579814996 0.0 0.0
47.66952935872681 47.66952935872681 0.0 0.0
20.95147371060976 20.95147371060976 0.0 0.0
201.76405816495912 201.76405816495912 0.0 0.0
101.19216403897786 101.19216403897786 0.0 0.0
33.3808253154796 33.3808253154796 0.0 0.0
40.83580053430176 40.83580053430176 0.0 0.0
35.23198023896733 35.23198023896733 0.0 0.0
36.61837189790689 36.61837189790689 0.0 0.0
39.94735341665355 39.94735341665355 0.0 0.0
44.386574199977545 44.386574199977545 0.0 0.0
47.08882957946657 47.08882957946657 0.0 0.0
49.67810508872684 49.67810508872684 0.0 0.0
90.3124941058498 90.3124941058498 0.0 0.0
220.92293377698556 220.92293377698556 0.0 0.0
90.18028387252552 90.18028387252552 0.0 0.0
49.60726107457161 49.60726107457161 0.0 0.0
47.06285046172881 47.06285046172881 0.0 0.0
44.27857373963772 44.27857373963772 0.0 0.0
39.60335062865788 39.60335062865788 0.0 0.0
35.83871431432783 35.83871431432783 0.0 0.0
33.60512555559158 33.60512555559158 0.0 0.0
38.04131004065071 38.04131004065071 0.0 0.0
29.734014966147193 29.734014966147193 0.0 0.0
101.86685879619819 101.86685879619819 0.0 0.0
41.92540874794253 41.92540874794253 0.0 0.0
35.863917706539006 35.863917706539006 0.0 0.0
64.0477652983927 64.0477652983927 0.0 0.0
90.28592818467837 90.28592818467837 0.0 0.0
130.8420237915333 130.8420237915333 0.0 0.0
187.2873017681681 187.2873017681681 0.0 0.0
256.0516218403462 256.0516218403462 0.0 0.0
341.08107087040503 341.08107087040503 0.0 0.0
421.5712104059557 421.5712104059557 0.0 0.0
444.9029231769824 444.9029231769824 0.0 0.0
674.0411220075802 674.0411220075802 0.0 0.0
443.97476853929686 443.97476853929686 0.0 0.0
420.280843590017 420.280843590017 0.0 0.0
339.4150193458338 339.4150193458338 0.0 0.0
253.9568929589332 253.9568929589332 0.0 0.0
184.74742069210038 184.74742069210038 0.0 0.0
127.84976265265753 127.84976265265753 0.0 0.0
87.04972797102216 87.04972797102216 0.0 0.0
61.29134296321228 61.29134296321228 0.0 0.0
33.731195879011906 33.731195879011906 0.0 0.0
42.822397670990114 42.822397670990114 0.0 0.0
18.46734119132204 18.46734119132204 0.0 0.0
39.05499126050296 39.05499126050296 0.0 0.0
117.46064914987933 117.46064914987933 0.0 0.0
244.62673172613316 244.62673172613316 0.0 0.0
416.29892121631 416.29892121631 0.0 0.0
634.1940802030075 634.1940802030075 0.0 0.0
895.7055269723672 895.7055269723672 0.0 0.0
1189.9455333119054 1189.9455333119054 0.0 0.0
1546.8364828573567 1546.8364828573567 0.0 0.0
1642.763447419324 1642.763447419324 0.0 0.0
2119.409652882529 2119.409652882529 0.0 0.0
1641.1403939428806 1641.1403939428806 0.0 0.0
1544.5352378189987 1544.5352378189987 0.0 0.0
1186.7802601589444 1186.7802601589444 0.0 0.0
891.9028152884882 891.9028152884882 0.0 0.0
630.1730185126744 630.1730185126744 0.0 0.0
412.6533831291953 412.6533831291953 0.0 0.0
242.14146789018517 242.14146789018517 0.0 0.0
116.5090782860064 116.5090782860064 0.0 0.0
38.54743747415751 38.54743747415751 0.0 0.0
18.843048420013425 18.843048420013425 0.0 0.0
17.147583476357138 17.147583476357138 0.0 0.0
60.56184502230474 60.56184502230474 0.0 0.0
228.450646519413 228.450646519413 0.0 0.0
522.4359729088862 522.4359729088862 0.0 0.0
911.6157815733839 911.6157815733839 0.0 0.0
1397.1744456458946 1397.1744456458946 0.0 0.0
1982.393508272445 1982.393508272445 0.0 0.0
2634.803964911079 2634.803964911079 0.0 0.0
3287.783432813029 3287.783432813029 0.0 0.0
3730.630452345313 3730.630452345313 0.0 0.0
5597.438883343344 5597.438883343344 0.0 0.0
3729.4702752951084 3729.4702752951084 0.0 0.0
3284.7557145321093 3284.7557145321093 0.0 0.0
2630.1810015471533 2630.1810015471533 0.0 0.0
1976.8501994925482 1976.8501994925482 0.0 0.0
1391.67220444125 1391.67220444125 0.0 0.0
907.5966430100536 907.5966430100536 0.0 0.0
521.4254501175775 521.4254501175775 0.0 0.0
230.12384162645503 230.12384162645503 0.0 0.0
62.04444368680957 62.04444368680957 0.0 0.0
17.88589476236671 17.88589476236671 0.0 0.0
299.52643273343165 299.52643273343165 0.0 0.0
194.75750226131998 194.75750226131998 0.0 0.0
248.1531065781206 248.1531065781206 0.0 0.0
490.89636177618723 490.89636177618723 0.0 0.0
837.9791937180778 837.9791937180778 0.0 0.0
1285.6253050593418 1285.6253050593418 0.0 0.0
1833.9206103969402 1833.9206103969402 0.0 0.0
2522.500920228878 2522.500920228878 0.0 0.0
3437.5602322630243 3437.5602322630243 0.0 0.0
4515.313143687634 4515.313143687634 0.0 0.0
5087.742013650016 5087.742013650016 0.0 0.0
4512.817297348308 4512.817297348308 0.0 0.0
3432.7375496694176 3432.7375496694176 0.0 0.0
2515.395840836127 2515.395840836127 0.0 0.0
1824.3795063767484 1824.3795063767484 0.0 0.0
1273.5544797263256 1273.5544797263256 0.0 0.0
823.5428664538579 823.5428664538579 0.0 0.0
475.06037120131623 475.06037120131623 0.0 0.0
229.07827984903346 229.07827984903346 0.0 0.0
151.83308630820855 151.83308630820855 0.0 0.0
295.5722531689229 295.5722531689229 0.0 0.0
253.4434538224115 253.4434538224115 0.0 0.0
32.80893411067544 32.80893411067544 0.0 0.0
109.44243247142015 109.44243247142015 0.0 0.0
232.24879824996177 232.24879824996177 0.0 0.0
390.0135576297591 390.0135576297591 0.0 0.0
591.1030036422355 591.1030036422355 0.0 0.0
836.4597289736322 836.4597289736322 0.0 0.0
1138.6785318809664 1138.6785318809664 0.0 0.0
1532.7845443708227 1532.7845443708227 0.0 0.0
2007.5239951943045 2007.5239951943045 0.0 0.0
2287.3490823438924 2287.3490823438924 0.0 0.0
2005.8113925470514 2005.8113925470514 0.0 0.0
1529.4432932408884 1529.4432932408884 0.0 0.0
1133.8228494752152 1133.8228494752152 0.0 0.0
830.1679013465377 830.1679013465377 0.0 0.0
583.490490228708 583.490490228708 0.0 0.0
381.43945400934876 381.43945400934876 0.0 0.0
222.99653436034797 222.99653436034797 0.0 0.0
101.86145218665219 101.86145218665219 0.0 0.0
30.680426110000383 30.680426110000383 0.0 0.0
245.17443820895298 245.17443820895298 0.0 0.0
140.75617931488927 140.75617931488927 0.0 0.0
22.778578812119594 22.778578812119594 0.0 0.0
47.2193009316084 47.2193009316084 0.0 0.0
83.44646305263079 83.44646305263079 0.0 0.0
129.29995805806792 129.29995805806792 0.0 0.0
182.09939687400737 182.09939687400737 0.0 0.0
243.87756907077693 243.87756907077693 0.0 0.0
313.7439996917682 313.7439996917682 0.0 0.0
419.90918087110003 419.90918087110003 0.0 0.0
621.7010903141638 621.7010903141638 0.0 0.0
818.7033903339719 818.7033903339719 0.0 0.0
621.0259485687045 621.0259485687045 0.0 0.0
418.4858950928437 418.4858950928437 0.0 0.0
311.64695830098657 311.64695830098657 0.0 0.0
241.2485102696399 241.2485102696399 0.0 0.0
179.16186053107126 179.16186053107126 0.0 0.0
126.32267141168586 126.32267141168586 0.0 0.0
81.1964686315338 81.1964686315338 0.0 0.0
47.69940395821694 47.69940395821694 0.0 0.0
25.71272609126372 25.71272609126372 0.0 0.0
141.39477870035475 141.39477870035475 0.0 0.0
71.59362684764456 71.59362684764456 0.0 0.0
30.602883975945268 30.602883975945268 0.0 0.0
39.31140585372874 39.31140585372874 0.0 0.0
37.59419283257305 37.59419283257305 0.0 0.0
40.48445719413733 40.48445719413733 0.0 0.0
43.82025660455106 43.82025660455106 0.0 0.0
47.94776662528509 47.94776662528509 0.0 0.0
49.85980175763361 49.85980175763361 0.0 0.0
58.358509128594484 58.358509128594484 0.0 0.0
132.0735133297678 132.0735133297678 0.0 0.0
372.5490030102604 372.5490030102604 0.0 0.0
132.4838664532401 132.4838664532401 0.0 0.0
58.931102664333274 58.931102664333274 0.0 0.0
50.573964978307146 50.573964978307146 0.0 0.0
48.84645859623421 48.84645859623421 0.0 0.0
45.0043829120537 45.0043829120537 0.0 0.0
42.13454547899421 42.13454547899421 0.0 0.0
40.09118612487129 40.09118612487129 0.0 0.0
42.52551707150812 42.52551707150812 0.0 0.0
33.080685206333335 33.080685206333335 0.0 0.0
70.30580813201433 70.30580813201433 0.0 0.0
31.677784419919313 31.677784419919313 0.0 0.0
33.56705630147786 33.56705630147786 0.0 0.0
59.461824080399865 59.461824080399865 0.0 0.0
82.16046064043607 82.16046064043607 0.0 0.0
119.02833663931857 119.02833663931857 0.0 0.0
171.89260816112346 171.89260816112346 0.0 0.0
239.71901103166522 239.71901103166522 0.0 0.0
333.6409665309371 333.6409665309371 0.0 0.0
434.204972726643 434.204972726643 0.0 0.0
467.5035902212531 467.5035902212531 0.0 0.0
930.2986492175174 930.2986492175174 0.0 0.0
468.9876100272161 468.9876100272161 0.0 0.0
436.77670008772947 436.77670008772947 0.0 0.0
337.12627685918204 337.12627685918204 0.0 0.0
243.86658846010735 243.86658846010735 0.0 0.0
176.47139063813 176.47139063813 0.0 0.0
123.7526054817204 123.7526054817204 0.0 0.0
86.51497161378776 86.51497161378776 0.0 0.0
62.348298320166414 62.348298320166414 0.0 0.0
34.45856160319161 34.45856160319161 0.0 0.0
30.112629270664897 30.112629270664897 0.0 0.0
16.313457328505837 16.313457328505837 0.0 0.0
36.47813316395842 36.47813316395842 0.0 0.0
106.09504465449484 106.09504465449484 0.0 0.0
216.94133931868407 216.94133931868407 0.0 0.0
370.845754600301 370.845754600301 0.0 0.0
573.0470187523132 573.0470187523132 0.0 0.0
826.0120633100898 826.0120633100898 0.0 0.0
1130.8657117201326 1130.8657117201326 0.0 0.0
1558.520643109452 1558.520643109452 0.0 0.0
1682.437231087727 1682.437231087727 0.0 0.0
2707.3372207450648 2707.3372207450648 0.0 0.0
1685.0301626653434 1685.0301626653434 0.0 0.0
1563.3198207184935 1563.3198207184935 0.0 0.0
1137.2967920790975 1137.2967920790975 0.0 0.0
833.4527203227609 833.4527203227609 0.0 0.0
580.5816418742049 580.5816418742049 0.0 0.0
377.33729967177726 377.33729967177726 0.0 0.0
221.17954973549516 221.17954973549516 0.0 0.0
107.68001226976894 107.68001226976894 0.0 0.0
36.51565003035931 36.51565003035931 0.0 0.0
15.005666022326569 15.005666022326569 0.0 0.0
16.343620869069483 16.343620869069483 0.0 0.0
55.28112651327348 55.28112651327348 0.0 0.0
203.81592486674714 203.81592486674714 0.0 0.0
463.06793563587996 463.06793563587996 0.0 0.0
812.4400531858679 812.4400531858679 0.0 0.0
1260.8572566684425 1260.8572566684425 0.0 0.0
1821.277245883422 1821.277245883422 0.0 0.0
2477.3412387201824 2477.3412387201824 0.0 0.0
3202.1396678005 3202.1396678005 0.0 0.0
3903.8526168702874 3903.8526168702874 0.0 0.0
7284.334959348627 7284.334959348627 0.0 0.0
3907.844347374074 3907.844347374074 0.0 0.0
3209.808968548795 3209.808968548795 0.0 0.0
2487.5846683996947 2487.5846683996947 0.0 0.0
1832.8421314487389 1832.8421314487389 0.0 0.0
1271.9730151056015 1271.9730151056015 0.0 0.0
820.7835076665671 820.7835076665671 0.0 0.0
466.68124044400247 466.68124044400247 0.0 0.0
203.77538116953448 203.77538116953448 0.0 0.0
54.7410537506917 54.7410537506917 0.0 0.0
15.342285936573003 15.342285936573003 0.0 0.0
291.31241802471794 291.31241802471794 0.0 0.0
200.3761361878113 200.3761361878113 0.0 0.0
244.26003502151133 244.26003502151133 0.0 0.0
478.0026577042301 478.0026577042301 0.0 0.0
817.1613334819393 817.1613334819393 0.0 0.0
1257.8807612723824 1257.8807612723824 0.0 0.0
1807.0850821588342 1807.0850821588342 0.0 0.0
2520.6895916555595 2520.6895916555595 0.0 0.0
3505.668774263765 3505.668774263765 0.0 0.0
4692.860719840702 4692.860719840702 0.0 0.0
5327.702747615365 5327.702747615365 0.0 0.0
4688.375175490297 4688.375175490297 0.0 0.0
3497.1691522794063 3497.1691522794063 0.0 0.0
2508.360829621531 2508.360829621531 0.0 0.0
1790.5572404004938 1790.5572404004938 0.0 0.0
1236.6260273416594 1236.6260273416594 0.0 0.0
791.0525774001768 791.0525774001768 0.0 0.0
448.24431260629507 448.24431260629507 0.0 0.0
210.69018086067462 210.69018086067462 0.0 0.0
135.74536790537147 135.74536790537147 0.0 0.0
271.86472669747576 271.86472669747576 0.0 0.0
240.5305896901797 240.5305896901797 0.0 0.0
32.87982401083381 32.87982401083381 0.0 0.0
108.81940321948287 108.81940321948287 0.0 0.0
228.26011351209505 228.26011351209505 0.0 0.0
382.70028820167204 382.70028820167204 0.0 0.0
581.2450072819926 581.2450072819926 0.0 0.0
827.7861413393339 827.7861413393339 0.0 0.0
1141.6804998955974 1141.6804998955974 0.0 0.0
1565.6709654874426 1565.6709654874426 0.0 0.0
2084.87745960599 2084.87745960599 0.0 0.0
2390.3562293836785 2390.3562293836785 0.0 0.0
2081.875704985976 2081.875704985976 0.0 0.0
1559.9032355954857 1559.9032355954857 0.0 0.0
1133.3715393315242 1133.3715393315242 0.0 0.0
816.9688947912762 816.9688947912762 0.0 0.0
567.8907180798857 567.8907180798857 0.0 0.0
367.08097064650383 367.08097064650383 0.0 0.0
210.99110293097115 210.99110293097115 0.0 0.0
94.43029656347592 94.43029656347592 0.0 0.0
26.883671344953477 26.883671344953477 0.0 0.0
227.52917972426704 227.52917972426704 0.0 0.0
134.2335277603198 134.2335277603198 0.0 0.0
20.03734686841375 20.03734686841375 0.0 0.0
46.220978775112144 46.220978775112144 0.0 0.0
83.0755573631033 83.0755573631033 0.0 0.0
128.76513460758068 128.76513460758068 0.0 0.0
181.4739359569366 181.4739359569366 0.0 0.0
244.33753880632838 244.33753880632838 0.0 0.0
318.69047246896844 318.69047246896844 0.0 0.0
435.65798953489656 435.65798953489656 0.0 0.0
653.5809502523986 653.5809502523986 0.0 0.0
860.7594562441901 860.7594562441901 0.0 0.0
652.3717129824126 652.3717129824126 0.0 0.0
433.2026984064407 433.2026984064407 0.0 0.0
315.11969626918665 315.11969626918665 0.0 0.0
239.84724868157033 239.84724868157033 0.0 0.0
176.34753697998397 176.34753697998397 0.0 0.0
123.346801063885 123.346801063885 0.0 0.0
78.63963472948967 78.63963472948967 0.0 0.0
45.89389729441274 45.89389729441274 0.0 0.0
23.713712644812187 23.713712644812187 0.0 0.0
129.2769631914665 129.2769631914665 0.0 0.0
66.58406454006499 66.58406454006499 0.0 0.0
27.40053973930176 27.40053973930176 0.0 0.0
37.07408624222613 37.07408624222613 0.0 0.0
36.88270791235664 36.88270791235664 0.0 0.0
40.82017834298882 40.82017834298882 0.0 0.0
44.93016202200263 44.93016202200263 0.0 0.0
50.18870077523767 50.18870077523767 0.0 0.0
54.43277752889767 54.43277752889767 0.0 0.0
67.64398330987284 67.64398330987284 0.0 0.0
146.75339968363198 146.75339968363198 0.0 0.0
395.7130086981164 395.7130086981164 0.0 0.0
147.37642214589604 147.37642214589604 0.0 0.0
68.54317855750165 68.54317855750165 0.0 0.0
55.548956722478735 55.548956722478735 0.0 0.0
51.62828421977128 51.62828421977128 0.0 0.0
46.91096237316755 46.91096237316755 0.0 0.0
43.64399681787284 43.64399681787284 0.0 0.0
41.05349447866295 41.05349447866295 0.0 0.0
42.1811193710189 42.1811193710189 0.0 0.0
31.323214519647678 31.323214519647678 0.0 0.0
61.62171802797752 61.62171802797752 0.0 0.0
28.152295347655464 28.152295347655464 0.0 0.0
30.53029519888704 30.53029519888704 0.0 0.0
55.305112571788854 55.305112571788854 0.0 0.0
77.75758955385126 77.75758955385126 0.0 0.0
114.27301185318215 114.27301185318215 0.0 0.0
166.83328657921118 166.83328657921118 0.0 0.0
235.7019146715689 235.7019146715689 0.0 0.0
334.3022394740387 334.3022394740387 0.0 0.0
444.82197711436146 444.82197711436146 0.0 0.0
484.28327256523187 484.28327256523187 0.0 0.0
971.2203909356531 971.2203909356531 0.0 0.0
486.689894726959 486.689894726959 0.0 0.0
448.9635019766888 448.9635019766888 0.0 0.0
339.8461885566605 339.8461885566605 0.0 0.0
242.36941608551774 242.36941608551774 0.0 0.0
174.38437290068245 174.38437290068245 0.0 0.0
122.30512911365953 122.30512911365953 0.0 0.0
85.31873215229754 85.31873215229754 0.0 0.0
60.36827756039025 60.36827756039025 0.0 0.0
32.29206029485642 32.29206029485642 0.0 0.0
24.499805546289494 24.499805546289494 0.0 0.0
14.236013375849483 14.236013375849483 0.0 0.0
32.78446400984855 32.78446400984855 0.0 0.0
98.71163513577045 98.71163513577045 0.0 0.0
205.7602075583953 205.7602075583953 0.0 0.0
355.49705560338333 355.49705560338333 0.0 0.0
554.3328048532514 554.3328048532514 0.0 0.0
808.1634069901801 808.1634069901801 0.0 0.0
1123.9846996389385 1123.9846996389385 0.0 0.0
1583.6914080915058 1583.6914080915058 0.0 0.0
1724.6427831565377 1724.6427831565377 0.0 0.0
2812.110265601986 2812.110265601986 0.0 0.0
1728.7822832761385 1728.7822832761385 0.0 0.0
1591.1918076249951 1591.1918076249951 0.0 0.0
1133.9770071086655 1133.9770071086655 0.0 0.0
819.8435841726922 819.8435841726922 0.0 0.0
566.394440068778 566.394440068778 0.0 0.0
366.20022183638616 366.20022183638616 0.0 0.0
213.03395183471736 213.03395183471736 0.0 0.0
101.57259395940929 101.57259395940929 0.0 0.0
33.00689796352747 33.00689796352747 0.0 0.0
11.816622462036923 11.816622462036923 0.0 0.0
13.421349808044345 13.421349808044345 0.0 0.0
48.74049150684628 48.74049150684628 0.0 0.0
190.06936205118996 190.06936205118996 0.0 0.0
440.5375811971694 440.5375811971694 0.0 0.0
779.9731448054852 779.9731448054852 0.0 0.0
1219.9760052154008 1219.9760052154008 0.0 0.0
1780.5991369492885 1780.5991369492885 0.0 0.0
2460.258026084646 2460.258026084646 0.0 0.0
3250.13471083625 3250.13471083625 0.0 0.0
4014.4852839908503 4014.4852839908503 0.0 0.0
7593.945559017857 7593.945559017857 0.0 0.0
4020.3579356399437 4020.3579356399437 0.0 0.0
3261.597018359315 3261.597018359315 0.0 0.0
2475.7217617947936 2475.7217617947936 0.0 0.0
1798.311652626059 1798.311652626059 0.0 0.0
1237.3126861558185 1237.3126861558185 0.0 0.0
793.2815633933827 793.2815633933827 0.0 0.0
446.469730422963 446.469730422963 0.0 0.0
189.83970228171694 189.83970228171694 0.0 0.0
47.414272175614755 47.414272175614755 0.0 0.0
11.354589463626821 11.354589463626821 0.0 0.0
299.52643273290727 299.52643273290727 0.0 0.0
194.75750226052352 194.75750226052352 0.0 0.0
248.15310657751385 248.15310657751385 0.0 0.0
490.8963617757145 490.8963617757145 0.0 0.0
837.9791937180232 837.9791937180232 0.0 0.0
1285.6253050591665 1285.6253050591665 0.0 0.0
1833.920610396438 1833.920610396438 0.0 0.0
2522.500920227943 2522.500920227943 0.0 0.0
3437.5602322616633 3437.5602322616633 0.0 0.0
4515.313143686616 4515.313143686616 0.0 0.0
5087.742013647511 5087.742013647511 0.0 0.0
4512.817297345048 4512.817297345048 0.0 0.0
3432.737549667774 3432.737549667774 0.0 0.0
2515.395840836124 2515.395840836124 0.0 0.0
1824.379506378033 1824.379506378033 0.0 0.0
1273.5544797287816 1273.5544797287816 0.0 0.0
823.5428664554045 823.5428664554045 0.0 0.0
475.06037120206355 475.06037120206355 0.0 0.0
229.078279849557 229.078279849557 0.0 0.0
151.83308630864363 151.83308630864363 0.0 0.0
295.572253169691 295.572253169691 0.0 0.0
253.4434538222021 253.4434538222021 0.0 0.0
32.808934110587415 32.808934110587415 0.0 0.0
109.44243247114186 109.44243247114186 0.0 0.0
232.24879824976057 232.24879824976057 0.0 0.0
390.01355762949413 390.01355762949413 0.0 0.0
591.1030036421452 591.1030036421452 0.0 0.0
836.4597289732568 836.4597289732568 0.0 0.0
1138.678531880504 1138.678531880504 0.0 0.0
1532.7845443700078 1532.7845443700078 0.0 0.0
2007.5239951930541 2007.5239951930541 0.0 0.0
2287.3490823426223 2287.3490823426223 0.0 0.0
2005.8113925458244 2005.8113925458244 0.0 0.0
1529.4432932395225 1529.4432932395225 0.0 0.0
1133.8228494751995 1133.8228494751995 0.0 0.0
830.167901346572 830.167901346572 0.0 0.0
583.4904902300216 583.4904902300216 0.0 0.0
381.43945400985086 381.43945400985086 0.0 0.0
222.9965343607891 222.9965343607891 0.0 0.0
101.86145218689799 101.86145218689799 0.0 0.0
30.680426110065863 30.680426110065863 0.0 0.0
245.17443820966585 245.17443820966585 0.0 0.0
140.75617931481375 140.75617931481375 0.0 0.0
22.7785788121259 22.7785788121259 0.0 0.0
47.21930093153729 47.21930093153729 0.0 0.0
83.44646305253886 83.44646305253886 0.0 0.0
129.29995805806146 129.29995805806146 0.0 0.0
182.09939687393415 182.09939687393415 0.0 0.0
243.87756907050976 243.87756907050976 0.0 0.0
313.7439996913989 313.7439996913989 0.0 0.0
419.909180870827 419.909180870827 0.0 0.0
621.7010903138543 621.7010903138543 0.0 0.0
818.7033903334909 818.7033903334909 0.0 0.0
621.0259485688105 621.0259485688105 0.0 0.0
418.48589509172865 418.48589509172865 0.0 0.0
311.6469583011544 311.6469583011544 0.0 0.0
241.24851026912123 241.24851026912123 0.0 0.0
179.1618605315086 179.1618605315086 0.0 0.0
126.32267141192995 126.32267141192995 0.0 0.0
81.19646863168455 81.19646863168455 0.0 0.0
47.69940395840154 47.69940395840154 0.0 0.0
25.712726091329067 25.712726091329067 0.0 0.0
141.39477870080444 141.39477870080444 0.0 0.0
71.59362684756816 71.59362684756816 0.0 0.0
30.602883975943445 30.602883975943445 0.0 0.0
39.311405853732644 39.311405853732644 0.0 0.0
37.594192832639315 37.594192832639315 0.0 0.0
40.48445719420746 40.48445719420746 0.0 0.0
43.82025660450354 43.82025660450354 0.0 0.0
47.94776662515879 47.94776662515879 0.0 0.0
49.85980175782875 49.85980175782875 0.0 0.0
58.35850912813511 58.35850912813511 0.0 0.0
132.0735133296885 132.0735133296885 0.0 0.0
372.54900301078584 372.54900301078584 0.0 0.0
132.48386645307104 132.48386645307104 0.0 0.0
58.93110266335889 58.93110266335889 0.0 0.0
50.57396497855151 50.57396497855151 0.0 0.0
48.846458595371985 48.846458595371985 0.0 0.0
45.004382912413774 45.004382912413774 0.0 0.0
42.13454547899519 42.13454547899519 0.0 0.0
40.09118612505536 40.09118612505536 0.0 0.0
42.525517071622765 42.525517071622765 0.0 0.0
33.08068520642988 33.08068520642988 0.0 0.0
70.30580813229336 70.30580813229336 0.0 0.0
31.67778441987686 31.67778441987686 0.0 0.0
33.567056301461385 33.567056301461385 0.0 0.0
59.46182408040177 59.46182408040177 0.0 0.0
82.16046064049421 82.16046064049421 0.0 0.0
119.02833663943264 119.02833663943264 0.0 0.0
171.89260816122598 171.89260816122598 0.0 0.0
239.719011031724 239.719011031724 0.0 0.0
333.64096653114933 333.64096653114933 0.0 0.0
434.20497272667166 434.20497272667166 0.0 0.0
467.50359022135655 467.50359022135655 0.0 0.0
930.2986492177656 930.2986492177656 0.0 0.0
468.98761002699 468.98761002699 0.0 0.0
436.7767000875761 436.7767000875761 0.0 0.0
337.1262768592797 337.1262768592797 0.0 0.0
243.86658845988782 243.86658845988782 0.0 0.0
176.47139063883404 176.47139063883404 0.0 0.0
123.75260548191584 123.75260548191584 0.0 0.0
86.51497161402641 86.51497161402641 0.0 0.0
62.348298320340255 62.348298320340255 0.0 0.0
34.458561603281126 34.458561603281126 0.0 0.0
30.112629270819262 30.112629270819262 0.0 0.0
16.313457328487242 16.313457328487242 0.0 0.0
36.47813316394941 36.47813316394941 0.0 0.0
106.09504465446906 106.09504465446906 0.0 0.0
216.94133931872503 216.94133931872503 0.0 0.0
370.8457546005073 370.8457546005073 0.0 0.0
573.0470187527945 573.0470187527945 0.0 0.0
826.0120633100721 826.0120633100721 0.0 0.0
1130.8657117210128 1130.8657117210128 0.0 0.0
1558.5206431089714 1558.5206431089714 0.0 0.0
1682.4372310883336 1682.4372310883336 0.0 0.0
2707.337220743748 2707.337220743748 0.0 0.0
1685.030162665557 1685.030162665557 0.0 0.0
1563.3198207176895 1563.3198207176895 0.0 0.0
1137.2967920797391 1137.2967920797391 0.0 0.0
833.4527203230355 833.4527203230355 0.0 0.0
580.581641875475 580.581641875475 0.0 0.0
377.3372996724579 377.3372996724579 0.0 0.0
221.1795497359387 221.1795497359387 0.0 0.0
107.68001227003718 107.68001227003718 0.0 0.0
36.515650030458076 36.515650030458076 0.0 0.0
15.005666022392674 15.005666022392674 0.0 0.0
16.343620869071458 16.343620869071458 0.0 0.0
55.28112651326148 55.28112651326148 0.0 0.0
203.81592486660088 203.81592486660088 0.0 0.0
463.06793563585495 463.06793563585495 0.0 0.0
812.440053186317 812.440053186317 0.0 0.0
1260.8572566690639 1260.8572566690639 0.0 0.0
1821.2772458840507 1821.2772458840507 0.0 0.0
2477.3412387209482 2477.3412387209482 0.0 0.0
3202.139667799514 3202.139667799514 0.0 0.0
3903.8526168704534 3903.8526168704534 0.0 0.0
7284.334959346201 7284.334959346201 0.0 0.0
3907.8443473735215 3907.8443473735215 0.0 0.0
3209.8089685471878 3209.8089685471878 0.0 0.0
2487.5846684001312 2487.5846684001312 0.0 0.0
1832.8421314502314 1832.8421314502314 0.0 0.0
1271.973015108041 1271.973015108041 0.0 0.0
820.783507668552 820.783507668552 0.0 0.0
466.6812404450211 466.6812404450211 0.0 0.0
203.77538116997684 203.77538116997684 0.0 0.0
54.741053750834325 54.741053750834325 0.0 0.0
15.342285936638763 15.342285936638763 0.0 0.0
422.38079117465236 422.38079117465236 0.0 0.0
174.2745110916515 174.2745110916515 0.0 0.0
258.8546096117581 258.8546096117581 0.0 0.0
521.550420282988 521.550420282988 0.0 0.0
894.199622789344 894.199622789344 0.0 0.0
1380.4273934643907 1380.4273934643907 0.0 0.0
1963.1501392050138 1963.1501392050138 0.0 0.0
2636.2936139083963 2636.2936139083963 0.0 0.0
3393.329301473354 3393.329301473354 0.0 0.0
4137.846140656969 4137.846140656969 0.0 0.0
4495.295198233058 4495.295198233058 0.0 0.0
4139.8989354250725 4139.8989354250725 0.0 0.0
3397.162732108591 3397.162732108591 0.0 0.0
2641.8528121218296 2641.8528121218296 0.0 0.0
1970.745263967599 1970.745263967599 0.0 0.0
1390.631097978825 1390.631097978825 0.0 0.0
907.8554024976831 907.8554024976831 0.0 0.0
538.8849441838715 538.8849441838715 0.0 0.0
283.3834547327306 283.3834547327306 0.0 0.0
208.1715575961081 208.1715575961081 0.0 0.0
411.6659890187856 411.6659890187856 0.0 0.0
338.71351581682575 338.71351581682575 0.0 0.0
29.470318216346104 29.470318216346104 0.0 0.0
109.23466802272533 109.23466802272533 0.0 0.0
237.72472419520565 237.72472419520565 0.0 0.0
407.0159671634573 407.0159671634573 0.0 0.0
624.2954553063844 624.2954553063844 0.0 0.0
884.6034905211777 884.6034905211777 0.0 0.0
1180.9809703918784 1180.9809703918784 0.0 0.0
1508.4575874859418 1508.4575874859418 0.0 0.0
1836.9939157067247 1836.9939157067247 0.0 0.0
2010.812394397362 2010.812394397362 0.0 0.0
1838.3199827989158 1838.3199827989158 0.0 0.0
1510.9911775400803 1510.9911775400803 0.0 0.0
1184.68752286677 1184.68752286677 0.0 0.0
889.5845870328902 889.5845870328902 0.0 0.0
630.7867793909942 630.7867793909942 0.0 0.0
415.25616925150143 415.25616925150143 0.0 0.0
248.24659504398656 248.24659504398656 0.0 0.0
119.58123901800683 119.58123901800683 0.0 0.0
33.87905897296669 33.87905897296669 0.0 0.0
340.8111202234554 340.8111202234554 0.0 0.0
203.50925082376912 203.50925082376912 0.0 0.0
23.932326655028195 23.932326655028195 0.0 0.0
46.73685645409053 46.73685645409053 0.0 0.0
78.8319679387285 78.8319679387285 0.0 0.0
126.57256874992558 126.57256874992558 0.0 0.0
183.41243466050395 183.41243466050395 0.0 0.0
250.33700563223982 250.33700563223982 0.0 0.0
322.5893141124503 322.5893141124503 0.0 0.0
407.89951821061373 407.89951821061373 0.0 0.0
537.8680378203554 537.8680378203554 0.0 0.0
654.4634120627264 654.4634120627264 0.0 0.0
538.4940276288231 538.4940276288231 0.0 0.0
409.1316486765088 409.1316486765088 0.0 0.0
324.3844282865687 324.3844282865687 0.0 0.0
252.63691922492288 252.63691922492288 0.0 0.0
186.15622213774208 186.15622213774208 0.0 0.0
129.75211702163733 129.75211702163733 0.0 0.0
82.04710579857041 82.04710579857041 0.0 0.0
47.669529358815225 47.669529358815225 0.0 0.0
20.951473710702146 20.951473710702146 0.0 0.0
201.76405816612282 201.76405816612282 0.0 0.0
101.19216403886685 101.19216403886685 0.0 0.0
33.38082531558977 33.38082531558977 0.0 0.0
40.83580053442435 40.83580053442435 0.0 0.0
35.231980239005914 35.231980239005914 0.0 0.0
36.61837189777304 36.61837189777304 0.0 0.0
39.94735341678776 39.94735341678776 0.0 0.0
44.38657419990427 44.38657419990427 0.0 0.0
47.088829579754794 47.088829579754794 0.0 0.0
49.678105089070094 49.678105089070094 0.0 0.0
90.31249410447512 90.31249410447512 0.0 0.0
220.922933775911 220.922933775911 0.0 0.0
90.18028387197239 90.18028387197239 0.0 0.0
49.60726107459429 49.60726107459429 0.0 0.0
47.06285046145108 47.06285046145108 0.0 0.0
44.27857373963589 44.27857373963589 0.0 0.0
39.60335062859154 39.60335062859154 0.0 0.0
35.83871431444011 35.83871431444011 0.0 0.0
33.60512555583229 33.60512555583229 0.0 0.0
38.04131004071432 38.04131004071432 0.0 0.0
29.734014966255558 29.734014966255558 0.0 0.0
101.8668587968382 101.8668587968382 0.0 0.0
41.92540874789113 41.92540874789113 0.0 0.0
35.86391770661696 35.86391770661696 0.0 0.0
64.04776529845165 64.04776529845165 0.0 0.0
90.2859281848661 90.2859281848661 0.0 0.0
130.84202379165401 130.84202379165401 0.0 0.0
187.28730176814847 187.28730176814847 0.0 0.0
256.05162184057457 256.05162184057457 0.0 0.0
341.08107087183475 341.08107087183475 0.0 0.0
421.57121040638975 421.57121040638975 0.0 0.0
444.90292317677347 444.90292317677347 0.0 0.0
674.0411220057787 674.0411220057787 0.0 0.0
443.9747685388308 443.9747685388308 0.0 0.0
420.2808435904049 420.2808435904049 0.0 0.0
339.4150193455229 339.4150193455229 0.0 0.0
253.9568929594961 253.9568929594961 0.0 0.0
184.7474206922769 184.7474206922769 0.0 0.0
127.84976265302434 127.84976265302434 0.0 0.0
87.0497279714539 87.0497279714539 0.0 0.0
61.29134296339398 61.29134296339398 0.0 0.0
33.73119587914963 33.73119587914963 0.0 0.0
42.822397671293125 42.822397671293125 0.0 0.0
18.467341191285694 18.467341191285694 0.0 0.0
39.05499126048634 39.05499126048634 0.0 0.0
117.46064914989266 117.46064914989266 0.0 0.0
244.62673172623025 244.62673172623025 0.0 0.0
416.29892121651756 416.29892121651756 0.0 0.0
634.1940802028552 634.1940802028552 0.0 0.0
895.7055269733614 895.7055269733614 0.0 0.0
1189.945533313498 1189.945533313498 0.0 0.0
1546.836482858715 1546.836482858715 0.0 0.0
1642.7634474194256 1642.7634474194256 0.0 0.0
2119.4096528779633 2119.4096528779633 0.0 0.0
1641.1403939426193 1641.1403939426193 0.0 0.0
1544.5352378195205 1544.5352378195205 0.0 0.0
1186.7802601594144 1186.7802601594144 0.0 0.0
891.9028152898296 891.9028152898296 0.0 0.0
630.1730185140609 630.1730185140609 0.0 0.0
412.65338313057515 412.65338313057515 0.0 0.0
242.1414678911187 242.1414678911187 0.0 0.0
116.50907828646613 116.50907828646613 0.0 0.0
38.54743747430205 38.54743747430205 0.0 0.0
18.843048420140136 18.843048420140136 0.0 0.0
17.147583476307695 17.147583476307695 0.0 0.0
60.56184502219459 60.56184502219459 0.0 0.0
228.45064651929275 228.45064651929275 0.0 0.0
522.4359729089881 522.4359729089881 0.0 0.0
911.6157815735103 911.6157815735103 0.0 0.0
1397.1744456454476 1397.1744456454476 0.0 0.0
1982.3935082738599 1982.3935082738599 0.0 0.0
2634.8039649145944 2634.8039649145944 0.0 0.0
3287.7834328158806 3287.7834328158806 0.0 0.0
3730.6304523453164 3730.6304523453164 0.0 0.0
5597.438883327685 5597.438883327685 0.0 0.0
3729.4702752952144 3729.4702752952144 0.0 0.0
3284.7557145338437 3284.7557145338437 0.0 0.0
2630.18100154789 2630.18100154789 0.0 0.0
1976.8501994953083 1976.8501994953083 0.0 0.0
1391.6722044443645 1391.6722044443645 0.0 0.0
907.5966430132185 907.5966430132185 0.0 0.0
521.4254501194483 521.4254501194483 0.0 0.0
230.12384162732107 230.12384162732107 0.0 0.0
62.04444368710549 62.04444368710549 0.0 0.0
17.885894762492995 17.885894762492995 0.0 0.0
1134.81476561797 1134.81476561797 0.0 0.0
205.34669235326976 205.34669235326976 0.0 0.0
244.65060612616128 244.65060612616128 0.0 0.0
512.178219476721 512.178219476721 0.0 0.0
903.503761391775 903.503761391775 0.0 0.0
1423.926823226603 1423.926823226603 0.0 0.0
2050.3868807494455 2050.3868807494455 0.0 0.0
2751.2290391149068 2751.2290391149068 0.0 0.0
3425.243315716427 3425.243315716427 0.0 0.0
3891.0302536513295 3891.0302536513295 0.0 0.0
4040.879059346706 4040.879059346706 0.0 0.0
3896.9165714855035 3896.9165714855035 0.0 0.0
3437.0123192324477 3437.0123192324477 0.0 0.0
2769.1799688274245 2769.1799688274245 0.0 0.0
2075.0426747458073 2075.0426747458073 0.0 0.0
1455.4872293740673 1455.4872293740673 0.0 0.0
941.0880232635546 941.0880232635546 0.0 0.0
553.3638332957089 553.3638332957089 0.0 0.0
290.91363982723504 290.91363982723504 0.0 0.0
324.16900012559165 324.16900012559165 0.0 0.0
1087.2100645591722 1087.2100645591722 0.0 0.0
842.4556376206558 842.4556376206558 0.0 0.0
25.491227089753366 25.491227089753366 0.0 0.0
113.73170914435711 113.73170914435711 0.0 0.0
243.10665197441273 243.10665197441273 0.0 0.0
417.29815008861823 417.29815008861823 0.0 0.0
643.5909197402583 643.5909197402583 0.0 0.0
917.3239586964497 917.3239586964497 0.0 0.0
1226.0549756683267 1226.0549756683267 0.0 0.0
1529.1455394130917 1529.1455394130917 0.0 0.0
1744.3327952064021 1744.3327952064021 0.0 0.0
1814.3334405146666 1814.3334405146666 0.0 0.0
1748.150229823564 1748.150229823564 0.0 0.0
1536.7510259197431 1536.7510259197431 0.0 0.0
1237.5317653227323 1237.5317653227323 0.0 0.0
932.7427551534441 932.7427551534441 0.0 0.0
662.7600652148695 662.7600652148695 0.0 0.0
439.22334004921385 439.22334004921385 0.0 0.0
266.10248591520417 266.10248591520417 0.0 0.0
130.05440784924815 130.05440784924815 0.0 0.0
29.438454554608505 29.438454554608505 0.0 0.0
884.858797486712 884.858797486712 0.0 0.0
468.6628112970935 468.6628112970935 0.0 0.0
69.60057701508924 69.60057701508924 0.0 0.0
97.73729536979359 97.73729536979359 0.0 0.0
127.223963292276 127.223963292276 0.0 0.0
176.00541092532018 176.00541092532018 0.0 0.0
232.42159956436228 232.42159956436228 0.0 0.0
301.63668370283483 301.63668370283483 0.0 0.0
387.2308226575952 387.2308226575952 0.0 0.0
480.3280685589871 480.3280685589871 0.0 0.0
542.295904804998 542.295904804998 0.0 0.0
559.8353462424163 559.8353462424163 0.0 0.0
543.8633468650414 543.8633468650414 0.0 0.0
483.309538496211 483.309538496211 0.0 0.0
391.5413383551614 391.5413383551614 0.0 0.0
307.1189832589357 307.1189832589357 0.0 0.0
238.68212027002448 238.68212027002448 0.0 0.0
182.28871815841802 182.28871815841802 0.0 0.0
130.9174437613541 130.9174437613541 0.0 0.0
95.09186878572962 95.09186878572962 0.0 0.0
58.899150750431595 58.899150750431595 0.0 0.0
489.0118000736483 489.0118000736483 0.0 0.0
216.18093848606298 216.18093848606298 0.0 0.0
100.97899030000596 100.97899030000596 0.0 0.0
125.88400032761021 125.88400032761021 0.0 0.0
115.25192681678261 115.25192681678261 0.0 0.0
113.75914448995039 113.75914448995039 0.0 0.0
112.0669757686176 112.0669757686176 0.0 0.0
110.08323494888847 110.08323494888847 0.0 0.0
113.82138466193689 113.82138466193689 0.0 0.0
131.56119041490697 131.56119041490697 0.0 0.0
151.15283038723905 151.15283038723905 0.0 0.0
163.98232927572045 163.98232927572045 0.0 0.0
150.59854263548095 150.59854263548095 0.0 0.0
130.23412215046883 130.23412215046883 0.0 0.0
111.61839702934694 111.61839702934694 0.0 0.0
106.83696024238921 106.83696024238921 0.0 0.0
107.54521280052676 107.54521280052676 0.0 0.0
107.48200632651567 107.48200632651567 0.0 0.0
106.37663080724418 106.37663080724418 0.0 0.0
115.73303377705858 115.73303377705858 0.0 0.0
92.6080989773072 92.6080989773072 0.0 0.0
227.54469269787268 227.54469269787268 0.0 0.0
82.06170811788128 82.06170811788128 0.0 0.0
92.86135043896468 92.86135043896468 0.0 0.0
148.75261833562445 148.75261833562445 0.0 0.0
175.18900158687507 175.18900158687507 0.0 0.0
211.23751144520008 211.23751144520008 0.0 0.0
261.19087509986787 261.19087509986787 0.0 0.0
320.32137102661216 320.32137102661216 0.0 0.0
377.90716760888483 377.90716760888483 0.0 0.0
442.6161049461738 442.6161049461738 0.0 0.0
544.1216877989938 544.1216877989938 0.0 0.0
609.0922938056005 609.0922938056005 0.0 0.0
541.6344785955908 541.6344785955908 0.0 0.0
437.5088549443297 437.5088549443297 0.0 0.0
370.1848295696591 370.1848295696591 0.0 0.0
310.103517502499 310.103517502499 0.0 0.0
248.8068565943223 248.8068565943223 0.0 0.0
197.32731188448338 197.32731188448338 0.0 0.0
161.4669504348659 161.4669504348659 0.0 0.0
139.11045241513474 139.11045241513474 0.0 0.0
88.72008108831551 88.72008108831551 0.0 0.0
86.33647238549655 86.33647238549655 0.0 0.0
28.633252806633934 28.633252806633934 0.0 0.0
70.86548073621802 70.86548073621802 0.0 0.0
176.0762895189976 176.0762895189976 0.0 0.0
315.12118731585747 315.12118731585747 0.0 0.0
488.2578963895896 488.2578963895896 0.0 0.0
702.9167278251293 702.9167278251293 0.0 0.0
954.199379050113 954.199379050113 0.0 0.0
1228.1886624727883 1228.1886624727883 0.0 0.0
1439.4981446262814 1439.4981446262814 0.0 0.0
1755.6679838999007 1755.6679838999007 0.0 0.0
1909.8393097170374 1909.8393097170374 0.0 0.0
1751.2586271804837 1751.2586271804837 0.0 0.0
1430.8591918901284 1430.8591918901284 0.0 0.0
1215.2666012218347 1215.2666012218347 0.0 0.0
937.941732528641 937.941732528641 0.0 0.0
684.7462114369416 684.7462114369416 0.0 0.0
470.74777848192866 470.74777848192866 0.0 0.0
302.0096424841984 302.0096424841984 0.0 0.0
170.02344938370769 170.02344938370769 0.0 0.0
69.28637741392875 69.28637741392875 0.0 0.0
29.692995300082693 29.692995300082693 0.0 0.0
17.593735417683824 17.593735417683824 0.0 0.0
76.49290728237702 76.49290728237702 0.0 0.0
277.7170385237249 277.7170385237249 0.0 0.0
606.8291149273103 606.8291149273103 0.0 0.0
1016.6015564933975 1016.6015564933975 0.0 0.0
1515.8802064983838 1515.8802064983838 0.0 0.0
2103.272001939529 2103.272001939529 0.0 0.0
2760.414136440257 2760.414136440257 0.0 0.0
3431.5571734163104 3431.5571734163104 0.0 0.0
4073.708458273154 4073.708458273154 0.0 0.0
3502.675675765949 3502.675675765949 0.0 0.0
4068.0219015455273 4068.0219015455273 0.0 0.0
3418.0866335872083 3418.0866335872083 0.0 0.0
2740.657721085622 2740.657721085622 0.0 0.0
2079.134912770951 2079.134912770951 0.0 0.0
1490.5330175065142 1490.5330175065142 0.0 0.0
995.3878681209446 995.3878681209446 0.0 0.0
595.7040607137324 595.7040607137324 0.0 0.0
276.6868827259794 276.6868827259794 0.0 0.0
77.88507729240584 77.88507729240584 0.0 0.0
18.63359810871917 18.63359810871917 0.0 0.0