# vtk DataFile Version 3.0
Some data
ASCII
DATASET UNSTRUCTURED_GRID
POINTS 1029 float
0.0 0.0 0.0
0.8 0.0 0.0
1.6 0.0 0.0
2.4000000000000004 0.0 0.0
3.2 0.0 0.0
4.0 0.0 0.0
4.800000000000001 0.0 0.0
5.6000000000000005 0.0 0.0
6.4 0.0 0.0
7.2 0.0 0.0
8.0 0.0 0.0
8.8 0.0 0.0
9.600000000000001 0.0 0.0
10.4 0.0 0.0
11.200000000000001 0.0 0.0
12.0 0.0 0.0
12.8 0.0 0.0
13.600000000000001 0.0 0.0
14.4 0.0 0.0
15.200000000000001 0.0 0.0
16.0 0.0 0.0
0.0 0.3333333333333333 0.0
0.8 0.3333333333333333 0.0
1.6 0.3333333333333333 0.0
2.4000000000000004 0.3333333333333333 0.0
3.2 0.3333333333333333 0.0
4.0 0.3333333333333333 0.0
4.800000000000001 0.3333333333333333 0.0
5.6000000000000005 0.3333333333333333 0.0
6.4 0.3333333333333333 0.0
7.2 0.3333333333333333 0.0
8.0 0.3333333333333333 0.0
8.8 0.3333333333333333 0.0
9.600000000000001 0.3333333333333333 0.0
10.4 0.3333333333333333 0.0
11.200000000000001 0.3333333333333333 0.0
12.0 0.3333333333333333 0.0
12.8 0.3333333333333333 0.0
13.600000000000001 0.3333333333333333 0.0
14.4 0.3333333333333333 0.0
15.200000000000001 0.3333333333333333 0.0
16.0 0.3333333333333333 0.0
0.0 0.6666666666666666 0.0
0.8 0.6666666666666666 0.0
1.6 0.6666666666666666 0.0
2.4000000000000004 0.6666666666666666 0.0
3.2 0.6666666666666666 0.0
4.0 0.6666666666666666 0.0
4.800000000000001 0.6666666666666666 0.0
5.6000000000000005 0.6666666666666666 0.0
6.4 0.6666666666666666 0.0
7.2 0.6666666666666666 0.0
8.0 0.6666666666666666 0.0
8.8 0.6666666666666666 0.0
9.600000000000001 0.6666666666666666 0.0
10.4 0.6666666666666666 0.0
11.200000000000001 0.6666666666666666 0.0
12.0 0.6666666666666666 0.0
12.8 0.6666666666666666 0.0
13.600000000000001 0.6666666666666666 0.0
14.4 0.6666666666666666 0.0
15.200000000000001 0.6666666666666666 0.0
16.0 0.6666666666666666 0.0
0.0 1.0 0.0
0.8 1.0 0.0
1.6 1.0 0.0
2.4000000000000004 1.0 0.0
3.2 1.0 0.0
4.0 1.0 0.0
4.800000000000001 1.0 0.0
5.6000000000000005 1.0 0.0
6.4 1.0 0.0
7.2 1.0 0.0
8.0 1.0 0.0
8.8 1.0 0.0
9.600000000000001 1.0 0.0
10.4 1.0 0.0
11.200000000000001 1.0 0.0
12.0 1.0 0.0
12.8 1.0 0.0
13.600000000000001 1.0 0.0
14.4 1.0 0.0
15.200000000000001 1.0 0.0
16.0 1.0 0.0
0.0 1.3333333333333333 0.0
0.8 1.3333333333333333 0.0
1.6 1.3333333333333333 0.0
2.4000000000000004 1.3333333333333333 0.0
3.2 1.3333333333333333 0.0
4.0 1.3333333333333333 0.0
4.800000000000001 1.3333333333333333 0.0
5.6000000000000005 1.3333333333333333 0.0
6.4 1.3333333333333333 0.0
7.2 1.3333333333333333 0.0
8.0 1.3333333333333333 0.0
8.8 1.3333333333333333 0.0
9.600000000000001 1.3333333333333333 0.0
10.4 1.3333333333333333 0.0
11.200000000000001 1.3333333333333333 0.0
12.0 1.3333333333333333 0.0
12.8 1.3333333333333333 0.0
13.600000000000001 1.3333333333333333 0.0
14.4 1.3333333333333333 0.0
15.200000000000001 1.3333333333333333 0.0
16.0 1.3333333333333333 0.0
0.0 1.6666666666666665 0.0
0.8 1.6666666666666665 0.0
1.6 1.6666666666666665 0.0
2.4000000000000004 1.6666666666666665 0.0
3.2 1.6666666666666665 0.0
4.0 1.6666666666666665 0.0
4.800000000000001 1.6666666666666665 0.0
5.6000000000000005 1.6666666666666665 0.0
6.4 1.6666666666666665 0.0
7.2 1.6666666666666665 0.0
8.0 1.6666666666666665 0.0
8.8 1.6666666666666665 0.0
9.600000000000001 1.6666666666666665 0.0
10.4 1.6666666666666665 0.0
11.200000000000001 1.6666666666666665 0.0
12.0 1.6666666666666665 0.0
12.8 1.6666666666666665 0.0
13.600000000000001 1.6666666666666665 0.0
14.4 1.6666666666666665 0.0
15.200000000000001 1.6666666666666665 0.0
16.0 1.6666666666666665 0.0
0.0 2.0 0.0
0.8 2.0 0.0
1.6 2.0 0.0
2.4000000000000004 2.0 0.0
3.2 2.0 0.0
4.0 2.0 0.0
4.800000000000001 2.0 0.0
5.6000000000000005 2.0 0.0
6.4 2.0 0.0
7.2 2.0 0.0
8.0 2.0 0.0
8.8 2.0 0.0
9.600000000000001 2.0 0.0
10.4 2.0 0.0
11.200000000000001 2.0 0.0
12.0 2.0 0.0
12.8 2.0 0.0
13.600000000000001 2.0 0.0
14.4 2.0 0.0
15.200000000000001 2.0 0.0
16.0 2.0 0.0
0.0 0.0 1.6666666666666667
0.8 0.0 1.6666666666666667
1.6 0.0 1.6666666666666667
2.4000000000000004 0.0 1.6666666666666667
3.2 0.0 1.6666666666666667
4.0 0.0 1.6666666666666667
4.800000000000001 0.0 1.6666666666666667
5.6000000000000005 0.0 1.6666666666666667
6.4 0.0 1.6666666666666667
7.2 0.0 1.6666666666666667
8.0 0.0 1.6666666666666667
8.8 0.0 1.6666666666666667
9.600000000000001 0.0 1.6666666666666667
10.4 0.0 1.6666666666666667
11.200000000000001 0.0 1.6666666666666667
12.0 0.0 1.6666666666666667
12.8 0.0 1.6666666666666667
13.600000000000001 0.0 1.6666666666666667
14.4 0.0 1.6666666666666667
15.200000000000001 0.0 1.6666666666666667
16.0 0.0 1.6666666666666667
0.0 0.3333333333333333 1.6666666666666667
0.8 0.3333333333333333 1.6666666666666667
1.6 0.3333333333333333 1.6666666666666667
2.4000000000000004 0.3333333333333333 1.6666666666666667
3.2 0.3333333333333333 1.6666666666666667
4.0 0.3333333333333333 1.6666666666666667
4.800000000000001 0.3333333333333333 1.6666666666666667
5.6000000000000005 0.3333333333333333 1.6666666666666667
6.4 0.3333333333333333 1.6666666666666667
7.2 0.3333333333333333 1.6666666666666667
8.0 0.3333333333333333 1.6666666666666667
8.8 0.3333333333333333 1.6666666666666667
9.600000000000001 0.3333333333333333 1.6666666666666667
10.4 0.3333333333333333 1.6666666666666667
11.200000000000001 0.3333333333333333 1.6666666666666667
12.0 0.3333333333333333 1.6666666666666667
12.8 0.3333333333333333 1.6666666666666667
13.600000000000001 0.3333333333333333 1.6666666666666667
14.4 0.3333333333333333 1.6666666666666667
15.200000000000001 0.3333333333333333 1.6666666666666667
16.0 0.3333333333333333 1.6666666666666667
0.0 0.6666666666666666 1.6666666666666667
0.8 0.6666666666666666 1.6666666666666667
1.6 0.6666666666666666 1.6666666666666667
2.4000000000000004 0.6666666666666666 1.6666666666666667
3.2 0.6666666666666666 1.6666666666666667
4.0 0.6666666666666666 1.6666666666666667
4.800000000000001 0.6666666666666666 1.6666666666666667
5.6000000000000005 0.6666666666666666 1.6666666666666667
6.4 0.6666666666666666 1.6666666666666667
7.2 0.6666666666666666 1.6666666666666667
8.0 0.6666666666666666 1.6666666666666667
8.8 0.6666666666666666 1.6666666666666667
9.600000000000001 0.6666666666666666 1.6666666666666667
10.4 0.6666666666666666 1.6666666666666667
11.200000000000001 0.6666666666666666 1.6666666666666667
12.0 0.6666666666666666 1.6666666666666667
12.8 0.6666666666666666 1.6666666666666667
13.600000000000001 0.6666666666666666 1.6666666666666667
14.4 0.6666666666666666 1.6666666666666667
15.200000000000001 0.6666666666666666 1.6666666666666667
16.0 0.6666666666666666 1.6666666666666667
0.0 1.0 1.6666666666666667
0.8 1.0 1.6666666666666667
1.6 1.0 1.6666666666666667
2.4000000000000004 1.0 1.6666666666666667
3.2 1.0 1.6666666666666667
4.0 1.0 1.6666666666666667
4.800000000000001 1.0 1.6666666666666667
5.6000000000000005 1.0 1.6666666666666667
6.4 1.0 1.6666666666666667
7.2 1.0 1.6666666666666667
8.0 1.0 1.6666666666666667
8.8 1.0 1.6666666666666667
9.600000000000001 1.0 1.6666666666666667
10.4 1.0 1.6666666666666667
11.200000000000001 1.0 1.6666666666666667
12.0 1.0 1.6666666666666667
12.8 1.0 1.6666666666666667
13.600000000000001 1.0 1.6666666666666667
14.4 1.0 1.6666666666666667
15.200000000000001 1.0 1.6666666666666667
16.0 1.0 1.6666666666666667
0.0 1.3333333333333333 1.6666666666666667
0.8 1.3333333333333333 1.6666666666666667
1.6 1.3333333333333333 1.6666666666666667
2.4000000000000004 1.3333333333333333 1.6666666666666667
3.2 1.3333333333333333 1.6666666666666667
4.0 1.3333333333333333 1.6666666666666667
4.800000000000001 1.3333333333333333 1.6666666666666667
5.6000000000000005 1.3333333333333333 1.6666666666666667
6.4 1.3333333333333333 1.6666666666666667
7.2 1.3333333333333333 1.6666666666666667
8.0 1.3333333333333333 1.6666666666666667
8.8 1.3333333333333333 1.6666666666666667
9.600000000000001 1.3333333333333333 1.6666666666666667
10.4 1.3333333333333333 1.6666666666666667
11.200000000000001 1.3333333333333333 1.6666666666666667
12.0 1.3333333333333333 1.6666666666666667
12.8 1.3333333333333333 1.6666666666666667
13.600000000000001 1.3333333333333333 1.6666666666666667
14.4 1.3333333333333333 1.6666666666666667
15.200000000000001 1.3333333333333333 1.6666666666666667
16.0 1.3333333333333333 1.6666666666666667
0.0 1.6666666666666665 1.6666666666666667
0.8 1.6666666666666665 1.6666666666666667
1.6 1.6666666666666665 1.6666666666666667
2.4000000000000004 1.6666666666666665 1.6666666666666667
3.2 1.6666666666666665 1.6666666666666667
4.0 1.6666666666666665 1.6666666666666667
4.800000000000001 1.6666666666666665 1.6666666666666667
5.6000000000000005 1.6666666666666665 1.6666666666666667
6.4 1.6666666666666665 1.6666666666666667
7.2 1.6666666666666665 1.6666666666666667
8.0 1.6666666666666665 1.6666666666666667
8.8 1.6666666666666665 1.6666666666666667
9.600000000000001 1.6666666666666665 1.6666666666666667
10.4 1.6666666666666665 1.6666666666666667
11.200000000000001 1.6666666666666665 1.6666666666666667
12.0 1.6666666666666665 1.6666666666666667
12.8 1.6666666666666665 1.6666666666666667
13.600000000000001 1.6666666666666665 1.6666666666666667
14.4 1.6666666666666665 1.6666666666666667
15.200000000000001 1.6666666666666665 1.6666666666666667
16.0 1.6666666666666665 1.6666666666666667
0.0 2.0 1.6666666666666667
0.8 2.0 1.6666666666666667
1.6 2.0 1.6666666666666667
2.4000000000000004 2.0 1.6666666666666667
3.2 2.0 1.6666666666666667
4.0 2.0 1.6666666666666667
4.800000000000001 2.0 1.6666666666666667
5.6000000000000005 2.0 1.6666666666666667
6.4 2.0 1.6666666666666667
7.2 2.0 1.6666666666666667
8.0 2.0 1.6666666666666667
8.8 2.0 1.6666666666666667
9.600000000000001 2.0 1.6666666666666667
10.4 2.0 1.6666666666666667
11.200000000000001 2.0 1.6666666666666667
12.0 2.0 1.6666666666666667
12.8 2.0 1.6666666666666667
13.600000000000001 2.0 1.6666666666666667
14.4 2.0 1.6666666666666667
15.200000000000001 2.0 1.6666666666666667
16.0 2.0 1.6666666666666667
0.0 0.0 3.3333333333333335
0.8 0.0 3.3333333333333335
1.6 0.0 3.3333333333333335
2.4000000000000004 0.0 3.3333333333333335
3.2 0.0 3.3333333333333335
4.0 0.0 3.3333333333333335
4.800000000000001 0.0 3.3333333333333335
5.6000000000000005 0.0 3.3333333333333335
6.4 0.0 3.3333333333333335
7.2 0.0 3.3333333333333335
8.0 0.0 3.3333333333333335
8.8 0.0 3.3333333333333335
9.600000000000001 0.0 3.3333333333333335
10.4 0.0 3.3333333333333335
11.200000000000001 0.0 3.3333333333333335
12.0 0.0 3.3333333333333335
12.8 0.0 3.3333333333333335
13.600000000000001 0.0 3.3333333333333335
14.4 0.0 3.3333333333333335
15.200000000000001 0.0 3.3333333333333335
16.0 0.0 3.3333333333333335
0.0 0.3333333333333333 3.3333333333333335
0.8 0.3333333333333333 3.3333333333333335
1.6 0.3333333333333333 3.3333333333333335
2.4000000000000004 0.3333333333333333 3.3333333333333335
3.2 0.3333333333333333 3.3333333333333335
4.0 0.3333333333333333 3.3333333333333335
4.800000000000001 0.3333333333333333 3.3333333333333335
5.6000000000000005 0.3333333333333333 3.3333333333333335
6.4 0.3333333333333333 3.3333333333333335
7.2 0.3333333333333333 3.3333333333333335
8.0 0.3333333333333333 3.3333333333333335
8.8 0.3333333333333333 3.3333333333333335
9.600000000000001 0.3333333333333333 3.3333333333333335
10.4 0.3333333333333333 3.3333333333333335
11.200000000000001 0.3333333333333333 3.3333333333333335
12.0 0.3333333333333333 3.3333333333333335
12.8 0.3333333333333333 3.3333333333333335
13.600000000000001 0.3333333333333333 3.3333333333333335
14.4 0.3333333333333333 3.3333333333333335
15.200000000000001 0.3333333333333333 3.3333333333333335
16.0 0.3333333333333333 3.3333333333333335
0.0 0.6666666666666666 3.3333333333333335
0.8 0.6666666666666666 3.3333333333333335
1.6 0.6666666666666666 3.3333333333333335
2.4000000000000004 0.6666666666666666 3.3333333333333335
3.2 0.6666666666666666 3.3333333333333335
4.0 0.6666666666666666 3.3333333333333335
4.800000000000001 0.6666666666666666 3.3333333333333335
5.6000000000000005 0.6666666666666666 3.3333333333333335
6.4 0.6666666666666666 3.3333333333333335
7.2 0.6666666666666666 3.3333333333333335
8.0 0.6666666666666666 3.3333333333333335
8.8 0.6666666666666666 3.3333333333333335
9.600000000000001 0.6666666666666666 3.3333333333333335
10.4 0.6666666666666666 3.3333333333333335
11.200000000000001 0.6666666666666666 3.3333333333333335
12.0 0.6666666666666666 3.3333333333333335
12.8 0.6666666666666666 3.3333333333333335
13.600000000000001 0.6666666666666666 3.3333333333333335
14.4 0.6666666666666666 3.3333333333333335
15.200000000000001 0.6666666666666666 3.3333333333333335
16.0 0.6666666666666666 3.3333333333333335
0.0 1.0 3.3333333333333335
0.8 1.0 3.3333333333333335
1.6 1.0 3.3333333333333335
2.4000000000000004 1.0 3.3333333333333335
3.2 1.0 3.3333333333333335
4.0 1.0 3.3333333333333335
4.800000000000001 1.0 3.3333333333333335
5.6000000000000005 1.0 3.3333333333333335
6.4 1.0 3.3333333333333335
7.2 1.0 3.3333333333333335
8.0 1.0 3.3333333333333335
8.8 1.0 3.3333333333333335
9.600000000000001 1.0 3.3333333333333335
10.4 1.0 3.3333333333333335
11.200000000000001 1.0 3.3333333333333335
12.0 1.0 3.3333333333333335
12.8 1.0 3.3333333333333335
13.600000000000001 1.0 3.3333333333333335
14.4 1.0 3.3333333333333335
15.200000000000001 1.0 3.3333333333333335
16.0 1.0 3.3333333333333335
0.0 1.3333333333333333 3.3333333333333335
0.8 1.3333333333333333 3.3333333333333335
1.6 1.3333333333333333 3.3333333333333335
2.4000000000000004 1.3333333333333333 3.3333333333333335
3.2 1.3333333333333333 3.3333333333333335
4.0 1.3333333333333333 3.3333333333333335
4.800000000000001 1.3333333333333333 3.3333333333333335
5.6000000000000005 1.3333333333333333 3.3333333333333335
6.4 1.3333333333333333 3.3333333333333335
7.2 1.3333333333333333 3.3333333333333335
8.0 1.3333333333333333 3.3333333333333335
8.8 1.3333333333333333 3.3333333333333335
9.600000000000001 1.3333333333333333 3.3333333333333335
10.4 1.3333333333333333 3.3333333333333335
11.200000000000001 1.3333333333333333 3.3333333333333335
12.0 1.3333333333333333 3.3333333333333335
12.8 1.3333333333333333 3.3333333333333335
13.600000000000001 1.3333333333333333 3.3333333333333335
14.4 1.3333333333333333 3.3333333333333335
15.200000000000001 1.3333333333333333 3.3333333333333335
16.0 1.3333333333333333 3.3333333333333335
0.0 1.6666666666666665 3.3333333333333335
0.8 1.6666666666666665 3.3333333333333335
1.6 1.6666666666666665 3.3333333333333335
2.4000000000000004 1.6666666666666665 3.3333333333333335
3.2 1.6666666666666665 3.3333333333333335
4.0 1.6666666666666665 3.3333333333333335
4.800000000000001 1.6666666666666665 3.3333333333333335
5.6000000000000005 1.6666666666666665 3.3333333333333335
6.4 1.6666666666666665 3.3333333333333335
7.2 1.6666666666666665 3.3333333333333335
8.0 1.6666666666666665 3.3333333333333335
8.8 1.6666666666666665 3.3333333333333335
9.600000000000001 1.6666666666666665 3.3333333333333335
10.4 1.6666666666666665 3.3333333333333335
11.200000000000001 1.6666666666666665 3.3333333333333335
12.0 1.6666666666666665 3.3333333333333335
12.8 1.6666666666666665 3.3333333333333335
13.600000000000001 1.6666666666666665 3.3333333333333335
14.4 1.6666666666666665 3.3333333333333335
15.200000000000001 1.6666666666666665 3.3333333333333335
16.0 1.6666666666666665 3.3333333333333335
0.0 2.0 3.3333333333333335
0.8 2.0 3.3333333333333335
1.6 2.0 3.3333333333333335
2.4000000000000004 2.0 3.3333333333333335
3.2 2.0 3.3333333333333335
4.0 2.0 3.3333333333333335
4.800000000000001 2.0 3.3333333333333335
5.6000000000000005 2.0 3.3333333333333335
6.4 2.0 3.3333333333333335
7.2 2.0 3.3333333333333335
8.0 2.0 3.3333333333333335
8.8 2.0 3.3333333333333335
9.600000000000001 2.0 3.3333333333333335
10.4 2.0 3.3333333333333335
11.200000000000001 2.0 3.3333333333333335
12.0 2.0 3.3333333333333335
12.8 2.0 3.3333333333333335
13.600000000000001 2.0 3.3333333333333335
14.4 2.0 3.3333333333333335
15.200000000000001 2.0 3.3333333333333335
16.0 2.0 3.3333333333333335
0.0 0.0 5.0
0.8 0.0 5.0
1.6 0.0 5.0
2.4000000000000004 0.0 5.0
3.2 0.0 5.0
4.0 0.0 5.0
4.800000000000001 0.0 5.0
5.6000000000000005 0.0 5.0
6.4 0.0 5.0
7.2 0.0 5.0
8.0 0.0 5.0
8.8 0.0 5.0
9.600000000000001 0.0 5.0
10.4 0.0 5.0
11.200000000000001 0.0 5.0
12.0 0.0 5.0
12.8 0.0 5.0
13.600000000000001 0.0 5.0
14.4 0.0 5.0
15.200000000000001 0.0 5.0
16.0 0.0 5.0
0.0 0.3333333333333333 5.0
0.8 0.3333333333333333 5.0
1.6 0.3333333333333333 5.0
2.4000000000000004 0.3333333333333333 5.0
3.2 0.3333333333333333 5.0
4.0 0.3333333333333333 5.0
4.800000000000001 0.3333333333333333 5.0
5.6000000000000005 0.3333333333333333 5.0
6.4 0.3333333333333333 5.0
7.2 0.3333333333333333 5.0
8.0 0.3333333333333333 5.0
8.8 0.3333333333333333 5.0
9.600000000000001 0.3333333333333333 5.0
10.4 0.3333333333333333 5.0
11.200000000000001 0.3333333333333333 5.0
12.0 0.3333333333333333 5.0
12.8 0.3333333333333333 5.0
13.600000000000001 0.3333333333333333 5.0
14.4 0.3333333333333333 5.0
15.200000000000001 0.3333333333333333 5.0
16.0 0.3333333333333333 5.0
0.0 0.6666666666666666 5.0
0.8 0.6666666666666666 5.0
1.6 0.6666666666666666 5.0
2.4000000000000004 0.6666666666666666 5.0
3.2 0.6666666666666666 5.0
4.0 0.6666666666666666 5.0
4.800000000000001 0.6666666666666666 5.0
5.6000000000000005 0.6666666666666666 5.0
6.4 0.6666666666666666 5.0
7.2 0.6666666666666666 5.0
8.0 0.6666666666666666 5.0
8.8 0.6666666666666666 5.0
9.600000000000001 0.6666666666666666 5.0
10.4 0.6666666666666666 5.0
11.200000000000001 0.6666666666666666 5.0
12.0 0.6666666666666666 5.0
12.8 0.6666666666666666 5.0
13.600000000000001 0.6666666666666666 5.0
14.4 0.6666666666666666 5.0
15.200000000000001 0.6666666666666666 5.0
16.0 0.6666666666666666 5.0
0.0 1.0 5.0
0.8 1.0 5.0
1.6 1.0 5.0
2.4000000000000004 1.0 5.0
3.2 1.0 5.0
4.0 1.0 5.0
4.800000000000001 1.0 5.0
5.6000000000000005 1.0 5.0
6.4 1.0 5.0
7.2 1.0 5.0
8.0 1.0 5.0
8.8 1.0 5.0
9.600000000000001 1.0 5.0
10.4 1.0 5.0
11.200000000000001 1.0 5.0
12.0 1.0 5.0
12.8 1.0 5.0
13.600000000000001 1.0 5.0
14.4 1.0 5.0
15.200000000000001 1.0 5.0
16.0 1.0 5.0
0.0 1.3333333333333333 5.0
0.8 1.3333333333333333 5.0
1.6 1.3333333333333333 5.0
2.4000000000000004 1.3333333333333333 5.0
3.2 1.3333333333333333 5.0
4.0 1.3333333333333333 5.0
4.800000000000001 1.3333333333333333 5.0
5.6000000000000005 1.3333333333333333 5.0
6.4 1.3333333333333333 5.0
7.2 1.3333333333333333 5.0
8.0 1.3333333333333333 5.0
8.8 1.3333333333333333 5.0
9.600000000000001 1.3333333333333333 5.0
10.4 1.3333333333333333 5.0
11.200000000000001 1.3333333333333333 5.0
12.0 1.3333333333333333 5.0
12.8 1.3333333333333333 5.0
13.600000000000001 1.3333333333333333 5.0
14.4 1.3333333333333333 5.0
15.200000000000001 1.3333333333333333 5.0
16.0 1.3333333333333333 5.0
0.0 1.6666666666666665 5.0
0.8 1.6666666666666665 5.0
1.6 1.6666666666666665 5.0
2.4000000000000004 1.6666666666666665 5.0
3.2 1.6666666666666665 5.0
4.0 1.6666666666666665 5.0
4.800000000000001 1.6666666666666665 5.0
5.6000000000000005 1.6666666666666665 5.0
6.4 1.6666666666666665 5.0
7.2 1.6666666666666665 5.0
8.0 1.6666666666666665 5.0
8.8 1.6666666666666665 5.0
9.600000000000001 1.6666666666666665 5.0
10.4 1.6666666666666665 5.0
11.200000000000001 1.6666666666666665 5.0
12.0 1.6666666666666665 5.0
12.8 1.6666666666666665 5.0
13.600000000000001 1.6666666666666665 5.0
14.4 1.6666666666666665 5.0
15.200000000000001 1.6666666666666665 5.0
16.0 1.6666666666666665 5.0
0.0 2.0 5.0
0.8 2.0 5.0
1.6 2.0 5.0
2.4000000000000004 2.0 5.0
3.2 2.0 5.0
4.0 2.0 5.0
4.800000000000001 2.0 5.0
5.6000000000000005 2.0 5.0
6.4 2.0 5.0
7.2 2.0 5.0
8.0 2.0 5.0
8.8 2.0 5.0
9.600000000000001 2.0 5.0
10.4 2.0 5.0
11.200000000000001 2.0 5.0
12.0 2.0 5.0
12.8 2.0 5.0
13.600000000000001 2.0 5.0
14.4 2.0 5.0
15.200000000000001 2.0 5.0
16.0 2.0 5.0
0.0 0.0 6.666666666666667
0.8 0.0 6.666666666666667
1.6 0.0 6.666666666666667
2.4000000000000004 0.0 6.666666666666667
3.2 0.0 6.666666666666667
4.0 0.0 6.666666666666667
4.800000000000001 0.0 6.666666666666667
5.6000000000000005 0.0 6.666666666666667
6.4 0.0 6.666666666666667
7.2 0.0 6.666666666666667
8.0 0.0 6.666666666666667
8.8 0.0 6.666666666666667
9.600000000000001 0.0 6.666666666666667
10.4 0.0 6.666666666666667
11.200000000000001 0.0 6.666666666666667
12.0 0.0 6.666666666666667
12.8 0.0 6.666666666666667
13.600000000000001 0.0 6.666666666666667
14.4 0.0 6.666666666666667
15.200000000000001 0.0 6.666666666666667
16.0 0.0 6.666666666666667
0.0 0.3333333333333333 6.666666666666667
0.8 0.3333333333333333 6.666666666666667
1.6 0.3333333333333333 6.666666666666667
2.4000000000000004 0.3333333333333333 6.666666666666667
3.2 0.3333333333333333 6.666666666666667
4.0 0.3333333333333333 6.666666666666667
4.800000000000001 0.3333333333333333 6.666666666666667
5.6000000000000005 0.3333333333333333 6.666666666666667
6.4 0.3333333333333333 6.666666666666667
7.2 0.3333333333333333 6.666666666666667
8.0 0.3333333333333333 6.666666666666667
8.8 0.3333333333333333 6.666666666666667
9.600000000000001 0.3333333333333333 6.666666666666667
10.4 0.3333333333333333 6.666666666666667
11.200000000000001 0.3333333333333333 6.666666666666667
12.0 0.3333333333333333 6.666666666666667
12.8 0.3333333333333333 6.666666666666667
13.600000000000001 0.3333333333333333 6.666666666666667
14.4 0.3333333333333333 6.666666666666667
15.200000000000001 0.3333333333333333 6.666666666666667
16.0 0.3333333333333333 6.666666666666667
0.0 0.6666666666666666 6.666666666666667
0.8 0.6666666666666666 6.666666666666667
1.6 0.6666666666666666 6.666666666666667
2.4000000000000004 0.6666666666666666 6.666666666666667
3.2 0.6666666666666666 6.666666666666667
4.0 0.6666666666666666 6.666666666666667
4.800000000000001 0.6666666666666666 6.666666666666667
5.6000000000000005 0.6666666666666666 6.666666666666667
6.4 0.6666666666666666 6.666666666666667
7.2 0.6666666666666666 6.666666666666667
8.0 0.6666666666666666 6.666666666666667
8.8 0.6666666666666666 6.666666666666667
9.600000000000001 0.6666666666666666 6.666666666666667
10.4 0.6666666666666666 6.666666666666667
11.200000000000001 0.6666666666666666 6.666666666666667
12.0 0.6666666666666666 6.666666666666667
12.8 0.6666666666666666 6.666666666666667
13.600000000000001 0.6666666666666666 6.666666666666667
14.4 0.6666666666666666 6.666666666666667
15.200000000000001 0.6666666666666666 6.666666666666667
16.0 0.6666666666666666 6.666666666666667
0.0 1.0 6.666666666666667
0.8 1.0 6.666666666666667
1.6 1.0 6.666666666666667
2.4000000000000004 1.0 6.666666666666667
3.2 1.0 6.666666666666667
4.0 1.0 6.666666666666667
4.800000000000001 1.0 6.666666666666667
5.6000000000000005 1.0 6.666666666666667
6.4 1.0 6.666666666666667
7.2 1.0 6.666666666666667
8.0 1.0 6.666666666666667
8.8 1.0 6.666666666666667
9.600000000000001 1.0 6.666666666666667
10.4 1.0 6.666666666666667
11.200000000000001 1.0 6.666666666666667
12.0 1.0 6.666666666666667
12.8 1.0 6.666666666666667
13.600000000000001 1.0 6.666666666666667
14.4 1.0 6.666666666666667
15.200000000000001 1.0 6.666666666666667
16.0 1.0 6.666666666666667
0.0 1.3333333333333333 6.666666666666667
0.8 1.3333333333333333 6.666666666666667
1.6 1.3333333333333333 6.666666666666667
2.4000000000000004 1.3333333333333333 6.666666666666667
3.2 1.3333333333333333 6.666666666666667
4.0 1.3333333333333333 6.666666666666667
4.800000000000001 1.3333333333333333 6.666666666666667
5.6000000000000005 1.3333333333333333 6.666666666666667
6.4 1.3333333333333333 6.666666666666667
7.2 1.3333333333333333 6.666666666666667
8.0 1.3333333333333333 6.666666666666667
8.8 1.3333333333333333 6.666666666666667
9.600000000000001 1.3333333333333333 6.666666666666667
10.4 1.3333333333333333 6.666666666666667
11.200000000000001 1.3333333333333333 6.666666666666667
12.0 1.3333333333333333 6.666666666666667
12.8 1.3333333333333333 6.666666666666667
13.600000000000001 1.3333333333333333 6.666666666666667
14.4 1.3333333333333333 6.666666666666667
15.200000000000001 1.3333333333333333 6.666666666666667
16.0 1.3333333333333333 6.666666666666667
0.0 1.6666666666666665 6.666666666666667
0.8 1.6666666666666665 6.666666666666667
1.6 1.6666666666666665 6.666666666666667
2.4000000000000004 1.6666666666666665 6.666666666666667
3.2 1.6666666666666665 6.666666666666667
4.0 1.6666666666666665 6.666666666666667
4.800000000000001 1.6666666666666665 6.666666666666667
5.6000000000000005 1.6666666666666665 6.666666666666667
6.4 1.6666666666666665 6.666666666666667
7.2 1.6666666666666665 6.666666666666667
8.0 1.6666666666666665 6.666666666666667
8.8 1.6666666666666665 6.666666666666667
9.600000000000001 1.6666666666666665 6.666666666666667
10.4 1.6666666666666665 6.666666666666667
11.200000000000001 1.6666666666666665 6.666666666666667
12.0 1.6666666666666665 6.666666666666667
12.8 1.6666666666666665 6.666666666666667
13.600000000000001 1.6666666666666665 6.666666666666667
14.4 1.6666666666666665 6.666666666666667
15.200000000000001 1.6666666666666665 6.666666666666667
16.0 1.6666666666666665 6.666666666666667
0.0 2.0 6.666666666666667
0.8 2.0 6.666666666666667
1.6 2.0 6.666666666666667
2.4000000000000004 2.0 6.666666666666667
3.2 2.0 6.666666666666667
4.0 2.0 6.666666666666667
4.800000000000001 2.0 6.666666666666667
5.6000000000000005 2.0 6.666666666666667
6.4 2.0 6.666666666666667
7.2 2.0 6.666666666666667
8.0 2.0 6.666666666666667
8.8 2.0 6.666666666666667
9.600000000000001 2.0 6.666666666666667
10.4 2.0 6.666666666666667
11.200000000000001 2.0 6.666666666666667
12.0 2.0 6.666666666666667
12.8 2.0 6.666666666666667
13.600000000000001 2.0 6.666666666666667
14.4 2.0 6.666666666666667
15.200000000000001 2.0 6.666666666666667
16.0 2.0 6.666666666666667
0.0 0.0 8.333333333333334
0.8 0.0 8.333333333333334
1.6 0.0 8.333333333333334
2.4000000000000004 0.0 8.333333333333334
3.2 0.0 8.333333333333334
4.0 0.0 8.333333333333334
4.800000000000001 0.0 8.333333333333334
5.6000000000000005 0.0 8.333333333333334
6.4 0.0 8.333333333333334
7.2 0.0 8.333333333333334
8.0 0.0 8.333333333333334
8.8 0.0 8.333333333333334
9.600000000000001 0.0 8.333333333333334
10.4 0.0 8.333333333333334
11.200000000000001 0.0 8.333333333333334
12.0 0.0 8.333333333333334
12.8 0.0 8.333333333333334
13.600000000000001 0.0 8.333333333333334
14.4 0.0 8.333333333333334
15.200000000000001 0.0 8.333333333333334
16.0 0.0 8.333333333333334
0.0 0.3333333333333333 8.333333333333334
0.8 0.3333333333333333 8.333333333333334
1.6 0.3333333333333333 8.333333333333334
2.4000000000000004 0.3333333333333333 8.333333333333334
3.2 0.3333333333333333 8.333333333333334
4.0 0.3333333333333333 8.333333333333334
4.800000000000001 0.3333333333333333 8.333333333333334
5.6000000000000005 0.3333333333333333 8.333333333333334
6.4 0.3333333333333333 8.333333333333334
7.2 0.3333333333333333 8.333333333333334
8.0 0.3333333333333333 8.333333333333334
8.8 0.3333333333333333 8.333333333333334
9.600000000000001 0.3333333333333333 8.333333333333334
10.4 0.3333333333333333 8.333333333333334
11.200000000000001 0.3333333333333333 8.333333333333334
12.0 0.3333333333333333 8.333333333333334
12.8 0.3333333333333333 8.333333333333334
13.600000000000001 0.3333333333333333 8.333333333333334
14.4 0.3333333333333333 8.333333333333334
15.200000000000001 0.3333333333333333 8.333333333333334
16.0 0.3333333333333333 8.333333333333334
0.0 0.6666666666666666 8.333333333333334
0.8 0.6666666666666666 8.333333333333334
1.6 0.6666666666666666 8.333333333333334
2.4000000000000004 0.6666666666666666 8.333333333333334
3.2 0.6666666666666666 8.333333333333334
4.0 0.6666666666666666 8.333333333333334
4.800000000000001 0.6666666666666666 8.333333333333334
5.6000000000000005 0.6666666666666666 8.333333333333334
6.4 0.6666666666666666 8.333333333333334
7.2 0.6666666666666666 8.333333333333334
8.0 0.6666666666666666 8.333333333333334
8.8 0.6666666666666666 8.333333333333334
9.600000000000001 0.6666666666666666 8.333333333333334
10.4 0.6666666666666666 8.333333333333334
11.200000000000001 0.6666666666666666 8.333333333333334
12.0 0.6666666666666666 8.333333333333334
12.8 0.6666666666666666 8.333333333333334
13.600000000000001 0.6666666666666666 8.333333333333334
14.4 0.6666666666666666 8.333333333333334
15.200000000000001 0.6666666666666666 8.333333333333334
16.0 0.6666666666666666 8.333333333333334
0.0 1.0 8.333333333333334
0.8 1.0 8.333333333333334
1.6 1.0 8.333333333333334
2.4000000000000004 1.0 8.333333333333334
3.2 1.0 8.333333333333334
4.0 1.0 8.333333333333334
4.800000000000001 1.0 8.333333333333334
5.6000000000000005 1.0 8.333333333333334
6.4 1.0 8.333333333333334
7.2 1.0 8.333333333333334
8.0 1.0 8.333333333333334
8.8 1.0 8.333333333333334
9.600000000000001 1.0 8.333333333333334
10.4 1.0 8.333333333333334
11.200000000000001 1.0 8.333333333333334
12.0 1.0 8.333333333333334
12.8 1.0 8.333333333333334
13.600000000000001 1.0 8.333333333333334
14.4 1.0 8.333333333333334
15.200000000000001 1.0 8.333333333333334
16.0 1.0 8.333333333333334
0.0 1.3333333333333333 8.333333333333334
0.8 1.3333333333333333 8.333333333333334
1.6 1.3333333333333333 8.333333333333334
2.4000000000000004 1.3333333333333333 8.333333333333334
3.2 1.3333333333333333 8.333333333333334
4.0 1.3333333333333333 8.333333333333334
4.800000000000001 1.3333333333333333 8.333333333333334
5.6000000000000005 1.3333333333333333 8.333333333333334
6.4 1.3333333333333333 8.333333333333334
7.2 1.3333333333333333 8.333333333333334
8.0 1.3333333333333333 8.333333333333334
8.8 1.3333333333333333 8.333333333333334
9.600000000000001 1.3333333333333333 8.333333333333334
10.4 1.3333333333333333 8.333333333333334
11.200000000000001 1.3333333333333333 8.333333333333334
12.0 1.3333333333333333 8.333333333333334
12.8 1.3333333333333333 8.333333333333334
13.600000000000001 1.3333333333333333 8.333333333333334
14.4 1.3333333333333333 8.333333333333334
15.200000000000001 1.3333333333333333 8.333333333333334
16.0 1.3333333333333333 8.333333333333334
0.0 1.6666666666666665 8.333333333333334
0.8 1.6666666666666665 8.333333333333334
1.6 1.6666666666666665 8.333333333333334
2.4000000000000004 1.6666666666666665 8.333333333333334
3.2 1.6666666666666665 8.333333333333334
4.0 1.6666666666666665 8.333333333333334
4.800000000000001 1.6666666666666665 8.333333333333334
5.6000000000000005 1.6666666666666665 8.333333333333334
6.4 1.6666666666666665 8.333333333333334
7.2 1.6666666666666665 8.333333333333334
8.0 1.6666666666666665 8.333333333333334
8.8 1.6666666666666665 8.333333333333334
9.600000000000001 1.6666666666666665 8.333333333333334
10.4 1.6666666666666665 8.333333333333334
11.200000000000001 1.6666666666666665 8.333333333333334
12.0 1.6666666666666665 8.333333333333334
12.8 1.6666666666666665 8.333333333333334
13.600000000000001 1.6666666666666665 8.333333333333334
14.4 1.6666666666666665 8.333333333333334
15.200000000000001 1.6666666666666665 8.333333333333334
16.0 1.6666666666666665 8.333333333333334
0.0 2.0 8.333333333333334
0.8 2.0 8.333333333333334
1.6 2.0 8.333333333333334
2.4000000000000004 2.0 8.333333333333334
3.2 2.0 8.333333333333334
4.0 2.0 8.333333333333334
4.800000000000001 2.0 8.333333333333334
5.6000000000000005 2.0 8.333333333333334
6.4 2.0 8.333333333333334
7.2 2.0 8.333333333333334
8.0 2.0 8.333333333333334
8.8 2.0 8.333333333333334
9.600000000000001 2.0 8.333333333333334
10.4 2.0 8.333333333333334
11.200000000000001 2.0 8.333333333333334
12.0 2.0 8.333333333333334
12.8 2.0 8.333333333333334
13.600000000000001 2.0 8.333333333333334
14.4 2.0 8.333333333333334
15.200000000000001 2.0 8.333333333333334
16.0 2.0 8.333333333333334
0.0 0.0 10.0
0.8 0.0 10.0
1.6 0.0 10.0
2.4000000000000004 0.0 10.0
3.2 0.0 10.0
4.0 0.0 10.0
4.800000000000001 0.0 10.0
5.6000000000000005 0.0 10.0
6.4 0.0 10.0
7.2 0.0 10.0
8.0 0.0 10.0
8.8 0.0 10.0
9.600000000000001 0.0 10.0
10.4 0.0 10.0
11.200000000000001 0.0 10.0
12.0 0.0 10.0
12.8 0.0 10.0
13.600000000000001 0.0 10.0
14.4 0.0 10.0
15.200000000000001 0.0 10.0
16.0 0.0 10.0
0.0 0.3333333333333333 10.0
0.8 0.3333333333333333 10.0
1.6 0.3333333333333333 10.0
2.4000000000000004 0.3333333333333333 10.0
3.2 0.3333333333333333 10.0
4.0 0.3333333333333333 10.0
4.800000000000001 0.3333333333333333 10.0
5.6000000000000005 0.3333333333333333 10.0
6.4 0.3333333333333333 10.0
7.2 0.3333333333333333 10.0
8.0 0.3333333333333333 10.0
8.8 0.3333333333333333 10.0
9.600000000000001 0.3333333333333333 10.0
10.4 0.3333333333333333 10.0
11.200000000000001 0.3333333333333333 10.0
12.0 0.3333333333333333 10.0
12.8 0.3333333333333333 10.0
13.600000000000001 0.3333333333333333 10.0
14.4 0.3333333333333333 10.0
15.200000000000001 0.3333333333333333 10.0
16.0 0.3333333333333333 10.0
0.0 0.6666666666666666 10.0
0.8 0.6666666666666666 10.0
1.6 0.6666666666666666 10.0
2.4000000000000004 0.6666666666666666 10.0
3.2 0.6666666666666666 10.0
4.0 0.6666666666666666 10.0
4.800000000000001 0.6666666666666666 10.0
5.6000000000000005 0.6666666666666666 10.0
6.4 0.6666666666666666 10.0
7.2 0.6666666666666666 10.0
8.0 0.6666666666666666 10.0
8.8 0.6666666666666666 10.0
9.600000000000001 0.6666666666666666 10.0
10.4 0.6666666666666666 10.0
11.200000000000001 0.6666666666666666 10.0
12.0 0.6666666666666666 10.0
12.8 0.6666666666666666 10.0
13.600000000000001 0.6666666666666666 10.0
14.4 0.6666666666666666 10.0
15.200000000000001 0.6666666666666666 10.0
16.0 0.6666666666666666 10.0
0.0 1.0 10.0
0.8 1.0 10.0
1.6 1.0 10.0
2.4000000000000004 1.0 10.0
3.2 1.0 10.0
4.0 1.0 10.0
4.800000000000001 1.0 10.0
5.6000000000000005 1.0 10.0
6.4 1.0 10.0
7.2 1.0 10.0
8.0 1.0 10.0
8.8 1.0 10.0
9.600000000000001 1.0 10.0
10.4 1.0 10.0
11.200000000000001 1.0 10.0
12.0 1.0 10.0
12.8 1.0 10.0
13.600000000000001 1.0 10.0
14.4 1.0 10.0
15.200000000000001 1.0 10.0
16.0 1.0 10.0
0.0 1.3333333333333333 10.0
0.8 1.3333333333333333 10.0
1.6 1.3333333333333333 10.0
2.4000000000000004 1.3333333333333333 10.0
3.2 1.3333333333333333 10.0
4.0 1.3333333333333333 10.0
4.800000000000001 1.3333333333333333 10.0
5.6000000000000005 1.3333333333333333 10.0
6.4 1.3333333333333333 10.0
7.2 1.3333333333333333 10.0
8.0 1.3333333333333333 10.0
8.8 1.3333333333333333 10.0
9.600000000000001 1.3333333333333333 10.0
10.4 1.3333333333333333 10.0
11.200000000000001 1.3333333333333333 10.0
12.0 1.3333333333333333 10.0
12.8 1.3333333333333333 10.0
13.600000000000001 1.3333333333333333 10.0
14.4 1.3333333333333333 10.0
15.200000000000001 1.3333333333333333 10.0
16.0 1.3333333333333333 10.0
0.0 1.6666666666666665 10.0
0.8 1.6666666666666665 10.0
1.6 1.6666666666666665 10.0
2.4000000000000004 1.6666666666666665 10.0
3.2 1.6666666666666665 10.0
4.0 1.6666666666666665 10.0
4.800000000000001 1.6666666666666665 10.0
5.6000000000000005 1.6666666666666665 10.0
6.4 1.6666666666666665 10.0
7.2 1.6666666666666665 10.0
8.0 1.6666666666666665 10.0
8.8 1.6666666666666665 10.0
9.600000000000001 1.6666666666666665 10.0
10.4 1.6666666666666665 10.0
11.200000000000001 1.6666666666666665 10.0
12.0 1.6666666666666665 10.0
12.8 1.6666666666666665 10.0
13.600000000000001 1.6666666666666665 10.0
14.4 1.6666666666666665 10.0
15.200000000000001 1.6666666666666665 10.0
16.0 1.6666666666666665 10.0
0.0 2.0 10.0
0.8 2.0 10.0
1.6 2.0 10.0
2.4000000000000004 2.0 10.0
3.2 2.0 10.0
4.0 2.0 10.0
4.800000000000001 2.0 10.0
5.6000000000000005 2.0 10.0
6.4 2.0 10.0
7.2 2.0 10.0
8.0 2.0 10.0
8.8 2.0 10.0
9.600000000000001 2.0 10.0
10.4 2.0 10.0
11.200000000000001 2.0 10.0
12.0 2.0 10.0
12.8 2.0 10.0
13.600000000000001 2.0 10.0
14.4 2.0 10.0
15.200000000000001 2.0 10.0
16.0 2.0 10.0
CELLS 720 6480
8 0 1 22 21 147 148 169 168
8 1 2 23 22 148 149 170 169
8 2 3 24 23 149 150 171 170
8 3 4 25 24 150 151 172 171
8 4 5 26 25 151 152 173 172
8 5 6 27 26 152 153 174 173
8 6 7 28 27 153 154 175 174
8 7 8 29 28 154 155 176 175
8 8 9 30 29 155 156 177 176
8 9 10 31 30 156 157 178 177
8 10 11 32 31 157 158 179 178
8 11 12 33 32 158 159 180 179
8 12 13 34 33 159 160 181 180
8 13 14 35 34 160 161 182 181
8 14 15 36 35 161 162 183 182
8 15 16 37 36 162 163 184 183
8 16 17 38 37 163 164 185 184
8 17 18 39 38 164 165 186 185
8 18 19 40 39 165 166 187 186
8 19 20 41 40 166 167 188 187
8 21 22 43 42 168 169 190 189
8 22 23 44 43 169 170 191 190
8 23 24 45 44 170 171 192 191
8 24 25 46 45 171 172 193 192
8 25 26 47 46 172 173 194 193
8 26 27 48 47 173 174 195 194
8 27 28 49 48 174 175 196 195
8 28 29 50 49 175 176 197 196
8 29 30 51 50 176 177 198 197
8 30 31 52 51 177 178 199 198
8 31 32 53 52 178 179 200 199
8 32 33 54 53 179 180 201 200
8 33 34 55 54 180 181 202 201
8 34 35 56 55 181 182 203 202
8 35 36 57 56 182 183 204 203
8 36 37 58 57 183 184 205 204
8 37 38 59 58 184 185 206 205
8 38 39 60 59 185 186 207 206
8 39 40 61 60 186 187 208 207
8 40 41 62 61 187 188 209 208
8 42 43 64 63 189 190 211 210
8 43 44 65 64 190 191 212 211
8 44 45 66 65 191 192 213 212
8 45 46 67 66 192 193 214 213
8 46 47 68 67 193 194 215 214
8 47 48 69 68 194 195 216 215
8 48 49 70 69 195 196 217 216
8 49 50 71 70 196 197 218 217
8 50 51 72 71 197 198 219 218
8 51 52 73 72 198 199 220 219
8 52 53 74 73 199 200 221 220
8 53 54 75 74 200 201 222 221
8 54 55 76 75 201 202 223 222
8 55 56 77 76 202 203 224 223
8 56 57 78 77 203 204 225 224
8 57 58 79 78 204 205 226 225
8 58 59 80 79 205 206 227 226
8 59 60 81 80 206 207 228 227
8 60 61 82 81 207 208 229 228
8 61 62 83 82 208 209 230 229
8 63 64 85 84 210 211 232 231
8 64 65 86 85 211 212 233 232
8 65 66 87 86 212 213 234 233
8 66 67 88 87 213 214 235 234
8 67 68 89 88 214 215 236 235
8 68 69 90 89 215 216 237 236
8 69 70 91 90 216 217 238 237
8 70 71 92 91 217 218 239 238
8 71 72 93 92 218 219 240 239
8 72 73 94 93 219 220 241 240
8 73 74 95 94 220 221 242 241
8 74 75 96 95 221 222 243 242
8 75 76 97 96 222 223 244 243
8 76 77 98 97 223 224 245 244
8 77 78 99 98 224 225 246 245
8 78 79 100 99 225 226 247 246
8 79 80 101 100 226 227 248 247
8 80 81 102 101 227 228 249 248
8 81 82 103 102 228 229 250 249
8 82 83 104 103 229 230 251 250
8 84 85 106 105 231 232 253 252
8 85 86 107 106 232 233 254 253
8 86 87 108 107 233 234 255 254
8 87 88 109 108 234 235 256 255
8 88 89 110 109 235 236 257 256
8 89 90 111 110 236 237 258 257
8 90 91 112 111 237 238 259 258
8 91 92 113 112 238 239 260 259
8 92 93 114 113 239 240 261 260
8 93 94 115 114 240 241 262 261
8 94 95 116 115 241 242 263 262
8 95 96 117 116 242 243 264 263
8 96 97 118 117 243 244 265 264
8 97 98 119 118 244 245 266 265
8 98 99 120 119 245 246 267 266
8 99 100 121 120 246 247 268 267
8 100 101 122 121 247 248 269 268
8 101 102 123 122 248 249 270 269
8 102 103 124 123 249 250 271 270
8 103 104 125 124 250 251 272 271
8 105 106 127 126 252 253 274 273
8 106 107 128 127 253 254 275 274
8 107 108 129 128 254 255 276 275
8 108 109 130 129 255 256 277 276
8 109 110 131 130 256 257 278 277
8 110 111 132 131 257 258 279 278
8 111 112 133 132 258 259 280 279
8 112 113 134 133 259 260 281 280
8 113 114 135 134 260 261 282 281
8 114 115 136 135 261 262 283 282
8 115 116 137 136 262 263 284 283
8 116 117 138 137 263 264 285 284
8 117 118 139 138 264 265 286 285
8 118 119 140 139 265 266 287 286
8 119 120 141 140 266 267 288 287
8 120 121 142 141 267 268 289 288
8 121 122 143 142 268 269 290 289
8 122 123 144 143 269 270 291 290
8 123 124 145 144 270 271 292 291
8 124 125 146 145 271 272 293 292
8 147 148 169 168 294 295 316 315
8 148 149 170 169 295 296 317 316
8 149 150 171 170 296 297 318 317
8 150 151 172 171 297 298 319 318
8 151 152 173 172 298 299 320 319
8 152 153 174 173 299 300 321 320
8 153 154 175 174 300 301 322 321
8 154 155 176 175 301 302 323 322
8 155 156 177 176 302 303 324 323
8 156 157 178 177 303 304 325 324
8 157 158 179 178 304 305 326 325
8 158 159 180 179 305 306 327 326
8 159 160 181 180 306 307 328 327
8 160 161 182 181 307 308 329 328
8 161 162 183 182 308 309 330 329
8 162 163 184 183 309 310 331 330
8 163 164 185 184 310 311 332 331
8 164 165 186 185 311 312 333 332
8 165 166 187 186 312 313 334 333
8 166 167 188 187 313 314 335 334
8 168 169 190 189 315 316 337 336
8 169 170 191 190 316 317 338 337
8 170 171 192 191 317 318 339 338
8 171 172 193 192 318 319 340 339
8 172 173 194 193 319 320 341 340
8 173 174 195 194 320 321 342 341
8 174 175 196 195 321 322 343 342
8 175 176 197 196 322 323 344 343
8 176 177 198 197 323 324 345 344
8 177 178 199 198 324 325 346 345
8 178 179 200 199 325 326 347 346
8 179 180 201 200 326 327 348 347
8 180 181 202 201 327 328 349 348
8 181 182 203 202 328 329 350 349
8 182 183 204 203 329 330 351 350
8 183 184 205 204 330 331 352 351
8 184 185 206 205 331 332 353 352
8 185 186 207 206 332 333 354 353
8 186 187 208 207 333 334 355 354
8 187 188 209 208 334 335 356 355
8 189 190 211 210 336 337 358 357
8 190 191 212 211 337 338 359 358
8 191 192 213 212 338 339 360 359
8 192 193 214 213 339 340 361 360
8 193 194 215 214 340 341 362 361
8 194 195 216 215 341 342 363 362
8 195 196 217 216 342 343 364 363
8 196 197 218 217 343 344 365 364
8 197 198 219 218 344 345 366 365
8 198 199 220 219 345 346 367 366
8 199 200 221 220 346 347 368 367
8 200 201 222 221 347 348 369 368
8 201 202 223 222 348 349 370 369
8 202 203 224 223 349 350 371 370
8 203 204 225 224 350 351 372 371
8 204 205 226 225 351 352 373 372
8 205 206 227 226 352 353 374 373
8 206 207 228 227 353 354 375 374
8 207 208 229 228 354 355 376 375
8 208 209 230 229 355 356 377 376
8 210 211 232 231 357 358 379 378
8 211 212 233 232 358 359 380 379
8 212 213 234 233 359 360 381 380
8 213 214 235 234 360 361 382 381
8 214 215 236 235 361 362 383 382
8 215 216 237 236 362 363 384 383
8 216 217 238 237 363 364 385 384
8 217 218 239 238 364 365 386 385
8 218 219 240 239 365 366 387 386
8 219 220 241 240 366 367 388 387
8 220 221 242 241 367 368 389 388
8 221 222 243 242 368 369 390 389
8 222 223 244 243 369 370 391 390
8 223 224 245 244 370 371 392 391
8 224 225 246 245 371 372 393 392
8 225 226 247 246 372 373 394 393
8 226 227 248 247 373 374 395 394
8 227 228 249 248 374 375 396 395
8 228 229 250 249 375 376 397 396
8 229 230 251 250 376 377 398 397
8 231 232 253 252 378 379 400 399
8 232 233 254 253 379 380 401 400
8 233 234 255 254 380 381 402 401
8 234 235 256 255 381 382 403 402
8 235 236 257 256 382 383 404 403
8 236 237 258 257 383 384 405 404
8 237 238 259 258 384 385 406 405
8 238 239 260 259 385 386 407 406
8 239 240 261 260 386 387 408 407
8 240 241 262 261 387 388 409 408
8 241 242 263 262 388 389 410 409
8 242 243 264 263 389 390 411 410
8 243 244 265 264 390 391 412 411
8 244 245 266 265 391 392 413 412
8 245 246 267 266 392 393 414 413
8 246 247 268 267 393 394 415 414
8 247 248 269 268 394 395 416 415
8 248 249 270 269 395 396 417 416
8 249 250 271 270 396 397 418 417
8 250 251 272 271 397 398 419 418
8 252 253 274 273 399 400 421 420
8 253 254 275 274 400 401 422 421
8 254 255 276 275 401 402 423 422
8 255 256 277 276 402 403 424 423
8 256 257 278 277 403 404 425 424
8 257 258 279 278 404 405 426 425
8 258 259 280 279 405 406 427 426
8 259 260 281 280 406 407 428 427
8 260 261 282 281 407 408 429 428
8 261 262 283 282 408 409 430 429
8 262 263 284 283 409 410 431 430
8 263 264 285 284 410 411 432 431
8 264 265 286 285 411 412 433 432
8 265 266 287 286 412 413 434 433
8 266 267 288 287 413 414 435 434
8 267 268 289 288 414 415 436 435
8 268 269 290 289 415 416 437 436
8 269 270 291 290 416 417 438 437
8 270 271 292 291 417 418 439 438
8 271 272 293 292 418 419 440 439
8 294 295 316 315 441 442 463 462
8 295 296 317 316 442 443 464 463
8 296 297 318 317 443 444 465 464
8 297 298 319 318 444 445 466 465
8 298 299 320 319 445 446 467 466
8 299 300 321 320 446 447 468 467
8 300 301 322 321 447 448 469 468
8 301 302 323 322 448 449 470 469
8 302 303 324 323 449 450 471 470
8 303 304 325 324 450 451 472 471
8 304 305 326 325 451 452 473 472
8 305 306 327 326 452 453 474 473
8 306 307 328 327 453 454 475 474
8 307 308 329 328 454 455 476 475
8 308 309 330 329 455 456 477 476
8 309 310 331 330 456 457 478 477
8 310 311 332 331 457 458 479 478
8 311 312 333 332 458 459 480 479
8 312 313 334 333 459 460 481 480
8 313 314 335 334 460 461 482 481
8 315 316 337 336 462 463 484 483
8 316 317 338 337 463 464 485 484
8 317 318 339 338 464 465 486 485
8 318 319 340 339 465 466 487 486
8 319 320 341 340 466 467 488 487
8 320 321 342 341 467 468 489 488
8 321 322 343 342 468 469 490 489
8 322 323 344 343 469 470 491 490
8 323 324 345 344 470 471 492 491
8 324 325 346 345 471 472 493 492
8 325 326 347 346 472 473 494 493
8 326 327 348 347 473 474 495 494
8 327 328 349 348 474 475 496 495
8 328 329 350 349 475 476 497 496
8 329 330 351 350 476 477 498 497
8 330 331 352 351 477 478 499 498
8 331 332 353 352 478 479 500 499
8 332 333 354 353 479 480 501 500
8 333 334 355 354 480 481 502 501
8 334 335 356 355 481 482 503 502
8 336 337 358 357 483 484 505 504
8 337 338 359 358 484 485 506 505
8 338 339 360 359 485 486 507 506
8 339 340 361 360 486 487 508 507
8 340 341 362 361 487 488 509 508
8 341 342 363 362 488 489 510 509
8 342 343 364 363 489 490 511 510
8 343 344 365 364 490 491 512 511
8 344 345 366 365 491 492 513 512
8 345 346 367 366 492 493 514 513
8 346 347 368 367 493 494 515 514
8 347 348 369 368 494 495 516 515
8 348 349 370 369 495 496 517 516
8 349 350 371 370 496 497 518 517
8 350 351 372 371 497 498 519 518
8 351 352 373 372 498 499 520 519
8 352 353 374 373 499 500 521 520
8 353 354 375 374 500 501 522 521
8 354 355 376 375 501 502 523 522
8 355 356 377 376 502 503 524 523
8 357 358 379 378 504 505 526 525
8 358 359 380 379 505 506 527 526
8 359 360 381 380 506 507 528 527
8 360 361 382 381 507 508 529 528
8 361 362 383 382 508 509 530 529
8 362 363 384 383 509 510 531 530
8 363 364 385 384 510 511 532 531
8 364 365 386 385 511 512 533 532
8 365 366 387 386 512 513 534 533
8 366 367 388 387 513 514 535 534
8 367 368 389 388 514 515 536 535
8 368 369 390 389 515 516 537 536
8 369 370 391 390 516 517 538 537
8 370 371 392 391 517 518 539 538
8 371 372 393 392 518 519 540 539
8 372 373 394 393 519 520 541 540
8 373 374 395 394 520 521 542 541
8 374 375 396 395 521 522 543 542
8 375 376 397 396 522 523 544 543
8 376 377 398 397 523 524 545 544
8 378 379 400 399 525 526 547 546
8 379 380 401 400 526 527 548 547
8 380 381 402 401 527 528 549 548
8 381 382 403 402 528 529 550 549
8 382 383 404 403 529 530 551 550
8 383 384 405 404 530 531 552 551
8 384 385 406 405 531 532 553 552
8 385 386 407 406 532 533 554 553
8 386 387 408 407 533 534 555 554
8 387 388 409 408 534 535 556 555
8 388 389 410 409 535 536 557 556
8 389 390 411 410 536 537 558 557
8 390 391 412 411 537 538 559 558
8 391 392 413 412 538 539 560 559
8 392 393 414 413 539 540 561 560
8 393 394 415 414 540 541 562 561
8 394 395 416 415 541 542 563 562
8 395 396 417 416 542 543 564 563
8 396 397 418 417 543 544 565 564
8 397 398 419 418 544 545 566 565
8 399 400 421 420 546 547 568 567
8 400 401 422 421 547 548 569 568
8 401 402 423 422 548 549 570 569
8 402 403 424 423 549 550 571 570
8 403 404 425 424 550 551 572 571
8 404 405 426 425 551 552 573 572
8 405 406 427 426 552 553 574 573
8 406 407 428 427 553 554 575 574
8 407 408 429 428 554 555 576 575
8 408 409 430 429 555 556 577 576
8 409 410 431 430 556 557 578 577
8 410 411 432 431 557 558 579 578
8 411 412 433 432 558 559 580 579
8 412 413 434 433 559 560 581 580
8 413 414 435 434 560 561 582 581
8 414 415 436 435 561 562 583 582
8 415 416 437 436 562 563 584 583
8 416 417 438 437 563 564 585 584
8 417 418 439 438 564 565 586 585
8 418 419 440 439 565 566 587 586
8 441 442 463 462 588 589 610 609
8 442 443 464 463 589 590 611 610
8 443 444 465 464 590 591 612 611
8 444 445 466 465 591 592 613 612
8 445 446 467 466 592 593 614 613
8 446 447 468 467 593 594 615 614
8 447 448 469 468 594 595 616 615
8 448 449 470 469 595 596 617 616
8 449 450 471 470 596 597 618 617
8 450 451 472 471 597 598 619 618
8 451 452 473 472 598 599 620 619
8 452 453 474 473 599 600 621 620
8 453 454 475 474 600 601 622 621
8 454 455 476 475 601 602 623 622
8 455 456 477 476 602 603 624 623
8 456 457 478 477 603 604 625 624
8 457 458 479 478 604 605 626 625
8 458 459 480 479 605 606 627 626
8 459 460 481 480 606 607 628 627
8 460 461 482 481 607 608 629 628
8 462 463 484 483 609 610 631 630
8 463 464 485 484 610 611 632 631
8 464 465 486 485 611 612 633 632
8 465 466 487 486 612 613 634 633
8 466 467 488 487 613 614 635 634
8 467 468 489 488 614 615 636 635
8 468 469 490 489 615 616 637 636
8 469 470 491 490 616 617 638 637
8 470 471 492 491 617 618 639 638
8 471 472 493 492 618 619 640 639
8 472 473 494 493 619 620 641 640
8 473 474 495 494 620 621 642 641
8 474 475 496 495 621 622 643 642
8 475 476 497 496 622 623 644 643
8 476 477 498 497 623 624 645 644
8 477 478 499 498 624 625 646 645
8 478 479 500 499 625 626 647 646
8 479 480 501 500 626 627 648 647
8 480 481 502 501 627 628 649 648
8 481 482 503 502 628 629 650 649
8 483 484 505 504 630 631 652 651
8 484 485 506 505 631 632 653 652
8 485 486 507 506 632 633 654 653
8 486 487 508 507 633 634 655 654
8 487 488 509 508 634 635 656 655
8 488 489 510 509 635 636 657 656
8 489 490 511 510 636 637 658 657
8 490 491 512 511 637 638 659 658
8 491 492 513 512 638 639 660 659
8 492 493 514 513 639 640 661 660
8 493 494 515 514 640 641 662 661
8 494 495 516 515 641 642 663 662
8 495 496 517 516 642 643 664 663
8 496 497 518 517 643 644 665 664
8 497 498 519 518 644 645 666 665
8 498 499 520 519 645 646 667 666
8 499 500 521 520 646 647 668 667
8 500 501 522 521 647 648 669 668
8 501 502 523 522 648 649 670 669
8 502 503 524 523 649 650 671 670
8 504 505 526 525 651 652 673 672
8 505 506 527 526 652 653 674 673
8 506 507 528 527 653 654 675 674
8 507 508 529 528 654 655 676 675
8 508 509 530 529 655 656 677 676
8 509 510 531 530 656 657 678 677
8 510 511 532 531 657 658 679 678
8 511 512 533 532 658 659 680 679
8 512 513 534 533 659 660 681 680
8 513 514 535 534 660 661 682 681
8 514 515 536 535 661 662 683 682
8 515 516 537 536 662 663 684 683
8 516 517 538 537 663 664 685 684
8 517 518 539 538 664 665 686 685
8 518 519 540 539 665 666 687 686
8 519 520 541 540 666 667 688 687
8 520 521 542 541 667 668 689 688
8 521 522 543 542 668 669 690 689
8 522 523 544 543 669 670 691 690
8 523 524 545 544 670 671 692 691
8 525 526 547 546 672 673 694 693
8 526 527 548 547 673 674 695 694
8 527 528 549 548 674 675 696 695
8 528 529 550 549 675 676 697 696
8 529 530 551 550 676 677 698 697
8 530 531 552 551 677 678 699 698
8 531 532 553 552 678 679 700 699
8 532 533 554 553 679 680 701 700
8 533 534 555 554 680 681 702 701
8 534 535 556 555 681 682 703 702
8 535 536 557 556 682 683 704 703
8 536 537 558 557 683 684 705 704
8 537 538 559 558 684 685 706 705
8 538 539 560 559 685 686 707 706
8 539 540 561 560 686 687 708 707
8 540 541 562 561 687 688 709 708
8 541 542 563 562 688 689 710 709
8 542 543 564 563 689 690 711 710
8 543 544 565 564 690 691 712 711
8 544 545 566 565 691 692 713 712
8 546 547 568 567 693 694 715 714
8 547 548 569 568 694 695 716 715
8 548 549 570 569 695 696 717 716
8 549 550 571 570 696 697 718 717
8 550 551 572 571 697 698 719 718
8 551 552 573 572 698 699 720 719
8 552 553 574 573 699 700 721 720
8 553 554 575 574 700 701 722 721
8 554 555 576 575 701 702 723 722
8 555 556 577 576 702 703 724 723
8 556 557 578 577 703 704 725 724
8 557 558 579 578 704 705 726 725
8 558 559 580 579 705 706 727 726
8 559 560 581 580 706 707 728 727
8 560 561 582 581 707 708 729 728
8 561 562 583 582 708 709 730 729
8 562 563 584 583 709 710 731 730
8 563 564 585 584 710 711 732 731
8 564 565 586 585 711 712 733 732
8 565 566 587 586 712 713 734 733
8 588 589 610 609 735 736 757 756
8 589 590 611 610 736 737 758 757
8 590 591 612 611 737 738 759 758
8 591 592 613 612 738 739 760 759
8 592 593 614 613 739 740 761 760
8 593 594 615 614 740 741 762 761
8 594 595 616 615 741 742 763 762
8 595 596 617 616 742 743 764 763
8 596 597 618 617 743 744 765 764
8 597 598 619 618 744 745 766 765
8 598 599 620 619 745 746 767 766
8 599 600 621 620 746 747 768 767
8 600 601 622 621 747 748 769 768
8 601 602 623 622 748 749 770 769
8 602 603 624 623 749 750 771 770
8 603 604 625 624 750 751 772 771
8 604 605 626 625 751 752 773 772
8 605 606 627 626 752 753 774 773
8 606 607 628 627 753 754 775 774
8 607 608 629 628 754 755 776 775
8 609 610 631 630 756 757 778 777
8 610 611 632 631 757 758 779 778
8 611 612 633 632 758 759 780 779
8 612 613 634 633 759 760 781 780
8 613 614 635 634 760 761 782 781
8 614 615 636 635 761 762 783 782
8 615 616 637 636 762 763 784 783
8 616 617 638 637 763 764 785 784
8 617 618 639 638 764 765 786 785
8 618 619 640 639 765 766 787 786
8 619 620 641 640 766 767 788 787
8 620 621 642 641 767 768 789 788
8 621 622 643 642 768 769 790 789
8 622 623 644 643 769 770 791 790
8 623 624 645 644 770 771 792 791
8 624 625 646 645 771 772 793 792
8 625 626 647 646 772 773 794 793
8 626 627 648 647 773 774 795 794
8 627 628 649 648 774 775 796 795
8 628 629 650 649 775 776 797 796
8 630 631 652 651 777 778 799 798
8 631 632 653 652 778 779 800 799
8 632 633 654 653 779 780 801 800
8 633 634 655 654 780 781 802 801
8 634 635 656 655 781 782 803 802
8 635 636 657 656 782 783 804 803
8 636 637 658 657 783 784 805 804
8 637 638 659 658 784 785 806 805
8 638 639 660 659 785 786 807 806
8 639 640 661 660 786 787 808 807
8 640 641 662 661 787 788 809 808
8 641 642 663 662 788 789 810 809
8 642 643 664 663 789 790 811 810
8 643 644 665 664 790 791 812 811
8 644 645 666 665 791 792 813 812
8 645 646 667 666 792 793 814 813
8 646 647 668 667 793 794 815 814
8 647 648 669 668 794 795 816 815
8 648 649 670 669 795 796 817 816
8 649 650 671 670 796 797 818 817
8 651 652 673 672 798 799 820 819
8 652 653 674 673 799 800 821 820
8 653 654 675 674 800 801 822 821
8 654 655 676 675 801 802 823 822
8 655 656 677 676 802 803 824 823
8 656 657 678 677 803 804 825 824
8 657 658 679 678 804 805 826 825
8 658 659 680 679 805 806 827 826
8 659 660 681 680 806 807 828 827
8 660 661 682 681 807 808 829 828
8 661 662 683 682 808 809 830 829
8 662 663 684 683 809 810 831 830
8 663 664 685 684 810 811 832 831
8 664 665 686 685 811 812 833 832
8 665 666 687 686 812 813 834 833
8 666 667 688 687 813 814 835 834
8 667 668 689 688 814 815 836 835
8 668 669 690 689 815 816 837 836
8 669 670 691 690 816 817 838 837
8 670 671 692 691 817 818 839 838
8 672 673 694 693 819 820 841 840
8 673 674 695 694 820 821 842 841
8 674 675 696 695 821 822 843 842
8 675 676 697 696 822 823 844 843
8 676 677 698 697 823 824 845 844
8 677 678 699 698 824 825 846 845
8 678 679 700 699 825 826 847 846
8 679 680 701 700 826 827 848 847
8 680 681 702 701 827 828 849 848
8 681 682 703 702 828 829 850 849
8 682 683 704 703 829 830 851 850
8 683 684 705 704 830 831 852 851
8 684 685 706 705 831 832 853 852
8 685 686 707 706 832 833 854 853
8 686 687 708 707 833 834 855 854
8 687 688 709 708 834 835 856 855
8 688 689 710 709 835 836 857 856
8 689 690 711 710 836 837 858 857
8 690 691 712 711 837 838 859 858
8 691 692 713 712 838 839 860 859
8 693 694 715 714 840 841 862 861
8 694 695 716 715 841 842 863 862
8 695 696 717 716 842 843 864 863
8 696 697 718 717 843 844 865 864
8 697 698 719 718 844 845 866 865
8 698 699 720 719 845 846 867 866
8 699 700 721 720 846 847 868 867
8 700 701 722 721 847 848 869 868
8 701 702 723 722 848 849 870 869
8 702 703 724 723 849 850 871 870
8 703 704 725 724 850 851 872 871
8 704 705 726 725 851 852 873 872
8 705 706 727 726 852 853 874 873
8 706 707 728 727 853 854 875 874
8 707 708 729 728 854 855 876 875
8 708 709 730 729 855 856 877 876
8 709 710 731 730 856 857 878 877
8 710 711 732 731 857 858 879 878
8 711 712 733 732 858 859 880 879
8 712 713 734 733 859 860 881 880
8 735 736 757 756 882 883 904 903
8 736 737 758 757 883 884 905 904
8 737 738 759 758 884 885 906 905
8 738 739 760 759 885 886 907 906
8 739 740 761 760 886 887 908 907
8 740 741 762 761 887 888 909 908
8 741 742 763 762 888 889 910 909
8 742 743 764 763 889 890 911 910
8 743 744 765 764 890 891 912 911
8 744 745 766 765 891 892 913 912
8 745 746 767 766 892 893 914 913
8 746 747 768 767 893 894 915 914
8 747 748 769 768 894 895 916 915
8 748 749 770 769 895 896 917 916
8 749 750 771 770 896 897 918 917
8 750 751 772 771 897 898 919 918
8 751 752 773 772 898 899 920 919
8 752 753 774 773 899 900 921 920
8 753 754 775 774 900 901 922 921
8 754 755 776 775 901 902 923 922
8 756 757 778 777 903 904 925 924
8 757 758 779 778 904 905 926 925
8 758 759 780 779 905 906 927 926
8 759 760 781 780 906 907 928 927
8 760 761 782 781 907 908 929 928
8 761 762 783 782 908 909 930 929
8 762 763 784 783 909 910 931 930
8 763 764 785 784 910 911 932 931
8 764 765 786 785 911 912 933 932
8 765 766 787 786 912 913 934 933
8 766 767 788 787 913 914 935 934
8 767 768 789 788 914 915 936 935
8 768 769 790 789 915 916 937 936
8 769 770 791 790 916 917 938 937
8 770 771 792 791 917 918 939 938
8 771 772 793 792 918 919 940 939
8 772 773 794 793 919 920 941 940
8 773 774 795 794 920 921 942 941
8 774 775 796 795 921 922 943 942
8 775 776 797 796 922 923 944 943
8 777 778 799 798 924 925 946 945
8 778 779 800 799 925 926 947 946
8 779 780 801 800 926 927 948 947
8 780 781 802 801 927 928 949 948
8 781 782 803 802 928 929 950 949
8 782 783 804 803 929 930 951 950
8 783 784 805 804 930 931 952 951
8 784 785 806 805 931 932 953 952
8 785 786 807 806 932 933 954 953
8 786 787 808 807 933 934 955 954
8 787 788 809 808 934 935 956 955
8 788 789 810 809 935 936 957 956
8 789 790 811 810 936 937 958 957
8 790 791 812 811 937 938 959 958
8 791 792 813 812 938 939 960 959
8 792 793 814 813 939 940 961 960
8 793 794 815 814 940 941 962 961
8 794 795 816 815 941 942 963 962
8 795 796 817 816 942 943 964 963
8 796 797 818 817 943 944 965 964
8 798 799 820 819 945 946 967 966
8 799 800 821 820 946 947 968 967
8 800 801 822 821 947 948 969 968
8 801 802 823 822 948 949 970 969
8 802 803 824 823 949 950 971 970
8 803 804 825 824 950 951 972 971
8 804 805 826 825 951 952 973 972
8 805 806 827 826 952 953 974 973
8 806 807 828 827 953 954 975 974
8 807 808 829 828 954 955 976 975
8 808 809 830 829 955 956 977 976
8 809 810 831 830 956 957 978 977
8 810 811 832 831 957 958 979 978
8 811 812 833 832 958 959 980 979
8 812 813 834 833 959 960 981 980
8 813 814 835 834 960 961 982 981
8 814 815 836 835 961 962 983 982
8 815 816 837 836 962 963 984 983
8 816 817 838 837 963 964 985 984
8 817 818 839 838 964 965 986 985
8 819 820 841 840 966 967 988 987
8 820 821 842 841 967 968 989 988
8 821 822 843 842 968 969 990 989
8 822 823 844 843 969 970 991 990
8 823 824 845 844 970 971 992 991
8 824 825 846 845 971 972 993 992
8 825 826 847 846 972 973 994 993
8 826 827 848 847 973 974 995 994
8 827 828 849 848 974 975 996 995
8 828 829 850 849 975 976 997 996
8 829 830 851 850 976 977 998 997
8 830 831 852 851 977 978 999 998
8 831 832 853 852 978 979 1000 999
8 832 833 854 853 979 980 1001 1000
8 833 834 855 854 980 981 1002 1001
8 834 835 856 855 981 982 1003 1002
8 835 836 857 856 982 983 1004 1003
8 836 837 858 857 983 984 1005 1004
8 837 838 859 858 984 985 1006 1005
8 838 839 860 859 985 986 1007 1006
8 840 841 862 861 987 988 1009 1008
8 841 842 863 862 988 989 1010 1009
8 842 843 864 863 989 990 1011 1010
8 843 844 865 864 990 991 1012 1011
8 844 845 866 865 991 992 1013 1012
8 845 846 867 866 992 993 1014 1013
8 846 847 868 867 993 994 1015 1014
8 847 848 869 868 994 995 1016 1015
8 848 849 870 869 995 996 1017 1016
8 849 850 871 870 996 997 1018 1017
8 850 851 872 871 997 998 1019 1018
8 851 852 873 872 998 999 1020 1019
8 852 853 874 873 999 1000 1021 1020
8 853 854 875 874 1000 1001 1022 1021
8 854 855 876 875 1001 1002 1023 1022
8 855 856 877 876 1002 1003 1024 1023
8 856 857 878 877 1003 1004 1025 1024
8 857 858 879 878 1004 1005 1026 1025
8 858 859 880 879 1005 1006 1027 1026
8 859 860 881 880 1006 1007 1028 1027
CELL_TYPES 720
12
12
12
12
12
12
12
12
12
12
12
12
12
12
12
12
12
12
12
12
12
12
12
12
12
12
12
12
12
12
12
12
12
12
12
12
12
12
12
12
12
12
12
12
12
12
12
12
12
12
12
12
12
12
12
12
12
12
12
12
12
12
12
12
12
12
12
12
12
12
12
12
12
12
12
12
12
12
12
12
12
12
12
12
12
12
12
12
12
12
12
12
12
12
12
12
12
12
12
12
12
12
12
12
12
12
12
12
12
12
12
12
12
12
12
12
12
12
12
12
12
12
12
12
12
12
12
12
12
12
12
12
12
12
12
12
12
12
12
12
12
12
12
12
12
12
12
12
12
12
12
12
12
12
12
12
12
12
12
12
12
12
12
12
12
12
12
12
12
12
12
12
12
12
12
12
12
12
12
12
12
12
12
12
12
12
12
12
12
12
12
12
12
12
12
12
12
12
12
12
12
12
12
12
12
12
12
12
12
12
12
12
12
12
12
12
12
12
12
12
12
12
12
12
12
12
12
12
12
12
12
12
12
12
12
12
12
12
12
12
12
12
12
12
12
12
12
12
12
12
12
12
12
12
12
12
12
12
12
12
12
12
12
12
12
12
12
12
12
12
12
12
12
12
12
12
12
12
12
12
12
12
12
12
12
12
12
12
12
12
12
12
12
12
12
12
12
12
12
12
12
12
12
12
12
12
12
12
12
12
12
12
12
12
12
12
12
12
12
12
12
12
12
12
12
12
12
12
12
12
12
12
12
12
12
12
12
12
12
12
12
12
12
12
12
12
12
12
12
12
12
12
12
12
12
12
12
12
12
12
12
12
12
12
12
12
12
12
12
12
12
12
12
12
12
12
12
12
12
12
12
12
12
12
12
12
12
12
12
12
12
12
12
12
12
12
12
12
12
12
12
12
12
12
12
12
12
12
12
12
12
12
12
12
12
12
12
12
12
12
12
12
12
12
12
12
12
12
12
12
12
12
12
12
12
12
12
12
12
12
12
12
12
12
12
12
12
12
12
12
12
12
12
12
12
12
12
12
12
12
12
12
12
12
12
12
12
12
12
12
12
12
12
12
12
12
12
12
12
12
12
12
12
12
12
12
12
12
12
12
12
12
12
12
12
12
12
12
12
12
12
12
12
12
12
12
12
12
12
12
12
12
12
12
12
12
12
12
12
12
12
12
12
12
12
12
12
12
12
12
12
12
12
12
12
12
12
12
12
12
12
12
12
12
12
12
12
12
12
12
12
12
12
12
12
12
12
12
12
12
12
12
12
12
12
12
12
12
12
12
12
12
12
12
12
12
12
12
12
12
12
12
12
12
12
12
12
12
12
12
12
12
12
12
12
12
12
12
12
12
12
12
12
12
12
12
12
12
12
12
12
12
12
12
12
12
12
12
12
12
12
12
12
12
12
12
12
12
12
12
12
12
12
12
12
12
12
12
12
12
12
12
12
12
12
12
12
12
12
12
12
12
12
12
12
12
12
12
12
12
12
12
12
12
12
12
12
12
12
12
12
12
12
12
12
12
12
12
12
12
12
12
12
12
12
12
12
12
12
12
12
12
12
12
12
12
12
12
12
12
12
12
12
12
12
12
12
12
12
12
12
12
12
12
12
12
12
12
12
12
POINT_DATA 1029
VECTORS Disp float
0.0 0.0 0.0
0.018292925237333738 -0.6633287422785981 0.015877565699753626
0.044050604308358866 -1.2499765946440828 0.03418772491735854
0.07967542850971028 -1.8150637963239347 0.04880932605535524
0.13037177013976775 -2.3432698516248314 0.062058586914119196
0.19685065939394547 -2.8221412713626197 0.07301301407630548
0.2788376968078015 -3.238519573862434 0.08121694232401878
0.3758369234912336 -3.579679966508773 0.08608756446095872
0.4865227404500777 -3.833217834769967 0.08721693603891051
0.6076021278699512 -3.98854240136963 0.08527244956675172
0.7336164547656546 -4.040298668672945 0.08351260460749327
0.8596755668175994 -3.989300248207097 0.08534256879937706
0.9808980470437462 -3.834751203929542 0.0873817727585741
1.091852654491344 -3.582021136130799 0.08640152539960491
1.189296028029303 -3.241707217487626 0.08177369095426754
1.2719811664114866 -2.8262004707143795 0.07396285442716281
1.3395223785967019 -2.3481770522741625 0.06361454943504734
1.3918019055832997 -1.8206862939744521 0.05133870960671208
1.4297326243225972 -1.2560550129936918 0.03792006146247662
1.4594677237908051 -0.6693739068594541 0.022543756506384946
1.487306891286736 0.0 -0.00012871375448756333
0.2603399499452629 -0.028325908340766547 -0.008336505403328809
0.2715763137691442 -0.6603842082755892 0.008317615495752956
0.2806348853195373 -1.253970343110398 0.021657412176564306
0.30397941453790833 -1.8197553855819848 0.032963222954702984
0.33691349259159775 -2.3500181332515044 0.04242567689739778
0.3803976338649873 -2.830693323005644 0.05021155163500203
0.4341829123251296 -3.2488929004373497 0.055981223466268513
0.49792800580588276 -3.591800603866246 0.05946873650165177
0.5707632799354685 -3.8468558243294853 0.06049117384363426
0.650569471984167 -4.00306293209218 0.059467696853183795
0.7337529667878322 -4.0548693233921895 0.058379072798283665
0.8169838194498813 -4.003833249002954 0.059443562845651506
0.8969401836167062 -3.8484164634736104 0.06046382378296453
0.9700534057015664 -3.5941887577134306 0.05948558139198179
1.0342481894304325 -3.2521550646227517 0.05612809580465171
1.088721166261541 -2.834866492905998 0.050627993986917086
1.133224660478033 -2.3550924499855728 0.043338085517851094
1.1676262815268523 -1.8256179438650517 0.03467361004227761
1.1930963749860852 -1.2603932938370623 0.02475836451765806
1.2051858399140332 -0.6669080265404643 0.012851374795235987
1.2180468121696726 -0.02989252888482409 -0.0033620875049492974
0.5061154163316659 -0.049181057051688404 -0.013623360788616477
0.5119093543731816 -0.6593960068536201 -0.0007372344846678696
0.5129203032061448 -1.254875931467189 0.008786279087993827
0.5219782777552691 -1.8225896053033948 0.015806711441062216
0.5375357283360978 -2.3538887029179483 0.021178316772724824
0.5584673221144749 -2.8357057901758584 0.025278181380031704
0.5847446799433589 -3.2549895557536006 0.02813150048541438
0.6162372007635596 -3.5989862067908223 0.029680035823757916
0.6527128899833365 -3.854980723712169 0.029894194755327806
0.6929139044759587 -4.011376651730751 0.02884768739109117
0.73386120648299 -4.062301764093528 0.02766787589616239
0.7748567756122525 -4.012160447529991 0.028729458548394277
0.8152099108174761 -3.856570381301143 0.029674629634177573
0.8519636961153715 -3.6014230666336537 0.029399247671922903
0.8838975985524061 -3.2583265584140344 0.027865619451136102
0.9108334300786903 -2.83998915282205 0.025160482311222934
0.9327112951426633 -2.359120926877335 0.02142533257816355
0.9495870961548754 -1.8286633530705114 0.01676129142369118
0.9604070366806486 -1.2615784803008563 0.010929348671906416
0.9628584794031814 -0.6656897395103821 0.002875961535439492
0.969351415242705 -0.0515942976059929 -0.008561510857191404
0.7446669217188892 -0.06254655329452863 -0.0183450862612498
0.7462239228697709 -0.6595635511059897 -0.009543940875387109
0.7411159663368893 -1.2541233304069326 -0.004219676801492776
0.7373064059779303 -1.823149594885509 -0.0017394484635403656
0.7352855571602263 -2.355051849285102 -0.0007027891134033648
0.7339249987896502 -2.837265667315944 -0.00046861826091874697
0.7330037729374567 -3.2569551995649455 -0.0007494618149329001
0.7326626315420965 -3.6014255227656804 -0.001390419010184668
0.7334270436611394 -3.8578796588196718 -0.0022476089747524475
0.7349750293889276 -4.013594348330955 -0.003489949582159017
0.7339577580468114 -4.061844742727746 -0.004989782962394098
0.7329889583959646 -4.0143922266546985 -0.003702968038205966
0.7346888176918301 -3.8594992993625064 -0.0026610169055932458
0.7357275174845055 -3.603911793635559 -0.001972027809327842
0.7358133504625617 -3.2603660950573548 -0.0014328805635053037
0.7355112540708131 -2.8416549482059352 -0.0011297461769141674
0.7350065103667376 -2.3604290607478546 -0.0011256458358037751
0.734120929676884 -1.8294161010824266 -0.0015743308726485893
0.7315575074800839 -1.2609070742151598 -0.002993580723657643
0.7272187626961097 -0.6656065935980632 -0.006839091723340812
0.7291613720671202 -0.06558638245447262 -0.014077831751327301
0.9812640983333089 -0.06970123130102336 -0.023197176950764797
0.9790794500954659 -0.6598310400681657 -0.017906698043766014
0.9683099478451104 -1.2522814546206706 -0.01701157524895581
0.9525950554822924 -1.82159030758551 -0.019186591614950604
0.9331360014425005 -2.353464261596491 -0.022544787189617825
0.9094008771309794 -2.835407450634335 -0.026189142855177587
0.8813204840259725 -3.254813012160401 -0.029618497192386656
0.8490655899179615 -3.5991109369974796 -0.0324730133642122
0.8138748856930653 -3.85568879628672 -0.03435599625975554
0.7772442245971236 -4.010089117862522 -0.035181370782264736
0.7340569132126697 -4.052375414393235 -0.03652714299588608
0.690918500668075 -4.010901561072174 -0.03549074647723479
0.6544400997851658 -3.857339170386013 -0.03496674365119595
0.6195208708744308 -3.6016470342731606 -0.033361501167756026
0.5876798111841259 -3.258296717497467 -0.030729202169105435
0.5601792869702508 -2.839896736249771 -0.027407790393328853
0.5372057723331353 -2.358975093100298 -0.02365858771947643
0.5186577099125832 -1.8280019012868562 -0.01983848624249518
0.503790346659334 -1.2590798864465684 -0.016695781134972526
0.4934605888446139 -0.6657146927249931 -0.016134004064910067
0.49148648443702964 -0.07313909064832735 -0.0198626181430443
1.2194438760920154 -0.07237823696080857 -0.02842332483351122
1.2143088367183716 -0.6595546679409713 -0.025797499037067295
1.1980951346154531 -1.249516515624893 -0.029299288005030826
1.1708872657866476 -1.8180643779155 -0.03605830355802549
1.1339274142648126 -2.34910126275259 -0.04367804692199665
1.0875698472246305 -2.8300866812021575 -0.051032074419991934
1.0319684703665153 -3.248574832618972 -0.057436014318542825
0.9675839329301049 -3.591900246156259 -0.06229110845699854
0.8948517529894918 -3.848251564177305 -0.06501013559758431
0.8194511305166966 -4.00185329072321 -0.0640848218056574
0.73417319371222 -4.032176790002249 -0.0628151385142128
0.6489458255649947 -4.002680957960368 -0.06449294744516068
0.573701592770998 -3.849933759742824 -0.06582345919278615
0.5012444218340477 -3.594487148731827 -0.06349548529168161
0.4372696761504122 -3.252130716545649 -0.05898813533352478
0.38222160823597245 -2.8346709577645512 -0.052829374264781306
0.3365386835558779 -2.3547271612561143 -0.045513547591847885
0.3002752271584343 -1.8245808009226498 -0.03756331190140756
0.2735817049367035 -1.2563229002715197 -0.02991648222285178
0.2575496615994826 -0.6653595933885235 -0.024949878718237208
0.2524677718873561 -0.07600757096611044 -0.025990652532176688
1.4611665399357419 -0.07292416469406421 -0.03384407613247603
1.455347780488583 -0.6586270021314253 -0.03323184095119909
1.4347492815283334 -1.2458815106233794 -0.04066330479494558
1.3956229822193145 -1.8125222328530872 -0.051600425175120826
1.3407253392244658 -2.341876934882299 -0.06305271663055742
1.2712668905408937 -2.8212056622450596 -0.07367969475358986
1.187487964987615 -3.2380253399904406 -0.08260131466470494
1.0899130845270109 -3.579937327450935 -0.08898602566590842
0.9794561812469201 -3.834175852528653 -0.09204746796692516
0.856539521193082 -3.990428409189265 -0.08878559587370712
0.7343239015734702 -3.9999999999999996 -0.0754505267527359
0.6121630228894982 -3.9912725707455876 -0.08929555354802053
0.48941446014908957 -3.835892155519929 -0.09307003820168959
0.37924887175355765 -3.5825776579220983 -0.09051756396252825
0.28209828316142394 -3.2416549568401885 -0.08461222925253399
0.19887143793432505 -2.82588145994536 -0.07608101053286695
0.13003460988125237 -2.3475987602785815 -0.0656443247748856
0.07565311109987198 -1.8191029776329302 -0.05399736649555742
0.036676738092056384 -1.2526743503100968 -0.042239381725256604
0.015864837196050106 -0.6643820203262111 -0.03327975254622688
0.009895116222897795 -0.0765940523119781 -0.03220736591284968
0.0 0.0 0.0
0.017111262526882408 -0.6269464961531773 0.010568355567378226
0.0433829447099629 -1.19901763075497 0.020185035096110297
0.0805722071691866 -1.7485201960486076 0.029122781404901234
0.1319052164940142 -2.2625299158870704 0.036020321978132284
0.19790118690039482 -2.729620715766857 0.04086202598227778
0.27832077441333325 -3.1380017698740916 0.043315757026252316
0.37278047421895166 -3.476348140363417 0.04315458038823051
0.4809063577411009 -3.733579453650032 0.04048485842064517
0.6022557636141388 -3.898052020941213 0.03644516067714236
0.7337646866135582 -3.9562630648356256 0.0341084233746942
0.8652888850555988 -3.898349350755298 0.03646917468947289
0.9866862480689017 -3.7341731961244045 0.04055021756578972
1.094899976013141 -3.4772361415324737 0.043299543914659996
1.1895024813227304 -3.1391791675035687 0.043606643344322515
1.2701492989427103 -2.73107443560115 0.04139923549992253
1.3365095632072763 -2.2642252372173717 0.03695599684294444
1.388446609623534 -1.7503724915418128 0.030617875268421055
1.4266177850345667 -1.200860670621508 0.022677846916565922
1.4548291210431097 -0.628709808620344 0.013443995982889614
1.4765504852216194 0.0 0.011800692038688818
0.25297364405004646 -0.01822832926828292 0.0015576991311550702
0.2632167020128838 -0.6260341255349651 0.004845438585736081
0.2757254986241651 -1.2030653635152215 0.012601809755585279
0.30070395379197135 -1.7535864540753487 0.018962273517873746
0.33487765911612105 -2.2694926976831193 0.023893561681083104
0.37883128349084205 -2.7383540715671053 0.027190543004594128
0.43239532755372556 -3.148530264177686 0.028804495745537097
0.4952859851696798 -3.488657643086222 0.028670392359705508
0.5671083578114838 -3.7477138665446965 0.026939107686053287
0.647317217237201 -3.9140551866675994 0.02426181040478943
0.7338311105977373 -3.9734306330260933 0.022550333165854378
0.8203600184399504 -3.9143557613641073 0.024199888114010904
0.9006158668503563 -3.7483143162187864 0.026828769016048498
0.9725236132323606 -3.4895563685855864 0.028543018404024803
1.0355510699356447 -3.1497236071207944 0.028717310486330413
1.0893273926970504 -2.7398315936674322 0.02723986372020365
1.1336145463990508 -2.271224895189481 0.024221518931429903
1.1683181692196367 -1.7554977796857993 0.019803939787668225
1.1942057235129468 -1.2050245886781386 0.01416989864114825
1.208308774583429 -0.6280470899375431 0.007976897926004764
1.2194652090779545 -0.01854259564236867 0.008930951289500201
0.49591112066778903 -0.0320954109858714 -0.0028044536528634774
0.5015899284067812 -0.6259115151706127 -0.00021877986620577215
0.5059503208067504 -1.204567228714583 0.004876434501169203
0.5173930484538262 -1.756670060560502 0.009021214083131838
0.5344767627382793 -2.273567359751229 0.01190024395523022
0.5563758958831354 -2.7435040537693833 0.013638142016785995
0.5830892678742627 -3.1547242641361235 0.01430715904767285
0.6143725682606841 -3.4958497181937807 0.013968701797159776
0.6497909128116406 -3.755917772903228 0.01270126047482724
0.6894413940323335 -3.923744022448267 0.01056199982450273
0.7339028972343129 -3.9849183469398755 0.008673274169624058
0.7783789857335741 -3.924049321553931 0.010415301039482275
0.8180747555577179 -3.75652783208045 0.012418020125977414
0.853574024311565 -3.4967632818913743 0.01357437178614856
0.8849833865129417 -3.1559383167848587 0.013853160785612273
0.9118855858367104 -2.745009771234713 0.013217440492063857
0.9340688074877959 -2.2753387154309594 0.011670009540610314
0.9515948000744983 -1.7586363404593781 0.009222077435898864
0.9637719582796227 -1.2066366377722968 0.005863581996058734
0.9688997818572191 -0.6278044841952283 0.0023838480352229626
0.9749182938495411 -0.03238957230088738 0.002764582153200398
0.733838482142464 -0.04141052801983346 -0.008683009598882971
0.7357633876860405 -0.6263398594886972 -0.005786036061669712
0.7336571988555841 -1.2045010131764173 -0.0028280568120251388
0.7325277901790948 -1.7575773180468075 -0.0009461948100188642
0.7323182877203658 -2.2749329361325135 -0.00012998544892850052
0.7321860593894965 -2.7452060465031956 -2.472423117500019e-05
0.7320457136131746 -3.156772955741574 -0.00039185925889239986
0.7318060752674174 -3.4981353420962082 -0.0010891457700239278
0.730934719860324 -3.7584071793995393 -0.0020845672043367834
0.7302247062653822 -3.927676909512039 -0.0038880223695941718
0.7339773448609057 -3.992267888737182 -0.006452285113016992
0.7377440394816462 -3.927988340692621 -0.004119658807765858
0.737077204026271 -3.759029560857503 -0.002540961693827406
0.736281212651514 -3.4990674510008932 -0.0017503641292199801
0.7361545682140281 -3.1580117102799714 -0.0012118878450912644
0.7361743133953637 -2.746743042292511 -0.0009103628635890419
0.7362676501687542 -2.27674275844857 -0.000911838704293784
0.73639505305399 -1.7595984268405693 -0.0013466348745508217
0.7357207085975037 -1.2065905546446947 -0.0024068619010904927
0.7339659473237128 -0.6280533529017164 -0.003815109401084529
0.736056771264012 -0.041719893902858005 -0.004369463734622441
0.9701320559751558 -0.04671534042242148 -0.014749791253187768
0.9686511682072299 -0.6267235020791418 -0.01157874059828483
0.9606028067095155 -1.203331825374129 -0.010494911769922361
0.9476351975696022 -1.7564355277031938 -0.010870332029605244
0.9302198227298726 -2.273590063577867 -0.012122629725592169
0.9080052946687802 -2.7435035033077524 -0.013665250104217905
0.8809687777770633 -3.1547329034825786 -0.01508330214529266
0.8493216222454738 -3.4956573766788335 -0.01614042794529706
0.8125313264141979 -3.7552241629125067 -0.016785031887002134
0.7709927994402509 -3.925625281368784 -0.01777884242018056
0.7340533489223486 -3.99668909015464 -0.021272476084713846
0.6971274588615357 -3.925944253449719 -0.018097009424081986
0.6556300697844063 -3.7558615620277647 -0.017418019119132565
0.6189096464950242 -3.49661166294821 -0.017074376544417007
0.5873624075289501 -3.156000194357426 -0.016278278699343857
0.5604567080176673 -2.7450738404932635 -0.015029072961082076
0.5384078866869685 -2.275438112870123 -0.013472762985964216
0.5212009548742865 -1.758493936374314 -0.011887828793328463
0.5084532133431423 -1.205402374267915 -0.01068217452962689
0.5005327961460938 -0.6282977705352093 -0.010281423397158712
0.4991350899249518 -0.047051641896764335 -0.011491699063592488
1.2071690950663763 -0.04899912663924193 -0.02031644104123703
1.2028113376411986 -0.6266447686277412 -0.01723206471677004
1.1889928676970993 -1.201190244475799 -0.018063557304882676
1.1644893715324045 -1.7533307454094487 -0.020686657049225027
1.1299065596911448 -2.269488591176781 -0.02399779471073246
1.0855670673207118 -2.738352862687175 -0.027148448794685337
1.0316484394384937 -3.1485063153833996 -0.029562066048875162
0.9683392911271977 -3.4884833208780623 -0.030825433743240083
0.8966458987248973 -3.746460050315991 -0.03089867325683188
0.8138406487621623 -3.916333739867489 -0.029936029349429474
0.734129731135791 -3.9993121293606437 -0.03364441562111948
0.6544320264874577 -3.916661753409539 -0.03034368637186075
0.5716663837811332 -3.7471153508826376 -0.03171479460329087
0.5000384860508762 -3.4894637561220327 -0.03204359295934467
0.4368183871986226 -3.1498063791770328 -0.031150839865386883
0.3830060454736403 -2.7399595935349073 -0.02902049754256201
0.33877680644416436 -2.271372193518285 -0.025961870330003307
0.30428192608865035 -1.755411221018492 -0.02238737295606753
0.2798055578793035 -1.2032355826248715 -0.018946352034888935
0.26595316378645156 -0.6281349253021272 -0.016646013099526187
0.2616040720836386 -0.049346586571908636 -0.017973788339907423
1.4462689396755743 -0.049728594071868124 -0.024589746293554305
1.4404141277057003 -0.6259741012132883 -0.022522617477208216
1.4211842499305085 -1.1980329560408476 -0.025574862916433183
1.3848061937727638 -1.7481637258589233 -0.030541506666525067
1.332952151236636 -2.2625093524072994 -0.035954910996427926
1.2665076577150403 -2.7295832984254123 -0.040700259899149244
1.1856960672218138 -3.137983214046164 -0.044012814195904415
1.0907872483609937 -3.476059586385694 -0.04536649222578487
0.98287813586498 -3.7331006136561182 -0.04441148688348007
0.8656143313688516 -3.897558955009464 -0.04092518681237414
0.7342035318224556 -3.9999999999999996 -0.03935852657248787
0.6028057491608461 -3.8978976325936463 -0.04142641790389309
0.48558064640777815 -3.7337769877152214 -0.04541988969187341
0.3777342839566632 -3.4770706584464 -0.046885284922863174
0.28290756947306595 -3.1393213375314803 -0.04602311591317203
0.20218630072577745 -2.7312310137674136 -0.04312654363824434
0.13581427615098488 -2.2644278174963732 -0.03860883452519123
0.08395928036789596 -1.7502563185828628 -0.033043954681234194
0.04743982173473498 -1.2000497456491188 -0.02730254636962673
0.02798019960280986 -0.6274141166685251 -0.02271777135705512
0.022026997414565996 -0.05006096342152844 -0.022976333382958635
0.0 0.0 0.0
0.023755017913798172 -0.6109818903707133 0.004566307815385652
0.049962527833904695 -1.172924514569147 0.008568919166612479
0.08628708718435192 -1.7142930447667395 0.012363768092766143
0.13614058119692393 -2.2220878710671257 0.015052991467534244
0.1997306069717156 -2.685368195886078 0.01641685735790714
0.2768724817644455 -3.093133634490054 0.016347581241938997
0.3676816950640421 -3.434816427115588 0.014869026933178184
0.47332627766760044 -3.6995340705525432 0.012293159697721677
0.5960563423542922 -3.873522368225297 0.009520178062201956
0.733801497025142 -3.936809360802784 0.008191945987423593
0.8715288897546367 -3.873451867905225 0.0095227340019195
0.9942029652614424 -3.6993713966968227 0.012308890219220369
1.0997447653785948 -3.434519166374429 0.014921008786781003
1.1903884399154225 -3.0926416190176513 0.01647414436396085
1.2672749210862124 -2.6846120910490936 0.01667247131640287
1.3304785198972942 -2.221007247797361 0.015507486659511988
1.3797418303185476 -1.7128705296622373 0.013090442403951809
1.415187085459186 -1.17121640252951 0.009748884846497774
1.4396081756008485 -0.6089434817636374 0.006562760843305606
1.4582322764983942 0.0 0.006696056036213788
0.2540571111734365 -0.015763292489946075 0.00016509997048518298
0.2645454590289971 -0.6108856872246189 0.0023433581732342224
0.2784069131847574 -1.1771360162439133 0.005407013284182842
0.3032491845656196 -1.7196399195135488 0.008169803262018396
0.3367570438682511 -2.2293560654325084 0.010161590614501097
0.37942308078196074 -2.694498293221893 0.011175383566982272
0.43111810901061925 -3.1042216832100507 0.01119586340231747
0.4919086828561069 -3.4480058498972594 0.010294647114908309
0.5623584818866676 -3.715184487062692 0.008702972599033621
0.6435021031102297 -3.892047479162408 0.006957675274895719
0.7337914057757452 -3.957202362449938 0.006077349675681225
0.824058711868926 -3.891970908890561 0.006906597286366976
0.9051338609883607 -3.7150080918644743 0.008608443487585422
0.975461102543887 -3.4476837514987517 0.01017411232787888
1.0360615521545096 -3.103687751198748 0.011080261062692349
1.0874781678671357 -2.69367352136808 0.011113532873716607
1.12974460329565 -2.228165526847614 0.010221206644942823
1.1626881863572915 -1.7180455061569515 0.008453636900537994
1.1866703173873574 -1.1751442718934122 0.0060678297170035905
1.1990923701211051 -0.6083768794990121 0.004163662967880347
1.2089852842474633 -0.01498464191569134 0.005314150769555014
0.4941658464887489 -0.027173605407615403 -0.0015833986561961208
0.4995598197914585 -0.6106265154330265 -9.137022045900567e-05
0.5046389577350749 -1.1790645024225415 0.002003618434549406
0.5166614685397347 -1.723028702698708 0.003841374622613684
0.5338215396413696 -2.2337854686017544 0.00507997045460492
0.555445131642826 -2.7000729424482777 0.005649214263741014
0.581526608117846 -3.110959509518071 0.005595343600809496
0.6119185484189159 -3.4559158014482225 0.005010400799117495
0.6465199655689045 -3.7244577816010422 0.0040180567594003055
0.6865353043237996 -3.903663308337684 0.00283725122574525
0.7337874219447295 -3.9716516856924007 0.002128503717383397
0.7810137205273908 -3.903583077438263 0.0027339032275864646
0.8209494399068332 -3.7242727345139395 0.003816710366114741
0.8554110647931513 -3.4555771803837048 0.004724524652836934
0.885592830124742 -3.1103962530631035 0.0052519587898664805
0.9113793842888182 -2.6991979091290794 0.0052960945621563825
0.9326040097480324 -2.2325109022058185 0.004795365626830009
0.9492310035305316 -1.7213006202086536 0.003745188664108091
0.9605107294713138 -1.1768344298950446 0.0023308922328414217
0.9650142004109513 -0.6081168551526717 0.0014033381694741696
0.9703930636416048 -0.026005828302020327 0.0022855832488714173
0.7287996104897043 -0.03483044033351522 -0.004350741636559957
0.7304004791949622 -0.6106345376148421 -0.0027656462606091303
0.728764665748649 -1.1792524727810396 -0.0014657282578030332
0.7285145040665315 -1.7241831260027094 -0.0005217408040365202
0.7291064756192207 -2.2353584493483942 -3.512555928572421e-05
0.7296367375446143 -2.701996537105166 5.0268211723599116e-05
0.7299914132742606 -3.1132522740776327 -0.00014827767513652285
0.7299425624172765 -3.458414014028233 -0.0005309894474681213
0.7286730160710516 -3.727180703204139 -0.001079222251922702
0.7277125824620134 -3.9087210614362133 -0.0018627379827095688
0.7337867446212156 -3.981914011362151 -0.0024994857668850646
0.7398313854028354 -3.9086397222352938 -0.0020181976753671374
0.7387805660930258 -3.726992379194237 -0.0013867974435068935
0.7373547426443368 -3.4580676787331193 -0.000980471389354348
0.7370768184366228 -3.11267303551706 -0.0007153530643096093
0.7371226794268579 -2.7010905218829824 -0.0005846695349250907
0.7372591362596562 -2.234028290739026 -0.0006476531912729841
0.7373599590109048 -1.7223525311373598 -0.0009594348089110354
0.7365919412427967 -1.1769265188457583 -0.0014344391176905227
0.7347344126161125 -0.6081981822745239 -0.0016539883636201155
0.7364405723398785 -0.033319939204515814 -0.0014330945866239141
0.9616467019941236 -0.03921942976686182 -0.007405789509589976
0.9598743501829665 -0.6106270872129083 -0.005509030363290504
0.952220235493067 -1.1781659518458893 -0.00492855377577869
0.9403689580950333 -1.7231406488090881 -0.004872024530365597
0.924422764776559 -2.2340340118478395 -0.005134841982295975
0.9038185752173531 -2.700243193515867 -0.005537226118269441
0.8783808671587348 -3.111083505691616 -0.005885345297257004
0.8480977915779156 -3.4556075497023007 -0.006064978227501023
0.8116522019740784 -3.7233207379717137 -0.006143574208504456
0.7691792312968476 -3.9067689462934903 -0.006460268308539666
0.7337861324427267 -3.9894172971760824 -0.006961310302688829
0.6983596178314031 -3.906689101770708 -0.00666886713423921
0.655784893466676 -3.7231346171846393 -0.006559561117088281
0.6191653994661531 -3.455262481828592 -0.006681700167256409
0.5886324375547998 -3.110501790064375 -0.0066816124884743625
0.5628695069312482 -2.699326540629074 -0.0064622044687711495
0.5418734211019218 -2.232675438000351 -0.006086015036292336
0.5254981268162445 -1.7212588811467238 -0.005662343705233948
0.5132923689128636 -1.1758196736466549 -0.005226094447231314
0.5055528328704855 -0.6082427322887893 -0.004799856171599277
0.5039005346021259 -0.03744799120794321 -0.005237143651581389
1.195114419159173 -0.04114998410706988 -0.010103581614398617
1.190482500377355 -0.6102976915351895 -0.008051619563092461
1.177038240724658 -1.1759995734786513 -0.00830804077671406
1.1539277674676984 -1.7200063035905033 -0.009161221345645973
1.1215160270137121 -2.2298022448357595 -0.010170186434753283
1.079798359225362 -2.6948342163045647 -0.011029923542306948
1.0286925575223185 -3.1044144866422423 -0.011465055602547684
0.9680178138048876 -3.4477425765197105 -0.011332589224401043
0.8982638182756394 -3.713213281497289 -0.010754503540773248
0.8141824314705561 -3.8961822440112153 -0.010333505098889651
0.7337823422119433 -3.99548563919227 -0.010419069910020187
0.6533444423079848 -3.896106451645146 -0.010597464139776561
0.5691483487126082 -3.7130347589283885 -0.01128388098616681
0.4991998558486309 -3.447407583443154 -0.012125505749606056
0.43824952596926425 -3.103843684582853 -0.012505715797040233
0.3867937170315182 -2.6939265791867553 -0.012270228989390562
0.34467788887312806 -2.228446135595338 -0.011500409047424007
0.31188701160742577 -1.7181220913844477 -0.010366456281306974
0.28853577174729783 -1.173671087674963 -0.009019034346907236
0.2750810793589162 -0.6079393883885977 -0.007774957607060344
0.2705731778301001 -0.03921434576764244 -0.008547210720792772
1.430609807826333 -0.041838367291302324 -0.011615370127281956
1.4244436732729129 -0.6095189449395221 -0.010139606167362428
1.4055907253592534 -1.1728122036185222 -0.011466501846215926
1.3710049136958196 -1.714820369006402 -0.013268434680185084
1.3221301890098982 -2.2227270257442493 -0.014992081575203233
1.2594294920191236 -2.685824157841056 -0.016216107045607126
1.1828079823145585 -3.0934401233825914 -0.016579700473340644
1.0920732441942023 -3.4344876227922603 -0.015885952727687058
0.9877283000029573 -3.698761737351427 -0.01430064507122851
0.8721568111193924 -3.874342588173474 -0.012650390997791146
0.7337725884107746 -3.9999999999999996 -0.011878284744747978
0.5953453773529823 -3.8742732573116037 -0.012973193472978505
0.47964373277715683 -3.6985959001810653 -0.014951321168733819
0.37507906533199853 -3.434171065657393 -0.016869568435932264
0.28403522793772756 -3.0928928308303485 -0.017889909899561105
0.20702603307840636 -2.684944348513769 -0.017814635310094678
0.14389911832988184 -2.2214036556349317 -0.016773872878683434
0.09466174464469312 -1.7129789993305289 -0.015004683178502572
0.0599330437316731 -1.1705395205107358 -0.012739843744129212
0.04119313203329756 -0.6071882035474331 -0.01037038685563464
0.03519533908482848 -0.039824211862858894 -0.010515613164576831
0.0 0.0 0.0
0.025199214905328463 -0.6066965012725922 -4.632348923494599e-14
0.05155140480294774 -1.1654864622807297 -8.728861219795784e-14
0.08747128066865291 -1.7043741720097005 -1.2636730998504142e-13
0.1365840232844467 -2.210571162490039 -1.634054271937455e-13
0.1992035820573418 -2.6732941302390674 -2.039738943073938e-13
0.2752333158638045 -3.0817605091769296 -2.5336794656361213e-13
0.3650643036587346 -3.425514874040493 -3.1259542108918693e-13
0.4703806614695702 -3.693390061275404 -3.62691384699609e-13
0.5939809223332129 -3.870570113280772 -4.079526524554227e-13
0.7337810855156439 -3.935321003741796 -4.565503372873121e-13
0.8735494164540204 -3.8703574668402303 -5.07727945612622e-13
0.9970497243025441 -3.6929336185436012 -5.530316976241353e-13
1.1021834485462896 -3.4247535084192475 -5.769457316209233e-13
1.1917202768843969 -3.0806075953456427 -6.184383094079532e-13
1.267292247407145 -2.6716520789420386 -6.557284668947794e-13
1.3292042829202044 -2.208363752857848 -7.306121015577863e-13
1.3772219930630405 -1.701608118580767 -8.111213997794006e-13
1.411461400548738 -1.1622935012640176 -8.983861970925395e-13
1.435013472061426 -0.6033049560992926 -9.87917699929462e-13
1.4528568658484018 0.0 -1.0531297663998975e-12
0.25397083876188453 -0.015242231251596905 -9.494976002600323e-15
0.26450732886586237 -0.6068938626707724 -4.195768748227961e-14
0.27887309937874205 -1.169779954661608 -8.146598889343485e-14
0.3035786726764941 -1.7098148961018007 -1.2204944952869204e-13
0.33671167486742126 -2.217933529470261 -1.630449160304355e-13
0.3788409324934224 -2.682557909864719 -2.0688103217400236e-13
0.4299197019382035 -3.093062264253877 -2.544937257627411e-13
0.49019087281296053 -3.4390573620076745 -3.0836436204342064e-13
0.5605184265951368 -3.7095926346961776 -3.6018629956101497e-13
0.6422258888256895 -3.8898529620733435 -4.1412427113660585e-13
0.7337424775080499 -3.956578531649879 -4.621377076417654e-13
0.8252212703253635 -3.889630276745294 -5.168298234347394e-13
0.9068112374636521 -3.7091137137087236 -5.708778445054126e-13
0.9769285904093389 -3.438255730215201 -6.112098884156106e-13
1.0368724416022426 -3.0918419847936267 -6.611367792421202e-13
1.0874655495743348 -2.680805698516556 -7.126780821833363e-13
1.1288830935883307 -2.2155513584231286 -7.773991264576607e-13
1.1609748174257437 -1.706771431844116 -8.506352368128933e-13
1.1841308973600835 -1.1661668356471249 -9.277850525474941e-13
1.1962103507589226 -0.6027625404006 -1.0055310369351167e-12
1.20573320876592 -0.014365656710054388 -1.0618570450624894e-12
0.4932284151135953 -0.02651613244524365 -1.0486094141923332e-14
0.4985630334261714 -0.6066362859233402 -4.088544534060993e-14
0.5039774854631432 -1.1718013439246096 -7.773675608345061e-14
0.5161191215562836 -1.7132352175406023 -1.1975385159506476e-13
0.533208646272926 -2.222388919792088 -1.6239430276008015e-13
0.554674680278979 -2.688163646208346 -2.094145400296695e-13
0.5805515911652883 -3.099862314394272 -2.592889806099086e-13
0.6107719229570752 -3.447086922353245 -3.0727318702264377e-13
0.6453647686261113 -3.7190686444987193 -3.6707366136767664e-13
0.6856892064280737 -3.901756330458209 -4.210270194042396e-13
0.7337103406800609 -3.971414690724798 -4.713883765056611e-13
0.7816884526200191 -3.9015264802026355 -5.323808949940325e-13
0.8218803185843157 -3.7185734347648522 -5.900013702303461e-13
0.8562404143719122 -3.4462556422138353 -6.442201919823764e-13
0.886109443797991 -3.0985915378595443 -7.008913920960561e-13
0.9114878402200092 -2.6863280217944197 -7.589142256078125e-13
0.9322626069796902 -2.219868915880135 -8.201942431028929e-13
0.9484010355839063 -1.7099808645372885 -8.85978712491259e-13
0.9592391333161435 -1.1678311112986481 -9.562891452142073e-13
0.9636402019874218 -0.6025086984445504 -1.0248029283621621e-12
0.9688299794541071 -0.02494807499199639 -1.0828933490837417e-12
0.7268131277720543 -0.03409619724354758 -8.955316155810558e-15
0.7284003956254897 -0.606615783983817 -3.929459858393708e-14
0.7270461254843532 -1.1720449414428185 -7.534938641837556e-14
0.7270623599529948 -1.7144377500059242 -1.1878461164205236e-13
0.7278676557532622 -2.2239909149517785 -1.6259804964467142e-13
0.7285905344613908 -2.6901134429713 -2.1170824329137791e-13
0.729118221459168 -3.1021849811105238 -2.626356258006728e-13
0.7292069862497843 -3.4496219813080673 -3.122774891374727e-13
0.728021765262413 -3.721842435483204 -3.7346325707855393e-13
0.7271438573829548 -3.9068894526481954 -4.300679357044892e-13
0.7336811459686159 -3.981882777697304 -4.835065779988497e-13
0.740170427237494 -3.9066554602742185 -5.491409022500869e-13
0.739145700233261 -3.721337454706438 -6.066837687769978e-13
0.7377069072284765 -3.4487721088121512 -6.739748052529229e-13
0.7374235792592435 -3.100881444279982 -7.37148998502606e-13
0.7374457761777119 -2.688220921601626 -7.988871459905214e-13
0.7375111247543218 -2.221375446296562 -8.591549937114874e-13
0.7374758482370647 -1.7110205659561641 -9.196962941811488e-13
0.7365850063287473 -1.1679332490595276 -9.839727844708883e-13
0.7347847112907377 -0.6025976918387552 -1.0462604822425748e-12
0.736441354036503 -0.03194832013359386 -1.1078054843383215e-12
0.958478624496714 -0.03843471339921527 -6.758723357741675e-15
0.95679491613117 -0.6065822879744295 -3.742020746738952e-14
0.9494649474068925 -1.1709996976111683 -7.414350989754931e-14
0.9380213779496777 -1.713452265700818 -1.1638922389365485e-13
0.9225542560917591 -2.222710952350211 -1.6207954355156987e-13
0.9024928932896349 -2.688391835379793 -2.1148095015161764e-13
0.8776052537540211 -3.100030085453762 -2.666421543233674e-13
0.8477806620369625 -3.446796047001061 -3.1877885327358355e-13
0.8115381208267525 -3.717920872828812 -3.8000284354578e-13
0.7688903826218815 -3.904851194022814 -4.3909499030227764e-13
0.7336514765591406 -3.989482648147616 -4.97389703356392e-13
0.6983593244510332 -3.90461613467773 -5.638766887136253e-13
0.655549718012295 -3.717412722724595 -6.292170547067807e-13
0.6190312818110795 -3.445938800639115 -7.012365927414172e-13
0.588811140505185 -3.0987114132139277 -7.706229627593504e-13
0.5634079346812337 -2.6864705573708605 -8.405078167952303e-13
0.5427193565804852 -2.220039998871779 -8.970881446243203e-13
0.5265511736156571 -1.7099494156416448 -9.53821414140415e-13
0.5145049512982018 -1.166859509205776 -1.0105743574284376e-12
0.5069830788331554 -0.6026478542360236 -1.0679703703598085e-12
0.5054261341956444 -0.0358710591120107 -1.132788444994444e-12
1.1906665433458765 -0.04033955910489883 -4.6433825935066094e-15
1.1862600291558685 -0.6062276221881127 -3.562442370995562e-14
1.1732519725934947 -1.1688684923131119 -7.235499915738316e-14
1.1507219889687523 -1.710375784461072 -1.141804512505853e-13
1.1190727536281657 -2.218529972826651 -1.6236266344200723e-13
1.078271931018639 -2.6830104357220526 -2.1707872537681486e-13
1.0281313201743205 -3.0933421303578355 -2.669460080827684e-13
0.9682757377115578 -3.438843556471173 -3.2054944234221757e-13
0.8989246937146045 -3.7076126302502614 -3.8793629700613644e-13
0.8143380763778302 -3.8939707262437206 -4.42890981649479e-13
0.7336179019297544 -3.995555344376749 -5.07707272291829e-13
0.6528384884165871 -3.893737616055069 -5.732491325729102e-13
0.5680725269502566 -3.7071077965737 -6.475597331868236e-13
0.49841854928353213 -3.4379898576054733 -7.273796676553144e-13
0.4381358511405715 -3.092025713857592 -8.039493704752145e-13
0.3874554640081841 -2.6810875895947954 -8.790718101690687e-13
0.3460426477448772 -2.2158492573762834 -9.384011960660986e-13
0.31381027518337223 -1.7068616250960287 -9.89780892312681e-13
0.29090639414909736 -1.164758130943783 -1.0384950614316664e-12
0.2778719403867717 -0.6023423371962237 -1.087259475148452e-12
0.2736327906934486 -0.0375262415997427 -1.1543847585802557e-12
1.4247967715222731 -0.040969168533513574 -2.4827234229610498e-15
1.4189889666239177 -0.6053841406983912 -3.349230854962832e-14
1.4007175679650572 -1.1656765828729863 -6.879921544096833e-14
1.3669463129165396 -1.7051981179322162 -1.1027819827774734e-13
1.3191783526894245 -2.2114389330960966 -1.6377821044226371e-13
1.2578312421671025 -2.6739280337419586 -2.2439589413357056e-13
1.182669933315824 -3.082200261897064 -2.6373435093947933e-13
1.0932265439658877 -3.425265462734685 -3.211501667637566e-13
0.9895023401110856 -3.692666114641696 -3.797548087585851e-13
0.8733316886293379 -3.871313155426201 -4.4260162766679403e-13
0.7335768385449395 -3.9999999999999996 -5.108962139983918e-13
0.5937554963540665 -3.871084863105963 -5.780429738135453e-13
0.47738392976143773 -3.6921707553517518 -6.536363171282261e-13
0.37332188419106394 -3.424425727569173 -7.516500145690139e-13
0.2834060269709678 -3.0809024954117974 -8.377804611043301e-13
0.2076572353629505 -2.672029839884882 -9.276394655793725e-13
0.1456738616290868 -2.2087942393552904 -9.856127710631995e-13
0.09738391109731873 -1.701745356772095 -1.0325890816531627e-12
0.0634468441274366 -1.1616607143285742 -1.0681830701680089e-12
0.04540014835771398 -0.6015552662810424 -1.1037285677252446e-12
0.039863005663482116 -0.0380431419984053 -1.167089883819754e-12
0.0 0.0 0.0
0.023755017913882095 -0.6109818903707542 -0.004566307815479129
0.049962527834033876 -1.1729245145692133 -0.008568919166780367
0.08628708718451569 -1.7142930447667748 -0.012363768093012458
0.1361405811971013 -2.22208787106711 -0.01505299146786107
0.19973060697189382 -2.6853681958860625 -0.01641685735832291
0.2768724817646327 -3.093133634490039 -0.01634758124242876
0.3676816950642465 -3.434816427115579 -0.014869026933730354
0.4733262776678204 -3.6995340705525477 -0.012293159698376764
0.5960563423545315 -3.8735223682252293 -0.009520178062980392
0.7338014970254062 -3.9368093608027257 -0.008191945988302671
0.8715288897549395 -3.873451867905154 -0.009522734002897465
0.994202965261785 -3.699371396696613 -0.012308890220281709
1.0997447653789543 -3.4345191663740815 -0.014921008787930682
1.1903884399157791 -3.092641619017224 -0.016474144365204692
1.2672749210865075 -2.6846120910485296 -0.016672471317759882
1.330478519897511 -2.221007247796887 -0.015507486660993145
1.3797418303187319 -1.7128705296618354 -0.0130904424055794
1.4151870854593385 -1.1712164025292036 -0.009748884848296738
1.439608175600978 -0.6089434817634618 -0.006562760845275516
1.4582322764984919 0.0 -0.00669605603830844
0.2540571111735126 -0.015763292489951144 -0.00016509997050551185
0.2645454590290922 -0.6108856872246695 -0.0023433581733196427
0.278406913184883 -1.1771360162439848 -0.005407013284348256
0.30324918456577066 -1.7196399195135803 -0.008169803262263447
0.3367570438684212 -2.2293560654325035 -0.010161590614831201
0.37942308078213993 -2.694498293221871 -0.01117538356740162
0.43111810901080594 -3.1042216832100396 -0.0111958634028209
0.4919086828563083 -3.448005849897264 -0.010294647115494068
0.5623584818868744 -3.715184487062701 -0.008702972599724797
0.6435021031104553 -3.8920474791623785 -0.006957675275695797
0.7337914057760049 -3.9572023624498867 -0.006077349676589511
0.8240587118692018 -3.891970908890494 -0.006906597287379371
0.9051338609886574 -3.71500809186431 -0.008608443488691874
0.9754611025442137 -3.447683751498411 -0.01017411232909336
1.0360615521548187 -3.103687751198329 -0.011080261064008584
1.0874781678674188 -2.6936735213674776 -0.011113532875156476
1.1297446032958978 -2.228165526847131 -0.010221206646506272
1.1626881863575065 -1.71804550615654 -0.008453636902239712
1.1866703173875537 -1.1751442718931036 -0.006067829718863292
1.1990923701212899 -0.6083768794988349 -0.004163662969886615
1.2089852842476385 -0.01498464191567147 -0.005314150771671073
0.49416584648885387 -0.027173605407624753 0.0015833986561730148
0.4995598197915742 -0.6106265154330793 9.137022037638014e-05
0.5046389577352001 -1.1790645024226074 -0.0020036184347102066
0.5166614685398805 -1.7230287026987532 -0.003841374622858669
0.5338215396415286 -2.2337854686017486 -0.005079970454936784
0.5554451316429945 -2.700072942448244 -0.005649214264163732
0.5815266081180278 -3.1109595095180667 -0.005595343601325547
0.611918548419102 -3.455915801448228 -0.005010400799733086
0.6465199655690991 -3.7244577816010516 -0.004018056760118622
0.6865353043240212 -3.903663308337655 -0.002837251226575817
0.7337874219449685 -3.97165168569236 -0.002128503718324971
0.781013720527641 -3.9035830774381846 -0.002733903228635016
0.8209494399071007 -3.7242727345138085 -0.003816710367269967
0.8554110647934374 -3.4555771803833704 -0.004724524654112558
0.8855928301250301 -3.1103962530626976 -0.005251958791255707
0.9113793842890996 -2.6991979091285017 -0.0052960945636735665
0.9326040097482952 -2.2325109022053216 -0.004795365628468084
0.9492310035307793 -1.7213006202082455 -0.0037451886658831884
0.960510729471542 -1.1768344298947317 -0.00233089223475661
0.9650142004111844 -0.6081168551524968 -0.0014033381715214592
0.9703930636418291 -0.0260058283019833 -0.0022855832510305933
0.7287996104898263 -0.03483044033353013 0.004350741636539919
0.7304004791950878 -0.6106345376148916 0.002765646260528002
0.728764665748776 -1.179252472781099 0.0014657282576467563
0.7285145040666713 -1.7241831260027511 0.0005217408037946139
0.7291064756193698 -2.235358449348391 3.512555895292529e-05
0.7296367375447711 -2.701996537105141 -5.026821215500039e-05
0.7299914132744291 -3.113252274077619 0.0001482776746068797
0.7299425624174508 -3.458414014028226 0.000530989446834927
0.7286730160712387 -3.727180703204186 0.0010792222511746988
0.7277125824622201 -3.908721061436201 0.0018627379818539865
0.733786744621437 -3.9819140113620897 0.0024994857659064594
0.7398313854030587 -3.9086397222352325 0.002018197674281137
0.7387805660932687 -3.726992379194138 0.0013867974423014443
0.7373547426445847 -3.458067678732813 0.0009804713880187657
0.737076818436879 -3.1126730355166816 0.000715353062848404
0.7371226794271265 -2.7010905218824117 0.0005846695333331946
0.7372591362599346 -2.2340282907385385 0.0006476531895583022
0.7373599590111757 -1.722352531136932 0.0009594348070675321
0.7365919412430642 -1.1769265188454539 0.0014344391157206054
0.7347344126163833 -0.6081981822743493 0.001653988361529657
0.7364405723401524 -0.03331993920446858 0.0014330945844125656
0.9616467019942545 -0.03921942976688313 0.0074057895095753085
0.959874350183095 -0.6106270872129479 0.005509030363212444
0.9522202354931927 -1.1781659518459424 0.004928553775625357
0.9403689580951662 -1.7231406488091277 0.0048720245301258425
0.9244227647767006 -2.2340340118478395 0.005134841981962745
0.9038185752174932 -2.7002431935158264 0.005537226117829992
0.8783808671588902 -3.1110835056916097 0.005885345296717176
0.8480977915780854 -3.455607549702302 0.006064978226846934
0.811652201974264 -3.7233207379717626 0.006143574207738354
0.7691792312970378 -3.9067689462935005 0.006460268307659012
0.7337861324429304 -3.9894172971760273 0.006961310301673644
0.6983596178316169 -3.9066891017706613 0.006668867133112668
0.6557848934668856 -3.7231346171845234 0.006559561115831347
0.6191653994663727 -3.4552624818283 0.006681700165859912
0.5886324375550295 -3.1105017900640024 0.006681612486941466
0.5628695069315067 -2.6993265406285163 0.006462204467105705
0.5418734211022074 -2.2326754379998595 0.006086015034501231
0.5254981268165362 -1.7212588811462861 0.0056623437033203865
0.5132923689131674 -1.1758196736463513 0.005226094445207748
0.5055528328707977 -0.6082427322886176 0.004799856169464635
0.5039005346024414 -0.03744799120788955 0.005237143649317178
1.1951144191593042 -0.04114998410709544 0.01010358161439052
1.1904825003774848 -0.6102976915352207 0.00805161956301836
1.1770382407247828 -1.1759995734786997 0.00830804077656545
1.1539277674678206 -1.7200063035905484 0.009161221345409042
1.1215160270138436 -2.2298022448357404 0.010170186434420646
1.0797983592255 -2.6948342163045074 0.011029923541868885
1.0286925575224715 -3.1044144866422574 0.01146505560199928
0.9680178138050596 -3.447742576519695 0.011332589223724487
0.8982638182758231 -3.713213281497347 0.01075450353998879
0.8141824314707333 -3.8961822440112117 0.01033350509798385
0.7337823422121338 -3.9954856391922418 0.010419069908975044
0.6533444423081775 -3.896106451645092 0.010597464138611564
0.5691483487127915 -3.7130347589283073 0.011283880984859714
0.4991998558488178 -3.4474075834428666 0.012125505748147887
0.43824952596946465 -3.103843684582488 0.012505715795435782
0.38679371703176146 -2.6939265791862317 0.012270228987643676
0.34467788887341894 -2.2284461355948397 0.011500409045554457
0.311887011607744 -1.7181220913840132 0.010366456279324207
0.2885357717476412 -1.173671087674661 0.009019034344827854
0.2750810793592712 -0.6079393883884312 0.007774957604883701
0.27057317783045937 -0.03921434576758564 0.008547210718482584
1.430609807826465 -0.041838367291330614 0.011615370127278752
1.4244436732730448 -0.6095189449395472 0.010139606167294363
1.4055907253593798 -1.1728122036185717 0.011466501846073437
1.3710049136959306 -1.7148203690064414 0.013268434679952132
1.3221301890100141 -2.2227270257442284 0.014992081574871677
1.2594294920192621 -2.6858241578410142 0.016216107045175548
1.1828079823147117 -3.093440123382585 0.016579700472779024
1.0920732441943755 -3.4344876227922465 0.0158859527269935
0.9877283000031409 -3.698761737351476 0.014300645070420193
0.8721568111195542 -3.8743425881734628 0.012650390996864984
0.7337725884109513 -3.9999999999999996 0.011878284743690747
0.5953453773531572 -3.8742732573115393 0.01297319347177531
0.47964373277730044 -3.698595900180982 0.01495132116736668
0.375079065332131 -3.434171065657129 0.01686956843441142
0.28403522793788916 -3.0928928308299812 0.017889909897882215
0.20702603307862505 -2.684944348513271 0.01781463530826657
0.14389911833018237 -2.2214036556344423 0.016773872876730416
0.09466174464505096 -1.7129789993301014 0.015004683176449932
0.05993304373206458 -1.1705395205104354 0.01273984374199352
0.04119313203369944 -0.6071882035472649 0.010370386853417632
0.03519533908523132 -0.039824211862802286 0.010515613162239038
0.0 0.0 0.0
0.017111262527060623 -0.6269464961532648 -0.010568355567487399
0.043382944710227286 -1.1990176307550269 -0.020185035096307417
0.08057220716949956 -1.7485201960486285 -0.02912278140517979
0.13190521649437661 -2.262529915887068 -0.036020321978483434
0.19790118690080916 -2.7296207157668047 -0.04086202598269258
0.2783207744138049 -3.138001769873961 -0.0433157570267228
0.37278047421940586 -3.4763481403631133 -0.04315458038877726
0.48090635774151036 -3.7335794536496816 -0.04048485842127321
0.6022557636145931 -3.8980520209410003 -0.03644516067787883
0.7337646866140941 -3.9562630648353174 -0.034108423375522605
0.8652888850561848 -3.8983493507549842 -0.03646917469041001
0.9866862480695472 -3.7341731961239155 -0.04055021756682031
1.0948999760137919 -3.4772361415318445 -0.04329954391579911
1.1895024813233397 -3.1391791675027703 -0.04360664334557426
1.270149298943259 -2.7310744356003043 -0.04139923550129725
1.3365095632077413 -2.2642252372164666 -0.03695599684443248
1.3884466096239 -1.7503724915410426 -0.03061787527005607
1.4266177850348531 -1.2008606706208955 -0.0226778469183646
1.4548291210433482 -0.6287098086199577 -0.013443995984859541
1.4765504852217934 0.0 -0.011800692040781246
0.252973644050197 -0.018228329268296817 -0.0015576991311783445
0.2632167020130727 -0.6260341255350615 -0.0048454385858349115
0.2757254986244184 -1.2030653635152846 -0.012601809755772556
0.30070395379227555 -1.753586454075373 -0.01896227351814325
0.3348776591164666 -2.26949269768313 -0.023893561681428626
0.3788312834912274 -2.7383540715670724 -0.027190543005014778
0.43239532755414245 -3.1485302641775705 -0.028804495746033113
0.495285985170098 -3.48865764308588 -0.02867039236028386
0.5671083578119129 -3.7477138665443404 -0.026939107686721815
0.6473172172376587 -3.914055186667405 -0.024261810405564906
0.7338311105982469 -3.973430633025812 -0.022550333166739395
0.8203600184405049 -3.9143557613637876 -0.024199888114997698
0.9006158668509373 -3.748314316218313 -0.02682876901714035
0.972523613232952 -3.4895563685849265 -0.028543018405225478
1.0355510699362114 -3.1497236071199897 -0.028717310487649465
1.0893273926975742 -2.7398315936665765 -0.027239863721644015
1.1336145463995295 -2.271224895188586 -0.02422151893299647
1.168318169220056 -1.7554977796849984 -0.01980393978937782
1.194205723513311 -1.2050245886775208 -0.01416989864300475
1.2083087745837844 -0.6280470899371631 -0.007976897928013343
1.2194652090782825 -0.018542595642314003 -0.008930951291613353
0.49591112066799875 -0.03209541098589285 0.0028044536528366495
0.5015899284070027 -0.6259115151707091 0.00021877986611149733
0.505950320807001 -1.204567228714657 -0.004876434501347888
0.5173930484541185 -1.7566700605605317 -0.00902121408339274
0.5344767627386056 -2.273567359751246 -0.011900243955574007
0.5563758958834967 -2.7435040537693554 -0.013638142017214853
0.5830892678746405 -3.154724264135995 -0.014307159048188972
0.6143725682610794 -3.495849718193458 -0.013968701797763787
0.6497909128120635 -3.75591777290289 -0.012701260475528681
0.6894413940327758 -3.9237440224480693 -0.010561999825312156
0.7339028972347967 -3.9849183469395983 -0.00867327417056175
0.7783789857340958 -3.9240493215536265 -0.01041530104051869
0.8180747555582483 -3.756527832079944 -0.012418020127126643
0.8535740243120961 -3.4967632818907446 -0.013574371787411284
0.8849833865134709 -3.1559383167840322 -0.01385316078699783
0.9118855858372236 -2.7450097712338484 -0.013217440493574565
0.9340688074882917 -2.275338715430069 -0.011670009542255534
0.9515948000749603 -1.7586363404585523 -0.009222077437675637
0.9637719582800691 -1.2066366377716922 -0.005863581997971389
0.9688997818576645 -0.6278044841948456 -0.002383848037271375
0.9749182938499694 -0.032389572300793625 -0.0027645821553588124
0.7338384821427052 -0.041410528019863814 0.008683009598863624
0.735763387686283 -0.6263398594887818 0.005786036061579881
0.7336571988558399 -1.2045010131764984 0.002828056811856788
0.7325277901793708 -1.757577318046847 0.0009461948097647318
0.7323182877206716 -2.2749329361325374 0.0001299854485865823
0.7321860593898285 -2.745206046503168 2.472423074002303e-05
0.732045713613532 -3.1567729557414568 0.00039185925836280217
0.7318060752677886 -3.4981353420959342 0.0010891457693910347
0.730934719860727 -3.7584071793992218 0.0020845672036052423
0.7302247062658089 -3.9276769095118778 0.0038880223687468643
0.733977344861366 -3.992267888736969 0.006452285112038127
0.7377440394821364 -3.9279883406923073 0.004119658806679809
0.7370772040267519 -3.7590295608569826 0.002540961692623625
0.7362812126519959 -3.4990674510002573 0.0017503641278945237
0.7361545682145264 -3.1580117102791623 0.0012118878436340663
0.7361743133958722 -2.746743042291633 0.0009103628620017373
0.7362676501692579 -2.2767427584476585 0.0009118387025757803
0.7363950530545026 -1.759598426839752 0.0013466348727045661
0.7357207085980263 -1.2065905546440927 0.0024068618991213903
0.733965947324245 -0.6280533529013348 0.0038151093989910656
0.7360567712645367 -0.041719893902736845 0.004369463732410851
0.9701320559754127 -0.04671534042246021 0.01474979125317918
0.968651168207484 -0.626723502079217 0.011578740598202693
0.9606028067097763 -1.2033318253742114 0.010494911769763991
0.947635197569874 -1.7564355277032329 0.0108703320293615
0.9302198227301515 -2.2735900635778914 0.012122629725250682
0.9080052946690872 -2.743503503307768 0.013665250103774907
0.8809687777773876 -3.1547329034824823 0.015083302144744255
0.8493216222458295 -3.495657376678541 0.01614042794464177
0.8125313264145901 -3.7552241629122123 0.016785031886237884
0.7709927994406564 -3.9256252813686134 0.017778842419296646
0.7340533489227724 -3.9966890901544656 0.0212724760836978
0.6971274588619831 -3.925944253449396 0.01809700942294995
0.6556300697848341 -3.7558615620272096 0.017418019117872385
0.6189096464954611 -3.4966116629475894 0.01707437654302333
0.5873624075294192 -3.1560001943566305 0.016278278697808457
0.5604567080181663 -2.745073840492389 0.015029072959418207
0.538407886687492 -2.275438112869212 0.01347276298417147
0.5212009548748451 -1.7584939363735177 0.011887828791414905
0.5084532133437414 -1.2054023742673219 0.010682174527600055
0.5005327961467049 -0.6282977705348187 0.010281423395017752
0.49913508992556005 -0.047051641896631004 0.011491699061327708
1.2071690950666527 -0.04899912663928225 0.02031644104123981
1.202811337641466 -0.6266447686278143 0.01723206471669829
1.188992867697355 -1.2011902444758784 0.018063557304734842
1.164489371532672 -1.753330745409491 0.02068665704899007
1.1299065596914115 -2.2694885911768043 0.02399779471039873
1.0855670673209865 -2.7383528626872193 0.0271484487942353
1.0316484394387848 -3.1485063153832797 0.02956206604830762
0.9683392911275274 -3.4884833208778256 0.030825433742553567
0.8966458987252887 -3.7464600503157084 0.030898673256027905
0.8138406487625474 -3.916333739867324 0.029936029348515775
0.7341297311361831 -3.9993121293605425 0.033644415620069625
0.6544320264878554 -3.916661753409202 0.03034368637068668
0.5716663837815051 -3.7471153508820576 0.031714794601968514
0.5000384860512697 -3.4894637561214217 0.032043592957876336
0.43681838719905575 -3.1498063791762383 0.031150839863773126
0.3830060454741251 -2.7399595935340253 0.02902049754081938
0.33877680644471087 -2.2713721935173794 0.025961870328133685
0.30428192608926735 -1.755411221017725 0.022387372954083627
0.27980555787997147 -1.203235582624279 0.018946352032804488
0.26595316378714257 -0.6281349253017383 0.016646013097338673
0.2616040720843368 -0.04934658657176988 0.017973788337594703
1.4462689396758541 -0.049728594071909965 0.02458974629356693
1.4404141277059834 -0.6259741012133617 0.022522617477149273
1.4211842499307648 -1.1980329560409186 0.02557486291629719
1.3848061937730096 -1.7481637258589753 0.030541506666302256
1.3329521512369 -2.26250935240732 0.03595491099610442
1.2665076577152834 -2.729583298425424 0.040700259898693386
1.1856960672220511 -3.1379832140460495 0.04401281419531493
1.090787248361303 -3.476059586385479 0.045366492225055316
0.9828781358653674 -3.7331006136558775 0.04441148688263083
0.8656143313692759 -3.8975589550092944 0.04092518681142321
0.7342035318228127 -3.9999999999999996 0.03935852657141846
0.6028057491611397 -3.8978976325932972 0.04142641790267573
0.485580646408095 -3.7337769877146556 0.045419889690480365
0.3777342839570121 -3.477070658445802 0.04688528492131546
0.2829075694734462 -3.1393213375306894 0.046023115911476106
0.20218630072624644 -2.7312310137665463 0.04312654363642121
0.1358142761515589 -2.2644278174954917 0.03860883452324505
0.08395928036857359 -1.7502563185821165 0.03304395467917946
0.047439821735476374 -1.2000497456485437 0.027302546367482312
0.02798019960359115 -0.6274141166681395 0.022717771354825465
0.022026997415363573 -0.05006096342138933 0.022976333380611717
0.0 0.0 0.0
0.01829292523763012 -0.6633287422787684 -0.015877565699930186
0.04405060430877105 -1.2499765946442774 -0.03418772491761903
0.07967542851021617 -1.8150637963240772 -0.048809326055691986
0.130371770140357 -2.3432698516248873 -0.06205858691450159
0.1968506593945938 -2.8221412713625087 -0.07301301407672729
0.27883769680846743 -3.2385195738621486 -0.08121694232450363
0.37583692349189624 -3.579679966508425 -0.08608756446156049
0.48652274045072924 -3.833217834769597 -0.08721693603961451
0.6076021278706413 -3.9885424013691786 -0.08527244956748475
0.7336164547664119 -4.040298668672489 -0.08351260460834477
0.8596755668184651 -3.9893002482065025 -0.08534256880032595
0.9808980470446654 -3.834751203928777 -0.08738177275962669
1.091852654492259 -3.5820211361298298 -0.08640152540075702
1.1892960280301919 -3.2417072174864785 -0.08177369095551199
1.271981166412299 -2.82620047071309 -0.07396285442849802
1.3395223785974029 -2.3481770522728755 -0.06361454943650724
1.3918019055838888 -1.820686293973235 -0.051338709608307886
1.4297326243230808 -1.2560550129927976 -0.03792006146425258
1.4594677237912106 -0.6693739068588674 -0.022543756508345697
1.4873068912870615 0.0 0.00012871375233435486
0.26033994994552945 -0.028325908340795677 0.008336505403290766
0.27157631376947017 -0.6603842082757747 -0.008317615495894954
0.28063488531994807 -1.2539703431106037 -0.02165741217679852
0.3039794145383888 -1.8197553855821589 -0.03296322295501166
0.3369134925921449 -2.350018133251557 -0.042425676897767994
0.38039763386557524 -2.830693323005552 -0.050211551635435205
0.43418291232575135 -3.248892900437074 -0.05598122346677114
0.4979280058065198 -3.5918006038658934 -0.05946873650225279
0.5707632799360977 -3.846855824329088 -0.06049117384433646
0.6505694719848307 -4.003062932091742 -0.05946769685396206
0.7337529667885689 -4.054869323391703 -0.0583790727991533
0.8169838194506975 -4.003833249002377 -0.05944356284664885
0.896940183617566 -3.8484164634728186 -0.06046382378407731
0.970053405702413 -3.5941887577124847 -0.05948558139320149
1.0342481894312705 -3.252155064621608 -0.0561280958059696
1.088721166262332 -2.8348664929046965 -0.050627993988346706
1.1332246604787555 -2.3550924499842667 -0.0433380855193951
1.167626281527512 -1.825617943863843 -0.034673610043961925
1.1930963749866963 -1.260393293836153 -0.024758364519494692
1.2051858399146054 -0.6669080265398859 -0.012851374797241123
1.2180468121702066 -0.029892528884714633 0.003362087502779667
0.5061154163320243 -0.049181057051744116 0.013623360788589684
0.5119093543735657 -0.6593960068537945 0.0007372344845457181
0.5129203032065598 -1.2548759314673974 -0.008786279088201737
0.5219782777557337 -1.8225896053035753 -0.015806711441350426
0.537535728336611 -2.353888702918013 -0.02117831677308632
0.5584673221150231 -2.8357057901757683 -0.02527818138046945
0.5847446799439464 -3.254989555753338 -0.028131500485936267
0.6162372007641695 -3.5989862067904617 -0.02968003582437522
0.6527128899839455 -3.854980723711771 -0.029894194756040833
0.6929139044765921 -4.011376651730327 -0.028847687391896932
0.7338612064836971 -4.062301764093137 -0.02766787589705817
0.7748567756130338 -4.012160447529435 -0.028729458549433096
0.815209910818289 -3.8565703813003607 -0.02967462963535403
0.8519636961161815 -3.6014230666326905 -0.029399247673201293
0.8838975985531966 -3.2583265584128713 -0.02786561945253249
0.9108334300794569 -2.8399891528207273 -0.025160482312737896
0.9327112951434048 -2.359120926876018 -0.021425332579798506
0.949587096155601 -1.8286633530693226 -0.016761291425456893
0.9604070366813519 -1.261578480299935 -0.010929348673809673
0.9628584794038801 -0.6656897395098039 -0.0028759615374933226
0.9693514152433743 -0.05159429760580506 0.00856151085498823
0.744666921719295 -0.06254655329460654 0.018345086261238857
0.746223922870183 -0.6595635511061577 0.009543940875284191
0.7411159663373132 -1.2541233304071338 0.004219676801305438
0.7373064059783865 -1.8231495948856922 0.0017394484632717354
0.7352855571607162 -2.355051849285177 0.0007027891130471209
0.7339249987901719 -2.837265667315867 0.00046861826047863965
0.7330037729380089 -3.2569551995646853 0.0007494618143933684
0.7326626315426839 -3.601425522765301 0.0013904190095429742
0.7334270436617293 -3.8578796588192676 0.0022476089740174946
0.7349750293895286 -4.013594348330513 0.003489949581326576
0.7339577580474872 -4.061844742727424 0.004989782961469871
0.7329889583967069 -4.014392226654137 0.003702968037125105
0.7346888176925994 -3.8594992993617336 0.002661016904358777
0.73572751748527 -3.6039117936345817 0.001972027807976978
0.7358133504633156 -3.2603660950561686 0.001432880562025524
0.7355112540715738 -2.8416549482046136 0.0011297461753107705
0.735006510367503 -2.3604290607465557 0.0011256458340782411
0.7341209296776617 -1.8294161010812342 0.0015743308708045232
0.7315575074808734 -1.2609070742142403 0.0029935807216867954
0.7272187626969062 -0.6656065935974782 0.006839091721235829
0.7291613720679071 -0.0655863824542354 0.01407783174908473
0.9812640983337406 -0.06970123130111429 0.023197176950768762
0.979079450095897 -0.659831040068332 0.01790669804368279
0.9683099478455459 -1.252281454620869 0.01701157524878919
0.9525950554827413 -1.8215903075856914 0.019186591614699253
0.933136001442964 -2.3534642615965717 0.022544787189272646
0.9094008771314694 -2.8354074506342455 0.026189142854732325
0.8813204840265029 -3.2548130121601644 0.029618497191823228
0.8490655899185224 -3.5991109369971035 0.03247301336354383
0.8138748856936416 -3.855688796286306 0.03435599625898955
0.7772442245977031 -4.0100891178621385 0.03518137078140536
0.7340569132133186 -4.052375414393018 0.036527142994940594
0.6909185006687858 -4.0109015610716465 0.0354907464761174
0.6544400997858844 -3.8573391703852598 0.03496674364991027
0.61952087087514 -3.6016470342721316 0.033361501166332845
0.587679811184851 -3.258296717496279 0.03072920216754599
0.5601792869710035 -2.839896736248435 0.027407790391630965
0.5372057723339212 -2.3589750930990068 0.023658587717663028
0.5186577099134149 -1.8280019012856663 0.0198384862405728
0.5037903466601982 -1.2590798864456474 0.016695781132934642
0.4934605888455027 -0.6657146927244106 0.01613400406275545
0.491486484437923 -0.07313909064806039 0.01986261814076022
1.2194438760924684 -0.07237823696090655 0.02842332483353074
1.2143088367188166 -0.6595546679411377 0.0257974990370039
1.1980951346158966 -1.2495165156250827 0.029299288004886435
1.1708872657870788 -1.8180643779156915 0.03605830355779793
1.1339274142652442 -2.349101262752682 0.04367804692165949
1.0875698472250883 -2.830086681202092 0.051032074419538775
1.0319684703670091 -3.2485748326187367 0.057436014317959416
0.9675839329306322 -3.5919002461558556 0.06229110845630041
0.8948517529900727 -3.8482515641768797 0.06501013559678655
0.8194511305172787 -4.001853290722819 0.0640848218047627
0.7341731937128368 -4.032176790002136 0.0628151385132623
0.6489458255656424 -4.0026809579598615 0.06449294744401274
0.5737015927716327 -3.84993375974208 0.06582345919145349
0.5012444218346965 -3.594487148730744 0.06349548529018338
0.4372696761511006 -3.2521307165444506 0.05898813533187652
0.38222160823671736 -2.8346709577631923 0.05282937426299351
0.33653868355669325 -2.35472716125483 0.04551354758994714
0.30027522715932403 -1.824580800921443 0.03756331189940156
0.2735817049376513 -1.256322900270613 0.029916482220746353
0.25754966160047205 -0.6653595933879436 0.024949878716036773
0.2524677718883583 -0.07600757096583187 0.025990652529852488
1.4611665399362188 -0.0729241646941636 0.033844076132510836
1.4553477804890462 -0.6586270021315912 0.033231840951155465
1.434749281528776 -1.245881510623572 0.04066330479482797
1.395622982219725 -1.8125222328532742 0.051600425174919654
1.340725339224857 -2.3418769348823743 0.06305271663023386
1.2712668905413 -2.8212056622450197 0.07367969475312
1.187487964988039 -3.2380253399902035 0.08260131466410234
1.0899130845275093 -3.5799373274505513 0.08898602566517835
0.9794561812474913 -3.83417585252826 0.09204746796609234
0.8565395211937283 -3.990428409188854 0.088785595872772
0.7343239015740641 -3.9999999999999996 0.07545052675179258
0.6121630228900145 -3.99127257074506 0.08929555354684522
0.489414460149623 -3.835892155519162 0.0930700382003221
0.379248871754125 -3.582577657921007 0.09051756396094078
0.28209828316206137 -3.2416549568390054 0.08461222925080603
0.19887143793505344 -2.825881459943991 0.07608101053098013
0.13003460988209672 -2.3475987602773047 0.06564432477289865
0.07565311110083028 -1.819102977631739 0.0539973664934603
0.03667673809312164 -1.2526743503091922 0.04223938172308266
0.015864837197154917 -0.6643820203256363 0.03327975254398594
0.009895116224013458 -0.0765940523116959 0.032207365910490775
SCALARS Stress float 6
LOOKUP_TABLE default
-4013.7341217036173 -22264.23715645165 -7883.391383446584 -4073.475831824346 1679.3579105505444 -2116.189833152951
8870.468607755703 5706.18733820729 3672.1810463155034 -1809.5174356025616 1748.0125762911478 -71.9656331095407
8774.610051374033 254.63452235903938 860.4183157152797 -853.0555630215674 1707.6869161180596 -593.6242982928017
12692.096865425263 1180.0897791700756 1563.0320995187817 -879.689252400935 1519.4685798483767 -644.1049269567102
17136.232536656655 1316.6478288210892 2098.8131380930727 -829.0830767737277 1357.854623708463 -884.6342667891886
21775.69247683819 1730.7547835673201 2808.0037497099493 -752.243714147412 1066.5167306589349 -1090.866104853726
26293.50446103809 2095.8068819455443 3513.8369435898653 -628.357054292198 665.1988160847518 -1302.7785844821035
30557.025162518326 2436.7835034839754 4230.988702200515 -458.0371335065819 162.13378148319805 -1511.0097699830294
34147.09368265952 2709.563904693802 4888.363030595157 -238.3956665421716 -328.246467514832 -1725.667977327235
36488.738999576984 2981.865157059384 5395.979113562504 -44.29521010626304 -467.3329436873176 -1956.3102209244296
37347.448629770166 3288.4255759214752 5669.410338978041 -5.425386736458421 11.233845541939951 -2113.6274182891552
36515.25517775845 2982.1786673728775 5397.942131032158 33.16274597054555 489.6033185344855 -1956.855948392945
34205.37252545814 2710.4334068228754 4892.976494236876 226.4184802479021 349.86502609697374 -1726.7497283169926
30658.227172490988 2438.7251493739545 4239.62414054678 444.6322825038307 -141.87107969793388 -1512.6552915586308
26456.308565779902 2099.9627979305765 3528.831124600317 612.9876998086387 -647.332855375982 -1304.7654618657598
22026.720266641925 1737.7219208821562 2830.9349578609795 734.1529299564514 -1053.3417172195807 -1093.9889444677153
17515.035991887817 1330.7943567676439 2134.820162438743 808.3482090070264 -1349.4275170064714 -884.9333068665791
13241.777755736648 1196.5487441154405 1596.3478173009362 850.334047619072 -1529.188908814715 -660.5937659302116
9712.045575899238 352.5722219319757 1007.4130192889935 817.5110254672268 -1680.9480143522612 -538.8718424815918
10902.724964862615 6065.047505603856 3889.1633520385035 1877.5080492167554 -2247.6931365497535 -395.88883145994805
-167.8394361900605 -21233.10107108846 -4845.600587484011 2448.527757342007 -2944.144200898536 -820.7794905019487
-4450.219447028097 -19311.564738278114 -5822.500257039887 -2614.5942663953206 1387.5118727226356 -1216.4725471830411
4240.827175403731 3092.5572340806816 1741.6879707231794 -2166.4185253826136 1161.8057366957223 -364.87428426796146
4375.312014683166 -295.6168371089692 28.569033703118407 -1802.5139397538849 1054.1276853140578 -639.623006587397
7917.92935244379 54.986688497370665 543.7494866209302 -1825.6272666799498 932.0290694811949 -829.4476399388717
10711.76071085914 -66.49012314240072 747.3419677615002 -1784.5616119094695 808.8135287609549 -1100.4352506282464
13668.58143284156 -62.83119925847639 1042.9519308611061 -1639.146842415138 637.3574630126654 -1370.6590768782335
16549.176296817248 -62.76229238066517 1358.5961421944116 -1424.210262922643 398.8083574381816 -1642.4337771014773
19259.477243368015 -87.33801778322152 1686.260340938512 -1110.696359731018 104.37363573430889 -1922.9283181972119
21554.910181810275 -114.28593391330892 2003.3145415684403 -656.0849173422525 -185.61256616554428 -2242.2177676884335
23140.41052006118 104.73008823842754 2326.365171301788 -172.68070813026017 -276.81212320585803 -2642.7496622781327
23885.10847594759 698.1898103127614 2645.5958543972897 -9.67327250427143 2.690983412197334 -2953.4051332360355
23169.154552768487 105.99448313507978 2330.379646194589 152.71813116894018 281.6582796472381 -2642.8069286523732
21617.117208012143 -111.64943986161578 2011.813101212283 634.2433067845483 188.8337449855994 -2242.2591513132065
19364.95951051101 -83.10807820443243 1700.13711528169 1085.6100299698328 -103.88277036648964 -1922.7985712539196
16713.44250688031 -56.71101828334297 1378.7957845605383 1394.357570632866 -402.2838621184154 -1641.812002221194
13913.915098289765 -54.954028308684805 1070.4551257879177 1602.8294318420515 -645.6171249799294 -1369.2984995266597
11065.687926443125 -58.10589511700164 778.8878199900514 1740.0069051145367 -823.9472503129845 -1096.893972956909
8430.932170784856 73.40121189432932 588.5035411951313 1765.479561169431 -947.4547931074044 -828.725511052218
5094.194197398723 -280.5623330647422 46.41206360078567 1709.6806578032908 -1097.7397465088222 -614.7177461193935
4948.42858164847 3244.6517450717856 1814.4931512775322 2043.3863588529036 -1328.59029874951 -523.3571957025349
-4125.5653221590655 -19943.169614683004 -5597.939360185019 1636.1364464505532 -1642.8745156378304 -494.0891753416998
-3546.311643951758 -13458.731487150717 -3673.4171974112724 -3069.6963500904835 844.8914253669855 -402.89477016387394
1455.2812006729928 943.8542166167052 788.176634823976 -3518.974703432648 661.2158674881188 -567.0618078151188
1536.8428606359844 433.0253430257687 74.86097563772479 -3069.3704042760187 521.0595723337913 -730.2656151595908
3393.273562182595 -71.88799591884481 100.73001863234114 -3121.6726535663256 422.5595822538927 -1057.885254599606
5089.078747451329 -48.1288606085136 287.5793541435756 -3015.6515816603815 345.5937144985688 -1396.1448021375604
6600.488359028408 -61.13046281520121 425.3221729155536 -2783.5910922168514 261.5363453684604 -1751.4718692304443
8105.267856553745 -51.59139448851418 591.2898688377134 -2438.5281855728404 148.74638188149802 -2110.041403572844
9551.739265097302 -80.45467129492545 767.4892866297531 -1937.0611928276776 -1.4465493331658386 -2488.271086191005
10784.486385157421 -123.90757039447284 928.7063194027832 -1163.3246729878301 -192.36496005979868 -2933.64954741808
11622.69620733762 366.34168618517566 1183.00060926707 -251.0804264862819 -294.0347006515033 -3541.737022451745
12392.785777457013 1955.06796055782 1797.0686935010567 -15.458002666203608 -4.135879498629926 -4114.273591054481
11652.371860227517 367.82611325316253 1188.5906008677448 219.1388408301315 284.94629807362924 -3541.4179087819334
10848.035786345574 -120.83914635839047 940.2865369137645 1128.2458146292954 180.86750392205215 -2932.915742343365
9657.585198307355 -75.61396927392809 785.7077517877791 1896.5317443639776 -13.91368395013659 -2486.892096327461
8266.204841901996 -44.74012992640874 616.7948697434836 2389.871649883588 -169.04085627133466 -2107.6439640158956
6833.301473231046 -52.90893456902626 457.636241469531 2723.655120521484 -287.17495575963267 -1747.221494051964
5414.240580923186 -39.38298602195849 324.7546375132458 2940.5030496576046 -375.2681221070013 -1389.9151676096205
3829.124393450992 -64.38048593920522 134.2469258648933 3021.277036068098 -453.14648835394917 -1045.4826297139186
1972.8884997198659 438.7633294009048 54.81434752428801 2923.4790721301983 -563.4858494500766 -733.007198409438
1865.8665447830952 1250.1902514826886 869.8580568511708 3324.4960148578125 -724.0543312762811 -575.7693267424389
-3529.400136683817 -13963.653239649024 -3752.871735527922 2901.558188409887 -927.106512258265 -385.06610039656505
-2594.5313332880373 -8132.86427080585 -1942.8245617956918 -2838.695899080745 381.1388296246557 -142.0784604804334
-453.9129098736526 -188.76259893139368 303.2407827692299 -3721.4135633084475 215.9435217169888 -492.45987731533165
-1050.6723874067238 551.1244833464687 33.82946739169576 -3736.3454957020676 34.06169196022606 -755.0561756790535
-828.5260855845582 41.81969033295334 -131.30243631065753 -3566.9748830119484 -56.617395513092546 -1112.4036406830994
-501.45716525832506 -36.06553105054929 -85.6467251819273 -3420.3345515664 -83.43862046204946 -1481.8952967045193
-331.7459870247486 -14.671079844647895 -45.331108134611256 -3155.2451953971317 -90.75288356947108 -1858.5950193601107
-172.81532813665785 5.519196705572565 -2.985302031957467 -2769.986452721825 -97.38901301127969 -2243.6319419190377
77.54218654902789 1.1108844687914416 63.363989006552565 -2228.3633563739104 -122.71563951254879 -2644.6932244843215
305.6260807404644 -118.69596044638558 77.60054978304174 -1342.213435005397 -237.56622898234846 -3104.690673661455
313.0450580637363 583.7473261305629 216.49210731672855 -83.1513066822657 -386.18906754183615 -3764.8027973497933
1410.8350040225769 4140.6658983553025 1472.3999868306748 -17.355787969554136 -10.270991633113587 -4615.465964469943
343.25633785048444 585.4962069972131 223.62258187221713 47.256819669045896 364.5677061998795 -3764.36719671667
369.67380626106376 -115.13563426317272 92.2087395524675 1302.7007305646275 212.79664523726169 -3103.710654428135
182.38723962325236 6.592949613254932 85.9536625452453 2182.5704855565277 93.06019580089719 -2642.9207266609396
-17.518829189604276 12.930187617678206 27.794446359161483 2714.7870827076067 61.86710294245585 -2240.581670794433
-115.04142184568974 -6.242974131644347 -7.42672143423785 3086.7211506811896 49.91100226910243 -1853.5224661269046
-213.29695496365116 -29.224069896092285 -44.53376609856947 3333.084212437745 40.51540700107616 -1473.500690275401
-495.1269994883309 37.57837398926788 -107.20871590077023 3452.9137262653394 16.670476422361254 -1100.766780737043
-757.1898364447566 607.1054956873418 32.421582351671894 3592.422912333696 -67.06233441183281 -748.6585588342025
-217.9782726592766 29.12484923367379 342.5096395101961 3636.6504741416684 -243.63697902350046 -506.2541831530075
-2643.328526558145 -8523.327973480686 -2068.492371806453 2811.5888071597715 -415.56185142566517 -222.6880444302206
-2037.240375235594 -4070.8383325168015 -717.3687002455329 -2157.424026089568 -5.595343019802864 -112.1850511041291
-1914.1739159832068 -541.7684263036609 98.50768011748079 -3129.522744774469 -202.31268278783634 -382.1073764628352
-3528.8239313970776 441.8323281292943 -65.89790174790457 -3437.9899045036127 -458.97230612941365 -698.0463987016658
-4909.099964693866 102.08405873820291 -344.358506521092 -3204.212393191776 -544.4299562755064 -1047.9966295056595
-6068.488776961086 10.659745373788763 -441.6239242247792 -3018.4785864233136 -518.3793790762683 -1399.4003609145302
-7270.3418714194495 32.503561136501155 -518.1976499582338 -2781.789699613358 -444.9430809196785 -1751.7767251481089
-8465.425659109302 43.51517470692808 -607.9273991042658 -2442.6458551321384 -350.17593071094785 -2113.8415310455994
-9426.665524270527 124.95836179350908 -634.6108734462393 -1960.1503305100061 -237.54225174291503 -2477.4452136103027
-10122.720871875785 -82.17551526437208 -742.1016189386737 -1245.9022271485271 -211.44191145867637 -2865.5008385145543
-11213.413509485848 209.29435713836773 -1004.1020019093007 320.2705317384677 -432.2003065096295 -3402.723621761757
-9168.53615127717 7493.164956154812 1511.004673737485 -15.621989131770933 -16.542170915700705 -4512.22020484828
-11182.520585295173 211.34904194535795 -995.3781719889815 -352.59626278060614 397.74515055039086 -3402.434076204432
-10057.892218884464 -78.0443949447218 -724.3493459163941 1210.2743119187778 173.01818075108858 -2864.8314044173703
-9322.438071724362 131.15615971709602 -607.4841233212994 1918.8137336629297 193.06935988676167 -2476.1815208782364
-8315.516170607905 51.51667222902103 -571.6779515050085 2392.789790463855 298.74536500016796 -2111.574238315745
-7070.219183450399 41.24019167886964 -474.7029964747235 2719.6693188898043 388.01117887810244 -1747.7903958219094
-5824.240543598794 14.869977711861448 -398.2823049423266 2938.906523006737 461.33015978682585 -1392.7408419660724
-4659.026865959093 102.71935163661821 -317.4054710066091 3102.5034937692412 497.34393858242 -1038.9662965519026
-3333.174732307966 495.580304805623 -57.4822563449926 3339.413976131592 432.64026987726146 -691.9714950585097
-1784.6760071336237 -420.605911198833 110.95607264350409 3106.175407835432 191.57356737906815 -399.048453563297
-2077.354549165413 -4305.134162054012 -809.7852948780898 2172.8471199082605 -6.05882580042255 -187.57216249006873
-1897.1786291606836 -1629.0495460463071 12.240208018086236 -1194.5049195162385 -345.4496159086124 -164.3977567376271
-3070.0488698041204 -506.3685066104855 57.71211735486247 -1803.063187147339 -630.044159334928 -274.30401927175603
-5963.070789847643 254.19653493560628 -229.5458240540474 -2065.4250023209565 -1004.7537903286373 -548.4626763447013
-8980.166314405464 108.70000091205617 -632.3825548863272 -1920.6488103234724 -1085.2313048627545 -827.5867630991119
-11716.958085236523 36.85950550345457 -906.2362820330243 -1787.9173976413072 -996.0178066325908 -1099.5169490397482
-14349.57639405892 39.61203246294286 -1140.3507259384317 -1639.1659351368892 -829.26440936261 -1370.391570191613
-16890.108374121748 62.195496327897246 -1369.0126917419805 -1428.498639941191 -611.6774086875862 -1644.3405733728753
-19333.184584164737 36.692177143670705 -1635.4786598901628 -1144.5682185711273 -362.20553609696 -1922.4076626298179
-20725.359406823194 403.51118702681214 -1593.8414369596258 -664.1215750704873 -3.77244167959787 -2154.5022437202124
-23397.324981765494 -1411.6820873039733 -2935.061516498903 337.58820220666223 -168.75826639781232 -2461.851372007876
-19366.9402886609 11962.572157977922 1629.2249826826824 -9.883879248114008 -23.79012904622712 -3271.7620904109194
-23365.020787996105 -1409.3192978487546 -2924.599564078102 -358.0350024080714 119.43631863856012 -2461.9428202500426
-20658.27407618711 408.2320152079453 -1572.6688924803723 641.6106496223757 -50.57559252281544 -2154.6373969686933
-19227.32457618464 43.662140108777535 -1603.4489429541338 1118.5225883549936 300.2590412574475 -1922.4664991467982
-16742.412698474043 70.98567586270661 -1326.9051049890004 1397.2392348110104 541.1615863701032 -1644.071694182553
-14163.48877863076 48.47480768048496 -1091.732463951842 1600.537950175242 752.4236653280099 -1369.3317568209454
-11513.145788066367 42.098234494455745 -860.4928675078539 1738.8126756308618 920.9676139300263 -1097.091341112232
-8803.170323311166 114.69841971426568 -603.317630294021 1861.1801066104965 1028.261825779192 -823.863821600645
-5853.404715568018 291.66619934907413 -220.46437005445247 2017.4712341314132 983.0367888882682 -546.8701020908911
-3022.0161731143376 -450.5179532037611 54.350023774496336 1802.5998982571305 634.2553350569349 -286.32338901169703
-1928.5329851385618 -1730.5465837308036 -39.49779728120057 1210.251790577252 353.76108733697174 -213.2757015389529
-1657.1796598872531 -703.451549102789 513.3821760406123 -588.9700609288479 -691.584061342617 -198.4155904564566
-3720.9577727941123 -455.8558763948351 160.57340381010593 -844.589298823582 -1118.8023493961807 -229.41643928188947
-8521.689509092963 -359.1794606129891 -672.586362948151 -949.5604852800074 -1660.101731423879 -455.4776447882694
-13689.47413740242 -930.929669729666 -1606.3438990049563 -912.9992269389713 -1733.215462438971 -677.8759015590181
-18203.43038965126 -1382.6465433618268 -2298.912736198835 -848.9773338559523 -1562.2924543974596 -888.7542772885193
-22470.519031837262 -1753.8948247191072 -2914.0387561809484 -761.6758129368756 -1275.4426779648306 -1097.414383069831
-26612.307057351536 -2074.758240628413 -3512.4375275124335 -647.2067368777173 -900.4426944349034 -1309.0529245470798
-30628.976456074673 -2552.1329100278635 -4196.554395734342 -474.40593078713187 -455.17555883474944 -1502.6090527956972
-34209.28791067957 -2379.41510565966 -4688.661401887053 -232.15426504514556 184.32965615853556 -1731.8107048423533
-37378.044569267695 -5650.267440419784 -6590.919606810575 645.1990650404739 1338.4439846746377 -1555.285743530266
-30232.673719489645 11950.749294533378 -720.4333036949977 -6.3865482957604485 -33.07999513540226 -3207.444706701976
-37342.414032813154 -5646.580373116163 -6577.972416754322 -658.3927499304714 -1406.8626755440748 -1555.472381473472
-34136.16063406322 -2372.195581521975 -4662.6872613799305 217.70883952697312 -259.26532532655074 -1732.1307675594887
-30515.893470703788 -2541.864032067279 -4157.866417595376 457.90452513099285 370.3935158915657 -1502.941535371918
-26459.61287535039 -2062.7678324663775 -3462.95125154908 627.9260957956517 804.5584191210432 -1309.178552998634
-22290.021338443676 -1744.0031563739535 -2860.2177183545964 739.0825492822586 1171.4033669801292 -1097.0080928644875
-18034.106058418143 -1382.364070024931 -2256.2563255729137 822.8279587332745 1461.3142318213202 -887.5955744436978
-13598.713539421227 -943.2745069357996 -1596.7460544161845 885.1960661598933 1659.4592356553617 -676.4296298193286
-8539.82652076662 -363.7260312932684 -699.4034986747018 929.559043156666 1642.0765226412734 -456.4099447454182
-3780.609968226149 -451.6321004292155 124.50889637414775 845.7911032601993 1145.6269276533435 -237.6744014072019
-1730.2802031347182 -765.2066805621253 469.8502288366295 593.7455636046195 729.3517851843164 -231.02426834805357
-606.3291513372938 -13480.401852844914 -4226.019301254662 -2095.262065036155 1117.806838857116 395.4159332931519
7946.720970441212 3821.343824595026 2783.876418142674 -936.6669877106433 1206.1309393698825 -123.9357622936716
9229.639387360452 462.4213026814471 1216.7770274634156 -334.73005855697454 1131.3155789790076 30.964830845869294
13068.322158194522 1133.289336689419 1855.0766229343935 -363.84093639458314 1005.2774687710075 -21.179077947454783
17276.101372440284 1331.3546813373832 2479.8675166587095 -361.34974256496594 767.2644842931442 -2.1734920168488303
21620.555958194647 1700.4374642944442 3260.951683332379 -370.583143661579 458.9226381731033 1.4785446847887318
25890.53112091166 2048.447854238604 4100.315861127709 -379.1599266799406 71.35462998364567 6.9382897327515805
30098.949640638555 2422.188483239109 5055.917960329739 -399.34395835046854 -356.72832094824514 0.5498081245350437
34240.17707612947 2792.8195358867947 6164.929745086438 -419.6013588438267 -689.8122130454458 -45.02578710799074
37825.177623766154 2955.8625473225925 7234.662132026206 -337.86044107622286 -630.3006395584035 -172.9573047027691
39281.558454519676 2744.9052207454824 7636.775633654867 1.137300046727944 5.967198392949225 -306.9404686168681
37833.07357796685 2955.4230380260005 7232.4398881655925 340.1173005633138 641.5638519693495 -173.74463072373592
34257.08202249307 2791.9556617578983 6159.901057678021 421.7748707302794 698.9616810890217 -46.572602103847224
30127.583202368136 2420.9817197088637 5046.85538017682 401.261346173126 361.9761011949826 -1.6064742687293627
25936.57166398709 2047.2547023059476 4085.3778349276513 380.50117310796907 -72.76662405487686 4.373004901463656
21694.54759359795 1699.7798375416276 3237.132944031455 370.6566508526977 -471.1831097722131 -0.13550642513629008
17399.353906916527 1333.465845218753 2444.7797824550116 359.92546720368694 -799.7429638433416 -4.441663896430962
13270.756937987102 1138.010263921204 1798.2445251901352 356.868169368869 -1061.2348393659338 -8.214220265655229
9628.983946010627 493.76760941910766 1177.5278099742138 321.79165285881083 -1277.4669102870903 -6.114450438289376
8886.186496288492 3941.3003846947063 2793.5003505317013 928.8129027186985 -1079.3611447099206 146.2012841461096
1240.4982865965192 -12768.338846523411 -3007.917361791625 1238.0442752983379 -911.8589079563096 -728.4726517172463
-1994.856237218669 -12308.953595002116 -3730.0369949944647 -1344.586212679931 188.25422733425884 -37.052715111893015
4180.843894321149 2037.123679171173 1471.089288761512 -1168.1278725337215 405.58799923436396 -112.63550143030656
5263.422860896905 -110.3190208698341 473.4048251109993 -919.6965624473169 690.0071701051716 7.3951449451314915
8453.171443765765 127.88116948190047 937.9500842571528 -954.9541631365264 578.6233506096346 -9.960175256692919
11131.191601083343 65.91136356989128 1229.7011947247804 -983.4373632727534 431.1774764167347 1.5656648061297687
13920.594225235915 81.9934936940986 1624.3892231896614 -988.8505494993958 234.97420399347232 1.9193296597377438
16666.32302957809 104.0579624154202 2075.280533377205 -997.3608622197518 0.4624106039967668 -9.437306126654349
19349.665360087583 150.77124896334678 2604.641083190118 -1023.9824198815645 -251.44852802465726 -54.186989653837564
21915.58864574843 164.8657512580016 3206.1150369582065 -1061.6381035233776 -446.4987269314981 -183.95348558134302
23968.958421592193 -186.9946595130799 3668.927704456613 -871.0759050721007 -411.501093156706 -467.0858415407786
24582.543403107742 -994.0937197991693 3624.6211789006543 1.6463400303713094 -2.2989776075926702 -749.0691598018445
23977.891850338183 -186.64226372632334 3669.9351490707636 874.3179941290801 405.85685733036894 -467.2553296457625
21934.424056293115 165.5593259451176 3207.5399151764464 1064.6630685983478 437.67812361782285 -184.10485728268526
19380.690988382776 151.80887864061452 2605.1930018762496 1026.4070920976594 237.14709375268063 -53.83707393839372
16713.963205266067 105.47171355717299 2072.673382677583 998.4058707755119 -22.88531893705696 -7.617907073144048
13993.509715075397 83.97988984841267 1615.292448005772 987.1336790676727 -269.3112433960564 7.209141888220326
11244.06479898153 68.15742794967304 1207.95266246729 977.0961673251792 -481.5858902927874 12.615814359597303
8643.508242629887 137.07978420057728 903.6581806942121 939.0173054337291 -656.9277196558237 15.06446307783337
5590.773902469796 -105.2087108241272 412.0942606504119 878.9796197130423 -788.5915605750831 29.895394043676315
4516.99213372503 2075.1288991860365 1404.2473292678467 1070.9969657980694 -431.74010276354346 82.0026469252998
-1706.0855764550386 -12288.068918985065 -3625.614622514604 798.120299379716 -129.11391073256905 -768.4598931726289
-1852.8383392801497 -8938.836582537873 -2442.864975805629 -1774.6277231947788 -29.850507039099856 -741.131566309152
1824.6028161286536 685.1549516373385 795.5543717676264 -2028.6417944448524 92.71263030219382 -111.3846922634133
2393.508282945219 357.59028705049496 377.6739678714196 -1677.6303518238037 278.43475651665125 -33.96217321721073
4064.732372557547 34.44708319856571 440.04160670924813 -1725.2507729953882 236.48630450314133 0.4711629632782648
5566.861925927265 62.692533750107415 626.3754809072904 -1743.9487026232803 149.88120654825997 -0.36811078272761977
6946.066445697984 65.01168792269902 807.8116104110002 -1750.7685793718954 50.571636185437036 -11.257783762873496
8307.571817690201 80.93284230826868 1029.1650436156024 -1754.9620995139855 -64.2079887239782 -49.543884583291764
9602.466057204376 141.6069401399415 1295.0259875769386 -1774.029893547235 -194.55465712024818 -145.38493469190658
10873.824953023506 219.39665633169795 1620.1413750752367 -1835.679753412984 -337.3671279203627 -370.49943634394464
11985.0409673242 -369.2408763537933 1768.0512403781636 -1587.7336733612199 -374.93681808011183 -838.6015967706652
11903.22176289743 -2285.403809085975 1199.7468223438436 2.4148768521174633 -9.631100948291808 -1379.984175982135
11994.623105293731 -368.7474315353705 1772.0560509541212 1592.4702834343416 354.3311282300063 -838.2092531277899
10893.704696905848 220.35966978993216 1627.5966383166026 1840.0275852511174 312.7619798324337 -369.3717101167263
9634.228951052415 143.0028330567853 1304.6378159730407 1777.3331390246794 163.4069897820649 -142.68759364398792
8354.259813353301 82.78769624827375 1038.61264923664 1755.8700565991815 24.15662724516033 -43.5520370028025
7013.314379837507 67.14251036119627 813.0874756211539 1746.8957756170641 -101.5962762767287 1.0181965709800926
5666.288580963071 65.58717081185475 621.9849067444273 1731.4888367731082 -214.01663702636571 23.943695588976876
4221.625693753302 39.012774560921855 419.128758361726 1696.8874397703185 -316.1099617625917 40.865665519376385
2577.5469777007515 349.6979284023384 310.67534685259255 1611.278967009413 -359.00493015740574 47.22167224802614
2005.8785048182908 825.349336325231 752.175210189367 1894.5532717742276 -109.16726610780096 -35.212327050266516
-1771.5702037817478 -8928.184991359585 -2494.01834754214 1620.890881670576 66.711798758133 -1038.5761476534115
-1537.9628336754793 -5656.367247940981 -1234.6722792553846 -1677.9451932718332 -96.37493015099875 -812.5761356462153
69.95194820374446 -116.99361169532546 433.2549455279027 -2228.7432980317462 -92.0351055170894 -199.7969812194166
-258.8329772566402 396.9960685549499 223.20953127304614 -2119.1654630107673 -57.579871816148675 -50.410640827439266
-156.8092927560789 44.3415718624881 46.628389259180274 -2001.7231531758466 -80.49258220253724 -12.47048882253775
-42.152940316511035 -11.771616640395749 27.88842748471097 -2001.4386021259172 -108.12199119823472 -10.686122634121247
-30.590019148974207 -1.6203329360305219 24.583401568886593 -2005.885037301036 -122.7049580932693 -31.675694623085246
-49.08715592520713 -11.08959249749278 21.625128699747314 -2010.5922600439737 -132.75911513950612 -82.48427365993864
-136.29737190395474 30.036736519629667 24.84416052394534 -1996.73766845734 -158.56611720639063 -191.2512455148865
-116.16407740886937 227.16633391255917 110.41420065775978 -2060.6265503200216 -268.6966743795672 -424.7482341454283
266.97464008439215 -532.3918071077327 27.770815456527053 -2016.8783651201543 -415.33950370006795 -934.9388483432507
-754.3459071635784 -4537.617890322391 -1423.229524342468 2.625872969532181 -16.59111397616842 -1771.7958899240964
277.1570003223158 -531.7338926371457 34.82177625279071 2022.025467569717 380.54121253543883 -934.383523575155
-95.39769583662121 228.45446303165954 124.01551465621799 2065.336933622726 229.1666972227042 -423.2446999155104
-104.15500853762748 31.919357176082052 43.77202830978372 2000.2729903661132 111.59404413465217 -187.83667904833385
-4.24593962383436 -8.646671336025548 43.48903165897873 2011.4165894943542 76.4957924277813 -75.24350014456189
29.488075110034405 1.2637488815287679 45.200605568759286 2001.135075589739 56.77339629174122 -16.960500855156386
40.134807744913545 -8.444313782075549 41.05466272790562 1986.261830911005 34.10996439438654 17.436879543561172
-50.71188413366205 43.286434419036766 38.35550529229537 1967.676579601215 3.1577871099329933 38.43329258825979
-155.26603039879691 414.9716575696725 180.81503414510456 2050.869937520812 -2.7471611766870345 31.77576957859843
165.72255868429173 4.958628808489522 393.4211779894372 2157.157910512315 86.99043946521826 -150.22477897405963
-1535.9528569676056 -5700.152510984756 -1336.2789575151978 1628.1707421431884 126.14606779967444 -990.379825786581
-1391.678244830522 -3004.7500973115716 -276.6969315250837 -1270.4393041181186 -162.58047241844685 -702.7821056623802
-1349.8123586728832 -419.31100625675174 287.50905743251775 -1888.055075253024 -262.49640972155095 -203.74175682162127
-2799.5716295032607 263.6973196337916 36.71712426886 -1951.7818483104215 -370.9672450159543 -52.34306904136134
-4270.236708975696 21.324266047155174 -329.91230529593867 -1774.3022717007461 -396.436017870743 -6.413484497793047
-5635.905939388145 -62.255566884764015 -560.3920681986135 -1737.5834212575232 -368.99032892755014 2.3151642368052805
-7025.0767837136245 -76.17729117614515 -767.3497178309891 -1746.695334460279 -298.2786092339674 -11.533898515267957
-8384.595514924005 -79.21376384524154 -972.7547585521903 -1750.8684869875433 -205.5198716869928 -53.854159136337145
-9824.375956485364 -135.67090696066984 -1245.0837400108687 -1735.2257453413185 -114.56251151083522 -131.44287295360476
-11149.572036762613 167.94006576729674 -1432.4697359161098 -1706.1145652149394 -143.06889067296893 -297.06274943557105
-11272.795595770036 -92.82029743908828 -1514.0920046970314 -2156.9871045596033 -442.04351346299467 -683.3503768420285
-13887.529548265851 -7863.002683778525 -4573.814711862659 2.472619070267081 -23.699805328012324 -1853.1412812854496
-11261.990894251087 -92.01036741711708 -1503.9563418628802 2161.8541651389196 392.73137136423236 -683.0410700979348
-11127.875843442022 169.53838125062614 -1412.6271914063166 1710.6386588698495 88.21861689754385 -296.1016726277113
-9791.801229366389 -133.32209848166025 -1216.6701323213972 1738.7839524850067 51.251228759418574 -128.99425099992564
-8341.587064573876 -76.17298410749108 -938.1870956826755 1752.1195586428728 132.34714737422053 -48.226521582098805
-6972.285774484542 -72.45138542132702 -731.0124769508548 1742.9837655135232 216.65881846753422 0.4955641942017497
-5574.506486202566 -59.15842142584863 -530.309675198288 1724.1378412462814 284.60995838696795 26.6410769663306
-4207.531366769056 23.657484048199084 -319.53675735695555 1743.3008304775306 321.2205493800635 39.0752932108623
-2750.1312523249403 287.57074126608126 18.23116807331408 1903.8357945658079 326.15931181016515 14.285500246474891
-1308.709458373107 -343.8455523225724 252.28725774985816 1857.3104360530228 264.1455701105407 -169.6341660371248
-1412.5319747594442 -3052.8699516616934 -374.33926148972705 1258.9594792499004 187.11596254891106 -820.6979064150757
-1489.3259613528217 -1332.39550934789 362.5866112512058 -664.3768944996373 -291.36179551506706 -456.2001826823806
-2545.9668942091016 -433.24877958817865 277.4633431431659 -1055.5777184737833 -485.6794941378344 -138.6611258704414
-5285.143228569245 113.23924830944145 -166.1488770090268 -1125.940594060418 -717.2159394250665 -47.794498729497356
-8337.666413817677 11.612016512109635 -722.6088931746028 -1009.4592016697777 -744.3402047520434 -7.559509513023407
-11222.741801619357 -62.39448208472758 -1174.0220929531545 -976.4895070981715 -656.787662913051 3.4932165903632555
-14013.848468438593 -87.57220235234713 -1590.2842433100777 -984.2912589016786 -491.5405834410898 1.9651734283341424
-16759.094657393 -108.15870306685376 -2026.0927328822386 -993.4355709535196 -277.61372236295244 -12.36774701448613
-19316.98966126449 -63.05108829899696 -2450.7499555175746 -974.9930519650783 -59.672058984112724 -50.07500636486282
-22319.233531782844 -362.0530857825153 -3223.514269520101 -1005.7636508799901 133.64977424413098 -78.53980459859405
-22691.0360578553 1622.7029745109735 -2772.9130223567713 -1362.328973923324 -278.95142774416723 -255.38637170464142
-28141.18809666708 -12121.122470661983 -8620.552642322482 1.7148057702995123 -31.48039984719976 -1364.1464259643762
-22679.521439784472 1623.6286708074583 -2759.6659325379155 1365.728015191121 213.7044596109704 -255.68745443575048
-22296.388003054406 -360.2177467704794 -3197.369563310621 1009.0057356710836 -205.48125524350274 -78.95509048132946
-19283.52813548957 -60.35043110964027 -2412.744920202716 977.7361430235532 -22.07599175998685 -50.1340214748805
-16716.949371093393 -104.65450037634048 -1978.6414720328203 994.8945374183772 184.74834917378018 -11.096988853309492
-13967.290817894958 -83.55991538057503 -1538.3516318066859 982.8715852900566 390.47788139283665 6.524485642755602
-11180.225203124704 -58.71451945152193 -1126.8147728407303 969.0422092816701 557.4008390699117 15.247725256276597
-8311.463022570246 16.968168851805206 -693.3559851887737 991.9351579751952 665.7736689277135 17.212802504785028
-5279.73782765838 133.0100652305475 -164.78676891592283 1102.3351654715325 683.2328422207886 -11.424259933513232
-2546.822763518881 -397.35347666509983 250.29192128254238 1045.146191538151 496.46195391648655 -120.86972952723788
-1518.7362228419836 -1362.640749687018 286.8540677926894 661.9702393781422 319.16100042941434 -523.6832547278029
-1598.7643787654524 -730.5914663174998 768.2878428178889 -254.46808531522584 -557.0322672021799 -295.6610915181213
-3508.428829194333 -514.7478034362504 317.1345059440489 -413.0801262170149 -836.5863891846551 -96.39732585522455
-7978.891985653872 -494.3525373100893 -614.9843622730239 -405.67735181711714 -1164.254604111717 -51.87978511644059
-12904.415800926075 -948.9185134217311 -1626.08892163857 -367.84685451892096 -1173.8650513654582 -21.4914359757323
-17409.123548275013 -1353.4725515095545 -2456.776916282023 -359.6541568725289 -1009.2724937107843 -10.693363633776002
-21729.317934577222 -1701.9148847302563 -3236.773057065418 -368.0255058028197 -726.626920140615 -3.467707031587981
-26004.398797242262 -2076.0886674298554 -4066.7197027716443 -372.71356059516074 -365.5714620518744 1.9732765686654297
-30026.81734505688 -2267.486324651539 -4863.686286989822 -389.611796947368 33.75117057402194 0.9930419204072773
-33631.41867019926 -3032.569222556432 -5867.906056710686 -401.11025896675096 444.8612816317491 7.259464657384057
-35980.8580397318 -146.9226073148452 -5813.410672303687 -972.3211930263202 663.6627607301912 157.2385621148664
-46486.142369909554 -19038.307422503232 -15461.566965197177 0.8231866819095686 -40.50228608529979 -1450.5050876552934
-35968.219365634206 -145.1682248588296 -5796.740512195387 973.969674458673 -747.4623208947633 156.67379826994306
-33606.50388750422 -3029.083767449768 -5834.840972311297 402.7393380122323 -536.7162390986888 6.226959192596205
-29990.807699547444 -2262.351896130914 -4815.18017394815 391.10712233991717 -137.7503189430194 -0.26215632757699225
-25960.29464800983 -2069.544509307626 -4005.278669898957 373.77363249748794 247.94818533505233 0.9992788889388251
-21684.223959378178 -1694.8466683531442 -3168.1404236161466 368.01056586075083 599.1026809065321 -3.1311802557602135
-17378.325595313796 -1347.9383078729536 -2392.4293458064353 357.2117670682556 885.1590535380077 -6.969023978231469
-12910.22197237002 -945.8195956382566 -1583.2953714766559 361.1687320383023 1080.4555520572635 -11.215911788971393
-8025.19221233556 -486.90297449133493 -606.659049293545 395.92957992554 1136.448607419234 -36.22672852662334
-3557.036135941397 -503.1922573253031 293.9496175991423 408.1927673424052 871.739132663739 -89.4494394499148
-1649.8871789344266 -753.2395781512391 710.7176542603755 250.4799466679271 614.8885199093476 -336.4885610662104
2791.7481449944767 -10236.254139359524 -2233.3517983095135 -131.66402979901878 482.9748650886915 41.90999250771016
8882.092474433552 3646.4359354028265 3061.047055500853 -905.9344681639985 658.4735547640518 -50.24888526977798
9202.251232274264 450.1353630068256 1563.5036622352234 -358.4574607271335 619.7189054910984 48.538168037016554
12806.394931736468 976.8413391897514 2212.867308545962 -409.60663339823066 518.037997054514 56.0079993362641
16858.91138464988 1170.0711908682156 3031.353522087793 -429.2184291665752 333.1157777407175 77.28967738545683
21016.573158999778 1496.1881054061123 4056.9346644777515 -450.6768291887606 101.52468243834163 99.30074723989046
25215.78191000438 1822.40747316421 5252.616851200877 -479.6222352241612 -160.2303644879336 119.91901225475908
29697.522025411625 2222.586661883329 6727.830300544228 -534.710775318963 -410.2885458861561 129.19419125185016
34770.532953731126 2669.9261082639437 8560.137062811567 -600.3123530771245 -550.0625668002693 108.83708138123028
39771.44945422919 2816.1295464185937 10370.893095475607 -504.28858095748114 -426.9447729643838 47.136179218112744
41925.137650611476 2435.24814702029 11056.959796529198 1.1667574645469188 0.5514497111638755 -5.175974445128718
39759.19527651093 2814.757635886433 10365.220344180116 506.69333076941166 427.41342468025414 46.46696389618841
34743.88091884199 2667.0334504239945 8546.959951400835 602.9375539425463 548.5585439768313 107.50664517457112
29651.794444823525 2217.8491009966206 6703.123165340177 537.7411384533071 405.16601234224186 127.27004715285629
25142.753416867574 1815.18137892647 5209.341977971956 483.2603596274676 148.92330957406827 117.60030137923238
20903.465638817815 1485.8271710946726 3984.438299935539 455.33419930713336 -123.64647527292175 97.29852589550752
16684.3692772272 1154.6275906008345 2912.6032686657863 434.6460513875953 -374.8759516959011 76.12044542800277
12542.92338278538 956.0678048832825 2028.917588531252 419.5523884232829 -589.4740162625486 60.829608913855466
8721.915827699182 395.74947655096173 1238.561694722403 372.65467640433366 -729.9529194824019 44.591073895494524
7671.338010460063 3406.140877199214 2435.9399313618733 885.3168196834438 -664.4603054637995 35.89064177258752
739.4742713151327 -10807.826814210062 -3799.3514374914485 1137.0933074562527 -587.3548848397133 -350.79133692122826
-1350.0431076068442 -10466.647295909132 -3647.8152637116664 -224.5881579798484 255.70609874505874 -125.16887978598908
4390.213227735414 1904.9639607198542 1568.754209875212 -1028.1403448240949 309.978635742273 -105.29861645850787
5515.113369715003 -137.16220944374214 781.6659042073366 -927.1096432083766 388.0299421191761 11.649131829829374
8415.22486031789 26.063255294474416 1280.8763824959333 -1021.8118908291243 324.4176266528244 29.43576196301315
10962.65929539629 -63.58525550743934 1692.7471410043245 -1080.1192685500278 205.50474289174247 43.003141454584124
13630.980497692659 -82.26013507786809 2270.0402704674184 -1118.5497319020355 54.942054805891594 49.70171203181129
16330.093377108236 -92.45204169192402 2970.1956814024484 -1181.3182100925076 -109.42021260938577 43.326758999516564
19183.41165703913 -53.776650826721166 3846.644606102532 -1311.2399702420828 -261.17303884424626 7.796894978645017
22288.509564358676 -72.198074830656 4886.912339554833 -1500.6950063566826 -343.75734164644666 -82.60871832445866
25069.38847533453 -714.1017337694218 5705.306535725813 -1315.1540060804564 -268.0964719695346 -233.85347415772782
25928.243908190507 -2013.679874804616 5686.047221038651 2.2629368624697523 -4.951156669980206 -341.8066378012283
25056.853434184148 -714.5979024595339 5705.484043958298 1319.887061734543 257.25693214404885 -234.01237334172205
22261.611600080065 -73.21162873131512 4885.821236307502 1506.0849132123576 330.0683764175868 -82.76137917709022
19138.259852715117 -55.35719221284772 3841.031583444514 1317.8560185924798 242.5397731761154 8.077833940116166
16260.251960039832 -94.65243761155098 2954.3373645869056 1189.9443892471497 83.2234057876572 44.94839774697062
13526.246886043187 -85.09118957457217 2234.515703360019 1130.299501977124 -92.6929340538916 54.42490425255697
10808.685419967314 -66.37880863892792 1624.0717338727645 1096.2552854900027 -260.773685315373 53.63595607463666
8177.6980950370535 16.76304278461051 1151.2783153042326 1046.865275445222 -406.0579023035058 50.77123977028274
5129.142278781317 -147.4148736425634 559.3049111646046 975.4764190267572 -482.6192083961205 44.874668284753106
3984.055799646457 1833.654906072597 1218.837948533047 1117.6681958735226 -346.97185680455806 -13.01123574082343
-1628.8920540948247 -10323.10338056886 -4175.041415576199 844.586574105099 -226.8953365900125 -453.76078857335943
-1526.499218106341 -7507.6541770474105 -2525.1520774578316 -1455.5867240844796 89.7112512503429 -431.5366717859689
1994.6780964940945 950.6985386912481 898.0524617224802 -1789.5544941476694 112.86145432969053 -159.15628186478096
2576.8290225412798 230.74643781819847 520.427961025539 -1668.1701549796646 157.90203201704904 -40.5601202758362
4193.126975395874 -46.76775809508428 648.50763569561 -1802.5297747465497 130.353549046054 -0.5807317248943891
5582.8206455446825 -42.97963823787671 876.5362011361013 -1872.4117260560436 63.41625536220893 4.946423059080418
6883.175931692814 -65.95283522703689 1145.0495558179618 -1938.8168824296977 -15.929393181169491 -7.238910848734539
8188.954076267383 -76.5765337435651 1489.4407655935242 -2038.539502111439 -98.20135160695888 -47.183797152727074
9516.580980977162 0.21112502221716944 1933.1033131668494 -2232.6277523929534 -174.81520412773273 -136.1982846570367
11043.754616217364 106.40441344996424 2506.7645175371836 -2569.8022755591214 -227.28214714758283 -306.18531773749805
12576.308527947647 -886.4279351534806 2809.872189393097 -2384.501394797222 -195.17612506096 -561.364886025428
12452.622093688922 -3813.2443440225366 2019.3772296735203 3.651372182677441 -10.353493202808611 -745.8132253276148
12563.28605217568 -887.0876967099675 2815.4496379986035 2392.1492512413756 173.2897033485178 -561.0287723795473
11016.198348897902 105.083229387386 2516.7951451319964 2578.5475113616735 201.876002202859 -305.16895555018124
9471.432597871059 -1.7690500546836176 1944.990526416467 2243.4297817838496 143.58784701877005 -133.65707998803632
8121.375039185153 -79.23092673551359 1498.3346218381162 2052.764488695411 58.81178590178303 -41.40971263054706
6786.226280785624 -68.88707930754687 1142.850687917043 1958.4325221479896 -34.24337331536284 4.841795464458107
5445.651034317737 -46.12568099086841 849.6369762636099 1900.258886415724 -127.8687671218568 28.570394001242626
3994.2868597254164 -50.707144494864465 574.4168037413503 1845.076891701557 -211.40521078955808 40.36451797683316
2358.8294767644666 237.03634958628558 391.7633361022325 1744.9629105743056 -238.9118810007753 32.85231992765445
1772.4336499946758 772.5483697376324 606.160635527355 1923.3872086131778 -135.9085602702306 -96.2704153271237
-1604.8115122070674 -7396.992661239816 -2883.0036742167517 1592.6067132410674 -61.235135870955 -667.4815942895818
-1370.0880687414206 -4766.51955527799 -1267.9036536801318 -1568.2478598428238 -10.681600023298735 -553.3242886096666
213.73745477968293 217.2883890366483 511.1861332125202 -2097.7824739757916 -34.333898622042454 -186.9380245432347
-70.33283489663418 357.2389116068044 272.7235726017464 -2081.1958627670588 -49.151477777923375 -55.967728842632205
77.98306221319129 13.413005575070542 89.86767778990249 -2073.5000864472827 -63.08097072177072 -10.850088378810042
165.351736132486 -16.43778267031349 53.25322565720476 -2134.9768199905366 -82.72710390846557 -3.351810095642188
132.32679496036963 -4.489958787319412 39.982850095490726 -2210.4478925675617 -97.25502353253681 -21.312881906953592
47.92083871834924 -15.901974559750597 35.46837031713173 -2325.1913820874456 -105.0528501166602 -71.46961950463971
-143.87254177397068 73.82183637583833 50.86840918149839 -2490.7726009322128 -115.20952095082372 -174.22817952553328
-116.91119375356998 407.58622280644397 224.78394417734344 -2855.2234634189695 -144.3732411761229 -361.56350804997123
503.3097273806168 -825.9196580526799 159.82649716311886 -2982.051527161931 -153.3162536721757 -652.3881897310011
-893.4721319281311 -6685.000742681095 -1847.6910449555755 4.137924794122276 -15.740321012122344 -890.0851146124143
489.8618310241299 -826.7831551915806 170.82108402601702 2990.719435927524 120.43701398100546 -651.9015814569206
-144.98501611389963 405.8742900107927 245.97025392160197 2865.1367908833417 107.38773614924641 -360.1886859562109
-188.7948946680308 71.29420221084423 80.27382474682535 2503.0154606546057 71.69978623809233 -170.98523314353747
-16.90167017302437 -19.146684031702126 69.17009146589321 2341.3190456969874 53.14518614161689 -64.4157560971664
43.920685866894146 -8.015541567639666 70.85549223389441 2232.8434149928617 35.855875452883325 -6.837967156647348
47.31446660350317 -19.549191090298375 68.51093708063573 2167.453643964291 11.745806720903257 24.379608923827707
-64.27304373797713 16.890960304476053 74.66327662960002 2122.9401229268424 -14.173301076751212 39.09736018765021
-201.138665934446 334.15532733705845 198.7578838278224 2159.293840135348 -14.791332119384384 22.144832383503925
93.28475526772783 77.34150083107869 302.98509723218876 2162.943620122165 20.855113402057484 -141.1463470765246
-1380.4288441115302 -4645.896292565754 -1519.5129345912037 1595.7624081634099 33.12625063782757 -706.7600032225755
-1297.6282508014149 -2526.899556343616 -173.87211943354598 -1251.238052591678 -95.19912013264461 -519.9676189058338
-1239.7895672997486 -157.25237485312462 345.0842968384952 -1837.7229983371883 -169.95873985422557 -159.63502265713754
-2591.4571240080522 297.34916974507684 4.431790531118486 -1938.5903759199384 -249.0424661330939 -47.70873034051213
-3936.093391291833 64.29400836006452 -444.09790093322886 -1844.4158953395852 -254.95258588898838 -5.435879451652647
-5245.926993581509 30.400033226618113 -764.5645262280196 -1867.8645911539024 -229.7663909433005 5.173558508068975
-6638.251796916752 49.69188512155296 -1074.6614666740502 -1938.8347111046612 -179.62026801193733 -7.34353676322598
-8056.798243693599 80.18452869219436 -1397.486172928637 -2035.085143759475 -113.29173097706837 -47.75027928591543
-9704.963918017105 61.77903636922998 -1827.6872201257381 -2160.6871079234393 -52.77301886864038 -130.64621832862917
-11309.217397536997 583.5142962377992 -2109.898825872691 -2334.5105014514484 -46.11690573629085 -281.08679992166407
-11348.548437320558 70.21641714875662 -2210.096006348606 -3097.394891454619 -96.61470113961127 -547.7936090406206
-14882.276778390416 -10836.846264882217 -6311.753491423492 3.6637795468818526 -21.233044040565193 -822.2452287582288
-11362.508993143056 69.14458682324354 -2193.6066999437307 3105.068183662272 52.51678535652385 -547.5008055014824
-11338.004486133954 581.3952930605435 -2077.3934961007694 2343.2801948085607 -2.7183688459378548 -280.1592981031417
-9750.00344662689 58.684348428476135 -1780.4868775742568 2171.5004178665154 -3.3669741177299914 -128.2509332622967
-8119.35383801262 76.31618647803798 -1338.5449013545156 2049.302077194207 48.38347498970677 -42.215440896049365
-6718.7487731736055 45.45572838558277 -1010.0690980604553 1958.6791609003353 106.41369595016579 4.4546408097087
-5341.540903346226 28.209837599856463 -704.7969627094589 1897.11213125742 151.74533383023842 28.794650523393102
-4032.1802453262835 64.69651964060017 -405.6484174089533 1889.0749828789785 181.28981458711573 38.315877871347865
-2665.26884750777 270.7082324190011 -13.34466563793016 1992.763282481537 199.23336188804973 15.735641715296774
-1297.6370662676495 -238.57614312737547 217.7099813235121 1861.7332155571482 163.15361221081082 -125.77899022660189
-1296.3038941771472 -2443.0516957410855 -363.3545388531032 1243.1975419255368 113.44417879643846 -619.130715570239
-1439.7185534674825 -1124.696798133282 571.5605032411294 -676.0748531167519 -201.87648055528885 -314.4731332968126
-2478.7138612799026 -285.5127190004982 308.04829722038295 -1051.516122657735 -325.19211340393264 -69.44551935703254
-5059.0644873269675 166.32988968027956 -275.6255971764767 -1143.3355776016272 -458.25743151508294 -9.341238656536321
-7905.210691616348 79.40217003122427 -982.4231912341577 -1072.3084474396842 -447.95856814685544 24.69695121247767
-10654.629968846943 56.215452311487546 -1595.6699040629082 -1075.149231223704 -373.8375969992239 42.45374824966517
-13402.375231942204 75.70848171494238 -2206.2024046331285 -1118.3002706948816 -253.66288711884562 49.44979756795875
-16205.487962239815 96.15908183225037 -2881.7023049139575 -1178.4428954461207 -105.28707797069809 42.96115522302003
-18947.211154401466 209.34848154586024 -3586.8801748237865 -1229.974972766972 35.963993485188915 13.578025305192652
-22622.15530344774 -116.89739909020415 -4782.403375835958 -1367.4392040583164 110.6825140686371 -49.19371552337724
-23131.536992574933 2496.8484984733636 -4214.628611197269 -1857.6337852385846 30.366287254752585 -217.99291857090913
-30504.201167646752 -16178.869184598074 -11784.389674713006 2.2891999193440027 -26.951959892527647 -528.7129834394414
-23146.24669751581 2495.601592993833 -4192.510230851532 1862.4217993864493 -86.18655217223736 -218.24408707266537
-22652.174096588693 -119.36082786362375 -4738.284033561135 1372.8889808583638 -172.0385662268504 -49.53162794353676
-18993.266052918247 205.77661147113025 -3521.3696971652857 1236.6470993229768 -105.73773582310767 13.569528242290303
-16267.34089934609 91.73651187118172 -2796.7258851799074 1187.1380429310607 25.78968257625908 44.14837131717066
-13476.590768774737 71.27346104914453 -2106.2423545665574 1130.3140824405698 166.1120389816668 53.55772400415845
-10730.420981494983 53.702231121643806 -1489.532183393663 1092.9219838633044 285.120874311103 52.89257591650621
-7962.885555860897 77.03913963671384 -888.1873098320716 1098.2934509383783 373.10002368197706 46.6543479631144
-5085.9577849866855 147.32392195490425 -231.13092467536492 1169.8247508218724 418.8408698137646 23.067131913698663
-2490.212038051983 -322.6342316961867 254.78298357256512 1057.3464369173184 327.5057708508641 -52.293965670053076
-1436.7997692817717 -1086.3996890492235 429.31019285843865 664.1046923288403 223.66377768126162 -369.9046812022829
-1608.4688373061329 -653.5810676158545 944.3082838978471 -263.53935882078724 -388.9723112077304 -161.40705114292965
-3476.8212220507803 -435.2084586937016 312.88384927022963 -420.9724553555485 -535.9966318273741 -7.359140321142798
-7703.844406241998 -433.464752752376 -753.251795218199 -436.271519370482 -685.0057423973857 19.5908935413955
-12310.653353805326 -850.2375280027192 -1932.5278245589448 -420.1428968185516 -639.8151343257931 48.06512398723089
-16589.103304878834 -1195.8224733836444 -2962.4536077251964 -426.0284797238391 -505.5290978315402 72.38341609329335
-20807.510908948803 -1497.1709039296882 -4005.187390534321 -448.65510822664976 -304.2080864071583 96.29475266539814
-25122.425397431252 -1849.6839918190915 -5186.787079862525 -471.17156458148054 -59.35716118542243 117.69585658348508
-29334.003919984505 -1971.137936937178 -6397.354070195535 -521.2068706795371 182.44754912047375 133.53548030689717
-33511.92981208364 -2914.6000551185216 -7996.800825875687 -551.3460768795933 339.2643146552562 126.23981725050503
-37132.051319227074 816.4742167982467 -8193.610801140938 -1214.2963638256117 324.0077400320274 78.10695354630712
-51457.0098342712 -24470.78367290004 -20180.675298400784 1.1905710522157094 -32.979652559489836 -370.41607343111485
-37147.47461963236 816.0837724903367 -8165.273672523631 1216.8003287698539 -392.25353597940364 77.56208702829551
-33543.12439262152 -2915.2284879138642 -7939.793144539856 554.2326288675195 -414.1287907943829 125.19262134404607
-29381.0758226093 -1971.636473360095 -6311.384883931234 524.7885749023842 -267.4132057763618 132.10925573905538
-25183.803108362383 -1849.2989456520036 -5072.404965990056 475.8603486284079 -37.32634628295266 116.18287393653901
-20876.371754779444 -1494.073819969692 -3864.781792361787 455.03468473678464 197.8987601633252 95.37280945485077
-16646.532319242444 -1186.4350627003166 -2801.7071359852134 435.09498236655946 398.88502294202215 73.58847256934347
-12325.254136027326 -833.1187415339139 -1766.6108543750195 432.7470708359156 554.1171669783583 54.036048985274725
-7664.833167755311 -419.62658124956255 -623.3698643765343 449.3976653321705 651.4150855051129 29.977640380592767
-3427.8030785780347 -429.94432157034373 342.04868944833447 425.8883477597872 559.8262778895051 -2.4227609558738328
-1577.6869778342323 -618.5474101524702 857.5676868022874 259.89390053041984 437.3997344114891 -194.60361498907167
3524.782848962196 -9544.183862592554 -1805.8203040891065 299.6983588011405 -5.158129923188426e-09 -2.52481235918367e-09
9119.075703756742 3566.32440898309 3202.867402184778 -888.8589806339158 -2.6292195087762593e-09 8.189715572370915e-11
9238.9339217414 472.6923726358088 1782.3905583091027 -345.5235793569867 -1.0151963714122303e-09 -2.2044499559115138e-10
12726.001811789665 969.9533948717981 2476.769173736869 -410.87213600184043 1.411555317076818e-10 2.2645618713568183e-10
16731.51323934062 1175.8565871161934 3385.216074200678 -439.3246968363992 4.1665981775906857e-10 5.375504485982674e-10
20885.881718274737 1517.9030393575476 4554.110256018082 -472.2630313975589 -2.4543400645171687e-10 -3.8395064905216714e-10
25151.889868668186 1871.1148140700177 5949.020680852679 -514.3605629201198 -1.0330385435963763e-09 6.703970711896545e-11
29832.126789399983 2316.1251900692546 7681.764038624271 -582.8952968274075 -6.143867636865252e-10 1.326402987444908e-09
35265.97285781046 2827.7162997709825 9805.409667131402 -655.4501587172502 5.367559730018456e-10 5.219824572577636e-10
40687.09173505157 3037.6774970282077 11860.7672653615 -547.6256554209065 1.1543328515273288e-09 1.929389981114582e-11
43028.992254245604 2666.964284287055 12627.450091161445 1.445230985529669 1.5040491074813644e-09 9.275602508296288e-11
40666.32664527137 3035.9478987006887 11853.681474873285 550.6496230147944 2.7551592118868484e-09 -5.065867725306816e-10
35221.028256700934 2824.072701572401 9788.756778474266 658.9011420063154 5.281496573417144e-09 8.596234835067662e-10
29755.247735431956 2310.1189928666504 7650.0368585580445 587.1622382047062 5.9490909976034345e-09 1.190647580529003e-10
25028.72435157555 1861.6805984698974 5892.534428888319 519.9520257285143 5.166434308145895e-09 -2.0596857552845904e-12
20692.671232761728 1503.8714257573242 4458.19658370077 479.96452785251694 1.6348995490744755e-09 -1.1249579046079816e-10
16429.799318670997 1153.5226257691786 3228.0083441786733 449.6383040915459 -2.8215811909149124e-09 9.907985543122777e-11
12262.557743028818 940.9112601558328 2233.1023035263497 427.50910520620084 -4.3751571254802e-09 2.0002177691935685e-10
8479.718857274322 400.69650717462514 1377.271809478266 376.36643718907186 -5.767553545865667e-09 3.601368092631674e-10
7368.8971423078565 3265.910898025507 2324.1579806536615 848.1909092888611 -5.151507664891142e-09 -4.1380232573828835e-11
625.5566467816828 -10442.340830183626 -3828.9146519390342 1079.711251103004 -4.649084672792014e-09 -2.3365132051367254e-09
-1160.3090882595036 -10120.20023097121 -3405.945991874632 23.530133543922027 -1.583934094995243e-09 -1.5261849561909457e-09
4442.321000551931 1823.7134855018535 1570.4870669435234 -976.4910988454961 -1.4708696483012318e-09 -6.129277085875628e-10
5617.934294178256 -117.62010308521663 936.3685038047747 -904.2444149622315 -1.1074663408550123e-09 -6.385789674823172e-10
8396.529180856982 29.64521555557485 1449.4382883210476 -1025.8957858736862 -4.926675734040487e-10 6.5921490488563e-11
10906.991434876865 -53.33213012677378 1914.7678302889096 -1102.322617770324 -1.661964177390729e-10 2.944098298485187e-10
13570.471798737315 -62.638964412813365 2577.199219427767 -1163.36100754092 -2.921718422754793e-10 -1.4160894679093872e-10
16311.53240095532 -60.938764936295655 3397.3241216662627 -1255.2476231407193 -6.559084386736913e-10 -5.219069620920891e-10
19282.35853751007 -6.949603671121546 4423.729260944832 -1419.0044489860072 -5.118344637011774e-10 5.755023124720537e-10
22589.5246868865 -9.511594224664858 5625.211544680214 -1630.6306336043879 -3.7529046537088107e-10 -8.731131373451717e-10
25595.8758824996 -642.4000167916406 6567.629623373084 -1421.8565691653753 3.393995084977064e-10 -9.3821928004445e-10
26537.24502086826 -1980.2793334358335 6564.879548979605 2.7974757168493234 1.2172880481386983e-09 -5.968798788558161e-10
25574.29725055498 -643.186521358987 6567.662376891214 1427.8055391108999 1.308052444137786e-09 -1.4786278867973124e-09
22543.448827016156 -11.086453414243945 5623.394171645917 1637.7293311050835 2.6607118730481716e-09 -5.662226243430268e-10
19205.355393205875 -9.35208469458027 4415.818165192882 1428.331326261992 3.705528994757401e-09 1.1362777385670597e-10
16192.295524319488 -64.2682562761148 3375.8137200505134 1268.3863230959475 2.6321411439322873e-09 2.6694824128981054e-10
13390.405787400116 -66.92174288650061 2530.058873928311 1182.5025977646078 1.073137190221729e-09 2.2884019124091992e-09
10637.492516002894 -58.06758163087981 1824.6282030759 1130.3686950348554 -1.0260351457347383e-09 9.358545050019984e-10
7988.337003924921 19.429939102617126 1286.4500119249362 1069.0215052255035 -2.631954210130516e-09 1.0008516238002585e-09
5005.59737126934 -126.93889391584757 662.6440204388507 987.6439948952266 -3.3700224832955428e-09 5.449878326402313e-10
3833.021013583715 1750.288096477827 1125.389221125859 1084.4165305485756 -2.539168014736859e-09 -2.2815216382809922e-10
-1629.1339007250415 -9976.557515558625 -4183.175326606001 800.1040403012589 -1.6004076952569335e-09 -3.443012985826499e-09
-1494.0885023988244 -7408.572204939387 -2461.789589585124 -1344.2641665847082 -5.806859437740286e-10 -1.7049650580247544e-10
2049.5116766947867 983.1799794890942 921.8683659502718 -1689.2325183598352 -6.541385211278339e-10 -1.0480158962877795e-09
2665.7625022542675 233.91038249257144 605.4242320528698 -1638.5594163545109 -1.0538905581558566e-09 -9.350360485882447e-10
4237.919723794381 -27.33135290304297 756.1150610661662 -1810.067261743385 -7.974763349682945e-10 -7.308780247683444e-10
5596.393335347019 -19.24245947764977 1002.5891627309691 -1911.9943267257254 -7.391902090425617e-10 1.9902834935692226e-10
6894.330352857055 -31.03953012176303 1313.2909639787397 -2013.5473493728907 -8.882032886958768e-10 2.2232704566249595e-10
8220.451985301252 -28.676807721992333 1718.9471979326847 -2160.1688569246026 -5.886319209835733e-10 -9.37217858876238e-10
9603.767592707482 66.73969271293635 2239.7792801018404 -2409.8280596957684 -1.0404284100928862e-09 -5.951941162152252e-10
11228.73693938709 195.2286801703785 2896.8061935788633 -2784.9776362431044 -1.137769656267551e-09 -2.044496127950879e-09
12892.872297550837 -776.0185079249688 3260.5389750344384 -2567.1737431496267 1.2270590099561218e-10 -1.3344632066036866e-09
12789.458346255231 -3787.693613007456 2419.566929217433 4.371154664573517 1.707148866714192e-10 -1.7427543852477356e-09
12870.393530938343 -777.0545662762996 3267.126463287811 2576.4978751904623 8.267631024239108e-11 -2.207206861726263e-09
11181.411979470986 193.15869475436372 2908.5654338640065 2796.19728362766 9.196866046501384e-10 -1.3247394292648096e-09
9526.616623924103 63.609197866761086 2253.4304922784145 2424.7520672287887 1.4459837216485028e-09 5.994129637088008e-10
8105.155155046865 -32.95460234514707 1728.4016054563026 2181.508936338122 1.3043268409784758e-09 6.264033736158581e-10
6727.710627164121 -36.19980018733829 1308.368765788163 2045.3212697238698 8.619093008754852e-10 3.9401699680752245e-09
5358.488222020078 -24.21436318685311 967.2938948002391 1959.609387550754 -3.162148320967617e-11 2.301420387595954e-09
3899.0709839561023 -32.84180699664279 665.5038493084259 1884.8224221885741 -9.41747402283255e-10 1.7091197346275067e-09
2306.906742407865 246.67458350269595 458.39662291171334 1764.3379990042401 -1.6270238489823896e-09 8.699039266701902e-10
1699.743763173062 727.1735181259315 542.8345458840042 1875.3678721785504 -8.377183252639142e-10 -7.795577516844787e-10
-1600.3088717145843 -7161.43789718153 -2930.2210196623405 1524.176687978845 -4.741197434654509e-10 -5.1454129845751595e-09
-1350.1943920181916 -4711.448526253381 -1244.194979456881 -1503.968175825058 -1.3571976875681457e-10 1.0959411156363785e-10
264.02195897969295 253.0851418252555 520.1974366365413 -2019.7811672116648 -3.3409564004216463e-10 -8.623866065704533e-10
16.576712613232846 361.59454984646595 306.9275087575874 -2044.0991871547658 -1.0165664976469202e-09 -1.1010365952301981e-09
150.4720314542682 8.482566187881472 116.55616540948718 -2082.6256721775508 -1.1161116475477684e-09 -6.87124135367867e-10
224.22412561592225 -19.156442910752645 66.1568786152767 -2181.290977893714 -1.1831757795732756e-09 1.740851907072738e-10
184.20307697555944 -5.993239286553622 46.8275473306858 -2296.79761665758 -1.3835280698870633e-09 4.567519695797273e-10
93.45374166978637 -14.335927973154009 43.307997192015385 -2463.352064239199 -1.094466683948525e-09 -7.154850045765215e-10
-107.13474416176186 82.67417374208036 62.752435898074175 -2688.4677230308503 -1.5161737143554177e-09 -1.3480985217029229e-09
-81.17222490458022 428.4007522162924 246.6258953979467 -3091.1811857910006 -1.5502341077500148e-09 -2.988087999256095e-09
600.1698541817289 -784.0377022974578 190.7210592264637 -3191.984196339536 -5.941585556890061e-10 -2.0467689765268915e-09
-838.3476923274033 -6802.639465041897 -1962.3640260465427 4.9033813527591565 -7.113958311322222e-10 -1.781784497723038e-09
576.9388131935295 -785.3397930910738 203.88179910747635 3202.4498521070577 -8.869113776732718e-10 -2.615616168100132e-09
-129.39640412178267 425.810499359273 271.9814910345216 3103.793322026236 -4.6123537628117717e-10 -2.565677448274073e-09
-183.76954011549407 78.80688571850061 97.93342698748211 2705.264495601024 -6.485359888008801e-10 6.461444712613229e-10
-16.67988923478751 -19.490156516099837 83.57559066711303 2487.4415980078684 -1.0847256426416152e-10 8.534573048279981e-10
33.592587278593655 -11.84914025952163 83.69941261074005 2332.963805739605 3.755732946864043e-10 4.324335112215749e-09
22.31593438536824 -24.29352361733727 84.89694436525814 2236.8370267356468 7.185899653094907e-10 2.7076128006342515e-09
-92.36892191630827 13.56909275976643 103.00544590764311 2168.4029502193976 2.8765045900769337e-10 2.3957202888169604e-09
-203.9029516695407 327.37398738224294 226.38727411895908 2171.486586624565 1.174712549456558e-10 9.192979710803684e-10
72.87496668000573 52.74479667792953 256.01239286729543 2115.7988793879886 3.433631434734963e-10 -1.116811976231702e-09
-1357.1560648753534 -4480.357230021798 -1562.08550318071 1540.5031860103747 4.813938137004925e-10 -5.405972558492067e-09
-1247.956577041243 -2476.640895288609 -139.81502643402175 -1218.829180316382 9.542167056508788e-11 8.929745831665059e-12
-1174.9630764149597 -123.06000531288278 337.78508343087026 -1782.310101584152 -3.251403590809332e-10 -5.670282021696949e-10
-2494.8343396346745 297.1577471024694 -8.733879366960563 -1902.5739966775577 -1.0333283118058034e-09 -1.0348482071265153e-09
-3836.7063052759895 40.73114521087076 -495.6853100270732 -1847.161519776293 -1.3285774702609388e-09 -4.2755443629971523e-10
-5145.46853009444 -1.408882364878187 -866.2640820966642 -1906.349435438628 -1.5077896708959315e-09 3.714584195790849e-11
-6545.903082801935 11.38938926719612 -1229.4402604778052 -2014.0461299405395 -2.0812231382727475e-09 3.491975597569308e-10
-7995.289153448168 36.30511241987938 -1610.8296331060913 -2156.252508431696 -1.8195014002408971e-09 -3.424185379685696e-10
-9714.854514617107 9.077003593706902 -2111.156127319945 -2333.5751083398413 -1.773032665131069e-09 -1.1781695619106358e-09
-11425.29449422787 531.0510030365986 -2457.3212518852292 -2532.544740872702 -1.73292855065732e-09 -3.2721665377266618e-09
-11465.017253295906 52.36220845207583 -2571.0410967839234 -3294.4814761642215 -1.426023896189399e-09 -1.97334948381922e-09
-15127.94338892858 -11138.656085640872 -6961.086882482758 4.403895047810905 -1.5051170865199026e-09 -1.8105925647660115e-09
-11489.116430662278 50.791563577050105 -2551.2069984802556 3303.874974909971 -1.6164032334842204e-09 -1.9394654771076603e-09
-11474.671786043584 527.9382499543217 -2418.157993454011 2543.840864199587 -2.035995594340534e-09 -2.4229134254483142e-09
-9791.442094235628 4.478909942039445 -2054.104533302323 2348.566129186547 -2.005213384226323e-09 6.70001831792888e-10
-8100.842297919242 30.389448035877372 -1539.1630065875145 2177.6666039316233 -1.6326898166774129e-09 9.778027276752255e-10
-6681.213532972493 4.647891566865172 -1149.9587026537743 2046.3524831153827 -1.2649037373080319e-10 4.211040405266431e-09
-5306.469911639704 -5.356842248136869 -790.1940414939477 1956.5613748652984 1.3209109361866922e-09 2.559575662530733e-09
-3999.370293417584 40.576791320143776 -440.2086816646219 1924.1070082142733 1.4824272920321846e-09 2.334473503395884e-09
-2619.498248628835 256.1956058248579 -19.14632594018717 1992.316413072689 1.7615537917237134e-09 8.555622876826874e-10
-1266.311023379924 -241.23072827446916 181.3184890139315 1819.114419070965 1.5245021356413702e-09 -8.920704175352512e-10
-1239.4907294458094 -2326.0709667640926 -378.36554700363496 1206.458752267657 1.2093415158176413e-09 -4.787850116372283e-09
-1344.3523229657017 -1055.5667784012328 613.6970426900585 -667.0110882497125 4.521694130232845e-11 -1.2049161668414854e-10
-2382.099461330719 -236.02863091112155 277.37535465081544 -1018.7275590471647 -2.952638133990604e-10 -3.207440979480225e-10
-4931.826142644632 178.25723376226856 -329.4092901481906 -1118.0798185913927 -1.0370992953312452e-09 -5.635867328379618e-10
-7759.240059689638 66.53791828900407 -1098.5294248104724 -1070.471165979553 -1.7041761335434558e-09 -4.1203263023703585e-10
-10489.709209099208 34.63642320735701 -1794.0572264019258 -1096.6587196750847 -2.220645001216326e-09 2.959796852053387e-10
-13239.25314523118 51.1327319914178 -2500.486216416148 -1163.4678965279968 -2.1516482484607025e-09 -2.547904109917454e-10
-16092.24013816083 68.00474909449235 -3293.8832772195397 -1252.1960952340428 -1.656962456131339e-09 3.5926817076870066e-12
-18953.537348275386 178.0041487356039 -4136.758182285409 -1332.7125764088682 -2.151959277441051e-09 1.428790419311099e-10
-22866.154812783338 -173.46355498698 -5492.2910430005495 -1481.4590307291496 -1.9143897578288716e-09 -1.551238248964637e-09
-23425.58862755521 2572.2856857513684 -4891.968209547261 -1971.7277730506662 -1.9359668868013102e-09 -4.2079761897184653e-10
-31101.842319691477 -16689.944447858194 -12962.218802210971 2.854656250890528 -2.1549855233615745e-09 -9.745773077440845e-10
-23450.93630049889 2570.4549905507347 -4865.279126610611 1977.7979042000375 -2.6202056080393277e-09 -5.872538011431061e-10
-22917.54362426694 -177.08911362622717 -5438.917531279946 1488.6948707834997 -3.6921763424402343e-09 -1.072236077703792e-09
-19031.616894427596 172.69621089009217 -4057.1094462092574 1342.1865995613484 -3.7035965405607385e-09 9.147633761585894e-10
-16195.937980405233 61.26748118111305 -3189.6466646636068 1265.5286096831064 -3.102040069258294e-09 8.166600728998219e-10
-13362.382168804454 43.965706028202064 -2375.8547123485173 1183.2815350560707 -9.712911586134965e-10 2.3245743108191164e-09
-10614.62121926005 29.466552934837104 -1657.4924057609364 1127.3295325455515 1.6228796084760688e-09 1.4595897823710402e-09
-7854.1363688620095 60.151551423955866 -969.8232162297392 1115.320482083593 2.9246147725814353e-09 1.0743113065814214e-09
-4975.442829295602 145.4212814809855 -258.4939306898481 1162.3948922581174 3.754339950035046e-09 4.237938888707049e-10
-2397.1726997435308 -292.8076995160736 219.30028421045523 1027.6991261193853 3.0337865553065058e-09 -3.4146374616739195e-10
-1331.928802346509 -986.5604845360316 432.6850289274442 649.4591820842335 2.126633091847907e-09 -3.065617093511719e-09
-1505.1854860746676 -596.2592367193159 902.7954399628907 -264.6795188152956 8.757083946875355e-11 -2.0018120494569303e-10
-3363.6261599827812 -388.55825818750446 212.77268863633842 -402.37336260190364 -1.8211387953215308e-10 -8.778755500316038e-11
-7544.295917467784 -419.27659804625426 -875.4935109630057 -421.9726632384539 -8.97808050126514e-10 -4.1590375587929884e-10
-12110.656700453566 -857.655154726607 -2139.0601787848373 -417.0266731297179 -2.311640656671443e-09 -4.107292284061259e-11
-16355.025505024167 -1213.9420817827713 -3291.7355081369 -434.8723243880184 -3.2209985789677376e-09 2.2098589624874876e-10
-20573.9652570248 -1524.5091256915468 -4489.016184822919 -469.43744313344524 -1.8593881989659167e-09 -8.303935317144351e-10
-24962.607899810348 -1895.854679215554 -5869.018311263393 -505.15838965672606 -1.279917061225433e-09 9.773444276106602e-10
-29374.681842553167 -2050.000356604337 -7330.458899737888 -565.9702402034311 -1.808357907862046e-09 2.7691271498042624e-10
-33921.46959777241 -3075.1288974434633 -9211.29439921553 -596.2735090023053 -1.8453585326483335e-09 7.87228060517009e-10
-37780.14426995815 791.9735799701925 -9426.59959534876 -1277.9327502967399 -2.968154166893555e-09 4.531806041541131e-10
-52536.288930821866 -25222.247602742365 -21759.627373832005 1.6493692516489915 -2.832315715295408e-09 -8.247909022429667e-10
-37806.89216342845 791.0631474497378 -9392.287166439497 1281.440914565659 -3.25440119297582e-09 4.348663651398965e-10
-33975.24748170805 -3076.732959478139 -9142.019738172687 600.4449968032069 -5.8219633558564965e-09 6.111164907451894e-10
-29455.07785838844 -2051.779814043241 -7225.274268286329 571.3795310440594 -6.725493939541138e-09 6.557741016877117e-10
-25066.1245489415 -1896.7296350267284 -5727.388148558803 512.5963864045148 -5.506728628645874e-09 8.642544457870827e-10
-20688.128679518864 -1521.7536464013974 -4311.432836964039 480.0208853520849 -2.392294362607572e-09 3.1943869771566824e-10
-16447.439473949697 -1202.1364121178985 -3080.7215459629265 450.2759967639257 2.1906636504809285e-09 4.3155168327757565e-10
-12129.122793399303 -834.5443316500513 -1908.4819580879418 438.2536132223117 4.973459866164376e-09 -6.52473630680106e-11
-7472.405503174524 -401.5883164560333 -680.5387718050672 443.39785700929326 6.482263614771e-09 1.2543210914373049e-10
-3275.840560597274 -381.8062584328976 271.59701908843164 410.012867777093 5.212713816149517e-09 7.627143361332855e-11
-1445.8230121228842 -536.930721510237 793.2348174799411 260.6830992106726 3.7100420513525023e-09 -1.886505174297781e-09
2791.748145025067 -10236.254139350285 -2233.3517982975645 -131.6640297832839 -482.9748650990864 -41.90999251313435
8882.09247445403 3646.435935403598 3061.047055506085 -905.9344681647513 -658.4735547686417 50.24888526956809
9202.251232286619 450.13536300720796 1563.5036622374957 -358.4574607278191 -619.718905492552 -48.538168037811026
12806.394931746727 976.8413391973093 2212.867308549532 -409.6066333970955 -518.0379970550082 -56.00799933650795
16858.911384647807 1170.0711908593394 3031.3535220827957 -429.2184291657374 -333.1157777404824 -77.28967738619384
21016.57315900394 1496.1881054122032 4056.9346644803654 -450.6768291885911 -101.52468243636581 -99.30074723955705
25215.781910010104 1822.4074731657167 5252.616851205546 -479.6222352246015 160.23036449294202 -119.91901225490443
29697.522025415834 2222.5866618770815 6727.830300549057 -534.7107753207357 410.2885458890846 -129.19419125264395
34770.53295374064 2669.9261082678713 8560.137062822312 -600.3123530773435 550.0625667985993 -108.83708138148178
39771.44945422566 2816.129546389548 10370.893095471352 -504.2885809578412 426.94477296406075 -47.13617921806573
41925.137650625395 2435.2481470246535 11056.959796540625 1.1667574633268742 -0.5514497079233012 5.1759744455002235
39759.19527652746 2814.75763589182 10365.2203441921 506.69333077053176 -427.4134246746999 -46.46696389690529
34743.88091883757 2667.033450388845 8546.959951394207 602.9375539456812 -548.5585439691027 -107.50664517359272
29651.794444823885 2217.8491009910704 6703.1231653396435 537.7411384566956 -405.1660123349419 -127.27004715350074
25142.753416852283 1815.1813789155574 5209.341977963051 483.26035962673706 -148.92330956934924 -117.60030137724627
20903.46563880252 1485.8271711142222 3984.43829993244 455.3341993067312 123.64647527436313 -97.29852589498775
16684.36927720885 1154.6275906001938 2912.603268658255 434.6460513866873 374.87595169323606 -76.1204454259086
12542.92338277609 956.0678048864048 2028.9175885285124 419.5523884222103 589.4740162546509 -60.82960891301697
8721.915827689134 395.7494765481458 1238.561694718379 372.6546764033633 729.952919471005 -44.5910738953343
7671.338010450375 3406.1408771966103 2435.9399313585886 885.31681968129 664.4603054536939 -35.89064177199003
739.4742713112515 -10807.826814196387 -3799.3514374875417 1137.093307457262 587.3548848304616 350.7913369154963
-1350.0431076014952 -10466.647295910454 -3647.815263710763 -224.58815797088852 -255.7060987482826 125.16887978253013
4390.213227741961 1904.963960717593 1568.7542098754632 -1028.1403448235376 -309.97863574529555 105.2986164574024
5515.113369725111 -137.1622094396132 781.6659042099257 -927.1096432078095 -388.02994212128675 -11.649131830580497
8415.224860323679 26.063255292777328 1280.8763824954037 -1021.8118908271161 -324.41762665388933 -29.43576196348333
10962.659295399188 -63.585255510099444 1692.7471410030287 -1080.1192685495992 -205.50474289222797 -43.00314145556679
13630.980497699657 -82.26013506731239 2270.040270472193 -1118.5497319030114 -54.94205480525795 -49.70171203191433
16330.09337711089 -92.45204169462988 2970.195681403302 -1181.318210094658 109.42021261126894 -43.32675899998731
19183.41165704199 -53.77665082943042 3846.6446061052175 -1311.2399702456673 261.1730388449808 -7.796894977916313
22288.509564364686 -72.19807482824162 4886.912339560935 -1500.6950063580364 343.7573416459945 82.60871832555628
25069.388475339278 -714.101733780677 5705.306535727525 -1315.1540060792645 268.0964719696927 233.85347415592608
25928.2439081986 -2013.6798748064405 5686.047221043272 2.2629368613011707 4.951156671742767 341.8066378003892
25056.85343419428 -714.5979024522069 5705.484043966809 1319.8870617337682 -257.2569321402535 234.01237334081404
22261.61160007585 -73.21162876279638 4885.821236300259 1506.0849132174492 -330.0683764133133 82.76137917718378
19138.259852715586 -55.35719221776129 3841.0315834446874 1317.8560185968738 -242.53977317196797 -8.077833939247098
16260.251960027315 -94.65243762460743 2954.3373645794563 1189.9443892524555 -83.22340578511847 -44.948397744984696
13526.24688603291 -85.09118957498187 2234.5157033557994 1130.2995019788768 92.69293405412964 -54.42490425105934
10808.68541995819 -66.37880863427549 1624.0717338706368 1096.255285485445 260.7736853136028 -53.635956071790716
8177.698095027909 16.763042783009624 1151.2783153004207 1046.8652754439013 406.0579022982095 -50.77123976857658
5129.142278776602 -147.41487364256236 559.3049111631062 975.4764190237563 482.61920838890256 -44.87466828372019
3984.055799642377 1833.6549060707353 1218.8379485314324 1117.6681958712222 346.9718567998164 13.011235740622777
-1628.8920540907914 -10323.103380552819 -4175.041415569434 844.5865741044086 226.89533658653525 453.7607885661963
-1526.4992181042862 -7507.654177050374 -2525.1520774585183 -1455.586724083319 -89.71125125135188 431.5366717854413
1994.67809649776 950.6985386930635 898.0524617232551 -1789.5544941467629 -112.86145433143676 159.15628186278195
2576.829022548854 230.7464378259026 520.4279610285099 -1668.170154979034 -157.9020320193824 40.56012027506341
4193.1269753993865 -46.76775809835564 648.5076356941978 -1802.5297747440104 -130.35354904777938 0.58073172454292
5582.820645547878 -42.9796382377501 876.5362011357502 -1872.411726054536 -63.41625536340217 -4.946423059883417
6883.17593169803 -65.95283522287536 1145.0495558200475 -1938.8168824328145 15.9293931805659 7.238910847828354
8188.954076270844 -76.57653374210959 1489.44076559515 -2038.5395021159832 98.20135160630926 47.18379715279909
9516.580980982219 0.2111250285547266 1933.1033131709642 -2232.627752397292 174.81520412706467 136.19828465933824
11043.75461621788 106.40441343612719 2506.7645175354583 -2569.802275559844 227.28214714692373 306.1853177389667
12576.308527954 -886.4279351562562 2809.8721893964466 -2384.5013947971165 195.17612506033493 561.3648860231744
12452.622093696857 -3813.2443440147363 2019.3772296786108 3.651372180293878 10.35349320359902 745.813225325621
12563.286052181396 -887.0876967090958 2815.4496380025466 2392.149251239423 -173.28970334645425 561.0287723778189
11016.198348892949 105.08322936090464 2516.7951451246863 2578.5475113687157 -201.87600220135369 305.16895555054515
9471.432597868963 -1.769050068883205 1944.9905264133474 2243.429781788564 -143.58784701761095 133.6570799886002
8121.375039176724 -79.23092675449881 1498.334621831027 2052.7644887017495 -58.8117859010606 41.40971263324694
6786.226280774853 -68.88707932372671 1142.8506879094773 1958.4325221511826 34.24337331523609 -4.841795461762129
5445.651034311628 -46.125680992639026 849.6369762609238 1900.2588864103266 127.86876712074297 -28.570393997659583
3994.286859721916 -50.70714449011808 574.4168037413784 1845.0768916988252 211.40521078647225 -40.36451797367528
2358.829476760295 237.03634958202952 391.76333609968947 1744.9629105708684 238.91188099755084 -32.85231992613893
1772.4336499933738 772.5483697362382 606.1606355266304 1923.3872086092692 135.90856026856702 96.27041532604335
-1604.8115122047654 -7396.992661228197 -2883.0036742120615 1592.6067132389587 61.235135869934254 667.4815942793682
-1370.0880687425356 -4766.519555283057 -1267.9036536820904 -1568.2478598432072 10.681600022950825 553.3242886099882
213.73745478287117 217.28838904285772 511.18613321455774 -2097.7824739766043 34.33389862094303 186.93802454157694
-70.33283489205155 357.2389116132549 272.7235726038406 -2081.195862766584 49.15147777581539 55.967728841454786
77.98306221819463 13.413005579695973 89.86767779162881 -2073.5000864454923 63.08097071931382 10.8500883784473
165.35173613345177 -16.437782673378766 53.253225655409636 -2134.9768199890877 82.7271039060743 3.3518100948695526
132.32679496511136 -4.4899587828849326 39.982850097418435 -2210.4478925707895 97.25502353043454 21.312881905483444
47.92083872168902 -15.901974558178843 35.46837031829705 -2325.191382092016 105.05285011501738 71.46961950461319
-143.87254176997578 73.82183637850858 50.86840918290057 -2490.77260093769 115.20952094859885 174.22817952764888
-116.91119375461548 407.5862227911596 224.7839441735228 -2855.223463419966 144.37324117452837 361.5635080521128
503.30972737954085 -825.9196580681854 159.82649715905464 -2982.0515271600925 153.31625367072007 652.3881897285503
-893.4721319219059 -6685.000742672082 -1847.6910449518318 4.137924792278232 15.74032101157823 890.0851146082473
489.8618310226034 -826.783155203896 170.8210840226874 2990.7194359247324 -120.43701398055039 651.9015814549213
-144.98501611135566 405.8742900070365 245.9702539218681 2865.1367908891175 -107.38773615030236 360.18868595657784
-188.79489467310765 71.29420219286341 80.2738247414603 2503.0154606613064 -71.6997862394514 170.98523314431176
-16.9016701749957 -19.146684044739374 69.1700914625971 2341.319045703772 -53.14518614257835 64.41575609960691
43.92068586787691 -8.015541574097593 70.85549223299726 2232.843414995851 -35.855875453385856 6.837967160427932
47.31446660296737 -19.54919109242054 68.51093707986264 2167.4536439594513 -11.745806721446375 -24.379608920027867
-64.27304373438076 16.890960317191883 74.66327663402059 2122.940122922571 14.17330107624305 -39.0973601842949
-201.13866593672535 334.1553273317855 198.7578838254739 2159.293840131377 14.791332119606695 -22.14483238184113
93.28475526835261 77.34150083023187 302.9850972320575 2162.943620118505 -20.855113401286676 141.14634707500255
-1380.4288441067488 -4645.896292557212 -1519.51293458692 1595.762408161447 -33.12625063727521 706.7600032117953
-1297.6282508041281 -2526.8995563487338 -173.87211943555775 -1251.2380525924718 95.19912013246082 519.9676189064038
-1239.789567297323 -157.2523748453891 345.0842968410423 -1837.7229983383847 169.9587398532969 159.63502265606405
-2591.457124005365 297.3491697503654 4.431790532818839 -1938.5903759200962 249.04246613107387 47.70873033934977
-3936.0933912897576 64.29400835994034 -444.09790093340433 -1844.415895338991 254.95258588624628 5.43587945128902
-5245.926993577888 30.400033233409328 -764.5645262261196 -1867.864591151696 229.76639093963004 -5.173558508688857
-6638.251796908494 49.69188513647169 -1074.6614666685148 -1938.8347111068213 179.62026800865453 7.343536762007465
-8056.798243693878 80.18452868095814 -1397.486172933137 -2035.085143763901 113.29173097378279 47.75027928601478
-9704.963918009884 61.77903637587765 -1827.6872201228055 -2160.6871079267466 52.77301886556241 130.6462183306095
-11309.21739753536 583.5142962344185 -2109.898825873482 -2334.5105014525284 46.11690573415379 281.0867999246449
-11348.54843731922 70.21641714557622 -2210.0960063495318 -3097.3948914526654 96.61470113656246 547.793609038425
-14882.276778393043 -10836.846264895941 -6311.753491429858 3.6637795459973166 21.233044038205968 822.2452287539902
-11362.508993144333 69.14458681844852 -2193.606699945861 3105.06818366156 -52.516785358018886 547.5008054994793
-11338.004486136479 581.3952930526195 -2077.3934961040495 2343.2801948143097 2.7183688423307837 280.15929810440167
-9750.003446626672 58.68434842087585 -1780.4868775758755 2171.5004178727786 3.3669741140532548 128.25093326263254
-8119.353838007643 76.31618647503569 -1338.5449013534976 2049.3020772015348 -48.383474992113314 42.21544089821614
-6718.748773171538 45.45572836876494 -1010.0690980636771 1958.6791609036813 -106.41369595121344 -4.4546408069777685
-5341.540903337241 28.209837608420358 -704.7969627040907 1897.1121312523187 -151.74533383005954 -28.7946505198111
-4032.18024532162 64.69651964503659 -405.6484174066417 1889.0749828748435 -181.28981458515034 -38.31587786866196
-2665.268847504687 270.7082324189833 -13.344665637407203 1992.763282476878 -199.23336188436068 -15.735641713996793
-1297.637066267387 -238.57614313063752 217.709981322265 1861.7332155544834 -163.15361220788273 125.77899022548083
-1296.3038941739135 -2443.0516957359773 -363.35453885054113 1243.197541923794 -113.44417879462881 619.1307155606055
-1439.7185534689834 -1124.6967981363302 571.5605032406016 -676.0748531172828 201.87648055536897 314.4731332972791
-2478.7138612783383 -285.51271899433374 308.04829722268386 -1051.5161226586156 325.1921134032451 69.44551935641111
-5059.064487327877 166.32988968109476 -275.6255971767145 -1143.3355776022445 458.25743151282876 9.341238655899538
-7905.210691615191 79.40217003158818 -982.4231912341595 -1072.30844743883 447.958568143737 -24.696951212668637
-10654.629968839947 56.21545232245592 -1595.6699040581757 -1075.1492312214114 373.8375969951768 -42.453748250042054
-13402.375231938522 75.70848171650744 -2206.202404632668 -1118.3002706970517 253.662887114238 -49.449797568067595
-16205.487962233852 96.15908183525511 -2881.7023049136174 -1178.4428954486887 105.2870779651743 -42.96115522270593
-18947.211154394554 209.34848155313173 -3586.880174822689 -1229.9749727688263 -35.963993489531504 -13.57802530422113
-22622.155303447955 -116.89739909095884 -4782.403375838172 -1367.4392040592036 -110.68251407091002 49.193715525248045
-23131.536992570753 2496.8484984822194 -4214.628611195271 -1857.6337852374957 -30.366287258983284 217.99291856927408
-30504.201167656458 -16178.869184624567 -11784.389674726212 2.2891999184143073 26.95195988857303 528.712983436533
-23146.24669751505 2495.6015929996493 -4192.51023085149 1862.421799384001 86.1865521683119 218.24408707156329
-22652.1740965977 -119.36082788114169 -4738.284033570976 1372.8889808626434 172.0385662204884 49.5316279441367
-18993.26605292199 205.77661145673403 -3521.369697171666 1236.647099327111 105.7377358170772 -13.569528242661665
-16267.340899336088 91.73651187398661 -2796.7258851764454 1187.1380429349988 -25.789682580735366 -44.148371315412206
-13476.590768768858 71.273461028471 -2106.2423545698816 1130.3140824426007 -166.112038983491 -53.557724002222386
-10730.420981480544 53.70223112728004 -1489.5321833871426 1092.9219838602398 -285.1208743096246 -52.892575914054305
-7962.885555852748 77.03913963638497 -888.1873098300366 1098.2934509363085 -373.1000236771734 -46.65434796114764
-5085.957784980538 147.32392195586573 -231.13092467375424 1169.8247508186928 -418.84086980671026 -23.06713191281574
-2490.212038050162 -322.63423169715105 254.78298357191792 1057.3464369156388 -327.5057708452419 52.2939656694013
-1436.7997692796428 -1086.3996890472401 429.3101928593999 664.1046923282485 -223.66377767747343 369.90468119617026
-1608.468837306956 -653.5810676178976 944.3082838982236 -263.5393588203391 388.9723112079189 161.40705114312632
-3476.821222049156 -435.20845868822954 312.8838492729276 -420.97245535642014 535.9966318272332 7.3591403208168416
-7703.844406246557 -433.4647527555678 -753.2517952203967 -436.2715193707582 685.0057423950827 -19.590893541638945
-12310.653353804912 -850.2375279976607 -1932.5278245574582 -420.1428968173491 639.8151343218609 -48.065123987533696
-16589.10330487262 -1195.8224733798784 -2962.4536077219177 -426.0284797234797 505.52909782758604 -72.38341609351556
-20807.510908947446 -1497.170903940258 -4005.187390537581 -448.6551082274193 304.2080864008817 -96.29475266389983
-25122.42539741754 -1849.6839917964933 -5186.787079855937 -471.17156458302793 59.35716117716399 -117.69585658402764
-29334.00391998347 -1971.1379369412937 -6397.354070202528 -521.2068706824712 -182.44754912593035 -133.53548030569715
-33511.92981208582 -2914.600055114665 -7996.800825881401 -551.3460768797283 -339.2643146579044 -126.23981725048381
-37132.05131922859 816.4742168009174 -8193.610801145127 -1214.2963638270426 -324.00774003455166 -78.10695354728097
-51457.00983428269 -24470.783672929094 -20180.675298416212 1.1905710515562564 32.979652553663456 370.41607342787205
-37147.47461963685 816.0837724954426 -8165.273672527694 1216.800328769572 392.2535359700387 -77.56208702930664
-33543.12439263283 -2915.2284879198187 -7939.793144551008 554.2326288681115 414.12879078515306 -125.19262134497959
-29381.075822617702 -1971.6364733839653 -6311.384883944031 524.7885749035868 267.41320576832953 -132.1092557398364
-25183.803108344906 -1849.2989456423518 -5072.404965983348 475.86034863111917 37.32634627600852 -116.1828739354531
-20876.371754761883 -1494.0738199820098 -3864.781792357951 455.0346847371081 -197.89876016606112 -95.37280945332688
-16646.532319217844 -1186.4350626958778 -2801.707135974733 435.09498236526247 -398.8850229391886 -73.58847256822803
-12325.254136011847 -833.1187415320592 -1766.6108543691032 432.7470708360392 -554.1171669704431 -54.036048983935096
-7664.833167747987 -419.6265812482593 -623.3698643745288 449.39766533055666 -651.415085494484 -29.977640380206765
-3427.8030785759165 -429.9443215685285 342.0486894479785 425.888347758636 -559.8262778798917 2.4227609553565728
-1577.6869778343066 -618.5474101528774 857.5676868012575 259.8939005295614 -437.39973440363883 194.60361498541684
-606.3291512735473 -13480.401852828281 -4226.019301230547 -2095.2620650056883 -1117.8068388692664 -395.41593329936035
7946.720970485915 3821.343824605742 2783.8764181535203 -936.6669877109538 -1206.1309393751733 123.93576229294952
9229.639387381041 462.42130268433755 1216.7770274640234 -334.7300585561952 -1131.31557898089 -30.964830846652013
13068.322158208455 1133.2893366903916 1855.0766229325686 -363.84093639358264 -1005.2774687704622 21.17907794699799
17276.101372451878 1331.3546813298876 2479.8675166560997 -361.3497425654076 -767.2644842897081 2.1734920165300737
21620.55595820819 1700.4374642857267 3260.9516833334533 -370.58314366216104 -458.9226381671645 -1.478544683842971
25890.53112091347 2048.4478542279826 4100.315861125449 -379.1599266806145 -71.35462997824241 -6.938289732242806
30098.949640640363 2422.1884832691408 5055.917960335849 -399.3439583478057 356.72832095167547 -0.5498081241000037
34240.17707612898 2792.8195358881953 6164.929745083281 -419.6013588437323 689.8122130464253 45.02578710714362
37825.17762378572 2955.8625473182315 7234.6621320339555 -337.86044107764684 630.3006395593471 172.95730470245408
39281.55845453527 2744.9052207310397 7636.775633657185 1.1373000451163477 -5.967198390956573 306.9404686124554
37833.07357799126 2955.423038041184 7232.439888179567 340.11730056505877 -641.5638519656322 173.74463072438752
34257.082022499795 2791.9556617490625 6159.901057677985 421.7748707303721 -698.961681084828 46.57260210222632
30127.583202373116 2420.98171973417 5046.855380185677 401.26134617436026 -361.97610119246997 1.6064742690071405
25936.571663969502 2047.254702302988 4085.377834921397 380.5011731084201 72.76662405593794 -4.373004900182714
21694.54759357506 1699.779837540573 3237.1329440257823 370.65665085198236 471.18310977293237 0.13550642697302173
17399.353906877794 1333.465845195054 2444.7797824377244 359.92546720315573 799.7429638418118 4.441663897087856
13270.756937965944 1138.010263936275 1798.2445251904958 356.8681693667099 1061.2348393594268 8.214220267472532
9628.983945988892 493.76760941453034 1177.52780996794 321.7916528582218 1277.4669102773355 6.114450438619498
8886.186496264172 3941.3003846797733 2793.5003505205723 928.8129027156705 1079.361144700989 -146.20128414550493
1240.4982865905467 -12768.338846485469 -3007.917361786122 1238.0442752968283 911.8589079486891 728.4726517117016
-1994.8562372087151 -12308.953595006471 -3730.0369949940127 -1344.5862126611166 -188.25422733759046 37.0527151076646
4180.843894337151 2037.1236791733545 1471.0892887630396 -1168.1278725306922 -405.58799923732164 112.63550142870021
5263.422860913315 -110.31902087064181 473.4048251108844 -919.696562445129 -690.0071701070574 -7.395144946273127
8453.171443779398 127.8811694828809 937.950084257109 -954.9541631364348 -578.623350609643 9.960175255218205
11131.191601093375 65.91136356535617 1229.7011947236776 -983.4373632743429 -431.1774764150782 -1.5656648067332783
13920.59422524425 81.99349368784708 1624.3892231893476 -988.8505494994736 -234.974203990922 -1.9193296597513916
16666.32302958409 104.0579624172663 2075.2805333796514 -997.3608622150679 -0.46241060117454136 9.43730612762687
19349.665360093724 150.77124897387307 2604.6410831940725 -1023.9824198760009 251.448528026668 54.18698965572267
21915.588645753025 164.86575125440544 3206.115036957765 -1061.6381035299455 446.49872693180737 183.95348558232868
23968.958421605912 -186.99465951189802 3668.927704462585 -871.0759050778508 411.5010931563658 467.0858415419406
24582.543403121916 -994.0937198041426 3624.621178906133 1.6463400302635804 2.2989776086170184 749.069159798909
23977.891850351007 -186.64226372342304 3669.9351490765393 874.3179941311043 -405.8568573273862 467.25532964617634
21934.424056303335 165.55932595575186 3207.539915182315 1064.6630686019364 -437.67812361469936 184.10485728353822
19380.690988380178 151.80887864015355 2605.193001874949 1026.4070921001191 -237.14709375144227 53.837073938116305
16713.963205258136 105.47171356402833 2072.6733826771474 998.4058707756725 22.8853189378842 7.61790707456984
13993.50971506239 83.97988985027337 1615.2924480031372 987.1336790679309 269.31124339585034 -7.209141887673628
11244.064798959456 68.15742793605631 1207.9526624579041 977.0961673264009 481.58589029046937 -12.615814358696001
8643.50824261936 137.0797842173806 903.6581806972935 939.0173054311508 656.9277196515699 -15.064463075472561
5590.7739024566445 -105.2087108322024 412.09426064567054 878.9796197110294 788.5915605695326 -29.895394042853738
4516.992133717295 2075.128899181337 1404.2473292642014 1070.9969657943386 431.7401027595993 -82.0026469251073
-1706.0855764487496 -12288.068918947705 -3625.614622505245 798.1202993776253 129.11391073052962 768.4598931662066
-1852.8383392790756 -8938.836582543798 -2442.86497580733 -1774.627723191027 29.850507038378318 741.1315663084481
1824.602816137402 685.1549516445609 795.5543717696673 -2028.6417944406116 -92.71263030348686 111.3846922613631
2393.508282953255 357.59028704548143 377.67396786905135 -1677.630351819697 -278.4347565181738 33.96217321595754
4064.732372567659 34.44708319640553 440.0416067086328 -1725.2507729960096 -236.48630450381174 -0.4711629648444582
5566.861925936894 62.692533748540335 626.3754809076746 -1743.9487026253332 -149.88120654816237 0.3681107813489026
6946.066445705722 65.01168792259767 807.8116104122697 -1750.7685793709197 -50.571636184880965 11.257783762478047
8307.571817697282 80.93284231241893 1029.1650436185614 -1754.9620995053488 64.20798872506431 49.54388458576305
9602.466057198922 141.60694011057305 1295.025987566404 -1774.029893541946 194.55465712126897 145.38493469427075
10873.824953025205 219.39665631801077 1620.141375072024 -1835.6797534235716 337.3671279199877 370.49943634633314
11985.040967331022 -369.2408763621425 1768.0512403794075 -1587.7336733687637 374.93681807797464 838.6015967717684
11903.221762901661 -2285.4038091080743 1199.7468223416463 2.4148768516997343 9.631100948189761 1379.9841759788856
11994.623105302127 -368.747431533183 1772.0560509580062 1592.4702834384123 -354.33112822757613 838.2092531273614
10893.704696916186 220.35966981179487 1627.5966383248076 1840.0275852558614 -312.7619798304705 369.37171011921976
9634.228951047404 143.00283304554557 1304.6378159680164 1777.3331390278993 -163.4069897811923 142.68759364404556
8354.259813349932 82.78769624734136 1038.6126492348806 1755.87005660311 -24.15662724553376 43.55203700471383
7013.314379835437 67.14251036864349 813.0874756229499 1746.895775618627 101.59627627523811 -1.0181965706267242
5666.288580957152 65.587170816704 621.9849067443183 1731.4888367744254 214.01663702432202 -23.943695587378564
4221.625693747031 39.01277456400392 419.12875836142547 1696.8874397668353 316.1099617604721 -40.86566551675644
2577.546977695124 349.6979283947117 310.67534684945946 1611.278967006011 359.00493015499626 -47.22167224676885
2005.8785048146947 825.3493363238935 752.175210187427 1894.5532717696167 109.167266106574 35.21232704968203
-1771.5702037769224 -8928.184991333143 -2494.018347535806 1620.8908816647338 -66.7117987584889 1038.5761476443
-1537.9628336778824 -5656.3672479483785 -1234.6722792576934 -1677.9451932716174 96.37493015072981 812.5761356469684
69.9519482099927 -116.99361168510606 433.25494553132984 -2228.7432980302247 92.03510551645614 199.7969812178786
-258.832977253134 396.9960685524393 223.20953127118386 -2119.16546300688 57.57987181492023 50.410640826379236
-156.80929274937887 44.34157186118768 46.62838925895527 -2001.7231531753996 80.49258220133359 12.470488821083311
-42.15294030783603 -11.771616639414422 27.88842748598403 -2001.438602128613 108.12199119726361 10.686122632400423
-30.590019148201968 -1.6203329530028245 24.58340156343365 -2005.885037300421 122.70495809257673 31.67569462255747
-49.0871559245828 -11.089592510179283 21.62512869544061 -2010.5922600374486 132.75911513875306 82.48427366215799
-136.29737190203483 30.03673650756277 24.84416052033494 -1996.737668451736 158.56611720620924 191.25124551815608
-116.16407740602007 227.1663338980745 110.41420065517384 -2060.626550330264 268.6966743783603 424.74823414906604
266.9746400909609 -532.3918071147601 27.770815457978976 -2016.8783651308324 415.339503696857 934.9388483447163
-754.3459071689356 -4537.617890361433 -1423.2295243520352 2.625872969938502 16.591113975021862 1771.7958899205498
277.157000329846 -531.7338926274574 34.82177625833899 2022.0254675768617 -380.5412125341132 934.3835235756848
-95.39769582961331 228.45446305264278 124.01551466262116 2065.336933627056 -229.16669722193726 423.24469991862514
-104.15500853721207 31.919357171253818 43.772028307430894 2000.2729903696559 -111.59404413493648 187.83667904872112
-4.245939626173389 -8.64667135050315 43.48903165267815 2011.4165894998437 -76.49579242906178 75.24350014618427
29.488075112307804 1.2637488856506716 45.2006055699015 2001.1350755935869 -56.773396293132656 16.960500854713217
40.13480774899042 -8.444313773368272 41.05466273101102 1986.261830911254 -34.10996439577769 -17.43687954157042
-50.71188413604642 43.286434406277905 38.35550528771417 1967.6765795968952 -3.1577871103610766 -38.43329258605798
-155.26603039701217 414.9716575666079 180.81503414465422 2050.869937517009 2.7471611768663893 -31.77576957733104
165.72255868555246 4.958628811624379 393.4211779897406 2157.1579105076803 -86.9904394646818 150.22477897262044
-1535.9528569639322 -5700.152510968891 -1336.2789575114937 1628.1707421382878 -126.14606779912023 990.379825777455
-1391.6782448332085 -3004.7500973160736 -276.6969315259416 -1270.4393041175745 162.5804724183207 702.7821056634665
-1349.81235866995 -419.3110062510775 287.50905743474107 -1888.0550752521572 262.4964097212778 203.74175682065848
-2799.5716294998288 263.6973196355008 36.71712426949645 -1951.7818483085573 370.96724501524676 52.34306904023476
-4270.236708973209 21.324266046757895 -329.9123052961032 -1774.3022716986547 396.43601786896244 6.413484496557464
-5635.905939381345 -62.25556688116333 -560.3920681963228 -1737.5834212615175 368.99032892507637 -2.3151642378237343
-7025.076783719534 -76.1772912063781 -767.3497178422328 -1746.6953344612102 298.27860923184403 11.533898514496755
-8384.595514915127 -79.21376384131261 -972.7547585500055 -1750.8684869793096 205.5198716852135 53.854159137412424
-9824.375956480399 -135.67090697334143 -1245.083740014184 -1735.2257453357097 114.56251150925348 131.44287295644835
-11149.572036759488 167.94006575628302 -1432.4697359184497 -1706.1145652232294 143.0688906707178 297.06274943830095
-11272.795595762273 -92.82029743371102 -1514.0920046916299 -2156.987104571876 442.0435134593733 683.3503768437395
-13887.529548277205 -7863.002683824096 -4573.814711874916 2.47261906958078 23.699805326069725 1853.1412812803003
-11261.990894245268 -92.01036740549269 -1503.9563418570447 2161.8541651477613 -392.73137136457996 683.0410700989323
-11127.875843433463 169.5383812757872 -1412.6271913981975 1710.6386588719781 -88.2186168984697 296.1016726289769
-9791.801229364717 -133.32209849165244 -1216.6701323257346 1738.7839524865647 -51.25122876164509 128.99425100039915
-8341.587064565743 -76.1729841098486 -938.1870956827986 1752.119558648274 -132.34714737604526 48.22652158289718
-6972.285774474378 -72.45138541598782 -731.0124769484555 1742.9837655168697 -216.65881846866253 -0.49556419413889063
-5574.5064861934925 -59.158421425687685 -530.3096751970535 1724.1378412476945 -284.6099583875078 -26.64107696519745
-4207.531366765055 23.657484030003317 -319.5367573618356 1743.3008304737903 -321.22054937867216 -39.07529320911522
-2750.1312523170773 287.5707412657056 18.231168074562778 1903.835794562674 -326.15931180787504 -14.285500245343165
-1308.7094583706817 -343.8455523191917 252.28725775021567 1857.3104360485652 -264.1455701083679 169.63416603548518
-1412.5319747579426 -3052.869951654819 -374.3392614885808 1258.9594792444489 -187.11596254727877 820.6979064072749
-1489.325961355942 -1332.3955093498398 362.5866112516124 -664.3768945002986 291.3617955153792 456.2001826832855
-2545.966894212266 -433.2487795882884 277.4633431429315 -1055.5777184720548 485.6794941378946 138.6611258699549
-5285.143228566968 113.23924831434148 -166.14887700656624 -1125.940594059247 717.2159394244999 47.794498728696965
-8337.666413817878 11.612016507104041 -722.6088931755182 -1009.4592016702215 744.3402047499151 7.559509511876199
-11222.741801617143 -62.39448208188024 -1174.02209295195 -976.4895071003663 656.7876629091097 -3.4932165909043045
-14013.848468433456 -87.57220234858886 -1590.2842433084732 -984.291258902141 491.54058343660125 -1.965173429781446
-16759.09465737966 -108.1587030538552 -2026.0927328767882 -993.4355709494439 277.613722358883 12.367747015604303
-19316.98966126136 -63.05108832785017 -2450.7499555267873 -974.9930519622364 59.672058980424914 50.07500636527403
-22319.233531782887 -362.05308580255456 -3223.5142695270342 -1005.7636508845806 -133.64977424614585 78.53980460013997
-22691.036057854893 1622.702974511368 -2772.913022355768 -1362.3289739308898 278.95142774129107 255.38637170606182
-28141.188096695547 -12121.122470738477 -8620.552642347388 1.7148057709993658 31.480399844080125 1364.1464259594995
-22679.52143978237 1623.6286708185473 -2759.665932532836 1365.7280151972027 -213.7044596140086 255.68745443645528
-22296.38800305404 -360.2177467667069 -3197.3695633111815 1009.0057356714557 205.4812552392119 78.95509048134798
-19283.52813548346 -60.350431116125876 -2412.7449202056464 977.7361430238366 22.07599175611195 50.13402147561874
-16716.94937107811 -104.6545003722284 -1978.6414720300877 994.8945374216231 -184.74834917600825 11.096988854124968
-13967.290817875079 -83.55991537386181 -1538.3516318015586 982.871585292215 -390.4778813936757 -6.524485641614039
-11180.225203106544 -58.71451945658975 -1126.8147728389754 969.0422092819848 -557.4008390693243 -15.247725255819216
-8311.463022557477 16.96816883772052 -693.3559851907961 991.9351579736732 -665.7736689244017 -17.212802502995316
-5279.737827648697 133.0100652272462 -164.78676891581463 1102.3351654695136 -683.232842215977 11.424259934027258
-2546.8227635149174 -397.3534766657121 250.2919212819003 1045.1461915356467 -496.4619539122492 120.86972952640515
-1518.7362228385846 -1362.640749683707 286.854067793741 661.9702393756431 -319.16100042616677 523.6832547227514
-1598.7643787630416 -730.5914663168282 768.2878428214723 -254.46808531784154 557.0322672034431 295.66109151886235
-3508.4288291977873 -514.7478034371552 317.1345059444492 -413.0801262142995 836.5863891852731 96.39732585487022
-7978.891985657057 -494.35253730486676 -614.984362270695 -405.6773518156055 1164.2546041110554 51.879785115820795
-12904.415800927363 -948.9185134294189 -1626.0889216390713 -367.8468545222945 1173.8650513631028 21.491435975013772
-17409.12354827346 -1353.4725515056239 -2456.7769162798036 -359.6541568708076 1009.2724937051454 10.693363633884022
-21729.31793457024 -1701.9148847018696 -3236.773057057442 -368.0255058036145 726.626920132995 3.4677070298970847
-26004.39879723255 -2076.0886674297312 -4066.7197027715247 -372.71356059696404 365.5714620438668 -1.9732765683927909
-30026.817345037496 -2267.4863246598497 -4863.68628698906 -389.6117969454998 -33.751170579808296 -0.9930419219637017
-33631.418670194376 -3032.5692225859293 -5867.9060567197685 -401.11025897028924 -444.861281633719 -7.259464657641097
-35980.858039736406 -146.9226073138616 -5813.410672305349 -972.3211930293411 -663.6627607294785 -157.23856211425806
-46486.142369970556 -19038.30742260327 -15461.566965237575 0.8231866827086378 40.502286081642154 1450.5050876501323
-35968.21936563688 -145.16822485159634 -5796.740512192132 973.9696744624866 747.4623208858385 -156.6737982690537
-33606.50388749867 -3029.083767457113 -5834.840972311837 402.739338011444 536.716239090709 -6.226959193253073
-29990.80769954275 -2262.351896139528 -4815.180173953979 391.1071223404264 137.75031893778046 0.262156328444334
-25960.29464799039 -2069.5445093042663 -4005.27866989552 373.7736324982783 -247.94818533765851 -0.9992788892333699
-21684.223959347277 -1694.846668350015 -3168.1404236099957 368.0105658615352 -599.1026809068612 3.1311802575332024
-17378.32559528501 -1347.9383078810665 -2392.4293458026013 357.2117670687067 -885.1590535363791 6.969023978736939
-12910.221972346977 -945.8195956441673 -1583.2953714746188 361.1687320374128 -1080.4555520522833 11.21591179052052
-8025.192212324011 -486.9029745009226 -606.6590492956122 395.9295799251095 -1136.4486074109798 36.22672852675075
-3557.0361359325498 -503.19225732414134 293.94961760049677 408.1927673423344 -871.7391326562383 89.44943944948591
-1649.8871789288673 -753.2395781491676 710.7176542612125 250.47994666705316 -614.8885199033799 336.4885610630913
-4013.734121599969 -22264.23715642965 -7883.391383408882 -4073.47583177213 -1679.357910570204 2116.1898331427997
8870.468607824692 5706.187338222651 3672.1810463314296 -1809.5174356054256 -1748.0125762993293 71.96563311433559
8774.61005140487 254.63452236024594 860.4183157160767 -853.055563020365 -1707.6869161190905 593.6242982925219
12692.096865442556 1180.0897791510115 1563.0320995101636 -879.6892524000192 -1519.468579844883 644.1049269577379
17136.232536683212 1316.647828833539 2098.813138100468 -829.083076770752 -1357.8546237010585 884.6342667891676
21775.692476845168 1730.7547835559867 2808.0037497076955 -752.2437141443673 -1066.5167306521607 1090.8661048539316
26293.504461035565 2095.8068819361724 3513.836943584279 -628.3570542907225 -665.1988160844802 1302.7785844858158
30557.025162511825 2436.7835034800264 4230.98870218975 -458.0371335086405 -162.13378148431246 1511.0097699855319
34147.093682670544 2709.5639047169534 4888.3630305947845 -238.3956665424298 328.24646752046243 1725.667977328844
36488.73899959225 2981.8651570551924 5395.97911356635 -44.29521010866415 467.3329436918595 1956.3102209250546
37347.448629814884 3288.4255759635453 5669.41033900095 -5.4253867339973 -11.233845542178283 2113.6274182922175
36515.25517778201 2982.178667369131 5397.942131036628 33.162745974477616 -489.603318530854 1956.855948394863
34205.37252547674 2710.433406850331 4892.976494247574 226.41848025280134 -349.8650260937413 1726.7497283156856
30658.227172475516 2438.7251493505196 4239.624140533269 444.6322825069458 141.87107970134355 1512.6552915587054
26456.30856575939 2099.9627979198917 3528.831124591895 612.9876998130991 647.3328553807498 1304.7654618649174
22026.720266613607 1737.7219208816339 2830.934957857852 734.1529299585792 1053.3417172216525 1093.988944466271
17515.03599185352 1330.7943567677794 2134.8201624322983 808.3482090089312 1349.4275170045767 884.9333068646356
13241.777755693953 1196.548744092199 1596.3478172865584 850.3340476162173 1529.1889088090918 660.5937659304582
9712.045575871307 352.5722219322895 1007.4130192839147 817.5110254660123 1680.9480143424832 538.8718424805118
10902.724964829451 6065.047505584017 3889.163352023879 1877.508049211546 2247.6931365376445 395.88883145877867
-167.83943618240392 -21233.10107100477 -4845.600587465058 2448.52775733242 2944.1442008853055 820.7794904975547
-4450.21944701735 -19311.56473829553 -5822.500257043939 -2614.5942663648902 -1387.5118727280033 1216.472547178652
4240.827175427702 3092.5572340877534 1741.687970726506 -2166.418525380712 -1161.8057366993241 364.87428427048974
4375.312014706388 -295.6168371070518 28.569033704122454 -1802.5139397528117 -1054.1276853149384 639.6230065867633
7917.9293524597415 54.986688488239444 543.7494866175454 -1825.627266676919 -932.0290694793264 829.4476399373785
10711.760710876359 -66.4901231393861 747.3419677641698 -1784.5616119048007 -808.8135287571366 1100.4352506288274
13668.581432851017 -62.83119926265041 1042.9519308609715 -1639.1468424101993 -637.3574630092261 1370.6590768791743
16549.176296821643 -62.76229238798284 1358.596142192599 -1424.2102629186581 -398.80835743660026 1642.4337771050994
19259.477243368838 -87.33801778187691 1686.2603409360465 -1110.6963597313563 -104.37363573366967 1922.9283181957649
21554.91018181872 -114.28593389974291 2003.3145415704334 -656.0849173433456 185.61256616637303 2242.217767689466
23140.410520076784 104.73008823520969 2326.3651713051636 -172.68070813274116 276.8121232075304 2642.7496622814047
23885.108475964847 698.1898102945421 2645.595854399156 -9.67327250313511 -2.6909834122124465 2953.405133241165
23169.154552783784 105.99448312629394 2330.379646195066 152.7181311745895 -281.6582796467787 2642.8069286541845
21617.11720802063 -111.64943985088439 2011.8131012151784 634.2433067909084 -188.83374498305733 2242.2591513136404
19364.959510503893 -83.10807821117913 1700.1371152748916 1085.6100299753555 103.8827703687209 1922.798571252237
16713.442506873027 -56.71101827986041 1378.7957845595868 1394.357570639456 402.283862121306 1641.8120022191902
13913.915098275136 -54.95402830113275 1070.4551257872874 1602.8294318449532 645.6171249816124 1369.2984995265579
11065.68792642494 -58.10589511317424 778.8878199888318 1740.0069051147432 823.9472503118715 1096.8939729554686
8430.932170759288 73.40121187359443 588.5035411847654 1765.4795611657055 947.4547931040612 828.7255110513818
5094.194197388728 -280.5623330578121 46.41206360264877 1709.6806577974364 1097.7397465041413 614.7177461180129
4948.428581632093 3244.6517450616484 1814.4931512700734 2043.3863588476177 1328.5902987426323 523.3571957006606
-4125.5653221410485 -19943.169614606355 -5597.939360164493 1636.1364464443584 1642.87451563049 494.089175337954
-3546.311643951485 -13458.731487169187 -3673.417197416722 -3069.6963500849783 -844.8914253696535 402.89477016564484
1455.2812006852878 943.8542166273357 788.1766348269791 -3518.9747034297225 -661.2158674894989 567.0618078161752
1536.8428606501166 433.02534303199565 74.86097563978508 -3069.3704042747395 -521.0595723342461 730.265615158693
3393.2735621976744 -71.88799591698114 100.73001863365306 -3121.672653561619 -422.55958225321956 1057.8852545968916
5089.078747461667 -48.12886061334677 287.5793541427864 -3015.651581653052 -345.59371449692037 1396.1448021368776
6600.488359039175 -61.130462816894806 425.3221729170675 -2783.5910922075045 -261.53634536744136 1751.4718692327808
8105.267856562145 -51.591394491482454 591.2898688384768 -2438.528185567165 -148.74638188024474 2110.0414035750914
9551.739265105143 -80.45467128304696 767.4892866338835 -1937.061192826729 1.4465493340467077 2488.271086187368
10784.486385163054 -123.90757038850433 928.7063194047021 -1163.3246729892762 192.3649600592441 2933.6495474169546
11622.696207357812 366.3416861958548 1183.0006092768444 -251.08042649502713 294.03470065153016 3541.737022456732
12392.78577745533 1955.0679604945983 1797.0686934873572 -15.45800266721929 4.1358794975497215 4114.273591053135
11652.371860244728 367.8261132539319 1188.5906008728318 219.13884084217537 -284.94629807534847 3541.4179087841935
10848.035786345736 -120.83914636572293 940.286536907881 1128.245814639695 -180.86750392023478 2932.9157423419892
9657.585198307197 -75.61396926443788 785.7077517884542 1896.5317443739866 13.913683952781914 2486.8920963277446
8266.204841901574 -44.74012991018996 616.7948697467435 2389.8716498923727 169.04085627211794 2107.643964012158
6833.301473225127 -52.90893456394864 457.6362414686954 2723.6551205259607 287.17495575990847 1747.2214940532754
5414.240580914249 -39.38298602864049 324.7546375100176 2940.503049655857 375.26812210618573 1389.9151676080796
3829.1243934413087 -64.38048594885747 134.24692586065706 3021.2770360619825 453.14648835309333 1045.4826297119716
1972.8884997174623 438.7633294042881 54.81434752590989 2923.4790721199793 563.485849447769 733.0071984084567
1865.8665447771614 1250.1902514821584 869.8580568484768 3324.4960148469213 724.0543312731022 575.7693267395205
-3529.40013667335 -13963.653239597788 -3752.8717355156173 2901.5581884002813 927.1065122544832 385.066100391855
-2594.531333292029 -8132.864270820594 -1942.8245618001606 -2838.695899080922 -381.1388296260945 142.0784604819983
-453.9129098697544 -188.76259892745185 303.2407827697697 -3721.413563309124 -215.94352171774688 492.45987731609
-1050.6723873975106 551.1244833535739 33.829467393943865 -3736.3454957002195 -34.06169196049707 755.0561756781382
-828.5260855729281 41.81969033696379 -131.3024363079589 -3566.974883006991 56.617395513312836 1112.4036406803689
-501.45716524981617 -36.065531053590256 -85.64672518230326 -3420.334551558575 83.43862046227267 1481.8952967039756
-331.7459870130012 -14.671079839767053 -45.331108130355936 -3155.245195386366 90.75288356944365 1858.5950193616845
-172.81532813001337 5.519196697920108 -2.9853020336828706 -2769.9864527126597 97.38901301046279 2243.631941921079
77.54218655906283 1.110884479199413 63.36398901150975 -2228.363356372325 122.71563951326512 2644.6932244831273
305.62608074661523 -118.69596043668592 77.60054978736663 -1342.2134350061594 237.56622898170798 3104.690673659064
313.0450580732905 583.7473261195605 216.49210731830442 -83.15130669408236 386.1890675405893 3764.802797357635
1410.8350040194657 4140.665898290022 1472.3999868177123 -17.355787970754022 10.270991630799507 4615.46596446907
343.25633786318934 585.4962069914187 223.6225818750219 47.25681968462342 -364.5677062036576 3764.367196719298
369.6738062569877 -115.13563427784086 92.2087395426326 1302.7007305751313 -212.79664523682325 3103.7106544268977
182.38723963073767 6.592949639213195 85.95366255175675 2182.570485566134 -93.06019579945891 2642.9207266598555
-17.518829186541666 12.930187628479196 27.794446360179307 2714.787082718097 -61.867102942881544 2240.5816707926933
-115.04142184208047 -6.2429741258322835 -7.426721433653611 3086.721150685604 -49.911002269291814 1853.5224661262325
-213.29695496623825 -29.224069907500468 -44.53376610376627 3333.0842124367764 -40.515407000473616 1473.5006902721686
-495.12699948328276 37.57837399205702 -107.20871589810545 3452.9137262585004 -16.67047642188968 1100.7667807362657
-757.1898364415448 607.1054956883163 32.4215823526778 3592.42291232133 67.06233441155922 748.6585588332225
-217.97827266004407 29.124849234282607 342.50963950854634 3636.6504741291237 243.63697902248072 506.2541831504062
-2643.32852654856 -8523.327973447722 -2068.492371797981 2811.588807151117 415.5618514243722 222.6880444256214
-2037.240375238896 -4070.838332525307 -717.3687002473345 -2157.4240260915485 5.595343019491679 112.18505110541258
-1914.173915982302 -541.7684263027929 98.50768011786425 -3129.5227447760426 202.31268278780001 382.10737646325947
-3528.823931391622 441.8323281363408 -65.89790174528514 -3437.9899045017055 458.97230612937614 698.0463987011675
-4909.099964690793 102.08405873582717 -344.35850652194654 -3204.212393188576 544.4299562750034 1047.996629503544
-6068.48877695734 10.659745367658385 -441.6239242260234 -3018.478586415936 518.3793790753612 1399.4003609140893
-7270.341871408834 32.503561136882105 -518.197649955235 -2781.7896996043182 444.94308091734445 1751.7767251520036
-8465.425659101425 43.51517470080142 -607.9273991058737 -2442.6458551240335 350.1759307095474 2113.8415310472956
-9426.665524257489 124.95836180797923 -634.6108734398545 -1960.1503305081649 237.5422517426242 2477.4452136070545
-10122.720871868081 -82.17551525327013 -742.101618933214 -1245.9022271493538 211.44191145792547 2865.5008385125584
-11213.413509479853 209.2943571229335 -1004.1020019088133 320.27053172491 432.2003065089071 3402.7236217649147
-9168.53615128759 7493.164956074202 1511.0046737199207 -15.621989131625696 16.542170913372143 4512.220204847043
-11182.520585291697 211.34904192599882 -995.3781719917457 -352.59626276353566 -397.74515055524097 3402.434076206307
-10057.892218892808 -78.04439496097176 -724.3493459272634 1210.2743119285133 -173.0181807525606 2864.831404414826
-9322.438071704219 131.15615976491102 -607.4841233050439 1918.8137336716104 -193.06935988747495 2476.1815208803196
-8315.516170598781 51.51667223661126 -571.6779515033771 2392.7897904721667 -298.7453650018111 2111.574238314484
-7070.219183433368 41.240191699536126 -474.7029964681499 2719.6693188932527 -388.01117887864916 1747.790395821866
-5824.240543587847 14.869977710468625 -398.2823049422956 2938.906523005449 -461.3301597853207 1392.7408419628975
-4659.026865941807 102.71935164883999 -317.4054709990066 3102.5034937637747 -497.34393858035156 1038.966296551353
-3333.1747323004156 495.58030480312743 -57.48225634500544 3339.4139761188344 -432.64026987600215 691.9714950580311
-1784.6760071300648 -420.60591119986157 110.95607264237549 3106.1754078248537 -191.57356737795666 399.04845356077607
-2077.3545491568507 -4305.13416203551 -809.7852948726373 2172.847119902011 6.058825801270231 187.5721624863185
-1897.17862916405 -1629.0495460501852 12.240208018248083 -1194.5049195178033 345.44961590876727 164.39775673868314
-3070.0488698051986 -506.3685066104017 57.71211735572733 -1803.0631871480985 630.0441593352793 274.3040192720397
-5963.070789848774 254.19653493780646 -229.54582405323825 -2065.425002321416 1004.7537903295977 548.4626763454138
-8980.166314408327 108.70000090904017 -632.3825548870805 -1920.6488103232814 1085.231304860746 827.5867630978083
-11716.958085231317 36.85950550589301 -906.2362820312106 -1787.9173976367076 996.0178066288605 1099.5169490389628
-14349.5763940572 39.6120324441071 -1140.3507259440078 -1639.1659351298435 829.2644093587136 1370.3915701942192
-16890.1083741093 62.195496333091924 -1369.0126917389014 -1428.4986399365882 611.6774086848027 1644.340573373828
-19333.18458414715 36.69217715394113 -1635.4786598834282 -1144.5682185687679 362.2055360956009 1922.4076626304252
-20725.359406815634 403.51118702339494 -1593.8414369575248 -664.121575071809 3.7724416787320543 2154.5022437188136
-23397.324981751684 -1411.682087287294 -2935.061516487206 337.5882021983341 168.75826639982512 2461.851372009915
-19366.940288683363 11962.572157890898 1629.2249826635925 -9.883879249065217 23.790129044225047 3271.7620904117884
-23365.020787990372 -1409.319297844898 -2924.5995640716633 -358.0350023989602 -119.436318646543 2461.9428202512654
-20658.27407618527 408.23201521268874 -1572.6688924798373 641.6106496299558 50.575592517399286 2154.637396966648
-19227.324576164876 43.662140138637724 -1603.4489429434557 1118.522588361367 -300.2590412613795 1922.4664991501666
-16742.41269845906 70.98567586566362 -1326.9051049884306 1397.2392348146054 -541.1615863726032 1644.0716941815724
-14163.488778602848 48.47480770324627 -1091.7324639429278 1600.5379501766188 -752.4236653281637 1369.3317568212535
-11513.145788043814 42.09823449681976 -860.4928675047108 1738.8126756302233 -920.9676139278072 1097.0913411093381
-8803.17032328712 114.6984197236802 -603.3176302870579 1861.1801066064863 -1028.2618257760184 823.8638216008632
-5853.404715553682 291.6661993477762 -220.46437005346547 2017.4712341233608 -983.036788884157 546.8701020895717
-3022.0161731063763 -450.51795320399503 54.35002377503183 1802.5998982509914 -634.2553350531712 286.3233890103342
-1928.5329851314332 -1730.546583722506 -39.49779727814757 1210.25179057335 -353.7610873344913 213.27570153642992
-1657.1796598914093 -703.451549104585 513.3821760419249 -588.9700609300169 691.5840613444925 198.41559045747334
-3720.957772799413 -455.8558763959701 160.57340381031617 -844.5892988238683 1118.8023493972942 229.41643928224747
-8521.689509103267 -359.1794606193089 -672.5863629506052 -949.5604852813908 1660.1017314250698 455.4776447889436
-13689.474137408592 -930.9296697273502 -1606.3438990031218 -912.9992269379097 1733.215462436426 677.8759015588096
-18203.430389645924 -1382.6465433477888 -2298.912736193051 -848.9773338540878 1562.2924543893778 888.754277289258
-22470.519031842585 -1753.8948247420249 -2914.0387561912694 -761.6758129331977 1275.442677958056 1097.4143830680625
-26612.307057334187 -2074.75824062042 -3512.4375275065736 -647.2067368771168 900.4426944302834 1309.0529245484695
-30628.97645605392 -2552.1329100340213 -4196.554395730119 -474.4059307860339 455.17555883191955 1502.6090527961842
-34209.28791066109 -2379.4151056732926 -4688.661401883324 -232.15426504634274 -184.32965616006297 1731.8107048412162
-37378.04456925455 -5650.267440399253 -6590.919606798267 645.1990650357345 -1338.443984668909 1555.2857435325282
-30232.673719550006 11950.749294427467 -720.4333037274464 -6.386548295432249 33.079995134632554 3207.4447067038377
-37342.41403281272 -5646.580373096935 -6577.97241674267 -658.392749922897 1406.8626755323626 1555.4723814758077
-34136.160634042404 -2372.1955814951084 -4662.687261362035 217.7088395311721 259.26532531516426 1732.1307675609307
-30515.89347068546 -2541.864032058925 -4157.866417592902 457.9045251324935 -370.39351589997204 1502.9415353742074
-26459.612875327322 -2062.7678324687154 -3462.9512515472816 627.9260957977717 -804.5584191238937 1309.178552998501
-22290.021338404676 -1744.0031563529692 -2860.217718345367 739.0825492829874 -1171.403366980755 1097.008092864954
-18034.106058380316 -1382.3640700176866 -2256.256325565099 822.8279587312101 -1461.3142318186149 887.5955744417555
-13598.71353938815 -943.2745069358341 -1596.7460544121423 885.1960661575151 -1659.459235650753 676.4296298186719
-8539.826520741435 -363.7260312855426 -699.4034986689193 929.5590431537023 -1642.076522631995 456.4099447447742
-3780.609968219551 -451.6321004312184 124.508896373972 845.7911032564477 -1145.6269276463672 237.67440140645354
-1730.2802031300212 -765.2066805578252 469.85022883769534 593.7455636023802 -729.3517851804734 231.02426834643046
SCALARS Strain float 6
LOOKUP_TABLE default
0.022866156546667172 -0.08497772502229964 -5.908901840045999e-18 -0.04814107801245899 0.01984695712469203 -0.025009516209986447
0.027531627692724304 0.008833602009026699 -0.0031855260794252317 -0.021385206057120423 0.02065833044707829 -0.0008505029367496225
0.03836406454523531 -0.011981245398944759 -0.008401613892748946 -0.010081565744799967 0.020181754463213415 -0.007015559888914872
0.053950728644630526 -0.014074767774150634 -0.011811926790272402 -0.010396327528373465 0.017957355943661206 -0.00761214913676061
0.07323451930264702 -0.02024484488001871 -0.015622958961592137 -0.009798254543688389 0.016047372825641774 -0.01045476860750798
0.09279120416752108 -0.02565615492907427 -0.019290592856416596 -0.008890152985375667 0.01260428863505679 -0.01289205396645231
0.11186641506080504 -0.03111997972474536 -0.022740711178659875 -0.007426037914361263 0.007861440553727306 -0.015396474180244972
0.12980315227642272 -0.03636191207241809 -0.02575979044363693 -0.005413166123260914 0.0019161265084381388 -0.017857388190708107
0.14485325273669847 -0.04091396867855368 -0.028039246570959176 -0.0028174033318627504 -0.0038792764342654956 -0.020394257913867467
0.1544335714472356 -0.04356159216765104 -0.029296373333765603 -0.0005234888467133558 -0.005523025698123271 -0.023120029883653744
0.15754589934228014 -0.043711964157733325 -0.02964250873967942 -6.4118206884282e-05 0.0001327636291328976 -0.024979233125236824
0.15455099517380713 -0.043599002387568454 -0.029324036465942508 0.00039192336147289065 0.0057862210372251425 -0.023126479390097848
0.14511067979609044 -0.04099577863220422 -0.02809893311567062 0.0026758547665667425 0.004134768490235712 -0.020407042243746502
0.13024873811597296 -0.036502864747894645 -0.025861188890966943 0.005254745156864601 -0.0016766582146132164 -0.01787683526387379
0.11258031995008906 -0.031343541405377484 -0.022900228565967018 0.007244400088650498 -0.007650297381720072 -0.015419955458413091
0.09389146910462451 -0.02599806657485645 -0.01953817135634417 0.008676352808578652 -0.012448583930778386 -0.012928960252799406
0.07488796198238333 -0.020746193134231445 -0.015995131555261725 0.00955320610644697 -0.01594777974643702 -0.01045830271751406
0.05638140357868435 -0.014794949671798239 -0.012432500602974616 0.010049402380950687 -0.018072232558716043 -0.007807017233719773
0.042291136379690744 -0.013014842530111289 -0.009145328727546427 0.009661493937338783 -0.019865749260522998 -0.006368485411144964
0.03598391685258666 0.007397640956969476 -0.005459856314097191 0.0221887314907428 -0.02656364615922021 -0.004678686189980969
0.03479895936991335 -0.08967758665447216 0.007157643475905799 0.028937146223129578 -0.034794431465160376 -0.009700121251385191
0.014045454779851667 -0.07377158557753259 0.00593652272069033 -0.030899750421029284 0.01639786758672237 -0.014376493739434545
0.012684334608921492 0.0058991031374668445 -0.0020833061460101255 -0.025603128027247696 0.013730431433676969 -0.004312150632257748
0.020251937980477558 -0.007349005234658807 -0.0054333614525874105 -0.021302437469818428 0.012457872644620444 -0.007559180986941489
0.0351741295450378 -0.011288713469190397 -0.00840056966209754 -0.021575594969853333 0.01101488900295874 -0.009802563017457954
0.047761387079424414 -0.015928276939675357 -0.011119269129788806 -0.02109027359529196 0.009558705339900862 -0.013005143871060184
0.06079338733345739 -0.02034677821985863 -0.01381260517824474 -0.019371735410358498 0.007532406381057073 -0.016198698181287937
0.07345648246305961 -0.024704972836749283 -0.01630603663243885 -0.016831575834539775 0.004713189678813606 -0.01941058100210828
0.08536272975646188 -0.028959360423072712 -0.01847900648516775 -0.013126411524096014 0.001233506604131884 -0.022725516487786552
0.0954009163614277 -0.03264433341330227 -0.020131239694548587 -0.007753730841320712 -0.0021936030546832828 -0.026498937254500664
0.10186855428272734 -0.03425137554168218 -0.021123531869036625 -0.002040772005178232 -0.0032714160015236532 -0.031232496008742294
0.10400896716607136 -0.03300464313087392 -0.02149724377945757 -0.00011432049323052278 3.180253123546036e-05 -0.03490387884733864
0.10199201051804617 -0.0342902989843395 -0.021146204838984353 0.0018048506410914158 0.0033286887594670992 -0.031233172793166206
0.09566849140730316 -0.03272876605740147 -0.02018103286014962 0.007495602716547079 0.0022316715316465265 -0.026499426333700622
0.08581750363357876 -0.02910289575428229 -0.018565537792774197 0.012829936717827312 -0.0012277054679689556 -0.022723983114817135
0.07416735034998403 -0.024929011389612427 -0.01644647119099277 0.01647877128930027 -0.004754263825038047 -0.019403232753522116
0.06186029440475034 -0.020683023161505436 -0.01403287816002806 0.01894252964904365 -0.00763002056794494 -0.016182618630770043
0.04931569704081952 -0.016415811904759343 -0.011469939951852713 0.0205637179695331 -0.009737558412789001 -0.012963292407671103
0.03741982156753269 -0.011965588644088814 -0.008921802152765635 0.02086475845018165 -0.01119719300944981 -0.009794028766979851
0.023474723991988182 -0.008285200960746359 -0.006353079525905892 0.020205316864945276 -0.012973287913283975 -0.007264846090500626
0.015594023239742186 0.005526251023608077 -0.002924686121538731 0.024149111513714343 -0.01570152171249213 -0.006185130494665771
0.016076215319549333 -0.07739144640898943 0.0073758232766697055 0.019336158003504623 -0.01941578973026276 -0.0058392357085825485
0.007242422551894696 -0.05133096743064314 0.006491344281451798 -0.03627822959197567 0.009985080481609648 -0.004761483647391305
0.004253054296549322 0.001230985754399055 0.0003110727710772573 -0.04158788285874755 0.007814369343041219 -0.006701639546905707
0.006293077113804645 -0.00022948094480207038 -0.0023459067520947754 -0.03627437750508085 0.006157976763944655 -0.008630411815521906
0.015384640706220648 -0.005091313955286106 -0.004071298414758228 -0.036892494996691255 0.004993885972091229 -0.012502280281629514
0.022805652724503706 -0.007550574050395567 -0.005566843690496762 -0.035639518692346966 0.004084289353164882 -0.01649989311617025
0.029505594754538175 -0.009858516465450145 -0.006984023617947423 -0.032896985635287854 0.003090884081627179 -0.0206992129999961
0.036106174155677885 -0.012093448691394356 -0.008294604862644916 -0.028818969465860947 0.0017579117858712544 -0.02493685295131607
0.042480131274986115 -0.014437378349151162 -0.009426800415958886 -0.022892541369784972 -1.7095583029435384e-05 -0.02940684010952976
0.047922939820249526 -0.016535751735280466 -0.01031576056830034 -0.013748382498949876 -0.0022734040734341938 -0.03467040374221541
0.05071769781228351 -0.015797124358161243 -0.010971412539953061 -0.002967314131208136 -0.0034749555531534545 -0.04185689208352372
0.051214294460183746 -0.010463129003333918 -0.011396761035923 -0.00018268548605496633 -4.887857589182456e-05 -0.048623233348825415
0.050842940209053736 -0.015838466477617375 -0.010988494505347205 0.0025898226643650776 0.0033675471590524043 -0.04185312074015082
0.0481918253144493 -0.016624253833344746 -0.010353965704920092 0.013333814172895996 0.002137525046350399 -0.03466173150042066
0.04292980483433128 -0.014584553883192406 -0.009494925531464603 0.022413556978851036 -0.0001644344466846845 -0.02939054295659635
0.036793583727074405 -0.012316545651904563 -0.008407475199314292 0.02824393768044673 -0.001997755574116154 -0.024908519574730486
0.030508560368910885 -0.010182682949905087 -0.007165825091495448 0.03218865142434564 -0.003393885840795624 -0.0206489812933446
0.024221041297615698 -0.008004916143422509 -0.005853193822531936 0.03475139967776741 -0.0044349868976277275 -0.01642627016265738
0.017309838461240932 -0.005697235826062598 -0.004523528392675392 0.03570600133534629 -0.005355367589637158 -0.012355703805708914
0.008294614530191273 -0.0007706705671457493 -0.0030394600055086143 0.03455020721608 -0.0066593782207728484 -0.008662812344837607
0.005590236601285209 0.0019521494136016124 -0.00029526810012991717 0.039289498357405514 -0.008557005733263534 -0.006804546588773118
0.00811616979940459 -0.053540780354472815 0.006795655806235085 0.0342911422266583 -0.01095671332668697 -0.004550781186503733
0.0019462514386021377 -0.030780261374002516 0.005797245997420103 -0.03354822426186185 0.004504367986473256 -0.0016791090784054083
-0.0022193471137499066 -0.0006525498218183833 0.002254742888230436 -0.043980342111825874 0.002552059802109926 -0.005819980368271716
-0.005573448057400287 0.0038917152697773142 0.0008349719936805797 -0.044156810403751016 0.00040254726862108854 -0.008923391167115234
-0.0036440057354143554 0.0014989465768276617 0.0004759521921128992 -0.04215515770832091 -0.0006691146742454546 -0.013146588480798258
-0.002113379492675061 0.0006366619821868994 0.00034368219868491666 -0.04042213560941824 -0.0009860927872779146 -0.017513308051961152
-0.0014261151392308932 0.00044750931228499887 0.0002663364178462466 -0.03728926140014507 -0.0010725340785480322 -0.02196521386516458
-0.0007889795297208813 0.00026481538979834655 0.00021456153362429812 -0.03273620353216444 -0.0011509610628605616 -0.02651565022267895
0.00026454420230173864 -0.0001870953099866347 0.00018076394409644302 -0.026335203302601477 -0.0014502757396947295 -0.03125546538027166
0.0014452486542693745 -0.001062108861827263 9.782506224939733e-05 -0.015862522413703145 -0.00280760088797315 -0.036691798870545994
0.00033169649104503653 0.001931300802343914 -0.0002388436724610935 -0.000982697260799126 -0.004564052616403299 -0.04449312396868448
-0.001241294370601791 0.014889524550439286 -0.0008775012903737371 -0.00020511385781984704 -0.00012138444657260869 -0.054546415943735146
0.00045691227813680056 0.0018883296867241827 -0.0002500144617359391 0.0005584896870084193 0.004308527436909545 -0.04448797596119706
0.0017115994303379995 -0.001153183627305754 7.203312705950302e-05 0.015395554088496197 0.0025148694437133693 -0.036680216825058516
0.0007028329817072095 -0.0003359514592588612 0.0001329982080647189 0.025794014829307984 0.001099802314010074 -0.03123451767871859
-0.00013516463355776615 4.4761374851320476e-05 0.00013259563104842277 0.032083847341094686 0.0007311566711384331 -0.026479601563932104
-0.0005042750598901906 0.00013862485841805984 0.00013162998799507624 0.036479431780778844 0.0005898572995437633 -0.021905265508773367
-0.0008689527462057045 0.00021875066555666336 0.00012828427890599408 0.039390995237899205 0.0004788184463759384 -0.017414099066889437
-0.0021556268041585188 0.0009921776754821486 0.00013661759885865983 0.04080716221949499 0.0001970147213550245 -0.013009061954164859
-0.004313854362983821 0.003747890781431913 0.0003520312935402884 0.04245590714575624 -0.0007925548612307172 -0.00884778296803904
-0.001497584633102287 -3.7429821916652614e-05 0.0018143893933537706 0.042978596512579 -0.0028793461157317914 -0.005983003982716527
0.0024282617137629968 -0.0323171895635017 0.005825020810022921 0.033227867720976016 -0.0049111855168480255 -0.00263176779781059
-0.002730810297303842 -0.014747525499420003 0.005068431418546217 -0.025496829399238946 -6.612678114327402e-05 -0.0013258233312310533
-0.008096344055124088 1.33247475277304e-05 0.0037967744672887044 -0.03698526880187827 -0.0023909680693109878 -0.004515814449105966
-0.016552746633233518 0.006910222173059354 0.003909998087420064 -0.04063078978049429 -0.005424218163347396 -0.00824963925738212
-0.02198371650163121 0.007627825455013444 0.004989755751207211 -0.03786796464681127 -0.006434172210527824 -0.012385414712338047
-0.026996361469570598 0.008925879798768771 0.006253294478415387 -0.03567292874863664 -0.006126301752718676 -0.01653836790171575
-0.03238469838533 0.01076847917068012 0.007514335650575809 -0.03287569644997299 -0.005258418229050025 -0.020702815842659924
-0.03770955450813613 0.012570550418959507 0.008721117028256398 -0.028867632833377004 -0.004138442817492211 -0.02498176354872111
-0.042153498958067 0.014287914914132432 0.009799551251349075 -0.023165412996937054 -0.0028073175205982044 -0.02927889797903329
-0.04488835332552371 0.014442141963549437 0.010542578623652042 -0.014724299048122839 -0.002498858953603237 -0.03386500990971976
-0.04988623280024731 0.017611586411617506 0.010441517017250497 0.003785015375081499 -0.005107821804205202 -0.04021400643900485
-0.05395357745565544 0.04450192908824432 0.009152800146703334 -0.00018462350791962162 -0.00019549838354903629 -0.05332623878457107
-0.049760508392189894 0.01756690304149613 0.01043624223189168 -0.0041670467419410466 0.004700624506507598 -0.04021058453695929
-0.04462351862102767 0.014348309429524172 0.010529234719238023 0.014303241868135653 0.0020447603179685253 -0.03385709841584055
-0.04172518037564992 0.014136967355599061 0.009772274774003395 0.022676889579654986 0.002281728798662651 -0.029263963428559664
-0.037088489940112504 0.012353067767558542 0.00867055408185695 0.028278424796394638 0.003530627040911425 -0.024954968271004404
-0.03154627428186925 0.01047598566207612 0.00742723045934806 0.03214154649597021 0.004585586659467993 -0.02065570467789615
-0.02595098566104219 0.008552849237610792 0.006111494840107329 0.03473253163553091 0.005452083706570917 -0.016459664495961382
-0.020884641046125765 0.007252950239664865 0.0047703944695000325 0.03666595038090515 0.005877701092336869 -0.012278692595612954
-0.015748200667480883 0.0068762609154601525 0.0036081639632073816 0.03946580153609476 0.005113021371275641 -0.00817784494159896
-0.007689913888940272 0.0003705003143096291 0.0035115484006508113 0.0367093457289606 0.0022640512508430156 -0.00471602717847448
-0.002467630509480355 -0.015631782767456776 0.00502255144767109 0.02567910232618679 -7.160430491449623e-05 -0.0022167619203363343
-0.006418799217054889 -0.00483440008956139 0.004864130275364512 -0.014116876321554478 -0.004082586369828809 -0.001942882579626863
-0.013342963422851462 0.001806056905110683 0.005139260592178354 -0.02130892857537664 -0.007445976428503747 -0.0032417747732115393
-0.027138481832327494 0.00959991599593731 0.006741438420088888 -0.024409568209246175 -0.011874362976611043 -0.0064818316295280915
-0.04010482521915036 0.01360211209863383 0.00922298790528028 -0.0226985768492768 -0.012825460875649486 -0.009780570836624508
-0.052073386601260714 0.017380990071289296 0.01180815132675851 -0.021129932881213533 -0.011771119532929574 -0.012994291215923848
-0.06372433993643574 0.021302682583913064 0.01433017537518396 -0.019371961051617228 -0.009800397565192534 -0.016195536738628807
-0.0749911964340785 0.025181508254940272 0.016724368961800597 -0.016882256653849032 -0.007228914829942041 -0.019433115867134258
-0.08569794836063975 0.028760414319817455 0.018879404828255078 -0.01352671531038492 -0.0042806108811453076 -0.022719363285626605
-0.09258300150838009 0.03226941563709933 0.02046687740445145 -0.007848709523562317 -4.4583401668473645e-05 -0.02546229924396623
-0.1004240995482948 0.029491063009887155 0.020489275473736763 0.003989678753346962 -0.0019944158756134063 -0.02909460712373084
-0.10656581559481375 0.0785631215898521 0.017502433735856 -0.00011680948202366783 -0.00028115607054677455 -0.038666279250312005
-0.1002947505882638 0.029443485489881155 0.020489556643979962 -0.0042313227557246175 0.001411520129369516 -0.02909568787568169
-0.09231337733184182 0.03217052229912706 0.02046519875369717 0.00758267131372368 -0.0005977115479943834 -0.02546389650962908
-0.08526994788786608 0.028604064526594072 0.018871135399402186 0.013218903316924541 0.003548515942135438 -0.022720058626281722
-0.07438925849879707 0.024962640985916915 0.016702377280882735 0.01651282732049467 0.006395546020738959 -0.019429938203973637
-0.06295687037158403 0.02102291445661692 0.014285326033331585 0.01891544850207102 0.008892279681148765 -0.016183011671520534
-0.051216488173461264 0.017064499232574637 0.01173100635710675 0.02054960434836274 0.010884162710080535 -0.01296562494041619
-0.03934811163698394 0.013348385480889166 0.009105563367204028 0.021995764896303765 0.01215218521375226 -0.009736572437098388
-0.026703478474344827 0.009608304204707315 0.006582078112777711 0.02384284185791328 0.011617707505041498 -0.0064630102974368225
-0.01319620815584211 0.001999008598173279 0.004982319371226611 0.02130345334303629 0.007495744868853343 -0.0033838218701377305
-0.006352362140158171 -0.005182442495476155 0.004810118515361563 0.014302975706820065 0.0041808128503452386 -0.002520531018187004
-0.0072734493089484506 -0.001637783199767003 0.005552597903353032 -0.006960555265522511 -0.008173266179504259 -0.002344911523576778
-0.016510786504630122 0.002782997428637911 0.0064255340843945175 -0.00998150989518753 -0.013222209583772846 -0.002711285191513235
-0.03732799891829274 0.010905015004541874 0.009053065127107449 -0.011222078462399079 -0.019619384098645942 -0.005382917620225001
-0.05876496393991726 0.01662643518723813 0.012635351105157436 -0.01078999086382381 -0.02048345546518762 -0.008011260654787852
-0.07772255729901291 0.02167298361087397 0.0162586833804777 -0.010033368491024326 -0.01846345627924096 -0.010503459640682458
-0.09577335889803165 0.026643056871293175 0.019787660912664356 -0.00900162324379922 -0.015073413466854063 -0.012969442709005408
-0.11334612875867667 0.03164847788559378 0.023153100281280307 -0.0076488068903726395 -0.010641595479679907 -0.015470625471920279
-0.13001986483793443 0.03588875611597179 0.026171720064074106 -0.005606615545665704 -0.005379347513498107 -0.017758106987584836
-0.14585847708370558 0.04222713494595534 0.02858158865006705 -0.002743641314170728 0.002178441390961801 -0.020466853784501672
-0.15320767479590625 0.034274644601836324 0.02871624543679979 0.0076250798595650275 0.01581797436433005 -0.018380649696268996
-0.15273531143973984 0.09653037000674757 0.021655200108148805 -7.547738895082447e-05 -0.00039094539705478756 -0.03790616471556937
-0.15306840089023768 0.034225161644342646 0.02872148138647647 -0.0077810052264455 -0.016626558892787382 -0.018382855417415148
-0.14557134445996286 0.04212481266868505 0.028590089105889702 0.002572922648955576 -0.0030640447538541923 -0.020470636343884956
-0.12957261061729106 0.03572847242918718 0.026179367423799026 0.0054115989333675864 0.004377377915085603 -0.017762036327121904
-0.11273589613702041 0.031427279116381164 0.02315346800361716 0.007420944768497023 0.009508417680523474 -0.01547211017180235
-0.09503979580010738 0.026368493457573472 0.019772680136773545 0.008734611946062804 0.013843857973401673 -0.012964641097488563
-0.07701145427153311 0.021385202932598792 0.01622129414981661 0.009724330421391368 0.017270077285157986 -0.010489765879788475
-0.05834866986824738 0.016433469869158706 0.012572047088593928 0.010461408054615578 0.01961179096683246 -0.007994168352409391
-0.03736767118988873 0.01094564988426823 0.008962101213377927 0.010985697782759258 0.019406358903938725 -0.005393935710627288
-0.016738513668224164 0.002932719186937366 0.006337188713503054 0.009995713038528175 0.01353922732681017 -0.0028088792893575937
-0.007462151216440408 -0.0017594440376029908 0.005538619517934627 0.007016993024417564 0.008619612006722411 -0.002730286807749265
0.021389078158603015 -0.05468498780484868 4.302927372051846e-18 -0.02476218804133233 0.013210444459222773 0.004673097393465181
0.027114340443726792 0.002737111854636205 -0.0033933773653103913 -0.011069700763852035 0.014254274738008266 -0.0014646953725610016
0.03966309040144011 -0.012143198280754268 -0.007685641725223815 -0.0039559006920370605 0.013370093206115626 0.0003659480009056785
0.055326419865032055 -0.01519877408022371 -0.010933667388776724 -0.004299938339208621 0.01188055190365623 -0.0002502981939239493
0.07333061233200514 -0.020888345388146497 -0.014101678633975481 -0.0042704969575855685 0.009067671178007173 -2.568672383572542e-05
0.09150972369957437 -0.026200067400744317 -0.016978847015519483 -0.004379618970546564 0.005423631178406099 1.747370991127202e-05
0.10929955457409792 -0.03158548291078466 -0.01946080832462393 -0.004480980951672728 0.0008432819907136277 8.199796956843327e-05
0.12661598957985482 -0.036928508168416065 -0.02136556125833415 -0.004719519507778066 -0.004215880156661873 6.497732379780088e-06
0.14342205587199197 -0.04240323868399272 -0.02247713290235664 -0.004958925149973781 -0.008152326154173327 -0.0005321229385482298
0.1580364555452858 -0.04800949717915849 -0.022725681451364912 -0.003992896121809169 -0.0074490075584169 -0.002044040873759277
0.16439570090091246 -0.05150270457140334 -0.022596197586020883 1.344081873370695e-05 7.052143555268741e-05 -0.0036274782654707365
0.15807597590958947 -0.04801923182642815 -0.02274595043923725 0.004019568097567485 0.007582118250545849 -0.0020533456358249468
0.14350693184846383 -0.04242336028314694 -0.022521864761806107 0.004984612108629421 0.00826045623105093 -0.0005504034794080132
0.12676014578364286 -0.036960681159335936 -0.021444154983847157 0.004742179545681024 0.004277899377758186 -1.8985604994507585e-05
0.1095308268309808 -0.03163331885167614 -0.019589863977092007 0.004496832045820793 -0.0008599691933751147 5.1680967016576386e-05
0.09187942617784116 -0.02627147419884666 -0.017187114933227964 0.0043804876918940375 -0.005568527660943509 -1.6014395707561376e-06
0.07393581917551463 -0.020998973916328743 -0.014432118832660597 0.00425366461240791 -0.00945150775451065 -5.24923915034771e-05
0.05631763864205649 -0.015375864431959638 -0.01147448016082807 0.004217532910722821 -0.012541866283412275 -9.70771485939356e-05
0.04148906963723489 -0.012491754169892039 -0.008451352984793652 0.0038029922610584416 -0.015097336212480477 -7.226168699813761e-05
0.031207937616908047 0.0019881560484025164 -0.004794298698923799 0.010976879759401582 -0.01275608625566004 0.0017278333580901847
0.02715170522313731 -0.05562778692710594 0.0020474309372104102 0.014631432344435523 -0.010776514366753868 -0.008609222247565905
0.012803822453546622 -0.04814311647880706 0.0025504816121441932 -0.015890564331668994 0.002224822686678336 -0.0004378957240490901
0.01421990910882417 0.0015524714738466934 -0.0017922771967556186 -0.013805147584488342 0.004793312718224779 -0.0013311468350849355
0.023429532361929746 -0.008324396939419394 -0.0048751196677144365 -0.010869141192558343 0.008154630192152061 8.739716753366702e-05
0.036970100307472484 -0.012224796767841384 -0.007438025907805375 -0.011285821927976699 0.006838275961749536 -0.00011771116212336836
0.04882958106179419 -0.016556165796238247 -0.009679225884868997 -0.011622441565950459 0.005095733812196244 1.8503311345660193e-05
0.060948542773502756 -0.020825007003789104 -0.011710850420405924 -0.011686415584993075 0.0027769678653757975 2.2682986887563566e-05
0.07278418854927357 -0.025083741393048586 -0.013435608019185313 -0.011786992008053302 5.4648525914946025e-06 -0.00011153179967934618
0.08419564391109893 -0.029252366745545728 -0.014752226816023034 -0.012101610416783013 -0.002971664422110128 -0.000640391695910289
0.09501952004220068 -0.03350747887979425 -0.015536460373380183 -0.012546632132551219 -0.005276803136462785 -0.002173995738689066
0.1042017204914085 -0.038538002260580705 -0.015753006473486413 -0.010294533423580967 -0.004863194737305568 -0.005520105400027446
0.10815175075171839 -0.04298292315637513 -0.015690516936780727 1.945674581441283e-05 -2.7169735362651106e-05 -0.008852635524929906
0.1042404726578868 -0.038549956197949375 -0.01576108966778535 0.010332849021529558 0.00479649013208478 -0.005522108441268199
0.09510224674525634 -0.03353195393406865 -0.015556614088613727 0.01258238171979983 0.005172559642754995 -0.002175784676977726
0.08433450192830533 -0.02929071053835015 -0.014793440719230866 0.012130265633880777 0.0028026474716224374 -0.0006362563283633417
0.07300236216543131 -0.025138723921934576 -0.013514350422587803 0.0117993421091636 -0.0002704628601650115 -9.002981086434351e-05
0.06128967278962896 -0.020903003450344366 -0.011854338333960147 0.011666125298071433 -0.003182769240134521 8.519894958764905e-05
0.04936923532661651 -0.016670217320382236 -0.009935063661872471 0.011547500159299062 -0.005691469612549644 0.00014909598788630704
0.037869485696185014 -0.012395773376347532 -0.007865991942521888 0.011097477246034902 -0.007763691232294243 0.0001780345636468785
0.024994128352370082 -0.008663950726183376 -0.005607160440196347 0.010387940960244434 -0.009319718443158036 0.0003533092023345712
0.015787178478129715 0.0013579866376735462 -0.0026063135482066887 0.012657236868521625 -0.005102383032658586 0.0009691221909354656
0.013945543118156949 -0.04858435845133109 0.0026028714823512896 0.009432330810851649 -0.001525891672293394 -0.009081798737492838
0.007098509673740194 -0.034773298127325845 0.003611988639726103 -0.020972873092300403 -0.0003527787195529063 -0.00875882760183516
0.006274500086850845 -0.0004586009305982325 0.0001937592792626601 -0.023974857570709513 0.0010956947217534783 -0.0013163645449306258
0.009876950029403116 -0.0021534744917934543 -0.0020347981960333254 -0.019826540521552322 0.0032905925770150683 -0.0004013711380213051
0.017829026207205532 -0.005986295957188271 -0.0035896010455345575 -0.020389327317218715 0.002794838144127864 5.568289567104603e-06
0.024364279643318252 -0.008160357674091671 -0.004829503895435974 -0.020610302849184168 0.00177132335011538 -4.350400159158001e-06
0.03038281570998969 -0.010277962404135426 -0.005888690134887207 -0.020690901392577232 0.0005976647912819838 -0.00013304653537932532
0.03624792023596792 -0.012364037345832102 -0.0067608470653814645 -0.020740461176074833 -0.000758821684920263 -0.0005855186359852391
0.041688528085861196 -0.014216548514978599 -0.007400890507392127 -0.020965807832833947 -0.002299282311421597 -0.0017181855918143522
0.046918016107280885 -0.01603996928226544 -0.00776284139877825 -0.021694397085793835 -0.003987066057240281 -0.0043786297022471
0.0525699902641702 -0.02043258426665942 -0.007803130849603778 -0.018764125230633404 -0.0044310714863996705 -0.009910746143655204
0.055585994813275426 -0.028255883566633153 -0.007661811653633701 2.8539453712031676e-05 -0.00011382210211594326 -0.016308903897969143
0.052607411452128036 -0.020448868992770035 -0.007798666596242342 0.01882010334968464 0.004187549697262347 -0.009906109355146814
0.04699689911124433 -0.016072866958074663 -0.00775737578041885 0.02174578055297005 0.0036962779434735835 -0.004365302028652797
0.04181789434701492 -0.01426662362296066 -0.007402416905725791 0.021004846188474608 0.0019311735156057512 -0.0016863079248828395
0.03644472595321571 -0.012432154738765537 -0.006784098198380887 0.02075119157798896 0.0002854874128977516 -0.0005147058918529332
0.03067838810928374 -0.010367172937618517 -0.005959316324719963 0.020645131893656955 -0.0012006832650878626 1.2033232202107231e-05
0.024818258898617333 -0.008276794888634554 -0.00498899008540006 0.020463049889139013 -0.0025292875284924463 0.00028297094786922816
0.018564469244891735 -0.006150970732154101 -0.0039048308278749272 0.020054124288193323 -0.003735845002647931 0.0004829578652288682
0.010815613614200612 -0.0023489489498345513 -0.0025795369317194996 0.019042387791929464 -0.004242785538222886 0.0005580743083857179
0.00696645973119909 -9.394446259732115e-06 -0.00044178700978959634 0.022390175030057607 -0.0012901585994554352 -0.00041614568332100935
0.0075231399904025255 -0.03476594739073405 0.003254128231818844 0.01915598314701383 0.0007884121671416515 -0.01227408174499222
0.0024061319294705003 -0.021929894154825106 0.004198303387406949 -0.019830261375029502 -0.0011389764472389387 -0.009603172512182418
-0.00011330205429995819 -0.00121798036279391 0.002033488384433393 -0.026339693522191857 -0.0010876876106564112 -0.0023612370507743088
-0.0020222484418410502 0.001853105010681597 0.0008261845631069222 -0.02504468274467115 -0.0006804893941902988 -0.0005957621188693562
-0.0008368194595113947 0.00035179928596175755 0.0003653122978511527 -0.023656728173895865 -0.0009512759714842369 -0.00014737850426577934
-0.00021358174349887365 -3.4055739957168135e-05 0.00020029906623529088 -0.02365336529785265 -0.0012778053505243083 -0.00012629054022098685
-0.000170358816994527 8.256924463378716e-07 0.00015566594179270278 -0.02370591407719519 -0.0014501495047381672 -0.00037434911827227235
-0.00023749007629948724 -1.295901968209498e-05 0.00018035524193891125 -0.02376154489143162 -0.00156897136073937 -0.0009748141432546676
-0.0006943710955316509 0.0002885122724214089 0.00025782886881496294 -0.023597808809043466 -0.0018739632033486764 -0.0022602419924505424
-0.0009883556262720353 0.0010404149860818624 0.00035051601684892253 -0.024352859231058267 -0.0031755061517579064 -0.005019751858084441
0.0019016406253635277 -0.002821888380774826 0.00048816347983483247 -0.02383583522415038 -0.004908557770999253 -0.011049277298603083
0.0046995832601649445 -0.01765611482214659 0.0007470891586527094 3.1033044189628017e-05 -0.0001960768015359883 -0.020939405971828383
0.0019374119783532138 -0.0028423978436812446 0.0005054311088516479 0.023896664616741566 0.004497305239054718 -0.011042714369525078
-0.0009142667688325615 0.0009994050790275387 0.00038226583862590447 0.02440852739736238 0.0027083336944498547 -0.005001982817184169
-0.0005766473826517566 0.00022742841474694626 0.0002974669259920458 0.023639589886145965 0.0013188387034094816 -0.0022198880251167977
-6.681203509396259e-05 -9.281635885063921e-05 0.00021525824975870638 0.023771286966751442 0.0009040411832376498 -0.000889241365345531
7.067622170391899e-05 -9.610388782539613e-05 0.00016352299259672198 0.023649778166061147 0.0006709583198118184 -0.00020044228283277728
0.00013796228664156128 -0.00014909615874548408 0.00014339779335923678 0.02347400345622239 0.00040311776102457066 0.00020607221278656285
-0.00034183848203159814 0.00021360612759671572 0.0001844688191212651 0.02325435957710412 3.73193022082991e-05 0.000454211639679233
-0.0015181910814233502 0.0018513952565723014 0.0004677424817901344 0.024237553807062738 -3.246645026976036e-05 0.0003755318222923761
0.00021003916656771657 -0.0007399295099713124 0.0015555310079162095 0.02549368439696084 0.001028068830043364 -0.0017753837515109157
0.002613529925374118 -0.021993104393815438 0.0037934211494110148 0.01924201786168983 0.0014908171649050757 -0.011704488850202362
-0.0018511097099072722 -0.011382897929112613 0.004737416232352446 -0.015014282685031598 -0.0019214055831268876 -0.008305606703282654
-0.005955780791025249 -0.0004573637085661009 0.0037193003041426508 -0.022313378162079858 -0.0031022302967090073 -0.0024078571260732753
-0.013134981648517431 0.004966153050927675 0.0036249064419531353 -0.023066512752759036 -0.004384158350188168 -0.0006185999068518803
-0.01898936498727688 0.006369858956038555 0.004294370125375498 -0.02096902684737136 -0.004685152938471411 -7.579572588270102e-05
-0.02476868931301376 0.008166517433598131 0.005222983562196553 -0.020535076796680273 -0.004360794796415274 2.7361031889492255e-05
-0.03078190309550582 0.01027977572403091 0.00619557502107244 -0.020642763043621934 -0.0035251108364005935 -0.00013630970972503163
-0.036677295264566485 0.012399960537262293 0.007119945568538893 -0.020692082118946634 -0.002428871210845742 -0.0006364582443385248
-0.042773407101790846 0.014478031827219594 0.007922410541013348 -0.020507213354034496 -0.0013539205905822196 -0.0015534157712709896
-0.04895551425326438 0.017920693625322313 0.008463726615375325 -0.02016317213435939 -0.0016908141624982305 -0.0035107415842408696
-0.04904873593240579 0.01701475446682602 0.008616330742117512 -0.0254916657811629 -0.005224150613652624 -0.008075958999043528
-0.04616583786169691 -0.010566360935192202 0.008869749807959175 2.9221861743428226e-05 -0.0002800886084213209 -0.021900760597007688
-0.04901454946121385 0.01698988092462264 0.008646563802898667 0.02554918558801398 0.004641370752486738 -0.00807230355570296
-0.048886132729069644 0.017871314962297793 0.008522154760232296 0.020216638695736287 0.0010425836542437028 -0.0034993834037831137
-0.04266728890966008 0.014405542318291466 0.008003940300149882 0.020549264893005088 0.0006056963398846203 -0.0015244775118164185
-0.036533086548348026 0.012307996654408241 0.0072142769041893175 0.02070686751123338 0.0015641026507865088 -0.0005699498005159521
-0.03059657552623851 0.010175173136406056 0.0062836757773673075 0.0205988990469793 0.002560513309161473 5.856667749701351e-06
-0.024534845714613014 0.008055847395427957 0.005271771804955226 0.020376174487457974 0.0033635722354819534 0.00031484909141971107
-0.01872167083989131 0.006280808733116483 0.004252842761178366 0.020602646178369953 0.003796242856309217 0.0004617989197648301
-0.012917599205120419 0.005032458029734475 0.0034409060063223637 0.022499877572140326 0.0038546100486649055 0.0001688286392767722
-0.005823827136369085 -0.00012235860061612263 0.0034002443679932346 0.02195003242607838 0.0031217203740330013 -0.002004767416801665
-0.0017471327764275032 -0.01144003900357593 0.00438764234743887 0.014878612027496945 0.002211370466486607 -0.00969915707581225
-0.005447196781472045 -0.004519880474169858 0.005495922965733778 -0.007851726934996051 -0.0034433666742690492 -0.0053914567044281905
-0.011360142105797983 0.0011241012987801334 0.005323763842192448 -0.01247500940014264 -0.005739848567083535 -0.0016387223966505297
-0.023951228817996127 0.00794830399992178 0.0062973741684950275 -0.01330657065707748 -0.008476188375023045 -0.0005648440758936757
-0.03692894250372139 0.01240770276640624 0.008069124663713852 -0.011929972383371268 -0.008796747874340913 -8.93396578807356e-05
-0.04932644013230784 0.016621066755850296 0.01005235814617301 -0.01154033053843337 -0.007762036016242818 4.128346879544144e-05
-0.06141132515790687 0.02088030732351035 0.012000645263305491 -0.01163253305974684 -0.005809115986119857 2.322477688096004e-05
-0.07326736012094621 0.025124534154621733 0.013791287614798543 -0.0117406022021791 -0.0032808894461059004 -0.00014616428289873762
-0.08437658794599774 0.02939668543971007 0.015287555769779243 -0.011522645159589248 -0.0007052152425382 -0.0005917955297673394
-0.09656165147814712 0.033185323884581557 0.01627668961704332 -0.011886297692218235 0.001579497331975925 -0.0009281976907121327
-0.10157260474319153 0.04209948953897997 0.01612539501203032 -0.016100251510006654 -0.0032966986915219415 -0.0030182025746919123
-0.09963038892169038 -0.004966364768038638 0.015718820581257783 2.0265886378820978e-05 -0.0003720410891026095 -0.016121730488667597
-0.10153959209666101 0.042069931284108526 0.016168644991615234 0.01614042199771908 0.002525598159039905 -0.0030217608251499953
-0.09649596277286347 0.03312686146881551 0.016361873461985803 0.011924613239749155 -0.0024284148346943564 -0.0009331056147805654
-0.08427999786406919 0.029311506752715096 0.015410993862622664 0.011555063508461125 -0.00026089808443499125 -0.0005924929810671791
-0.07314527536077246 0.025018285238918116 0.013944725860945363 0.011757844533127003 0.0021833895811448297 -0.000131146231903271
-0.06127598797153642 0.0207642400887743 0.012167743582617222 0.011615755098882668 0.004614738598278467 7.710755759569945e-05
-0.049202574615618715 0.016515443060624333 0.010203941563327157 0.01145231701878366 0.006587464461734194 0.00018020038939204797
-0.036857030353038014 0.01235642668717705 0.008159056686030172 0.011722870048797298 0.007868234269143933 0.00020342402960210135
-0.02395547643887425 0.00802894292819412 0.006269234362783366 0.013027597410117725 0.00807456995351669 -0.00013501398103236737
-0.011375928622290582 0.0013254808000262822 0.005152476333353061 0.012351727718176815 0.005867277637193557 -0.0014284604398670853
-0.0054363646285162095 -0.0045139822871461295 0.005233032543415172 0.007823284647195523 0.003771902732346709 -0.006188983919508901
-0.00731851496234227 -0.002188402297878508 0.006668611801558211 -0.0030073500991813105 -0.006583108612389826 -0.003494176536123271
-0.015677931090666203 0.0020120022433583063 0.006927670435150997 -0.004881856037107754 -0.009886930054000346 -0.0011392411237435417
-0.034754958708085516 0.009471865304853796 0.008759040884618895 -0.0047943687032943 -0.013759372594046984 -0.0006131247331943225
-0.05514506168367036 0.015501058651576376 0.01149959714848072 -0.004347281007954209 -0.01387295060704492 -0.0002539896978945333
-0.07393658503607728 0.020937716308443356 0.014418190516606253 -0.004250458217581727 -0.011927765834760719 -0.00012637611567151846
-0.09203505250926385 0.026308692785288534 0.01723907631239482 -0.004349392341305209 -0.008587409056203563 -4.098199219044281e-05
-0.10982525584627899 0.031569304011706385 0.01980648425740928 -0.004404796625215993 -0.004320390006064313 2.3320541266891727e-05
-0.12676120709802116 0.037271203477105636 0.021930021881466404 -0.004604503054833059 0.000398877470422667 1.1735949968222733e-05
-0.1407330731200888 0.040078309979617394 0.02332404686870901 -0.004740393969608852 0.005257451510192879 8.579367322304292e-05
-0.1554216275265778 0.05632435457407425 0.022840561462774786 -0.011491068644858568 0.007843287172263158 0.0018582739159033264
-0.16425536388000345 -0.0020636119180667168 0.019071672602396388 9.728569878919796e-06 -0.00047866338100791293 -0.01714233285410553
-0.1553893033841732 0.05629236244767884 0.022896708022512598 0.01151055069815106 -0.008833645610570783 0.0018515994340980203
-0.1406696657526142 0.04001508950224947 0.023435615109886735 0.00475964672196394 -0.0063430100984361555 7.359133591139705e-05
-0.1266706730841951 0.0371792930268981 0.02209439865797879 0.004622175082199493 -0.0016279583147794055 -3.0982111441175335e-06
-0.10971748951930364 0.03145512493665657 0.020016695805891868 0.004417324747697125 0.002930296735777821 1.1809659596263942e-05
-0.09193330832630076 0.026185739302480634 0.017479912566831683 0.004349215778353971 0.007080304410712333 -3.700485756968143e-05
-0.0738918877236759 0.020833128065735163 0.014661135568860645 0.004221593610805693 0.010460970632720185 -8.236119246957045e-05
-0.05523403401015615 0.015464707306887343 0.011697804995116466 0.004268357742270801 0.012769020160674127 -0.0001325516847791613
-0.034986925478178846 0.00955751092725828 0.008849861394338217 0.0046791677627565885 0.013430756269496906 -0.00042813406440484945
-0.015883015200105648 0.0021624259008062243 0.006872809707177671 0.004824096341319874 0.010302371567841794 -0.0010571297389535327
-0.007441502735304847 -0.002143130548859365 0.006507525824481861 0.0029602175515293927 0.007266864326199802 -0.003976682994417915
0.029693772392247696 -0.0472898774698383 1.0164395367051604e-18 -0.001556029443081924 0.005707884769232057 0.000495299911455545
0.031226579896190425 0.0002886094382835 -0.00317050667022736 -0.010706498260119806 0.0077819601926666085 -0.0005938504622788093
0.03908254329409609 -0.012634505024299091 -0.00605551052885927 -0.004236315444957839 0.007323950701258237 0.0005736328949832071
0.053861283351887015 -0.016040624240428045 -0.008736834421508282 -0.004840805667433438 0.006122267237915986 0.0006619127194287641
0.07090219986710228 -0.02180458309614807 -0.0108060965934887 -0.005072581435605048 0.003936822827842862 0.0009134234600103121
0.08795743785470092 -0.027390292007444236 -0.012258607794744523 -0.005326180708594209 0.0011998371560870446 0.0011735542855622625
0.1049694300577039 -0.03326414615998933 -0.012994727107951699 -0.005668262779922258 -0.0018936315803142624 0.0014172246902839024
0.12278362243947183 -0.03956826834501459 -0.012946374116562935 -0.006319309162861243 -0.004848864633200924 0.001526840442067397
0.14273415455640626 -0.046951249530449046 -0.012145457526302358 -0.00709460053636635 -0.0065007394258193825 0.0012862564163243421
0.1627970120984635 -0.05557533281133286 -0.010933548203265087 -0.00595977413858837 -0.0050457109532140755 0.0005570639362138403
0.1721703421252153 -0.06117900494146372 -0.01023252701254522 1.37889518542703e-05 6.5171329490944965e-06 -6.117060707820941e-05
0.16275091764768745 -0.05555712295600753 -0.010940752406994178 0.005988193909093512 0.005051249564399608 0.0005491550278628698
0.14263492226497365 -0.04691008550295567 -0.012165065269902818 0.00712562563750264 0.006482964610631171 0.0012705330793360045
0.12261592165873758 -0.039493755372968245 -0.012989863174571074 0.006355122545358024 0.004788325600407464 0.001504100557261279
0.10470634731726103 -0.033138396543289685 -0.013081993003482275 0.00571125879559564 0.0017600027495135557 0.0013898217435720016
0.08755629998866986 -0.027184290956958325 -0.012419770650173472 0.005381222355451033 -0.0014612765259501225 0.0011498916696749107
0.0702918182702095 -0.02147483715075857 -0.011086799053102506 0.0051367260618526926 -0.004430352156403529 0.0008996052641490134
0.05294285347618234 -0.015524929484143012 -0.00918536258076965 0.0049583464086380485 -0.006966511101281898 0.0007188953780725434
0.037416465801438197 -0.01178360809170615 -0.006803354075239292 0.0044041007211403135 -0.008626716321152233 0.0005269854187649266
0.026903244399505206 0.0016998067938760679 -0.004033198795163257 0.010462835141713716 -0.00785271270093273 0.0004241621300394115
0.023280126121932015 -0.044953925747074 -0.0035402076119225843 0.013438375451755958 -0.006941466820829988 -0.004145715799976346
0.013110434819450796 -0.04076040811142309 -0.00046730973934936836 -0.002654223685217639 0.0030219811669877053 -0.0014792685792883945
0.01521862625707557 0.0005330624065302411 -0.0014536315757334123 -0.012150749529738948 0.0036633838769546375 -0.001244438194509103
0.02418982846038904 -0.009209981780091931 -0.0037805429267000223 -0.010956750328825648 0.0045858084068631875 0.00013767155798941595
0.036468831677183566 -0.01310348689795287 -0.005688682055398738 -0.012075958709797892 0.0038340264968057466 0.00034787718683579967
0.04760868513521321 -0.017546396301943015 -0.007168068504373842 -0.0127650459010467 0.002428692415992464 0.0005082189444636544
0.05897566571398002 -0.022057119843299406 -0.008157162901440305 -0.013219224104297976 0.0006493151931593336 0.0005873838694665285
0.07030350129634132 -0.026738812542025026 -0.008641348723737478 -0.01396103339200325 -0.0012931479672027844 0.0005120435154482174
0.0820252330475302 -0.031649061498952094 -0.008601117708004155 -0.015496472375590355 -0.0030865904590681686 9.214512247358248e-05
0.09474588765882679 -0.037385566572749204 -0.00808173230592404 -0.0177354864387619 -0.004062586764912005 -0.0009762848529262746
0.10714557743067363 -0.04521141016858099 -0.007278543121561068 -0.015542729162767954 -0.003168412850548621 -0.0027637228764088185
0.11284788047418517 -0.052263487334426074 -0.006765099949894954 2.6743799284728028e-05 -5.851366973673198e-05 -0.004039532992195976
0.10708903450788455 -0.04519681429955631 -0.00725996643435832 0.01559866527504577 0.003040309198064038 -0.002765600775855551
0.09462649417185065 -0.03735200672567521 -0.008048630704985812 0.01779918533796728 0.0039008080849337236 -0.0009780890266396032
0.08182980697884311 -0.03158702101391331 -0.008562905521390798 0.015574662037913913 0.0028663791375353174 9.54653101999322e-05
0.07001066582703055 -0.02663195106817837 -0.008615193146097464 0.014062979145649607 0.0009835493411277946 0.0005312083370086044
0.058551906963212746 -0.02187872711997897 -0.008171959116274894 0.013358085023367017 -0.0010954619479081164 0.0006432034138935203
0.04700626155634726 -0.01725548161268563 -0.00726645567966219 0.012955744283062063 -0.0030818708264525913 0.0006338794808821086
0.03557857130731708 -0.012645135819624832 -0.005941181936555659 0.012372044164352057 -0.004798866118129985 0.000600023742739599
0.022752614852383522 -0.008427041048301484 -0.004250969592622811 0.011528357679404883 -0.005703681553770076 0.0005303369888197978
0.013946854287566217 0.0012399399164487299 -0.002393069378103088 0.013208805951230604 -0.004100576489507172 -0.00015376914966438058
0.012366142657947657 -0.03900874245303057 -0.0026792853871686188 0.009981477693968174 -0.0026814903415170433 -0.005362627501319315
0.006742466628386964 -0.02860072176535363 0.0008413360958558968 -0.0172023885573618 0.00106022387841327 -0.0050999788483793804
0.006545694528953795 0.0003767244146650195 6.563395984946564e-05 -0.02114928038538117 0.0013338171875330138 -0.0018809378765832782
0.01068853046767265 -0.003174684805689522 -0.0014629303503740827 -0.019714738195213594 0.0018661149238382833 -0.0004793468759867889
0.018239113691434165 -0.006814809733741329 -0.0027063642249754776 -0.021302624610640336 0.0015405419432718706 -6.863193112267126e-06
0.024239789439432113 -0.009003575873828124 -0.003570073186617786 -0.022128502217026603 0.0007494648360986294 5.845772706217131e-05
0.029815667797797717 -0.011247365824909577 -0.004091442605098621 -0.022913290428717172 -0.00018825646486903382 -8.55507645767972e-05
0.03529588548505615 -0.013545886301372987 -0.00429214771437964 -0.02409183047950292 -0.0011605614280821071 -0.0005576266936252548
0.0406208484069116 -0.01561224619646089 -0.0041906105392401135 -0.026385600710102743 -0.0020659978669633865 -0.0016096160914040364
0.04663547244055231 -0.017994324212169153 -0.0038103781425582934 -0.030370390529337186 -0.002686061739016492 -0.0036185537550817337
0.054542160234890696 -0.025010373410708046 -0.003168599947477127 -0.02818047102942294 -0.0023066269325385602 -0.00663431228939035
0.05904901012724458 -0.037067473368320475 -0.002601982251028634 4.3152580343288585e-05 -0.00012235946512477818 -0.008814156299326264
0.05447626122631482 -0.025003220017098635 -0.0031245903120043967 0.028270854787402058 0.0020479692213905957 -0.006630340037212556
0.046498340166100334 -0.017976430994643938 -0.003725406037970225 0.03047374331609683 0.0023858072987608414 -0.003606542201959208
0.04040211888619289 -0.015575890851550048 -0.0040723115360378325 0.026513261057447148 0.0016969472829490386 -0.0015795836725882573
0.034980199684791706 -0.013477926477468184 -0.004155948235893951 0.024259943957311094 0.0006950483788394726 -0.0004893875129088146
0.029381987264556462 -0.011125500772354326 -0.003965232147846832 0.023145111625386683 -0.0004046944119081714 5.722121912527838e-05
0.02365726202607083 -0.008794145837117259 -0.003501002862429154 0.02245760502127522 -0.0015111763387118495 0.00033765011092338126
0.017441699827050846 -0.006460537470612984 -0.002766623231035455 0.021805454174653467 -0.0024984252184204777 0.00047703521245364637
0.009864498050262275 -0.0026733704285185865 -0.0017590745991045086 0.020622288943148322 -0.0028235040481899547 0.0003882546900538028
0.006176458856431955 0.00026804583673223576 -0.0007151544108743299 0.022730939738152448 -0.0016061920759203987 -0.0011377412720475365
0.006723579038317082 -0.027502945933236794 -0.0008293746462849881 0.018821715701937775 -0.0007236879693836545 -0.00788841884160113
0.002001085881572523 -0.018068736538869597 0.002604902879662203 -0.01853383834359638 -0.0001262370911843798 -0.0065392870472050215
-2.184046315953178e-05 -8.576698226938812e-07 0.0017358108184891245 -0.02479197469244051 -0.0004057642564421747 -0.0022092675627832063
-0.0011787344552691838 0.0013478258649785887 0.0008484170435849364 -0.02459595110542863 -0.0005808811010113538 -0.0006614367954124606
0.00021363116910731391 -0.0001679191655710172 0.00028385844297002324 -0.024505001021648747 -0.0007455023812566903 -0.00012822831720394142
0.0007013959238017591 -0.00037281486912651654 3.899563462977003e-05 -0.02523154423625139 -0.00097768395528108 -3.9612301130618447e-05
0.0005530860343999776 -0.0002553766013831812 7.417269288986506e-06 -0.02612347509398344 -0.0011493775508385025 -0.0002518795134470331
0.00019114054541385207 -0.00018599426031769384 0.00011755777758892858 -0.027479534515583583 -0.0012415336831967175 -0.0008446409577847881
-0.0008239982520056172 0.0004623776188816967 0.0003267437309134936 -0.029436403465567 -0.0013615670657813458 -0.002059060303485853
-0.001393737472039398 0.0017055654439936151 0.0006253701611889957 -0.03374355002222643 -0.0017062292138991185 -0.004273023276956315
0.0031960803438525064 -0.004658456933709182 0.0011664067107492295 -0.03524242713918543 -0.0018119193615796598 -0.0077100422422746746
0.0075742518380136825 -0.026648417225523434 0.0019356855337600445 4.8902747570666876e-05 -0.00018602197559796312 -0.010519187718144982
0.0031211384198812984 -0.004659036498666655 0.0012358976421650136 0.035344866060964646 0.0014233465288656843 -0.007704291417217808
-0.0015479017240616578 0.0017071759939499345 0.0007622885079662163 0.03386070752862364 0.0012691277908550194 -0.004256775379485141
-0.0010648422852518272 0.0004720478326705212 0.0005251092385638 0.029581091807738324 0.0008473611100871032 -0.00202073457351729
-0.00014503951092425008 -0.00015830550190724382 0.0003635663533062335 0.027670134176422657 0.0006280794725828643 -0.0007612771175146136
0.00011394863939592932 -0.00019294724999215613 0.0002731088588370454 0.026388149449916604 0.00042375125535243303 -8.081233912530549e-05
0.00014829974002931944 -0.00024680369179879276 0.0002735516110303876 0.025615361246847972 0.00013881407942907596 0.00028812265091840525
-0.00041699688553716957 6.26085928942043e-05 0.00040399046208933664 0.0250892923618613 -0.00016750264908860625 0.00046205971130858025
-0.0016409664967451257 0.0015221343725854543 0.0007220585700319556 0.02551892720159749 -0.00017480665232008096 0.0002617116554413164
-9.460556432389853e-05 -0.00018881570417657328 0.0011445328200114797 0.025562060965078556 0.0002464695220240751 -0.0016680931927220385
0.0021326996547074333 -0.017163244358884406 0.00131083912005439 0.018859010278292725 0.00039149205299248585 -0.008352618219900023
-0.002215439763946463 -0.009479315660332001 0.004424937375954304 -0.014787358803354998 -0.001125080510658215 -0.006145071859796129
-0.005891541563160399 0.0005052691194788654 0.0034736221794742224 -0.021718544525802862 -0.002008603289185911 -0.0018865957223112954
-0.012190870054958176 0.004879348953582646 0.003148473530954464 -0.022910613533598776 -0.0029432291452088184 -0.0005638304494782849
-0.01737341919781735 0.0062652336183089 0.0032610996088466553 -0.021797642399468357 -0.003013076015050667 -6.42422117012279e-05
-0.022843989298550128 0.008334306768952337 0.003636788917629024 -0.022074763349999717 -0.0027154209838738783 6.114205509539478e-05
-0.02877618601114027 0.01074348120090254 0.004099575031201925 -0.022913501131238107 -0.0021227849855942043 -8.678725265775814e-05
-0.03482548977464844 0.013256681153085776 0.004524990643507803 -0.024051006244434157 -0.0013389022751824518 -0.0005643214824718757
-0.04170541574041027 0.016007156262783002 0.004842128383493484 -0.025535393093644488 -0.0006236811320830064 -0.0015440007620676525
-0.04932410017566742 0.02095113256027532 0.0050355095659866365 -0.02758966956261137 -0.0005450179768827826 -0.003321934908166959
-0.04866629345709468 0.018808226137496855 0.005333652725922435 -0.036605575989916254 -0.0011418101043760964 -0.006473924470479005
-0.04426225841590287 -0.02035744174517912 0.006381742825264933 4.329921283004727e-05 -0.00025093597502456064 -0.00971744361259593
-0.04875077436003164 0.018799905885222002 0.00542910282705543 0.03669626035237559 0.0006206529178495555 -0.006470464065017649
-0.049496386478281175 0.020936430398773267 0.005225405735551004 0.027693311393196144 -3.212617726917577e-05 -0.0033109735230393666
-0.04197028494492268 0.0159901429349488 0.005122312963114727 0.02566318675660586 -3.979151229971209e-05 -0.001515692847648574
-0.035184932834315626 0.013244026401310019 0.004883483609571967 0.024219024548660907 0.0005718047044238085 -0.0004989097560465678
-0.029224385283048746 0.010745914044340738 0.004508721888072468 0.023148026447005803 0.001257616406683619 5.2645755022969664e-05
-0.023357112571877267 0.008373232715531724 0.004041828895520139 0.022420416096676356 0.0017933539452658258 0.00034030041527619747
-0.017863157618161388 0.006345659629367882 0.0035663486377123924 0.022325431615841107 0.002142515990574233 0.00045282401120699903
-0.012465808716099385 0.004883146756193048 0.003204652358584894 0.02355083879296108 0.0023545760950394895 0.00018596667481704163
-0.005869896444210998 0.0003881908288893973 0.0030844270188272217 0.02200230163840102 0.0019281790533996806 -0.0014864789754049214
-0.002065372835449377 -0.008841609844689971 0.003447509718737909 0.01469233458639086 0.0013407039312301244 -0.007316999365827222
-0.005789898477272414 -0.003928406286660725 0.006094932312369712 -0.007989975536835298 -0.002385812952017194 -0.0037165006662350205
-0.01129761152157181 0.0016622134100791827 0.005169619415020326 -0.012427008722318927 -0.003843179522046143 -0.0008207197742193336
-0.022846708068535358 0.008030622341050706 0.0054190671914430945 -0.013512147735291741 -0.005415769645177408 -0.00011039645684968528
-0.03470138356934126 0.012480419704029376 0.006205997114733254 -0.01267273619701357 -0.005294055805370229 0.00029187305978369704
-0.04633088015146032 0.016960479155385906 0.007199338413171029 -0.012706309096279953 -0.004418080691806936 0.0005017261156780849
-0.058014668432120935 0.02162855351221554 0.008144534638340473 -0.013216275926395668 -0.002997834120493343 0.0005844066985302149
-0.0698628408877964 0.02646507346353699 0.008868619814582457 -0.013927052400730017 -0.0012443018305607564 0.0005077227435439484
-0.08151796202917444 0.03167989036506067 0.009247630122875862 -0.014536067859974926 0.00042502901391702926 0.00016046757178767972
-0.09614711395895714 0.03683850093042963 0.009269601976933177 -0.01616064513887256 0.0013080660753568552 -0.000581380274367535
-0.1028009225398101 0.04863953718002491 0.008980808804695975 -0.021953853825545905 0.00035887430392096806 -0.0025762799467468843
-0.10052374322660705 -0.015874054235875783 0.01009332468618353 2.7054180865579826e-05 -0.00031852316236537665 -0.006248426167919653
-0.10289624593708423 0.048623766688655874 0.009103105911386248 0.022010439447295083 -0.0010185683438528018 -0.0025792483017678734
-0.09634036653709617 0.03680807550536159 0.009514438380792993 0.016225051591966116 -0.0020331830554063883 -0.0005853737847873492
-0.08181176421459005 0.031637124256799015 0.009613077887585189 0.014614920264727538 -0.0012496277869991446 0.00016036715195406832
-0.07025383676069544 0.02641343885103942 0.009345251959374879 0.014029813234641192 0.0003047871577194073 0.0005217534792020405
-0.05848227318508516 0.021573288172958085 0.008706149262504877 0.013358257337934562 0.0019631422788732983 0.0006329549200483473
-0.04681669089005773 0.016907673548129117 0.0077885610987194695 0.012916350718381852 0.0033696103327661765 0.0006250940790134489
-0.03508882320364388 0.012419822724292453 0.006716211886523325 0.012979831692907028 0.004409363916239588 0.0005513695668363663
-0.023003707655318537 0.007920229703877964 0.005683905610155133 0.013825201600620797 0.004949937552342358 0.00027261155897993376
-0.011226621198248599 0.001581793112034693 0.004993803929531676 0.012495912436294618 0.003870522746417645 -0.0006180195942821587
-0.0056348769110200906 -0.003564330982373528 0.005392136501625913 0.00784851000024906 0.0026432991907774828 -0.004371600777843406
-0.007707668191775215 -0.002065149552697284 0.007376923888065541 -0.0031145560587941146 -0.004596945496090973 -0.0019075378771436543
-0.015636926541924678 0.002336239787002193 0.006756785243152419 -0.004975129017838749 -0.006334505648868639 -8.697165834073382e-05
-0.03339922473568314 0.009562109580387574 0.007672458874909315 -0.005155936138013809 -0.008095522410149464 0.00023152874185288408
-0.05216283521834701 0.015557803752303914 0.009162451999924439 -0.00496532514421706 -0.007561451587484234 0.0005680423743947193
-0.06973463854793512 0.021225657274532364 0.010786473298879244 -0.005034882033101316 -0.005974434792552017 0.0008554403720114232
-0.08707637918458724 0.027030175390524273 0.012210077969677461 -0.005302287642678902 -0.003595186475717247 0.0011380288951355546
-0.10459765489057574 0.0329230897789523 0.0132038442586922 -0.005568391217782305 -0.0007014937230969949 0.0013909510323508165
-0.12192480144475075 0.03976486118235097 0.013609947667639113 -0.006159717562579328 0.0021561983077883085 0.0015781465854448323
-0.13744777067175623 0.043354632437584806 0.013323446064930093 -0.006515908181304868 0.0040094873550165396 0.0014919251129607914
-0.15872231974511436 0.0655189675132248 0.012277556043579465 -0.014350775208848424 0.003829182382196194 0.000923082178274498
-0.17300714610400636 -0.013543082423187643 0.011807557971593096 1.407038516254371e-05 -0.00038975953024688757 -0.004377644504183206
-0.15883053477101094 0.06549958300062662 0.012427925370994516 0.01438036752182609 -0.004635723607024947 0.0009166428466988951
-0.13766644501311495 0.04331657624196966 0.013625966907365936 0.006550021977527539 -0.004894249345748212 0.001479549161339952
-0.12225531552464336 0.0397095533572832 0.014065585476633459 0.006202046794300959 -0.003160337886446885 0.00156129120418943
-0.10503314515849514 0.03285256125751365 0.013806934773700274 0.005623804120155007 -0.00044112954698094243 0.001373070328341925
-0.08758506850490366 0.02694669201895944 0.012937963091195014 0.0053776826378001885 0.002338803529200413 0.0011271332026472167
-0.07022768027107075 0.021127439881219057 0.011582650357261687 0.005142031609786153 0.0047140957256756625 0.0008696819485466921
-0.052478796623880455 0.015429276161756883 0.009913186404060486 0.005114283564424205 0.006548657427923182 0.0006386078516438364
-0.03341788288212227 0.00939470149268111 0.008190763910567566 0.005311063317561281 0.007698541919602896 0.00035428120449782207
-0.015461065404277921 0.0022535545234943642 0.006815331406785415 0.005033225928069086 0.006616128738691466 -2.8632629478333302e-05
-0.00749724118558638 -0.0018295982856494158 0.006892900014537474 0.0030714733699038098 0.005169269588497085 -0.0022998609044152596
0.03149901863166056 -0.0457266937547908 5.21772295508649e-19 0.003541889694913691 -5.790164083873534e-14 -2.85033091964107e-14
0.03221962800184233 -0.0005920841945403622 -0.0027397846892594324 -0.010504697043854205 -2.938612081535702e-14 8.146830649327641e-16
0.03892004110207774 -0.012880477142634726 -0.005141351500017851 -0.004083460483309787 -1.1264040644231449e-14 -2.441406452002859e-15
0.053145386550936834 -0.016322172276299788 -0.00741826085573358 -0.004855761607294858 1.547986592425124e-15 2.379769558497058e-15
0.06983268836793056 -0.022087100940665533 -0.00903179488061859 -0.005192019144430713 4.7014614559326776e-15 5.949667841731454e-15
0.08665580786209855 -0.027791338876954827 -0.00985011441486901 -0.005581290371064395 -2.771945813075799e-15 -4.258624160778657e-15
0.10366295100087042 -0.03390526523084303 -0.009808548745310326 -0.00607880665269371 -1.1719537693815132e-14 1.0766805199138862e-15
0.1219670910036036 -0.04062746390154288 -0.008921416160072559 -0.006888762598868863 -6.9379520032698816e-15 1.4976355659085394e-14
0.14307288667154894 -0.04860772026232328 -0.007375895818829531 -0.007746229148474936 6.269263537125869e-15 6.167294322803607e-15
0.16462526502879618 -0.057848546377712314 -0.005712106837554701 -0.006471939564064742 1.3243814139980714e-14 1.154024792393571e-15
0.17473030882550475 -0.06377258372424854 -0.004915167592717878 1.7080002556747395e-05 1.6828386421993344e-14 9.495374863992267e-16
0.16454289924181245 -0.05781842971519004 -0.005713640401445089 0.006507677362901194 3.0546576281886145e-14 -5.682425558740933e-15
0.14289627005766814 -0.04854028549536508 -0.00738533413185062 0.007787013496438047 5.953305340020143e-14 9.487311110334407e-15
0.1216690953636579 -0.04050666538786177 -0.008952605272413504 0.00693919008787203 6.692934170749419e-14 1.16250867439327e-15
0.10319299928803466 -0.03370316834395135 -0.009884486618749659 0.006144887576793053 5.777968418795671e-14 5.413421447220124e-16
0.08592750377237963 -0.02746085872355403 -0.010003482790248824 0.005672308056441058 1.844273296363816e-14 -1.5457876948940519e-15
0.0687060910349344 -0.02156281669584222 -0.00930449199615154 0.005313907230172994 -3.203429139791644e-14 1.578496719185224e-15
0.05141069851783336 -0.01548993979004776 -0.007854265442859361 0.005052380334253934 -4.9480872958002076e-14 2.1349905892677212e-15
0.03611967437399088 -0.011620003149321245 -0.005849330908438352 0.004447966984958134 -6.484411938607534e-14 4.054285932583029e-15
0.025872165812289852 0.0016272470960778274 -0.003937656506574334 0.010024074382502312 -5.784957541753351e-14 -3.618728038577712e-16
0.022304242233719712 -0.04309697013016312 -0.004017633622356667 0.012760223876671356 -5.2154285122389676e-14 -2.625167878217427e-14
0.013170612629972307 -0.03977419866786552 -9.905998229720807e-05 0.00027808339642366 -1.7740910262663452e-14 -1.7257821961855907e-14
0.015563912885535958 9.032302387798301e-05 -0.0014060149039661605 -0.011540349349992414 -1.6448139779443732e-14 -7.0021401600128125e-15
0.024419589881644825 -0.009472322465819583 -0.0032442079705593298 -0.010686524904099385 -1.2360760269611477e-14 -7.169493541599528e-15
0.03614910968042451 -0.013291568296352353 -0.004901881957284554 -0.01212422292396205 -5.645012113460711e-15 4.1650304082388456e-16
0.04703891238558016 -0.01772663595307306 -0.006096954368799688 -0.01302744911910545 -2.0046561473660443e-15 2.9581575362001844e-15
0.058255016919238845 -0.0223042739539179 -0.00670523014031517 -0.013748811907304318 -3.3990644432674126e-15 -1.5713884186918659e-15
0.06959371269971129 -0.02715270782601302 -0.00671751804154151 -0.014834744637121405 -7.422248173060211e-15 -5.562072341331464e-15
0.08162420291058338 -0.032358072469126885 -0.006176788269120711 -0.016770052578927188 -5.649489529619897e-15 6.347441290025652e-15
0.09502188500795565 -0.038517874834974236 -0.005221783559627525 -0.01927108930623134 -4.036809948815279e-15 -9.125533174166728e-15
0.10826503182057066 -0.04677932576615511 -0.0041746051651774555 -0.016803759453771893 3.979584402898778e-15 -1.0627681731618238e-14
0.1143721134372963 -0.0541405304745018 -0.00364640980568122 3.3061076656020494e-05 1.3720765687085402e-14 -7.065691347979408e-15
0.10816797497225124 -0.046753520043607645 -0.004143958372123902 0.01687406546222031 1.4738086985088654e-14 -1.6719298742782357e-14
0.09481707505248459 -0.03845972433187569 -0.005165066092883188 0.019354983003965855 3.0035820496889486e-14 -6.283141324933683e-15
0.08128825258661905 -0.0322532006918827 -0.006104467397091668 0.016880279310369724 4.1653985287577223e-14 1.170382692670946e-15
0.0690855994781224 -0.026975913770851706 -0.006648156638010279 0.014990020182044981 2.933623862157674e-14 2.1764545461017137e-15
0.05750665749130521 -0.022013914278572 -0.0066681197246619235 0.013975030700857979 1.2160105787703459e-14 2.5890029595014574e-14
0.04594329240713066 -0.017257744533430326 -0.006132723987434728 0.013358902759503643 -1.1830602347925011e-14 1.038473235355497e-14
0.03452987735734546 -0.01255911893478202 -0.005072182140833311 0.012633890516300565 -2.9583022094275754e-14 1.1307835635736285e-14
0.022022208333236756 -0.0083064150519456 -0.003640697830760066 0.01167215630330582 -3.795079281756521e-14 6.100348226784416e-15
0.013501444628647913 0.0011943864821134637 -0.002498197781330088 0.012815831724663804 -2.844361391417824e-14 -2.4336476302060095e-15
0.01190357250874699 -0.03742211248799463 -0.003188490462367827 0.00945577502174103 -1.7914558793114162e-14 -3.870271074110643e-14
0.006668272890720087 -0.02828094898792604 0.0009500391937107404 -0.01588675833236586 -6.506340435765822e-15 -2.0127129130020904e-15
0.006718168968467456 0.0004171180304331825 5.482213225061562e-05 -0.01996365703516237 -7.315649076648258e-15 -1.1826748348015004e-14
0.01097255508132007 -0.0033974801718159057 -0.0012021710607778842 -0.01936479310237179 -1.1755855925494555e-14 -1.0563513903666041e-14
0.018269475506114127 -0.006934280856185342 -0.0023048247736417063 -0.02139170400242256 -9.165176486620156e-15 -8.600969058063929e-15
0.024097224201684617 -0.009086078222275957 -0.0030479822728625115 -0.022596296588578847 -8.372664456142214e-15 2.2507088423898147e-15
0.029589340557726405 -0.01133329965987195 -0.0033895285583714243 -0.023796468674412163 -1.0012374128843139e-14 2.696871588894756e-15
0.03506077667381004 -0.013684075284969071 -0.0033572061606405128 -0.02552926830911508 -6.663315122649831e-15 -1.0594566131512384e-14
0.04050823591301429 -0.015846928950588608 -0.0030062404796551744 -0.028479786160044103 -1.1534771008898763e-14 -7.535164441192788e-15
0.046823302169374074 -0.018374701180539105 -0.0024108340558556787 -0.03291337206468814 -1.2742313036965755e-14 -2.258912864703741e-14
0.055215982533718545 -0.025554735862278324 -0.0017023507356963205 -0.03033932605540155 1.3089979404232177e-15 -1.5202953913134865e-14
0.05999952886996574 -0.03795636907113666 -0.0012771022307125107 5.1659100582564814e-05 2.098180231445944e-15 -1.9611970467764417e-14
0.055106236190159114 -0.02553777529338751 -0.0016403419368664445 0.0304495203431615 8.772677883065426e-16 -2.4934684850728972e-14
0.04659497609493325 -0.018335611496571983 -0.0022900262200154123 0.03304596789741324 1.0335730650523362e-14 -1.4726955278095838e-14
0.04014320325854711 -0.015774567895426497 -0.0028347147920848477 0.028656160794523895 1.6498056278058375e-14 6.2834123754768045e-15
0.034529641155060624 -0.013559189229532118 -0.0031511752743366562 0.025781469247635927 1.4698223073492025e-14 7.595019177377565e-15
0.028845726988562036 -0.011122834627604663 -0.0031776567377489852 0.024171978642196473 9.874316969923989e-15 4.420650043940322e-14
0.02307074710243565 -0.00873613181015017 -0.002877219376589429 0.023159020034693254 -4.739733792621416e-16 2.603745398541829e-14
0.016860328960283312 -0.006373701168071498 -0.0022471131989973843 0.022275174080409816 -1.0809090777931692e-14 1.9157354332445878e-14
0.009524479002197252 -0.0026496201186043274 -0.0013985353402794101 0.0208512672609576 -1.8279213253170716e-14 9.885768961249985e-15
0.005994278836227119 0.0002472728427673344 -0.0008420029022986887 0.02216343848938107 -9.300340869205755e-15 -8.777978615249343e-15
0.00648722183335628 -0.02637399513530923 -0.0013713499499706037 0.018012997221567798 -5.3258534870670796e-15 -5.784229432231891e-14
0.001984084816794316 -0.017877871430957443 0.0026104449819299618 -0.017774169350658786 -1.3727318757481835e-15 1.1293795217602598e-15
0.00014562357018675062 8.09969233661859e-05 0.0016593877563411393 -0.023870141067046335 -3.7970792959515776e-15 -9.671821991300705e-15
-0.0008362722953093312 0.0012024694701615489 0.0008794369546349361 -0.02415753584819295 -1.157763426416162e-14 -1.2440928549937308e-14
0.0005134564180682271 -0.0003255722403233815 0.00031304448234933957 -0.024612848853008476 -1.2642186119303771e-14 -7.495801126067986e-15
0.0009551090677475173 -0.00048304883718412896 2.107533547159415e-05 -0.025778893375109975 -1.3286004851083451e-14 1.7031460877031668e-15
0.0007816035661911859 -0.00034228375717137245 -3.0160927163580312e-05 -0.02714397183323156 -1.5527239629958226e-14 4.54254282843472e-15
0.00038528236774600956 -0.0002516565892353122 8.896660492302004e-05 -0.029112342577380025 -1.2271782423117729e-14 -7.358947706846003e-15
-0.0006852851229718869 0.0004363130282770677 0.0003185936682909136 -0.031772800363094295 -1.694248557163676e-14 -1.4993980720651862e-14
-0.0012894555417684267 0.0017216575048612827 0.0006475333509292197 -0.03653214128661827 -1.7511809026254845e-14 -3.342692875968334e-14
0.003537112941376818 -0.004642295346907226 0.0011176427893690654 -0.037723449593101185 -6.697046515708339e-15 -2.340417085393981e-14
0.008141606159087034 -0.02710193613422835 0.0014996914598374564 5.7949052354823e-05 -8.040609753126636e-15 -2.0495818855038178e-14
0.0034153464154031647 -0.004634481712642324 0.0012109186048944818 0.037847134615811774 -9.971539305730719e-15 -2.901999929423582e-14
-0.0015397000056360174 0.0017410680603854472 0.0008320784657425006 0.03668119380576088 -5.155715669954723e-15 -2.89922098373023e-14
-0.0010763256087609524 0.00047526236208007074 0.0005882828332119337 0.03197130767528603 -7.205549404823539e-15 6.65206144291261e-15
-0.00016320690672796465 -0.00017981303157466738 0.000429211838147403 0.029397037067369593 -1.1534653271319095e-15 9.280242047916831e-15
5.471593442379471e-05 -0.0002138033646616051 0.0003508017204774847 0.027571390431474798 4.304302953558187e-15 4.8833617813555386e-14
1.8795037095399586e-05 -0.00025662448746629503 0.0003885919142493852 0.026435346679605606 8.030638904788032e-15 3.0554579049171804e-14
-0.0005788240159840088 4.7173343465824165e-05 0.0005756608847935699 0.02562658032077229 3.2715131398721765e-15 2.670711484538575e-14
-0.0016819605914542486 0.0014574031393075754 0.0008606634700233379 0.02566302329646859 1.1916762539319718e-15 1.0391921969211265e-14
-8.978268265264665e-05 -0.0002087336872098991 0.0009923930175449315 0.025004895847310173 3.8415650428249e-15 -1.2609135740734856e-14
0.0020708034322066034 -0.016384476180021413 0.0008598567513109434 0.018205946743758666 5.322561917034049e-15 -6.073012101884268e-14
-0.002104635456929912 -0.009365042792026906 0.004443473705749583 -0.014404344858284082 1.0716076395927802e-15 5.64327230778705e-17
-0.005633548181138415 0.0005822426935566027 0.0033054182179508835 -0.021063664836902272 -3.66277544590083e-15 -6.302467228658237e-15
-0.01173346136343269 0.004764673694559858 0.002957132265421213 -0.022484965415280247 -1.1682854390935443e-14 -1.1542240145427651e-14
-0.016819182071958337 0.006092948317278222 0.0029232147181474303 -0.02183009068826513 -1.506098610897736e-14 -4.94627261241401e-15
-0.022205302912526696 0.008191413187691985 0.003080905189277615 -0.022529584237004352 -1.6932928922409364e-14 4.625206467823162e-16
-0.028093126461086162 0.01065451087387164 0.0033223356708298305 -0.023802363353847184 -2.3286286737571587e-14 3.971486767923027e-15
-0.034195144532920344 0.013264276129031994 0.0035312071781922537 -0.02548298419056285 -2.0402802831907954e-14 -4.158965652336505e-15
-0.041291958079542945 0.01616763725534203 0.0036389869363043876 -0.027578614916745764 -1.995728293047042e-14 -1.302512378552681e-14
-0.0493064246344256 0.021344707849414033 0.00368614452487284 -0.02993007421030883 -1.9456070665690474e-14 -3.64831320535941e-14
-0.04867915266725749 0.019378089606712886 0.0038761609848596027 -0.03893478108193983 -1.627066689523617e-14 -2.228241462870484e-14
-0.0440819113567801 -0.020508850019167798 0.004176786181308739 5.2046032385196964e-05 -1.6901811473026083e-14 -2.0172726607637498e-14
-0.04881359909177837 0.01937676632872534 0.004001320280205564 0.039045795158027634 -1.824102307867786e-14 -2.187053977590475e-14
-0.04958002664997101 0.021344487199106334 0.003935736669875888 0.03006357384962782 -2.2914277490434024e-14 -2.680485905936711e-14
-0.04171161094194366 0.016173376810016616 0.004009020099934895 0.027755781526750897 -2.2537675630656447e-14 7.371382150511696e-15
-0.034764591956153515 0.013283595633584522 0.004008967492624748 0.025736059864651047 -1.8169632177267954e-14 1.143485669650654e-14
-0.02880736495293737 0.010699998010245775 0.0038773226807630548 0.02418416570955114 -1.4519008689544907e-15 4.727174326892708e-14
-0.023035475665985385 0.008289283380418115 0.003651609021238069 0.023122998066592404 1.4752135873551814e-14 2.856634538834536e-14
-0.017634003301427104 0.006238411290203321 0.0033974062225662995 0.022739446460712458 1.6591810119825218e-14 2.6199494776359827e-14
-0.012230059239063621 0.004762677173616539 0.003135656667731719 0.02354555760903822 1.9769840468473673e-14 9.528236354213945e-15
-0.0056742606890984315 0.0003830319637973798 0.002879913702319173 0.02149862495265503 1.7181085011999404e-14 -1.0138442277547732e-14
-0.0019461807968887022 -0.008366882199223264 0.0031422861902695703 0.01425814889043526 1.358733004580559e-14 -5.382272318804615e-14
-0.005508142737510177 -0.0038016827014475635 0.006062148968636738 -0.007882858315678417 5.075726351808779e-16 -1.2483097238183416e-15
-0.010884106720238705 0.0017972209140577503 0.004830971737833247 -0.012039507516011383 -3.372271944112812e-15 -3.5153561376947973e-15
-0.022211275116947614 0.007984672107272859 0.004984824465983851 -0.01321367058335232 -1.1785836656662621e-14 -6.415800237000863e-15
-0.03386201185333067 0.01238122165290241 0.005496732807316506 -0.012651022870668844 -1.954139568259919e-14 -4.440644764880028e-15
-0.0452812862188209 0.016908028881171478 0.0061021118607521765 -0.01296051214161498 -2.499963872525622e-14 3.224152986692347e-15
-0.056838395908653305 0.021695702456752113 0.00661795412525275 -0.013750075140788643 -2.403058390568636e-14 -2.464276341578725e-15
-0.06874762081692565 0.02674473533504629 0.006879033361364085 -0.01479868112549591 -1.876849929405332e-14 4.0948960802061896e-17
-0.08075414153732252 0.03229587639956504 0.006799553534437658 -0.015750239539378392 -2.4167610119629583e-14 1.4142604188444041e-15
-0.09621103833357979 0.037882137280674036 0.0064527021242286094 -0.017508152181342284 -2.1375069547474243e-14 -1.7120558578687453e-14
-0.10331674486553132 0.0503070578949203 0.006200103059062051 -0.02330223731787045 -2.1771736347222853e-14 -4.394376437169209e-15
-0.10093724247577701 -0.01577602777857449 0.006251441945698568 3.373684660492476e-05 -2.422521344224056e-14 -1.1707974000019217e-14
-0.10346585936218602 0.0502969073576521 0.006358478483516435 0.02337397523145522 -2.9593742143256205e-14 -5.4840911000754444e-15
-0.0965124619581593 0.03786295105926436 0.006770328591307953 0.017593666654711466 -4.1314147198809326e-14 -1.2154109641469846e-14
-0.08121042238105318 0.0322696096049118 0.007275303449326181 0.015862205267543998 -4.1641315368752194e-14 1.0610307391804158e-14
-0.06935192829709257 0.026713376703194576 0.007503429477742804 0.014956247205347965 -3.4693419198681547e-14 9.039074827174587e-15
-0.05755825212230901 0.021661076228968047 0.007362137393110272 0.013984236323393644 -1.1049468563967095e-14 2.658818125519588e-14
-0.04602824301550737 0.016868639274732908 0.006900245427893538 0.013322985384631536 1.8163750803998693e-14 1.640898652848985e-14
-0.03446015849736233 0.012306088304324477 0.006219873768189356 0.013181060242804786 3.2934507849862946e-14 1.2376428685069787e-14
-0.02246145924787531 0.007798192315803053 0.0054114206075205245 0.013737394181230845 4.2157937703941537e-14 4.6032784788846426e-15
-0.010796002159780476 0.0016388819324719378 0.004664974563583214 0.012145535126864036 3.4140279579070176e-14 -3.881545421451776e-15
-0.005298937116653883 -0.003258124329591927 0.005128326431782609 0.007675426697358756 2.3882615720130507e-14 -3.444632274730852e-14
-0.007259756122943908 -0.0018888282858443236 0.0069692220763682075 -0.0031280306769073834 8.802095337323568e-16 -2.0170768267463446e-15
-0.015049502223259893 0.002530444469164628 0.00608376370039704 -0.004755321558022729 -1.7926740820961573e-15 -1.102037298222891e-15
-0.03252665856711148 0.009575728320376481 0.006879901107686812 -0.004986949656453135 -1.0230504594518908e-14 -4.187378525519203e-15
-0.050962009547270495 0.015532999586567368 0.007961060808041168 -0.0049284970460821385 -2.6022207392367713e-14 -2.755770871915031e-16
-0.0681969192183983 0.021273119191662082 0.00899524894502247 -0.005139400197313405 -3.633363412653551e-14 1.9953656782423224e-15
-0.08531776210850048 0.02724720594028115 0.009729664227234806 -0.005547897055214021 -2.0774282630513924e-14 -9.228891522522487e-15
-0.10287793637575926 0.03342560538231314 0.0099478202838359 -0.005970053695943509 -1.4544104581706158e-14 1.1409438931825333e-14
-0.12072974575296148 0.040734281209466476 0.00953157163640417 -0.006688739202405904 -2.0465657705852347e-14 2.4606510405644766e-15
-0.13743428458534368 0.04483954682569565 0.008580387042494612 -0.00704686874275389 -2.0777528460767802e-14 9.43524230100079e-15
-0.15995343847884141 0.06797271245255915 0.00759023459839684 -0.01510284159441676 -3.3452895401714366e-14 4.536410309896599e-15
-0.17473512017204462 -0.01333396686975181 0.00712697084653162 1.949254570345006e-05 -3.176994257947374e-14 -9.855126697350114e-15
-0.1601205679896884 0.06795825884731864 0.007783916083426147 0.015144301717592828 -3.6701138005426626e-14 5.07279222967949e-15
-0.13777100760187663 0.04481112366584461 0.008970792700830149 0.007096168144037236 -6.548552661505419e-14 6.876037282957381e-15
-0.1212361892440438 0.04069239010889987 0.010121741061103109 0.006752667185066874 -7.539020812795047e-14 7.056475629513281e-15
-0.1035404055175709 0.033369655337382974 0.010733945939232995 0.006057957293871481 -6.155930867596422e-14 8.787892288864008e-15
-0.08608260333867565 0.027173249129740687 0.010688781185508376 0.005672974099616927 -2.681530128154086e-14 3.7405517051836146e-15
-0.06892082766601984 0.021165054062978916 0.010064323726624153 0.005321443598120512 2.456739781227235e-14 4.945940575498686e-15
-0.05139188593853137 0.015348804971800693 0.009002809906485753 0.005179360883536836 5.571991435956991e-14 -3.2591117304914263e-16
-0.03248985171225299 0.009292249845626877 0.007643906245836825 0.005240156491926589 7.29394572084735e-14 1.3932268966981853e-15
-0.014739899039971591 0.002361212745543747 0.006222232112715683 0.004845606619183519 5.873028300663885e-14 8.078661437732615e-16
-0.006921428367789851 -0.001550701195987764 0.006309367898044762 0.0030808002633985537 4.1661118999059e-14 -2.1183358886456283e-14
0.029693772392352602 -0.047289877469853504 8.809142651444724e-19 -0.001556029442905115 -0.00570788476934891 -0.0004952999115165555
0.031226579896271176 0.0002886094382541758 -0.003170506670232319 -0.010706498260128058 -0.007781960192718079 0.0005938504622766413
0.03908254329414599 -0.012634505024315025 -0.006055510528866037 -0.004236315444965268 -0.007323950701274473 -0.0005736328949925932
0.05386128335191711 -0.016040624240416128 -0.008736834421516019 -0.0048408056674204905 -0.006122267237921436 -0.0006619127194314508
0.07090219986711133 -0.02180458309618087 -0.010806096593496002 -0.005072581435595557 -0.003936822827840047 -0.0009134234600188937
0.08795743785470707 -0.027390292007425314 -0.012258607794746575 -0.005326180708592301 -0.0011998371560645973 -0.001173554285557999
0.10496943005772037 -0.03326414616000137 -0.012994727107940822 -0.005668262779927736 0.001893631580370441 -0.001417224690285423
0.12278362243949241 -0.039568268345054225 -0.012946374116539393 -0.00631930916288246 0.004848864633233883 -0.0015268404420771178
0.14273415455642804 -0.046951249530459906 -0.01214545752627315 -0.00709460053636933 0.006500739425800754 -0.001286256416327408
0.16279701209849104 -0.055575332811448594 -0.010933548203241258 -0.0059597741385902315 0.0050457109532104725 -0.0005570639362145204
0.17217034212525484 -0.0611790049414829 -0.01023252701251981 1.378895184235969e-05 -6.517132913111654e-06 6.117060708271479e-05
0.16275091764773644 -0.0555571229560198 -0.01094075240697068 0.005988193909107001 -0.005051249564337511 -0.000549155027871904
0.14263492226500918 -0.0469100855030923 -0.012165065269880182 0.007125625637538192 -0.0064829646105450155 -0.0012705330793249064
0.12261592165874632 -0.03949375537298842 -0.012989863174566647 0.006355122545396734 -0.004788325600326036 -0.0015041005572673759
0.10470634731722073 -0.03313839654331457 -0.013081993003486734 0.005711258795588582 -0.0017600027494604647 -0.0013898217435495159
0.08755629998858258 -0.027184290956844194 -0.012419770650192447 0.005381222355444383 0.001461276525966309 -0.0011498916696690558
0.07029181827014022 -0.021474837150731865 -0.011086799053110559 0.005136726061843745 0.004430352156373718 -0.0008996052641254815
0.05294285347614196 -0.01552492948411384 -0.009185362580773479 0.004958346408625923 0.006966511101193226 -0.0007188953780633616
0.03741646580140384 -0.011783608091699985 -0.006803354075239859 0.0044041007211301835 0.008626716321024222 -0.0005269854187628215
0.026903244399470994 0.0016998067938807009 -0.004033198795161488 0.010462835141689084 0.00785271270081926 -0.00042416213003300136
0.0232801261218925 -0.04495392574701435 -0.003540207611918433 0.013438375451767869 0.0069414668207261 0.004145715799912045
0.013110434819474508 -0.04076040811143712 -0.00046730973935065487 -0.0026542236851171356 -0.003021981167023903 0.0014792685792495164
0.015218626257106483 0.0005330624065123202 -0.0014536315757378863 -0.01215074952973276 -0.0036633838769886302 0.0012444381944965747
0.02418982846042402 -0.009209981780091192 -0.0037805429267073246 -0.010956750328819738 -0.004585808406886976 -0.00013767155799787985
0.03646883167721142 -0.013103486897967611 -0.005688682055406359 -0.012075958709777039 -0.003834026496817432 -0.00034787718684089965
0.047608685135230804 -0.017546396301958044 -0.0071680685043796705 -0.012765045901040887 -0.002428692415997766 -0.000508218944474392
0.0589756657139904 -0.02205711984327132 -0.008157162901442366 -0.013219224104308975 -0.0006493151931520281 -0.0005873838694672956
0.07030350129635514 -0.026738812542041874 -0.00864134872373359 -0.013961033392027823 0.0012931479672238805 -0.0005120435154534592
0.08202523304754276 -0.031649061498973036 -0.008601117707992649 -0.015496472375630475 0.003086590459076302 -9.214512246581087e-05
0.0947458876588419 -0.037385566572755324 -0.008081732305908489 -0.017735486438778574 0.004062586764906717 0.0009762848529384189
0.10714557743070664 -0.0452114101686389 -0.007278543121545237 -0.015542729162755812 0.003168412850550344 0.0027637228763883696
0.11284788047421655 -0.052263487334452144 -0.006765099949883177 2.6743799271503987e-05 5.85136697568091e-05 0.004039532992187009
0.1070890345079077 -0.04519681429954559 -0.007259966434344261 0.015598665275037418 -0.0030403091980215112 0.0027656007758454114
0.09462649417188243 -0.03735200672579416 -0.008048630704970843 0.017799185338024846 -0.0039008080848856675 0.0009780890266408695
0.08182980697885073 -0.031587021013933604 -0.008562905521384277 0.015574662037962622 -0.002866379137488959 -9.54653101901045e-05
0.07001066582700319 -0.026631951068209685 -0.008615193146096498 0.014062979145710074 -0.0009835493410989189 -0.0005312083369856891
0.058551906963174465 -0.021878727119958526 -0.0081719591162794 0.013358085023387027 0.0010954619479107818 -0.0006432034138764158
0.047006261556304725 -0.017255481612651474 -0.007266455679665719 0.012955744283011187 0.0030818708264326584 -0.0006338794808499756
0.03557857130728496 -0.012645135819615076 -0.005941181936558153 0.012372044164337601 0.004798866118070648 -0.000600023742720314
0.022752614852364652 -0.008427041048292365 -0.004250969592623088 0.011528357679371609 0.005703681553689093 -0.0005303369888081833
0.013946854287552903 0.0012399399164475151 -0.0023930693781023427 0.013208805951205558 0.0041005764894537266 0.00015376914966189643
0.012366142657935574 -0.03900874245297496 -0.0026792853871654477 0.009981477693961016 0.0026814903414781677 0.005362627501238864
0.006742466628400502 -0.028600721765368486 0.00084133609585414 -0.017202388557347747 -0.00106022387842471 0.00509997884837337
0.006545694528966384 0.00037672441466692113 6.563395984571476e-05 -0.021149280385370905 -0.0013338171875526231 0.0018809378765607982
0.01068853046769141 -0.003174684805670804 -0.0014629303503810457 -0.019714738195206794 -0.0018661149238646006 0.0004793468759782983
0.018239113691455335 -0.006814809733756193 -0.002706364224981896 -0.021302624610612355 -0.0015405419432910966 6.863193108329747e-06
0.024239789439446262 -0.009003575873831065 -0.003570073186623483 -0.022128502217008888 -0.0007494648361118172 -5.8457727071241334e-05
0.029815667797812057 -0.011247365824904387 -0.004091442605101633 -0.022913290428751783 0.00018825646486230377 8.555076456693475e-05
0.03529588548506719 -0.013545886301370541 -0.004292147714378903 -0.024091830479554672 0.0011605614280747762 0.0005576266936250498
0.040620848406919596 -0.015612246196443358 -0.004190610539236954 -0.026385600710151814 0.0020659978669556136 0.00160961609142947
0.046635472440574546 -0.017994324212226912 -0.0038103781425484822 -0.03037039052934576 0.002686061739008923 0.0036185537550980033
0.05454216023491845 -0.02501037341073336 -0.0031685999474673383 -0.02818047102942053 0.002306626932531684 0.0066343122893662825
0.05904901012726241 -0.03706747336830542 -0.002601982251027108 4.3152580317262014e-05 0.00012235946513374004 0.008814156299303735
0.054476261226332645 -0.025003220017107634 -0.0031245903119958927 0.028270854787379857 -0.002047969221367525 0.006630340037193151
0.04649834016612289 -0.01797643099474198 -0.0037254060379609917 0.030473743316175538 -0.0023858072987437205 0.0036065422019628535
0.04040211888620598 -0.01557589085160375 -0.004072311536030119 0.026513261057500917 -0.0016969472829359356 0.0015795836725952255
0.03498019968478888 -0.013477926477528362 -0.004155948235889081 0.024259943957383866 -0.0006950483788316438 0.0004893875129394808
0.0293819872645407 -0.011125500772401603 -0.003965232147844696 0.02314511162542216 0.000404694411906597 -5.7221219094000334e-05
0.023657262026049865 -0.008794145837111083 -0.0035010028624306026 0.022457605021214643 0.0015111763386992869 -0.0003376501108835889
0.017441699827029318 -0.006460537470588256 -0.0027666232310368964 0.021805454174622072 0.0024984252183859255 -0.00047703521241809256
0.009864498050253096 -0.002673370428525826 -0.0017590745991045297 0.020622288943109333 0.0028235040481536865 -0.0003882546900370043
0.0061764588564294145 0.0002680458367285123 -0.0007151544108739717 0.022730939738109048 0.001606192075901588 0.0011377412720355398
0.006723579038306075 -0.027502945933195688 -0.0008293746462827758 0.018821715701913922 0.0007236879693721584 0.007888418841486278
0.002001085881576727 -0.018068736538887582 0.002604902879661771 -0.01853383834360071 0.00012623709118030234 0.006539287047208568
-2.1840463156544612e-05 -8.576698028682213e-07 0.001735810818485752 -0.02479197469244941 0.00040576425642971847 0.0022092675627646214
-0.0011787344552603336 0.001347825864997967 0.0008484170435796408 -0.024595951105423095 0.000580881100987655 0.000661436795399404
0.00021363116912110697 -0.00016791916556131017 0.000283858442965054 -0.024505001021628947 0.0007455023812291117 0.00012822831719997804
0.0007013959238123266 -0.00037281486913601767 3.899563462475313e-05 -0.02523154423623584 0.000977683955254344 3.961230112188147e-05
0.0005530860344120112 -0.0002553766013734348 7.417269285518509e-06 -0.026123475094018873 0.001149377550815044 0.0002518795134302613
0.00019114054542476903 -0.00018599426031566216 0.0001175577775876303 -0.02747953451563404 0.0012415336831778756 0.0008446409577840101
-0.0008239982519939915 0.00046237761888803043 0.0003267437309109926 -0.029436403465629486 0.0013615670657561776 0.002059060303510184
-0.0013937374720191336 0.0017055654439344307 0.0006253701611936104 -0.03374355002223711 0.0017062292138810679 0.004273023276980242
0.003196080343873954 -0.004658456933768692 0.0011664067107530782 -0.03524242713916479 0.0018119193615636067 0.007710042242247443
0.007574251838024107 -0.026648417225500827 0.0019356855337564895 4.890274754827576e-05 0.00018602197559197697 0.010519187718098363
0.003121138419894761 -0.004659036498715353 0.0012358976421686845 0.0353448660609336 -0.0014233465288604203 0.007704291417194866
-0.0015479017240463185 0.0017071759939287848 0.0007622885079690913 0.03386070752868992 -0.0012691277908666928 0.0042567753794886054
-0.0010648422852435515 0.00047204783260442374 0.0005251092385705486 0.029581091807812897 -0.0008473611101022991 0.002020734573526511
-0.00014503951091140852 -0.0001583055019570302 0.0003635663533113639 0.027670134176499703 -0.0006280794725936555 0.0007612771175419156
0.00011394863940969235 -0.00019294725002188547 0.0002731088588401867 0.02638814944995055 -0.0004237512553582357 8.081233916730832e-05
0.00014829974003069716 -0.00024680369180693485 0.0002735516110304797 0.025615361246792787 -0.00013881407943519932 -0.0002881226508754357
-0.0004169968855440233 6.260859293877669e-05 0.000403990462087278 0.025089292361812805 0.00016750264908283678 -0.000462059711270828
-0.001640966496745237 0.0015221343725701135 0.0007220585700316085 0.025518927201552827 0.00017480665232246664 -0.0002617116554227101
-9.460556431987133e-05 -0.00018881570418105375 0.001144532820011197 0.025562060965036795 -0.00024646952201542576 0.0016680931927050633
0.0021326996547114106 -0.017163244358859388 0.0013108391200555968 0.01885901027827042 -0.0003914920529861587 0.008352618219778745
-0.0022154397639493318 -0.009479315660347954 0.004424937375955779 -0.01478735880336409 0.0011250805106560915 0.006145071859802418
-0.00589154156316354 0.0005052691195061963 0.0034736221794720323 -0.021718544525816254 0.0020086032891755094 0.0018865957222992786
-0.012190870054955512 0.004879348953599148 0.0031484735309514405 -0.02291061353360127 0.0029432291451861013 0.0005638304494651656
-0.01737341919780762 0.006265233618304281 0.0032610996088433646 -0.021797642399461446 0.0030130760150198065 6.424221169706886e-05
-0.022843989298545555 0.00833430676897534 0.0036367889176238287 -0.022074763349976063 0.002715420983832679 -6.114205510247063e-05
-0.028776186011131393 0.010743481200950597 0.004099575031195915 -0.022913501131262715 0.0021227849855572495 8.67872526433938e-05
-0.03482548977462976 0.013256681153042859 0.004524990643503264 -0.02405100624448335 0.0013389022751455256 0.0005643214824727301
-0.0417054157403914 0.016007156262795953 0.004842128383488164 -0.025535393093682177 0.0006236811320483529 0.0015440007620902405
-0.04932410017565478 0.020951132560259246 0.005035509565985364 -0.02758966956262234 0.0005450179768588358 0.0033219349082007966
-0.04866629345708342 0.01880822613748306 0.005333652725920722 -0.03660557598989579 0.001141810104342037 0.006473924470454694
-0.044262258415887996 -0.02035744174522801 0.0063817428252585535 4.329921281942674e-05 0.00025093597499803585 0.009717443612548374
-0.04875077436002792 0.01879990588520988 0.005429102827054145 0.036696260352368136 -0.0006206529178664198 0.006470464064995373
-0.04949638647827762 0.02093643039874719 0.005225405735550478 0.02769331139326003 3.212617722879397e-05 0.0033109735230533806
-0.041970284944910126 0.015990142934918367 0.0051223129631173675 0.025663186756675543 3.979151225830438e-05 0.001515692847651459
-0.035184932834291305 0.013244026401290144 0.0048834836095737215 0.024219024548743907 -0.0005718047044511541 0.0004989097560705277
-0.029224385283013854 0.010745914044270145 0.004508721888077612 0.023148026447042388 -0.0012576164066953833 -5.264575499270578e-05
-0.02335711257185658 0.008373232715548537 0.004041828895520567 0.022420416096619652 -0.0017933539452638224 -0.00034030041523601016
-0.017863157618149956 0.006345659629378505 0.003566348637710619 0.02232543161579455 -0.0021425159905520473 -0.0004528240111765584
-0.01246580871608662 0.004883146756188798 0.0032046523585831876 0.02355083879290888 -0.002354576094998024 -0.00018596667480252872
-0.005869896444203777 0.0003881908288770873 0.0030844270188257143 0.0220023016383712 -0.001928179053366785 0.001486478975392322
-0.0020653728354452974 -0.008841609844675595 0.003447509718738149 0.014692334586371446 -0.0013407039312097122 0.007316999365718909
-0.0057898984772742175 -0.003928406286671179 0.006094932312373331 -0.007989975536840938 0.0023858129520176927 0.0037165006662401505
-0.01129761152157583 0.0016622134101009784 0.005169619415020169 -0.01242700872232763 0.0038431795220385113 0.0008207197742123554
-0.02284670806854008 0.008030622341056044 0.005419067191442156 -0.013512147735298685 0.005415769645152195 0.00011039645684229006
-0.03470138356933698 0.012480419704030028 0.006205997114731271 -0.012672736197004016 0.005294055805335277 -0.0002918730597862281
-0.04633088015145037 0.016960479155415174 0.007199338413168323 -0.01270630909625437 0.004418080691761179 -0.0005017261156824073
-0.058014668432107536 0.021628553512218228 0.00814453463833571 -0.013216275926419696 0.0029978341204410022 -0.0005844066985317743
-0.06986284088777518 0.026465073463538262 0.008868619814572367 -0.013927052400759648 0.0012443018304989484 -0.0005077227435402846
-0.08151796202915516 0.03167989036508267 0.009247630122862227 -0.014536067859995895 -0.0004250290139656723 -0.00016046757177623624
-0.09614711395895392 0.03683850093042957 0.009269601976924748 -0.016160645138882875 -0.0013080660753826512 0.0005813802743889975
-0.10280092253980594 0.048639537180055835 0.008980808804687598 -0.021953853825534494 -0.0003588743039685016 0.0025762799467282695
-0.10052374322659735 -0.015874054235958748 0.010093324686173199 2.7054180856150415e-05 0.0003185231623208979 0.006248426167887245
-0.10289624593708871 0.04862376668868204 0.009103105911377973 0.022010439447269263 0.0010185683438084033 0.00257924830175443
-0.09634036653709975 0.03680807550531275 0.00951443838078482 0.01622505159201298 0.002033183055334832 0.000585373784795441
-0.08181176421457928 0.03163712425675542 0.009613077887581107 0.014614920264774563 0.001249627786931313 -0.00016036715195742244
-0.07025383676066024 0.026413438851031968 0.009345251959373116 0.014029813234686538 -0.000304787157769809 -0.0005217534791826225
-0.0584822731850286 0.02157328817286748 0.00870614926250953 0.013358257337957733 -0.001963142278893522 -0.0006329549200272103
-0.04681669089001086 0.016907673548126036 0.007788561098721622 0.012916350718348502 -0.0033696103327494845 -0.0006250940789853006
-0.03508882320361106 0.012419822724277453 0.006716211886522017 0.012979831692883614 -0.0044093639161855575 -0.0005513695668144165
-0.023003707655295507 0.007920229703873261 0.005683905610152893 0.013825201600584982 -0.004949937552263038 -0.000272611558969864
-0.011226621198238654 0.0015817931120289562 0.0049938039295277774 0.012495912436275805 -0.0038705227463545007 0.0006180195942749267
-0.005634876911014788 -0.003564330982369085 0.005392136501624726 0.007848510000242606 -0.0026432991907348515 0.004371600777774614
-0.007707668191775486 -0.0020651495527054136 0.007376923888070818 -0.0031145560587881116 0.004596945496093684 0.0019075378771457774
-0.015636926541928334 0.0023362397870204336 0.006756785243154833 -0.004975129017845565 0.006334505648866644 8.697165833691412e-05
-0.03339922473569632 0.009562109580383983 0.007672458874909796 -0.005155936138017721 0.008095522410123287 -0.0002315287418557513
-0.052162835218353465 0.015557803752322165 0.00916245199992376 -0.0049653251442050295 0.00756145158744021 -0.0005680423743986319
-0.06973463854791767 0.021225657274534546 0.010786473298880463 -0.005034882033096546 0.005974434792507303 -0.0008554403720139807
-0.0870763791845639 0.027030175390479846 0.01221007796967533 -0.005302287642686695 0.0035951864756464938 -0.0011380288951196964
-0.10459765489055418 0.0329230897790182 0.013203844258673597 -0.005568391217799627 0.0007014937230044433 -0.0013909510323565633
-0.12192480144473178 0.03976486118234441 0.013609947667612943 -0.00615971756260994 -0.0021561983078497017 -0.001578146585430912
-0.13744777067176328 0.04335463243761259 0.013323446064903172 -0.006515908181307361 -0.004009487355045853 -0.0014919251129605125
-0.15872231974511875 0.0655189675132457 0.01227755604355974 -0.01435077520886461 -0.003829182382224552 -0.0009230821782850941
-0.1730071461039983 -0.01354308242327358 0.011807557971578803 1.4070385154326163e-05 0.0003897595301809839 0.00437764450414721
-0.15883053477103168 0.06549958300065757 0.012427925370976138 0.014380367521824597 0.0046357236069194015 -0.0009166428467096445
-0.13766644501314138 0.04331657624197665 0.0136259669073402 0.006550021977533401 0.004894249345644645 -0.0014795491613499336
-0.12225531552463208 0.039709553357211706 0.014065585476620134 0.0062020467943148085 0.003160337886356641 -0.0015612912041981513
-0.10503314515844127 0.03285256125752151 0.013806934773694166 0.005623804120184989 0.0004411295469029712 -0.0013730703283283087
-0.0875850685048168 0.02694669201888124 0.012937963091204659 0.005377682637802985 -0.002338803529231151 -0.001127133202630686
-0.07022768027098375 0.021127439881192252 0.0115826503572692 0.005142031609770998 -0.004714095725643762 -0.0008696819485333304
-0.05247879662382361 0.015429276161735672 0.009913186404063615 0.005114283564425128 -0.006548657427834143 -0.0006386078516289954
-0.033417882882094754 0.009394701492676077 0.008190763910565148 0.005311063317543491 -0.007698541919483297 -0.0003542812044934884
-0.015461065404270813 0.0022535545234989313 0.00681533140677876 0.005033225928056745 -0.006616128738583409 2.8632629472439837e-05
-0.007497241185585146 -0.001829598285649897 0.006892900014533646 0.0030714733698950806 -0.005169269588408848 0.0022998609043741415
0.021389078158825774 -0.0546849878048905 -2.3818566476790926e-18 -0.02476218804098987 -0.013210444459359238 -0.004673097393535057
0.02711434044389206 0.002737111854609943 -0.0033933773653353114 -0.011069700763855392 -0.014254274738067726 0.0014646953725532346
0.03966309040152429 -0.012143198280772455 -0.007685641725251591 -0.003955900692028559 -0.013370093206136597 -0.000365948000914564
0.0553264198650933 -0.015198774080233598 -0.010933667388803851 -0.004299938339197864 -0.011880551903649858 0.0002502981939188389
0.07333061233206851 -0.020888345388186146 -0.014101678633992146 -0.00427049695759014 -0.00906767117796878 2.5686723831724225e-05
0.0915097236996426 -0.026200067400803204 -0.016978847015521305 -0.0043796189705527675 -0.0054236311783396295 -1.747370990074023e-05
0.10929955457412288 -0.031585482910829125 -0.019460808324622453 -0.004480980951679979 -0.0008432819906524728 -8.199796956333028e-05
0.12661598957981596 -0.03692850816830003 -0.02136556125834902 -0.004719519507749195 0.004215880156700923 -6.497732374032082e-06
0.14342205587199197 -0.042403238683975206 -0.022477132902371313 -0.004958925149971641 0.008152326154184136 0.0005321229385396274
0.15803645554536488 -0.0480094971792139 -0.02272568145135129 -0.0039928961218253555 0.007449007558427042 0.0020440408737568885
0.16439570090099478 -0.051502704571483204 -0.022596197586012622 1.3440818718642882e-05 -7.052143553022526e-05 0.0036274782654206043
0.1580759759096578 -0.04801923182641115 -0.022745950439228547 0.0040195680975860185 -0.007582118250503433 0.002053345635832154
0.14350693184850422 -0.04242336028319188 -0.022521864761803484 0.004984612108632581 -0.00826045623100409 0.0005504034793906466
0.12676014578362035 -0.036960681159245064 -0.021444154983847896 0.004742179545696514 -0.004277899377729803 1.89856049970032e-05
0.10953082683091704 -0.031633318851657724 -0.01958986397709218 0.004496832045827713 0.0008599691933873269 -5.168096700202654e-05
0.09187942617775084 -0.026271474198816685 -0.017187114933221424 0.004380487691886389 0.0055685276609511915 1.601439591435329e-06
0.07393581917540046 -0.02099897391635803 -0.01443211883265423 0.004253664612402614 0.009451507754493218 5.249239151113175e-05
0.05631763864194499 -0.015375864431867975 -0.011474480160818541 0.0042175329106988735 0.012541866283339507 9.707714861506347e-05
0.041489069637155096 -0.012491754169876322 -0.008451352984786744 0.0038029922610522426 0.015097336212370697 7.226168700165812e-05
0.031207937616837583 0.0019881560483842346 -0.0047942986989210545 0.010976879759369082 0.012756086255559358 -0.001727833358083284
0.027151705223056474 -0.05562778692694196 0.002047430937192824 0.014631432344415593 0.010776514366668748 0.0086092222475036
0.012803822453594604 -0.04814311647883931 0.002550481612138884 -0.015890564331457586 -0.002224822686715685 0.00043789572400158307
0.01421990910888838 0.0015524714738335793 -0.0017922771967725938 -0.013805147584454265 -0.004793312718257992 0.0013311468350668267
0.023429532362001786 -0.008324396939444896 -0.004875119667735078 -0.01086914119253382 -0.008154630192173154 -8.739716754646797e-05
0.036970100307530125 -0.0122247967678545 -0.007438025907824459 -0.011285821927974818 -0.006838275961749626 0.00011771116210700905
0.04882958106184492 -0.01655616579626704 -0.009679225884881036 -0.011622441565969007 -0.005095733812177595 -1.8503311351858448e-05
0.06094854277354735 -0.02082500700382664 -0.011710850420410073 -0.011686415584993948 -0.0027769678653471967 -2.2682986887924663e-05
0.0727841885492941 -0.025083741393051598 -0.013435608019185063 -0.011786992008000657 -5.464852559588347e-06 0.00011153179969025934
0.08419564391110658 -0.0292523667455165 -0.01475222681602761 -0.012101610416720714 0.002971664422132984 0.0006403916959313535
0.09501952004222539 -0.03350747887981159 -0.015536460373383493 -0.012546632132623567 0.0052768031364662975 0.0021739957387007566
0.10420172049145873 -0.03853800226060286 -0.015753006473479873 -0.010294533423645466 0.004863194737301696 0.005520105400040734
0.10815175075177877 -0.042982923156421084 -0.01569051693676914 1.945674581447471e-05 2.716973537369203e-05 0.008852635524896532
0.10424047265793134 -0.038549956197963454 -0.015761089667780843 0.010332849021552706 -0.004796490132051728 0.005522108441271942
0.09510224674527949 -0.03353195393404255 -0.015556614088615627 0.012582381719840127 -0.005172559642719809 0.0021757846769878747
0.08433450192829638 -0.02929071053834848 -0.014793440719232439 0.012130265633908467 -0.0028026474716083896 0.000636256328359759
0.07300236216538888 -0.02513872392189348 -0.0135143504225883 0.011799342109165722 0.0002704628601739926 9.002981088097142e-05
0.0612896727895739 -0.02090300345031665 -0.011854338333957066 0.01166612529807489 0.0031827692401320334 -8.519894958150848e-05
0.049369235326551075 -0.016670217320402993 -0.009935063661866651 0.011547500159311896 0.005691469612523746 -0.0001490959878756431
0.037869485696113404 -0.012395773376264699 -0.00786599194251666 0.011097477246005613 0.007763691232246437 -0.0001780345636198968
0.024994128352330242 -0.00866395072619507 -0.005607160440189416 0.010387940960221888 0.009319718443095617 -0.0003533092023248664
0.015787178478107206 0.0013579866376683496 -0.0026063135482063534 0.01265723686847959 0.005102383032614243 -0.0009691221909332638
0.013945543118122796 -0.04858435845119043 0.0026028714823352226 0.009432330810826235 0.001525891672270362 0.009081798737420661
0.007098509673754907 -0.03477329812735046 0.0036119886397250026 -0.02097287309225795 0.00035277871954473016 0.008758827601827142
0.006274500086876382 -0.00045860093058058924 0.00019375927925080024 -0.023974857570662207 -0.0010956947217679188 0.0013163645449075405
0.009876950029447362 -0.002153474491820978 -0.0020347981960474586 -0.019826540521506678 -0.0032905925770322394 0.0004013711380071127
0.01782902620725288 -0.00598629595721123 -0.003589601045547526 -0.020389327317225297 -0.0027948381441353903 -5.568289584635661e-06
0.024364279643361398 -0.008160357674111239 -0.00482950389544486 -0.02061030284920742 -0.001771323350114116 4.350400143627851e-06
0.030382815710021847 -0.01027796240414434 -0.0058886901348917135 -0.020690901392566605 -0.0005976647912757391 0.00013304653537470334
0.03624792023598919 -0.01236403734582887 -0.006760847065383217 -0.020740461175979646 0.0007588216849324743 0.0005855186360127384
0.0416885280858893 -0.014216548515081308 -0.0074008905073926394 -0.0209658078327735 0.0022992823114329907 0.0017181855918419848
0.04691801610731026 -0.016039969282322493 -0.007762841398776663 -0.02169439708591091 0.003987066057236172 0.004378629702274771
0.0525699902642084 -0.02043258426670914 -0.0078031308495963335 -0.018764125230717632 0.004431071486375621 0.009910746143666079
0.05558599481332496 -0.028255883566734724 -0.007661811653619959 2.8539453704910317e-05 0.00011382210211449651 0.016308903897932974
0.052607411452157096 -0.02044886899277871 -0.007798666596239424 0.01882010334973103 -0.004187549697235154 0.009906109355141133
0.046996899111250136 -0.0160728669580049 -0.007757375780425218 0.021745780553023217 -0.003696277943451411 0.00436530202868032
0.04181789434701405 -0.014266623622994832 -0.007402416905726617 0.021004846188510486 -0.0019311735155962244 0.001686307924884036
0.036444725953204714 -0.012432154738760397 -0.0067840981983830345 0.020751191578033033 -0.00028548741290205284 0.0005147058918733614
0.030678388109263027 -0.010367172937584644 -0.0059593163247192976 0.02064513189367421 0.0012006832650710995 -1.2033232198637838e-05
0.024818258898585476 -0.008276794888607601 -0.0049889900853991274 0.020463049889152627 0.0025292875284697687 -0.0002829709478510653
0.01856446924486095 -0.0061509707321302926 -0.00390483082787211 0.020054124288155145 0.003735845002624129 -0.000482957865199405
0.010815613614190178 -0.0023489489498572506 -0.002579536931715917 0.019042387791890346 0.004242785538195654 -0.000558074308371393
0.006966459731187712 -9.394446257684585e-06 -0.00044178700979156195 0.02239017503000375 0.001290158599441628 0.0004161456833142654
0.0075231399903810964 -0.034765947390634246 0.00325412823180565 0.01915598314694747 -0.0007884121671457129 0.012274081744889767
0.002406131929472276 -0.021929894154851005 0.004198303387409678 -0.019830261375026755 0.001138976447235916 0.009603172512190847
-0.00011330205429079878 -0.0012179803627620596 0.0020334883844268553 -0.02633969352217434 0.0010876876106493108 0.002361237050757015
-0.0020222484418201694 0.0018531050106683072 0.0008261845630976034 -0.025044682744627466 0.0006804893941767006 0.0005957621188573155
-0.0008368194594801863 0.0003517992859474681 0.00036531229784313504 -0.023656728173890983 0.0009512759714706596 0.0001473785042490463
-0.00021358174346390165 -3.4055739967786195e-05 0.00020029906622825788 -0.023653365297881843 0.0012778053505133813 0.00012629054020138087
-0.00017035881696223588 8.256923803265679e-07 0.00015566594179009015 -0.02370591407718858 0.0014501495047303488 0.0003743491182665939
-0.00023749007627486889 -1.2959019730157946e-05 0.00018035524193594523 -0.02376154489135807 0.001568971360730856 0.000974814143279844
-0.000694371095503069 0.0002885122723755172 0.0002578288688124125 -0.023597808808978514 0.0018739632033464883 0.0022602419924861394
-0.000988355626237333 0.0010404149860161716 0.0003505160168528365 -0.02435285923117439 0.0031755061517445434 0.005019751858125355
0.0019016406253992836 -0.002821888380816135 0.000488163479841777 -0.023835835224270963 0.00490855777096311 0.011049277298619164
0.004699583260204653 -0.0176561148222996 0.0007470891586690211 3.103304419503866e-05 0.00019607680152316747 0.020939405971789123
0.001937411978366301 -0.0028423978436536287 0.0005054311088531886 0.023896664616822435 -0.004497305239039639 0.01104271436953135
-0.0009142667688377681 0.0009994050791014943 0.0003822658386171975 0.024408527397410177 -0.0027083336944415614 0.005001982817219632
-0.0005766473826409172 0.0002274284147323041 0.00029746692598746176 0.023639589886185114 -0.0013188387034127873 0.002219888025121232
-6.681203507721511e-05 -9.281635889768673e-05 0.0002152582497531346 0.023771286966812997 -0.0009040411832520203 0.0008892413653637592
7.06762217071993e-05 -9.610388781125772e-05 0.00016352299259327153 0.023649778166104158 -0.0006709583198273145 0.000200442282828477
0.00013796228664399347 -0.0001490961587146885 0.0001433977933559807 0.02347400345622525 -0.00040311776104022865 -0.00020607221276484422
-0.0003418384820197646 0.00021360612755168411 0.0001844688191210978 0.02325435957705536 -3.731930221318358e-05 -0.00045421163965468517
-0.0015181910814111093 0.0018513952565559332 0.00046774248178985654 0.024237553807019526 3.246645027186429e-05 -0.0003755318222784432
0.00021003916656894147 -0.0007399295099598842 0.00155553100791185 0.02549368439690882 -0.0010280688300372339 0.001775383751494842
0.0026135299253646584 -0.02199310439375605 0.003793421149401651 0.019242017861634438 -0.0014908171648988565 0.01170448885009967
-0.0018511097099110656 -0.01138289792912765 0.004737416232358036 -0.01501428268502448 0.0019214055831253659 0.00830560670329493
-0.005955780791022811 -0.0004573637085486921 0.0037193003041411017 -0.022313378162069783 0.003102230296706103 0.0024078571260623682
-0.013134981648506142 0.004966153050929827 0.0036249064419491494 -0.023066512752737058 0.0043841583501801965 0.0006185999068392836
-0.01898936498726541 0.006369858956033729 0.00429437012537202 -0.02096902684734771 0.004685152938451649 7.57957258688162e-05
-0.024768689312991733 0.008166517433599812 0.005222983562192969 -0.020535076796724824 0.0043607947963875075 -2.7361031901498815e-05
-0.030781903095477483 0.010279775723922389 0.006195575021070699 -0.02064276304363211 0.003525110836376414 0.00013630970971693657
-0.036677295264536044 0.012399960537266101 0.007119945568531813 -0.02069208211885358 0.002428871210825554 0.0006364582443511508
-0.042773407101748394 0.014478031827162135 0.007922410541009063 -0.020507213353973156 0.001353920590564695 0.0015534157713032164
-0.048955514253233225 0.017920693625271395 0.008463726615375353 -0.02016317213445268 0.0016908141624726255 0.0035107415842710607
-0.049048735932386164 0.017014754466831206 0.0086163307421239 -0.025491665781300802 0.005224150613612036 0.008075958999062261
-0.04616583786167086 -0.010566360935359878 0.008869749807980087 2.9221861736685763e-05 0.00028008860839972796 0.021900760596949877
-0.049014549461211435 0.01698988092465778 0.008646563802901418 0.0255491855881134 -0.004641370752490257 0.008072303555714528
-0.048886132729076257 0.01787131496238719 0.008522154760223676 0.020216638695758963 -0.0010425836542545788 0.003499383403796531
-0.042667288909634365 0.014405542318253898 0.008003940300141878 0.020549264893022876 -0.0006056963399097946 0.001524477511823283
-0.03653308654830924 0.012307996654386399 0.007214276904181355 0.020706867511293872 -0.0015641026508067812 0.0005699498005253283
-0.030596575526204508 0.010175173136411012 0.006283675777357577 0.02059889904701549 -0.0025605133091741185 -5.8566677488660544e-06
-0.024534845714575714 0.008055847395417932 0.005271771804948541 0.020376174487473326 -0.0033635722354878996 -0.00031484909140738814
-0.018721670839844086 0.006280808733039957 0.00425284276117572 0.020602646178327622 -0.0037962428562934806 -0.0004617989197451166
-0.01291759920508761 0.005032458029720839 0.003440906006318067 0.02249987757210481 -0.0038546100486390286 -0.00016882863926384747
-0.00582382713636332 -0.0001223586006053956 0.003400244367987245 0.021950032426028807 -0.003121720374008655 0.002004767416783264
-0.0017471327764310414 -0.01144003900354952 0.004387642347432914 0.0148786120274355 -0.0022113704664681673 0.0096991570757245
-0.005447196781483277 -0.004519880474174666 0.005495922965742061 -0.007851726935002783 0.0034433666742723053 0.005391456704438287
-0.011360142105811042 0.001124101298782989 0.005323763842195659 -0.012475009400123789 0.005739848567083941 0.0016387223966448814
-0.02395122881799615 0.007948303999938748 0.006297374168496288 -0.013306570657065033 0.008476188375016569 0.0005648440758848892
-0.0369289425037146 0.012407702766386322 0.008069124663716658 -0.011929972383375256 0.008796747874317232 8.933965786806847e-05
-0.049326440132303494 0.01662106675585753 0.010052358146171647 -0.011540330538457698 0.00776203601619854 -4.128346880156753e-05
-0.061411325157891675 0.020880307323515847 0.012000645263300953 -0.011632533059752705 0.005809115986069414 -2.3224776897514914e-05
-0.07326736012091196 0.02512453415464992 0.013791287614788036 -0.011740602202133242 0.0032808894460602477 0.0001461642829119288
-0.08437658794593511 0.029396685439592406 0.015287555769772768 -0.011522645159557511 0.0007052152424969075 0.000591795529772198
-0.09656165147811248 0.03318532388450244 0.016276689617039316 -0.011886297692270937 -0.0015794973319986773 0.0009281976907296023
-0.10157260474319102 0.04209948953897794 0.016125395012033646 -0.016100251510091996 0.0032966986914895998 0.0030182025747075235
-0.09963038892168233 -0.004966364768300918 0.015718820581286173 2.0265886386586142e-05 0.00037204108906772817 0.016121730488612773
-0.1015395920966735 0.042069931284147606 0.016168644991620344 0.016140421997787684 -0.002525598159073689 0.003021760825158056
-0.09649596277286603 0.03312686146882955 0.016361873461978125 0.011924613239754307 0.0024284148346459325 0.0009331056147802665
-0.0842799978640308 0.029311506752682227 0.015410993862610634 0.01155506350846345 0.00026089808439144627 0.0005924929810753887
-0.07314527536071536 0.025018285238910816 0.013944725860932216 0.011757844533163071 -0.0021833895811697807 0.00013114623191268278
-0.06127598797146559 0.020764240088765203 0.012167743582604945 0.011615755098907308 -0.004614738598287849 -7.710755758338087e-05
-0.04920257461553603 0.016515443060579654 0.010203941563317798 0.011452317018787718 -0.00658746446172748 -0.00018020038938733402
-0.03685703035296206 0.012356426687101952 0.008159056686023203 0.011722870048780108 -0.007868234269106706 -0.00020342402958184683
-0.023955476438828022 0.00802894292816754 0.006269234362775543 0.013027597410094705 -0.008074569953462533 0.000135013981038
-0.011375928622271707 0.0013254808000189087 0.00515247633334592 0.012351727718148808 -0.005867277637145808 0.0014284604398576623
-0.005436364628507216 -0.004513982287137478 0.00523303254341097 0.007823284647166957 -0.003771902732310217 0.0061889839194521285
-0.007318514962338335 -0.002188402297883206 0.006668611801569616 -0.003007350099210546 0.006583108612404111 0.0034941765361314967
-0.015677931090680827 0.002012002243357607 0.006927670435158335 -0.004881856037078431 0.009886930054007023 0.001139241123739567
-0.03475495870810862 0.009471865304879085 0.00875904088462636 -0.004794368703278986 0.013759372594039317 0.0006131247331871672
-0.05514506168366543 0.015501058651547186 0.011499597148490266 -0.0043472810079891264 0.013872950607018012 0.000253989697886538
-0.07393658503607894 0.020937716308454434 0.014418190516608656 -0.004250458217565204 0.01192776583469733 0.00012637611567313138
-0.09203505250928054 0.026308692785386188 0.017239076312383337 -0.0043493923413150636 0.008587409056118045 4.098199217220539e-05
-0.10982525584623766 0.03156930401169104 0.019806484257396985 -0.004404796625235438 0.004320390005974356 -2.332054126309897e-05
-0.1267612070979274 0.037271203477041236 0.021930021881455455 -0.004604503054815356 -0.0003988774704874085 -1.1735949986342652e-05
-0.140733073120017 0.040078309979491494 0.023324046868701646 -0.004740393969648571 -0.005257451510214967 -8.579367322631077e-05
-0.1554216275265968 0.056324354574087625 0.022840561462772108 -0.011491068644890929 -0.007843287172255466 -0.0018582739158956416
-0.16425536388008524 -0.002063611918370703 0.01907167260243054 9.72856988642112e-06 0.00047866338096664044 0.017142332854046878
-0.15538930338419843 0.056292362447713996 0.022896708022520976 0.011510550698193296 0.008833645610470856 -0.001851599434089332
-0.14066966575257975 0.04001508950220438 0.023435615109886627 0.004759646721954267 0.0063430100983466525 -7.35913359183421e-05
-0.12667067308415556 0.037179293026859066 0.022094398657958807 0.004622175082205949 0.0016279583147205574 3.098211153905494e-06
-0.10971748951922858 0.03145512493664509 0.020016695805877137 0.004417324747706521 -0.0029302967358073094 -1.180965959859747e-05
-0.09193330832617963 0.026185739302438605 0.017479912566814068 0.004349215778363218 -0.007080304410715951 3.7004857589578765e-05
-0.0738918877235455 0.02083312806566132 0.01466113556885048 0.004221593610812554 -0.01046097063270174 8.236119247529518e-05
-0.05523403401005157 0.015464707306826541 0.011697804995103107 0.004268357742261169 -0.012769020160617962 0.00013255168479657246
-0.03498692547811404 0.009557510927205972 0.008849861394326744 0.004679167762751168 -0.013430756269404194 0.0004281340644067521
-0.015883015200070526 0.002162425900796665 0.006872809707170493 0.004824096341318513 -0.010302371567757498 0.0010571297389487249
-0.007441502735284482 -0.002143130548858329 0.006507525824475525 0.0029602175515196488 -0.007266864326132554 0.003976682994382924
0.0228661565470376 -0.08497772502238708 8.917562868693274e-18 -0.04814107801187152 -0.019846957124912704 0.025009516209872233
0.027531627692981883 0.008833602008981156 -0.003185526079465675 -0.021385206057153043 -0.02065833044717019 0.0008505029368036337
0.03836406454536627 -0.011981245398979209 -0.008401613892786965 -0.010081565744786886 -0.02018175446322486 0.00701555988891114
0.05395072864474116 -0.014074767774244492 -0.011811926790307311 -0.01039632752836309 -0.017957355943621623 0.007612149136771871
0.073234519302736 -0.020244844880008543 -0.01562295896161088 -0.009798254543655672 -0.01604737282555883 0.010454768607509463
0.0927912041675689 -0.025656154929130662 -0.019290592856420822 -0.00889015298534372 -0.012604288634980455 0.012892053966453817
0.11186641506081388 -0.031119979724773688 -0.022740711178668483 -0.007426037914345303 -0.007861440553723311 0.015396474180285231
0.1298031522764135 -0.036361912072408145 -0.025759790443669914 -0.005413166123284356 -0.0019161265084500375 0.017857388190736376
0.1448532527367156 -0.040913968678471156 -0.028039246571004775 -0.0028174033318657263 0.003879276434328623 0.02039425791388515
0.15443357144730172 -0.04356159216769128 -0.029296373333763524 -0.0005234888467395122 0.005523025698172597 0.023120029883660922
0.15754589934238983 -0.04371196415764105 -0.029642508739693277 -6.41182068568183e-05 -0.0001327636291350966 0.024979233125271474
0.15455099517390816 -0.04359900238762436 -0.029324036465949523 0.00039192336151731887 -0.005786221037183038 0.02312647939012049
0.14511067979612133 -0.040995778632124544 -0.02809893311568382 0.0026758547666227944 -0.00413476849019842 0.020407042243731584
0.13024873811595408 -0.03650286474796477 -0.025861188890974718 0.005254745156898072 0.0016766582146521406 0.017876835263874794
0.11258031995002506 -0.031343541405389364 -0.022900228565962615 0.007244400088698357 0.007650297381773176 0.015419955458402957
0.09389146910450694 -0.025998066574818336 -0.01953817135632045 0.008676352808600017 0.01244858393080178 0.012928960252783445
0.07488796198224348 -0.020746193134174855 -0.01599513155524484 0.009553206106466726 0.01594777974641583 0.010458302717490663
0.05638140357854861 -0.014794949671824415 -0.012432500602951075 0.010049402380918511 0.01807223255865232 0.0078070172337228
0.04229113637957599 -0.013014842530065745 -0.00914532872753277 0.00966149393732554 0.019865749260412954 0.0063684854111327556
0.03598391685248789 0.007397640956944851 -0.005459856314091696 0.022188731490684066 0.026563646159084183 0.004678686189967656
0.034798959369813615 -0.08967758665414408 0.0071576434758693665 0.02893714622302047 0.0347944314650112 0.009700121251335885
0.014045454779925927 -0.07377158557761614 0.005936522720681458 -0.0308997504206873 -0.016397867586782692 0.0143764937393852
0.01268433460901164 0.005899103137460852 -0.0020833061460360223 -0.02560312802722651 -0.013730431433717329 0.004312150632285982
0.02025193798057411 -0.00734900523467998 -0.005433361452615574 -0.02130243746980669 -0.012457872644630151 0.0075591809869346455
0.03517412954512304 -0.011288713469246711 -0.00840056966212104 -0.021575594969819194 -0.011014889002937957 0.009802563017440591
0.047761387079491534 -0.015928276939688804 -0.011119269129803615 -0.02109027359523994 -0.009558705339857757 0.013005143871067054
0.06079338733350394 -0.020346778219888825 -0.013812605178252252 -0.019371735410304076 -0.007532406381018276 0.01619869818129866
0.07345648246309028 -0.02470497283678325 -0.016306036632442806 -0.01683157583449461 -0.0047131896787956495 0.019410581002149166
0.08536272975646644 -0.028959360423057384 -0.01847900648518135 -0.013126411524098965 -0.0012335066041252404 0.02272551648776952
0.09540091636144434 -0.032644333413260694 -0.02013123969456878 -0.00775373084133126 0.0021936030546925622 0.026498937254511797
0.10186855428279457 -0.0342513755417231 -0.02112353186903829 -0.00204077200520813 0.0032714160015427226 0.031232496008779646
0.10400896716616666 -0.03300464313097262 -0.02149724377944834 -0.0001143204932189145 -3.180253123595566e-05 0.03490387884739515
0.10199201051812302 -0.034290298984398504 -0.021146204838990684 0.0018048506411557637 -0.003328688759461913 0.031233172793185243
0.09566849140732221 -0.032728766057375576 -0.02018103286016217 0.007495602716618628 -0.0022316715316182257 0.026499426333705448
0.08581750363356533 -0.029102895754291598 -0.018565537792785598 0.012829936717889621 0.001227705467993943 0.022723983114798375
0.07416735034994924 -0.02492901138958896 -0.016446471190992087 0.0164787712893746 0.004754263825069677 0.019403232753498596
0.061860294404678086 -0.02068302316145544 -0.014032878160021607 0.018942529649075158 0.007630020567963794 0.016182618630768652
0.04931569704073757 -0.016415811904714816 -0.011469939951839184 0.020563717969536027 0.009737558412775927 0.012963292407654372
0.03741982156746302 -0.011965588644132198 -0.008921802152750458 0.020864758450139773 0.011197193009411575 0.009794028766970185
0.023474723991933365 -0.008285200960705659 -0.006353079525893955 0.020205316864879155 0.012973287913231657 0.007264846090485312
0.015594023239694034 0.005526251023595165 -0.002924686121536672 0.024149111513654887 0.0157015217124141 0.0061851304946445775
0.016076215319501663 -0.0773914464087076 0.007375823276635801 0.019336158003434363 0.019415789730180363 0.0058392357085403895
0.00724242255192672 -0.05133096743071626 0.006491344281451812 -0.03627822959191429 -0.009985080481639604 0.004761483647411353
0.004253054296584686 0.0012309857544254284 0.0003110727710605345 -0.04158788285871378 -0.007814369343056852 0.006701639546917395
0.006293077113854986 -0.00022948094479459212 -0.0023459067521123082 -0.03627437750506531 -0.00615797676394975 0.00863041181551167
0.015384640706281977 -0.005091313955299667 -0.004071298414774611 -0.03689249499663844 -0.004993885972083795 0.012502280281599183
0.022805652724555932 -0.007550574050429975 -0.005566843690507386 -0.03563951869226418 -0.0040842893531461005 0.016499893116162238
0.029505594754584655 -0.009858516465471062 -0.006984023617952756 -0.03289698563518278 -0.003090884081615329 0.020699213000023
0.03610617415571649 -0.012093448691417076 -0.008294604862648375 -0.028818969465796335 -0.0017579117858575982 0.024936852951341255
0.04248013127499947 -0.014437378349112448 -0.00942680041596686 -0.022892541369773974 1.7095583038657553e-05 0.029406840109491416
0.047922939820264104 -0.016535751735269465 -0.010315760568307289 -0.013748382498968183 0.002273404073428144 0.03467040374220229
0.050717697812344795 -0.015797124358156292 -0.010971412539950856 -0.0029673141313069896 0.0034749555531538535 0.04185689208357822
0.05121429446027612 -0.01046312900358264 -0.011396761035897854 -0.00018268548606492348 4.887857588016512e-05 0.04862323334881146
0.050842940209119857 -0.01583846647764018 -0.010988494505348638 0.002589822664498821 -0.0033675471590720947 0.04185312074017603
0.04819182531446736 -0.016624253833372786 -0.01035396570493643 0.013333814173014949 -0.0021375250463306307 0.03466173150040393
0.04292980483431735 -0.014584553883146988 -0.009494925531474008 0.022413556978965948 0.00016443444671461864 0.0293905429566004
0.036793583727047136 -0.01231654565183939 -0.008407475199320792 0.028243937680545075 0.0019977555741249905 0.024908519574689248
0.030508560368880173 -0.010182682949875543 -0.007165825091497996 0.032188651424396225 0.0033938858407987055 0.02064898129335876
0.02422104129759002 -0.008004916143434793 -0.005853193822525786 0.034751399677749116 0.004434986897618543 0.016426270162640574
0.017309838461216823 -0.005697235826087261 -0.004523528392668752 0.03570600133527678 0.005355367589627564 0.012355703805687485
0.00829461453017441 -0.0007706705671309018 -0.0030394600055029656 0.03455020721596485 0.00665937822074685 0.008662812344826782
0.005590236601264039 0.0019521494136113106 -0.00029526810013317194 0.03928949835728373 0.008557005733228118 0.006804546588740254
0.008116169799367773 -0.053540780354281114 0.006795655806208219 0.03429114222655028 0.010956713326644829 0.004550781186450667
0.0019462514386099482 -0.03078026137405519 0.005797245997425133 -0.033548224261864046 -0.004504367986489465 0.0016791090784229624
-0.0022193471137386418 -0.0006525498218065086 0.002254742888222586 -0.04398034211183213 -0.002552059802118296 0.0058199803682801475
-0.005573448057372742 0.0038917152697930633 0.0008349719936691898 -0.04415681040372966 -0.0004025472686238333 0.00892339116710508
-0.003644005735372967 0.0014989465768256612 0.0004759521921042007 -0.04215515770826538 0.0006691146742480501 0.01314658848076765
-0.0021133794926340215 0.0006366619821626063 0.00034368219867632154 -0.04042213560933013 0.0009860927872808812 0.017513308051954907
-0.0014261151391920875 0.0004475093122846702 0.00026633641784316756 -0.03728926140002337 0.0010725340785474866 0.021965213865182645
-0.0007889795296799923 0.00026481538976007004 0.0002145615336183375 -0.03273620353206183 0.00115096106285134 0.026515650222702563
0.00026454420232528046 -0.00018709530996290725 0.00018076394409116144 -0.02633520330258438 0.0014502757397022083 0.03125546538025804
0.0014452486542779956 -0.0010621088618019765 9.782506224734845e-05 -0.015862522413713394 0.0028076008879661155 0.03669179887051821
0.000331696491098809 0.0019313008022824878 -0.00023884367245217638 -0.0009826972609312354 0.004564052616389506 0.044493123968772016
-0.0012412943705135736 0.014889524550178296 -0.0008775012903409561 -0.00020511385783323938 0.0001213844465468057 0.05454641594372558
0.00045691227819508293 0.0018883296866818902 -0.0002500144617328249 0.0005584896871840778 -0.004308527436952174 0.044487975961227375
0.0017115994303519369 -0.001153183627348575 7.203312704108804e-05 0.015395554088615447 -0.0025148694437090524 0.03668021682504539
0.0007028329816976845 -0.0003359514591631851 0.00013299820804947088 0.025794014829415807 -0.0010998023139938155 0.031234517678706327
-0.00013516463356012093 4.476137488977844e-05 0.0001325956310348708 0.03208384734121192 -0.0007311566711428399 0.0264796015639136
-0.0005042750598830668 0.0001386248584384386 0.00013162998798541827 0.03647943178082763 -0.000589857299546096 0.021905265508765454
-0.000868952746195056 0.00021875066551665093 0.00012828427890147404 0.03939099523788663 -0.00047881844636928935 0.017414099066853393
-0.002155626804143425 0.0009921776754843441 0.00013661759885997234 0.0408071622194177 -0.0001970147213492997 0.01300906195415561
-0.004313854362972225 0.0037478907814312967 0.00035203129353924336 0.04245590714561732 0.0007925548612278856 0.008847782968028265
-0.0014975846331040108 -3.742982191023774e-05 0.001814389393346855 0.04297859651243768 0.002879346115720434 0.0059830039826869255
0.002428261713750947 -0.032317189563383045 0.0058250208100043225 0.03322786772087737 0.004911185516833385 0.00263176779775881
-0.002730810297304394 -0.014747525499449982 0.005068431418553743 -0.02549682939926173 6.61267811394315e-05 0.0013258233312453793
-0.008096344055121699 1.332474752991237e-05 0.003796774467288056 -0.036985268801895864 0.0023909680693105038 0.004515814449110565
-0.016552746633222405 0.006910222173077045 0.00390999808741512 -0.04063078978047433 0.005424218163347086 0.008249639257376998
-0.02198371650161371 0.007627825455000608 0.00498975575120265 -0.03786796464677543 0.00643417221052253 0.012385414712314177
-0.026996361469545024 0.008925879798741918 0.006253294478413175 -0.035672928748554114 0.006126301752708269 0.01653836790171054
-0.03238469838528836 0.010768479170662289 0.007514335650574444 -0.03287569644987067 0.005258418229023536 0.02070281584270352
-0.037709554508091846 0.01257055041892227 0.00872111702824738 -0.028867632833285434 0.004138442817476422 0.024981763548739704
-0.04215349895803813 0.014287914914168559 0.009799551251341233 -0.02316541299691615 0.0028073175205946513 0.029278897978998023
-0.04488835332551193 0.014442141963581094 0.010542578623651 -0.014724299048132262 0.0024988589535944 0.03386500990969729
-0.04988623280020191 0.017611586411541372 0.010441517017265223 0.0037850153749301924 0.005107821804197467 0.040214006439039295
-0.05395357745557332 0.0445019290879312 0.009152800146745676 -0.00018462350791774614 0.00019549838352275555 0.053326238784557535
-0.04976050839214631 0.017566903041414037 0.010436242231900468 -0.004167046741748255 -0.004700624506562253 0.040210584536981085
-0.044623518621028625 0.0143483094294802 0.01052923471922273 0.01430324186824642 -0.002044760317985263 0.03385709841581189
-0.04172518037564577 0.014136967355755042 0.009772274773985706 0.022676889579751957 -0.002281728798670276 0.029263963428584353
-0.037088489940085255 0.012353067767577 0.008670554081842518 0.028278424796487806 -0.0035306270409296136 0.02495496827098792
-0.031546274281831085 0.010475985662132259 0.007427230459327651 0.032141546496010316 -0.004585586659474545 0.020655704677896358
-0.02595098566099284 0.008552849237589012 0.006111494840094934 0.03473253163551605 -0.0054520837065538804 0.016459664495926157
-0.02088464104607685 0.0072529502396866796 0.004770394469494735 0.03666595038084326 -0.005877701092313378 0.012278692595606685
-0.015748200667445075 0.006876260915440291 0.0036081639632007515 0.03946580153595157 -0.00511302137126175 0.008177844941594346
-0.007689913888921996 0.00037050031430195307 0.0035115484006426174 0.03670934572884126 -0.002264051250830345 0.004716027178446096
-0.0024676305094746068 -0.015631782767394804 0.005022551447659503 0.025679102326115453 7.160430492375732e-05 0.0022167619202940027
-0.0064187992170648125 -0.004834400089573964 0.004864130275374558 -0.014116876321571216 0.004082586369830648 0.0019428825796385441
-0.013342963422857403 0.001806056905111339 0.005139260592183359 -0.02130892857538566 0.007445976428507492 0.003241774773214879
-0.027138481832336057 0.009599915995945695 0.006741438420090947 -0.024409568209251 0.011874362976621304 0.006481831629535696
-0.040104825219157605 0.013602112098626462 0.00922298790528471 -0.022698576849274062 0.012825460875627139 0.009780570836610483
-0.05207338660124395 0.017380990071294802 0.01180815132675644 -0.02112993288116168 0.011771119532887552 0.012994291215915102
-0.06372433993639681 0.02130268258383957 0.014330175375182072 -0.01937196105153832 0.009800397565148496 0.01619553673865772
-0.07499119643403511 0.025181508254940525 0.016724368961791063 -0.01688225665379756 0.007228914829910511 0.019433115867144333
-0.08569794836058532 0.028760414319829265 0.018879404828248098 -0.013526715310358933 0.00428061088112982 0.02271936328563369
-0.0925830015083458 0.03226941563706841 0.020466877404455172 -0.007848709523577583 4.4583401659387015e-05 0.025462299243951866
-0.10042409954827243 0.029491063009928098 0.020489275473748146 0.003989678753252052 0.001994415875636101 0.029094607123752746
-0.1065658155947727 0.078563121589527 0.01750243373591559 -0.00011680948203334493 0.00028115607052354216 0.03866627925032165
-0.10029475058825243 0.02944348548988134 0.02048955664399561 -0.004231322755621989 -0.0014115201294583762 0.02909568787569633
-0.09231337733184118 0.03217052229914723 0.020465198753690964 0.007582671313806674 0.0005977115479331534 0.025463896509604587
-0.08526994788783264 0.028604064526684174 0.018871135399384203 0.013218903316996206 -0.003548515942179523 0.022720058626318103
-0.07438925849873698 0.024962640985910813 0.016702377280862022 0.016512827320535713 -0.006395546020766707 0.019429938203962657
-0.06295687037150452 0.02102291445666609 0.014285326033304454 0.018915448502087297 -0.008892279681150472 0.016183011671523386
-0.05121648817337079 0.017064499232552578 0.011731006357088066 0.020549604348356582 -0.01088416271005541 0.012965624940382905
-0.03934811163690119 0.013348385480891296 0.00910556336719075 0.02199576489625864 -0.012152185213716438 0.009736572437100605
-0.026703478474282453 0.009608304204682347 0.006582078112765109 0.023842841857822473 -0.011617707504995054 0.006463010297421941
-0.013196208155808156 0.0019990085981615724 0.004982319371218858 0.021303453342967606 -0.0074957448688109515 0.00338382187012234
-0.0063523621401422245 -0.005182442495453325 0.004810118515354669 0.014302975706776605 -0.004180812850317389 0.0025205310181586043
-0.007273449308965669 -0.001637783199771129 0.005552597903366342 -0.0069605552655331885 0.008173266179524873 0.002344911523588053
-0.016510786504651813 0.0027829974286396227 0.0064255340844037185 -0.009981509895190765 0.013222209583785716 0.002711285191517206
-0.03732799891832587 0.010905015004531844 0.009053065127118466 -0.011222078462413817 0.01961938409865926 0.005382917620232569
-0.0587649639399494 0.016626435187253458 0.012635351105170441 -0.010789990863812262 0.020483455465158115 0.008011260654785551
-0.07772255729901556 0.021672983610921882 0.016258683380477666 -0.010033368491003149 0.01846345627914956 0.010503459640690419
-0.09577335889801121 0.026643056871219067 0.019787660912655963 -0.009001623243757721 0.015073413466777938 0.012969442708986178
-0.1133461287586192 0.031648477885598006 0.023153100281272446 -0.007648806890367064 0.010641595479629104 0.015470625471936004
-0.13001986483784234 0.035888756115913904 0.026171720064073825 -0.005606615545653887 0.005379347513467498 0.017758106987591026
-0.14585847708361319 0.04222713494585941 0.028581588650076914 -0.0027436413141837743 -0.0021784413909795857 0.020466853784487777
-0.1532076747958922 0.03427464460189617 0.028716245436809274 0.0076250798595119875 -0.01581797436426597 0.01838064969629262
-0.1527353114398212 0.09653037000640935 0.02165520010822449 -7.54773889467368e-05 0.0003909453970465668 0.03790616471559097
-0.1530684008902755 0.034225161644406185 0.028721481386501678 -0.0077810052263603945 0.01662655889265583 0.01838285541744044
-0.14557134445993092 0.04212481266875593 0.02859008910590505 0.002572922649004529 0.003064044753726545 0.02047063634390177
-0.12957261061722616 0.03572847242920747 0.02617936742377519 0.005411598933383882 -0.004377377915179785 0.017762036327148893
-0.11273589613691984 0.03142727911633747 0.02315346800359796 0.0074209447685181186 -0.009508417680556297 0.015472110171799643
-0.09503979579997793 0.026368493457603115 0.019772680136735353 0.00873461194607127 -0.013843857973407963 0.012964641097493665
-0.07701145427138949 0.021385202932575273 0.016221294149792172 0.009724330421368367 -0.017270077285127156 0.010489765879766235
-0.05834866986810953 0.016433469869112486 0.012572047088568503 0.010461408054589103 -0.019611790966781024 0.007994168352402783
-0.03736767118979714 0.010945649884262944 0.008962101213360208 0.010985697782725373 -0.019406358903834353 0.0053939357106201884
-0.016738513668192668 0.0029327191869217136 0.006337188713496295 0.00999571303848549 -0.013539227326731709 0.0028088792893493034
-0.007462151216426856 -0.0017594440375920792 0.005538619517927447 0.007016993024392369 -0.00861961200667908 0.0027302868077308693
SCALARS Stress_vm float 1
LOOKUP_TABLE default
17425.064531080396
7992.22592994881
8643.721858098697
11963.315750219626
15961.402468180611
19995.89147252295
23970.170105597797
27745.417684463744
30948.878098493817
32940.4682918822
33462.3132731093
32965.94639147637
31003.08032923205
27837.490999945883
24116.295558452148
20220.447631767496
16295.56601107932
12453.337971422798
9366.501171969325
9409.749927157914
18829.271531905524
14793.158880215644
4653.435614592751
6156.051006775965
8817.950972073979
11492.040760751053
14199.920758287893
16891.573623126358
19483.66181606412
21724.764360577057
23111.09603010701
23370.580141448805
23134.387984090787
21774.32859107148
19567.24322523544
17021.56459131386
14392.989117041425
11767.098882850676
9188.166396903456
6581.603368502108
4919.503309761576
15387.827701402226
10905.926373717932
5758.505127515664
5675.646609174636
6691.076972423189
7773.124768621835
8933.5999621122
10174.003417698803
11497.609526754599
12753.532065741587
13397.522962335895
13165.732076356348
13413.197517092203
12784.764273559209
11548.384535622028
10249.579588895042
9037.012059917537
7897.0802116950335
6787.924595754471
5631.015302873245
5394.688520262508
11191.374678056558
7443.08203128327
6329.348399998416
6614.590603472382
6246.409497792173
6078.920809707106
5940.062564963449
6023.629003963189
6530.021999536623
7604.371944408184
8453.815648937149
8001.5364715579435
8442.392399844271
7587.573659828275
6494.859851408311
5955.197092491485
5823.908870372346
5904.138824224429
5995.736109735325
6297.133125963203
6134.700016599856
7626.259106333914
4628.445746165578
5700.940969941982
7207.423405704553
7683.029769990342
8436.151743831508
9405.633128601112
10439.608686794762
11370.757564557729
12264.033913270609
13803.978102653233
15684.864489395053
13774.724526070682
12203.965297807581
11270.811526584339
10293.862359090039
9205.373266828412
8174.95487000526
7379.908731809661
6964.261661800979
5624.238941216596
4725.669182303237
2816.6008691711327
4494.999086099136
7531.759501375524
9994.441748946794
12369.582909385661
14801.927332248404
17220.878276436437
19511.560639659863
21279.241212606234
22981.72749191182
27049.617064195983
22954.754565647363
21222.31404221174
19416.802659199
17084.2552380503
14621.77364686026
12158.201218967308
9797.025489957074
7422.535127013007
4477.212924774327
2845.7253870949808
2431.396751820602
4331.309596450361
8831.957352735504
13120.21715288109
16934.631662689608
20647.354641673963
24311.192462631643
27784.023200480584
31134.914405117066
32990.353364312235
36012.8931079289
32971.76778905935
31078.34533474588
27689.580973158478
24176.54858168242
20477.45077359662
16757.42865227932
13000.694484524525
8832.84342109203
4388.026374715239
2489.1670580100017
11360.44363416677
6710.062492400262
8581.79041491401
11951.765964820781
15723.578229614515
19522.692420946394
23253.5614804752
26880.49365788201
30398.2954295493
33541.130762229215
35081.149403080926
33550.80716847156
30418.356637763056
26913.65546960055
23306.16294316754
19607.032253862188
15863.263898029889
12184.434487234877
9030.445788794234
7269.751730993834
11910.798244998205
9623.379408118497
3653.7988232253815
5807.136088781215
8497.239654497671
11119.53491391937
13744.113410755603
16325.100100609468
18812.135102599983
21212.151521420656
23488.36548048378
24849.13060243246
23496.373437488273
21229.327623838475
18841.15176589664
16371.166037191138
13816.938337380403
11235.95895086876
8689.595822813466
6092.836465296173
3864.322472351454
9800.871554634949
7348.931092161185
3393.856345444197
3950.405883824294
5267.548917379385
6597.3273211939
7919.087682578363
9215.211305083445
10415.71755510202
11654.53318491381
13448.739204418662
15284.075634797933
13454.494390363981
11667.960367768037
10438.354631626844
9249.1296005955
7968.475404918518
6669.803636384562
5365.093879442046
4027.492128798905
3211.533809141515
7357.971409701668
5189.959231881519
3771.83710610474
3651.8938585545366
3393.6330661916213
3479.266387329021
3732.4439753750407
4124.355624577672
4552.9959599881895
4985.2149319850605
6391.028943652052
10030.861882494608
6387.0144439212845
4978.615327506555
4548.926785645985
4118.904305473674
3718.6955382295687
3443.8122658357247
3317.383019310743
3497.564085935139
3598.6695954641277
5212.588412293482
3375.5266592081593
3615.307752309602
4761.574115193448
5589.01368499223
6716.703412855841
8007.612058850926
9324.433469858133
10695.252986232948
11928.201071534542
12012.859249321906
13040.139306652403
12003.211895134122
11916.582423288317
10678.390871710018
9297.41084284079
7965.675304170667
6651.758497374651
5494.360601920026
4655.814024888743
3527.378214462058
3406.4335183791895
2337.329973021103
3373.7906885261023
6092.967871582114
8694.22176596851
11264.981826831066
13861.740568505684
16439.767791679766
18930.348913297006
21383.661927048295
22654.58126716169
21371.113422084647
22647.098806525522
21374.84601416363
18914.686724572148
16415.95411575598
13828.82526606647
11224.441905405065
8655.632634550966
6074.806734988574
3358.0486970404017
2350.063377038021
2392.751366441121
3883.81039363773
7904.106298227151
12044.433159055257
15895.969720051515
19659.35034607818
23377.911699930846
26967.460161259685
29902.825479746618
32832.380569405905
32830.747101683075
32832.5348277041
29898.789223540934
26956.4100915332
23359.88376508467
19635.500388655742
15873.976302047799
12043.76276903361
7946.407126187259
3939.4085628941907
2440.9550878833193
10549.761269537148
6660.949533413139
8272.511187496237
11500.910886885033
15087.980158132874
18645.474627387062
22183.331006040233
25859.25308114966
29996.951100195
34390.06195759312
36770.2689825263
34381.390526449286
29978.093238502537
25827.487555971744
22134.274051714878
18572.48799919559
14981.153149804912
11349.82289239792
8006.994657674826
6154.3220342915
9689.943750825014
8248.61221459281
3506.199695739717
5754.963979407484
8333.826193909512
10807.410684504583
13264.773382587304
15717.816680985614
18244.807142809586
21092.983729576143
24322.325612813216
26431.22392341923
24312.167675007993
21070.5761631201
18207.86588275016
15663.519884637366
13189.114212628085
10705.881863513112
8199.622264433916
5589.121085078679
3504.1131305222502
7830.4654961182805
5938.585392736392
3029.462045903071
3978.686317975999
5350.918015192779
6597.933297387088
7816.996761265508
9023.81438490618
10199.46763625862
11732.407334043208
14432.738468791431
17222.300490087375
14425.822491727024
11713.646048249651
10167.522475456872
8979.491514839294
7761.416864391099
6534.1520693832945
5294.4723529068015
3992.322267447722
3278.3201986640006
5833.545142358279
4287.182369981713
3505.886423605346
3531.8437649263537
3475.798944275981
3590.908192081679
3792.8258782474772
4093.9560377219036
4453.148085389854
5066.912832848402
6595.8936800736265
13127.0704716922
6596.075946812301
5076.370961991997
4466.9892993863405
4115.167570764148
3826.856547716123
3647.7312276115526
3571.1727228308173
3694.4696913336393
3628.926947287619
4188.3639791694995
2955.8163765967283
3477.898786897718
4542.115954088194
5293.654739397763
6375.492533866159
7639.25699540226
8982.596699371508
10525.778851540603
12128.589968377184
12099.10109624486
14675.48742878789
12120.064406649999
12166.530364746024
10584.095600834276
9062.307648045771
7739.911129132952
6495.949678319194
5424.6390701225655
4643.486379763885
3496.7955715603493
2846.3853770871874
2260.9351745432814
3277.6223499719877
5781.809397093431
8148.016979636451
10565.869964728465
13075.758665400945
15642.333709433178
18262.095012027603
21159.174565293346
23009.590959207057
22569.272289500255
23030.949306178143
21202.84006456881
18328.151480533048
15730.447502857656
13181.252229437068
10677.456508455653
8240.699486660904
5821.67202805741
3258.250041930103
2151.552992804352
2367.7455652589483
3710.94123189543
7433.653493850374
11244.16118212116
14857.642452511513
18465.09157536316
22109.422841043674
25773.07770787533
28942.87896625668
33449.327896645234
35419.94504647304
33475.39899078441
28996.32019268236
25852.96848994341
22214.399694281106
18587.358133182835
14977.960971700359
11327.427836323079
7454.0278236368995
3698.924918026934
2295.2636711726636
10562.036401046642
6656.226175424827
8134.620022837072
11268.943432025768
14795.228509396262
18297.99682822756
21817.54536324348
25577.394228072983
29955.795750423968
34692.48516403875
37271.57991972658
34676.2721236102
29920.72652261668
25518.375990210883
21725.40787324086
18156.78125587681
14579.372742242631
10941.158420259404
7603.56310007427
5779.305777826941
9212.43313784444
8129.711932576593
3465.6791457278946
5696.23663956009
8217.021734579237
10650.335792165895
13077.94868715263
15531.98726873763
18132.932682703555
21157.292310925182
24617.547810766246
26874.145912845648
24600.238269182442
21119.05287672509
18069.21645808081
15436.214673910728
12939.296242616474
10453.007307236856
7939.396573174544
5354.446985393318
3308.3448162180275
7441.708185675337
5769.8387702116215
2848.6633796941724
3932.376440870242
5312.787456426394
6551.428511957021
7760.326856036256
8977.497936730007
10210.837994455605
11867.70046443537
14714.170317020717
17624.59739437737
14702.808869852264
11837.132325602297
10158.327960247849
8903.182478780209
7663.554044816069
6432.541427982724
5194.007227552115
3905.9341541914996
3175.136845855276
5462.1813919807255
4084.838407250889
3338.392092224116
3446.642940678571
3475.2105612139103
3632.223020661517
3857.5296547115317
4188.9420170127605
4619.209648034605
5341.394826228214
6424.4728705374
13798.269507454937
6430.614680189678
5359.691898740055
4644.10300201703
4225.871440149157
3917.6559833244555
3732.561936661216
3639.5451308000393
3712.1552981286736
3541.0214130701665
3822.181724248906
2762.572478884865
3330.0588572887223
4384.920574743553
5142.233524738711
6226.059644083146
7494.924904528286
8866.699280642937
10487.15570561058
12229.3030963206
12306.437381796582
14822.549713595597
12337.367534748606
12286.141714517105
10575.076022440273
8990.306336427298
7657.461189517727
6430.193822118812
5375.207582144802
4573.885415322529
3384.801030795428
2515.416854646588
2118.963191903543
3099.41452375855
5563.325139029792
7901.569247248793
10291.251038116781
12785.939335242703
15373.333018803054
18082.6063635482
21173.62346386449
23215.428567813025
22577.206466845328
23246.86189122976
21237.234219003025
18180.134941695145
15506.496988149014
12950.303865557691
10471.958807706806
8059.329248853315
5637.029741279489
3077.1750765165707
1911.8848878732076
2148.4573166820037
3424.619578293323
7117.6556279316965
10886.924454048934
14445.08364703659
18010.661488233174
21656.075255146843
25421.477680955635
28824.013481469512
33691.467090787475
35581.13968015003
33726.89134620288
28898.159161122712
25535.128991164922
21809.183991070782
18193.720348729366
14629.897841969727
11016.812184986484
7140.269490900713
3375.492006692227
1980.7909183074125
10549.76126955451
6660.949533427562
8272.511187508208
11500.910886889342
15087.9801581368
18645.47462738658
22183.331006042972
25859.253081155108
29996.951100199618
34390.06195760754
36770.268982533846
34381.390526460316
29978.093238522357
25827.487555974178
22134.274051711767
18572.48799916663
14981.153149791427
11349.822892386575
8006.994657664573
6154.322034280693
9689.943750809372
8248.612214600016
3506.19969574528
5754.9639794146615
8333.826193914263
10807.410684508648
13264.773382585934
15717.816680989405
18244.80714281343
21092.98372957975
24322.325612824123
26431.2239234257
24312.167675012566
21070.57616314195
18207.86588275155
15663.519884642166
13189.114212612118
10705.881863503759
8199.62226442547
5589.121085070557
3504.1131305165527
7830.465496105101
5938.585392739209
3029.462045902449
3978.686317977213
5350.918015195636
6597.933297387156
7816.996761266089
9023.814384911138
10199.46763625987
11732.407334053583
14432.738468794369
17222.30049008947
14425.822491728863
11713.646048273988
10167.522475459127
8979.491514855545
7761.416864386046
6534.152069377543
5294.47235289966
3992.322267440802
3278.320198657745
5833.545142346497
4287.182369984066
3505.886423605578
3531.843764924557
3475.79894427214
3590.9081920796966
3792.8258782531466
4093.9560377217117
4453.148085388497
5066.912832859828
6595.89368007035
13127.070471684001
6596.0759468125025
5076.370962011864
4466.989299387453
4115.167570780617
3826.8565477176153
3647.7312276085845
3571.1727228237605
3694.4696913273533
3628.9269472815745
4188.3639791596015
2955.8163765987815
3477.89878689922
4542.115954088398
5293.654739395141
6375.492533866225
7639.25699540218
8982.596699368454
10525.778851538078
12128.589968377357
12099.10109624096
14675.487428777615
12120.064406649986
12166.530364749195
10584.09560082754
9062.307648052456
7739.911129113018
6495.9496783156865
5424.6390701163955
4643.486379756404
3496.7955715552275
2846.3853770781197
2260.935174544572
3277.622349973585
5781.809397094464
8148.016979636433
10565.869964727892
13075.758665395539
15642.33370943408
18262.095012021735
21159.17456529644
23009.590959206555
22569.272289492812
23030.94930617924
21202.840064569147
18328.151480521763
15730.447502855877
13181.252229414504
10677.456508446472
8240.699486651276
5821.672028049574
3258.250041925084
2151.5529927989173
2367.7455652596846
3710.941231897098
7433.653493852165
11244.161182124188
14857.642452507705
18465.091575353385
22109.42284104717
25773.077707867684
28942.87896626186
33449.32789664556
35419.94504646906
33475.39899078866
28996.320192688407
25852.96848993038
22214.399694273736
18587.358133157915
14977.960971682809
11327.42783630981
7454.027823628376
3698.9249180206234
2295.2636711662785
11360.443634185187
6710.062492429476
8581.79041493314
11951.765964834463
15723.578229630977
19522.692420963667
23253.561480485805
26880.493657863637
30398.295429546517
33541.130762253204
35081.149403100564
33550.80716848484
30418.356637772868
26913.655469588695
23306.162943152187
19607.03225384368
15863.263898008734
12184.434487204659
9030.445788774283
7269.751730974177
11910.798244959991
9623.379408123588
3653.79882323626
5807.136088794743
8497.239654509587
11119.53491393298
13744.11341076741
16325.10010061719
18812.13510259208
21212.151521424377
23488.36548050371
24849.130602444147
23496.373437500366
21229.32762384179
18841.151765893792
16371.166037178498
13816.9383373682
11235.958950856584
8689.595822790066
6092.836465285948
3864.3224723424305
9800.87155460266
7348.931092163221
3393.8563454382715
3950.4058838284764
5267.548917388561
6597.327321205356
7919.087682585405
9215.211305087243
10415.717555105753
11654.533184922078
13448.739204444451
15284.07563480957
13454.494390381264
11667.96036776056
10438.354631637223
9249.129600589611
7968.475404913583
6669.803636376387
5365.0938794279455
4027.4921287948755
3211.533809134011
7357.971409676412
5189.95923188486
3771.837106100443
3651.893858547738
3393.6330661928223
3479.2663873329934
3732.4439753696793
4124.355624578656
4552.995959988974
4985.21493197388
6391.028943679827
10030.8618825138
6387.014443933422
4978.615327504832
4548.9267856535935
4118.90430547599
3718.6955382282044
3443.812265833846
3317.383019303847
3497.5640859284454
3598.6695954565876
5212.588412274245
3375.5266592097505
3615.3077523076026
4761.574115190825
5589.013684987283
6716.703412853598
8007.61205884159
9324.433469854646
10695.252986208276
11928.201071525024
12012.859249328581
13040.139306659601
12003.211895143088
11916.58242329105
10678.390871710719
9297.41084283247
7965.6753041664115
6651.758497365006
5494.360601901624
4655.814024879501
3527.378214453881
3406.4335183640983
2337.3299730243584
3373.790688526894
6092.967871583482
8694.221765965109
11264.981826829227
13861.740568508554
16439.767791673108
18930.348913273065
21383.661927031277
22654.581267162997
21371.11342208679
22647.09880653199
21374.846014160186
18914.68672456699
16415.954115743203
13828.825266052696
11224.441905382308
8655.632634529087
6074.806734974793
3358.048697032304
2350.063377029431
2392.7513664448993
3883.8103936406465
7904.106298232942
12044.433159052849
15895.969720051155
19659.35034609105
23377.911699920685
26967.460161235635
29902.825479720956
32832.38056940713
32830.74710170295
32832.53482770868
29898.789223527772
26956.410091525056
23359.883765066905
19635.500388629327
15873.976302014598
12043.762769006995
7946.407126167127
3939.4085628825055
2440.9550878740206
17425.06453109478
7992.225929985979
8643.721858127165
11963.315750247668
15961.402468195505
19995.891472535222
23970.17010560069
27745.41768446356
30948.878098493937
32940.468291895995
33462.31327312341
32965.946391499616
31003.080329231518
27837.490999949016
24116.295558442507
20220.447631740008
16295.566011048859
12453.337971392973
9366.501171941949
9409.749927125238
18829.271531833878
14793.158880223757
4653.435614600592
6156.051006790926
8817.950972092289
11492.040760760356
14199.920758298253
16891.57362313102
19483.661816063297
21724.764360575948
23111.09603012425
23370.580141474315
23134.38798411485
21774.328591070742
19567.243225238177
17021.564591307193
14392.989117022518
11767.098882831042
9188.166396887205
6581.603368484009
4919.503309743802
15387.827701342372
10905.926373727343
5758.505127508981
5675.646609175515
6691.076972424249
7773.124768623452
8933.599962114846
10174.003417699869
11497.609526747714
12753.532065740445
13397.52296234451
13165.732076398857
13413.1975171115
12784.764273563957
11548.384535624187
10249.579588889315
9037.012059909806
7897.0802116878795
6787.92459574368
5631.015302854402
5394.6885202436215
11191.374678013803
7443.082031290978
6329.34839999828
6614.590603467257
6246.409497779944
6078.9208096934335
5940.062564953856
6023.629003951552
6530.0219995233565
7604.37194440589
8453.815648923048
8001.536471577766
8442.392399842722
7587.5736598255235
6494.859851415991
5955.19709249549
5823.908870377798
5904.138824222307
5995.7361097237
6297.133125942188
6134.7000165783975
7626.259106306515
4628.445746171555
5700.940969944021
7207.423405701247
7683.029769982745
8436.151743819853
9405.633128586654
10439.60868678102
11370.757564549183
12264.033913266021
13803.978102634763
15684.864489368583
13774.724526052556
12203.965297805173
11270.811526596262
10293.862359093937
9205.373266823328
8174.954869994864
7379.908731795387
6964.261661777578
5624.2389411977565
4725.669182287764
2816.6008691754996
4494.999086101343
7531.75950137779
9994.441748948457
12369.582909381119
14801.927332232293
17220.878276427142
19511.560639646264
21279.241212596873
22981.72749190338
27049.617064161794
22954.75456563982
21222.314042217746
19416.802659195513
17084.25523804256
14621.773646844187
12158.201218950064
9797.02548993394
7422.535126992307
4477.212924759849
2845.7253870859713
2431.396751826792
4331.309596455533
8831.957352742122
13120.217152889452
16934.63166269107
20647.35464166233
24311.192462619983
27784.02320045606
31134.914405095275
32990.353364301525
36012.893107907286
32971.76778906209
31078.34533475105
27689.580973141754
24176.548581663865
20477.450773568395
16757.428652250877
13000.694484489162
8832.843421068581
4388.026374701802
2489.167058002482
SCALARS Statev float 1
LOOKUP_TABLE default
0.0
0.0
0.0
0.0
0.0
0.0
0.0
0.0
0.0
0.0
0.0
0.0
0.0
0.0
0.0
0.0
0.0
0.0
0.0
0.0
0.0
0.0
0.0
0.0
0.0
0.0
0.0
0.0
0.0
0.0
0.0
0.0
0.0
0.0
0.0
0.0
0.0
0.0
0.0
0.0
0.0
0.0
0.0
0.0
0.0
0.0
0.0
0.0
0.0
0.0
0.0
0.0
0.0
0.0
0.0
0.0
0.0
0.0
0.0
0.0
0.0
0.0
0.0
0.0
0.0
0.0
0.0
0.0
0.0
0.0
0.0
0.0
0.0
0.0
0.0
0.0
0.0
0.0
0.0
0.0
0.0
0.0
0.0
0.0
0.0
0.0
0.0
0.0
0.0
0.0
0.0
0.0
0.0
0.0
0.0
0.0
0.0
0.0
0.0
0.0
0.0
0.0
0.0
0.0
0.0
0.0
0.0
0.0
0.0
0.0
0.0
0.0
0.0
0.0
0.0
0.0
0.0
0.0
0.0
0.0
0.0
0.0
0.0
0.0
0.0
0.0
0.0
0.0
0.0
0.0
0.0
0.0
0.0
0.0
0.0
0.0
0.0
0.0
0.0
0.0
0.0
0.0
0.0
0.0
0.0
0.0
0.0
0.0
0.0
0.0
0.0
0.0
0.0
0.0
0.0
0.0
0.0
0.0
0.0
0.0
0.0
0.0
0.0
0.0
0.0
0.0
0.0
0.0
0.0
0.0
0.0
0.0
0.0
0.0
0.0
0.0
0.0
0.0
0.0
0.0
0.0
0.0
0.0
0.0
0.0
0.0
0.0
0.0
0.0
0.0
0.0
0.0
0.0
0.0
0.0
0.0
0.0
0.0
0.0
0.0
0.0
0.0
0.0
0.0
0.0
0.0
0.0
0.0
0.0
0.0
0.0
0.0
0.0
0.0
0.0
0.0
0.0
0.0
0.0
0.0
0.0
0.0
0.0
0.0
0.0
0.0
0.0
0.0
0.0
0.0
0.0
0.0
0.0
0.0
0.0
0.0
0.0
0.0
0.0
0.0
0.0
0.0
0.0
0.0
0.0
0.0
0.0
0.0
0.0
0.0
0.0
0.0
0.0
0.0
0.0
0.0
0.0
0.0
0.0
0.0
0.0
0.0
0.0
0.0
0.0
0.0
0.0
0.0
0.0
0.0
0.0
0.0
0.0
0.0
0.0
0.0
0.0
0.0
0.0
0.0
0.0
0.0
0.0
0.0
0.0
0.0
0.0
0.0
0.0
0.0
0.0
0.0
0.0
0.0
0.0
0.0
0.0
0.0
0.0
0.0
0.0
0.0
0.0
0.0
0.0
0.0
0.0
0.0
0.0
0.0
0.0
0.0
0.0
0.0
0.0
0.0
0.0
0.0
0.0
0.0
0.0
0.0
0.0
0.0
0.0
0.0
0.0
0.0
0.0
0.0
0.0
0.0
0.0
0.0
0.0
0.0
0.0
0.0
0.0
0.0
0.0
0.0
0.0
0.0
0.0
0.0
0.0
0.0
0.0
0.0
0.0
0.0
0.0
0.0
0.0
0.0
0.0
0.0
0.0
0.0
0.0
0.0
0.0
0.0
0.0
0.0
0.0
0.0
0.0
0.0
0.0
0.0
0.0
0.0
0.0
0.0
0.0
0.0
0.0
0.0
0.0
0.0
0.0
0.0
0.0
0.0
0.0
0.0
0.0
0.0
0.0
0.0
0.0
0.0
0.0
0.0
0.0
0.0
0.0
0.0
0.0
0.0
0.0
0.0
0.0
0.0
0.0
0.0
0.0
0.0
0.0
0.0
0.0
0.0
0.0
0.0
0.0
0.0
0.0
0.0
0.0
0.0
0.0
0.0
0.0
0.0
0.0
0.0
0.0
0.0
0.0
0.0
0.0
0.0
0.0
0.0
0.0
0.0
0.0
0.0
0.0
0.0
0.0
0.0
0.0
0.0
0.0
0.0
0.0
0.0
0.0
0.0
0.0
0.0
0.0
0.0
0.0
0.0
0.0
0.0
0.0
0.0
0.0
0.0
0.0
0.0
0.0
0.0
0.0
0.0
0.0
0.0
0.0
0.0
0.0
0.0
0.0
0.0
0.0
0.0
0.0
0.0
0.0
0.0
0.0
0.0
0.0
0.0
0.0
0.0
0.0
0.0
0.0
0.0
0.0
0.0
0.0
0.0
0.0
0.0
0.0
0.0
0.0
0.0
0.0
0.0
0.0
0.0
0.0
0.0
0.0
0.0
0.0
0.0
0.0
0.0
0.0
0.0
0.0
0.0
0.0
0.0
0.0
0.0
0.0
0.0
0.0
0.0
0.0
0.0
0.0
0.0
0.0
0.0
0.0
0.0
0.0
0.0
0.0
0.0
0.0
0.0
0.0
0.0
0.0
0.0
0.0
0.0
0.0
0.0
0.0
0.0
0.0
0.0
0.0
0.0
0.0
0.0
0.0
0.0
0.0
0.0
0.0
0.0
0.0
0.0
0.0
0.0
0.0
0.0
0.0
0.0
0.0
0.0
0.0
0.0
0.0
0.0
0.0
0.0
0.0
0.0
0.0
0.0
0.0
0.0
0.0
0.0
0.0
0.0
0.0
0.0
0.0
0.0
0.0
0.0
0.0
0.0
0.0
0.0
0.0
0.0
0.0
0.0
0.0
0.0
0.0
0.0
0.0
0.0
0.0
0.0
0.0
0.0
0.0
0.0
0.0
0.0
0.0
0.0
0.0
0.0
0.0
0.0
0.0
0.0
0.0
0.0
0.0
0.0
0.0
0.0
0.0
0.0
0.0
0.0
0.0
0.0
0.0
0.0
0.0
0.0
0.0
0.0
0.0
0.0
0.0
0.0
0.0
0.0
0.0
0.0
0.0
0.0
0.0
0.0
0.0
0.0
0.0
0.0
0.0
0.0
0.0
0.0
0.0
0.0
0.0
0.0
0.0
0.0
0.0
0.0
0.0
0.0
0.0
0.0
0.0
0.0
0.0
0.0
0.0
0.0
0.0
0.0
0.0
0.0
0.0
0.0
0.0
0.0
0.0
0.0
0.0
0.0
0.0
0.0
0.0
0.0
0.0
0.0
0.0
0.0
0.0
0.0
0.0
0.0
0.0
0.0
0.0
0.0
0.0
0.0
0.0
0.0
0.0
0.0
0.0
0.0
0.0
0.0
0.0
0.0
0.0
0.0
0.0
0.0
0.0
0.0
0.0
0.0
0.0
0.0
0.0
0.0
0.0
0.0
0.0
0.0
0.0
0.0
0.0
0.0
0.0
0.0
0.0
0.0
0.0
0.0
0.0
0.0
0.0
0.0
0.0
0.0
0.0
0.0
0.0
0.0
0.0
0.0
0.0
0.0
0.0
0.0
0.0
0.0
0.0
0.0
0.0
0.0
0.0
0.0
0.0
0.0
0.0
0.0
0.0
0.0
0.0
0.0
0.0
0.0
0.0
0.0
0.0
0.0
0.0
0.0
0.0
0.0
0.0
0.0
0.0
0.0
0.0
0.0
0.0
0.0
0.0
0.0
0.0
0.0
0.0
0.0
0.0
0.0
0.0
0.0
0.0
0.0
0.0
0.0
0.0
0.0
0.0
0.0
0.0
0.0
0.0
0.0
0.0
0.0
0.0
0.0
0.0
0.0
0.0
0.0
0.0
0.0
0.0
0.0
0.0
0.0
0.0
0.0
0.0
0.0
0.0
0.0
0.0
0.0
0.0
0.0
0.0
0.0
0.0
0.0
0.0
0.0
0.0
0.0
0.0
0.0
0.0
0.0
0.0
0.0
0.0
0.0
0.0
0.0
0.0
0.0
0.0
0.0
0.0
0.0
0.0
0.0
0.0
0.0
0.0
0.0
0.0
0.0
0.0
0.0
0.0
0.0
0.0
0.0
0.0
0.0
0.0
0.0
0.0
0.0
0.0
0.0
0.0
0.0
0.0
0.0
0.0
0.0
0.0
0.0
0.0
0.0
0.0
0.0
0.0
0.0
0.0
0.0
0.0
0.0
0.0
0.0
0.0
0.0
0.0
0.0
0.0
0.0
0.0
0.0
0.0
0.0
0.0
0.0
0.0
0.0
0.0
0.0
0.0
0.0
0.0
0.0
0.0
0.0
0.0
0.0
0.0
0.0
0.0
0.0
0.0
0.0
0.0
0.0
0.0
0.0
0.0
0.0
0.0
0.0
0.0
0.0
0.0
0.0
0.0
0.0
0.0
0.0
0.0
0.0
0.0
0.0
0.0
0.0
0.0
0.0
0.0
0.0
0.0
0.0
0.0
0.0
0.0
0.0
0.0
0.0
0.0
0.0
0.0
0.0
0.0
0.0
0.0
0.0
0.0
0.0
0.0
0.0
0.0
0.0
0.0
0.0
0.0
0.0
0.0
0.0
0.0
0.0
0.0
0.0
0.0
0.0
0.0
0.0
0.0
0.0
0.0
0.0
0.0
0.0
0.0
0.0
0.0
0.0
0.0
0.0
0.0
0.0
0.0
0.0
0.0
0.0
0.0
0.0
0.0
0.0
0.0
0.0
0.0
0.0
0.0
SCALARS Wm float 4
LOOKUP_TABLE default
1719.7142157544286 1719.7142157544286 0.0 0.0
311.18525833765887 311.18525833765887 0.0 0.0
370.7469606486795 370.7469606486795 0.0 0.0
776.1620589771194 776.1620589771194 0.0 0.0
1369.1822749726853 1369.1822749726853 0.0 0.0
2157.838683719536 2157.838683719536 0.0 0.0
3107.185043289717 3107.185043289717 0.0 0.0
4169.251081960605 4169.251081960605 0.0 0.0
5190.6617722501005 5190.6617722501005 0.0 0.0
5896.521832373338 5896.521832373338 0.0 0.0
6123.604814709473 6123.604814709473 0.0 0.0
5905.442040997793 5905.442040997793 0.0 0.0
5208.496685281242 5208.496685281242 0.0 0.0
4196.454172672693 4196.454172672693 0.0 0.0
3144.548779395418 3144.548779395418 0.0 0.0
2205.6657659375087 2205.6657659375087 0.0 0.0
1426.13799266141 1426.13799266141 0.0 0.0
838.5753159300568 838.5753159300568 0.0 0.0
440.8546109230634 440.8546109230634 0.0 0.0
491.250250446868 491.250250446868 0.0 0.0
1647.5733839311463 1647.5733839311463 0.0 0.0
1276.669091783447 1276.669091783447 0.0 0.0
38.629763140115266 38.629763140115266 0.0 0.0
172.35062754281984 172.35062754281984 0.0 0.0
368.4072308665221 368.4072308665221 0.0 0.0
632.3794707836234 632.3794707836234 0.0 0.0
975.3067085007904 975.3067085007904 0.0 0.0
1390.1255958448196 1390.1255958448196 0.0 0.0
1857.9809100494708 1857.9809100494708 0.0 0.0
2317.288602307131 2317.288602307131 0.0 0.0
2643.3863885310666 2643.3863885310666 0.0 0.0
2749.466348448241 2749.466348448241 0.0 0.0
2649.171382504463 2649.171382504463 0.0 0.0
2328.814063252518 2328.814063252518 0.0 0.0
1875.372998095648 1875.372998095648 0.0 0.0
1413.4914562992371 1413.4914562992371 0.0 0.0
1004.3559004663363 1004.3559004663363 0.0 0.0
665.6052112277056 665.6052112277056 0.0 0.0
403.2554402178885 403.2554402178885 0.0 0.0
197.0862741440974 197.0862741440974 0.0 0.0
44.61144701418682 44.61144701418682 0.0 0.0
1340.9274350927847 1340.9274350927847 0.0 0.0
710.2181989565571 710.2181989565571 0.0 0.0
105.47369081184664 105.47369081184664 0.0 0.0
148.112468527743 148.112468527743 0.0 0.0
192.79697875635688 192.79697875635688 0.0 0.0
266.72106883814763 266.72106883814763 0.0 0.0
352.21495254603104 352.21495254603104 0.0 0.0
457.10446204510527 457.10446204510527 0.0 0.0
586.815020988705 586.815020988705 0.0 0.0
727.895893458865 727.895893458865 0.0 0.0
821.8028218348452 821.8028218348452 0.0 0.0
848.3823374456477 848.3823374456477 0.0 0.0
824.1781455218401 824.1781455218401 0.0 0.0
732.4140548280855 732.4140548280855 0.0 0.0
593.3472369480195 593.3472369480195 0.0 0.0
465.41241570153517 465.41241570153517 0.0 0.0
361.7022334492369 361.7022334492369 0.0 0.0
276.24288076483987 276.24288076483987 0.0 0.0
198.3941308726734 198.3941308726734 0.0 0.0
144.1035519693654 144.1035519693654 0.0 0.0
89.2565993233593 89.2565993233593 0.0 0.0
741.0553420111586 741.0553420111586 0.0 0.0
327.603626913534 327.603626913534 0.0 0.0
153.02497850141114 153.02497850141114 0.0 0.0
190.7663800813464 190.7663800813464 0.0 0.0
174.65438672902712 174.65438672902712 0.0 0.0
172.39220344896023 172.39220344896023 0.0 0.0
169.82786722974322 169.82786722974322 0.0 0.0
166.82167856207954 166.82167856207954 0.0 0.0
172.48652307874727 172.48652307874727 0.0 0.0
199.3696735834865 199.3696735834865 0.0 0.0
229.0591196409249 229.0591196409249 0.0 0.0
248.50112223935034 248.50112223935034 0.0 0.0
228.21914420682103 228.21914420682103 0.0 0.0
197.35861571862455 197.35861571862455 0.0 0.0
169.14808471678583 169.14808471678583 0.0 0.0
161.90222833223802 161.90222833223802 0.0 0.0
162.97552419424133 162.97552419424133 0.0 0.0
162.8797402165545 162.8797402165545 0.0 0.0
161.2046386469639 161.2046386469639 0.0 0.0
175.3834629651119 175.3834629651119 0.0 0.0
140.33961235769524 140.33961235769524 0.0 0.0
344.824419461176 344.824419461176 0.0 0.0
124.35746369875348 124.35746369875348 0.0 0.0
140.7233931764764 140.7233931764764 0.0 0.0
225.4218046270047 225.4218046270047 0.0 0.0
265.48387067312626 265.48387067312626 0.0 0.0
320.112288224694 320.112288224694 0.0 0.0
395.8123162856473 395.8123162856473 0.0 0.0
485.41949933538297 485.41949933538297 0.0 0.0
572.6858233288087 572.6858233288087 0.0 0.0
670.7466547504512 670.7466547504512 0.0 0.0
824.5696389931641 824.5696389931641 0.0 0.0
923.0270067848691 923.0270067848691 0.0 0.0
820.8004872735012 820.8004872735012 0.0 0.0
663.0070564506261 663.0070564506261 0.0 0.0
560.9832839307738 560.9832839307738 0.0 0.0
469.9352207638506 469.9352207638506 0.0 0.0
377.04540091148357 377.04540091148357 0.0 0.0
299.03257666866295 299.03257666866295 0.0 0.0
244.68928185423138 244.68928185423138 0.0 0.0
210.80993112305808 210.80993112305808 0.0 0.0
134.44765550509518 134.44765550509518 0.0 0.0
130.8355014378754 130.8355014378754 0.0 0.0
43.39123298975762 43.39123298975762 0.0 0.0
107.39054365616327 107.39054365616327 0.0 0.0
266.8284792533575 266.8284792533575 0.0 0.0
477.53906798983616 477.53906798983616 0.0 0.0
739.9128657973082 739.9128657973082 0.0 0.0
1065.2098703317959 1065.2098703317959 0.0 0.0
1446.0071251595532 1446.0071251595532 0.0 0.0
1861.214328962551 1861.214328962551 0.0 0.0
2181.4356826107705 2181.4356826107705 0.0 0.0
2660.5638924881314 2660.5638924881314 0.0 0.0
2894.1972824447794 2894.1972824447794 0.0 0.0
2653.8818914582025 2653.8818914582025 0.0 0.0
2168.3440924437677 2168.3440924437677 0.0 0.0
1841.6320560640868 1841.6320560640868 0.0 0.0
1421.370059547515 1421.370059547515 0.0 0.0
1037.6740148872816 1037.6740148872816 0.0 0.0
713.3777874745157 713.3777874745157 0.0 0.0
457.6696490116241 457.6696490116241 0.0 0.0
257.65592039752795 257.65592039752795 0.0 0.0
104.99754832812727 104.99754832812727 0.0 0.0
44.99718163066864 44.99718163066864 0.0 0.0
26.66179346878919 26.66179346878919 0.0 0.0
115.918424789701 115.918424789701 0.0 0.0
420.8562961802739 420.8562961802739 0.0 0.0
919.5973537672207 919.5973537672207 0.0 0.0
1540.572260277856 1540.572260277856 0.0 0.0
2297.1861307107424 2297.1861307107424 0.0 0.0
3187.327897845629 3187.327897845629 0.0 0.0
4183.170307296322 4183.170307296322 0.0 0.0
5200.229880776089 5200.229880776089 0.0 0.0
6173.354946378307 6173.354946378307 0.0 0.0
5308.00385693974 5308.00385693974 0.0 0.0
6164.737458540681 6164.737458540681 0.0 0.0
5179.816435746741 5179.816435746741 0.0 0.0
4153.231158311815 4153.231158311815 0.0 0.0
3150.750214306355 3150.750214306355 0.0 0.0
2258.7746449180086 2258.7746449180086 0.0 0.0
1508.424739312675 1508.424739312675 0.0 0.0
902.7382905364166 902.7382905364166 0.0 0.0
419.2951836293956 419.2951836293956 0.0 0.0
118.02813875225391 118.02813875225391 0.0 0.0
28.237615978361124 28.237615978361124 0.0 0.0
640.0817763861761 640.0817763861761 0.0 0.0
264.09803895045064 264.09803895045064 0.0 0.0
392.27190679310655 392.27190679310655 0.0 0.0
790.3648235572285 790.3648235572285 0.0 0.0
1355.08265280903 1355.08265280903 0.0 0.0
2091.9190376194856 2091.9190376194856 0.0 0.0
2974.9852613397634 2974.9852613397634 0.0 0.0
3995.0763262105634 3995.0763262105634 0.0 0.0
5142.2988273541505 5142.2988273541505 0.0 0.0
6270.550090043217 6270.550090043217 0.0 0.0
6812.233406427327 6812.233406427327 0.0 0.0
6273.660924029666 6273.660924029666 0.0 0.0
5148.108061917171 5148.108061917171 0.0 0.0
4003.5008131708737 4003.5008131708737 0.0 0.0
2986.495019947804 2986.495019947804 0.0 0.0
2107.3818745779586 2107.3818745779586 0.0 0.0
1375.77681294382 1375.77681294382 0.0 0.0
816.6338042518364 816.6338042518364 0.0 0.0
429.4432627927815 429.4432627927815 0.0 0.0
315.4660987495034 315.4660987495034 0.0 0.0
623.8444148815049 623.8444148815049 0.0 0.0
513.2912135690378 513.2912135690378 0.0 0.0
44.65973365479469 44.65973365479469 0.0 0.0
165.53574833950543 165.53574833950543 0.0 0.0
360.2513820081652 360.2513820081652 0.0 0.0
616.7977065336161 616.7977065336161 0.0 0.0
946.066091007982 946.066091007982 0.0 0.0
1340.5405393480498 1340.5405393480498 0.0 0.0
1789.6751301249708 1789.6751301249708 0.0 0.0
2285.9377897320414 2285.9377897320414 0.0 0.0
2783.806350450689 2783.806350450689 0.0 0.0
3047.213311498826 3047.213311498826 0.0 0.0
2785.8158911228643 2785.8158911228643 0.0 0.0
2289.7772276432984 2289.7772276432984 0.0 0.0
1795.2920917422878 1795.2920917422878 0.0 0.0
1348.0889628766924 1348.0889628766924 0.0 0.0
955.9031345872068 955.9031345872068 0.0 0.0
629.2850243736194 629.2850243736194 0.0 0.0
376.1963726975119 376.1963726975119 0.0 0.0
181.2150871728589 181.2150871728589 0.0 0.0
51.34080124560804 51.34080124560804 0.0 0.0
516.4699527100445 516.4699527100445 0.0 0.0
308.40077366246805 308.40077366246805 0.0 0.0
36.2673835516394 36.2673835516394 0.0 0.0
70.82568792654956 70.82568792654956 0.0 0.0
119.46307012243557 119.46307012243557 0.0 0.0
191.80984632918245 191.80984632918245 0.0 0.0
277.94577651776154 277.94577651776154 0.0 0.0
379.3642102308865 379.3642102308865 0.0 0.0
488.8563721053191 488.8563721053191 0.0 0.0
618.1366521848761 618.1366521848761 0.0 0.0
815.0927700899182 815.0927700899182 0.0 0.0
991.7830358933031 991.7830358933031 0.0 0.0
816.0414038266728 816.0414038266728 0.0 0.0
620.0038399770646 620.0038399770646 0.0 0.0
491.57671330869687 491.57671330869687 0.0 0.0
382.84953155262565 382.84953155262565 0.0 0.0
282.1037505517734 282.1037505517734 0.0 0.0
196.62817838386732 196.62817838386732 0.0 0.0
124.33533513823376 124.33533513823376 0.0 0.0
72.23907353030854 72.23907353030854 0.0 0.0
31.75015718233833 31.75015718233833 0.0 0.0
305.75608422426666 305.75608422426666 0.0 0.0
153.34802497612628 153.34802497612628 0.0 0.0
50.58577097164508 50.58577097164508 0.0 0.0
61.883145001634986 61.883145001634986 0.0 0.0
53.39103711198061 53.39103711198061 0.0 0.0
55.49199448118973 55.49199448118973 0.0 0.0
60.536779775838625 60.536779775838625 0.0 0.0
67.26403722724349 67.26403722724349 0.0 0.0
71.35907293866673 71.35907293866673 0.0 0.0
75.2828973691238 75.2828973691238 0.0 0.0
136.86082053274075 136.86082053274075 0.0 0.0
334.7897131016986 334.7897131016986 0.0 0.0
136.66046729018876 136.66046729018876 0.0 0.0
75.1755393560966 75.1755393560966 0.0 0.0
71.31970381916636 71.31970381916636 0.0 0.0
67.10037181439607 67.10037181439607 0.0 0.0
60.01547312514649 60.01547312514649 0.0 0.0
54.310490441327225 54.310490441327225 0.0 0.0
50.92567870217623 50.92567870217623 0.0 0.0
57.64833490456641 57.64833490456641 0.0 0.0
45.0593434083453 45.0593434083453 0.0 0.0
154.37046687615035 154.37046687615035 0.0 0.0
63.53435257434971 63.53435257434971 0.0 0.0
54.348684015535994 54.348684015535994 0.0 0.0
97.05888203814933 97.05888203814933 0.0 0.0
136.82056216256214 136.82056216256214 0.0 0.0
198.2798383933596 198.2798383933596 0.0 0.0
283.81780449128706 283.81780449128706 0.0 0.0
388.02421980071585 388.02421980071585 0.0 0.0
516.8790397112434 516.8790397112434 0.0 0.0
638.8549263330564 638.8549263330564 0.0 0.0
674.2121311791096 674.2121311791096 0.0 0.0
1021.4513721931514 1021.4513721931514 0.0 0.0
672.8055926202251 672.8055926202251 0.0 0.0
636.8994863579595 636.8994863579595 0.0 0.0
514.3542818581539 514.3542818581539 0.0 0.0
384.8498382673743 384.8498382673743 0.0 0.0
279.9688330774588 279.9688330774588 0.0 0.0
193.74532388586587 193.74532388586587 0.0 0.0
131.9163789591251 131.9163789591251 0.0 0.0
92.8817609624445 92.8817609624445 0.0 0.0
51.11672743882951 51.11672743882951 0.0 0.0
64.89366217183479 64.89366217183479 0.0 0.0
27.985667913567365 27.985667913567365 0.0 0.0
59.184481645750616 59.184481645750616 0.0 0.0
178.00151553840132 178.00151553840132 0.0 0.0
370.7107810455395 370.7107810455395 0.0 0.0
630.8652253314899 630.8652253314899 0.0 0.0
961.0666060394284 961.0666060394284 0.0 0.0
1357.3647211316063 1357.3647211316063 0.0 0.0
1803.2601545352425 1803.2601545352425 0.0 0.0
2344.0977061824447 2344.0977061824447 0.0 0.0
2489.46677400713 2489.46677400713 0.0 0.0
3211.7831204821864 3211.7831204821864 0.0 0.0
2487.0071759992948 2487.0071759992948 0.0 0.0
2340.6103671669707 2340.6103671669707 0.0 0.0
1798.4634551940658 1798.4634551940658 0.0 0.0
1351.602038498259 1351.602038498259 0.0 0.0
954.9730327434597 954.9730327434597 0.0 0.0
625.3407257717099 625.3407257717099 0.0 0.0
366.9445773633448 366.9445773633448 0.0 0.0
176.55949170191005 176.55949170191005 0.0 0.0
58.41532751758038 58.41532751758038 0.0 0.0
28.555019918571315 28.555019918571315 0.0 0.0
25.98568855786427 25.98568855786427 0.0 0.0
91.77626954896297 91.77626954896297 0.0 0.0
346.197314594319 346.197314594319 0.0 0.0
791.7068024281131 791.7068024281131 0.0 0.0
1381.47534415346 1381.47534415346 0.0 0.0
2117.297755431556 2117.297755431556 0.0 0.0
3004.1469327813165 3004.1469327813165 0.0 0.0
3992.81889122397 3992.81889122397 0.0 0.0
4982.35313731755 4982.35313731755 0.0 0.0
5653.449723271983 5653.449723271983 0.0 0.0
8482.437408456684 8482.437408456684 0.0 0.0
5651.691574692671 5651.691574692671 0.0 0.0
4977.764890556975 4977.764890556975 0.0 0.0
3985.813187686583 3985.813187686583 0.0 0.0
2995.746524890008 2995.746524890008 0.0 0.0
2108.9595819201068 2108.9595819201068 0.0 0.0
1375.3846851905978 1375.3846851905978 0.0 0.0
790.1754420132543 790.1754420132543 0.0 0.0
348.7328979319282 348.7328979319282 0.0 0.0
94.02302036393714 94.02302036393714 0.0 0.0
27.104535838184837 27.104535838184837 0.0 0.0
453.9065581216699 453.9065581216699 0.0 0.0
295.13825111542013 295.13825111542013 0.0 0.0
376.0546989664667 376.0546989664667 0.0 0.0
743.9112332586877 743.9112332586877 0.0 0.0
1269.8854258940896 1269.8854258940896 0.0 0.0
1948.2546229005998 1948.2546229005998 0.0 0.0
2779.1490204642796 2779.1490204642796 0.0 0.0
3822.6332818511705 3822.6332818511705 0.0 0.0
5209.327000374638 5209.327000374638 0.0 0.0
6842.568881788783 6842.568881788783 0.0 0.0
7710.035621745211 7710.035621745211 0.0 0.0
6838.786641230953 6838.786641230953 0.0 0.0
5202.018639513748 5202.018639513748 0.0 0.0
3811.8661448627035 3811.8661448627035 0.0 0.0
2764.690297582155 2764.690297582155 0.0 0.0
1929.9623248521807 1929.9623248521807 0.0 0.0
1248.008413034852 1248.008413034852 0.0 0.0
719.913150983324 719.913150983324 0.0 0.0
347.14843894661175 347.14843894661175 0.0 0.0
230.08998900758152 230.08998900758152 0.0 0.0
447.9143389374801 447.9143389374801 0.0 0.0
384.0717653970144 384.0717653970144 0.0 0.0
49.7191190170102 49.7191190170102 0.0 0.0
165.850597498942 165.850597498942 0.0 0.0
351.9530870096751 351.9530870096751 0.0 0.0
591.0320166038015 591.0320166038015 0.0 0.0
895.7657841087241 895.7657841087241 0.0 0.0
1267.5828077049841 1267.5828077049841 0.0 0.0
1725.5694213591887 1725.5694213591887 0.0 0.0
2322.8032014703053 2322.8032014703053 0.0 0.0
3042.230025212089 3042.230025212089 0.0 0.0
3466.280887851935 3466.280887851935 0.0 0.0
3039.6347231342293 3039.6347231342293 0.0 0.0
2317.7398226338105 2317.7398226338105 0.0 0.0
1718.2110521219365 1718.2110521219365 0.0 0.0
1258.048083852655 1258.048083852655 0.0 0.0
884.2296744877871 884.2296744877871 0.0 0.0
578.0386996938892 578.0386996938892 0.0 0.0
337.9320765142862 337.9320765142862 0.0 0.0
154.36227362427692 154.36227362427692 0.0 0.0
46.49354813262401 46.49354813262401 0.0 0.0
371.54078313288136 371.54078313288136 0.0 0.0
213.30388875576728 213.30388875576728 0.0 0.0
34.51897788505303 34.51897788505303 0.0 0.0
71.55679105575362 71.55679105575362 0.0 0.0
126.4559407528539 126.4559407528539 0.0 0.0
195.94297034771472 195.94297034771472 0.0 0.0
275.9559806353655 275.9559806353655 0.0 0.0
369.5754894481159 369.5754894481159 0.0 0.0
475.45205854446726 475.45205854446726 0.0 0.0
636.3362634600672 636.3362634600672 0.0 0.0
942.1345539025812 942.1345539025812 0.0 0.0
1240.6746030327567 1240.6746030327567 0.0 0.0
941.1114346297464 941.1114346297464 0.0 0.0
634.1793962247351 634.1793962247351 0.0 0.0
472.27417260184455 472.27417260184455 0.0 0.0
365.59137685876993 365.59137685876993 0.0 0.0
271.5043968512495 271.5043968512495 0.0 0.0
191.43114839630152 191.43114839630152 0.0 0.0
123.04626764263378 123.04626764263378 0.0 0.0
72.28434591742094 72.28434591742094 0.0 0.0
38.965425834018035 38.965425834018035 0.0 0.0
214.27163122304577 214.27163122304577 0.0 0.0
108.49398648828341 108.49398648828341 0.0 0.0
46.376039694928224 46.376039694928224 0.0 0.0
59.57305591748743 59.57305591748743 0.0 0.0
56.970767215022065 56.970767215022065 0.0 0.0
61.35071437511524 61.35071437511524 0.0 0.0
66.40583159847391 66.40583159847391 0.0 0.0
72.66071818756622 72.66071818756622 0.0 0.0
75.55824305035976 75.55824305035976 0.0 0.0
88.4373034261491 88.4373034261491 0.0 0.0
200.14605491589302 200.14605491589302 0.0 0.0
564.5659855287748 564.5659855287748 0.0 0.0
200.7679097959309 200.7679097959309 0.0 0.0
89.30501970293855 89.30501970293855 0.0 0.0
76.64049601350078 76.64049601350078 0.0 0.0
74.02260860807885 74.02260860807885 0.0 0.0
68.20027321635847 68.20027321635847 0.0 0.0
63.851281310606126 63.851281310606126 0.0 0.0
60.75474587955039 60.75474587955039 0.0 0.0
64.44376514660279 64.44376514660279 0.0 0.0
50.130934439661814 50.130934439661814 0.0 0.0
106.54240794012144 106.54240794012144 0.0 0.0
48.00495890713201 48.00495890713201 0.0 0.0
50.867988020424605 50.867988020424605 0.0 0.0
90.10928238174826 90.10928238174826 0.0 0.0
124.5071146565182 124.5071146565182 0.0 0.0
180.37721115254715 180.37721115254715 0.0 0.0
260.4884698321848 260.4884698321848 0.0 0.0
363.2735522565427 363.2735522565427 0.0 0.0
505.60420122054984 505.60420122054984 0.0 0.0
658.0003069888563 658.0003069888563 0.0 0.0
708.4614990755618 708.4614990755618 0.0 0.0
1409.7876238784095 1409.7876238784095 0.0 0.0
710.7104035083166 710.7104035083166 0.0 0.0
661.8975387093319 661.8975387093319 0.0 0.0
510.8858893859615 510.8858893859615 0.0 0.0
369.55884927668734 369.55884927668734 0.0 0.0
267.42722103176357 267.42722103176357 0.0 0.0
187.5364344314705 187.5364344314705 0.0 0.0
131.10600167344555 131.10600167344555 0.0 0.0
94.48348593802085 94.48348593802085 0.0 0.0
52.21898766124576 52.21898766124576 0.0 0.0
45.633100836845834 45.633100836845834 0.0 0.0
24.721642091731752 24.721642091731752 0.0 0.0
55.2794747363443 55.2794747363443 0.0 0.0
160.7779190417853 160.7779190417853 0.0 0.0
328.75594900199155 328.75594900199155 0.0 0.0
561.9848589941349 561.9848589941349 0.0 0.0
868.4034913050729 868.4034913050729 0.0 0.0
1251.750268591623 1251.750268591623 0.0 0.0
1713.7297640839515 1713.7297640839515 0.0 0.0
2361.8040465423474 2361.8040465423474 0.0 0.0
2549.588982348921 2549.588982348921 0.0 0.0
4102.736804662334 4102.736804662334 0.0 0.0
2553.518347236167 2553.518347236167 0.0 0.0
2369.07678761624 2369.07678761624 0.0 0.0
1723.4755134786915 1723.4755134786915 0.0 0.0
1263.025944610748 1263.025944610748 0.0 0.0
879.8215648841817 879.8215648841817 0.0 0.0
571.8222374628789 571.8222374628789 0.0 0.0
335.17859252391645 335.17859252391645 0.0 0.0
163.1798012008782 163.1798012008782 0.0 0.0
55.33632832198782 55.33632832198782 0.0 0.0
22.739796799748962 22.739796799748962 0.0 0.0
24.767352344250828 24.767352344250828 0.0 0.0
83.77379463888096 83.77379463888096 0.0 0.0
308.8655118093633 308.8655118093633 0.0 0.0
701.7396458898219 701.7396458898219 0.0 0.0
1231.1830540515045 1231.1830540515045 0.0 0.0
1910.7207749063937 1910.7207749063937 0.0 0.0
2759.989088510799 2759.989088510799 0.0 0.0
3754.197666962314 3754.197666962314 0.0 0.0
4852.567374350515 4852.567374350515 0.0 0.0
5915.953021470074 5915.953021470074 0.0 0.0
11038.783386941135 11038.783386941135 0.0 0.0
5922.002145872185 5922.002145872185 0.0 0.0
4864.189540292472 4864.189540292472 0.0 0.0
3769.7207039987347 3769.7207039987347 0.0 0.0
2777.5146783356677 2777.5146783356677 0.0 0.0
1927.5657511802356 1927.5657511802356 0.0 0.0
1243.8268420183224 1243.8268420183224 0.0 0.0
707.2152986856125 707.2152986856125 0.0 0.0
308.8040713217172 308.8040713217172 0.0 0.0
82.95536079792483 82.95536079792483 0.0 0.0
23.24991534012816 23.24991534012816 0.0 0.0
441.4589250002218 441.4589250002218 0.0 0.0
303.6528077893716 303.6528077893716 0.0 0.0
370.15508371477637 370.15508371477637 0.0 0.0
724.3719332262563 724.3719332262563 0.0 0.0
1238.3377484450598 1238.3377484450598 0.0 0.0
1906.2101520269857 1906.2101520269857 0.0 0.0
2738.482084505704 2738.482084505704 0.0 0.0
3819.8883691214037 3819.8883691214037 0.0 0.0
5312.53964039511 5312.53964039511 0.0 0.0
7111.626969445916 7111.626969445916 0.0 0.0
8073.675484325945 8073.675484325945 0.0 0.0
7104.829512608701 7104.829512608701 0.0 0.0
5299.659193999429 5299.659193999429 0.0 0.0
3801.205190177693 3801.205190177693 0.0 0.0
2713.4355612406976 2713.4355612406976 0.0 0.0
1874.0004300522853 1874.0004300522853 0.0 0.0
1198.7721732072653 1198.7721732072653 0.0 0.0
679.27571959476 679.27571959476 0.0 0.0
319.28285577915335 319.28285577915335 0.0 0.0
205.71043485077004 205.71043485077004 0.0 0.0
411.98762073782683 411.98762073782683 0.0 0.0
364.50342994068774 364.50342994068774 0.0 0.0
49.82654656618196 49.82654656618196 0.0 0.0
164.9064502302432 164.9064502302432 0.0 0.0
345.9085782019177 345.9085782019177 0.0 0.0
579.9493855167755 579.9493855167755 0.0 0.0
880.8268381299092 880.8268381299092 0.0 0.0
1254.4387313251043 1254.4387313251043 0.0 0.0
1730.1186458024845 1730.1186458024845 0.0 0.0
2372.63974538316 2372.63974538316 0.0 0.0
3159.452550346906 3159.452550346906 0.0 0.0
3622.37936352973 3622.37936352973 0.0 0.0
3154.903649283779 3154.903649283779 0.0 0.0
2363.8992465907168 2363.8992465907168 0.0 0.0
1717.5271303990805 1717.5271303990805 0.0 0.0
1238.0461241541552 1238.0461241541552 0.0 0.0
860.5895609300635 860.5895609300635 0.0 0.0
556.2796525753504 556.2796525753504 0.0 0.0
319.7388773059965 319.7388773059965 0.0 0.0
143.10099614366894 143.10099614366894 0.0 0.0
40.73989269832813 40.73989269832813 0.0 0.0
344.80091088585783 344.80091088585783 0.0 0.0
203.41937108582798 203.41937108582798 0.0 0.0
30.36487654174685 30.36487654174685 0.0 0.0
70.04391965465508 70.04391965465508 0.0 0.0
125.89386506764627 125.89386506764627 0.0 0.0
195.13249138786688 195.13249138786688 0.0 0.0
275.0081483873168 275.0081483873168 0.0 0.0
370.2725340381821 370.2725340381821 0.0 0.0
482.9480127834898 482.9480127834898 0.0 0.0
660.2022290437952 660.2022290437952 0.0 0.0
990.4457408840998 990.4457408840998 0.0 0.0
1304.406955304174 1304.406955304174 0.0 0.0
988.6132457613406 988.6132457613406 0.0 0.0
656.4814464230755 656.4814464230755 0.0 0.0
477.5368084370226 477.5368084370226 0.0 0.0
363.46788539015085 363.46788539015085 0.0 0.0
267.23953146108016 267.23953146108016 0.0 0.0
186.9214727237525 186.9214727237525 0.0 0.0
119.17160567851946 119.17160567851946 0.0 0.0
69.54825579027023 69.54825579027023 0.0 0.0
35.93609281378107 35.93609281378107 0.0 0.0
195.90812360414614 195.90812360414614 0.0 0.0
100.9024254898615 100.9024254898615 0.0 0.0
41.52316231406594 41.52316231406594 0.0 0.0
56.18259039162766 56.18259039162766 0.0 0.0
55.89257298573055 55.89257298573055 0.0 0.0
61.85947091378489 61.85947091378489 0.0 0.0
68.08779783872392 68.08779783872392 0.0 0.0
76.05666123579972 76.05666123579972 0.0 0.0
82.48819468716661 82.48819468716661 0.0 0.0
102.50864126287411 102.50864126287411 0.0 0.0
222.39216063541892 222.39216063541892 0.0 0.0
599.6690447092653 599.6690447092653 0.0 0.0
223.33629761463857 223.33629761463857 0.0 0.0
103.87129435565949 103.87129435565949 0.0 0.0
84.17966829550163 84.17966829550163 0.0 0.0
78.23822618297461 78.23822618297461 0.0 0.0
71.08953047894273 71.08953047894273 0.0 0.0
66.13872504501184 66.13872504501184 0.0 0.0
62.213041458889876 62.213041458889876 0.0 0.0
63.92186003977798 63.92186003977798 0.0 0.0
47.46763870608893 47.46763870608893 0.0 0.0
93.3824159703276 93.3824159703276 0.0 0.0
42.662383309100925 42.662383309100925 0.0 0.0
46.26603764382252 46.26603764382252 0.0 0.0
83.81014344848597 83.81014344848597 0.0 0.0
117.83494204547847 117.83494204547847 0.0 0.0
173.17092526081788 173.17092526081788 0.0 0.0
252.8215029314239 252.8215029314239 0.0 0.0
357.185988078194 357.185988078194 0.0 0.0
506.606303515429 506.606303515429 0.0 0.0
674.0894643804347 674.0894643804347 0.0 0.0
733.8896650959014 733.8896650959014 0.0 0.0
1471.8010053556604 1471.8010053556604 0.0 0.0
737.5366940809313 737.5366940809313 0.0 0.0
680.3655892570165 680.3655892570165 0.0 0.0
515.0076817289037 515.0076817289037 0.0 0.0
367.29001325696305 367.29001325696305 0.0 0.0
264.2645250747976 264.2645250747976 0.0 0.0
185.34290843708078 185.34290843708078 0.0 0.0
129.29320361188817 129.29320361188817 0.0 0.0
91.48293470160867 91.48293470160867 0.0 0.0
48.935841185458614 48.935841185458614 0.0 0.0
37.127349024531796 37.127349024531796 0.0 0.0
21.573454382099886 21.573454382099886 0.0 0.0
49.682036682950766 49.682036682950766 0.0 0.0
149.58899667762887 149.58899667762887 0.0 0.0
311.8119050760726 311.8119050760726 0.0 0.0
538.7252252123636 538.7252252123636 0.0 0.0
840.0437090269892 840.0437090269892 0.0 0.0
1224.7021644117835 1224.7021644117835 0.0 0.0
1703.3021818451832 1703.3021818451832 0.0 0.0
2399.9481769081876 2399.9481769081876 0.0 0.0
2613.5478680417928 2613.5478680417928 0.0 0.0
4261.511346663385 4261.511346663385 0.0 0.0
2619.820924594057 2619.820924594057 0.0 0.0
2411.3143875812852 2411.3143875812852 0.0 0.0
1718.4446647626587 1718.4446647626587 0.0 0.0
1242.4024687709395 1242.4024687709395 0.0 0.0
858.3220802411931 858.3220802411931 0.0 0.0
554.94495347277 554.94495347277 0.0 0.0
322.83463919320957 322.83463919320957 0.0 0.0
153.92453381442726 153.92453381442726 0.0 0.0
50.01911621678169 50.01911621678169 0.0 0.0
17.907075450466365 17.907075450466365 0.0 0.0
20.338901782795773 20.338901782795773 0.0 0.0
73.86202459370813 73.86202459370813 0.0 0.0
288.033777672654 288.033777672654 0.0 0.0
667.596830702551 667.596830702551 0.0 0.0
1181.9822456239976 1181.9822456239976 0.0 0.0
1848.7687529449327 1848.7687529449327 0.0 0.0
2698.3449115728563 2698.3449115728563 0.0 0.0
3728.3095268811103 3728.3095268811103 0.0 0.0
4925.299735873259 4925.299735873259 0.0 0.0
6083.607317253445 6083.607317253445 0.0 0.0
11507.971633100206 11507.971633100206 0.0 0.0
6092.506815946795 6092.506815946795 0.0 0.0
4942.669877493006 4942.669877493006 0.0 0.0
3751.7434889102205 3751.7434889102205 0.0 0.0
2725.186706311291 2725.186706311291 0.0 0.0
1875.0410024524451 1875.0410024524451 0.0 0.0
1202.1500098511067 1202.1500098511067 0.0 0.0
676.5864928591071 676.5864928591071 0.0 0.0
287.6857480361157 287.6857480361157 0.0 0.0
71.85225321408275 71.85225321408275 0.0 0.0
17.206904162978816 17.206904162978816 0.0 0.0
453.90655812059157 453.90655812059157 0.0 0.0
295.1382511138005 295.1382511138005 0.0 0.0
376.0546989652256 376.0546989652256 0.0 0.0
743.9112332577149 743.9112332577149 0.0 0.0
1269.8854258940087 1269.8854258940087 0.0 0.0
1948.2546229002116 1948.2546229002116 0.0 0.0
2779.149020463236 2779.149020463236 0.0 0.0
3822.63328184933 3822.63328184933 0.0 0.0
5209.327000371708 5209.327000371708 0.0 0.0
6842.568881786719 6842.568881786719 0.0 0.0
7710.035621740137 7710.035621740137 0.0 0.0
6838.786641224243 6838.786641224243 0.0 0.0
5202.018639510581 5202.018639510581 0.0 0.0
3811.8661448625617 3811.8661448625617 0.0 0.0
2764.690297584693 2764.690297584693 0.0 0.0
1929.9623248572327 1929.9623248572327 0.0 0.0
1248.0084130380108 1248.0084130380108 0.0 0.0
719.9131509848236 719.9131509848236 0.0 0.0
347.14843894768194 347.14843894768194 0.0 0.0
230.0899890084487 230.0899890084487 0.0 0.0
447.91433893904974 447.91433893904974 0.0 0.0
384.0717653965766 384.0717653965766 0.0 0.0
49.71911901683204 49.71911901683204 0.0 0.0
165.85059749837205 165.85059749837205 0.0 0.0
351.95308700925307 351.95308700925307 0.0 0.0
591.0320166032661 591.0320166032661 0.0 0.0
895.7657841084839 895.7657841084839 0.0 0.0
1267.5828077042454 1267.5828077042454 0.0 0.0
1725.5694213583122 1725.5694213583122 0.0 0.0
2322.8032014687187 2322.8032014687187 0.0 0.0
3042.2300252093464 3042.2300252093464 0.0 0.0
3466.2808878495266 3466.2808878495266 0.0 0.0
3039.634723131733 3039.634723131733 0.0 0.0
2317.739822630912 2317.739822630912 0.0 0.0
1718.2110521219495 1718.2110521219495 0.0 0.0
1258.04808385267 1258.04808385267 0.0 0.0
884.229674490519 884.229674490519 0.0 0.0
578.0386996948869 578.0386996948869 0.0 0.0
337.9320765152035 337.9320765152035 0.0 0.0
154.36227362477788 154.36227362477788 0.0 0.0
46.49354813275866 46.49354813275866 0.0 0.0
371.5407831343382 371.5407831343382 0.0 0.0
213.30388875561522 213.30388875561522 0.0 0.0
34.51897788505704 34.51897788505704 0.0 0.0
71.55679105560839 71.55679105560839 0.0 0.0
126.45594075267196 126.45594075267196 0.0 0.0
195.9429703477137 195.9429703477137 0.0 0.0
275.95598063525557 275.95598063525557 0.0 0.0
369.575489447516 369.575489447516 0.0 0.0
475.4520585438012 475.4520585438012 0.0 0.0
636.3362634594681 636.3362634594681 0.0 0.0
942.1345539019579 942.1345539019579 0.0 0.0
1240.6746030318254 1240.6746030318254 0.0 0.0
941.1114346298212 941.1114346298212 0.0 0.0
634.1793962224582 634.1793962224582 0.0 0.0
472.2741726022033 472.2741726022033 0.0 0.0
365.5913768577339 365.5913768577339 0.0 0.0
271.50439685210307 271.50439685210307 0.0 0.0
191.4311483968435 191.4311483968435 0.0 0.0
123.04626764292954 123.04626764292954 0.0 0.0
72.28434591780332 72.28434591780332 0.0 0.0
38.9654258341593 38.9654258341593 0.0 0.0
214.27163122396416 214.27163122396416 0.0 0.0
108.49398648813143 108.49398648813143 0.0 0.0
46.37603969492295 46.37603969492295 0.0 0.0
59.57305591749346 59.57305591749346 0.0 0.0
56.97076721515903 56.97076721515903 0.0 0.0
61.35071437526754 61.35071437526754 0.0 0.0
66.40583159833201 66.40583159833201 0.0 0.0
72.66071818734461 72.66071818734461 0.0 0.0
75.55824305069842 75.55824305069842 0.0 0.0
88.43730342513128 88.43730342513128 0.0 0.0
200.14605491596834 200.14605491596834 0.0 0.0
564.5659855297768 564.5659855297768 0.0 0.0
200.76790979565675 200.76790979565675 0.0 0.0
89.30501970087673 89.30501970087673 0.0 0.0
76.64049601396742 76.64049601396742 0.0 0.0
74.02260860638015 74.02260860638015 0.0 0.0
68.20027321711125 68.20027321711125 0.0 0.0
63.85128131060566 63.85128131060566 0.0 0.0
60.75474587992892 60.75474587992892 0.0 0.0
64.44376514683103 64.44376514683103 0.0 0.0
50.130934439863836 50.130934439863836 0.0 0.0
106.54240794069631 106.54240794069631 0.0 0.0
48.004958907039445 48.004958907039445 0.0 0.0
50.867988020399444 50.867988020399444 0.0 0.0
90.10928238175 90.10928238175 0.0 0.0
124.50711465665012 124.50711465665012 0.0 0.0
180.37721115273203 180.37721115273203 0.0 0.0
260.4884698324126 260.4884698324126 0.0 0.0
363.2735522566392 363.2735522566392 0.0 0.0
505.6042012209653 505.6042012209653 0.0 0.0
658.0003069889308 658.0003069889308 0.0 0.0
708.461499075735 708.461499075735 0.0 0.0
1409.7876238788972 1409.7876238788972 0.0 0.0
710.7104035078189 710.7104035078189 0.0 0.0
661.8975387091293 661.8975387091293 0.0 0.0
510.885889386209 510.885889386209 0.0 0.0
369.55884927617075 369.55884927617075 0.0 0.0
267.4272210332265 267.4272210332265 0.0 0.0
187.53643443181645 187.53643443181645 0.0 0.0
131.106001673949 131.106001673949 0.0 0.0
94.48348593837426 94.48348593837426 0.0 0.0
52.218987661424634 52.218987661424634 0.0 0.0
45.6331008371656 45.6331008371656 0.0 0.0
24.721642091694857 24.721642091694857 0.0 0.0
55.2794747363259 55.2794747363259 0.0 0.0
160.77791904173242 160.77791904173242 0.0 0.0
328.7559490020532 328.7559490020532 0.0 0.0
561.9848589945891 561.9848589945891 0.0 0.0
868.4034913061048 868.4034913061048 0.0 0.0
1251.7502685915479 1251.7502685915479 0.0 0.0
1713.729764085737 1713.729764085737 0.0 0.0
2361.8040465414415 2361.8040465414415 0.0 0.0
2549.5889823500975 2549.5889823500975 0.0 0.0
4102.736804659802 4102.736804659802 0.0 0.0
2553.518347236623 2553.518347236623 0.0 0.0
2369.076787614498 2369.076787614498 0.0 0.0
1723.475513480065 1723.475513480065 0.0 0.0
1263.0259446113319 1263.0259446113319 0.0 0.0
879.8215648867551 879.8215648867551 0.0 0.0
571.8222374643123 571.8222374643123 0.0 0.0
335.17859252482367 335.17859252482367 0.0 0.0
163.17980120141974 163.17980120141974 0.0 0.0
55.33632832218821 55.33632832218821 0.0 0.0
22.739796799885802 22.739796799885802 0.0 0.0
24.767352344252743 24.767352344252743 0.0 0.0
83.77379463884566 83.77379463884566 0.0 0.0
308.86551180905815 308.86551180905815 0.0 0.0
701.7396458897507 701.7396458897507 0.0 0.0
1231.1830540524131 1231.1830540524131 0.0 0.0
1910.7207749076927 1910.7207749076927 0.0 0.0
2759.98908851208 2759.98908851208 0.0 0.0
3754.197666963865 3754.197666963865 0.0 0.0
4852.5673743486095 4852.5673743486095 0.0 0.0
5915.953021470421 5915.953021470421 0.0 0.0
11038.78338693565 11038.78338693565 0.0 0.0
5922.002145871023 5922.002145871023 0.0 0.0
4864.189540289099 4864.189540289099 0.0 0.0
3769.720703999568 3769.720703999568 0.0 0.0
2777.514678338721 2777.514678338721 0.0 0.0
1927.5657511852498 1927.5657511852498 0.0 0.0
1243.8268420223203 1243.8268420223203 0.0 0.0
707.2152986877019 707.2152986877019 0.0 0.0
308.80407132261627 308.80407132261627 0.0 0.0
82.95536079821906 82.95536079821906 0.0 0.0
23.249915340265193 23.249915340265193 0.0 0.0
640.0817763868558 640.0817763868558 0.0 0.0
264.09803894716526 264.09803894716526 0.0 0.0
392.27190679114693 392.27190679114693 0.0 0.0
790.3648235552112 790.3648235552112 0.0 0.0
1355.0826528061814 1355.0826528061814 0.0 0.0
2091.9190376160122 2091.9190376160122 0.0 0.0
2974.985261337775 2974.985261337775 0.0 0.0
3995.0763262132846 3995.0763262132846 0.0 0.0
5142.298827354372 5142.298827354372 0.0 0.0
6270.550090033794 6270.550090033794 0.0 0.0
6812.233406419917 6812.233406419917 0.0 0.0
6273.660924020961 6273.660924020961 0.0 0.0
5148.108061913931 5148.108061913931 0.0 0.0
4003.500813171708 4003.500813171708 0.0 0.0
2986.495019952473 2986.495019952473 0.0 0.0
2107.38187458296 2107.38187458296 0.0 0.0
1375.7768129497063 1375.7768129497063 0.0 0.0
816.6338042557938 816.6338042557938 0.0 0.0
429.4432627952293 429.4432627952293 0.0 0.0
315.46609875148306 315.46609875148306 0.0 0.0
623.8444148859156 623.8444148859156 0.0 0.0
513.2912135687806 513.2912135687806 0.0 0.0
44.659733654318444 44.659733654318444 0.0 0.0
165.53574833858258 165.53574833858258 0.0 0.0
360.25138200694084 360.25138200694084 0.0 0.0
616.7977065319737 616.7977065319737 0.0 0.0
946.066091006159 946.066091006159 0.0 0.0
1340.5405393463848 1340.5405393463848 0.0 0.0
1789.6751301257893 1789.6751301257893 0.0 0.0
2285.9377897315494 2285.9377897315494 0.0 0.0
2783.806350444832 2783.806350444832 0.0 0.0
3047.2133114954304 3047.2133114954304 0.0 0.0
2785.8158911189894 2785.8158911189894 0.0 0.0
2289.777227641409 2289.777227641409 0.0 0.0
1795.2920917431861 1795.2920917431861 0.0 0.0
1348.0889628786135 1348.0889628786135 0.0 0.0
955.9031345891565 955.9031345891565 0.0 0.0
629.285024375828 629.285024375828 0.0 0.0
376.1963726994588 376.1963726994588 0.0 0.0
181.21508717373956 181.21508717373956 0.0 0.0
51.34080124581611 51.34080124581611 0.0 0.0
516.4699527138308 516.4699527138308 0.0 0.0
308.40077366234607 308.40077366234607 0.0 0.0
36.26738355177584 36.26738355177584 0.0 0.0
70.82568792644628 70.82568792644628 0.0 0.0
119.46307012198562 119.46307012198562 0.0 0.0
191.8098463283051 191.8098463283051 0.0 0.0
277.94577651700286 277.94577651700286 0.0 0.0
379.36421023038423 379.36421023038423 0.0 0.0
488.85637210575334 488.85637210575334 0.0 0.0
618.1366521844184 618.1366521844184 0.0 0.0
815.0927700866087 815.0927700866087 0.0 0.0
991.783035892092 991.783035892092 0.0 0.0
816.0414038237546 816.0414038237546 0.0 0.0
620.003839977533 620.003839977533 0.0 0.0
491.5767133076075 491.5767133076075 0.0 0.0
382.84953155341975 382.84953155341975 0.0 0.0
282.1037505519774 282.1037505519774 0.0 0.0
196.62817838424343 196.62817838424343 0.0 0.0
124.3353351390993 124.3353351390993 0.0 0.0
72.23907353047883 72.23907353047883 0.0 0.0
31.750157182529776 31.750157182529776 0.0 0.0
305.75608422663163 305.75608422663163 0.0 0.0
153.3480249759001 153.3480249759001 0.0 0.0
50.58577097186274 50.58577097186274 0.0 0.0
61.883145001881736 61.883145001881736 0.0 0.0
53.391037112060026 53.391037112060026 0.0 0.0
55.49199448090891 55.49199448090891 0.0 0.0
60.53677977607987 60.53677977607987 0.0 0.0
67.26403722714517 67.26403722714517 0.0 0.0
71.3590729391574 71.3590729391574 0.0 0.0
75.2828973698218 75.2828973698218 0.0 0.0
136.86082052986026 136.86082052986026 0.0 0.0
334.78971309947286 334.78971309947286 0.0 0.0
136.66046728904143 136.66046728904143 0.0 0.0
75.17553935614123 75.17553935614123 0.0 0.0
71.3197038185815 71.3197038185815 0.0 0.0
67.10037181433766 67.10037181433766 0.0 0.0
60.015473125028215 60.015473125028215 0.0 0.0
54.3104904415873 54.3104904415873 0.0 0.0
50.925678702645534 50.925678702645534 0.0 0.0
57.64833490470177 57.64833490470177 0.0 0.0
45.059343408565056 45.059343408565056 0.0 0.0
154.37046687744729 154.37046687744729 0.0 0.0
63.53435257425044 63.53435257425044 0.0 0.0
54.34868401569032 54.34868401569032 0.0 0.0
97.05888203826628 97.05888203826628 0.0 0.0
136.820562162952 136.820562162952 0.0 0.0
198.27983839360306 198.27983839360306 0.0 0.0
283.81780449128934 283.81780449128934 0.0 0.0
388.0242198011216 388.0242198011216 0.0 0.0
516.8790397141989 516.8790397141989 0.0 0.0
638.8549263340084 638.8549263340084 0.0 0.0
674.2121311786958 674.2121311786958 0.0 0.0
1021.4513721894856 1021.4513721894856 0.0 0.0
672.8055926193178 672.8055926193178 0.0 0.0
636.8994863587124 636.8994863587124 0.0 0.0
514.354281857613 514.354281857613 0.0 0.0
384.8498382683996 384.8498382683996 0.0 0.0
279.96883307783685 279.96883307783685 0.0 0.0
193.74532388661228 193.74532388661228 0.0 0.0
131.91637896001487 131.91637896001487 0.0 0.0
92.88176096281029 92.88176096281029 0.0 0.0
51.11672743911151 51.11672743911151 0.0 0.0
64.89366217245606 64.89366217245606 0.0 0.0
27.985667913492993 27.985667913492993 0.0 0.0
59.18448164572533 59.18448164572533 0.0 0.0
178.00151553843637 178.00151553843637 0.0 0.0
370.71078104573166 370.71078104573166 0.0 0.0
630.865225331914 630.865225331914 0.0 0.0
961.0666060391226 961.0666060391226 0.0 0.0
1357.364721133716 1357.364721133716 0.0 0.0
1803.2601545384596 1803.2601545384596 0.0 0.0
2344.097706185183 2344.097706185183 0.0 0.0
2489.4667740073596 2489.4667740073596 0.0 0.0
3211.7831204728604 3211.7831204728604 0.0 0.0
2487.0071759987877 2487.0071759987877 0.0 0.0
2340.610367168045 2340.610367168045 0.0 0.0
1798.4634551950064 1798.4634551950064 0.0 0.0
1351.6020385009722 1351.6020385009722 0.0 0.0
954.9730327462449 954.9730327462449 0.0 0.0
625.3407257745642 625.3407257745642 0.0 0.0
366.94457736522514 366.94457736522514 0.0 0.0
176.55949170285302 176.55949170285302 0.0 0.0
58.41532751787484 58.41532751787484 0.0 0.0
28.55501991882626 28.55501991882626 0.0 0.0
25.985688557770263 25.985688557770263 0.0 0.0
91.7762695487314 91.7762695487314 0.0 0.0
346.1973145940549 346.1973145940549 0.0 0.0
791.706802428324 791.706802428324 0.0 0.0
1381.4753441536773 1381.4753441536773 0.0 0.0
2117.2977554307454 2117.2977554307454 0.0 0.0
3004.146932784309 3004.146932784309 0.0 0.0
3992.8188912311794 3992.8188912311794 0.0 0.0
4982.353137323222 4982.353137323222 0.0 0.0
5653.449723272012 5653.449723272012 0.0 0.0
8482.437408425005 8482.437408425005 0.0 0.0
5651.691574692708 5651.691574692708 0.0 0.0
4977.764890560472 4977.764890560472 0.0 0.0
3985.813187688225 3985.813187688225 0.0 0.0
2995.746524895587 2995.746524895587 0.0 0.0
2108.959581926565 2108.959581926565 0.0 0.0
1375.3846851969884 1375.3846851969884 0.0 0.0
790.1754420170844 790.1754420170844 0.0 0.0
348.7328979336686 348.7328979336686 0.0 0.0
94.02302036454009 94.02302036454009 0.0 0.0
27.104535838442075 27.104535838442075 0.0 0.0
1719.7142157602111 1719.7142157602111 0.0 0.0
311.1852583320636 311.1852583320636 0.0 0.0
370.7469606456743 370.7469606456743 0.0 0.0
776.1620589739041 776.1620589739041 0.0 0.0
1369.1822749688783 1369.1822749688783 0.0 0.0
2157.838683717325 2157.838683717325 0.0 0.0
3107.185043289688 3107.185043289688 0.0 0.0
4169.251081961631 4169.251081961631 0.0 0.0
5190.661772248521 5190.661772248521 0.0 0.0
5896.521832367401 5896.521832367401 0.0 0.0
6123.604814696388 6123.604814696388 0.0 0.0
5905.442040988254 5905.442040988254 0.0 0.0
5208.496685277898 5208.496685277898 0.0 0.0
4196.454172674575 4196.454172674575 0.0 0.0
3144.5487793998896 3144.5487793998896 0.0 0.0
2205.6657659444268 2205.6657659444268 0.0 0.0
1426.1379926676766 1426.1379926676766 0.0 0.0
838.5753159357506 838.5753159357506 0.0 0.0
440.8546109261137 440.8546109261137 0.0 0.0
491.2502504507528 491.2502504507528 0.0 0.0
1647.573383946517 1647.573383946517 0.0 0.0
1276.6690917820788 1276.6690917820788 0.0 0.0
38.62976313977237 38.62976313977237 0.0 0.0
172.35062754178264 172.35062754178264 0.0 0.0
368.4072308648071 368.4072308648071 0.0 0.0
632.379470782221 632.379470782221 0.0 0.0
975.306708498999 975.306708498999 0.0 0.0
1390.125595844098 1390.125595844098 0.0 0.0
1857.9809100496002 1857.9809100496002 0.0 0.0
2317.2886023064575 2317.2886023064575 0.0 0.0
2643.3863885266933 2643.3863885266933 0.0 0.0
2749.4663484427297 2749.4663484427297 0.0 0.0
2649.1713824983785 2649.1713824983785 0.0 0.0
2328.8140632524246 2328.8140632524246 0.0 0.0
1875.3729980953105 1875.3729980953105 0.0 0.0
1413.4914563004393 1413.4914563004393 0.0 0.0
1004.3559004692188 1004.3559004692188 0.0 0.0
665.605211230234 665.605211230234 0.0 0.0
403.2554402201417 403.2554402201417 0.0 0.0
197.08627414528786 197.08627414528786 0.0 0.0
44.61144701442397 44.61144701442397 0.0 0.0
1340.9274351053184 1340.9274351053184 0.0 0.0
710.2181989551982 710.2181989551982 0.0 0.0
105.47369081226957 105.47369081226957 0.0 0.0
148.11246852767576 148.11246852767576 0.0 0.0
192.79697875614156 192.79697875614156 0.0 0.0
266.72106883803355 266.72106883803355 0.0 0.0
352.21495254584084 352.21495254584084 0.0 0.0
457.1044620448496 457.1044620448496 0.0 0.0
586.8150209891606 586.8150209891606 0.0 0.0
727.8958934588527 727.8958934588527 0.0 0.0
821.8028218323327 821.8028218323327 0.0 0.0
848.3823374416146 848.3823374416146 0.0 0.0
824.1781455186675 824.1781455186675 0.0 0.0
732.4140548274049 732.4140548274049 0.0 0.0
593.3472369477593 593.3472369477593 0.0 0.0
465.4124157017202 465.4124157017202 0.0 0.0
361.70223344989523 361.70223344989523 0.0 0.0
276.2428807656535 276.2428807656535 0.0 0.0
198.3941308736492 198.3941308736492 0.0 0.0
144.1035519704933 144.1035519704933 0.0 0.0
89.25659932405046 89.25659932405046 0.0 0.0
741.055342017752 741.055342017752 0.0 0.0
327.60362691262173 327.60362691262173 0.0 0.0
153.02497850159637 153.02497850159637 0.0 0.0
190.76638008166222 190.76638008166222 0.0 0.0
174.65438672957845 174.65438672957845 0.0 0.0
172.39220344970542 172.39220344970542 0.0 0.0
169.827867230488 169.827867230488 0.0 0.0
166.8216785632061 166.8216785632061 0.0 0.0
172.4865230798075 172.4865230798075 0.0 0.0
199.36967358357106 199.36967358357106 0.0 0.0
229.05911964227465 229.05911964227465 0.0 0.0
248.50112223884787 248.50112223884787 0.0 0.0
228.21914420687182 228.21914420687182 0.0 0.0
197.35861571844814 197.35861571844814 0.0 0.0
169.14808471582774 169.14808471582774 0.0 0.0
161.90222833178595 161.90222833178595 0.0 0.0
162.97552419428607 162.97552419428607 0.0 0.0
162.8797402168005 162.8797402168005 0.0 0.0
161.20463864804603 161.20463864804603 0.0 0.0
175.3834629664726 175.3834629664726 0.0 0.0
140.33961235885573 140.33961235885573 0.0 0.0
344.8244194642126 344.8244194642126 0.0 0.0
124.35746369836109 124.35746369836109 0.0 0.0
140.7233931764354 140.7233931764354 0.0 0.0
225.42180462726992 225.42180462726992 0.0 0.0
265.4838706736437 265.4838706736437 0.0 0.0
320.11228822559343 320.11228822559343 0.0 0.0
395.8123162873352 395.8123162873352 0.0 0.0
485.41949933693 485.41949933693 0.0 0.0
572.6858233301754 572.6858233301754 0.0 0.0
670.746654751432 670.746654751432 0.0 0.0
824.5696389950537 824.5696389950537 0.0 0.0
923.0270067885708 923.0270067885708 0.0 0.0
820.8004872755477 820.8004872755477 0.0 0.0
663.0070564500247 663.0070564500247 0.0 0.0
560.9832839309362 560.9832839309362 0.0 0.0
469.9352207633498 469.9352207633498 0.0 0.0
377.04540091254825 377.04540091254825 0.0 0.0
299.0325766695997 299.0325766695997 0.0 0.0
244.6892818557402 244.6892818557402 0.0 0.0
210.80993112475326 210.80993112475326 0.0 0.0
134.44765550613383 134.44765550613383 0.0 0.0
130.83550143902445 130.83550143902445 0.0 0.0
43.39123298959046 43.39123298959046 0.0 0.0
107.39054365609408 107.39054365609408 0.0 0.0
266.8284792532614 266.8284792532614 0.0 0.0
477.5390679896825 477.5390679896825 0.0 0.0
739.9128657980249 739.9128657980249 0.0 0.0
1065.2098703336694 1065.2098703336694 0.0 0.0
1446.0071251617553 1446.0071251617553 0.0 0.0
1861.214328966618 1861.214328966618 0.0 0.0
2181.435682613166 2181.435682613166 0.0 0.0
2660.5638924913205 2660.5638924913205 0.0 0.0
2894.197282452446 2894.197282452446 0.0 0.0
2653.881891460282 2653.881891460282 0.0 0.0
2168.344092442283 2168.344092442283 0.0 0.0
1841.6320560667175 1841.6320560667175 0.0 0.0
1421.3700595494984 1421.3700595494984 0.0 0.0
1037.6740148908941 1037.6740148908941 0.0 0.0
713.3777874770989 713.3777874770989 0.0 0.0
457.6696490145994 457.6696490145994 0.0 0.0
257.65592039918914 257.65592039918914 0.0 0.0
104.99754832890814 104.99754832890814 0.0 0.0
44.99718163103223 44.99718163103223 0.0 0.0
26.661793468630055 26.661793468630055 0.0 0.0
115.91842478942675 115.91842478942675 0.0 0.0
420.85629617943755 420.85629617943755 0.0 0.0
919.5973537662535 919.5973537662535 0.0 0.0
1540.5722602784926 1540.5722602784926 0.0 0.0
2297.1861307118834 2297.1861307118834 0.0 0.0
3187.3278978502485 3187.3278978502485 0.0 0.0
4183.17030730427 4183.17030730427 0.0 0.0
5200.229880782719 5200.229880782719 0.0 0.0
6173.3549463845375 6173.3549463845375 0.0 0.0
5308.003856940712 5308.003856940712 0.0 0.0
6164.737458541762 6164.737458541762 0.0 0.0
5179.816435749216 5179.816435749216 0.0 0.0
4153.23115831824 4153.23115831824 0.0 0.0
3150.7502143120273 3150.7502143120273 0.0 0.0
2258.774644926525 2258.774644926525 0.0 0.0
1508.42473931933 1508.42473931933 0.0 0.0
902.7382905420774 902.7382905420774 0.0 0.0
419.2951836323821 419.2951836323821 0.0 0.0
118.0281387530853 118.0281387530853 0.0 0.0
28.237615978582838 28.237615978582838 0.0 0.0