# vtk DataFile Version 3.0
Some data
ASCII
DATASET UNSTRUCTURED_GRID
POINTS 1029 float
0.0 0.0 0.0
0.8 0.0 0.0
1.6 0.0 0.0
2.4000000000000004 0.0 0.0
3.2 0.0 0.0
4.0 0.0 0.0
4.800000000000001 0.0 0.0
5.6000000000000005 0.0 0.0
6.4 0.0 0.0
7.2 0.0 0.0
8.0 0.0 0.0
8.8 0.0 0.0
9.600000000000001 0.0 0.0
10.4 0.0 0.0
11.200000000000001 0.0 0.0
12.0 0.0 0.0
12.8 0.0 0.0
13.600000000000001 0.0 0.0
14.4 0.0 0.0
15.200000000000001 0.0 0.0
16.0 0.0 0.0
0.0 0.3333333333333333 0.0
0.8 0.3333333333333333 0.0
1.6 0.3333333333333333 0.0
2.4000000000000004 0.3333333333333333 0.0
3.2 0.3333333333333333 0.0
4.0 0.3333333333333333 0.0
4.800000000000001 0.3333333333333333 0.0
5.6000000000000005 0.3333333333333333 0.0
6.4 0.3333333333333333 0.0
7.2 0.3333333333333333 0.0
8.0 0.3333333333333333 0.0
8.8 0.3333333333333333 0.0
9.600000000000001 0.3333333333333333 0.0
10.4 0.3333333333333333 0.0
11.200000000000001 0.3333333333333333 0.0
12.0 0.3333333333333333 0.0
12.8 0.3333333333333333 0.0
13.600000000000001 0.3333333333333333 0.0
14.4 0.3333333333333333 0.0
15.200000000000001 0.3333333333333333 0.0
16.0 0.3333333333333333 0.0
0.0 0.6666666666666666 0.0
0.8 0.6666666666666666 0.0
1.6 0.6666666666666666 0.0
2.4000000000000004 0.6666666666666666 0.0
3.2 0.6666666666666666 0.0
4.0 0.6666666666666666 0.0
4.800000000000001 0.6666666666666666 0.0
5.6000000000000005 0.6666666666666666 0.0
6.4 0.6666666666666666 0.0
7.2 0.6666666666666666 0.0
8.0 0.6666666666666666 0.0
8.8 0.6666666666666666 0.0
9.600000000000001 0.6666666666666666 0.0
10.4 0.6666666666666666 0.0
11.200000000000001 0.6666666666666666 0.0
12.0 0.6666666666666666 0.0
12.8 0.6666666666666666 0.0
13.600000000000001 0.6666666666666666 0.0
14.4 0.6666666666666666 0.0
15.200000000000001 0.6666666666666666 0.0
16.0 0.6666666666666666 0.0
0.0 1.0 0.0
0.8 1.0 0.0
1.6 1.0 0.0
2.4000000000000004 1.0 0.0
3.2 1.0 0.0
4.0 1.0 0.0
4.800000000000001 1.0 0.0
5.6000000000000005 1.0 0.0
6.4 1.0 0.0
7.2 1.0 0.0
8.0 1.0 0.0
8.8 1.0 0.0
9.600000000000001 1.0 0.0
10.4 1.0 0.0
11.200000000000001 1.0 0.0
12.0 1.0 0.0
12.8 1.0 0.0
13.600000000000001 1.0 0.0
14.4 1.0 0.0
15.200000000000001 1.0 0.0
16.0 1.0 0.0
0.0 1.3333333333333333 0.0
0.8 1.3333333333333333 0.0
1.6 1.3333333333333333 0.0
2.4000000000000004 1.3333333333333333 0.0
3.2 1.3333333333333333 0.0
4.0 1.3333333333333333 0.0
4.800000000000001 1.3333333333333333 0.0
5.6000000000000005 1.3333333333333333 0.0
6.4 1.3333333333333333 0.0
7.2 1.3333333333333333 0.0
8.0 1.3333333333333333 0.0
8.8 1.3333333333333333 0.0
9.600000000000001 1.3333333333333333 0.0
10.4 1.3333333333333333 0.0
11.200000000000001 1.3333333333333333 0.0
12.0 1.3333333333333333 0.0
12.8 1.3333333333333333 0.0
13.600000000000001 1.3333333333333333 0.0
14.4 1.3333333333333333 0.0
15.200000000000001 1.3333333333333333 0.0
16.0 1.3333333333333333 0.0
0.0 1.6666666666666665 0.0
0.8 1.6666666666666665 0.0
1.6 1.6666666666666665 0.0
2.4000000000000004 1.6666666666666665 0.0
3.2 1.6666666666666665 0.0
4.0 1.6666666666666665 0.0
4.800000000000001 1.6666666666666665 0.0
5.6000000000000005 1.6666666666666665 0.0
6.4 1.6666666666666665 0.0
7.2 1.6666666666666665 0.0
8.0 1.6666666666666665 0.0
8.8 1.6666666666666665 0.0
9.600000000000001 1.6666666666666665 0.0
10.4 1.6666666666666665 0.0
11.200000000000001 1.6666666666666665 0.0
12.0 1.6666666666666665 0.0
12.8 1.6666666666666665 0.0
13.600000000000001 1.6666666666666665 0.0
14.4 1.6666666666666665 0.0
15.200000000000001 1.6666666666666665 0.0
16.0 1.6666666666666665 0.0
0.0 2.0 0.0
0.8 2.0 0.0
1.6 2.0 0.0
2.4000000000000004 2.0 0.0
3.2 2.0 0.0
4.0 2.0 0.0
4.800000000000001 2.0 0.0
5.6000000000000005 2.0 0.0
6.4 2.0 0.0
7.2 2.0 0.0
8.0 2.0 0.0
8.8 2.0 0.0
9.600000000000001 2.0 0.0
10.4 2.0 0.0
11.200000000000001 2.0 0.0
12.0 2.0 0.0
12.8 2.0 0.0
13.600000000000001 2.0 0.0
14.4 2.0 0.0
15.200000000000001 2.0 0.0
16.0 2.0 0.0
0.0 0.0 1.6666666666666667
0.8 0.0 1.6666666666666667
1.6 0.0 1.6666666666666667
2.4000000000000004 0.0 1.6666666666666667
3.2 0.0 1.6666666666666667
4.0 0.0 1.6666666666666667
4.800000000000001 0.0 1.6666666666666667
5.6000000000000005 0.0 1.6666666666666667
6.4 0.0 1.6666666666666667
7.2 0.0 1.6666666666666667
8.0 0.0 1.6666666666666667
8.8 0.0 1.6666666666666667
9.600000000000001 0.0 1.6666666666666667
10.4 0.0 1.6666666666666667
11.200000000000001 0.0 1.6666666666666667
12.0 0.0 1.6666666666666667
12.8 0.0 1.6666666666666667
13.600000000000001 0.0 1.6666666666666667
14.4 0.0 1.6666666666666667
15.200000000000001 0.0 1.6666666666666667
16.0 0.0 1.6666666666666667
0.0 0.3333333333333333 1.6666666666666667
0.8 0.3333333333333333 1.6666666666666667
1.6 0.3333333333333333 1.6666666666666667
2.4000000000000004 0.3333333333333333 1.6666666666666667
3.2 0.3333333333333333 1.6666666666666667
4.0 0.3333333333333333 1.6666666666666667
4.800000000000001 0.3333333333333333 1.6666666666666667
5.6000000000000005 0.3333333333333333 1.6666666666666667
6.4 0.3333333333333333 1.6666666666666667
7.2 0.3333333333333333 1.6666666666666667
8.0 0.3333333333333333 1.6666666666666667
8.8 0.3333333333333333 1.6666666666666667
9.600000000000001 0.3333333333333333 1.6666666666666667
10.4 0.3333333333333333 1.6666666666666667
11.200000000000001 0.3333333333333333 1.6666666666666667
12.0 0.3333333333333333 1.6666666666666667
12.8 0.3333333333333333 1.6666666666666667
13.600000000000001 0.3333333333333333 1.6666666666666667
14.4 0.3333333333333333 1.6666666666666667
15.200000000000001 0.3333333333333333 1.6666666666666667
16.0 0.3333333333333333 1.6666666666666667
0.0 0.6666666666666666 1.6666666666666667
0.8 0.6666666666666666 1.6666666666666667
1.6 0.6666666666666666 1.6666666666666667
2.4000000000000004 0.6666666666666666 1.6666666666666667
3.2 0.6666666666666666 1.6666666666666667
4.0 0.6666666666666666 1.6666666666666667
4.800000000000001 0.6666666666666666 1.6666666666666667
5.6000000000000005 0.6666666666666666 1.6666666666666667
6.4 0.6666666666666666 1.6666666666666667
7.2 0.6666666666666666 1.6666666666666667
8.0 0.6666666666666666 1.6666666666666667
8.8 0.6666666666666666 1.6666666666666667
9.600000000000001 0.6666666666666666 1.6666666666666667
10.4 0.6666666666666666 1.6666666666666667
11.200000000000001 0.6666666666666666 1.6666666666666667
12.0 0.6666666666666666 1.6666666666666667
12.8 0.6666666666666666 1.6666666666666667
13.600000000000001 0.6666666666666666 1.6666666666666667
14.4 0.6666666666666666 1.6666666666666667
15.200000000000001 0.6666666666666666 1.6666666666666667
16.0 0.6666666666666666 1.6666666666666667
0.0 1.0 1.6666666666666667
0.8 1.0 1.6666666666666667
1.6 1.0 1.6666666666666667
2.4000000000000004 1.0 1.6666666666666667
3.2 1.0 1.6666666666666667
4.0 1.0 1.6666666666666667
4.800000000000001 1.0 1.6666666666666667
5.6000000000000005 1.0 1.6666666666666667
6.4 1.0 1.6666666666666667
7.2 1.0 1.6666666666666667
8.0 1.0 1.6666666666666667
8.8 1.0 1.6666666666666667
9.600000000000001 1.0 1.6666666666666667
10.4 1.0 1.6666666666666667
11.200000000000001 1.0 1.6666666666666667
12.0 1.0 1.6666666666666667
12.8 1.0 1.6666666666666667
13.600000000000001 1.0 1.6666666666666667
14.4 1.0 1.6666666666666667
15.200000000000001 1.0 1.6666666666666667
16.0 1.0 1.6666666666666667
0.0 1.3333333333333333 1.6666666666666667
0.8 1.3333333333333333 1.6666666666666667
1.6 1.3333333333333333 1.6666666666666667
2.4000000000000004 1.3333333333333333 1.6666666666666667
3.2 1.3333333333333333 1.6666666666666667
4.0 1.3333333333333333 1.6666666666666667
4.800000000000001 1.3333333333333333 1.6666666666666667
5.6000000000000005 1.3333333333333333 1.6666666666666667
6.4 1.3333333333333333 1.6666666666666667
7.2 1.3333333333333333 1.6666666666666667
8.0 1.3333333333333333 1.6666666666666667
8.8 1.3333333333333333 1.6666666666666667
9.600000000000001 1.3333333333333333 1.6666666666666667
10.4 1.3333333333333333 1.6666666666666667
11.200000000000001 1.3333333333333333 1.6666666666666667
12.0 1.3333333333333333 1.6666666666666667
12.8 1.3333333333333333 1.6666666666666667
13.600000000000001 1.3333333333333333 1.6666666666666667
14.4 1.3333333333333333 1.6666666666666667
15.200000000000001 1.3333333333333333 1.6666666666666667
16.0 1.3333333333333333 1.6666666666666667
0.0 1.6666666666666665 1.6666666666666667
0.8 1.6666666666666665 1.6666666666666667
1.6 1.6666666666666665 1.6666666666666667
2.4000000000000004 1.6666666666666665 1.6666666666666667
3.2 1.6666666666666665 1.6666666666666667
4.0 1.6666666666666665 1.6666666666666667
4.800000000000001 1.6666666666666665 1.6666666666666667
5.6000000000000005 1.6666666666666665 1.6666666666666667
6.4 1.6666666666666665 1.6666666666666667
7.2 1.6666666666666665 1.6666666666666667
8.0 1.6666666666666665 1.6666666666666667
8.8 1.6666666666666665 1.6666666666666667
9.600000000000001 1.6666666666666665 1.6666666666666667
10.4 1.6666666666666665 1.6666666666666667
11.200000000000001 1.6666666666666665 1.6666666666666667
12.0 1.6666666666666665 1.6666666666666667
12.8 1.6666666666666665 1.6666666666666667
13.600000000000001 1.6666666666666665 1.6666666666666667
14.4 1.6666666666666665 1.6666666666666667
15.200000000000001 1.6666666666666665 1.6666666666666667
16.0 1.6666666666666665 1.6666666666666667
0.0 2.0 1.6666666666666667
0.8 2.0 1.6666666666666667
1.6 2.0 1.6666666666666667
2.4000000000000004 2.0 1.6666666666666667
3.2 2.0 1.6666666666666667
4.0 2.0 1.6666666666666667
4.800000000000001 2.0 1.6666666666666667
5.6000000000000005 2.0 1.6666666666666667
6.4 2.0 1.6666666666666667
7.2 2.0 1.6666666666666667
8.0 2.0 1.6666666666666667
8.8 2.0 1.6666666666666667
9.600000000000001 2.0 1.6666666666666667
10.4 2.0 1.6666666666666667
11.200000000000001 2.0 1.6666666666666667
12.0 2.0 1.6666666666666667
12.8 2.0 1.6666666666666667
13.600000000000001 2.0 1.6666666666666667
14.4 2.0 1.6666666666666667
15.200000000000001 2.0 1.6666666666666667
16.0 2.0 1.6666666666666667
0.0 0.0 3.3333333333333335
0.8 0.0 3.3333333333333335
1.6 0.0 3.3333333333333335
2.4000000000000004 0.0 3.3333333333333335
3.2 0.0 3.3333333333333335
4.0 0.0 3.3333333333333335
4.800000000000001 0.0 3.3333333333333335
5.6000000000000005 0.0 3.3333333333333335
6.4 0.0 3.3333333333333335
7.2 0.0 3.3333333333333335
8.0 0.0 3.3333333333333335
8.8 0.0 3.3333333333333335
9.600000000000001 0.0 3.3333333333333335
10.4 0.0 3.3333333333333335
11.200000000000001 0.0 3.3333333333333335
12.0 0.0 3.3333333333333335
12.8 0.0 3.3333333333333335
13.600000000000001 0.0 3.3333333333333335
14.4 0.0 3.3333333333333335
15.200000000000001 0.0 3.3333333333333335
16.0 0.0 3.3333333333333335
0.0 0.3333333333333333 3.3333333333333335
0.8 0.3333333333333333 3.3333333333333335
1.6 0.3333333333333333 3.3333333333333335
2.4000000000000004 0.3333333333333333 3.3333333333333335
3.2 0.3333333333333333 3.3333333333333335
4.0 0.3333333333333333 3.3333333333333335
4.800000000000001 0.3333333333333333 3.3333333333333335
5.6000000000000005 0.3333333333333333 3.3333333333333335
6.4 0.3333333333333333 3.3333333333333335
7.2 0.3333333333333333 3.3333333333333335
8.0 0.3333333333333333 3.3333333333333335
8.8 0.3333333333333333 3.3333333333333335
9.600000000000001 0.3333333333333333 3.3333333333333335
10.4 0.3333333333333333 3.3333333333333335
11.200000000000001 0.3333333333333333 3.3333333333333335
12.0 0.3333333333333333 3.3333333333333335
12.8 0.3333333333333333 3.3333333333333335
13.600000000000001 0.3333333333333333 3.3333333333333335
14.4 0.3333333333333333 3.3333333333333335
15.200000000000001 0.3333333333333333 3.3333333333333335
16.0 0.3333333333333333 3.3333333333333335
0.0 0.6666666666666666 3.3333333333333335
0.8 0.6666666666666666 3.3333333333333335
1.6 0.6666666666666666 3.3333333333333335
2.4000000000000004 0.6666666666666666 3.3333333333333335
3.2 0.6666666666666666 3.3333333333333335
4.0 0.6666666666666666 3.3333333333333335
4.800000000000001 0.6666666666666666 3.3333333333333335
5.6000000000000005 0.6666666666666666 3.3333333333333335
6.4 0.6666666666666666 3.3333333333333335
7.2 0.6666666666666666 3.3333333333333335
8.0 0.6666666666666666 3.3333333333333335
8.8 0.6666666666666666 3.3333333333333335
9.600000000000001 0.6666666666666666 3.3333333333333335
10.4 0.6666666666666666 3.3333333333333335
11.200000000000001 0.6666666666666666 3.3333333333333335
12.0 0.6666666666666666 3.3333333333333335
12.8 0.6666666666666666 3.3333333333333335
13.600000000000001 0.6666666666666666 3.3333333333333335
14.4 0.6666666666666666 3.3333333333333335
15.200000000000001 0.6666666666666666 3.3333333333333335
16.0 0.6666666666666666 3.3333333333333335
0.0 1.0 3.3333333333333335
0.8 1.0 3.3333333333333335
1.6 1.0 3.3333333333333335
2.4000000000000004 1.0 3.3333333333333335
3.2 1.0 3.3333333333333335
4.0 1.0 3.3333333333333335
4.800000000000001 1.0 3.3333333333333335
5.6000000000000005 1.0 3.3333333333333335
6.4 1.0 3.3333333333333335
7.2 1.0 3.3333333333333335
8.0 1.0 3.3333333333333335
8.8 1.0 3.3333333333333335
9.600000000000001 1.0 3.3333333333333335
10.4 1.0 3.3333333333333335
11.200000000000001 1.0 3.3333333333333335
12.0 1.0 3.3333333333333335
12.8 1.0 3.3333333333333335
13.600000000000001 1.0 3.3333333333333335
14.4 1.0 3.3333333333333335
15.200000000000001 1.0 3.3333333333333335
16.0 1.0 3.3333333333333335
0.0 1.3333333333333333 3.3333333333333335
0.8 1.3333333333333333 3.3333333333333335
1.6 1.3333333333333333 3.3333333333333335
2.4000000000000004 1.3333333333333333 3.3333333333333335
3.2 1.3333333333333333 3.3333333333333335
4.0 1.3333333333333333 3.3333333333333335
4.800000000000001 1.3333333333333333 3.3333333333333335
5.6000000000000005 1.3333333333333333 3.3333333333333335
6.4 1.3333333333333333 3.3333333333333335
7.2 1.3333333333333333 3.3333333333333335
8.0 1.3333333333333333 3.3333333333333335
8.8 1.3333333333333333 3.3333333333333335
9.600000000000001 1.3333333333333333 3.3333333333333335
10.4 1.3333333333333333 3.3333333333333335
11.200000000000001 1.3333333333333333 3.3333333333333335
12.0 1.3333333333333333 3.3333333333333335
12.8 1.3333333333333333 3.3333333333333335
13.600000000000001 1.3333333333333333 3.3333333333333335
14.4 1.3333333333333333 3.3333333333333335
15.200000000000001 1.3333333333333333 3.3333333333333335
16.0 1.3333333333333333 3.3333333333333335
0.0 1.6666666666666665 3.3333333333333335
0.8 1.6666666666666665 3.3333333333333335
1.6 1.6666666666666665 3.3333333333333335
2.4000000000000004 1.6666666666666665 3.3333333333333335
3.2 1.6666666666666665 3.3333333333333335
4.0 1.6666666666666665 3.3333333333333335
4.800000000000001 1.6666666666666665 3.3333333333333335
5.6000000000000005 1.6666666666666665 3.3333333333333335
6.4 1.6666666666666665 3.3333333333333335
7.2 1.6666666666666665 3.3333333333333335
8.0 1.6666666666666665 3.3333333333333335
8.8 1.6666666666666665 3.3333333333333335
9.600000000000001 1.6666666666666665 3.3333333333333335
10.4 1.6666666666666665 3.3333333333333335
11.200000000000001 1.6666666666666665 3.3333333333333335
12.0 1.6666666666666665 3.3333333333333335
12.8 1.6666666666666665 3.3333333333333335
13.600000000000001 1.6666666666666665 3.3333333333333335
14.4 1.6666666666666665 3.3333333333333335
15.200000000000001 1.6666666666666665 3.3333333333333335
16.0 1.6666666666666665 3.3333333333333335
0.0 2.0 3.3333333333333335
0.8 2.0 3.3333333333333335
1.6 2.0 3.3333333333333335
2.4000000000000004 2.0 3.3333333333333335
3.2 2.0 3.3333333333333335
4.0 2.0 3.3333333333333335
4.800000000000001 2.0 3.3333333333333335
5.6000000000000005 2.0 3.3333333333333335
6.4 2.0 3.3333333333333335
7.2 2.0 3.3333333333333335
8.0 2.0 3.3333333333333335
8.8 2.0 3.3333333333333335
9.600000000000001 2.0 3.3333333333333335
10.4 2.0 3.3333333333333335
11.200000000000001 2.0 3.3333333333333335
12.0 2.0 3.3333333333333335
12.8 2.0 3.3333333333333335
13.600000000000001 2.0 3.3333333333333335
14.4 2.0 3.3333333333333335
15.200000000000001 2.0 3.3333333333333335
16.0 2.0 3.3333333333333335
0.0 0.0 5.0
0.8 0.0 5.0
1.6 0.0 5.0
2.4000000000000004 0.0 5.0
3.2 0.0 5.0
4.0 0.0 5.0
4.800000000000001 0.0 5.0
5.6000000000000005 0.0 5.0
6.4 0.0 5.0
7.2 0.0 5.0
8.0 0.0 5.0
8.8 0.0 5.0
9.600000000000001 0.0 5.0
10.4 0.0 5.0
11.200000000000001 0.0 5.0
12.0 0.0 5.0
12.8 0.0 5.0
13.600000000000001 0.0 5.0
14.4 0.0 5.0
15.200000000000001 0.0 5.0
16.0 0.0 5.0
0.0 0.3333333333333333 5.0
0.8 0.3333333333333333 5.0
1.6 0.3333333333333333 5.0
2.4000000000000004 0.3333333333333333 5.0
3.2 0.3333333333333333 5.0
4.0 0.3333333333333333 5.0
4.800000000000001 0.3333333333333333 5.0
5.6000000000000005 0.3333333333333333 5.0
6.4 0.3333333333333333 5.0
7.2 0.3333333333333333 5.0
8.0 0.3333333333333333 5.0
8.8 0.3333333333333333 5.0
9.600000000000001 0.3333333333333333 5.0
10.4 0.3333333333333333 5.0
11.200000000000001 0.3333333333333333 5.0
12.0 0.3333333333333333 5.0
12.8 0.3333333333333333 5.0
13.600000000000001 0.3333333333333333 5.0
14.4 0.3333333333333333 5.0
15.200000000000001 0.3333333333333333 5.0
16.0 0.3333333333333333 5.0
0.0 0.6666666666666666 5.0
0.8 0.6666666666666666 5.0
1.6 0.6666666666666666 5.0
2.4000000000000004 0.6666666666666666 5.0
3.2 0.6666666666666666 5.0
4.0 0.6666666666666666 5.0
4.800000000000001 0.6666666666666666 5.0
5.6000000000000005 0.6666666666666666 5.0
6.4 0.6666666666666666 5.0
7.2 0.6666666666666666 5.0
8.0 0.6666666666666666 5.0
8.8 0.6666666666666666 5.0
9.600000000000001 0.6666666666666666 5.0
10.4 0.6666666666666666 5.0
11.200000000000001 0.6666666666666666 5.0
12.0 0.6666666666666666 5.0
12.8 0.6666666666666666 5.0
13.600000000000001 0.6666666666666666 5.0
14.4 0.6666666666666666 5.0
15.200000000000001 0.6666666666666666 5.0
16.0 0.6666666666666666 5.0
0.0 1.0 5.0
0.8 1.0 5.0
1.6 1.0 5.0
2.4000000000000004 1.0 5.0
3.2 1.0 5.0
4.0 1.0 5.0
4.800000000000001 1.0 5.0
5.6000000000000005 1.0 5.0
6.4 1.0 5.0
7.2 1.0 5.0
8.0 1.0 5.0
8.8 1.0 5.0
9.600000000000001 1.0 5.0
10.4 1.0 5.0
11.200000000000001 1.0 5.0
12.0 1.0 5.0
12.8 1.0 5.0
13.600000000000001 1.0 5.0
14.4 1.0 5.0
15.200000000000001 1.0 5.0
16.0 1.0 5.0
0.0 1.3333333333333333 5.0
0.8 1.3333333333333333 5.0
1.6 1.3333333333333333 5.0
2.4000000000000004 1.3333333333333333 5.0
3.2 1.3333333333333333 5.0
4.0 1.3333333333333333 5.0
4.800000000000001 1.3333333333333333 5.0
5.6000000000000005 1.3333333333333333 5.0
6.4 1.3333333333333333 5.0
7.2 1.3333333333333333 5.0
8.0 1.3333333333333333 5.0
8.8 1.3333333333333333 5.0
9.600000000000001 1.3333333333333333 5.0
10.4 1.3333333333333333 5.0
11.200000000000001 1.3333333333333333 5.0
12.0 1.3333333333333333 5.0
12.8 1.3333333333333333 5.0
13.600000000000001 1.3333333333333333 5.0
14.4 1.3333333333333333 5.0
15.200000000000001 1.3333333333333333 5.0
16.0 1.3333333333333333 5.0
0.0 1.6666666666666665 5.0
0.8 1.6666666666666665 5.0
1.6 1.6666666666666665 5.0
2.4000000000000004 1.6666666666666665 5.0
3.2 1.6666666666666665 5.0
4.0 1.6666666666666665 5.0
4.800000000000001 1.6666666666666665 5.0
5.6000000000000005 1.6666666666666665 5.0
6.4 1.6666666666666665 5.0
7.2 1.6666666666666665 5.0
8.0 1.6666666666666665 5.0
8.8 1.6666666666666665 5.0
9.600000000000001 1.6666666666666665 5.0
10.4 1.6666666666666665 5.0
11.200000000000001 1.6666666666666665 5.0
12.0 1.6666666666666665 5.0
12.8 1.6666666666666665 5.0
13.600000000000001 1.6666666666666665 5.0
14.4 1.6666666666666665 5.0
15.200000000000001 1.6666666666666665 5.0
16.0 1.6666666666666665 5.0
0.0 2.0 5.0
0.8 2.0 5.0
1.6 2.0 5.0
2.4000000000000004 2.0 5.0
3.2 2.0 5.0
4.0 2.0 5.0
4.800000000000001 2.0 5.0
5.6000000000000005 2.0 5.0
6.4 2.0 5.0
7.2 2.0 5.0
8.0 2.0 5.0
8.8 2.0 5.0
9.600000000000001 2.0 5.0
10.4 2.0 5.0
11.200000000000001 2.0 5.0
12.0 2.0 5.0
12.8 2.0 5.0
13.600000000000001 2.0 5.0
14.4 2.0 5.0
15.200000000000001 2.0 5.0
16.0 2.0 5.0
0.0 0.0 6.666666666666667
0.8 0.0 6.666666666666667
1.6 0.0 6.666666666666667
2.4000000000000004 0.0 6.666666666666667
3.2 0.0 6.666666666666667
4.0 0.0 6.666666666666667
4.800000000000001 0.0 6.666666666666667
5.6000000000000005 0.0 6.666666666666667
6.4 0.0 6.666666666666667
7.2 0.0 6.666666666666667
8.0 0.0 6.666666666666667
8.8 0.0 6.666666666666667
9.600000000000001 0.0 6.666666666666667
10.4 0.0 6.666666666666667
11.200000000000001 0.0 6.666666666666667
12.0 0.0 6.666666666666667
12.8 0.0 6.666666666666667
13.600000000000001 0.0 6.666666666666667
14.4 0.0 6.666666666666667
15.200000000000001 0.0 6.666666666666667
16.0 0.0 6.666666666666667
0.0 0.3333333333333333 6.666666666666667
0.8 0.3333333333333333 6.666666666666667
1.6 0.3333333333333333 6.666666666666667
2.4000000000000004 0.3333333333333333 6.666666666666667
3.2 0.3333333333333333 6.666666666666667
4.0 0.3333333333333333 6.666666666666667
4.800000000000001 0.3333333333333333 6.666666666666667
5.6000000000000005 0.3333333333333333 6.666666666666667
6.4 0.3333333333333333 6.666666666666667
7.2 0.3333333333333333 6.666666666666667
8.0 0.3333333333333333 6.666666666666667
8.8 0.3333333333333333 6.666666666666667
9.600000000000001 0.3333333333333333 6.666666666666667
10.4 0.3333333333333333 6.666666666666667
11.200000000000001 0.3333333333333333 6.666666666666667
12.0 0.3333333333333333 6.666666666666667
12.8 0.3333333333333333 6.666666666666667
13.600000000000001 0.3333333333333333 6.666666666666667
14.4 0.3333333333333333 6.666666666666667
15.200000000000001 0.3333333333333333 6.666666666666667
16.0 0.3333333333333333 6.666666666666667
0.0 0.6666666666666666 6.666666666666667
0.8 0.6666666666666666 6.666666666666667
1.6 0.6666666666666666 6.666666666666667
2.4000000000000004 0.6666666666666666 6.666666666666667
3.2 0.6666666666666666 6.666666666666667
4.0 0.6666666666666666 6.666666666666667
4.800000000000001 0.6666666666666666 6.666666666666667
5.6000000000000005 0.6666666666666666 6.666666666666667
6.4 0.6666666666666666 6.666666666666667
7.2 0.6666666666666666 6.666666666666667
8.0 0.6666666666666666 6.666666666666667
8.8 0.6666666666666666 6.666666666666667
9.600000000000001 0.6666666666666666 6.666666666666667
10.4 0.6666666666666666 6.666666666666667
11.200000000000001 0.6666666666666666 6.666666666666667
12.0 0.6666666666666666 6.666666666666667
12.8 0.6666666666666666 6.666666666666667
13.600000000000001 0.6666666666666666 6.666666666666667
14.4 0.6666666666666666 6.666666666666667
15.200000000000001 0.6666666666666666 6.666666666666667
16.0 0.6666666666666666 6.666666666666667
0.0 1.0 6.666666666666667
0.8 1.0 6.666666666666667
1.6 1.0 6.666666666666667
2.4000000000000004 1.0 6.666666666666667
3.2 1.0 6.666666666666667
4.0 1.0 6.666666666666667
4.800000000000001 1.0 6.666666666666667
5.6000000000000005 1.0 6.666666666666667
6.4 1.0 6.666666666666667
7.2 1.0 6.666666666666667
8.0 1.0 6.666666666666667
8.8 1.0 6.666666666666667
9.600000000000001 1.0 6.666666666666667
10.4 1.0 6.666666666666667
11.200000000000001 1.0 6.666666666666667
12.0 1.0 6.666666666666667
12.8 1.0 6.666666666666667
13.600000000000001 1.0 6.666666666666667
14.4 1.0 6.666666666666667
15.200000000000001 1.0 6.666666666666667
16.0 1.0 6.666666666666667
0.0 1.3333333333333333 6.666666666666667
0.8 1.3333333333333333 6.666666666666667
1.6 1.3333333333333333 6.666666666666667
2.4000000000000004 1.3333333333333333 6.666666666666667
3.2 1.3333333333333333 6.666666666666667
4.0 1.3333333333333333 6.666666666666667
4.800000000000001 1.3333333333333333 6.666666666666667
5.6000000000000005 1.3333333333333333 6.666666666666667
6.4 1.3333333333333333 6.666666666666667
7.2 1.3333333333333333 6.666666666666667
8.0 1.3333333333333333 6.666666666666667
8.8 1.3333333333333333 6.666666666666667
9.600000000000001 1.3333333333333333 6.666666666666667
10.4 1.3333333333333333 6.666666666666667
11.200000000000001 1.3333333333333333 6.666666666666667
12.0 1.3333333333333333 6.666666666666667
12.8 1.3333333333333333 6.666666666666667
13.600000000000001 1.3333333333333333 6.666666666666667
14.4 1.3333333333333333 6.666666666666667
15.200000000000001 1.3333333333333333 6.666666666666667
16.0 1.3333333333333333 6.666666666666667
0.0 1.6666666666666665 6.666666666666667
0.8 1.6666666666666665 6.666666666666667
1.6 1.6666666666666665 6.666666666666667
2.4000000000000004 1.6666666666666665 6.666666666666667
3.2 1.6666666666666665 6.666666666666667
4.0 1.6666666666666665 6.666666666666667
4.800000000000001 1.6666666666666665 6.666666666666667
5.6000000000000005 1.6666666666666665 6.666666666666667
6.4 1.6666666666666665 6.666666666666667
7.2 1.6666666666666665 6.666666666666667
8.0 1.6666666666666665 6.666666666666667
8.8 1.6666666666666665 6.666666666666667
9.600000000000001 1.6666666666666665 6.666666666666667
10.4 1.6666666666666665 6.666666666666667
11.200000000000001 1.6666666666666665 6.666666666666667
12.0 1.6666666666666665 6.666666666666667
12.8 1.6666666666666665 6.666666666666667
13.600000000000001 1.6666666666666665 6.666666666666667
14.4 1.6666666666666665 6.666666666666667
15.200000000000001 1.6666666666666665 6.666666666666667
16.0 1.6666666666666665 6.666666666666667
0.0 2.0 6.666666666666667
0.8 2.0 6.666666666666667
1.6 2.0 6.666666666666667
2.4000000000000004 2.0 6.666666666666667
3.2 2.0 6.666666666666667
4.0 2.0 6.666666666666667
4.800000000000001 2.0 6.666666666666667
5.6000000000000005 2.0 6.666666666666667
6.4 2.0 6.666666666666667
7.2 2.0 6.666666666666667
8.0 2.0 6.666666666666667
8.8 2.0 6.666666666666667
9.600000000000001 2.0 6.666666666666667
10.4 2.0 6.666666666666667
11.200000000000001 2.0 6.666666666666667
12.0 2.0 6.666666666666667
12.8 2.0 6.666666666666667
13.600000000000001 2.0 6.666666666666667
14.4 2.0 6.666666666666667
15.200000000000001 2.0 6.666666666666667
16.0 2.0 6.666666666666667
0.0 0.0 8.333333333333334
0.8 0.0 8.333333333333334
1.6 0.0 8.333333333333334
2.4000000000000004 0.0 8.333333333333334
3.2 0.0 8.333333333333334
4.0 0.0 8.333333333333334
4.800000000000001 0.0 8.333333333333334
5.6000000000000005 0.0 8.333333333333334
6.4 0.0 8.333333333333334
7.2 0.0 8.333333333333334
8.0 0.0 8.333333333333334
8.8 0.0 8.333333333333334
9.600000000000001 0.0 8.333333333333334
10.4 0.0 8.333333333333334
11.200000000000001 0.0 8.333333333333334
12.0 0.0 8.333333333333334
12.8 0.0 8.333333333333334
13.600000000000001 0.0 8.333333333333334
14.4 0.0 8.333333333333334
15.200000000000001 0.0 8.333333333333334
16.0 0.0 8.333333333333334
0.0 0.3333333333333333 8.333333333333334
0.8 0.3333333333333333 8.333333333333334
1.6 0.3333333333333333 8.333333333333334
2.4000000000000004 0.3333333333333333 8.333333333333334
3.2 0.3333333333333333 8.333333333333334
4.0 0.3333333333333333 8.333333333333334
4.800000000000001 0.3333333333333333 8.333333333333334
5.6000000000000005 0.3333333333333333 8.333333333333334
6.4 0.3333333333333333 8.333333333333334
7.2 0.3333333333333333 8.333333333333334
8.0 0.3333333333333333 8.333333333333334
8.8 0.3333333333333333 8.333333333333334
9.600000000000001 0.3333333333333333 8.333333333333334
10.4 0.3333333333333333 8.333333333333334
11.200000000000001 0.3333333333333333 8.333333333333334
12.0 0.3333333333333333 8.333333333333334
12.8 0.3333333333333333 8.333333333333334
13.600000000000001 0.3333333333333333 8.333333333333334
14.4 0.3333333333333333 8.333333333333334
15.200000000000001 0.3333333333333333 8.333333333333334
16.0 0.3333333333333333 8.333333333333334
0.0 0.6666666666666666 8.333333333333334
0.8 0.6666666666666666 8.333333333333334
1.6 0.6666666666666666 8.333333333333334
2.4000000000000004 0.6666666666666666 8.333333333333334
3.2 0.6666666666666666 8.333333333333334
4.0 0.6666666666666666 8.333333333333334
4.800000000000001 0.6666666666666666 8.333333333333334
5.6000000000000005 0.6666666666666666 8.333333333333334
6.4 0.6666666666666666 8.333333333333334
7.2 0.6666666666666666 8.333333333333334
8.0 0.6666666666666666 8.333333333333334
8.8 0.6666666666666666 8.333333333333334
9.600000000000001 0.6666666666666666 8.333333333333334
10.4 0.6666666666666666 8.333333333333334
11.200000000000001 0.6666666666666666 8.333333333333334
12.0 0.6666666666666666 8.333333333333334
12.8 0.6666666666666666 8.333333333333334
13.600000000000001 0.6666666666666666 8.333333333333334
14.4 0.6666666666666666 8.333333333333334
15.200000000000001 0.6666666666666666 8.333333333333334
16.0 0.6666666666666666 8.333333333333334
0.0 1.0 8.333333333333334
0.8 1.0 8.333333333333334
1.6 1.0 8.333333333333334
2.4000000000000004 1.0 8.333333333333334
3.2 1.0 8.333333333333334
4.0 1.0 8.333333333333334
4.800000000000001 1.0 8.333333333333334
5.6000000000000005 1.0 8.333333333333334
6.4 1.0 8.333333333333334
7.2 1.0 8.333333333333334
8.0 1.0 8.333333333333334
8.8 1.0 8.333333333333334
9.600000000000001 1.0 8.333333333333334
10.4 1.0 8.333333333333334
11.200000000000001 1.0 8.333333333333334
12.0 1.0 8.333333333333334
12.8 1.0 8.333333333333334
13.600000000000001 1.0 8.333333333333334
14.4 1.0 8.333333333333334
15.200000000000001 1.0 8.333333333333334
16.0 1.0 8.333333333333334
0.0 1.3333333333333333 8.333333333333334
0.8 1.3333333333333333 8.333333333333334
1.6 1.3333333333333333 8.333333333333334
2.4000000000000004 1.3333333333333333 8.333333333333334
3.2 1.3333333333333333 8.333333333333334
4.0 1.3333333333333333 8.333333333333334
4.800000000000001 1.3333333333333333 8.333333333333334
5.6000000000000005 1.3333333333333333 8.333333333333334
6.4 1.3333333333333333 8.333333333333334
7.2 1.3333333333333333 8.333333333333334
8.0 1.3333333333333333 8.333333333333334
8.8 1.3333333333333333 8.333333333333334
9.600000000000001 1.3333333333333333 8.333333333333334
10.4 1.3333333333333333 8.333333333333334
11.200000000000001 1.3333333333333333 8.333333333333334
12.0 1.3333333333333333 8.333333333333334
12.8 1.3333333333333333 8.333333333333334
13.600000000000001 1.3333333333333333 8.333333333333334
14.4 1.3333333333333333 8.333333333333334
15.200000000000001 1.3333333333333333 8.333333333333334
16.0 1.3333333333333333 8.333333333333334
0.0 1.6666666666666665 8.333333333333334
0.8 1.6666666666666665 8.333333333333334
1.6 1.6666666666666665 8.333333333333334
2.4000000000000004 1.6666666666666665 8.333333333333334
3.2 1.6666666666666665 8.333333333333334
4.0 1.6666666666666665 8.333333333333334
4.800000000000001 1.6666666666666665 8.333333333333334
5.6000000000000005 1.6666666666666665 8.333333333333334
6.4 1.6666666666666665 8.333333333333334
7.2 1.6666666666666665 8.333333333333334
8.0 1.6666666666666665 8.333333333333334
8.8 1.6666666666666665 8.333333333333334
9.600000000000001 1.6666666666666665 8.333333333333334
10.4 1.6666666666666665 8.333333333333334
11.200000000000001 1.6666666666666665 8.333333333333334
12.0 1.6666666666666665 8.333333333333334
12.8 1.6666666666666665 8.333333333333334
13.600000000000001 1.6666666666666665 8.333333333333334
14.4 1.6666666666666665 8.333333333333334
15.200000000000001 1.6666666666666665 8.333333333333334
16.0 1.6666666666666665 8.333333333333334
0.0 2.0 8.333333333333334
0.8 2.0 8.333333333333334
1.6 2.0 8.333333333333334
2.4000000000000004 2.0 8.333333333333334
3.2 2.0 8.333333333333334
4.0 2.0 8.333333333333334
4.800000000000001 2.0 8.333333333333334
5.6000000000000005 2.0 8.333333333333334
6.4 2.0 8.333333333333334
7.2 2.0 8.333333333333334
8.0 2.0 8.333333333333334
8.8 2.0 8.333333333333334
9.600000000000001 2.0 8.333333333333334
10.4 2.0 8.333333333333334
11.200000000000001 2.0 8.333333333333334
12.0 2.0 8.333333333333334
12.8 2.0 8.333333333333334
13.600000000000001 2.0 8.333333333333334
14.4 2.0 8.333333333333334
15.200000000000001 2.0 8.333333333333334
16.0 2.0 8.333333333333334
0.0 0.0 10.0
0.8 0.0 10.0
1.6 0.0 10.0
2.4000000000000004 0.0 10.0
3.2 0.0 10.0
4.0 0.0 10.0
4.800000000000001 0.0 10.0
5.6000000000000005 0.0 10.0
6.4 0.0 10.0
7.2 0.0 10.0
8.0 0.0 10.0
8.8 0.0 10.0
9.600000000000001 0.0 10.0
10.4 0.0 10.0
11.200000000000001 0.0 10.0
12.0 0.0 10.0
12.8 0.0 10.0
13.600000000000001 0.0 10.0
14.4 0.0 10.0
15.200000000000001 0.0 10.0
16.0 0.0 10.0
0.0 0.3333333333333333 10.0
0.8 0.3333333333333333 10.0
1.6 0.3333333333333333 10.0
2.4000000000000004 0.3333333333333333 10.0
3.2 0.3333333333333333 10.0
4.0 0.3333333333333333 10.0
4.800000000000001 0.3333333333333333 10.0
5.6000000000000005 0.3333333333333333 10.0
6.4 0.3333333333333333 10.0
7.2 0.3333333333333333 10.0
8.0 0.3333333333333333 10.0
8.8 0.3333333333333333 10.0
9.600000000000001 0.3333333333333333 10.0
10.4 0.3333333333333333 10.0
11.200000000000001 0.3333333333333333 10.0
12.0 0.3333333333333333 10.0
12.8 0.3333333333333333 10.0
13.600000000000001 0.3333333333333333 10.0
14.4 0.3333333333333333 10.0
15.200000000000001 0.3333333333333333 10.0
16.0 0.3333333333333333 10.0
0.0 0.6666666666666666 10.0
0.8 0.6666666666666666 10.0
1.6 0.6666666666666666 10.0
2.4000000000000004 0.6666666666666666 10.0
3.2 0.6666666666666666 10.0
4.0 0.6666666666666666 10.0
4.800000000000001 0.6666666666666666 10.0
5.6000000000000005 0.6666666666666666 10.0
6.4 0.6666666666666666 10.0
7.2 0.6666666666666666 10.0
8.0 0.6666666666666666 10.0
8.8 0.6666666666666666 10.0
9.600000000000001 0.6666666666666666 10.0
10.4 0.6666666666666666 10.0
11.200000000000001 0.6666666666666666 10.0
12.0 0.6666666666666666 10.0
12.8 0.6666666666666666 10.0
13.600000000000001 0.6666666666666666 10.0
14.4 0.6666666666666666 10.0
15.200000000000001 0.6666666666666666 10.0
16.0 0.6666666666666666 10.0
0.0 1.0 10.0
0.8 1.0 10.0
1.6 1.0 10.0
2.4000000000000004 1.0 10.0
3.2 1.0 10.0
4.0 1.0 10.0
4.800000000000001 1.0 10.0
5.6000000000000005 1.0 10.0
6.4 1.0 10.0
7.2 1.0 10.0
8.0 1.0 10.0
8.8 1.0 10.0
9.600000000000001 1.0 10.0
10.4 1.0 10.0
11.200000000000001 1.0 10.0
12.0 1.0 10.0
12.8 1.0 10.0
13.600000000000001 1.0 10.0
14.4 1.0 10.0
15.200000000000001 1.0 10.0
16.0 1.0 10.0
0.0 1.3333333333333333 10.0
0.8 1.3333333333333333 10.0
1.6 1.3333333333333333 10.0
2.4000000000000004 1.3333333333333333 10.0
3.2 1.3333333333333333 10.0
4.0 1.3333333333333333 10.0
4.800000000000001 1.3333333333333333 10.0
5.6000000000000005 1.3333333333333333 10.0
6.4 1.3333333333333333 10.0
7.2 1.3333333333333333 10.0
8.0 1.3333333333333333 10.0
8.8 1.3333333333333333 10.0
9.600000000000001 1.3333333333333333 10.0
10.4 1.3333333333333333 10.0
11.200000000000001 1.3333333333333333 10.0
12.0 1.3333333333333333 10.0
12.8 1.3333333333333333 10.0
13.600000000000001 1.3333333333333333 10.0
14.4 1.3333333333333333 10.0
15.200000000000001 1.3333333333333333 10.0
16.0 1.3333333333333333 10.0
0.0 1.6666666666666665 10.0
0.8 1.6666666666666665 10.0
1.6 1.6666666666666665 10.0
2.4000000000000004 1.6666666666666665 10.0
3.2 1.6666666666666665 10.0
4.0 1.6666666666666665 10.0
4.800000000000001 1.6666666666666665 10.0
5.6000000000000005 1.6666666666666665 10.0
6.4 1.6666666666666665 10.0
7.2 1.6666666666666665 10.0
8.0 1.6666666666666665 10.0
8.8 1.6666666666666665 10.0
9.600000000000001 1.6666666666666665 10.0
10.4 1.6666666666666665 10.0
11.200000000000001 1.6666666666666665 10.0
12.0 1.6666666666666665 10.0
12.8 1.6666666666666665 10.0
13.600000000000001 1.6666666666666665 10.0
14.4 1.6666666666666665 10.0
15.200000000000001 1.6666666666666665 10.0
16.0 1.6666666666666665 10.0
0.0 2.0 10.0
0.8 2.0 10.0
1.6 2.0 10.0
2.4000000000000004 2.0 10.0
3.2 2.0 10.0
4.0 2.0 10.0
4.800000000000001 2.0 10.0
5.6000000000000005 2.0 10.0
6.4 2.0 10.0
7.2 2.0 10.0
8.0 2.0 10.0
8.8 2.0 10.0
9.600000000000001 2.0 10.0
10.4 2.0 10.0
11.200000000000001 2.0 10.0
12.0 2.0 10.0
12.8 2.0 10.0
13.600000000000001 2.0 10.0
14.4 2.0 10.0
15.200000000000001 2.0 10.0
16.0 2.0 10.0
CELLS 720 6480
8 0 1 22 21 147 148 169 168
8 1 2 23 22 148 149 170 169
8 2 3 24 23 149 150 171 170
8 3 4 25 24 150 151 172 171
8 4 5 26 25 151 152 173 172
8 5 6 27 26 152 153 174 173
8 6 7 28 27 153 154 175 174
8 7 8 29 28 154 155 176 175
8 8 9 30 29 155 156 177 176
8 9 10 31 30 156 157 178 177
8 10 11 32 31 157 158 179 178
8 11 12 33 32 158 159 180 179
8 12 13 34 33 159 160 181 180
8 13 14 35 34 160 161 182 181
8 14 15 36 35 161 162 183 182
8 15 16 37 36 162 163 184 183
8 16 17 38 37 163 164 185 184
8 17 18 39 38 164 165 186 185
8 18 19 40 39 165 166 187 186
8 19 20 41 40 166 167 188 187
8 21 22 43 42 168 169 190 189
8 22 23 44 43 169 170 191 190
8 23 24 45 44 170 171 192 191
8 24 25 46 45 171 172 193 192
8 25 26 47 46 172 173 194 193
8 26 27 48 47 173 174 195 194
8 27 28 49 48 174 175 196 195
8 28 29 50 49 175 176 197 196
8 29 30 51 50 176 177 198 197
8 30 31 52 51 177 178 199 198
8 31 32 53 52 178 179 200 199
8 32 33 54 53 179 180 201 200
8 33 34 55 54 180 181 202 201
8 34 35 56 55 181 182 203 202
8 35 36 57 56 182 183 204 203
8 36 37 58 57 183 184 205 204
8 37 38 59 58 184 185 206 205
8 38 39 60 59 185 186 207 206
8 39 40 61 60 186 187 208 207
8 40 41 62 61 187 188 209 208
8 42 43 64 63 189 190 211 210
8 43 44 65 64 190 191 212 211
8 44 45 66 65 191 192 213 212
8 45 46 67 66 192 193 214 213
8 46 47 68 67 193 194 215 214
8 47 48 69 68 194 195 216 215
8 48 49 70 69 195 196 217 216
8 49 50 71 70 196 197 218 217
8 50 51 72 71 197 198 219 218
8 51 52 73 72 198 199 220 219
8 52 53 74 73 199 200 221 220
8 53 54 75 74 200 201 222 221
8 54 55 76 75 201 202 223 222
8 55 56 77 76 202 203 224 223
8 56 57 78 77 203 204 225 224
8 57 58 79 78 204 205 226 225
8 58 59 80 79 205 206 227 226
8 59 60 81 80 206 207 228 227
8 60 61 82 81 207 208 229 228
8 61 62 83 82 208 209 230 229
8 63 64 85 84 210 211 232 231
8 64 65 86 85 211 212 233 232
8 65 66 87 86 212 213 234 233
8 66 67 88 87 213 214 235 234
8 67 68 89 88 214 215 236 235
8 68 69 90 89 215 216 237 236
8 69 70 91 90 216 217 238 237
8 70 71 92 91 217 218 239 238
8 71 72 93 92 218 219 240 239
8 72 73 94 93 219 220 241 240
8 73 74 95 94 220 221 242 241
8 74 75 96 95 221 222 243 242
8 75 76 97 96 222 223 244 243
8 76 77 98 97 223 224 245 244
8 77 78 99 98 224 225 246 245
8 78 79 100 99 225 226 247 246
8 79 80 101 100 226 227 248 247
8 80 81 102 101 227 228 249 248
8 81 82 103 102 228 229 250 249
8 82 83 104 103 229 230 251 250
8 84 85 106 105 231 232 253 252
8 85 86 107 106 232 233 254 253
8 86 87 108 107 233 234 255 254
8 87 88 109 108 234 235 256 255
8 88 89 110 109 235 236 257 256
8 89 90 111 110 236 237 258 257
8 90 91 112 111 237 238 259 258
8 91 92 113 112 238 239 260 259
8 92 93 114 113 239 240 261 260
8 93 94 115 114 240 241 262 261
8 94 95 116 115 241 242 263 262
8 95 96 117 116 242 243 264 263
8 96 97 118 117 243 244 265 264
8 97 98 119 118 244 245 266 265
8 98 99 120 119 245 246 267 266
8 99 100 121 120 246 247 268 267
8 100 101 122 121 247 248 269 268
8 101 102 123 122 248 249 270 269
8 102 103 124 123 249 250 271 270
8 103 104 125 124 250 251 272 271
8 105 106 127 126 252 253 274 273
8 106 107 128 127 253 254 275 274
8 107 108 129 128 254 255 276 275
8 108 109 130 129 255 256 277 276
8 109 110 131 130 256 257 278 277
8 110 111 132 131 257 258 279 278
8 111 112 133 132 258 259 280 279
8 112 113 134 133 259 260 281 280
8 113 114 135 134 260 261 282 281
8 114 115 136 135 261 262 283 282
8 115 116 137 136 262 263 284 283
8 116 117 138 137 263 264 285 284
8 117 118 139 138 264 265 286 285
8 118 119 140 139 265 266 287 286
8 119 120 141 140 266 267 288 287
8 120 121 142 141 267 268 289 288
8 121 122 143 142 268 269 290 289
8 122 123 144 143 269 270 291 290
8 123 124 145 144 270 271 292 291
8 124 125 146 145 271 272 293 292
8 147 148 169 168 294 295 316 315
8 148 149 170 169 295 296 317 316
8 149 150 171 170 296 297 318 317
8 150 151 172 171 297 298 319 318
8 151 152 173 172 298 299 320 319
8 152 153 174 173 299 300 321 320
8 153 154 175 174 300 301 322 321
8 154 155 176 175 301 302 323 322
8 155 156 177 176 302 303 324 323
8 156 157 178 177 303 304 325 324
8 157 158 179 178 304 305 326 325
8 158 159 180 179 305 306 327 326
8 159 160 181 180 306 307 328 327
8 160 161 182 181 307 308 329 328
8 161 162 183 182 308 309 330 329
8 162 163 184 183 309 310 331 330
8 163 164 185 184 310 311 332 331
8 164 165 186 185 311 312 333 332
8 165 166 187 186 312 313 334 333
8 166 167 188 187 313 314 335 334
8 168 169 190 189 315 316 337 336
8 169 170 191 190 316 317 338 337
8 170 171 192 191 317 318 339 338
8 171 172 193 192 318 319 340 339
8 172 173 194 193 319 320 341 340
8 173 174 195 194 320 321 342 341
8 174 175 196 195 321 322 343 342
8 175 176 197 196 322 323 344 343
8 176 177 198 197 323 324 345 344
8 177 178 199 198 324 325 346 345
8 178 179 200 199 325 326 347 346
8 179 180 201 200 326 327 348 347
8 180 181 202 201 327 328 349 348
8 181 182 203 202 328 329 350 349
8 182 183 204 203 329 330 351 350
8 183 184 205 204 330 331 352 351
8 184 185 206 205 331 332 353 352
8 185 186 207 206 332 333 354 353
8 186 187 208 207 333 334 355 354
8 187 188 209 208 334 335 356 355
8 189 190 211 210 336 337 358 357
8 190 191 212 211 337 338 359 358
8 191 192 213 212 338 339 360 359
8 192 193 214 213 339 340 361 360
8 193 194 215 214 340 341 362 361
8 194 195 216 215 341 342 363 362
8 195 196 217 216 342 343 364 363
8 196 197 218 217 343 344 365 364
8 197 198 219 218 344 345 366 365
8 198 199 220 219 345 346 367 366
8 199 200 221 220 346 347 368 367
8 200 201 222 221 347 348 369 368
8 201 202 223 222 348 349 370 369
8 202 203 224 223 349 350 371 370
8 203 204 225 224 350 351 372 371
8 204 205 226 225 351 352 373 372
8 205 206 227 226 352 353 374 373
8 206 207 228 227 353 354 375 374
8 207 208 229 228 354 355 376 375
8 208 209 230 229 355 356 377 376
8 210 211 232 231 357 358 379 378
8 211 212 233 232 358 359 380 379
8 212 213 234 233 359 360 381 380
8 213 214 235 234 360 361 382 381
8 214 215 236 235 361 362 383 382
8 215 216 237 236 362 363 384 383
8 216 217 238 237 363 364 385 384
8 217 218 239 238 364 365 386 385
8 218 219 240 239 365 366 387 386
8 219 220 241 240 366 367 388 387
8 220 221 242 241 367 368 389 388
8 221 222 243 242 368 369 390 389
8 222 223 244 243 369 370 391 390
8 223 224 245 244 370 371 392 391
8 224 225 246 245 371 372 393 392
8 225 226 247 246 372 373 394 393
8 226 227 248 247 373 374 395 394
8 227 228 249 248 374 375 396 395
8 228 229 250 249 375 376 397 396
8 229 230 251 250 376 377 398 397
8 231 232 253 252 378 379 400 399
8 232 233 254 253 379 380 401 400
8 233 234 255 254 380 381 402 401
8 234 235 256 255 381 382 403 402
8 235 236 257 256 382 383 404 403
8 236 237 258 257 383 384 405 404
8 237 238 259 258 384 385 406 405
8 238 239 260 259 385 386 407 406
8 239 240 261 260 386 387 408 407
8 240 241 262 261 387 388 409 408
8 241 242 263 262 388 389 410 409
8 242 243 264 263 389 390 411 410
8 243 244 265 264 390 391 412 411
8 244 245 266 265 391 392 413 412
8 245 246 267 266 392 393 414 413
8 246 247 268 267 393 394 415 414
8 247 248 269 268 394 395 416 415
8 248 249 270 269 395 396 417 416
8 249 250 271 270 396 397 418 417
8 250 251 272 271 397 398 419 418
8 252 253 274 273 399 400 421 420
8 253 254 275 274 400 401 422 421
8 254 255 276 275 401 402 423 422
8 255 256 277 276 402 403 424 423
8 256 257 278 277 403 404 425 424
8 257 258 279 278 404 405 426 425
8 258 259 280 279 405 406 427 426
8 259 260 281 280 406 407 428 427
8 260 261 282 281 407 408 429 428
8 261 262 283 282 408 409 430 429
8 262 263 284 283 409 410 431 430
8 263 264 285 284 410 411 432 431
8 264 265 286 285 411 412 433 432
8 265 266 287 286 412 413 434 433
8 266 267 288 287 413 414 435 434
8 267 268 289 288 414 415 436 435
8 268 269 290 289 415 416 437 436
8 269 270 291 290 416 417 438 437
8 270 271 292 291 417 418 439 438
8 271 272 293 292 418 419 440 439
8 294 295 316 315 441 442 463 462
8 295 296 317 316 442 443 464 463
8 296 297 318 317 443 444 465 464
8 297 298 319 318 444 445 466 465
8 298 299 320 319 445 446 467 466
8 299 300 321 320 446 447 468 467
8 300 301 322 321 447 448 469 468
8 301 302 323 322 448 449 470 469
8 302 303 324 323 449 450 471 470
8 303 304 325 324 450 451 472 471
8 304 305 326 325 451 452 473 472
8 305 306 327 326 452 453 474 473
8 306 307 328 327 453 454 475 474
8 307 308 329 328 454 455 476 475
8 308 309 330 329 455 456 477 476
8 309 310 331 330 456 457 478 477
8 310 311 332 331 457 458 479 478
8 311 312 333 332 458 459 480 479
8 312 313 334 333 459 460 481 480
8 313 314 335 334 460 461 482 481
8 315 316 337 336 462 463 484 483
8 316 317 338 337 463 464 485 484
8 317 318 339 338 464 465 486 485
8 318 319 340 339 465 466 487 486
8 319 320 341 340 466 467 488 487
8 320 321 342 341 467 468 489 488
8 321 322 343 342 468 469 490 489
8 322 323 344 343 469 470 491 490
8 323 324 345 344 470 471 492 491
8 324 325 346 345 471 472 493 492
8 325 326 347 346 472 473 494 493
8 326 327 348 347 473 474 495 494
8 327 328 349 348 474 475 496 495
8 328 329 350 349 475 476 497 496
8 329 330 351 350 476 477 498 497
8 330 331 352 351 477 478 499 498
8 331 332 353 352 478 479 500 499
8 332 333 354 353 479 480 501 500
8 333 334 355 354 480 481 502 501
8 334 335 356 355 481 482 503 502
8 336 337 358 357 483 484 505 504
8 337 338 359 358 484 485 506 505
8 338 339 360 359 485 486 507 506
8 339 340 361 360 486 487 508 507
8 340 341 362 361 487 488 509 508
8 341 342 363 362 488 489 510 509
8 342 343 364 363 489 490 511 510
8 343 344 365 364 490 491 512 511
8 344 345 366 365 491 492 513 512
8 345 346 367 366 492 493 514 513
8 346 347 368 367 493 494 515 514
8 347 348 369 368 494 495 516 515
8 348 349 370 369 495 496 517 516
8 349 350 371 370 496 497 518 517
8 350 351 372 371 497 498 519 518
8 351 352 373 372 498 499 520 519
8 352 353 374 373 499 500 521 520
8 353 354 375 374 500 501 522 521
8 354 355 376 375 501 502 523 522
8 355 356 377 376 502 503 524 523
8 357 358 379 378 504 505 526 525
8 358 359 380 379 505 506 527 526
8 359 360 381 380 506 507 528 527
8 360 361 382 381 507 508 529 528
8 361 362 383 382 508 509 530 529
8 362 363 384 383 509 510 531 530
8 363 364 385 384 510 511 532 531
8 364 365 386 385 511 512 533 532
8 365 366 387 386 512 513 534 533
8 366 367 388 387 513 514 535 534
8 367 368 389 388 514 515 536 535
8 368 369 390 389 515 516 537 536
8 369 370 391 390 516 517 538 537
8 370 371 392 391 517 518 539 538
8 371 372 393 392 518 519 540 539
8 372 373 394 393 519 520 541 540
8 373 374 395 394 520 521 542 541
8 374 375 396 395 521 522 543 542
8 375 376 397 396 522 523 544 543
8 376 377 398 397 523 524 545 544
8 378 379 400 399 525 526 547 546
8 379 380 401 400 526 527 548 547
8 380 381 402 401 527 528 549 548
8 381 382 403 402 528 529 550 549
8 382 383 404 403 529 530 551 550
8 383 384 405 404 530 531 552 551
8 384 385 406 405 531 532 553 552
8 385 386 407 406 532 533 554 553
8 386 387 408 407 533 534 555 554
8 387 388 409 408 534 535 556 555
8 388 389 410 409 535 536 557 556
8 389 390 411 410 536 537 558 557
8 390 391 412 411 537 538 559 558
8 391 392 413 412 538 539 560 559
8 392 393 414 413 539 540 561 560
8 393 394 415 414 540 541 562 561
8 394 395 416 415 541 542 563 562
8 395 396 417 416 542 543 564 563
8 396 397 418 417 543 544 565 564
8 397 398 419 418 544 545 566 565
8 399 400 421 420 546 547 568 567
8 400 401 422 421 547 548 569 568
8 401 402 423 422 548 549 570 569
8 402 403 424 423 549 550 571 570
8 403 404 425 424 550 551 572 571
8 404 405 426 425 551 552 573 572
8 405 406 427 426 552 553 574 573
8 406 407 428 427 553 554 575 574
8 407 408 429 428 554 555 576 575
8 408 409 430 429 555 556 577 576
8 409 410 431 430 556 557 578 577
8 410 411 432 431 557 558 579 578
8 411 412 433 432 558 559 580 579
8 412 413 434 433 559 560 581 580
8 413 414 435 434 560 561 582 581
8 414 415 436 435 561 562 583 582
8 415 416 437 436 562 563 584 583
8 416 417 438 437 563 564 585 584
8 417 418 439 438 564 565 586 585
8 418 419 440 439 565 566 587 586
8 441 442 463 462 588 589 610 609
8 442 443 464 463 589 590 611 610
8 443 444 465 464 590 591 612 611
8 444 445 466 465 591 592 613 612
8 445 446 467 466 592 593 614 613
8 446 447 468 467 593 594 615 614
8 447 448 469 468 594 595 616 615
8 448 449 470 469 595 596 617 616
8 449 450 471 470 596 597 618 617
8 450 451 472 471 597 598 619 618
8 451 452 473 472 598 599 620 619
8 452 453 474 473 599 600 621 620
8 453 454 475 474 600 601 622 621
8 454 455 476 475 601 602 623 622
8 455 456 477 476 602 603 624 623
8 456 457 478 477 603 604 625 624
8 457 458 479 478 604 605 626 625
8 458 459 480 479 605 606 627 626
8 459 460 481 480 606 607 628 627
8 460 461 482 481 607 608 629 628
8 462 463 484 483 609 610 631 630
8 463 464 485 484 610 611 632 631
8 464 465 486 485 611 612 633 632
8 465 466 487 486 612 613 634 633
8 466 467 488 487 613 614 635 634
8 467 468 489 488 614 615 636 635
8 468 469 490 489 615 616 637 636
8 469 470 491 490 616 617 638 637
8 470 471 492 491 617 618 639 638
8 471 472 493 492 618 619 640 639
8 472 473 494 493 619 620 641 640
8 473 474 495 494 620 621 642 641
8 474 475 496 495 621 622 643 642
8 475 476 497 496 622 623 644 643
8 476 477 498 497 623 624 645 644
8 477 478 499 498 624 625 646 645
8 478 479 500 499 625 626 647 646
8 479 480 501 500 626 627 648 647
8 480 481 502 501 627 628 649 648
8 481 482 503 502 628 629 650 649
8 483 484 505 504 630 631 652 651
8 484 485 506 505 631 632 653 652
8 485 486 507 506 632 633 654 653
8 486 487 508 507 633 634 655 654
8 487 488 509 508 634 635 656 655
8 488 489 510 509 635 636 657 656
8 489 490 511 510 636 637 658 657
8 490 491 512 511 637 638 659 658
8 491 492 513 512 638 639 660 659
8 492 493 514 513 639 640 661 660
8 493 494 515 514 640 641 662 661
8 494 495 516 515 641 642 663 662
8 495 496 517 516 642 643 664 663
8 496 497 518 517 643 644 665 664
8 497 498 519 518 644 645 666 665
8 498 499 520 519 645 646 667 666
8 499 500 521 520 646 647 668 667
8 500 501 522 521 647 648 669 668
8 501 502 523 522 648 649 670 669
8 502 503 524 523 649 650 671 670
8 504 505 526 525 651 652 673 672
8 505 506 527 526 652 653 674 673
8 506 507 528 527 653 654 675 674
8 507 508 529 528 654 655 676 675
8 508 509 530 529 655 656 677 676
8 509 510 531 530 656 657 678 677
8 510 511 532 531 657 658 679 678
8 511 512 533 532 658 659 680 679
8 512 513 534 533 659 660 681 680
8 513 514 535 534 660 661 682 681
8 514 515 536 535 661 662 683 682
8 515 516 537 536 662 663 684 683
8 516 517 538 537 663 664 685 684
8 517 518 539 538 664 665 686 685
8 518 519 540 539 665 666 687 686
8 519 520 541 540 666 667 688 687
8 520 521 542 541 667 668 689 688
8 521 522 543 542 668 669 690 689
8 522 523 544 543 669 670 691 690
8 523 524 545 544 670 671 692 691
8 525 526 547 546 672 673 694 693
8 526 527 548 547 673 674 695 694
8 527 528 549 548 674 675 696 695
8 528 529 550 549 675 676 697 696
8 529 530 551 550 676 677 698 697
8 530 531 552 551 677 678 699 698
8 531 532 553 552 678 679 700 699
8 532 533 554 553 679 680 701 700
8 533 534 555 554 680 681 702 701
8 534 535 556 555 681 682 703 702
8 535 536 557 556 682 683 704 703
8 536 537 558 557 683 684 705 704
8 537 538 559 558 684 685 706 705
8 538 539 560 559 685 686 707 706
8 539 540 561 560 686 687 708 707
8 540 541 562 561 687 688 709 708
8 541 542 563 562 688 689 710 709
8 542 543 564 563 689 690 711 710
8 543 544 565 564 690 691 712 711
8 544 545 566 565 691 692 713 712
8 546 547 568 567 693 694 715 714
8 547 548 569 568 694 695 716 715
8 548 549 570 569 695 696 717 716
8 549 550 571 570 696 697 718 717
8 550 551 572 571 697 698 719 718
8 551 552 573 572 698 699 720 719
8 552 553 574 573 699 700 721 720
8 553 554 575 574 700 701 722 721
8 554 555 576 575 701 702 723 722
8 555 556 577 576 702 703 724 723
8 556 557 578 577 703 704 725 724
8 557 558 579 578 704 705 726 725
8 558 559 580 579 705 706 727 726
8 559 560 581 580 706 707 728 727
8 560 561 582 581 707 708 729 728
8 561 562 583 582 708 709 730 729
8 562 563 584 583 709 710 731 730
8 563 564 585 584 710 711 732 731
8 564 565 586 585 711 712 733 732
8 565 566 587 586 712 713 734 733
8 588 589 610 609 735 736 757 756
8 589 590 611 610 736 737 758 757
8 590 591 612 611 737 738 759 758
8 591 592 613 612 738 739 760 759
8 592 593 614 613 739 740 761 760
8 593 594 615 614 740 741 762 761
8 594 595 616 615 741 742 763 762
8 595 596 617 616 742 743 764 763
8 596 597 618 617 743 744 765 764
8 597 598 619 618 744 745 766 765
8 598 599 620 619 745 746 767 766
8 599 600 621 620 746 747 768 767
8 600 601 622 621 747 748 769 768
8 601 602 623 622 748 749 770 769
8 602 603 624 623 749 750 771 770
8 603 604 625 624 750 751 772 771
8 604 605 626 625 751 752 773 772
8 605 606 627 626 752 753 774 773
8 606 607 628 627 753 754 775 774
8 607 608 629 628 754 755 776 775
8 609 610 631 630 756 757 778 777
8 610 611 632 631 757 758 779 778
8 611 612 633 632 758 759 780 779
8 612 613 634 633 759 760 781 780
8 613 614 635 634 760 761 782 781
8 614 615 636 635 761 762 783 782
8 615 616 637 636 762 763 784 783
8 616 617 638 637 763 764 785 784
8 617 618 639 638 764 765 786 785
8 618 619 640 639 765 766 787 786
8 619 620 641 640 766 767 788 787
8 620 621 642 641 767 768 789 788
8 621 622 643 642 768 769 790 789
8 622 623 644 643 769 770 791 790
8 623 624 645 644 770 771 792 791
8 624 625 646 645 771 772 793 792
8 625 626 647 646 772 773 794 793
8 626 627 648 647 773 774 795 794
8 627 628 649 648 774 775 796 795
8 628 629 650 649 775 776 797 796
8 630 631 652 651 777 778 799 798
8 631 632 653 652 778 779 800 799
8 632 633 654 653 779 780 801 800
8 633 634 655 654 780 781 802 801
8 634 635 656 655 781 782 803 802
8 635 636 657 656 782 783 804 803
8 636 637 658 657 783 784 805 804
8 637 638 659 658 784 785 806 805
8 638 639 660 659 785 786 807 806
8 639 640 661 660 786 787 808 807
8 640 641 662 661 787 788 809 808
8 641 642 663 662 788 789 810 809
8 642 643 664 663 789 790 811 810
8 643 644 665 664 790 791 812 811
8 644 645 666 665 791 792 813 812
8 645 646 667 666 792 793 814 813
8 646 647 668 667 793 794 815 814
8 647 648 669 668 794 795 816 815
8 648 649 670 669 795 796 817 816
8 649 650 671 670 796 797 818 817
8 651 652 673 672 798 799 820 819
8 652 653 674 673 799 800 821 820
8 653 654 675 674 800 801 822 821
8 654 655 676 675 801 802 823 822
8 655 656 677 676 802 803 824 823
8 656 657 678 677 803 804 825 824
8 657 658 679 678 804 805 826 825
8 658 659 680 679 805 806 827 826
8 659 660 681 680 806 807 828 827
8 660 661 682 681 807 808 829 828
8 661 662 683 682 808 809 830 829
8 662 663 684 683 809 810 831 830
8 663 664 685 684 810 811 832 831
8 664 665 686 685 811 812 833 832
8 665 666 687 686 812 813 834 833
8 666 667 688 687 813 814 835 834
8 667 668 689 688 814 815 836 835
8 668 669 690 689 815 816 837 836
8 669 670 691 690 816 817 838 837
8 670 671 692 691 817 818 839 838
8 672 673 694 693 819 820 841 840
8 673 674 695 694 820 821 842 841
8 674 675 696 695 821 822 843 842
8 675 676 697 696 822 823 844 843
8 676 677 698 697 823 824 845 844
8 677 678 699 698 824 825 846 845
8 678 679 700 699 825 826 847 846
8 679 680 701 700 826 827 848 847
8 680 681 702 701 827 828 849 848
8 681 682 703 702 828 829 850 849
8 682 683 704 703 829 830 851 850
8 683 684 705 704 830 831 852 851
8 684 685 706 705 831 832 853 852
8 685 686 707 706 832 833 854 853
8 686 687 708 707 833 834 855 854
8 687 688 709 708 834 835 856 855
8 688 689 710 709 835 836 857 856
8 689 690 711 710 836 837 858 857
8 690 691 712 711 837 838 859 858
8 691 692 713 712 838 839 860 859
8 693 694 715 714 840 841 862 861
8 694 695 716 715 841 842 863 862
8 695 696 717 716 842 843 864 863
8 696 697 718 717 843 844 865 864
8 697 698 719 718 844 845 866 865
8 698 699 720 719 845 846 867 866
8 699 700 721 720 846 847 868 867
8 700 701 722 721 847 848 869 868
8 701 702 723 722 848 849 870 869
8 702 703 724 723 849 850 871 870
8 703 704 725 724 850 851 872 871
8 704 705 726 725 851 852 873 872
8 705 706 727 726 852 853 874 873
8 706 707 728 727 853 854 875 874
8 707 708 729 728 854 855 876 875
8 708 709 730 729 855 856 877 876
8 709 710 731 730 856 857 878 877
8 710 711 732 731 857 858 879 878
8 711 712 733 732 858 859 880 879
8 712 713 734 733 859 860 881 880
8 735 736 757 756 882 883 904 903
8 736 737 758 757 883 884 905 904
8 737 738 759 758 884 885 906 905
8 738 739 760 759 885 886 907 906
8 739 740 761 760 886 887 908 907
8 740 741 762 761 887 888 909 908
8 741 742 763 762 888 889 910 909
8 742 743 764 763 889 890 911 910
8 743 744 765 764 890 891 912 911
8 744 745 766 765 891 892 913 912
8 745 746 767 766 892 893 914 913
8 746 747 768 767 893 894 915 914
8 747 748 769 768 894 895 916 915
8 748 749 770 769 895 896 917 916
8 749 750 771 770 896 897 918 917
8 750 751 772 771 897 898 919 918
8 751 752 773 772 898 899 920 919
8 752 753 774 773 899 900 921 920
8 753 754 775 774 900 901 922 921
8 754 755 776 775 901 902 923 922
8 756 757 778 777 903 904 925 924
8 757 758 779 778 904 905 926 925
8 758 759 780 779 905 906 927 926
8 759 760 781 780 906 907 928 927
8 760 761 782 781 907 908 929 928
8 761 762 783 782 908 909 930 929
8 762 763 784 783 909 910 931 930
8 763 764 785 784 910 911 932 931
8 764 765 786 785 911 912 933 932
8 765 766 787 786 912 913 934 933
8 766 767 788 787 913 914 935 934
8 767 768 789 788 914 915 936 935
8 768 769 790 789 915 916 937 936
8 769 770 791 790 916 917 938 937
8 770 771 792 791 917 918 939 938
8 771 772 793 792 918 919 940 939
8 772 773 794 793 919 920 941 940
8 773 774 795 794 920 921 942 941
8 774 775 796 795 921 922 943 942
8 775 776 797 796 922 923 944 943
8 777 778 799 798 924 925 946 945
8 778 779 800 799 925 926 947 946
8 779 780 801 800 926 927 948 947
8 780 781 802 801 927 928 949 948
8 781 782 803 802 928 929 950 949
8 782 783 804 803 929 930 951 950
8 783 784 805 804 930 931 952 951
8 784 785 806 805 931 932 953 952
8 785 786 807 806 932 933 954 953
8 786 787 808 807 933 934 955 954
8 787 788 809 808 934 935 956 955
8 788 789 810 809 935 936 957 956
8 789 790 811 810 936 937 958 957
8 790 791 812 811 937 938 959 958
8 791 792 813 812 938 939 960 959
8 792 793 814 813 939 940 961 960
8 793 794 815 814 940 941 962 961
8 794 795 816 815 941 942 963 962
8 795 796 817 816 942 943 964 963
8 796 797 818 817 943 944 965 964
8 798 799 820 819 945 946 967 966
8 799 800 821 820 946 947 968 967
8 800 801 822 821 947 948 969 968
8 801 802 823 822 948 949 970 969
8 802 803 824 823 949 950 971 970
8 803 804 825 824 950 951 972 971
8 804 805 826 825 951 952 973 972
8 805 806 827 826 952 953 974 973
8 806 807 828 827 953 954 975 974
8 807 808 829 828 954 955 976 975
8 808 809 830 829 955 956 977 976
8 809 810 831 830 956 957 978 977
8 810 811 832 831 957 958 979 978
8 811 812 833 832 958 959 980 979
8 812 813 834 833 959 960 981 980
8 813 814 835 834 960 961 982 981
8 814 815 836 835 961 962 983 982
8 815 816 837 836 962 963 984 983
8 816 817 838 837 963 964 985 984
8 817 818 839 838 964 965 986 985
8 819 820 841 840 966 967 988 987
8 820 821 842 841 967 968 989 988
8 821 822 843 842 968 969 990 989
8 822 823 844 843 969 970 991 990
8 823 824 845 844 970 971 992 991
8 824 825 846 845 971 972 993 992
8 825 826 847 846 972 973 994 993
8 826 827 848 847 973 974 995 994
8 827 828 849 848 974 975 996 995
8 828 829 850 849 975 976 997 996
8 829 830 851 850 976 977 998 997
8 830 831 852 851 977 978 999 998
8 831 832 853 852 978 979 1000 999
8 832 833 854 853 979 980 1001 1000
8 833 834 855 854 980 981 1002 1001
8 834 835 856 855 981 982 1003 1002
8 835 836 857 856 982 983 1004 1003
8 836 837 858 857 983 984 1005 1004
8 837 838 859 858 984 985 1006 1005
8 838 839 860 859 985 986 1007 1006
8 840 841 862 861 987 988 1009 1008
8 841 842 863 862 988 989 1010 1009
8 842 843 864 863 989 990 1011 1010
8 843 844 865 864 990 991 1012 1011
8 844 845 866 865 991 992 1013 1012
8 845 846 867 866 992 993 1014 1013
8 846 847 868 867 993 994 1015 1014
8 847 848 869 868 994 995 1016 1015
8 848 849 870 869 995 996 1017 1016
8 849 850 871 870 996 997 1018 1017
8 850 851 872 871 997 998 1019 1018
8 851 852 873 872 998 999 1020 1019
8 852 853 874 873 999 1000 1021 1020
8 853 854 875 874 1000 1001 1022 1021
8 854 855 876 875 1001 1002 1023 1022
8 855 856 877 876 1002 1003 1024 1023
8 856 857 878 877 1003 1004 1025 1024
8 857 858 879 878 1004 1005 1026 1025
8 858 859 880 879 1005 1006 1027 1026
8 859 860 881 880 1006 1007 1028 1027
CELL_TYPES 720
12
12
12
12
12
12
12
12
12
12
12
12
12
12
12
12
12
12
12
12
12
12
12
12
12
12
12
12
12
12
12
12
12
12
12
12
12
12
12
12
12
12
12
12
12
12
12
12
12
12
12
12
12
12
12
12
12
12
12
12
12
12
12
12
12
12
12
12
12
12
12
12
12
12
12
12
12
12
12
12
12
12
12
12
12
12
12
12
12
12
12
12
12
12
12
12
12
12
12
12
12
12
12
12
12
12
12
12
12
12
12
12
12
12
12
12
12
12
12
12
12
12
12
12
12
12
12
12
12
12
12
12
12
12
12
12
12
12
12
12
12
12
12
12
12
12
12
12
12
12
12
12
12
12
12
12
12
12
12
12
12
12
12
12
12
12
12
12
12
12
12
12
12
12
12
12
12
12
12
12
12
12
12
12
12
12
12
12
12
12
12
12
12
12
12
12
12
12
12
12
12
12
12
12
12
12
12
12
12
12
12
12
12
12
12
12
12
12
12
12
12
12
12
12
12
12
12
12
12
12
12
12
12
12
12
12
12
12
12
12
12
12
12
12
12
12
12
12
12
12
12
12
12
12
12
12
12
12
12
12
12
12
12
12
12
12
12
12
12
12
12
12
12
12
12
12
12
12
12
12
12
12
12
12
12
12
12
12
12
12
12
12
12
12
12
12
12
12
12
12
12
12
12
12
12
12
12
12
12
12
12
12
12
12
12
12
12
12
12
12
12
12
12
12
12
12
12
12
12
12
12
12
12
12
12
12
12
12
12
12
12
12
12
12
12
12
12
12
12
12
12
12
12
12
12
12
12
12
12
12
12
12
12
12
12
12
12
12
12
12
12
12
12
12
12
12
12
12
12
12
12
12
12
12
12
12
12
12
12
12
12
12
12
12
12
12
12
12
12
12
12
12
12
12
12
12
12
12
12
12
12
12
12
12
12
12
12
12
12
12
12
12
12
12
12
12
12
12
12
12
12
12
12
12
12
12
12
12
12
12
12
12
12
12
12
12
12
12
12
12
12
12
12
12
12
12
12
12
12
12
12
12
12
12
12
12
12
12
12
12
12
12
12
12
12
12
12
12
12
12
12
12
12
12
12
12
12
12
12
12
12
12
12
12
12
12
12
12
12
12
12
12
12
12
12
12
12
12
12
12
12
12
12
12
12
12
12
12
12
12
12
12
12
12
12
12
12
12
12
12
12
12
12
12
12
12
12
12
12
12
12
12
12
12
12
12
12
12
12
12
12
12
12
12
12
12
12
12
12
12
12
12
12
12
12
12
12
12
12
12
12
12
12
12
12
12
12
12
12
12
12
12
12
12
12
12
12
12
12
12
12
12
12
12
12
12
12
12
12
12
12
12
12
12
12
12
12
12
12
12
12
12
12
12
12
12
12
12
12
12
12
12
12
12
12
12
12
12
12
12
12
12
12
12
12
12
12
12
12
12
12
12
12
12
12
12
12
12
12
12
12
12
12
12
12
12
12
12
12
12
12
12
12
12
12
12
12
12
12
12
12
12
12
12
12
12
12
12
12
12
12
12
12
12
12
12
12
12
12
12
12
12
12
12
12
12
12
12
12
12
12
12
12
12
12
12
12
12
12
12
12
12
12
12
12
12
12
12
12
12
POINT_DATA 1029
VECTORS Disp float
0.0 0.0 0.0
0.03292726542713263 -1.1939917361015957 0.028579618259497456
0.07929108775497382 -2.249957870359555 0.06153790485115405
0.14341577131740024 -3.2671148333833337 0.08785678689951539
0.2346691862514902 -4.217885732925069 0.11170545644528178
0.3543311869090256 -5.079854288453172 0.131423425337215
0.5019078542540015 -5.829335232952948 0.14619049618308338
0.676506462284205 -6.44342393971629 0.1549576160295407
0.8757409328101029 -6.899792102586384 0.15699048486978076
1.0936838301657932 -7.179376322465781 0.15349040921985505
1.3205096185779475 -7.272537603611786 0.1503226882931111
1.5474160202713496 -7.1807404467734886 0.15361662383845395
1.7656164846783962 -6.902552167074116 0.1572871909649578
1.9653347780841308 -6.447638045036551 0.15552274571877334
2.1407328504525216 -5.835072991478981 0.14719264371711738
2.2895660995405542 -5.087160847287244 0.13313313796830856
2.411140281474072 -4.226718694094754 0.11450618898240568
2.50524343005004 -3.2772353291550953 0.09240967729130274
2.573518723780839 -2.260899023389432 0.06825611063156657
2.627041902823682 -1.2048730323475147 0.040578761710495355
2.677152404316424 0.0 -0.0002316847591887777
0.46861190990144985 -0.050986635013402025 -0.01500570972601153
0.48883736478443185 -1.1886915748961724 0.014971707892304873
0.5051427935751214 -2.2571466175989228 0.03898334191772872
0.5471629461681886 -3.2755596940478378 0.0593338013183501
0.6064442866648251 -4.230032639853081 0.07636621841517151
0.6847157409569322 -5.095247981410626 0.0903807929428386
0.7815292421851965 -5.848007220787772 0.10076620223908798
0.8962704104505494 -6.465241086959771 0.10704372570274245
1.0273739038837966 -6.9243404837935145 0.10888411291825191
1.1710250495714096 -7.205513277766319 0.10704185433539654
1.3207553402179175 -7.298764782106444 0.10508233103652558
1.470570875009538 -7.206899848206014 0.10699841312171277
1.6144923305098078 -6.927149634253428 0.10883488280881734
1.7460961302625946 -6.469539763885284 0.10707404650500027
1.8616467409745898 -5.8538791163222115 0.10103057244775515
1.959698099270647 -5.102759687232176 0.09113038917577995
2.039804388860413 -4.239166409975298 0.07800855393138603
2.1017273067483453 -3.2861122989581735 0.06241249807526752
2.1475734749750206 -2.2687079289075025 0.04456505613086099
2.1693345118453413 -1.2004344477733255 0.023132474630402303
2.1924842619055327 -0.05380655199275641 -0.006051757510029518
0.9110077493969898 -0.0885259026930749 -0.024522049419527736
0.9214368378717143 -1.1869128123366326 -0.0013270220724505217
0.9232565457710427 -2.2587766766411432 0.01581530235830294
0.9395608999594652 -3.2806612895463756 0.028452080593791545
0.9675643110049514 -4.236999665252673 0.038120970190746555
1.0052411798060272 -5.104270422317021 0.045500726483861484
1.0525404238980127 -5.858981200356995 0.05063670087351005
1.109226961374359 -6.478175172223969 0.05342406448249193
1.1748832019699573 -6.938965302682336 0.05380955055927427
1.247245028056669 -7.220477973115762 0.05192583730359618
1.3209501716692533 -7.312143175368742 0.04980217661269166
1.394742196101856 -7.221888805554694 0.05171302538662747
1.4673778394712598 -6.941826686343006 0.05341433334095661
1.533534653007486 -6.482561519941695 0.052918645808845796
1.5910156773941744 -5.864987805146526 0.050158115011365356
1.6395001741415192 -5.111980475081086 0.04528886815945888
1.6788803312567064 -4.246417668380478 0.038565598639882126
1.7092567730787103 -3.291594035528015 0.03017032456175795
1.7287326660251268 -2.270841264542355 0.019672827608467343
1.733145262925694 -1.198241531119176 0.005176730762741395
1.744832547436848 -0.09286973569091365 -0.015410719544081831
1.3404004590940144 -0.1125837959301955 -0.033021155270263634
1.3432030611655976 -1.1872143919909053 -0.01717909357574629
1.3340087394064115 -2.257421994732688 -0.007595418242773071
1.3271515307602713 -3.2816692707941884 -0.003131007234498372
1.3235140028884067 -4.239093328713547 -0.001265020404297535
1.3210649978213582 -5.107078201169145 -0.0008435128698692054
1.319406791287391 -5.8625193592173845 -0.0013490312671499236
1.3187927367757284 -6.482565940978731 -0.0025027542186407802
1.3201686785900164 -6.9441833858758555 -0.00404569615490397
1.3229550529000456 -7.224469826996124 -0.006281909248271981
1.3211239644841775 -7.311320536910266 -0.008981609332725508
1.3193801251125925 -7.225906007979154 -0.006665342469283742
1.3224398718451411 -6.947098738853453 -0.004789830430671215
1.324309531471968 -6.487041228545127 -0.003549650057464467
1.3244640308324842 -5.868658971104524 -0.002579185015058441
1.3239202573273317 -5.114978906772052 -0.0020335431192563193
1.3230117186599926 -4.248772309347404 -0.002026162505323036
1.3214176734182606 -3.2929489819494657 -0.002833795571708316
1.316803513464013 -2.2696327335880966 -0.005388445303589669
1.308993772852857 -1.1980918684770052 -0.01231036510309195
1.3124904697206794 -0.11805548841820968 -0.025340097153545363
1.7662753769999944 -0.1254622163418892 -0.041754918511387656
1.7623430101718731 -1.1876958721228181 -0.03223205647882829
1.7429579061212275 -2.2541066183174205 -0.030620835448207262
1.7146710998681427 -3.278862553654187 -0.0345358649070419
1.679644802596517 -4.236235670874046 -0.040580616941494556
1.6369215788357572 -5.103733411142225 -0.04714045713954864
1.586376871246719 -5.858663421889197 -0.05331329494659101
1.528318061852285 -6.478399686595966 -0.058451424055934245
1.4649747942474909 -6.940239833316573 -0.06184079326794136
1.3990396042748265 -7.218160412152949 -0.06332646740848848
1.3213024437827559 -7.2942757459081 -0.0657488573930271
1.2436533012024469 -7.219622809930518 -0.06388334365956393
1.1779921796132056 -6.943210506695786 -0.06294013857280017
1.1151375675738873 -6.482964661692843 -0.0600507021026921
1.0578236601313136 -5.864934091496726 -0.055312563905196295
1.0083227165463138 -5.111814125250962 -0.049334022708875616
0.9669703901994772 -4.246155167581808 -0.04258545789599549
0.9335838778424561 -3.290403422317433 -0.03570927523748648
0.9068226239865743 -2.2663437956046306 -0.030052406043997396
0.8882290599200647 -1.1982864469054748 -0.029041207317943424
0.8846756719864031 -0.13165036316716858 -0.035752712658655206
2.194998976965691 -0.13028082652950412 -0.05116198470032774
2.18575590609313 -1.1871984022938686 -0.04643549826676856
2.156571242307863 -2.2491297281250207 -0.05273871840914539
2.1075970784160076 -3.272515880248187 -0.06490494640458132
2.0410693456766937 -4.22838227295501 -0.07862048445978899
1.9576257250043343 -5.094156026164288 -0.09185773395622707
1.8575432466596913 -5.8474346987146 -0.10338482577369713
1.7416510792741458 -6.465420443081788 -0.11212399522298673
1.6107331553810467 -6.92685281551963 -0.11701824407607975
1.475012034930054 -7.2033359233021645 -0.1153526792506302
1.321511748681992 -7.257918222004207 -0.11306724932601582
1.1681024860169753 -7.204825724329281 -0.11608730540185272
1.0326628669877895 -6.929880767538007 -0.11848222654770331
0.9022399593012446 -6.470076867718447 -0.11429187352581417
0.7870854170706572 -5.853835289783471 -0.10617864360121977
0.6879988948246099 -5.102407723977564 -0.09509287367756103
0.6057696304003775 -4.238508890262282 -0.08192438566632688
0.540495408884914 -3.2842454416618594 -0.06761396142357805
0.49244706888574546 -2.26138122048953 -0.05384966800221923
0.4635893908787203 -1.1976472680998287 -0.044909781693956485
0.4544419893968827 -0.13681362773918246 -0.04678317455911198
2.630099771884427 -0.13126349644936655 -0.06091933703846207
2.619626004879542 -1.185528603836679 -0.05981731371220169
2.582548706751077 -2.2425867191222966 -0.07319394863098744
2.5121213679948204 -3.26254001913582 -0.09288076531535487
2.4133056106040804 -4.2153784827884735 -0.113494889935197
2.2882804029736232 -5.078170192041483 -0.132623450556716
2.1374783369776944 -5.82844561198325 -0.14868236639680094
1.9618435521485789 -6.443887189412192 -0.16017484619907368
1.7630211262443927 -6.901516534552056 -0.16568544234094834
1.541771138147478 -7.182771136541098 -0.15981407257315158
1.321783022832301 -7.200000000000002 -0.13581094815535122
1.1018934412012358 -7.184290627342739 -0.16073199638702462
0.8809460282684493 -6.904605879936781 -0.1675260687637488
0.6826479691564341 -6.44863978426093 -0.16293161513339327
0.5077769096905163 -5.834978922313646 -0.15230201265549986
0.3579685882816317 -5.086586627903044 -0.136945818960201
0.23406229778599072 -4.225677768502697 -0.11815978459585738
0.1361755999794065 -3.274385359740353 -0.09719525969310153
0.0660181285652712 -2.254813830558965 -0.07603088710657933
0.028556706952424748 -1.195887636587662 -0.059903554584359524
0.017811209200741588 -0.13786929416174568 -0.05797325864433939
0.0 0.0 0.0
0.03080027254837751 -1.128503693075858 0.019023040021244254
0.07808930047793329 -2.1582317353591907 0.036333063172928025
0.1450299729045533 -3.147336352887804 0.052421006528716896
0.23742938968926872 -4.072553848597048 0.06483657956051139
0.35622213642077266 -4.913317288380678 0.07355164676795047
0.5009773939440838 -5.648403185773661 0.0779683626470935
0.6710048535941929 -6.2574266526544395 0.07767824469862074
0.8656314439340409 -6.720443016570329 0.07287274515692496
1.0840603745054271 -7.016493637694358 0.0656012892185594
1.3207764359042624 -7.121273516704513 0.06139516207409388
1.557519993099904 -7.017028831360064 0.06564451444064404
1.776035246523839 -6.721511753024637 0.07299039161795708
1.970819956823515 -6.259025054759339 0.07793917904586467
2.1411044663808743 -5.6505225015074325 0.0784919580192034
2.2862687380969087 -4.9159339840830105 0.07451862389919903
2.405717213773203 -4.075605426992243 0.06652079431657298
2.4992038973225625 -3.150670484776099 0.05511217548233982
2.5679120130625077 -2.1615492071193643 0.040820124448906585
2.6186924178779374 -1.1316776555170083 0.024199192768194412
2.6577908733993127 0.0 0.021241245668568106
0.45535255929011087 -0.03281099268292904 0.002803858436074739
0.47379006362322373 -1.126861425963078 0.008721789454287025
0.4963058975235328 -2.165517654327635 0.022683257559980248
0.5412671168255856 -3.1564556173359417 0.034132092332063046
0.6027797864090654 -4.0850868558299505 0.043008411025812446
0.6818963102835771 -4.929037328821133 0.04894297740810458
0.7783115895967827 -5.667354475520151 0.051848092341769125
0.8915147733055 -6.279583757555482 0.051606706247236046
1.0207950440607119 -6.745884959780694 0.04849039383461509
1.1651709910269636 -7.045299336001885 0.04367125872827782
1.3208959990758609 -7.152175139447315 0.040590599698134604
1.4766480331917977 -7.045840370455933 0.04355979860476506
1.6211085603305344 -6.746965769194575 0.048291784228376995
1.7505425038181706 -6.281201463454955 0.05137743312667646
1.863991925884136 -5.669502492818433 0.05169115887476433
1.9607893068547173 -4.931696868602344 0.04903175469566022
2.0405061835183713 -4.088204811342038 0.04359873407579687
2.1029727045954907 -3.1598960034352994 0.03564709161694293
2.149570302323501 -2.1690442596213013 0.025505817553125323
2.174955794250396 -1.1304847618879585 0.01435841626578337
2.1950373763405535 -0.03337667215630945 0.01607571232001821
0.8926400172020841 -0.05777173977460662 -0.005048016575162035
0.9028618711322718 -1.1266407273072347 -0.0003938037592104883
0.9107105774522105 -2.1682210116864873 0.008777582102026983
0.9313074872169457 -3.162006109009199 0.01623818534952096
0.9620581729289602 -4.092421247552549 0.02142043911926451
1.0014766125897052 -4.938307296785248 0.024548655630025448
1.0495606821737486 -5.678503675445345 0.025752886285581825
1.105870622869306 -6.292529492749074 0.025143663234615154
1.169623643060998 -6.760651991226034 0.022862268854369722
1.2409945092582249 -7.062739240407056 0.019011599683727676
1.3210252150217376 -7.172853024492102 0.015611893504870057
1.4010821743203714 -7.063288778797591 0.0187475418705655
1.4725345600038495 -6.761750097745561 0.02235243622620083
1.5364332437607888 -6.294173907405361 0.024433869214450725
1.5929700957232897 -5.680688970213775 0.02493568941341842
1.641394054506098 -4.941017588223451 0.02379139288496104
1.6813238534780806 -4.095609687776713 0.021006017172270467
1.712870640134173 -3.1655454128277403 0.016599739383720676
1.7347895249034204 -2.1719459479907757 0.010554447591934175
1.7440196073430918 -1.1300480715517967 0.004290926462354916
1.7548529289292945 -0.05830123014167529 0.004976247874656002
1.3209092678565273 -0.07453895043574776 -0.01562941727799812
1.3243740978349612 -1.127411747079788 -0.01041486491104875
1.32058295794013 -2.168101823717788 -0.005090502261725068
1.3185500223224542 -3.163639172484551 -0.0017031506581579202
1.3181729178967307 -4.09487928503887 -0.00023397380823508756
1.3179349069011652 -4.941370883706125 -4.450361632582955e-05
1.3176822845037812 -5.682191320335184 -0.000705346666266941
1.3172509354814168 -6.296643615773399 -0.001960462386351572
1.3156824957486395 -6.765132922919381 -0.0037522209681621526
1.314404471277737 -7.069818437121852 -0.006998440265683154
1.3211592207496496 -7.18608219972715 -0.01161411320391571
1.3279392710669575 -7.070379013247268 -0.0074153858545171186
1.326738967247297 -6.766253209544283 -0.004573731049489205
1.3253061827727455 -6.298321411802497 -0.0031506554332606175
1.32507822278526 -5.684421078504975 -0.002181398121898625
1.3251137641116686 -4.944137476127482 -0.0016386531552650056
1.3252817703037776 -4.098136965208436 -0.0016413096686032662
1.3255110954971927 -3.1672771683138667 -0.002423942775127849
1.3242972754755111 -2.1718629983610995 -0.00433235142296551
1.3211387051826864 -1.1304960352234732 -0.006867196923021922
1.3249021882752343 -0.07509580902524539 -0.0078650347234524
1.7462377007553962 -0.08408761276041027 -0.026549624255746224
1.7435721027731335 -1.12810230374259 -0.02084173307695803
1.7290850520772378 -2.1659972856736585 -0.01889084118594452
1.705743355625381 -3.161583949866051 -0.019566597653417575
1.6743956809138525 -4.092462114440489 -0.02182073350624389
1.634409530403872 -4.938306305954321 -0.024597450187826216
1.5857437999987725 -5.6785192262689685 -0.02714994386181696
1.528778920041904 -6.292183278022138 -0.029052770301874295
1.4625563875456187 -6.7594034932427505 -0.030213057396996597
1.3877870389925304 -7.066125506463984 -0.03200191635677408
1.3212960280602974 -7.194040362278522 -0.03829045695299084
1.2548294259508053 -7.066699656210045 -0.03257461696392187
1.1801341256119966 -6.760550811650727 -0.031352434415079525
1.1140373636910987 -6.29390099330767 -0.030733877780668727
1.0572523335521433 -5.680800349844373 -0.029300901659611182
1.0088220744318086 -4.941132912888836 -0.02705233133080679
0.9691341960365154 -4.095788603167234 -0.024250973375655786
0.9381617187736613 -3.165289085474605 -0.021398091828966827
0.9152157840175781 -2.169724273682889 -0.01922791415436316
0.9009590330628761 -1.1309359869637707 -0.018506562115980316
0.8984431618648209 -0.08469295541428587 -0.02068505831562637
2.172904371119625 -0.08819842795068866 -0.03656959387423402
2.165060407754303 -1.1279605835300694 -0.031017716490232456
2.1401871618549184 -2.162142440056668 -0.03251440314887578
2.0960808687584325 -3.1559953417372997 -0.03723598268873847
2.0338318074441637 -4.085079464118535 -0.04319603047950832
1.9540207211773541 -4.929035152837251 -0.04886720783069148
1.856967190989336 -5.667311367690495 -0.05321171888829071
1.7430107240290031 -6.279269977580759 -0.05548578073821432
1.6139626177048598 -6.743628090568979 -0.05561761186273445
1.4649131677719884 -7.049400731761685 -0.053884852829451615
1.3214335160445447 -7.198761832849247 -0.060559948118553204
1.1779776476775365 -7.049991156137725 -0.05461863546995345
1.028999490806173 -6.744807631589552 -0.05708663028660963
0.9000692748916793 -6.281034761020539 -0.05767846732759392
0.7862730969575713 -5.66965148251968 -0.056071511758544725
0.6894108818525501 -4.93192726836382 -0.05223689557752409
0.6097982515994385 -4.088469948333907 -0.04673136659497569
0.5477074669594457 -3.1597401978341253 -0.04029727132194014
0.5036500041825792 -2.1658240487254248 -0.0341034336638667
0.4787156948154231 -1.1306428655442171 -0.029962823580265956
0.47088732975034936 -0.08882385582955164 -0.03235281901301787
2.603284091416216 -0.08951146932941315 -0.044261543328404526
2.5927454298704307 -1.1267533821840585 -0.040540711459019926
2.558131649875076 -2.156459320873743 -0.04603475324967003
2.492651148791128 -3.146694706546344 -0.054974711999885004
2.399313872226052 -4.072516834333485 -0.06471883979376972
2.2797137838871464 -4.913249937166066 -0.0732604678187463
2.1342529209992995 -5.64836978528347 -0.07922306555297691
1.963417047049816 -6.256907255494485 -0.0816596860068419
1.7691806445570104 -6.719581104581246 -0.07994067639074895
1.5581057964639975 -7.015606119017243 -0.07366533626279041
1.3215663572805874 -7.200000000000002 -0.07084534783103334
1.085050348489782 -7.016215738669065 -0.07456755222764345
0.8740451635342107 -6.7207985778882025 -0.08175580144610722
0.6799217111221344 -6.258727185204417 -0.08439351286198019
0.5092336250515915 -5.650778407557663 -0.08284160864461741
0.36393534130639105 -4.916215824782322 -0.07762777854979912
0.24446569707168242 -4.075970071494436 -0.06949590214636243
0.15112670466202338 -3.1504613734499776 -0.059479118427279924
0.08539167912226585 -2.160089542169062 -0.049144583466426896
0.050364359284756514 -1.1293454100037326 -0.040891988443837866
0.03964859534591091 -0.09010973415886706 -0.04135740009052767
0.0 0.0 0.0
0.04275903224488507 -1.0997674026674176 0.00821935406766206
0.0899325501011076 -2.111264126224653 0.015424054499835041
0.15531675693195154 -3.0857274805803896 0.022254782566880144
0.24505304615462062 -3.999758167921091 0.02709538464143301
0.35951509254929165 -4.833662752595207 0.029550343244085432
0.4983704671762292 -5.567640542082243 0.029425646235316263
0.6618270511154796 -6.182669568808107 0.02676424847951403
0.8519872998018405 -6.659161326994575 0.02212768745563621
1.0729014162378059 -6.972340262805534 0.01713632051162105
1.3208426946452674 -7.086256849445126 0.01474550277696553
1.5687520015583247 -6.972213362229677 0.01714092120301672
1.7895653374705722 -6.658868514054743 0.0221560023941413
1.9795405776814863 -6.182134499474604 0.026857815815706534
2.142699191847791 -5.566754914232472 0.029653459854556946
2.281094857955312 -4.8323017638892285 0.030010448368869926
2.3948613358153525 -3.9978130460360046 0.027913475986374916
2.483535294573664 -3.0831669533926926 0.02356279632628181
2.547336753826867 -2.1081895245536173 0.017547992722776764
2.5912947160819186 -1.0960982671748434 0.01181296951694597
2.6248180976975353 0.0 0.012052900864118721
0.4573028001122534 -0.028373926481921823 0.00029717994686843984
0.47618182625227884 -1.0995942370044405 0.004218044711787326
0.5011324437326691 -2.1188448292392463 0.009732623911457341
0.5458485322182485 -3.095351855124646 0.01470564587152551
0.6061626789630126 -4.01284091777878 0.01829086310595952
0.6829615454077069 -4.8500969277996635 0.020115690420393864
0.7760125962193039 -5.587599029778222 0.02015255412395951
0.8854356291411692 -6.2064105298151375 0.018530364806580914
1.0122452673961484 -6.687332076712838 0.015665350677946645
1.1583037855985157 -7.005685462492327 0.012523815494445326
1.3208245303964041 -7.122964252409995 0.010939229415795775
1.4833056813641126 -7.005547636003264 0.012431875114989444
1.6292409497791016 -6.687014565356493 0.015495198277141523
1.7558299845790546 -6.205830752698369 0.018313402189612596
1.864910793878194 -5.58663795215847 0.019944469912210657
1.957460702160976 -4.848612338463435 0.020004359171982955
2.033540285932353 -4.010697948326458 0.01839817196011112
2.0928387354433546 -3.0924819110832025 0.01521654642010353
2.1360065712975085 -2.1152596894086417 0.010922093489657619
2.1583662662182768 -1.0950783830985191 0.007494593341161502
2.176173511645744 -0.026972355448270667 0.009565471384122164
0.8894985236798612 -0.04891248973373741 -0.0028501175811607615
0.8992076756247447 -1.0991277277795832 -0.00016446639686322058
0.9083501239232623 -2.122316104360779 0.003606513182114676
0.9299906433716663 -3.101451664857934 0.006914474320589928
0.9608787713546222 -4.020813843483427 0.009143946818131427
0.9998012369572532 -4.860131296407151 0.010168585674539342
1.0467478946122852 -5.599727117132663 0.010071618481221185
1.101453387154214 -6.22064844260684 0.009018721438120164
1.1637359380241794 -6.70402400688186 0.007232502166573629
1.2357635477829614 -7.026593955007821 0.005107052205937927
1.3208173595006218 -7.148973034246436 0.0038313066908317183
1.405824696949405 -7.026449539389166 0.004921025809148115
1.477708991832388 -6.703690922125509 0.0068700786584498415
1.5397399166277812 -6.220038924691274 0.008504144374480811
1.594067094224643 -5.5987132555142916 0.009453525821073786
1.6404828917200016 -4.858556236433219 0.009532970211122212
1.6786872175466192 -4.018519623971254 0.008631658127468982
1.70861580635514 -3.0983411163762593 0.006741339594491021
1.7289193130485658 -2.1183019738115854 0.004195606018139425
1.7370255607399259 -1.0946103392751028 0.0025260087040099737
1.7467075145551096 -0.046810490943684335 0.004114049846867864
1.3118392988816179 -0.06269479260036459 -0.00783133494581706
1.3147208625510813 -1.09914216770685 -0.00497816326913686
1.3117763983477169 -2.1226544510060834 -0.002638310864123146
1.3113261073199087 -3.103529626805127 -0.0009391334473837647
1.3123916561147566 -4.023645208827375 -6.322600688036961e-05
1.3133461275804623 -4.863593766789535 9.0482780887991e-05
1.3139845438938198 -5.603854093339871 -0.0002668998155068377
1.3138966123512572 -6.225145225250881 -0.0009557810057565744
1.3116114289280487 -6.708925265767402 -0.001942600053840294
1.3098826484317805 -7.0356979105851565 -0.003352928369310222
1.3208161403183316 -7.167445220452052 -0.004499074380890455
1.3316964937252402 -7.035551500023792 -0.0036327558162063526
1.3298050189675812 -6.708586282550103 -0.002496235398913844
1.3272385367599484 -6.224521821720225 -0.0017648485015134563
1.3267382731860644 -5.602811463931395 -0.0012876355164943838
1.3268208229684815 -4.861962939390263 -0.001052405163673279
1.3270664452675112 -4.021250923331012 -0.0011657757451606703
1.327247926219762 -3.1002345560479414 -0.0017269826569789827
1.3258654942371664 -2.1184677339228566 -0.002581990412846253
1.3225219427091375 -1.0947567280944375 -0.0029771790555820077
1.3255930302119148 -0.059975890568189555 -0.002579570257050692
1.7309640635896002 -0.07059497358039293 -0.013330421117272437
1.7277738303295211 -1.0991287569833719 -0.0099162546539647
1.713996423887693 -2.1206987133228097 -0.0088713967964824
1.6926641245712213 -3.1016531678566226 -0.008769644154782071
1.663960976597962 -4.021261221326357 -0.009242715568309074
1.6268734353913863 -4.860437748328795 -0.009967007013118694
1.5810855608858634 -5.599950310245072 -0.010593621535351224
1.5265760248404006 -6.22009358946417 -0.010916960809846214
1.4609739635534997 -6.701977328349008 -0.011058433575711986
1.3845226163345163 -7.0321841033282855 -0.01162848295583219
1.320815038397094 -7.180951134917084 -0.012530358545371986
1.2570473120967 -7.032040383187545 -0.012003960842215116
1.1804128082402028 -6.701642310932833 -0.011807210011407542
1.1144977190392462 -6.219472467292077 -0.012027060301783462
1.0595383875988047 -5.598903222116557 -0.01202690248004229
1.0131651124763894 -4.858787773133193 -0.011631968044640747
0.9753721579835698 -4.018815788401411 -0.010954827066240139
0.9458966282693322 -3.098265986064789 -0.010192218670396784
0.9239262640432223 -2.1164754125644767 -0.0094069700060471
0.9099950991669372 -1.09483691812011 -0.008639741109967155
0.907020962283883 -0.06740638417436788 -0.009426858574001105
2.1512059544867226 -0.07406997139277197 -0.018186446905927817
2.142868500679453 -1.0985358447634757 -0.014492915213608735
2.118668833304586 -2.116799232261783 -0.014954473398168614
2.0770699814420293 -3.0960113464631642 -0.016490198422292626
2.018728848624827 -4.0136440407046265 -0.01830633558274577
1.9436370466057864 -4.850701589348429 -0.019853862376402433
1.8516466035402968 -5.587946075956167 -0.020637100084904044
1.742432064848923 -6.205936637735499 -0.020398660604300553
1.616874872896315 -6.6837839066950835 -0.019358106373822768
1.4655283766472176 -7.013128039220174 -0.018600309178492147
1.3208082159817174 -7.191874150546166 -0.0187543258385962
1.1760199961546023 -7.012991612961551 -0.019075435452218802
1.0244670276829224 -6.683462566071535 -0.020310985775800327
0.898559740527743 -6.205333650198303 -0.021825910350063073
0.7888491467448765 -5.586918632249812 -0.02251028843551808
0.6962286906568826 -4.8490678425370035 -0.022086412181805022
0.6204201999717205 -4.011203044072386 -0.020700736286320184
0.5613966208934109 -3.0926197644926794 -0.018659621307362012
0.5193643891451373 -2.1126079578154218 -0.016234261825491553
0.49514594284603203 -1.0942908990997644 -0.013994923693818509
0.48703172009415696 -0.07058582238182774 -0.015384979298605267
2.5750976540876627 -0.07530906112438912 -0.020907666229118556
2.5639986118914972 -1.0971341008912774 -0.018251291101294965
2.530063305646875 -2.111061966513537 -0.020639703323271075
2.467808844652647 -3.08667666421179 -0.023883182424470167
2.3798343402179616 -4.000908646339891 -0.026985746835566267
2.2669730856345445 -4.834483484114125 -0.029188992682358847
2.1290543681662943 -5.5681922220888245 -0.029843460852373924
1.9657318395496612 -6.182077721026108 -0.02859471491025207
1.7779109400054824 -6.657771127232517 -0.02574116112867999
1.5698822600151447 -6.973816658712246 -0.02277070379653986
1.320790659139685 -7.200000000000002 -0.021380912541121858
1.071621679235665 -6.973691863161182 -0.023351748252026173
0.863358718999167 -6.657472620326313 -0.026912378104488464
0.6751423175978595 -6.181507918183935 -0.030365223185517022
0.5112634102881402 -5.567207095495296 -0.03220183782012316
0.3726468595412971 -4.832899827325581 -0.03206634355912791
0.2590184129938524 -3.998526580143656 -0.030192971182628002
0.17039114036043226 -3.0833621987956263 -0.027008429722349004
0.10787947871694188 -2.106971136919809 -0.022931718740518633
0.07414763765983791 -1.0929387663856711 -0.018666696341273794
0.06335161035258018 -0.07168358135321741 -0.018928103697430514
0.0 0.0 0.0
0.045358586829686756 -1.0920537022908023 -1.3014433220472573e-13
0.09279252864545627 -2.0978756321055414 -2.447640009212366e-13
0.15744830520378372 -3.0678735096176903 -3.574812092119581e-13
0.24585124191228433 -3.9790280924822907 -4.616983981169153e-13
0.3585664477035491 -4.811929434430402 -5.778047910037491e-13
0.49541996855518877 -5.547168916518449 -7.161164224303558e-13
0.6571157465860309 -6.165926773272706 -8.826534496959925e-13
0.8466851906454435 -6.648102110295481 -1.01765245740035e-12
1.069165660199955 -6.96702620390536 -1.1581696100483678e-12
1.3208059539283008 -7.083577806735232 -1.29086575659806e-12
1.572388949617415 -6.96664344031266 -1.4329340862494996e-12
1.7946895037447894 -6.647280513378646 -1.5603556134490903e-12
1.9839302073834855 -6.16455631515483 -1.6250066653133223e-12
2.1450964983920917 -5.545093671622529 -1.7421634895584825e-12
2.2811260453330764 -4.8089737420961445 -1.8490890723032252e-12
2.392567709256649 -3.9750547551447024 -2.060839567855899e-12
2.478999587513851 -3.0628946134458617 -2.2835253323140156e-12
2.54063052098815 -2.092128302275578 -2.5293042110428205e-12
2.5830242497110145 -1.085948920978915 -2.7808515283038303e-12
2.615142358527592 0.0 -2.9671279136470193e-12
0.4571475097715052 -0.02743601625288969 -2.5726153651479484e-14
0.47611319195868923 -1.0924089528075407 -1.176052810380853e-13
0.5019715788819051 -2.1056039183911115 -2.2791094271447e-13
0.5464416108178962 -3.0776668129834794 -3.446147856410392e-13
0.6060810147616115 -3.9922803530466995 -4.591164091140546e-13
0.6819136784884553 -4.828604237756564 -5.840493921167069e-13
0.7738554634890626 -5.56751207565694 -7.176131535047459e-13
0.8823435710635972 -6.190303251613592 -8.692819705781953e-13
1.0089331678714826 -6.677266742452909 -1.0161294374214686e-12
1.1560065998864615 -7.001735331731974 -1.1698929563010134e-12
1.3207364595146833 -7.121841356969788 -1.3007922575748667e-12
1.4853982865858653 -7.001334498141784 -1.4555136033419635e-12
1.6322602274347693 -6.676404684675844 -1.607967504747009e-12
1.7584714627370293 -6.188860314387557 -1.7214177412577982e-12
1.866370394884259 -5.565315572628897 -1.8614921061808163e-12
1.9574379892340559 -4.825450257330256 -2.0096644785860007e-12
2.03198956845928 -3.9879924451622117 -2.1903807433060553e-12
2.0897546713666793 -3.0721885773198934 -2.3944660409065367e-12
2.131435615248522 -2.0991003041651886 -2.612611377924667e-12
2.1531786313664427 -1.0849725727212647 -2.831491086988501e-12
2.170319775779042 -0.025858182078114154 -2.9923633882274475e-12
0.8878111472046412 -0.04772903840147157 -2.776609775087937e-14
0.8974134601672901 -1.091945314662148 -1.1335925690782381e-13
0.907159473833849 -2.1092424190645156 -2.1719572888170722e-13
0.9290144188015259 -3.0838233915733313 -3.3713244197362817e-13
0.9597755632915095 -4.0003000556259956 -4.5345815389633205e-13
0.9984144245024296 -4.838694563175112 -5.909274043855504e-13
1.044992864097787 -5.579752165909635 -7.297463748608278e-13
1.0993894613229855 -6.204756460235636 -8.633811085551957e-13
1.1616565835272479 -6.694323560097474 -1.0349677222476388e-12
1.234240571570783 -7.023161394824744 -1.186254656339814e-12
1.3206786132243555 -7.148546443304644 -1.3283313254913051e-12
1.4070392147162547 -7.022747664364942 -1.4960265265977873e-12
1.479384573451991 -6.693432182576896 -1.6584125193781345e-12
1.5412327458696777 -6.203260155985083 -1.8154133689540022e-12
1.5949969988366344 -5.57746476814752 -1.974746760706606e-12
1.6406781123962848 -4.8353904392304 -2.138009650088421e-12
1.6780726925637286 -3.9957640485847965 -2.3110753069430326e-12
1.707121864051334 -3.0779655561676105 -2.4953879807625654e-12
1.7266304399693717 -2.1020960003379257 -2.6940033294600265e-12
1.7345523635776818 -1.0845156572003758 -2.886473391743199e-12
1.7438939630177255 -0.044906534985622824 -3.0501430394407405e-12
1.3082636299899093 -0.06137315503842876 -2.2867391203048428e-14
1.3111207121260997 -1.091908411171002 -1.0863208032716782e-13
1.3086830258720545 -2.1096808945972922 -2.106338183360624e-13
1.3087122479156215 -3.0859879500109275 -3.3397136033741e-13
1.3101617803560957 -4.003183646913427 -4.554168571650214e-13
1.3114629620307412 -4.842204197348448 -5.947212487491965e-13
1.3124127986267557 -5.583932965998854 -7.400540215473051e-13
1.3125725752498474 -6.209319566354313 -8.805927436191767e-13
1.3104391774726003 -6.699316383869582 -1.0486070785729386e-12
1.3088589432895827 -7.032401014766665 -1.209996944340317e-12
1.3206260627437805 -7.167388999855105 -1.361883305134911e-12
1.3323067690277541 -7.031979828493773 -1.5452780502481366e-12
1.330462260420128 -6.698407418471754 -1.7060979320178956e-12
1.3278724330115226 -6.207789795862074 -1.8977849538483605e-12
1.327362442666921 -5.581586599704297 -2.0783487586591177e-12
1.3274023971201583 -4.838797658883383 -2.249416036997689e-12
1.327520024558059 -3.998475803334365 -2.4200356405639777e-12
1.3274565268269893 -3.079837018721594 -2.589432414449795e-12
1.3258530113920182 -2.102279848307514 -2.7720628405876805e-12
1.3226124803236012 -1.0846758453099465 -2.947601746465124e-12
1.325594437265981 -0.05750697624050906 -3.1199396500743472e-12
1.7252615240943243 -0.0691824841186332 -1.6676436356946647e-14
1.7222308490363496 -1.0918481183541178 -1.0420821200429312e-13
1.7090369053326513 -2.1077994557003352 -2.0610063602754693e-13
1.6884384803096446 -3.0842140782617298 -3.273948632453503e-13
1.6605976609653803 -4.000879714230592 -4.5439366859131763e-13
1.6244872079215518 -4.839105303683777 -5.916406962621083e-13
1.5796894567574684 -5.5800541538166915 -7.484851197124091e-13
1.5260051916667592 -6.204232884601701 -8.975159759485758e-13
1.4607686174884114 -6.6922575710916945 -1.0666793536568042e-12
1.3840026887196692 -7.028732149241015 -1.2346015063196284e-12
1.320572657806758 -7.181068766665689 -1.4026608329250043e-12
1.2570467840121575 -7.028309042420079 -1.585130408163875e-12
1.179989492422422 -6.691342900904413 -1.7743567379706462e-12
1.1142563072602343 -6.202689841150628 -1.9732938930751907e-12
1.0598600529096338 -5.577680543785416 -2.1726407903256736e-12
1.014134282426506 -4.835647003267984 -2.367412962941702e-12
0.9768948418451405 -3.9960719979697576 -2.527147708604051e-12
0.9477921125084281 -3.077908948155458 -2.6849811628670998e-12
0.9261089123369945 -2.1003471165707626 -2.8473167099289007e-12
0.912569541899896 -1.0847661376250342 -3.0081065379631773e-12
0.9097670415523768 -0.06456790640166371 -3.1904225136066904e-12
2.1431997780228547 -0.07261120638886273 -1.1132093930969818e-14
2.135268052480839 -1.0912097199387507 -9.999681796680523e-14
2.1118535506685543 -2.1039632861638338 -2.0107298848706422e-13
2.0712995801439837 -3.0786764120301666 -3.1913183145685026e-13
2.0143309565309035 -3.9933539510882037 -4.5431298310952823e-13
1.9408894758337416 -4.829418784299848 -6.043907779478828e-13
1.8506363763139686 -5.568015834644068 -7.460598671906774e-13
1.742896327881034 -6.189918401647924 -9.000185315264549e-13
1.618064448686552 -6.673702734450315 -1.0892274252782398e-12
1.4658085374803915 -7.009147307238647 -1.2446263740701735e-12
1.3205122234738877 -7.191999619878121 -1.4288484602911073e-12
1.1751092791501816 -7.00872770889929 -1.6100832046282932e-12
1.0225305485107898 -6.672794033832813 -1.8250400482056414e-12
0.897153388710681 -6.188381743690087 -2.050298946215331e-12
0.7886445320533435 -5.565646284944013 -2.264374077753947e-12
0.6974198352150299 -4.825957661271057 -2.4774127524753093e-12
0.6228767659410376 -3.9885286632778705 -2.642669972593979e-12
0.564858495330284 -3.072350925173344 -2.78758820843771e-12
0.5236315094685562 -2.0965646356991785 -2.924617197918825e-12
0.5001694926963508 -1.0842162069533918 -3.062023100340314e-12
0.4925390232483655 -0.06754723487958636 -3.2508330994382934e-12
2.5646341887404054 -0.0737445033603726 -5.331732203378691e-15
2.5541801399233637 -1.0896914532572448 -9.402574032641277e-14
2.5212916223373814 -2.0982178491716064 -1.9209428140074548e-13
2.4605033632500195 -3.0693566122782174 -3.084890754234236e-13
2.3745210348411514 -3.980590079573211 -4.563878785733451e-13
2.264096235900924 -4.813070460735656 -6.24621140856165e-13
2.1288058799686205 -5.547960471414706 -7.389648711398331e-13
1.9678077791388005 -6.16547783292226 -8.987727352152423e-13
1.7811042122002478 -6.646799006354897 -1.064821589560069e-12
1.5719970395331317 -6.968363679767118 -1.2440864668771974e-12
1.320438309381245 -7.200000000000002 -1.4369760350925606e-12
1.0687598934376825 -6.9679527535908985 -1.6253027583701872e-12
0.8592910735709284 -6.645907359633326 -1.8418164412437527e-12
0.6719793915442801 -6.1639663096247235 -2.1159062624229045e-12
0.5101308485480903 -5.545624491741612 -2.355492324262421e-12
0.37378302365363725 -4.809653711793197 -2.6130404641732262e-12
0.2622129509326238 -3.975829630840068 -2.774916907279218e-12
0.17529103997535017 -3.0631416421902515 -2.9074222383496593e-12
0.11420431942950975 -2.090989285791799 -3.0065304722224834e-12
0.08172026704398541 -1.0827994793060647 -3.108337360113058e-12
0.07175341019436951 -0.06847765559717874 -3.2862404165558796e-12
0.0 0.0 0.0
0.04275903224511925 -1.0997674026675313 -0.008219354067923639
0.08993255010146946 -2.111264126224844 -0.015424054500307673
0.15531675693241281 -3.0857274805804913 -0.02225478256757363
0.2450530461551192 -3.9997581679210477 -0.0270953846423578
0.35951509254979264 -4.833662752595173 -0.029550343245256395
0.49837046717675687 -5.56764054208222 -0.02942564623670201
0.6618270511160482 -6.182669568808096 -0.02676424848107865
0.8519872998024395 -6.6591613269946235 -0.022127687457492357
1.0729014162384845 -6.972340262805409 -0.017136320513818346
1.3208426946460232 -7.0862568494449825 -0.014745502779457706
1.5687520015591705 -6.972213362229473 -0.01714092120577753
1.7895653374715526 -6.65886851405419 -0.022156002397139062
1.9795405776825004 -6.182134499473609 -0.026857815818951542
2.1426991918487976 -5.566754914231289 -0.02965345985806152
2.2810948579561243 -4.832301763887615 -0.03001044837268969
2.3948613358159614 -3.9978130460347003 -0.02791347599054397
2.483535294574192 -3.0831669533915784 -0.023562796330869638
2.547336753827309 -2.108189524552741 -0.01754799272784471
2.5912947160822806 -1.09609826717434 -0.011812969522496497
2.624818097697817 0.0 -0.012052900870018422
0.45730280011246943 -0.02837392648193489 -0.00029717994692470126
0.47618182625254546 -1.0995942370045877 -0.004218044712026401
0.5011324437330237 -2.1188448292394475 -0.009732623911921723
0.5458485322186747 -3.0953518551247425 -0.014705645872215645
0.6061626789634926 -4.012840917778771 -0.01829086310689197
0.682961545408211 -4.8500969277996315 -0.02011569042157352
0.7760125962198262 -5.587599029778198 -0.020152554125381854
0.8854356291417367 -6.20641052981514 -0.018530364808234265
1.0122452673967317 -6.687332076712876 -0.01566535067990173
1.1583037855991496 -7.005685462492299 -0.012523815496697076
1.3208245303971302 -7.122964252409892 -0.010939229418363481
1.48330568136488 -7.005547636003115 -0.012431875117843463
1.6292409497799363 -6.687014565356082 -0.01549519828026427
1.755829984579967 -6.205830752697419 -0.01831340219303642
1.8649107938790779 -5.586637952157263 -0.01994446991592289
1.9574607021617603 -4.848612338461725 -0.020004359176036518
2.0335402859330562 -4.010697948325122 -0.018398171964513696
2.0928387354439613 -3.092481911082042 -0.015216546424896978
2.136006571298067 -2.115259689407762 -0.010922093494898059
2.158366266218803 -1.095078383098013 -0.00749459334681428
2.176173511646236 -0.026972355448217977 -0.00956547139008052
0.8894985236801591 -0.04891248973376107 0.0028501175810967806
0.8992076756250719 -1.099127727779732 0.0001644663966324387
0.9083501239236158 -2.1223161043609595 -0.003606513182565138
0.9299906433720807 -3.101451664858067 -0.006914474321277655
0.9608787713550709 -4.020813843483409 -0.009143946819069118
0.9998012369577272 -4.860131296407075 -0.01016858567573113
1.0467478946127948 -5.599727117132654 -0.010071618482677767
1.1014533871547434 -6.220648442606863 -0.009018721439858221
1.1637359380247358 -6.704024006881895 -0.007232502168600835
1.2357635477835904 -7.02659395500777 -0.005107052208279349
1.320817359501284 -7.148973034246345 -0.003831306693484712
1.4058246969501107 -7.026449539388937 -0.0049210258121021614
1.4777089918331432 -6.703690922125183 -0.006870078661704518
1.539739916628577 -6.220038924690375 -0.008504144378076738
1.5940670942254591 -5.5987132555131485 -0.00945352582498815
1.640482891720788 -4.858556236431607 -0.009532970215397814
1.67868721754736 -4.018519623969855 -0.008631658132082339
1.7086158063558372 -3.0983411163751176 -0.006741339599491992
1.7289193130492129 -2.1183019738106967 -0.004195606023533805
1.737025560740576 -1.0946103392746038 -0.002526008709777267
1.7467075145557382 -0.04681049094358417 -0.004114049852949283
1.31183929888196 -0.06269479260040531 0.007831334945761664
1.3147208625514364 -1.0991421677069821 0.004978163268911505
1.3117763983480772 -2.122654451006253 0.0026383108636850363
1.3113261073203029 -3.103529626805256 0.0009391334467081387
1.3123916561151763 -4.023645208827354 6.322600594320199e-05
1.3133461275809049 -4.863593766789466 -9.048278210350633e-05
1.3139845438943012 -5.603854093339869 0.0002668998140173278
1.3138966123517544 -6.225145225250867 0.0009557810039753413
1.3116114289285825 -6.708925265767554 0.0019426000517337922
1.3098826484323611 -7.035697910585154 0.003352928366898321
1.3208161403189491 -7.167445220451854 0.004499074378137418
1.3316964937258748 -7.035551500023646 0.0036327558131455328
1.3298050189682598 -6.70858628254979 0.0024962353955176276
1.3272385367606399 -6.22452182171937 0.001764848497750072
1.3267382731867814 -5.602811463930327 0.0012876355123779548
1.3268208229692384 -4.861962939388657 0.0010524051591856195
1.3270664452682968 -4.021250923329644 0.0011657757403313379
1.3272479262205241 -3.100234556046727 0.0017269826517850365
1.3258654942379207 -2.118467733922003 0.002581990407297213
1.3225219427099015 -1.0947567280939454 0.0029771790496944135
1.3255930302126835 -0.05997589056805938 0.002579570250822044
1.730964063589972 -0.07059497358045184 0.013330421117231817
1.7277738303298844 -1.0991287569834798 0.009916254653748674
1.7139964238880483 -2.1206987133229576 0.008871396796053877
1.6926641245716 -3.1016531678567194 0.00876964415411206
1.6639609765983616 -4.021261221326375 0.009242715567372127
1.6268734353917804 -4.860437748328671 0.00996700701188061
1.5810855608863075 -5.599950310245089 0.010593621533834084
1.5265760248408844 -6.220093589464199 0.01091696080800925
1.4609739635540253 -6.701977328349193 0.011058433573556403
1.3845226163350597 -7.032184103328283 0.011628482953355222
1.3208150383976633 -7.180951134916956 0.01253035854251883
1.2570473120973076 -7.032040383187422 0.0120039608390422
1.1804128082407903 -6.701642310932504 0.01180721000786989
1.114497719039865 -6.21947246729126 0.012027060297850096
1.0595383875994517 -5.598903222115511 0.012026902475725356
1.0131651124771186 -4.858787773131631 0.011631968039950128
0.9753721579843736 -4.018815788400011 0.01095482706119658
0.9458966282701562 -3.0982659860635535 0.010192218665006287
0.9239262640440782 -2.1164754125636227 0.009406970000348108
0.9099950991678105 -1.0948369181196282 0.008639741103954884
0.9070209622847719 -0.06740638417421954 0.009426858567623663
2.151205954487101 -0.07406997139283995 0.01818644690590754
2.1428685006798225 -1.0985358447635662 0.014492915213404761
2.118668833304937 -2.1167992322619145 0.01495447339775393
2.0770699814423823 -3.0960113464633086 0.01649019842162973
2.018728848625205 -4.013644040704579 0.01830633558181048
1.9436370466061788 -4.850701589348296 0.019853862375167793
1.8516466035407324 -5.587946075956201 0.02063710008336199
1.7424320648494156 -6.205936637735478 0.02039866060239962
1.6168748728968312 -6.683783906695263 0.019358106371618475
1.465528376647722 -7.013128039220155 0.018600309175942024
1.3208082159822636 -7.191874150546103 0.018754325835660494
1.1760199961551456 -7.012991612961398 0.019075435448941108
1.0244670276834367 -6.683462566071285 0.02031098577212263
0.8985597405282757 -6.205333650197511 0.021825910345962114
0.7888491467454422 -5.5869186322488265 0.022510288431001987
0.6962286906575644 -4.849067842535533 0.022086412176887876
0.6204201999725382 -4.011203044070976 0.020700736281054566
0.5613966208943072 -3.0926197644914546 0.01865962130177975
0.5193643891461068 -2.112607957814578 0.01623426181963594
0.49514594284702873 -1.0942908990993003 0.013994923687687798
0.4870317200951682 -0.07058582238167016 0.01538497929209832
2.5750976540880415 -0.07530906112446534 0.020907666229113088
2.563998611891857 -1.097134100891351 0.01825129110110768
2.530063305647233 -2.111061966513679 0.020639703322876443
2.467808844652973 -3.0866766642119026 0.02388318242382019
2.3798343402182933 -4.000908646339854 0.026985746834637038
2.2669730856349255 -4.834483484114011 0.029188992681146102
2.1290543681667464 -5.568192222088771 0.029843460850790593
1.9657318395501593 -6.182077721026098 0.028594714908310167
1.777910940005999 -6.6577711272326505 0.02574116112640742
1.5698822600156068 -6.973816658712258 0.022770703793936132
1.3207906591401848 -7.200000000000002 0.02138091253815069
1.0716216792361593 -6.973691863161014 0.02335174824864422
0.8633587189995838 -6.657472620326075 0.02691237810064251
0.675142317598238 -6.18150791818322 0.030365223181240256
0.5112634102885982 -5.567207095494258 0.032201837815394665
0.37264685954190935 -4.832899827324205 0.03206634355398167
0.25901841299469575 -3.9985265801422765 0.030192971177125588
0.17039114036144243 -3.0833621987944113 0.027008429716567712
0.1078794787180428 -2.1069711369189688 0.02293171873450302
0.07414763766096626 -1.0929387663851946 0.01866669633502863
0.06335161035371215 -0.07168358135306047 0.018928103690845275
0.0 0.0 0.0
0.030800272548878915 -1.1285036930761045 -0.019023040021552123
0.07808930047867427 -2.1582317353593554 -0.03633306317348116
0.14502997290543793 -3.1473363528878675 -0.05242100652949903
0.2374293896902911 -4.072553848597063 -0.06483657956149692
0.356222136421936 -4.913317288380565 -0.07355164676911755
0.5009773939454063 -5.648403185773319 -0.07796836264841965
0.6710048535954796 -6.257426652653599 -0.07767824470016037
0.8656314439351848 -6.7204430165693605 -0.07287274515869441
1.0840603745066997 -7.016493637693873 -0.06560128922063399
1.3207764359058036 -7.121273516703674 -0.06139516207642015
1.5575199931015575 -7.017028831359238 -0.06564451444328485
1.7760352465256626 -6.721511753023332 -0.07299039162085638
1.9708199568253562 -6.259025054757577 -0.0779391790490764
2.1411044663825898 -5.65052250150519 -0.07849195802272892
2.2862687380984545 -4.915933984080649 -0.0745186239030785
2.405717213774511 -4.075605426989704 -0.06652079432076767
2.4992038973235986 -3.1506704847739195 -0.055112175486942756
2.567912013063312 -2.161549207117633 -0.04082012445397486
2.6186924178786017 -1.1316776555159231 -0.02419919277374407
2.657790873399785 0.0 -0.02124124567446241
0.45535255929053847 -0.032810992682968255 -0.002803858436139931
0.4737900636237562 -1.1268614259633467 -0.008721789454564553
0.4963058975242424 -2.1655176543278145 -0.022683257560507916
0.5412671168264431 -3.156455617336021 -0.03413209233282164
0.6027797864100407 -4.085086855829981 -0.043008411026782
0.681896310284664 -4.929037328821037 -0.048942977409288733
0.7783115895979574 -5.667354475519837 -0.0518480923431661
0.8915147733066809 -6.279583757554537 -0.0516067062488655
1.020795044061919 -6.745884959779735 -0.04849039383650236
1.1651709910282488 -7.045299336001384 -0.04367125873046823
1.3208959990772988 -7.152175139446529 -0.04059059970062474
1.4766480331933693 -7.04584037045503 -0.04355979860754508
1.6211085603321675 -6.746965769193225 -0.04829178423145262
1.750542503819838 -6.2812014634531135 -0.05137743313006152
1.8639919258857212 -5.669502492816168 -0.05169115887848086
1.9607893068561961 -4.931696868599933 -0.0490317546997228
2.040506183519718 -4.088204811339542 -0.04359873408021318
2.102972704596668 -3.159896003433034 -0.03564709162175978
2.1495703023245234 -2.169044259619566 -0.025505817558355265
2.174955794251374 -1.1304847618868894 -0.014358416271440466
2.1950373763414697 -0.03337667215615445 -0.016075712325970992
0.8926400172026703 -0.057771739774666056 0.005048016575087267
0.9028618711328923 -1.1266407273075076 0.0003938037589461496
0.9107105774529182 -2.168221011686693 -0.008777582102529899
0.9313074872177681 -3.1620061090092952 -0.016238185350256736
0.9620581729298797 -4.09242124755261 -0.021420439120229364
1.001476612590723 -4.938307296785174 -0.024548655631236795
1.0495606821748116 -5.678503675445008 -0.025752886287030232
1.1058706228704245 -6.292529492748159 -0.025143663236318614
1.1696236430621938 -6.760651991225133 -0.02286226885634679
1.2409945092594634 -7.062739240406555 -0.019011599686013115
1.321025215023118 -7.172853024491339 -0.01561189350751399
1.4010821743218567 -7.063288778796785 -0.01874754187348975
1.47253456000534 -6.761750097744174 -0.022352436229442905
1.5364332437622832 -6.2941739074036125 -0.024433869218009555
1.5929700957247823 -5.680688970211458 -0.02493568941732365
1.6413940545075518 -4.941017588221012 -0.023791392889218294
1.6813238534794779 -4.095609687774196 -0.021006017176909534
1.7128706401354783 -3.1655454128254092 -0.016599739388727233
1.7347895249046745 -2.171945947989082 -0.010554447597320892
1.7440196073443541 -1.1300480715507208 -0.004290926468123997
1.754852928930498 -0.05830123014140925 -0.004976247880736705
1.3209092678572045 -0.0745389504358341 0.015629417277945624
1.3243740978356446 -1.1274117470800298 0.010414864910797378
1.320582957940857 -2.1681018237180196 0.0050905022612540525
1.318550022323233 -3.163639172484658 0.001703150657441798
1.3181729178975918 -4.094879285038944 0.00023397380727532073
1.3179349069020998 -4.941370883706064 4.450361510045298e-05
1.3176822845047884 -5.682191320334863 0.0007053466647790543
1.3172509354824729 -6.2966436157726555 0.0019604623845693903
1.3156824957497781 -6.765132922918537 0.0037522209661010374
1.3144044712789429 -7.069818437121404 0.00699844026329777
1.3211592207509548 -7.18608219972663 0.011614113201158988
1.3279392710683346 -7.070379013246369 0.00741538585145619
1.326738967248645 -6.766253209542848 0.00457373104609646
1.3253061827741028 -6.298321411800724 0.0031506554295268217
1.325078222786666 -5.684421078502707 0.002181398117794265
1.3251137641130988 -4.944137476125033 0.0016386531507945187
1.3252817703051876 -4.098136965205865 0.001641309663761118
1.32551109549864 -3.1672771683115832 0.002423942769927042
1.32429727547699 -2.1718629983594013 0.004332351417420038
1.3211387051841832 -1.1304960352223998 0.006867196917125646
1.324902188276708 -0.07509580902490283 0.00786503471722264
1.746237700756123 -0.08408761276051835 0.026549624255725643
1.7435721027738476 -1.1281023037428097 0.020841733076729423
1.7290850520779733 -2.1659972856738925 0.018890841185501887
1.7057433556261488 -3.1615839498661615 0.019566597652733903
1.674395680914649 -4.092462114440568 0.02182073350528629
1.6344095304047481 -4.938306305954376 0.02459745018658007
1.585743799999693 -5.67851922626871 0.02714994386027346
1.5287789200429154 -6.29218327802133 0.02905277030003227
1.4625563875467258 -6.7594034932419245 0.030213057394846924
1.3877870389936753 -7.066125506463544 0.03200191635428811
1.3212960280614916 -7.19404036227807 0.03829045695013823
1.2548294259520691 -7.066699656209151 0.032574616960733216
1.1801341256132005 -6.760550811649204 0.031352434411530794
1.1140373636923377 -6.2939009933059475 0.030733877776744422
1.0572523335534725 -5.6808003498421495 0.02930090165528846
1.0088220744332093 -4.941132912886402 0.0270523313261199
0.9691341960379938 -4.095788603164668 0.02425097337060668
0.9381617187752384 -3.165289085472382 0.02139809182357805
0.9152157840192697 -2.16972427368122 0.019227914148654872
0.9009590330645978 -1.130935986962664 0.018506562109950386
0.8984431618665366 -0.08469295541391023 0.020685058309246853
2.1729043711203992 -0.088198427950804 0.0365695938742467
2.165060407755062 -1.1279605835302777 0.031017716490034118
2.1401871618556387 -2.1621424400569023 0.032514403148463364
2.0960808687591954 -3.155995341737421 0.0372359826880794
2.033831807444917 -4.085079464118613 0.04319603047857192
1.9540207211781369 -4.92903515283739 0.04886720782943128
1.856967190990169 -5.667311367690168 0.05321171888670051
1.7430107240299313 -6.279269977580131 0.05548578073628594
1.6139626177059734 -6.743628090568238 0.05561761186047013
1.4649131677730773 -7.049400731761212 0.053884852826885474
1.3214335160456416 -7.198761832848997 0.06055994811560195
1.177977647678662 -7.0499911561367785 0.054618635466647095
1.0289994908072242 -6.744807631587925 0.057086630282888025
0.9000692748927863 -6.281034761018825 0.05767846732345787
0.7862730969587952 -5.6696514825174456 0.05607151175399931
0.6894108818539194 -4.931927268361339 0.05223689557261573
0.6097982516009757 -4.088469948331364 0.04673136658971004
0.5477074669611838 -3.1597401978319732 0.04029727131635481
0.5036500041844587 -2.1658240487237506 0.034103433657996125
0.47871569481736836 -1.1306428655431229 0.029962823574104666
0.4708873297523177 -0.08882385582915786 0.03235281900650329
2.60328409141701 -0.08951146932953415 0.04426154332844665
2.5927454298712336 -1.126753382184259 0.04054071145885849
2.5581316498758144 -2.156459320873966 0.046034753249290246
2.492651148791815 -3.146694706546493 0.05497471199925824
2.399313872226806 -4.072516834333535 0.06471883979286214
2.279713783887846 -4.913249937166133 0.07326046781747411
2.1342529209999794 -5.648369785283158 0.07922306555132883
1.9634170470506844 -6.256907255493941 0.08165968600478864
1.7691806445581109 -6.719581104580524 0.07994067638836093
1.5581057964651897 -7.015606119016769 0.07366533626011448
1.3215663572816134 -7.200000000000002 0.07084534782802554
1.0850503484906107 -7.016215738668188 0.0745675522242154
0.8740451635350945 -6.720798577886604 0.08175580144218826
0.6799217111231168 -6.258727185202716 0.08439351285761959
0.50923362505266 -5.650778407555479 0.08284160863983804
0.3639353413077142 -4.916215824779858 0.07762777854466563
0.24446569707329655 -4.0759700714919775 0.06949590214088498
0.1511267046639264 -3.1504613734478655 0.059479118421498084
0.08539167912435311 -2.1600895421674364 0.049144583460389225
0.0503643592869594 -1.1293454100026408 0.04089198843755854
0.039648595348156554 -0.09010973415847369 0.04135740008391621
0.0 0.0 0.0
0.03292726542796723 -1.1939917361020846 -0.028579618259994884
0.07929108775613207 -2.2499578703601117 -0.06153790485188785
0.14341577131882277 -3.2671148333837565 -0.08785678690046585
0.23466918625315178 -4.217885732925224 -0.11170545644635478
0.35433118691085597 -5.079854288452889 -0.13142342533839857
0.5019078542558773 -5.829335232952143 -0.14619049618444832
0.6765064622860597 -6.443423939715298 -0.15495761603122887
0.8757409328119433 -6.899792102585385 -0.15699048487176465
1.0936838301677474 -7.179376322464509 -0.1534904092219064
1.3205096185800742 -7.272537603610468 -0.15032268829550421
1.5474160202737968 -7.180740446771829 -0.15361662384111485
1.765616484681002 -6.902552167071973 -0.15728719096792032
1.965334778086719 -6.447638045033818 -0.15552274572201077
2.1407328504550205 -5.835072991475762 -0.14719264372063143
2.2895660995428413 -5.087160847283637 -0.13313313797206972
2.411140281476042 -4.226718694091123 -0.11450618898651939
2.50524343005169 -3.2772353291516763 -0.09240967729580239
2.5735187237822075 -2.260899023386924 -0.06825611063656777
2.6270419028248306 -1.2048730323458634 -0.04057876171601712
2.6771524043173383 0.0 0.00023168475312101316
0.46861190990219936 -0.050986635013484674 0.015005709725905727
0.4888373647853483 -1.1886915748967029 -0.014971707892703882
0.5051427935762776 -2.2571466175995027 -0.03898334191838907
0.5471629461695398 -3.2755596940483325 -0.059333801319216
0.6064442866663644 -4.23003263985324 -0.07636621841621642
0.6847157409585901 -5.095247981410374 -0.09038079294405366
0.7815292421869438 -5.848007220786998 -0.100766202240509
0.8962704104523526 -6.465241086958786 -0.10704372570443814
1.0273739038855767 -6.924340483792405 -0.10888411292022569
1.171025049573277 -7.205513277765117 -0.1070418543375875
1.3207553402199907 -7.298764782105067 -0.10508233103897562
1.4705708750118383 -7.206899848204432 -0.1069984131245144
1.6144923305122356 -6.92714963425122 -0.10883488281195246
1.7460961302649871 -6.469539763882621 -0.10707404650843336
1.8616467409769601 -5.853879116318998 -0.10103057245146987
1.9596980992728799 -5.102759687228522 -0.09113038917980422
2.0398043888624424 -4.239166409971638 -0.07800855393573658
2.1017273067502047 -3.2861122989547837 -0.06241249808001524
2.1475734749767286 -2.2687079289049477 -0.04456505613603167
2.1693345118469596 -1.200434447771699 -0.02313247463604959
2.192484261907031 -0.053806551992447306 0.006051757503914868
0.9110077493979998 -0.08852590269323315 0.024522049419455336
0.9214368378727998 -1.1869128123371302 0.0013270220721093343
0.923256545772214 -2.2587766766417468 -0.015815302358888707
0.9395608999607724 -3.2806612895468836 -0.028452080594601102
0.9675643110063951 -4.23699966525287 -0.038120970191765545
1.0052411798075767 -5.104270422316763 -0.04550072648509026
1.0525404238996663 -5.858981200356295 -0.05063670087498686
1.1092269613760923 -6.478175172223008 -0.053424064484233875
1.1748832019716837 -6.938965302681245 -0.053809550561280645
1.2472450280584604 -7.220477973114583 -0.0519258373058722
1.3209501716712397 -7.312143175367689 -0.049802176615217214
1.3947421961040558 -7.2218888055531005 -0.05171302538954359
1.46737783947355 -6.941826686340815 -0.05341433334426487
1.5335346530097698 -6.482561519938977 -0.05291864581245082
1.5910156773964141 -5.864987805143273 -0.0501581150152978
1.63950017414368 -5.111980475077362 -0.04528886816372376
1.6788803312587806 -4.246417668376793 -0.03856559864448631
1.7092567730807438 -3.291594035524653 -0.030170324566733887
1.7287326660271092 -2.2708412645397567 -0.019672827613827423
1.73314526292766 -1.1982415311175465 -0.0051767307685268785
1.7448325474387356 -0.09286973569038529 0.015410719537875432
1.3404004590951568 -0.11258379593041411 0.03302115527023631
1.3432030611667631 -1.1872143919913833 0.0171790935754591
1.3340087394076 -2.2574219947332663 0.00759541824224872
1.3271515307615596 -3.281669270794707 0.003131007233741926
1.3235140028897814 -4.239093328713769 0.00126502040329431
1.3210649978228313 -5.107078201168963 0.0008435128686328161
1.3194067912889518 -5.862519359216695 0.001349031265623204
1.3187927367773886 -6.482565940977698 0.0025027542168386168
1.320168678591694 -6.944183385874704 0.004045696152834521
1.3229550529017464 -7.224469826994944 0.006281909245929082
1.3211239644860748 -7.311320536909394 0.008981609330117338
1.3193801251146868 -7.225906007977608 0.006665342466241413
1.3224398718473125 -6.947098738851301 0.004789830427197484
1.3243095314741213 -6.487041228542404 0.0035496500536558134
1.3244640308346103 -5.868658971101202 0.0025791850108926604
1.3239202573294746 -5.114978906768347 0.00203354311474353
1.3230117186621528 -4.248772309343755 0.002026162500467545
1.321417673420445 -3.292948981946116 0.002833795566512603
1.3168035134662408 -2.269632733585508 0.005388445298039209
1.3089937728551013 -1.1980918684753594 0.012310365097162053
1.3124904697228958 -0.11805548841753993 0.025340097147227833
1.76627537700121 -0.12546221634214705 0.04175491851140331
1.762343010173095 -1.1876958721232955 0.03223205647859721
1.7429579061224516 -2.25410661831799 0.030620835447744143
1.714671099869411 -3.2788625536547196 0.034535864906338434
1.6796448025978228 -4.236235670874286 0.04058061694052052
1.636921578837133 -5.10373341114201 0.04714045713830098
1.5863768712482096 -5.8586634218885845 0.05331329494500906
1.5283180618538665 -6.478399686594961 0.058451424054051786
1.4649747942491238 -6.940239833315451 0.06184079326578596
1.3990396042764646 -7.218160412151811 0.06332646740607126
1.3213024437845953 -7.294275745907499 0.06574885739035569
1.2436533012044384 -7.219622809929083 0.06388334365641819
1.177992179615229 -6.943210506693643 0.06294013856918079
1.1151375675758832 -6.482964661689982 0.06005070209868219
1.0578236601333535 -5.864934091493362 0.05531256390080733
1.0083227165484319 -5.111814125247208 0.04933402270409483
0.9669703902016913 -4.246155167578173 0.042585457890890015
0.933583877844802 -3.290403422314098 0.0357092752320684
0.9068226239890093 -2.266343795602047 0.030052406038258025
0.8882290599225667 -1.1982864469038397 0.02904120731187492
0.8846756719889239 -0.13165036316641493 0.035752712652221345
2.1949989769669753 -0.1302808265297812 0.05116198470038704
2.1857559060943825 -1.18719840229435 0.046435498266594155
2.1565712423091155 -2.249129728125554 0.05273871840874575
2.1075970784172355 -3.2725158802487337 0.06490494640394727
2.0410693456779128 -4.228382272955281 0.07862048445883801
1.9576257250056348 -5.094156026164127 0.09185773395495272
1.8575432466610913 -5.847434698713962 0.10338482577205914
1.7416510792756408 -6.4654204430806885 0.1121239952210221
1.6107331553826743 -6.926852815518493 0.11701824407383594
1.475012034931694 -7.203335923301079 0.11535267924810776
1.3215117486837427 -7.257918222003882 0.11306724932333073
1.1681024860187919 -7.204825724327848 0.11608730539862301
1.032662866989588 -6.929880767535936 0.11848222654394942
0.9022399593030881 -6.470076867715444 0.11429187352159469
0.7870854170725909 -5.853835289780086 0.10617864359658079
0.687998894826702 -5.102407723973731 0.0950928736725259
0.6057696304026665 -4.23850889025867 0.08192438566097383
0.5404954088874194 -3.2842454416584888 0.06761396141792773
0.49244706888841905 -2.261381220486978 0.05384966799629035
0.46358939088150364 -1.1976472680981987 0.044909781687759186
0.45444198939970454 -0.13681362773839975 0.046783174552567044
2.630099771885776 -0.13126349644964752 0.060919337038564524
2.6196260048808426 -1.185528603837161 0.05981731371208599
2.582548706752329 -2.242586719122839 0.07319394863066253
2.512121367996 -3.2625400191363734 0.09288076531479775
2.413305610605204 -4.215378482788719 0.11349488993429135
2.288280402974789 -5.078170192041371 0.13262345055539518
2.137478336978912 -5.828445611982638 0.14868236639511462
1.9618435521499948 -6.443887189411129 0.16017484619701786
1.7630211262460074 -6.901516534550976 0.1656854423386046
1.541771138149294 -7.182771136539967 0.15981407257052638
1.3217830228339675 -7.200000000000002 0.13581094815268488
1.1018934412026997 -7.184290627341216 0.16073199638370045
0.880946028269959 -6.9046058799347145 0.16752606875991446
0.68264796915803 -6.4486397842578835 0.16293161512892843
0.5077769096923038 -5.8349789223102615 0.1523020126506244
0.3579685882836948 -5.086586627899186 0.1369458189548885
0.23406229778836987 -4.225677768499139 0.11815978459026732
0.13617559998210815 -3.2743853597370416 0.09719525968720107
0.06601812856826553 -2.254813830556431 0.07603088710045851
0.02855670695553538 -1.195887636586051 0.0599035545780489
0.017811209203879207 -0.13786929416095262 0.05797325863769848
SCALARS Stress float 6
LOOKUP_TABLE default
-6932.813482975791 -38456.409633901305 -13616.766935063126 -7036.003709533211 2900.7091182175345 -3655.236984541834
15321.718504296841 9856.14176599739 6342.8581709098635 -3125.530116041281 3019.2944499555333 -124.304275369837
15156.144634190456 439.8232658919861 1486.17709078308 -1473.4596088556825 2949.6410369314344 -1025.3510606884422
21922.71276754446 2038.336891279508 2699.782717346325 -1519.4632541476935 2624.5366379225497 -1112.5448738350526
29598.947108770175 2274.2098861434374 3625.2226930699253 -1432.052587154896 2345.385259138946 -1528.0046426363278
37612.55973272505 2989.485535247398 4850.188294951445 -1299.3300517112098 1842.1652620532193 -1884.2232720216232
45416.053159993404 3620.0300688380976 6069.354720757367 -1085.3440028693976 1148.9797732410625 -2250.253918648657
52780.31618979172 4208.989687805421 7308.071394695928 -791.1550487837478 280.0492589247301 -2609.925966335478
58981.34363366799 4680.155835374675 8443.536143751382 -411.7743331182615 -566.9711711629835 -2980.699233564187
63026.00372652798 5150.494362227967 9320.327559795925 -76.50990836085751 -807.2114481885953 -3379.081290682828
64509.22945137968 5680.007812930023 9792.617858217607 -9.371122546002724 19.403915024759925 -3650.810995223801
63071.8043979311 5151.035880011318 9323.718226327108 57.28110667328592 845.6784592895858 -3380.023910860135
59082.007089441126 4681.657702710377 8451.504853692126 391.0864658830742 604.3123178074544 -2982.5677125465754
52955.11966160011 4212.343439842802 7322.987151864267 768.001215233631 -245.05004674808347 -2612.768230875605
45697.26025001179 3627.208469161823 6095.25376068276 1058.796936028827 -1118.1203865531186 -2253.6857977694103
38046.153187865835 3001.519681520241 4889.796745394188 1268.082333560253 -1819.408420650504 -1889.6172677172901
30253.243986023168 2298.644798062545 3687.416644219583 1396.2378155585623 -2330.829347561913 -1528.521166408469
22872.161578116727 2066.7660125738416 2757.3280480712833 1468.7588095260935 -2641.3262970495384 -1141.0255956985525
16775.351449301594 608.9883833428129 1740.0770333227015 1412.064498540897 -2903.455661158978 -930.7786370148768
18831.979484789415 10475.991146059083 6717.6457898963135 3242.968448650375 -3882.3790540465093 -683.8079816134895
-289.90448069144287 -36675.35639556674 -8369.67374202769 4229.275217235016 -5085.339983377242 -1417.7100290512442
-7686.742681237611 -33356.3390934049 -10057.045898528271 -4516.1173692387765 2396.611416520217 -2101.17985422737
7325.0651211495015 5341.689767958316 3008.370131250273 -3741.9956347544617 2006.7553633830507 -630.2374000993553
7557.357116268648 -510.6109004612716 49.346512760921854 -3113.433168667237 1820.7660019068144 -1104.80337501537
13676.423426945394 94.97700739895151 939.2036587070253 -3153.356187903225 1609.8683927414222 -1432.682287169106
18502.13213693985 -114.84657633484082 1290.8633988628162 -3082.4246023911182 1397.0415496803284 -1900.7517965408786
23609.36792945257 -108.52661690809548 1801.4624260304547 -2831.2536369013806 1100.8901633881615 -2367.502041882066
28584.940876331344 -108.4075959073638 2346.666063800042 -2459.9995450507986 688.8507992137102 -2836.931069538278
33266.369783998576 -150.85657616954282 2912.631497984569 -1918.475530443709 180.28173445095769 -3321.4216405210987
37231.20849584701 -197.40297675879032 3460.270571799261 -1133.2375844947062 -320.6035233778561 -3872.9215987316256
39969.79998918062 180.89742514910583 4018.267114063719 -298.2666776749145 -478.1300309922429 -4564.749416661373
41256.0964584432 1205.9642178412191 4569.665566688845 -16.708379782916047 4.648062256618729 -5101.336139221091
40019.448772948075 183.08137995214875 4025.201207056736 263.7858629224164 486.50066484491873 -4564.848331308301
37338.65699566135 -192.8490324873586 3474.9499020965177 1095.5111662615777 326.16737770458604 -3872.993079543528
33448.566427259386 -143.55031689398118 2936.60047185522 1875.144597216658 -179.43387608536955 -3321.19753216748
28868.673420991086 -97.9553952125656 2381.556355154562 2408.4358038144637 -694.8539436563334 -2835.8570947475214
24033.12607888143 -94.92059435706372 1848.967944541605 2768.5235640905976 -1115.1568522370205 -2365.1519537268446
19113.460963876638 -100.36472792694556 1345.3516890764329 3005.4664724741374 -1423.181614179053 -1894.635044200072
14562.519204098875 126.78391145440607 1016.506116611142 3049.4646965693473 -1636.512824460968 -1431.4349736381284
8799.06270460417 -484.6076662101854 80.16629167139689 2953.0847725745093 -1896.09592579142 -1061.7851978448034
8547.285731949332 5604.398468767733 3134.1245340300225 3529.4855289320294 -2294.837788752289 -903.9806107600047
-7125.976465553505 -34447.292970862116 -9669.167985784747 2826.053862054389 -2837.692345197102 -853.4267574103092
-6125.447385012444 -23246.899841451635 -6344.993340986094 -5302.20278652355 1459.357916543465 -695.9091484642307
2513.6675284317353 1630.2936468778023 1361.3960056033832 -6078.229033205932 1142.100134752612 -979.4703953176853
2654.546759279318 747.9528652252849 129.3053215565445 -5301.63978920491 900.0119885766528 -1261.3678807319225
5861.108880131658 -124.17017477115381 173.98821400059956 -5391.9800379813505 729.8756420749938 -1827.2563488566898
8790.226927417123 -83.13166831881112 496.7279753419558 -5208.852731963669 596.9345977704915 -2411.5228400575547
11400.843529233422 -105.58898121792431 734.6473895854987 -4808.020977468782 451.74459654604044 -3025.2695923074293
14000.00811587311 -89.11240863788387 1021.3188643662988 -4212.003229625779 256.9255687059086 -3644.616969807672
16498.45873062491 -138.967159499051 1325.6633132732964 -3345.8329694261874 -2.498585209952499 -4297.922785237494
18627.749210724476 -214.02216704555735 1604.1290971491107 -2009.3789806091384 -332.26674919460385 -5067.2128546280765
20075.566176294156 632.7720034024059 2043.3646887254495 -433.68437301115864 -507.8781193074386 -6117.545766047818
21405.7208883379 3376.935568297469 3104.027743332493 -26.70018642745881 -7.1437918620094365 -7106.472566367486
20126.824122196504 635.3360137924118 2053.020128761841 378.51254323604115 492.1799693981387 -6116.994569710856
18737.516358235433 -208.72216189240436 1624.1312910339782 1948.7882252614884 312.40750677515865 -5065.9453731393705
16681.28352435404 -130.60594692997802 1357.1315712704725 3275.8275584410317 -24.0327268213151 -4295.540893658581
14277.99018147232 -77.27840624399947 1065.3729568285169 4127.960122519227 -291.97966083135174 -3640.475937850068
11802.975271958627 -91.38815969973795 790.4625989077653 4704.495208172394 -496.02946903909907 -3017.9280351768634
9351.870094331132 -68.02515767156781 560.9398284334588 5079.050722140379 -648.1903927310082 -2400.7625622366154
6613.942134147005 -111.20265753640368 231.88105376498117 5218.569425942053 -782.7075707940069 -1805.83363314408
3407.716499518181 757.863932595478 94.67932753979211 5049.645670048793 -973.2937399607565 -1266.1033427089176
3222.860395537769 2159.4195252889403 1502.48209819912 5742.311298398843 -1250.639299479695 -994.5106552842383
-6096.236599736386 -24119.037413972612 -6482.2329977387635 5011.782325440474 -1601.3657939026252 -665.1141734142843
-4481.463212046199 -14047.674649578925 -3355.787879467173 -4903.202007505441 658.3307057155542 -245.40824992000856
-784.0313897827376 -326.04448906503944 523.7795338741099 -6427.896154808289 372.9933556931502 -850.6125153634572
-1814.7977600693969 951.9422894128669 58.43271640255633 -6453.687674396506 58.83383156710194 -1304.1879398107603
-1431.090511466965 72.23401057257762 -226.79511726516958 -6161.138434296778 -97.79368315908647 -1921.4244702732783
-866.1532854460024 -62.29500817549919 -147.93525258504098 -5907.850589073008 -144.1212535262977 -2559.6373306736227
-573.015795764804 -25.340956072925987 -78.2991867690997 -5449.968973871201 -156.75498071197512 -3210.300487986352
-298.49920314336464 9.53315796109409 -5.156430776113851 -4784.522054703967 -168.21738611028456 -3875.364263315338
133.9365040367828 1.9188004418051428 109.4468901001437 -3848.991251916117 -211.96337733847156 -4568.106478650922
527.8995940025904 -205.0202953313156 134.03731325528705 -2318.368660455972 -410.3416682416853 -5362.647527229875
540.7141911893182 1008.2908360358969 373.9409126283721 -143.6249842555709 -667.0538439356816 -6502.841195416883
2436.8968251236433 7152.059279010996 2543.2363408886763 -29.97817922595845 -17.740803731549086 -7972.168484083162
592.8973108383269 1011.3116303085512 386.2571868808074 81.62541577405311 629.7078561606041 -6502.088794328735
638.527483540001 -198.87064100570828 159.26964104348295 2250.1194436937544 367.55784177318435 -5360.954766742168
315.0325048027099 11.387822046316785 148.46541712070933 3769.8944750462265 160.74033820208126 -4565.04489150817
-30.259795873704576 22.333960423754156 48.008589165491344 4689.177688305901 106.86135962758341 -3870.0956131931825
-198.70791045726403 -10.783318944381826 -12.827973381479177 5331.60926026705 86.20991301098492 -3201.53880512543
-368.4220131184212 -50.477938910539834 -76.92195962416999 5757.14545785152 69.9811575483442 -2545.1375559330872
-855.2193627519281 64.90810052908913 -185.1786910999277 5964.123709011561 28.794459275279575 -1901.3244394558656
-1307.873353859979 1048.6367652794881 56.00091497164401 6205.094121311801 -115.83494125684975 -1293.137510716003
-376.50792550148265 50.306557768605416 591.6075591558225 6281.487182616419 -420.82750922301636 -874.4390436294974
-4565.749273153053 -14722.111954214797 -3572.850460398236 4856.380666918478 -717.788652463071 -384.64298583590386
-3518.869739045166 -7031.448028894941 -1239.0913913340862 -3726.459681428584 -9.66468339803792 -193.77417917929353
-3306.3004003354363 -935.7818272505818 170.14962929448052 -5405.539286430852 -349.4491793605169 -660.0036502544884
-6095.241336053027 763.1649304032184 -113.82364847493369 -5938.346198691186 -792.7703469508953 -1205.7165068493705
-8479.354484476098 176.32701054046376 -594.8010567216079 -5534.5486791514795 -940.3790153859206 -1810.175996421707
-10481.935160206314 18.412287468165875 -762.8049600229168 -5213.735740189555 -895.3825638608132 -2417.1460779445547
-12557.863232452743 56.14251470505702 -895.0686681062124 -4804.909481154878 -768.5380488636015 -3025.7961616201533
-14622.098865734613 75.16257450743392 -1050.0564166300314 -4219.115567960254 -604.8493348663338 -3651.1808263503735
-16282.422269195584 215.83717036529603 -1096.1460541347058 -3385.714207244242 -410.30025301008067 -4279.223550778195
-17484.69968778289 -141.93952637606355 -1281.8118872614814 -2152.012937797872 -365.2178470635846 -4949.501448341373
-19368.62333457107 361.50843505816283 -1734.3580033039952 553.1945548343713 -746.5278021519239 -5877.431710311363
-15836.56244310705 12942.739469779837 2609.9171637388517 -26.98343577302069 -28.57284067344434 -7793.834899280058
-19315.262829141808 365.0574361158864 -1719.2895697935387 -609.0299084589379 687.0143509459932 -5876.931586174873
-17372.722923524576 -134.803954898411 -1251.1488702154197 2090.473811485404 298.84958493167636 -4948.345153084405
-16102.393032987015 226.54245767912477 -1049.2907584692086 3314.314630867982 333.48343980325643 -4277.040808790789
-14363.164294697393 88.98334293111309 -987.4437344222316 4133.000547158544 516.0147213632717 -3647.2645934566067
-12212.196771422476 71.23305835132211 -819.9415393655528 4697.610641718237 670.2011271533946 -3018.9106836895776
-10060.05184804493 25.684506950131063 -687.9421630851355 5076.293085199957 796.8430032692704 -2405.6432724896385
-8047.4100412097705 177.42433464625785 -548.245813556298 5358.869671063228 859.0486211891496 -1794.5781485899395
-5757.301810354877 856.0023446678817 -99.28753368558752 5768.078686054048 747.2877388805944 -1195.223491466249
-3082.62219414237 -726.501119342219 191.65139820345374 5365.212068086248 330.8997982008459 -689.2655107020533
-3588.157857656634 -7436.140825377136 -1398.7200547929233 3753.0995707552643 -10.465244563776913 -323.9882806658838
-3276.9449049150694 -2813.8128522636475 21.142177484932553 -2063.235770073934 -596.6857002056494 -283.9597616372359
-5302.811684208383 -874.6365114156895 99.68456634068748 -3114.3818687103576 -1088.2580933967915 -473.7978514693807
-10299.849546103846 439.06674215999186 -396.48824154897596 -3567.552276738992 -1735.4838196585404 -947.3446227779026
-15511.196361247476 187.75454703123881 -1092.2971402581043 -3317.484308743036 -1874.490435674458 -1429.46804535395
-20238.38214722989 63.66641860347766 -1565.3172144188884 -3088.2209595649892 -1720.3943932764728 -1899.165639250872
-24785.63195338033 68.42078335681738 -1969.6967084394773 -2831.2866152394085 -1432.3657979928184 -2367.039984876381
-29173.82355530582 107.42858457039831 -2364.658285735647 -2467.406741720649 -1056.533705918478 -2840.2246267358737
-33393.682463558995 63.37739688045855 -2824.9176852656037 -1976.9814684418325 -625.6277441685558 -3320.522326357617
-35798.348066323924 696.9738685031898 -2752.998845655948 -1147.1190842103258 -6.516035627148062 -3721.4129664241573
-40413.56133213881 -2438.3599689848215 -5069.651710321623 583.1068947279688 -291.49155104625567 -4252.2887334674715
-33451.98777128222 20662.624636619083 2814.1158792115443 -17.07215506385846 -41.09204107973292 -5651.225428886942
-40357.763179284855 -2434.2787872322874 -5051.581065248514 -618.4240950798938 206.29909582346767 -4252.446689525633
-35682.47340431738 705.1280262906802 -2716.428087002698 1108.2365766153212 -87.35784163505147 -3721.646412947353
-33210.83335887739 75.41642381991407 -2769.593628742429 1931.9935616989078 518.6292530786031 -3320.6239530720804
-28918.712842838544 122.61162192950087 -2291.926999533517 2413.413223761356 934.733649182777 -2839.760199044807
-24464.207890384074 83.72921325181302 -1885.7197104676425 2764.565550301991 1299.6408764759472 -2365.2093981458474
-19886.342724858798 72.7151323104764 -1486.3058620595748 3003.4037124557394 1590.7622422453994 -1894.9759528318973
-15205.476013009295 198.11545223193917 -1042.0940886920198 3214.7656386947915 1776.0886081667268 -1423.037510038024
-10110.426326899673 503.78707160692005 -380.8020937295695 3484.7230407784746 1697.9726353557842 -944.5938127043443
-5219.846117202676 -778.1673737159196 93.87731379204341 3113.5816424476375 1095.5319423733788 -494.5585810210043
-3331.102428879579 -2989.1259173563353 -68.22346803205033 2090.4349110004705 611.0418781286633 -368.38530265912635
-2862.401230714968 -1215.0526757250775 886.7510313419323 -1017.3119234216041 -1194.554287773134 -342.7178380605685
-6427.108880280765 -787.3874228580967 277.3540611279846 -1458.8360616051648 -1932.476785320878 -396.2647587599232
-14719.281879350518 -620.4008865182524 -1161.7400814605294 -1640.1499291204225 -2867.448445187585 -786.7341137241525
-23645.455328237735 -1607.969429514645 -2774.594007366255 -1576.9986647164687 -2993.7357987589826 -1170.8765572397504
-31442.28885485605 -2388.2076658013925 -3970.8492716164665 -1466.415394845361 -2698.505148507561 -1535.1210244076944
-38812.7146913577 -3029.4546972257576 -5033.339669765739 -1315.62185871165 -2203.0373528524865 -1895.5339343937085
-45966.71218998603 -3583.6733247367297 -6066.93754753266 -1117.9025455171684 -1555.3101085763603 -2261.091415125586
-52904.595696860866 -4408.229571861081 -7248.593956267116 -819.4284259052969 -786.2123289007949 -2595.415636645457
-59088.770027542705 -4109.898818868726 -8098.596966898104 -400.9937305344567 318.38758791335084 -2991.3093992748773
-64562.07698327521 -9759.552851658875 -11384.315684501667 1114.43474871337 2311.8577917203784 -2686.4026479134773
-52220.07278812193 20642.2033270662 -1244.384797238355 -11.031310691759757 -57.13817341565742 -5540.131766119568
-64500.533329426595 -9753.184280894837 -11361.952356242287 -1137.2238407974703 -2430.035530493675 -2686.725022542162
-58962.45927703417 -4097.428731716186 -8053.73254239088 376.04254100002333 -447.82192557110005 -2991.86223487511
-52709.27054033042 -4390.492419035573 -7181.769266763956 790.9259979502942 639.7706183516783 -2595.989924733907
-45702.9676938186 -3562.9626197279317 -5981.461252685101 1084.5996200077961 1389.6918148410914 -2261.3084097254505
-38500.945948262386 -3012.36908831198 -4940.376058986894 1276.5971305781327 2023.333088421123 -1894.8321604028376
-31149.8195554751 -2387.7197573073972 -3897.1700168981515 1421.248292358306 2524.0882186062095 -1533.119628585909
-23488.68702266042 -1629.2923301637597 -2758.015912175971 1528.975023367033 2866.338679774166 -1168.3784515065986
-14750.60944497569 -628.2540540535445 -1208.0605886224937 1605.6019836380265 2836.313993658951 -788.3444500155657
-6530.144490578148 -780.0918098314787 215.06082101004156 1460.9119056332797 1978.810147768273 -410.5285115222214
-2988.665805417514 -1321.7206300637517 811.559486171885 1025.5605189554196 1259.7894471387717 -399.04191805628443
-1047.2958068668904 -23284.330473114846 -7299.487883994522 -3619.0890214337574 1930.7572671130408 682.9911575052449
13726.154403489547 6600.502969754129 4808.513813157052 -1617.8793424111195 2083.317077092697 -214.0708621443061
15942.104396359548 798.7277046430739 2101.705774717411 -578.1701011438994 1954.0905455094244 53.48470782436042
22572.55645507039 1957.499763373042 3204.2232577996774 -628.4525264986472 1736.3883551519123 -36.58204372875027
29840.53873421817 2299.6126313926497 4283.407528772844 -624.14955533953 1325.2750183284147 -3.754213483591334
37344.596655066125 2937.119256501051 5632.552907571896 -640.0981572323287 792.6845568496709 2.553849911084477
44720.00829975119 3538.228111849458 7082.363760121521 -654.9126006285256 123.24890633987256 11.984318630482274
51989.09483382808 4183.780107417606 8732.94920420518 -689.7759280594856 -616.167099818109 0.9496685798582671
59142.12404058035 4823.961016551225 10648.515014243534 -724.7659834562384 -1191.49382253352 -77.7718140955424
65334.39771372718 5105.5807635112305 12496.234591649614 -583.577125495062 -1088.701104693053 -298.7444353960372
67849.96460324811 4741.199926764846 13190.794276314373 1.964427354039266 10.306979042713568 -530.1699003408079
65348.03618011174 5104.8216111208085 12492.396170458593 587.475337335186 1108.1557443127647 -300.1043621598316
59171.32349338483 4822.4688702670655 10639.829099610588 728.520231261999 1207.2974491557707 -80.44358545127011
52038.552804112085 4181.6956976791735 8717.295656676548 693.0877797527123 625.2314475203427 -2.7748191906654327
44799.53287419047 3536.1672130882944 7056.561714888065 657.229299005669 -125.68780518652149 7.55337210316055
37472.40038895751 2935.983355742739 5591.411448778442 640.225124200379 -813.861735062605 -0.2340565511883863
30053.42947561329 2303.2591872102025 4222.801442431299 621.689443350922 -1381.3742102776841 -7.671964911915493
22922.216529272762 1965.6540922188024 3106.058725329099 616.4086561856226 -1833.0419952736793 -14.188198640685934
16631.88136131454 852.8713253682993 2033.9116717812753 555.821945847645 -2206.533754137801 -10.56132348453379
15348.867584521253 6807.700664488895 4825.136969111546 1604.3131956102911 -1864.3510681397458 252.52949079829807
2142.678858672014 -22054.403462206188 -5195.49362491713 2138.4401118793185 -1575.0290228371555 -1258.2709438778406
-3445.6607733820288 -21260.919845927816 -6442.791173177114 -2322.4670946335477 325.16639266706403 -64.0001442850735
7221.457635649098 3518.6681731181284 2540.9724078641757 -2017.6754161962613 700.5610895858316 -194.55222974407081
9091.366759734045 -190.55103604310955 817.699243376863 -1588.5667896832806 1191.8305665453515 12.773432177162137
14600.932493782242 220.88565638508976 1620.0956000846988 -1649.4662817812136 999.4403328723656 -17.203939080818067
19226.603674600537 113.84690070822981 2124.0293363425562 -1698.6645365617396 744.7610956313275 2.7043301196649785
24044.662752680208 141.6251254617456 2805.7632036876744 -1708.0145854981445 405.86453417291654 3.3152057762384164
28787.285232905422 179.73648052628758 3584.575466737897 -1722.7142165591085 0.7987092271654954 -16.300801489822796
33422.14925832995 260.42306639770953 4498.925507327889 -1768.6969070645196 -434.3201847687466 -93.59570940038942
37854.19856992403 284.7681158243227 5537.835063838273 -1833.7385424474119 -771.225073791672 -317.73783873039343
41400.928182729345 -322.9907755321691 6337.238762231976 -1504.5856542152876 -710.7746154540107 -806.7846353886737
42460.75678717466 -1717.070970546207 6260.709309008601 2.8436782311825475 -3.970961321918273 -1293.8467305692282
41416.358650578986 -322.38209188782037 6338.978893848067 1510.1856262152771 701.0254808450917 -807.0773875710545
37886.73246086785 285.9661084334626 5540.296217117597 1838.963482123502 755.9894862509186 -317.99929894237647
33475.73897994804 262.2153358383732 4499.878821427987 1772.8849772605627 409.61770739187534 -92.99130952944407
28869.57280911036 182.17841432442333 3580.0722064458246 1724.5192313401437 -39.529187255477396 -13.158203126189871
24170.607689688306 145.05617336966463 2790.0505920099904 1705.0490820260109 -465.17396586706565 12.452154171219403
19421.566470987138 117.72646646397305 2086.4636897209352 1687.7115617417528 -831.8301741443312 21.79095207591313
14929.696055467339 236.77417270754964 1560.8641302918506 1621.9389821139837 -1134.6933339540692 26.020436225215455
9656.791286099626 -181.72413686882987 711.7991774928354 1518.2375249605298 -1362.1126955424843 51.63749880256113
7802.077321896513 3584.313553144539 2425.5181141937214 1849.9038500159265 -745.7329047755371 141.64093559814162
-2946.875086613344 -21224.846314641367 -6262.425257079831 1378.5714262016202 -223.0149367211291 -1327.3398154829458
-3200.357131488089 -15439.808642576912 -4219.494049122847 -3065.266067338027 -51.55996670424742 -1280.1363418071178
3151.586682405439 1183.449461922985 1374.1393694191433 -3504.017644953659 160.13999779438026 -192.39174118340767
4134.241579631241 617.655950358572 652.34594450511 -2897.725153153368 480.93276125569844 -58.66193555789453
7020.9013707845625 59.49950735135975 760.0718661380391 -2979.9786079005703 408.4763441421099 0.8138269349275924
9615.48878114582 108.2871037463058 1081.9212852020355 -3012.275031803941 258.88572040230105 -0.6358277165114097
11997.751133475746 112.2929154903527 1395.310963432735 -3024.0548189129227 87.35100795735484 -19.445262863393786
14349.44223055208 139.7930912464559 1777.6487116945193 -3031.2981718840624 -110.90470779542103 -85.57580064228995
16586.077735175404 244.59380571831542 2236.8630694577546 -3064.2334524871067 -336.0489532070742 -251.11943264775348
18782.061282490646 378.9578609450087 2798.4260114927865 -3170.7195740700913 -582.7250391355981 -639.9535718649121
20701.434398095822 -637.7796955168715 3053.9066879216953 -2742.4490721690254 -647.6181403226656 -1448.4936671478388
20560.110317737344 -3947.5156701938304 2072.289965878194 4.171150919473348 -16.635538002234306 -2383.6090312452466
20717.985363683878 -636.9273817478245 3060.824088006929 2750.6304895597277 612.0264942174531 -1447.815982675413
18816.399021930793 380.62124781236764 2811.303284364262 3178.229465428838 540.2252378936048 -638.0056811084636
16640.940915461804 247.00489346699482 2253.4653185021366 3069.9390583133454 282.24843689708024 -246.46038902051487
14430.085132160439 142.99692987826785 1793.9673032264263 3032.8664613984365 41.72508342298269 -75.22624573137672
12113.906656093117 115.97342699357898 1404.4238215312118 3017.36543061223 -175.4844772064679 1.7587031688539723
9787.225730758142 113.28693139210631 1074.3375661921139 2990.7534453337394 -369.6651003194584 41.35729238105637
7291.89892558611 67.38570152566213 723.9496735398458 2930.987395967969 -546.0081157729687 70.5861495342585
4452.126597850904 604.0236945161569 536.6210536559506 2783.1182157442868 -620.099424819082 81.56470661027517
3464.6992355987195 1425.6033991075624 1299.211726692271 3272.4101967025777 -188.56164145972704 -60.821292178449156
-3059.9848974411852 -15421.410439639983 -4307.849873030606 2799.720613798666 115.22947058218756 -1793.904255041982
-2656.4812581705323 -9770.088882813658 -2132.615755080269 -2898.2689701992444 -166.46578844281808 -1403.5405979342368
120.8260923493585 -202.0798747479313 748.3494513657671 -3849.6475147852125 -158.96972771157135 -345.1038766526262
-447.0751425331277 685.7204820532918 385.5437358372779 -3660.376708838911 -99.45614222862628 -87.07292506654439
-270.85241476246136 76.58998775983285 80.53994508319806 -3457.521810031917 -139.03264198669632 -21.539935239873493
-72.8096241836051 -20.33279237582442 48.17092020197832 -3457.03031276423 -186.7561666156489 -18.457848187350525
-52.83730580526277 -2.798756893880375 42.46223907153433 -3464.7105189742015 -211.94492761648863 -54.71256344017291
-84.78690569134093 -19.154750681233896 37.35249502565468 -3472.841176434057 -229.31119887790857 -142.47283632052583
-235.42273328509327 51.88163581881858 42.912640909406065 -3448.9105182401627 -273.8869297200429 -330.34306043232226
-200.64704280498842 392.3782131105128 190.71543749217471 -3559.26404145734 -464.11243756537624 -733.6560407933188
461.13801468221027 -919.5858486463486 47.967772144658504 -3483.698994292172 -717.4045973023166 -1614.894374409411
-1302.9611123566585 -7837.703628676908 -2458.305542027722 4.535598758475973 -28.657378686971768 -3060.37471896262
478.7257278192121 -918.4494509375252 60.146704425854 3492.5894439677822 657.2984580168289 -1613.935177082374
-164.77783825792437 394.6031634216132 214.20861622715506 3567.400158071405 395.8333861125989 -731.0590271256045
-179.90410565720478 55.13343511921607 75.60623071551205 3455.016983356983 192.7533489599968 -324.4451729014547
-7.333895710383743 -14.935159570936404 75.11741832476253 3474.2650182186544 132.12909601107145 -129.96604570287394
50.9339479209614 2.18283898181871 78.07377325777423 3456.5060396543927 98.06313904884485 -29.29541056926086
69.32375882583314 -14.585632909969164 70.91259925175365 3430.815889752073 58.91721122639217 30.118246485353005
-87.59325441167753 74.76747764060005 66.25041823488638 3398.7140920408247 5.4543595534589535 66.38477810731759
-268.1867797806903 716.769226711204 312.3168771596016 3542.411710264899 -4.745096578067756 54.88542018121864
286.2480559094443 8.56490430210857 679.5456710725292 3726.0000272534726 150.2562136219059 -259.47916368356147
-2653.0094802179956 -9845.717973530443 -2308.1181993463283 2812.294918249957 217.8886625633522 -1710.6560627267193
-2403.807877434507 -5190.0228953584265 -477.93106354391074 -2194.395161660423 -280.82081599590754 -1213.8963643255624
-2331.4940740724155 -724.2644653535394 496.6065537469688 -3261.1860390753272 -453.40288951931757 -351.9175799654737
-4835.623723689593 455.47718846033666 63.4204873738568 -3371.2595561736825 -640.7616050282907 -90.41075561764485
-7375.863406416366 36.83282317300342 -569.8485273298338 -3064.7039238495527 -684.7531217779514 -11.07783686091978
-9734.746622581031 -107.53234279393548 -967.9499359773345 -3001.2804548989316 -637.3469317859438 3.9989200449673197
-12134.223535502677 -131.57895747164503 -1325.422239885125 -3017.019214067348 -515.2085068606932 -19.922188345714964
-14482.483162149007 -136.82377392719633 -1680.212764777637 -3024.2273866107453 -354.9888692787979 -93.02082032526319
-16969.37665211479 -234.3406574875763 -2150.599187295061 -2997.208105587209 -197.88070170088363 -227.03768964442045
-19258.351699855135 290.07829542530834 -2474.26590748789 -2946.925158096713 -247.11899298164474 -513.108385385073
-19471.192392698467 -160.32596831495047 -2615.249826302831 -3725.704998775118 -763.5297050736124 -1180.332469088582
-23987.551037899142 -13581.550090110595 -7900.225411385425 4.2708874776751635 -40.93602738534341 -3200.880394950716
-19452.529726437457 -158.9269982712205 -2597.742772314124 3734.1117397697694 678.3541869013862 -1179.7982119870878
-19220.876456856407 292.8390221505363 -2439.9924215235615 2954.7395016821033 152.3776110042518 -511.4483436284804
-16913.111214365017 -230.283624650967 -2101.5211376471607 3003.354099743403 88.52484967384703 -222.80825172707796
-14408.195838816257 -131.57151800377068 -1620.5049834527815 3026.3883285665775 228.59961819144405 -83.30035545912352
-12043.039065034154 -125.143302107607 -1262.6579147407424 3010.608322248188 374.22886826243126 0.8559745166172474
-9628.69302163037 -102.18272791563352 -915.9894389790941 2978.056271240166 491.59901903289744 46.016405669345296
-7267.554178973266 40.862926988729704 -551.9271263461939 3011.155979918151 554.8354943849289 67.49368827317097
-4750.2267085692 496.7130985446281 31.490199396273383 3288.4436451609254 563.3660840369363 24.674954970954264
-2260.4981553745706 -593.9150449233288 435.7688997492552 3208.081662276895 456.2514392828895 -293.00446861078103
-2439.8279564044346 -5273.139007421324 -646.585997119484 2174.5663732527646 323.20029894899125 -1417.5691110844134
-2572.4721150647233 -2301.4104252371562 626.285964888084 -1147.5600904998187 -503.26128316281057 -787.9821337238442
-4397.579180908899 -748.3388011096346 479.25486542793885 -1823.2706046394233 -838.9009444202882 -239.50558104928922
-9128.883758443286 195.59506526318208 -286.9844239254521 -1944.8064806517957 -1238.827531734835 -82.55413416983623
-14401.42380568784 20.05711943640477 -1248.1426336637658 -1743.6113483369281 -1285.6785354828826 -13.05733461421976
-19384.735839169294 -107.77228724678454 -2027.8563423786932 -1686.6636940779654 -1134.4514177625235 6.033737746510678
-24205.738263668438 -151.26107677464546 -2746.8546020774666 -1700.139447195365 -849.0246441286425 3.3943904664758175
-28947.527135509477 -186.8195780446987 -3499.614720442651 -1715.9341680087678 -479.5146113565881 -21.36247211534249
-33365.70941491169 -108.90642524402566 -4233.113559529825 -1684.07890793299 -103.06992006557074 -86.49319281073402
-38551.40337306891 -625.3644208892165 -5567.888283711144 -1737.2281242472031 230.84961005805647 -135.65966248708853
-39193.60773628972 2802.8505923263406 -4789.577038620577 -2353.1136822276258 -481.82519337610546 -441.12191476106085
-48607.50671239581 -20936.4842674386 -14890.045473081322 2.9619372334501435 -54.37523610063332 -2356.2529175790496
-39173.71885052723 2804.449522324926 -4766.695701650959 2358.9847535020817 369.1258847810259 -441.64196675212463
-38511.94291437936 -622.1942899017101 -5522.729245730552 1742.828088887795 -354.92216815082 -136.37697446758858
-33307.912234043855 -104.24165374550647 -4167.468498539125 1688.8169743129638 -38.13125849679154 -86.5951280024861
-28874.730731904416 -180.76686428819613 -3417.6534516964753 1718.4542009948545 319.11078493643475 -19.16752619995679
-24125.320503657094 -144.33076294289293 -2657.1528185816906 1697.6872836822754 674.4617951340052 11.269566110827487
-19311.298078135544 -101.41598812943394 -1946.3164258120682 1673.8001796682681 962.7832674861696 26.33697998827372
-14356.163402637518 29.308655287891252 -1197.6148835109457 1713.3425455942618 1149.9727008778812 29.731204326568196
-9119.547156877003 229.74465811758256 -284.6316917682002 1904.0334676337936 1180.1294547478212 -19.732812612774076
-4399.057500627613 -686.3378233292681 432.3224094884833 1805.2525126589387 857.5251931306134 -208.77498736580407
-2623.271657640582 -2353.652204008527 495.4752080041419 1143.4031407455589 551.2780916523425 -904.5438036232175
-2761.5021087803852 -1261.9307145479765 1327.0426375932036 -439.5357837272554 -962.1466433489554 -510.6873398945952
-6060.013432250857 -889.1098423049463 547.7777829906854 -713.5020361953235 -1445.012854046475 -166.50447193206878
-13781.72252067291 -853.8816553432075 -1062.245716649466 -700.7154258685284 -2010.9852252853154 -89.61053792886473
-22289.445474333057 -1639.041068634035 -2808.699046467408 -635.3718396184056 -2027.5850887249032 -37.12157123259929
-30070.304310678366 -2337.816225356939 -4243.5237645006655 -621.2208164170513 -1743.2888527776645 -18.470355367386922
-37532.458250640826 -2939.671164525603 -5590.789825840706 -635.6804191151098 -1255.0828620661168 -5.98967578278269
-44916.68883160691 -3585.971334649924 -7024.334032063552 -643.7779682993042 -631.4416162767267 3.408386799382548
-51864.50268691 -3916.5672880238726 -8400.912677521283 -672.9658310884593 58.29747644241895 1.7152542260834345
-58090.63224853447 -5238.074111721083 -10135.474097966184 -692.8268109405799 768.3967591830897 12.539075318557822
-62148.75479588157 -253.7754126308871 -10041.345706701872 -1679.4638788595553 1146.3265867198154 271.593880017996
-80294.24591160082 -32884.3491842412 -26706.34293985252 1.421867901322841 -69.95849414768287 -2505.417878681514
-62126.92435879695 -250.74511561673665 -10012.551793774752 1682.3112558778955 -1291.0712815508168 270.6183788313729
-58047.59762389488 -5232.0537801521905 -10078.36167946137 695.6406747470126 -927.0553220845374 10.755656787708826
-51802.30420834128 -3907.6987297072974 -8317.1293913824 675.5486658595383 -237.93236908661393 -0.4528154749982818
-44840.50893748889 -3574.6677887941573 -6918.208611644186 645.6090015881199 428.2741383060106 1.726027172901702
-37454.56865712934 -2927.462427153704 -5472.242549883025 635.6546137598352 1034.813721568094 -5.4084022565700565
-30017.10784647057 -2328.2570772208915 -4132.377960935786 617.0021431174745 1528.911092477817 -12.037405053542102
-22299.474315934236 -1633.6883924630242 -2734.7829143711633 623.8369007937932 1866.2414081034342 -19.372938544542823
-13861.69563950544 -841.0142286686405 -1047.8656306015002 683.878365326111 1962.9566855471026 -62.57344018262174
-6143.971507543452 -869.150262655462 507.7311576692468 705.0602345005349 1505.731229150251 -154.5035772319335
-2849.805127252092 -1301.050180443341 1227.6032209957336 432.6471806096206 1062.0801707549736 -581.2075145704705
4822.110432273604 -17680.802604357446 -3857.60765162515 -227.41968783178714 834.2293124225822 72.38998705756319
15341.796092220404 6298.389342981288 5287.263095873382 -1564.7958995569836 1137.363412773426 -86.79352910278483
15894.797583025531 777.5065360943013 2700.5972347682164 -619.1537958014026 1070.423564030391 83.83865388146931
22120.1367002866 1687.27140406308 3822.225351129987 -707.5023667789895 894.792904004861 96.74108976241236
29119.937846228422 2021.0320569611251 5235.974265428252 -741.3772867420646 575.3817979191635 133.5003518466924
36301.35363828724 2584.3249093511117 7007.432602284238 -778.4417958718454 175.36081512527844 171.5194725048242
43554.53239000914 3147.7947263833626 9072.701833889021 -828.438406294319 -276.7615386577119 207.13283934759
51295.719862049526 3839.0133250427193 11620.797791824814 -923.5913391863005 -708.6802156205704 223.15360307150127
60058.19328369298 4611.690550630009 14785.691290292887 -1036.9031553155519 -950.1080699309106 187.99132238593592
68696.13996636726 4864.223761986643 17913.360801256444 -871.0439125635072 -737.4500623951121 81.41703683012344
72416.1468510375 4206.337708486421 19098.385103081924 2.0153083464463393 0.9525040487260745 -8.940319494685285
68674.9736594234 4861.8540983566045 17903.562412668227 875.1975713275431 738.2595517262523 80.26111945574874
60012.157950736575 4606.69414165672 14762.930825147716 1041.437593173625 947.5102123302593 185.69329621012486
51216.73585925356 3830.8302653719184 11578.121831046134 928.8256027813038 699.832203138186 219.8300814459876
43428.392265510374 3135.313290862874 8997.954325585037 834.7224393562999 257.2311710798183 203.12779329152437
36105.98610343409 2566.4287500565138 6882.2116089807305 786.4863442559263 -213.57118456689096 168.06109018184628
28818.456024328607 1994.3567474146157 5030.860191342687 750.7522705788334 -647.5130074795505 131.48076937585537
21665.049479366284 1651.389844783676 3504.4940165521502 724.6813981870694 -1018.182391730754 105.0693244880773
15065.127338773425 683.5672776870128 2139.333836347181 643.6762592458555 -1260.8277700207996 77.02094581966634
13250.492927175259 5883.334242442034 4207.5326087234425 1529.183597635675 -1147.7041639878632 61.99292669838052
1277.273741365271 -18668.064497289535 -6562.516119307845 1964.070258335801 -1014.5220738186298 -605.9123092302508
-2331.892640411659 -18078.754420217367 -6300.7718191417625 -387.9250001440033 441.67417055874415 -216.20079235846157
7583.095575185853 3290.392295791005 2709.6663625140623 -1775.8787774241164 535.4176435539506 -181.87942842917684
9526.1049113314 -236.91654358859435 1350.150198176263 -1601.3712019061495 670.2335363871869 20.121227705788012
14535.388395103693 45.01835005718336 2212.4228424956473 -1764.9478114318836 560.3577187645299 50.843588845103746
18935.50241932746 -109.82907769328386 2923.835970826149 -1865.6605547682811 354.96273772377117 74.27815342050282
23544.420859657577 -142.08568785409253 3920.9786489903972 -1932.0404460102147 94.89991284878309 85.84841169241075
28206.5249240949 -159.68989019451172 5130.337995145482 -2040.4587265218352 -188.99854905127745 74.83712918209284
33134.983771239975 -92.88694234010953 6644.2043196226805 -2264.86903950677 -451.1170670951917 13.467364056042786
38498.3347020595 -124.70576561997191 8441.030404674557 -2592.1095564311863 -593.7626810266712 -142.6877861961309
43301.671002834366 -1233.4484492422785 9854.620379878648 -2271.6296468669457 -463.0757243116048 -403.9287280920317
44785.14856867967 -3478.1743292155197 9821.354290874502 3.90870912461183 -8.551997883421091 -590.3932834738806
43280.019568127354 -1234.3054678983456 9854.926985007547 2279.804924812345 444.35288279818116 -404.20319031884566
38451.87458196369 -126.45644961107571 8439.145771806208 2601.4193955439714 570.1181047237516 -142.95147312128867
33056.994291060626 -95.61696835690914 6634.509098678845 2276.2967593841895 418.9323354870548 13.952622261887058
28085.889749170656 -163.49057405419126 5102.946357014998 2055.358490512809 143.74951908686677 77.6381415647353
23363.51734863514 -146.9756910840413 3859.618033079438 1952.3355034134674 -160.10597700430841 94.00665279952261
18669.54754359182 -114.65430583647085 2805.214813053998 1893.5318567583622 -450.42727463875235 92.64392412895883
14125.11489143895 28.95434662637539 1988.5716355281968 1808.2218394066758 -701.3727403459761 87.69577778546638
8859.427572449667 -254.62569083582798 966.072119287391 1684.91381468638 -833.614996324381 77.51079067390906
6881.550926671209 3167.2221104938058 2105.2655474705816 1930.5177928749677 -599.3150253925243 -22.47395264329103
-2813.540820709653 -17830.814930090542 -7211.435172364056 1458.8313552751608 -391.9101268390725 -783.7686348121052
-2636.68046763934 -12967.766305816127 -4361.626315611475 -2514.1952506921743 154.95579761380182 -745.3815239943592
3445.3530757635367 1642.1156577369554 1551.1815247929728 -3091.048671710576 194.94251202342912 -274.9063050399997
4450.88649348301 398.5620289563617 898.9210235896761 -2881.384813147757 272.73987348321634 -70.05838956762155
7242.673866598901 -80.78067306909278 1120.1495525678763 -3113.460520017781 225.1561301700504 -1.00308207037049
9643.053842308347 -74.23755695452171 1514.0170746905744 -3234.1657086421264 109.53716835338591 8.543821646929986
11889.122063836976 -113.91853356556949 1977.8128691421891 -3348.8655241924607 -27.514406402796755 -12.503573282393287
14144.557040823596 -132.2685582863673 2572.6704132945147 -3521.113685459262 -169.62051641226392 -81.49928598793338
16437.73078532156 0.36467049242279437 3338.9966318302945 -3856.357026855003 -301.9535344038062 -235.25158258513582
19075.57615528186 183.78944142509673 4329.865984836046 -4438.749385052765 -392.5782541648073 -528.8655488164172
21722.71473008567 -1531.1027970788 4853.4155998571205 -4118.684227377307 -337.12239783271184 -969.6302576833803
21509.07452544424 -6586.512957891751 3488.0152148729903 6.306915582607669 -17.883306439826153 -1288.222843748171
21700.221362842356 -1532.242385232893 4863.049374718718 4131.894161231113 299.3185785130181 -969.0496977479219
19027.978966270253 181.50739619496954 4347.191614308205 4453.854792346071 348.6949128963381 -527.1100141285301
16359.74721450751 -3.05563191123416 3359.52909108175 3875.01507762209 248.01537212316546 -230.86222906567141
14027.82961314677 -136.8534188916212 2588.032528634758 3545.6841168314263 101.58399382973384 -71.52586726633031
11721.66357591154 -118.98677334581637 1974.0148245866583 3382.7470837067954 -59.14764481845549 8.363101257308061
9406.124513827875 -79.67163080638892 1467.5547771829156 3282.2653492669165 -220.86423412110904 49.34886236607678
6899.222757714012 -87.58506776237127 992.1744791917839 3186.9509947596243 -365.15445500226156 69.72053105080954
4074.341823508989 409.4264220178817 676.6821259982565 3014.0268455410906 -412.6659762760399 56.74491623885747
3061.476304540621 1334.4017295499582 1047.004734095245 3322.2142694273593 -234.7511495585718 -166.2852628380708
-2771.9471574524528 -12776.623687610065 -4979.733619106781 2750.86614105642 -105.76978014141034 -1152.922753778046
-2366.51575510155 -8233.079231849162 -2190.0154018134263 -2708.7917579124723 -18.450036404183884 -955.741953053307
369.1828764370952 375.31630833516857 882.9578664579299 -3623.442455050551 -59.304006711141525 -322.8929514842883
-121.4839875489323 617.049029137447 471.0679890391648 -3594.7928538708134 -84.89800707148682 -96.6715316376079
134.69801655200513 23.16791872141976 155.22598891089862 -3581.500149318459 -108.9580403385226 -18.741061745511132
285.607544233684 -28.39253369368207 91.98284432138162 -3687.687234528494 -142.8922703886122 -5.7894901645504735
228.56446402403816 -7.755383352921811 69.06128653092821 -3818.046359884397 -167.9859497387536 -36.813159655702286
82.77235778181739 -27.46704697751212 61.26354872463512 -4016.239659962835 -181.4549229293147 -123.4475245946203
-248.50711760652274 127.51044465516519 87.86361586102359 -4302.243583420503 -198.9982634624068 -300.93958281250394
-201.9375164730736 704.0125666918872 388.26317631602615 -4931.749618627064 -249.3719620327047 -624.5187866291617
869.3531654697963 -1426.5885002810132 276.0639496397789 -5150.816274192307 -264.8189836162881 -1126.852327717598
-1543.2700460645976 -11546.819464640012 -3191.4663503830125 7.147324638927827 -27.187827202299545 -1537.419743423828
846.1249808612899 -1428.0799953239232 295.054599682653 5165.788116595582 208.0275696049156 -1126.0118225167312
-250.42866420932603 701.0555918058568 424.8577113051082 4948.872638792279 185.48790789359325 -622.1440939205719
-326.1002726085362 123.14453108954595 138.65478819713405 4323.390341127139 123.84508531937774 -295.33812997000194
-29.19379393212114 -33.07154513541674 119.47561253489636 4044.0965334686966 91.79623060818568 -111.26357870864321
75.86300286109079 -13.845026338840011 122.38675931427129 3856.7295349852952 61.93287578191135 -11.811034178682139
81.72498776935055 -33.76678460999937 118.33707313943086 3743.783566851608 20.288211608520648 42.110233596136034
-111.01707554753982 29.175295069855142 128.96384145083132 3666.8965759676203 -24.481156405680935 67.53180396000437
-347.42133206723764 577.1773835847437 343.3090720675111 3729.689360237989 -25.54866456973873 38.25016502624597
161.12821364587876 133.58986507484133 523.3378952209542 3735.9935256692606 36.02246860380481 -243.79823586014712
-2384.3770943787335 -8024.729959896082 -2624.613250661337 2756.3168868316275 57.21806928366735 -1220.767278298746
-2241.3578877479754 -4364.644688233176 -300.32456993144064 -2161.229363569768 -164.43484386562304 -898.1258872009745
-2141.454707154671 -271.61773838266674 596.0546945396075 -3174.2488153102654 -293.56509611239414 -275.7332209537228
-4476.153214198596 513.6031113774433 7.654910917180065 -3348.4742856796624 -430.1642596853723 -82.40598877082856
-6798.706766780824 111.0532871635368 -767.0781925227226 -3185.8092737677484 -440.37264835549854 -9.389246326001574
-9061.146625277335 52.50914830301835 -1320.611454392199 -3226.31156653867 -396.8692207226652 8.936146513929248
-11466.071285580747 85.83143794719426 -1856.2334424317255 -3348.8963191793205 -310.25319020474734 -12.684290772017558
-13916.287875469667 138.50054956013628 -2413.8397532383456 -3515.147066486171 -195.68571714363344 -82.47775512710679
-16763.119494743743 106.70924466092244 -3156.9142892961754 -3732.0959136775737 -91.15339622927627 -225.66164983730025
-19534.102777559903 1007.8883298609007 -3644.3706992340512 -4032.336320686982 -79.65647354572887 -485.5135634972698
-19602.038209915514 121.2829023429432 -3817.4385564208824 -5350.04572160716 -166.87993833363183 -946.1889610719805
-25705.75079902239 -18718.189002935917 -10902.119666986964 6.328346485810274 -36.675257888804154 -1420.2417587671698
-19626.151897252515 119.43155904574897 -3788.9570271807024 5363.299589955624 90.71081107067272 -945.683209502291
-19583.825930588937 1004.2282334840286 -3588.225129622177 4047.4839728452102 -4.695364371759043 -483.91151490260023
-16840.915044180605 101.36387454903515 -3075.3864249053745 3750.773449040261 -5.815682568371808 -221.52433926670022
-14024.338447478282 131.81886755717474 -2312.0321023385113 3539.7035878747865 83.57145680028734 -72.91757972662799
-11605.111517299734 78.5144399573853 -1744.6648057348652 3383.1730960968553 183.8054748234408 7.6943795817847205
-9226.297923972796 48.72608311841327 -1217.3765719581174 3276.830044903319 262.10557661684277 49.736214540999995
-6964.67496920361 111.74853393078651 -700.6654482505984 3262.9476977036584 313.1369524700653 66.18197086844592
-4603.646191154419 467.5869469042665 -23.04987701231794 3442.0456697450977 344.130352353942 27.179744780924562
-2241.3731144630756 -412.08606540007975 376.0445131960209 3215.7210086928685 281.8107847290576 -217.25461948274477
-2239.070362673926 -4219.816565376193 -627.6123852940253 2147.3412087838733 195.94903610375263 -1069.4075996260017
-2486.786592352619 -1942.6581058677361 987.2408692347162 -1167.7656553821491 -348.69573914108616 -543.1808666034468
-4281.414851302816 -493.15833281901473 532.0834224719284 -1816.2551209536343 -561.6954686072895 -119.95135161710485
-8738.384114478655 287.29708217732934 -476.08057694088393 -1974.8523613125935 -791.5355635275598 -16.13486677061579
-13654.454830983925 137.14920277590574 -1696.912784862367 -1852.1691364878402 -773.7466177105565 42.65837027577659
-18403.4517643765 97.09941763003876 -2756.157107016985 -1857.0759448398107 -645.7194857296447 73.32920152156922
-23149.55721880971 130.7691956935949 -3810.7132443622995 -1931.6095584698937 -438.14498684538813 85.41328670879562
-27991.29738932296 166.09295952973872 -4977.485799393124 -2035.492273948904 -181.8594983161179 74.20563175010635
-32727.0010848674 361.60192267160585 -6195.520301961709 -2124.5022256864586 62.11962510956905 23.452952801741628
-39074.631887761156 -201.9136893429127 -8260.514921893302 -2361.9404433715804 191.17888793637064 -84.97096317607333
-39954.47298716116 4312.73831555643 -7279.813055694717 -3208.640174502882 52.45085980197972 -376.53322298655985
-52689.074744089536 -27945.31950061051 -20354.854892658648 3.9540725852859637 -46.553385270471296 -913.2315168526361
-39979.88065934726 4310.584569708219 -7241.608580563119 3216.910380754779 -148.86768102680875 -376.9670594894536
-39126.4825304585 -206.16870263698075 -8184.3087852254275 2371.3536942047913 -297.1575234857732 -85.5546300826666
-32806.55045504886 355.4323288930658 -6082.365840562076 2136.0268079207726 -182.63790733285376 23.43827605651734
-28098.13428069516 158.4539750533661 -4830.708347127865 2050.5111650595895 44.545815358819745 76.25627773080483
-23277.74769152721 123.1087054692668 -3638.0549760643153 1952.3606878492267 286.920794606462 92.50879600809877
-18534.363513509754 92.75839920315019 -2572.828316777437 1887.7743357668214 492.48151017601396 91.35990385630625
-13754.075051046102 133.0676048252511 -1534.1417169864944 1897.05232434965 644.4454954538404 80.58478284536878
-8784.836174075845 254.46859246954776 -399.2261426221323 2020.6063877862973 723.4524114999523 39.84322785116184
-4301.275338457815 -557.2773092960747 440.0796988968544 1826.325663767829 565.6917860176528 -90.32594070320205
-2481.745056034067 -1876.5085538132935 741.5357876644545 1147.0899231150818 386.32834326948307 -638.9262675342605
-2778.2643553494713 -1128.912753154948 1631.0779449140002 -455.20434705124154 -671.8612648133585 -278.7939974288433
-6005.4184744600825 -751.7237013854804 540.4357396450597 -727.134241066455 -925.8123640656412 -12.711242372986433
-13306.64033806383 -748.7118456576254 -1301.0712826493482 -753.55989709719 -1183.1917368700774 33.838816116803386
-21263.85579295135 -1468.5920938336267 -3338.002606062066 -725.7013672340788 -1105.135232021065 83.02157779568807
-28653.90570842819 -2065.511544923521 -5116.965322428727 -735.8673740665167 -873.1866235320612 125.02590052465558
-35940.24611546916 -2586.022470436079 -6918.050947290097 -774.9497323902384 -525.4503310736632 166.32730005900584
-43393.28023193957 -3194.9087131671645 -8958.995865223002 -813.8417933670885 -102.5260056890446 203.29284318864063
-50667.82495269074 -3404.6928001710494 -11049.975212147969 -900.2664129881891 315.13667575231113 230.65219325848545
-57884.24240265498 -5034.309186086387 -13812.655971941618 -952.3250418817095 586.0019980419919 218.05059343310202
-64137.17955136637 1410.2736472076708 -14152.600474682444 -2097.4209920596704 559.6497327834654 134.91201067094534
-88880.28971370088 -42267.717253119314 -34857.530060838 2.0564409104153043 -56.964854424042095 -639.809581385222
-64163.81979754857 1409.5992433882057 -14103.654525266516 2101.7460224168185 -677.528834880925 133.97087759190316
-57938.12395088038 -5035.394660906147 -13714.188158731988 957.3109044048176 -715.313365923389 216.24180050253247
-50749.130966334 -3405.5539085353903 -10901.482981335632 906.4529930127255 -461.89553725210413 228.18871445900484
-43499.29627809228 -3194.243633396826 -8761.42675943634 821.9406021750699 -64.47277994262446 200.67950952567713
-36059.18757644967 -2580.672961738593 -6675.532186801254 785.9690009073036 341.82513119511697 164.7348526947741
-28753.101278723458 -2049.2969264949174 -4839.312325804836 751.5276968150201 688.983221449706 127.10736171096566
-21289.07532589054 -1439.0232808439287 -3051.418748476675 747.4722132624693 957.1114702398606 93.33499370166206
-13239.257289771662 -724.8095494323495 -1076.7297657444856 776.2323310307864 1125.1715113320204 51.77956065757914
-5920.750772097379 -742.631100899368 590.811372680639 735.6253279500008 966.9726618136659 -4.184768924219818
-2725.095688990738 -1068.4000720830654 1481.2532772032791 448.90764637163886 755.5086321692014 -336.13351680112396
6088.261284600117 -16485.408489930895 -3119.1441615992353 517.6608015795707 -1.3761372485987522e-08 -6.519958795081493e-09
15751.130761055332 6160.0148882418425 5532.225512868516 -1535.3018756419588 -6.992006085226876e-09 3.3571634361351244e-10
15958.158592122127 816.4686436608479 3078.6746007255983 -596.8134552530213 -2.8605739998965873e-09 -6.511395866937164e-10
21981.275856745448 1675.3740456871358 4278.055845547273 -709.6882349123016 2.1864643429125863e-10 7.31915861251764e-10
28899.886504331284 2031.0250141064773 5847.191400890629 -758.8335672618673 9.972587200479666e-10 1.8095107634508167e-09
36075.613877030795 2621.8325225372173 7866.190442211094 -815.7270542293063 -7.952083436180146e-10 -5.881979348032473e-10
43444.17340951384 3231.92558794721 10275.581176009333 -888.4409723140506 -2.7680422398645987e-09 2.63996824401147e-10
51528.21899985917 4000.579873775159 13268.501521251603 -1006.819149063899 -1.4972316719763512e-09 3.6164529149118607e-09
60913.95311799278 4884.237245011979 16936.616697735597 -1132.1411832418719 5.709042127932662e-10 -9.087681718256135e-10
70277.70390598512 5246.897494868108 20486.77982197738 -945.8988593640164 2.7608981767457408e-09 1.8690471392801555e-10
74322.80480278174 4606.574672848475 21811.05015744817 2.4963080646889892 4.703414990814281e-09 1.1841407854262798e-09
70241.83693274503 5243.910006837291 20474.540729316806 951.1220761159487 7.133190926822408e-09 -2.786286756872869e-10
60836.32153430038 4877.943757272212 16907.852617356053 1138.101972555698 1.4783183566180469e-08 1.999596932478198e-09
51395.427906640805 3990.205533119983 13213.700028398544 1014.1893205380655 1.6182361672889556e-08 6.620375359034369e-10
43231.432970908165 3215.63012463086 10178.01401352826 898.0989535268693 1.370933494504456e-08 -1.8853540950658498e-10
35741.886674795074 2597.596099060812 7700.521371857475 829.029639017334 3.7603720137724395e-09 2.3158541750945005e-10
28378.744277733622 1992.4481717940428 5575.650776320029 776.6479797950304 -7.543821567423947e-09 1.8329249229509514e-10
21180.781556166294 1625.210358460895 3857.1767061019377 738.4248180858928 -1.1286410028787941e-08 1.5474643788593312e-10
14646.787117116448 692.1121487458887 2378.924034552741 650.0874824199667 -1.508081659551408e-08 1.2139098615193689e-09
12728.095063996534 5641.118823869341 4014.4546938617673 1465.0570251362128 -1.3979358115534524e-08 -1.3352963179613653e-10
1080.5069353523418 -18036.77052487315 -6613.579853351585 1864.9557973583644 -1.2542400895654282e-08 -6.421643661269627e-09
-2004.17024335512 -17480.345853506693 -5882.997622332185 40.64295794656923 -4.240431117352728e-09 -3.849568663838454e-09
7673.099910053828 3150.050565870567 2712.659479268996 -1686.6664434601787 -3.9166323517747514e-09 -1.5930075036862945e-09
9703.704689957633 -203.1619962298192 1617.3637793041644 -1561.8767167524247 -3.0243800797080667e-09 -1.5976930889394225e-09
14503.095857854521 51.20537232089432 2503.5752252820907 -1772.0018119634992 -1.4250455260267358e-09 9.446132764878712e-11
18839.34884207079 -92.11913385828242 3307.326252316091 -1904.011794326227 -4.702766231989841e-10 1.3015979405395228e-09
23439.9058341863 -108.19457489758715 4451.525924461476 -2009.4417402921333 -9.037223192009947e-10 -8.063381073952769e-10
28174.465056193134 -105.2578666998529 5868.105301055701 -2168.154985418679 -1.8431609571933905e-09 -1.1047367465266689e-09
33305.8920193251 -12.003860885487594 7640.986905259581 -2451.0076846106263 -1.3649192887044137e-09 2.4262529763063867e-09
39018.26991369725 -16.42911731343047 9716.274486250832 -2816.543821686202 -1.117466119637811e-09 -3.1889451079791797e-09
44211.05834248895 -1109.6000290097363 11344.087531270856 -2455.9340740147277 1.01276853570198e-09 -2.9571562976116184e-09
45837.059581492926 -3420.482485034454 11339.337402773597 4.8320035085521 3.3521490028221024e-09 -2.0466943695396367e-09
44173.78616005489 -1110.958536876254 11344.144105540177 2466.209567553415 3.218391331216708e-09 -4.372695983079211e-09
38938.68433757048 -19.14932862883646 9713.135387379345 2828.8052082770573 7.1264367740297985e-09 -2.0853105908713587e-09
33172.88658826797 -16.153600832563818 7627.322285328798 2467.1177453586142 9.722961658020779e-09 3.1743496720082476e-11
27968.51045110646 -111.00880628195259 5830.9509709983495 2190.8491035249695 7.20826212607939e-09 1.1404051036834062e-09
23128.882723706432 -115.59210133298686 4370.10169133709 2042.5044870437396 2.474876970026685e-09 6.792804541078112e-09
18373.85070947902 -100.29855007343343 3151.630532595313 1952.455018695645 -2.4987658608921492e-09 2.0246107013122128e-09
13798.036643157118 33.56080390728767 2222.050020602616 1846.4916908458745 -6.958952969426946e-09 2.6221549376259645e-09
8646.03182310664 -219.2580894935663 1144.5669443954357 1705.9305366392764 -8.928673356223271e-09 1.4640630929818599e-09
6620.672659829629 3023.2248939187143 1943.8541092194018 1873.0830982225898 -6.7126412761631116e-09 -5.994857943392162e-10
-2813.9585558015838 -17232.235708704116 -7225.48465505119 1381.997887793465 -4.541571563265734e-09 -9.202921091855387e-09
-2580.698322326054 -12796.624717633005 -4252.182018378126 -2321.910833190199 -1.4739574005773193e-09 -2.2591972737018295e-10
3540.065623389188 1698.2199645819048 1592.3180866459918 -2917.765258984885 -1.729334064837218e-09 -2.6095876570764176e-09
4604.498867535607 404.02702430701567 1045.7327644563095 -2830.2389918847302 -2.867064641254302e-09 -2.370954099717437e-09
7320.043159285664 -47.208700475902816 1306.0169236578656 -3126.4798157365526 -1.967352995790872e-09 -1.9915686877425287e-09
9666.497579244977 -33.23697545644685 1731.744917447003 -3302.535655248806 -2.01178257386303e-09 1.0067298106264388e-09
11908.388791294772 -53.613733862230724 2268.411665045677 -3477.945421635949 -2.598677495413426e-09 4.525384511566699e-10
14198.962520069474 -49.53266786674696 2969.090614613495 -3731.2007528599197 -1.4768487544003506e-09 -2.5340991527400547e-09
16588.32584194087 115.27765103954943 3868.709665621809 -4162.430284924502 -2.7002978741919037e-09 -1.9699353259738928e-09
19395.091077116977 337.21317482782655 5003.574334355397 -4810.415917153844 -2.9629307896072987e-09 -5.0633346404538315e-09
22269.506695775934 -1340.395604580889 5631.840047791126 -4434.209192719738 4.704878708849947e-10 -3.9321346179121974e-09
22090.882598079992 -6542.379876993912 4179.251968652121 7.550176236534034 4.5268044868151947e-10 -5.368818278839171e-09
22230.67973526564 -1342.1851599009112 5643.218436596516 4450.314511691558 4.853317747688379e-10 -5.602114327984964e-09
19313.34796453629 333.63774547228405 5023.885749392331 4829.795308092936 2.2434484270306143e-09 -4.106361473077413e-09
16455.065077690128 109.87043267878516 3892.2890321150194 4188.208116118664 3.4337059862110664e-09 2.61713317684098e-10
13999.8134496373 -56.92158585298134 2985.4209548844215 3768.060890032279 3.6884644782908538e-09 1.4198500153383975e-09
11620.591083288928 -62.52692759489761 2259.909686361769 3532.8276476966544 2.1640201991468544e-09 1.0515846859959765e-08
9255.570565318492 -41.82480912633567 1670.7803637526247 3384.7798512211307 -8.344541724270016e-11 6.319919698682952e-09
6734.75897229001 -56.7267575437694 1149.5066488049445 3255.6023656003176 -2.5798611025251716e-09 4.30739088841392e-09
3984.6571005264495 426.0742805973176 791.7759850311857 3047.4929073745643 -4.239620876589356e-09 2.410818211728838e-09
2935.9210454839817 1256.0269858543368 937.6233065283304 3239.2717792212393 -2.3461026454896228e-09 -2.1015420514913785e-09
-2764.169869325642 -12369.756367867563 -5061.29085214634 2632.6688246934655 -1.3188408143349761e-09 -1.3649369634549657e-08
-2332.153949849961 -8137.956545351485 -2149.064055427121 -2597.763212788988 -3.8260222767760865e-10 3.7539571451361553e-10
456.0379291465809 437.1470631497064 898.52284509862 -3488.712925185199 -9.065801442886823e-10 -2.172097168795517e-09
28.632503604667527 624.572404275688 530.1475151252796 -3530.716777813 -2.788908548545521e-09 -2.882193150810508e-09
259.90623614691026 14.651705229249622 201.32428570531204 -3597.262524669641 -2.9264917156268666e-09 -2.037076285432704e-09
387.29621697876274 -33.08840137971745 114.27097215851498 -3767.6844163573805 -3.145156801664939e-09 3.193312281268845e-10
318.168951132535 -10.351958793864195 80.88394537874777 -3967.195883308638 -3.823766969723863e-09 1.744642652568018e-09
161.4200992527644 -24.76205739507897 74.80472242706527 -4254.8808382197285 -2.8760950288031495e-09 -2.4069866100262516e-09
-185.05092173352222 142.8008455549597 108.3905710960096 -4643.716976142132 -3.6887586318812282e-09 -4.089679705998606e-09
-140.20657029414346 739.9649356261597 425.9901829526218 -5339.312957280663 -3.841779783186894e-09 -7.928328216166847e-09
1036.6570208660294 -1354.2469403210719 329.427284123292 -5513.42724822598 -1.8431892678805184e-09 -6.000311358889121e-09
-1448.055104923212 -11750.013621422264 -3389.5378631651984 8.469476875593624 -2.0465695249605176e-09 -4.573953660269581e-09
996.5306773381692 -1356.4960062333196 352.1594711902946 5531.504290002046 -2.058682918582022e-09 -7.706114857342072e-09
-223.5028798440503 735.4908625369835 469.78621178835937 5361.097556234676 -1.4703515835434722e-09 -6.788069661922691e-09
-317.4201147476716 136.12098440772357 169.15773751799426 4672.729583309473 -2.146372024558474e-09 1.8209620478160105e-09
-28.81071776961977 -33.66481580541666 144.3578384226656 4296.4900329157 -4.128155040028503e-10 1.8995098827190304e-09
58.023559847559426 -20.46669680453498 144.5717126939466 4029.6647553589773 1.1335434813020129e-09 1.1514064368611798e-08
38.545704846514866 -41.961540794413324 146.64017663009292 3863.6275916294735 1.9648290772167343e-09 7.207130892084024e-09
-159.5463196758968 23.43752385488982 177.91849747542847 3745.4232776541903 7.166883753129127e-10 6.792726381377179e-09
-352.1960074301641 565.4641600217169 391.03256438657024 3750.7495587210615 1.8831070036640085e-10 2.269231025309182e-09
125.87494244692778 91.1046488051062 442.2032240431575 3654.5617007646424 1.0130579153333485e-09 -2.9992666128464407e-09
-2344.178657513294 -7738.7988518617085 -2698.1476873138454 2660.869139473311 1.2641159230497578e-09 -1.450921160994767e-08
-2155.5613603424686 -4277.8342736799095 -241.49868202139345 -2105.250402367098 1.5965617716773295e-10 -1.2923884185056522e-11
-2029.4816774462356 -212.5581910022095 583.4469622873653 -3078.5356300114586 -8.128138162533105e-10 -1.617598055503322e-09
-4309.259313920179 513.2724722607279 -15.085791637141607 -3286.264176079745 -2.8156130760237374e-09 -2.502427154382758e-09
-6627.038163659103 70.35379628202679 -856.1837173164154 -3190.551715976255 -3.5475413717733773e-09 -5.69811753337035e-10
-8887.627461075903 -2.433524088628591 -1496.2743236227586 -3292.785388481657 -3.795663339190014e-09 -3.9599257206646143e-10
-11306.559870299881 19.672581442103404 -2123.578631740539 -3478.8069517056633 -5.5343679639108245e-09 2.0825412505587337e-09
-13810.044901415195 62.70883052458061 -2782.3420935518766 -3724.436150916644 -4.90210011472314e-09 -1.2479679512011899e-09
-16780.203252518673 15.678460746263223 -3646.542401734011 -4030.7206416742015 -4.533584840871185e-09 -3.217321520310179e-09
-19734.599580932725 917.269914329798 -4244.463980526996 -4374.395461514569 -4.493235894464931e-09 -9.922263899397876e-09
-19803.2116193257 90.44381458923213 -4440.889167172189 -5690.468004287422 -3.976762197321904e-09 -4.031905476153952e-09
-26130.084035420503 -19239.49687520138 -12023.695524286519 7.6067278057581404 -4.127231612027771e-09 -5.219095378095062e-09
-19844.837471143193 87.73088254752201 -4406.630270098897 5706.693138480064 -4.2403826006065515e-09 -5.084703325053397e-09
-19819.88763043764 911.8933408343142 -4176.818352326571 4393.9069472597475 -5.564937621826971e-09 -6.702161492455616e-09
-16912.49089004703 7.736298977503083 -3547.998739343881 4056.6142231367025 -5.366040167764652e-09 1.2980061470102555e-09
-13992.363969136914 52.490864782268815 -2658.5542841076185 3761.424134056504 -4.455739277542392e-09 2.990249825529645e-09
-11540.277920589262 8.028176352979854 -1986.292304580031 3534.608834464069 -2.5478841259030105e-10 1.0753765877780097e-08
-9165.720756476749 -9.252727525207543 -1364.8806171295457 3379.5151020338503 3.6046328144578865e-09 7.231093945847533e-09
-6908.003234090256 70.08718500739765 -760.360450149305 3323.457559645264 3.991609709430577e-09 6.236203997644907e-09
-4524.587884000958 442.5196827846149 -33.07092662651855 3441.273804402875 4.627736860385312e-09 2.3707880103529533e-09
-2187.26449493154 -416.67125793012644 313.18648102327495 3142.10672385254 3.97799104767671e-09 -2.285254652178992e-09
-2140.938532680637 -4017.758942596473 -653.5404902801781 2083.8832993718293 3.295812511794338e-09 -1.2872646948380861e-08
-2322.063103303765 -1823.2517081477245 1060.0221646475704 -1152.1100615238306 2.1312906994808145e-10 -2.7416735548513316e-10
-4114.535433208618 -407.68581702736697 479.1028853068271 -1759.620329264742 -6.790354944996579e-10 -1.0318808030262971e-09
-8518.608791848048 307.89885831443337 -568.9796829848459 -1931.2287775674604 -2.7163324922696575e-09 -1.5384595819512015e-09
-13402.323739468138 114.92913159894155 -1897.4599155788446 -1848.995650325478 -4.395319663785813e-09 -1.28810029309534e-09
-18118.588633909047 59.82654916320568 -3098.826118334849 -1894.2286976195453 -5.4611888344879844e-09 1.0130474237257658e-09
-22867.80088721422 88.32017345003959 -4319.021646529387 -2009.6263667250475 -5.439468653278823e-09 -7.976188598490808e-10
-27795.687511371507 117.46274841215092 -5689.434751563687 -2162.8841644888203 -4.600542280464026e-09 3.5286973343318095e-10
-32737.928147012273 307.4617114441774 -7145.30958757886 -2301.9580865207804 -5.6221165500858206e-09 3.7134029184926476e-10
-39496.085585703826 -299.6188677015315 -9486.68452880986 -2558.883780352609 -5.102706035486904e-09 -4.184835589171598e-09
-40462.38035667442 4443.038911753785 -8449.763271028256 -3405.71160799809 -5.19773180052141e-09 -7.267701995772313e-10
-53721.364006735814 -28828.085864485805 -22389.287021996355 4.930769883019005 -5.47722578403409e-09 -2.849453561992732e-09
-40506.16270086062 4439.87680186088 -8403.663945959337 3416.196379980369 -7.119101308461495e-09 -1.1895666673922278e-09
-39584.848078282965 -305.8811962752539 -9394.493917665126 2571.3820495375076 -1.023771689645514e-08 -2.0584600690654042e-09
-32872.79281764543 298.29345517992044 -7007.734497990864 2318.322308332422 -9.713649218312526e-09 1.9568604514574872e-09
-27974.801966161318 105.82564930253903 -5509.389693510893 2185.9130530849748 -8.219531000275282e-09 1.817951122973227e-09
-23080.478291576317 75.94076496379004 -4103.749048599642 2043.849924181863 -2.7331168439559406e-09 6.2884932816587025e-09
-18334.345742370664 50.896773250826804 -2862.9414281354802 1947.2055562116818 4.394573593913265e-09 4.374296924680721e-09
-13566.235546226806 103.8981342797603 -1675.1491916717725 1926.4626508729696 7.873238505595737e-09 2.85425683088647e-09
-8593.94670515627 251.18221346323048 -446.489516649815 2007.7729957209735 1.0107490400201868e-08 1.3213168337244952e-09
-4140.571026833049 -505.75875370966844 378.7913999992952 1775.1166723901065 8.06293432020766e-09 -9.838485581781242e-10
-2300.6042949639605 -1704.0590187464024 747.3650499648425 1121.7931326910787 5.701433991589511e-09 -8.166306741941298e-09
-2599.8658395847774 -1029.9023179724195 1559.3739417543486 -457.1737143173344 1.971223184682458e-10 -4.475637638279295e-10
-5809.899730882022 -671.1460823192435 367.5164621919399 -695.0085354042429 -8.106404436603043e-10 -3.772733236928616e-10
-13031.056584727065 -724.2050329919335 -1512.2160643928296 -728.8618728671622 -2.2108608277449093e-09 -1.285339834566912e-09
-20918.407028067322 -1481.4043581608119 -3694.740308809728 -720.3187990381635 -5.680806935970395e-09 -2.283400135638658e-10
-28249.589508697147 -2096.809050361926 -5685.724968604288 -751.1431057606161 -8.18765855115089e-09 2.410232013971836e-10
-35536.84908031232 -2633.2430352653214 -7753.755228317234 -810.846492685406 -5.222693388873267e-09 -2.238294882772607e-09
-43117.23182693523 -3274.6580822882206 -10137.39526489882 -872.5463094047918 -2.9769742226903873e-09 3.122487157725118e-09
-50738.08681892843 -3540.9097068603796 -12661.701735893319 -977.5849603507568 -4.5441019835834595e-09 6.824762976975762e-10
-58591.62930521599 -5311.586277386554 -15910.417598624386 -1029.9269700940738 -5.205901487670417e-09 2.8289584008689417e-09
-65256.61282991777 1367.9543654009956 -16282.308391957496 -2207.338386878421 -7.975746285637797e-09 -1.1176837233506376e-10
-90744.49906232972 -43565.70040475674 -37584.810918437965 2.8489105208934973 -7.456311124087733e-09 -1.8431371984206635e-09
-65302.813736829594 1366.3818001428558 -16223.041469296104 2213.397943341151 -8.911598570193746e-09 3.226361400265887e-10
-58684.5183774972 -5314.356930019512 -15790.761365928975 1037.1322672061683 -1.541064875709708e-08 1.757612722030899e-09
-50876.952664473545 -3543.9833151390358 -12480.019190654824 986.9282808943482 -1.7502774340982796e-08 1.4622045796386374e-09
-43296.03331182082 -3276.1693696134707 -9892.761347513275 885.39375833299 -1.4643368295708115e-08 3.3862335158119095e-09
-35734.04044644704 -2628.483571044397 -7447.020354750059 829.1269837879702 -6.635866967030779e-09 4.008740006611333e-10
-28409.21363684315 -2076.41743911031 -5321.2463066682885 777.7494489544334 5.861075180746411e-09 1.4977779017044668e-09
-20950.30300680162 -1441.4856637584523 -3296.468836703279 756.9835137476357 1.3389371389394e-08 4.731255387468991e-10
-12906.882232768443 -693.6525466086298 -1175.4760603950713 765.8690257440413 1.7291004184016856e-08 6.463878321483207e-10
-5658.270059216909 -659.4835372940587 469.1221238792463 708.2040443434812 1.3839311918673047e-08 2.991278336139658e-10
-2497.330657302206 -927.4257916987561 1370.132866557227 450.2708077279023 9.929351563187083e-09 -5.003329306418891e-09
4822.110432355275 -17680.802604331766 -3857.607651592946 -227.41968778898973 -834.2293124502304 -72.38998707182508
15341.796092272236 6298.389342977217 5287.263095884568 -1564.795899558853 -1137.3634127856974 86.79352910224448
15894.797583062258 777.5065361031366 2700.5972347776683 -619.1537958025913 -1070.4235640344123 -83.8386538835356
22120.13670031042 1687.2714040739293 3822.22535113602 -707.5023667753882 -894.7929040063182 -96.74108976330636
29119.937846219105 2021.0320569288538 5235.974265411722 -741.3772867393661 -575.3817979185282 -133.50035184895847
36301.35363828947 2584.3249093467903 7007.432602282902 -778.4417958722613 -175.3608151200763 -171.51947250423976
43554.5323900277 3147.7947263973197 9072.701833905858 -828.43840629697 276.76153867041086 -207.13283934823468
51295.7198620657 3839.01332504395 11620.797791845009 -923.591339190395 708.6802156282749 -223.15360307255108
60058.19328372849 4611.690550659991 14785.691290330067 -1036.9031553136392 950.1080699264465 -187.99132238675188
68696.13996636821 4864.223761920466 17913.360801252904 -871.0439125648951 737.4500623937679 -81.41703683182624
72416.146851062 4206.337708472622 19098.38510310212 2.015308342879905 -0.9525040394100452 8.940319496807188
68674.97365945055 4861.854098328981 17903.562412683048 875.1975713292497 -738.2595517109743 -80.26111945845965
60012.15795072394 4606.694141555623 14762.930825128384 1041.4375931781858 -947.5102123096608 -185.6932962088103
51216.73585924235 3830.830265334773 11578.121831034208 928.8256027886723 -699.8322031181066 -219.83008144623193
43428.39226547972 3135.3132908656494 8997.95432557394 834.7224393577154 -257.23117106658725 -203.1277932874576
36105.98610339087 2566.4287501051535 6882.211608970383 786.4863442552107 213.57118457091275 -168.06109018118522
28818.456024286614 1994.3567474194708 5030.8601913267075 750.7522705757112 647.5130074721625 -131.48076937083252
21665.04947935234 1651.3898448119014 3504.494016554037 724.6813981842814 1018.1823917095261 -105.06932448479127
15065.127338743056 683.5672776761022 2139.333836334158 643.6762592433469 1260.8277699902264 -77.02094581943618
13250.492927146704 5883.334242431294 4207.5326087124295 1529.183597631192 1147.7041639607492 -61.99292669687209
1277.2737413576317 -18668.06449725376 -6562.516119296765 1964.070258335456 1014.5220737936227 605.9123092153998
-2331.8926403980345 -18078.754420220328 -6300.771819139481 -387.92500012044036 -441.67417056721007 216.20079234935272
7583.095575203035 3290.3922957845843 2709.6663625144984 -1775.8787774221698 -535.417643561996 181.87942842629693
9526.104911360768 -236.91654357266248 1350.1501981850859 -1601.3712019046309 -670.2335363930348 -20.121227707458516
14535.388395118338 45.01835005057622 2212.422842493507 -1764.9478114269866 -560.3577187675222 -50.84358884646825
18935.502419334312 -109.8290777021247 2923.835970822203 -1865.6605547678732 -354.9627377249063 -74.27815342285514
23544.420859671874 -142.08568783458426 3920.9786489994904 -1932.0404460127438 -94.8999128470961 -85.84841169246366
28206.52492410613 -159.68989019241056 5130.33799515202 -2040.4587265259927 188.99854905600722 -74.83712918311184
33134.98377124976 -92.88694234460341 6644.204319631492 -2264.869039514899 451.11706709690407 -13.467364053944602
38498.334702080334 -124.70576560229375 8441.030404695679 -2592.109556434789 593.7626810256871 142.6877861987816
43301.67100285204 -1233.4484492587972 9854.620379888911 -2271.62964686577 463.0757243118545 403.9287280864116
44785.14856869913 -3478.174329222786 9821.354290885522 3.908709119059395 8.551997888025895 590.3932834735691
43280.01956815777 -1234.3054678726762 9854.926985032998 2279.804924810647 -444.3528827875948 404.20319031735414
38451.874581953714 -126.4564496921598 8439.145771788144 2601.4193955575865 -570.1181047123962 142.9514731230582
33056.9942910534 -95.61696839407524 6634.509098669357 2276.296759398666 -418.9323354758437 -13.952622259747567
28085.889749139435 -163.49057408264179 5102.946356997502 2055.3584905288735 -143.74951907993747 -77.63814155900297
23363.517348599995 -146.97569109995584 3859.618033061202 1952.3355034173103 160.1059770053865 -94.00665279621963
18669.54754357639 -114.65430580779851 2805.2148130555647 1893.531856745777 450.4272746338089 -92.64392412212014
14125.114891416488 28.954346626469235 1988.5716355196228 1808.2218394039885 701.3727403315374 -87.69577778032203
8859.427572437135 -254.62569083691463 966.072119283014 1684.9138146778764 833.614996304919 -77.51079067121081
6881.550926658089 3167.2221104865907 2105.2655474648673 1930.517792867765 599.3150253792869 22.47395264285428
-2813.540820702265 -17830.814930050583 -7211.435172347734 1458.8313552711095 391.9101268301031 783.7686347929747
-2636.680467634642 -12967.76630582461 -4361.6263156138875 -2514.195250689434 -154.95579761655188 745.3815239929547
3445.353075775395 1642.1156577469312 1551.1815247970217 -3091.048671707554 -194.9425120281355 274.9063050348561
4450.886493502585 398.5620289744961 898.9210235964538 -2881.38481314621 -272.739873489414 70.05838956571858
7242.673866608325 -80.78067307772122 1120.1495525640605 -3113.460520011391 -225.1561301749859 1.0030820698586922
9643.053842318617 -74.23755694846457 1514.0170746916313 -3234.1657086387945 -109.53716835672596 -8.543821649123156
11889.122063854711 -113.9185335438769 1977.812869152069 -3348.865524200678 27.51440640119358 12.503573279768963
14144.557040828904 -132.2685582942713 2572.67041329448 -3521.113685469257 169.62051641030783 81.49928598778277
16437.73078533483 0.3646705053906629 3338.996631839655 -3856.3570268661792 301.95353440200995 235.251582592107
19075.576155281673 183.78944138506574 4329.865984830136 -4438.7493850554165 392.5782541632304 528.8655488201746
21722.714730103526 -1531.1027970784287 4853.41559986834 -4118.684227377297 337.1223978310641 969.6302576756245
21509.0745254777 -6586.5129578414935 3488.0152148989278 6.306915578302014 17.88330644250297 1288.2228437441256
21700.221362862878 -1532.2423852213024 4863.049374732715 4131.894161226499 -299.3185785070926 969.0496977420476
19027.978966272865 181.50739616628317 4347.191614305241 4453.854792361514 -348.69491289243626 527.1100141291207
16359.747214503734 -3.0556319446346567 3359.5290910753138 3875.0150776375485 -248.01537212010655 230.86222906704447
14027.82961312004 -136.85341895320448 2588.032528611159 3545.68411684784 -101.5839938278466 71.5258672739584
11721.663575878463 -118.9867733974843 1974.0148245624068 3382.747083717205 59.14764481839709 -8.363101250383423
9406.124513817309 -79.67163079869667 1467.5547771808742 3282.265349252629 220.86423411823853 -49.348862356527995
6899.222757706285 -87.58506774668503 992.174479193113 3186.9509947523507 365.1544549941434 -69.72053104241179
4074.3418234951496 409.42642200211264 676.682125989488 3014.026845531811 412.665976267331 -56.744916234965345
3061.4763045344803 1334.4017295421918 1047.0047340913334 3322.214269415724 234.75114955430004 166.28526283551986
-2771.9471574451154 -12776.623687578518 -4979.733619093839 2750.866141049299 105.76978013869984 1152.922753750487
-2366.515755103651 -8233.079231863043 -2190.015401818683 -2708.7917579126556 18.450036403385738 955.7419530540517
369.1828764469223 375.31630835362506 882.9578664641498 -3623.4424550527715 59.30400670826693 322.8929514800544
-121.48398753773971 617.0490291525239 471.06798904377047 -3594.7928538705014 84.89800706613694 96.67153163449362
134.69801656782093 23.167918739742444 155.2259889179461 -3581.5001493129084 108.95804033190677 18.74106174509185
285.60754423339796 -28.39253370899649 91.98284431346106 -3687.6872345242377 142.89227038184205 5.789490162886381
228.56446404419654 -7.755383326298492 69.06128654259344 -3818.046359895783 167.98594973329224 36.81315965134385
82.7723577850973 -27.467046988999044 61.26354872165388 -4016.239659974149 181.45492292497715 123.4475245950373
-248.507117598938 127.51044465545118 87.86361586204451 -4302.243583434526 198.9982634566158 300.9395828187978
-201.93751648512836 704.0125666327561 388.26317629702106 -4931.749618631777 249.3719620282092 624.5187866342372
869.3531654779016 -1426.58850029323 276.0639496408131 -5150.8162741845 264.81898361276495 1126.8523277117802
-1543.2700460485262 -11546.819464620427 -3191.466350374495 7.147324634783468 27.187827201136507 1537.4197434116898
846.124980853666 -1428.079995364564 295.0545996700517 5165.788116589379 -208.0275696039583 1126.0118225119902
-250.42866419589748 701.0555918164765 424.8577113135981 4948.872638808756 -185.48790789651278 622.1440939210433
-326.10027261464904 123.14453105869929 138.6547881900957 4323.390341144637 -123.84508532301624 295.3381299721258
-29.193793936923868 -33.07154517199491 119.47561252592332 4044.0965334868943 -91.79623061084193 111.26357871520149
75.86300286552492 -13.845026354124785 122.38675931286805 3856.7295349937235 -61.932875783336854 11.811034188323058
81.72498777043793 -33.76678460911394 118.33707313984156 3743.783566838738 -20.28821161009457 -42.11023358548496
-111.01707553615302 29.17529510879274 128.96384146443083 3666.8965759563625 24.48115640438775 -67.53180395148674
-347.42133207347837 577.1773835695495 343.3090720610021 3729.689360226171 25.54866457061498 -38.2501650216751
161.1282136448666 133.5898650676937 523.3378952184439 3735.9935256593244 -36.02246860176167 243.79823585624132
-2384.377094367722 -8024.72995987363 -2624.613250650649 2756.3168868262287 -57.21806928236228 1220.7672782698853
-2241.357887755737 -4364.644688246008 -300.3245699367736 -2161.229363570206 164.43484386553698 898.1258872026908
-2141.4547071507345 -271.6177383666491 596.0546945442636 -3174.2488153131794 293.5650961100232 275.7332209508549
-4476.153214189608 513.6031113944941 7.654910922966377 -3348.4742856804028 430.1642596800324 82.40598876787028
-6798.706766776777 111.05328715894879 -767.0781925247928 -3185.809273766087 440.3726483481303 9.389246324761444
-9061.146625271593 52.509148313682246 -1320.6114543904641 -3226.3115665321247 396.8692207128125 -8.936146515687104
-11466.071285562984 85.83143797592716 -1856.2334424219405 -3348.8963191856633 310.25319019633076 12.684290768197705
-13916.287875460843 138.50054955122036 -2413.8397532414974 -3515.1470665002876 195.68571713537273 82.47775512697122
-16763.119494729945 106.7092446673465 -3156.9142892931964 -3732.095913687158 91.15339622123088 225.66164984250133
-19534.10277755341 1007.888329855955 -3644.3706992347147 -4032.3363206870877 79.65647353998791 485.5135635059106
-19602.03820990462 121.28290235377338 -3817.4385564155023 -5350.0457215999595 166.8799383258339 946.1889610653265
-25705.750799037494 -18718.18900299101 -10902.119667011031 6.328346482974951 36.675257882376236 1420.2417587556297
-19626.15189724854 119.43155904943588 -3788.957027179612 5363.299589954654 -90.7108110748625 945.6832094975535
-19583.82593059789 1004.2282334592003 -3588.2251296322465 4047.4839728609927 4.695364362110498 483.911514905382
-16840.915044181587 101.36387452485667 -3075.386424911471 3750.7734490578314 5.8156825586206 221.52433926749916
-14024.338447472952 131.81886752982805 -2312.032102343616 3539.703587895056 -83.57145680656014 72.91757973239359
-11605.111517294341 78.51443991231234 -1744.6648057435777 3383.173096106223 -183.8054748263372 -7.694379574576771
-9226.297923946655 48.72608314535889 -1217.3765719418423 3276.8300448901 -262.10557661630367 -49.73621453122816
-6964.6749691927325 111.74853393855751 -700.6654482462656 3262.9476976917554 -313.1369524647531 -66.18197086123956
-4603.646191147741 467.58694690349404 -23.049877011448007 3442.045669732578 -344.1303523438842 -27.17974477738619
-2241.3731144628528 -412.0860654104832 376.0445131920607 3215.7210086850373 -281.8107847212161 217.25461947990865
-2239.0703626625473 -4219.816565361343 -627.6123852860854 2147.3412087792153 -195.94903609886217 1069.407599600216
-2486.7865923576983 -1942.6581058752056 987.2408692332717 -1167.7656553835627 348.69573914136214 543.1808666049726
-4281.414851301882 -493.1583328067605 532.0834224760079 -1816.2551209576627 561.6954686057701 119.95135161549496
-8738.384114480876 287.2970821786353 -476.08057694182975 -1974.8523613151624 791.5355635215449 16.134866769024473
-13654.454830982622 137.14920277019783 -1696.9127848650726 -1852.1691364852243 773.7466177024075 -42.65837027631401
-18403.451764360227 97.09941765590249 -2756.1571070061777 -1857.0759448335846 645.7194857184826 -73.32920152262415
-23149.55721880312 130.76919569148143 -3810.7132443644423 -1931.6095584758457 438.14498683316265 -85.41328670922016
-27991.297389293715 166.09295956780002 -4977.48579937941 -2035.4922739539315 181.85949830206684 -74.20563175019527
-32727.001084851083 361.6019226881178 -6195.520301960372 -2124.5022256926145 -62.11962512100732 -23.4529527993138
-39074.63188775116 -201.9136893193279 -8260.514921888996 -2361.9404433728 -191.17888794241946 84.9709631797665
-39954.47298716224 4312.7383155468115 -7279.813055703038 -3208.640174500742 -52.450859812980404 376.5332229825191
-52689.074744109115 -27945.31950066543 -20354.85489268713 3.954072583397958 46.553385259851915 913.2315168439069
-39979.8806593491 4310.58456971985 -7241.608580565856 3216.9103807506704 148.86768101612037 376.96705948713577
-39126.48253047913 -206.16870267761982 -8184.308785248521 2371.3536942166834 297.157523468901 85.55463008484305
-32806.5504550601 355.4323288504169 -6082.365840580563 2136.0268079289704 182.63790731664076 -23.438276056555374
-28098.134280669114 158.4539750627378 -4830.708347118383 2050.5111650717363 -44.54581537090298 -76.25627772647248
-23277.747691514494 123.10870540787518 -3638.054976075809 1952.3606878572573 -286.9207946113232 -92.50879600294911
-18534.363513473578 92.75839921061717 -2572.8283167630298 1887.7743357588752 -492.48151017219226 -91.35990385002623
-13754.075051022171 133.06760482795562 -1534.1417169791705 1897.0523243433756 -644.4454954409176 -80.58478284032742
-8784.836174061082 254.46859246994467 -399.2261426190069 2020.606387777137 -723.4524114812633 -39.84322784881317
-4301.275338452581 -557.2773092964275 440.0796988958488 1826.3256637639533 -565.6917860027069 90.32594070136759
-2481.745056027547 -1876.5085538075257 741.535787667273 1147.0899231135243 -386.3283432592774 638.9262675178675
-2778.2643553583976 -1128.9127531633535 1631.0779449123065 -455.20434705076633 671.8612648142052 278.7939974295113
-6005.418474456904 -751.7237013713702 540.4357396520465 -727.1342410729537 925.8123640654638 12.711242372142777
-13306.640338073388 -748.7118456688073 -1301.0712826552572 -753.559897097296 1183.1917368644188 -33.838816117391104
-21263.855792944327 -1468.592093808063 -3338.0026060529694 -725.7013672317869 1105.135232010307 -83.02157779621007
-28653.905708422284 -2065.511544928898 -5116.965322428229 -735.8673740658783 873.1866235213693 -125.02590052435495
-35940.24611545426 -2586.0224704422108 -6918.050947289077 -774.9497323921378 525.4503310568048 -166.32730005542194
-43393.280231891054 -3194.908713086757 -8958.995865195502 -813.8417933681216 102.52600566783691 -203.29284319124696
-50667.82495269325 -3404.692800186246 -11049.975212170255 -900.2664129966344 -315.1366757667691 -230.65219325507897
-57884.24240265384 -5034.30918605771 -13812.655971949785 -952.3250418827088 -586.0019980490052 -218.0505934320875
-64137.17955139017 1410.2736471679357 -14152.600474713974 -2097.4209920632493 -559.6497327901429 -134.91201067238643
-88880.28971372356 -42267.71725317628 -34857.53006087072 2.056440908348822 56.964854408950856 639.8095813761657
-64163.819797566044 1409.5992433857157 -14103.654525284262 2101.746022417063 677.5288348556704 -133.97087759631057
-57938.12395091344 -5035.39466093135 -13714.18815876491 957.3109044088208 715.3133658984452 -216.24180050442953
-50749.13096636032 -3405.553908605034 -10901.482981372867 906.4529930156482 461.8955372303423 -228.1887144603407
-43499.296278030175 -3194.2436333306528 -8761.426759402428 821.9406021822768 64.47277992372885 -200.6795095241786
-36059.18757641125 -2580.6729617896735 -6675.532186798883 785.9690009077423 -341.8251312025061 -164.7348526904169
-28753.101278660095 -2049.2969264909216 -4839.312325779825 751.5276968131823 -688.9832214423259 -127.10736170889584
-21289.075325844733 -1439.0232808291971 -3051.41874845633 747.4722132627859 -957.1114702187028 -93.33499369847974
-13239.257289752379 -724.8095494276599 -1076.7297657389108 776.2323310248047 -1125.171511303578 -51.77956065685381
-5920.750772089084 -742.6311008879653 590.8113726824141 735.6253279471377 -966.9726617878673 4.184768922810683
-2725.0956889909576 -1068.4000720842855 1481.2532772002419 448.90764636846023 -755.5086321481753 336.13351679121723
-1047.295806696292 -23284.330473070077 -7299.487883929911 -3619.08902135123 -1930.757267145606 -682.9911575217984
13726.15440360922 6600.502969784415 4808.513813186479 -1617.8793424119795 -2083.317077106679 214.0708621424628
15942.104396414732 798.7277046498048 2101.705774718801 -578.1701011422624 -1954.090545514262 -53.48470782721384
22572.55645510649 1957.49976337104 3204.2232577929217 -628.4525264976376 -1736.3883551503825 36.582043726402986
29840.53873425853 2299.6126313961463 4283.40752877631 -624.149555342515 -1325.2750183192538 3.7542134826344977
37344.59665511729 2937.119256515392 5632.552907590816 -640.0981572329489 -792.6845568339605 -2.553849909206191
44720.008299763875 3538.2281118345322 7082.363760122106 -654.9126006271674 -123.24890632535373 -11.984318628655036
51989.094833829266 4183.780107489978 8732.949204219109 -689.7759280533088 616.1670998273546 -0.9496685780188443
59142.124040569644 4823.961016538328 10648.515014228085 -724.765983459323 1191.4938225367164 77.77181409218596
65334.39771381514 5105.580763568246 12496.234591702847 -583.5771254986373 1088.701104696017 298.7444353957949
67849.96460330187 4741.199926750784 13190.794276332997 1.9644273460116608 -10.306979037825304 530.1699003292383
65348.03618019742 5104.821611216937 12492.396170519787 587.4753373390523 -1108.1557443023753 300.10436216125464
59171.32349344234 4822.468870332792 10639.82909965006 728.5202312630912 -1207.2974491447362 80.44358544688005
52038.5528041218 4181.695697739129 8717.295656698132 693.0877797583745 -625.2314475134962 2.7748191905934867
44799.532874145014 3536.1672130870575 7056.561714873456 657.2292990042497 125.68780518899088 -7.553372099642331
37472.40038890209 2935.983355753841 5591.411448769024 640.2251241994654 813.861735064705 0.23405655533755265
30053.42947550412 2303.259187132551 4222.801442378825 621.6894433513154 1381.37421027404 7.671964914749966
22922.216529214238 1965.6540922563884 3106.058725328615 616.4086561783378 1833.0419952559141 14.188198644859806
16631.88136124975 852.8713253446456 2033.9116717591685 555.8219458450968 2206.533754111312 10.561323484967296
15348.867584455318 6807.700664450109 4825.136969082023 1604.3131955979845 1864.351068116024 -252.5294907964453
2142.678858653208 -22054.403462105598 -5195.493624903667 2138.4401118773267 1575.029022816717 1258.270943862982
-3445.6607733566793 -21260.919845939567 -6442.791173176295 -2322.4670945835624 -325.1663926759815 64.00014427381167
7221.457635689927 3518.6681731224617 2540.972407867161 -2017.6754161887025 -700.5610895937947 194.5522297398681
9091.36675977921 -190.55103604243433 817.6992433776725 -1588.5667896775194 -1191.8305665504547 -12.77343218041073
14600.932493818776 220.8856563854335 1620.0956000841757 -1649.466281781244 -999.4403328722291 17.20393907664814
19226.603674629878 113.84690070151869 2124.0293363419055 -1698.6645365653424 -744.761095626941 -2.7043301212592468
24044.662752709253 141.62512546124134 2805.7632036938717 -1708.014585498202 -405.86453416628046 -3.3152057761799387
28787.285232920935 179.73648052925435 3584.5754667435153 -1722.7142165473335 -0.7987092195900322 16.300801493238595
33422.149258348596 260.4230664318898 4498.925507340912 -1768.6969070519613 434.3201847742192 93.59570940465173
37854.19856992885 284.76811579969007 5537.835063831191 -1833.7385424641338 771.2250737923288 317.73783873331735
41400.928182778705 -322.9907755016883 6337.238762259952 -1504.58565422849 710.7746154535124 806.7846353916264
42460.75678721837 -1717.0709705520935 6260.709309027786 2.843678232294458 3.9709613249998 1293.8467305611427
41416.358650613074 -322.3820918799451 6338.978893864229 1510.185626224145 -701.0254808371562 807.0773875711993
37886.73246090241 285.96610848131996 5540.296217141527 1838.9634821307404 -755.9894862425098 317.99929894461826
33475.73897993567 262.2153358272415 4499.878821420391 1772.884977264996 -409.6177073881343 92.99130952871286
28869.572809089277 182.17841434179587 3580.0722064445677 1724.5192313424475 39.52918725741818 13.158203128921517
24170.607689660006 145.0561733860082 2790.050592008347 1705.0490820263399 465.17396586682474 -12.452154169759435
19421.566470928894 117.72646643215015 2086.4636896973566 1687.711561745625 831.830174138091 -21.79095207336876
14929.696055437478 236.7741727498722 1560.8641302985743 1621.938982107904 1134.69333394286 -26.020436219846175
9656.79128605779 -181.72413689928152 711.7991774757654 1518.2375249541915 1362.1126955271964 -51.63749880032112
7802.077321875199 3584.313553132066 2425.5181141839635 1849.9038500084991 745.7329047650402 -141.64093559761113
-2946.875086591118 -21224.84631453874 -6262.425257052684 1378.5714261979622 223.01493671538088 1327.3398154657802
-3200.3571314846436 -15439.808642592787 -4219.494049127112 -3065.2660673290256 51.55996670227185 1280.136341805302
3151.5866824287805 1183.449461940264 1374.139369424038 -3504.017644942175 -160.13999779777936 192.3917411778832
4134.2415796541545 617.6559503478154 652.3459444997784 -2897.72515314172 -480.9327612598704 58.66193555433098
7020.901370814239 59.499507352084365 760.071866139113 -2979.9786079028663 -408.4763441438543 -0.8138269391032242
9615.488781170672 108.28710373926845 1081.921285201982 -3012.275031809468 -258.88572040221254 0.6358277124134784
11997.751133493894 112.2929154843331 1395.31096343396 -3024.0548189112505 -87.35100795563284 19.445262862607372
14349.44223057012 139.79309125435938 1777.6487117010251 -3031.298171860862 110.90470779845646 85.57580064830212
16586.07773516232 244.59380564068042 2236.8630694302974 -3064.2334524732446 336.0489532096822 251.11943265309944
18782.061282491 378.9578609023807 2798.4260114815197 -3170.7195741008595 582.7250391345684 639.9535718714521
20701.434398123198 -637.7796955215979 3053.906687932874 -2742.4490721857114 647.6181403168931 1448.4936671517287
20560.110317736788 -3947.515670288723 2072.2899658579295 4.171150919050589 16.63553800205068 2383.609031235706
20717.985363704367 -636.927381740498 3060.824088017841 2750.6304895677217 -612.0264942111902 1447.815982674253
18816.39902194713 380.62124785050213 2811.303284377072 3178.2294654423335 -540.2252378881692 638.0056811155353
16640.94091544937 247.00489343764846 2253.465318488956 3069.939058323192 -282.2484368942964 246.46038902258974
14430.085132152086 142.99692987380612 1793.9673032213682 3032.866461412556 -41.72508342372024 75.22624573562423
12113.906656083172 115.97342700314583 1404.423821531834 3017.3654306165786 175.48447720255615 -1.7587031668279085
9787.225730745631 113.28693141435537 1074.3375661956816 2990.7534453359544 369.6651003136782 -41.357292377233385
7291.8989255634115 67.385701522003 723.949673533564 2930.9873959589167 546.0081157673812 -70.58614952651541
4452.126597837077 604.0236944972197 536.6210536483572 2783.1182157358826 620.0994248126373 -81.56470660686031
3464.6992355895063 1425.6033991046932 1299.2117266874548 3272.4101966930893 188.56164145640412 60.82129217673935
-3059.984897432154 -15421.410439570776 -4307.849873015369 2799.7206137839917 -115.22947058320173 1793.9042550176882
-2656.481258176229 -9770.088882833139 -2132.61575508594 -2898.2689701977574 166.46578844208898 1403.5405979366315
120.82609236658556 -202.07987472250935 748.3494513744683 -3849.647514780929 158.96972771003345 345.1038766483737
-447.0751425238161 685.7204820458671 385.5437358321379 -3660.3767088284403 99.45614222503701 87.07292506379744
-270.8524147431533 76.58998776177394 80.53994508418079 -3457.521810030474 139.03264198352883 21.53993523664552
-72.8096241606195 -20.33279237406696 48.170920205005636 -3457.0303127707543 186.75616661295226 18.45784818202155
-52.83730580361318 -2.7987569399544334 42.46223905686473 -3464.710518971336 211.94492761474297 54.712563438610985
-84.78690568494196 -19.154750707343602 37.35249501731002 -3472.8411764157245 229.31119887589202 142.4728363258481
-235.42273328207776 51.88163578045082 42.9126408974688 -3448.91051822594 273.88692971919306 330.3430604406044
-200.64704278879225 392.37821309363994 190.7154374943778 -3559.264041484438 464.1124375624859 733.6560408047085
461.1380147046913 -919.5858486564609 47.96777215297446 -3483.6989943213357 717.4045972940216 1614.8943744135627
-1302.961112379115 -7837.703628796435 -2458.3055420609003 4.535598758474215 28.657378683713226 3060.3747189534747
478.7257278442761 -918.4494508945753 60.146704447516015 3492.5894439881918 -657.2984580134164 1613.9351770842668
-164.7778382381863 394.60316347873777 214.20861624505267 3567.400158081179 -395.8333861102911 731.0590271333314
-179.9041056526004 55.133435111445934 75.60623071150832 3455.0169833688415 -192.7533489604901 324.44517290249354
-7.333895716356821 -14.935159608183644 75.11741830849022 3474.2650182336697 -132.12909601421947 129.96604570717793
50.93394791899602 2.1828389773332937 78.07377325419829 3456.506039663766 -98.06313905264933 29.295410568087668
69.32375883784334 -14.585632886786174 70.91259926062232 3430.8158897535213 -58.91721123009495 -30.118246479477662
-87.59325441984669 74.76747759683445 66.25041821918998 3398.714092029304 -5.454359554515397 -66.38477810154596
-268.18677977637657 716.7692267037331 312.31687715855884 3542.411710256634 4.745096578726615 -54.885420177911186
286.2480559128169 8.564904314579138 679.5456710744797 3726.0000272397833 -150.25621362050543 259.47916367972806
-2653.009480209782 -9845.717973489265 -2308.1181993373743 2812.294918237927 -217.88866256187836 1710.656062702501
-2403.807877442559 -5190.022895371084 -477.9310635463741 -2194.3951616598197 280.82081599529255 1213.8963643288455
-2331.4940740651023 -724.2644653385481 496.6065537526659 -3261.1860390721736 453.40288951881035 351.91757996278926
-4835.623723681397 455.4771884620981 63.420487374556245 -3371.259556168684 640.7616050262928 90.41075561436946
-7375.863406408852 36.832823170386376 -569.8485273306009 -3064.703923843354 684.7531217733236 11.077836857110611
-9734.746622563694 -107.53234278985188 -967.9499359734151 -3001.2804549097013 637.3469317792508 -3.99892004766704
-12134.223535517891 -131.57895755061602 -1325.422239913938 -3017.0192140689333 515.2085068546055 19.92218834363264
-14482.483162125325 -136.82377391631871 -1680.2127647715197 -3024.2273865870366 354.9888692737947 93.02082032842426
-16969.37665210424 -234.34065752641789 -2150.5991873065605 -2997.208105573239 197.88070169669643 227.03768965186885
-19258.351699850635 290.07829538896647 -2474.265907497473 -2946.9251581191284 247.11899297571745 513.1083853924374
-19471.192392674995 -160.32596829386696 -2615.249826285492 -3725.7049988097456 763.529705064276 1180.3324690946613
-23987.551037921396 -13581.55009021313 -7900.225411411044 4.270887475506186 40.93602738039891 3200.8803949380635
-19452.529726425637 -158.92699824781582 -2597.7427723017813 3734.11173979457 -678.3541869031167 1179.7982119892226
-19220.8764568279 292.8390222295536 -2439.992421496721 2954.7395016882992 -152.37761100675115 511.44834363291477
-16913.11121435519 -230.2836246687322 -2101.521137654643 3003.3540997489586 -88.52484967989204 222.80825172783693
-14408.195838796075 -131.57151800962822 -1620.5049834532397 3026.3883285810916 -228.59961819645133 83.30035546201361
-12043.039065003431 -125.14330208377916 -1262.6579147303273 3010.6083222588063 -374.22886826560364 -0.8559745164949337
-9628.693021604893 -102.18272791502454 -915.9894389753698 2978.056271245339 -491.5990190341848 -46.016405666533444
-7267.554178959515 40.862926947299634 -551.9271263563404 3011.1559799076067 -554.8354943811595 -67.49368826863272
-4750.226708548209 496.7130985444344 31.490199399856788 3288.443645152799 -563.3660840307566 -24.674954968215708
-2260.4981553683065 -593.9150449141567 435.76889975016815 3208.0816622653297 -456.2514392770437 293.0044686063296
-2439.827956399343 -5273.139007401849 -646.5859971158415 2174.566373238324 -323.2002989445499 1417.56911106364
-2572.4721150693604 -2301.410425242111 626.2859648904769 -1147.5600905010676 503.2612831634258 787.9821337265187
-4397.579180913955 -748.3388011040981 479.2548654300413 -1823.270604634325 838.9009444201578 239.5055810479121
-9128.883758440446 195.5950652681246 -286.9844239221046 -1944.8064806466589 1238.8275317333687 82.55413416759572
-14401.423805688442 20.057119422000966 -1248.142633666367 -1743.6113483391514 1285.6785354773956 13.057334611168265
-19384.735839160938 -107.77228723356654 -2027.8563423733026 -1686.6636940842059 1134.4514177520552 -6.033737748223398
-24205.73826365759 -151.26107677555072 -2746.854602077056 -1700.1394471964052 849.0246441171303 -3.39439046889487
-28947.52713547738 -186.8195780157023 -3499.6147204306462 -1715.9341679989222 479.5146113457293 21.362472119061778
-33365.70941491208 -108.90642534051482 -4233.11355956314 -1684.0789079296478 103.0699200553785 86.49319281130201
-38551.40337306057 -625.3644209248839 -5567.8882837219835 -1737.2281242561628 -230.8496100635787 135.65966249016864
-39193.60773628389 2802.8505923448743 -4789.577038611486 -2353.113682247548 481.82519336862987 441.1219147638705
-48607.5067124657 -20936.48426762696 -14890.045473142362 2.961937237356942 54.37523609206583 2356.2529175659024
-39173.71885053747 2804.4495223147214 -4766.695701653959 2358.984753519374 -369.12588478949965 441.64196675436466
-38511.9429143716 -622.1942898731717 -5522.729245724682 1742.8280888876043 354.92216813960675 136.37697446660283
-33307.912234019466 -104.24165374353858 -4167.468498539096 1688.8169743125247 38.131258486480384 86.59512800315339
-28874.730731868854 -180.7668642917692 -3417.653451694941 1718.45420100217 -319.11078494256725 19.167526202989663
-24125.320503596693 -144.33076290628637 -2657.152818560417 1697.6872836888422 -674.4617951363041 -11.269566107401715
-19311.298078091706 -101.41598815250008 -1946.3164258115878 1673.8001796680178 -962.7832674846105 -26.336979986859927
-14356.163402597384 29.308655264398464 -1197.6148835104475 1713.3425455895094 -1149.9727008690274 -29.731204321847848
-9119.547156849087 229.74465811326803 -284.63169176595164 1904.0334676279085 -1180.1294547350224 19.732812614496023
-4399.057500616396 -686.3378233314345 432.32240948680607 1805.2525126522285 -857.5251931193329 208.77498736368952
-2623.271657629911 -2353.652203998315 495.47520800789437 1143.4031407387401 -551.2780916437332 904.5438036096452
-2761.502108774929 -1261.9307145475016 1327.0426376021412 -439.5357837305131 962.1466433521592 510.68733989688695
-6060.013432254948 -889.1098422994714 547.7777829958624 -713.5020361898781 1445.0128540481496 166.50447193107493
-13781.72252068758 -853.8816553405827 -1062.245716648406 -700.7154258612519 2010.9852252834266 89.61053792698955
-22289.44547433727 -1639.0410686546827 -2808.6990464687087 -635.3718396286209 2027.5850887187767 37.121571229466625
-30070.30431066394 -2337.8162253297814 -4243.523764486712 -621.2208164122496 1743.2888527637258 18.47035536752486
-37532.45825063171 -2939.6711644726092 -5590.789825829212 -635.6804191173151 1255.0828620468803 5.989675779860924
-44916.68883158709 -3585.9713346571684 -7024.334032066531 -643.7779683060826 631.4416162548538 -3.408386799933922
-51864.50268686807 -3916.567288068371 -8400.912677529663 -672.9658310817817 -58.297476458268925 -1.7152542312359742
-58090.632248482194 -5238.074111710232 -10135.474097951952 -692.8268109474541 -768.3967591881461 -12.539075319276847
-62148.75479589361 -253.77541263194195 -10041.345706707276 -1679.463878871577 -1146.3265867182608 -271.59388001682225
-80294.24591175118 -32884.349184479135 -26706.342939948958 1.4218679048284457 69.95849413750645 2505.4178786672533
-62126.92435884994 -250.74511569231433 -10012.55179380954 1682.311255887161 1291.0712815273064 -270.618378828052
-58047.597623876994 -5232.053780165178 -10078.361679459123 695.6406747487456 927.0553220629764 -10.755656791545832
-51802.30420831822 -3907.6987297094443 -8317.129391388482 675.5486658587007 237.93236907196126 0.452815477206606
-44840.50893745163 -3574.667788819625 -6918.2086116504215 645.6090015889381 -428.2741383131401 -1.7260271727062602
-37454.56865703999 -2927.462427128958 -5472.2425498597295 635.654613762676 -1034.8137215681202 5.408402262626353
-30017.107846399795 -2328.2570772559834 -4132.377960930732 617.0021431182769 -1528.9110924731285 12.037405055182447
-22299.474315866322 -1633.6883924654787 -2734.782914359296 623.8369007916671 -1866.24140809015 19.3729385477609
-13861.695639471991 -841.0142286911401 -1047.8656306051207 683.8783653249175 -1962.9566855253934 62.57344018332037
-6143.971507517254 -869.1502626469701 507.73115767532704 705.0602345008127 -1505.73122913031 154.50357723068143
-2849.805127238572 -1301.0501804391017 1227.6032209973935 432.6471806060809 -1062.080170739217 581.2075145620101
-6932.813482698494 -38456.40963384255 -13616.766934962312 -7036.0037093945875 -2900.7091182701174 3655.236984515003
15321.718504480617 9856.141766037437 6342.858170952015 -3125.530116050041 -3019.2944499773653 124.30427538244012
15156.144634276996 439.8232659053011 1486.1770907892512 -1473.4596088526744 -2949.641036934191 1025.3510606872396
21922.712767598794 2038.3368912458425 2699.7827173302803 -1519.463254144418 -2624.536637913247 1112.54487383829
29598.94710883722 2274.20988616488 3625.222693084973 -1432.0525871487903 -2345.3852591187797 1528.004642636063
37612.55973275218 2989.4855352374375 4850.188294954532 -1299.3300517041066 -1842.1652620349128 1884.2232720221532
45416.05315998189 3620.030068806749 6069.354720739292 -1085.3440028644682 -1148.9797732398008 2250.253918658153
52780.31618977274 4208.989687788501 7308.071394665342 -791.1550487868038 -280.0492589286333 2609.9259663406315
58981.34363371442 4680.155835469228 8443.536143765363 -411.7743331186638 566.9711711792886 2980.699233568835
63026.00372655383 5150.494362184624 9320.327559793917 -76.5099083654228 807.2114482018129 3379.081290687854
64509.22945148768 5680.00781301489 9792.617858266678 -9.37112253886437 -19.403915027418535 3650.810995233664
63071.804397988875 5151.0358799787255 9323.7182263319 57.281106679031666 -845.6784592793143 3380.0239108669043
59082.007089486586 4681.65770277322 8451.504853716364 391.0864658945241 -604.3123177980054 2982.5677125456036
52955.119661550925 4212.343439769486 7322.987151824252 768.0012152410441 245.05004675680067 2612.768230875212
45697.260249954656 3627.2084691342757 6095.253760658885 1058.7969360430113 1118.1203865650225 2253.6857977682066
38046.15318779402 3001.5196815270997 4889.796745390374 1268.0823335676441 1819.4084206563366 1889.6172677140507
30253.243985921155 2298.6447980408393 3687.4166441931493 1396.237815563675 2330.8293475563764 1528.521166403601
22872.161578002353 2066.766012508217 2757.328048030887 1468.7588095205626 2641.3262970338296 1141.02559569857
16775.351449232276 608.9883833501269 1740.077033313032 1412.0644985326737 2903.4556611335934 930.7786370112793
18831.979484698146 10475.991146002907 6717.645789855774 3242.9684486369024 3882.379054014719 683.8079816103196
-289.9044806737911 -36675.35639534252 -8369.673741977997 4229.275217208184 5085.339983341857 1417.710029039304
-7686.742681209006 -33356.33909345182 -10057.045898539105 -4516.117369157939 -2396.6114165349345 2101.179854216018
7325.06512121399 5341.689767977875 3008.3701312594562 -3741.995634748911 -2006.7553633928856 630.2374001058015
7557.357116329884 -510.6109004580354 49.34651276277233 -3113.4331686633986 -1820.7660019088112 1104.8033750138816
13676.423426992003 94.9770073837422 939.2036587023268 -3153.356187895467 -1609.8683927367135 1432.6822871660072
18502.132136983386 -114.84657633386134 1290.8633988661563 -3082.424602379432 -1397.0415496702508 1900.7517965412412
23609.367929483713 -108.52661690579782 1801.4624260363091 -2831.2536368879278 -1100.890163379081 2367.502041884094
28584.9408763352 -108.4075959471003 2346.666063786161 -2459.999545040003 -688.8507992100648 2836.9310695471436
33266.36978399347 -150.8565761860639 2912.6314979691456 -1918.4755304408145 -180.28173444859183 3321.4216405164548
37231.20849587089 -197.40297671692198 3460.2705718076263 -1133.2375844977346 320.6035233808758 3872.9215987364537
39969.79998921545 180.89742512723598 4018.267114067605 -298.26667768158217 478.1300309966036 4564.749416668321
41256.09645847417 1205.9642177574262 4569.665566678229 -16.708379780651256 -4.648062256595608 5101.33613923441
40019.448773001146 183.08137995320646 4025.201207070186 263.78586293478395 -486.5006648442675 4564.848331309941
37338.656995681944 -192.84903246609855 3474.949902101155 1095.5111662787904 -326.1673776976248 3872.9930795432188
33448.56642724292 -143.55031690736052 2936.6004718400122 1875.1445972312208 179.43387609161476 3321.1975321625755
28868.6734209678 -97.95539521058166 2381.556355148371 2408.435803834373 694.8539436650558 2835.8570947424787
24033.126078843357 -94.92059432978786 1848.967944543571 2768.523564097842 1115.156852241626 2365.151953726086
19113.460963822363 -100.364727928661 1345.351689068386 3005.4664724733316 1423.1816141755135 1894.635044196808
14562.519204034068 126.78391141021166 1016.5061165875438 3049.464696559994 1636.5128244522552 1431.4349736347447
8799.062704581509 -484.60766618446826 80.16629168018264 2953.084772559066 1896.095925778535 1061.785197840978
8547.285731907494 5604.398468742637 3134.12453401123 3529.485528916953 2294.8377887349625 903.980610754713
-7125.9764655102335 -34447.29297065899 -9669.167985732198 2826.0538620388807 2837.6923451772673 853.4267574005421
-6125.447385010345 -23246.899841499926 -6344.993340999586 -5302.202786509513 -1459.3579165503745 695.9091484692012
2513.6675284658754 1630.293646908398 1361.3960056126703 -6078.229033197847 -1142.1001347561514 979.4703953205059
2654.546759313783 747.9528652358517 129.30532155908966 -5301.639789201476 -900.0119885779121 1261.3678807289225
5861.108880171493 -124.17017476640339 173.9882140042821 -5391.980037967791 -729.8756420732739 1827.2563488495784
8790.226927445528 -83.13166833233862 496.72797533916025 -5208.852731944117 -596.9345977660657 2411.5228400561004
11400.843529256634 -105.58898123632157 734.6473895846901 -4808.02097744552 -451.74459654318434 3025.26959231419
14000.008115888755 -89.11240866354059 1021.3188643595968 -4212.003229612392 -256.9255687030046 3644.6169698124722
16498.45873064346 -138.9671594777564 1325.6633132802244 -3345.832969423628 2.4985852131696102 4297.922785226177
18627.7492107417 -214.0221670227167 1604.1290971572141 -2009.3789806107964 332.2667491933168 5067.212854625983
20075.566176336764 632.7720034092634 2043.3646887416207 -433.68437303465004 507.8781193080687 6117.54576606299
21405.7208883257 3376.9355681132247 3104.027743289074 -26.70018642753655 7.143791858901022 7106.472566361686
20126.824122247435 635.3360138030556 2053.020128781535 378.51254327018876 -492.1799694033425 6116.994569720639
18737.51635823501 -208.72216191705854 1624.1312910177455 1948.7882252883905 -312.40750677101823 5065.945373137134
16681.283524352577 -130.60594691125414 1357.131571269602 3275.8275584668268 24.032726828535967 4295.540893660382
14277.990181468502 -77.27840620615578 1065.372956835134 4127.960122541451 291.9796608344391 3640.475937840456
11802.975271936002 -91.38815969241544 790.4625989022684 4704.495208183503 496.029469039517 3017.928035180096
9351.870094308673 -68.02515768217204 560.9398284282428 5079.0507221379285 648.190392727642 2400.762562231529
6613.942134125127 -111.20265755835287 231.88105375583118 5218.569425925944 782.7075707909064 1805.8336331396404
3407.716499513813 757.8639326066574 94.67932754534925 5049.6456700233175 973.293739954998 1266.1033427067355
3222.8603955229205 2159.4195252895106 1502.4820981926512 5742.31129836874 1250.63929947064 994.5106552764469
-6096.236599706021 -24119.037413834274 -6482.232997704719 5011.782325415255 1601.3657938929487 665.1141734018402
-4481.463212054163 -14047.674649617356 -3355.78787947771 -4903.2020075068995 -658.3307057194762 245.40824992451005
-784.0313897732759 -326.0444890555596 523.7795338750699 -6427.896154810031 -372.9933556949269 850.6125153654037
-1814.7977600450977 951.9422894321276 58.432716408550064 -6453.687674391881 -58.83383156855277 1304.1879398087244
-1431.0905114398536 72.23401057392432 -226.7951172619318 -6161.1384342829 97.79368315959577 1921.424470265905
-866.153285423987 -62.29500818541981 -147.93525258723454 -5907.850589053626 144.12125352701676 2559.637330671843
-573.0157957391052 -25.340956078066284 -78.29918676428774 -5449.968973845172 156.75498071162406 3210.3004879900022
-298.499203128226 9.533157934650973 -5.156430784612041 -4784.522054679895 168.21738610859563 3875.364263320845
133.93650406480708 1.9188004680247417 109.44689011388557 -3848.991251910922 211.96337734037127 4568.106478647415
527.8995940152015 -205.02029531585399 134.03731326258875 -2318.3686604599043 410.34166824052426 5362.647527226774
540.7141912258869 1008.2908360399038 373.94091264623944 -143.62498429007476 667.0538439321778 6502.841195435822
2436.8968251223873 7152.059278854591 2543.236340860809 -29.97817922452191 17.740803724560234 7972.168484082632
592.8973108598891 1011.3116302597912 386.25718687521623 81.62541581478155 -629.7078561698407 6502.088794332318
638.5274835374993 -198.87064102448903 159.26964102639192 2250.1194437216845 -367.55784177197523 5360.95476673891
315.0325048139514 11.387822095924136 148.46541712902638 3769.894475071254 -160.74033819817734 4565.044891504857
-30.259795859154224 22.333960467706632 48.00858917495067 4689.177688332046 -106.86135962822296 3870.0956131889816
-198.7079104486337 -10.78331893225372 -12.827973380811883 5331.609260278525 -86.20991301118778 3201.538805123737
-368.42201312077776 -50.477938929258265 -76.9219596321442 5757.145457850871 -69.98115754633275 2545.137555924157
-855.219362744765 64.90810052165666 -185.17869109933832 5964.123708995421 -28.794459274643366 1901.3244394539597
-1307.8733538521735 1048.6367652772306 56.000914972653774 6205.094121279027 115.83494125604801 1293.1375107130355
-376.5079255053795 50.30655776727701 591.6075591497996 6281.487182583062 420.82750922031914 874.4390436225942
-4565.749273127083 -14722.111954125632 -3572.850460375268 4856.380666895588 717.7886524597656 384.64298582361687
-3518.869739051056 -7031.448028917237 -1239.0913913377306 -3726.4596814337287 9.664683396653302 193.77417918266943
-3306.3004003346064 -935.7818272516001 170.14962929410828 -5405.5392864363685 349.44917936102263 660.0036502557082
-6095.2413360376 763.1649304246415 -113.82364846659942 -5938.346198685718 792.7703469507325 1205.7165068481609
-8479.35448446795 176.32701053261977 -594.8010567240776 -5534.548679141817 940.3790153842879 1810.175996415807
-10481.93516019679 18.41228745491525 -762.8049600262852 -5213.735740169794 895.3825638579593 2417.1460779427343
-12557.863232422107 56.142514711866546 -895.0686680950416 -4804.909481131595 768.5380488567761 3025.796161628947
-14622.098865709442 75.1625744978525 -1050.0564166303766 -4219.11556793909 604.8493348615849 3651.18082635394
-16282.42226915928 215.83717040365087 -1096.1460541175882 -3385.7142072384136 410.3002530086095 4279.223550767712
-17484.699687777207 -141.939526382368 -1281.811887262503 -2152.0129377969697 365.2178470620311 4949.50144833395
-19368.62333454409 361.50843504138015 -1734.3580032917507 553.1945547989361 746.5278021495889 5877.431710324457
-15836.562443130639 12942.73946958245 2609.9171636961264 -26.983435776376894 28.572840667578895 7793.834899277649
-19315.262829125306 365.0574360852878 -1719.2895697920628 -609.0299084124085 -687.0143509591837 5876.931586178271
-17372.722923544152 -134.80395493857023 -1251.1488702427812 2090.4738115137857 -298.84958493577926 4948.345153080566
-16102.393032939352 226.5424577934986 -1049.290758431912 3314.314630893057 -333.4834398056071 4277.040808796529
-14363.16429466798 88.98334296344402 -987.4437344123518 4133.000547181229 -516.0147213680204 3647.2645934543048
-12212.196771372148 71.23305841637816 -819.9415393433112 4697.610641726064 -670.2011271549337 3018.9106836904843
-10060.05184801425 25.684506946527407 -687.9421630843989 5076.2930851940755 -796.8430032657094 2405.643272480569
-8047.410041167706 177.42433466953653 -548.245813540597 5358.869671048346 -859.0486211835686 1794.5781485887846
-5757.301810335426 856.0023446615137 -99.28753368575406 5768.078686020558 -747.2877388772818 1195.223491464841
-3082.6221941322638 -726.5011193452083 191.65139820048574 5365.21206805792 -330.89979819798344 689.2655106948039
-3588.1578576320253 -7436.140825328042 -1398.7200547779796 3753.099570738961 10.465244566029781 323.98828065623456
-3276.94490492778 -2813.812852275569 21.142177483694894 -2063.2357700786624 596.6857002068512 283.959761640036
-5302.811684213346 -874.6365114185821 99.68456634150745 -3114.381868714092 1088.2580933974791 473.7978514701709
-10299.8495461021 439.0667421711805 -396.4882415433409 -3567.552276738538 1735.4838196611697 947.344622780305
-15511.196361256254 187.75454702035145 -1092.2971402606368 -3317.4843087401555 1874.490435668798 1429.4680453509607
-20238.38214721845 63.66641860668362 -1565.3172144165478 -3088.220959550553 1720.394393266169 1899.1656392498896
-24785.631953367083 68.42078332537262 -1969.6967084468188 -2831.2866152181355 1432.3657979827328 2367.039984882214
-29173.823555272666 107.42858458336606 -2364.658285728199 -2467.4067417053534 1056.533705910664 2840.224626738465
-33393.682463508216 63.37739692262174 -2824.917685242546 -1976.9814684363741 625.6277441653604 3320.522326359452
-35798.348066304025 696.9738684966948 -2752.9988456492156 -1147.1190842134504 6.51603562372236 3721.4129664203165
-40413.561332114805 -2438.3599689766284 -5069.6517103062715 583.1068947083354 291.49155105083645 4252.288733472195
-33451.98777134265 20662.624636389693 2814.1158791595603 -17.072155067306426 41.092041075568176 5651.2254288918375
-40357.76317925301 -2434.278787182814 -5051.581065214036 -618.4240950545479 -206.29909584489928 4252.446689527407
-35682.473404330085 705.1280262541151 -2716.4280870218263 1108.23657663281 87.3578416206745 3721.6464129427886
-33210.83335882413 75.41642390570516 -2769.5936287118084 1931.9935617178583 -518.6292530878842 3320.623953079514
-28918.71284279444 122.61162195549852 -2291.9269995246964 2413.4132237737217 -934.733649189925 2839.7601990414355
-24464.207890309193 83.72921331400745 -1885.7197104432855 2764.5655503071243 -1299.6408764771447 2365.2093981470175
-19886.342724803722 72.7151323017249 -1486.3058620571892 3003.403712452213 -1590.7622422397478 1894.9759528243767
-15205.476012947767 198.11545224626934 -1042.0940886778758 3214.7656386840886 -1776.0886081582194 1423.037510038659
-10110.426326862953 503.78707160057337 -380.8020937281275 3484.7230407574134 -1697.9726353443423 944.5938127006382
-5219.846117182325 -778.1673737169353 93.8773137930857 3113.581642431322 -1095.5319423634278 494.558581017401
-3331.10242886002 -2989.1259173352055 -68.2234680238326 2090.4349109890704 -611.041878122104 368.3853026526013
-2862.401230730352 -1215.052675731824 886.7510313432574 -1017.311923426565 1194.55428777837 342.717838063415
-6427.1088802956565 -787.3874228632449 277.3540611280446 -1458.83606160674 1932.4767853237418 396.2647587605103
-14719.281879372025 -620.4008865317744 -1161.7400814636492 -1640.1499291240068 2867.4484451902445 786.7341137270633
-23645.45532825924 -1607.9694295265049 -2774.5940073669144 -1576.9986647127785 2993.735798753468 1170.876557238817
-31442.288854849623 -2388.2076657809444 -3970.849271608239 -1466.415394833962 2698.5051484858686 1535.1210244091753
-38812.71469136215 -3029.454697264857 -5033.339669785354 -1315.6218587005133 2203.037352834949 1895.5339343911085
-45966.712189951344 -3583.673324740622 -6066.937547528563 -1117.9025455126118 1555.3101085649023 2261.0914151286543
-52904.59569680141 -4408.229571861235 -7248.593956249617 -819.4284259007659 786.212328893869 2595.415636649028
-59088.77002748682 -4109.898818883674 -8098.596966880138 -400.9937305343128 -318.3875879174493 2991.3093992671274
-64562.07698324417 -9759.552851609984 -11384.315684470921 1114.4347487011387 -2311.8577917056577 2686.4026479205468
-52220.07278828451 20642.20332677613 -1244.3847973290458 -11.031310692456827 57.13817341116703 5540.131766124724
-64500.53332941358 -9753.184280820216 -11361.952356202262 -1137.2238407779612 2430.0355304642 2686.7250225511025
-58962.45927700486 -4097.4287317030885 -8053.732542366952 376.0425410072612 447.82192554259365 2991.862234878552
-52709.27054026921 -4390.4924189798185 -7181.769266742507 790.9259979576376 -639.7706183756586 2595.989924739902
-45702.96769373725 -3562.962619693355 -5981.461252663088 1084.599620013472 -1389.6918148494676 2261.3084097265364
-38500.9459481592 -3012.369088262224 -4940.376058964661 1276.597130579953 -2023.3330884211355 1894.8321604028772
-31149.819555386093 -2387.719757312989 -3897.1700168878224 1421.2482923527948 -2524.088218598399 1533.1196285816459
-23488.687022578288 -1629.2923301765609 -2758.015912170756 1528.975023362899 -2866.338679761763 1168.3784515041928
-14750.609444914397 -628.2540540462528 -1208.0605886128965 1605.6019836294643 -2836.313993634685 788.3444500130142
-6530.144490561089 -780.0918098391253 215.06082100872294 1460.911905624525 -1978.8101477497316 410.52851151970447
-2988.665805405808 -1321.7206300526207 811.5594861748866 1025.5605189491425 -1259.789447128413 399.0419180521844
SCALARS Strain float 6
LOOKUP_TABLE default
0.041159081783915814 -0.15295990504020612 -1.0598076236045806e-17 -0.08665394042264586 0.035724522824371815 -0.04501712917803459
0.049556929846858666 0.015900483616269896 -0.005733946942951904 -0.03849337090282372 0.03718499480471821 -0.0015309052861353241
0.0690553161814172 -0.02156624171810396 -0.015122905006935609 -0.018146818340643387 0.036327158033786916 -0.012628007800056797
0.09711131156032271 -0.025334581993512868 -0.021261468222479086 -0.018713389551081178 0.03232324069862159 -0.013701868446178038
0.13182213474476587 -0.03644072078403597 -0.02812132613086222 -0.017636858178644715 0.028885271086229368 -0.01881858349351796
0.1670241675015695 -0.046181078872362925 -0.034723067141558726 -0.016002275373704262 0.022687719543174254 -0.02320569713963353
0.20135954710948703 -0.05601596350447048 -0.040933280121593946 -0.013366868245863101 0.014150592996752915 -0.027713653524413937
0.2336456740975635 -0.06545144173044275 -0.04636762279855195 -0.009743699021864087 0.0034490277151787508 -0.032143298743285684
0.2607358549259926 -0.07364514362139184 -0.05047064382771348 -0.005071325997349783 -0.006982697581690726 -0.03670966424495157
0.27798042860490246 -0.07841086590161485 -0.05273347200077734 -0.0009422799240265298 -0.009941446256638 -0.041616053790522176
0.28358261881597246 -0.07868153548397157 -0.05335651573141031 -0.000115412772407979 0.0002389745324132631 -0.04496261962539278
0.27819179131278016 -0.0784782042975769 -0.05278326563868595 0.0007054620506095552 0.010415197867036912 -0.041627662902170716
0.26119922363298836 -0.07379240153793427 -0.05057807960820043 0.004816538579822054 0.007442583282465161 -0.03673267603873275
0.23444772860882837 -0.0657051565461989 -0.046550140003745195 0.009458541282351423 -0.003017984786269527 -0.03217830347499224
0.20264457591026483 -0.056418374529690805 -0.04122041141874839 0.013039920159522246 -0.013770535287029421 -0.027755919825157852
0.16900464438846954 -0.04679651983479928 -0.03516870844146568 0.01561743505542405 -0.022407451075382497 -0.02327212845504526
0.13479833156842866 -0.03734314764162977 -0.028791236799499607 0.017195770991612444 -0.028706003543650178 -0.01882494489155295
0.10148652644172886 -0.0266309094092336 -0.022378501085377762 0.018088924285739116 -0.032530018605760755 -0.01405263102070718
0.07612404548352603 -0.023426716554211826 -0.01646159170959601 0.017390689087284833 -0.035758348669003084 -0.011463273740075698
0.06477105033474059 0.0133157537225672 -0.00982774136538056 0.039939716683373074 -0.04781456308666934 -0.008421635141975522
0.06263812686592715 -0.16141965597826882 0.012883758256654086 0.05208686320172411 -0.06262997663737205 -0.017460218252522305
0.02528181860372748 -0.1327888540396125 0.010685740897251763 -0.055619550757978656 0.02951616165609208 -0.025877688731007865
0.022831802296044673 0.010618385647444656 -0.0037499510628107072 -0.04608563044907805 0.024714776580612774 -0.007761871138065333
0.036453488364848 -0.013228209422383246 -0.009780050614649082 -0.03834438744568786 0.022424170760325154 -0.013606525776504093
0.0633134331810649 -0.020319684244562538 -0.015121025391772224 -0.03883607094575189 0.019826800205340004 -0.017644613431448238
0.08597049674296484 -0.02867089849140787 -0.020014684433615443 -0.0379624924715512 0.01720566961184946 -0.023409258967924153
0.1094280972002321 -0.036624200795772874 -0.024862689320840407 -0.034869123738678426 0.013558331485934657 -0.029157656726334677
0.13222166843351074 -0.04446895110607073 -0.02935086593839128 -0.03029683650219859 0.00848374142189167 -0.03493904580378726
0.15365291356162522 -0.05212684876151739 -0.03326221167330384 -0.023627540743358603 0.0022203118874477594 -0.04090592967800003
0.17172164945053772 -0.05875980014392898 -0.03623623145018209 -0.013956715514311734 -0.003948485498442067 -0.047698087058067766
0.18336339770882573 -0.0616524759749705 -0.038022357364271224 -0.003673389609266711 -0.005888548802746545 -0.05621849281572663
0.1872161408988304 -0.05940835763543304 -0.03869503880303457 -0.00020577688784981316 5.724455621374804e-05 -0.06282698192515165
0.18358561893243125 -0.06172253817180909 -0.038063168710168606 0.003248731153894562 0.005991639767038208 -0.05621971102769119
0.17220328453316056 -0.05891177890333416 -0.0363258591482642 0.013492084889750934 0.004017008756990556 -0.04769896740069038
0.15447150654048902 -0.05238521235771485 -0.03341796802699427 0.023093886092042208 -0.0022098698423180475 -0.040903169606693296
0.1335012306300327 -0.044872220501317374 -0.029603648143794504 0.02966178832067106 -0.008557674885034665 -0.03492581895636056
0.11134852992863949 -0.037229441690764545 -0.025259180688071852 0.03409655336827086 -0.01373403702228883 -0.02912871353537534
0.08876825467356123 -0.0295484614285854 -0.020645891913353493 0.03701469234520159 -0.017527605143045098 -0.023333926333830062
0.06735567882162968 -0.02153805955937908 -0.01605924387499475 0.03755656521037534 -0.020154947417040894 -0.017629251780592298
0.04225450318562267 -0.01491336172938493 -0.011435543146641407 0.0363695703569639 -0.023351918243952666 -0.013076722962927518
0.028069241831570106 0.009947251842507748 -0.005264435018771354 0.04346840072473586 -0.028262739082523847 -0.011133234890411297
0.02893718757523924 -0.13930460353637056 0.013276481898028644 0.03480508440634959 -0.034948421514527254 -0.01051062427547144
0.013036360593405703 -0.09239574137519015 0.011684419706619431 -0.06530081326560062 0.017973144866903153 -0.008570670565297266
0.00765549773378305 0.002215774357900099 0.000559930987944017 -0.07485818914579424 0.014065864817478815 -0.012062951184438104
0.011327538804844363 -0.0004130657006473787 -0.004222632153765575 -0.06529387950915391 0.011084358175101769 -0.015534741267959413
0.02769235327119304 -0.009164365119525274 -0.007328337146562354 -0.06640649099408191 0.008988994749765626 -0.02250410450696682
0.041050174904101275 -0.013591033290698704 -0.01002031864288922 -0.0641511336462813 0.007351720835699056 -0.029699807609128572
0.05311007055816319 -0.01774532963777745 -0.012571242512301623 -0.05921457414356138 0.005563591346934149 -0.03725858339999783
0.06499111348020727 -0.021768207644420064 -0.014930288752756942 -0.05187414503854902 0.0031642412145856036 -0.04488633531236742
0.07646423629496546 -0.02598728102843906 -0.016968240748726056 -0.04120657446556846 -3.0772049429305236e-05 -0.05293231219713791
0.08626129167644361 -0.029764353123512832 -0.018568369022942736 -0.024747088498040287 -0.004092127332185376 -0.062406726735952094
0.09129185606205985 -0.028434823844704242 -0.019748542571921095 -0.005341165436048145 -0.006254919995680451 -0.07534240575027963
0.09218573002824179 -0.0188336322057339 -0.020514169864692948 -0.00032883387494270347 -8.798143661492981e-05 -0.08752182002789258
0.09151729237625375 -0.028509239659712703 -0.019779290109637183 0.004661680795666178 0.0060615848862747386 -0.07533561733223308
0.0867452855660186 -0.029923656900037135 -0.018637138268853475 0.024000865511124927 0.003847545083440346 -0.06239111670076622
0.07727364870182159 -0.026252196989763908 -0.017090865956637058 0.040344402561860566 -0.0002959820040129141 -0.05290297732189764
0.06622845070877073 -0.022169782173471087 -0.015133455358768142 0.050839087824721046 -0.0035959600333976796 -0.044835335234569715
0.05491540866408264 -0.018328829309812753 -0.012898485164698714 0.05793957256380857 -0.006108994513429683 -0.037168166327973
0.043597874335744524 -0.014408849058160153 -0.010535748880566995 0.06255251942003812 -0.0079829764157387 -0.029567286292805885
0.031157709230262707 -0.01025502448693868 -0.008142351106822371 0.06427080240369865 -0.009639661661356613 -0.022240266850298757
0.014930306154364989 -0.0013872070208907922 -0.005471028009919909 0.062190372989014676 -0.011986880797409177 -0.015593062220727842
0.010062425882325803 0.003513868944480381 -0.0005314825802318853 0.07072109704342684 -0.015402610319904505 -0.012248183859814181
0.014609105638942188 -0.09637340463817999 0.012232180451242709 0.06172405600804954 -0.019722083988061336 -0.00819140613573078
0.0035032525894788985 -0.055404470473221445 0.010435042795359312 -0.06038680367138 0.008107862375654497 -0.003022396341121211
-0.003994824804751812 -0.001174589679279127 0.004058537198818521 -0.0791646158013199 0.004593707643799661 -0.010475964662896345
-0.010032206503328867 0.007005087485586516 0.0015029495886287982 -0.07948225872677445 0.0007245850835111762 -0.016062104100824762
-0.0065592103237528945 0.0026981038382813552 0.0008567139458042673 -0.07587928387501973 -0.0012044064136429722 -0.023663859265468042
-0.0038040830868206893 0.001145991567942964 0.0006186279576374667 -0.07275984409699957 -0.0017749670171123464 -0.031523954493555516
-0.0025670072506347287 0.0008055167621937811 0.0004794055521260229 -0.06712067052030297 -0.0019305613413984947 -0.03953738495730416
-0.001420163153518423 0.00047666770169683373 0.000386210760529785 -0.058925166357930985 -0.0020717299131481877 -0.04772817040083062
0.0004761795641408527 -0.00033677155799589876 0.0003253750993735192 -0.04740336594465567 -0.002610496331433021 -0.05625983768444068
0.0026014475776981205 -0.0019117959513550783 0.0001760851120450894 -0.028552540344571598 -0.005053681598345864 -0.06604523796693974
0.0005970536838506158 0.0034763414442213394 -0.0004299186104467083 -0.0017688550692706855 -0.008215294709523504 -0.08008762314356309
-0.0022343298671580916 0.026801144190961405 -0.001579502322714123 -0.0003692049441412854 -0.00021849200384914752 -0.09818354869870911
0.0008224421006023979 0.003398993436261203 -0.00045002603114002965 0.0010052814363960107 0.0077553493864030735 -0.08007835673015594
0.0030808789746096686 -0.002075730529170769 0.00012965962870920293 0.027711997359186735 0.004526764998680538 -0.06602439028513338
0.0012650993670894313 -0.0006047126267213094 0.0002393967745223097 0.04642922669268384 0.0019796441652245498 -0.05622213182172881
-0.00024329634039769467 8.05704746991788e-05 0.00023867213589589 0.05775092521388227 0.0013160820080453178 -0.04766328281511283
-0.000907695107807303 0.0002495247451859181 0.00023693397839478754 0.06566297720539321 0.0010617431391867418 -0.03942947791575938
-0.0015641149431694118 0.00039375119800533816 0.00023091170203186378 0.07090379142827018 0.0008618732034885294 -0.031345378320436115
-0.003880128247487159 0.0017859198158725732 0.00024591167794827925 0.073452891995184 0.00035462649844253966 -0.023416311517507733
-0.007764937853377241 0.006746203406587207 0.000633656328374492 0.07642063286246034 -0.001426598750215922 -0.015926009342498573
-0.00269565233958358 -6.737367944793343e-05 0.0032659009080420196 0.07736147372273743 -0.005182823008324694 -0.010769407168908526
0.0043708710847779955 -0.0581709412143825 0.010485037458055787 0.05981016189782909 -0.008840133930334245 -0.004737182036081567
-0.004915458535151289 -0.02654554589896291 0.009123176553384856 -0.04589429291864504 -0.00011902820605986318 -0.002386481996208897
-0.014573419299229227 2.3984545554742393e-05 0.006834194041122151 -0.06657348384340812 -0.004303742524755929 -0.008128466008396345
-0.02979494393983173 0.01243839991150176 0.007037996557357643 -0.07313542160492859 -0.00976359269402714 -0.014849350663301493
-0.03957068970294415 0.013730085819001136 0.008981560352174586 -0.06816233636428541 -0.011581509978961804 -0.022293746482242405
-0.048593450645240836 0.016066583637805727 0.011255930061150391 -0.06421127174759336 -0.011027343154915206 -0.029769062223103476
-0.058292457093623684 0.019383262507284196 0.013525804171033433 -0.05917625361000472 -0.009465152812316363 -0.037265068516795015
-0.06787719811467019 0.02262699075417592 0.015698010650864427 -0.051961739100136496 -0.0074491970715091565 -0.044967174387683904
-0.07587629812451767 0.025718246845414013 0.017639192252435956 -0.04169774339448346 -0.005053171537072488 -0.05270201636222203
-0.08079903598591157 0.02599585553434037 0.018976641522566833 -0.02650373828656876 -0.004497946116469639 -0.06095701783747006
-0.08979521904045965 0.0317008555409398 0.018794730631028645 0.006813027675309326 -0.00919407924755639 -0.07238521159015808
-0.09711643942023751 0.08010347235908633 0.01647504026402175 -0.0003323223142582939 -0.0003518970903972472 -0.09598722981218913
-0.08956891510596901 0.03162042547481107 0.01878523601738522 -0.0075006841357299955 0.00846112411165689 -0.07237905216656967
-0.0803223335178498 0.025826956973167642 0.018952622494632386 0.025745835362519176 0.003680568572319512 -0.06094277714851322
-0.0751053246761824 0.02544654124002143 0.01759009459321403 0.040818401243327654 0.004107111837579218 -0.052675134171421334
-0.06675928189223344 0.022235521981580953 0.015606997347351053 0.050901164633434935 0.006355128673633165 -0.04491894288783001
-0.05678329370739786 0.01885677419173113 0.013369014826841299 0.057854783692741586 0.008254055987047391 -0.03718026842018093
-0.04671177418991101 0.015395128627683413 0.01100069071220382 0.062518556944032 0.009813750671841074 -0.029627396092762517
-0.037592353883064304 0.013055310431409705 0.008586710045111794 0.06599871068571495 0.010579861966221887 -0.02210164667210728
-0.02834676120149478 0.012377269647850664 0.006494695133780546 0.07103844276507386 0.009203438468316507 -0.014720120894898329
-0.013841845000107116 0.0006669005657648983 0.006320787121177863 0.06607682231221033 0.004075292251525684 -0.008488848921274886
-0.004441734917077123 -0.02813720898145927 0.009040592605817308 0.0462223841871892 -0.00012888774883899022 -0.003990171456620374
-0.011553838590701334 -0.008701920161216023 0.008755434495656233 -0.025410377378805644 -0.00734865546569076 -0.003497188643322283
-0.024017334161142524 0.003250902429209083 0.009250669065921653 -0.03835607143569388 -0.013402757571307372 -0.005835194591780658
-0.04884926729820142 0.017279848792684557 0.012134589156161764 -0.04393722277667573 -0.0213738533579 -0.011667296933158745
-0.0721886853944807 0.024483801777551148 0.016601378229505713 -0.0408574383287265 -0.023085829576197387 -0.017605027505936816
-0.09373209588229563 0.03128578212835837 0.021254672388168416 -0.03803387918621826 -0.0211880151592969 -0.02338972418866844
-0.11470381188562641 0.03834482865111329 0.02579431567532136 -0.034869529892944284 -0.017640715617380696 -0.029151966129528584
-0.13498415358136792 0.04532671485891694 0.030103864131243864 -0.03038806197697441 -0.013012046693938021 -0.03497960856085088
-0.15425630704915305 0.0517687457756603 0.03398292869086345 -0.02434808755870366 -0.00770509958607479 -0.040894853914091873
-0.16664940271505743 0.05808494814677532 0.03684037932800715 -0.014127677142382843 -8.025012298904054e-05 -0.04583213863912052
-0.18076337918690913 0.05308391341777889 0.03688069585270715 0.007181421756116189 -0.0035899485760494 -0.05237029282270685
-0.19181846807067418 0.1414136188621443 0.03150438072447756 -0.00021025706762950035 -0.0005060809269823293 -0.06959930265051012
-0.18053055105887636 0.052998273881670006 0.03688120195913956 -0.007616380960441748 0.002540736232782121 -0.052372238176258745
-0.1661640791973315 0.05790694013850639 0.03683735775665621 0.01364880836463691 -0.001075880786445726 -0.04583501371735011
-0.15348590619820768 0.051487316147870124 0.03396804371893216 0.02379402597040557 0.006387328695813048 -0.04089610552730676
-0.13390066529789676 0.04493275377462075 0.030064279105605038 0.029723089176856638 0.01151198283730673 -0.03497388876718057
-0.11332236666892491 0.037841246021877765 0.025713586860022175 0.03404780730372069 0.016006103426072227 -0.029129421008741954
-0.09218967871230979 0.030716098618665713 0.021115811442810713 0.03698928782708328 0.01959149287817608 -0.023338124892768593
-0.07082660094664486 0.024027093865619478 0.016390014060982762 0.03959237681339407 0.02187393338478642 -0.017525830386782293
-0.048066261253871076 0.0172949475684994 0.011847740603011523 0.04291711534431631 0.020911873509113797 -0.011633418535409237
-0.02375317468053928 0.003598215476718803 0.008968174868214322 0.03834621601750919 0.013492340763963797 -0.006090879366257682
-0.011434251852297099 -0.009328396491865593 0.008658213327656471 0.025745356272317346 0.0075254631306357405 -0.0045369558327478104
-0.013092208756105742 -0.0029480097595874933 0.009994676226034518 -0.012528999477932823 -0.014711879123100804 -0.004220840742430982
-0.02971941570834381 0.005009395371569433 0.01156596135190906 -0.017966717811345952 -0.02379997725079458 -0.0048803133447270575
-0.06719039805295078 0.019629027008170916 0.016295517228790447 -0.0201997412323222 -0.03531489137757178 -0.009689251716393654
-0.10577693509187244 0.02992758333710109 0.022743631989281917 -0.019421983554921998 -0.03687021983734615 -0.014420269178635437
-0.13990060313824831 0.03901137049960887 0.029265630084856376 -0.01806006328388 -0.03323422130266773 -0.01890622735323148
-0.1723920460164913 0.047957502368417906 0.035617789642781825 -0.016202921838867568 -0.02713214424038825 -0.02334499687621641
-0.20402303176565253 0.056967260194045 0.04167558050629445 -0.013767852402683916 -0.019154871863510513 -0.027847125849443537
-0.23403575670831364 0.06459976100878694 0.04710909611533907 -0.010091907982205248 -0.009682825524349984 -0.03196459257763606
-0.2625452587506881 0.07600884290271924 0.051446859570119664 -0.004938554365528998 0.003921194503771557 -0.036840336812119304
-0.2757738146325572 0.061694360283203166 0.05168924178621671 0.013725143747304628 0.028472353855909918 -0.0330851694532515
-0.27492356059140133 0.17375466601261189 0.03897936019459071 -0.0001358593000994105 -0.0007037017146987832 -0.06823109648800472
-0.2755231216024071 0.061605290959624484 0.051698666495628674 -0.014005809407705981 -0.0299278060071207 -0.03308913975131212
-0.262028420028001 0.07582466280367609 0.05146216039058493 0.004631260768109434 -0.005515280557023829 -0.03684714541898824
-0.2332306991112081 0.06431125037255175 0.04712286136284784 0.009740878080026188 0.007879280247075834 -0.03197166538882867
-0.20292461304675155 0.056569102409476206 0.041676242406529465 0.013357700583256804 0.01711515182489041 -0.027849798309249958
-0.17107163244032875 0.047463288223560815 0.03559082424624114 0.015722301502910922 0.024918944352132065 -0.023336353975486133
-0.13862061768889067 0.03849336527875455 0.02919832946969694 0.017503794758520062 0.031086139113352205 -0.018881578583636264
-0.10502760576294952 0.029580245764517468 0.02262968475949296 0.018830534498308703 0.03530122374036882 -0.014389503034344232
-0.06726180814186372 0.019702169791695454 0.016131782184091486 0.019774256009010425 0.03493144602716049 -0.009709084279137553
-0.03012932460283107 0.005278894536499345 0.011406939684312974 0.017992283469377316 0.024370609188299006 -0.005055982720851793
-0.013431872189603978 -0.003166999267689508 0.00996951513228704 0.012630587443974361 0.015515301612126718 -0.004914516253955203
0.038500340685471875 -0.09843297804878702 8.822695178600792e-18 -0.04457193847448989 0.023778800026555302 0.008411575308224171
0.04880581279870829 0.004926801338339237 -0.006108079257550617 -0.0199254613749556 0.02565769452840575 -0.0026364516706182586
0.07139356272260984 -0.021857756905332967 -0.013834155105395696 -0.00712062124566719 0.02406616777101052 0.0006587064016270246
0.09958755575708463 -0.027357793344412934 -0.01968060129979055 -0.0077398890105635915 0.021384993426604975 -0.0004505367490784559
0.13199510219763708 -0.03759902169870789 -0.02538302154115462 -0.007686894523655738 0.016321808120460062 -4.6236102903370594e-05
0.16471750265925936 -0.04716012132136602 -0.030561924627938837 -0.007883314146969085 0.009762536121193642 3.145267785135325e-05
0.19673919823338754 -0.05685386923946807 -0.035029454984330126 -0.00806576571300407 0.0015179075833371808 0.0001475963452385365
0.22790878124372324 -0.06647131470312896 -0.03845801026500798 -0.008495135113996554 -0.0075885842819728875 1.1695918299582889e-05
0.2581597005695212 -0.07632582963109585 -0.040458839224243336 -0.008926065269936613 -0.014674187077517003 -0.0009578212893870624
0.2844656199813886 -0.0864170949225809 -0.04090622661247019 -0.0071872130192554 -0.013408213605165526 -0.0036792735727712625
0.29591226162154805 -0.09270486822840457 -0.040673155654843626 2.4193473728798638e-05 0.00012693858399880423 -0.006529460877879295
0.28453675663723493 -0.08643461728760415 -0.04094271079063116 0.0072352225756038445 0.01364781285100696 -0.0036960221444935115
0.258312477327257 -0.07636204850981573 -0.040539356571244925 0.00897230179554026 0.01486882121591572 -0.0009907262629276648
0.22816826241064714 -0.06652922608684914 -0.03859947897092 0.008535923182218498 0.007700218879985519 -3.4174088981313706e-05
0.19715548829587085 -0.05693997393300297 -0.03526175515876811 0.008094297682489551 -0.0015479445480853658 9.302574063695297e-05
0.16538296712020514 -0.04728865355799958 -0.03093680687983159 0.007884877845419053 -0.010023349789716458 -2.8825912116444097e-06
0.13308447451603353 -0.03779815304938696 -0.025977813898809213 0.007656596302324108 -0.017012713958152785 -9.448630470429827e-05
0.1013717495558156 -0.02767655597759965 -0.02065406428950628 0.007591559239333991 -0.02257535931020458 -0.00017473886746978713
0.07468032534710951 -0.02248515750581205 -0.015212435372636935 0.006845386069912749 -0.027175205182531845 -0.0001300710365989106
0.05617428771050335 0.0035786808871492437 -0.008629737658064811 0.01975838356698014 -0.022960955260240935 0.003110100044567884
0.04887306940171927 -0.1001300164689282 0.0036853756869922537 0.026336578219983926 -0.019397725860199628 -0.015496600045649756
0.023046880416391066 -0.08665760966190984 0.0045908669018639835 -0.028603015797059688 0.0040046808360064455 -0.000788212303298998
0.025595836395888683 0.0027944486529346705 -0.003226098954155263 -0.024849265652099533 0.00862796289279502 -0.0023960643031625526
0.0421731582514761 -0.014983914490944448 -0.008775215401881411 -0.019564454146623472 0.014678334345874275 0.000157314901551473
0.06654618055345785 -0.022004634182092822 -0.013388446634047382 -0.02031447947035826 0.012308896731163125 -0.00021188009183638679
0.08789324591124478 -0.029801098433250513 -0.01742260659276359 -0.020920394818707628 0.009172320861982193 3.330596042052252e-05
0.10970737699232325 -0.03748501260685652 -0.021079530756733404 -0.021035548052976354 0.004998542157705302 4.08293764013737e-05
0.1310115393887017 -0.04515073450752491 -0.024184094434538533 -0.021216585614470557 9.836734689437175e-06 -0.00020075723940259565
0.1515521590399557 -0.05265426014195148 -0.026554008268848465 -0.021782898750169952 -0.0053489959597853316 -0.0011527050526179811
0.1710351360759147 -0.06031346198355671 -0.027965628672091573 -0.02258393783856615 -0.009498245645643437 -0.003913192329629429
0.18756309688446826 -0.0693684040690466 -0.02835541165228536 -0.018530160162441547 -0.008753750527168432 -0.009936189720050384
0.19467315135302124 -0.07736926168138326 -0.028242930486218926 3.502214243218961e-05 -4.890552364939145e-05 -0.01593474394490145
0.18763285078417064 -0.06938992115629025 -0.028369961402016978 0.018599128238662943 0.008633682237773926 -0.009939795194293626
0.17118404414148283 -0.06035751708138753 -0.028001905359502744 0.02264828709562707 0.009310607356982642 -0.003916412418554062
0.151802103471001 -0.05272327896903601 -0.026628193294616305 0.021834478140999564 0.005044765448930123 -0.0011452613910468187
0.13140425189784186 -0.045249703059513945 -0.024325830760663348 0.02123881579650508 -0.00048683314830383275 -0.0001620536595546724
0.11032141102139717 -0.03762540621065984 -0.021337809001139095 0.020999025536530807 -0.0057289846322559485 0.00015335810926569695
0.08886462358798342 -0.030006391176705408 -0.017883114591382466 0.020785500286718075 -0.010244645302616507 0.00026837277819767965
0.06816507425320609 -0.02231239207746123 -0.014158785496549198 0.019975459042875943 -0.013974644218166826 0.00032046221456323305
0.04498943103431568 -0.015595111307117267 -0.010092888792361017 0.018698293728458954 -0.016775493197728412 0.0006359565642001447
0.028416921260657646 0.0024443759478176563 -0.004691364386772236 0.022783026363353078 -0.009184289458811383 0.0017444199436823335
0.025101977612696877 -0.08745184521251292 0.0046851686682455 0.016978195459535196 -0.0027466050101429395 -0.016347237727522505
0.01277731741273458 -0.06259193662922817 0.006501579551510085 -0.03775117156616076 -0.0006350016951992265 -0.015765889683308058
0.011294100156329066 -0.0008254816750643825 0.00034876670267619184 -0.043154743627319254 0.00197225049915227 -0.0023694561808888163
0.017778510052921217 -0.003876254085229686 -0.0036626367528564798 -0.035687772938831505 0.005923066638623098 -0.0007224680484487047
0.032092247172968526 -0.010775332722914768 -0.006461281881960481 -0.036700789170986146 0.005030708659433712 1.0022921201108972e-05
0.04385570335797463 -0.014688643813379268 -0.00869310701178454 -0.03709854512853335 0.003188382030216597 -7.830720297190875e-06
0.05468906827799277 -0.018500332327489415 -0.010599642242796638 -0.03724362250661473 0.0010757966243160324 -0.00023948376368499417
0.06524625642475054 -0.0222552672225486 -0.012169524717686663 -0.03733283011689258 -0.0013658790328496624 -0.0010539335447542389
0.07503935055453088 -0.025589787326873996 -0.013321602913311529 -0.03773845409905591 -0.004138708160551119 -0.0030927340652426253
0.08445242899307433 -0.02887194470803055 -0.01397311451781019 -0.03904991475434756 -0.007176718903037963 -0.007881533464023094
0.09462598247546226 -0.036778651679949696 -0.014045635529297475 -0.03377542541513336 -0.0079759286755495 -0.017839343058559578
0.10005479066384165 -0.05086059041975526 -0.013791260976557985 5.137101659843192e-05 -0.00020487978381585165 -0.029356027016383988
0.09469334061381995 -0.036807964187002454 -0.014037599873243803 0.03387618602932764 0.007537589455096479 -0.01783099683926517
0.08459441840026083 -0.02893116052456255 -0.013963276404752027 0.039142404995287365 0.006653300298266804 -0.007857543651549495
0.07527220982465004 -0.02567992252131409 -0.013324350430309486 0.03780872313922887 0.0034761123280995605 -0.0030353542647801627
0.06560050671581832 -0.022377878529811143 -0.012211376757087477 0.03735214484038077 0.0005138773432096862 -0.0009264706053243259
0.05522109859674421 -0.01866091128770733 -0.010726769384501 0.03716123740859097 -0.002161229877172784 2.1659817972927412e-05
0.04467286601754663 -0.014898230799596032 -0.00898018215372394 0.03683348980042775 -0.004552717551301325 0.0005093477061664237
0.03341604464083745 -0.011071747317851552 -0.007028695490180078 0.03609742371876291 -0.006724521004781229 0.0008693241574209568
0.019468104505574322 -0.004228108109696927 -0.004643166477098378 0.0342762980254814 -0.007637013968821998 0.00100453375509524
0.012539627516171348 -1.6910003271881137e-05 -0.0007952166176194243 0.040302315054125515 -0.00232228547902932 -0.0007490622299863302
0.013541651982753526 -0.0625787053034039 0.005857430817284901 0.034480769664674435 0.0014191419008545989 -0.02209334714103718
0.004331037473042179 -0.03947380947870557 0.007556946097333968 -0.035694470475082 -0.0020501576050322916 -0.017285710521927036
-0.00020394369774839286 -0.0021923646530320733 0.0036602790919828283 -0.04741144833998177 -0.0019578376991841993 -0.004250226691404719
-0.003640047195316822 0.0033355890192419075 0.0014871322135949763 -0.04508042894043495 -0.001224880909551638 -0.001072371813975922
-0.0015062750271245594 0.0006332387147219929 0.0006575621361343806 -0.042582110713023986 -0.0017122967486774949 -0.000265281307689414
-0.00038444713830554876 -6.130033191157185e-05 0.0003605383192251484 -0.04257605753614612 -0.002300049630950125 -0.0002273229724107963
-0.0003066458705934387 1.4862463897316483e-06 0.0002801986952271564 -0.04267064533894557 -0.0026102691085385273 -0.0006738284128943549
-0.0004274821373428817 -2.3326235435672084e-05 0.0003246394354929251 -0.042770780804510175 -0.0028241484493373953 -0.0017546654578444066
-0.001249867971963531 0.000519322090403555 0.0004640919638652607 -0.04247605585622734 -0.0033731337660258738 -0.004068435586379733
-0.0017790401272997898 0.0018727469749235542 0.0006309288303190997 -0.043835146615851306 -0.005715911073172618 -0.0090355533445124
0.00342295312563149 -0.005079399085392495 0.0008786942636885216 -0.04290450340339742 -0.00883540398782555 -0.01988869913746379
0.008459249868262981 -0.03178100667963197 0.0013447604855505117 5.585947945518938e-05 -0.0003529382427749696 -0.037690930749326744
0.0034873415610295532 -0.005116316118679044 0.0009097759959232149 0.043013996309942154 0.008095149430310885 -0.01987688586512262
-0.0016456801838824987 0.0017989291422507003 0.0006880785095272085 0.04393534931520322 0.004875000650017327 -0.00900356907091585
-0.0010379652887729492 0.0004093711465367689 0.0005354404667852988 0.04255126179503135 0.0023739096661384834 -0.0039957984452085
-0.00012026166317292774 -0.0001670694458947425 0.00038746484956921523 0.04278831654016458 0.0016272741298212592 -0.0016006344576054462
0.0001272171990736403 -0.00017298699807966246 0.00029434138667491035 0.04256960069890274 0.0012077249756546407 -0.00036079610911453043
0.0002483321159526701 -0.000268373085781664 0.0002581160280487089 0.04225320622116138 0.0007256119698412594 0.000370929983028331
-0.0006153092676665852 0.0003844910297030005 0.00033204387441879667 0.041857847238816484 6.71747439741339e-05 0.0008175809514265014
-0.002732743946566521 0.003332511461830752 0.0008419364672230226 0.04362759685273349 -5.843961048785186e-05 0.0006759572801265921
0.000378070499827077 -0.0013318731179613687 0.0027999558142529813 0.045888631914587856 0.001850523894079858 -0.003195690752732921
0.004704353865685075 -0.03958758790891576 0.006828158068948402 0.03463563215107571 0.002683470896832486 -0.021068079930417573
-0.003331997477828438 -0.0204892162724114 0.008527349218234554 -0.02702570883307703 -0.0034585300496330776 -0.014950092065904936
-0.01072040542384895 -0.0008232546754221749 0.006694740547459074 -0.04016408069176654 -0.00558401453407957 -0.004334142826941738
-0.023642966967345268 0.008939075491679941 0.006524831595517455 -0.041519722954979736 -0.007891485030347369 -0.0011134798323426758
-0.03418085697711578 0.011465746120877552 0.0077298662256779435 -0.03774424832530154 -0.008433275289263596 -0.0001364323066014696
-0.04458364076344316 0.014699731380503043 0.009401370411955637 -0.03696313823401963 -0.007849430633571778 4.924985739669123e-05
-0.05540742557192505 0.018503596303310464 0.011152035037928968 -0.03715697347851573 -0.006345199505544457 -0.00024535747751959686
-0.06601913147622995 0.022319928967034476 0.012815902023371928 -0.03724574781405344 -0.00437196817953684 -0.0011456248397978162
-0.0769921327832211 0.02606045728895886 0.014260338973826404 -0.036912984037234524 -0.002437057063052567 -0.0027961483882557787
-0.08811992565585834 0.032257248525603494 0.015234707907668801 -0.03629370984182263 -0.0030434654925096667 -0.006319334851589285
-0.08828772467832562 0.030626558040250464 0.01550939533579687 -0.04588499840598091 -0.009403471104589414 -0.014536726198252789
-0.08309850815107811 -0.019019449683145274 0.015965549654296536 5.259935105300436e-05 -0.0005041594951660076 -0.03942136907465177
-0.08822618903018785 0.030581785664315162 0.015563814845204632 0.045988534058239175 0.008354467354470539 -0.014530146400262301
-0.08799503891231661 0.032168366932097285 0.015339878568417776 0.036389949652298546 0.0018766505776324402 -0.006298890126794513
-0.07680112003740829 0.02592997617293513 0.014407092540272582 0.036988676807371015 0.0010902534117753517 -0.002744059521270016
-0.06575955578705635 0.02215439397794214 0.012985698427546193 0.03727236152023783 0.002815384771411006 -0.0010259096409183479
-0.055073835947267495 0.018315311645492723 0.011310616399270453 0.03707801828453358 0.0046089239564947974 1.0542001942481219e-05
-0.04416272228634206 0.014500525311793674 0.009489189248926597 0.0366771140773844 0.006054430023877755 0.000566728364559401
-0.03369900751183574 0.011305455719612787 0.007655116970126907 0.03708476312109386 0.006833237141370614 0.0008312380555751903
-0.02325167856924067 0.009058424453511555 0.006193630811385088 0.040499779629874305 0.006938298087610968 0.00030389155069509004
-0.010482888845473185 -0.00022024548111624734 0.0061204398623928786 0.03951005836698347 0.005619096673272163 -0.003608581350257147
-0.0031448389975688926 -0.02059207020645921 0.007897756225396228 0.026781501649529783 0.003980466839686355 -0.017458482736508046
-0.009804954206652339 -0.008135784853504208 0.00989266133831998 -0.014133108482996037 -0.006198060013688776 -0.009704622067967834
-0.020448255790441613 0.0020233823377965206 0.009582774915947945 -0.022455016920292007 -0.010331727420754394 -0.0029497003139749393
-0.04311221187241912 0.014306947199873616 0.01133527350329303 -0.023951827182761343 -0.015257139075049322 -0.0010167193366168805
-0.06647209650672165 0.02233386497956114 0.014524424394686604 -0.021473950290046125 -0.015834146173838957 -0.00016081138419454975
-0.08878759223817394 0.029917920160506335 0.018094244663112956 -0.020772594969170857 -0.013971664829280677 7.43102438260286e-05
-0.11054038528426714 0.03758455318238115 0.02160116147394739 -0.020938559507562442 -0.010456408775053477 4.1804598377711836e-05
-0.131881248217719 0.045224161478250896 0.02482431770663791 -0.021133083963901268 -0.0059056010030200095 -0.00026309570921014826
-0.1518778583027975 0.05291403379147843 0.027517600385605846 -0.02074076128718475 -0.0012693874365940986 -0.0010652319535652034
-0.17381097266063422 0.05973358299225974 0.029298041310677085 -0.02139533584599168 0.0028430951975571407 -0.0016707558432645915
-0.18283068853769702 0.07577908117011128 0.029025711021641414 -0.02898045271796674 -0.005934057644737724 -0.0054327646344272925
-0.17933470005903224 -0.008939456582220702 0.028293877046225876 3.647859540998996e-05 -0.0006696739603960495 -0.02901911487965179
-0.1827712657739821 0.07572587631147006 0.02910356098489018 0.029052759595774944 0.004546076686252656 -0.0054391694852632955
-0.17369273299116073 0.05962835064378842 0.029451372231570887 0.0214643038315632 -0.004371146702485237 -0.001679590106600203
-0.15170399615537603 0.0527607121548799 0.027739788952725324 0.02079911431522268 -0.00046961655200995333 -0.001066487365923768
-0.13166149564945578 0.045032913430064186 0.025100506549710508 0.021164120159621696 0.0039301012460595496 -0.00023606321741186228
-0.11029677834883302 0.03737563215977213 0.021901938448726805 0.020908359177982314 0.008306529476912482 0.0001387936036798861
-0.08856463430819013 0.029727797509197726 0.018367094814002005 0.0206141706338086 0.011857436031143028 0.00032436070090861537
-0.066342654635537 0.0222415680369415 0.014686302034864809 0.02110116608784398 0.014162821684492243 0.0003661632532848307
-0.04311985759001422 0.014452097270739058 0.011284621853018309 0.023449675338224982 0.01453422591636399 -0.00024302516586248638
-0.020476671520143718 0.002385865440056947 0.00927445740004139 0.02223310989274321 0.010561099746974093 -0.0025712287917673705
-0.009785456331342165 -0.008125168116871626 0.009419458578152018 0.014081912364969204 0.006789424918242488 -0.011140171055145642
-0.013173326932232285 -0.003939124136173132 0.012003501242803055 -0.005413230178534714 -0.011849595502298178 -0.006289517765018236
-0.028220275963212894 0.0036216040380321326 0.012469806783272017 -0.008787340866825035 -0.017796474097203877 -0.0020506340227418817
-0.06255892567456443 0.01704935754877461 0.015766273592314906 -0.008629863665955983 -0.024766870669301215 -0.001103624519754699
-0.0992611110306402 0.027901905572868015 0.020699274867265402 -0.007825105814252976 -0.02497131109271375 -0.00045718145623068217
-0.13308585306498863 0.03768788935514884 0.025952742929889222 -0.007650824791662795 -0.021469978502624137 -0.00022747700820920552
-0.16566309451672032 0.04735564701355276 0.031030337362307144 -0.0078289062143636 -0.015457336301228121 -7.376758595706903e-05
-0.1976854605233315 0.056824747221077 0.03565167166332809 -0.007928633925371086 -0.007776702010979657 4.197697426896378e-05
-0.22817017277643079 0.06708816625882029 0.03947403938664649 -0.008288105498671584 0.0007179794467171299 2.1124709942642783e-05
-0.2533195316161366 0.07214095796320324 0.0419832843636805 -0.008532709145271818 0.009463412718359127 0.00015442861181749618
-0.2797589295477647 0.10138383823332386 0.04111301063298352 -0.02068392356069668 0.014117916910122364 0.003344893048639596
-0.29565965498388497 -0.003714501452266261 0.03432901068426884 1.7511425738268318e-05 -0.0008615940858181665 -0.03085619913743949
-0.2797007460914851 0.10132625240598049 0.041214074440499515 0.020718991256609722 -0.015900562099092286 0.0033328789813966545
-0.25320539835477973 0.07202716110404953 0.04218410719777809 0.0085673640995176 -0.011417418177245259 0.00013246440464871
-0.22800721155163703 0.06692272744836843 0.03976991758436288 0.00831991514795298 -0.0029303249666411805 -5.5767800605546454e-06
-0.19749148113483964 0.05661922488605205 0.03603005245061301 0.007951184545871293 0.005274534124400274 2.125738728697582e-05
-0.16547995498744342 0.047134330744494066 0.03146384262032194 0.007828588401040469 0.012744547939308924 -6.660874358558819e-05
-0.13300539790272978 0.03749963051841303 0.0263900440239688 0.007598868499446714 0.018829747138933036 -0.00014825014644841394
-0.0994212612183853 0.02783647315244373 0.021056048991225762 0.007683043936091876 0.022984236289267417 -0.00023859303260105456
-0.06297646586079184 0.017203519669087893 0.015929750509818208 0.00842250197296443 0.024175361285152425 -0.0007706413159331619
-0.028589427360221877 0.0038923666214534824 0.012371057472925715 0.008683373414374477 0.018544268822160967 -0.0019028335301189882
-0.013394704923557016 -0.003857634987946132 0.011713546484072673 0.0053283915927688184 0.013080355787189309 -0.007158029389970953
0.053448790306106296 -0.08512177944576566 1.849919956803392e-18 -0.0028008529975114965 0.01027419258457756 0.0008915398406053107
0.05620784381319222 0.0005194969889319596 -0.005706912006412317 -0.019271696868226825 0.014007528346789672 -0.0010689308321074147
0.07034857792941653 -0.02274210904378019 -0.010899918951951826 -0.007625367800922849 0.013183111262268177 0.001032539210961502
0.09695031003344565 -0.028873123632768675 -0.0157263019587223 -0.008713450201382941 0.011020081028267865 0.001191442894970054
0.12762395976083754 -0.039248249573066454 -0.019450973868291914 -0.009130646584085638 0.007086281090157985 0.0016441622280072758
0.15832338813850516 -0.04930252561336898 -0.02206549403055848 -0.009587125275473441 0.002159706881009898 0.00211239771400788
0.18894497410386732 -0.059875463087936294 -0.023390508794342884 -0.010202873003838039 -0.003408536844525646 0.002551004442494032
0.2210105203910071 -0.07122288302109087 -0.023303473409851012 -0.011374756493138306 -0.008727956339748542 0.00274831279572139
0.2569214782014537 -0.08451224915479079 -0.02186182354738278 -0.012770280965466792 -0.011701330966512569 0.0023152615493849
0.2930346217771419 -0.10003559906037689 -0.019680386765915266 -0.010727593449465505 -0.009082279715810595 0.001002715085172582
0.3099066158253243 -0.11012220889460578 -0.018418548622615414 2.4820113320661932e-05 1.173083933379704e-05 -0.00011010709272583841
0.292951651765815 -0.10000282132075679 -0.019693354332623085 0.01077874903635214 0.009092249215988146 0.0009884790501397157
0.2567428600769759 -0.08443815390525125 -0.021897117485855218 0.012826126147508176 0.011669336299216135 0.0022869595427986787
0.2207086589857615 -0.07108875967129302 -0.023381753714246903 0.011439220581623798 0.00861898608075135 0.002707381003071225
0.18847142517114102 -0.059649113777989884 -0.023547587406283654 0.010280265832070376 0.0031680049490919954 0.0025016791384320828
0.15760133997972584 -0.048931723722619454 -0.022355587170314425 0.00968620023978398 -0.002630297746763828 0.0020698050053993217
0.12652527288646973 -0.03865470687135936 -0.019956238295590137 0.009246106911336793 -0.007974633881583586 0.0016192894754703258
0.09529713625719659 -0.027944873071530235 -0.016533652645386997 0.0089250235355629 -0.01253971998236219 0.0012940116805368045
0.06734963844265944 -0.021210494565074303 -0.01224603733543077 0.007927381298080087 -0.015528089378142457 0.0009485737537786624
0.04842583991916775 0.003059652228973739 -0.007259757831292578 0.018833103255087347 -0.01413488286173829 0.0007634918340743407
0.04190422701952073 -0.08091706634481212 -0.0063723737014605665 0.024189075813182474 -0.012494640277549974 -0.007462288439989792
0.02359878267503185 -0.07336873460060626 -0.0008411575308301386 -0.0047776026333567955 0.005439566100566904 -0.00266268344272936
0.02739352726275984 0.0009595123317519312 -0.0026165368363213893 -0.021871349153538396 0.006594090978507738 -0.0022399887501267386
0.04354169122873099 -0.016577967204189456 -0.006804977268062449 -0.019722150591896213 0.008254455132348017 0.00024780880437685123
0.0656438970189647 -0.02358627641631682 -0.010239627699722297 -0.021736725677636 0.006901247694257068 0.00062617893630344
0.0856956332434116 -0.03158351334350255 -0.012902523307881468 -0.02297708262188352 0.0043716463488065625 0.0009147941000227115
0.1061561982851819 -0.03970281571791705 -0.014682893222606587 -0.023794603387708425 0.0011687673477134434 0.0010572909650517126
0.12654630233341385 -0.04812986257562953 -0.01555442770274603 -0.02512986010558633 -0.0023276663409490593 0.0009216783278204243
0.14764541948552792 -0.0569683106980996 -0.015482011874431604 -0.027893650276034153 -0.005555862826329007 0.00016586122047604275
0.1705425977858415 -0.06729401983092825 -0.014547118150689358 -0.031923875589735216 -0.007312656176853493 -0.0017573127352589783
0.1928620393751599 -0.08138053830343019 -0.013101377618834311 -0.027976912492990298 -0.005703143130994829 -0.00497470117755141
0.20312618485349807 -0.0940742772019639 -0.012177179909830613 4.813883869632293e-05 -0.00010532460551315525 -0.007271159385942378
0.1927602621141856 -0.08135426573923034 -0.013067939581866167 0.02807759749505976 0.005472556556561362 -0.004978081396557448
0.1703276895093388 -0.06723361210615034 -0.014487535268995487 0.03203853360828364 0.007021454552910024 -0.0017605602479182324
0.1472936525619327 -0.0568566378250041 -0.015413229938519356 0.02803439166820699 0.0051594824475758305 0.0001718375583807412
0.1260191984887008 -0.04793751192272899 -0.015507347662987739 0.02531336246211138 0.0017703888140184244 0.0009561750066360603
0.10539343253384949 -0.039381708815985704 -0.014709526409300965 0.024044553042041634 -0.0019718315062606227 0.0011577661450054867
0.08461127080148663 -0.031059866902873823 -0.013079620223396171 0.023320339709545224 -0.005547367487651927 0.0011409830655884185
0.06404142835322234 -0.022761244475350495 -0.010694127485801223 0.022269679495848203 -0.008637959012677063 0.0010800427369357705
0.04095470673432639 -0.015168673886952599 -0.007651745266721384 0.02075104382297521 -0.010266626796832035 0.0009546065798783548
0.02510433771764721 0.0022318918496110687 -0.004307524880584459 0.023775850712244563 -0.007381037681145842 -0.0002767844693961891
0.022259056784334114 -0.0702157364155265 -0.004822713696903173 0.017966659849173824 -0.004826682614752286 -0.009652729502417808
0.012136439931104517 -0.05148129917766419 0.0015144049725402794 -0.030964299403260447 0.0019084029811390372 -0.009179961927087778
0.011782250152125714 0.0006781039463858577 0.00011814112772913793 -0.038068704693697095 0.002400870937552546 -0.0033856881778601263
0.01923935484182592 -0.005714432650255651 -0.002633274630673255 -0.03548652875139706 0.0033590068628997875 -0.0008628243767791237
0.032830404644599916 -0.012266657520721883 -0.004871455604957425 -0.038344724299164114 0.0027729754978844446 -1.2353747603596043e-05
0.04363162099099189 -0.0162064365728909 -0.006426131735915393 -0.03983130399064496 0.0013490367049831763 0.00010522390870578715
0.05366820203603936 -0.02024525848480801 -0.00736459668918491 -0.041243922771639484 -0.0003388616367515801 -0.0001539913762177655
0.0635325938731005 -0.02438259534247228 -0.007725865885893471 -0.043365294863031076 -0.0020890105705506324 -0.0010037280484867558
0.07311752713243388 -0.028102043153617595 -0.007543098970643562 -0.047494081278116135 -0.003718796160550778 -0.002897308964475404
0.08394385039296715 -0.03238978358184482 -0.006858680656621406 -0.05466670295276243 -0.004834911130238955 -0.0065133967591123835
0.0981758884227766 -0.04501867213924399 -0.00570347990547418 -0.050724847852962086 -0.004151928478571314 -0.011941762120938943
0.10628821822902723 -0.06672145206308473 -0.004683568051859516 7.767464455191342e-05 -0.0002202470372081396 -0.015865481338792252
0.09805727020735383 -0.045005796030792515 -0.005624262561618459 0.050887538617270744 0.0036863445985263026 -0.011934612066999369
0.0836970122989853 -0.03235757579041597 -0.0067057308683577755 0.054852737968901416 0.004294453137775339 -0.006491775963483872
0.0727238139951597 -0.028036603532783446 -0.007330160764879841 0.04772386990335218 0.003054505109306647 -0.002843250610605212
0.06296435943263799 -0.024260267659389115 -0.007480706824617946 0.04366789912309014 0.001251087081904119 -0.0008808975231807837
0.052887577076235155 -0.02002590139024059 -0.007137417866129715 0.0416612009256572 -0.0007284499414468628 0.00010299819443141122
0.04258307164696147 -0.015829462506831253 -0.006301805152374464 0.040423689038336305 -0.002720117409700146 0.0006077701996667665
0.03139505968871659 -0.011628967447108621 -0.004979921815864823 0.039249817514403894 -0.0044971653931827425 0.0008586633824156286
0.01775609649049103 -0.004812066771322111 -0.003166334278388455 0.037120120097710506 -0.005082307286765396 0.0006988584420996945
0.01111762594158979 0.00048248250612254004 -0.0012872779395724173 0.04091569152873085 -0.00289114573666764 -0.0020479342896894534
0.012102442268979722 -0.04950530267987839 -0.0014928743633118447 0.033879088263531164 -0.0013026383448983248 -0.014199153914943603
0.003601954586829394 -0.03252372576998331 0.004688825183392574 -0.03336090901849834 -0.00022722676413533177 -0.01177071668497184
-3.9312833688127165e-05 -1.5438056830329935e-06 0.0031244594732820334 -0.04462555444640995 -0.000730375661599728 -0.003976681613016429
-0.0021217220194829807 0.0024260865569546816 0.0015271506784543289 -0.0442727119897768 -0.0010455859818270046 -0.0011905862317469753
0.0003845361043997693 -0.0003022544980320294 0.000510945197347184 -0.044109001838974544 -0.0013419042862730048 -0.00023081097097088287
0.001262512662845916 -0.0006710667643951146 7.01921423339001e-05 -0.04541677962524579 -0.0017598311195208573 -7.130214202732147e-05
0.0009955548619144483 -0.00045967788246500474 1.3351084719331344e-05 -0.047022255169109475 -0.0020688795915186 -0.0004533831241840592
0.00034405298174687343 -0.0003347896686116904 0.00021160399965806497 -0.049463162127973276 -0.0022347606297604323 -0.0015203537239599691
-0.0014831968536069308 0.0008322797140029212 0.0005881387156412914 -0.052985526237926815 -0.002450820718429297 -0.0037063085462239677
-0.002508727449672944 0.003070017799277924 0.0011256662901340624 -0.06073839003994188 -0.0030712125850326706 -0.007691441898488738
0.005752944618926814 -0.008385222480692546 0.0020995320793419448 -0.06343636885057366 -0.003261454850852608 -0.013878076036099984
0.0136336533084123 -0.04796715100597288 0.003484233960766143 8.80249455614048e-05 -0.00033483955607084716 -0.018934537892691596
0.005618049155780948 -0.008386265697570715 0.0022246157558915504 0.06362075890966065 0.002562023751974387 -0.013867724550996099
-0.0027862231033074416 0.0030729167890129793 0.0013721193143349307 0.06094927355145026 0.00228443002353243 -0.0076621956830273275
-0.001916716113448188 0.0008496860987966654 0.0009451966294088481 0.05324596525388863 0.0015252499981452956 -0.0036373222322695687
-0.0002610711196670013 -0.00028494990339755365 0.0006544194359460808 0.049806241517468895 0.0011305430506484558 -0.0013702988114706277
0.00020510755090430687 -0.0003473050499612294 0.0004915959459046744 0.0474986690098213 0.0007627522596304931 -0.00014546221041390628
0.00026693953205042195 -0.0004442466452350487 0.0004923928998549679 0.0461076502443759 0.000249865342968342 0.000518620771657105
-0.0007505943939654513 0.00011269546720550705 0.0007271828317615233 0.045160726251384904 -0.0003015047683643169 0.0008317074803504115
-0.0029537396941403077 0.0027398418706630857 0.0012997054260580336 0.04593406896292565 -0.00031465197417484566 0.0004710809797966853
-0.00017029001578214843 -0.0003398682675103189 0.0020601590760222946 0.046011709737185096 0.0004436451396466452 -0.0030025677469080465
0.0038388593784717973 -0.030893839846025513 0.002359510416099737 0.03394621850097207 0.0007046856953881537 -0.015034712795882638
-0.003987791575098965 -0.0170627681886111 0.00796488727671886 -0.026617245846066465 -0.0020251449191869227 -0.011061129347632996
-0.010604774813692019 0.0009094844150616022 0.006252519923056144 -0.039093380146452236 -0.003615485920541325 -0.003395872300166201
-0.02194356609893722 0.00878282811645072 0.0056672523557215245 -0.041239104360476966 -0.005297812461386819 -0.001014894809071246
-0.031272154556081795 0.011277420512944284 0.005869979295927049 -0.039235756319036 -0.005423536827112621 -0.00011563598106719496
-0.041119180737396815 0.015001752184122903 0.006546220051736845 -0.03973457403000201 -0.004887757771001984 0.00011005569917102884
-0.051797134820061465 0.01933826616165846 0.0073792350561703675 -0.0412443020362096 -0.0038210129740973656 -0.0001562170547718619
-0.06268588159436603 0.023862026075555633 0.008144983158320537 -0.043291811239893126 -0.002410024095345872 -0.0010157786684126698
-0.07506974833272716 0.028812881273074162 0.008715831090293029 -0.04596370756846182 -0.0011226260377689853 -0.0027792013716846586
-0.08878338031617765 0.037712038608475947 0.00906391721877897 -0.04966140521267349 -0.0009810323584033976 -0.005979482834656893
-0.08759932822275375 0.033854807047475254 0.00960057490666184 -0.06589003678189242 -0.0020552581878960476 -0.011653064046883434
-0.07967206514863527 -0.03664339514117228 0.011487137085476454 7.79385830410386e-05 -0.00045168475505097665 -0.0174913985027078
-0.08775139384805687 0.03383983059336202 0.009772385088701012 0.0660532686342001 0.001117175252133385 -0.011646835317028545
-0.08909349566090866 0.037685574717850265 0.009405730323991548 0.0498479605076799 -5.7827119102621083e-05 -0.005959752341435938
-0.07554651290087386 0.02878225728288298 0.009220163333608625 0.046193736161864604 -7.162472215616358e-05 -0.0027282471257118984
-0.0633328791017855 0.02383924752237385 0.008790270497231563 0.04359424418752083 0.001029248467961516 -0.0008980375608482962
-0.05260389350952184 0.0193426452798882 0.008115699398531812 0.04166644760456824 0.002263709532035398 9.476235905790697e-05
-0.04204280262941074 0.015071818887938963 0.007275292011938587 0.0403567489740659 0.0032280371014899952 0.0006125407475032792
-0.03215368371271713 0.011422187332893408 0.00641942754788455 0.04018577690855637 0.0038565287830507086 0.0008150832201698023
-0.0224384556889969 0.00878966416115187 0.005768374245454754 0.042391509827381275 0.0042382369710934325 0.00033474001467037243
-0.01056581359958713 0.000698743492009813 0.00555196863389166 0.03960414294916093 0.00347072229613478 -0.002675662155734283
-0.0037176711038177626 -0.015914897720457323 0.006205517493730785 0.02644620225554328 0.002413267076224235 -0.013170598858545263
-0.01042181725908672 -0.0070711313159945366 0.010970878162266865 -0.014381955966286719 -0.00429446331363219 -0.0066897011992214095
-0.02033570073883511 0.002991984138142512 0.009305314947039739 -0.022368615700167134 -0.006917723139689593 -0.0014772955935996896
-0.041124074523389904 0.014455120213908514 0.00975432094460241 -0.024321865923531916 -0.009748385361337078 -0.00019871362233267229
-0.06246249042484949 0.022464755467247976 0.011170794806525799 -0.022810925154638225 -0.009529300449695292 0.0005253715076077323
-0.0833955842726517 0.030528862479699687 0.012958809143716199 -0.022871356373291536 -0.007952545245296717 0.0009031070082138342
-0.10442640317783139 0.038931396322003896 0.014660162349026134 -0.02378929666747511 -0.005396101416932764 0.0010519320573607609
-0.1257531135980395 0.0476371322343702 0.015963515666263393 -0.025068694321271883 -0.0022397432950467724 0.000913900938394178
-0.1467323316524885 0.057023802657095786 0.01664573422119429 -0.0261649221479314 0.0007650522250351245 0.0002888416292410562
-0.17306480512606578 0.06630930167473494 0.01668528355849357 -0.029089161249947017 0.002354518935637863 -0.0010464844938534573
-0.18504166057162352 0.08755116692405712 0.01616545584846209 -0.03951693688598367 0.0006459737470375 -0.004637303904149969
-0.18094273780788456 -0.028573297624377908 0.0181679844351373 4.8697525525508986e-05 -0.0005733416922762607 -0.01124716710228662
-0.18521324268674644 0.08752278003954503 0.016385590640503017 0.03961879100509108 -0.001833423018958975 -0.0046426469431862785
-0.17341265976678685 0.06625453590977985 0.01712598908543537 0.02920509286547665 -0.003659729499767632 -0.0010536728125991367
-0.14726117558627871 0.05694682366221153 0.01730354019766308 0.026306856476497362 -0.0022493300166229893 0.00028866087353562615
-0.12645690616928779 0.04754418993189221 0.016821453526884102 0.025253663822316755 0.0005486168838929553 0.0009391562625786057
-0.10526809173322263 0.038831918711417925 0.015671068672514006 0.0240448632082539 0.003533656101992702 0.0011393188560985764
-0.08427004360216982 0.0304338123866327 0.014019409977699904 0.0232494312931257 0.006065298599006727 0.0011251693422290206
-0.06315988176661445 0.022355680903743583 0.01208918139574577 0.02336369704725154 0.00793685504926942 0.0009924652203062952
-0.041406673779611804 0.01425641346700178 0.010231030098282627 0.02488536288115242 0.00890988759425783 0.0004907008061669286
-0.020207918156862757 0.002847227601658615 0.008988847073161181 0.022492642385349156 0.006966940943582317 -0.0011124352697126306
-0.010142778439843883 -0.006415795768274367 0.00970584570293011 0.014127318000468127 0.004757938543421488 -0.007868881400154588
-0.01387380274520649 -0.0037172691948519137 0.013278462998519749 -0.005606200905791607 -0.00827450189296407 -0.00343356817886008
-0.02814646777549199 0.004205231616595941 0.012162213437677778 -0.008955232232084913 -0.011402110167965532 -0.00015654898501453636
-0.06011860452428108 0.017211797244737568 0.01381042597484338 -0.00928068504845465 -0.014571940338292592 0.0004167517353336497
-0.0938931033930708 0.028004046754122162 0.016492413599872947 -0.008937585259617424 -0.013610612857517012 0.0010224762739054199
-0.1255223493863141 0.03820618309420652 0.01941565193799401 -0.009062787659557101 -0.01075398262665081 0.0015397926696203517
-0.15673748253229183 0.048654315702911836 0.021978140345436502 -0.009544117756808891 -0.006471335656371516 0.0020484520112533547
-0.18827577880305185 0.059261561602027626 0.02376691966567138 -0.0100231041919972 -0.001262688701636934 0.002503711858219539
-0.21946464260050752 0.071576750128176 0.024497905801782942 -0.011087491612594985 0.003881156954003906 0.0028406638538127967
-0.2474059872090727 0.07803833838769783 0.02398220291690524 -0.011728634726334515 0.007217077239041633 0.002685465203333536
-0.28570017554112337 0.11793414152378326 0.022099600878463913 -0.025831395375896495 0.0068925282879638205 0.001661547920894593
-0.31141286298717485 -0.024377548361509627 0.021253604348878914 2.5326693316320148e-05 -0.0007015671544815152 -0.007879760107578473
-0.2858949625878236 0.11789924940110576 0.022370265667805447 0.025884661539244017 -0.008344302492733987 0.0016499571240282437
-0.24779960102362855 0.07796983723566761 0.024526740433279622 0.011790039559514567 -0.008809648822416478 0.002663188490398773
-0.22005956794439196 0.0714771960431022 0.025318053857959287 0.011163684229735387 -0.00568860819562805 0.002810324167546426
-0.18905966128535148 0.0591346102635518 0.024852482592678585 0.01012284741626284 -0.0007940331845573126 0.0024715265910005627
-0.15765312330892994 0.04850404563426635 0.023288333564155828 0.009679828748018928 0.004209846352608279 0.002028839764768572
-0.12640982448804047 0.038029391786191635 0.02084877064307626 0.00925565689761705 0.008485372306269253 0.00156542750738662
-0.09446183392306909 0.02777269709115788 0.017843735527311767 0.009205710415967978 0.01178758337031636 0.0011494941329574875
-0.060152189187871526 0.016910462686839326 0.014743375039026117 0.00955991397163749 0.013857375455345102 0.0006377061680984614
-0.02782991772772612 0.004056398142280297 0.012267596532218856 0.009059806670539808 0.011909031729698736 -5.153873306593524e-05
-0.0134950341340722 -0.0032932769141691474 0.01240722002617245 0.0055286520658392475 0.009304685259341665 -0.00413974962796931
0.05669823353710839 -0.08230804875866904 1.7618285302889447e-18 0.006375401451012912 -1.626842107207982e-13 -7.72019573920188e-14
0.05799533040341015 -0.0010657515502152015 -0.004931612440675707 -0.01890845467895601 -8.27387203888863e-14 3.602166850392996e-15
0.07005607398381059 -0.023184858856709966 -0.009254432700042812 -0.007350228869957995 -3.3539184342117057e-14 -6.804927172969488e-15
0.09566169579176749 -0.029379910097367592 -0.013352869540336123 -0.008740370893130662 2.789435349370706e-15 7.932565194990193e-15
0.1256988390623534 -0.03975678169322631 -0.016257230785137234 -0.009345634459963809 1.1866802842024765e-14 2.114802744816041e-14
0.15598045415181513 -0.05002440997848639 -0.017730205946802535 -0.010046322667879961 -8.703214405126995e-15 -8.33289329465331e-15
0.18659331180155095 -0.061029477415472495 -0.01765538774160548 -0.0109418519748178 -3.226630388656476e-14 2.6432442389381916e-15
0.2195407638064092 -0.07312943502265933 -0.016058549088177797 -0.012399772677945634 -1.788810256603962e-14 4.234115770669622e-14
0.25753119600870245 -0.08749389647228607 -0.01327661247393857 -0.013943212467290607 7.401888889140007e-15 -9.48754150329606e-15
0.29632547705178575 -0.1041273834798415 -0.010281792307631814 -0.011649491215325 3.280294330436362e-14 2.3576111765968855e-15
0.3145145558859124 -0.11479065070366598 -0.008847301666926967 3.074400458549526e-05 5.5076162543393065e-14 1.2827399190583344e-14
0.296177218635305 -0.10407317348737503 -0.01028455272263827 0.011713819253218294 8.520762491848882e-14 -5.876429984980058e-15
0.257213286103794 -0.08737251389159462 -0.013293601437384098 0.014016624293583293 1.7397392662772682e-13 2.293534828202992e-14
0.21900437165456402 -0.07291199769817824 -0.016114689490397408 0.012490542158204162 1.9042080602214503e-13 9.191757598114858e-15
0.18574739871849444 -0.06066570301910728 -0.01779207591378553 0.01106079763818086 1.6193504988950029e-13 -2.7895979796965786e-15
0.15466950679034852 -0.049429545702333585 -0.018006269022467884 0.01021015450158133 4.477353139934956e-14 2.791644411297145e-15
0.12367096386298404 -0.03881307005252933 -0.01674808559307566 0.009565033014318172 -8.925205138756581e-14 2.0359148394932802e-15
0.09253925733218807 -0.027881891622094524 -0.014137677797145434 0.009094284601686745 -1.3399909437258883e-13 1.7939344671216717e-15
0.06501541387322754 -0.0209160056688318 -0.010528795635186435 0.008006340572957986 -1.7852879547960998e-13 1.3795137720953171e-14
0.04656989846215128 0.002929044772950587 -0.0070877817118327364 0.018043333888521286 -1.6501074595262621e-13 -1.445160180760241e-15
0.040147636020721536 -0.07757454623434228 -0.007231740520241141 0.02296840297799638 -1.484981571302918e-13 -7.577830507185523e-14
0.023707102733980114 -0.07159355760220723 -0.00017830796813794215 0.0005005501136481936 -5.007716721221016e-14 -4.560498571663796e-14
0.028015043193999955 0.00016258144298110475 -0.0025308268271441174 -0.02077262882998354 -4.6326718774070824e-14 -1.8987029559280194e-14
0.04395526178700433 -0.017050180438461265 -0.005839574347013719 -0.019235744827372434 -3.5542115718644254e-14 -1.908323217329755e-14
0.06506839742481646 -0.023924822933461272 -0.008823387523122346 -0.021823601263129325 -1.6604408887882678e-14 1.478851763270228e-15
0.08467004229409944 -0.031907944715557426 -0.010974517863855445 -0.023449408414340473 -5.644582667756453e-15 1.5227985430792124e-14
0.10485903045465693 -0.040147693117064974 -0.012069414252590217 -0.024747861433079082 -1.039608513614702e-14 -9.743874001925945e-15
0.1252686828594637 -0.04887487408677939 -0.012091532474802406 -0.026702540346744737 -2.1551049112595796e-14 -1.3573411600416307e-14
0.14692356523901254 -0.05824453044439568 -0.011118218884444553 -0.03018609464204937 -1.6282548226387306e-14 2.855521537541844e-14
0.1710393930142902 -0.06933217470298982 -0.009399210407354513 -0.03468796075128286 -1.2860365712890481e-14 -3.6896578999544294e-14
0.19487705727700055 -0.08420278637907633 -0.007514289297342719 -0.030246767016807764 1.2134405961050816e-14 -3.424017525673756e-14
0.20586980418712741 -0.09745295485411669 -0.006563537650247778 5.950993795003683e-05 3.9228691096297036e-14 -2.4699900870277236e-14
0.19470235495005342 -0.08415633607842485 -0.007459125069849872 0.030373317831974157 3.822712884627745e-14 -5.0603008653997417e-14
0.1706707350944775 -0.06922750379737765 -0.009297118967221735 0.03483896940719409 8.426302732823798e-14 -2.4585653066351576e-14
0.14631885465593106 -0.058055761245376925 -0.010988041314794706 0.03038450275863011 1.1533748809538016e-13 -2.484178227707412e-17
0.12435407906064157 -0.04855664478748642 -0.011966681948440062 0.026982036327628744 8.485146916350854e-14 1.3394152323722985e-14
0.10351198348438807 -0.03962504570138321 -0.012002615504405841 0.025155055261491817 2.969555042131849e-14 7.992799401935341e-14
0.0826979263328896 -0.031063940160141527 -0.011038903177387446 0.024046024967094615 -2.95076429382337e-14 2.4533123471094653e-14
0.062153779243276315 -0.0226064140826229 -0.009129927853500152 0.022741002929363357 -8.183844633869938e-14 3.068231161761775e-14
0.03963997499985202 -0.014951547093521417 -0.006553256095366704 0.021009881345976103 -1.0561643993731683e-13 1.7417856978778345e-14
0.02430260033157497 0.002149895667808763 -0.0044967560063927355 0.02306849710442358 -7.95519562835187e-14 -7.0590506096729344e-15
0.02142643051574946 -0.06735980247843423 -0.005739282832260806 0.01702039503914038 -5.3423699519121806e-14 -1.0879334542621133e-13
0.012002891203311144 -0.050905708178308647 0.001710070548677262 -0.028596164998239353 -1.7506292300669378e-14 -2.8490529163302525e-15
0.012092704143254902 0.0007508124548079367 9.867983804869715e-05 -0.03593458266328684 -2.0336571578756686e-14 -3.1140847821416184e-14
0.01975059914639743 -0.00611546430927136 -0.002163907909403945 -0.034856627584265464 -3.372811885265039e-14 -2.8174511335077312e-14
0.03288505591103786 -0.01248170554117167 -0.004148684592560276 -0.03850506720433699 -2.3371480570252596e-14 -2.3675939681000457e-14
0.04337500356306474 -0.016354940800091398 -0.005486368091160164 -0.04067333385938679 -2.3909973190260926e-14 1.1090032971811103e-14
0.053260813003923387 -0.020399939387826267 -0.006101151405081142 -0.04283364361384526 -3.0459765569187947e-14 6.51850806405313e-15
0.06310939801284747 -0.02463133551287021 -0.006042971089169686 -0.045952682956287745 -1.736076526406751e-14 -3.092904892702114e-14
0.07291482464341312 -0.028524472111081677 -0.005411232863393515 -0.05126361508802394 -3.196644236477548e-14 -2.353206605271163e-14
0.08428194390487342 -0.03307446212500982 -0.00433950130055234 -0.0592440697165168 -3.4904205041671674e-14 -5.919386075053934e-14
0.09938876856069241 -0.04599852455203851 -0.003064231324265183 -0.05461078689980045 5.478304170979803e-15 -4.5539459247838365e-14
0.10799915196591978 -0.0683214643279761 -0.0022987840152949297 9.298638102127534e-05 4.968771501558979e-15 -6.397694060720355e-14
0.09919122514227192 -0.04596799552798372 -0.0029526154863750826 0.054809136617675475 5.505007731674942e-15 -6.63132743161654e-14
0.08387095697088937 -0.03300410069386697 -0.004122047196046308 0.0594827422154494 2.6893407883673073e-14 -4.8343016330505695e-14
0.0722577658654021 -0.028394222211773023 -0.005102486625767263 0.051581089430099106 4.1116439544524805e-14 4.896988847410966e-15
0.06215335407912938 -0.024406540613098077 -0.00567211549381858 0.04640664464567026 4.336303265382391e-14 1.751898593641693e-14
0.05192230857943393 -0.020021102329691693 -0.005719782127956011 0.04350956155585669 2.558524501185673e-14 1.2431823284567503e-13
0.041527344784405715 -0.015725037258229428 -0.005178994877865398 0.041686236062411564 -1.0169858729561394e-15 7.447086567205496e-14
0.030348592128526978 -0.011472662102550326 -0.004044803758194905 0.040095313344758785 -3.021453936656246e-14 5.059426727398175e-14
0.017144062203967504 -0.004769316213488214 -0.0025173636125019696 0.03753228106976629 -5.023192267277236e-14 2.8058325519768335e-14
0.010789701905221069 0.00044509111697747024 -0.001515605224136173 0.039894189280929165 -2.7616471629866076e-14 -2.4818227984876873e-14
0.011676999300054449 -0.047473191243592436 -0.0024684299099451447 0.03242339499885151 -1.5847788237418302e-14 -1.613666882407938e-13
0.0035713526702379965 -0.03218016857574264 0.004698800967473616 -0.03199350483119133 -4.6126280285564356e-15 4.3692805450079586e-15
0.0002621224263408511 0.00014579446204581814 0.002986897961414508 -0.04296625392069993 -1.0796392059986455e-14 -2.5845895790330836e-14
-0.001505290131548827 0.0021644450462701085 0.0015829865183424536 -0.043483564526749646 -3.272093357441046e-14 -3.4292826824738887e-14
0.0009242215525256504 -0.0005860300325977812 0.0005634800682275697 -0.04430312793540582 -3.472814754951897e-14 -2.4167760891494194e-14
0.00171919632194988 -0.000869487906895081 3.793560384707047e-05 -0.04640200807514519 -3.721133136054631e-14 4.987289335851852e-15
0.0014068864191626007 -0.0006161107629978941 -5.4289668897450756e-05 -0.04885914929970814 -4.509479405558417e-14 1.979116198182196e-14
0.0006935082619412981 -0.0004529818605823224 0.00016013988885724823 -0.05240221663914191 -3.422400709184037e-14 -2.7931731363603496e-14
-0.0012335132213472048 0.0007853634509013174 0.0005734686029195735 -0.057191040653543405 -4.376620974880512e-14 -4.7357219057700406e-14
-0.0023210199751653704 0.003098983508668395 0.0011655600316722245 -0.06575785431597471 -4.573125884731579e-14 -9.354821604856678e-14
0.006366803294487524 -0.008356131624406998 0.002011757020862562 -0.0679022092676222 -2.1548245433540385e-14 -7.108918488596405e-14
0.014654891086357029 -0.04878348504156782 0.0026994446277083593 0.00010430829416128007 -2.433675370535032e-14 -5.245134296512355e-14
0.00614762354771709 -0.008342067082704949 0.002179653488805564 0.06812484230844812 -2.465746621368569e-14 -8.987670091671618e-14
-0.002771460010144767 0.003133922508723596 0.0014977412383294403 0.06602614885045872 -1.6883785923694242e-14 -8.004949242530757e-14
-0.0019373860957541552 0.0008554722516843615 0.0010589090997790561 0.05754835381549661 -2.5274951326409944e-14 1.991767482282386e-14
-0.00029377243210247406 -0.00032366345684521527 0.0007725813086617 0.052914666721181364 -4.618227763370734e-15 2.354792250948423e-14
9.84886819613734e-05 -0.00038484605637604396 0.000631443096857668 0.049628502776539435 1.353569407030802e-14 1.3734180486684247e-13
3.383106676948779e-05 -0.0004619240774421392 0.0006994654456476013 0.04758362402323452 2.3125774841099844e-14 8.547146551716317e-14
-0.001041883228775527 8.49120182292697e-05 0.0010361895926292043 0.04612784457742224 8.600877578505625e-15 8.029822873246648e-14
-0.003027529064617706 0.002623325650744277 0.0015491942460430393 0.04619344193371481 2.4917100446743973e-15 2.6758123169469406e-14
-0.00016160882877317036 -0.00037572063698751163 0.001786307431582926 0.04500881252520113 1.1824391902355742e-14 -3.538071528461084e-14
0.003727446177974946 -0.029492057124061388 0.0015477421523618208 0.032770704138775114 1.514205563235907e-14 -1.713945825543295e-13
-0.003788343822468149 -0.016857077025650976 0.007998252670351268 -0.025927820744936964 2.1027847025472182e-15 -1.1385478063813403e-16
-0.010140386726045645 0.0010480368483768616 0.005949752792314012 -0.037914596706454494 -9.425060964974794e-15 -1.9321939610360966e-14
-0.021120230454190817 0.00857641265018741 0.0053228380777608835 -0.040472937747507716 -3.2958912563139237e-14 -2.981583757015807e-14
-0.030274527729544354 0.010967306971140938 0.005261786492668236 -0.03929416323886753 -4.1631516891618356e-14 -6.7524043539761436e-15
-0.03996954524255788 0.014744543737835035 0.005545629340704358 -0.040553251626567866 -4.497003626684898e-14 -4.028597117358701e-15
-0.05056762762994472 0.019178119572900016 0.00598020420749979 -0.042844254036810726 -6.555591844110281e-14 2.2813565273005487e-14
-0.061551260159245245 0.02387569703218097 0.0063561729207555874 -0.04586937154288367 -5.79793278419213e-14 -1.4301128098588578e-14
-0.07432552454316062 0.029101747059582687 0.00655017648535664 -0.04964150685009701 -5.377067978970095e-14 -3.781649743784393e-14
-0.08875156434193111 0.03842047412890035 0.006635060144780513 -0.05387413357864337 -5.305765423096586e-14 -1.1668040123501144e-13
-0.0876224748010333 0.034880561292027254 0.006977089772756224 -0.07008260594753293 -4.686859751416492e-14 -5.0429820909470013e-14
-0.0793474404421947 -0.03691593003452382 0.007518215126367241 9.368285824578628e-05 -4.8414119240713536e-14 -6.131817872467166e-14
-0.08786447836520986 0.03487817939172564 0.007202376504377196 0.07028243128443776 -5.020451692176395e-14 -6.012277806687061e-14
-0.08924404796995192 0.03842007695840948 0.0070843260057832265 0.05411443292940027 -6.620350054026714e-14 -7.98876752510641e-14
-0.07508089969549255 0.029112078257982357 0.007216236179890067 0.049960406748110246 -6.3309111879501e-14 1.626036273943282e-14
-0.06257626552108021 0.023910472140424494 0.007216141486730292 0.04632490775628549 -5.232752284186097e-14 3.541498962578854e-14
-0.05185325691530834 0.019259996418489522 0.00697918082537726 0.04353149827709452 -2.7978819619207257e-15 1.26888991393119e-13
-0.04146385619879874 0.014920710084741795 0.006572896238231014 0.04162139651979523 4.25871564033696e-14 8.548788440381275e-14
-0.031741205942591263 0.011229140322374794 0.0061153312006209225 0.040931003629312464 4.708803537519478e-14 7.365276737027887e-14
-0.02201410663033251 0.008572818912503031 0.00564418200191856 0.042382003696322855 5.4772758729818363e-14 2.7863094589821585e-14
-0.010213669240386088 0.0006894575348319867 0.005183844664176611 0.038697524914812285 4.734777125220673e-14 -2.7314982957785117e-14
-0.00350312543439908 -0.015060387958615943 0.0056561151424874305 0.02566466800279023 3.881397698905775e-14 -1.5193293671778019e-13
-0.009914656927519305 -0.006843028862609011 0.010911868143550602 -0.014189144968237973 2.450127503227789e-15 -3.3970357993587386e-15
-0.01959139209643766 0.0032349976453092096 0.008695749128104046 -0.021671113528836338 -8.132478523069364e-15 -1.1865495023154204e-14
-0.03998029521053447 0.014372409793093276 0.008972684038776763 -0.02378460705003979 -3.181704438760466e-14 -1.8212665262636735e-14
-0.060951621336031735 0.02228619897526757 0.0098941190531767 -0.0227718411671694 -5.231837912119536e-14 -1.5137129288737838e-14
-0.08150631519390145 0.030434451986072728 0.010983801349366874 -0.023328921854894918 -6.500681408645216e-14 1.1932613913894635e-14
-0.10230911263558426 0.039052264422180356 0.01191231742547106 -0.02475013525335638 -6.473251347791217e-14 -9.932721691582186e-15
-0.12374571747044201 0.048140523602979234 0.012382260050479805 -0.02663762602581928 -5.407207952332245e-14 4.4503991963006084e-15
-0.14535745476713535 0.05813257751916205 0.012239196362010051 -0.028350431170841957 -6.679265091859808e-14 4.208838952270838e-15
-0.17317986900040172 0.06818784710519663 0.011614863823632379 -0.03151467392644647 -6.038151952720248e-14 -5.0759187976943954e-14
-0.18597014075791526 0.09055270421084317 0.011160185506330248 -0.04194402717218559 -6.108156345898796e-14 -8.894828504388969e-15
-0.18168703645638118 -0.02839685000146907 0.011252595502277012 6.0726323828782705e-05 -6.453734099323878e-14 -3.3570389035893905e-14
-0.18623854685193592 0.09053443324377095 0.011445261270347971 0.04207315541660475 -8.44687275854128e-14 -1.4212304835607703e-14
-0.17372243152468805 0.06815331190662989 0.012186591464376883 0.031668599978511146 -1.2083006985371889e-13 -2.586218592797243e-14
-0.14617876028590399 0.058085297288859083 0.013095546208807558 0.028551969481567872 -1.1480926140881344e-13 2.3907308424608864e-14
-0.12483347093478181 0.048084078065705964 0.01350617305995602 0.026921244969578564 -9.717141557407305e-14 2.1551784337194013e-14
-0.10360485382019126 0.03898993721218259 0.01325184730760787 0.025171625382036534 -3.192360113236925e-14 7.344034505963465e-14
-0.08285083742796619 0.030363550694534527 0.012420441770212422 0.023981373692295242 5.1611215030455265e-14 5.0814692351911633e-14
-0.062028285295300814 0.022150958947809406 0.011195772782742527 0.023725908437065225 9.276488675520958e-14 3.389481620721946e-14
-0.04043062664620823 0.014036746168444938 0.009740557093538244 0.024727309526243777 1.19377950450264e-13 1.52534438530548e-14
-0.019432803887619192 0.0029499874784542743 0.008396954214451895 0.02186196322838083 9.528493852229911e-14 -1.1560258230281645e-14
-0.009538086809981685 -0.00586462379327256 0.009230987577211077 0.013815768055247783 6.742956887295648e-14 -9.64785976803606e-14
-0.013067561021301763 -0.003399890914529598 0.012544599737469487 -0.005630455218437921 2.5914600326748527e-15 -5.482810386259196e-15
-0.02708910400188983 0.004554800044517854 0.010950774660720796 -0.00855957880444812 -8.859666472682548e-15 -4.1880561518770065e-15
-0.058547985420840123 0.01723631097668211 0.012383821993844257 -0.008976509381626942 -2.6520723551276548e-14 -1.543264214337592e-14
-0.09173161718514368 0.027959399255846114 0.01432990945448711 -0.008871294682896234 -6.742295523970432e-14 -2.0739703357475214e-15
-0.1227544545931846 0.038291614544979535 0.016191448101060997 -0.009250920355156397 -9.794883003635957e-14 4.1874598406821395e-15
-0.1535719717953318 0.049044970692573964 0.017513395609051484 -0.00998621469938721 -6.200030452149091e-14 -2.6513079925960525e-14
-0.18518028547632706 0.060166089688086156 0.017906076510949352 -0.010746096652672541 -3.5543562450918165e-14 3.691269295433286e-14
-0.2173135423552329 0.07332170617699281 0.017156828945568678 -0.012039730564320821 -5.434143261241753e-14 7.041188378881236e-15
-0.24738171225354286 0.08071118428625544 0.015444696676526221 -0.012684363736948827 -6.110059290118097e-14 3.3271942059126536e-14
-0.28791618926187695 0.12235088241458375 0.013662422277142804 -0.027185114869971796 -9.387554346070373e-14 -1.233605231854007e-15
-0.31452321630965574 -0.02400114036564127 0.012828547523781764 3.5086582209439224e-05 -8.826847672921412e-14 -2.294659687956946e-14
-0.2882170223814475 0.12232486592517357 0.01401104895020112 0.02725974309167543 -1.048421874490224e-13 3.9457911764351206e-15
-0.24798781368337636 0.08066002259846143 0.016147426861539294 0.012773102659275106 -1.8163530575432407e-13 2.114644180248315e-14
-0.2182251406392738 0.07324630219609267 0.01821913391002719 0.012154800933119358 -2.0752227247820138e-13 1.7836480990102155e-14
-0.18637272993165188 0.06006537960720316 0.019321102690655356 0.010904323128945615 -1.7329960031028588e-13 3.90074799717921e-14
-0.15494868600966677 0.04891184843358466 0.019239806133932877 0.010211353379287316 -7.855443183955868e-14 5.392008454313535e-15
-0.12405748979892939 0.038097097313406346 0.01811578270792608 0.009578598476598966 6.907045465090467e-14 1.6612633577800517e-14
-0.09250539468944627 0.02762784894927717 0.01620505783167502 0.00932284959036623 1.582326934410072e-13 5.102309633825408e-15
-0.058481733082103055 0.016726049722137766 0.0137590312425065 0.009432281685478735 2.0464104586240262e-13 7.21495888207635e-15
-0.026531818271962705 0.004250182941981549 0.011200017802890731 0.008722091914543963 1.6365039748680865e-13 3.5839387013680835e-15
-0.012458571062019887 -0.0027912621527772315 0.011356862216482749 0.005545440474122169 1.1718382340875078e-13 -5.922562787419317e-14
0.05344879030639903 -0.08512177944580457 1.395910297075087e-18 -0.0028008529970059773 -0.01027419258490456 -0.0008915398407741184
0.05620784381341841 0.000519496988830359 -0.00570691200642659 -0.019271696868248648 -0.014007528346934656 0.0010689308321009702
0.07034857792955843 -0.022742109043810257 -0.010899918951970912 -0.007625367800937082 -0.013183111262315837 -0.001032539210986364
0.09695031003353108 -0.028873123632754315 -0.01572630195874245 -0.008713450201341465 -0.011020081028285039 -0.0011914428949792828
0.12762395976086235 -0.03924824957317045 -0.019450973868310552 -0.009130646584056162 -0.0070862810901497104 -0.0016441622280347315
0.15832338813852337 -0.04930252561337735 -0.022065494030561905 -0.009587125275477528 -0.002159706880949061 -0.0021123977140007195
0.1889449741039095 -0.05987546308793225 -0.02339050879431104 -0.010202873003868325 0.0034085368446763096 -0.002551004442500238
0.22101052039105154 -0.07122288302113136 -0.023303473409783306 -0.011374756493187104 0.008727956339840663 -0.002748312795735202
0.2569214782015225 -0.08451224915475615 -0.021861823547303014 -0.012770280965444152 0.011701330966460033 -0.0023152615493928683
0.29303462177723993 -0.10003559906067164 -0.019680386765842738 -0.010727593449479328 0.009082279715795267 -0.0010027150851907307
0.3099066158254287 -0.11012220889472604 -0.01841854862253878 2.482011328106069e-05 -1.1730839223775337e-05 0.00011010709275099262
0.2929516517659554 -0.100002821320929 -0.019693354332555573 0.010778749036373285 -0.009092249215807962 -0.000988479050172162
0.25674286007708086 -0.08443815390567502 -0.021897117485788802 0.012826126147565557 -0.011669336298972011 -0.0022869595427815843
0.2207086589857782 -0.07108875967143206 -0.023381753714235416 0.011439220581713263 -0.008618986080515307 -0.0027073810030784004
0.18847142517101495 -0.05964911377791939 -0.02354758740629601 0.010280265832085836 -0.003168004948936735 -0.0025016791383824797
0.15760133997947723 -0.04893172372232804 -0.02235558717036882 0.009686200239776841 0.0026302977468115017 -0.0020698050053914625
0.12652527288629203 -0.038654706871262975 -0.01995623829561205 0.009246106911305462 0.007974633881496255 -0.001619289475410725
0.09529713625709217 -0.02794487307139147 -0.016533652645397762 0.008925023535531875 0.012539719982111328 -0.001294011680499095
0.06734963844255519 -0.021210494565061938 -0.01224603733543366 0.007927381298049284 0.015528089377781863 -0.0009485737537760081
0.048425839919067626 0.0030596522289804465 -0.007259757831288963 0.01883310325503308 0.014134882861417675 -0.0007634918340561247
0.04190422701942113 -0.0809170663446538 -0.006372373701448582 0.024189075813182956 0.01249464027725508 0.007462288439813661
0.023598782675095017 -0.07336873460064167 -0.0008411575308342614 -0.0047776026330775155 -0.0054395661006671715 0.002662683442621561
0.027393527262846364 0.0009595123316991837 -0.002616536836334085 -0.021871349153516222 -0.006594090978602998 0.0022399887500923867
0.04354169122883075 -0.016577967204172796 -0.0068049772680840006 -0.019722150591876944 -0.008254455132417068 -0.0002478088043969075
0.0656438970190431 -0.023586276416363704 -0.010239627699743108 -0.021736725677575668 -0.006901247694292331 -0.0006261789363187652
0.08569563324346023 -0.0315835133435429 -0.012902523307896862 -0.022977082621878676 -0.004371646348819931 -0.00091479410005107
0.10615619828520843 -0.03970281571785373 -0.014682893222611402 -0.023794603387739297 -0.0011687673476935534 -0.0010572909650539
0.12654630233345351 -0.0481298625756506 -0.015554427702734543 -0.025129860105635445 0.002327666341005494 -0.0009216783278322553
0.14764541948556606 -0.05696831069815035 -0.015482011874398866 -0.027893650276130985 0.005555862826350163 -0.00016586122045279467
0.17054259778588315 -0.06729401983090608 -0.014547118150645867 -0.031923875589779604 0.007312656176841568 0.0017573127352898934
0.19286203937524904 -0.08138053830354283 -0.0131013776187895 -0.027976912492976257 0.005703143130997748 0.0049747011774858825
0.20312618485358136 -0.09407427720204213 -0.012177179909797182 4.813883863110676e-05 0.00010532460556820863 0.007271159385936927
0.19276026211425357 -0.08135426573919578 -0.013067939581826865 0.0280775974950404 -0.005472556556436903 0.004978081396538471
0.17032768950942945 -0.06723361210648782 -0.014487535268953392 0.032038533608446204 -0.007021454552776059 0.0017605602479380646
0.14729365256196353 -0.05685663782514903 -0.01541322993850203 0.028034391668377838 -0.005159482447443867 -0.00017183755835558148
0.1260191984886209 -0.04793751192278958 -0.015507347662985801 0.025313362462300825 -0.0017703888139364908 -0.0009561750065701844
0.10539343253373665 -0.03938170881598673 -0.014709526409313943 0.024044553042085096 0.0019718315062728074 -0.0011577661449652765
0.08461127080137552 -0.031059866902731385 -0.013079620223406838 0.023320339709397755 0.0055473674875934145 -0.0011409830655068427
0.06404142835313159 -0.022761244475308837 -0.010694127485809593 0.02226967949581703 0.008637959012506365 -0.0010800427368754778
0.04095470673427609 -0.01516867388693323 -0.007651745266722792 0.020751043822874623 0.010266626796602098 -0.0009546065798463407
0.025104337717605608 0.0022318918496042127 -0.004307524880582693 0.02377585071216016 0.007381037680990298 0.0002767844693910578
0.022259056784291215 -0.07021573641537636 -0.004822713696893588 0.017966659849128177 0.004826682614645622 0.009652729502191542
0.012136439931140885 -0.05148129917770574 0.0015144049725345076 -0.030964299403227973 -0.0019084029811716 0.009179961927071184
0.011782250152160488 0.0006781039464082699 0.00011814112771785275 -0.03806870469366245 -0.0024008709376080735 0.0033856881777989426
0.01923935484188064 -0.005714432650207643 -0.002633274630693811 -0.035486528751378595 -0.00335900686297306 0.0008628243767570476
0.03283040464465946 -0.01226665752077073 -0.004871455604975881 -0.03834472429908836 -0.0027729754979423796 1.2353747596538557e-05
0.04363162099102903 -0.01620643657287642 -0.006426131735932771 -0.039831303990604666 -0.0013490367050223535 -0.00010522390873138205
0.053668202036077424 -0.020245258484751283 -0.007364596689193758 -0.04124392277173717 0.0003388616367326179 0.00015399137618620488
0.06353259387313506 -0.024382595342507373 -0.0077258658858901435 -0.04336529486315443 0.0020890105705278885 0.0010037280484871652
0.07311752713246301 -0.02810204315359179 -0.0075430989706365675 -0.047494081278248376 0.0037187961605297 0.002897308964556949
0.0839438503930293 -0.03238978358201733 -0.006858680656593547 -0.05466670295279063 0.004834911130220547 0.006513396759156013
0.09817588842284254 -0.045018672139282276 -0.005703479905448058 -0.050724847852963446 0.00415192847855165 0.01194176212084916
0.10628821822907518 -0.06672145206294045 -0.0046835680518557 7.767464449908498e-05 0.00022024703723951385 0.015865481338742504
0.098057270207412 -0.04500579603079552 -0.005624262561598117 0.0508875386172175 -0.003686344598456727 0.011934612066930344
0.08369701229904139 -0.032357575790559284 -0.006705730868335348 0.05485273796908761 -0.004294453137729399 0.006491775963489694
0.07272381399519735 -0.028036603532926634 -0.007330160764858243 0.04772386990353117 -0.0030545051092705643 0.0028432506106209603
0.06296435943263193 -0.024260267659599207 -0.0074807068246046686 0.043667899123285024 -0.0012510870818814974 0.0008808975232703225
0.05288757707618806 -0.020025901390397404 -0.007137417866124085 0.04166120092577707 0.0007284499414463711 -0.00010299819434989443
0.042583071646905675 -0.015829462506783833 -0.006301805152379539 0.040423689038165955 0.002720117409665954 -0.0006077701995533799
0.03139505968865795 -0.011628967447027488 -0.0049799218158695525 0.0392498175143182 0.004497165393086351 -0.0008586633823160697
0.017756096490461847 -0.004812066771361471 -0.003166334278388065 0.03712012009760219 0.005082307286662646 -0.0006988584420533838
0.011117625941578458 0.0004824825061015462 -0.0012872779395712575 0.04091569152859453 0.0028911457366169145 0.002047934289659033
0.012102442268952596 -0.049505302679762234 -0.0014928743633059686 0.03387908826344834 0.0013026383448666078 0.014199153914617868
0.0036019545868456234 -0.03252372577003608 0.004688825183390545 -0.03336090901850174 0.0002272267641258612 0.011770716684980902
-3.9312833676767816e-05 -1.5438056218958495e-06 0.0031244594732718033 -0.044625554446436 0.0007303756615656539 0.003976681612966069
-0.0021217220194586573 0.0024260865570027886 0.001527150678439404 -0.04427271198977201 0.0010455859817635397 0.0011905862317102601
0.00038453610443692573 -0.00030225449797941173 0.0005109451973327296 -0.04410900183890865 0.001341904286194825 0.0002308109709654038
0.0012625126628763618 -0.0006710667644498684 7.01921423192203e-05 -0.045416779625195976 0.0017598311194413473 7.130214200683318e-05
0.0009955548619530986 -0.00045967788239287125 1.3351084708550261e-05 -0.04702225516924164 0.0020688795914539145 0.00045338312413267876
0.0003440529817809395 -0.0003347896686533924 0.0002116039996557309 -0.04946316212810632 0.0022347606297091626 0.001520353723965145
-0.0014831968535740617 0.0008322797139964384 0.0005881387156349927 -0.05298552623809288 0.0024508207183604803 0.0037063085462980504
-0.002508727449620595 0.0030700177990546904 0.001125666290144891 -0.06073839003999556 0.003071212584980037 0.007691441898549389
0.005752944618979335 -0.008385222480769559 0.0020995320793523284 -0.0634363688504835 0.003261454850810356 0.013878076036030295
0.013633653308446209 -0.047967151005913686 0.00348423396075626 8.80249455107614e-05 0.00033483955605686296 0.01893453789254783
0.005618049155819131 -0.0083862656977277 0.0022246157559004396 0.06362075890958489 -0.002562023751963055 0.013867724550937793
-0.002786223103271921 0.0030729167890212196 0.0013721193143407674 0.06094927355164381 -0.002284430023567091 0.007662195683032668
-0.0019167161134241461 0.0008496860986719041 0.0009451966294273808 0.05324596525409542 -0.0015252499981882092 0.0036373222322951607
-0.00026107111962621224 -0.00028494990354517336 0.0006544194359617828 0.04980624151768415 -0.0011305430506793374 0.0013702988115474838
0.00020510755094674398 -0.0003473050500351841 0.0004915959459131792 0.04749866900992198 -0.000762752259646964 0.00014546221052701982
0.00026693953205334946 -0.00044424664523456025 0.0004923928998543447 0.04610765024422546 -0.0002498653429868568 -0.0005186207715321422
-0.0007505943939850241 0.00011269546734614353 0.0007271828317549416 0.04516072625125362 0.000301504768348894 -0.0008317074802490696
-0.0029537396941390764 0.002739841870611286 0.0012997054260576288 0.0459340689627869 0.0003146519741848317 -0.0004710809797426589
-0.0001702900157732744 -0.0003398682675367984 0.0020601590760219736 0.04601170973706793 -0.00044364513962244067 0.0030025677468617723
0.0038388593784775167 -0.03089383984595303 0.002359510416102774 0.03394621850090914 -0.0007046856953723174 0.015034712795541296
-0.003987791575109364 -0.017062768188652006 0.007964887276722692 -0.026617245846073345 0.002025144919185563 0.011061129347653293
-0.01060477481370215 0.0009094844151239938 0.006252519923050089 -0.03909338014648696 0.003615485920513217 0.0033958723001322132
-0.02194356609892757 0.008782828116507423 0.005667252355712395 -0.04123910436048438 0.005297812461323744 0.0010148948090360594
-0.03127215455605414 0.01127742051292148 0.005869979295918389 -0.039235756319015845 0.005423536827025245 0.00011563598105283291
-0.0411191807373872 0.015001752184162954 0.006546220051722201 -0.03973457402992623 0.0048877577708858755 -0.00011005569919190765
-0.051797134820033716 0.01933826616175563 0.007379235056151512 -0.041244302036284715 0.0038210129739977114 0.00015621705472708563
-0.06268588159430996 0.02386202607550143 0.008144983158306578 -0.043291811240056835 0.0024100240952476806 0.0010157786684113971
-0.07506974833267649 0.028812881273083533 0.00871583109027893 -0.04596370756857325 0.0011226260376734345 0.0027792013717469724
-0.08878338031614055 0.037712038608438476 0.00906391721877408 -0.04966140521267903 0.0009810323583356517 0.005979482834758401
-0.08759932822272636 0.03385480704749704 0.009600574906656806 -0.06589003678181064 0.002055258187803305 0.011653064046806369
-0.07967206514859533 -0.036643395141372014 0.011487137085462269 7.793858300975287e-05 0.000451684754974393 0.017491398502570216
-0.08775139384804564 0.033839830593371624 0.0097723850886955 0.06605326863418778 -0.0011171752521821467 0.01164683531697207
-0.08909349566090148 0.03768557471775809 0.009405730323991543 0.04984796050786661 5.7827118988601694e-05 0.005959752341469974
-0.0755465129008366 0.02878225728278718 0.009220163333615307 0.046193736162074575 7.162472204063189e-05 0.002728247125721788
-0.06333287910171649 0.0238392475222515 0.00879027049723833 0.043594244187759 -0.0010292484680358399 0.0008980375609161977
-0.052603893509423696 0.01934264527968679 0.008115699398546191 0.041666447604676304 -0.002263709532069593 -9.476235897177521e-05
-0.042042802629351374 0.015071818888002452 0.007275292011940149 0.04035674897390937 -0.003228037101483814 -0.0006125407473889105
-0.03215368371268461 0.011422187332908595 0.006419427547878909 0.04018577690841632 -0.003856528782987328 -0.00081508322008479
-0.02243845568896617 0.008789664161137495 0.005768374245450655 0.04239150982723293 -0.004238236970974709 -0.000334740014628435
-0.01056581359956646 0.0006987434919675722 0.0055519686338875475 0.03960414294906916 -0.0034707222960422704 0.002675662155700627
-0.0037176711037982145 -0.015914897720416106 0.006205517493731183 0.026446202255489323 -0.0024132670761661903 0.013170598858240425
-0.010421817259097771 -0.007071131316020325 0.010970878162277346 -0.014381955966303624 0.004294463313634911 0.006689701199239535
-0.020335700738852373 0.0029919841381929537 0.009305314947040226 -0.022368615700212834 0.006917723139670868 0.001477295593580477
-0.0411240745234003 0.01445512021391772 0.009754320944599326 -0.024321865923561708 0.009748385361265838 0.00019871362231343927
-0.062462490424832526 0.022464755467225744 0.011170794806519554 -0.022810925154606008 0.009529300449598717 -0.0005253715076141176
-0.08339558427262724 0.030528862479780636 0.012958809143707856 -0.022871356373219805 0.007952545245165157 -0.0009031070082259221
-0.10442640317779545 0.03893139632199068 0.014660162349010698 -0.02378929666754687 0.005396101416788119 -0.0010519320573644836
-0.1257531135979769 0.04763713223447491 0.01596351566623396 -0.025068694321330503 0.002239743294879963 -0.0009139009383950687
-0.14673233165243826 0.057023802657149895 0.01664573422115578 -0.026164922148002544 -0.0007650522251704775 -0.0002888416292107771
-0.17306480512605843 0.06630930167481348 0.016685283558467802 -0.029089161249963087 -0.002354518935709647 0.0010464844938994926
-0.18504166057160462 0.08755116692403739 0.01616545584843902 -0.03951693688595544 -0.0006459737471679951 0.004637303904101751
-0.18094273780786005 -0.028573297624568606 0.018167984435109235 4.8697525504884126e-05 0.0005733416921506322 0.011247167102184314
-0.18521324268676664 0.0875227800396088 0.016385590640477146 0.03961879100503909 0.001833423018833037 0.0046426469431569
-0.1734126597667937 0.0662545359096453 0.01712598908541392 0.029205092865619422 0.00365972949956839 0.00105367281262491
-0.1472611755862466 0.05694682366205726 0.01730354019765245 0.026306856476597026 0.0022493300164311853 -0.0002886608735360753
-0.12645690616919464 0.0475441899318808 0.0168214535268791 0.025253663822457747 -0.0005486168840358422 -0.000939156262526012
-0.1052680917330651 0.038831918711139175 0.015671068672527932 0.024044863208343707 -0.0035336561020502854 -0.0011393188560370412
-0.0842700436020357 0.03043381238660226 0.014019409977705809 0.023249431293031253 -0.006065298598961009 -0.0011251693421550533
-0.06315988176651956 0.02235568090371261 0.01208918139574271 0.023363697047177768 -0.007936855049116604 -0.0009924652202462512
-0.041406673779549104 0.014256413466980753 0.010231030098276216 0.024885362881044704 -0.00890988759403665 -0.0004907008061388292
-0.020207918156836695 0.0028472276016505973 0.008988847073150001 0.02249264238530283 -0.006966940943405638 0.0011124352696909585
-0.0101427784398257 -0.006415795768261362 0.009705845702926234 0.014127318000450062 -0.004757938543301072 0.007868881399960857
-0.013873802745230914 -0.003717269194876235 0.013278462998535589 -0.005606200905786233 0.008274501892974632 0.0034335681788681916
-0.028146467775505453 0.00420523161664559 0.012162213437685757 -0.008955232232156277 0.01140211016796342 0.00015654898500442195
-0.06011860452430239 0.017211797244706156 0.013810425974844696 -0.009280685048457193 0.014571940338224898 -0.000416751735340152
-0.09389310339308739 0.028004046754218095 0.016492413599870023 -0.008937585259587601 0.013610612857389555 -0.0010224762739117325
-0.12552234938627996 0.03820618309417312 0.01941565193799556 -0.00906278765955389 0.010753982626525042 -0.0015397926696172175
-0.1567374825322168 0.04865431570285688 0.021978140345429623 -0.009544117756833462 0.006471335656172589 -0.002048452011208861
-0.18827577880297888 0.05926156160228613 0.023766919665620334 -0.010023104192011268 0.0012626887013851807 -0.0025037118582495505
-0.21946464260046716 0.07157675012814003 0.024497905801706233 -0.011087491612694827 -0.0038811569541743027 -0.0028406638537728617
-0.24740598720909526 0.07803833838783814 0.023982202916827726 -0.011728634726347565 -0.007217077239124817 -0.002685465203321268
-0.2857001755411341 0.11793414152369207 0.02209960087840757 -0.025831395375939897 -0.0068925282880433186 -0.001661547920913781
-0.3114128629871549 -0.024377548361697844 0.02125360434883876 2.5326693289685204e-05 0.0007015671543029639 0.007879760107471837
-0.2858949625878754 0.11789924940114754 0.02237026566775221 0.02588466153924478 0.008344302492435864 -0.0016499571240788347
-0.2477996010237008 0.07796983723563483 0.02452674043320902 0.01179003955956281 0.008809648822122295 -0.0026631884904236946
-0.2200595679443661 0.07147719604287124 0.025318053857920648 0.011163684229772347 0.005688608195371171 -0.0028103241675626073
-0.18905966128520546 0.05913461026370694 0.02485248259265805 0.010122847416352183 0.0007940331843342093 -0.002471526590982474
-0.1576531233086892 0.04850404563398389 0.023288333564183607 0.00967982874802398 -0.0042098463526951055 -0.0020288397647157033
-0.1264098244877918 0.03802939178609838 0.02084877064309797 0.009255656897593422 -0.00848537230618185 -0.0015654275073608095
-0.09446183392290809 0.02777269709112911 0.017843735527321648 0.009205710415972417 -0.011787583370066313 -0.0011494941329195493
-0.060152189187797654 0.01691046268682752 0.014743375039018724 0.00955991397157009 -0.01385737545500899 -0.0006377061680894745
-0.0278299177277067 0.004056398142317326 0.012267596532200067 0.009059806670507257 -0.01190903172939394 5.1538733049373976e-05
-0.013495034134067673 -0.0032932769141708865 0.012407220026160744 0.005528652065801784 -0.009304685259093162 0.004139749627852279
0.03850034068609863 -0.0984329780489047 -3.842141448745506e-18 -0.044571938473515094 -0.023778800026940147 -0.00841157530841981
0.0488058127991714 0.004926801338273178 -0.006108079257621367 -0.019925461374965026 -0.02565769452857132 0.0026364516705966535
0.07139356272284934 -0.02185775690537699 -0.013834155105474043 -0.007120621245646984 -0.024066167771068018 -0.0006587064016604167
0.09958755575726047 -0.027357793344461638 -0.01968060129986766 -0.007739889010551001 -0.021384993426586865 0.0004505367490522933
0.1319951021978113 -0.03759902169875337 -0.025383021541199074 -0.007686894523687421 -0.01632180812035184 4.62361028921533e-05
0.16471750265944687 -0.047160121321416115 -0.030561924627942626 -0.007883314146975956 -0.009762536121007677 -3.1452677828480095e-05
0.1967391982334646 -0.05685386923955871 -0.03502945498432387 -0.008065765712992425 -0.0015179075831656705 -0.000147596345216446
0.2279087812436114 -0.06647131470281181 -0.038458010265045035 -0.008495135113921682 0.007588584282081776 -1.1695918275667137e-05
0.2581597005695124 -0.07632582963112262 -0.040458839224281666 -0.008926065269968857 0.014674187077555141 0.0009578212893479476
0.2844656199816367 -0.08641709492253166 -0.04090622661242639 -0.007187213019298386 0.013408213605200264 0.003679273572767327
0.29591226162178585 -0.09270486822856716 -0.04067315565481394 2.4193473633641466e-05 -0.00012693858394148989 0.006529460877740873
0.28453675663741135 -0.08643461728737593 -0.040942710790601196 0.007235222575649627 -0.013647812850884601 0.003696022144511483
0.2583124773273741 -0.07636204850967915 -0.04053935657123434 0.00897230179555299 -0.014868821215785094 0.0009907262628759052
0.22816826241057958 -0.06652922608660825 -0.03859947897091776 0.008535923182283469 -0.007700218879904329 3.417408898114904e-05
0.1971554882956864 -0.05693997393293759 -0.035261755158770954 0.008094297682474121 0.0015479445481151831 -9.30257405969409e-05
0.16538296711995068 -0.04728865355785353 -0.030936806879813997 0.007884877845402784 0.010023349789740966 2.8825912610469355e-06
0.13308447451571473 -0.03779815304951299 -0.025977813898792636 0.007656596302325592 0.017012713958109306 9.448630473638222e-05
0.10137174955550032 -0.027676555977344433 -0.02065406428947981 0.007591559239251291 0.02257535930999513 0.0001747388675196508
0.07468032534687719 -0.022485157505798218 -0.015212435372616904 0.006845386069882881 0.027175205182218783 0.00013007103660444896
0.056174287710295825 0.0035786808871016698 -0.008629737658056186 0.019758383566841172 0.022960955259960208 -0.0031101000445465194
0.04887306940147894 -0.1001300164684632 0.00368537568694181 0.026336578219960584 0.019397725859958383 0.015496600045474122
0.023046880416522125 -0.08665760966199902 0.00459086690184913 -0.028603015796467703 -0.004004680836111814 0.000788212303165941
0.025595836396064962 0.0027944486528949713 -0.003226098954203244 -0.024849265652008592 -0.008627962892889125 0.0023960643031129677
0.04217315825167931 -0.014983914491005465 -0.008775215401940198 -0.019564454146555294 -0.014678334345934534 -0.0001573149015895994
0.06654618055362392 -0.022004634182142057 -0.013388446634100104 -0.02031447947035828 -0.012308896731161784 0.00021188009178652343
0.08789324591138803 -0.02980109843332068 -0.017422606592797322 -0.020920394818752037 -0.009172320861930365 -3.330596043936489e-05
0.10970737699244784 -0.037485012606913545 -0.02107953075674404 -0.021035548052979674 -0.004998542157626401 -4.082937640181774e-05
0.13101153938876048 -0.045150734507535165 -0.024184094434538138 -0.021216585614328806 -9.836734600218897e-06 0.00020075723944412352
0.15155215903997601 -0.05265426014183787 -0.026554008268861156 -0.021782898750018258 0.00534899595984958 0.0011527050526689952
0.17103513607597998 -0.06031346198365946 -0.02796562867209718 -0.02258393783876528 0.009498245645651725 0.003913192329662669
0.1875630968846126 -0.06936840406902078 -0.02835541165226713 -0.018530160162599996 0.008753750527161921 0.009936189720085333
0.19467315135320035 -0.07736926168149784 -0.028242930486183634 3.502214244308213e-05 4.890552368516167e-05 0.01593474394480708
0.1876328507842928 -0.06938992115632109 -0.02836996140200128 0.01859912823876349 -0.008633682237680044 0.009939795194296979
0.1711840441415428 -0.06035751708126221 -0.02800190535950645 0.02264828709571432 -0.00931060735688286 0.003916412418579431
0.15180210347097087 -0.05272327896905339 -0.02662819329461908 0.021834478141051782 -0.005044765448886725 0.0011452613910393973
0.1314042518977239 -0.04524970305940369 -0.024325830760664097 0.021238815796527873 0.0004868331483266475 0.00016205365958737073
0.1103214110212481 -0.037625406210544124 -0.021337809001130307 0.02099902553653703 0.005728984632253117 -0.0001533581092485022
0.08886462358779487 -0.030006391176737392 -0.017883114591366867 0.020785500286761394 0.010244645302542654 -0.0002683727781681067
0.0681650742530035 -0.022312392077234892 -0.01415878549653547 0.019975459042804056 0.013974644218034104 -0.0003204622144991116
0.04498943103419149 -0.015595111307173583 -0.010092888792340075 0.018698293728384847 0.016775493197548202 -0.0006359565641740413
0.02841692126059144 0.002444375947803801 -0.004691364386770598 0.02278302636326267 0.009184289458687333 -0.0017444199436760888
0.025101977612619206 -0.08745184521211388 0.004685168668198619 0.01697819545949063 0.0027466050100752306 0.016347237727319695
0.01277731741277759 -0.06259193662929873 0.006501579551507569 -0.03775117156605302 0.000635001695175804 0.015765889683286665
0.011294100156404918 -0.0008254816750243835 0.00034876670264306713 -0.043154743627183745 -0.001972250499192349 0.0023694561808234363
0.01777851005304733 -0.0038762540853080505 -0.0036626367528970693 -0.03568777293869535 -0.005923066638672336 0.0007224680484068095
0.03209224717310095 -0.010775332722954388 -0.006461281881997034 -0.03670078917101387 -0.005030708659454606 -1.0022921249890873e-05
0.04385570335809694 -0.01468864381344504 -0.008693107011808924 -0.03709854512859789 -0.0031883820302153754 7.830720248050963e-06
0.05468906827808243 -0.018500332327539556 -0.01059964224280774 -0.037243622506594326 -0.0010757966242956355 0.00023948376367679676
0.06524625642481328 -0.022255267222539416 -0.012169524717692724 -0.03733283011661848 0.0013658790328853134 0.001053933544825821
0.07503935055461394 -0.025589787327174453 -0.013321602913312695 -0.03773845409889134 0.004138708160581832 0.0030927340653085188
0.0844524289931494 -0.02887194470820468 -0.013973114517803944 -0.039049914754708745 0.0071767189030254135 0.007881533464099925
0.09462598247557778 -0.03677865168002752 -0.01404563552927785 -0.03377542541533709 0.007975928675481431 0.017839343058605395
0.10005479066399567 -0.050860590420152736 -0.013791260976519752 5.13710165899128e-05 0.00020487978381383503 0.02935602701627225
0.09469334061388868 -0.036807964187007915 -0.01403759987323243 0.033876186029425756 -0.007537589455021994 0.017830996839252333
0.0845944184002667 -0.028931160524433317 -0.013963276404768101 0.03914240499544884 -0.006653300298202909 0.007857543651633546
0.0752722098246515 -0.025679922521416706 -0.013324350430312224 0.0378087231393455 -0.003476112328067535 0.0030353542648022948
0.06560050671579287 -0.02237787852980807 -0.012211376757092898 0.03735214484054366 -0.0005138773432189806 0.0009264706053752661
0.05522109859668466 -0.018660911287650496 -0.01072676938449778 0.03716123740864324 0.0021612298771264073 -2.1659817950733828e-05
0.04467286601745421 -0.014898230799483232 -0.00898018215372119 0.03683348980045546 0.004552717551232962 -0.0005093477061204314
0.033416044640748106 -0.011071747317823729 -0.0070286954901725655 0.0360974237186542 0.006724521004714899 -0.0008693241573302023
0.01946810450554718 -0.004228108109754315 -0.0046431664770880815 0.03427629802538133 0.007637013968745824 -0.0010045337550544876
0.012539627516139578 -1.69100032653682e-05 -0.0007952166176248868 0.04030231505400989 0.002322285478990142 0.0007490622299660372
0.013541651982680177 -0.0625787053031226 0.00585743081724742 0.03448076966449926 -0.0014191419008667831 0.02209334714075007
0.004331037473050148 -0.039473809478778515 0.007556946097342394 -0.035694470475065715 0.002050157605023733 0.01728571052195493
-0.00020394369771715334 -0.002192364652952536 0.003660279091964275 -0.04741144833993236 0.001957837699165839 0.004250226691354565
-0.003640047195257252 0.0033355890191999285 0.0014871322135691038 -0.045080428940309794 0.0012248809095095296 0.001072371813943708
-0.0015062750270406974 0.0006332387147020545 0.0006575621361101338 -0.04258211071300717 0.0017122967486401925 0.00026528130765075586
-0.00038444713820821365 -6.130033193839982e-05 0.0003605383192053311 -0.04257605753622462 0.0023000496309181695 0.0002273229723489016
-0.00030664587050220973 1.4862461973078533e-06 0.0002801986952208934 -0.042670645338911434 0.0026102691085178394 0.0006738284128763026
-0.00042748213726683806 -2.332623555362039e-05 0.00032463943548175986 -0.04277078080429667 0.0028241484493133004 0.0017546654579075952
-0.0012498679718813933 0.0005193220902469729 0.00046409196385898094 -0.04247605585605935 0.003373133766016434 0.004068435586477805
-0.0017790401272062407 0.0018727469748112127 0.0006309288303302147 -0.04383514661616986 0.005715911073138609 0.009035553344645276
0.0034229531257355143 -0.005079399085483794 0.0008786942637092252 -0.04290450340374082 0.008835403987726975 0.019888699137515148
0.008459249868369963 -0.03178100668009978 0.0013447604855939728 5.585947945599163e-05 0.0003529382427367301 0.03769093074921674
0.0034873415610562415 -0.005116316118547482 0.0009097759959287605 0.04301399631018188 -0.008095149430270477 0.019876885865145345
-0.0016456801838948868 0.001798929142455189 0.0006880785095039533 0.043935349315319026 -0.004875000649990117 0.009003569071007819
-0.0010379652887365848 0.0004093711464964853 0.0005354404667717203 0.04255126179516998 -0.0023739096661444187 0.003995798445220356
-0.00012026166312719989 -0.00016706944603747857 0.0003874648495544095 0.042788316540341556 -0.00162727412985898 0.0016006344576562019
0.0001272171990761283 -0.00017298699808583634 0.0002943413866673718 0.042569600699013214 -0.0012077249756999684 0.0003607961091006308
0.0002483321159633552 -0.000268373085707005 0.00025811602804086 0.04225320622117894 -0.0007256119698852451 -0.00037092998295949634
-0.000615309267623471 0.0003844910295403141 0.00033204387441827007 0.0418578472386792 -6.717474398684287e-05 -0.0008175809513584253
-0.0027327439465353533 0.003332511461792484 0.0008419364672225995 0.04362759685263376 5.843961049521883e-05 -0.000675957280087387
0.00037807049982389705 -0.0013318731179145702 0.002799955814240288 0.04588863191442839 -0.0018505238940634407 0.003195690752687201
0.0047043538656557585 -0.03958758790875158 0.006828158068921741 0.034635632150931614 -0.0026834708968150513 0.02106807993013109
-0.0033319974778442903 -0.020489216272454907 0.00852734921825145 -0.027025708833071576 0.00345853004962637 0.014950092065943043
-0.010720405423843572 -0.0008232546753717595 0.006694740547454556 -0.04016408069173159 0.0055840145340733845 0.0043341428269103865
-0.023642966967311607 0.008939075491676458 0.006524831595507079 -0.04151972295492188 0.007891485030323825 0.0011134798323043573
-0.034180856977077574 0.01146574612085613 0.007729866225667908 -0.03774424832522831 0.008433275289208666 0.0001364323065565157
-0.044583640763375516 0.014699731380495724 0.009401370411944509 -0.03696313823414673 0.007849430633492199 -4.924985742849779e-05
-0.05540742557184732 0.018503596303012133 0.011152035037926104 -0.03715697347853254 0.00634519950547281 0.00024535747749467463
-0.06601913147614527 0.022319928967043007 0.012815902023352489 -0.03724574781377414 0.004371968179478103 0.0011456248398336209
-0.07699213278310456 0.026060457288788155 0.014260338973812752 -0.03691298403707068 0.0024370570630031763 0.002796148388345512
-0.08811992565577505 0.03225724852544648 0.015234707907668864 -0.03629370984209126 0.0030434654924394585 0.006319334851676549
-0.08828772467827148 0.03062655804028814 0.015509395335814809 -0.04588499840638906 0.009403471104478577 0.014536726198323028
-0.0830985081510039 -0.019019449683552108 0.015965549654351048 5.259935102532791e-05 0.000504159495107761 0.03942136907450166
-0.08822618903018166 0.030581785664384967 0.015563814845212794 0.04598853405853174 -0.008354467354490372 0.014530146400287746
-0.08799503891233203 0.032168366932383965 0.015339878568393268 0.03638994965237052 -0.0018766505776614552 0.006298890126845484
-0.07680112003733001 0.025929976172847886 0.014407092540249617 0.03698867680743405 -0.0010902534118459775 0.002744059521279816
-0.06575955578695546 0.022154393977891058 0.012985698427524586 0.037272361520410434 -0.002815384771469882 0.0010259096409524254
-0.055073835947174306 0.018315311645541395 0.011310616399243403 0.03707801828465759 -0.004608923956532218 -1.0542001940838544e-05
-0.0441627222862318 0.014500525311751495 0.00948918924890803 0.036677114077443056 -0.006054430023893234 -0.0005667283645256025
-0.03369900751170251 0.011305455719415177 0.007655116970118628 0.03708476312096959 -0.006833237141326232 -0.0008312380555212418
-0.02325167856915024 0.009058424453476467 0.006193630811372972 0.040499779629777855 -0.0069382980875380045 -0.0003038915506625409
-0.010482888845458243 -0.00022024548108444847 0.006120439862376008 0.03951005836684761 -0.00561909667320305 0.003608581350204727
-0.003144838997576637 -0.020592070206382648 0.007897756225379303 0.026781501649358518 -0.003980466839633892 0.01745848273626228
-0.0098049542066716 -0.008135784853523542 0.009892661338343838 -0.014133108483011603 0.006198060013696276 0.00970462206799916
-0.02044825579047542 0.0020233823378256375 0.009582774915956814 -0.022455016920231583 0.010331727420753464 0.002949700313958427
-0.04311221187241678 0.014306947199889794 0.011335273503297532 -0.02395182718270269 0.015257139075031722 0.0010167193365909141
-0.06647209650670127 0.022333864979502845 0.01452442439469525 -0.021473950290070497 0.015834146173773714 0.000160811384158885
-0.08878759223816164 0.029917920160550324 0.018094244663108248 -0.020772594969244766 0.01397166482915706 -7.43102438468161e-05
-0.11054038528421738 0.037584553182366386 0.02160116147393546 -0.02093855950757391 0.010456408774917223 -4.180459840805998e-05
-0.13188124821762834 0.045224161478327606 0.024824317706609145 -0.021133083963783036 0.00590560100289176 0.00026309570925449994
-0.15187785830262227 0.052914033791084836 0.02751760038558672 -0.020740761287140377 0.0012693874364734707 0.0010652319535723602
-0.17381097266053358 0.059733582992100104 0.029298041310665227 -0.021395335846098897 -0.002843095197622374 0.0016707558433017285
-0.18283068853770726 0.07577908117016514 0.029025711021649695 -0.02898045271820269 0.005934057644648859 0.005432764634462165
-0.1793347000590094 -0.008939456582899408 0.028293877046301062 3.6478595454056775e-05 0.000669673960294746 0.02901911487949712
-0.18277126577401057 0.07572587631144537 0.029103560984904565 0.02905275959598157 -0.00454607668635237 0.005439169485288496
-0.17369273299117238 0.05962835064389815 0.02945137223154802 0.02146430383156233 0.004371146702352248 0.0016795901065909974
-0.15170399615526803 0.05276071215484706 0.02773978895268976 0.02079911431521862 0.0004696165518882044 0.0010664873659336335
-0.1316614956492917 0.045032913430004456 0.025100506549673628 0.021164120159709553 -0.003930101246131569 0.00023606321744629036
-0.11029677834863721 0.03737563215981703 0.021901938448691392 0.020908359178058566 -0.008306529476939498 -0.00013879360364064795
-0.08856463430795966 0.02972779750903488 0.018367094813975776 0.020614170633807227 -0.011857436031124484 -0.0003243607008914904
-0.06634265463532307 0.02224156803677588 0.014686302034844383 0.02110116608778942 -0.014162821684387391 -0.0003661632532296102
-0.043119857589884694 0.01445209727067565 0.01128462185299632 0.023449675338156985 -0.01453422591621258 0.00024302516588212077
-0.020476671520088127 0.0023858654400349343 0.009274457400021415 0.02223310989266441 -0.010561099746840498 0.002571228791742387
-0.009785456331313296 -0.008125168116845218 0.009419458578140612 0.014081912364888179 -0.0067894249181406855 0.011140171054985134
-0.013173326932220326 -0.003939124136190187 0.012003501242835418 -0.005413230178574245 0.011849595502335445 0.006289517765045149
-0.02822027596324733 0.003621604038055216 0.012469806783293503 -0.008787340866755065 0.017796474097223194 0.002050634022730053
-0.06255892567463675 0.017049357548808722 0.015766273592335824 -0.008629863665869078 0.02476687066927878 0.0011036245197329408
-0.09926111103062994 0.027901905572783825 0.020699274867293276 -0.007825105814372787 0.024971311092640763 0.00045718145619474645
-0.13308585306498044 0.03768788935523455 0.025952742929896293 -0.007650824791606607 0.02146997850245843 0.0002274770082113806
-0.16566309451676653 0.04735564701377133 0.031030337362274722 -0.00782890621438772 0.015457336301000522 7.376758592009529e-05
-0.1976854605232258 0.056824747221029204 0.03565167166329722 -0.007928633925449322 0.007776702010721254 -4.197697427468349e-05
-0.22817017277616802 0.06708816625857236 0.03947403938661231 -0.008288105498593367 -0.0007179794469044363 -2.1124710002127915e-05
-0.2533195316159343 0.07214095796314277 0.04198328436365916 -0.008532709145354159 -0.009463412718418622 -0.00015442861182525362
-0.2797589295478111 0.10138383823333157 0.04111301063297708 -0.020683923560837078 -0.014117916910103698 -0.0033448930486256723
-0.29565965498411195 -0.003714501453017087 0.03432901068436023 1.7511425778302808e-05 0.0008615940856978592 0.0308561991372719
-0.2797007460915742 0.1013262524057753 0.041214074440516876 0.020718991256719423 0.015900562098813843 -0.0033328789813558313
-0.25320539835468375 0.07202716110396025 0.042184107197781574 0.008567364099532637 0.011417418176990258 -0.00013246440469082653
-0.22800721155152176 0.06692272744832625 0.03976991758430645 0.008319915147945937 0.0029303249664687013 5.576780085988944e-06
-0.19749148113462678 0.05661922488589823 0.03603005245056893 0.007951184545882157 -0.0052745341244845685 -2.1257387284663327e-05
-0.16547995498710236 0.04713433074444588 0.03146384262027204 0.007828588401074518 -0.012744547939310121 6.660874365605808e-05
-0.1330053979023673 0.037499630518157474 0.026390044023942526 0.007598868499457494 -0.018829747138877414 0.0001482501464660015
-0.09942126121808956 0.027836473152324157 0.021056048991190006 0.0076830439360661045 -0.022984236289110185 0.0002385930326405774
-0.0629764658606044 0.01720351966894305 0.015929750509786643 0.008422501972949968 -0.02417536128489546 0.0007706413159412669
-0.028589427360122918 0.003892366621446271 0.012371057472906084 0.008683373414377513 -0.018544268821924934 0.001902833530104378
-0.01339470492350362 -0.0038576349879475046 0.01171354648405597 0.005328391592727868 -0.013080355787002826 0.007158029389871046
0.04115908178495895 -0.15295990504045423 1.7726705520137997e-17 -0.0866539404210068 -0.03572452282499356 0.045017129177717094
0.0495569298475825 0.015900483616145687 -0.0057339469430656665 -0.03849337090292639 -0.037184994804976904 0.0015309052862849495
0.06905531618178468 -0.021566241718173007 -0.015122905007044 -0.018146818340607954 -0.03632715803381964 0.012628007800042536
0.09711131156063726 -0.02533458199372641 -0.02126146822258008 -0.018713389551044384 -0.03232324069851095 0.013701868446215765
0.13182213474502072 -0.03644072078404734 -0.028121326130914677 -0.01763685817857031 -0.02888527108599159 0.01881858349351791
0.16702416750170326 -0.0461810788724543 -0.03472306714156858 -0.01600227537362092 -0.02268771954295643 0.0232056971396404
0.2013595471095021 -0.056015963504564295 -0.04093328012161717 -0.013366868245804749 -0.014150592996736409 0.027713653524523523
0.23364567409754117 -0.0654514417304634 -0.046367622798641074 -0.009743699021898006 -0.0034490277152246273 0.03214329874335297
0.2607358549260548 -0.07364514362105877 -0.05047064382784209 -0.0050713259973570865 0.006982697581881579 0.036709664245002646
0.27798042860508204 -0.07841086590182879 -0.05273347200076344 -0.0009422799240864348 0.009941446256791674 0.0416160537905764
0.2835826188162808 -0.0786815354837952 -0.05335651573145039 -0.0001154127723259242 -0.00023897453244289455 0.04496261962550843
0.27819179131307925 -0.07847820429780819 -0.05278326563869795 0.0007054620506833399 -0.010415197866916543 0.041627662902247294
0.2611992236330761 -0.07379240153774211 -0.05057807960823831 0.004816538579957867 -0.0074425832823562 0.036732676038718735
0.2344477286087612 -0.06570515654640686 -0.046550140003760614 0.00945854128243791 0.0030179847863731775 0.03217830347498752
0.20264457591007626 -0.05641837452970619 -0.04122041141874144 0.013039920159684177 0.01377053528717144 0.02775591982514242
0.16900464438813873 -0.04679651983465623 -0.035168708441394685 0.01561743505551388 0.022407451075451786 0.023272128455004173
0.13479833156803062 -0.03734314764154592 -0.028791236799451003 0.01719577099167484 0.02870600354358564 0.01882494489149651
0.10148652644135359 -0.02663090940932193 -0.022378501085315767 0.018088924285671222 0.03253001860557433 0.014052631020708277
0.07612404548321301 -0.02342671655407066 -0.016461591709555717 0.017390689087194565 0.035758348668702596 0.01146327374003409
0.06477105033445696 0.013315753722492128 -0.009827741365363839 0.03993971668321554 0.047814563086293234 0.008421635141938066
0.06263812686563502 -0.1614196559773418 0.012883758256550065 0.05208686320141126 0.0626299766369543 0.01746021825238149
0.025281818603936218 -0.1327888540398498 0.010685740897227377 -0.05561955075702237 -0.029516161656265437 0.025877688730873115
0.022831802296298866 0.010618385647432043 -0.003749951062883595 -0.04608563044901206 -0.02471477658072899 0.007761871138142656
0.036453488365119614 -0.013228209422453284 -0.009780050614728688 -0.03834438744564515 -0.022424170760349048 0.013606525776485839
0.06331343318130425 -0.02031968424468927 -0.01512102539183661 -0.03883607094566122 -0.019826800205284125 0.01764461343141044
0.08597049674315656 -0.02867089849146803 -0.020014684433660643 -0.03796249247141136 -0.017205669611729316 0.023409258967928614
0.1094280972003622 -0.036624200795812356 -0.024862689320858937 -0.03486912373851754 -0.01355833148582729 0.029157656726360195
0.13222166843360153 -0.044468951106227846 -0.029350865938405715 -0.030296836502073352 -0.008483741421848476 0.034939045803895126
0.1536529135616455 -0.05212684876156421 -0.033262211673343554 -0.02362754074333026 -0.0022203118874199626 0.040905929677943556
0.17172164945057775 -0.058759800143790064 -0.036236231450233976 -0.013956715514346256 0.003948485498476386 0.04769808705812341
0.1833633977090089 -0.06165247597511431 -0.03802235736427156 -0.0036733896093443553 0.005888548802797997 0.056218492815810664
0.1872161408991007 -0.059408357635832375 -0.03869503880301051 -0.0002057768878236466 -5.724455621421295e-05 0.06282698192530807
0.18358561893265277 -0.06172253817190636 -0.038063168710181595 0.003248731154042157 -0.005991639767029265 0.056219711027714905
0.172203284533218 -0.058911778903263795 -0.03632585914829989 0.013492084889953371 -0.004017008756908431 0.047698967400686756
0.15447150654045297 -0.05238521235773604 -0.0334179680270231 0.023093886092214376 0.002209869842391119 0.04090316960663482
0.13350123062993297 -0.04487222050126628 -0.0296036481437934 0.029661788320902948 0.008557674885136738 0.03492581895630257
0.11134852992842643 -0.037229441690588824 -0.02525918068804884 0.03409655336835843 0.013734037022343364 0.02912871353536591
0.08876825467332813 -0.02954846142850526 -0.020645891913314035 0.03701469234519383 0.01752760514300285 0.02333392633379132
0.06735567882142908 -0.021538059559464043 -0.016059243874953263 0.03755656521026291 0.020154947416937997 0.017629251780553384
0.04225450318547194 -0.01491336172924925 -0.01143554314660583 0.03636957035678055 0.023351918243801593 0.01307672296288211
0.028069241831438965 0.009947251842474858 -0.005264435018765482 0.043468400724558785 0.028262739082317807 0.011133234890349253
0.028937187575089125 -0.13930460353557783 0.0132764818979315 0.03480508440616339 0.03494842151429271 0.01051062427535579
0.013036360593500008 -0.09239574137539418 0.011684419706620822 -0.06530081326543487 -0.01797314486698474 0.00857067056535553
0.007655497733884011 0.0022157743579790203 0.0005599309878979155 -0.07485818914569874 -0.01406586481752043 0.012062951184471036
0.011327538804982917 -0.00041306570064496875 -0.004222632153815283 -0.0652938795091121 -0.011084358175116497 0.01553474126792459
0.027692353271363053 -0.009164365119561832 -0.007328337146606615 -0.06640649099392205 -0.008988994749745407 0.022504104506884195
0.041050174904252654 -0.013591033290791844 -0.010020318642921704 -0.06415113364605034 -0.007351720835646515 0.02969980760911042
0.05311007055829444 -0.0177453296378845 -0.012571242512312076 -0.059214574143279894 -0.005563591346901091 0.037258583400076005
0.06499111348032222 -0.021768207644547427 -0.014930288752773973 -0.05187414503838982 -0.0031642412145520427 0.044886335312426306
0.07646423629501088 -0.025987281028368947 -0.01696824074874915 -0.04120657446553993 3.077204946716353e-05 0.052932312197005206
0.08626129167647999 -0.02976435312344711 -0.018568369022960312 -0.024747088498058626 0.00409212733216984 0.0624067267359238
0.09129185606222268 -0.028434823844742906 -0.019748542571915446 -0.0053411654363238765 0.006254919995687941 0.07534240575045831
0.09218573002849718 -0.01883363220648968 -0.02051416986462193 -0.00032883387494735215 8.798143657847042e-05 0.08752182002782835
0.09151729237644352 -0.028509239659763777 -0.0197792901096323 0.0046616807960692085 -0.006061584886335147 0.0753356173323439
0.086745285566071 -0.02992365690011876 -0.01863713826889317 0.02400086551144308 -0.003847545083391007 0.06239111670073976
0.07727364870179007 -0.02625219698967421 -0.017090865956664758 0.04034440256216453 0.00029598200409641854 0.05290297732191504
0.06622845070869378 -0.022169782173305702 -0.015133455358784482 0.05083908782498411 0.003595960033433511 0.04483533523445469
0.054915408663978815 -0.01832882930973757 -0.012898485164703273 0.05793957256394148 0.00610899451343411 0.03716816632801187
0.0435978743356647 -0.014408849058174647 -0.01053574888054607 0.0625525194200092 0.00798297641570021 0.029567286292747266
0.03115770923020521 -0.010255024486997751 -0.008142351106803988 0.06427080240350797 0.00963966166132074 0.02224026685024607
0.014930306154322625 -0.001387207020840499 -0.00547102800990391 0.06219037298871029 0.011986880797340355 0.01559306222070198
0.010062425882266466 0.0035138689445098153 -0.0005314825802417336 0.07072109704307208 0.0154026103197978 0.012248183859721564
0.0146091056388442 -0.09637340463763899 0.012232180451167269 0.06172405600775087 0.01972208398794583 0.008191406135583805
0.0035032525895079096 -0.05540447047337084 0.010435042795374402 -0.0603868036713956 -0.008107862375700232 0.003022396341173969
-0.003994824804722981 -0.0011745896792485222 0.004058537198797034 -0.07916461580133975 -0.00459370764382103 0.010475964662919782
-0.010032206503252181 0.007005087485635663 0.0015029495885968008 -0.07948225872672046 -0.0007245850835276313 0.016062104100801278
-0.0065592103236363376 0.0026981038382457934 0.0008567139457800752 -0.07587928387485536 0.0012044064136493057 0.023663859265379856
-0.0038040830867048596 0.0011459915678774303 0.0006186279576113897 -0.07275984409676874 0.0017749670171204987 0.03152395449353539
-0.0025670072505183856 0.0008055167621297134 0.000479405552119414 -0.06712067051999414 0.0019305613413943827 0.03953738495734763
-0.0014201631534016186 0.0004766677015638543 0.00038621076050648743 -0.05892516635764427 0.002071729913126732 0.04772817040089515
0.00047617956421387156 -0.0003367715579315724 0.0003253750993615315 -0.04740336594459427 0.0026104963314564776 0.05625983768440278
0.0026014475777236964 -0.0019117959513068055 0.00017608511204008585 -0.028552540344618446 0.0050536815983312005 0.06604523796690018
0.0005970536839881033 0.0034763414441575323 -0.00042991861042121786 -0.0017688550696757354 0.008215294709483687 0.08008762314379
-0.002234329866912086 0.026801144190287292 -0.0015795023226249964 -0.00036920494413096843 0.00021849200376719823 0.09818354869870159
0.0008224421007738607 0.0033989934360271227 -0.00045002603112886995 0.0010052814368812044 -0.00775534938651352 0.08007835673019964
0.0030808789746467314 -0.002075730529239706 0.00012965962866060953 0.027711997359519434 -0.004526764998665719 0.0660243902850976
0.0012650993670612217 -0.0006047126265095673 0.00023939677447739087 0.046429226692981065 -0.0019796441651791325 0.05622213182169053
-0.0002432963404041615 8.057047486813019e-05 0.0002386721358590317 0.05775092521419537 -0.0013160820080536212 0.04766328281506108
-0.00090769510778592 0.0002495247452328671 0.00023693397836940198 0.065662977205532 -0.0010617431391900939 0.03942947791573968
-0.0015641149431435712 0.0003937511979311996 0.0002309117020238531 0.07090379142826056 -0.0008618732034651958 0.03134537832032989
-0.003880128247445226 0.0017859198158324426 0.0002459116779513336 0.07345289199499215 -0.0003546264984345145 0.023416311517484432
-0.007764937853339987 0.006746203406565214 0.0006336563283715045 0.07642063286207283 0.001426598750206393 0.015926009342464645
-0.0026956523395907576 -6.737367943931549e-05 0.0032659009080218374 0.07736147372234221 0.005182823008293539 0.010769407168826524
0.004370871084743059 -0.05817094121404456 0.010485037458003107 0.05981016189755997 0.008840133930294905 0.0047371820359365345
-0.004915458535143984 -0.026545545899050577 0.009123176553406585 -0.045894292918706836 0.00011902820604448564 0.0023864819962489204
-0.014573419299224044 2.3984545549967404e-05 0.0068341940411206755 -0.06657348384347181 0.004303742524761677 0.008128466008411167
-0.029794943939802598 0.012438399911567791 0.0070379965573453525 -0.07313542160486554 0.009763592694025176 0.014849350663287308
-0.039570689702893236 0.013730085818960156 0.008981560352162715 -0.06816233636417053 0.011581509978942736 0.0222937464821732
-0.04859345064517374 0.01606658363773185 0.011255930061140541 -0.06421127174735985 0.011027343154880848 0.029769062223084647
-0.058292457093508214 0.019383262507252634 0.013525804171032538 -0.05917625360973068 0.00946515281223614 0.03726506851689978
-0.06787719811454176 0.02262699075409969 0.015698010650841362 -0.05196173909988388 0.0074491970714542265 0.04496717438772843
-0.07587629812442878 0.025718246845513507 0.017639192252411704 -0.0416977433944135 0.00505317153705617 0.05270201636209699
-0.08079903598587632 0.025995855534317484 0.018976641522563408 -0.026503738286560018 0.004497946116451018 0.06095701783738583
-0.08979521904033043 0.031700855540798656 0.01879473063106989 0.006813027674891031 0.009194079247529586 0.07238521159030782
-0.09711643942001624 0.080103472358269 0.016475040264130467 -0.00033232231429314914 0.00035189709032888494 0.09598722981216301
-0.08956891510585366 0.03162042547464168 0.018785236017410976 -0.007500684135182852 -0.00846112411181288 0.07237905216661185
-0.08032233351784694 0.025826956973045306 0.01895262249458999 0.025745835362851893 -0.0036805685723677387 0.06094277714846489
-0.07510532467617234 0.025446541240439297 0.01759009459316265 0.040818401243625235 -0.004107111837606189 0.05267513417148861
-0.06675928189215709 0.022235521981674868 0.015606997347311307 0.050901164633704095 -0.0063551286736884555 0.04491894288780425
-0.05678329370728881 0.01885677419192346 0.013369014826784946 0.05785478369283395 -0.008254055987064614 0.037180268420189976
-0.0467117741897686 0.015395128627627987 0.01100069071217 0.06251855694396431 -0.009813750671798136 0.029627396092656688
-0.03759235388292626 0.013055310431440571 0.008586710045094204 0.06599871068554017 -0.010579861966156796 0.022101646672093696
-0.02834676120139707 0.012377269647794528 0.006494695133761889 0.07103844276467847 -0.009203438468277283 0.014720120894881271
-0.013841845000053359 0.0006669005657417794 0.00632078712115472 0.06607682231187474 -0.004075292251491505 0.008488848921190038
-0.004441734917053573 -0.02813720898128981 0.009040592605784686 0.0462223841869959 0.00012888774886536062 0.003990171456505959
-0.011553838590740917 -0.00870192016125067 0.008755434495684203 -0.02541037737886187 0.00734865546570446 0.0034971886433554705
-0.024017334161162193 0.003250902429202015 0.009250669065936013 -0.03835607143573646 0.013402757571316272 0.005835194591789779
-0.048849267298216544 0.01727984879272651 0.01213458915616942 -0.04393722277667269 0.021373853357931398 0.011667296933186556
-0.07218868539450157 0.02448380177751881 0.016601378229520708 -0.040857438328695386 0.023085829576131336 0.01760502750590159
-0.09373209588225064 0.03128578212835153 0.02125467238815964 -0.03803387918604981 0.021188015159175726 0.0233897241886552
-0.11470381188551346 0.03834482865095663 0.02579431567531284 -0.034869529892691535 0.01764071561726196 0.0291519661295985
-0.1349841535812461 0.04532671485891895 0.030103864131215134 -0.030388061976796388 0.013012046693846679 0.03497960856088221
-0.15425630704901047 0.0517687457757476 0.03398292869084167 -0.02434808755864 0.007705099586036195 0.04089485391411392
-0.1666494027149667 0.0580849481467126 0.036840379328019465 -0.01412767714241939 8.025012294913842e-05 0.04583213863907629
-0.18076337918683247 0.05308391341776827 0.03688069585273334 0.007181421755876262 0.003589948576104085 0.05237029282276234
-0.19181846807056396 0.14141361886124632 0.03150438072463725 -0.0002102570676715881 0.0005060809269327334 0.06959930265056305
-0.1805305510588464 0.052998273881800215 0.03688120195918551 -0.007616380960142487 -0.0025407362330355913 0.05237223817628267
-0.1661640791973147 0.05790694013839401 0.03683735775663682 0.013648808364847342 0.0010758807862757715 0.04583501371729447
-0.1534859061981233 0.051487316148147014 0.03396804371888205 0.023794025970626673 -0.006387328695924287 0.04089610552739851
-0.13390066529774142 0.04493275377465221 0.03006427910554887 0.029723089176996884 -0.01151198283739045 0.03497388876714106
-0.11332236666870284 0.03784124602203163 0.025713586859946076 0.03404780730377904 -0.016006103426084786 0.029129421008755724
-0.09218967871205154 0.03071609861855065 0.02111581144275826 0.036989287827043894 -0.019591492878109223 0.023338124892681264
-0.07082660094640462 0.024027093865583774 0.01639001406094373 0.0395923768132665 -0.02187393338468578 0.017525830386790297
-0.048066261253697305 0.017294947568423147 0.011847740602976515 0.04291711534406612 -0.020911873508979047 0.011633418535364851
-0.023753174680446576 0.0035982154766837295 0.008968174868192708 0.03834621601731596 -0.013492340763845805 0.006090879366215092
-0.011434251852248922 -0.009328396491806664 0.008658213327638256 0.025745356272183325 -0.007525463130557971 0.004536955832670521
-0.013092208756166948 -0.0029480097595990934 0.009994676226070722 -0.012528999477989971 0.014711879123162009 0.004220840742464327
-0.02971941570840443 0.005009395371567563 0.0115659613519365 -0.017966717811364136 0.02379997725082678 0.004880313344734303
-0.06719039805302672 0.0196290270081451 0.016295517228823372 -0.020199741232366848 0.03531489137760354 0.009689251716426811
-0.10577693509195306 0.02992758333708047 0.02274363198932372 -0.019421983554881925 0.03687021983727956 0.014420269178623553
-0.1399006031382569 0.03901137049968921 0.029265630084857518 -0.018060063283752755 0.03323422130241226 0.018906227353249386
-0.17239204601643227 0.04795750236826607 0.03561778964275266 -0.01620292183873653 0.02713214424018051 0.023344996876184142
-0.2040230317654958 0.05696726019396972 0.041675580506271494 -0.013767852402634864 0.019154871863373765 0.02784712584947919
-0.2340357567080653 0.06459976100867798 0.04710909611533755 -0.010091907982149397 0.009682825524267505 0.03196459257767447
-0.2625452587504382 0.07600884290254957 0.05144685957014622 -0.004938554365526843 -0.003921194503819297 0.03684033681203385
-0.2757738146325251 0.061694360283340424 0.05168924178624714 0.013725143747158174 -0.028472353855737084 0.03308516945333629
-0.2749235605916211 0.1737546660116391 0.038979360194795636 -0.00013585930010588665 0.0007037017146461679 0.06823109648806198
-0.2755231216025047 0.06160529095989445 0.05169866649569104 -0.014005809407472328 0.02992780600677191 0.033089139751415794
-0.26202842002791854 0.07582466280367012 0.05146216039063573 0.004631260768196381 0.005515280556686008 0.03684714541902878
-0.2332306991110346 0.06431125037267962 0.04712286136278532 0.009740878080109459 -0.007879280247358414 0.03197166538890028
-0.20292461304645956 0.056569102409476074 0.04167624240647182 0.01335770058332603 -0.017115151824988673 0.027849798309261486
-0.17107163243995877 0.04746328822363583 0.03559082424613375 0.015722301502930004 -0.024918944352134882 0.023336353975490946
-0.13862061768849174 0.03849336527859251 0.02919832946962944 0.017503794758450784 -0.031086139113260625 0.018881578583583275
-0.10502760576256538 0.02958024576434072 0.022629684759421786 0.018830534498259235 -0.0353012237402215 0.014389503034314887
-0.06726180814160804 0.019702169791640835 0.016131782184041578 0.01977425600890964 -0.03493144602687273 0.009709084279108453
-0.030129324602741543 0.005278894536443377 0.011406939684294223 0.017992283469271463 -0.024370609188079463 0.005055982720822427
-0.01343187218957025 -0.003166999267658727 0.00996951513226938 0.012630587443899749 -0.01551530161200447 0.004914516253906899
SCALARS Stress_vm float 1
LOOKUP_TABLE default
30097.838735516325
13804.753878998614
14930.065027624318
20663.909023107568
27569.695172315314
34538.35799800222
41403.02109149138
47923.90327317404
53457.15307920473
56897.172504124435
57798.54110807485
56941.18013071594
53550.775114129094
48082.93899991776
41655.41960098037
34926.22772763276
28146.886746437656
21510.31104157002
16178.502024327841
16253.20441965836
32523.287191520107
25551.819884021847
8037.752425207518
10633.179011705599
15231.00622449333
19849.888586754012
24527.13585522943
29176.35443994176
33653.59768229381
37524.592986443065
39919.16587016005
40367.36569883741
39959.39742705698
37610.20393003629
33797.965570868306
29400.88429409681
24860.617565822897
20324.988979488404
15870.469231033449
11368.224000153969
8497.323898690236
26578.97512064155
18837.50919097486
9946.50885662571
9803.389597667463
11557.314770553327
13426.306418531924
15430.763570923215
17573.27863056383
19859.507364389217
22028.828113549447
23141.176025841723
22740.80995002371
23168.250256793424
22082.77465433358
19947.20965244136
17703.819289913834
15609.384467140348
13640.41127475577
11724.597029044859
9726.299159521028
9318.098353194204
19330.55626212281
12856.232599494015
10932.510872729652
11425.201951456516
10789.252768921926
10499.95412586579
10260.10806676141
10404.450097755504
11279.128908291723
13134.824267608139
14602.045211796716
13820.83572356846
14582.314145203023
13105.809048797986
11218.39428879459
10286.24952339543
10059.47895791135
10198.057969121239
10356.271462283208
10876.866308496363
10596.300028686164
13172.62936550324
7994.5881070154
9847.079857176548
12449.185882587044
13270.687784530597
14571.534830263568
16246.093585778142
18032.051368111595
19640.399429688056
21183.331304733245
23843.23490458753
27092.03866351756
23792.705999586422
21079.576423497092
19467.765364098774
17780.30771115429
15900.19018816747
14120.376593656963
12747.115082231921
12029.179234037005
9714.594534840893
8162.519496715891
4865.037864932616
7764.089330538305
13009.402775107688
17263.126657276982
21365.64320712959
25566.965392079164
29745.153386579288
33701.78655941461
36755.05300358715
39695.71112239237
46722.06583819461
39649.121522476606
36656.72425474069
33538.113684079435
29509.168138458965
25255.79084458972
21000.529378236093
16922.13493721764
12820.742492130052
7733.367779164406
4915.343850443408
4199.685298597701
7481.3529393262215
15255.199063820402
22662.193264077076
29250.72741738187
35663.61256290357
41992.059708185276
47990.58552811188
53778.48851793169
56983.337629257425
62204.088095539955
56951.23527200459
53680.778305482156
47827.45804456172
41759.49300474315
35370.142245326686
28944.64949033058
22455.74501874885
15256.729545539483
7579.318283607829
4299.47037293141
19622.584459025118
11590.107941420376
14823.092534851494
20643.95939378691
27158.90785116052
33721.01418164383
40165.24255719176
46429.94359088253
52506.14665102262
57934.68040747078
60594.712605297376
57951.394200086106
52540.79782888153
46487.22308387367
40256.09962912783
33866.6920748737
27400.18309661872
21045.84138706979
15598.042726116948
12556.843899004649
20573.196968661192
16622.200795851513
6311.107058299877
10030.50778971257
14677.050312314643
19206.469396773475
23739.83225494936
28197.900173784732
32493.687904483933
36639.17080971197
40570.81310263962
42921.2255859983
40584.64502838114
36668.83862300606
32543.807595648035
28277.468609710533
23865.620764580308
19407.565460606642
15009.301875786843
10523.990258248868
6674.738815883988
16928.77813984638
12693.608250103993
5862.115505771302
6823.428344791273
9098.493584560749
11395.383554790593
13678.424179005728
15917.183163327803
17990.78486789144
20130.55731938731
23229.64044397454
26399.767005536443
23239.581219710948
20153.749726151993
18029.885272808504
15975.76931013375
13763.730244861928
11520.569917403627
9266.980337224066
6956.57731338314
5547.194761248214
12709.223344050233
8964.47503689119
6514.991365095521
6307.816664779731
5861.729841603418
6009.641941753049
6446.948684741095
7123.886987911124
7864.265749054636
8610.825791607851
11039.049993577595
17326.034160619256
11032.115857691162
8599.426474796026
7857.237175198621
7114.471073100455
6423.201384215223
5948.403004625299
5730.025215177129
6041.247057527093
6215.883846719114
9003.561803064538
5830.4551386351495
6244.622481265651
8224.537108064744
9653.750910448107
11601.578622209112
13831.329919841945
16105.83962975177
18473.618794393176
20603.256396290843
20749.484157912226
22523.87698419093
20732.820546145358
20583.187822036696
18444.4933238632
16059.164183101127
13758.893707198678
11489.401040933417
9490.259221505003
8041.8605884492645
6092.744188623044
5883.83971357261
4037.2063170370307
5827.456643820954
10524.217232740537
15017.29214122502
19457.69588270942
23943.006436519772
28395.9625492668
32697.87539569167
36935.41605580409
39130.64037054449
36913.74136539621
39117.71612037398
36920.18856991536
32670.822524264004
28354.829836322788
23886.15273230529
19387.67238208705
14950.638186965714
10492.847996807504
5800.265931258362
4059.200378525476
4132.934178399913
6708.399770831362
13652.547242399145
20804.020911102656
27456.674971002947
33957.0596886904
40380.029299890666
46580.158460356906
51650.3349195478
56710.47552896324
56707.654084686765
56710.741975139565
51643.36320431112
46561.07197629302
40348.89013971604
33915.86430769977
27418.686339931297
20802.86296471802
13725.61230888541
6804.432972279573
4216.195151803072
18222.314920123106
11505.276466812249
14288.882960231975
19865.20971371938
26061.056636783527
32205.819810948185
38316.66264679298
44665.98259471382
51812.91553668748
59401.0161085529
63512.28278798816
59386.0381820415
51780.342866503735
44611.11486940969
38231.927907523
32079.751998644213
25876.53725876782
19604.239541435178
13830.263499633602
10630.192604698606
16737.175569625313
14247.602916123922
6056.163110826523
9940.392328075592
14394.79069857774
18667.345727785527
22911.88129719925
27148.956085335092
31513.757792122375
36433.33553289327
42011.28969484765
45653.93223135552
41993.74416592479
36394.63155447444
31449.950161114168
27055.170709831542
22781.197276378723
18491.977764261035
14162.98391131017
9653.93641969027
6052.559043638242
13525.349493311556
10257.556587459376
5232.707170198979
6872.276367417132
9242.494753518751
11396.430240943613
13502.085314911961
15586.588483015526
17617.262280802923
20265.06721333475
24929.275536992187
29747.609937430596
24917.329758440585
20232.66135606453
17562.084275791964
15510.03079834628
13406.083674867577
11286.262665306973
9144.997700482834
6895.82937105288
5662.553070426899
10076.123427721794
7405.13318451861
6055.622004411654
6100.457412146639
6003.652721931359
6202.477786323517
6551.244698783752
7071.378610597126
7691.801238401148
8751.940347631624
11392.90726556708
22674.030814759848
11393.222089930672
8768.277116170664
7715.7087898469945
7108.016713119283
6610.02494605758
6300.626665876368
6168.3892485311735
6381.356739582889
6268.1465453207675
7234.446873121633
5105.5010141259045
6007.279722825169
7845.47301160867
9143.585458962016
11012.214376678929
13195.080264792645
15515.394298913163
18180.890743568
20949.382672634772
20898.44734806148
25348.569195181743
20934.65670238625
21014.916084567547
18281.61967416732
15653.07684661652
13368.937404883298
11220.27671710232
9369.831121131881
8020.567383236772
6039.919623609859
4916.483833159122
3905.2516651196443
5661.3476954070575
9986.761685895344
14073.847510287813
18250.139029992115
22585.401331151115
27018.576407203436
31543.61865713162
36547.66515821961
39743.838929537975
38983.28850004753
39780.7306197605
36623.0873842683
31657.7161936512
27170.772959483555
22767.617487234907
18442.879423707986
14233.935476972407
10055.615321200776
5627.886436065396
3716.318805757972
4089.7423399931267
6409.807582368177
12839.946943935725
19421.732950945752
25663.200599802687
31894.24908472221
38189.00308907175
44517.13422268181
49992.24548716044
57776.11182146776
61179.9050802664
57821.14371135766
50084.5530601022
44655.12739173018
38370.32674467748
32105.436775529437
25871.023496593247
19565.557171845856
12875.138968111847
6389.052131144206
3964.5463411220453
18243.51742001163
11497.117939387115
14050.707312183196
19464.538655333778
25555.394698068296
31605.630885124127
37684.85108196155
44179.13548483004
51741.82902345505
59923.383465153376
64378.183497708014
59895.37912261911
51681.254902694105
44077.19489218123
37525.704508333016
31361.71307833695
25182.55291843987
18898.36454409977
13133.42717286799
9982.437252614192
15912.384510831545
14042.229701735854
5986.173069899676
9838.954195609444
14193.037541557056
18396.034550119482
22589.18409599355
26827.978009632567
31320.520088292305
36544.41399159722
42521.21894587154
46418.979303999455
42491.32064677585
36478.364059796266
31210.464791229108
26662.552618574733
22349.693509972814
18055.194439783045
13713.503171856853
9248.590247506125
5714.4137734691485
12853.859593448213
9966.085148553313
4920.418564924763
6792.2865796887845
9176.632879287612
11316.10379338571
13404.200933155607
15506.587345249283
17636.901990417806
20498.75534765888
25415.38509304451
30442.486408449866
25395.760775197257
20445.955835139634
17546.20284042197
15378.224281527013
13237.047895588743
11110.753375608485
8971.467029414654
6746.613539064148
5484.327279211534
9434.676949793236
7055.62997616424
5766.313613843958
5953.292352080631
6002.63642391506
6273.839762954522
6663.0057672175135
7235.445302097022
7978.634846600308
9226.04560894518
11096.816776379745
23833.374603761913
11107.42535670802
9257.649643288196
8021.63245802744
7299.232487520926
6766.860334827614
6447.152436043294
6286.4870441127905
6411.904605868155
6116.30971349108
6601.9502509794565
4771.716099896086
5751.919844411647
7573.953720013431
8882.039724554948
10754.103021595147
12945.779380542479
15315.207848364395
18114.178036949514
21123.341711819405
21256.57365946672
25602.585868924365
21309.99846912301
21221.517506893608
18266.04040238689
15528.710944734561
13226.523872802072
11106.698420026849
9284.449460075604
7900.347535564553
5846.474507742548
4344.810930755097
3660.0273314716796
5353.534177404626
9609.379785604116
13648.165063438219
17775.79724765759
22084.804306334958
26553.938850644943
31233.59280974772
36572.62234666716
40099.37661712608
38996.99298817286
40153.67053940207
36682.49546918117
31402.051262931538
26783.94934316566
22368.706676878126
18087.928849689364
13920.65961166696
9736.687734944988
5315.120586714668
3302.3466245092463
3710.9717288157935
5915.251998875765
12294.132448255117
18804.687693368694
24950.599026712116
31109.32438878048
37405.948167971794
43909.82508526533
49786.93237707278
58194.35224771547
61458.332174791314
58255.539597990355
49915.002187389386
44106.13189383695
37670.40871185038
31425.516965999755
25269.823545243562
19029.03922863136
12333.19275702011
5830.395284289322
3421.3661316222688
18222.31492016902
11505.276466851912
14288.882960262006
19865.209713734144
26061.056636796256
32205.819810953508
38316.6626467965
44665.98259471935
51812.915536693734
59401.0161085933
63512.282788014825
59386.03818208541
51780.34286656292
44611.114869420104
38231.92790750303
32079.751998565378
25876.537258734144
19604.239541400686
13830.26349960531
10630.192604669586
16737.175569584822
14247.602916142314
6056.163110842097
9940.392328092823
14394.790698591869
18667.34572779653
22911.881297199125
27148.956085341644
31513.757792130684
36433.33553289771
42011.28969487268
45653.932231372644
41993.74416593648
36394.63155453405
31449.950161128123
27055.17070984077
22781.197276337927
18491.977764234845
14162.983911285377
9653.936419669235
6052.559043620281
13525.349493275908
10257.556587466743
5232.707170195707
6872.276367420583
9242.49475352701
11396.430240941369
13502.085314912107
15586.588483029915
17617.262280808685
20265.067213361985
24929.275536997007
29747.609937427384
24917.3297584366
20232.661356117245
17562.08427580091
15510.030798391097
13406.083674859425
11286.262665286808
9144.997700464031
6895.829371034648
5662.553070408639
10076.123427689963
7405.1331845242075
6055.622004412259
6100.457412143777
6003.652721920848
6202.477786314452
6551.2446988021375
7071.378610602261
7691.801238389471
8751.940347664498
11392.907265563375
22674.03081472407
11393.222089948596
8768.277116206615
7715.708789843615
7108.016713162513
6610.024946060342
6300.626665870006
6168.389248511819
6381.3567395642485
6268.1465453045885
7234.446873094684
5105.501014129172
6007.279722828591
7845.4730116102155
9143.58545895181
11012.214376679805
13195.080264784507
15515.394298916088
18180.89074355687
20949.38267264209
20898.447348045433
25348.569195162658
20934.656702388922
21014.916084576675
18281.619674149748
15653.076846627335
13368.937404831884
11220.276717092245
9369.831121113833
8020.5673832170305
6039.919623595059
4916.483833135041
3905.251665123209
5661.347695413371
9986.761685897209
14073.847510286265
18250.139029988393
22585.401331137495
27018.576407212633
31543.618657117593
36547.665158237316
39743.838929521546
38983.28850003663
39780.73061976389
36623.08738426864
31657.716193619064
27170.77295948428
22767.617487171807
18442.879423680028
14233.935476947014
10055.615321179694
5627.886436053586
3716.3188057428324
4089.7423399982194
6409.807582375462
12839.94694393718
19421.732950956124
25663.200599791737
31894.249084702453
38189.00308908296
44517.13422266497
49992.24548717924
57776.11182145244
61179.905080258315
57821.143711363045
50084.55306011283
44655.12739169576
38370.32674467126
32105.436775458664
25871.02349654309
19565.557171812387
12875.138968090172
6389.05213112829
3964.5463411040955
19622.584459073412
11590.107941497343
14823.092534903424
20643.959393825367
27158.907851196724
33721.01418167762
40165.24255721715
46429.94359083474
52506.14665101663
57934.680407520646
60594.71260533905
57951.39420009958
52540.79782888157
46487.22308384153
40256.09962908351
33866.692074820356
27400.183096567438
21045.84138698855
15598.042726064596
12556.843898950157
20573.19696855911
16622.20079586534
6311.1070583287765
10030.507789748506
14677.050312348318
19206.46939680779
23739.83225497463
28197.900173806236
32493.687904461138
36639.17080972585
40570.81310268486
42921.22558602809
40584.645028412364
36668.83862300352
32543.807595644477
28277.468609676846
23865.620764544332
19407.565460574555
15009.301875723715
10523.990258222142
6674.738815862668
16928.778139762224
12693.608250110432
5862.115505756043
6823.4283448008555
9098.493584584736
11395.383554822994
13678.424179025093
15917.183163343032
17990.78486789706
20130.55731941336
23229.64044404311
26399.767005574206
23239.5812197588
20153.74972613673
18029.885272838535
15975.76931012199
13763.730244849417
11520.569917377454
9266.980337188581
6956.577313373625
5547.194761232104
12709.22334398103
8964.475036899623
6514.99136508355
6307.816664761493
5861.729841605742
6009.64194176143
6446.948684727319
7123.886987912977
7864.265749058861
8610.82579158574
11039.049993634071
17326.034160696414
11032.115857702915
8599.426474793492
7857.237175218664
7114.471073103184
6423.201384214404
5948.403004621877
5730.025215159616
6041.24705751242
6215.883846696588
9003.56180301447
5830.455138640965
6244.622481259208
8224.53710805697
9653.750910432376
11601.57862220127
13831.329919817825
16105.839629740727
18473.618794328
20603.256396259672
20749.484157936495
22523.87698421323
20732.82054616811
20583.18782204911
18444.493323867686
16059.164183078045
13758.893707195082
11489.401040904819
9490.259221458458
8041.8605884251865
6092.744188601873
5883.83971353228
4037.2063170447086
5827.456643822561
10524.217232740877
15017.292141215148
19457.695882707158
23943.0064365228
28395.962549246855
32697.87539562287
36935.41605576749
39130.64037055247
36913.74136541079
39117.71612037401
36920.18856991266
32670.822524256284
28354.829836283174
23886.152732275004
19387.67238202292
14950.63818691162
10492.847996771014
5800.265931236491
4059.200378502156
4132.934178408255
6708.399770839731
13652.547242412837
20804.02091109653
27456.67497100412
33957.05968871882
40380.02929986169
46580.158460289196
51650.33491950353
56710.47552896662
56707.65408474281
56710.74197512655
51643.36320427681
46561.07197627452
40348.89013966002
33915.86430763217
27418.68633984065
20802.8629646499
13725.612308832093
6804.432972249199
4216.195151778264
30097.83873555561
13804.753879099024
14930.065027697383
20663.90902317913
27569.695172358046
34538.35799803051
41403.0210914988
47923.903273174685
53457.1530791992
56897.17250417024
57798.541108119694
56941.18013079035
53550.77511413129
48082.938999925915
41655.41960095254
34926.22772755791
28146.88674636068
21510.311041492718
16178.50202425433
16253.204419571251
32523.287191325744
25551.819884043874
8037.752425228569
10633.17901174379
15231.006224539564
19849.888586782203
24527.135855252403
29176.35443996134
33653.59768229822
37524.59298643536
39919.1658702112
40367.36569891285
39959.3974271177
37610.203930036594
33797.96557087457
29400.884294080966
24860.61756576721
20324.988979438564
15870.469230986711
11368.224000104286
8497.323898643925
26578.975120480663
18837.509191001027
9946.508856607079
9803.389597670752
11557.31477055431
13426.306418538521
15430.76357093134
17573.278630576075
19859.50736437604
22028.828113544605
23141.176025867935
22740.80995014509
23168.25025683547
22082.77465435382
19947.20965244544
17703.819289902734
15609.384467115597
13640.411274737078
11724.597029014521
9726.29915947381
9318.098353141908
19330.556262009173
12856.232599516476
10932.510872729423
11425.201951443438
10789.252768887245
10499.954125830967
10260.108066740753
10404.45009772292
11279.128908256062
13134.824267588354
14602.045211783094
13820.835723621934
14582.314145196622
13105.809048794668
11218.394288817784
10286.249523406603
10059.478957928
10198.057969118203
10356.271462256072
10876.866308439676
10596.300028629386
13172.629365430135
7994.588107031618
9847.07985718445
12449.18588257798
13270.68778450958
14571.534830232971
16246.093585742065
18032.051368076973
19640.39942966283
21183.331304716245
23843.234904532947
27092.038663457974
23792.70599955396
21079.576423482307
19467.76536413385
17780.30771116408
15900.190188156852
14120.376593625238
12747.115082192347
12029.179233975661
9714.594534790393
8162.519496675444
4865.037864945792
7764.089330546419
13009.402775111746
17263.12665727942
21365.643207115667
25566.965392040285
29745.153386552065
33701.78655938376
36755.05300356792
39695.711122354594
46722.06583810573
39649.12152246681
36656.72425473798
33538.113684077885
29509.168138446075
25255.790844547293
21000.529378182888
16922.13493715224
12820.742492073536
7733.367779126199
4915.3438504182395
4199.685298616993
7481.352939340279
15255.199063834552
22662.193264093672
29250.72741738114
35663.612562875634
41992.05970814936
47990.585528052565
53778.48851788193
56983.33762922832
62204.08809547982
56951.23527201287
53680.778305483895
47827.45804452997
41759.493004701035
35370.14224524847
28944.64949024906
22455.74501865219
15256.729545472794
7579.318283572197
4299.470372911714
SCALARS Statev float 1
LOOKUP_TABLE default
0.0
0.0
0.0
0.0
0.0
0.0
0.0
0.0
0.0
0.0
0.0
0.0
0.0
0.0
0.0
0.0
0.0
0.0
0.0
0.0
0.0
0.0
0.0
0.0
0.0
0.0
0.0
0.0
0.0
0.0
0.0
0.0
0.0
0.0
0.0
0.0
0.0
0.0
0.0
0.0
0.0
0.0
0.0
0.0
0.0
0.0
0.0
0.0
0.0
0.0
0.0
0.0
0.0
0.0
0.0
0.0
0.0
0.0
0.0
0.0
0.0
0.0
0.0
0.0
0.0
0.0
0.0
0.0
0.0
0.0
0.0
0.0
0.0
0.0
0.0
0.0
0.0
0.0
0.0
0.0
0.0
0.0
0.0
0.0
0.0
0.0
0.0
0.0
0.0
0.0
0.0
0.0
0.0
0.0
0.0
0.0
0.0
0.0
0.0
0.0
0.0
0.0
0.0
0.0
0.0
0.0
0.0
0.0
0.0
0.0
0.0
0.0
0.0
0.0
0.0
0.0
0.0
0.0
0.0
0.0
0.0
0.0
0.0
0.0
0.0
0.0
0.0
0.0
0.0
0.0
0.0
0.0
0.0
0.0
0.0
0.0
0.0
0.0
0.0
0.0
0.0
0.0
0.0
0.0
0.0
0.0
0.0
0.0
0.0
0.0
0.0
0.0
0.0
0.0
0.0
0.0
0.0
0.0
0.0
0.0
0.0
0.0
0.0
0.0
0.0
0.0
0.0
0.0
0.0
0.0
0.0
0.0
0.0
0.0
0.0
0.0
0.0
0.0
0.0
0.0
0.0
0.0
0.0
0.0
0.0
0.0
0.0
0.0
0.0
0.0
0.0
0.0
0.0
0.0
0.0
0.0
0.0
0.0
0.0
0.0
0.0
0.0
0.0
0.0
0.0
0.0
0.0
0.0
0.0
0.0
0.0
0.0
0.0
0.0
0.0
0.0
0.0
0.0
0.0
0.0
0.0
0.0
0.0
0.0
0.0
0.0
0.0
0.0
0.0
0.0
0.0
0.0
0.0
0.0
0.0
0.0
0.0
0.0
0.0
0.0
0.0
0.0
0.0
0.0
0.0
0.0
0.0
0.0
0.0
0.0
0.0
0.0
0.0
0.0
0.0
0.0
0.0
0.0
0.0
0.0
0.0
0.0
0.0
0.0
0.0
0.0
0.0
0.0
0.0
0.0
0.0
0.0
0.0
0.0
0.0
0.0
0.0
0.0
0.0
0.0
0.0
0.0
0.0
0.0
0.0
0.0
0.0
0.0
0.0
0.0
0.0
0.0
0.0
0.0
0.0
0.0
0.0
0.0
0.0
0.0
0.0
0.0
0.0
0.0
0.0
0.0
0.0
0.0
0.0
0.0
0.0
0.0
0.0
0.0
0.0
0.0
0.0
0.0
0.0
0.0
0.0
0.0
0.0
0.0
0.0
0.0
0.0
0.0
0.0
0.0
0.0
0.0
0.0
0.0
0.0
0.0
0.0
0.0
0.0
0.0
0.0
0.0
0.0
0.0
0.0
0.0
0.0
0.0
0.0
0.0
0.0
0.0
0.0
0.0
0.0
0.0
0.0
0.0
0.0
0.0
0.0
0.0
0.0
0.0
0.0
0.0
0.0
0.0
0.0
0.0
0.0
0.0
0.0
0.0
0.0
0.0
0.0
0.0
0.0
0.0
0.0
0.0
0.0
0.0
0.0
0.0
0.0
0.0
0.0
0.0
0.0
0.0
0.0
0.0
0.0
0.0
0.0
0.0
0.0
0.0
0.0
0.0
0.0
0.0
0.0
0.0
0.0
0.0
0.0
0.0
0.0
0.0
0.0
0.0
0.0
0.0
0.0
0.0
0.0
0.0
0.0
0.0
0.0
0.0
0.0
0.0
0.0
0.0
0.0
0.0
0.0
0.0
0.0
0.0
0.0
0.0
0.0
0.0
0.0
0.0
0.0
0.0
0.0
0.0
0.0
0.0
0.0
0.0
0.0
0.0
0.0
0.0
0.0
0.0
0.0
0.0
0.0
0.0
0.0
0.0
0.0
0.0
0.0
0.0
0.0
0.0
0.0
0.0
0.0
0.0
0.0
0.0
0.0
0.0
0.0
0.0
0.0
0.0
0.0
0.0
0.0
0.0
0.0
0.0
0.0
0.0
0.0
0.0
0.0
0.0
0.0
0.0
0.0
0.0
0.0
0.0
0.0
0.0
0.0
0.0
0.0
0.0
0.0
0.0
0.0
0.0
0.0
0.0
0.0
0.0
0.0
0.0
0.0
0.0
0.0
0.0
0.0
0.0
0.0
0.0
0.0
0.0
0.0
0.0
0.0
0.0
0.0
0.0
0.0
0.0
0.0
0.0
0.0
0.0
0.0
0.0
0.0
0.0
0.0
0.0
0.0
0.0
0.0
0.0
0.0
0.0
0.0
0.0
0.0
0.0
0.0
0.0
0.0
0.0
0.0
0.0
0.0
0.0
0.0
0.0
0.0
0.0
0.0
0.0
0.0
0.0
0.0
0.0
0.0
0.0
0.0
0.0
0.0
0.0
0.0
0.0
0.0
0.0
0.0
0.0
0.0
0.0
0.0
0.0
0.0
0.0
0.0
0.0
0.0
0.0
0.0
0.0
0.0
0.0
0.0
0.0
0.0
0.0
0.0
0.0
0.0
0.0
0.0
0.0
0.0
0.0
0.0
0.0
0.0
0.0
0.0
0.0
0.0
0.0
0.0
0.0
0.0
0.0
0.0
0.0
0.0
0.0
0.0
0.0
0.0
0.0
0.0
0.0
0.0
0.0
0.0
0.0
0.0
0.0
0.0
0.0
0.0
0.0
0.0
0.0
0.0
0.0
0.0
0.0
0.0
0.0
0.0
0.0
0.0
0.0
0.0
0.0
0.0
0.0
0.0
0.0
0.0
0.0
0.0
0.0
0.0
0.0
0.0
0.0
0.0
0.0
0.0
0.0
0.0
0.0
0.0
0.0
0.0
0.0
0.0
0.0
0.0
0.0
0.0
0.0
0.0
0.0
0.0
0.0
0.0
0.0
0.0
0.0
0.0
0.0
0.0
0.0
0.0
0.0
0.0
0.0
0.0
0.0
0.0
0.0
0.0
0.0
0.0
0.0
0.0
0.0
0.0
0.0
0.0
0.0
0.0
0.0
0.0
0.0
0.0
0.0
0.0
0.0
0.0
0.0
0.0
0.0
0.0
0.0
0.0
0.0
0.0
0.0
0.0
0.0
0.0
0.0
0.0
0.0
0.0
0.0
0.0
0.0
0.0
0.0
0.0
0.0
0.0
0.0
0.0
0.0
0.0
0.0
0.0
0.0
0.0
0.0
0.0
0.0
0.0
0.0
0.0
0.0
0.0
0.0
0.0
0.0
0.0
0.0
0.0
0.0
0.0
0.0
0.0
0.0
0.0
0.0
0.0
0.0
0.0
0.0
0.0
0.0
0.0
0.0
0.0
0.0
0.0
0.0
0.0
0.0
0.0
0.0
0.0
0.0
0.0
0.0
0.0
0.0
0.0
0.0
0.0
0.0
0.0
0.0
0.0
0.0
0.0
0.0
0.0
0.0
0.0
0.0
0.0
0.0
0.0
0.0
0.0
0.0
0.0
0.0
0.0
0.0
0.0
0.0
0.0
0.0
0.0
0.0
0.0
0.0
0.0
0.0
0.0
0.0
0.0
0.0
0.0
0.0
0.0
0.0
0.0
0.0
0.0
0.0
0.0
0.0
0.0
0.0
0.0
0.0
0.0
0.0
0.0
0.0
0.0
0.0
0.0
0.0
0.0
0.0
0.0
0.0
0.0
0.0
0.0
0.0
0.0
0.0
0.0
0.0
0.0
0.0
0.0
0.0
0.0
0.0
0.0
0.0
0.0
0.0
0.0
0.0
0.0
0.0
0.0
0.0
0.0
0.0
0.0
0.0
0.0
0.0
0.0
0.0
0.0
0.0
0.0
0.0
0.0
0.0
0.0
0.0
0.0
0.0
0.0
0.0
0.0
0.0
0.0
0.0
0.0
0.0
0.0
0.0
0.0
0.0
0.0
0.0
0.0
0.0
0.0
0.0
0.0
0.0
0.0
0.0
0.0
0.0
0.0
0.0
0.0
0.0
0.0
0.0
0.0
0.0
0.0
0.0
0.0
0.0
0.0
0.0
0.0
0.0
0.0
0.0
0.0
0.0
0.0
0.0
0.0
0.0
0.0
0.0
0.0
0.0
0.0
0.0
0.0
0.0
0.0
0.0
0.0
0.0
0.0
0.0
0.0
0.0
0.0
0.0
0.0
0.0
0.0
0.0
0.0
0.0
0.0
0.0
0.0
0.0
0.0
0.0
0.0
0.0
0.0
0.0
0.0
0.0
0.0
0.0
0.0
0.0
0.0
0.0
0.0
0.0
0.0
0.0
0.0
0.0
0.0
0.0
0.0
0.0
0.0
0.0
0.0
0.0
0.0
0.0
0.0
0.0
0.0
0.0
0.0
0.0
0.0
0.0
0.0
0.0
0.0
0.0
0.0
0.0
0.0
0.0
0.0
0.0
0.0
0.0
0.0
0.0
0.0
SCALARS Wm float 4
LOOKUP_TABLE default
5200.579236071244 5200.579236071244 0.0 0.0
941.0537973539658 941.0537973539658 0.0 0.0
1121.1740460912301 1121.1740460912301 0.0 0.0
2347.18783550799 2347.18783550799 0.0 0.0
4140.537331392154 4140.537331392154 0.0 0.0
6525.509268102974 6525.509268102974 0.0 0.0
9396.422888638312 9396.422888638312 0.0 0.0
12608.211532071242 12608.211532071242 0.0 0.0
15697.054537982154 15697.054537982154 0.0 0.0
17831.64244723389 17831.64244723389 0.0 0.0
18518.362968594905 18518.362968594905 0.0 0.0
17858.618005897177 17858.618005897177 0.0 0.0
15750.989010040215 15750.989010040215 0.0 0.0
12690.476263832032 12690.476263832032 0.0 0.0
9509.414377785057 9509.414377785057 0.0 0.0
6670.142910351202 6670.142910351202 0.0 0.0
4312.776834923433 4312.776834923433 0.0 0.0
2535.931456485521 2535.931456485521 0.0 0.0
1333.186243785878 1333.186243785878 0.0 0.0
1485.5874474804348 1485.5874474804348 0.0 0.0
4982.418504101202 4982.418504101202 0.0 0.0
3860.7686726389293 3860.7686726389293 0.0 0.0
116.82007524389284 116.82007524389284 0.0 0.0
521.2046784959838 521.2046784959838 0.0 0.0
1114.0984808540547 1114.0984808540547 0.0 0.0
1912.37562320671 1912.37562320671 0.0 0.0
2949.4201830681545 2949.4201830681545 0.0 0.0
4203.871924235873 4203.871924235873 0.0 0.0
5618.710861001395 5618.710861001395 0.0 0.0
7007.700976608468 7007.700976608468 0.0 0.0
7993.851675647519 7993.851675647519 0.0 0.0
8314.647556643344 8314.647556643344 0.0 0.0
8011.3460472383595 8011.3460472383595 0.0 0.0
7042.555065908688 7042.555065908688 0.0 0.0
5671.3061882462 5671.3061882462 0.0 0.0
4274.53250701608 4274.53250701608 0.0 0.0
3037.2677004931907 3037.2677004931907 0.0 0.0
2012.8534201891932 2012.8534201891932 0.0 0.0
1219.4827780174223 1219.4827780174223 0.0 0.0
596.0076247768989 596.0076247768989 0.0 0.0
134.90925579748514 134.90925579748514 0.0 0.0
4055.092010118763 4055.092010118763 0.0 0.0
2147.767335261589 2147.767335261589 0.0 0.0
318.96246560220453 318.96246560220453 0.0 0.0
447.9061819548575 447.9061819548575 0.0 0.0
583.0363878580957 583.0363878580957 0.0 0.0
806.5898622683786 806.5898622683786 0.0 0.0
1065.1314922392773 1065.1314922392773 0.0 0.0
1382.3273380311048 1382.3273380311048 0.0 0.0
1774.5843964260323 1774.5843964260323 0.0 0.0
2201.226363599091 2201.226363599091 0.0 0.0
2485.2098402561032 2485.2098402561032 0.0 0.0
2565.5888216879766 2565.5888216879766 0.0 0.0
2492.393044841602 2492.393044841602 0.0 0.0
2214.8897129928655 2214.8897129928655 0.0 0.0
1794.3384383279047 1794.3384383279047 0.0 0.0
1407.451379505007 1407.451379505007 0.0 0.0
1093.8219313896914 1093.8219313896914 0.0 0.0
835.3847265181872 835.3847265181872 0.0 0.0
599.9627078266104 599.9627078266104 0.0 0.0
435.7828372571715 435.7828372571715 0.0 0.0
269.92043961096954 269.92043961096954 0.0 0.0
2241.021786713946 2241.021786713946 0.0 0.0
990.7045043793489 990.7045043793489 0.0 0.0
462.76207901630045 462.76207901630045 0.0 0.0
576.8956644690815 576.8956644690815 0.0 0.0
528.1714652315095 528.1714652315095 0.0 0.0
521.3304079853801 521.3304079853801 0.0 0.0
513.5756115351545 513.5756115351545 0.0 0.0
504.4846112863097 504.4846112863097 0.0 0.0
521.6156395133982 521.6156395133982 0.0 0.0
602.9128417111073 602.9128417111073 0.0 0.0
692.6965483713691 692.6965483713691 0.0 0.0
751.4910120807671 751.4910120807671 0.0 0.0
690.1563828189459 690.1563828189459 0.0 0.0
596.8312115857109 596.8312115857109 0.0 0.0
511.5198846120908 511.5198846120908 0.0 0.0
489.6077262321649 489.6077262321649 0.0 0.0
492.85347492738026 492.85347492738026 0.0 0.0
492.56381507315024 492.56381507315024 0.0 0.0
487.49814871629104 487.49814871629104 0.0 0.0
530.3762610598401 530.3762610598401 0.0 0.0
424.40032613393674 424.40032613393674 0.0 0.0
1042.781817760739 1042.781817760739 0.0 0.0
376.06878959279226 376.06878959279226 0.0 0.0
425.56091580811034 425.56091580811034 0.0 0.0
681.6969620669013 681.6969620669013 0.0 0.0
802.8484574305376 802.8484574305376 0.0 0.0
968.04998417996 968.04998417996 0.0 0.0
1196.9740638307007 1196.9740638307007 0.0 0.0
1467.9547019542413 1467.9547019542413 0.0 0.0
1731.856359812876 1731.856359812876 0.0 0.0
2028.4016340784462 2028.4016340784462 0.0 0.0
2493.5769582984294 2493.5769582984294 0.0 0.0
2791.32139622209 2791.32139622209 0.0 0.0
2482.1786852590917 2482.1786852590917 0.0 0.0
2004.9963532138972 2004.9963532138972 0.0 0.0
1696.4667684220829 1696.4667684220829 0.0 0.0
1421.1287718780873 1421.1287718780873 0.0 0.0
1140.2211280662032 1140.2211280662032 0.0 0.0
904.3029329435863 904.3029329435863 0.0 0.0
739.9636444469164 739.9636444469164 0.0 0.0
637.5092678236342 637.5092678236342 0.0 0.0
406.5824886197697 406.5824886197697 0.0 0.0
395.6589914084946 395.6589914084946 0.0 0.0
131.21921261537895 131.21921261537895 0.0 0.0
324.75921078831794 324.75921078831794 0.0 0.0
806.9146815731408 806.9146815731408 0.0 0.0
1444.1235285837527 1444.1235285837527 0.0 0.0
2237.5668300751827 2237.5668300751827 0.0 0.0
3221.2958891497638 3221.2958891497638 0.0 0.0
4372.862980056238 4372.862980056238 0.0 0.0
5628.4890271054865 5628.4890271054865 0.0 0.0
6596.868835505668 6596.868835505668 0.0 0.0
8045.798080196511 8045.798080196511 0.0 0.0
8752.32765672289 8752.32765672289 0.0 0.0
8025.591073988821 8025.591073988821 0.0 0.0
6557.278622560815 6557.278622560815 0.0 0.0
5569.27037268195 5569.27037268195 0.0 0.0
4298.358152044707 4298.358152044707 0.0 0.0
3138.024845174996 3138.024845174996 0.0 0.0
2157.3222312314974 2157.3222312314974 0.0 0.0
1384.036517125568 1384.036517125568 0.0 0.0
779.1759917963805 779.1759917963805 0.0 0.0
317.5225654760309 317.5225654760309 0.0 0.0
136.07575393949594 136.07575393949594 0.0 0.0
80.62779747977046 80.62779747977046 0.0 0.0
350.5483338562222 350.5483338562222 0.0 0.0
1272.7094393026155 1272.7094393026155 0.0 0.0
2780.9497995406236 2780.9497995406236 0.0 0.0
4658.836936453701 4658.836936453701 0.0 0.0
6946.909191873369 6946.909191873369 0.0 0.0
9638.782497872826 9638.782497872826 0.0 0.0
12650.304592403183 12650.304592403183 0.0 0.0
15725.989407516963 15725.989407516963 0.0 0.0
18668.812095129222 18668.812095129222 0.0 0.0
16051.908154671055 16051.908154671055 0.0 0.0
18642.75199284212 18642.75199284212 0.0 0.0
15664.257209556767 15664.257209556767 0.0 0.0
12559.765760333683 12559.765760333683 0.0 0.0
9528.16810635786 9528.16810635786 0.0 0.0
6830.749208039529 6830.749208039529 0.0 0.0
4561.619777618958 4561.619777618958 0.0 0.0
2729.966389968015 2729.966389968015 0.0 0.0
1267.9884865673407 1267.9884865673407 0.0 0.0
356.92830939146984 356.92830939146984 0.0 0.0
85.39323451966557 85.39323451966557 0.0 0.0
1935.6681273956349 1935.6681273956349 0.0 0.0
798.6575705880521 798.6575705880521 0.0 0.0
1186.2675290353961 1186.2675290353961 0.0 0.0
2390.138345471875 2390.138345471875 0.0 0.0
4097.89873388885 4097.89873388885 0.0 0.0
6326.161993061664 6326.161993061664 0.0 0.0
8996.63818330395 8996.63818330395 0.0 0.0
12081.49051651113 12081.49051651113 0.0 0.0
15550.800396034336 15550.800396034336 0.0 0.0
18962.739447394633 18962.739447394633 0.0 0.0
20600.841279598608 20600.841279598608 0.0 0.0
18972.146904980375 18972.146904980375 0.0 0.0
15568.368073445461 15568.368073445461 0.0 0.0
12106.966965732925 12106.966965732925 0.0 0.0
9031.444787226292 9031.444787226292 0.0 0.0
6372.923081651968 6372.923081651968 0.0 0.0
4160.479840959865 4160.479840959865 0.0 0.0
2469.578239774082 2469.578239774082 0.0 0.0
1298.6772424650842 1298.6772424650842 0.0 0.0
953.9994656119234 953.9994656119234 0.0 0.0
1886.5648029412528 1886.5648029412528 0.0 0.0
1552.2414148191438 1552.2414148191438 0.0 0.0
135.05527918942676 135.05527918942676 0.0 0.0
500.59583607556067 500.59583607556067 0.0 0.0
1089.434418743958 1089.434418743958 0.0 0.0
1865.2548871686654 1865.2548871686654 0.0 0.0
2860.993776638698 2860.993776638698 0.0 0.0
4053.9220006533424 4053.9220006533424 0.0 0.0
5412.147690494838 5412.147690494838 0.0 0.0
6912.893139693243 6912.893139693243 0.0 0.0
8418.494986491849 8418.494986491849 0.0 0.0
9215.062671822863 9215.062671822863 0.0 0.0
8424.57202846134 8424.57202846134 0.0 0.0
6924.50396483205 6924.50396483205 0.0 0.0
5429.133916261087 5429.133916261087 0.0 0.0
4076.749150817433 4076.749150817433 0.0 0.0
2890.7419313610544 2890.7419313610544 0.0 0.0
1903.0177231465711 1903.0177231465711 0.0 0.0
1137.6535860485462 1137.6535860485462 0.0 0.0
548.0116469225176 548.0116469225176 0.0 0.0
155.25946257569296 155.25946257569296 0.0 0.0
1561.8542240920692 1561.8542240920692 0.0 0.0
932.6332510398995 932.6332510398995 0.0 0.0
109.67601483875892 109.67601483875892 0.0 0.0
214.18361181020825 214.18361181020825 0.0 0.0
361.2676782395353 361.2676782395353 0.0 0.0
580.0512055788066 580.0512055788066 0.0 0.0
840.5344451289701 840.5344451289701 0.0 0.0
1147.2334278398423 1147.2334278398423 0.0 0.0
1478.348131871864 1478.348131871864 0.0 0.0
1869.3039860831157 1869.3039860831157 0.0 0.0
2464.918006037711 2464.918006037711 0.0 0.0
2999.2461630867847 2999.2461630867847 0.0 0.0
2467.7867646107047 2467.7867646107047 0.0 0.0
1874.9505394229038 1874.9505394229038 0.0 0.0
1486.574702218533 1486.574702218533 0.0 0.0
1157.773370766595 1157.773370766595 0.0 0.0
853.1085537966532 853.1085537966532 0.0 0.0
594.6222996596313 594.6222996596313 0.0 0.0
376.0018707211574 376.0018707211574 0.0 0.0
218.45782420943226 218.45782420943226 0.0 0.0
96.01549296476867 96.01549296476867 0.0 0.0
924.6354588137102 924.6354588137102 0.0 0.0
463.7390022589144 463.7390022589144 0.0 0.0
152.97617926615627 152.97617926615627 0.0 0.0
187.14051207469421 187.14051207469421 0.0 0.0
161.45957069753004 161.45957069753004 0.0 0.0
167.81306546472362 167.81306546472362 0.0 0.0
183.06897566913358 183.06897566913358 0.0 0.0
203.41284158364576 203.41284158364576 0.0 0.0
215.79661878823484 215.79661878823484 0.0 0.0
227.6626367931401 227.6626367931401 0.0 0.0
413.8801290293332 413.8801290293332 0.0 0.0
1012.435912027395 1012.435912027395 0.0 0.0
413.2742417768969 413.2742417768969 0.0 0.0
227.33797595537575 227.33797595537575 0.0 0.0
215.67756282783222 215.67756282783222 0.0 0.0
202.91790181687898 202.91790181687898 0.0 0.0
181.49249481339405 181.49249481339405 0.0 0.0
164.24008495157815 164.24008495157815 0.0 0.0
154.00409254990845 154.00409254990845 0.0 0.0
174.33404385000736 174.33404385000736 0.0 0.0
136.26373706338563 136.26373706338563 0.0 0.0
466.8309637385444 466.8309637385444 0.0 0.0
192.1339207114731 192.1339207114731 0.0 0.0
164.35558595130883 164.35558595130883 0.0 0.0
293.51528409838966 293.51528409838966 0.0 0.0
413.75838388329925 413.75838388329925 0.0 0.0
599.6170765113192 599.6170765113192 0.0 0.0
858.2920158169902 858.2920158169902 0.0 0.0
1173.4221198575412 1173.4221198575412 0.0 0.0
1563.0913420833394 1563.0913420833394 0.0 0.0
1931.958016240957 1931.958016240957 0.0 0.0
2038.8815641696867 2038.8815641696867 0.0 0.0
3088.9660318605816 3088.9660318605816 0.0 0.0
2034.6280578805347 2034.6280578805347 0.0 0.0
1926.0445799052115 1926.0445799052115 0.0 0.0
1555.4562343687985 1555.4562343687985 0.0 0.0
1163.822488392076 1163.822488392076 0.0 0.0
846.6523604432371 846.6523604432371 0.0 0.0
585.9042736602817 585.9042736602817 0.0 0.0
398.92766776440544 398.92766776440544 0.0 0.0
280.88327295663095 280.88327295663095 0.0 0.0
154.58184208637957 154.58184208637957 0.0 0.0
196.24460212650104 196.24460212650104 0.0 0.0
84.63131962633459 84.63131962633459 0.0 0.0
178.97949759645303 178.97949759645303 0.0 0.0
538.2935008729822 538.2935008729822 0.0 0.0
1121.0646355296597 1121.0646355296597 0.0 0.0
1907.7964010379746 1907.7964010379746 0.0 0.0
2906.3567597945244 2906.3567597945244 0.0 0.0
4104.799925390603 4104.799925390603 0.0 0.0
5453.230095476553 5453.230095476553 0.0 0.0
7088.774254760385 7088.774254760385 0.0 0.0
7528.384132239847 7528.384132239847 0.0 0.0
9712.737415521573 9712.737415521573 0.0 0.0
7520.946074085583 7520.946074085583 0.0 0.0
7078.228210110256 7078.228210110256 0.0 0.0
5438.724420762553 5438.724420762553 0.0 0.0
4087.3730253898348 4087.3730253898348 0.0 0.0
2887.9292149864064 2887.9292149864064 0.0 0.0
1891.0897892912812 1891.0897892912812 0.0 0.0
1109.675277636325 1109.675277636325 0.0 0.0
533.9326837347464 533.9326837347464 0.0 0.0
176.65350240908464 176.65350240908464 0.0 0.0
86.35309420199088 86.35309420199088 0.0 0.0
78.58319196957999 78.58319196957999 0.0 0.0
277.5401618535159 277.5401618535159 0.0 0.0
1046.9335831359206 1046.9335831359206 0.0 0.0
2394.1966171229537 2394.1966171229537 0.0 0.0
4177.712740961633 4177.712740961633 0.0 0.0
6402.909647804477 6402.909647804477 0.0 0.0
9084.825849358498 9084.825849358498 0.0 0.0
12074.663818554236 12074.663818554236 0.0 0.0
15067.109427552134 15067.109427552134 0.0 0.0
17096.56928685456 17096.56928685456 0.0 0.0
25651.696923922635 25651.696923922635 0.0 0.0
17091.252478421666 17091.252478421666 0.0 0.0
15053.234133212936 15053.234133212936 0.0 0.0
12053.477905175676 12053.477905175676 0.0 0.0
9059.422217471798 9059.422217471798 0.0 0.0
6377.694218600766 6377.694218600766 0.0 0.0
4159.294009365548 4159.294009365548 0.0 0.0
2389.5656376703364 2389.5656376703364 0.0 0.0
1054.6014281331275 1054.6014281331275 0.0 0.0
284.3345498550221 284.3345498550221 0.0 0.0
81.96669248397578 81.96669248397578 0.0 0.0
1372.656572622639 1372.656572622639 0.0 0.0
892.5261223400717 892.5261223400717 0.0 0.0
1137.2251512247628 1137.2251512247628 0.0 0.0
2249.6582732940137 2249.6582732940137 0.0 0.0
3840.2542222500024 3840.2542222500024 0.0 0.0
5891.707148580577 5891.707148580577 0.0 0.0
8404.41077794021 8404.41077794021 0.0 0.0
11560.006360793086 11560.006360793086 0.0 0.0
15753.499961852884 15753.499961852884 0.0 0.0
20692.57864028707 20692.57864028707 0.0 0.0
23315.880508976832 23315.880508976832 0.0 0.0
20681.140785325035 20681.140785325035 0.0 0.0
15731.3987839453 15731.3987839453 0.0 0.0
11527.445515155776 11527.445515155776 0.0 0.0
8360.686225719866 8360.686225719866 0.0 0.0
5836.389500695401 5836.389500695401 0.0 0.0
3774.0960560851718 3774.0960560851718 0.0 0.0
2177.085791626349 2177.085791626349 0.0 0.0
1049.8098735696112 1049.8098735696112 0.0 0.0
695.8139953113533 695.8139953113533 0.0 0.0
1354.5355322835967 1354.5355322835967 0.0 0.0
1161.4695220808896 1161.4695220808896 0.0 0.0
150.35534138577364 150.35534138577364 0.0 0.0
501.5479698560026 501.5479698560026 0.0 0.0
1064.3395859660595 1064.3395859660595 0.0 0.0
1787.3369919588995 1787.3369919588995 0.0 0.0
2708.8808678573846 2708.8808678573846 0.0 0.0
3833.2908860112593 3833.2908860112593 0.0 0.0
5218.285934357326 5218.285934357326 0.0 0.0
7024.377648612458 7024.377648612458 0.0 0.0
9199.992740458025 9199.992740458025 0.0 0.0
10482.362852349783 10482.362852349783 0.0 0.0
9192.14430029556 9192.14430029556 0.0 0.0
7009.065509753485 7009.065509753485 0.0 0.0
5196.033526406426 5196.033526406426 0.0 0.0
3804.4569748603967 3804.4569748603967 0.0 0.0
2673.994575919078 2673.994575919078 0.0 0.0
1748.0439666880895 1748.0439666880895 0.0 0.0
1021.9387176195953 1021.9387176195953 0.0 0.0
466.8061865675724 466.8061865675724 0.0 0.0
140.60090846120244 140.60090846120244 0.0 0.0
1123.5746407217905 1123.5746407217905 0.0 0.0
645.051232743333 645.051232743333 0.0 0.0
104.38866992859113 104.38866992859113 0.0 0.0
216.39453715985252 216.39453715985252 0.0 0.0
382.414783650536 382.414783650536 0.0 0.0
592.5501654366577 592.5501654366577 0.0 0.0
834.5171132637718 834.5171132637718 0.0 0.0
1117.6314058419637 1117.6314058419637 0.0 0.0
1437.8122136728407 1437.8122136728407 0.0 0.0
1924.3413403357135 1924.3413403357135 0.0 0.0
2849.1044347772618 2849.1044347772618 0.0 0.0
3751.917917634462 3751.917917634462 0.0 0.0
2846.010424847723 2846.010424847723 0.0 0.0
1917.81876881922 1917.81876881922 0.0 0.0
1428.2019845374277 1428.2019845374277 0.0 0.0
1105.583070709697 1105.583070709697 0.0 0.0
821.0551008013699 821.0551008013699 0.0 0.0
578.9059870341695 578.9059870341695 0.0 0.0
372.1036080970127 372.1036080970127 0.0 0.0
218.59473220965722 218.59473220965722 0.0 0.0
117.83515113141887 117.83515113141887 0.0 0.0
647.9777779391811 647.9777779391811 0.0 0.0
328.096126787572 328.096126787572 0.0 0.0
140.24555177846895 140.24555177846895 0.0 0.0
180.1545831257927 180.1545831257927 0.0 0.0
172.28501475945743 172.28501475945743 0.0 0.0
185.53039125632026 185.53039125632026 0.0 0.0
200.8175461967647 200.8175461967647 0.0 0.0
219.73291773183013 219.73291773183013 0.0 0.0
228.49530830572286 228.49530830572286 0.0 0.0
267.4428109578519 267.4428109578519 0.0 0.0
605.260692652032 605.260692652032 0.0 0.0
1707.3011985580815 1707.3011985580815 0.0 0.0
607.1412409128942 607.1412409128942 0.0 0.0
270.06686744719065 270.06686744719065 0.0 0.0
231.76814412474397 231.76814412474397 0.0 0.0
223.85140380738488 223.85140380738488 0.0 0.0
206.244108193448 206.244108193448 0.0 0.0
193.092343334263 193.092343334263 0.0 0.0
183.72812588105583 183.72812588105583 0.0 0.0
194.88407076356145 194.88407076356145 0.0 0.0
151.6007103640009 151.6007103640009 0.0 0.0
322.1943677710891 322.1943677710891 0.0 0.0
145.17155829392638 145.17155829392638 0.0 0.0
153.82963044509611 153.82963044509611 0.0 0.0
272.49903422335206 272.49903422335206 0.0 0.0
376.5213483120637 376.5213483120637 0.0 0.0
545.4778302072917 545.4778302072917 0.0 0.0
787.7418905076281 787.7418905076281 0.0 0.0
1098.5737488146622 1098.5737488146622 0.0 0.0
1528.9951588892689 1528.9951588892689 0.0 0.0
1989.8554669952218 1989.8554669952218 0.0 0.0
2142.4549078688433 2142.4549078688433 0.0 0.0
4263.33176577337 4263.33176577337 0.0 0.0
2149.2558086187196 2149.2558086187196 0.0 0.0
2001.6410661141474 2001.6410661141474 0.0 0.0
1544.967485885262 1544.967485885262 0.0 0.0
1117.58108438303 1117.58108438303 0.0 0.0
808.7253336139298 808.7253336139298 0.0 0.0
567.1280018376773 567.1280018376773 0.0 0.0
396.47700983094023 396.47700983094023 0.0 0.0
285.7270415156592 285.7270415156592 0.0 0.0
157.91518176208075 157.91518176208075 0.0 0.0
137.99883405863375 137.99883405863375 0.0 0.0
74.76059531673708 74.76059531673708 0.0 0.0
167.17038555692426 167.17038555692426 0.0 0.0
486.20770807665775 486.20770807665775 0.0 0.0
994.1892358948264 994.1892358948264 0.0 0.0
1699.4956266028905 1699.4956266028905 0.0 0.0
2626.1346938124157 2626.1346938124157 0.0 0.0
3785.411782951893 3785.411782951893 0.0 0.0
5182.481685475825 5182.481685475825 0.0 0.0
7142.319910891201 7142.319910891201 0.0 0.0
7710.199404495694 7710.199404495694 0.0 0.0
12407.06603581764 12407.06603581764 0.0 0.0
7722.082177360202 7722.082177360202 0.0 0.0
7164.3133711072305 7164.3133711072305 0.0 0.0
5211.9537579004555 5211.9537579004555 0.0 0.0
3819.5104989070296 3819.5104989070296 0.0 0.0
2660.66403351634 2660.66403351634 0.0 0.0
1729.2447940658699 1729.2447940658699 0.0 0.0
1013.6119203324123 1013.6119203324123 0.0 0.0
493.47122800750316 493.47122800750316 0.0 0.0
167.3423162030427 167.3423162030427 0.0 0.0
68.76730679167976 68.76730679167976 0.0 0.0
74.8988274646941 74.8988274646941 0.0 0.0
253.3399171413822 253.3399171413822 0.0 0.0
934.0386633663625 934.0386633663625 0.0 0.0
2122.127384954869 2122.127384954869 0.0 0.0
3723.21457139179 3723.21457139179 0.0 0.0
5778.2012249006475 5778.2012249006475 0.0 0.0
8346.469322682211 8346.469322682211 0.0 0.0
11353.050557003502 11353.050557003502 0.0 0.0
14674.624945076255 14674.624945076255 0.0 0.0
17890.404209843215 17890.404209843215 0.0 0.0
33382.33012685692 33382.33012685692 0.0 0.0
17908.697336925172 17908.697336925172 0.0 0.0
14709.771479452816 14709.771479452816 0.0 0.0
11399.99369633243 11399.99369633243 0.0 0.0
8399.468371992218 8399.468371992218 0.0 0.0
5829.142034138082 5829.142034138082 0.0 0.0
3761.4505878963196 3761.4505878963196 0.0 0.0
2138.686279428568 2138.686279428568 0.0 0.0
933.8528614903997 933.8528614903997 0.0 0.0
250.86489541891507 250.86489541891507 0.0 0.0
70.30995374119755 70.30995374119755 0.0 0.0
1335.013746993368 1335.013746993368 0.0 0.0
918.2749509716608 918.2749509716608 0.0 0.0
1119.384153979658 1119.384153979658 0.0 0.0
2190.569572907662 2190.569572907662 0.0 0.0
3744.851047236186 3744.851047236186 0.0 0.0
5764.560672609815 5764.560672609815 0.0 0.0
8281.430098478062 8281.430098478062 0.0 0.0
11551.705483824448 11551.705483824448 0.0 0.0
16065.624794975087 16065.624794975087 0.0 0.0
21506.235869550073 21506.235869550073 0.0 0.0
24415.562015011365 24415.562015011365 0.0 0.0
21485.67971397329 21485.67971397329 0.0 0.0
16026.673100826833 16026.673100826833 0.0 0.0
11495.20577496383 11495.20577496383 0.0 0.0
8205.687031599586 8205.687031599586 0.0 0.0
5667.155412024634 5667.155412024634 0.0 0.0
3625.2009872601893 3625.2009872601893 0.0 0.0
2054.1943367825793 2054.1943367825793 0.0 0.0
965.5417016311166 965.5417016311166 0.0 0.0
622.0879064263376 622.0879064263376 0.0 0.0
1245.8897218515704 1245.8897218515704 0.0 0.0
1102.2930158172446 1102.2930158172446 0.0 0.0
150.680212504227 150.680212504227 0.0 0.0
498.6927787796613 498.6927787796613 0.0 0.0
1046.0604168391249 1046.0604168391249 0.0 0.0
1753.8220622146282 1753.8220622146282 0.0 0.0
2663.7040753700135 2663.7040753700135 0.0 0.0
3793.5419497794005 3793.5419497794005 0.0 0.0
5232.0432214564 5232.0432214564 0.0 0.0
7175.088094041412 7175.088094041412 0.0 0.0
9554.484797688358 9554.484797688358 0.0 0.0
10954.419478949054 10954.419478949054 0.0 0.0
9540.728488505121 9540.728488505121 0.0 0.0
7148.655994957363 7148.655994957363 0.0 0.0
5193.9652821159325 5193.9652821159325 0.0 0.0
3743.9691476751336 3743.9691476751336 0.0 0.0
2602.5046256940836 2602.5046256940836 0.0 0.0
1682.2425401437492 1682.2425401437492 0.0 0.0
966.9207540695251 966.9207540695251 0.0 0.0
432.7510131550454 432.7510131550454 0.0 0.0
123.201307581834 123.201307581834 0.0 0.0
1042.7107255995272 1042.7107255995272 0.0 0.0
615.1595118501374 615.1595118501374 0.0 0.0
91.82627264666677 91.82627264666677 0.0 0.0
211.81947025418998 211.81947025418998 0.0 0.0
380.7150133572368 380.7150133572368 0.0 0.0
590.0992000289122 590.0992000289122 0.0 0.0
831.6507784616738 831.6507784616738 0.0 0.0
1119.7393349327463 1119.7393349327463 0.0 0.0
1460.4806917327232 1460.4806917327232 0.0 0.0
1996.5142885633027 1996.5142885633027 0.0 0.0
2995.2020558541617 2995.2020558541617 0.0 0.0
3944.6506082575493 3944.6506082575493 0.0 0.0
2989.660416441859 2989.660416441859 0.0 0.0
1985.2622882764053 1985.2622882764053 0.0 0.0
1444.116695488018 1444.116695488018 0.0 0.0
1099.1614306795575 1099.1614306795575 0.0 0.0
808.1577425210743 808.1577425210743 0.0 0.0
565.2682991855503 565.2682991855503 0.0 0.0
360.38626205673245 360.38626205673245 0.0 0.0
210.32053561820197 210.32053561820197 0.0 0.0
108.67416016013647 108.67416016013647 0.0 0.0
592.4447855698321 592.4447855698321 0.0 0.0
305.1385247996691 305.1385247996691 0.0 0.0
125.56998934404395 125.56998934404395 0.0 0.0
169.90149313448075 169.90149313448075 0.0 0.0
169.02445293417023 169.02445293417023 0.0 0.0
187.068919384286 187.068919384286 0.0 0.0
205.9039719686521 205.9039719686521 0.0 0.0
230.00257227481782 230.00257227481782 0.0 0.0
249.45214070640677 249.45214070640677 0.0 0.0
309.9958739575417 309.9958739575417 0.0 0.0
672.5350306874809 672.5350306874809 0.0 0.0
1813.4561858587897 1813.4561858587897 0.0 0.0
675.3901906394224 675.3901906394224 0.0 0.0
314.11666642069804 314.11666642069804 0.0 0.0
254.56731765972324 254.56731765972324 0.0 0.0
236.59983201543784 236.59983201543784 0.0 0.0
214.98149676955293 214.98149676955293 0.0 0.0
200.0097905911877 200.0097905911877 0.0 0.0
188.138150315888 188.138150315888 0.0 0.0
193.30578011558913 193.30578011558913 0.0 0.0
143.5466509368037 143.5466509368037 0.0 0.0
282.3973012846908 282.3973012846908 0.0 0.0
129.01510190856948 129.01510190856948 0.0 0.0
139.91289512041237 139.91289512041237 0.0 0.0
253.44983939710437 253.44983939710437 0.0 0.0
356.3440641896326 356.3440641896326 0.0 0.0
523.6853367604347 523.6853367604347 0.0 0.0
764.5562539060729 764.5562539060729 0.0 0.0
1080.1643761613016 1080.1643761613016 0.0 0.0
1532.025611476119 1532.025611476119 0.0 0.0
2038.510608112983 2038.510608112983 0.0 0.0
2219.352098689822 2219.352098689822 0.0 0.0
4450.86612532864 4450.86612532864 0.0 0.0
2230.3810609589777 2230.3810609589777 0.0 0.0
2057.4902062466695 2057.4902062466695 0.0 0.0
1557.432177680383 1557.432177680383 0.0 0.0
1110.7199086214086 1110.7199086214086 0.0 0.0
799.1610404533739 799.1610404533739 0.0 0.0
560.4945707502513 560.4945707502513 0.0 0.0
390.9949361987754 390.9949361987754 0.0 0.0
276.65308939402894 276.65308939402894 0.0 0.0
147.986634777446 147.986634777446 0.0 0.0
112.27663216298113 112.27663216298113 0.0 0.0
65.2401764679244 65.2401764679244 0.0 0.0
150.24320088345857 150.24320088345857 0.0 0.0
452.37134341209463 452.37134341209463 0.0 0.0
942.9488366424849 942.9488366424849 0.0 0.0
1629.1562833701914 1629.1562833701914 0.0 0.0
2540.372016791058 2540.372016791058 0.0 0.0
3703.6157451716904 3703.6157451716904 0.0 0.0
5150.947685720396 5150.947685720396 0.0 0.0
7257.671386463406 7257.671386463406 0.0 0.0
7903.617153708556 7903.617153708556 0.0 0.0
12887.215341285055 12887.215341285055 0.0 0.0
7922.587472921488 7922.587472921488 0.0 0.0
7292.043887812189 7292.043887812189 0.0 0.0
5196.739993239048 5196.739993239048 0.0 0.0
3757.143147841766 3757.143147841766 0.0 0.0
2595.6475485820197 2595.6475485820197 0.0 0.0
1678.2062832035174 1678.2062832035174 0.0 0.0
976.2826322490632 976.2826322490632 0.0 0.0
465.48241977843844 465.48241977843844 0.0 0.0
151.26256143042846 151.26256143042846 0.0 0.0
54.15269811312771 54.15269811312771 0.0 0.0
61.50677207136655 61.50677207136655 0.0 0.0
223.36578247530275 223.36578247530275 0.0 0.0
871.0415194160472 871.0415194160472 0.0 0.0
2018.8762667769377 2018.8762667769377 0.0 0.0
3574.426650483862 3574.426650483862 0.0 0.0
5590.852422355444 5590.852422355444 0.0 0.0
8160.051472757301 8160.051472757301 0.0 0.0
11274.762360926174 11274.762360926174 0.0 0.0
14894.574519050366 14894.574519050366 0.0 0.0
18397.4067347361 18397.4067347361 0.0 0.0
34801.19997643893 34801.19997643893 0.0 0.0
18424.31966460121 18424.31966460121 0.0 0.0
14947.103478194851 14947.103478194851 0.0 0.0
11345.628889314425 11345.628889314425 0.0 0.0
8241.223611160962 8241.223611160962 0.0 0.0
5670.302201869016 5670.302201869016 0.0 0.0
3635.415886313202 3635.415886313202 0.0 0.0
2046.0618595405576 2046.0618595405576 0.0 0.0
869.9890447161981 869.9890447161981 0.0 0.0
217.28804280795185 217.28804280795185 0.0 0.0
52.03531359325406 52.03531359325406 0.0 0.0
1372.6565726138037 1372.6565726138037 0.0 0.0
892.5261223273926 892.5261223273926 0.0 0.0
1137.2251512146388 1137.2251512146388 0.0 0.0
2249.658273286088 2249.658273286088 0.0 0.0
3840.2542222494358 3840.2542222494358 0.0 0.0
5891.707148576796 5891.707148576796 0.0 0.0
8404.410777931165 8404.410777931165 0.0 0.0
11560.006360780812 11560.006360780812 0.0 0.0
15753.499961826308 15753.499961826308 0.0 0.0
20692.578640266307 20692.578640266307 0.0 0.0
23315.88050893604 23315.88050893604 0.0 0.0
20681.140785273692 20681.140785273692 0.0 0.0
15731.39878392118 15731.39878392118 0.0 0.0
11527.445515156694 11527.445515156694 0.0 0.0
8360.686225736847 8360.686225736847 0.0 0.0
5836.389500739145 5836.389500739145 0.0 0.0
3774.096056108139 3774.096056108139 0.0 0.0
2177.085791637818 2177.085791637818 0.0 0.0
1049.8098735784922 1049.8098735784922 0.0 0.0
695.8139953183735 695.8139953183735 0.0 0.0
1354.5355322959165 1354.5355322959165 0.0 0.0
1161.4695220773162 1161.4695220773162 0.0 0.0
150.35534138435972 150.35534138435972 0.0 0.0
501.54796985119583 501.54796985119583 0.0 0.0
1064.3395859627608 1064.3395859627608 0.0 0.0
1787.336991954989 1787.336991954989 0.0 0.0
2708.8808678540636 2708.8808678540636 0.0 0.0
3833.290886006139 3833.290886006139 0.0 0.0
5218.28593435139 5218.28593435139 0.0 0.0
7024.37764860161 7024.37764860161 0.0 0.0
9199.992740435337 9199.992740435337 0.0 0.0
10482.362852331602 10482.362852331602 0.0 0.0
9192.144300274558 9192.144300274558 0.0 0.0
7009.065509727844 7009.065509727844 0.0 0.0
5196.033526404892 5196.033526404892 0.0 0.0
3804.4569748631716 3804.4569748631716 0.0 0.0
2673.994575941802 2673.994575941802 0.0 0.0
1748.043966695715 1748.043966695715 0.0 0.0
1021.9387176273331 1021.9387176273331 0.0 0.0
466.8061865716519 466.8061865716519 0.0 0.0
140.60090846255025 140.60090846255025 0.0 0.0
1123.5746407332967 1123.5746407332967 0.0 0.0
645.0512327421376 645.0512327421376 0.0 0.0
104.3886699285107 104.3886699285107 0.0 0.0
216.39453715886052 216.39453715886052 0.0 0.0
382.4147836490945 382.4147836490945 0.0 0.0
592.5501654367021 592.5501654367021 0.0 0.0
834.5171132631253 834.5171132631253 0.0 0.0
1117.6314058369646 1117.6314058369646 0.0 0.0
1437.8122136677778 1437.8122136677778 0.0 0.0
1924.3413403314073 1924.3413403314073 0.0 0.0
2849.1044347740512 2849.1044347740512 0.0 0.0
3751.9179176274056 3751.9179176274056 0.0 0.0
2846.010424847409 2846.010424847409 0.0 0.0
1917.8187687995949 1917.8187687995949 0.0 0.0
1428.201984539215 1428.201984539215 0.0 0.0
1105.5830707008417 1105.5830707008417 0.0 0.0
821.0551008071644 821.0551008071644 0.0 0.0
578.9059870390479 578.9059870390479 0.0 0.0
372.10360809888 372.10360809888 0.0 0.0
218.59473221286862 218.59473221286862 0.0 0.0
117.83515113277579 117.83515113277579 0.0 0.0
647.9777779466411 647.9777779466411 0.0 0.0
328.09612678650257 328.09612678650257 0.0 0.0
140.24555177840136 140.24555177840136 0.0 0.0
180.15458312576982 180.15458312576982 0.0 0.0
172.28501475994767 172.28501475994767 0.0 0.0
185.53039125879548 185.53039125879548 0.0 0.0
200.8175461948852 200.8175461948852 0.0 0.0
219.73291772958785 219.73291772958785 0.0 0.0
228.49530830835047 228.49530830835047 0.0 0.0
267.44281094877374 267.44281094877374 0.0 0.0
605.2606926529044 605.2606926529044 0.0 0.0
1707.3011985704577 1707.3011985704577 0.0 0.0
607.141240909814 607.141240909814 0.0 0.0
270.0668674331262 270.0668674331262 0.0 0.0
231.76814412706563 231.76814412706563 0.0 0.0
223.8514037952139 223.8514037952139 0.0 0.0
206.2441081998707 206.2441081998707 0.0 0.0
193.09234333341328 193.09234333341328 0.0 0.0
183.72812588444577 183.72812588444577 0.0 0.0
194.88407076528696 194.88407076528696 0.0 0.0
151.60071036557457 151.60071036557457 0.0 0.0
322.19436777578153 322.19436777578153 0.0 0.0
145.17155829321948 145.17155829321948 0.0 0.0
153.82963044498885 153.82963044498885 0.0 0.0
272.4990342233447 272.4990342233447 0.0 0.0
376.5213483139115 376.5213483139115 0.0 0.0
545.4778302072299 545.4778302072299 0.0 0.0
787.7418905111825 787.7418905111825 0.0 0.0
1098.5737488141633 1098.5737488141633 0.0 0.0
1528.9951588926544 1528.9951588926544 0.0 0.0
1989.8554669945347 1989.8554669945347 0.0 0.0
2142.454907872486 2142.454907872486 0.0 0.0
4263.331765773768 4263.331765773768 0.0 0.0
2149.2558086150343 2149.2558086150343 0.0 0.0
2001.6410661113796 2001.6410661113796 0.0 0.0
1544.9674858896335 1544.9674858896335 0.0 0.0
1117.5810843781612 1117.5810843781612 0.0 0.0
808.7253336258605 808.7253336258605 0.0 0.0
567.1280018405275 567.1280018405275 0.0 0.0
396.4770098349942 396.4770098349942 0.0 0.0
285.72704151851343 285.72704151851343 0.0 0.0
157.91518176350155 157.91518176350155 0.0 0.0
137.9988340612646 137.9988340612646 0.0 0.0
74.76059531641437 74.76059531641437 0.0 0.0
167.17038555662197 167.17038555662197 0.0 0.0
486.2077080763889 486.2077080763889 0.0 0.0
994.1892358948472 994.1892358948472 0.0 0.0
1699.4956266073646 1699.4956266073646 0.0 0.0
2626.1346938196257 2626.1346938196257 0.0 0.0
3785.4117829520014 3785.4117829520014 0.0 0.0
5182.481685490165 5182.481685490165 0.0 0.0
7142.319910883568 7142.319910883568 0.0 0.0
7710.199404506421 7710.199404506421 0.0 0.0
12407.066035798838 12407.066035798838 0.0 0.0
7722.082177362539 7722.082177362539 0.0 0.0
7164.313371094237 7164.313371094237 0.0 0.0
5211.953757912238 5211.953757912238 0.0 0.0
3819.5104989102238 3819.5104989102238 0.0 0.0
2660.664033537152 2660.664033537152 0.0 0.0
1729.2447940776226 1729.2447940776226 0.0 0.0
1013.611920339836 1013.611920339836 0.0 0.0
493.4712280118872 493.4712280118872 0.0 0.0
167.34231620453417 167.34231620453417 0.0 0.0
68.76730679281212 68.76730679281212 0.0 0.0
74.8988274644504 74.8988274644504 0.0 0.0
253.3399171410824 253.3399171410824 0.0 0.0
934.0386633642689 934.0386633642689 0.0 0.0
2122.127384954353 2122.127384954353 0.0 0.0
3723.2145713984473 3723.2145713984473 0.0 0.0
5778.201224912735 5778.201224912735 0.0 0.0
8346.469322695233 8346.469322695233 0.0 0.0
11353.050557012868 11353.050557012868 0.0 0.0
14674.62494506231 14674.62494506231 0.0 0.0
17890.404209843673 17890.404209843673 0.0 0.0
33382.33012681299 33382.33012681299 0.0 0.0
17908.69733691669 17908.69733691669 0.0 0.0
14709.771479422274 14709.771479422274 0.0 0.0
11399.993696336662 11399.993696336662 0.0 0.0
8399.46837201851 8399.46837201851 0.0 0.0
5829.142034177421 5829.142034177421 0.0 0.0
3761.4505879285384 3761.4505879285384 0.0 0.0
2138.686279446051 2138.686279446051 0.0 0.0
933.8528614973368 933.8528614973368 0.0 0.0
250.86489542130434 250.86489542130434 0.0 0.0
70.30995374240676 70.30995374240676 0.0 0.0
1935.6681274010616 1935.6681274010616 0.0 0.0
798.6575705614171 798.6575705614171 0.0 0.0
1186.267529019323 1186.267529019323 0.0 0.0
2390.1383454555285 2390.1383454555285 0.0 0.0
4097.898733866634 4097.898733866634 0.0 0.0
6326.161993032206 6326.161993032206 0.0 0.0
8996.638183287982 8996.638183287982 0.0 0.0
12081.490516532736 12081.490516532736 0.0 0.0
15550.800396040955 15550.800396040955 0.0 0.0
18962.739447307165 18962.739447307165 0.0 0.0
20600.841279539967 20600.841279539967 0.0 0.0
18972.146904909638 18972.146904909638 0.0 0.0
15568.368073417592 15568.368073417592 0.0 0.0
12106.96696573995 12106.96696573995 0.0 0.0
9031.444787266086 9031.444787266086 0.0 0.0
6372.923081690144 6372.923081690144 0.0 0.0
4160.479841007645 4160.479841007645 0.0 0.0
2469.578239805929 2469.578239805929 0.0 0.0
1298.6772424850292 1298.6772424850292 0.0 0.0
953.9994656288778 953.9994656288778 0.0 0.0
1886.5648029764031 1886.5648029764031 0.0 0.0
1552.2414148169369 1552.2414148169369 0.0 0.0
135.0552791854913 135.0552791854913 0.0 0.0
500.59583606824873 500.59583606824873 0.0 0.0
1089.4344187337674 1089.4344187337674 0.0 0.0
1865.2548871555646 1865.2548871555646 0.0 0.0
2860.993776625015 2860.993776625015 0.0 0.0
4053.9220006386936 4053.9220006386936 0.0 0.0
5412.147690502762 5412.147690502762 0.0 0.0
6912.893139687257 6912.893139687257 0.0 0.0
8418.4949864452 8418.4949864452 0.0 0.0
9215.062671793286 9215.062671793286 0.0 0.0
8424.572028433295 8424.572028433295 0.0 0.0
6924.503964819127 6924.503964819127 0.0 0.0
5429.133916268999 5429.133916268999 0.0 0.0
4076.749150833351 4076.749150833351 0.0 0.0
2890.7419313770147 2890.7419313770147 0.0 0.0
1903.0177231634466 1903.0177231634466 0.0 0.0
1137.6535860641263 1137.6535860641263 0.0 0.0
548.0116469300619 548.0116469300619 0.0 0.0
155.25946257689938 155.25946257689938 0.0 0.0
1561.85422412297 1561.85422412297 0.0 0.0
932.6332510385945 932.6332510385945 0.0 0.0
109.6760148398797 109.6760148398797 0.0 0.0
214.18361180982205 214.18361180982205 0.0 0.0
361.2676782354691 361.2676782354691 0.0 0.0
580.0512055714821 580.0512055714821 0.0 0.0
840.534445123127 840.534445123127 0.0 0.0
1147.2334278357068 1147.2334278357068 0.0 0.0
1478.3481318782674 1478.3481318782674 0.0 0.0
1869.3039860780634 1869.3039860780634 0.0 0.0
2464.918006009872 2464.918006009872 0.0 0.0
2999.246163077787 2999.246163077787 0.0 0.0
2467.786764586668 2467.786764586668 0.0 0.0
1874.950539425854 1874.950539425854 0.0 0.0
1486.5747022093792 1486.5747022093792 0.0 0.0
1157.7733707729446 1157.7733707729446 0.0 0.0
853.108553798565 853.108553798565 0.0 0.0
594.6222996633913 594.6222996633913 0.0 0.0
376.00187072829516 376.00187072829516 0.0 0.0
218.45782421038118 218.45782421038118 0.0 0.0
96.01549296599067 96.01549296599067 0.0 0.0
924.6354588325105 924.6354588325105 0.0 0.0
463.7390022571378 463.7390022571378 0.0 0.0
152.97617926778517 152.97617926778517 0.0 0.0
187.1405120765245 187.1405120765245 0.0 0.0
161.4595706985459 161.4595706985459 0.0 0.0
167.81306546230124 167.81306546230124 0.0 0.0
183.06897567029532 183.06897567029532 0.0 0.0
203.41284158421453 203.41284158421453 0.0 0.0
215.79661878978163 215.79661878978163 0.0 0.0
227.662636796876 227.662636796876 0.0 0.0
413.88012900977736 413.88012900977736 0.0 0.0
1012.4359120055926 1012.4359120055926 0.0 0.0
413.2742417712864 413.2742417712864 0.0 0.0
227.33797595504407 227.33797595504407 0.0 0.0
215.67756282273274 215.67756282273274 0.0 0.0
202.91790181653766 202.91790181653766 0.0 0.0
181.4924948119995 181.4924948119995 0.0 0.0
164.24008495418448 164.24008495418448 0.0 0.0
154.00409255314 154.00409255314 0.0 0.0
174.33404385107653 174.33404385107653 0.0 0.0
136.26373706520457 136.26373706520457 0.0 0.0
466.8309637486587 466.8309637486587 0.0 0.0
192.13392071051535 192.13392071051535 0.0 0.0
164.355585952541 164.355585952541 0.0 0.0
293.51528409929944 293.51528409929944 0.0 0.0
413.75838388643297 413.75838388643297 0.0 0.0
599.6170765133319 599.6170765133319 0.0 0.0
858.2920158176019 858.2920158176019 0.0 0.0
1173.4221198598586 1173.4221198598586 0.0 0.0
1563.0913421080998 1563.0913421080998 0.0 0.0
1931.958016250287 1931.958016250287 0.0 0.0
2038.881564163806 2038.881564163806 0.0 0.0
3088.966031833189 3088.966031833189 0.0 0.0
2034.628057872678 2034.628057872678 0.0 0.0
1926.0445799103275 1926.0445799103275 0.0 0.0
1555.4562343653727 1555.4562343653727 0.0 0.0
1163.8224883978996 1163.8224883978996 0.0 0.0
846.6523604456781 846.6523604456781 0.0 0.0
585.9042736666943 585.9042736666943 0.0 0.0
398.92766777142907 398.92766777142907 0.0 0.0
280.88327295953235 280.88327295953235 0.0 0.0
154.58184208866606 154.58184208866606 0.0 0.0
196.24460213147694 196.24460213147694 0.0 0.0
84.6313196256937 84.6313196256937 0.0 0.0
178.97949759628239 178.97949759628239 0.0 0.0
538.2935008736468 538.2935008736468 0.0 0.0
1121.0646355313738 1121.0646355313738 0.0 0.0
1907.7964010410997 1907.7964010410997 0.0 0.0
2906.356759792189 2906.356759792189 0.0 0.0
4104.799925407762 4104.799925407762 0.0 0.0
5453.230095501686 5453.230095501686 0.0 0.0
7088.774254780078 7088.774254780078 0.0 0.0
7528.3841322427015 7528.3841322427015 0.0 0.0
9712.737415447276 9712.737415447276 0.0 0.0
7520.946074085995 7520.946074085995 0.0 0.0
7078.2282101182755 7078.2282101182755 0.0 0.0
5438.72442076939 5438.72442076939 0.0 0.0
4087.3730254132056 4087.3730254132056 0.0 0.0
2887.929215008023 2887.929215008023 0.0 0.0
1891.0897893145334 1891.0897893145334 0.0 0.0
1109.6752776510616 1109.6752776510616 0.0 0.0
533.9326837424042 533.9326837424042 0.0 0.0
176.65350241139936 176.65350241139936 0.0 0.0
86.35309420403959 86.35309420403959 0.0 0.0
78.5831919690342 78.5831919690342 0.0 0.0
277.54016185173197 277.54016185173197 0.0 0.0
1046.9335831328378 1046.9335831328378 0.0 0.0
2394.196617124559 2394.196617124559 0.0 0.0
4177.7127409648565 4177.7127409648565 0.0 0.0
6402.909647798394 6402.909647798394 0.0 0.0
9084.825849384008 9084.825849384008 0.0 0.0
12074.663818610443 12074.663818610443 0.0 0.0
15067.10942760019 15067.10942760019 0.0 0.0
17096.56928685271 17096.56928685271 0.0 0.0
25651.69692368035 25651.69692368035 0.0 0.0
17091.252478413076 17091.252478413076 0.0 0.0
15053.234133242715 15053.234133242715 0.0 0.0
12053.477905190137 12053.477905190137 0.0 0.0
9059.422217514068 9059.422217514068 0.0 0.0
6377.694218656442 6377.694218656442 0.0 0.0
4159.294009414563 4159.294009414563 0.0 0.0
2389.565637701809 2389.565637701809 0.0 0.0
1054.6014281471098 1054.6014281471098 0.0 0.0
284.33454985987777 284.33454985987777 0.0 0.0
81.96669248603611 81.96669248603611 0.0 0.0
5200.579236117438 5200.579236117438 0.0 0.0
941.0537973082246 941.0537973082246 0.0 0.0
1121.1740460674657 1121.1740460674657 0.0 0.0
2347.187835481705 2347.187835481705 0.0 0.0
4140.53733136131 4140.53733136131 0.0 0.0
6525.509268084338 6525.509268084338 0.0 0.0
9396.422888639872 9396.422888639872 0.0 0.0
12608.211532081385 12608.211532081385 0.0 0.0
15697.05453796068 15697.05453796068 0.0 0.0
17831.642447189293 17831.642447189293 0.0 0.0
18518.362968492213 18518.362968492213 0.0 0.0
17858.61800581773 17858.61800581773 0.0 0.0
15750.989010011093 15750.989010011093 0.0 0.0
12690.476263849829 12690.476263849829 0.0 0.0
9509.414377820298 9509.414377820298 0.0 0.0
6670.142910405493 6670.142910405493 0.0 0.0
4312.77683497522 4312.77683497522 0.0 0.0
2535.931456531398 2535.931456531398 0.0 0.0
1333.1862438102485 1333.1862438102485 0.0 0.0
1485.5874475113678 1485.5874475113678 0.0 0.0
4982.41850422422 4982.41850422422 0.0 0.0
3860.768672627732 3860.768672627732 0.0 0.0
116.8200752412159 116.8200752412159 0.0 0.0
521.2046784880876 521.2046784880876 0.0 0.0
1114.0984808399382 1114.0984808399382 0.0 0.0
1912.3756231950888 1912.3756231950888 0.0 0.0
2949.420183054315 2949.420183054315 0.0 0.0
4203.871924229835 4203.871924229835 0.0 0.0
5618.710861001903 5618.710861001903 0.0 0.0
7007.700976605439 7007.700976605439 0.0 0.0
7993.851675609988 7993.851675609988 0.0 0.0
8314.647556602382 8314.647556602382 0.0 0.0
8011.346047187703 8011.346047187703 0.0 0.0
7042.555065905262 7042.555065905262 0.0 0.0
5671.306188245513 5671.306188245513 0.0 0.0
4274.532507025466 4274.532507025466 0.0 0.0
3037.267700516801 3037.267700516801 0.0 0.0
2012.8534202096419 2012.8534202096419 0.0 0.0
1219.4827780356272 1219.4827780356272 0.0 0.0
596.0076247861653 596.0076247861653 0.0 0.0
134.90925579936783 134.90925579936783 0.0 0.0
4055.092010218818 4055.092010218818 0.0 0.0
2147.76733525074 2147.76733525074 0.0 0.0
318.962465605327 318.962465605327 0.0 0.0
447.90618195388737 447.90618195388737 0.0 0.0
583.0363878571678 583.0363878571678 0.0 0.0
806.5898622669982 806.5898622669982 0.0 0.0
1065.1314922388488 1065.1314922388488 0.0 0.0
1382.3273380286105 1382.3273380286105 0.0 0.0
1774.5843964271291 1774.5843964271291 0.0 0.0
2201.2263635970994 2201.2263635970994 0.0 0.0
2485.209840240073 2485.209840240073 0.0 0.0
2565.588821651585 2565.588821651585 0.0 0.0
2492.3930448175274 2492.3930448175274 0.0 0.0
2214.8897129901684 2214.8897129901684 0.0 0.0
1794.338438325288 1794.338438325288 0.0 0.0
1407.4513795061946 1407.4513795061946 0.0 0.0
1093.8219313963962 1093.8219313963962 0.0 0.0
835.3847265244003 835.3847265244003 0.0 0.0
599.9627078345475 599.9627078345475 0.0 0.0
435.78283726598033 435.78283726598033 0.0 0.0
269.920439616653 269.920439616653 0.0 0.0
2241.0217867668184 2241.0217867668184 0.0 0.0
990.7045043718922 990.7045043718922 0.0 0.0
462.762079017396 462.762079017396 0.0 0.0
576.8956644713056 576.8956644713056 0.0 0.0
528.1714652360728 528.1714652360728 0.0 0.0
521.3304079914795 521.3304079914795 0.0 0.0
513.5756115396631 513.5756115396631 0.0 0.0
504.48461129552885 504.48461129552885 0.0 0.0
521.6156395221593 521.6156395221593 0.0 0.0
602.912841714601 602.912841714601 0.0 0.0
692.6965483794479 692.6965483794479 0.0 0.0
751.4910120743965 751.4910120743965 0.0 0.0
690.15638282091 690.15638282091 0.0 0.0
596.8312115853204 596.8312115853204 0.0 0.0
511.519884603016 511.519884603016 0.0 0.0
489.60772622822606 489.60772622822606 0.0 0.0
492.8534749269132 492.8534749269132 0.0 0.0
492.5638150746134 492.5638150746134 0.0 0.0
487.4981487246623 487.4981487246623 0.0 0.0
530.3762610709176 530.3762610709176 0.0 0.0
424.4003261432352 424.4003261432352 0.0 0.0
1042.7818177849226 1042.7818177849226 0.0 0.0
376.0687895893945 376.0687895893945 0.0 0.0
425.56091580765343 425.56091580765343 0.0 0.0
681.6969620692622 681.6969620692622 0.0 0.0
802.8484574348893 802.8484574348893 0.0 0.0
968.0499841880003 968.0499841880003 0.0 0.0
1196.9740638443704 1196.9740638443704 0.0 0.0
1467.9547019652334 1467.9547019652334 0.0 0.0
1731.856359824355 1731.856359824355 0.0 0.0
2028.4016340848311 2028.4016340848311 0.0 0.0
2493.5769583177625 2493.5769583177625 0.0 0.0
2791.321396248288 2791.321396248288 0.0 0.0
2482.1786852737546 2482.1786852737546 0.0 0.0
2004.9963532115235 2004.9963532115235 0.0 0.0
1696.4667684194073 1696.4667684194073 0.0 0.0
1421.1287718768278 1421.1287718768278 0.0 0.0
1140.2211280741997 1140.2211280741997 0.0 0.0
904.3029329512983 904.3029329512983 0.0 0.0
739.9636444586606 739.9636444586606 0.0 0.0
637.5092678372548 637.5092678372548 0.0 0.0
406.58248862811246 406.58248862811246 0.0 0.0
395.6589914175129 395.6589914175129 0.0 0.0
131.2192126138716 131.2192126138716 0.0 0.0
324.75921078783637 324.75921078783637 0.0 0.0
806.9146815725617 806.9146815725617 0.0 0.0
1444.1235285822581 1444.1235285822581 0.0 0.0
2237.566830080999 2237.566830080999 0.0 0.0
3221.295889165577 3221.295889165577 0.0 0.0
4372.862980075175 4372.862980075175 0.0 0.0
5628.489027137278 5628.489027137278 0.0 0.0
6596.868835522707 6596.868835522707 0.0 0.0
8045.79808022423 8045.79808022423 0.0 0.0
8752.327656781277 8752.327656781277 0.0 0.0
8025.5910740052195 8025.5910740052195 0.0 0.0
6557.27862255029 6557.27862255029 0.0 0.0
5569.270372703523 5569.270372703523 0.0 0.0
4298.358152059112 4298.358152059112 0.0 0.0
3138.024845204739 3138.024845204739 0.0 0.0
2157.3222312533185 2157.3222312533185 0.0 0.0
1384.0365171494025 1384.0365171494025 0.0 0.0
779.17599180991 779.17599180991 0.0 0.0
317.5225654823653 317.5225654823653 0.0 0.0
136.0757539425096 136.0757539425096 0.0 0.0
80.62779747832752 80.62779747832752 0.0 0.0
350.5483338541636 350.5483338541636 0.0 0.0
1272.7094392963668 1272.7094392963668 0.0 0.0
2780.94979953236 2780.94979953236 0.0 0.0
4658.836936459067 4658.836936459067 0.0 0.0
6946.909191881896 6946.909191881896 0.0 0.0
9638.782497907854 9638.782497907854 0.0 0.0
12650.304592467215 12650.304592467215 0.0 0.0
15725.989407573852 15725.989407573852 0.0 0.0
18668.812095177913 18668.812095177913 0.0 0.0
16051.908154675608 16051.908154675608 0.0 0.0
18642.751992853933 18642.751992853933 0.0 0.0
15664.257209570836 15664.257209570836 0.0 0.0
12559.765760383296 12559.765760383296 0.0 0.0
9528.168106404668 9528.168106404668 0.0 0.0
6830.749208110197 6830.749208110197 0.0 0.0
4561.619777671332 4561.619777671332 0.0 0.0
2729.966390012537 2729.966390012537 0.0 0.0
1267.988486590935 1267.988486590935 0.0 0.0
356.9283093979985 356.9283093979985 0.0 0.0
85.39323452137239 85.39323452137239 0.0 0.0