# vtk DataFile Version 3.0
Some data
ASCII
DATASET UNSTRUCTURED_GRID
POINTS 1029 float
0.0 0.0 0.0
0.8 0.0 0.0
1.6 0.0 0.0
2.4000000000000004 0.0 0.0
3.2 0.0 0.0
4.0 0.0 0.0
4.800000000000001 0.0 0.0
5.6000000000000005 0.0 0.0
6.4 0.0 0.0
7.2 0.0 0.0
8.0 0.0 0.0
8.8 0.0 0.0
9.600000000000001 0.0 0.0
10.4 0.0 0.0
11.200000000000001 0.0 0.0
12.0 0.0 0.0
12.8 0.0 0.0
13.600000000000001 0.0 0.0
14.4 0.0 0.0
15.200000000000001 0.0 0.0
16.0 0.0 0.0
0.0 0.3333333333333333 0.0
0.8 0.3333333333333333 0.0
1.6 0.3333333333333333 0.0
2.4000000000000004 0.3333333333333333 0.0
3.2 0.3333333333333333 0.0
4.0 0.3333333333333333 0.0
4.800000000000001 0.3333333333333333 0.0
5.6000000000000005 0.3333333333333333 0.0
6.4 0.3333333333333333 0.0
7.2 0.3333333333333333 0.0
8.0 0.3333333333333333 0.0
8.8 0.3333333333333333 0.0
9.600000000000001 0.3333333333333333 0.0
10.4 0.3333333333333333 0.0
11.200000000000001 0.3333333333333333 0.0
12.0 0.3333333333333333 0.0
12.8 0.3333333333333333 0.0
13.600000000000001 0.3333333333333333 0.0
14.4 0.3333333333333333 0.0
15.200000000000001 0.3333333333333333 0.0
16.0 0.3333333333333333 0.0
0.0 0.6666666666666666 0.0
0.8 0.6666666666666666 0.0
1.6 0.6666666666666666 0.0
2.4000000000000004 0.6666666666666666 0.0
3.2 0.6666666666666666 0.0
4.0 0.6666666666666666 0.0
4.800000000000001 0.6666666666666666 0.0
5.6000000000000005 0.6666666666666666 0.0
6.4 0.6666666666666666 0.0
7.2 0.6666666666666666 0.0
8.0 0.6666666666666666 0.0
8.8 0.6666666666666666 0.0
9.600000000000001 0.6666666666666666 0.0
10.4 0.6666666666666666 0.0
11.200000000000001 0.6666666666666666 0.0
12.0 0.6666666666666666 0.0
12.8 0.6666666666666666 0.0
13.600000000000001 0.6666666666666666 0.0
14.4 0.6666666666666666 0.0
15.200000000000001 0.6666666666666666 0.0
16.0 0.6666666666666666 0.0
0.0 1.0 0.0
0.8 1.0 0.0
1.6 1.0 0.0
2.4000000000000004 1.0 0.0
3.2 1.0 0.0
4.0 1.0 0.0
4.800000000000001 1.0 0.0
5.6000000000000005 1.0 0.0
6.4 1.0 0.0
7.2 1.0 0.0
8.0 1.0 0.0
8.8 1.0 0.0
9.600000000000001 1.0 0.0
10.4 1.0 0.0
11.200000000000001 1.0 0.0
12.0 1.0 0.0
12.8 1.0 0.0
13.600000000000001 1.0 0.0
14.4 1.0 0.0
15.200000000000001 1.0 0.0
16.0 1.0 0.0
0.0 1.3333333333333333 0.0
0.8 1.3333333333333333 0.0
1.6 1.3333333333333333 0.0
2.4000000000000004 1.3333333333333333 0.0
3.2 1.3333333333333333 0.0
4.0 1.3333333333333333 0.0
4.800000000000001 1.3333333333333333 0.0
5.6000000000000005 1.3333333333333333 0.0
6.4 1.3333333333333333 0.0
7.2 1.3333333333333333 0.0
8.0 1.3333333333333333 0.0
8.8 1.3333333333333333 0.0
9.600000000000001 1.3333333333333333 0.0
10.4 1.3333333333333333 0.0
11.200000000000001 1.3333333333333333 0.0
12.0 1.3333333333333333 0.0
12.8 1.3333333333333333 0.0
13.600000000000001 1.3333333333333333 0.0
14.4 1.3333333333333333 0.0
15.200000000000001 1.3333333333333333 0.0
16.0 1.3333333333333333 0.0
0.0 1.6666666666666665 0.0
0.8 1.6666666666666665 0.0
1.6 1.6666666666666665 0.0
2.4000000000000004 1.6666666666666665 0.0
3.2 1.6666666666666665 0.0
4.0 1.6666666666666665 0.0
4.800000000000001 1.6666666666666665 0.0
5.6000000000000005 1.6666666666666665 0.0
6.4 1.6666666666666665 0.0
7.2 1.6666666666666665 0.0
8.0 1.6666666666666665 0.0
8.8 1.6666666666666665 0.0
9.600000000000001 1.6666666666666665 0.0
10.4 1.6666666666666665 0.0
11.200000000000001 1.6666666666666665 0.0
12.0 1.6666666666666665 0.0
12.8 1.6666666666666665 0.0
13.600000000000001 1.6666666666666665 0.0
14.4 1.6666666666666665 0.0
15.200000000000001 1.6666666666666665 0.0
16.0 1.6666666666666665 0.0
0.0 2.0 0.0
0.8 2.0 0.0
1.6 2.0 0.0
2.4000000000000004 2.0 0.0
3.2 2.0 0.0
4.0 2.0 0.0
4.800000000000001 2.0 0.0
5.6000000000000005 2.0 0.0
6.4 2.0 0.0
7.2 2.0 0.0
8.0 2.0 0.0
8.8 2.0 0.0
9.600000000000001 2.0 0.0
10.4 2.0 0.0
11.200000000000001 2.0 0.0
12.0 2.0 0.0
12.8 2.0 0.0
13.600000000000001 2.0 0.0
14.4 2.0 0.0
15.200000000000001 2.0 0.0
16.0 2.0 0.0
0.0 0.0 1.6666666666666667
0.8 0.0 1.6666666666666667
1.6 0.0 1.6666666666666667
2.4000000000000004 0.0 1.6666666666666667
3.2 0.0 1.6666666666666667
4.0 0.0 1.6666666666666667
4.800000000000001 0.0 1.6666666666666667
5.6000000000000005 0.0 1.6666666666666667
6.4 0.0 1.6666666666666667
7.2 0.0 1.6666666666666667
8.0 0.0 1.6666666666666667
8.8 0.0 1.6666666666666667
9.600000000000001 0.0 1.6666666666666667
10.4 0.0 1.6666666666666667
11.200000000000001 0.0 1.6666666666666667
12.0 0.0 1.6666666666666667
12.8 0.0 1.6666666666666667
13.600000000000001 0.0 1.6666666666666667
14.4 0.0 1.6666666666666667
15.200000000000001 0.0 1.6666666666666667
16.0 0.0 1.6666666666666667
0.0 0.3333333333333333 1.6666666666666667
0.8 0.3333333333333333 1.6666666666666667
1.6 0.3333333333333333 1.6666666666666667
2.4000000000000004 0.3333333333333333 1.6666666666666667
3.2 0.3333333333333333 1.6666666666666667
4.0 0.3333333333333333 1.6666666666666667
4.800000000000001 0.3333333333333333 1.6666666666666667
5.6000000000000005 0.3333333333333333 1.6666666666666667
6.4 0.3333333333333333 1.6666666666666667
7.2 0.3333333333333333 1.6666666666666667
8.0 0.3333333333333333 1.6666666666666667
8.8 0.3333333333333333 1.6666666666666667
9.600000000000001 0.3333333333333333 1.6666666666666667
10.4 0.3333333333333333 1.6666666666666667
11.200000000000001 0.3333333333333333 1.6666666666666667
12.0 0.3333333333333333 1.6666666666666667
12.8 0.3333333333333333 1.6666666666666667
13.600000000000001 0.3333333333333333 1.6666666666666667
14.4 0.3333333333333333 1.6666666666666667
15.200000000000001 0.3333333333333333 1.6666666666666667
16.0 0.3333333333333333 1.6666666666666667
0.0 0.6666666666666666 1.6666666666666667
0.8 0.6666666666666666 1.6666666666666667
1.6 0.6666666666666666 1.6666666666666667
2.4000000000000004 0.6666666666666666 1.6666666666666667
3.2 0.6666666666666666 1.6666666666666667
4.0 0.6666666666666666 1.6666666666666667
4.800000000000001 0.6666666666666666 1.6666666666666667
5.6000000000000005 0.6666666666666666 1.6666666666666667
6.4 0.6666666666666666 1.6666666666666667
7.2 0.6666666666666666 1.6666666666666667
8.0 0.6666666666666666 1.6666666666666667
8.8 0.6666666666666666 1.6666666666666667
9.600000000000001 0.6666666666666666 1.6666666666666667
10.4 0.6666666666666666 1.6666666666666667
11.200000000000001 0.6666666666666666 1.6666666666666667
12.0 0.6666666666666666 1.6666666666666667
12.8 0.6666666666666666 1.6666666666666667
13.600000000000001 0.6666666666666666 1.6666666666666667
14.4 0.6666666666666666 1.6666666666666667
15.200000000000001 0.6666666666666666 1.6666666666666667
16.0 0.6666666666666666 1.6666666666666667
0.0 1.0 1.6666666666666667
0.8 1.0 1.6666666666666667
1.6 1.0 1.6666666666666667
2.4000000000000004 1.0 1.6666666666666667
3.2 1.0 1.6666666666666667
4.0 1.0 1.6666666666666667
4.800000000000001 1.0 1.6666666666666667
5.6000000000000005 1.0 1.6666666666666667
6.4 1.0 1.6666666666666667
7.2 1.0 1.6666666666666667
8.0 1.0 1.6666666666666667
8.8 1.0 1.6666666666666667
9.600000000000001 1.0 1.6666666666666667
10.4 1.0 1.6666666666666667
11.200000000000001 1.0 1.6666666666666667
12.0 1.0 1.6666666666666667
12.8 1.0 1.6666666666666667
13.600000000000001 1.0 1.6666666666666667
14.4 1.0 1.6666666666666667
15.200000000000001 1.0 1.6666666666666667
16.0 1.0 1.6666666666666667
0.0 1.3333333333333333 1.6666666666666667
0.8 1.3333333333333333 1.6666666666666667
1.6 1.3333333333333333 1.6666666666666667
2.4000000000000004 1.3333333333333333 1.6666666666666667
3.2 1.3333333333333333 1.6666666666666667
4.0 1.3333333333333333 1.6666666666666667
4.800000000000001 1.3333333333333333 1.6666666666666667
5.6000000000000005 1.3333333333333333 1.6666666666666667
6.4 1.3333333333333333 1.6666666666666667
7.2 1.3333333333333333 1.6666666666666667
8.0 1.3333333333333333 1.6666666666666667
8.8 1.3333333333333333 1.6666666666666667
9.600000000000001 1.3333333333333333 1.6666666666666667
10.4 1.3333333333333333 1.6666666666666667
11.200000000000001 1.3333333333333333 1.6666666666666667
12.0 1.3333333333333333 1.6666666666666667
12.8 1.3333333333333333 1.6666666666666667
13.600000000000001 1.3333333333333333 1.6666666666666667
14.4 1.3333333333333333 1.6666666666666667
15.200000000000001 1.3333333333333333 1.6666666666666667
16.0 1.3333333333333333 1.6666666666666667
0.0 1.6666666666666665 1.6666666666666667
0.8 1.6666666666666665 1.6666666666666667
1.6 1.6666666666666665 1.6666666666666667
2.4000000000000004 1.6666666666666665 1.6666666666666667
3.2 1.6666666666666665 1.6666666666666667
4.0 1.6666666666666665 1.6666666666666667
4.800000000000001 1.6666666666666665 1.6666666666666667
5.6000000000000005 1.6666666666666665 1.6666666666666667
6.4 1.6666666666666665 1.6666666666666667
7.2 1.6666666666666665 1.6666666666666667
8.0 1.6666666666666665 1.6666666666666667
8.8 1.6666666666666665 1.6666666666666667
9.600000000000001 1.6666666666666665 1.6666666666666667
10.4 1.6666666666666665 1.6666666666666667
11.200000000000001 1.6666666666666665 1.6666666666666667
12.0 1.6666666666666665 1.6666666666666667
12.8 1.6666666666666665 1.6666666666666667
13.600000000000001 1.6666666666666665 1.6666666666666667
14.4 1.6666666666666665 1.6666666666666667
15.200000000000001 1.6666666666666665 1.6666666666666667
16.0 1.6666666666666665 1.6666666666666667
0.0 2.0 1.6666666666666667
0.8 2.0 1.6666666666666667
1.6 2.0 1.6666666666666667
2.4000000000000004 2.0 1.6666666666666667
3.2 2.0 1.6666666666666667
4.0 2.0 1.6666666666666667
4.800000000000001 2.0 1.6666666666666667
5.6000000000000005 2.0 1.6666666666666667
6.4 2.0 1.6666666666666667
7.2 2.0 1.6666666666666667
8.0 2.0 1.6666666666666667
8.8 2.0 1.6666666666666667
9.600000000000001 2.0 1.6666666666666667
10.4 2.0 1.6666666666666667
11.200000000000001 2.0 1.6666666666666667
12.0 2.0 1.6666666666666667
12.8 2.0 1.6666666666666667
13.600000000000001 2.0 1.6666666666666667
14.4 2.0 1.6666666666666667
15.200000000000001 2.0 1.6666666666666667
16.0 2.0 1.6666666666666667
0.0 0.0 3.3333333333333335
0.8 0.0 3.3333333333333335
1.6 0.0 3.3333333333333335
2.4000000000000004 0.0 3.3333333333333335
3.2 0.0 3.3333333333333335
4.0 0.0 3.3333333333333335
4.800000000000001 0.0 3.3333333333333335
5.6000000000000005 0.0 3.3333333333333335
6.4 0.0 3.3333333333333335
7.2 0.0 3.3333333333333335
8.0 0.0 3.3333333333333335
8.8 0.0 3.3333333333333335
9.600000000000001 0.0 3.3333333333333335
10.4 0.0 3.3333333333333335
11.200000000000001 0.0 3.3333333333333335
12.0 0.0 3.3333333333333335
12.8 0.0 3.3333333333333335
13.600000000000001 0.0 3.3333333333333335
14.4 0.0 3.3333333333333335
15.200000000000001 0.0 3.3333333333333335
16.0 0.0 3.3333333333333335
0.0 0.3333333333333333 3.3333333333333335
0.8 0.3333333333333333 3.3333333333333335
1.6 0.3333333333333333 3.3333333333333335
2.4000000000000004 0.3333333333333333 3.3333333333333335
3.2 0.3333333333333333 3.3333333333333335
4.0 0.3333333333333333 3.3333333333333335
4.800000000000001 0.3333333333333333 3.3333333333333335
5.6000000000000005 0.3333333333333333 3.3333333333333335
6.4 0.3333333333333333 3.3333333333333335
7.2 0.3333333333333333 3.3333333333333335
8.0 0.3333333333333333 3.3333333333333335
8.8 0.3333333333333333 3.3333333333333335
9.600000000000001 0.3333333333333333 3.3333333333333335
10.4 0.3333333333333333 3.3333333333333335
11.200000000000001 0.3333333333333333 3.3333333333333335
12.0 0.3333333333333333 3.3333333333333335
12.8 0.3333333333333333 3.3333333333333335
13.600000000000001 0.3333333333333333 3.3333333333333335
14.4 0.3333333333333333 3.3333333333333335
15.200000000000001 0.3333333333333333 3.3333333333333335
16.0 0.3333333333333333 3.3333333333333335
0.0 0.6666666666666666 3.3333333333333335
0.8 0.6666666666666666 3.3333333333333335
1.6 0.6666666666666666 3.3333333333333335
2.4000000000000004 0.6666666666666666 3.3333333333333335
3.2 0.6666666666666666 3.3333333333333335
4.0 0.6666666666666666 3.3333333333333335
4.800000000000001 0.6666666666666666 3.3333333333333335
5.6000000000000005 0.6666666666666666 3.3333333333333335
6.4 0.6666666666666666 3.3333333333333335
7.2 0.6666666666666666 3.3333333333333335
8.0 0.6666666666666666 3.3333333333333335
8.8 0.6666666666666666 3.3333333333333335
9.600000000000001 0.6666666666666666 3.3333333333333335
10.4 0.6666666666666666 3.3333333333333335
11.200000000000001 0.6666666666666666 3.3333333333333335
12.0 0.6666666666666666 3.3333333333333335
12.8 0.6666666666666666 3.3333333333333335
13.600000000000001 0.6666666666666666 3.3333333333333335
14.4 0.6666666666666666 3.3333333333333335
15.200000000000001 0.6666666666666666 3.3333333333333335
16.0 0.6666666666666666 3.3333333333333335
0.0 1.0 3.3333333333333335
0.8 1.0 3.3333333333333335
1.6 1.0 3.3333333333333335
2.4000000000000004 1.0 3.3333333333333335
3.2 1.0 3.3333333333333335
4.0 1.0 3.3333333333333335
4.800000000000001 1.0 3.3333333333333335
5.6000000000000005 1.0 3.3333333333333335
6.4 1.0 3.3333333333333335
7.2 1.0 3.3333333333333335
8.0 1.0 3.3333333333333335
8.8 1.0 3.3333333333333335
9.600000000000001 1.0 3.3333333333333335
10.4 1.0 3.3333333333333335
11.200000000000001 1.0 3.3333333333333335
12.0 1.0 3.3333333333333335
12.8 1.0 3.3333333333333335
13.600000000000001 1.0 3.3333333333333335
14.4 1.0 3.3333333333333335
15.200000000000001 1.0 3.3333333333333335
16.0 1.0 3.3333333333333335
0.0 1.3333333333333333 3.3333333333333335
0.8 1.3333333333333333 3.3333333333333335
1.6 1.3333333333333333 3.3333333333333335
2.4000000000000004 1.3333333333333333 3.3333333333333335
3.2 1.3333333333333333 3.3333333333333335
4.0 1.3333333333333333 3.3333333333333335
4.800000000000001 1.3333333333333333 3.3333333333333335
5.6000000000000005 1.3333333333333333 3.3333333333333335
6.4 1.3333333333333333 3.3333333333333335
7.2 1.3333333333333333 3.3333333333333335
8.0 1.3333333333333333 3.3333333333333335
8.8 1.3333333333333333 3.3333333333333335
9.600000000000001 1.3333333333333333 3.3333333333333335
10.4 1.3333333333333333 3.3333333333333335
11.200000000000001 1.3333333333333333 3.3333333333333335
12.0 1.3333333333333333 3.3333333333333335
12.8 1.3333333333333333 3.3333333333333335
13.600000000000001 1.3333333333333333 3.3333333333333335
14.4 1.3333333333333333 3.3333333333333335
15.200000000000001 1.3333333333333333 3.3333333333333335
16.0 1.3333333333333333 3.3333333333333335
0.0 1.6666666666666665 3.3333333333333335
0.8 1.6666666666666665 3.3333333333333335
1.6 1.6666666666666665 3.3333333333333335
2.4000000000000004 1.6666666666666665 3.3333333333333335
3.2 1.6666666666666665 3.3333333333333335
4.0 1.6666666666666665 3.3333333333333335
4.800000000000001 1.6666666666666665 3.3333333333333335
5.6000000000000005 1.6666666666666665 3.3333333333333335
6.4 1.6666666666666665 3.3333333333333335
7.2 1.6666666666666665 3.3333333333333335
8.0 1.6666666666666665 3.3333333333333335
8.8 1.6666666666666665 3.3333333333333335
9.600000000000001 1.6666666666666665 3.3333333333333335
10.4 1.6666666666666665 3.3333333333333335
11.200000000000001 1.6666666666666665 3.3333333333333335
12.0 1.6666666666666665 3.3333333333333335
12.8 1.6666666666666665 3.3333333333333335
13.600000000000001 1.6666666666666665 3.3333333333333335
14.4 1.6666666666666665 3.3333333333333335
15.200000000000001 1.6666666666666665 3.3333333333333335
16.0 1.6666666666666665 3.3333333333333335
0.0 2.0 3.3333333333333335
0.8 2.0 3.3333333333333335
1.6 2.0 3.3333333333333335
2.4000000000000004 2.0 3.3333333333333335
3.2 2.0 3.3333333333333335
4.0 2.0 3.3333333333333335
4.800000000000001 2.0 3.3333333333333335
5.6000000000000005 2.0 3.3333333333333335
6.4 2.0 3.3333333333333335
7.2 2.0 3.3333333333333335
8.0 2.0 3.3333333333333335
8.8 2.0 3.3333333333333335
9.600000000000001 2.0 3.3333333333333335
10.4 2.0 3.3333333333333335
11.200000000000001 2.0 3.3333333333333335
12.0 2.0 3.3333333333333335
12.8 2.0 3.3333333333333335
13.600000000000001 2.0 3.3333333333333335
14.4 2.0 3.3333333333333335
15.200000000000001 2.0 3.3333333333333335
16.0 2.0 3.3333333333333335
0.0 0.0 5.0
0.8 0.0 5.0
1.6 0.0 5.0
2.4000000000000004 0.0 5.0
3.2 0.0 5.0
4.0 0.0 5.0
4.800000000000001 0.0 5.0
5.6000000000000005 0.0 5.0
6.4 0.0 5.0
7.2 0.0 5.0
8.0 0.0 5.0
8.8 0.0 5.0
9.600000000000001 0.0 5.0
10.4 0.0 5.0
11.200000000000001 0.0 5.0
12.0 0.0 5.0
12.8 0.0 5.0
13.600000000000001 0.0 5.0
14.4 0.0 5.0
15.200000000000001 0.0 5.0
16.0 0.0 5.0
0.0 0.3333333333333333 5.0
0.8 0.3333333333333333 5.0
1.6 0.3333333333333333 5.0
2.4000000000000004 0.3333333333333333 5.0
3.2 0.3333333333333333 5.0
4.0 0.3333333333333333 5.0
4.800000000000001 0.3333333333333333 5.0
5.6000000000000005 0.3333333333333333 5.0
6.4 0.3333333333333333 5.0
7.2 0.3333333333333333 5.0
8.0 0.3333333333333333 5.0
8.8 0.3333333333333333 5.0
9.600000000000001 0.3333333333333333 5.0
10.4 0.3333333333333333 5.0
11.200000000000001 0.3333333333333333 5.0
12.0 0.3333333333333333 5.0
12.8 0.3333333333333333 5.0
13.600000000000001 0.3333333333333333 5.0
14.4 0.3333333333333333 5.0
15.200000000000001 0.3333333333333333 5.0
16.0 0.3333333333333333 5.0
0.0 0.6666666666666666 5.0
0.8 0.6666666666666666 5.0
1.6 0.6666666666666666 5.0
2.4000000000000004 0.6666666666666666 5.0
3.2 0.6666666666666666 5.0
4.0 0.6666666666666666 5.0
4.800000000000001 0.6666666666666666 5.0
5.6000000000000005 0.6666666666666666 5.0
6.4 0.6666666666666666 5.0
7.2 0.6666666666666666 5.0
8.0 0.6666666666666666 5.0
8.8 0.6666666666666666 5.0
9.600000000000001 0.6666666666666666 5.0
10.4 0.6666666666666666 5.0
11.200000000000001 0.6666666666666666 5.0
12.0 0.6666666666666666 5.0
12.8 0.6666666666666666 5.0
13.600000000000001 0.6666666666666666 5.0
14.4 0.6666666666666666 5.0
15.200000000000001 0.6666666666666666 5.0
16.0 0.6666666666666666 5.0
0.0 1.0 5.0
0.8 1.0 5.0
1.6 1.0 5.0
2.4000000000000004 1.0 5.0
3.2 1.0 5.0
4.0 1.0 5.0
4.800000000000001 1.0 5.0
5.6000000000000005 1.0 5.0
6.4 1.0 5.0
7.2 1.0 5.0
8.0 1.0 5.0
8.8 1.0 5.0
9.600000000000001 1.0 5.0
10.4 1.0 5.0
11.200000000000001 1.0 5.0
12.0 1.0 5.0
12.8 1.0 5.0
13.600000000000001 1.0 5.0
14.4 1.0 5.0
15.200000000000001 1.0 5.0
16.0 1.0 5.0
0.0 1.3333333333333333 5.0
0.8 1.3333333333333333 5.0
1.6 1.3333333333333333 5.0
2.4000000000000004 1.3333333333333333 5.0
3.2 1.3333333333333333 5.0
4.0 1.3333333333333333 5.0
4.800000000000001 1.3333333333333333 5.0
5.6000000000000005 1.3333333333333333 5.0
6.4 1.3333333333333333 5.0
7.2 1.3333333333333333 5.0
8.0 1.3333333333333333 5.0
8.8 1.3333333333333333 5.0
9.600000000000001 1.3333333333333333 5.0
10.4 1.3333333333333333 5.0
11.200000000000001 1.3333333333333333 5.0
12.0 1.3333333333333333 5.0
12.8 1.3333333333333333 5.0
13.600000000000001 1.3333333333333333 5.0
14.4 1.3333333333333333 5.0
15.200000000000001 1.3333333333333333 5.0
16.0 1.3333333333333333 5.0
0.0 1.6666666666666665 5.0
0.8 1.6666666666666665 5.0
1.6 1.6666666666666665 5.0
2.4000000000000004 1.6666666666666665 5.0
3.2 1.6666666666666665 5.0
4.0 1.6666666666666665 5.0
4.800000000000001 1.6666666666666665 5.0
5.6000000000000005 1.6666666666666665 5.0
6.4 1.6666666666666665 5.0
7.2 1.6666666666666665 5.0
8.0 1.6666666666666665 5.0
8.8 1.6666666666666665 5.0
9.600000000000001 1.6666666666666665 5.0
10.4 1.6666666666666665 5.0
11.200000000000001 1.6666666666666665 5.0
12.0 1.6666666666666665 5.0
12.8 1.6666666666666665 5.0
13.600000000000001 1.6666666666666665 5.0
14.4 1.6666666666666665 5.0
15.200000000000001 1.6666666666666665 5.0
16.0 1.6666666666666665 5.0
0.0 2.0 5.0
0.8 2.0 5.0
1.6 2.0 5.0
2.4000000000000004 2.0 5.0
3.2 2.0 5.0
4.0 2.0 5.0
4.800000000000001 2.0 5.0
5.6000000000000005 2.0 5.0
6.4 2.0 5.0
7.2 2.0 5.0
8.0 2.0 5.0
8.8 2.0 5.0
9.600000000000001 2.0 5.0
10.4 2.0 5.0
11.200000000000001 2.0 5.0
12.0 2.0 5.0
12.8 2.0 5.0
13.600000000000001 2.0 5.0
14.4 2.0 5.0
15.200000000000001 2.0 5.0
16.0 2.0 5.0
0.0 0.0 6.666666666666667
0.8 0.0 6.666666666666667
1.6 0.0 6.666666666666667
2.4000000000000004 0.0 6.666666666666667
3.2 0.0 6.666666666666667
4.0 0.0 6.666666666666667
4.800000000000001 0.0 6.666666666666667
5.6000000000000005 0.0 6.666666666666667
6.4 0.0 6.666666666666667
7.2 0.0 6.666666666666667
8.0 0.0 6.666666666666667
8.8 0.0 6.666666666666667
9.600000000000001 0.0 6.666666666666667
10.4 0.0 6.666666666666667
11.200000000000001 0.0 6.666666666666667
12.0 0.0 6.666666666666667
12.8 0.0 6.666666666666667
13.600000000000001 0.0 6.666666666666667
14.4 0.0 6.666666666666667
15.200000000000001 0.0 6.666666666666667
16.0 0.0 6.666666666666667
0.0 0.3333333333333333 6.666666666666667
0.8 0.3333333333333333 6.666666666666667
1.6 0.3333333333333333 6.666666666666667
2.4000000000000004 0.3333333333333333 6.666666666666667
3.2 0.3333333333333333 6.666666666666667
4.0 0.3333333333333333 6.666666666666667
4.800000000000001 0.3333333333333333 6.666666666666667
5.6000000000000005 0.3333333333333333 6.666666666666667
6.4 0.3333333333333333 6.666666666666667
7.2 0.3333333333333333 6.666666666666667
8.0 0.3333333333333333 6.666666666666667
8.8 0.3333333333333333 6.666666666666667
9.600000000000001 0.3333333333333333 6.666666666666667
10.4 0.3333333333333333 6.666666666666667
11.200000000000001 0.3333333333333333 6.666666666666667
12.0 0.3333333333333333 6.666666666666667
12.8 0.3333333333333333 6.666666666666667
13.600000000000001 0.3333333333333333 6.666666666666667
14.4 0.3333333333333333 6.666666666666667
15.200000000000001 0.3333333333333333 6.666666666666667
16.0 0.3333333333333333 6.666666666666667
0.0 0.6666666666666666 6.666666666666667
0.8 0.6666666666666666 6.666666666666667
1.6 0.6666666666666666 6.666666666666667
2.4000000000000004 0.6666666666666666 6.666666666666667
3.2 0.6666666666666666 6.666666666666667
4.0 0.6666666666666666 6.666666666666667
4.800000000000001 0.6666666666666666 6.666666666666667
5.6000000000000005 0.6666666666666666 6.666666666666667
6.4 0.6666666666666666 6.666666666666667
7.2 0.6666666666666666 6.666666666666667
8.0 0.6666666666666666 6.666666666666667
8.8 0.6666666666666666 6.666666666666667
9.600000000000001 0.6666666666666666 6.666666666666667
10.4 0.6666666666666666 6.666666666666667
11.200000000000001 0.6666666666666666 6.666666666666667
12.0 0.6666666666666666 6.666666666666667
12.8 0.6666666666666666 6.666666666666667
13.600000000000001 0.6666666666666666 6.666666666666667
14.4 0.6666666666666666 6.666666666666667
15.200000000000001 0.6666666666666666 6.666666666666667
16.0 0.6666666666666666 6.666666666666667
0.0 1.0 6.666666666666667
0.8 1.0 6.666666666666667
1.6 1.0 6.666666666666667
2.4000000000000004 1.0 6.666666666666667
3.2 1.0 6.666666666666667
4.0 1.0 6.666666666666667
4.800000000000001 1.0 6.666666666666667
5.6000000000000005 1.0 6.666666666666667
6.4 1.0 6.666666666666667
7.2 1.0 6.666666666666667
8.0 1.0 6.666666666666667
8.8 1.0 6.666666666666667
9.600000000000001 1.0 6.666666666666667
10.4 1.0 6.666666666666667
11.200000000000001 1.0 6.666666666666667
12.0 1.0 6.666666666666667
12.8 1.0 6.666666666666667
13.600000000000001 1.0 6.666666666666667
14.4 1.0 6.666666666666667
15.200000000000001 1.0 6.666666666666667
16.0 1.0 6.666666666666667
0.0 1.3333333333333333 6.666666666666667
0.8 1.3333333333333333 6.666666666666667
1.6 1.3333333333333333 6.666666666666667
2.4000000000000004 1.3333333333333333 6.666666666666667
3.2 1.3333333333333333 6.666666666666667
4.0 1.3333333333333333 6.666666666666667
4.800000000000001 1.3333333333333333 6.666666666666667
5.6000000000000005 1.3333333333333333 6.666666666666667
6.4 1.3333333333333333 6.666666666666667
7.2 1.3333333333333333 6.666666666666667
8.0 1.3333333333333333 6.666666666666667
8.8 1.3333333333333333 6.666666666666667
9.600000000000001 1.3333333333333333 6.666666666666667
10.4 1.3333333333333333 6.666666666666667
11.200000000000001 1.3333333333333333 6.666666666666667
12.0 1.3333333333333333 6.666666666666667
12.8 1.3333333333333333 6.666666666666667
13.600000000000001 1.3333333333333333 6.666666666666667
14.4 1.3333333333333333 6.666666666666667
15.200000000000001 1.3333333333333333 6.666666666666667
16.0 1.3333333333333333 6.666666666666667
0.0 1.6666666666666665 6.666666666666667
0.8 1.6666666666666665 6.666666666666667
1.6 1.6666666666666665 6.666666666666667
2.4000000000000004 1.6666666666666665 6.666666666666667
3.2 1.6666666666666665 6.666666666666667
4.0 1.6666666666666665 6.666666666666667
4.800000000000001 1.6666666666666665 6.666666666666667
5.6000000000000005 1.6666666666666665 6.666666666666667
6.4 1.6666666666666665 6.666666666666667
7.2 1.6666666666666665 6.666666666666667
8.0 1.6666666666666665 6.666666666666667
8.8 1.6666666666666665 6.666666666666667
9.600000000000001 1.6666666666666665 6.666666666666667
10.4 1.6666666666666665 6.666666666666667
11.200000000000001 1.6666666666666665 6.666666666666667
12.0 1.6666666666666665 6.666666666666667
12.8 1.6666666666666665 6.666666666666667
13.600000000000001 1.6666666666666665 6.666666666666667
14.4 1.6666666666666665 6.666666666666667
15.200000000000001 1.6666666666666665 6.666666666666667
16.0 1.6666666666666665 6.666666666666667
0.0 2.0 6.666666666666667
0.8 2.0 6.666666666666667
1.6 2.0 6.666666666666667
2.4000000000000004 2.0 6.666666666666667
3.2 2.0 6.666666666666667
4.0 2.0 6.666666666666667
4.800000000000001 2.0 6.666666666666667
5.6000000000000005 2.0 6.666666666666667
6.4 2.0 6.666666666666667
7.2 2.0 6.666666666666667
8.0 2.0 6.666666666666667
8.8 2.0 6.666666666666667
9.600000000000001 2.0 6.666666666666667
10.4 2.0 6.666666666666667
11.200000000000001 2.0 6.666666666666667
12.0 2.0 6.666666666666667
12.8 2.0 6.666666666666667
13.600000000000001 2.0 6.666666666666667
14.4 2.0 6.666666666666667
15.200000000000001 2.0 6.666666666666667
16.0 2.0 6.666666666666667
0.0 0.0 8.333333333333334
0.8 0.0 8.333333333333334
1.6 0.0 8.333333333333334
2.4000000000000004 0.0 8.333333333333334
3.2 0.0 8.333333333333334
4.0 0.0 8.333333333333334
4.800000000000001 0.0 8.333333333333334
5.6000000000000005 0.0 8.333333333333334
6.4 0.0 8.333333333333334
7.2 0.0 8.333333333333334
8.0 0.0 8.333333333333334
8.8 0.0 8.333333333333334
9.600000000000001 0.0 8.333333333333334
10.4 0.0 8.333333333333334
11.200000000000001 0.0 8.333333333333334
12.0 0.0 8.333333333333334
12.8 0.0 8.333333333333334
13.600000000000001 0.0 8.333333333333334
14.4 0.0 8.333333333333334
15.200000000000001 0.0 8.333333333333334
16.0 0.0 8.333333333333334
0.0 0.3333333333333333 8.333333333333334
0.8 0.3333333333333333 8.333333333333334
1.6 0.3333333333333333 8.333333333333334
2.4000000000000004 0.3333333333333333 8.333333333333334
3.2 0.3333333333333333 8.333333333333334
4.0 0.3333333333333333 8.333333333333334
4.800000000000001 0.3333333333333333 8.333333333333334
5.6000000000000005 0.3333333333333333 8.333333333333334
6.4 0.3333333333333333 8.333333333333334
7.2 0.3333333333333333 8.333333333333334
8.0 0.3333333333333333 8.333333333333334
8.8 0.3333333333333333 8.333333333333334
9.600000000000001 0.3333333333333333 8.333333333333334
10.4 0.3333333333333333 8.333333333333334
11.200000000000001 0.3333333333333333 8.333333333333334
12.0 0.3333333333333333 8.333333333333334
12.8 0.3333333333333333 8.333333333333334
13.600000000000001 0.3333333333333333 8.333333333333334
14.4 0.3333333333333333 8.333333333333334
15.200000000000001 0.3333333333333333 8.333333333333334
16.0 0.3333333333333333 8.333333333333334
0.0 0.6666666666666666 8.333333333333334
0.8 0.6666666666666666 8.333333333333334
1.6 0.6666666666666666 8.333333333333334
2.4000000000000004 0.6666666666666666 8.333333333333334
3.2 0.6666666666666666 8.333333333333334
4.0 0.6666666666666666 8.333333333333334
4.800000000000001 0.6666666666666666 8.333333333333334
5.6000000000000005 0.6666666666666666 8.333333333333334
6.4 0.6666666666666666 8.333333333333334
7.2 0.6666666666666666 8.333333333333334
8.0 0.6666666666666666 8.333333333333334
8.8 0.6666666666666666 8.333333333333334
9.600000000000001 0.6666666666666666 8.333333333333334
10.4 0.6666666666666666 8.333333333333334
11.200000000000001 0.6666666666666666 8.333333333333334
12.0 0.6666666666666666 8.333333333333334
12.8 0.6666666666666666 8.333333333333334
13.600000000000001 0.6666666666666666 8.333333333333334
14.4 0.6666666666666666 8.333333333333334
15.200000000000001 0.6666666666666666 8.333333333333334
16.0 0.6666666666666666 8.333333333333334
0.0 1.0 8.333333333333334
0.8 1.0 8.333333333333334
1.6 1.0 8.333333333333334
2.4000000000000004 1.0 8.333333333333334
3.2 1.0 8.333333333333334
4.0 1.0 8.333333333333334
4.800000000000001 1.0 8.333333333333334
5.6000000000000005 1.0 8.333333333333334
6.4 1.0 8.333333333333334
7.2 1.0 8.333333333333334
8.0 1.0 8.333333333333334
8.8 1.0 8.333333333333334
9.600000000000001 1.0 8.333333333333334
10.4 1.0 8.333333333333334
11.200000000000001 1.0 8.333333333333334
12.0 1.0 8.333333333333334
12.8 1.0 8.333333333333334
13.600000000000001 1.0 8.333333333333334
14.4 1.0 8.333333333333334
15.200000000000001 1.0 8.333333333333334
16.0 1.0 8.333333333333334
0.0 1.3333333333333333 8.333333333333334
0.8 1.3333333333333333 8.333333333333334
1.6 1.3333333333333333 8.333333333333334
2.4000000000000004 1.3333333333333333 8.333333333333334
3.2 1.3333333333333333 8.333333333333334
4.0 1.3333333333333333 8.333333333333334
4.800000000000001 1.3333333333333333 8.333333333333334
5.6000000000000005 1.3333333333333333 8.333333333333334
6.4 1.3333333333333333 8.333333333333334
7.2 1.3333333333333333 8.333333333333334
8.0 1.3333333333333333 8.333333333333334
8.8 1.3333333333333333 8.333333333333334
9.600000000000001 1.3333333333333333 8.333333333333334
10.4 1.3333333333333333 8.333333333333334
11.200000000000001 1.3333333333333333 8.333333333333334
12.0 1.3333333333333333 8.333333333333334
12.8 1.3333333333333333 8.333333333333334
13.600000000000001 1.3333333333333333 8.333333333333334
14.4 1.3333333333333333 8.333333333333334
15.200000000000001 1.3333333333333333 8.333333333333334
16.0 1.3333333333333333 8.333333333333334
0.0 1.6666666666666665 8.333333333333334
0.8 1.6666666666666665 8.333333333333334
1.6 1.6666666666666665 8.333333333333334
2.4000000000000004 1.6666666666666665 8.333333333333334
3.2 1.6666666666666665 8.333333333333334
4.0 1.6666666666666665 8.333333333333334
4.800000000000001 1.6666666666666665 8.333333333333334
5.6000000000000005 1.6666666666666665 8.333333333333334
6.4 1.6666666666666665 8.333333333333334
7.2 1.6666666666666665 8.333333333333334
8.0 1.6666666666666665 8.333333333333334
8.8 1.6666666666666665 8.333333333333334
9.600000000000001 1.6666666666666665 8.333333333333334
10.4 1.6666666666666665 8.333333333333334
11.200000000000001 1.6666666666666665 8.333333333333334
12.0 1.6666666666666665 8.333333333333334
12.8 1.6666666666666665 8.333333333333334
13.600000000000001 1.6666666666666665 8.333333333333334
14.4 1.6666666666666665 8.333333333333334
15.200000000000001 1.6666666666666665 8.333333333333334
16.0 1.6666666666666665 8.333333333333334
0.0 2.0 8.333333333333334
0.8 2.0 8.333333333333334
1.6 2.0 8.333333333333334
2.4000000000000004 2.0 8.333333333333334
3.2 2.0 8.333333333333334
4.0 2.0 8.333333333333334
4.800000000000001 2.0 8.333333333333334
5.6000000000000005 2.0 8.333333333333334
6.4 2.0 8.333333333333334
7.2 2.0 8.333333333333334
8.0 2.0 8.333333333333334
8.8 2.0 8.333333333333334
9.600000000000001 2.0 8.333333333333334
10.4 2.0 8.333333333333334
11.200000000000001 2.0 8.333333333333334
12.0 2.0 8.333333333333334
12.8 2.0 8.333333333333334
13.600000000000001 2.0 8.333333333333334
14.4 2.0 8.333333333333334
15.200000000000001 2.0 8.333333333333334
16.0 2.0 8.333333333333334
0.0 0.0 10.0
0.8 0.0 10.0
1.6 0.0 10.0
2.4000000000000004 0.0 10.0
3.2 0.0 10.0
4.0 0.0 10.0
4.800000000000001 0.0 10.0
5.6000000000000005 0.0 10.0
6.4 0.0 10.0
7.2 0.0 10.0
8.0 0.0 10.0
8.8 0.0 10.0
9.600000000000001 0.0 10.0
10.4 0.0 10.0
11.200000000000001 0.0 10.0
12.0 0.0 10.0
12.8 0.0 10.0
13.600000000000001 0.0 10.0
14.4 0.0 10.0
15.200000000000001 0.0 10.0
16.0 0.0 10.0
0.0 0.3333333333333333 10.0
0.8 0.3333333333333333 10.0
1.6 0.3333333333333333 10.0
2.4000000000000004 0.3333333333333333 10.0
3.2 0.3333333333333333 10.0
4.0 0.3333333333333333 10.0
4.800000000000001 0.3333333333333333 10.0
5.6000000000000005 0.3333333333333333 10.0
6.4 0.3333333333333333 10.0
7.2 0.3333333333333333 10.0
8.0 0.3333333333333333 10.0
8.8 0.3333333333333333 10.0
9.600000000000001 0.3333333333333333 10.0
10.4 0.3333333333333333 10.0
11.200000000000001 0.3333333333333333 10.0
12.0 0.3333333333333333 10.0
12.8 0.3333333333333333 10.0
13.600000000000001 0.3333333333333333 10.0
14.4 0.3333333333333333 10.0
15.200000000000001 0.3333333333333333 10.0
16.0 0.3333333333333333 10.0
0.0 0.6666666666666666 10.0
0.8 0.6666666666666666 10.0
1.6 0.6666666666666666 10.0
2.4000000000000004 0.6666666666666666 10.0
3.2 0.6666666666666666 10.0
4.0 0.6666666666666666 10.0
4.800000000000001 0.6666666666666666 10.0
5.6000000000000005 0.6666666666666666 10.0
6.4 0.6666666666666666 10.0
7.2 0.6666666666666666 10.0
8.0 0.6666666666666666 10.0
8.8 0.6666666666666666 10.0
9.600000000000001 0.6666666666666666 10.0
10.4 0.6666666666666666 10.0
11.200000000000001 0.6666666666666666 10.0
12.0 0.6666666666666666 10.0
12.8 0.6666666666666666 10.0
13.600000000000001 0.6666666666666666 10.0
14.4 0.6666666666666666 10.0
15.200000000000001 0.6666666666666666 10.0
16.0 0.6666666666666666 10.0
0.0 1.0 10.0
0.8 1.0 10.0
1.6 1.0 10.0
2.4000000000000004 1.0 10.0
3.2 1.0 10.0
4.0 1.0 10.0
4.800000000000001 1.0 10.0
5.6000000000000005 1.0 10.0
6.4 1.0 10.0
7.2 1.0 10.0
8.0 1.0 10.0
8.8 1.0 10.0
9.600000000000001 1.0 10.0
10.4 1.0 10.0
11.200000000000001 1.0 10.0
12.0 1.0 10.0
12.8 1.0 10.0
13.600000000000001 1.0 10.0
14.4 1.0 10.0
15.200000000000001 1.0 10.0
16.0 1.0 10.0
0.0 1.3333333333333333 10.0
0.8 1.3333333333333333 10.0
1.6 1.3333333333333333 10.0
2.4000000000000004 1.3333333333333333 10.0
3.2 1.3333333333333333 10.0
4.0 1.3333333333333333 10.0
4.800000000000001 1.3333333333333333 10.0
5.6000000000000005 1.3333333333333333 10.0
6.4 1.3333333333333333 10.0
7.2 1.3333333333333333 10.0
8.0 1.3333333333333333 10.0
8.8 1.3333333333333333 10.0
9.600000000000001 1.3333333333333333 10.0
10.4 1.3333333333333333 10.0
11.200000000000001 1.3333333333333333 10.0
12.0 1.3333333333333333 10.0
12.8 1.3333333333333333 10.0
13.600000000000001 1.3333333333333333 10.0
14.4 1.3333333333333333 10.0
15.200000000000001 1.3333333333333333 10.0
16.0 1.3333333333333333 10.0
0.0 1.6666666666666665 10.0
0.8 1.6666666666666665 10.0
1.6 1.6666666666666665 10.0
2.4000000000000004 1.6666666666666665 10.0
3.2 1.6666666666666665 10.0
4.0 1.6666666666666665 10.0
4.800000000000001 1.6666666666666665 10.0
5.6000000000000005 1.6666666666666665 10.0
6.4 1.6666666666666665 10.0
7.2 1.6666666666666665 10.0
8.0 1.6666666666666665 10.0
8.8 1.6666666666666665 10.0
9.600000000000001 1.6666666666666665 10.0
10.4 1.6666666666666665 10.0
11.200000000000001 1.6666666666666665 10.0
12.0 1.6666666666666665 10.0
12.8 1.6666666666666665 10.0
13.600000000000001 1.6666666666666665 10.0
14.4 1.6666666666666665 10.0
15.200000000000001 1.6666666666666665 10.0
16.0 1.6666666666666665 10.0
0.0 2.0 10.0
0.8 2.0 10.0
1.6 2.0 10.0
2.4000000000000004 2.0 10.0
3.2 2.0 10.0
4.0 2.0 10.0
4.800000000000001 2.0 10.0
5.6000000000000005 2.0 10.0
6.4 2.0 10.0
7.2 2.0 10.0
8.0 2.0 10.0
8.8 2.0 10.0
9.600000000000001 2.0 10.0
10.4 2.0 10.0
11.200000000000001 2.0 10.0
12.0 2.0 10.0
12.8 2.0 10.0
13.600000000000001 2.0 10.0
14.4 2.0 10.0
15.200000000000001 2.0 10.0
16.0 2.0 10.0
CELLS 720 6480
8 0 1 22 21 147 148 169 168
8 1 2 23 22 148 149 170 169
8 2 3 24 23 149 150 171 170
8 3 4 25 24 150 151 172 171
8 4 5 26 25 151 152 173 172
8 5 6 27 26 152 153 174 173
8 6 7 28 27 153 154 175 174
8 7 8 29 28 154 155 176 175
8 8 9 30 29 155 156 177 176
8 9 10 31 30 156 157 178 177
8 10 11 32 31 157 158 179 178
8 11 12 33 32 158 159 180 179
8 12 13 34 33 159 160 181 180
8 13 14 35 34 160 161 182 181
8 14 15 36 35 161 162 183 182
8 15 16 37 36 162 163 184 183
8 16 17 38 37 163 164 185 184
8 17 18 39 38 164 165 186 185
8 18 19 40 39 165 166 187 186
8 19 20 41 40 166 167 188 187
8 21 22 43 42 168 169 190 189
8 22 23 44 43 169 170 191 190
8 23 24 45 44 170 171 192 191
8 24 25 46 45 171 172 193 192
8 25 26 47 46 172 173 194 193
8 26 27 48 47 173 174 195 194
8 27 28 49 48 174 175 196 195
8 28 29 50 49 175 176 197 196
8 29 30 51 50 176 177 198 197
8 30 31 52 51 177 178 199 198
8 31 32 53 52 178 179 200 199
8 32 33 54 53 179 180 201 200
8 33 34 55 54 180 181 202 201
8 34 35 56 55 181 182 203 202
8 35 36 57 56 182 183 204 203
8 36 37 58 57 183 184 205 204
8 37 38 59 58 184 185 206 205
8 38 39 60 59 185 186 207 206
8 39 40 61 60 186 187 208 207
8 40 41 62 61 187 188 209 208
8 42 43 64 63 189 190 211 210
8 43 44 65 64 190 191 212 211
8 44 45 66 65 191 192 213 212
8 45 46 67 66 192 193 214 213
8 46 47 68 67 193 194 215 214
8 47 48 69 68 194 195 216 215
8 48 49 70 69 195 196 217 216
8 49 50 71 70 196 197 218 217
8 50 51 72 71 197 198 219 218
8 51 52 73 72 198 199 220 219
8 52 53 74 73 199 200 221 220
8 53 54 75 74 200 201 222 221
8 54 55 76 75 201 202 223 222
8 55 56 77 76 202 203 224 223
8 56 57 78 77 203 204 225 224
8 57 58 79 78 204 205 226 225
8 58 59 80 79 205 206 227 226
8 59 60 81 80 206 207 228 227
8 60 61 82 81 207 208 229 228
8 61 62 83 82 208 209 230 229
8 63 64 85 84 210 211 232 231
8 64 65 86 85 211 212 233 232
8 65 66 87 86 212 213 234 233
8 66 67 88 87 213 214 235 234
8 67 68 89 88 214 215 236 235
8 68 69 90 89 215 216 237 236
8 69 70 91 90 216 217 238 237
8 70 71 92 91 217 218 239 238
8 71 72 93 92 218 219 240 239
8 72 73 94 93 219 220 241 240
8 73 74 95 94 220 221 242 241
8 74 75 96 95 221 222 243 242
8 75 76 97 96 222 223 244 243
8 76 77 98 97 223 224 245 244
8 77 78 99 98 224 225 246 245
8 78 79 100 99 225 226 247 246
8 79 80 101 100 226 227 248 247
8 80 81 102 101 227 228 249 248
8 81 82 103 102 228 229 250 249
8 82 83 104 103 229 230 251 250
8 84 85 106 105 231 232 253 252
8 85 86 107 106 232 233 254 253
8 86 87 108 107 233 234 255 254
8 87 88 109 108 234 235 256 255
8 88 89 110 109 235 236 257 256
8 89 90 111 110 236 237 258 257
8 90 91 112 111 237 238 259 258
8 91 92 113 112 238 239 260 259
8 92 93 114 113 239 240 261 260
8 93 94 115 114 240 241 262 261
8 94 95 116 115 241 242 263 262
8 95 96 117 116 242 243 264 263
8 96 97 118 117 243 244 265 264
8 97 98 119 118 244 245 266 265
8 98 99 120 119 245 246 267 266
8 99 100 121 120 246 247 268 267
8 100 101 122 121 247 248 269 268
8 101 102 123 122 248 249 270 269
8 102 103 124 123 249 250 271 270
8 103 104 125 124 250 251 272 271
8 105 106 127 126 252 253 274 273
8 106 107 128 127 253 254 275 274
8 107 108 129 128 254 255 276 275
8 108 109 130 129 255 256 277 276
8 109 110 131 130 256 257 278 277
8 110 111 132 131 257 258 279 278
8 111 112 133 132 258 259 280 279
8 112 113 134 133 259 260 281 280
8 113 114 135 134 260 261 282 281
8 114 115 136 135 261 262 283 282
8 115 116 137 136 262 263 284 283
8 116 117 138 137 263 264 285 284
8 117 118 139 138 264 265 286 285
8 118 119 140 139 265 266 287 286
8 119 120 141 140 266 267 288 287
8 120 121 142 141 267 268 289 288
8 121 122 143 142 268 269 290 289
8 122 123 144 143 269 270 291 290
8 123 124 145 144 270 271 292 291
8 124 125 146 145 271 272 293 292
8 147 148 169 168 294 295 316 315
8 148 149 170 169 295 296 317 316
8 149 150 171 170 296 297 318 317
8 150 151 172 171 297 298 319 318
8 151 152 173 172 298 299 320 319
8 152 153 174 173 299 300 321 320
8 153 154 175 174 300 301 322 321
8 154 155 176 175 301 302 323 322
8 155 156 177 176 302 303 324 323
8 156 157 178 177 303 304 325 324
8 157 158 179 178 304 305 326 325
8 158 159 180 179 305 306 327 326
8 159 160 181 180 306 307 328 327
8 160 161 182 181 307 308 329 328
8 161 162 183 182 308 309 330 329
8 162 163 184 183 309 310 331 330
8 163 164 185 184 310 311 332 331
8 164 165 186 185 311 312 333 332
8 165 166 187 186 312 313 334 333
8 166 167 188 187 313 314 335 334
8 168 169 190 189 315 316 337 336
8 169 170 191 190 316 317 338 337
8 170 171 192 191 317 318 339 338
8 171 172 193 192 318 319 340 339
8 172 173 194 193 319 320 341 340
8 173 174 195 194 320 321 342 341
8 174 175 196 195 321 322 343 342
8 175 176 197 196 322 323 344 343
8 176 177 198 197 323 324 345 344
8 177 178 199 198 324 325 346 345
8 178 179 200 199 325 326 347 346
8 179 180 201 200 326 327 348 347
8 180 181 202 201 327 328 349 348
8 181 182 203 202 328 329 350 349
8 182 183 204 203 329 330 351 350
8 183 184 205 204 330 331 352 351
8 184 185 206 205 331 332 353 352
8 185 186 207 206 332 333 354 353
8 186 187 208 207 333 334 355 354
8 187 188 209 208 334 335 356 355
8 189 190 211 210 336 337 358 357
8 190 191 212 211 337 338 359 358
8 191 192 213 212 338 339 360 359
8 192 193 214 213 339 340 361 360
8 193 194 215 214 340 341 362 361
8 194 195 216 215 341 342 363 362
8 195 196 217 216 342 343 364 363
8 196 197 218 217 343 344 365 364
8 197 198 219 218 344 345 366 365
8 198 199 220 219 345 346 367 366
8 199 200 221 220 346 347 368 367
8 200 201 222 221 347 348 369 368
8 201 202 223 222 348 349 370 369
8 202 203 224 223 349 350 371 370
8 203 204 225 224 350 351 372 371
8 204 205 226 225 351 352 373 372
8 205 206 227 226 352 353 374 373
8 206 207 228 227 353 354 375 374
8 207 208 229 228 354 355 376 375
8 208 209 230 229 355 356 377 376
8 210 211 232 231 357 358 379 378
8 211 212 233 232 358 359 380 379
8 212 213 234 233 359 360 381 380
8 213 214 235 234 360 361 382 381
8 214 215 236 235 361 362 383 382
8 215 216 237 236 362 363 384 383
8 216 217 238 237 363 364 385 384
8 217 218 239 238 364 365 386 385
8 218 219 240 239 365 366 387 386
8 219 220 241 240 366 367 388 387
8 220 221 242 241 367 368 389 388
8 221 222 243 242 368 369 390 389
8 222 223 244 243 369 370 391 390
8 223 224 245 244 370 371 392 391
8 224 225 246 245 371 372 393 392
8 225 226 247 246 372 373 394 393
8 226 227 248 247 373 374 395 394
8 227 228 249 248 374 375 396 395
8 228 229 250 249 375 376 397 396
8 229 230 251 250 376 377 398 397
8 231 232 253 252 378 379 400 399
8 232 233 254 253 379 380 401 400
8 233 234 255 254 380 381 402 401
8 234 235 256 255 381 382 403 402
8 235 236 257 256 382 383 404 403
8 236 237 258 257 383 384 405 404
8 237 238 259 258 384 385 406 405
8 238 239 260 259 385 386 407 406
8 239 240 261 260 386 387 408 407
8 240 241 262 261 387 388 409 408
8 241 242 263 262 388 389 410 409
8 242 243 264 263 389 390 411 410
8 243 244 265 264 390 391 412 411
8 244 245 266 265 391 392 413 412
8 245 246 267 266 392 393 414 413
8 246 247 268 267 393 394 415 414
8 247 248 269 268 394 395 416 415
8 248 249 270 269 395 396 417 416
8 249 250 271 270 396 397 418 417
8 250 251 272 271 397 398 419 418
8 252 253 274 273 399 400 421 420
8 253 254 275 274 400 401 422 421
8 254 255 276 275 401 402 423 422
8 255 256 277 276 402 403 424 423
8 256 257 278 277 403 404 425 424
8 257 258 279 278 404 405 426 425
8 258 259 280 279 405 406 427 426
8 259 260 281 280 406 407 428 427
8 260 261 282 281 407 408 429 428
8 261 262 283 282 408 409 430 429
8 262 263 284 283 409 410 431 430
8 263 264 285 284 410 411 432 431
8 264 265 286 285 411 412 433 432
8 265 266 287 286 412 413 434 433
8 266 267 288 287 413 414 435 434
8 267 268 289 288 414 415 436 435
8 268 269 290 289 415 416 437 436
8 269 270 291 290 416 417 438 437
8 270 271 292 291 417 418 439 438
8 271 272 293 292 418 419 440 439
8 294 295 316 315 441 442 463 462
8 295 296 317 316 442 443 464 463
8 296 297 318 317 443 444 465 464
8 297 298 319 318 444 445 466 465
8 298 299 320 319 445 446 467 466
8 299 300 321 320 446 447 468 467
8 300 301 322 321 447 448 469 468
8 301 302 323 322 448 449 470 469
8 302 303 324 323 449 450 471 470
8 303 304 325 324 450 451 472 471
8 304 305 326 325 451 452 473 472
8 305 306 327 326 452 453 474 473
8 306 307 328 327 453 454 475 474
8 307 308 329 328 454 455 476 475
8 308 309 330 329 455 456 477 476
8 309 310 331 330 456 457 478 477
8 310 311 332 331 457 458 479 478
8 311 312 333 332 458 459 480 479
8 312 313 334 333 459 460 481 480
8 313 314 335 334 460 461 482 481
8 315 316 337 336 462 463 484 483
8 316 317 338 337 463 464 485 484
8 317 318 339 338 464 465 486 485
8 318 319 340 339 465 466 487 486
8 319 320 341 340 466 467 488 487
8 320 321 342 341 467 468 489 488
8 321 322 343 342 468 469 490 489
8 322 323 344 343 469 470 491 490
8 323 324 345 344 470 471 492 491
8 324 325 346 345 471 472 493 492
8 325 326 347 346 472 473 494 493
8 326 327 348 347 473 474 495 494
8 327 328 349 348 474 475 496 495
8 328 329 350 349 475 476 497 496
8 329 330 351 350 476 477 498 497
8 330 331 352 351 477 478 499 498
8 331 332 353 352 478 479 500 499
8 332 333 354 353 479 480 501 500
8 333 334 355 354 480 481 502 501
8 334 335 356 355 481 482 503 502
8 336 337 358 357 483 484 505 504
8 337 338 359 358 484 485 506 505
8 338 339 360 359 485 486 507 506
8 339 340 361 360 486 487 508 507
8 340 341 362 361 487 488 509 508
8 341 342 363 362 488 489 510 509
8 342 343 364 363 489 490 511 510
8 343 344 365 364 490 491 512 511
8 344 345 366 365 491 492 513 512
8 345 346 367 366 492 493 514 513
8 346 347 368 367 493 494 515 514
8 347 348 369 368 494 495 516 515
8 348 349 370 369 495 496 517 516
8 349 350 371 370 496 497 518 517
8 350 351 372 371 497 498 519 518
8 351 352 373 372 498 499 520 519
8 352 353 374 373 499 500 521 520
8 353 354 375 374 500 501 522 521
8 354 355 376 375 501 502 523 522
8 355 356 377 376 502 503 524 523
8 357 358 379 378 504 505 526 525
8 358 359 380 379 505 506 527 526
8 359 360 381 380 506 507 528 527
8 360 361 382 381 507 508 529 528
8 361 362 383 382 508 509 530 529
8 362 363 384 383 509 510 531 530
8 363 364 385 384 510 511 532 531
8 364 365 386 385 511 512 533 532
8 365 366 387 386 512 513 534 533
8 366 367 388 387 513 514 535 534
8 367 368 389 388 514 515 536 535
8 368 369 390 389 515 516 537 536
8 369 370 391 390 516 517 538 537
8 370 371 392 391 517 518 539 538
8 371 372 393 392 518 519 540 539
8 372 373 394 393 519 520 541 540
8 373 374 395 394 520 521 542 541
8 374 375 396 395 521 522 543 542
8 375 376 397 396 522 523 544 543
8 376 377 398 397 523 524 545 544
8 378 379 400 399 525 526 547 546
8 379 380 401 400 526 527 548 547
8 380 381 402 401 527 528 549 548
8 381 382 403 402 528 529 550 549
8 382 383 404 403 529 530 551 550
8 383 384 405 404 530 531 552 551
8 384 385 406 405 531 532 553 552
8 385 386 407 406 532 533 554 553
8 386 387 408 407 533 534 555 554
8 387 388 409 408 534 535 556 555
8 388 389 410 409 535 536 557 556
8 389 390 411 410 536 537 558 557
8 390 391 412 411 537 538 559 558
8 391 392 413 412 538 539 560 559
8 392 393 414 413 539 540 561 560
8 393 394 415 414 540 541 562 561
8 394 395 416 415 541 542 563 562
8 395 396 417 416 542 543 564 563
8 396 397 418 417 543 544 565 564
8 397 398 419 418 544 545 566 565
8 399 400 421 420 546 547 568 567
8 400 401 422 421 547 548 569 568
8 401 402 423 422 548 549 570 569
8 402 403 424 423 549 550 571 570
8 403 404 425 424 550 551 572 571
8 404 405 426 425 551 552 573 572
8 405 406 427 426 552 553 574 573
8 406 407 428 427 553 554 575 574
8 407 408 429 428 554 555 576 575
8 408 409 430 429 555 556 577 576
8 409 410 431 430 556 557 578 577
8 410 411 432 431 557 558 579 578
8 411 412 433 432 558 559 580 579
8 412 413 434 433 559 560 581 580
8 413 414 435 434 560 561 582 581
8 414 415 436 435 561 562 583 582
8 415 416 437 436 562 563 584 583
8 416 417 438 437 563 564 585 584
8 417 418 439 438 564 565 586 585
8 418 419 440 439 565 566 587 586
8 441 442 463 462 588 589 610 609
8 442 443 464 463 589 590 611 610
8 443 444 465 464 590 591 612 611
8 444 445 466 465 591 592 613 612
8 445 446 467 466 592 593 614 613
8 446 447 468 467 593 594 615 614
8 447 448 469 468 594 595 616 615
8 448 449 470 469 595 596 617 616
8 449 450 471 470 596 597 618 617
8 450 451 472 471 597 598 619 618
8 451 452 473 472 598 599 620 619
8 452 453 474 473 599 600 621 620
8 453 454 475 474 600 601 622 621
8 454 455 476 475 601 602 623 622
8 455 456 477 476 602 603 624 623
8 456 457 478 477 603 604 625 624
8 457 458 479 478 604 605 626 625
8 458 459 480 479 605 606 627 626
8 459 460 481 480 606 607 628 627
8 460 461 482 481 607 608 629 628
8 462 463 484 483 609 610 631 630
8 463 464 485 484 610 611 632 631
8 464 465 486 485 611 612 633 632
8 465 466 487 486 612 613 634 633
8 466 467 488 487 613 614 635 634
8 467 468 489 488 614 615 636 635
8 468 469 490 489 615 616 637 636
8 469 470 491 490 616 617 638 637
8 470 471 492 491 617 618 639 638
8 471 472 493 492 618 619 640 639
8 472 473 494 493 619 620 641 640
8 473 474 495 494 620 621 642 641
8 474 475 496 495 621 622 643 642
8 475 476 497 496 622 623 644 643
8 476 477 498 497 623 624 645 644
8 477 478 499 498 624 625 646 645
8 478 479 500 499 625 626 647 646
8 479 480 501 500 626 627 648 647
8 480 481 502 501 627 628 649 648
8 481 482 503 502 628 629 650 649
8 483 484 505 504 630 631 652 651
8 484 485 506 505 631 632 653 652
8 485 486 507 506 632 633 654 653
8 486 487 508 507 633 634 655 654
8 487 488 509 508 634 635 656 655
8 488 489 510 509 635 636 657 656
8 489 490 511 510 636 637 658 657
8 490 491 512 511 637 638 659 658
8 491 492 513 512 638 639 660 659
8 492 493 514 513 639 640 661 660
8 493 494 515 514 640 641 662 661
8 494 495 516 515 641 642 663 662
8 495 496 517 516 642 643 664 663
8 496 497 518 517 643 644 665 664
8 497 498 519 518 644 645 666 665
8 498 499 520 519 645 646 667 666
8 499 500 521 520 646 647 668 667
8 500 501 522 521 647 648 669 668
8 501 502 523 522 648 649 670 669
8 502 503 524 523 649 650 671 670
8 504 505 526 525 651 652 673 672
8 505 506 527 526 652 653 674 673
8 506 507 528 527 653 654 675 674
8 507 508 529 528 654 655 676 675
8 508 509 530 529 655 656 677 676
8 509 510 531 530 656 657 678 677
8 510 511 532 531 657 658 679 678
8 511 512 533 532 658 659 680 679
8 512 513 534 533 659 660 681 680
8 513 514 535 534 660 661 682 681
8 514 515 536 535 661 662 683 682
8 515 516 537 536 662 663 684 683
8 516 517 538 537 663 664 685 684
8 517 518 539 538 664 665 686 685
8 518 519 540 539 665 666 687 686
8 519 520 541 540 666 667 688 687
8 520 521 542 541 667 668 689 688
8 521 522 543 542 668 669 690 689
8 522 523 544 543 669 670 691 690
8 523 524 545 544 670 671 692 691
8 525 526 547 546 672 673 694 693
8 526 527 548 547 673 674 695 694
8 527 528 549 548 674 675 696 695
8 528 529 550 549 675 676 697 696
8 529 530 551 550 676 677 698 697
8 530 531 552 551 677 678 699 698
8 531 532 553 552 678 679 700 699
8 532 533 554 553 679 680 701 700
8 533 534 555 554 680 681 702 701
8 534 535 556 555 681 682 703 702
8 535 536 557 556 682 683 704 703
8 536 537 558 557 683 684 705 704
8 537 538 559 558 684 685 706 705
8 538 539 560 559 685 686 707 706
8 539 540 561 560 686 687 708 707
8 540 541 562 561 687 688 709 708
8 541 542 563 562 688 689 710 709
8 542 543 564 563 689 690 711 710
8 543 544 565 564 690 691 712 711
8 544 545 566 565 691 692 713 712
8 546 547 568 567 693 694 715 714
8 547 548 569 568 694 695 716 715
8 548 549 570 569 695 696 717 716
8 549 550 571 570 696 697 718 717
8 550 551 572 571 697 698 719 718
8 551 552 573 572 698 699 720 719
8 552 553 574 573 699 700 721 720
8 553 554 575 574 700 701 722 721
8 554 555 576 575 701 702 723 722
8 555 556 577 576 702 703 724 723
8 556 557 578 577 703 704 725 724
8 557 558 579 578 704 705 726 725
8 558 559 580 579 705 706 727 726
8 559 560 581 580 706 707 728 727
8 560 561 582 581 707 708 729 728
8 561 562 583 582 708 709 730 729
8 562 563 584 583 709 710 731 730
8 563 564 585 584 710 711 732 731
8 564 565 586 585 711 712 733 732
8 565 566 587 586 712 713 734 733
8 588 589 610 609 735 736 757 756
8 589 590 611 610 736 737 758 757
8 590 591 612 611 737 738 759 758
8 591 592 613 612 738 739 760 759
8 592 593 614 613 739 740 761 760
8 593 594 615 614 740 741 762 761
8 594 595 616 615 741 742 763 762
8 595 596 617 616 742 743 764 763
8 596 597 618 617 743 744 765 764
8 597 598 619 618 744 745 766 765
8 598 599 620 619 745 746 767 766
8 599 600 621 620 746 747 768 767
8 600 601 622 621 747 748 769 768
8 601 602 623 622 748 749 770 769
8 602 603 624 623 749 750 771 770
8 603 604 625 624 750 751 772 771
8 604 605 626 625 751 752 773 772
8 605 606 627 626 752 753 774 773
8 606 607 628 627 753 754 775 774
8 607 608 629 628 754 755 776 775
8 609 610 631 630 756 757 778 777
8 610 611 632 631 757 758 779 778
8 611 612 633 632 758 759 780 779
8 612 613 634 633 759 760 781 780
8 613 614 635 634 760 761 782 781
8 614 615 636 635 761 762 783 782
8 615 616 637 636 762 763 784 783
8 616 617 638 637 763 764 785 784
8 617 618 639 638 764 765 786 785
8 618 619 640 639 765 766 787 786
8 619 620 641 640 766 767 788 787
8 620 621 642 641 767 768 789 788
8 621 622 643 642 768 769 790 789
8 622 623 644 643 769 770 791 790
8 623 624 645 644 770 771 792 791
8 624 625 646 645 771 772 793 792
8 625 626 647 646 772 773 794 793
8 626 627 648 647 773 774 795 794
8 627 628 649 648 774 775 796 795
8 628 629 650 649 775 776 797 796
8 630 631 652 651 777 778 799 798
8 631 632 653 652 778 779 800 799
8 632 633 654 653 779 780 801 800
8 633 634 655 654 780 781 802 801
8 634 635 656 655 781 782 803 802
8 635 636 657 656 782 783 804 803
8 636 637 658 657 783 784 805 804
8 637 638 659 658 784 785 806 805
8 638 639 660 659 785 786 807 806
8 639 640 661 660 786 787 808 807
8 640 641 662 661 787 788 809 808
8 641 642 663 662 788 789 810 809
8 642 643 664 663 789 790 811 810
8 643 644 665 664 790 791 812 811
8 644 645 666 665 791 792 813 812
8 645 646 667 666 792 793 814 813
8 646 647 668 667 793 794 815 814
8 647 648 669 668 794 795 816 815
8 648 649 670 669 795 796 817 816
8 649 650 671 670 796 797 818 817
8 651 652 673 672 798 799 820 819
8 652 653 674 673 799 800 821 820
8 653 654 675 674 800 801 822 821
8 654 655 676 675 801 802 823 822
8 655 656 677 676 802 803 824 823
8 656 657 678 677 803 804 825 824
8 657 658 679 678 804 805 826 825
8 658 659 680 679 805 806 827 826
8 659 660 681 680 806 807 828 827
8 660 661 682 681 807 808 829 828
8 661 662 683 682 808 809 830 829
8 662 663 684 683 809 810 831 830
8 663 664 685 684 810 811 832 831
8 664 665 686 685 811 812 833 832
8 665 666 687 686 812 813 834 833
8 666 667 688 687 813 814 835 834
8 667 668 689 688 814 815 836 835
8 668 669 690 689 815 816 837 836
8 669 670 691 690 816 817 838 837
8 670 671 692 691 817 818 839 838
8 672 673 694 693 819 820 841 840
8 673 674 695 694 820 821 842 841
8 674 675 696 695 821 822 843 842
8 675 676 697 696 822 823 844 843
8 676 677 698 697 823 824 845 844
8 677 678 699 698 824 825 846 845
8 678 679 700 699 825 826 847 846
8 679 680 701 700 826 827 848 847
8 680 681 702 701 827 828 849 848
8 681 682 703 702 828 829 850 849
8 682 683 704 703 829 830 851 850
8 683 684 705 704 830 831 852 851
8 684 685 706 705 831 832 853 852
8 685 686 707 706 832 833 854 853
8 686 687 708 707 833 834 855 854
8 687 688 709 708 834 835 856 855
8 688 689 710 709 835 836 857 856
8 689 690 711 710 836 837 858 857
8 690 691 712 711 837 838 859 858
8 691 692 713 712 838 839 860 859
8 693 694 715 714 840 841 862 861
8 694 695 716 715 841 842 863 862
8 695 696 717 716 842 843 864 863
8 696 697 718 717 843 844 865 864
8 697 698 719 718 844 845 866 865
8 698 699 720 719 845 846 867 866
8 699 700 721 720 846 847 868 867
8 700 701 722 721 847 848 869 868
8 701 702 723 722 848 849 870 869
8 702 703 724 723 849 850 871 870
8 703 704 725 724 850 851 872 871
8 704 705 726 725 851 852 873 872
8 705 706 727 726 852 853 874 873
8 706 707 728 727 853 854 875 874
8 707 708 729 728 854 855 876 875
8 708 709 730 729 855 856 877 876
8 709 710 731 730 856 857 878 877
8 710 711 732 731 857 858 879 878
8 711 712 733 732 858 859 880 879
8 712 713 734 733 859 860 881 880
8 735 736 757 756 882 883 904 903
8 736 737 758 757 883 884 905 904
8 737 738 759 758 884 885 906 905
8 738 739 760 759 885 886 907 906
8 739 740 761 760 886 887 908 907
8 740 741 762 761 887 888 909 908
8 741 742 763 762 888 889 910 909
8 742 743 764 763 889 890 911 910
8 743 744 765 764 890 891 912 911
8 744 745 766 765 891 892 913 912
8 745 746 767 766 892 893 914 913
8 746 747 768 767 893 894 915 914
8 747 748 769 768 894 895 916 915
8 748 749 770 769 895 896 917 916
8 749 750 771 770 896 897 918 917
8 750 751 772 771 897 898 919 918
8 751 752 773 772 898 899 920 919
8 752 753 774 773 899 900 921 920
8 753 754 775 774 900 901 922 921
8 754 755 776 775 901 902 923 922
8 756 757 778 777 903 904 925 924
8 757 758 779 778 904 905 926 925
8 758 759 780 779 905 906 927 926
8 759 760 781 780 906 907 928 927
8 760 761 782 781 907 908 929 928
8 761 762 783 782 908 909 930 929
8 762 763 784 783 909 910 931 930
8 763 764 785 784 910 911 932 931
8 764 765 786 785 911 912 933 932
8 765 766 787 786 912 913 934 933
8 766 767 788 787 913 914 935 934
8 767 768 789 788 914 915 936 935
8 768 769 790 789 915 916 937 936
8 769 770 791 790 916 917 938 937
8 770 771 792 791 917 918 939 938
8 771 772 793 792 918 919 940 939
8 772 773 794 793 919 920 941 940
8 773 774 795 794 920 921 942 941
8 774 775 796 795 921 922 943 942
8 775 776 797 796 922 923 944 943
8 777 778 799 798 924 925 946 945
8 778 779 800 799 925 926 947 946
8 779 780 801 800 926 927 948 947
8 780 781 802 801 927 928 949 948
8 781 782 803 802 928 929 950 949
8 782 783 804 803 929 930 951 950
8 783 784 805 804 930 931 952 951
8 784 785 806 805 931 932 953 952
8 785 786 807 806 932 933 954 953
8 786 787 808 807 933 934 955 954
8 787 788 809 808 934 935 956 955
8 788 789 810 809 935 936 957 956
8 789 790 811 810 936 937 958 957
8 790 791 812 811 937 938 959 958
8 791 792 813 812 938 939 960 959
8 792 793 814 813 939 940 961 960
8 793 794 815 814 940 941 962 961
8 794 795 816 815 941 942 963 962
8 795 796 817 816 942 943 964 963
8 796 797 818 817 943 944 965 964
8 798 799 820 819 945 946 967 966
8 799 800 821 820 946 947 968 967
8 800 801 822 821 947 948 969 968
8 801 802 823 822 948 949 970 969
8 802 803 824 823 949 950 971 970
8 803 804 825 824 950 951 972 971
8 804 805 826 825 951 952 973 972
8 805 806 827 826 952 953 974 973
8 806 807 828 827 953 954 975 974
8 807 808 829 828 954 955 976 975
8 808 809 830 829 955 956 977 976
8 809 810 831 830 956 957 978 977
8 810 811 832 831 957 958 979 978
8 811 812 833 832 958 959 980 979
8 812 813 834 833 959 960 981 980
8 813 814 835 834 960 961 982 981
8 814 815 836 835 961 962 983 982
8 815 816 837 836 962 963 984 983
8 816 817 838 837 963 964 985 984
8 817 818 839 838 964 965 986 985
8 819 820 841 840 966 967 988 987
8 820 821 842 841 967 968 989 988
8 821 822 843 842 968 969 990 989
8 822 823 844 843 969 970 991 990
8 823 824 845 844 970 971 992 991
8 824 825 846 845 971 972 993 992
8 825 826 847 846 972 973 994 993
8 826 827 848 847 973 974 995 994
8 827 828 849 848 974 975 996 995
8 828 829 850 849 975 976 997 996
8 829 830 851 850 976 977 998 997
8 830 831 852 851 977 978 999 998
8 831 832 853 852 978 979 1000 999
8 832 833 854 853 979 980 1001 1000
8 833 834 855 854 980 981 1002 1001
8 834 835 856 855 981 982 1003 1002
8 835 836 857 856 982 983 1004 1003
8 836 837 858 857 983 984 1005 1004
8 837 838 859 858 984 985 1006 1005
8 838 839 860 859 985 986 1007 1006
8 840 841 862 861 987 988 1009 1008
8 841 842 863 862 988 989 1010 1009
8 842 843 864 863 989 990 1011 1010
8 843 844 865 864 990 991 1012 1011
8 844 845 866 865 991 992 1013 1012
8 845 846 867 866 992 993 1014 1013
8 846 847 868 867 993 994 1015 1014
8 847 848 869 868 994 995 1016 1015
8 848 849 870 869 995 996 1017 1016
8 849 850 871 870 996 997 1018 1017
8 850 851 872 871 997 998 1019 1018
8 851 852 873 872 998 999 1020 1019
8 852 853 874 873 999 1000 1021 1020
8 853 854 875 874 1000 1001 1022 1021
8 854 855 876 875 1001 1002 1023 1022
8 855 856 877 876 1002 1003 1024 1023
8 856 857 878 877 1003 1004 1025 1024
8 857 858 879 878 1004 1005 1026 1025
8 858 859 880 879 1005 1006 1027 1026
8 859 860 881 880 1006 1007 1028 1027
CELL_TYPES 720
12
12
12
12
12
12
12
12
12
12
12
12
12
12
12
12
12
12
12
12
12
12
12
12
12
12
12
12
12
12
12
12
12
12
12
12
12
12
12
12
12
12
12
12
12
12
12
12
12
12
12
12
12
12
12
12
12
12
12
12
12
12
12
12
12
12
12
12
12
12
12
12
12
12
12
12
12
12
12
12
12
12
12
12
12
12
12
12
12
12
12
12
12
12
12
12
12
12
12
12
12
12
12
12
12
12
12
12
12
12
12
12
12
12
12
12
12
12
12
12
12
12
12
12
12
12
12
12
12
12
12
12
12
12
12
12
12
12
12
12
12
12
12
12
12
12
12
12
12
12
12
12
12
12
12
12
12
12
12
12
12
12
12
12
12
12
12
12
12
12
12
12
12
12
12
12
12
12
12
12
12
12
12
12
12
12
12
12
12
12
12
12
12
12
12
12
12
12
12
12
12
12
12
12
12
12
12
12
12
12
12
12
12
12
12
12
12
12
12
12
12
12
12
12
12
12
12
12
12
12
12
12
12
12
12
12
12
12
12
12
12
12
12
12
12
12
12
12
12
12
12
12
12
12
12
12
12
12
12
12
12
12
12
12
12
12
12
12
12
12
12
12
12
12
12
12
12
12
12
12
12
12
12
12
12
12
12
12
12
12
12
12
12
12
12
12
12
12
12
12
12
12
12
12
12
12
12
12
12
12
12
12
12
12
12
12
12
12
12
12
12
12
12
12
12
12
12
12
12
12
12
12
12
12
12
12
12
12
12
12
12
12
12
12
12
12
12
12
12
12
12
12
12
12
12
12
12
12
12
12
12
12
12
12
12
12
12
12
12
12
12
12
12
12
12
12
12
12
12
12
12
12
12
12
12
12
12
12
12
12
12
12
12
12
12
12
12
12
12
12
12
12
12
12
12
12
12
12
12
12
12
12
12
12
12
12
12
12
12
12
12
12
12
12
12
12
12
12
12
12
12
12
12
12
12
12
12
12
12
12
12
12
12
12
12
12
12
12
12
12
12
12
12
12
12
12
12
12
12
12
12
12
12
12
12
12
12
12
12
12
12
12
12
12
12
12
12
12
12
12
12
12
12
12
12
12
12
12
12
12
12
12
12
12
12
12
12
12
12
12
12
12
12
12
12
12
12
12
12
12
12
12
12
12
12
12
12
12
12
12
12
12
12
12
12
12
12
12
12
12
12
12
12
12
12
12
12
12
12
12
12
12
12
12
12
12
12
12
12
12
12
12
12
12
12
12
12
12
12
12
12
12
12
12
12
12
12
12
12
12
12
12
12
12
12
12
12
12
12
12
12
12
12
12
12
12
12
12
12
12
12
12
12
12
12
12
12
12
12
12
12
12
12
12
12
12
12
12
12
12
12
12
12
12
12
12
12
12
12
12
12
12
12
12
12
12
12
12
12
12
12
12
12
12
12
12
12
12
12
12
12
12
12
12
12
12
12
12
12
12
12
12
12
12
12
12
12
12
12
12
12
12
12
12
12
12
12
12
12
12
12
12
12
12
12
12
12
12
12
12
12
12
12
12
12
12
12
12
12
12
12
12
12
12
12
12
12
12
12
12
12
12
12
12
12
12
12
12
12
12
12
12
12
12
12
12
12
12
12
12
POINT_DATA 1029
VECTORS Disp float
0.0 0.0 0.0
0.00914646261867526 -0.3316643711392843 0.007938782849884116
0.022025302154187888 -0.6249882973220159 0.017093862458690465
0.03983771425486375 -0.9075318981619369 0.024404663027693174
0.06518588506989423 -1.17163492581237 0.03102929345707637
0.0984253296969814 -1.4110706356812541 0.03650650703817004
0.13941884840390523 -1.6192597869311485 0.040608471162027905
0.1879184617456189 -1.789839983254323 0.04304378223050321
0.24326137022504302 -1.916608917384935 0.04360846801948845
0.3038010639349916 -1.9942712006847625 0.042636224783413695
0.36680822738285557 -2.0201493343364114 0.04175630230379219
0.42983778340883894 -1.9946501241034609 0.04267128439974285
0.49044902352191455 -1.9173756019646588 0.043690886379346164
0.5459263272457052 -1.7910105680652624 0.0432007626998675
0.594648014014679 -1.6208536087436618 0.04088684547720473
0.6359905832057576 -1.4131002353570215 0.03698142721365465
0.669761189298351 -1.1740885261369245 0.03180727471760835
0.6959009527916382 -0.9103431469870916 0.02566935480345326
0.7148663121612766 -0.6280275064967483 0.018960030731349532
0.7297338618953716 -0.33468695342966504 0.011271878253316932
0.7436534456433304 0.0 -6.435687710515979e-05
0.13016997497263413 -0.014162954170380567 -0.0041682527016619585
0.13578815688457552 -0.33019210413778066 0.004158807747882751
0.140317442659774 -0.6269851715551729 0.010828706088293042
0.15198970726895952 -0.9098776927909628 0.016481611477366074
0.16845674629580465 -1.1750090666257071 0.021212838448716666
0.19019881693249913 -1.4153466615027661 0.025105775817521915
0.21709145616256853 -1.6244464502186085 0.02799061173315817
0.2489640029029458 -1.7959003019330615 0.02973436825085448
0.28538163996774 -1.9234279121646898 0.030245586921853578
0.32528473599209434 -2.0015314660460404 0.02973384842663439
0.36687648339393775 -2.0274346616960277 0.0291895363991901
0.40849190972497174 -2.0019166245013906 0.029721781422883727
0.44847009180838554 -1.9242082317366893 0.030231911891546732
0.4850267028508098 -1.797094378856579 0.029742790696062418
0.5171240947152391 -1.6260775323112253 0.02806404790240271
0.5443605831307852 -1.4174332464528299 0.025313996993542254
0.5666123302390234 -1.1775462249926316 0.021669042759018573
0.5838131407634246 -0.9128089719323901 0.01733680502124258
0.5965481874930351 -0.6301966469184326 0.012379182258944322
0.6025929199570059 -0.3334540132701709 0.006425687397745525
0.6090234060848214 -0.014946264442403136 -0.0016810437523348393
0.2530577081658339 -0.024590528525839865 -0.006811680394305878
0.25595467718659204 -0.32969800342679517 -0.0003686172423277394
0.2564601516030744 -0.6274379657335694 0.004393139544007649
0.2609891388776368 -0.9112948026516664 0.007903355720546259
0.26876786416805143 -1.1769443514589275 0.010589158386381846
0.27923366105724023 -1.4178528950878702 0.012639090690039743
0.29237233997168327 -1.627494777876735 0.014065750242736253
0.30811860038178407 -1.79949310339535 0.014840017911912392
0.3263564449916736 -1.9274903618560337 0.014947097377703191
0.34645695223798467 -2.005688325865323 0.01442384369559092
0.3669306032415098 -2.0311508820467132 0.01383393794813188
0.38742838780615096 -2.0060802237649105 0.014364729274257856
0.4076049554087624 -1.9282851906504561 0.014837314817159317
0.4259818480577083 -1.8007115333166896 0.014699623836038418
0.44194879927622144 -1.6291632792068624 0.013932809725652284
0.45541671503935915 -1.4199945764108521 0.012580241155704143
0.4663556475713419 -1.1795604634385086 0.010712666289183204
0.4747935480774459 -0.9143316765351199 0.008380645711956196
0.4802035183403291 -0.6307892401503261 0.0054646743360734105
0.4814292397015945 -0.3328448697551305 0.0014379807678505882
0.4846757076213549 -0.025797148802980816 -0.004280755428453891
0.37233346085944263 -0.03127327664725917 -0.009172543130622936
0.3731119614348835 -0.3297817755529795 -0.004771970437687316
0.370557983168443 -0.6270616652034409 -0.0021098384007354996
0.36865320298896553 -0.9115747974427213 -0.0008697242317548247
0.36764277858011307 -1.1775259246425065 -0.00035139455668036705
0.3669624993948263 -1.4186328336579166 -0.00023430913043256984
0.3665018864687316 -1.6284775997824115 -0.00037473090743358854
0.3663313157710529 -1.8007127613827798 -0.0006952095050541821
0.36671352183057293 -1.9289398294097806 -0.0011238044873331074
0.3674875146944649 -2.0067971741654214 -0.0017449747910307767
0.3669788790234156 -2.030922371363836 -0.002494891481145231
0.3664944791979994 -2.0071961133272604 -0.0018514840190386773
0.3673444088459328 -1.9297496496811364 -0.0013305084527210772
0.3678637587422692 -1.8019558968176426 -0.0009860139045791542
0.3679066752312961 -1.6301830475285177 -0.000716440281659817
0.3677556270354221 -1.420827474102799 -0.0005648730883557696
0.36750325518338445 -1.180214530373771 -0.0005628229177926127
0.3670604648384579 -0.9147080505410768 -0.000787165436206913
0.36577875374005886 -0.630453537107479 -0.001496790361703289
0.36360938134807197 -0.3328032967989708 -0.003419545861536043
0.36458068603357574 -0.032793191227216606 -0.007038915875519641
0.49063204916664926 -0.034850615650505894 -0.011598588475380782
0.4895397250477277 -0.32991552003406793 -0.008953349021876842
0.48415497392255114 -0.6261407273103095 -0.008505787624466972
0.4762975277411433 -0.9107951537927188 -0.009593295807458888
0.4665680007212484 -1.1767321307981995 -0.01127239359478609
0.4547004385654908 -1.4177037253171112 -0.013094571427559728
0.44066024201299014 -1.6274065060801401 -0.014809248596156562
0.4245327949589849 -1.7995554684986748 -0.016236506682063067
0.40693744284653566 -1.927844398143299 -0.0171779981298306
0.3886221122985598 -2.005044558931214 -0.017590685391080548
0.3670284566063398 -2.026187707196589 -0.018263571497890103
0.34545925033404784 -2.0054507805360093 -0.017745373238549085
0.32722004989259396 -1.9286695851928901 -0.01748337182551745
0.30976043543722526 -1.8008235171364406 -0.016680750583786468
0.2938399055920764 -1.6291483587485742 -0.015364601084451934
0.28008964348514187 -1.4199483681247165 -0.013703895196554669
0.2686028861665872 -1.1794875465499914 -0.011829293859621507
0.25932885495631514 -0.9140009506432941 -0.009919243121123737
0.2518951733296943 -0.629539943223184 -0.008347890567355711
0.24673029442233668 -0.3328573463624366 -0.00806700203231734
0.24574324221854543 -0.036569545324141264 -0.009931309071375731
0.6097219380459995 -0.03618911848039849 -0.014211662416754443
0.6071544183591785 -0.3297773339704701 -0.012898749518527704
0.5990475673077201 -0.6247582578124197 -0.014649644002504165
0.5854436328933177 -0.909032188957714 -0.018029151778995257
0.5669637071324017 -1.1745506313762508 -0.021839023460973925
0.5437849236123145 -1.4150433406010259 -0.025516037209965505
0.5159842351832613 -1.6242874163094256 -0.028718007159231142
0.483791966465056 -1.7959501230780626 -0.03114555422845096
0.4474258764947502 -1.9241257820885882 -0.032505067798739136
0.40972556525834747 -2.000926645361561 -0.03204241090277327
0.3670865968561091 -2.016088395001109 -0.03140756925705353
0.32447291278249735 -2.001340478980108 -0.032246473722509425
0.28685079638549843 -1.9249668798712953 -0.03291172959630788
0.25062221091702686 -1.7972435743657693 -0.031747742645742816
0.21863483807521508 -1.6260653582726634 -0.02949406766665347
0.19111080411800327 -1.4173354788821044 -0.026414687132272012
0.16826934177796393 -1.1773635806278993 -0.022756773795799122
0.1501376135792501 -0.9122904004611886 -0.018781655950573743
0.13679085246839026 -0.6281614501356616 -0.014958241111290592
0.12877483079978383 -0.3326797966942009 -0.01247493935897785
0.1262338859437218 -0.03800378548303219 -0.012995326265939511
0.730583269967859 -0.03646208234702644 -0.016922038066237294
0.7276738902442806 -0.3293135010656968 -0.01661592047559375
0.7173746407641562 -0.6229407553116632 -0.020331652397461687
0.6978114911096485 -0.9062611164265094 -0.025800212587542212
0.6703626696122262 -1.170938467441105 -0.031526358315253925
0.6356334452704424 -1.4106028311224834 -0.03683984737676323
0.5937439824938071 -1.6190126699951626 -0.04130065733231027
0.5449565422635082 -1.7899686637254042 -0.044493012832899276
0.4897280906234672 -1.9170879262642648 -0.04602373398340264
0.42826976059655053 -1.9952142045945838 -0.044392797936794876
0.36716195078672803 -2.0 -0.03772526337631577
0.3060815114447286 -1.995636285372713 -0.04464777677393782
0.24470723007453188 -1.9179460777598476 -0.04653501910075552
0.1896244358767741 -1.7912888289609055 -0.0452587819811591
0.14104914158071621 -1.6208274784199328 -0.04230611462615065
0.09943571896718024 -1.412940729972507 -0.03804050526630384
0.06501730494065772 -1.1737993801391349 -0.032822162387309665
0.03782655554998035 -0.9095514888163307 -0.02699868324764168
0.018338369046081097 -0.6263371751549508 -0.021119690862489084
0.007932418598081697 -0.33219101016304564 -0.01663987627297002
0.00494755811150734 -0.03829702615596578 -0.01610368295627384
0.0 0.0 0.0
0.008555631263441948 -0.3134732480765713 0.0052841777836936474
0.021691472354981187 -0.5995088153774559 0.010092517548064332
0.040286103584590255 -0.8742600980242655 0.014561390702464145
0.06595260824700132 -1.131264957943495 0.018010160989082317
0.0989505934501886 -1.364810357883387 0.02043101299115714
0.13916038720665602 -1.569000884937008 0.02165787851314653
0.18639023710946437 -1.7381740701816726 0.02157729019414027
0.24045317887054224 -1.8667897268249838 0.020242429210352055
0.3011278818070705 -1.9490260104705814 0.018222580338608053
0.36688234330679576 -1.9781315324177684 0.01705421168739203
0.4326444425278211 -1.9491746753775816 0.018234587344787265
0.49334312403447184 -1.8670865980621132 0.020275108782953327
0.547449988006588 -1.7386180707661305 0.021649771957395557
0.59475124066137 -1.5695895837516607 0.021803321672234206
0.6350746494713511 -1.3655372178004586 0.020699617750043735
0.6682547816036251 -1.1321126186085653 0.018477998421563
0.6942233048117407 -0.8751862457708035 0.015308937634312634
0.7133088925172477 -0.6004303353106735 0.011338923458396764
0.727414560521512 -0.3143549043101236 0.006721997991570304
0.7382752426107597 0.0 0.00590034601947798
0.1264868220250192 -0.009114164634139162 0.0007788495655780712
0.13160835100643728 -0.3130170627674651 0.0024227192928727996
0.13786274931207812 -0.6015326817575823 0.006300904877801907
0.15035197689598087 -0.8767932270376371 0.009481136758950763
0.16743882955805384 -1.134746348841518 0.01194678084055891
0.1894156417454124 -1.3691770357835098 0.013595271502317628
0.21619766377685284 -1.5742651320888041 0.01440224787279308
0.24764299258482944 -1.7443288215430761 0.014335196179881602
0.2835541789057354 -1.8738569332723152 0.013469553843061786
0.3236586086185997 -1.9570275933337755 0.012130905202437158
0.3669155552988759 -1.9867153165130085 0.01127516658297777
0.41018000921998754 -1.9571778806819862 0.012099944057062027
0.4503079334251906 -1.874157158109304 0.013414384508088266
0.48626180661619 -1.7447781842926815 0.014271509202083364
0.5177755349678251 -1.574861803560273 0.014358655243244341
0.544663696348521 -1.369915796833598 0.013619931860189595
0.5668072731995146 -1.1356124475946197 0.012110759465811829
0.5841590846098003 -0.8777488898427933 0.009901969893941131
0.5971028617564491 -0.6025122943389876 0.00708494932069155
0.6041543872916878 -0.31402354496872364 0.003988448963130276
0.6097326045389475 -0.009271297821178635 0.0044654756448849805
0.2479555603338867 -0.016047705492931063 -0.0014022268264307063
0.25079496420338243 -0.3129557575852902 -0.00010938993309787659
0.25297516040336776 -0.6022836143572617 0.0024382172505942675
0.25869652422690553 -0.8783350302802144 0.00451060704158034
0.26723838136913197 -1.1367836798755728 0.005950121977634088
0.27818794794155977 -1.3717520268846504 0.0068190710084165265
0.2915446339371214 -1.577362132068021 0.007153579523865061
0.30718628413033167 -1.7479248590968561 0.006984350898613351
0.3248954564058128 -1.877958886451585 0.006350630237453546
0.34472069701616315 -1.9618720112241115 0.005280999912298586
0.3669514486171579 -1.992459173469898 0.0043366370848687994
0.38918949286679316 -1.9620246607768996 0.005207650519803248
0.40903737777886306 -1.8782639160401313 0.006209010063058359
0.42678701215578635 -1.748381640945579 0.006787185893151248
0.4424916932564703 -1.5779691583923008 0.006926580392891227
0.4559427929183519 -1.372504885617239 0.006608720246125715
0.46703440374389116 -1.1376693577153572 0.005835004770408103
0.47579740003723836 -0.8793181702295839 0.004611038718061095
0.48188597913979886 -0.6033183188860687 0.002931790998150465
0.4844498909285969 -0.3139022420975657 0.0011919240177420557
0.4874591469247556 -0.016194786150433974 0.0013822910767379798
0.3669192410712208 -0.020705264009910924 -0.00434150479944026
0.3678816938430091 -0.3131699297443322 -0.0028930180308293953
0.3668285994277814 -0.6022505065881796 -0.0014140284060026745
0.3662638950895366 -0.8787886590233658 -0.0004730974049939324
0.36615914386017406 -1.137466468066215 -6.499272444372279e-05
0.36609302969473895 -1.3726030232515536 -1.236211556136092e-05
0.3660228568065784 -1.5783864778707444 -0.00019592962941388165
0.3659030376336988 -1.749067671048075 -0.0005445728849737245
0.3654673599301542 -1.8792035896997428 -0.0010422836021240858
0.3651123531326834 -1.9638384547560015 -0.0019440111847453968
0.36698867243044875 -1.9961339443685597 -0.0032261425564475434
0.3688720197408228 -1.9639941703462442 -0.0020598294038159104
0.36853860201313404 -1.8795147804286536 -0.0012704808468386097
0.3681406063257542 -1.7495337255003367 -0.0008751820645271297
0.36807728410701146 -1.57900585513986 -0.0006059439224541652
0.3680871566976802 -1.373371521146134 -0.00045518143169433564
0.3681338250843743 -1.138371379224158 -0.00045591935203838265
0.36819752652699284 -0.87979921342018 -0.0006733174371587459
0.3678603542987505 -0.6032952773222661 -0.0012034309504202572
0.3669829736618558 -0.31402667645081034 -0.0019075547004087632
0.36802838563200463 -0.020859946951416398 -0.0021847318671700568
0.4850660279875626 -0.02335767021120461 -0.007374895626592529
0.4843255841035996 -0.31336175103955355 -0.00578937029913659
0.4803014033547437 -0.601665912687035 -0.0052474558849507635
0.473817598784789 -0.87821776385156 -0.005435166014786672
0.4651099113649248 -1.1367950317888915 -0.006061314862773784
0.45400264733438 -1.37175175165383 -0.006832625052079589
0.4404843888885235 -1.5773664517412476 -0.007541651072610378
0.42466081112273 -1.7478286883393883 -0.008070213972606233
0.4062656632070901 -1.8776120814562263 -0.00839251594345219
0.38549639972011496 -1.96281264068437 -0.008889421210034047
0.36702667446116394 -1.998344545077297 -0.010636238042293016
0.34856372943076114 -1.9629721267247924 -0.009048504711969527
0.3278150348921936 -1.8779307810137866 -0.008709009559486064
0.30945482324750456 -1.748305831473993 -0.00853718827211933
0.29368120376446993 -1.5780000971785908 -0.008139139349573095
0.2802283540088316 -1.3725369202465094 -0.007514536480434174
0.2692039433434867 -1.1377190564349373 -0.006736381492867757
0.26060047743714926 -0.8792469681870516 -0.005943914396542687
0.25422660667158037 -0.6027011871338779 -0.005341087264684347
0.2502663980730578 -0.31414888526755613 -0.0051407116984429225
0.24956754496248654 -0.023525820948368463 -0.005745849531651659
0.6035845475331696 -0.02449956331961433 -0.010158220520617147
0.601405668820581 -0.31332238431385345 -0.008616032358379147
0.5944964338485318 -0.6005951222378719 -0.009031778652430433
0.5822446857661882 -0.8766653727046875 -0.010343328524595703
0.5649532798455597 -1.134744295588348 -0.011998897355342705
0.5427835336603462 -1.3691764313435435 -0.013574224397310108
0.5158242197192408 -1.5742531576916545 -0.014781033024397554
0.4841696455635923 -1.7442416604389988 -0.015412716871572214
0.44832294936244205 -1.873230025157968 -0.015449336628361864
0.40692032438106795 -1.9581668699337174 -0.01496801467465501
0.3670648655678796 -1.9996560646803103 -0.016822207810492713
0.32721601324371374 -1.9583308767047043 -0.015171843185855112
0.28583319189054857 -1.8735576754412189 -0.015857397301559807
0.2500192430254249 -1.7447318780609082 -0.0160217964795765
0.21840919359930436 -1.5749031895883903 -0.01557541993258785
0.19150302273681885 -1.3699797967673333 -0.01451024877116765
0.16938840322208865 -1.1356860967590192 -0.012980935164881028
0.15214096304434013 -0.8777056105091432 -0.011193686477906736
0.13990277893967187 -0.6016177913123545 -0.009473176017311572
0.13297658189324849 -0.31406746265101615 -0.008323006549623705
0.13080203604184304 -0.02467329328593976 -0.00898689416980617
0.7231344698377634 -0.024864297035927435 -0.012294873146775773
0.7202070638528297 -0.3129870506066269 -0.011261308738598404
0.7105921249652329 -0.5990164780203964 -0.012787431458205285
0.6924030968863621 -0.8740818629294278 -0.01527075333324516
0.6664760756183045 -1.1312546762036082 -0.01797745549818929
0.6332538288575098 -1.3647916492126602 -0.020350129949539768
0.5928480336109021 -1.5689916070230332 -0.022006407097907604
0.5453936241804949 -1.7380297931928128 -0.022683246112838944
0.4914390679324835 -1.8665503068280365 -0.02220574344167975
0.4328071656844169 -1.9487794775047043 -0.020462593406122633
0.3671017659112053 -2.0 -0.019679263286175277
0.30140287458038967 -1.9489488162967574 -0.020713208951867297
0.2427903232038624 -1.8668884938575148 -0.02270994484584513
0.18886714197831325 -1.738535329223091 -0.02344264246132914
0.14145378473652198 -1.5696606687656156 -0.02301155795647313
0.10109315036288893 -1.3656155068835847 -0.02156327181900269
0.0679071380755028 -1.1322139087480692 -0.019304417262469016
0.04197964018397138 -0.8751281592913301 -0.016521977340484897
0.02371991086739894 -0.6000248728244805 -0.013651273184676224
0.013990099801441258 -0.31370705833421475 -0.011358885678385656
0.011013498707320145 -0.025030481710749834 -0.0114881666913297
0.0 0.0 0.0
0.011877508956892956 -0.30549094518534037 0.002283153907696832
0.024981263916942335 -0.5864622572845498 0.004284459583314664
0.043143543592160764 -0.8571465223833376 0.006181884046395416
0.06807029059844125 -1.1110439355335298 0.0075264957337828715
0.09986530348583206 -1.3426840979430072 0.00820842867897272
0.1384362408821948 -1.5465668172450078 0.00817379062099197
0.1838408475319947 -1.7174082135577864 0.007434513466614515
0.23666313883377965 -1.849767035276274 0.006146579848893268
0.2980281711771358 -1.9367611841126464 0.004760089031144037
0.3669007485125688 -1.968404680401374 0.004095972993760675
0.4357644448773198 -1.9367259339525804 0.0047613670010145
0.49710148263072335 -1.8496856983483483 0.006154445109667098
0.5498723826892931 -1.7172595831871371 0.007460504393453108
0.595194219957708 -1.5463208095087413 0.008237072182052392
0.6336374605430912 -1.34230604552444 0.008336235658283772
0.6652392599486193 -1.1105036238985864 0.007753743329849059
0.6898709151592387 -0.8564352648310345 0.006545221202079555
0.70759354272955 -0.5856082012646934 0.004874442423363519
0.7198040878003759 -0.3044717408817828 0.003281380421777862
0.7291161382491442 0.0 0.0033480280182399498
0.12702855558670928 -0.007881646244970886 8.254998524327595e-05
0.13227272951448776 -0.3054428436122933 0.0011716790866214848
0.1392034565923652 -0.5885680081219323 0.0027035066421002784
0.15162459228279293 -0.8598199597567396 0.004084901631022606
0.16837852193410502 -1.1146780327162207 0.005080795307268407
0.18971154039095758 -1.3472491466109169 0.005587691783513428
0.215559054505286 -1.5521108416050058 0.005597931701185493
0.24595434142803055 -1.724002924948621 0.0051473235574864854
0.2811792409433146 -1.857592243531347 0.004351486299555867
0.32175105155510114 -1.9460237395812048 0.0034788376374943635
0.3668957028878642 -1.9786011812249509 0.0030386748378943918
0.41202935593445655 -1.9459854544452502 0.003453298643242296
0.45256693049417274 -1.8575040459321808 0.004304221743856731
0.48773055127193593 -1.7238418757492977 0.0050870561640102615
0.5180307760772447 -1.5518438755992872 0.005540130531425161
0.5437390839335515 -1.3468367606839295 0.0055567664369467525
0.564872301647802 -1.1140827634237127 0.005110603322569435
0.5813440931786158 -0.8590227530783912 0.004226818450376965
0.5933351586936445 -0.5875721359466438 0.0030339148586202083
0.5995461850605166 -0.3041884397494697 0.002081831484067648
0.6044926421236929 -0.007492320957842309 0.0026570753849119947
0.24708292324436038 -0.013586802703804138 -0.0007916993280969894
0.2497799098957142 -0.305313257716497 -4.5685110224786425e-05
0.2523194788675208 -0.5895322512112456 0.0010018092172840837
0.25833073426984904 -0.8615143513493222 0.0019206873113213332
0.2669107698206647 -1.116892734300844 0.0025399852273221934
0.27772256582139193 -1.3500364712241066 0.0028246071318950984
0.29076330405890205 -1.5554797547590193 0.0027976718004343627
0.30595927420943636 -1.7279579007241048 0.0025052003995954457
0.323259982784433 -1.8622288908005225 0.002009028379743649
0.3432676521618837 -1.9518316541688434 0.001418625612923044
0.3668937109723499 -1.985825842846185 0.0010642518587492033
0.3905068602636827 -1.9517915387190963 0.0013669516138567483
0.4104747199534045 -1.8621363672569147 0.0019083551831268514
0.4277055323965626 -1.7277885901917764 0.0023622623264961022
0.44279641506235745 -1.5551981265314656 0.0026259793950184755
0.4556896921443914 -1.349598954564431 0.002648047281172817
0.4663020048739957 -1.1162554511028115 0.0023976828135178355
0.4746155017652425 -0.8606503101042411 0.0018725943321667915
0.4802553647356308 -0.5884172149474594 0.0011654461165425086
0.48250710020544874 -0.30405842757630036 0.0007016690848672487
0.48519653182077466 -0.013002914151003787 0.00114279162457301
0.3643998052448334 -0.017415220166752936 -0.002175370818278769
0.36520023959746184 -0.30531726880740484 -0.0013828231302993688
0.3643823328743051 -0.589626236390494 -0.0007328641288917599
0.36425725203324644 -0.8620915630013242 -0.0002608704020029545
0.36455323780958937 -1.1176792246741638 -1.7562779622140065e-05
0.3648183687722873 -1.3509982685525521 2.5134105888652085e-05
0.36499570663711123 -1.5566261370387993 -7.413883753542457e-05
0.3649712812086172 -1.729207007014111 -0.00026549472369447914
0.36433650803550494 -1.8635903516020753 -0.0005396111259142598
0.36385629123098645 -1.9543605307181044 -0.0009313689913009809
0.3668933723105895 -1.9909570056810546 -0.0012497428833803336
0.3699156927013999 -1.9543198611176098 -0.0010090988376155322
0.369390283046496 -1.863496189597065 -0.0006933987216783965
0.3686773713221505 -1.729033839366483 -0.0004902356945933697
0.36853840921829295 -1.5563365177584434 -0.0003576765320631727
0.36856133971341026 -1.3505452609413808 -0.00029233476736208197
0.36862956812981057 -1.1170141453694196 -0.00032382659552802255
0.36867997950543496 -0.861176265568594 -0.00047971740433864693
0.3682959706213813 -0.5884632594228185 -0.0007172195587201132
0.3673672063080384 -0.3040990911372251 -0.0008269941816770134
0.3682202861699218 -0.01665996960225012 -0.0007165472931714065
0.480823350997039 -0.019609714883425774 -0.003702894754793669
0.4799371750914599 -0.3053135436064376 -0.002754515181639802
0.4761101177465117 -0.589082975922919 -0.0024642768878790104
0.4701844790474963 -0.8615703244045122 -0.002436012265167056
0.46221138238825965 -1.117017005923888 -0.002567420991125822
0.4519092876086573 -1.3501215967579037 -0.0027686130591059177
0.4391904335793494 -1.5555417528457884 -0.0029426726485925953
0.42404889578893834 -1.7278037748511441 -0.003032489113707372
0.4058261009870189 -1.8616603689858602 -0.0030717871042021524
0.3845896156483991 -1.9533844731467467 -0.0032301341542125945
0.3668930662213401 -1.9947086485880234 -0.0034806551512776124
0.34917980891567857 -1.9533445508853216 -0.0033344335670467597
0.32789244673331447 -1.8615673085922615 -0.0032797805584632656
0.30958269973305375 -1.7276312409142172 -0.0033408500835381645
0.29431621877737835 -1.5552508950321013 -0.003340806244139527
0.28143475346560615 -1.349663270314432 -0.0032311022342793754
0.27093671055094687 -1.1163377190000812 -0.0030430075180323114
0.26274906340811016 -0.8606294405732777 -0.0028311718524954644
0.2566461844564224 -0.5879098368232655 -0.0026130472234871787
0.2527764164352347 -0.30412136614435814 -0.002399928085663812
0.25195026730105524 -0.01872399560396264 -0.0026185718256467863
0.5975572095795599 -0.02057499205352952 -0.005051790807197826
0.5952412501886505 -0.30514884576757784 -0.004025809781540672
0.5885191203623042 -0.5879997867392992 -0.004154020388346403
0.5769638837338271 -0.8600031517952195 -0.004580610672806507
0.5607580135068368 -1.1149011224178458 -0.005085093217352721
0.5398991796126638 -1.3474171081522508 -0.005514961771122581
0.5143462787611432 -1.5522072433211047 -0.005732527801234669
0.4840089069024275 -1.7238712882598504 -0.005666294612153233
0.4491319091377988 -1.8566066407486495 -0.005377251770332969
0.4070912157352505 -1.9480911220056092 -0.005166752549383801
0.3668911711059423 -1.9977428195961242 -0.005209534954939742
0.3266722211539631 -1.9480532258225387 -0.005298732069810998
0.28457417435627447 -1.8565173794641452 -0.005641940492996222
0.2495999279242878 -1.7237037917215006 -0.006062752874706684
0.219124762984606 -1.5519218422913403 -0.006252857898415367
0.19339685851574037 -1.3469632895932748 -0.0061351144945832265
0.17233894443655196 -1.1142230677975724 -0.005750204523592833
0.15594350580370642 -0.8590610456921403 -0.005183228140527718
0.14426788587364775 -0.5868355438374222 -0.004509517173321688
0.1375405396794595 -0.30396969419426306 -0.0038874788033918554
0.13528658891505266 -0.019607172883811863 -0.004273605360249565
0.7153049039131342 -0.020919183645645885 -0.00580768506363941
0.7122218366364252 -0.3047594724697441 -0.005069803083675653
0.7027953626795985 -0.5864061018092361 -0.0057332509230974375
0.6855024568478874 -0.8574101845031686 -0.00663421734007527
0.6610650945049297 -1.1113635128720916 -0.007496040787576168
0.6297147460095476 -1.3429120789204974 -0.008108053522770359
0.591403991157267 -1.5467200616912768 -0.008289850236626152
0.5460366220970878 -1.7172438113961233 -0.007942976363791548
0.4938641500014579 -1.8493808686757198 -0.007150322535556412
0.4360784055596662 -1.9371712940867354 -0.0063251954988313465
0.36688629420535096 -2.0 -0.0059391423723016345
0.29767268867645313 -1.9371366286557667 -0.006486596736407065
0.2398218663885417 -1.8492979500904876 -0.007475660584270831
0.187539532665964 -1.7170855328286205 -0.008434784217860931
0.1420176139688334 -1.5464464154150914 -0.008944954949667298
0.10351301653918209 -1.3424721742567842 -0.008907317654928693
0.07194955916493198 -1.1107018278173701 -0.008386936439217636
0.04733087232234738 -0.8564894996651817 -0.007502341589121718
0.029966521865844316 -0.5852697602553087 -0.006369921871929615
0.020596566016660194 -0.30359410177368046 -0.005185193427676565
0.017597669542427197 -0.019912105931419975 -0.005257806582139904
0.0 0.0 0.0
0.012599607452651805 -0.30334825063627924 -1.718345907536809e-14
0.02577570240145479 -0.582743231140337 -3.22891844564065e-14
0.04373564033429963 -0.8521870860048217 -4.6719853528675435e-14
0.06829201164218754 -1.1052855812449938 -6.092435355107114e-14
0.09960179102862893 -1.3366470651195246 -7.578833282652661e-14
0.13761665793185904 -1.540880254588471 -9.471605786382464e-14
0.18253215182932767 -1.7127574370202743 -1.163374838894028e-13
0.23519033073475892 -1.846695030637731 -1.3571578609009603e-13
0.2969904611665838 -1.9352850566403887 -1.5186740108039255e-13
0.36689054275780375 -1.9676605018709006 -1.6982610559440438e-13
0.436774708226989 -1.9351787334200878 -1.8989755401492692e-13
0.49852486215124603 -1.8464668092717829 -2.063592041319798e-13
0.5510917242731238 -1.7123767542096 -2.147388911629679e-13
0.5958601384421746 -1.5403037976727758 -2.3050514850808315e-13
0.6336461237035439 -1.3358260394709611 -2.443565055115457e-13
0.6646021414600657 -1.1041818764288542 -2.7219206611156234e-13
0.6886109965314721 -0.850804059290325 -3.0241071506243946e-13
0.7057307002743161 -0.5811467506319653 -3.3540109049169204e-13
0.7175067360306561 -0.30165247804962325 -3.6860779373222573e-13
0.7264284329241427 0.0 -3.9279046145626023e-13
0.12698541938092794 -0.007621115625796651 -3.591317550829639e-15
0.13225366443291378 -0.3034469313353677 -1.5619778762923038e-14
0.13943654968934946 -0.5848899773307777 -3.0307356517567016e-14
0.15178933633822042 -0.854907448050871 -4.534801364009264e-14
0.16835583743367832 -1.1089667647351047 -6.097071019085868e-14
0.18942046624667416 -1.3412789549323487 -7.709742544472898e-14
0.21495985096906436 -1.546531132126943 -9.52652360949611e-14
0.24509543640644582 -1.7195286810038666 -1.152528096937715e-13
0.2802592132975375 -1.854796317348119 -1.3457838420629317e-13
0.32111294441281724 -1.9449264810366773 -1.5427126443845665e-13
0.36687123875400063 -1.978289265824941 -1.7202606051407112e-13
0.4126106351626559 -1.9448151383726147 -1.9296468101955817e-13
0.45340561873180096 -1.854556856854344 -2.1301067260856002e-13
0.4884642952046421 -1.7191278651075717 -2.2782033734238587e-13
0.5184362208010929 -1.5459209923967676 -2.4649926374262414e-13
0.5437327747871359 -1.340402849258223 -2.6551182631387875e-13
0.5644415467941291 -1.1077756792114932 -2.897123915867868e-13
0.5804874087128293 -0.8533857159219974 -3.171637641920854e-13
0.5920654486799937 -0.5830834178235171 -3.4633235554181677e-13
0.5981051753794115 -0.30138127020027705 -3.7521168908525877e-13
0.602866604382911 -0.0071828283550250645 -3.9614897568929267e-13
0.24661420755677596 -0.013258066222617722 -3.978888614712696e-15
0.24928151671306287 -0.3033181429616536 -1.531806377764572e-14
0.25198874273154703 -0.5859006719622779 -2.895616507983453e-14
0.2580595607781148 -0.8566176087702714 -4.4724538535903645e-14
0.2666043231364326 -1.1111944598960146 -6.083217765567589e-14
0.27733734013945543 -1.3440818231041616 -7.81397084300991e-14
0.2902757955826103 -1.5499311571971413 -9.674212500278651e-14
0.3053859614785057 -1.7235434611766483 -1.1504783456739612e-13
0.32268238431302326 -1.8595343222493859 -1.3685695687326645e-13
0.3428446032140045 -1.9508781652291107 -1.5721926168409206e-13
0.3668551703400001 -1.985707345362401 -1.7581861712205947e-13
0.39084422630998156 -1.9507632401012969 -1.9886739600227091e-13
0.41094015929212846 -1.8592867173824048 -2.2044570095488364e-13
0.4281202071859257 -1.7231278211068952 -2.404582365687823e-13
0.44305472189896317 -1.5492957689297293 -2.614593828923924e-13
0.45574392010997145 -1.343164010897156 -2.8295746693808403e-13
0.4661313034898088 -1.1099344579399983 -3.057921366646492e-13
0.4742005177919151 -0.8549904322685828 -3.3046790294203683e-13
0.4796195666580314 -0.5839155556492791 -3.569299078819888e-13
0.48182010099367045 -0.30125434922225164 -3.8248586484155485e-13
0.48441498972701136 -0.0124740374959945 -4.041093819296237e-13
0.3634065638860007 -0.0170480986217685 -3.4554786809332786e-15
0.3642001978127174 -0.3033078919918915 -1.4734868872918227e-14
0.36352306274214896 -0.5860224707213815 -2.811309258112307e-14
0.3635311799764689 -0.85721887500293 -4.452053323748952e-14
0.36393382787660294 -1.1119954574758595 -6.086617215867596e-14
0.3642952672306649 -1.345056721485637 -7.898935750372137e-14
0.36455911072955133 -1.5510924905552712 -9.80532200935669e-14
0.3646034931248618 -1.7248109906540596 -1.170510314653385e-13
0.3640108826311741 -1.860921217741625 -1.3930622250183176e-13
0.3635719286914438 -1.9534447263241073 -1.6038798463554363e-13
0.36684057298427375 -1.9909413888486571 -1.805723393906115e-13
0.3700852136187129 -1.9533277301370868 -2.053742064262086e-13
0.3695728501165969 -1.860668727353199 -2.2709770121363213e-13
0.3688534536142054 -1.7243860544060496 -2.518914537798648e-13
0.3687117896295864 -1.5504407221399517 -2.749962433205944e-13
0.3687228880888217 -1.344110460800756 -2.9796965374117453e-13
0.3687555623771258 -1.1106877231482093 -3.20505511232958e-13
0.36873792411849704 -0.8555102829780208 -3.4302970462050936e-13
0.3682925031643391 -0.5839666245297176 -3.672680628213353e-13
0.36739235564533396 -0.3012988459193541 -3.9060325526448057e-13
0.368220677018217 -0.0159741600667918 -4.134702222458677e-13
0.47923931224832733 -0.019217356699601805 -2.6991363294794612e-15
0.47839745806555445 -0.3032911439871969 -1.4028141246222992e-14
0.47473247370341476 -0.5854998488055557 -2.7751508075368126e-14
0.4690106889748105 -0.8567261328503778 -4.357776514977768e-14
0.46127712804585347 -1.111355476175078 -6.082786692442063e-14
0.4512464466447906 -1.3441959176898797 -7.920201111296586e-14
0.4388026268769802 -1.5500150427268888 -9.96708768212008e-14
0.42389033101845086 -1.7233980235005557 -1.1908774167752973e-13
0.4057690604133433 -1.8589604364144252 -1.415578122727498e-13
0.38444519131090427 -1.9524255970114126 -1.6362427186382337e-13
0.3668257382795314 -1.9947413240738119 -1.855927603483517e-13
0.34917966222547864 -1.9523080673388429 -2.1069080749675795e-13
0.32777485900611003 -1.8587063613622825 -2.3511168679565597e-13
0.30951564090550354 -1.7229694003195282 -2.6216556270976263e-13
0.29440557025255515 -1.5493557066069248 -2.8761661026278245e-13
0.28170396734058045 -1.343235278685374 -3.1363502605902536e-13
0.2713596782902085 -1.110019999435818 -3.348453996751777e-13
0.2632755868077975 -0.8549747078207601 -3.560660658045901e-13
0.2572524756490716 -0.5834297546028423 -3.772917100647696e-13
0.25349153941655045 -0.3013239271179876 -3.987115717869355e-13
0.2527130670977946 -0.017935529555999707 -4.22898276222013e-13
0.5953332716729028 -0.020169779552443402 -1.8870299774863293e-15
0.5931300145779004 -0.30311381109403857 -1.3328593874900932e-14
0.5866259862967143 -0.5844342461565271 -2.7082921612401626e-14
0.5753609944843475 -0.8551878922305077 -4.280191421788098e-14
0.5595363768140572 -1.1092649864132975 -6.111931107197322e-14
0.5391359655092962 -1.341505217861008 -8.150432296785878e-14
0.5140656600871357 -1.5466710651789217 -9.984067010511797e-14
0.48413786885574966 -1.7194217782356078 -1.1977431754963188e-13
0.44946234685726844 -1.8538063151251476 -1.4421890050317316e-13
0.4071690381888767 -1.9469853631218657 -1.6485559964409782e-13
0.36680895096483485 -1.9977776721883753 -1.8940961234637715e-13
0.3264192442082527 -1.9468688080275123 -2.1422033090341557e-13
0.2840362634750858 -1.8535538982868334 -2.4192110073791233e-13
0.24920927464172504 -1.7189949288027102 -2.7170171793855195e-13
0.21906792557024618 -1.5460128569287517 -3.0000772650148533e-13
0.19372773200405352 -1.340543794797344 -3.279387236245538e-13
0.17302132387240546 -1.1079246286880706 -3.5053807808565383e-13
0.15690513759165875 -0.8534308125479523 -3.6969654040579623e-13
0.14545319707452556 -0.5823790654718454 -3.8790732634254466e-13
0.13893597019336487 -0.3011711685980874 -4.0596763100342776e-13
0.13681639534670392 -0.018763120799865272 -4.31033578539505e-13
0.7123983857610967 -0.020484584266750705 -9.128440898829817e-16
0.7094944833119198 -0.3026920703491782 -1.2554608310756077e-14
0.7003587839824935 -0.582838291436465 -2.5645941321716203e-14
0.6834731564582389 -0.8525990589660805 -4.1421530849405794e-14
0.6595891763446879 -1.1057194665480172 -6.164661794570697e-14
0.6289156210835322 -1.3369640168709638 -8.376718622765134e-14
0.5913349666578944 -1.54110013094853 -9.886757266867797e-14
0.5466132719829178 -1.712632731367363 -1.2025651358342242e-13
0.4947511700555057 -1.846333057320866 -1.4092510995949998e-13
0.43666584431462796 -1.9356565777131045 -1.6536958635128495e-13
0.3667884192724243 -2.0 -1.9071025512708273e-13
0.2968777481769876 -1.9355424315529597 -2.1624486585194087e-13
0.2386919648806755 -1.84608537767586 -2.447589812147869e-13
0.18666094209548495 -1.7122128637845628 -2.8112846469747124e-13
0.14170301348543793 -1.5404512477058525 -3.1340482552524375e-13
0.10382861768143326 -1.3360149199423916 -3.462993227378622e-13
0.0728369308145089 -1.1043971196775764 -3.680395902764716e-13
0.04869195554863685 -0.8508726783859873 -3.856654216556867e-13
0.031723422063702045 -0.5808303571642396 -3.9906635798099776e-13
0.022700074178844083 -0.30077763314049744 -4.121539031825886e-13
0.019931502831728145 -0.019021570999196453 -4.357856732506067e-13
0.0 0.0 0.0
0.011877508956924536 -0.30549094518535547 -0.00228315390773173
0.024981263916990744 -0.5864622572845736 -0.004284459583377042
0.04314354359222191 -0.8571465223833507 -0.006181884046487343
0.06807029059850757 -1.1110439355335242 -0.00752649573390439
0.0998653034858992 -1.342684097942999 -0.008208428679127014
0.13843624088226378 -1.5465668172450002 -0.00817379062117335
0.18384084753207122 -1.7174082135577833 -0.007434513466819821
0.23666313883386272 -1.8497670352762727 -0.006146579849136501
0.29802817117722447 -1.9367611841126202 -0.004760089031433517
0.36690074851266674 -1.9684046804013504 -0.004095972994088123
0.43576444487743343 -1.9367259339525529 -0.004761367001378168
0.49710148263085174 -1.8496856983482726 -0.006154445110062338
0.5498723826894281 -1.7172595831870057 -0.007460504393881977
0.5951942199578393 -1.546320809508578 -0.008237072182516156
0.6336374605432008 -1.3423060455242304 -0.008336235658789552
0.6652392599486994 -1.110503623898407 -0.007753743330401694
0.6898709151593063 -0.8564352648308832 -0.006545221202686777
0.707593542729606 -0.5856082012645792 -0.00487444242403472
0.7198040878004233 -0.3044717408817163 -0.0032813804225129755
0.7291161382491795 0.0 -0.003348028019021898
0.12702855558673765 -0.0078816462449727 -8.254998525085818e-05
0.1322727295145233 -0.3054428436123116 -0.0011716790866533034
0.139203456592412 -0.5885680081219574 -0.0027035066421621356
0.15162459228284933 -0.8598199597567513 -0.004084901631114099
0.1683785219341681 -1.1146780327162196 -0.0050807953073909945
0.18971154039102459 -1.347249146610905 -0.005587691783669551
0.2155590545053553 -1.5521108416050022 -0.005597931701372133
0.24595434142810563 -1.7240029249486246 -0.005147323557704273
0.2811792409433922 -1.8575922435313512 -0.004351486299812921
0.32175105155518546 -1.9460237395811908 -0.003478837637792528
0.3668957028879616 -1.9786011812249338 -0.003038674838232654
0.4120293559345603 -1.9459854544452255 -0.0034532986436191793
0.4525669304942844 -1.8575040459321193 -0.0043042217442691945
0.48773055127205694 -1.7238418757491694 -0.0050870561644634354
0.5180307760773589 -1.551843875599128 -0.005540130531916226
0.5437390839336569 -1.3468367606837048 -0.005556766437484107
0.5648723016478934 -1.1140827634235304 -0.00511060332315278
0.581344093178696 -0.8590227530782366 -0.004226818451012217
0.5933351586937178 -0.5875721359465289 -0.0030339148593140188
0.5995461850605842 -0.30418843974940313 -0.00208183148481644
0.6044926421237578 -0.007492320957834568 -0.002657075385701839
0.24708292324439957 -0.013586802703807662 0.0007916993280883589
0.24977990989575716 -0.3053132577165158 4.56851101938888e-05
0.25231947886756745 -0.5895322512112696 -0.0010018092173442576
0.25833073426990316 -0.8615143513493388 -0.0019206873114128126
0.2669107698207241 -1.1168927343008432 -0.0025399852274456186
0.2777225658214546 -1.3500364712240949 -0.0028246071320524434
0.29076330405896983 -1.5554797547590156 -0.0027976718006265584
0.3059592742095059 -1.7279579007241095 -0.0025052003998246915
0.3232599827845045 -1.8622288908005256 -0.002009028380011364
0.3432676521619661 -1.9518316541688305 -0.0014186256132328544
0.3668937109724413 -1.9858258428461701 -0.0010642518591000953
0.3905068602637761 -1.9517915387190636 -0.0013669516142473365
0.41047471995350415 -1.8621363672568636 -0.0019083551835578643
0.42770553239666886 -1.7277885901916494 -0.0023622623269716385
0.4427964150624641 -1.5551981265313108 -0.00262597939553656
0.45568969214449767 -1.3495989545642126 -0.002648047281738705
0.46630200487409346 -1.116255451102626 -0.0023976828141293823
0.4746155017653349 -0.8606503101040879 -0.001872594332829311
0.48025536473571573 -0.5884172149473424 -0.001165446117257224
0.48250710020553533 -0.30405842757623414 -0.0007016690856313433
0.4851965318208585 -0.013002914150989895 -0.001142791625378906
0.36439980524487897 -0.017415220166758654 0.0021753708182711854
0.36520023959750886 -0.3053172688074228 0.0013828231302689545
0.3643823328743523 -0.5896262363905156 0.0007328641288331702
0.36425725203329834 -0.8620915630013383 0.0002608704019127451
0.3645532378096459 -1.1176792246741634 1.7562779497939926e-05
0.3648183687723455 -1.3509982685525426 -2.5134106049645252e-05
0.3649957066371734 -1.5566261370387937 7.413883733785624e-05
0.36497128120868244 -1.7292070070141052 0.0002654947234582669
0.3643365080355735 -1.8635903516020909 0.0005396111256345784
0.36385629123106367 -1.954360530718104 0.000931368990981445
0.36689337231067265 -1.9909570056810324 0.001249742883015331
0.36991569270148356 -1.9543198611175863 0.001009098837210636
0.3693902830465864 -1.8634961895970248 0.0006933987212288403
0.368677371322243 -1.7290338393663662 0.0004902356940952372
0.3685384092183884 -1.5563365177583026 0.0003576765315180936
0.368561339713511 -1.3505452609411672 0.00029233476676796894
0.3686295681299147 -1.1170141453692355 0.00032382659488785733
0.3686799795055356 -0.8611762655684339 0.00047971740365015155
0.36829597062148095 -0.5884632594227034 0.0007172195579847471
0.36736720630813957 -0.30409909113715994 0.0008269941808967731
0.3682202861700239 -0.016659969602232327 0.0007165472923459397
0.4808233509970872 -0.01960971488343386 0.003702894754788086
0.4799371750915077 -0.305313543606452 0.0027545151816105173
0.476110117746558 -0.5890829759229383 0.0024642768878215685
0.47018447904754584 -0.8615703244045273 0.0024360122650776443
0.4622113823883122 -1.1170170059238855 0.0025674209910014605
0.4519092876087103 -1.350121596757889 0.0027686130589413263
0.4391904335794065 -1.555541752845784 0.002942672648390884
0.4240488957890007 -1.7278037748511434 0.0030324891134626934
0.40582610098708793 -1.8616603689858784 0.0030717871039152023
0.3845896156484696 -1.9533844731467513 0.003230134153883291
0.36689306622141576 -1.9947086485880026 0.0034806551508984943
0.3491798089157589 -1.9533445508853018 0.0033344335666262853
0.3278924467333928 -1.861567308592217 0.0032797805579942523
0.30958269973313585 -1.72763124091411 0.003340850083017139
0.2943162187774639 -1.5552508950319577 0.00334080624356698
0.2814347534657027 -1.3496632703142224 0.003231102233657506
0.2709367105510529 -1.1163377189998944 0.0030430075173635412
0.26274906340821885 -0.8606294405731141 0.002831171851781041
0.2566461844565356 -0.5879098368231513 0.0026130472227315306
0.2527764164353514 -0.3041213661442945 0.0023999280848670005
0.25195026730117315 -0.018723995603942386 0.0026185718248015128
0.5975572095796087 -0.020574992053539146 0.0050517908071946735
0.5952412501886983 -0.30514884576758927 0.0040258097815127625
0.5885191203623505 -0.5879997867393177 0.004154020388290741
0.5769638837338724 -0.8600031517952355 0.004580610672717908
0.5607580135068863 -1.114901122417841 0.005085093217228691
0.5398991796127152 -1.3474171081522308 0.005514961770958626
0.5143462787611996 -1.5522072433211087 0.005732527801029279
0.48400890690249104 -1.7238712882598453 0.005666294611900539
0.44913190913786705 -1.8566066407486734 0.0053772517700397164
0.40709121573531626 -1.948091122005607 0.00516675254904545
0.3668911711060142 -1.9977428195961175 0.005209534954549684
0.3266722211540357 -1.9480532258225143 0.0052987320693756385
0.28457417435634336 -1.8565173794641099 0.005641940492507679
0.2495999279243577 -1.7237037917213922 0.0060627528741618985
0.21912476298468128 -1.5519218422912022 0.006252857897815326
0.193396858515831 -1.3469632895930765 0.006135114493930481
0.1723389444366608 -1.1142230677973863 0.005750204522894853
0.15594350580382574 -0.8590610456919773 0.005183228139787301
0.14426788587377637 -0.5868355438373078 0.004509517172545273
0.13754053967959232 -0.30396969419420083 0.003887478802579219
0.13528658891518694 -0.019607172883790523 0.004273605359387062
0.7153049039131824 -0.02091918364565621 0.005807685063637998
0.7122218366364754 -0.30475947246975355 0.0050698030836500265
0.7027953626796456 -0.5864061018092539 0.005733250923043769
0.6855024568479287 -0.8574101845031833 0.006634217339987846
0.6610650945049739 -1.111363512872086 0.007496040787452488
0.6297147460095989 -1.342912078920483 0.008108053522608492
0.591403991157324 -1.546720061691276 0.008289850236416308
0.5460366220971524 -1.7172438113961175 0.007942976363532384
0.49386415000152595 -1.8493808686757396 0.00715032253525372
0.4360784055597261 -1.937171294086728 0.006325195498485816
0.3668862942054165 -2.0 0.00593914237190709
0.29767268867651836 -1.9371366286557377 0.006486596735956674
0.23982186638859565 -1.8492979500904503 0.007475660583760242
0.18753953266601459 -1.7170855328285186 0.008434784217292926
0.14201761396889445 -1.5464464154149533 0.008944954949040117
0.10351301653926384 -1.3424721742565964 0.008907317654245257
0.07194955916504496 -1.1107018278171847 0.008386936438488268
0.0473308723224814 -0.856489499665022 0.007502341588354895
0.029966521865991153 -0.5852697602551955 0.006369921871131945
0.02059656601681097 -0.30359410177361823 0.005185193426848785
0.01759766954257785 -0.019912105931398867 0.0052578065812670695
0.0 0.0 0.0
0.008555631263508912 -0.3134732480766034 -0.005284177783734387
0.021691472355080045 -0.5995088153774759 -0.010092517548137673
0.0402861035847072 -0.8742600980242716 -0.014561390702567558
0.06595260824713645 -1.1312649579434944 -0.018010160989212928
0.09895059345034415 -1.3648103578833641 -0.020431012991311837
0.1391603872068315 -1.569000884936958 -0.021657878513322144
0.18639023710963498 -1.7381740701815573 -0.02157729019434332
0.24045317887069606 -1.8667897268248528 -0.020242429210586218
0.3011278818072411 -1.9490260104704977 -0.018222580338882764
0.36688234330699304 -1.9781315324176534 -0.01705421168770119
0.43264444252803846 -1.9491746753774604 -0.018234587345136683
0.49334312403471225 -1.8670865980619307 -0.020275108783337218
0.5474499880068289 -1.7386180707658916 -0.02164977195782018
0.5947512406615976 -1.5695895837513612 -0.021803321672700472
0.6350746494715549 -1.3655372178001368 -0.020699617750556093
0.6682547816037973 -1.1321126186082255 -0.01847799842211788
0.6942233048118776 -0.8751862457705147 -0.015308937634922267
0.7133088925173537 -0.6004303353104422 -0.011338923459067545
0.7274145605216 -0.3143549043099794 -0.006721997992305507
0.7382752426108257 0.0 -0.005900346020258801
0.1264868220250756 -0.009114164634144132 -0.0007788495655867821
0.13160835100650783 -0.3130170627675009 -0.0024227192929095996
0.13786274931217263 -0.6015326817576052 -0.0063009048778715545
0.15035197689609434 -0.876793227037644 -0.009481136759050874
0.1674388295581828 -1.13474634884152 -0.011946780840687595
0.1894156417455567 -1.3691770357834974 -0.013595271502474582
0.21619766377700866 -1.5742651320887566 -0.01440224787297822
0.24764299258498623 -1.7443288215429502 -0.014335196180097267
0.2835541789058956 -1.8738569332721777 -0.013469553843310923
0.3236586086187707 -1.957027593333696 -0.01213090520272622
0.36691555529906644 -1.9867153165128961 -0.011275166583308129
0.41018000922019415 -1.9571778806818676 -0.012099944057430697
0.4503079334254081 -1.8741571581091223 -0.01341438450849525
0.4862618066164098 -1.744778184292435 -0.014271509202531
0.5177755349680373 -1.5748618035599722 -0.01435865524373622
0.5446636963487164 -1.3699157968332747 -0.0136199318607269
0.5668072731996942 -1.1356124475942835 -0.012110759466396115
0.5841590846099558 -0.8777488898424929 -0.009901969894578786
0.5971028617565847 -0.6025122943387565 -0.007084949321384249
0.6041543872918211 -0.3140235449685813 -0.003988448963879872
0.6097326045390699 -0.009271297821158379 -0.004465475645673567
0.24795556033396485 -0.016047705492939008 0.0014022268264207122
0.2507949642034652 -0.31295575758532496 0.0001093899330627568
0.25297516040346085 -0.60228361435729 -0.0024382172506606566
0.2586965242270145 -0.8783350302802233 -0.004510607041677332
0.26723838136925343 -1.1367836798755764 -0.005950121977762205
0.2781879479416943 -1.3717520268846373 -0.0068190710085762165
0.2915446339372628 -1.5773621320679725 -0.007153579524058092
0.3071862841304797 -1.7479248590967376 -0.006984350898838835
0.32489545640597106 -1.8779588864514531 -0.006350630237715395
0.3447206970163288 -1.9618720112240349 -0.005280999912600323
0.3669514486173382 -1.9924591734697932 -0.004336637085218795
0.389189492866988 -1.9620246607767848 -0.005207650520190418
0.40903737777906163 -1.8782639160399404 -0.00620901006348675
0.42678701215598447 -1.7483816409453417 -0.006787185893622298
0.44249169325666715 -1.5779691583919926 -0.006926580393408448
0.4559427929185431 -1.3725048856169146 -0.006608720246689596
0.46703440374407645 -1.1376693577150225 -0.005835004771021838
0.4757974000374114 -0.8793181702292735 -0.004611038718724069
0.48188597913996556 -0.6033183188858414 -0.0029317909988642457
0.4844498909287629 -0.3139022420974225 -0.001191924018506538
0.48745914692491565 -0.016194786150399203 -0.0013822910775434982
0.3669192410713108 -0.02070526400992199 0.004341504799432933
0.3678816938430988 -0.31316992974436314 0.0028930180307959433
0.366828599427876 -0.6022505065882091 0.0014140284059398333
0.366263895089639 -0.8787886590233798 0.0004730974048993937
0.3661591438602876 -1.1374664680662219 6.499272431591575e-05
0.3660930296948635 -1.3726030232515394 1.2362115398927931e-05
0.3660228568067116 -1.5783864778707013 0.00019592962921571074
0.3659030376338377 -1.7490676710479682 0.0005445728847372552
0.3654673599303046 -1.8792035896996193 0.00104228360185101
0.3651123531328432 -1.9638384547559367 0.0019440111844290422
0.36698867243062033 -1.9961339443684765 0.0032261425560823564
0.36887201974100586 -1.9639941703461246 0.002059829403410518
0.36853860201331334 -1.8795147804284567 0.0012704808463896767
0.3681406063259338 -1.7495337255000956 0.0008751820640321747
0.36807728410719753 -1.5790058551395536 0.0006059439219099278
0.3680871566978695 -1.3733715211458049 0.00045518143110155385
0.36813382508456305 -1.1383713792238175 0.00045591935139717156
0.3681975265271842 -0.8797992134198718 0.0006733174364696908
0.36786035429894554 -0.6032952773220416 0.0012034309496853285
0.3669829736620543 -0.31402667645066673 0.0019075546996274646
0.3680283856322005 -0.020859946951371295 0.0021847318663445817
0.4850660279876584 -0.023357670211218887 0.007374895626589257
0.4843255841036952 -0.3133617510395809 0.005789370299105809
0.4803014033548408 -0.6016659126870655 0.005247455884891502
0.4738175987848897 -0.8782177638515747 0.005435166014695387
0.46510991136502894 -1.1367950317889006 0.006061314862646059
0.4540026473344946 -1.3717517516538367 0.006832625051914447
0.44048438888864444 -1.5773664517412087 0.007541651072404976
0.424660811122862 -1.747828688339277 0.008070213972361266
0.4062656632072366 -1.8776120814561157 0.008392515943166803
0.38549639972026606 -1.9628126406843036 0.008889421209703822
0.36702667446132264 -1.9983445450772301 0.010636238041913621
0.3485637294309283 -1.9629721267246687 0.009048504711546737
0.3278150348923535 -1.8779307810135744 0.008709009559015933
0.30945482324766693 -1.748305831473758 0.008537188271598667
0.29368120376464474 -1.578000097178286 0.008139139348999819
0.28022835400901797 -1.372536920246182 0.007514536479812774
0.26920394334368203 -1.1377190564345967 0.006736381492198278
0.26060047743735804 -0.8792469681867522 0.005943914395828078
0.2542266066718039 -0.6027011871336554 0.0053410872639279485
0.2502663980732856 -0.31414888526741014 0.005140711697643727
0.24956754496271424 -0.023525820948318503 0.005745849530806243
0.6035845475332722 -0.024499563319629415 0.010158220520618063
0.6014056688206808 -0.3133223843138806 0.008616032358352106
0.5944964338486275 -0.6005951222379002 0.009031778652374848
0.5822446857662871 -0.8766653727047036 0.010343328524507695
0.5649532798456592 -1.1347442955883562 0.011998897355217586
0.5427835336604483 -1.3691764313435595 0.013574224397141881
0.5158242197193481 -1.574253157691611 0.014781033024185704
0.4841696455637145 -1.744241660438909 0.015412716871316083
0.44832294936258754 -1.8732300251578606 0.01544933662806121
0.4069203243812113 -1.9581668699336574 0.014968014674313117
0.3670648655680266 -1.9996560646802692 0.01682220781010027
0.32721601324386174 -1.9583308767045748 0.015171843185416582
0.285833191890687 -1.8735576754409968 0.01585739730106614
0.250019243025571 -1.7447318780606758 0.016021796479028065
0.21840919359946548 -1.5749031895880905 0.0155754199319854
0.1915030227370002 -1.3699797967670022 0.014510248770516612
0.1693884032222929 -1.1356860967586784 0.012980935164182647
0.15214096304457037 -0.8777056105088531 0.01119368647716609
0.13990277893992156 -0.6016177913121324 0.009473176016533358
0.13297658189350692 -0.31406746265086993 0.008323006548807058
0.13080203604210422 -0.02467329328588815 0.00898689416894274
0.723134469837869 -0.024864297035943277 0.012294873146780183
0.7202070638529336 -0.3129870506066541 0.011261308738575896
0.7105921249653282 -0.5990164780204216 0.012787431458154036
0.6924030968864544 -0.8740818629294465 0.015270753333161392
0.666476075618402 -1.1312546762036129 0.017977455498067604
0.6332538288576002 -1.364791649212668 0.020350129949368946
0.5928480336109905 -1.5689916070229926 0.022006407097687888
0.5453936241806081 -1.7380297931927315 0.02268324611256657
0.4914390679326274 -1.8665503068279443 0.022205743441362294
0.43280716568457434 -1.948779477504643 0.02046259340576661
0.3671017659113372 -2.0 0.01967926328577524
0.30140287458049914 -1.9489488162966202 0.0207132089514122
0.2427903232039811 -1.8668884938572994 0.022709944845324615
0.18886714197844284 -1.7385353292228662 0.02344264246075102
0.1414537847366646 -1.5696606687653167 0.02301155795583996
0.10109315036306382 -1.3656155068832634 0.021563271818321912
0.06790713807571733 -1.132213908747734 0.019304417261741834
0.041979640184224516 -0.8751281592910493 0.016521977339717605
0.023719910867676185 -0.6000248728242633 0.013651273183875594
0.013990099801733595 -0.31370705833407053 0.011358885677553077
0.011013498707618582 -0.02503048171069768 0.011488166690453445
0.0 0.0 0.0
0.009146462618785614 -0.3316643711393467 -0.007938782849949916
0.022025302154341873 -0.6249882973220886 -0.017093862458787662
0.03983771425505364 -0.9075318981619894 -0.024404663027818713
0.06518588507011419 -1.17163492581239 -0.031029293457219543
0.09842532969722377 -1.4110706356812124 -0.036506507038327946
0.13941884840415456 -1.6192597869310414 -0.040608471162208476
0.18791846174586696 -1.7898399832541925 -0.04304378223072758
0.24326137022528657 -1.916608917384786 -0.0436084680197497
0.3038010639352471 -1.994271200684591 -0.042636224783686796
0.36680822738313823 -2.02014933433624 -0.04175630230411102
0.4298377834091626 -1.9946501241032353 -0.042671284400096515
0.49044902352225594 -1.9173756019643644 -0.043690886379738225
0.5459263272460474 -1.7910105680648978 -0.043200762700295936
0.5946480140150113 -1.6208536087432266 -0.040886845477667605
0.6359905832060606 -1.413100235356537 -0.03698142721415256
0.6697611892986121 -1.1740885261364404 -0.03180727471815202
0.6959009527918567 -0.9103431469866323 -0.02566935480404784
0.7148663121614576 -0.6280275064964139 -0.01896003073201263
0.7297338618955231 -0.3346869534294442 -0.011271878254048335
0.7436534456434514 0.0 6.435687630174104e-05
0.13016997497273364 -0.014162954170391168 0.004168252701647723
0.1357881568846969 -0.33019210413784944 -0.004158807747935767
0.1403174426599271 -0.6269851715552498 -0.010828706088380026
0.15198970726913913 -0.909877692791025 -0.016481611477481284
0.16845674629600907 -1.1750090666257258 -0.021212838448855152
0.19019881693271817 -1.4153466615027308 -0.025105775817683782
0.217091456162801 -1.624446450218504 -0.027990611733346084
0.2489640029031835 -1.7959003019329272 -0.02973436825107908
0.2853816399679745 -1.9234279121645383 -0.03024558692211575
0.3252847359923426 -2.0015314660458716 -0.029733848426923937
0.3668764833942122 -2.02743466169585 -0.02918953639951443
0.40849190972527494 -2.001916624501175 -0.02972178142325537
0.44847009180870556 -1.9242082317363849 -0.03023191189196243
0.4850267028511255 -1.7970943788562246 -0.02974279069651684
0.5171240947155511 -1.6260775323107937 -0.02806404790289425
0.5443605831310798 -1.4174332464523398 -0.025313996994075494
0.5666123302392916 -1.1775462249921385 -0.02166904275959412
0.5838131407636711 -0.9128089719319353 -0.017336805021870905
0.5965481874932629 -0.6301966469180915 -0.012379182259629778
0.6025929199572184 -0.333454013269954 -0.0064256873984937825
0.6090234060850207 -0.01494626444236177 0.0016810437515252924
0.25305770816596734 -0.02459052852586044 0.0068116803942958075
0.25595467718673504 -0.3296980034268597 0.0003686172422821816
0.25646015160322866 -0.6274379657336453 -0.0043931395440849645
0.2609891388778103 -0.9112948026517333 -0.007903355720653626
0.26876786416824294 -1.176944351458952 -0.01058915838651662
0.2792336610574448 -1.4178528950878366 -0.012639090690203345
0.2923723399719026 -1.6274947778766362 -0.014065750242930733
0.30811860038201133 -1.7994931033952095 -0.01484001791214335
0.32635644499190103 -1.9274903618558796 -0.014947097377969754
0.3464569522382207 -2.005688325865165 -0.014423843695892174
0.3669306032417744 -2.0311508820465614 -0.013833937948465477
0.38742838780644195 -2.006080223764701 -0.014364729274646212
0.40760495540906483 -1.9282851906501643 -0.014837314817598906
0.4259818480580108 -1.800711533316324 -0.014699623836515702
0.44194879927651615 -1.6291632792064255 -0.013932809726173808
0.4554167150396452 -1.4199945764103552 -0.012580241156269675
0.46635564757161935 -1.1795604634380137 -0.010712666289793234
0.47479354807771645 -0.9143316765346731 -0.008380645712615122
0.4802035183405914 -0.630789240149982 -0.005464674336783869
0.4814292397018549 -0.3328448697549131 -0.001437980768617088
0.4846757076216045 -0.02579714880291013 0.004280755427631516
0.3723334608595936 -0.03127327664728802 0.009172543130618863
0.37311196143503755 -0.3297817755530412 0.004771970437648776
0.3705579831686014 -0.6270616652035135 0.002109838400665656
0.3686532029891353 -0.911574797442788 0.0008697242316547643
0.3676427785802958 -1.177525924642533 0.00035139455654788584
0.36696249939502074 -1.418632833657885 0.00023430913026843345
0.36650188646893733 -1.6284775997823118 0.0003747309072322925
0.36633131577127115 -1.8007127613826346 0.0006952095048141985
0.3667135218307928 -1.9289398294096283 0.0011238044870585046
0.36748751469468977 -2.006797174165258 0.0017449747907198423
0.36697887902366844 -2.0309223713637077 0.00249489148080043
0.3664944791982767 -2.0071961133270504 0.0018514840186354623
0.36734440884621916 -1.929749649680848 0.0013305084522602865
0.3678637587425557 -1.8019558968172698 0.0009860139040750253
0.36790667523157783 -1.6301830475280705 0.000716440281107129
0.36775562703570563 -1.4208274741023015 0.0005648730877571786
0.36750325518366983 -1.1802145303732818 0.0005628229171482271
0.3670604648387486 -0.9147080505406293 0.0007871654355187214
0.36577875374035357 -0.6304535371071347 0.0014967903609675918
0.36360938134836884 -0.33280329679875104 0.0034195458607504175
0.3645806860338702 -0.03279319122712767 0.007038915874682335
0.49063204916680936 -0.03485061565053951 0.011598588475382164
0.4895397250478889 -0.3299155200341287 0.00895334902184551
0.4841549739227129 -0.6261407273103807 0.008505787624404541
0.4762975277413111 -0.9107951537927862 0.009593295807365065
0.4665680007214208 -1.1767321307982286 0.011272393594657388
0.45470043856567316 -1.4177037253170772 0.01309457142739346
0.44066024201318704 -1.6274065060800482 0.014809248595946494
0.42453279495919455 -1.799555468498533 0.016236506681813468
0.4069374428467505 -1.9278443981431428 0.017177998129543664
0.3886221122987771 -2.00504455893107 0.017590685390760287
0.36702845660658245 -2.0261877071965024 0.01826357149753684
0.345459250334313 -2.005450780535807 0.017745373238132873
0.3272200498928616 -1.9286695851926048 0.01748337182503737
0.3097604354374904 -1.800823517136049 0.01668075058325512
0.29383990559234696 -1.6291483587481286 0.015364601083870078
0.2800896434854225 -1.419948368124213 0.013703895195920402
0.26860288616688116 -1.1794875465495052 0.01182929385894376
0.2593288549566261 -0.9140009506428453 0.009919243120406221
0.2518951733300165 -0.6295399432228386 0.00834789056659482
0.24673029442266864 -0.3328573463622171 0.00806700203151289
0.24574324221887894 -0.036569545324041455 0.00993130907052287
0.6097219380461679 -0.036189118480434566 0.014211662416761412
0.6071544183593435 -0.32977733397053133 0.012898749518503647
0.5990475673078843 -0.6247582578124894 0.014649644002449926
0.5854436328934788 -0.9090321889577835 0.01802915177891014
0.5669637071325635 -1.1745506313762817 0.021839023460847734
0.5437849236124844 -1.4150433406009997 0.025516037209796314
0.5159842351834446 -1.624287416309338 0.02871800715901307
0.48379196646525335 -1.7959501230779122 0.031145554228189952
0.44742587649496735 -1.9241257820884308 0.03250506779844106
0.40972556525856446 -2.000926645361413 0.03204241090243954
0.36708659685633915 -2.016088395001064 0.03140756925669788
0.32447291278274015 -2.0013404789799147 0.03224647372208171
0.2868507963857355 -1.9249668798710124 0.03291172959581018
0.2506222109172692 -1.7972435743653636 0.031747742645183645
0.21863483807547282 -1.6260653582722129 0.02949406766603809
0.19111080411828124 -1.4173354788815975 0.026414687131603935
0.16826934177826863 -1.177363580627418 0.022756773795089134
0.15013761357958266 -0.9122904004607358 0.01878165594982456
0.13679085246874506 -0.6281614501353219 0.014958241110504365
0.128774830800154 -0.33267979669398356 0.012474939358156183
0.12623388594409657 -0.038003785482927696 0.012995326265071546
0.7305832699680355 -0.03646208234706263 0.016922038066249666
0.7276738902444523 -0.32931350106575824 0.016615920475577146
0.7173746407643206 -0.6229407553117345 0.020331652397417476
0.697811491109802 -0.906261116426576 0.0258002125874668
0.6703626696123729 -1.1709384674411332 0.03152635831513263
0.6356334452705945 -1.410602831122464 0.036839847376586486
0.5937439824939656 -1.6190126699950744 0.041300657332084614
0.544956542263695 -1.7899686637252605 0.0444930128326272
0.4897280906236797 -1.9170879262641205 0.046023733983092174
0.4282697605967899 -1.9952142045944312 0.04439279793644527
0.3671619507869487 -2.0 0.03772526337596301
0.30608151144492113 -1.9956362853725116 0.04464777677349972
0.24470723007473186 -1.9179460777595556 0.046535019100244684
0.18962443587698605 -1.7912888289604962 0.04525878198056628
0.14104914158095458 -1.6208274784194874 0.04230611462550503
0.0994357189674526 -1.4129407299719956 0.038040505265598795
0.0650173049409729 -1.1737993801386555 0.03282216238656799
0.037826555550338294 -0.909551488815882 0.026998683246858383
0.01833836904647964 -0.6263371751546105 0.021119690861677302
0.007932418598495389 -0.3321910101628294 0.016639876272133078
0.004947558111925303 -0.03829702615586014 0.016103682955392846
SCALARS Stress float 6
LOOKUP_TABLE default
-2189.3095209239473 -12144.129358059774 -4300.031663695116 -2221.8959082649417 916.0134057558414 -1154.285363537174
4838.4374224136045 3112.4658208401147 2003.0078434446962 -987.0095103285414 953.4614052499892 -39.25398169627136
4786.150937113161 138.89155765065908 469.3190812989771 -465.3030343753394 931.4655906098425 -323.7950717959754
6922.961926595719 643.6853340924791 852.5629633734924 -479.83050130931235 828.8010435532726 -351.32996015803263
9347.03592908481 718.1715429920125 1144.8071662319053 -452.22713278541994 740.6479765673125 -482.52778188494614
11877.650441910839 944.0480637645252 1531.638408932741 -410.3147531707916 581.7363985402557 -595.0178753745492
14341.91152419997 1143.1673901486902 1916.6383328656652 -342.7402114318091 362.83571786389155 -710.6065006269224
16667.468270463745 1329.1546382620431 2307.812019381469 -249.8384364586519 88.4366080818493 -824.1871472635813
18625.687463273815 1477.9439480205017 2666.379834872672 -130.03399993228328 -179.0435277352034 -941.2734421784907
19902.94854522829 1626.4719038500657 2943.2613346715043 -24.161023695167913 -254.90887837502615 -1067.0783023227268
20371.335616246583 1793.6866777843038 3092.405639447642 -2.9593018560256326 6.127552114115355 -1152.8876827034653
19917.411915142893 1626.6429094752339 2944.3320714718448 18.08877053022455 267.0563555640612 -1067.3759718506633
18657.475922977308 1478.4182219063853 2668.896269584528 123.50098922651524 190.83546877963195 -941.8634881727438
16722.66936680968 1330.2137178381165 2312.5222584783646 242.52669954803693 -77.38422529003364 -825.084704486389
14430.713763148304 1145.4342534148416 1924.8169770532118 334.35692716905413 -353.0906483878895 -711.6902519266039
12014.574690890546 947.8483204807387 1544.1463406514015 400.44705270402744 -574.5500275745666 -596.7212424368416
9553.655995568815 725.8878309606029 1164.447361328268 440.9172049128796 -736.0513729118344 -482.69089465425174
7222.787866761276 652.6629513352789 870.7351730727034 463.81857142793854 -834.103041170819 -360.3238723254423
5297.479405032037 192.3121210528751 549.4980105202751 445.9151048001343 -916.880735100273 -293.93009589884156
5946.940889921131 3308.2077303269925 2121.3618283829283 1024.0952995727012 -1226.014438116933 -215.9393626144022
-91.54878337558628 -11581.691493312617 -2643.054865898477 1335.5605949128646 -1605.8968368526232 -447.69790390977056
-2427.392425650494 -10533.580766331104 -3175.909231111909 -1426.142327123053 756.8246578487915 -663.5304802812967
2313.1784593116517 1686.84940040786 950.0116203944244 -1181.6828320264767 633.7122200158979 -199.02233687339384
2386.533826191034 -161.24554751417264 15.583109292340687 -983.1894216838707 574.978737443959 -348.8852763202943
4318.870555878717 29.992739180978766 296.59062906611285 -995.7966909161062 508.37949244409145 -452.4259854207777
5842.778569559582 -36.267339895641555 407.6410733244698 -973.3972428591921 441.17101568741697 -600.2374094334064
7455.589872459236 -34.27156323040278 568.8828713792326 -894.0800958622763 347.6495252791474 -747.6322237515584
9026.823434626489 -34.23397766440537 741.0524411960331 -776.8419615939348 217.53183132955678 -895.872969328118
10505.169405473234 -47.6389187924056 919.7783677841595 -605.8343780356337 56.93107403674181 -1048.8699917441563
11757.223735534877 -62.33778213268512 1092.7170226746618 -357.8645003691379 -101.24321790834829 -1223.0278732849124
12622.042101855684 57.12550267782201 1268.9264570756586 -94.18947716273877 -150.98843083953287 -1441.4998157884424
13028.240986882905 380.83080562129646 1443.0522842166802 -5.2763304565248585 1.4678091340287303 -1610.94825449343
12637.72066514797 57.81517261813372 1271.1161706515256 83.30079882043525 153.63178889839438 -1441.5310519924412
11791.154840733669 -60.89969446848101 1097.3526006615386 345.9508946103902 103.00022453721914 -1223.0504461707062
10562.705187549152 -45.33167902171254 927.3475174252375 592.1509254387083 -56.66332929110095 -1048.799220683524
9116.423185569423 -30.933282698753317 752.0704279423945 760.5586748913807 -219.42756115600005 -895.5338193929929
7589.408235428572 -29.9749245303693 583.884614066656 874.2705991867973 -352.15479544371357 -746.8900906510853
6035.829778056914 -31.694124609304563 424.84790181249826 949.0946755164084 -449.4257728977638 -598.3058034305487
4598.690274970744 40.037024669231386 321.0019315605778 962.9888515463844 -516.7935235127245 -452.0320969373183
2778.651380398253 -153.03399985209342 25.31567105544572 932.5530860738149 -598.7671344588399 -335.30058879204586
2699.14286271532 1769.8100427649204 989.7235370594773 1114.5743775556646 -724.6856174991104 -285.46756129211707
-2250.3083575399805 -10878.092517092247 -3053.421469189995 892.4380616997298 -896.1133721653996 -269.5031865497095
-1934.351805791338 -7341.126265717282 -2003.6821076785575 -1674.3798273213897 460.84986838194476 -219.76078372579886
793.7897458220843 514.8295727007755 429.91452808596034 -1919.4407473263689 360.66320044801563 -309.30644062634667
838.2779239833213 236.1956416501379 40.83325943851203 -1674.2020386960683 284.2143121820542 -398.32669917770846
1850.8764884640916 -39.211634135699676 54.94364652742772 -1702.7305383083271 230.487044865699 -577.028320690166
2775.8611349733815 -26.25210578681537 156.86146589630505 -1644.9008627229166 188.50566245369865 -761.5335284384156
3600.266377651773 -33.34388880907988 231.99391249906316 -1518.3224139358792 142.6561883827569 -955.3482923076192
4421.05519448303 -28.14076063276436 322.5217466376315 -1330.1062830396882 81.13439011691784 -1150.9316746762468
5210.039599144129 -43.88436616119042 418.63051997983325 -1056.5788324524065 -0.789026909274029 -1357.238774286106
5882.447119177706 -67.58594748609363 506.5670833115333 -634.5407307215626 -104.92634185082845 -1600.1724804102264
6339.652476733234 199.82273792329343 645.2730596028434 -136.95295990327313 -160.38256399155023 -1931.8565577019206
6759.701333156219 1066.4007057442188 980.2192873602232 -8.431637817703724 -2.2559342717811095 -2244.149231484349
6355.8391964904695 200.63242541256636 648.3221459294483 119.53027681863328 155.42525349483608 -1931.6824956994499
5917.110428915649 -65.91226164921406 512.8835655894121 615.4068079807761 98.65500213907217 -1599.7722230960057
5267.77374452996 -41.24398324075724 428.5678646110173 1034.471860563268 -7.5892821549018 -1356.4865979965798
4508.839004673954 -24.403707228442773 336.433565316049 1303.5663544831127 -92.20410342086942 -1149.6239803714388
3727.255349033107 -28.85941885693025 249.61976807354154 1485.6300657394434 -156.6408849597725 -953.0299058472951
2953.222135048108 -21.481628738965217 177.13889318913593 1603.9107543576258 -204.6917029673619 -758.1355459685446
2088.6133055177725 -35.11662869401344 73.22559592623386 1647.96929239973 -247.1708118293648 -570.2632525709917
1076.120999846752 239.32545240132475 29.898735013513274 1594.624948433517 -307.35591788161753 -399.8221082230818
1017.7453880628049 681.9219553536996 474.46803100932306 1813.3614626483852 -394.9387261502848 -314.05599640466056
-1925.127347280493 -7616.538130712151 -2047.020946650145 1582.668102767932 -505.6944612314164 -210.03605476145947
-1415.1989090658908 -4436.107784075153 -1059.72248825201 -1548.3795813163836 207.8939070679829 -77.49734208031225
-247.5888599310957 -102.96141759899355 165.4040633285151 -2029.8619436224635 117.78737548200455 -268.61447853557564
-573.0940294939559 300.6133545532197 18.45243675931012 -2038.0066340191129 18.579104705624605 -411.84882309740385
-451.9233194081142 22.810740184705843 -71.61951071346202 -1945.6226634606307 -30.882215734428474 -606.765622190274
-273.52209014114965 -19.672107846633665 -46.71639555423769 -1865.637028126324 -45.511974797267776 -808.3065254748022
-180.95235655893134 -8.002407189199333 -24.72605898298869 -1721.0428338521197 -49.501572855979006 -1013.7791014690912
-94.26290625669095 3.0104709282504745 -1.628346563682518 -1510.901701484156 -53.12127982435234 -1223.7992410466793
42.29573811891453 0.6059369860374488 34.56217582308606 -1215.4709216589117 -66.9358033707403 -1442.5599406283059
166.7051349510209 -64.74325114724743 42.327572611225165 -732.1164190945707 -129.58157944491728 -1693.4676401794945
170.75184985338134 318.40763243253565 118.08660399084104 -45.35525819263955 -210.64858229550939 -2053.5287985558234
769.5463658296175 2258.545035456267 803.1272655421897 -9.466793437312388 -5.602359072472213 -2517.5268897108376
187.23072973685225 319.36156744971316 121.97595374804459 25.776447095223478 198.85511247312417 -2053.291198209283
201.64025796072542 -62.80125505214402 50.295676119663085 710.5640348545353 116.07089740227217 -1692.933084233103
99.48394888517163 3.5961543351826437 46.883815933603586 1190.4929921226142 50.76010680040115 -1441.59312363267
-9.555725011768487 7.052829611902262 15.160607105659757 1480.792954205501 33.745692514043405 -1222.135456796452
-62.74986646213035 -3.4052586194338996 -4.050938965210473 1683.666082189978 27.224183055854486 -1011.0122542512623
-116.34379361677406 -15.940401762079023 -24.29114514503976 1818.0459340563884 22.099312909574852 -803.7276492406174
-270.06927244836356 20.49729490246618 -58.47748140082884 1883.407487052563 9.092987139412218 -600.4182440383279
-413.0126380610442 331.1484521921448 17.684499464085377 1959.503406725999 -36.5794551337518 -408.35921390915104
-118.89723963285178 15.886281399702561 186.82343973238568 1983.6275313487622 -132.89289764906573 -276.1386453559201
-1441.8155599400952 -4649.087985531621 -1128.268566439164 1533.5938948134792 -226.67010077744717 -121.46620605255251
-1111.2220228555861 -2220.457272281533 -391.2920183156312 -1176.776741503106 -3.052005283574727 -61.191846056903515
-1044.0948632632922 -295.51005071092817 53.731461882329896 -1707.0124062401644 -110.35237242976403 -208.42220534326898
-1924.8130534884629 240.99945170790727 -35.944310043832076 -1875.2672206376672 -250.34853061598446 -380.7525811097045
-2677.690889831848 55.68221385903715 -187.83191264704243 -1747.7522144679863 -296.961794331887 -571.6345251844913
-3310.0847874326687 5.814406567209515 -240.88577684985017 -1646.442865321137 -282.75238858680007 -763.3092877712729
-3965.6410207733416 17.729215164739212 -282.65326361344285 -1517.3398361520613 -242.69622595596627 -955.5145773536021
-4617.504904968246 23.735549840022195 -331.59676314781535 -1332.3522846168441 -191.00505311489127 -1153.0044714794635
-5141.817558691754 68.1591064361812 -346.1513855148778 -1069.172907551044 -129.56850095069242 -1351.3337528790607
-5521.484111931387 -44.82300832161648 -404.7827012374116 -679.5830329911722 -115.33195170490701 -1563.0004573721749
-6116.40736881225 114.16055843340271 -547.692001042993 174.69301730934245 -235.7456217326939 -1856.0310664160402
-5001.0197188796865 4087.1808851655123 824.1843674916805 -8.521084980700593 -9.023002317530192 -2461.211020826491
-6099.556682889469 115.28129560056045 -542.9335483592264 -192.32523424079812 216.951900300988 -1855.8731324747089
-5486.123028482815 -42.56966997068891 -395.09964322751995 660.1496246841917 94.3735531372148 -1562.635311500153
-5084.966220938497 71.53972348614532 -331.3549763556426 1046.6256729077083 105.31055993845531 -1350.644465933262
-4535.736093057143 28.100003035320462 -311.82433718398875 1305.1580675266905 162.95201727286363 -1151.7677663538955
-3856.48319097101 22.494650008610176 -258.9289071673617 1483.4559921218158 211.64246120610812 -953.3402159030418
-3176.8584783249416 8.11089693485386 -217.24489360447555 1603.0399216391693 251.63463261083317 -759.6768228902253
-2541.2873814307736 56.02873725657554 -173.13025691258156 1692.2746329639215 271.27851195384284 -566.7088890281223
-1818.0953085308745 270.31652989303535 -31.35395800667534 1821.4985324338988 235.98560175098297 -377.43899730434816
-973.4596402541079 -229.42140610835776 60.52149416918068 1694.277495181878 104.4946731157037 -217.66279285243357
-1133.102481361892 -2348.254997482094 -441.7010699329256 1185.1893381312452 -3.3048140730709115 -102.31208863072513
-1034.8247068145413 -888.5724796614712 6.676477100959961 -651.5481379176878 -188.42706322287668 -89.67150367516471
-1674.5721108016417 -276.20100360507274 31.47933673937793 -983.4890111708738 -343.6604505463175 -149.62037414819073
-3252.584067189217 138.65265541983004 -125.206813120193 -1126.595455811043 -548.0475219974221 -299.16145982430754
-4898.272535130264 59.290909587519145 -344.93593902928643 -1047.6266238126543 -591.9443481065937 -451.4109616900724
-6391.068046492069 20.10518481900815 -494.310699291007 -975.2276714403262 -543.2824399810964 -599.7365176578611
-7827.04166948699 21.606563157073868 -622.0094868766099 -894.0905100744798 -452.3260414700199 -747.486311013761
-9212.786385884296 33.92481617767111 -746.7341954959572 -779.1810763313024 -333.6422229199186 -896.9130400216287
-10545.37340954476 20.013914804609968 -892.0792690315104 -624.3099374022788 -197.56665605267773 -1048.5859977983905
-11304.741494631522 220.09701110591087 -869.3680565233373 -362.2481318574151 -2.0576954618119667 -1175.1830420294318
-12762.177262782032 -770.0084112569082 -1600.9426453626747 184.13901938409026 -92.04996349053216 -1342.8280210953571
-10563.785612002177 6525.039358882427 888.6681723687915 -5.391206862477304 -12.976434025182598 -1784.5975038608935
-12744.556793451067 -768.7196170059909 -1595.236125858907 -195.2918194934115 65.14708289499308 -1342.8779019544813
-11268.14949610158 222.67200829490767 -857.8193958982757 349.96944524946406 -27.58668682991873 -1175.2567619826448
-10487.631587007012 23.81571278918291 -874.6085143374107 610.1032300124282 163.7776588682432 -1048.6180904439002
-9132.22510825507 38.71945956365791 -723.7664209019583 762.1304917154787 295.1790471113337 -896.7663786446957
-7725.5393337943 26.440804192844826 -595.4904348813831 873.0207000956092 410.4129083606134 -746.9082309933121
-6279.897702578863 22.962673360502592 -469.3597459132857 948.4432776163768 502.3459712341339 -598.4134587881191
-4801.729267257749 62.562774390539865 -329.0823437961027 1015.1891490596626 560.8700867881716 -449.38026632764587
-3192.7662084902013 159.0906541897787 -120.25329275713496 1100.4388549798432 536.2018848476829 -298.29278295838003
-1648.3724580613427 -245.73706538366451 29.64546751349945 983.2363081395442 345.9574554852331 -156.17639400629022
-1051.9270828021536 -943.934500216151 -21.54425306228524 660.1373403142325 192.9605930926847 -116.33220083924212
-903.9161781198371 -383.70084496496213 280.0266414770133 -321.2563968701604 -377.2276698233418 -108.22668570362401
-2029.6133306144625 -248.64865985129288 87.58549298760504 -460.6850720853591 -610.2558269433364 -125.13623960826115
-4648.194277686671 -195.91606942543245 -366.86528888070893 -517.9420828799009 -905.5100353220458 -248.44235170269374
-7466.9858931285235 -507.77981985397724 -876.1875812759735 -497.9995783301377 -945.390252239227 -369.75049175926335
-9929.143848900127 -754.17084183431 -1253.9524015630186 -463.0785457395535 -852.1595205799456 -484.77506033922305
-12256.646744639871 -956.66990439853 -1589.4756851913594 -415.45953432945333 -695.6960061618618 -598.5896634922694
-14515.80384946381 -1131.6863130720387 -1915.8750150067924 -353.021856478809 -491.1505605995372 -714.0288679346788
-16706.714430586057 -1392.0724963817615 -2289.02967040164 -258.7668713383316 -248.27757754531703 -819.6049378883544
-18659.611587642867 -1297.8627849069883 -2557.4516737568556 -126.62959911573432 100.5434488130875 -944.6240208233934
-20388.024310510642 -3081.964058407407 -3595.047058258626 351.9267627483824 730.0603552753382 -848.3376782895352
-16490.5493015529 6518.590524271625 -392.96362020419986 -3.483571797534779 -18.04363371027958 -1749.5152945649072
-20368.58947244173 -3079.9529307847306 -3587.9849545898014 -359.1233181425721 -767.3796412041894 -848.4394808041765
-18619.72398221266 -1293.9248626471099 -2543.283960750796 118.75027610577033 -141.4174501767905 -944.7986004870701
-16645.03280219909 -1386.471290219014 -2267.9271368699087 249.76610461731434 202.0328268509225 -819.7862920209261
-14432.516113822372 -1125.1460904341372 -1888.8825008433698 342.5051431617415 438.8500467939688 -714.0973925447498
-12158.193457326395 -951.2744489271078 -1560.1187554646701 403.13593597198593 638.9472910800606 -598.3680506531434
-9836.785122768852 -754.0167654684798 -1230.6852684941032 448.8152502176319 797.0804900834671 -484.14304060536784
-7417.480112407912 -514.5133674200194 -870.9523933177887 482.83421790510687 905.1595830837886 -368.9616162649303
-4658.087193142974 -198.39601706867325 -381.492817458428 507.03220535779604 895.6781032579097 -248.95087895195303
-2062.1508917589526 -246.34478205282159 67.91394347662519 461.3406017778547 624.8874150831163 -129.64058258568318
-943.7892017090406 -417.3854621243088 256.2819430019609 323.8612165114369 397.8282464638173 -126.01323728063116
-330.7249916370406 -7352.946465185334 -2305.1014370467124 -1142.8702172913877 609.712821195407 215.68141816007477
4334.575074785956 2084.3693588699657 1518.4780462592976 -510.90926602375293 657.8896032928128 -67.60132488732731
5034.348756740673 252.2298014612147 663.6965604335068 -182.58003194013045 617.0812248976521 16.889907734088503
7128.175722649715 618.1578200108773 1011.8599761447441 -198.4586925787073 548.3331647838837 -11.552224334807065
9423.328021330322 726.1934625485428 1352.6550090865283 -197.09985958091005 418.50790052283617 -1.1855411001150449
11793.030522651186 927.511344161603 1778.7009181816181 -202.1362601791367 250.32143900266885 0.8064789189731569
14122.107884133933 1117.3351932228056 2236.535924252421 -206.81450546192215 38.920707263213856 3.7845216721501336
16417.608894894045 1321.193718129893 2757.7734329071964 -217.8239772821067 -194.57908415389036 0.2998953401601876
18676.46022334655 1523.3561104855276 3362.6889518667813 -228.87346846047848 -376.2612071156876 -24.559520240528407
20631.915067514325 1612.288662177258 3946.179344744056 -184.28751331413517 -343.8003488498536 -94.34034801953337
21426.304611558327 1497.2210294928918 4165.513981993092 0.6203454798757555 3.254835486990955 -167.42207379059386
20636.221951619253 1612.0489298324405 3944.9672117270766 185.51852758010773 349.943919255706 -94.76979857646226
18685.68110317722 1522.8849064136145 3359.946031460358 230.05902039814632 381.2518260482719 -25.403237510939498
16433.22720129 1320.5354834813604 2752.8302073695827 218.86982518503945 197.44150974249462 -0.8762586922391908
14147.220907623947 1116.6843830732266 2228.3879099581804 207.5460944225058 -39.69088584793923 2.385275400633495
11833.389596505212 927.1526386601339 1765.708878562892 202.1763550102924 -257.00896896640876 -0.07391259585000354
9490.556676495466 727.3450064820072 1333.5162449745571 196.32298211103404 -436.2234348232033 -2.4227257617208866
7238.594693444109 620.7328712315892 980.8606501037934 194.6553651102597 -578.8553669260715 -4.480483781275415
5252.173061456942 269.3277869553317 642.2878963486903 175.52271974118165 -696.8001328829608 -3.3351547845221274
4847.010816153768 2149.800209831578 1523.7274639247962 506.62521966446457 -588.7424425682934 79.74615498871714
676.6354290517629 -6964.548461735227 -1640.6821973401825 675.2968774355217 -497.37758615738505 -397.3487191180719
-1088.1034021184878 -6713.974688180516 -2034.5656336325212 -733.4106614609975 102.68412400070075 -20.210571879067516
2280.4603059929073 1111.1583704562672 802.4123393239449 -637.1606577453616 221.22981776432613 -61.43754623456172
2870.9579241254883 -60.17401138354914 258.22081369670616 -501.6526704256281 376.36754733009843 4.033715424649494
4610.820787507644 69.7533651708126 511.60913686680874 -520.8840889834044 315.61273669598893 -5.4328228669822
6071.559055135872 35.95165285687179 670.7461062135452 -536.4203799668727 235.18771440872297 0.8539989852629966
7593.051395582517 44.72372383285223 886.0304853759908 -539.3730269997455 128.16774763236646 1.0469070871352637
9090.721652497587 56.75888859192881 1131.971200024814 -544.0150157566889 0.25222396548487325 -5.147621523789696
10554.362923684863 82.23886307077777 1420.7133181041886 -558.535865390186 -137.15374255906377 -29.556539811518483
11953.957443137098 89.92677341256693 1748.7900201594668 -579.075329195199 -243.54476014435437 -100.33826486264262
13073.977320871136 -101.9970870073781 2001.233293341048 -475.1323118579427 -224.45514172159008 -254.77409538583015
13408.660038060949 -542.2329380735727 1977.066097582919 0.8980036533388809 -1.2539877859840176 -408.58317807344764
13078.85010018538 -101.80487112359364 2001.7828085843562 476.90072407132277 221.37646763443124 -254.8665434431267
11964.231303432953 90.30508688136443 1749.567226460619 580.7253101448263 238.73352197303245 -100.4208312452459
10571.285993661302 82.80484289452676 1421.0143646589906 559.8584138715523 129.35296022864202 -29.365676693695157
9116.707202870206 57.53002557766033 1130.5491178239765 544.5850204225811 -12.482901238333824 -4.155222039975406
7632.823480947547 45.80721264429191 881.0686080026619 538.4365522186383 -146.89704185220648 3.9322592116843005
6133.126253987605 37.17677888226241 658.883270436617 532.9615458140092 -262.6832128866287 6.881353287053999
4714.640859613737 74.77079138200386 492.90446219639387 512.1912575092073 -358.324210720872 8.216979860566482
3049.5130377086703 -57.386569541644384 224.77868762676934 479.44342893422584 -430.14085122222855 16.30657856929148
2463.813891121459 1131.8884904645674 765.953088691002 584.1801631623287 -235.49460150701157 44.728716504723316
-930.5921326110889 -6702.583046714385 -1977.6079759158636 435.33834511624104 -70.42576949032932 -419.1599417300198
-1010.6390941522022 -4875.729045018819 -1332.4718049842647 -967.9787581058127 -16.282094748555483 -404.25358162309016
995.2378997063483 373.72088271076575 433.93874823654886 -1106.5318878783914 50.570525619434356 -60.755286688970905
1305.5499725157215 195.04924748223232 206.00398247529102 -915.0711009944159 151.8735035545697 -18.524821754746128
2217.12674866786 18.789318108659554 240.022694568759 -941.045876179438 128.99252972894095 0.25699798026593745
3036.47014141485 34.19592750020538 341.65935322222293 -951.244746885435 81.75338538984005 -0.20078769959562748
3788.7635158349945 35.46092068554348 440.62451476974246 -954.9646796575437 27.58452882829282 -6.140609325187423
4531.402809649424 44.14518671512122 561.3627510636318 -957.2520542806037 -35.02253930411645 -27.023937045721382
5237.708758474452 77.24014916432333 706.3778114048064 -967.6526692082899 -106.12072206568044 -79.30087346855363
5931.177247104064 119.67090345114622 883.7134773134716 -1001.2798654990861 -184.01843341098288 -202.09060164238196
6537.295073086954 -201.40411437677477 964.3915856609556 -866.0365491064929 -204.51099167962457 -457.4190527842897
6492.66641612677 -1246.583895867766 654.4073576421333 1.3172055569138452 -5.253327789921181 -752.7186414442737
6542.521693797131 -201.13496265564214 966.5760277935655 868.6201546021528 193.27152448874273 -457.2050471605586
5942.020743768144 120.19618352597762 887.7799845379094 1003.6514101376061 170.59744354477826 -201.47547824564367
5255.033973299782 78.00154530204803 711.6206268935015 969.4544394682974 89.13108533556309 -77.82959653306224
4556.868989100653 45.15692522676021 566.5159904925825 957.7473035992689 13.176342133815703 -23.755656547251025
3825.444207183593 36.62318747136118 443.5022594302261 952.8522412457421 -55.41615069621521 0.5553799477068229
3090.7028623432857 35.774820445584524 339.2644945887581 944.4484564221837 -116.73634746870576 13.060197593875612
2302.704923863612 21.279695213264382 228.61568637822305 925.5749671471661 -172.42361550664887 22.290363010500638
1405.9347151091167 190.74432458298224 169.45928010139994 878.8794365505261 -195.8208709946732 25.757275771611504
1094.1155480820703 450.1905470861192 410.27738737565494 1033.3926936945554 -59.54578151321638 -19.206723845505305
-966.311020244172 -4869.919086192855 -1360.3736441131618 884.1222990923848 36.38825386807671 -566.496080537509
-838.8888183680439 -3085.291226148782 -673.4576068662685 -915.2428326934646 -52.56814371869857 -443.2233467160838
38.15560811153101 -63.814697287617705 236.32087937910745 -1215.6781625623566 -50.20096664565885 -108.98017157406566
-141.1816239582134 216.54331012068957 121.75065342149358 -1155.9084343691054 -31.407202808700692 -27.496713178472717
-85.53234150282917 24.186311925405867 25.433666868901675 -1091.8489926412412 -43.90504483766929 -6.802084812151124
-22.992512899481486 -6.42088180343676 15.211869537325331 -1091.6937829780052 -58.975631562628664 -5.828794163912521
-16.685464989380694 -0.8838179629047223 13.409128129441491 -1094.1191112554084 -66.9299771416652 -17.27765161245749
-26.77481232288447 -6.048868634865162 11.795524745348427 -1096.686687297488 -72.4140628032833 -44.99142199656605
-74.34402103976893 16.383674461644173 13.551360284463188 -1089.1296373409266 -86.4906093853444 -104.31886119035775
-63.362224040809146 123.90890940647259 60.22592763185112 -1123.9781183573293 -146.5618223887139 -231.6808549889535
145.622530956003 -290.3955311496111 15.147717522454293 -1100.1154718845871 -226.54882019961303 -509.9666445511302
-411.4614039088854 -2475.0643038196763 -776.3070132795215 1.432294348369052 -9.049698532319926 -966.4341217761893
151.1765456312404 -290.03666871048557 18.993696138685138 1102.9229823131616 207.56793411007308 -509.66374013206723
-52.03510682000524 124.61152529120046 67.64482617643554 1126.5474183404028 125.00001666687263 -230.86074540875654
-56.81182283821607 17.410558461285937 23.875651805898546 1091.0579947452227 60.86947861888503 -102.4563703899786
-2.315967068760436 -4.716366186566608 23.72128999436177 1097.1363215424235 41.724977687957036 -41.041909169952724
16.084404606396948 0.6893175742116053 24.654875765735323 1091.5282230491873 30.967307068278732 -9.251182284413774
21.89171331544145 -4.605989335286049 22.393452397100834 1083.4155441336043 18.605435124240643 9.51102520539588
-27.661027708965605 23.610782410364532 20.921184704935577 1073.2781343275801 1.722429332721745 20.96361413902364
-84.69056203527245 226.34817685645123 98.62638226113806 1118.6563295564617 -1.4984515508757799 17.332237951948333
90.3941229185893 2.7047066227237275 214.5933698122437 1176.6315875513603 47.44933061734995 -81.94078853113014
-837.7924674364601 -3109.1740968988483 -728.8794313715124 888.0931320774619 68.8069460725175 -540.207177701053
-759.0972244529204 -1638.9545985331704 -150.9255990135577 -692.966893155068 -88.68025768274497 -383.3356939976603
-736.2612865483987 -228.71509432133104 156.8231222361489 -1029.848222864853 -143.17985984808647 -111.13186735712983
-1527.039070637656 143.83490161805906 20.02752232845428 -1064.608280896441 -202.34577000860017 -28.5507649314936
-2329.220023077369 11.631417843374335 -179.9521665251866 -967.8012391092083 -216.23782792924902 -3.498264271439865
-3074.1305123927123 -33.957581936183836 -305.66840083512693 -947.7727752314531 -201.2674521419812 1.2628168564637337
-3831.8600638432695 -41.55124973277466 -418.55439154413534 -952.7429097056843 -162.69742321827553 -6.291217371784599
-4573.415735411941 -43.20750755060307 -530.5935046641578 -955.0191747212497 -112.10174819274073 -29.37499589260427
-5358.750521718783 -74.00231288602491 -679.1365854598378 -946.4867701865802 -62.48864264216092 -71.69611252048317
-6081.5847473255835 91.60367223691036 -781.3471286813572 -930.6079446629237 -78.03757673054487 -162.03422696536848
-6148.79759769101 -50.6292531443006 -825.8683661961061 -1176.5384206700162 -241.1146437068126 -372.7365691868727
-7575.016117239135 -4288.910554798309 -2494.8080246551626 1.3487013121844789 -12.927166542421828 -1010.8043352459925
-6142.904124136713 -50.187473136632626 -820.3398228338485 1179.1931809873545 214.21711165325718 -372.56785641713117
-6069.750460058898 92.47548068340986 -770.5239225847524 933.0756321111955 48.11924558053719 -161.51000325165975
-5340.982488744867 -72.72114462725806 -663.6382539937633 948.427610446468 27.955215687147376 -70.36050054528593
-4549.956580675244 -41.54890042130832 -511.73841582646475 955.7015774415689 72.1893531132716 -26.305375408483552
-3803.0649678993263 -39.51893750263156 -398.73407833675867 950.7184175530516 118.17753734586712 0.27030774238097965
-3040.639901563974 -32.26822986962673 -289.2598228356577 940.4388224983629 155.2417954837004 14.531496526979883
-2295.0171091458196 12.904082207468726 -174.29277674026952 950.891362078414 175.2112087525964 21.313796296896715
-1500.0715921762055 156.85676796369566 9.944273494780834 1038.4558879446267 177.90507916899608 7.7920910435774475
-713.8415227487211 -187.55211944866863 137.61123149983817 1013.078419664604 144.07940187829573 -92.527726929146
-770.4719862321674 -1665.2017918145398 -204.18505172152354 686.7051704993447 102.063252299267 -447.65340349852806
-812.3596152831473 -726.7611869167263 197.77451522811035 -362.38739699985075 -158.92461573548127 -248.8364632813089
-1388.7092150230455 -236.31751613899138 151.34364171445466 -575.7696646214905 -264.9160877115424 -75.63334138384764
-2882.805397400963 61.76686271354545 -90.62666018686143 -614.1494149419036 -391.2086942317068 -26.069726579605586
-4547.818043900368 6.333827186806478 -394.15030536847905 -550.614110001943 -406.00374804621475 -4.123368825166717
-6121.495528154941 -34.03335386383319 -640.3756870649091 -532.6306402353227 -358.24781613379446 1.9053908675372984
-7643.917346419495 -47.76665582801904 -867.4277690775677 -536.8861412189954 -268.1130455127328 1.071912779314311
-9141.324358575703 -58.99565621419504 -1105.1414906612254 -541.8739477930494 -151.42566674301753 -6.746043826122184
-10536.539815233875 -34.39150270517909 -1336.7727030082797 -531.8143919814346 -32.548395809191106 -27.313639835576623
-12174.127380974869 -197.48350133866123 -1758.2805106488138 -548.5983550255005 72.89987686042028 -42.839893417803395
-12376.928758830772 885.1107133720419 -1512.498012193588 -743.0885312317653 -152.15532422408978 -139.30165729359646
-15349.738961823996 -6611.521347646986 -4702.119623089128 0.9353486026369344 -17.171127189243677 -744.0798687072187
-12370.64805806482 885.6156386214858 -1505.2723268387203 744.9425537422397 116.56606887902306 -139.46588423776328
-12161.666183483492 -196.48240732868746 -1744.0197618052262 550.3667649115765 -112.08068467783258 -43.06641299018665
-10518.288073901685 -32.918416969808234 -1316.04268374685 533.3106234675427 -12.04145005055479 -27.345829895438936
-9118.336020593157 -57.084272930168105 -1079.2589847438478 542.6697476827215 100.77182682211362 -6.052903011075827
-7618.52226430334 -45.57813566083895 -839.100890075648 536.111773794751 212.9879353050353 3.5588103504207362
-6098.304656247673 -32.02610152094965 -614.6262397317287 528.5684777900926 304.03682131057656 8.316941048855231
-4533.525285036216 9.255364827193903 -378.1941737393855 541.0555407136901 363.1492739601139 9.388801366274048
-2879.8569969030277 72.55094467147232 -89.88369213569798 601.2737266207214 372.6724593927008 -6.231414509145412
-1389.1760528278699 -216.73825999918628 136.5228661540783 570.079740838629 270.7974294086472 -65.92894337842368
-828.4015760950582 -743.2585907378827 156.46585515979797 361.07467602428454 174.08781841580694 -285.64541166932577
-872.0532975071882 -398.50443617264006 419.0660960830952 -138.8007738086224 -303.8357821103841 -161.26968628262088
-1913.688452287241 -280.7715291466892 172.98245778792125 -225.3164324813593 -456.319848646154 -52.580359557409054
-4352.122901265519 -269.64683853292195 -335.4460157853056 -221.27855553667385 -635.0479658789204 -28.298064608911503
-7038.772255050302 -517.5919164147876 -886.9575936219078 -200.6437388294181 -640.2900280170817 -11.722601441197138
-9495.885571784353 -738.2577553684538 -1340.0601361530537 -196.17499465715633 -550.5122692959969 -5.832743800223906
-11852.355237038828 -928.3172098492759 -1765.5125765789523 -200.74118498314658 -396.3419564393274 -1.8914765624792302
-14184.217525764707 -1132.4120004112538 -2218.210746963527 -203.29830577949326 -199.40261566377964 1.076332674055184
-16378.26400639439 -1236.8107225354704 -2652.919792903182 -212.5155256078978 18.409729404581668 0.5416592292657167
-18344.410183748783 -1654.1286668543212 -3200.6760309360075 -218.78741398222704 242.65160816262267 3.959707994752929
-19625.922567129637 -80.13960399045976 -3170.951275802677 -530.3570143782581 361.9978694884736 85.7664884263472
-25356.077656324993 -10384.531321380759 -8433.581981022733 0.44901091781312275 -22.09215604648716 -791.1845932659357
-19619.028744892166 -79.18266810553646 -3161.858461197099 531.2561860690422 -407.70672048706876 85.45843541968398
-18330.820302272707 -1652.2275095197526 -3182.640530350834 219.67600255227597 -292.7543122348475 3.396523195631671
-16358.622381567564 -1234.0101251604758 -2626.461913060942 213.33115764022057 -75.13653760481964 -0.1429943605496451
-14160.160717092895 -1128.8424596226166 -2184.697456307848 203.87652681644903 135.24446472823277 0.5450612120545504
-11827.758523291785 -924.4618190981209 -1728.0765946979536 200.7330359240073 326.78328049414523 -1.7079165035171844
-9479.086688350648 -735.2390770261471 -1304.9614613503884 194.8427820370811 482.8140292020928 -3.8012858062868116
-7041.939257652379 -515.9015976206672 -863.6156571684642 197.0011265664467 589.3393920305251 -6.117770066735773
-4377.377570363008 -265.5834406329835 -330.90493597850275 215.96158905032044 619.8810585914929 -19.760033741649416
-1940.2015286939973 -274.46850399496145 160.33615505444612 222.65060036867362 475.4940723614088 -48.79060333628496
-899.9384612367777 -410.85795171900577 387.6641750509167 136.62542545504868 335.3937381319381 -183.5392151267931
1522.7717154496474 -5583.411348740358 -1218.191889987212 -71.81674352744042 263.44083550347136 22.859995913518667
4844.777713324944 1988.9650556730155 1669.662030272206 -494.14607354391023 359.1673935078074 -27.40848287431867
5019.409763056989 245.52837982192014 852.8201794007148 -195.5222513058067 338.0284939041851 26.47536438390546
6985.306326400555 532.8225486509167 1207.0185319346483 -223.4218000353373 282.5661802112792 30.549817819818646
9195.769846171073 638.2206495651685 1653.4655575025502 -234.11914318173623 181.69951513078192 42.15800584681521
11463.585359452161 816.1026029463268 2212.873453350762 -245.82372501204094 55.37709951119099 54.16404394899986
13754.062860003072 994.0404399088554 2865.0637370201857 -261.6121283042758 -87.39838063040493 65.41037032075901
16198.648377500182 1212.3199973932562 3669.725618481531 -291.6604229015199 -223.79375230177817 70.46955886480097
18965.74524749487 1456.32333178401 4669.165670628528 -327.44310167842116 -300.0341273449975 59.36568075349467
21693.51788412891 1536.0706616827094 5656.850779352749 -275.0664987038621 -232.87896707112532 25.71064321002653
22868.25690033715 1328.3171711041468 6031.068979927919 0.636413162523553 0.300790751205229 -2.823258788160945
21686.833787188545 1535.3223468460014 5653.756551371999 276.37818042004614 233.13459527926463 25.345616670614735
18951.207773910308 1454.7455184067069 4661.978155307588 328.87502942309584 299.21375125906803 58.63998827703293
16173.70606081222 1209.7358732712032 3656.248999277075 293.313348247654 220.99964309553974 69.42002571973254
13714.2291364726 990.0989339630153 2841.4592607132154 263.59655979664524 81.23089613173363 64.14561893392766
11401.890348441664 810.451184234139 2173.3299817819907 248.36410871328567 -67.44353196639418 53.07192321587013
9100.56506030107 629.7968675985628 1588.6926919977518 237.07966439315283 -204.47779183345486 41.52024296068875
6841.594572425025 521.4915299355539 1106.6823210158811 228.84675732144726 -321.53128159700293 33.179786680213546
4757.4086332875995 215.8633508452505 675.5791062111384 203.26618712916942 -398.1561378985972 24.32240394301028
4184.36618752151 1857.8950239263154 1328.6945080147448 482.90008346360815 -362.4328938885393 19.576713694092174
403.3496025349696 -5895.178262293511 -2072.3735113582584 620.2327131576855 -320.37539172991205 -191.34072922929204
-736.3871496037216 -5709.0803432214725 -1989.717416569438 -122.50263162575155 139.47605386111076 -68.27393442856507
2394.6617605818856 1039.0712513013113 855.6841144769911 -560.8038244494405 169.07925585956383 -57.435608977222046
3008.243656207193 -74.81575060532202 426.3632204766397 -505.6961690225735 211.65269570142033 6.354071907283503
4590.122651080911 14.216321069060529 698.6598449972665 -557.3519404521066 176.955069083257 16.05587016172106
5979.632342942475 -34.682866640202974 923.3166223660389 -589.1559646639109 112.09349612253688 23.45625897534505
7435.080271468296 -44.86916458786866 1238.2037838916945 -610.1180355831394 29.968393530165503 27.110024744486157
8907.323660240567 -50.42838637859551 1620.106735310615 -644.3553873234789 -59.68375233261352 23.63277763587658
10463.679085658903 -29.332718632651016 2098.169785148082 -715.2218019508531 -142.45802118772136 4.2528518062602485
12157.36885328933 -39.38076808772453 2665.5885488503263 -818.5609125585827 -187.5040045342531 -45.059300904510074
13674.211895639388 -389.51003660155936 3111.985383124757 -717.356730588992 -146.23443925598144 -127.5564404494429
14142.6784953783 -1098.3708408026148 3101.4803023859076 1.2343291978332331 -2.7006309110827353 -186.43998425511052
13667.37460046529 -389.78067406698335 3112.082205797118 719.9383973100705 140.32196298711716 -127.64311273159213
12142.697236405707 -39.93361567537701 2664.9934016213915 821.500861753077 180.03729622737038 -45.142570460505254
10439.050828753214 -30.1948321166187 2095.108136424568 718.8305555965846 132.29442173224595 4.406091239760357
8869.228341838392 -51.62860233330012 1611.4567443201825 649.0605759535027 45.39458497527456 24.517307861649943
7377.952846930011 -46.41337613202987 1218.8267472866246 616.5270010785383 -50.559782210805814 29.686311410419577
5895.6465927069485 -36.206622893819926 885.8573093846268 597.9574284486094 -142.2401919897203 29.255976040702933
4460.562597290685 9.14347788234611 627.9699901653069 571.0174229698974 -221.48612852859128 27.69340351103965
2797.7139702430873 -80.4081128960924 305.07540608936887 532.0780467412818 -263.2468409427739 24.477091791675466
2173.121345260551 1000.1754033116766 664.8206991992738 609.6371977486928 -189.25737643851787 -7.097037676807758
-888.4865749605062 -5630.783662125397 -2277.2953175860143 460.683585875106 -123.76109268513974 -247.5058846757968
-832.6359371487551 -4095.084096570055 -1377.3556786129184 -793.956394955064 48.93340977295505 -235.38363915591745
1088.0062344507332 518.5628392859415 489.8467973029454 -976.1206331713589 61.5607932708276 -86.81251738064867
1405.5431032039178 125.86169335587596 283.86979692306795 -909.9109936251342 86.12838110031942 -22.12370196856874
2287.160168395932 -25.509686236405397 353.7314376508513 -983.1980589525041 71.1019358433746 -0.3167627589656189
3045.17489756919 -23.443439039177456 478.1106551649626 -1021.3154869397614 34.59068474296589 2.6980489413707365
3754.4595991053666 -35.974273759584946 624.57248499211 -1057.5364813259703 -8.688759917178814 -3.948496826803294
4466.702223418199 -41.7690184065065 812.4222357782461 -1111.9306375163703 -53.56437360375377 -25.736616629288378
5190.86235326012 0.11515910154830156 1054.4199890000423 -1217.796955851621 -95.35374770580796 -74.28997345005114
6023.866154300723 58.03877097056807 1367.3261004748722 -1401.7103321239006 -123.97208026219384 -167.01017331186316
6859.804651609622 -483.50614644544504 1532.657557852436 -1300.6371244348275 -106.45970457868746 -306.19902874088393
6792.339323832109 -2079.9514603733874 1101.4784889144044 1.9916575550383377 -5.647359928958058 -406.80721381505845
6852.701483007275 -483.86601638320525 1535.699802547057 1304.8086824962022 94.5216563716192 -306.01569402514
6008.835463034648 57.3181251189606 1372.7973518900028 1406.480460743905 110.11418301962743 -166.45579393706083
5166.235962474715 -0.9649363940260223 1060.9039234999927 1223.6889718825107 78.32064382836951 -72.90386181231162
4429.840930463456 -43.21686912945122 817.2734300932059 1119.6897211072871 32.079155946520686 -22.587115980998544
3701.5779713363345 -37.574770531495375 623.3731025000264 1068.235921172013 -18.67820362633801 2.6409793441549727
2970.355109626172 -25.15946236010554 463.43835068841815 1036.5048471352675 -69.74660024801527 15.583851273355485
2178.70192348558 -27.658442451699354 313.3182565859697 1006.405577291396 -115.31193315753833 22.01700980556471
1286.6342600520445 129.29255431839155 213.68909241859635 951.7979512217203 -130.31557145470362 17.919447233220247
966.7819909058351 421.3900198569772 330.63307392387765 1049.1202956063212 -74.13194196544288 -52.51113563288125
-875.351733930538 -4034.723269764885 -1572.5474586628577 868.6945708583195 -33.40098320225263 -364.0808696117027
-747.3207647678939 -2599.9197574235654 -691.5838110979871 -855.4079235504797 -5.826327285396203 -301.81324833252484
116.58406624334098 118.52093947453267 278.8287999340176 -1144.2449858048847 -18.72758106652208 -101.9661952052605
-38.363364489068466 194.85758814930585 148.75831232824083 -1135.197743327375 -26.809896969654968 -30.527852095860077
42.536215752329454 7.316184859206926 49.01873333982189 -1131.0000471528685 -34.40780221170762 -5.918230024787811
90.19185607163661 -8.966063275943466 29.047213994274305 -1164.5328109038498 -45.12387485899894 -1.828260052188793
72.17825179642966 -2.449068430598521 21.808827324480255 -1205.6988504921421 -53.04819465397527 -11.625208313180948
26.138639301588267 -8.67380430325096 19.34638381023294 -1268.2862084125857 -57.30155460900749 -38.98342882140096
-78.47593187692087 40.266456205165724 27.746405008151463 -1358.6032368733559 -62.841556881959626 -95.03355246919175
-63.76974204796227 222.31975789258973 122.6094240962873 -1557.3946164107876 -78.74904064136159 -197.2164589368826
274.53257857180967 -450.50163166499425 87.17808936216653 -1626.5735602697655 -83.62704745738584 -355.848103489433
-487.34843559568975 -3646.3640414601878 -1007.8314790655376 2.257049888664861 -8.585629642994473 -485.5009716064392
267.1973623767019 -450.97263010556065 93.17513674129755 1631.3015105065356 65.69291671669566 -355.5826807945817
-79.08273606142724 221.38597637102643 134.16559304891098 1562.8018859371593 58.575128808713615 -196.46655597682766
-102.97903345493707 38.88774666184576 43.785722589886895 1365.2811603577038 39.10897431183478 -93.26467262447154
-9.219092821745292 -10.443645835489377 37.72914079972636 1277.0831158357105 28.98828335003453 -35.13586696287177
23.956737744991518 -4.372113584268387 38.648450308754285 1217.914589996483 19.557750247093256 -3.729800267507305
25.807890874318403 -10.663195141409997 37.369602043558274 1182.247442161709 6.4068036659988215 13.297968503938453
-35.05802385735824 9.213251074281755 40.72542361580569 1157.9673397779163 -7.73089149634729 21.325832829635477
-109.71199960105312 182.2665421830111 108.41339117840305 1177.7966400732294 -8.067999337846892 12.078999481866514
50.88259378246113 42.18627318097593 165.26459849034018 1179.7874291570317 11.37551640105574 -76.98891658706421
-752.9611876963799 -2534.125250488839 -828.8252370490897 870.4158589975996 18.068863984225985 -385.50545630238605
-707.797227709869 -1378.3088489143702 -94.83933787280276 -682.4934832315228 -51.926792799534155 -283.61870122133274
-676.2488548903867 -85.77402264671844 188.22779827569317 -1002.3943627292743 -92.70476719309818 -87.07364872200222
-1413.522067640002 162.1904562251384 2.41734028999904 -1057.412932319819 -135.8413451633744 -26.022943821987546
-2146.9600316128212 35.069459106910564 -242.235218690268 -1006.0450338216385 -139.06504684826905 -2.9650251554341036
-2861.414723771391 16.581836305793654 -417.0351961243432 -1018.8352315383286 -125.3271223322999 2.8219410044320217
-3620.864616499619 27.104664611984 -586.1789818222575 -1057.5462060574582 -97.9746916424845 -4.005565507537002
-4394.617223833339 43.73701564943446 -762.2651852343959 -1110.0464420516491 -61.79548962360469 -26.045606883802936
-5293.616682555306 33.69765620131893 -996.9203018871237 -1178.5566043227363 -28.78528301905416 -71.26157363431707
-6168.664035021411 318.28052522013115 -1150.8539050220245 -1273.369364428679 -25.1546758559724 -153.32007268504023
-6190.117329449102 38.29986389723846 -1205.5069125548841 -1689.4881226113112 -52.69892789404911 -298.79651402190336
-8117.605515487676 -5911.007053577439 -3442.7746316877947 1.9984252080083946 -11.581660385640749 -448.49739750403126
-6197.732178078819 37.71522917465488 -1196.5127454246187 1693.6735547257615 28.645519285314627 -298.6368030007563
-6184.36608334697 317.12470530287794 -1133.1237251471632 1278.1528335330163 -1.482746642972511 -152.81416260235162
-5318.183698159796 32.00964459710505 -971.1746604950902 1184.4547733820978 -1.836531336729571 -69.95505450743369
-4428.738457096828 41.627010806403725 -730.1154007385728 1117.8011330155766 26.390986358049354 -23.02660412568744
-3664.7720580948444 24.794033661170175 -550.9467807614203 1068.3704514007175 58.043834154609954 2.429804077739839
-2913.5677654594624 15.387184147684856 -384.434706931165 1034.7884352307283 82.77018208905933 15.706173012788996
-2199.371042904716 35.289010712193395 -221.26277313231867 1030.4045361153871 98.88535341094305 20.899569748031347
-1453.7830077309686 147.65903586438583 -7.2789085298640215 1086.9617904438126 108.67274284774382 8.58307729925529
-707.8020361459585 -130.1324417064287 118.75089890346963 1015.4908448488753 88.99287938752066 -68.60672194170645
-707.074851368862 -1332.5736522214918 -198.19338482863293 678.1077501407174 61.87864297972929 -337.70766303755073
-785.3010291643643 -613.4709808000415 311.76027449497747 -368.76810170006837 -110.1144439392538 -171.53079998006166
-1352.0257425158989 -155.73421036361555 168.02634393848535 -573.5542487223285 -177.37751640203118 -37.8793741947032
-2759.4897203591827 90.72539437107358 -150.34123482339 -623.6375877826567 -249.95859900798266 -5.095221085303449
-4311.933104516594 43.31027456320899 -535.8671952182026 -584.8955167850812 -244.34103717058133 13.471064297668384
-5811.616346642426 30.662973989292208 -870.3654022156619 -586.4450352128978 -203.9114165444551 23.156589954424078
-7310.386490149554 41.29553548157518 -1203.3831297999266 -609.9819658340092 -138.36157479151444 26.972616855144423
-8839.357070313006 52.45040827120203 -1571.837620863091 -642.7870338805408 -57.42931525622842 23.433357394111052
-10334.84244785697 114.1900808421087 -1956.4800953598701 -670.8954396914869 19.616723719447513 7.406195620702981
-12339.357438247756 -63.762217688281766 -2608.583659549147 -745.8759294868552 60.372280401126105 -26.832935740150507
-12617.20199595132 1361.9173628045535 -2298.8883333807407 -1013.2547919480667 16.56342941200504 -118.90522831133933
-16638.655182357685 -8824.837737064021 -6427.84891348467 1.2486545017258304 -14.701069032054962 -288.3889000574689
-12625.225471371768 1361.2372325435801 -2286.82376228231 1015.8664360291156 -47.010846639120295 -119.04222931226812
-12355.73132541487 -65.10590611465972 -2584.5185637639715 748.8485350144339 -93.83921794142253 -27.017251605744768
-10359.963301591844 112.24178807360265 -1920.7471075455203 674.534781449406 -57.675128630487386 7.4015608592803614
-8873.095036005703 50.03809738345723 -1525.4868464619424 647.5298415990984 14.067099587050901 24.0809298092021
-7350.867692056975 38.87643329791103 -1148.8594661272566 616.5349540586689 90.60656671703006 29.213304002105122
-5852.9568989942745 29.292126067904313 -812.4721000317109 596.1392639249033 155.52047689659884 28.850495954436102
-4343.392121376504 42.02134889292392 -484.46580536240066 599.0691550568961 203.50910382602066 25.44782616167013
-2774.1587918096866 80.35850288384486 -126.071413459244 638.086227720613 228.4586562614903 12.582071952853042
-1358.2974753004096 -175.9823081979163 138.97253649418204 576.7344201364718 178.63951137277803 -28.523981274521343
-783.7089650622122 -592.5816485718902 234.16919610478163 362.2389230882362 121.99842418949669 -201.76618974622738
-877.3466385301352 -356.4987641540525 515.0772457625335 -143.74874117536498 -212.16671520416935 -88.04020971431112
-1896.4479392994435 -237.3864320143853 170.6639177840312 -229.62133928497008 -292.3617991785365 -4.014076538805809
-4202.096948858069 -236.43531968412876 -410.864615573722 -237.96628329295703 -373.63949585277936 10.685941931658874
-6714.901829346382 -463.7659243641768 -1054.1060861224948 -229.16885280961145 -348.99007326798426 26.217340356738863
-9048.601802660003 -652.2668036644113 -1615.8837860321278 -232.37917075868563 -275.7431442710311 39.48186332371558
-11349.551404880072 -816.6386748708779 -2184.647667564442 -244.7209681235962 -165.93168349381062 52.5244105445473
-13703.14112587068 -1008.918540989911 -2829.1565890159122 -257.0026715902543 -32.37663337298877 64.1977399548024
-16000.365774539281 -1075.1661474208777 -3489.4658564722786 -284.29465673502466 99.51684497496814 72.8375347126025
-18279.23444295995 -1589.7818482502257 -4361.891359572256 -300.73422375276573 185.0532625390832 68.85808213668108
-20253.846174126316 445.3495728009111 -4469.242255168688 -662.3434711778992 176.73149456286103 42.60379284337226
-28067.45990960999 -13347.70018523185 -11007.641071861652 0.6494023920972971 -17.98890139560576 -202.04513096176524
-20262.258883435476 445.1366031779223 -4453.785639558382 663.7092702383128 -213.95647416939585 42.30659292476267
-18296.249668704302 -1590.1246297756845 -4330.796260660758 302.3087066555133 -225.88843134139313 68.28688436978211
-16026.041357785865 -1075.4380763781191 -3442.5735730537326 286.24831358313855 -145.86174860504937 72.05959403963465
-13736.619877286945 -1008.7085158123992 -2766.7663450862915 259.56019016120695 -20.359825245457444 63.37247669288301
-11387.111866239908 -814.9493563487708 -2108.062795833339 248.20073712939356 107.94477827027049 52.02153242972308
-9079.926719582036 -647.1463978352059 -1528.2038923539064 237.324535836142 217.57364887674444 40.139166855976555
-6722.865892375067 -454.42840447242605 -963.6059205670985 236.04385681950694 302.24572744198565 29.47420853732878
-4180.818091500555 -228.88722613530317 -340.0199260227974 245.12599927187563 355.31731936562835 16.351440207571308
-1869.7107701322195 -234.51508449220427 186.57201242676865 232.30273514150204 305.35978793903246 -1.321505975913124
-860.5565333634187 -337.3894964464559 467.76419280140226 141.76030938001168 238.581673314768 -106.14742635739154
1922.6088267016305 -5205.918470505468 -984.9928931411524 163.47183207093724 -1.998942789072089e-09 -1.0036114161948717e-09
4974.041292954635 1945.267859445357 1747.0185830091339 -484.8321712545823 -9.934399969324659e-10 1.4173107132364748e-11
5039.418502764199 257.8322032531645 972.2130318033994 -188.4674069219805 -3.689748506729984e-10 -1.2490586343005816e-10
6941.455533700074 529.0654881112034 1350.9650038558173 -224.11207418289345 4.329225866683828e-11 2.608935290027148e-11
9126.279948728146 641.3763202441286 1846.4814950181824 -239.63165282002885 1.7012719011333388e-10 1.457496345835807e-10
11392.299119058469 827.9471123779665 2484.060139647731 -257.59801712649096 -9.448147819668407e-11 -1.26179955373118e-10
13719.212655639494 1020.6080804049179 3244.9203713773913 -280.5603070478953 -4.288571719968104e-10 5.009326287108706e-11
16272.069157858374 1263.3410127651541 4190.053111979753 -317.94288917846234 -2.36697772493244e-10 4.1211523083006796e-10
19235.985195173977 1542.3907089677884 5348.405272984342 -357.51826839100454 2.507085650194085e-10 3.786668756333711e-10
22192.959128210798 1656.9149983765078 6469.509417470576 -298.70490295669657 4.86148898914962e-10 6.655431761259933e-11
23470.359411408164 1454.707791431252 6887.700049726687 0.7883078103220988 5.276572512258326e-10 2.227551476607914e-12
22181.63271560363 1655.971581114423 6465.6444408431125 300.35433982612517 1.035130425819375e-09 -1.17039711255984e-10
19211.469958201284 1540.403291766935 5339.321879169917 359.40062291256413 2.133851539909415e-09 2.642210894521213e-10
16230.135128421283 1260.064905206415 4172.747377400149 320.27031174776033 2.36232633454847e-09 8.51185788519615e-12
13652.031464494721 1015.4621446200495 3214.1096884854833 283.61019585257526 1.9604361467528975e-09 7.546452351903099e-11
11286.911581502573 820.2935049549759 2431.7435911079706 261.7988333747245 6.383499284723371e-10 -8.522649252995507e-11
8961.708719271377 629.1941595104646 1760.7318240964878 245.25725677726845 -1.1505258967758891e-09 9.375744625117477e-11
6688.667859830958 513.224323721794 1218.0558019226473 233.1867846578585 -1.7759602677358544e-09 1.201772015235747e-10
4625.3011948755775 218.56173118712877 751.2391688061371 205.29078392039867 -2.293686574006415e-09 1.392510551312398e-10
4019.398441257545 1781.4059443769447 1267.7225349014068 462.6495868842326 -2.0168412495635835e-09 1.2493561740711812e-11
341.21271642689896 -5695.822271007078 -2088.498901056904 588.9334096923507 -1.8177415128661778e-09 -9.428315905779527e-10
-632.8958663237411 -5520.109216891583 -1857.7887228401773 12.834618295422187 -6.049281076059287e-10 -6.085054682358759e-10
2423.0841821175018 994.7528102728473 856.6293092413157 -532.6315084612078 -5.588040030701791e-10 -2.5063240371991924e-10
3064.3277968222155 -64.1564198659934 510.74645661996607 -493.22422634317786 -4.203916104117411e-10 -2.3155521944318025e-10
4579.92500773816 16.170117575695098 790.6027027203097 -559.5795195675257 -2.0969131986348089e-10 -4.915134965699508e-11
5949.2680553860255 -29.090252795305478 1044.4188165217295 -601.2668824205609 -8.417641583768898e-11 6.439893063259206e-11
7402.0755265838325 -34.166707860212846 1405.745028779898 -634.560549568545 -1.1821504886100342e-10 -1.032485208440903e-11
8897.199491431355 -33.23932632808801 1853.0858845468138 -684.6805217142404 -2.80661605067678e-10 -1.8955503833240073e-10
10517.650111371448 -3.7906929098308533 2412.943233244734 -774.0024267201014 -1.9211543467179126e-10 1.0418510498766409e-10
12321.558920122661 -5.188142301829281 3068.2972061916785 -889.4348910563409 -1.027548046650395e-10 -2.7901236876459734e-10
13961.386845000809 -350.40000916019113 3582.343430931507 -775.558128635304 1.7171963850870497e-10 -3.672422366207684e-10
14474.860920474135 -1080.1523636921634 3580.8433903534324 1.5258958461529044 4.729929781177589e-10 -3.433529016660941e-10
13949.616682119755 -350.82901165348403 3582.3612964858344 778.8030213334008 5.142366532595588e-10 -5.407745362617788e-10
12296.426632918832 -6.047156405892643 3067.305911808792 893.3069078746975 1.0901957669950946e-09 -2.1399593208570877e-10
10475.648396293558 -5.101137106609434 2408.628090105955 779.089814325024 1.4319279095786897e-09 1.3529843911896933e-11
8832.1611950821 -35.05541251566701 1841.352938209336 691.8470853254438 9.921393706591175e-10 1.1117484710609915e-10
7303.857702215579 -36.50276885018518 1380.0321130505874 645.0014169635349 4.2193498694942377e-10 8.969665010738481e-10
5802.268645089801 -31.67322634546502 995.251747131289 616.5647427466082 -4.5327230857594714e-10 4.0304470871888043e-10
4357.27472941144 10.598148601759345 701.70000650394 583.1026392137877 -1.0513845349890971e-09 3.9334846491101416e-10
2730.325838872899 -69.2393966812003 361.44219296624544 538.7149063059798 -1.3254938258100424e-09 2.1385138104790258e-10
2090.7387346818173 954.7025980788635 613.8486660685519 591.4999257535238 -9.95210448773154e-10 -8.392198047602051e-11
-888.6184913034992 -5441.758644847991 -2281.7319963296427 436.4203856186113 -6.185631451494089e-10 -1.3645546914631268e-09
-814.9573649444236 -4041.039384510571 -1342.794321591154 -733.2349999556346 -2.2571372548796376e-10 -7.934275458865159e-11
1117.9154600143283 536.2799888110685 502.83729051776083 -921.3995554691274 -2.5179064389035943e-10 -4.057119085132399e-10
1454.052273956278 127.5874813599456 330.2313993016248 -893.759681648017 -4.0095113340576916e-10 -3.656768221560469e-10
2311.5925766145815 -14.908010673122376 412.4263969455771 -987.3094154965779 -3.446311864357954e-10 -3.4443381480286916e-10
3052.578182915801 -10.495886986557727 546.8668160354874 -1042.9059963964016 -2.8723982914424795e-10 3.31683569498864e-11
3760.5438288313835 -16.930652791915904 716.3405258076084 -1098.298554204721 -3.463327125086124e-10 6.978617683728316e-11
4483.882901072876 -15.64189512385216 937.60756250831 -1178.2739219605821 -2.5343466214522437e-10 -2.774589447085418e-10
5238.418686932668 36.40346875448141 1221.6977891478866 -1314.4516689257218 -3.8502651067418014e-10 -3.686153604576248e-10
6124.765603303764 106.48837100599505 1580.0761055905632 -1519.0787106770404 -4.5213116584008617e-10 -7.541611779515733e-10
7032.475798663846 -423.2828225062577 1778.475804564041 -1400.2765871718568 2.887423633524122e-11 -5.0765791570484e-10
6976.068188866682 -2066.0146980060617 1319.7637795730334 2.3842661809440187 1.1547623968155563e-10 -7.343654573332969e-10
7020.214653237358 -423.84794524676374 1782.0689799736697 1405.3624773769031 1.0968670416389159e-11 -8.394356321161922e-10
6098.951988802695 105.35928804927067 1586.490236654271 1525.1985183410927 3.691760508406361e-10 -5.443081541045558e-10
5196.3363403213725 34.69592610808359 1229.143904879143 1322.5920366708185 5.92973087298887e-10 1.4759349298287816e-10
4420.993720932788 -17.97523764631663 942.764512065966 1189.9139652763856 5.111988332640038e-10 3.411599891478545e-10
3669.6603420891724 -19.745345556049134 713.6556904302984 1115.6297834871893 3.84369047007338e-10 1.5861947311179847e-09
2922.8117574645134 -13.207834465843863 527.6148517089972 1068.8778477556382 -3.128297620946796e-11 8.717278010550444e-10
2126.765991248047 -17.913712907090392 363.00209962256787 1028.084957557062 -3.958861294339755e-10 6.744773628497569e-10
1258.3127685857598 134.5497728199946 250.03452158814704 962.3661812746426 -6.557214493607688e-10 3.6023495297854424e-10
927.1329617303687 396.64010079596 296.0915704820026 1022.9279302788067 -3.341367599274392e-10 -3.098188372518962e-10
-872.8957482080699 -3906.2388530067687 -1598.3023743609895 831.3691025336144 -1.739663968436389e-10 -2.029020507166024e-09
-736.4696683735885 -2569.881014319234 -678.6518069762501 -820.3462777224813 -3.7555486498419555e-11 1.567901364296631e-11
144.01197762530828 138.04644099617565 283.74405634736337 -1101.6988184788354 -1.2070666688401843e-10 -3.214211119484389e-10
9.041843243727877 197.23339082617855 167.41500477716684 -1114.9631929935877 -4.1934777872398854e-10 -4.336233594415262e-10
82.07565352073038 4.626854285051564 63.57609022366527 -1135.9776393697348 -4.469526415640246e-10 -2.3385560155020357e-10
122.30406851682793 -10.448968861766494 36.08557015316115 -1189.795078851731 -4.3210379718772174e-10 2.9402258405752946e-11
100.47440562329827 -3.269039608226656 25.542298544963913 -1252.79869999651 -5.442491179952214e-10 1.1579737169142845e-10
50.97476818294231 -7.819597077734153 23.622543922431472 -1343.6465804961804 -4.673435805013781e-10 -2.6313307088798865e-10
-58.43713317899851 45.095003859459354 34.22860139913773 -1466.4369398356957 -5.776906591981046e-10 -4.2851011627931257e-10
-44.2757590379334 233.67313757623037 134.52321567301115 -1686.098828612312 -6.118092421569798e-10 -1.0833027808132556e-09
327.36537500799307 -427.6569285256321 104.02966866904254 -1741.0822889118817 -2.3394614023786175e-10 -9.048060078953313e-10
-457.2805594518344 -3710.5306172966625 -1070.380377844061 2.6745716478149073 -2.897323908568339e-10 -7.26608107015636e-10
314.6938981059871 -428.3671598673061 111.20825405908907 1746.7908284221492 -3.6498590955114096e-10 -1.0370042602403373e-09
-70.57985679476701 232.26027237464012 148.35354056327466 1692.9781756496002 -1.8271065563291167e-10 -9.04830432801873e-10
-100.23793097073236 42.98557403217345 53.41823290400575 1475.5988157826953 -2.101862781045405e-10 1.9029888775889958e-10
-9.098121401785676 -10.63099446523158 45.58668581773928 1356.7863261872908 -1.6887630183148872e-11 2.7184587914064196e-10
18.32322942575374 -6.463167411989405 45.65422506149068 1272.5257122233113 1.666302651415208e-10 1.6791610324418116e-09
12.172327846669669 -13.251012881578758 46.307424199471726 1220.0929236746429 2.8498692294931516e-10 1.044326847221555e-09
-50.383048317660304 7.401323324088176 56.18478867712092 1182.765245573606 8.512335281096739e-11 8.971980935967849e-10
-111.21979181955503 178.56762948171536 123.4839677014017 1184.4472290671436 1.0704437336528372e-11 3.847691054659208e-10
39.74998182553453 28.769889097330605 139.6431233821754 1154.0721160291778 1.3985346214440142e-10 -4.497877625908586e-10
-740.2669444768296 -2443.8312163743635 -852.0466380981095 840.2744650964305 1.82436954432319e-10 -2.122886755273612e-09
-680.7035874773374 -1350.8950337935773 -76.26274169138645 -664.815916536032 3.427316763726651e-11 -7.128964085723055e-12
-640.8889507721005 -67.12363926136779 184.24640914398202 -972.1691463181841 -1.250712866607273e-10 -2.04241956680562e-10
-1360.8187307090786 162.08604387493173 -4.7639341998012075 -1037.7676345513262 -4.241785811487375e-10 -4.1110670423449847e-10
-2092.748893786627 22.216988295131465 -270.3738054698308 -1007.5426471507623 -5.374003464453381e-10 -1.7795431794809247e-10
-2806.619198233536 -0.7684812909780805 -472.50768114418696 -1039.8269647852696 -6.023579968150727e-10 3.9819259001205864e-11
-3570.492590619046 6.212394148223535 -670.6037784418392 -1098.5706163324498 -7.833220738717728e-10 9.055711736039029e-11
-4361.066810971409 19.802788595144396 -878.6343453300628 -1176.1377318734212 -7.302459106156567e-10 -1.2624590262078073e-10
-5299.011553427287 4.951092871286391 -1151.5397058105386 -1272.8591500041825 -6.931216434136189e-10 -3.862621333894367e-10
-6231.9788150336835 289.6641834768498 -1340.3570464825893 -1381.388040474878 -6.631050292194018e-10 -1.2073684274582774e-09
-6253.645774525583 28.561204611809686 -1402.3860527912261 -1796.9898960892365 -5.908318695402315e-10 -7.59040386100196e-10
-8251.605484869682 -6075.630592165633 -3796.9564813539105 2.4021245720679936 -6.177700018206167e-10 -6.557949738805746e-10
-6266.790780361174 27.704489223535695 -1391.567453716827 1802.1136226783494 -6.308109035124687e-10 -6.676486030698925e-10
-6258.911883297011 287.9663181551574 -1318.9952691576043 1387.5495622897115 -8.058929079624022e-10 -8.653913141642988e-10
-5340.786596855773 2.4430417869495837 -1120.420654528654 1281.0360704656641 -7.660611311965937e-10 2.602860149636399e-10
-4418.641253409302 16.576062568028583 -839.5434581375159 1187.8181476002785 -6.072787273048164e-10 5.040905470821144e-10
-3644.2982907123865 2.5352135802230245 -627.2502014481894 1116.1922635190294 -5.266859171015881e-11 1.6628336485524642e-09
-2894.438133620634 -2.921913953477029 -431.0149317237263 1067.215295381808 4.955710286580484e-10 1.0075928980057824e-09
-2181.474705499289 22.13279526621272 -240.1138263620127 1049.51291357098 5.666775937385182e-10 8.612752733228035e-10
-1428.8172265239107 139.74305772303055 -10.443450512514506 1086.7180434934817 6.762375104329976e-10 3.222013766901455e-10
-690.7151036612311 -131.5803972400743 98.90099400782918 992.2442285837111 6.048238576639164e-10 -3.788762636958154e-10
-676.0858524249697 -1268.765981870875 -206.38120745647564 658.0684103276126 4.79683404108755e-10 -1.8867591933258154e-09
-733.2830852533353 -575.763697309367 334.7438414674541 -363.8242299544251 2.1321611143321206e-11 -2.407385402136697e-11
-1299.3269789073404 -128.74288958806056 151.2956479912273 -555.6695776619883 -1.301470042847086e-10 -1.1647627307098674e-10
-2690.08698689593 97.23121841606451 -179.67779462608402 -609.8617192315448 -4.273243980890129e-10 -2.106643748334136e-10
-4232.312759829892 36.293409974436486 -599.1978680788696 -583.8933632620578 -7.16675718770432e-10 -1.5549450615992555e-10
-5721.659568598 18.892594478463426 -978.5766689459853 -598.1774834594528 -8.784835081598885e-10 3.153055594395937e-11
-7221.410806490011 27.890581085569657 -1363.9015725914712 -634.6188526525617 -8.202950263491715e-10 -9.135070477839236e-11
-8777.58552990526 37.093499510926264 -1796.6636057552803 -683.0160519464528 -6.462593793443716e-10 7.295275494811904e-12
-10338.293099061053 97.09317203832212 -2256.4135539749286 -726.9341325868606 -8.208830282185886e-10 -2.1716406450877912e-11
-12472.448079702152 -94.61648453875871 -2995.795114365418 -808.06856221546 -7.1588213135243e-10 -5.864251306775259e-10
-12777.593796850366 1403.0649195003284 -2668.3462961181012 -1075.4878762090775 -7.844662697209515e-10 -1.2994627596185637e-10
-16964.64126528626 -9103.606062466231 -7070.301164842504 1.5570852286004668 -8.550508079352426e-10 -5.263605107330704e-10
-12791.419800272823 1402.0663584811057 -2653.7886145160696 1078.7988568363446 -1.0294936014787481e-09 -1.1930989529673752e-10
-12500.478340509384 -96.59406197770701 -2966.6822897898246 812.0153840630306 -1.417356121358182e-09 -3.6401570646660275e-10
-10380.881942416188 94.19793320939169 -2212.968788843477 732.1017815790539 -1.4254444291594837e-09 3.7784420037212385e-10
-8834.147989309875 33.41862610302584 -1739.8072716334332 690.2883325548942 -1.1670953925513317e-09 2.7969804250460584e-10
-7288.572092075542 23.98129419355995 -1295.9207521916017 645.4262918496757 -4.0731107375791e-10 9.868363903819954e-10
-5789.793392321434 16.07266523742021 -904.0867667780835 614.9070177526534 6.177665046180891e-10 5.436613381704092e-10
-4284.074383013676 32.809937140431444 -528.9944815792917 608.3566265907369 1.1546170686216328e-09 4.289706367899271e-10
-2713.8779068867484 79.32069899086417 -140.9966894663439 634.0335775949111 1.4769641065726091e-09 1.72551861687964e-10
-1307.5487453141502 -159.7132906451234 119.61833684213556 560.5631597011022 1.1987719705786049e-09 -1.4614842669402606e-10
-726.5066194613377 -538.1239006555949 236.01001577875817 354.25046295495315 8.323448597025163e-10 -1.2040723973427703e-09
-821.010265131363 -325.23231093769573 492.43387634325927 -144.37064662646168 2.807531984672096e-12 -2.1797674776280473e-11
-1834.705178171667 -211.9408681024849 116.05783016520606 -219.4763796013096 -2.3806734361642157e-11 -3.859401687122954e-11
-4115.070500435545 -228.69632620722436 -477.5419150706587 -230.16690722087787 -3.822702154820945e-10 -9.895906316614855e-11
-6605.812745699872 -467.81190257792423 -1166.7600975187784 -227.4690944350641 -9.185789906496211e-10 -2.0023094293719623e-11
-8920.923002736778 -662.1502264233047 -1795.4920953459361 -237.20308603013765 -1.222398182676443e-09 2.7036151095671812e-12
-11222.162867468256 -831.550432198166 -2448.5542826326177 -256.056787164215 -7.231868437429512e-10 -2.504680907122747e-10
-13615.967945350438 -1034.1025522935693 -3201.2827152341274 -275.54093981296927 -5.291598270673603e-10 2.859650294340099e-10
-16022.553732307213 -1118.1820126961813 -3998.4321271336767 -308.7110401113141 -6.693765541854191e-10 7.756462139241194e-11
-18502.61978060772 -1677.3430349719504 -5024.342399575543 -325.240095819334 -7.217586528440734e-10 4.0322589711649925e-10
-20607.351419979055 431.98558907490286 -5141.781597464393 -697.0542274343463 -1.203631638801994e-09 1.1145573353132932e-10
-28656.15759863111 -13757.589601495394 -11868.887658454914 0.899655956130669 -1.1332099703054155e-09 -3.6848923912202736e-10
-20621.941180052534 431.4889895164987 -5123.065727150616 698.967771580857 -1.3256080677592763e-09 2.2017232481630344e-10
-18531.953171842324 -1678.217977899023 -4986.556220824126 327.5154528015973 -2.271113963558946e-09 2.469331406018682e-10
-16066.406104578627 -1119.1526258469116 -3941.0586917965475 311.661562387819 -2.5792981084293842e-09 2.2025581358775526e-10
-13672.431572148218 -1034.5798009210514 -3124.0298992138173 279.5980289477781 -2.081294581124382e-09 1.4311751783679938e-10
-11284.433825191521 -830.0474434948796 -2351.6906383453793 261.82957382883967 -9.060645567160464e-10 1.510134239879335e-10
-8971.330622150741 -655.7107702463591 -1680.3935705243025 245.60508914426543 8.642020432603204e-10 2.62492250158175e-10
-6615.885160032208 -455.20599908131686 -1040.9901589557423 239.04742539411865 1.936863114337939e-09 1.6863843654846278e-11
-4075.857547183455 -219.0481726105214 -371.202966437763 241.85337655024824 2.553845135366828e-09 5.1954884838778526e-11
-1786.8221239616917 -208.25795914556005 148.1438285936491 223.64338242371434 2.0691945934459e-09 3.2605029787191597e-12
-788.6307338851739 -292.8713026418284 432.67353680720197 142.19078138763314 1.4565415540346294e-09 -7.413447633553005e-10
1522.7717154617862 -5583.411348736561 -1218.191889982433 -71.81674352127575 -263.4408355075287 -22.85999591563459
4844.777713333179 1988.9650556738154 1669.662030274456 -494.1460735442114 -359.16739350956476 27.408482874279557
5019.409763062038 245.52837982272118 852.8201794018306 -195.52225130615193 -338.0284939047445 -26.475364384330884
6985.306326404359 532.8225486533489 1207.018531935808 -223.42180003493644 -282.56618021145135 -30.549817819866746
9195.769846169878 638.2206495606085 1653.4655575001875 -234.1191431814088 -181.69951513063518 -42.15800584706935
11463.585359453764 816.1026029492169 2212.8734533518796 -245.8237250119258 -55.377099510333736 -54.16404394886376
13754.062860003587 994.0404399055252 2865.063737020356 -261.61212830446954 87.39838063234754 -65.41037032084363
16198.648377501813 1212.319997390065 3669.7256184832036 -291.6604229023727 223.7937523029322 -70.46955886509262
18965.745247496772 1456.3233317817187 4669.165670631095 -327.44310167858555 300.034127344391 -59.36568075372275
21693.51788412767 1536.0706616722794 5656.850779351343 -275.06649870368966 232.87896707101555 -25.71064321015937
22868.256900340915 1328.3171711014547 6031.068979930436 0.6364131624033185 -0.3007907500216862 2.823258788419558
21686.833787195184 1535.3223468480762 5653.756551376791 276.3781804204124 -233.13459527714403 -25.34561667086382
18951.207773909337 1454.7455183946533 4661.978155305772 328.87502942446906 -299.2137512561437 -58.63998827678277
16173.706060811728 1209.7358732687298 3656.248999276543 293.31334824875637 -220.99964309280566 -69.42002571989144
13714.229136465377 990.0989339561958 2841.4592607086115 263.59655979634937 -81.2308961298737 -64.14561893313714
11401.890348437133 810.4511842448462 2173.329981782137 248.36410871307916 67.44353196692586 -53.0719232156516
9100.565060293382 629.796867597611 1588.6926919944017 237.07966439293813 204.47779183236443 -41.52024295984841
6841.594572421263 521.491529936242 1106.6823210146217 228.84675732108715 321.5312815939277 -33.17978667996622
4757.4086332839515 215.86335084457266 675.5791062098394 203.2661871291283 398.1561378941309 -24.322403942843657
4184.366187517307 1857.8950239245064 1328.69450801309 482.9000834626218 362.4328938845639 -19.57671369390048
403.3496025334804 -5895.17826228783 -2072.373511356656 620.2327131583398 320.37539172632074 191.34072922707963
-736.3871496016069 -5709.080343221987 -1989.7174165690692 -122.50263162220048 -139.4760538623547 68.27393442721686
2394.6617605845863 1039.0712513007793 855.6841144772399 -560.8038244492145 -169.07925586074367 57.43560897678244
3008.2436562109965 -74.81575060403043 426.36322047751344 -505.6961690224416 -211.65269570225573 -6.354071907605896
4590.122651083036 14.216321068227362 698.6598449969734 -557.3519404515481 -176.9550690836221 -16.055870161853992
5979.6323429432005 -34.6828666422416 923.316622365162 -589.15596466349 -112.09349612269853 -23.45625897566153
7435.080271470179 -44.869164585735334 1238.2037838927067 -610.1180355836647 -29.968393529859956 -27.11002474456967
8907.323660241547 -50.42838637967409 1620.1067353109859 -644.3553873245057 59.683752333375615 -23.63277763605384
10463.6790856597 -29.33271863476076 2098.1697851487693 -715.2218019522606 142.45802118799799 -4.252851806099357
12157.368853291222 -39.38076808803861 2665.5885488522495 -818.5609125592405 187.50400453404825 45.05930090493584
13674.211895641216 -389.5100366060368 3111.9853831253668 -717.3567305886502 146.23443925603587 127.55644044880732
14142.678495380935 -1098.370840804697 3101.480302387066 1.2343291975470354 2.7006309118295855 186.4399842549645
13667.374600470102 -389.78067406229974 3112.08220580121 719.9383973098325 -140.3219629856629 127.64311273109229
12142.697236404605 -39.93361568575167 2664.9934016193274 821.5008617551201 -180.03729622573314 45.14257046059963
10439.05082875313 -30.19483211824562 2095.1081364246215 718.8305555982107 -132.29442173068077 -4.406091239398712
8869.228341833488 -51.628602338837744 1611.4567443171245 649.0605759557068 -45.39458497424653 -24.517307860824644
7377.952846927215 -46.41337612943972 1218.8267472860975 616.527001079448 50.559782210906704 -29.686311409764755
5895.646592703055 -36.20662289295071 885.8573093833646 597.9574284468965 142.24019198902658 -29.25597603958129
4460.562597287378 9.143477881777724 627.9699901639062 571.0174229694325 221.48612852651542 -27.693403510368498
2797.713970241162 -80.40811289571212 305.0754060889044 532.0780467402403 263.2468409399544 -24.477091791261568
2173.1213452587604 1000.1754033107118 664.8206991985069 609.6371977479035 189.2573764366496 7.09703767671385
-888.4865749585242 -5630.783662118871 -2277.2953175831913 460.68358587505134 123.76109268377893 247.50588467301523
-832.6359371480795 -4095.0840965713796 -1377.3556786132624 -793.9563949544425 -48.93340977336568 235.38363915569153
1088.0062344521616 518.5628392865868 489.8467973032431 -976.1206331709562 -61.56079327151253 86.81251737986653
1405.5431032065537 125.8616933581763 283.86979692392833 -909.9109936249672 -86.12838110124235 22.12370196824137
2287.1601683977756 -25.50968623661403 353.73143765079175 -983.1980589516699 -71.10193584401392 0.316762758903379
3045.1748975702812 -23.443439039570265 478.1106551647092 -1021.3154869390336 -34.59068474340943 -2.6980489417226696
3754.4595991065094 -35.974273759957065 624.5724849921012 -1057.53648132707 8.688759916940013 3.9484968265025424
4466.702223420105 -41.7690184047021 812.4222357794096 -1111.9306375182994 53.564373603517815 25.73661662912255
5190.862353262975 0.11515910650560546 1054.4199890027332 -1217.7969558533914 95.3537477055436 74.28997345079515
6023.866154301199 58.03877096609586 1367.3261004745282 -1401.710332124128 123.97208026192679 167.01017331238666
6859.804651611461 -483.50614644943744 1532.6575578526965 -1300.6371244347881 106.45970457847413 306.19902874004197
6792.339323835479 -2079.951460369979 1101.4784889165467 1.9916575542411081 5.647359929300741 406.80721381424473
6852.701483009166 -483.86601638279916 1535.6998025485152 1304.8086824954714 -94.52165637085608 306.01569402445716
6008.835463033436 57.318125110339395 1372.79735188795 1406.4804607464844 -110.1141830190238 166.4557939371861
5166.2359624741675 -0.9649363986978874 1060.9039234991462 1223.688971884541 -78.32064382790668 72.90386181268933
4429.840930459818 -43.216869138244206 817.2734300898815 1119.6897211100263 -32.0791559462914 22.58711598208808
3701.577971332215 -37.574770537744925 623.3731024970562 1068.2359211732037 18.678203626254042 -2.6409793429855455
2970.355109623566 -25.159462360733038 463.438350687291 1036.504847133245 69.74660024756759 -15.583851271975472
2178.701923484087 -27.658442449990456 313.31825658588446 1006.4055772902357 115.31193315636645 -22.017009804325152
1286.6342600508478 129.29255431785236 213.68909241808197 951.7979512202892 130.31557145343933 -17.919447232650302
966.7819909053791 421.39001985625225 330.63307392355733 1049.1202956049754 74.13194196476334 52.5111356324674
-875.3517339294322 -4034.7232697603163 -1572.5474586609575 868.6945708573935 33.40098320185454 364.0808696077004
-747.3207647683414 -2599.919757425597 -691.5838110987635 -855.4079235506122 5.82632728525282 301.8132483326319
116.5840662444532 118.52093947677784 278.8287999347366 -1144.2449858051436 18.72758106605755 101.96619520462738
-38.363364487317895 194.85758815181228 148.75831232903653 -1135.197743327212 26.809896968812474 30.52785209542694
42.53621575439406 7.316184860671754 49.018733340475585 -1131.0000471522187 34.40780221075053 5.918230024673003
90.1918560727792 -8.966063275382282 29.04721399434619 -1164.5328109034572 45.12387485804225 1.828260051885009
72.1782517980412 -2.4490684288484554 21.8088273251643 -1205.698850493249 53.0481946531929 11.625208312603842
26.138639302968084 -8.673804302651698 19.346383810694576 -1268.2862084142607 57.30155460835461 38.983428821266884
-78.47593187475655 40.266456207918864 27.74640500945211 -1358.6032368755784 62.84155688107174 95.03355247003884
-63.769742048344845 222.31975788671622 122.60942409481527 -1557.3946164114195 78.74904064071804 197.21645893768206
274.53257857129273 -450.501631672109 87.17808936019586 -1626.5735602691827 83.62704745687115 355.84810348848504
-487.3484355933216 -3646.364041456852 -1007.8314790641242 2.257049887814728 8.585629642815878 485.50097160479027
267.1973623757553 -450.97263011091087 93.17513673978982 1631.3015105057018 -65.69291671649212 355.5826807937571
-79.0827360607158 221.3859763689297 134.16559304886133 1562.801885939594 -58.575128809138725 196.46655597699223
-102.97903345753835 38.88774665332622 43.78572258718634 1365.2811603601635 -39.10897431236625 93.2646726248671
-9.219092822261292 -10.4436458401988 37.7291407985758 1277.0831158384265 -28.988283350414036 35.13586696378282
23.956737745152395 -4.372113587407046 38.64845030808697 1217.9145899976536 -19.557750247345016 3.729800268934202
25.807890874278726 -10.663195141554203 37.36960204348854 1182.2474421597772 -6.406803666223479 -13.297968502418483
-35.05802385624503 9.213251078763108 40.72542361726771 1157.967339776112 7.730891496160303 -21.325832828264257
-109.71199960152036 182.26654218177563 108.41339117786025 1177.7966400716489 8.067999337949983 -12.078999481287479
50.882593782507485 42.1862731801102 165.26459849008498 1179.787429155583 -11.37551640075713 76.98891658648779
-752.9611876945819 -2534.1252504855256 -828.8252370474515 870.4158589968298 -18.068863983998366 385.50545629814644
-707.7972277108059 -1378.3088489163104 -94.83933787351259 -682.4934832317889 51.92679279944649 283.61870122155216
-676.248854889541 -85.77402264375104 188.22779827664078 -1002.3943627297916 92.70476719274502 87.07364872158166
-1413.5220676391891 162.19045622659482 2.417340290406181 -1057.4129323199616 135.84134516258803 26.022943821548225
-2146.960031612143 35.06945910618863 -242.23521869058067 -1006.0450338212696 139.06504684718746 2.9650251552758884
-2861.4147237700167 16.58183630805545 -417.03519612369206 -1018.835231537611 125.32712233084203 -2.821941004672515
-3620.86461649681 27.104664617154334 -586.1789818203548 -1057.5462060583502 97.97469164119329 4.005565506941555
-4394.617223833579 43.737015645521055 -762.2651852360822 -1110.0464420533133 61.79548962231678 26.045606883801284
-5293.616682553369 33.697656201590256 -996.92030188695 -1178.5566043242059 28.78528301779154 71.26157363513796
-6168.664035021479 318.28052521697236 -1150.8539050231489 -1273.3693644289963 25.154675855150604 153.32007268622618
-6190.117329447777 38.29986389799488 -1205.5069125544724 -1689.4881226105992 52.698927892891945 298.79651402112626
-8117.605515489388 -5911.007053584709 -3442.7746316910875 1.9984252078134357 11.581660384766195 448.49739750239553
-6197.7321780780885 37.71522917548099 -1196.5127454242431 1693.673554725582 -28.64551928586445 298.6368029999676
-6184.366083347645 317.12470530070544 -1133.1237251480075 1278.1528335351 1.4827466415921997 152.81416260283424
-5318.183698159901 32.00964459393378 -971.174660495804 1184.4547733846678 1.8365313352533614 69.95505450745668
-4428.738457094313 41.62701080656153 -730.1154007376257 1117.8011330186716 -26.390986359039175 23.026604126559
-3664.7720580935465 24.794033655917996 -550.9467807621835 1068.3704514017652 -58.04383415500798 -2.4298040767893867
-2913.56776545645 15.38718414997312 -384.43470692955987 1034.788435228757 -82.77018208899413 -15.706173011353078
-2199.3710429028074 35.289010714032976 -221.26277313137706 1030.4045361137876 -98.88535341017307 -20.8995697469367
-1453.783007729488 147.6590358648647 -7.2789085294125 1086.9617904420625 -108.67274284629008 -8.583077298734274
-707.8020361456706 -130.13244170745597 118.75089890311516 1015.4908448478458 -88.99287938637505 68.6067219412428
-707.0748513676511 -1332.57365221956 -198.19338482766477 678.1077501401255 -61.87864297900415 337.707663033774
-785.3010291649626 -613.4709808011418 311.76027449480915 -368.7681017003141 110.11444393923202 171.5307999802243
-1352.0257425153013 -155.73421036125814 168.02634393934517 -573.5542487224566 177.37751640176384 37.87937419446111
-2759.4897203595515 90.72539437137782 -150.34123482351083 -623.637587782857 249.9585990071235 5.095221085048866
-4311.933104516013 43.310274563590255 -535.867195218087 -584.8955167848206 244.34103716935726 -13.471064297841373
-5811.616346640676 30.662973991198403 -870.365402214771 -586.4450352119999 203.91141654286196 -23.15658995457224
-7310.386490148443 41.29553548166439 -1203.3831297999466 -609.9819658347124 138.36157478962872 -26.972616855199398
-8839.357070311735 52.450408270128904 -1571.837620863918 -642.7870338814764 57.42931525405801 -23.433357394045082
-10334.842447853902 114.19008084567061 -1956.4800953590875 -670.8954396923692 -19.61672372114762 -7.406195620250063
-12339.357438248238 -63.762217689679886 -2608.583659550576 -745.8759294871395 -60.37228040203799 26.83293574095225
-12617.201995948799 1361.9173628096123 -2298.888333379335 -1013.2547919477869 -16.563429413642012 118.90522831074146
-16638.65518236137 -8824.837737074431 -6427.848913489885 1.2486545015931774 14.701069030512183 288.38890005640275
-12625.225471370977 1361.2372325471447 -2286.8237622817287 1015.8664360286169 47.010846637522945 119.04222931171466
-12355.731325417315 -65.10590611875219 -2584.5185637666395 748.8485350158965 93.83921793893664 27.01725160613251
-10359.963301592017 112.24178807103954 -1920.747107546702 674.5347814509657 57.67512862808858 -7.401560859308521
-8873.095036002758 50.0380973823905 -1525.486846461555 647.5298416008884 -14.067099588833939 -24.080929808482086
-7350.867692054415 38.876433290544355 -1148.8594661283473 616.534954059418 -90.60656671766371 -29.213304001433933
-5852.9568989883355 29.292126070482304 -812.4721000289699 596.1392639238277 -155.52047689599618 -28.85049595341946
-4343.392121373375 42.0213488926796 -484.46580536163316 599.0691550562653 -203.5091038241473 -25.447826160859467
-2774.158791807148 80.3585028846597 -126.07141345841853 638.086227719421 -228.45865625871434 -12.582071952497285
-1358.297475299709 -175.9823081982534 138.9725364939465 576.7344201358358 -178.63951137056813 28.523981274260372
-783.7089650614816 -592.5816485712731 234.16919610508484 362.23892308803306 -121.99842418800314 201.76618974381708
-877.3466385293525 -356.498764154192 515.0772457631833 -143.7487411754121 212.166715204316 88.04020971435853
-1896.4479392986489 -237.38643201218918 170.66391778512153 -229.62133928462958 292.36179917843185 4.01407653867501
-4202.096948859612 -236.43531968420848 -410.86461557420506 -237.96628329314638 373.63949585183207 -10.685941931798727
-6714.901829346366 -463.7659243629987 -1054.106086122198 -229.16885280938214 348.9900732664823 -26.21734035690588
-9048.60180265782 -652.2668036633169 -1615.8837860310284 -232.37917075849953 275.7431442694307 -39.48186332371418
-11349.55140487985 -816.6386748752379 -2184.6476675659246 -244.7209681239942 165.93168349131264 -52.524410544147
-13703.141125867123 -1008.9185409854633 -2829.1565890151282 -257.0026715906396 32.37663336978368 -64.19773995487304
-16000.365774537566 -1075.1661474193186 -3489.465856473616 -284.29465673588464 -99.51684497720063 -72.83753471217456
-18279.234442960536 -1589.781848247968 -4361.891359574306 -300.7342237527723 -185.05326254009142 -68.85808213672131
-20253.846174126167 445.3495728036878 -4469.242255169644 -662.3434711784353 -176.73149456379872 -42.60379284380426
-28067.45990961262 -13347.700185238837 -11007.641071865903 0.6494023916514511 17.988901393212306 202.04513096056684
-20262.258883437273 445.1366031795435 -4453.785639560066 663.7092702383924 213.95647416570955 -42.30659292509485
-18296.249668707795 -1590.1246297763998 -4330.796260664257 302.3087066556033 225.8884313378685 -68.2868843699103
-16026.041357787879 -1075.4380763847141 -3442.573573057449 286.24831358365134 145.86174860188046 -72.05959403983569
-13736.619877281111 -1008.7085158104961 -2766.766345084429 259.56019016218954 20.359825242727496 -63.372476692142826
-11387.111866233114 -814.9493563536752 -2108.0627958319155 248.20073712958938 -107.94477827132411 -52.02153242930776
-9079.926719571324 -647.1463978310529 -1528.2038923487892 237.3245358356449 -217.5736488756039 -40.13916685542074
-6722.865892369311 -454.42840447233465 -963.605920565052 236.0438568194304 -302.2457274388921 -29.47420853685682
-4180.818091497604 -228.88722613477123 -340.0199260219377 245.12599927126467 -355.3173193614404 -16.351440207396138
-1869.7107701317182 -234.5150844920808 186.57201242635625 232.30273514118468 -305.3597879352479 1.3215059756889413
-860.5565333637745 -337.3894964469271 467.764192800813 141.7603093797426 -238.58167331167783 106.14742635596015
-330.7249916118877 -7352.946465178586 -2305.101437037142 -1142.8702172793894 -609.7128212001451 -215.68141816251259
4334.575074803285 2084.3693588737997 1518.4780462634044 -510.9092660239076 -657.8896032948797 67.60132488710981
5034.34875674821 252.22980146136373 663.6965604332929 -182.58003193982526 -617.0812248983494 -16.889907734414322
7128.17572265538 618.1578200118465 1011.8599761442975 -198.45869257844993 -548.3331647836231 11.552224334636634
9423.328021336016 726.1934625481726 1352.6550090865612 -197.09985958097732 -418.50790052153747 1.1855410999550968
11793.030522654934 927.51134415495 1778.7009181804924 -202.13626017944406 -250.32143900038142 -0.8064789186505665
14122.107884135878 1117.335193221435 2236.5359242526624 -206.81450546208234 -38.920707260991655 -3.7845216720598236
16417.608894893256 1321.193718137502 2757.773432907859 -217.82397728119395 194.5790841552533 -0.2998953400778559
18676.460223348142 1523.3561104902178 3362.688951867357 -228.87346846052927 376.2612071160089 24.55952024047764
20631.915067522357 1612.28866217817 3946.179344747929 -184.28751331490125 343.8003488501547 94.34034801952829
21426.304611566407 1497.2210294931883 4165.513981996239 0.6203454801489805 -3.2548354862004 167.42207378880474
20636.2219516274 1612.0489298342477 3944.967211730773 185.51852758092718 -349.9439192541829 94.76979857664779
18685.68110318209 1522.8849064155977 3359.9460314626294 230.05902039851014 -381.2518260466868 25.403237510542986
16433.22720129078 1320.5354834880652 2752.8302073718237 218.86982518598478 -197.4415097414821 0.8762586922985802
14147.220907617419 1116.6843830722228 2228.3879099559895 207.5460944230784 39.69088584846247 -2.385275400130178
11833.389596494897 927.1526386569983 1765.7088785594196 202.1763550102632 257.0089689666599 0.07391259656318461
9490.556676480734 727.3450064730763 1333.5162449681147 196.32298211116833 436.2234348225925 2.422725762010216
7238.594693435927 620.7328712375001 980.8606501040283 194.65536510916525 578.8553669235487 4.480483782083792
5252.173061447581 269.32778695179746 642.2878963454002 175.52271974097798 696.8001328791396 3.3351547845959937
4847.010816144974 2149.8002098262814 1523.7274639208283 506.62521966365284 588.7424425647934 -79.74615498845218
676.635429050311 -6964.548461720211 -1640.6821973376784 675.2968774344594 497.3775861544542 397.34871911589875
-1088.103402114642 -6713.974688182202 -2034.5656336323575 -733.4106614536714 -102.68412400198203 20.210571877417784
2280.4603059992114 1111.1583704573852 802.4123393246342 -637.1606577441751 -221.22981776547266 61.437546233943344
2870.9579241314973 -60.174011384755566 258.2208136963243 -501.6526704247529 -376.36754733081125 -4.033715425137711
4610.820787513111 69.75336517149393 511.6091368669293 -520.8840889832829 -315.6127366959817 5.4328228664465446
6071.559055140381 35.95165285632548 670.7461062135881 -536.420379967674 -235.1877144080849 -0.8539989854390537
7593.051395585603 44.72372382998888 886.0304853756525 -539.3730269997959 -128.1677476314004 -1.0469070871544695
9090.721652499937 56.758888592641156 1131.9712000256468 -544.0150157548792 -0.2522239643533251 5.147621524211086
10554.36292368607 82.23886307225442 1420.713318104509 -558.5358653880643 137.1537425598871 29.556539812225786
11953.95744313962 89.92677341317793 1748.790020160031 -579.0753291972356 243.5447601444605 100.33826486309025
13073.977320876445 -101.99708700723717 2001.2332933433004 -475.13231186005453 224.4551417214356 254.77409538643548
13408.660038066502 -542.2329380750966 1977.066097585132 0.8980036532550582 1.2539877862991928 408.5831780721898
13078.850100189658 -101.80487112434565 2001.7828085857961 476.9007240722772 -221.3764676333026 254.86654344320647
11964.23130343741 90.30508688679438 1749.5672264633488 580.7253101464255 -238.73352197181373 100.420831245772
10571.285993659918 82.80484289349687 1421.0143646581741 559.8584138725205 -129.35296022815936 29.36567669352153
9116.70720286708 57.5300255798901 1130.5491178236682 544.5850204227336 12.482901238624315 4.155222040489173
7632.8234809416645 45.807212642943234 881.0686080007938 538.4365522188644 146.8970418521109 -3.932259211462684
6133.126253978565 37.17677887618285 658.8832704326488 532.9615458145086 262.6832128857188 -6.881353286625679
4714.640859609605 74.77079138904338 492.9044621977633 512.1912575081285 358.32421071922306 -8.216979859580992
3049.5130377037126 -57.38656954514199 224.77868762483402 479.4434289334667 430.14085122002354 -16.306578568967492
2463.8138911185715 1131.8884904628912 765.9530886896684 584.1801631609277 235.49460150548887 -44.72871650463876
-930.5921326091387 -6702.583046700173 -1977.6079759124455 435.3383451151234 70.42576948952771 419.1599417275108
-1010.6390941516424 -4875.729045021006 -1332.4718049848582 -967.9787581042751 16.28209474826627 404.25358162280367
995.2378997097906 373.72088271381585 433.9387482374334 -1106.5318878768915 -50.570525619924325 60.755286688161
1305.5499725190018 195.04924748064758 206.00398247455342 -915.0711009928767 -151.87350355516395 18.524821754254777
2217.1267486715255 18.78931810707989 240.02269456823387 -941.0458761795844 -128.99252972920272 -0.25699798087856385
3036.4701414185706 34.19592749958599 341.6593532223279 -951.2447468863297 -81.75338538979918 0.20078769903028482
3788.7635158390513 35.460920687579005 440.6245147711265 -954.9646796572094 -27.584528828104734 6.140609325008835
4531.402809651409 44.145186714672164 561.3627510639132 -957.2520542776507 35.02253930453217 27.023937046602626
5237.7087584737355 77.24014915619792 706.3778114020392 -967.6526692059839 106.12072206606598 79.30087346969658
5931.177247104863 119.670903446009 883.7134773122546 -1001.2798655028156 184.01843341088832 202.09060164341116
6537.295073088695 -201.4041143818881 964.3915856605795 -866.0365491095364 204.51099167878212 457.4190527845116
6492.666416127427 -1246.5838958784727 654.4073576403802 1.3172055564218361 5.253327789802518 752.7186414432205
6542.521693801057 -201.13496265365762 966.5760277955048 868.620154603855 -193.27152448779017 457.2050471603495
5942.0207437715235 120.19618353301962 887.7799845404169 1003.6514101393851 -170.5974435440003 201.47547824655751
5255.033973298131 78.00154529899416 711.6206268919699 969.4544394695247 -89.13108533524412 77.82959653314904
4556.8689891000795 45.156925228307394 566.5159904926307 957.7473036006895 -13.176342133983795 23.755656547848595
3825.444207182468 36.62318747318713 443.5022594304664 952.8522412464017 55.41615069562568 -0.555379947690763
3090.7028623405895 35.77482044621661 339.264494588237 944.4484564226204 116.73634746796426 -13.060197593235372
2302.704923861739 21.279695215853238 228.6156863787006 925.574967145905 172.42361550580353 -22.290363009490928
1405.9347151063723 190.74432457910916 169.4592800997272 878.8794365490526 195.82087099372612 -25.75727577113706
1094.1155480808418 450.1905470860273 410.27738737508713 1033.392693692484 59.54578151273694 19.206723845280553
-966.3110202421333 -4869.919086182473 -1360.3736441106346 884.1222990900316 -36.38825386821931 566.4960805339381
-838.8888183692711 -3085.291226151749 -673.4576068672716 -915.2428326933461 52.56814371860292 443.22334671637043
38.15560811368863 -63.81469728394427 236.3208793802673 -1215.6781625616584 50.20096664541433 108.98017157345319
-141.1816239566744 216.5433101200012 121.7506534209317 -1155.9084343675577 31.40720280825254 27.496713178049287
-85.53234150056495 24.18631192385443 25.43366686840864 -1091.8489926410978 43.90504483718131 6.802084811458158
-22.99251289623302 -6.420881803951072 15.211869537536131 -1091.6937829787646 58.97563156220311 5.828794163240486
-16.685464989588144 -0.8838179708438334 13.409128126777903 -1094.1191112552676 66.9299771413861 17.27765161226985
-26.77481232211016 -6.048868638431317 11.79552474422908 -1096.6866872949618 72.41406280298239 44.991421997493
-74.34402103777286 16.38367445992264 13.551360284270345 -1089.1296373384596 86.49060938526002 104.31886119152294
-63.36222404062417 123.90890939858224 60.22592762989388 -1123.9781183614014 146.56182238829308 231.6808549903576
145.6225309585153 -290.39553115248526 15.147717522970382 -1100.1154718888959 226.54882019837373 509.9666445516953
-411.4614039114232 -2475.064303835864 -776.3070132836616 1.4322943485442625 9.0496985318916 966.4341217750199
151.1765456348683 -290.0366687051737 18.993696141486627 1102.922982315915 -207.5679341095449 509.66374013227517
-52.03510681681545 124.61152530062733 67.64482617940304 1126.5474183420606 -125.00001666661808 230.8607454099018
-56.8118228378293 17.41055845991083 23.875651805178776 1091.0579947466008 -60.86947861901449 102.45637039015382
-2.315967067952993 -4.716366188039727 23.721289993612462 1097.1363215444314 -41.72497768844558 41.04190917067206
16.084404607394475 0.689317575766498 24.65487576617451 1091.5282230505331 -30.967307068818837 9.251182284298189
21.89171331715708 -4.605989331852223 22.393452398329053 1083.415544133769 -18.60543512477878 -9.511025204672002
-27.661027709932647 23.610782405723608 20.92118470327507 1073.2781343258237 -1.7224293328614928 -20.963614138181192
-84.69056203488697 226.3481768546736 98.62638226070139 1118.6563295548567 1.4984515509615985 -17.3322379514724
90.39412291913854 2.704706623905805 214.5933698123745 1176.6315875495745 -47.449330617150906 81.94078853057617
-837.7924674348244 -3109.174096892368 -728.8794313699383 888.0931320754542 -68.80694607228618 540.2071776974622
-759.0972244535345 -1638.954598534872 -150.92559901374386 -692.9668931548043 88.68025768268242 383.3356939980977
-736.2612865474314 -228.71509431949445 156.82312223684082 -1029.8482228644498 143.17985984799088 111.13186735673092
-1527.0390706365577 143.8349016188716 20.02752232866593 -1064.6082808955573 202.34577000830407 28.55076493106207
-2329.220023076568 11.63141784280221 -179.95216652542987 -967.801239108441 216.23782792858123 3.498264270917219
-3074.1305123903567 -33.95758193572502 -305.6684008345954 -947.7727752329457 201.26745214103065 -1.2628168569682954
-3831.860063846152 -41.55124974589192 -418.5543915490579 -952.7429097060245 162.69742321737945 6.2912173715059625
-4573.415735408576 -43.207507549038965 -530.5935046632914 -955.0191747179716 112.10174819200088 29.374995893173356
-5358.750521717322 -74.00231289228186 -679.1365854616428 -946.486770184743 62.48864264161851 71.69611252165896
-6081.584747324853 91.60367223114349 -781.3471286828884 -930.6079446662243 78.03757672964592 162.03422696638273
-6148.797597688816 -50.629253144418186 -825.8683661948415 -1176.5384206748777 241.1146437054383 372.73656918743995
-7575.01611724361 -4288.910554816469 -2494.808024660066 1.3487013121019942 12.927166541696936 1010.804335243991
-6142.904124134311 -50.18747313177765 -820.3398228313545 1179.193180990908 -214.21711165337305 372.56785641762224
-6069.75046005497 92.47548069505063 -770.5239225808812 933.0756321119484 -48.119245580953994 161.51000325215904
-5340.9824887441855 -72.72114463083832 -663.6382539953773 948.4276104471578 -27.955215688041722 70.36050054572695
-4549.956580672227 -41.54890042295163 -511.7384158267269 955.7015774434462 -72.18935311396855 26.305375408826375
-3803.0649678952514 -39.51893750039977 -398.7340783357666 950.7184175540447 -118.17753734631269 -0.27030774227828447
-3040.639901559893 -32.26822986831401 -289.2598228346885 940.4388224988935 -155.24179548387383 -14.531496526623856
-2295.0171091439865 12.90408220097044 -174.29277674188805 950.8913620769351 -175.21120875201123 -21.313796296123222
-1500.0715921730487 156.85676796392985 9.944273495421863 1038.4558879433557 -177.90507916808738 -7.792091043115957
-713.8415227477237 -187.5521194474867 137.6112314999414 1013.0784196629128 -144.07940187746684 92.52772692853569
-770.4719862312223 -1665.2017918116999 -204.1850517209398 686.7051704972729 -102.06325229862705 447.6534034954501
-812.3596152843153 -726.7611869175843 197.7745152282412 -362.3873969998288 158.92461573556596 248.83646328164426
-1388.7092150242788 -236.31751613940133 151.34364171424195 -575.7696646210808 264.9160877115312 75.63334138362227
-2882.805397399776 61.766862716436286 -90.62666018554077 -614.1494149415502 391.2086942314551 26.06972657929847
-4547.818043900108 6.333827185671437 -394.1503053684846 -550.614110001967 406.00374804539865 4.123368824720557
-6121.495528153573 -34.03335386174415 -640.3756870640199 -532.6306402362236 358.24781613225423 -1.9053908676977052
-7643.917346418161 -47.76665582759112 -867.4277690774246 -536.8861412192755 268.11304551099573 -1.0719127798817958
-9141.324358571748 -58.99565621207543 -1105.1414906603231 -541.8739477914331 151.42566674144513 6.746043826642972
-10536.539815232882 -34.3915027172474 -1336.7727030122096 -531.8143919802585 32.54839580776096 27.313639835800572
-12174.127380974678 -197.4835013460783 -1758.2805106513422 -548.5983550275737 -72.8998768612429 42.839893418390076
-12376.928758831185 885.1107133703453 -1512.4980121938925 -743.0885312347671 152.15532422295274 139.3016572940745
-15349.738961835374 -6611.521347677369 -4702.119623099149 0.9353486029201097 17.171127188044117 744.0798687053907
-12370.648058063385 885.6156386276188 -1505.2723268358955 744.9425537447003 -116.56606888015729 139.4658842379777
-12161.666183483669 -196.48240732794707 -1744.0197618057132 550.3667649118589 112.08068467612945 43.066412990023196
-10518.288073899697 -32.91841697315896 -1316.042683748309 533.3106234674608 12.041450049042577 27.345829895765
-9118.336020587736 -57.084272930269606 -1079.2589847433678 542.6697476839732 -100.77182682297703 6.052903011394108
-7618.522264296524 -45.57813566076964 -839.1008900746965 536.1117737955184 -212.9879353053965 -3.5588103500381374
-6098.304656239554 -32.026101520308025 -614.6262397299674 528.5684777903823 -304.0368213103087 -8.316941048711582
-4533.525285031345 9.255364821426124 -378.1941737402879 541.0555407130022 -363.1492739587979 -9.388801365497931
-2879.856996898935 72.55094467070133 -89.88369213541479 601.2737266198386 -372.6724593908046 6.231414509295486
-1389.176052826328 -216.73825999951256 136.52286615378893 570.0797408376978 -270.7974294069716 65.92894337807526
-828.4015760937067 -743.2585907365502 156.46585516020446 361.0746760231707 -174.08781841452696 285.64541166733886
-872.0532975073197 -398.5044361729494 419.0660960839667 -138.80077380915336 303.8357821108228 161.26968628288003
-1913.6884522890205 -280.7715291473955 172.98245778783368 -225.31643248062718 456.3198486463085 52.580359557226075
-4352.122901266196 -269.64683853031585 -335.4460157840425 -221.2785555363189 635.0479658786314 28.29806460862568
-7038.7722550500985 -517.5919164160158 -886.957593621345 -200.64373883008318 640.290028016139 11.722601440893254
-9495.885571783234 -738.2577553653437 -1340.0601361515953 -196.1749946570877 550.5122692937764 5.83274380025658
-11852.35523703755 -928.3172098418096 -1765.5125765774067 -200.7411849836449 396.3419564364387 1.891476561832274
-14184.217525762055 -1132.4120004131223 -2218.210746964438 -203.2983057797424 199.402615660702 -1.0763326737905246
-16378.264006387068 -1236.8107225392916 -2652.919792903074 -212.51552560742795 -18.40972940683017 -0.5416592299813452
-18344.410183746855 -1654.1286668665753 -3200.6760309396645 -218.78741398387547 -242.65160816344462 -3.9597079948913603
-19625.922567131533 -80.13960399002268 -3170.9512758034043 -530.3570143795877 -361.99786948827057 -85.76648842618224
-25356.077656350113 -10384.5313214229 -8433.581981039875 0.4490109180799351 22.09215604506224 791.1845932638145
-19619.028744890926 -79.18266809806471 -3161.858461193606 531.2561860707541 407.70672048362434 -85.45843541960326
-18330.820302271728 -1652.2275095252787 -3182.640530352236 219.67600255186704 292.7543122317741 -3.3965231959243596
-16358.622381566762 -1234.010125166562 -2626.4619130643346 213.33115764039923 75.1365376027734 0.1429943608064903
-14160.160717084555 -1128.8424596197872 -2184.6974563058293 203.87652681687786 -135.24446472924777 -0.545061211979398
-11827.758523282095 -924.4618191020983 -1728.0765946978024 200.73303592438467 -326.78328049428967 1.7079165042555289
-9479.086688337662 -735.2390770253876 -1304.9614613471647 194.8427820375945 -482.8140292014725 3.8012858064213315
-7041.939257644392 -515.9015976254063 -863.6156571686885 197.0011265659934 -589.3393920285581 6.1177700673933275
-4377.377570357906 -265.5834406354301 -330.9049359787379 215.96158905008855 -619.8810585882622 19.760033741772546
-1940.201528690874 -274.46850399537885 160.33615505459312 222.65060036854842 -475.49407235846775 48.79060333612537
-899.9384612343911 -410.85795171777386 387.6641750514052 136.6254254547921 -335.3937381295639 183.53921512556963
-2189.309520883451 -12144.129358050866 -4300.031663680294 -2221.8959082443844 -916.013405763489 1154.2853635331962
4838.437422440116 3112.4658208451065 2003.007843450509 -987.0095103296699 -953.4614052532113 39.253981698155826
4786.150937125518 138.89155765134467 469.3190812994461 -465.3030343750023 -931.4655906102383 323.7950717958748
6922.961926603017 643.6853340863458 852.562963370628 -479.83050130906787 -828.8010435518793 351.32996015830906
9347.035929095135 718.1715429970701 1144.8071662347147 -452.2271327842684 -740.6479765644604 482.5277818851546
11877.65044191381 944.0480637604198 1531.638408931949 -410.3147531698537 -581.7363985375666 595.0178753744968
14341.91152419944 1143.1673901458962 1916.6383328639542 -342.74021143138634 -362.8357178636342 710.6065006280868
16667.468270462392 1329.154638263597 2307.8120193784557 -249.8384364592053 -88.43660808222947 824.1871472643835
18625.68746327435 1477.9439480218869 2666.379834869306 -130.03399993248962 179.04352773737733 941.2734421792114
19902.948545234845 1626.4719038500057 2943.261334673689 -24.16102369588731 254.90887837643095 1067.0783023229478
20371.335616262648 1793.6866777964453 3092.405639454733 -2.9593018551551893 -6.1275521140635085 1152.8876827049169
19917.411915150453 1626.6429094705893 2944.3320714720935 18.088770531629223 -267.05635556238025 1067.3759718515337
18657.475922984653 1478.4182219173695 2668.89626958883 123.50098922860063 -190.83546877833604 941.8634881723415
16722.669366803308 1330.2137178273167 2312.522258472629 242.5266995488327 77.38422529162162 825.0847044862494
14430.713763139005 1145.434253407931 1924.8169770488278 334.3569271702387 353.09064838965963 711.6902519262215
12014.574690879235 947.8483204804905 1544.1463406500047 400.44705270443455 574.5500275754424 596.7212424360916
9553.655995556286 725.8878309628392 1164.447361326816 440.9172049134302 736.0513729111625 482.6908946533462
7222.787866744417 652.6629513252108 870.7351730668086 463.81857142706565 834.1030411683984 360.32387232557903
5297.479405021688 192.31212105396543 549.498010518603 445.91510479924 916.8807350964822 293.930095898369
5946.940889907732 3308.2077303184933 2121.3618283768947 1024.0952995703587 1226.0144381123016 215.93936261395368
-91.54878337251012 -11581.691493279433 -2643.054865890881 1335.560594908946 1605.8968368473468 447.69790390806475
-2427.392425646348 -10533.580766337807 -3175.9092311134773 -1426.1423271111769 -756.8246578508929 663.5304802795721
2313.1784593207744 1686.8494004101372 950.0116203954938 -1181.682832025775 -633.7122200172923 199.02233687438192
2386.5338262007012 -161.24554751225642 15.583109293300367 -983.1894216834918 -574.9787374443049 348.88527632007043
4318.8705558848405 29.99273917706825 296.5906290645778 -995.796690914972 -508.3794924433885 452.4259854201858
5842.778569565911 -36.267339895094096 407.64107332512066 -973.39724285752 -441.17101568591113 600.2374094336147
7455.589872462844 -34.2715632322663 568.8828713790401 -894.0800958604277 -347.64952527783845 747.6322237520111
9026.823434628335 -34.23397766697957 741.0524411954339 -776.8419615922979 -217.53183132892016 895.8729693294107
10505.169405474957 -47.63891878816504 919.778367784649 -605.8343780357418 -56.93107403656586 1048.8699917437
11757.223735537118 -62.33778213002398 1092.7170226742207 -357.86450036941176 101.2432179087075 1223.0278732849506
12622.04210186086 57.125502674436106 1268.9264570761072 -94.18947716393222 150.98843084021175 1441.499815789495
13028.2409868905 380.8308056168334 1443.0522842184953 -5.276330456270415 -1.4678091341156705 1610.9482544949985
12637.720665153709 57.81517261412168 1271.1161706516075 83.30079882313478 -153.63178889827898 1441.531051993069
11791.154840735067 -60.89969446887403 1097.3526006605814 345.950894612897 -103.00022453632079 1223.050446170911
10562.70518754711 -45.331679022402284 927.3475174234366 592.1509254405997 56.66332929202892 1048.7992206827628
9116.423185565493 -30.933282699881943 752.0704279409176 760.5586748940273 219.4275611569933 895.5338193921395
7589.408235422508 -29.97492452816107 583.8846140661078 874.2705991879501 352.15479544438114 746.8900906509668
6035.8297780502035 -31.69412460735177 424.84790181233336 949.0946755166586 449.4257728972071 598.3058034300022
4598.690274960661 40.037024660276984 321.00193155622145 962.9888515447967 516.7935235114095 452.0320969369627
2778.6513803940384 -153.03399984953285 25.315671055995374 932.5530860713249 598.767134457027 335.30058879160083
2699.1428627089235 1769.810042760857 989.7235370565286 1114.5743775534893 724.6856174963327 285.46756129135935
-2250.308357532247 -10878.092517061685 -3053.4214691815523 892.4380616971952 896.1133721625715 269.5031865482427
-1934.351805791278 -7341.1262657245625 -2003.682107680734 -1674.3798273193029 -460.8498683829816 219.7607837265112
793.7897458269456 514.8295727051985 429.914528087234 -1919.4407473250408 -360.6632004485625 309.30644062670933
838.27792398938 236.1956416537216 40.833259439820345 -1674.2020386954955 -284.2143121822373 398.32669917742544
1850.8764884699415 -39.21163413525932 54.94364652780854 -1702.7305383066455 -230.48704486544676 577.0283206890668
2775.861134977297 -26.252105788971114 156.86146589585576 -1644.900862720135 -188.5056624530579 761.5335284380976
3600.26637765631 -33.343888808837754 231.99391249993928 -1518.322413932183 -142.65618838232155 955.3482923085126
4421.055194486614 -28.140760632960603 322.5217466384105 -1330.1062830372325 -81.13439011649909 1150.9316746771856
5210.0395991474825 -43.88436615576642 418.63051998165406 -1056.5788324518471 0.7890269095070108 1357.2387742852015
5882.447119179467 -67.5859474848805 506.56708331174804 -634.5407307225669 104.92634185059475 1600.1724804097444
6339.652476740223 199.82273792505086 645.2730596055595 -136.95295990669564 160.38256399156282 1931.8565577035256
6759.701333158228 1066.4007057258152 980.2192873577011 -8.431637817759508 2.2559342714304 2244.14923148406
6355.8391964969105 200.63242541304925 648.3221459313535 119.53027682318744 -155.42525349560864 1931.6824957002598
5917.110428913771 -65.91226165685285 512.883565584939 615.4068079851792 -98.65500213843731 1599.7722230953918
5267.773744531741 -41.24398323285972 428.5678646130081 1034.4718605675764 7.589282155975209 1356.486597996739
4508.839004673364 -24.403707222964552 336.4335653168899 1303.5663544865458 92.20410342121016 1149.6239803700726
3727.255349031039 -28.85941885488477 249.6197680733163 1485.6300657411368 156.6408849599095 953.0299058478197
2953.2221350444274 -21.481628741902654 177.13889318766442 1603.910754357106 204.6917029670676 758.13554596793
2088.6133055135206 -35.11662869856328 73.22559592418838 1647.9692923971663 247.1708118289928 570.263252570269
1076.1209998457384 239.32545240244835 29.898735014037257 1594.6249484294835 307.3559178806911 399.82210822264136
1017.7453880605655 681.9219553537225 474.46803100836905 1813.3614626442259 394.938726149073 314.055996403549
-1925.1273472764585 -7616.538130692192 -2047.0209466454032 1582.6681027641293 505.69446122989916 210.0360547595974
-1415.1989090671898 -4436.107784080771 -1059.7224882536077 -1548.3795813164793 -207.89390706857606 77.49734208091354
-247.5888599291904 -102.96141759686992 165.40406332898593 -2029.8619436224533 -117.78737548224619 268.61447853582894
-573.0940294904152 300.6133545561032 18.452436760218966 -2038.0066340183407 -18.579104705630733 411.84882309705927
-451.92331940376425 22.810740186030607 -71.61951071255216 -1945.622663458645 30.88221573453699 606.7656221891966
-273.52209013759204 -19.67210784746067 -46.71639555413054 -1865.6370281232694 45.511974797394025 808.3065254745892
-180.9523565543745 -8.002407187391789 -24.72605898130078 -1721.0428338478714 49.501572855888355 1013.7791014696414
-94.26290625356347 3.0104709266378187 -1.6283465637225802 -1510.9017014807057 53.121279823981936 1223.799241047667
42.2957381216213 0.605936987209251 34.56217582373627 -1215.4709216582594 66.93580337091059 1442.5599406278775
166.70513495289893 -64.74325114519402 42.32757261217432 -732.1164190952658 129.58157944466478 1693.4676401783115
170.75184985753884 318.4076324288203 118.08660399178058 -45.35525819685854 210.64858229507988 2053.5287985586883
769.546365828779 2258.545035431663 803.1272655375226 -9.466793437765034 5.602359071628769 2517.5268897105407
187.23072974229666 319.36156744912626 121.97595374981213 25.77644710100578 -198.85511247464015 2053.2911982104088
201.64025796005237 -62.801255055966976 50.29567611657862 710.5640348592034 -116.07089740215426 1692.9330842326078
99.48394888914021 3.5961543473484383 46.88381593713153 1190.4929921266214 -50.76010679977928 1441.5931236324354
-9.555725011394827 7.052829614879045 15.16060710543369 1480.792954209412 -33.74569251420656 1222.1354567959452
-62.749866460308425 -3.4052586160497356 -4.050938964486374 1683.666082191651 -27.2241830559245 1011.0122542511083
-116.34379361758062 -15.940401766389996 -24.29114514704926 1818.045934055821 -22.09931290937404 803.7276492393796
-270.0692724459136 20.497294904499068 -58.47748139935392 1883.4074870498143 -9.09298713916446 600.4182440379393
-413.0126380595675 331.14845219315896 17.684499464730248 1959.503406721074 36.57945513366013 408.35921390883374
-118.89723963280818 15.886281400329338 186.8234397319613 1983.6275313438568 132.8928976486489 276.1386453548547
-1441.8155599360093 -4649.087985518784 -1128.2685664358055 1533.5938948099772 226.67010077692603 121.4662060507521
-1111.2220228563378 -2220.4572722844982 -391.2920183160647 -1176.776741503852 3.0520052833688496 61.19184605736545
-1044.0948632628467 -295.5100507104736 53.731461882519184 -1707.0124062407472 110.35237242970913 208.422205343423
-1924.8130534866946 240.99945170968425 -35.94431004322706 -1875.267220637183 250.34853061597948 380.752581109607
-2677.690889830557 55.68221385814283 -187.83191264728737 -1747.75221446675 296.9617943317751 571.6345251836665
-3310.084787430761 5.814406566184486 -240.885776849749 -1646.4428653181985 282.7523885864217 763.3092877710268
-3965.641020769566 17.72921516413057 -282.6532636126404 -1517.3398361484622 242.69622595502173 955.5145773551897
-4617.504904965489 23.735549836293178 -331.59676314880625 -1332.3522846137307 191.0050531142803 1153.004471480054
-5141.817558687638 68.15910643940207 -346.15138551336395 -1069.172907550231 129.56850095056407 1351.3337528778038
-5521.484111929175 -44.823008318995946 -404.78270123620194 -679.5830329913637 115.33195170461623 1563.0004573714648
-6116.4073688093595 114.16055842839714 -547.6920010421775 174.69301730423427 235.74562173251726 1856.0310664171977
-5001.019718885049 4087.1808851315104 824.1843674836698 -8.521084980480381 9.023002316650434 2461.2110208261106
-6099.556682887414 115.2812955949727 -542.9335483593348 -192.32523423409754 -216.95190030291275 1855.8731324756434
-5486.123028484897 -42.56966997443155 -395.09964323072353 660.1496246883574 -94.37355313789305 1562.6353114990447
-5084.966220931568 71.53972350219081 -331.3549763502911 1046.6256729108636 -105.31055993865621 1350.644465934364
-4535.73609305396 28.100003037668117 -311.8243371835657 1305.1580675298583 -162.9520172734994 1151.7677663529632
-3856.4831909652926 22.49465001442775 -258.92890716575664 1483.455992123379 -211.64246120643378 953.3402159032345
-3176.8584783210285 8.110896933092228 -217.24489360502884 1603.0399216387257 -251.6346326101807 759.6768228891648
-2541.287381423993 56.02873726170699 -173.1302569094257 1692.2746329616582 -271.278511952973 566.7088890280071
-1818.0953085279093 270.3165298923322 -31.353958006639182 1821.4985324289078 -235.98560175053404 377.4389973041969
-973.4596402527562 -229.42140610898585 60.521494168640785 1694.2774951777958 -104.4946731152417 217.66279285147706
-1133.1024813586205 -2348.254997474832 -441.70106993084454 1185.1893381285652 3.304814073336175 102.3120886292258
-1034.8247068158262 -888.572479662788 6.676477101065579 -651.5481379182487 188.42706322293583 89.67150367552225
-1674.5721108023138 -276.2010036054478 31.479336739496024 -983.4890111713307 343.6604505464319 149.62037414834103
-3252.5840671899864 138.65265541952175 -125.20681312033285 -1126.5954558111514 548.0475219976817 299.1614598245402
-4898.2725351305035 59.29090958768873 -344.93593902888426 -1047.6266238124333 591.9443481058779 451.4109616896733
-6391.06804649002 20.105184820433266 -494.31069929013563 -975.2276714383089 543.2824399796662 599.7365176576526
-7827.041669485831 21.606563151431672 -622.0094868780934 -894.0905100718064 452.3260414684677 747.4863110146805
-9212.786385879614 33.92481617862103 -746.7341954951808 -779.1810763294358 333.6422229188348 896.9130400219506
-10545.3734095381 20.01391480744474 -892.0792690293616 -624.3099374014635 197.56665605222742 1048.5859977986458
-11304.741494629936 220.0970111016963 -869.3680565237745 -362.24813185787986 2.057695461571017 1175.183042028966
-12762.177262776482 -770.0084112499303 -1600.9426453577512 184.13901938065044 92.04996349129108 1342.8280210960597
-10563.785612012136 6525.039358844941 888.6681723598988 -5.391206862820198 12.976434024361044 1784.5975038612091
-12744.55679344912 -768.7196170053992 -1595.2361258565827 -195.29181948977748 -65.14708289794173 1342.8779019550561
-11268.149496100541 222.6720082979917 -857.8193958976278 349.9694452522916 27.586686827774688 1175.2567619816796
-10487.631586999769 23.815712799209145 -874.6085143337773 610.1032300147598 -163.77765886973418 1048.6180904449777
-9132.225108248862 38.71945956581313 -723.7664209013388 762.1304917168261 -295.17904711225873 896.766378644256
-7725.539333784443 26.440804199515767 -595.490434878896 873.0207000962124 -410.41290836072176 746.9082309932643
-6279.897702570077 22.962673361106805 -469.3597459121437 948.4432776162722 -502.3459712332279 598.4134587870072
-4801.729267248234 62.56277439436417 -329.08234379334027 1015.1891490580128 -560.8700867869042 449.38026632755987
-3192.766208484215 159.090654190004 -120.25329275643612 1100.4388549767423 -536.2018848460259 298.2927829578796
-1648.372458058313 -245.73706538382513 29.645467513633513 983.2363081372861 -345.9574554837449 156.17639400571008
-1051.9270827994267 -943.9345002128831 -21.544253061146065 660.137340312895 -192.96059309171972 116.33220083826457
-903.9161781214364 -383.70084496545996 280.0266414775469 -321.2563968706642 377.22766982392613 108.22668570397742
-2029.6133306165812 -248.6486598520517 87.58549298759186 -460.68507208565023 610.2558269437753 125.13623960843965
-4648.194277690499 -195.91606942809779 -366.8652888816375 -517.9420828802122 905.510035322472 248.44235170290875
-7466.985893130426 -507.77981985230366 -876.1875812748287 -497.9995783297307 945.3902522382016 369.7504917592352
-9929.14384889878 -754.1708418307742 -1253.9524015614888 -463.07854573862505 852.1595205768245 484.7750603393017
-12256.646744641006 -956.6699044053432 -1589.4756851945717 -415.4595343276857 695.6960061592088 598.5896634916132
-14515.80384945649 -1131.6863130677525 -1915.8750150041576 -353.0218564785173 491.1505605979162 714.0288679353021
-16706.714430578377 -1392.0724963848247 -2289.0296704002176 -258.7668713380598 248.27757754448967 819.6049378887021
-18659.611587636784 -1297.8627849140785 -2557.4516737561476 -126.62959911642895 -100.54344881379004 944.6240208228643
-20388.024310506033 -3081.96405840045 -3595.047058254248 351.92676274633016 -730.0603552732109 848.3376782903157
-16490.54930157754 6518.5905242272165 -392.96362021803054 -3.483571797366494 18.043633710082304 1749.5152945657699
-20368.589472441658 -3079.952930778422 -3587.984954585448 -359.12331813964624 767.3796411996176 848.4394808048007
-18619.72398220383 -1293.9248626351703 -2543.283960743211 118.75027610757894 141.41745017234615 944.7986004877214
-16645.03280219068 -1386.4712902125925 -2267.927136867604 249.76610461783082 -202.0328268541382 819.7862920219309
-14432.516113813159 -1125.1460904345915 -1888.882500842555 342.50514316228515 -438.85004679514407 714.0973925444648
-12158.193457310888 -951.274448917997 -1560.1187554607939 403.1359359723634 -638.947291080232 598.3680506534649
-9836.785122753696 -754.0167654646132 -1230.685268490523 448.8152502169477 -797.0804900824043 484.1430406046031
-7417.480112394039 -514.5133674181262 -870.9523933153882 482.8342179041797 -905.1595830820202 368.9616162647876
-4658.087193132271 -198.3960170640917 -381.4928174554718 507.032205356482 -895.6781032542543 248.95087895173737
-2062.1508917558344 -246.34478205256 67.91394347699898 461.3406017763644 -624.8874150803557 129.64058258540382
-943.7892017072186 -417.3854621228185 256.28194300226585 323.8612165106109 -397.82824646226914 126.01323727997939
SCALARS Strain float 6
LOOKUP_TABLE default
0.011433078273344081 -0.04248886251114171 -2.7172816947917955e-18 -0.02407053900620295 0.009923478562355155 -0.012504758104985879
0.013765813846367434 0.004416801004510941 -0.0015927630397142762 -0.010692603028559207 0.010329165223541553 -0.000425251468376308
0.0191820322726178 -0.0059906226994709015 -0.004200806946375678 -0.0050407828723994415 0.010090877231606647 -0.003507779944456299
0.026975364322316453 -0.007037383887077244 -0.0059059633951374126 -0.005198163764184038 0.008978677971827092 -0.003806074568378545
0.036617259651323536 -0.010122422440012135 -0.007811479480796425 -0.004899127271842101 0.008023686412812288 -0.005227384303753815
0.04639560208375683 -0.012828077464536002 -0.009645296428207734 -0.004445076492683336 0.006302144317519044 -0.006446026983224173
0.05593320753039844 -0.015559989862380613 -0.011370355589328826 -0.0037130189571780528 0.003930720276858678 -0.007698237090125166
0.06490157613821117 -0.018180956036214703 -0.01287989522181775 -0.0027065830616359947 0.0009580632542201223 -0.008928694095355755
0.07242662636835792 -0.020456984339264326 -0.014019623285481835 -0.0014087016659335375 -0.0019396382171313804 -0.010197128956933844
0.0772167857236328 -0.02178079608383252 -0.014648186666883377 -0.0002617444233645117 -0.0027615128490627826 -0.011560014941829285
0.0787729496711546 -0.02185598207884916 -0.014821254369840086 -3.205910344002079e-05 6.638181456982559e-05 -0.012489616562620633
0.07727549758691184 -0.02179950119378869 -0.014662018232973337 0.00019596168074392795 0.002893110518610483 -0.011563239695049434
0.0725553398980415 -0.02049788931609149 -0.0140494665578357 0.0013379273832869198 0.0020673842451123313 -0.010203521121871121
0.06512436905797779 -0.018251432373950036 -0.012930594445483161 0.002627372578436857 -0.0008383291073086938 -0.008938417631936087
0.05629015997503274 -0.015671770702690983 -0.011450114282982312 0.0036222000443312304 -0.003825148690868721 -0.007709977729205209
0.04694573455229504 -0.012999033287424968 -0.009769085678166542 0.004338176404293367 -0.006224291965391556 -0.006464480126399365
0.03744398099117526 -0.010373096567120073 -0.007997565777627204 0.00477660305322282 -0.007973889873211506 -0.005229151358754006
0.028190701789328358 -0.007397474835895576 -0.006216250301484375 0.005024701190468804 -0.009036116279350269 -0.003903508616859039
0.021145568189833392 -0.0065074212650527916 -0.004572664363771669 0.004830746968667533 -0.009932874630252608 -0.003184242705570678
0.017991958426283677 0.003698820478482407 -0.0027299281570479757 0.011094365745371265 -0.013281823079599974 -0.0023393430949893977
0.017399479684948566 -0.04483879332720932 0.0035788217379498716 0.014468573111555565 -0.0173972157325699 -0.004850060625689064
0.007022727389926726 -0.0368857927887598 0.0029682613603440188 -0.015449875210499339 0.008198933793361928 -0.007188246869713984
0.006342167304462408 0.0029495515687336313 -0.0010416530730059702 -0.01280156401362001 0.006865215716838921 -0.002156075316128424
0.010125968990239993 -0.003674502617330172 -0.0027166807262946815 -0.010651218734908829 0.006228936322309557 -0.00377959049346984
0.017587064772519166 -0.00564435673459387 -0.004200284831049185 -0.010787797484924418 0.005507444501477593 -0.004901281508724926
0.023880693539712262 -0.007964138469836901 -0.005559634564894655 -0.01054513679764137 0.004779352669946913 -0.006502571935528299
0.030396693666727426 -0.010173389109924009 -0.0069063025891225715 -0.009685867705174748 0.0037662031905239153 -0.008099349090641767
0.03672824123152914 -0.012352486418380337 -0.008153018316219052 -0.0084157879172673 0.0023565948394034548 -0.009705290501054797
0.042681364878232195 -0.014479680211540273 -0.009239503242583722 -0.006563205762053161 0.0006167533020647993 -0.011362758243895054
0.04770045818071785 -0.016322166706648236 -0.010065619847275073 -0.003876865420665838 -0.001096801527340324 -0.013249468627253104
0.05093427714137359 -0.017125687770840194 -0.010561765934518342 -0.0010203860025963486 -0.0016357080007614964 -0.015616248004375057
0.05200448358304837 -0.016502321565452956 -0.0107486218897274 -5.716024661244141e-05 1.5901265618701055e-05 -0.01745193942367914
0.05099600525902975 -0.01714514949217438 -0.010573102419493023 0.0009024253205546461 0.0016643443797324487 -0.015616586396584933
0.04783424570364874 -0.01636438302869588 -0.010090516430075082 0.003747801358279145 0.0011158357658196823 -0.013249713166849043
0.042908751816783504 -0.014551447877141063 -0.009282768896387435 0.006414968358919476 -0.0006138527339868397 -0.01136199155740501
0.037083675174984614 -0.012464505694801117 -0.008223235595495025 0.008239385644656889 -0.002377131912523497 -0.009701616376757254
0.030930147202365203 -0.010341511580745748 -0.007016439080011597 0.009471264824523777 -0.003815010283973611 -0.008091309315386418
0.024657848520399622 -0.008207905952375898 -0.005734969975924044 0.010281858984760774 -0.004868779206392433 -0.006481646203830729
0.01870991078375729 -0.005982794322042455 -0.004460901076380872 0.010432379225085452 -0.005598596504720991 -0.004897014383487514
0.011737361995988392 -0.004142600480366769 -0.003176539762951663 0.010102658432466166 -0.006486643956637248 -0.003632423045247052
0.007797011619866487 0.0027631255118017997 -0.0014623430607691487 0.012074555756853263 -0.007850760856240301 -0.0030925652473313145
0.008038107659769306 -0.03869572320447124 0.0036879116383318937 0.009668079001747149 -0.009707894865124913 -0.0029196178542884067
0.0036212112759476645 -0.025665483715317877 0.0032456721407251054 -0.018139114795981383 0.004992540240804385 -0.0023807418236961825
0.0021265271482753313 0.0006154928772015309 0.0001555363855379165 -0.02079394142936897 0.0039071846715201895 -0.0033508197734521262
0.0031465385569030115 -0.0001147404724018358 -0.0011729533760480289 -0.018137188752540834 0.003078988381972253 -0.0043152059077582435
0.007692320353110661 -0.00254565697763759 -0.0020356492073795507 -0.018446247498339962 0.002496942986045105 -0.006251140140810173
0.011402826362252184 -0.003775287025199213 -0.002783421845248656 -0.017819759346164643 0.00204214467658177 -0.008249946558082637
0.014752797377269923 -0.004929258232725827 -0.0034920118089739323 -0.016448492817638587 0.0015454420408132262 -0.010349606499999768
0.01805308707783988 -0.006046724345704436 -0.0041473024313227165 -0.01440948473292996 0.0008789558929332822 -0.01246842647565924
0.021240065637493963 -0.007218689174577315 -0.004713400207979425 -0.0114462706849014 -8.547791517104641e-06 -0.014703420054766487
0.02396146991012532 -0.008267875867636155 -0.00515788028414979 -0.006874191249483799 -0.001136702036717388 -0.01733520187111081
0.02535884890614756 -0.007898562179072538 -0.005485706269975398 -0.0014836570656187565 -0.0017374777765749925 -0.02092844604177104
0.02560714723010396 -0.005231564501712647 -0.005698380517957848 -9.13427430251562e-05 -2.4439287944250736e-05 -0.0243116166744137
0.025421470104532877 -0.007919233238805501 -0.005494247252672764 0.0012949113322022572 0.0016837735795274791 -0.02092656037007739
0.024095912657223363 -0.008312126916670593 -0.005176982852460576 0.00666690708645898 0.0010687625231732654 -0.01733086575020679
0.02146490241716194 -0.0072922769415954955 -0.0047474627657323005 0.011206778489435425 -8.221722334501608e-05 -0.01469527147829597
0.018396791863531794 -0.006158272825938866 -0.004203737599656634 0.014121968840233933 -0.000998877787059603 -0.012454259787356937
0.015254280184450315 -0.005091341474953811 -0.003582912545747059 0.01609432571217712 -0.0016969429203975575 -0.010324490646679155
0.012110520648804232 -0.0040024580717090835 -0.002926596911265058 0.017375699838873913 -0.0022174934488129057 -0.008213135081325955
0.008654919230617052 -0.002848617913030215 -0.0022617641963370615 0.01785300066766352 -0.0026776837948181945 -0.006177851902852376
0.004147307265092927 -0.00038533528356948804 -0.0015197300027537694 0.0172751036080296 -0.0033296891103841994 -0.004331406172416806
0.002795118300641188 0.0009760747068001798 -0.00014763405006511888 0.01964474917869045 -0.004278502866628123 -0.0034022732943836016
0.004058084899700624 -0.026770390177220247 0.003397827903115126 0.017145571113319127 -0.005478356663340312 -0.0022753905932490948
0.0009731257193010162 -0.015390130686999024 0.0028986229987096068 -0.01677411213092731 0.002252183993236427 -0.0008395545392034188
-0.0011096735568748085 -0.0003262749109093413 0.0011273714441147507 -0.021990171055910078 0.001276029901055033 -0.0029099901841352976
-0.0027867240286987348 0.0019458576348899779 0.0004174859968396941 -0.022078405201873444 0.00020127363431087235 -0.004461695583555123
-0.0018220028677061852 0.000749473288421665 0.00023797609605653419 -0.021077578854156488 -0.0003345573371229163 -0.006573294240394554
-0.001056689746337063 0.00031833099109194346 0.00017184109934198591 -0.020211067804701638 -0.0004930463936369914 -0.00875665402597694
-0.0007130575696135122 0.0002237546561384692 0.00013316820892272485 -0.018644630700064488 -0.0005362670392731277 -0.010982606932581603
-0.0003944897648584393 0.00013240769489281912 0.00010728076681182304 -0.016368101766078735 -0.0005754805314304289 -0.013257825111338951
0.00013227210115080584 -9.354765498642925e-05 9.038197204827373e-05 -0.013167601651304574 -0.0007251378698496644 -0.0156277326901402
0.0007226243271325323 -0.0005310544308983091 4.8912531125412634e-05 -0.007931261206857958 -0.001403800443986663 -0.01834589943527805
0.0001658482455266473 0.0009656504011629054 -0.00011942183622877335 -0.0004913486304215303 -0.002282026308201408 -0.022246561984355314
-0.000620647185291013 0.007444762275186247 -0.0004387506451813876 -0.00010255692890425717 -6.0692223285076403e-05 -0.027273207971867126
0.000228456139073217 0.0009441648433515721 -0.00012500723086634138 0.00027924484353243064 0.002154263718459137 -0.022243987980600795
0.0008557997151686314 -0.0005765918136513111 3.601656352947966e-05 0.007697777044258415 0.0012574347218579126 -0.018340108412525275
0.00035141649085212865 -0.0001679757296266902 6.649910403121469e-05 0.012897007414661925 0.0005499011570043241 -0.015617258839353979
-6.75823167793723e-05 2.2380687432134483e-05 6.629781552339139e-05 0.016041923670559625 0.00036557833556878394 -0.013239800781961414
-0.0002521375299447542 6.931242920350165e-05 6.58149939968603e-05 0.018239715890391407 0.0002949286497718639 -0.010952632754388748
-0.00043447637310259417 0.00010937533277612664 6.414213945253738e-05 0.019695497618943885 0.00023940922318695454 -0.00870704953343968
-0.001077813402078496 0.0004960888377385712 6.830879942890052e-05 0.02040358110973586 9.85073606768322e-05 -0.006504530977081747
-0.002156927181491245 0.0018739453907134706 0.0001760156467698182 0.021227953572864628 -0.00039627743061573556 -0.004423891484015735
-0.0007487923165519935 -1.87149109590518e-05 0.000907194696676368 0.021489298256277756 -0.001439673057864882 -0.0029915019913557155
0.00121413085687969 -0.01615859478174071 0.002912510405009754 0.016613933860479057 -0.002455592758422252 -0.001315883898902647
-0.0013654051486518739 -0.007373762749709013 0.00253421570927295 -0.012748414699617178 -3.306339057207965e-05 -0.0006629116656165098
-0.004048172027561288 6.6623737640789435e-06 0.001898387233644151 -0.01849263440093473 -0.0011954840346557224 -0.002257907224551945
-0.008276373316615255 0.0034551110865315856 0.001954999043709723 -0.020315394890240968 -0.0027121090816731854 -0.004124819628688303
-0.010991858250814281 0.0038139127275111716 0.002494877875603328 -0.018933982323402945 -0.003217086105261987 -0.006192707356165387
-0.01349818073478285 0.004462939899383369 0.003126647239207383 -0.017836464374312157 -0.0030631508763570865 -0.008269183950855553
-0.016192349192661357 0.005384239585336354 0.0037571678252880797 -0.016437848224980487 -0.0026292091145229853 -0.010351407921330826
-0.01885477725406617 0.006285275209479055 0.00436055851412771 -0.014433816416682491 -0.002069221408744602 -0.01249088177436099
-0.021076749479034013 0.007143957457075961 0.004899775625674096 -0.011582706498469637 -0.001403658760299193 -0.014639448989523188
-0.022444176662765578 0.00722107098178806 0.005271289311827048 -0.0073621495240714305 -0.0012494294768032033 -0.01693250495486542
-0.024943116400122336 0.008805793205791026 0.005220758508627897 0.0018925076875177342 -0.0025539109021041717 -0.02010700321950702
-0.026976788727819938 0.022250964544090382 0.0045764000733582505 -9.231175395674409e-05 -9.774919177335398e-05 -0.02666311939228726
-0.024880254196091058 0.008783451520729409 0.0052181211159477315 -0.002083523370941327 0.0023503122532608873 -0.02010529226847604
-0.022311759310514066 0.0071741547147612834 0.005264617359618828 0.0071516209340786495 0.001022380158986437 -0.01692854920791833
-0.020862590187823504 0.007068483677810134 0.004886137387000283 0.011338444789833821 0.0011408643993334952 -0.014631981714276893
-0.01854424497005214 0.00617653388378156 0.004335277040927301 0.01413921239820612 0.0017653135204560235 -0.012477484135500606
-0.01577313714093079 0.005237992831042116 0.0037136152296722955 0.016070773247986284 0.002292793329732833 -0.010327852338949957
-0.01297549283051671 0.004276424618807438 0.003055747420052248 0.017366265817757437 0.002726041853284032 -0.008229832247977308
-0.01044232052305803 0.0036264751198322224 0.0023851972347486293 0.018332975190442313 0.0029388505461665692 -0.0061393462978046424
-0.007874100333736525 0.003438130457726153 0.0018040819816028187 0.01973290076803345 0.002556510685635634 -0.0040889224707971366
-0.0038449569444680555 0.00018525015715481496 0.0017557742003246513 0.018354672864469943 0.001132025625420121 -0.0023580135892345287
-0.0012338152547390696 -0.007815891383723399 0.002511275723834443 0.012839551163088618 -3.580215245830624e-05 -0.0011083809601661568
-0.003209399608526286 -0.0024172000447808717 0.0024320651376823774 -0.007058438160775038 -0.0020412931849145117 -0.0009714412898142672
-0.006671481711424661 0.0009030284525568164 0.002569630296089133 -0.010654464287684046 -0.003722988214252022 -0.0016208873866053611
-0.013569240916163008 0.004799957997969358 0.0033707192100442393 -0.012204784104619603 -0.005937181488305261 -0.003240915814763353
-0.02005241260957391 0.006801056049314134 0.004611493952639734 -0.011349288424637014 -0.006412730437821388 -0.004890285418309028
-0.02603669330062699 0.00869049503564154 0.0059040756633787295 -0.0105649664406033 -0.005885559766461711 -0.006497145607960048
-0.031862169968212777 0.010651341291941998 0.007165087687593239 -0.009685980525806484 -0.004900198782591718 -0.008097768369315873
-0.037495598217036546 0.012590754127466205 0.008362184480900148 -0.008441128326922327 -0.003614457414965781 -0.009716557933567795
-0.04284897418031956 0.014380207159905822 0.009439702414127242 -0.006763357655191714 -0.0021403054405706385 -0.011359681642816139
-0.04629150075419291 0.01613470781855134 0.010233438702226365 -0.003924354761789043 -2.229170083633101e-05 -0.012731149621985814
-0.050212049774150704 0.014745531504945484 0.01024463773687096 0.00199483937666059 -0.000997207937814248 -0.014547303561865716
-0.05328290779740635 0.03928156079488369 0.008751216867936493 -5.8404741009777144e-05 -0.00014057803527276134 -0.019333139625159472
-0.050147375294131616 0.014721742744944463 0.010244778321992587 -0.0021156613778450578 0.0007057600646959138 -0.01454784393784069
-0.046156688665919064 0.016085261149563913 0.01023259937684884 0.003791335656868787 -0.00029885577399074774 -0.012731948254811493
-0.04263497394392707 0.014302032263302645 0.00943556769969979 0.006609451658468232 0.001774257971072808 -0.011360029313142214
-0.03719462924938974 0.012481320492962201 0.008351188640439374 0.008256413660250617 0.003197773010372857 -0.009714969101984062
-0.03147843518578203 0.010511457228314211 0.007142663016662624 0.009457724251035773 0.00444613984057332 -0.008091505835760954
-0.0256082440867207 0.00853224961628486 0.0058655031785508575 0.010274802174177613 0.005442081355036283 -0.006482812470204551
-0.01967405581848351 0.0066741927404447635 0.004552781683600201 0.010997882448145986 0.006076092606871872 -0.0048682862185495555
-0.013351739237166446 0.004804152102349726 0.0032910390563874177 0.011921420928948098 0.00580885375251642 -0.0032315051487156582
-0.0065981040779177986 0.000999504299086358 0.0024911596856124867 0.010651726671511508 0.0037478724344232445 -0.0016919109350682587
-0.0031761810700775355 -0.002591221247736803 0.0024050592576800047 0.007151487853404121 0.002090406425170692 -0.0012602655090917208
-0.003636724654472779 -0.0008188915998838916 0.0027762989516769074 -0.0034802776327599112 -0.004086633089752857 -0.0011724557617891675
-0.008255393252314036 0.0013914987143199928 0.0032127670421972076 -0.004990754947591788 -0.006611104791885777 -0.0013556425957562271
-0.018663999459145077 0.00545250750226975 0.00452653256355384 -0.005611039231199144 -0.009809692049321963 -0.0026914588101124297
-0.029382481969956322 0.008313217593613944 0.006317675552578226 -0.005394995431909171 -0.010241727732591722 -0.0040056303273920055
-0.03886127864950372 0.010836491805437005 0.008129341690238781 -0.00501668424551084 -0.009231728139616093 -0.005251729820341794
-0.047886679449011905 0.013321528435627868 0.009893830456334077 -0.004500811621901711 -0.00753670673341987 -0.006484721354499462
-0.05667306437933389 0.01582423894278877 0.011576550140641599 -0.0038244034451876564 -0.005320797739828071 -0.007735312735959307
-0.06500993241896251 0.01794437805797566 0.013085860032036198 -0.0028033077728325207 -0.0026896737567407357 -0.008879053493790217
-0.07292923854184859 0.021113567472970118 0.014290794325033732 -0.0013718206570866205 0.0010892206954749451 -0.010233426892253726
-0.07660383739796198 0.017137322300931925 0.014358122718403348 0.0038125399297744555 0.007908987182149111 -0.009190324848137083
-0.07636765571988866 0.04826518500332766 0.010827600054084284 -3.7738694473711445e-05 -0.00019547269852802733 -0.01895308235778657
-0.07653420044512252 0.017112580822184198 0.014360740693242315 -0.003890502613210998 -0.008313279446378163 -0.009191427708711654
-0.07278567222997157 0.02106240633434354 0.014295044552946242 0.001286461324479753 -0.0015320223769150086 -0.010235318171942964
-0.06478630530863475 0.017864236214590552 0.013089683711897969 0.002705799466688184 0.0021886889575515544 -0.008881018163560062
-0.056367948068496175 0.01571363955819203 0.011576734001806517 0.0037104723842522024 0.004754208840267988 -0.007736055085901584
-0.047519897900036634 0.013184246728792287 0.009886340068380692 0.0043673059730299155 0.006921928986700824 -0.006482320548742185
-0.038505727135749894 0.010692601466293535 0.00811064707490438 0.004862165210690955 0.008635038642570893 -0.005244882939892008
-0.029174334934110327 0.008216734934573313 0.006286023544294072 0.00523070402730538 0.009805895483407462 -0.003997084176203497
-0.018683835594936672 0.0054728249421323255 0.004481050606687715 0.00549284889137612 0.009703179451960484 -0.002696967855312903
-0.008369256834108612 0.0014663595934657804 0.003168594356750617 0.004997856519259919 0.006769613663400267 -0.0014044396446781249
-0.003731075608217951 -0.0008797220188008178 0.0027693097589664858 0.0035084965122071815 0.004309806003357899 -0.0013651434038734294
0.010694539079302425 -0.027342493902417477 2.6834003769016235e-18 -0.012381094020656487 0.006605222229617061 0.0023365486967342015
0.013557170221863231 0.0013685559273184846 -0.0016966886826561855 -0.005534850381923902 0.0071271373690055114 -0.0007323476862793545
0.019831545200717695 -0.006071599140379279 -0.003842820862612739 -0.0019779503460180007 0.006685046603057899 0.0001829740004525316
0.027663209932512575 -0.007599387040114552 -0.005466833694389323 -0.002149969169602501 0.00594027595182534 -0.0001251490969603828
0.03666530616599895 -0.010444172694068775 -0.007050839316988046 -0.002135248478793442 0.004533835588997228 -1.2843361917989839e-05
0.04575486184978415 -0.013100033700368281 -0.008489423507759188 -0.0021898094852740024 0.0027118155891953264 8.7368549554239e-06
0.0546497772870473 -0.015792741455387765 -0.009730404162310776 -0.0022404904758376743 0.00042164099535132375 4.099898478176526e-05
0.06330799478992884 -0.018464254084210575 -0.0106827806291666 -0.0023597597538895987 -0.0021079400783338047 3.248866184952123e-06
0.07171102793600383 -0.021201619341993744 -0.01123856645117855 -0.002479462574988487 -0.00407616307708665 -0.00026606146927253646
0.07901822777265845 -0.024004748589583257 -0.011362840725680888 -0.001996448060903077 -0.003724503779206731 -0.0010220204368779908
0.08219785045046911 -0.025751352285720407 -0.011298098793009446 6.720409365231454e-06 3.52607177759535e-05 -0.001813739132731365
0.07903798795479745 -0.02400961591321395 -0.011372975219618496 0.002009784048783942 0.0037910591252700537 -0.001026672817911827
0.0717534659242292 -0.021211680141572316 -0.011260932380903716 0.002492306054313476 0.004130228115522819 -0.00027520173970192583
0.06338007289181133 -0.018480340579652775 -0.010722077491924305 0.002371089772838834 0.00213894968887692 -9.492802499290514e-06
0.0547654134154769 -0.01581665942583769 -0.0097949319885457 0.002248416022910265 -0.0004299845966861691 2.5840483506808955e-05
0.045939713088909345 -0.013135737099418005 -0.008593557466611253 0.0021902438459447528 -0.0027842638304694054 -8.007197881198603e-07
0.03696790958774348 -0.010499486958163199 -0.007216059416327784 0.0021268323062026873 -0.0047257538772513714 -2.6246195752117e-05
0.0281588193210142 -0.007687932215969464 -0.005737240080412109 0.002108766455360853 -0.006270933141698812 -4.853857429721642e-05
0.02074453481860702 -0.006245877084942311 -0.004225676492395804 0.001901496130529487 -0.00754866810623185 -3.61308434989984e-05
0.015603968808444953 0.0009940780241997544 -0.0023971493494617203 0.00548843987969871 -0.006378043127823018 0.0008639166790444766
0.01357585261155964 -0.02781389346353586 0.001023715468603535 0.007315716172218176 -0.005388257183371412 -0.004304611123779022
0.006401911226772598 -0.024071558239396593 0.0012752408060715684 -0.00794528216582733 0.0011124113433409553 -0.00021894786202315895
0.007109954554411827 0.0007762357369216419 -0.0008961385983783788 -0.006902573792241298 0.0023966563591135692 -0.0006655734175410763
0.011714766180964741 -0.004162198469708736 -0.0024375598338578267 -0.00543457059627756 0.004077315096076073 4.369858376706323e-05
0.01848505015373481 -0.006112398383923329 -0.0037190129539030397 -0.005642910963986766 0.00341913798087315 -5.885558105877473e-05
0.024414790530894716 -0.008278082898116764 -0.004839612942434479 -0.005811220782974635 0.002547866906094394 9.25165567362082e-06
0.030474271386749352 -0.010412503501895059 -0.0058554252102025455 -0.005843207792497102 0.0013884839326839058 1.134149344394325e-05
0.036392094274635634 -0.01254187069651927 -0.006717804009591801 -0.0058934960040308276 2.732426292710871e-06 -5.576589984131599e-05
0.04209782195555164 -0.014626183372775315 -0.007376113408010393 -0.006050805208393546 -0.0014858322110566208 -0.00032019584795818545
0.047509760021106386 -0.01675373943990186 -0.0077682301866893065 -0.006273316066281337 -0.0026384015682304196 -0.0010869978693450982
0.052100860245712824 -0.01926900113029553 -0.007876503236742008 -0.005147266711794575 -0.0024315973686504515 -0.0027600527000133856
0.0540758753758674 -0.021491461578194464 -0.00784525846838871 9.728372911324615e-06 -1.3584867681517836e-05 -0.004426317762462042
0.05212023632894659 -0.019274978098977047 -0.00788054483389243 0.005166424510773249 0.002398245066039542 -0.0027610542206339445
0.04755112337262655 -0.016765976967027345 -0.007778307044306998 0.006291190859902361 0.002586279821374501 -0.0010878923384901255
0.0421672509641466 -0.01464535526917265 -0.007396720359615647 0.006065132816942009 0.0014013237358103294 -0.00031812816418192423
0.03650118108270684 -0.01256936196096024 -0.006757175211293263 0.005899671054577752 -0.00013523143008194546 -4.501490543301331e-05
0.030644836394805947 -0.01045150172517055 -0.005927169166978654 0.005833062649034841 -0.001591384620065442 4.259947479337419e-05
0.024684617663299564 -0.008335108660187942 -0.004967531830934738 0.005773750079651576 -0.0028457348062717225 7.45479939430988e-05
0.01893474284808406 -0.006197886688170648 -0.003932995971259683 0.005548738623016431 -0.003881845616142779 8.901728182255321e-05
0.012497064176179698 -0.004331975363092649 -0.0028035802200972342 0.005193970480120571 -0.0046598592215739785 0.00017665460116737342
0.00789358923906151 0.0006789933188367838 -0.0013031567741033617 0.006328618434258306 -0.0025511915163258883 0.000484561095467854
0.0069727715590747 -0.024292179225650943 0.0013014357411740482 0.00471616540542567 -0.0007629458361451554 -0.004540899368741761
0.0035492548368697063 -0.017386649063657653 0.0018059943198626641 -0.01048643654614643 -0.00017638935977601063 -0.004379413800916773
0.0031372500434256683 -0.000229300465300571 9.687963963088642e-05 -0.011987428785348949 0.0005478473608772392 -0.0006581822724638398
0.004938475014701922 -0.0010767372458958826 -0.0010173990980170695 -0.009913270260772752 0.0016452962885078076 -0.00020068556900972888
0.008914513103602636 -0.0029931479785931664 -0.0017948005227674765 -0.010194663658610806 0.0013974190720635337 2.7841447862198404e-06
0.012182139821658892 -0.004080178837045707 -0.0024147519477178947 -0.010305151424592289 0.0008856616750566104 -2.1752000788680296e-06
0.015191407854993344 -0.0051389812020656706 -0.0029443450674433934 -0.010345450696290079 0.0002988323956398562 -6.652326768952696e-05
0.018123960117982424 -0.006182018672910875 -0.0033804235326905675 -0.010370230588039995 -0.0003794108424613276 -0.00029275931799557634
0.02084426404293215 -0.00710827425749818 -0.0037004452536950855 -0.010482903916423467 -0.0011496411557115253 -0.0008590927959094408
0.02345900805364465 -0.008019984641141549 -0.0038814206993878623 -0.010847198542906675 -0.001993533028618899 -0.002189314851125462
0.026284995132090636 -0.01021629213333883 -0.003901565424800366 -0.00938206261532005 -0.002215535743195779 -0.004955373071829874
0.02779299740664371 -0.01412794178332686 -0.0038309058268148036 1.4269726866693196e-05 -5.691105105754548e-05 -0.008154451948979504
0.026303705726065708 -0.010224434496386981 -0.0038993332981203306 0.009410051674856975 0.0020937748486279787 -0.004953054677572754
0.023498449555620745 -0.008036433479024397 -0.0038786878902097393 0.010872890276490809 0.0018481389717351173 -0.0021826510143279194
0.020908947173504513 -0.007133311811482621 -0.003701208452862696 0.01050242309424019 0.000965586757801903 -0.0008431539624416801
0.01822236297660347 -0.006216077369380569 -0.003392049099190141 0.010375595788991858 0.0001427437064498177 -0.0002573529459285943
0.015339194054638058 -0.005183586468803959 -0.002979658162359396 0.010322565946828798 -0.0006003416325422721 6.016616100445844e-06
0.012409129449304028 -0.004138397444307725 -0.002494495042699611 0.010231524944573724 -0.001264643764244275 0.0001414854739336342
0.00928223462244228 -0.0030754853660801356 -0.0019524154139368213 0.010027062144094271 -0.0018679225013220036 0.00024147893261378605
0.005407806807099111 -0.0011744744749176258 -0.0012897684658592715 0.009521193895963762 -0.0021213927691089017 0.00027903715419248977
0.0034832298655979657 -4.697223130088495e-06 -0.00022089350489500176 0.01119508751502413 -0.0006450792997265276 -0.00020807284165960901
0.0037615699951983207 -0.017382973695356633 0.0016270641159080688 0.009577991573500698 0.00039420608357082303 -0.00613704087248948
0.0012030659647353672 -0.010964947077410312 0.002099151693703249 -0.009915130687512635 -0.000569488223619206 -0.004801586256090881
-5.665102714963975e-05 -0.00060899018139495 0.0010167441922163843 -0.013169846761092105 -0.0005438438053279952 -0.001180618525385661
-0.001011124220920315 0.0009265525053401402 0.00041309228155312136 -0.01252234137233194 -0.0003402446970942081 -0.0002978810594334729
-0.00041840972975458707 0.00017589964298148246 0.00018265614892556077 -0.011828364086946748 -0.00047563798574138777 -7.368925213146964e-05
-0.0001067908717485211 -1.702786997819324e-05 0.00010014953311746739 -0.01182668264892829 -0.0006389026752617768 -6.314527010894181e-05
-8.517940849725376e-05 4.128462303409298e-07 7.783297089636601e-05 -0.01185295703860044 -0.0007250747523680279 -0.0001871745591349763
-0.00011874503815005942 -6.4795098401886254e-06 9.01776209694482e-05 -0.011880772445722814 -0.0007844856803688717 -0.000487407071629522
-0.0003471855477650781 0.00014425613620175321 0.00012891443440791057 -0.011798904404526592 -0.00093698160167456 -0.001130120996228862
-0.000494177813134617 0.0005202074930383276 0.00017525800842565348 -0.012176429615538014 -0.0015877530758776654 -0.002509875929047066
0.0009508203126840666 -0.0014109441903882708 0.00024408173991893731 -0.011917917612083032 -0.002454278885495694 -0.005524638649303976
0.0023497916300871304 -0.00882805741109858 0.0003735445793294682 1.551652210733878e-05 -9.803840076687482e-05 -0.01046970298590836
0.0009687059891783075 -0.001421198921839124 0.0002527155544269428 0.011948332308393254 0.0022486526195257535 -0.005521357184764095
-0.0004571333844179049 0.0004997025395171765 0.00019113291931280294 0.012204263698687963 0.0013541668472244572 -0.002500991408595004
-0.0002883236913266181 0.00011371420737904238 0.00014873346299573443 0.011819794943073234 0.0006594193517046583 -0.0011099440125582048
-3.340601754624523e-05 -4.64081794351836e-05 0.00010762912487899265 0.01188564348337629 0.00045202059161955925 -0.00044462068267440085
3.533811085175461e-05 -4.8051943905960295e-05 8.176149629810552e-05 0.011824889083033313 0.0003354791599063391 -0.00010022114141432632
6.898114332038247e-05 -7.45480793704988e-05 7.169889667937703e-05 0.01173700172811422 0.00020155888051259292 0.0001030361063915649
-0.00017091924101485665 0.00010680306379819569 9.223440956047929e-05 0.011627179788548592 1.8659651104475015e-05 0.0002271058198394164
-0.0007590955407106221 0.0009256976282861547 0.0002338712408949519 0.012118776903528385 -1.6233225134527535e-05 0.00018776591114605487
0.00010501958328381704 -0.00036996475498565843 0.0007777655039577087 0.012746842198472932 0.0005140344150212713 -0.0008876918757538682
0.0013067649626860019 -0.010996552196901732 0.0018967105747044687 0.00962100893083921 0.0007454085824522502 -0.005852244425094547
-0.0009255548549537672 -0.0056914489645551085 0.0023687081161761327 -0.0075071413425129374 -0.0009607027915630918 -0.004152803351641296
-0.002977890395511803 -0.00022868185428187883 0.001859650152071112 -0.01115668908103595 -0.001551115148354244 -0.0012039285630355376
-0.006567490824256573 0.0024830765254616164 0.0018124532209763877 -0.011533256376378248 -0.002192079175093139 -0.0003092999534244688
-0.009494682493636789 0.0031849294780173752 0.0021471850626875477 -0.010484513423682925 -0.0023425764692334866 -3.789786294064493e-05
-0.012384344656505616 0.004083258716800758 0.002611491781098078 -0.010267538398340428 -0.0021803973982047 1.3680515944956664e-05
-0.015390951547750763 0.005139887862014828 0.0030977875105361414 -0.010321381521811559 -0.0017625554181979009 -6.815485486088461e-05
-0.018338647632281227 0.0061999802686347515 0.0035599727842691884 -0.010346041059480253 -0.001214435605421377 -0.00031822912217002
-0.021386703550895895 0.007239015913614562 0.003961205270506704 -0.010253606677021314 -0.0006769602952900935 -0.0007767078856386176
-0.024477757126634397 0.008960346812662206 0.004231863307688531 -0.010081586067181741 -0.0008454070812474267 -0.0017553707921249078
-0.02452436796620388 0.00850737723342554 0.004308165371060385 -0.012745832890592288 -0.0026120753068237072 -0.004037979499524417
-0.023082918930846137 -0.005283180467626076 0.004434874903983746 1.4610930882181909e-05 -0.00014004430420961489 -0.01095038029849805
-0.024507274730606404 0.008494940462310191 0.004323281901450695 0.012774592794030244 0.0023206853762435756 -0.004036151777852427
-0.024443066364535363 0.008935657481152146 0.004261077380116254 0.01010831934787163 0.0005212918271225492 -0.0017496917018931324
-0.02133364445482725 0.0072027711591426775 0.00400197015007449 0.01027463244650337 0.0003028481699441739 -0.0007622387559070768
-0.01826654327417053 0.0061539983272049514 0.00360713845209372 0.010353433755616703 0.0007820513253937631 -0.0002849749002585092
-0.015298287763114513 0.005087586568200794 0.0031418378886825847 0.010299449523491475 0.0012802566545801672 2.928333875540638e-06
-0.012267422857301485 0.004027923697708384 0.002635885902476758 0.010188087243732385 0.0016817861177400742 0.00015742454570891453
-0.009360835419941455 0.0031404043665552855 0.0021264213805884807 0.010301323089182782 0.0018981214281531098 0.0002308994598830591
-0.006458799602557167 0.0025162290148672307 0.0017204530031605589 0.011249938786066827 0.0019273050243307692 8.441431963873616e-05
-0.0029119135681836333 -6.117930030861019e-05 0.0017001221839960572 0.010975016213032906 0.0015608601870148238 -0.0010023837083990015
-0.0008735663882140325 -0.0057200195017850465 0.0021938211737186834 0.007439306013742536 0.0011056852332420048 -0.004849578537900612
-0.002723598390735735 -0.0022599402370842344 0.0027479614828669853 -0.003925863467497925 -0.0017216833371343871 -0.002695728352214179
-0.005680071052898632 0.0005620506493899037 0.0026618819210961087 -0.006237504700065545 -0.002869924283541753 -0.000819361198325043
-0.011975614408995573 0.00397415199995791 0.00314868708424733 -0.00665328532853737 -0.004238094187510111 -0.00028242203794562977
-0.01846447125185764 0.006203851383198185 0.004034562331856624 -0.005964986191687803 -0.004398373937167321 -4.4669828939367345e-05
-0.024663220066151265 0.008310533377925193 0.00502617907308636 -0.005770165269215655 -0.0038810180081159987 2.064173439832119e-05
-0.0307056625789493 0.010440153661754938 0.006000322631652878 -0.005816266529871965 -0.0029045579930544714 1.1612388442405706e-05
-0.036633680060471095 0.012562267077321413 0.006895643807398942 -0.005870301101091671 -0.0016404447230492388 -7.308214144955506e-05
-0.04218829397299916 0.014698342719863488 0.00764377788488932 -0.005761322579798795 -0.00035260762126624256 -0.00029589776488549597
-0.048280825739077715 0.01659266194228485 0.008138344808521844 -0.005943148846109166 0.0007897486659878403 -0.00046409884535971206
-0.05078630237160155 0.021049744769497798 0.008062697506016842 -0.008050125755011031 -0.0016483493457609079 -0.0015091012873473973
-0.04981519446084641 -0.0024831823840547784 0.007859410290634129 1.0132943195295335e-05 -0.0001860205445500805 -0.008060865244327984
-0.05076979604833185 0.021034965642052775 0.008084322495809523 0.008070210998874755 0.0012627990795227623 -0.0015108804125758516
-0.048247981386430515 0.01656343073440821 0.008180936730993495 0.005962306619875686 -0.0012142074173430444 -0.00046655280739371576
-0.042139998932027634 0.014655753376353131 0.007705496931310841 0.005777531754231095 -0.00013044904221424603 -0.0002962464905339297
-0.036572637680378786 0.012509142619462588 0.0069723629304714275 0.005878922266562674 0.0010916947905728327 -6.557311595320567e-05
-0.03063799398575982 0.010382120044387513 0.0060838717913066324 0.005807877549443142 0.002307369299137885 3.855377879617343e-05
-0.024601287307799164 0.008257721530302582 0.005101970781661885 0.0057261585093928945 0.003293732230864508 9.010019469597966e-05
-0.018428515176510465 0.006178213343582373 0.004079528343013808 0.005861435024398495 0.003934117134567832 0.00010171201480131308
-0.011977738219432292 0.004014471464096059 0.0031346171813906717 0.006513798705057496 0.004037284976754158 -6.750699051579272e-05
-0.005687964311143035 0.0006627404000122022 0.002576238166675799 0.006175863859084956 0.0029336388185935997 -0.0007142302199328731
-0.002718182314256806 -0.0022569911435720686 0.002616516271706983 0.003911642323596447 0.001885951366171215 -0.0030944919597509822
-0.003659257481167298 -0.0010942011489392949 0.00333430590077936 -0.0015036750495930193 -0.0032915543061957787 -0.001747088268061707
-0.007838965545331644 0.0010060011216796148 0.00346383521757543 -0.0024409280185466948 -0.004943465026999995 -0.0005696205618719707
-0.017377479354042207 0.004735932652426447 0.004379520442309275 -0.0023971843516473355 -0.006879686297021577 -0.00030656236659644864
-0.027572530841830274 0.007750529325778818 0.0057497985742400795 -0.002173640503985546 -0.006936475303518302 -0.00012699484894629552
-0.03696829251803271 0.010468858154219144 0.007209095258303328 -0.0021252291087858854 -0.005963882917373097 -6.31880578358017e-05
-0.046017526254626476 0.013154346392650415 0.008619538156197861 -0.002174696170649887 -0.00429370452809236 -2.0490996093405772e-05
-0.054912627923134366 0.015784652005863924 0.009903242128705235 -0.0022023983126113963 -0.0021601950030240517 1.1660270635701709e-05
-0.06338060354901165 0.018635601738557696 0.010965010940732323 -0.002302251527419165 0.00019943873521624202 5.86797498398999e-06
-0.07036653656004872 0.02003915498979507 0.011662023434353864 -0.0023701969848077603 0.0026287257550949195 4.2896836609844834e-05
-0.07771081376329896 0.02816217728703788 0.011420280731389058 -0.0057455343224305875 0.003921643586124986 0.0009291369579518281
-0.08212768194001706 -0.0010318059590694096 0.009535836301204243 4.864284943645054e-06 -0.00023933169050355637 -0.008571166427047645
-0.07769465169208918 0.02814618122384079 0.011448354011259227 0.005755275349080914 -0.0044168228052762935 0.0009257997170469675
-0.07033483287629774 0.020007544751112896 0.011717807554945404 0.002379823360983163 -0.003171505049210744 3.67956679522878e-05
-0.06333533654208776 0.018589646513451727 0.011047199328989454 0.002311087541102142 -0.0008139791573855429 -1.54910557267107e-06
-0.05485874475964022 0.015727562468323276 0.010008347902945008 0.0022086623738447764 0.001465148367889184 5.904829796890695e-06
-0.045966654163137007 0.013092869651246349 0.008739956283412545 0.002174607889177149 0.0035401522053530995 -1.850242878816889e-05
-0.03694594386182344 0.010416564032850168 0.007330567784427611 0.0021107968054014763 0.00523048531635592 -4.118059623484761e-05
-0.027617017005064904 0.007732353653439008 0.005848902497555994 0.0021341788711365275 0.00638451008033057 -6.6275842389632e-05
-0.017493462739081343 0.0047787554636222335 0.004424930697167845 0.0023395838813787886 0.0067153781347409755 -0.00021406703220116645
-0.00794150760004926 0.001081212950404301 0.0034364048535880354 0.0024120481706606657 0.0051511857839151255 -0.0005285648694764117
-0.003720751367651402 -0.0010715652744302496 0.0032537629122401856 0.0014801087757630473 0.0036334321630958864 -0.001988341497206888
0.0148468861961162 -0.023644938734912645 6.505213034913027e-19 -0.0007780147215474468 0.0028539423846210368 0.0002476499557298342
0.015613289948088954 0.00014430471914108302 -0.0015852533351132486 -0.005353249130059118 0.003890980096334617 -0.0002969252311384248
0.019541271647042367 -0.006317252512147471 -0.0030277552644289844 -0.0021181577224796007 0.003661975350628688 0.00028681644749245294
0.026930641675936805 -0.00802031212020639 -0.004368417210753259 -0.0024204028337159013 0.0030611336189554405 0.00033095635971467415
0.035451099933544575 -0.010902291548072145 -0.00540304829674297 -0.002536290717802219 0.0019684114139166833 0.0004567117300071173
0.04397871892734595 -0.013695146003728073 -0.0061293038973698755 -0.002663090354296975 0.0005999185780377805 0.00058677714278084
0.05248471502885162 -0.016632073079993943 -0.006497363553972374 -0.0028341313899632194 -0.0009468157901629692 0.000708612345141674
0.06139181121974055 -0.01978413417250481 -0.006473187058276979 -0.003159654581433908 -0.002424432316602672 0.0007634202210353428
0.07136707727821316 -0.023475624765219343 -0.006072728763146326 -0.0035473002681827856 -0.0032503697129040695 0.0006431282081634561
0.08139850604924329 -0.027787666405674562 -0.0054667741016279775 -0.0029798870692915127 -0.0025228554766038294 0.00027853196810863026
0.08608517106261497 -0.030589502470730504 -0.0051162635062685525 6.894475927353265e-06 3.25856647137877e-06 -3.0585303538488316e-05
0.08137545882384639 -0.02777856147800907 -0.005470376203493148 0.002994096954551066 0.0025256247821918857 0.0002745775139315422
0.07131746113248329 -0.02345504275149671 -0.006082532634947906 0.003562812818750363 0.0032414823053063817 0.0006352665396678556
0.061307960829365446 -0.019746877686481312 -0.006494931587283085 0.0031775612726828014 0.0023941628002016532 0.0007520502786304977
0.052353173658623825 -0.01656919827163716 -0.006540996501739413 0.0028556293977963208 0.0008800013747604856 0.0006949108717839677
0.04377814999431962 -0.013592145478469507 -0.006209885325086423 0.0026906111777276636 -0.0007306382629692397 0.0005749458348384008
0.03514590913509217 -0.010737418575378938 -0.0055433995265505515 0.002568363030926187 -0.0022151760781955383 0.000449802632074229
0.026471426738081612 -0.007762464742069995 -0.004592681290384513 0.002479173204314808 -0.0034832555506340273 0.00035944768903579
0.01870823290071083 -0.005891804045851136 -0.003401677037619652 0.0022020503605661825 -0.004313358160568052 0.00026349270938268876
0.013451622199746495 0.0008499033969392785 -0.002016599397581672 0.0052314175708560616 -0.003926356350458982 0.00021208106501932378
0.011640063060960472 -0.022476962873526924 -0.0017701038059612295 0.00671918772587506 -0.00347073341040733 -0.0020728578999838934
0.006555217409723094 -0.020380204055706185 -0.0002336548696744984 -0.0013271118426123859 0.0015109905834953866 -0.000739634289642738
0.007609313128534941 0.0002665312032650357 -0.0007268157878665257 -0.006075374764869024 0.0018316919384785907 -0.0006222190972532066
0.012094914230190728 -0.004604990890043646 -0.0018902714633496646 -0.005478375164411158 0.002292904203432093 6.883577899555589e-05
0.018234415838587398 -0.006551743448977034 -0.0028443410276988317 -0.006037979354897723 0.0019170132484019396 0.00017393859341870176
0.02380434256760292 -0.008773198150970853 -0.0035840342521859638 -0.006382522950525815 0.0012143462079941174 0.000254109472232905
0.029487832856988083 -0.011028559921648987 -0.004078581450718417 -0.006609612052150869 0.0003246575965766996 0.00029369193473193373
0.035151750648170575 -0.013369406271016985 -0.004320674361866503 -0.006980516696004215 -0.0006465739836033824 0.0002560217577219934
0.04101261652376785 -0.015824530749478063 -0.004300558853999058 -0.0077482361878007016 -0.0015432952295335992 4.607256123430799e-05
0.047372943829419145 -0.018692783286372788 -0.00404086615295891 -0.00886774321938475 -0.0020312933824544444 -0.00048814242646560643
0.0535727887153436 -0.022605705084295234 -0.0036392715607774287 -0.007771364581380579 -0.0015842064252731616 -0.0013818614382021558
0.0564239402370972 -0.026131743667216344 -0.0033825499749449406 1.3371899643157027e-05 -2.9256834870099244e-05 -0.002019766496096895
0.0535445172539428 -0.022598407149774093 -0.003629983217176498 0.0077993326375255904 0.0015201545990270017 -0.0013828003879253043
0.047313247085924576 -0.018676003362849535 -0.004024315352490384 0.008899592668991945 0.0019504040424630678 -0.0004890445133223581
0.04091490348941997 -0.015793510506958444 -0.004281452760693352 0.007787331018962868 0.0014331895687658943 4.7732655097560816e-05
0.03500533291350976 -0.013315975534086618 -0.004307596573047252 0.007031489572829745 0.0004917746705655979 0.00026560416850081856
0.029275953481598362 -0.010939363559986509 -0.004085979558136532 0.006679042511684546 -0.0005477309739502991 0.00032160170694600697
0.023503130778165123 -0.008627740806337774 -0.003633227839830463 0.006477872141526129 -0.0015409354132218383 0.0003169397404409789
0.017789285653651492 -0.006322567909810036 -0.0029705909682774894 0.0061860220821736865 -0.0023994330590595375 0.0003000118713696837
0.011376307426187983 -0.0042135205241489474 -0.002125484796311365 0.005764178839697339 -0.002851840776879945 0.0002651684944097774
0.0069734271437802715 0.0006199699582237062 -0.0011965346890516462 0.006604402975610789 -0.0020502882447505344 -7.688457483204434e-05
0.0061830713289704265 -0.019504371226505716 -0.0013396426935843402 0.0049907388469802565 -0.0013407451707555683 -0.0026813137506543506
0.003371233314192233 -0.01430036088267306 0.000420668047928018 -0.008601194278679848 0.000530111939207026 -0.002549989424189067
0.0032728472644752656 0.00018836220733267048 3.281697992476734e-05 -0.010574640192689826 0.0006669085937673096 -0.0009404689382902996
0.005344265233834283 -0.0015873424028425716 -0.000731465175186967 -0.00985736909760582 0.0009330574619201233 -0.00023967343799285995
0.009119556845714928 -0.0034074048668767715 -0.001353182112487519 -0.010651312305318617 0.0007702709716365878 -3.431596555412238e-06
0.012119894719714319 -0.004501787936914461 -0.001785036593308477 -0.011064251108513836 0.0003747324180487934 2.9228863531585656e-05
0.01490783389889833 -0.005623682912453037 -0.0020457213025484 -0.011456645214364878 -9.412823243619085e-05 -4.277538229047134e-05
0.017647942742527775 -0.0067729431506899675 -0.002146073857188541 -0.012045915239760847 -0.000580280714040628 -0.00027881334681739033
0.020310424203456873 -0.007806123098235223 -0.0020953052696185198 -0.01319280035505945 -0.0010329989334794888 -0.0008048080457090778
0.023317736220279613 -0.008997162106092728 -0.001905189071277119 -0.015185195264676044 -0.0013430308695071196 -0.0018092768775452787
0.02727108011744807 -0.012505186705349646 -0.0015842999737367416 -0.01409023551471083 -0.0011533134662691025 -0.003317156144692822
0.02952450506362428 -0.018533736684155422 -0.001300991125513385 2.1576290179833983e-05 -6.117973256376195e-05 -0.004407078149663117
0.027238130613159033 -0.012501610008539875 -0.0015622951560006343 0.01413542739370893 0.001023984610692503 -0.0033151700186058496
0.02324917008304992 -0.008988215497326684 -0.0018627030189836405 0.015236871658059562 0.0011929036493792302 -0.001803271100984803
0.020201059443095557 -0.007787945425777754 -0.0020361557680175124 0.01325663052872746 0.0008484736414740525 -0.0007897918363002295
0.017490099842393015 -0.006738963238734561 -0.0020779741179458066 0.012129971978663168 0.0003475241894207629 -0.00024469375646106917
0.01469099363227391 -0.005562750386176734 -0.0019826160739226015 0.011572555812696766 -0.00020234720595198612 2.8610609561752933e-05
0.011828631013031903 -0.004397072918560395 -0.0017505014312141685 0.011228802510631285 -0.0007555881693534623 0.00016882505546130552
0.008720849913521971 -0.0032302687353042998 -0.001383311615517469 0.010902727087323509 -0.0012492126092065723 0.00023851760622701387
0.004932249025128882 -0.0013366852142620653 -0.000879537299552219 0.010311144471568319 -0.0014117520240925234 0.00019412734502652422
0.0030882294282149154 0.0001340229183669166 -0.00035757720543736236 0.011365469869068034 -0.0008030960379589102 -0.0005688706360228773
0.0033617895191574653 -0.013751472966611751 -0.00041468732314262725 0.009410857850964717 -0.0003618439846910116 -0.003944209420793275
0.0010005429407855646 -0.00903436826943244 0.0013024514398310414 -0.0092669191717968 -6.311854559177094e-05 -0.0032696435236023065
-1.0920231580174491e-05 -4.2883491102804286e-07 0.0008679054092443981 -0.012395987346219587 -0.00020288212822064345 -0.001104633781390295
-0.0005893672276346367 0.0006739129324898915 0.0004242085217923683 -0.012297975552713157 -0.00029044055050448384 -0.00033071839770519487
0.00010681558455260978 -8.39595827848119e-05 0.00014192922148482324 -0.01225250051082262 -0.00037275119062679625 -6.411415860185957e-05
0.0003506979619004964 -0.0001864074345658704 1.9497817314856785e-05 -0.012615772118125222 -0.000488841977639118 -1.9806150565333367e-05
0.00027654301720119183 -0.00012768830069518657 3.7086346447111674e-06 -0.013061737546998962 -0.0005746887754180189 -0.0001259397567263978
9.557027270621228e-05 -9.299713015375323e-05 5.8778888794748085e-05 -0.01373976725780306 -0.0006207668415975819 -0.00042232047889853775
-0.0004119991260039263 0.00023118880944058922 0.0001633718654570015 -0.01471820173279463 -0.0006807835328878617 -0.001029530151749669
-0.0006968687360192323 0.0008527827219927467 0.000312685080595433 -0.016871775011117144 -0.0008531146069480974 -0.0021365116384832704
0.0015980401719278647 -0.0023292284668546405 0.0005832033553755015 -0.017621213569588998 -0.0009059596807882098 -0.003855021121135393
0.00378712591900847 -0.013324208612757415 0.0009678427668800908 2.4451373794246674e-05 -9.301098779909455e-05 -0.005259593859069547
0.0015605692099415916 -0.0023295182493376873 0.0006179488210831603 0.01767243303048743 0.0007116732644307538 -0.00385214570860793
-0.0007739508620308708 0.0008535879969795004 0.000381144253983453 0.016930353764319166 0.0006345638954277016 -0.0021283876897488976
-0.0005324211426268958 0.00023602391633902538 0.00026255461928257083 0.014790545903875064 0.00042368055504491114 -0.0010103672867652971
-7.251975546266636e-05 -7.915275095339924e-05 0.0001817831766537499 0.013835067088220224 0.00031403973629205354 -0.0003806385587645191
5.6974319698476446e-05 -9.647362500207895e-05 0.0001365544294189094 0.013194074724961993 0.00021187562767688308 -4.040616956466718e-05
7.41498700154257e-05 -0.0001234018459040888 0.0001367758055153626 0.01280768062341829 6.94070397150793e-05 0.00014406132545925144
-0.0002084984427683045 3.1304296445062424e-05 0.00020199523104471462 0.01254464618092713 -8.375132454376773e-05 0.00023102985565440505
-0.0008204832483728569 0.0007610671862907482 0.0003610292850158965 0.012759463600793127 -8.740332615991759e-05 0.00013085582772021863
-4.730278216217345e-05 -9.440785208678514e-05 0.0005722664100054477 0.01278103048253458 0.00012323476101138372 -0.0008340465963598152
0.0010663498273542724 -0.008581622179438255 0.000655419560026976 0.009429505139140176 0.00019574602649574156 -0.004176309109942337
-0.0011077198819738749 -0.004739657830164861 0.002212468687976948 -0.007393679401674888 -0.0005625402553282824 -0.00307253592989774
-0.0029457707815795466 0.0002526345597404569 0.0017368110897367684 -0.010859272262900278 -0.0010043016445918872 -0.0009432978611550004
-0.006095435027477249 0.002439674476792335 0.001574236765476902 -0.011455306766797804 -0.0014716145726031808 -0.00028191522473816773
-0.008686709598907515 0.0031326168091572247 0.0016305498044229278 -0.010898821199734605 -0.0015065380075228174 -3.2121105850575795e-05
-0.011421994649274361 0.004167153384476985 0.0018183944588138865 -0.011037381674998476 -0.0013577104919331583 3.057102754816073e-05
-0.014388093005568916 0.0053717406004522746 0.0020497875156001155 -0.011456750565622762 -0.0010613924927935028 -4.339362633169599e-05
-0.01741274488732432 0.006628340576541728 0.00226249532175321 -0.01202550312222698 -0.0006694511375889163 -0.00028216074124129105
-0.02085270787020656 0.008003578131390972 0.002421064191746143 -0.012767696546829407 -0.00031184056603970195 -0.0007720003810385018
-0.02466205008783697 0.01047556628013867 0.0025177547829931877 -0.013794834781310671 -0.00027250898843979765 -0.001660967454087838
-0.024333146728549165 0.009404113068743494 0.002666826362961125 -0.018302787994955928 -0.0005709050521853891 -0.0032369622352370685
-0.022131129207950326 -0.010178720872604258 0.003190871412632227 2.1649606419987206e-05 -0.0001254679875110496 -0.0048587218062935665
-0.024375387180016025 0.009399952942606976 0.0027145514135276513 0.018348130176195916 0.00031032645892421697 -0.003235232032508284
-0.02474819323914048 0.010468215199379455 0.0026127028677752854 0.013846655696607783 -1.6063088632162196e-05 -0.001655486761525482
-0.02098514247246008 0.007995071467474194 0.0025611564815571472 0.012831593378306068 -1.9895756147993424e-05 -0.0007578464238306611
-0.017592466417154767 0.006622013200654407 0.0024417418047856434 0.012109512274335314 0.0002859023522122864 -0.0002494548780284077
-0.014612192641519679 0.0053729570221587655 0.0022543609440361595 0.011574013223507783 0.0006288082033416214 2.632287750889878e-05
-0.011678556285934987 0.004186616357770901 0.0020209144477598725 0.011210208048333108 0.0008966769726314819 0.0001701502076385078
-0.00893157880907776 0.0031728298146806192 0.0017831743188559859 0.011162715807916607 0.0010712579952851726 0.0002264120056038464
-0.006232904358047152 0.0024415733780945195 0.001602326179292116 0.011775419396474534 0.0011772880475171457 9.298333740851501e-05
-0.002934948222104477 0.00019409541444302198 0.001542213509413263 0.011001150819196242 0.0009640895266980616 -0.0007432394877018337
-0.0010326864177243023 -0.004420804922342603 0.0017237548593686278 0.007346167293191064 0.0006703519656136717 -0.0036584996829066257
-0.002894949238636831 -0.0019642031433301232 0.0030474661561845787 -0.003994987768417544 -0.0011929064760085933 -0.0018582503331173491
-0.005648805760784804 0.0008311067050402207 0.0025848097075097448 -0.006213504361158175 -0.001921589761022027 -0.00041035988710929255
-0.01142335403426455 0.004015311170524415 0.0027095335957210047 -0.006756073867645768 -0.0027078848225864493 -5.51982284241239e-05
-0.017350691784667086 0.0062402098520153515 0.003102998557365869 -0.006336368098505126 -0.00264702790268114 0.0001459365298914951
-0.023165440075727083 0.008480239577694863 0.0035996692065844754 -0.006353154548139704 -0.0022090403458982473 0.0002508630578396219
-0.02900733421605843 0.010814276756109353 0.0040722673191685805 -0.006608137963201455 -0.0014989170602412634 0.0002922033492639838
-0.03493142044389763 0.01323253673176702 0.004434309907289314 -0.006963526200372955 -0.0006221509152756587 0.0002538613717694618
-0.040758981014590294 0.01583994518253132 0.004623815061435731 -0.007268033929991362 0.00021251450696074196 8.023378589090203e-05
-0.04807355697948562 0.018419250465210955 0.0046348009884652945 -0.008080322569440723 0.0006540330376788156 -0.00029069013718502264
-0.05140046126991033 0.024319768590017405 0.004490404402347049 -0.010976926912771003 0.00017943715196337513 -0.0012881399733726984
-0.05026187161330461 -0.007937027117964979 0.005046662343090989 1.3527090435194836e-05 -0.00015926158118043871 -0.0031242130839557298
-0.05144812296854233 0.024311883344332406 0.004551552955692268 0.011005219723648749 -0.0005092841719236296 -0.0012896241508829937
-0.048170183268547016 0.01840403775266093 0.004757219190395363 0.008112525795989792 -0.001016591527698622 -0.0002926868923956806
-0.0409058821072928 0.015818562128395115 0.00480653894379144 0.0073074601323686456 -0.0006248138934969134 8.018357597535723e-05
-0.035126918380342154 0.013206719425514874 0.004672625979686352 0.007014906617323698 0.0001523935788597163 0.00026087673959984377
-0.029241136592533773 0.01078664408647156 0.004353074631251914 0.006679128668968812 0.0009815711394344985 0.0003164774600229064
-0.023408345445021208 0.008453836774066211 0.003894280549359148 0.00645817535918641 0.0016848051663797745 0.0003125470395064539
-0.017544411601815125 0.006209911362144036 0.0033581059432611113 0.006489915846449427 0.002204681958115061 0.0002756847834179832
-0.01150185382765433 0.00396011485193517 0.002841952805077101 0.006912600800306454 0.002474968776166034 0.00013630577948920992
-0.005613310599121942 0.0007908965560165853 0.0024969019647653207 0.006247956218145151 0.001935261373205011 -0.0003090097971406021
-0.0028174384555085434 -0.0017821654911860435 0.002696068250812541 0.003924255000122431 0.0013216495953861538 -0.002185800388917361
-0.003853834095886027 -0.0010325747763490173 0.0036884619440324543 -0.001557278029400069 -0.0022984727480452423 -0.0009537689385717345
-0.00781846327095975 0.0011681198935011244 0.003378392621575756 -0.0024875645089199724 -0.003167252824434269 -4.348582917034602e-05
-0.01669961236783621 0.004781054790189265 0.0038362294374538913 -0.002577968069007585 -0.004047761205071623 0.00011576437092632459
-0.02608141760916808 0.00777890187615251 0.00458122599996112 -0.002482662572103944 -0.003780725793736205 0.00028402118719793616
-0.03486731927396247 0.01061282863726338 0.005393236649438296 -0.002517441016552349 -0.0029872173962693783 0.0004277201860070098
-0.04353818959228917 0.013515087695259958 0.006105038984836797 -0.002651143821339155 -0.0017975932378494963 0.0005690144475656633
-0.05229882744528732 0.01646154488948301 0.00660192212934262 -0.0027841956088941874 -0.0003507468615405497 0.0006954755161766566
-0.06096240072238074 0.019882430591181027 0.006804973833815606 -0.00307985878129618 0.0010780991538954683 0.0007890732927198799
-0.06872388533588847 0.021677316218789284 0.00666172303246165 -0.0032579540906554185 0.0020047436775067914 0.0007459625564808
-0.07936115987256684 0.032759483756621986 0.006138778021787179 -0.007175387604427976 0.001914591191097545 0.00046154108913718845
-0.08650357305200813 -0.0067715412116276 0.005903778985795371 7.035192580918839e-06 -0.00019487976511909966 -0.0021888222520856817
-0.0794152673855057 0.032749791500316185 0.006213962685495318 0.007190183760915121 -0.002317861803501361 0.0004583214233512866
-0.06883322250655574 0.021658288120972948 0.00681298345368011 0.003275010988767913 -0.0024471246728647524 0.0007397745806726806
-0.06112765776231772 0.019854776678639836 0.007032792738314407 0.003101023397151185 -0.0015801689432212937 0.0007806456020958715
-0.0525165725792387 0.016426280628747195 0.006903467386847918 0.0028119020600800805 -0.00022056477349258183 0.0006865351641730966
-0.04379253425243842 0.013473346009471384 0.0064689815455969205 0.002688841318901351 0.0011694017645943167 0.000563566601321802
-0.03511384013552168 0.010563719940606633 0.005791325178630293 0.0025710158048914997 0.002357047862831196 0.0004348409742731696
-0.026239398311929785 0.007714638080875494 0.00495659320202977 0.0025571417822111936 0.0032743287139546506 0.0003193039258209881
-0.016708941441054507 0.004697350746340166 0.004095381955283148 0.002655531658778503 0.003849270959794136 0.00017714060224865703
-0.007730532702135712 0.001126777261747857 0.0034076657033920523 0.002516612964033161 0.003308064369339418 -1.4316314739073598e-05
-0.003748620592791262 -0.0009147991428243796 0.0034464500072681793 0.0015357366849498228 0.0025846347942432187 -0.0011499304522050188
0.015749509315814748 -0.02286334687738995 4.0318768289304696e-19 0.0017709448474347257 -2.1481887178386588e-14 -1.0770352573121963e-14
0.016109814000909238 -0.0002960420972654351 -0.0013698923446285678 -0.005252348521924638 -1.0706581156589082e-14 1.5748375368530854e-16
0.01946002055102988 -0.006440238571322167 -0.0025706757500075102 -0.002041730241654846 -3.9398551695407624e-15 -1.264156016195575e-15
0.026572693275457953 -0.00816108613814769 -0.0037091304278648258 -0.0024278808036480434 4.470792361538703e-16 1.7532904381806214e-16
0.03491634418395582 -0.011043550470333039 -0.004515897440306176 -0.002596009572216962 1.7304645943180125e-15 1.5539530925055833e-15
0.04332790393104464 -0.013895669438473139 -0.004925057207429917 -0.002790645185537413 -9.717145030242388e-16 -1.4466712875381427e-15
0.05183147550043664 -0.016952632615416637 -0.004904274372649595 -0.0030394033263522894 -4.6633432792403395e-15 5.328853677766254e-16
0.060983545501812404 -0.020313731950776934 -0.004460708080030301 -0.0034443812994330997 -2.664586081077211e-15 4.3095816628854755e-15
0.07153644333578503 -0.024303860131164617 -0.0036879479094089306 -0.0038731145742359027 2.7076594005109866e-15 3.941925318063852e-15
0.08231263251440304 -0.028924273188865795 -0.002856053418773266 -0.0032359697820307726 5.2860531029414945e-15 6.856833351977232e-16
0.08736515441275323 -0.03188629186212163 -0.0024575837963546395 8.540001278515999e-06 5.60421392452326e-15 2.894413224721615e-16
0.08227144962090126 -0.028909214857580183 -0.0028568202007177982 0.0032538386814494466 1.1218239878707514e-14 -1.2213266422506086e-15
0.07144813502883425 -0.024270142747684388 -0.0036926670659188287 0.0038935067482196947 2.2991465908851413e-14 2.6262629224116374e-15
0.06083454768183039 -0.02025333269391531 -0.004476302636200523 0.0034695950439341105 2.5427751199655173e-14 2.9436088982981445e-17
0.0515964996440126 -0.01685158417197576 -0.004942243309370562 0.0030724437884041556 2.0946828747583782e-14 9.467998759137009e-16
0.042963751886181956 -0.013730429361784636 -0.005001741395121995 0.002836154028226828 6.860988895616461e-15 -7.282247179406232e-16
0.03435304551745508 -0.010781408347917196 -0.004652245998075226 0.002656953615087327 -1.229295528218377e-14 1.0899077864182094e-15
0.02570534925890648 -0.00774496989501713 -0.003927132721429899 0.0025261901671271765 -1.915565349028779e-14 1.2472865080180584e-15
0.01805983718698996 -0.005810001574655794 -0.0029246654542194705 0.0022239834924713165 -2.4677871237385046e-14 1.6383616197653689e-15
0.01293608290614171 0.0008136235480386875 -0.001968828253287251 0.005012037191245472 -2.1678793539503007e-14 4.541451849998657e-17
0.01115212111685846 -0.02154848506507517 -0.0020088168111785532 0.006380111938334232 -1.9565288787975338e-14 -1.009511484822978e-14
0.006585306314982303 -0.019887099333926586 -4.95299911482401e-05 0.0001390416982001761 -6.5153418548962935e-15 -6.524169632272578e-15
0.007781956442763438 4.5161511938424185e-05 -0.0007030074519824365 -0.0057701746749965616 -6.030560335227187e-15 -2.6824449237371206e-15
0.012209794940816645 -0.0047361612329113465 -0.0016221039852787249 -0.005343262452051115 -4.525662308828889e-15 -2.4847321872549163e-15
0.01807455484020553 -0.006645784148174252 -0.0024509409786410107 -0.006062111461981586 -2.240697759986216e-15 -5.53878232341376e-16
0.02351945619278357 -0.00886331797653153 -0.0030484771843978203 -0.006513724559556062 -9.151724068170541e-16 5.267325204477702e-16
0.02912750845961626 -0.011152136976955562 -0.003352615070154893 -0.006874405953659187 -1.3057048880825298e-15 5.200782296141404e-17
0.03479685634985727 -0.013576353913005601 -0.0033587590207672883 -0.007417372318571467 -3.068933352075049e-15 -1.8826831912031883e-15
0.04081210145529574 -0.016179036234561305 -0.003088394134557226 -0.008385026289467936 -2.0560496596824622e-15 9.823210495897572e-16
0.04751094250398213 -0.01925893741748269 -0.0026108917798106364 -0.009635544653110178 -1.1222280225865917e-15 -2.9817762029014233e-15
0.05413251591028949 -0.023389662883082873 -0.0020873025825860676 -0.008401879726882446 1.9016808696606814e-15 -3.80779256866845e-15
0.05718605671864913 -0.027070265237251288 -0.0018232049028381139 1.6530538333666333e-05 5.0656699531425025e-15 -3.834236937281729e-15
0.0540839874861251 -0.023376760021813214 -0.002071979186058443 0.008437032731111946 5.535080789434259e-15 -5.945080311289125e-15
0.04740853752624136 -0.01922986216593329 -0.0025825330464377787 0.009677491501975622 1.171941826216957e-14 -2.618466831165109e-15
0.040644126293307395 -0.01612660034594318 -0.0030522336985421097 0.008440139655188082 1.5374321807375092e-14 -5.1059146060489224e-17
0.03454279973905857 -0.01348795688543017 -0.0033240783190024168 0.00749501009102597 1.0696058678043578e-14 1.3291742652268151e-15
0.028753328745647577 -0.011006957139291984 -0.0033340598623292587 0.006987515350438033 4.580392919199252e-15 9.674674798267058e-15
0.022971646203558366 -0.008628872266716202 -0.0030663619937166655 0.006679451379755287 -4.867812797542791e-15 4.177181942900156e-15
0.017264938678665357 -0.006279559467386588 -0.002536091070416755 0.0063169452581494714 -1.1322595184842191e-14 4.34724752398398e-15
0.011011104166613885 -0.004153207525970636 -0.0018203489153802684 0.005836078151648307 -1.427722228771822e-14 2.3193642508965648e-15
0.006750722314323312 0.0005971932410573696 -0.0012490988906652266 0.006407915862329731 -1.0810368950649098e-14 -9.404234118867705e-16
0.005951786254374244 -0.018711056243991733 -0.0015942452311841506 0.00472788751086837 -6.7357398277718625e-15 -1.4664539114278563e-14
0.003334136445358633 -0.014140474493957781 0.00047501959685560436 -0.007943379166185921 -2.422336775744849e-15 -8.578105944751641e-16
0.003359084484231923 0.00020855901521434523 2.7411066125602453e-05 -0.009981828517582187 -2.71953692001386e-15 -4.31787580950499e-15
0.005486277540657476 -0.0016987400859056602 -0.0006010855303885025 -0.009682396551186792 -4.372121917029523e-15 -3.9192078944184916e-15
0.00913473775305349 -0.003467140428088449 -0.0011524123868202438 -0.010695852001212765 -3.698836920718116e-15 -3.746470771419028e-15
0.012048612100837894 -0.0045430391111324075 -0.0015239911364303444 -0.011298148294294628 -3.0530029916778006e-15 2.7421167008052916e-16
0.014794670278861067 -0.005666649829931956 -0.0016947642791842622 -0.011898234337217867 -3.656620057473133e-15 7.388194060448799e-16
0.017530388336906424 -0.006842037642492541 -0.001678603080318276 -0.012764634154573429 -2.7254089759207005e-15 -3.001003850804096e-15
0.020254117956508114 -0.007923464475289495 -0.0015031202398260411 -0.014239893080028905 -4.1851982627129705e-15 -4.07810449905982e-15
0.023411651084686715 -0.009187350590258903 -0.0012054170279265039 -0.016456686032334154 -4.914506335793132e-15 -8.037732805721287e-15
0.027607991266860546 -0.012777367931144642 -0.0008511753678467699 -0.01516966302769482 3.52550782756764e-16 -5.464975260521809e-15
0.029999764434985764 -0.01897818453557446 -0.0006385511153547899 2.582955029332121e-05 1.351438949761868e-15 -8.208149058445274e-15
0.027553118095080268 -0.01276888764670866 -0.0008201709684312257 0.015224760171583153 1.181517787795551e-16 -8.952599539523501e-15
0.023297488047465092 -0.009167805748282376 -0.0011450131100054148 0.01652298394869507 3.906250407907869e-15 -5.853560095404192e-15
0.020071601629271737 -0.007887283947717186 -0.0014173573960403229 0.014328080397267412 6.277081439470789e-15 1.8356525338398405e-15
0.017264820577528643 -0.006779594614775499 -0.0015755876371665108 0.0128907346238274 5.4365137888237624e-15 3.720294065217081e-15
0.014422863494278562 -0.0055614173137993024 -0.001588828368873457 0.01208598932111094 4.181426345589508e-15 1.693967977499898e-14
0.011535373551214777 -0.004368065905074231 -0.001438609688294165 0.011579510017353111 -3.3938111449285414e-16 9.362722728188666e-15
0.008430164480139115 -0.00318685058403475 -0.0011235565994988314 0.011137587040201036 -4.260709132378323e-15 7.231984244316161e-15
0.004762239501097107 -0.0013248100593006055 -0.0006992676701399201 0.010425633630475321 -7.03122960076213e-15 3.8440303322178834e-15
0.0029971394181124624 0.00012363642138440786 -0.0004210014511495777 0.011081719244687063 -3.55435787563024e-15 -3.314978635560531e-15
0.0032436109166761175 -0.013186997567650073 -0.0006856749749855752 0.009006498610780725 -1.901305210548574e-15 -2.184014145749369e-14
0.0009920424083959378 -0.008938935715476118 0.001305222490964986 -0.008887084675326729 -4.271903731567473e-16 1.859000149997958e-16
7.281178509269365e-05 4.0498461685047036e-05 0.0008296938781704967 -0.011935070533520635 -1.2939681878071374e-15 -3.4562535667671812e-15
-0.0004181361476553177 0.0006012347350832551 0.00043971847731747853 -0.012078767924097358 -4.490469783936368e-15 -4.612788964816414e-15
0.0002567282090337535 -0.00016278612015975522 0.00015652224117470955 -0.012306424426505173 -4.864354362019152e-15 -2.541505417577583e-15
0.0004775545338725235 -0.00024152441859514497 1.0537667736023745e-05 -0.012889446687560624 -4.595679746314824e-15 1.9063662324084185e-16
0.00039080178309275023 -0.00017114187857704072 -1.508046358148962e-05 -0.013571985916629456 -5.760476680215102e-15 1.2738562375075313e-15
0.00019264118387306685 -0.00012582829462194512 4.448330246198399e-05 -0.014556171288709072 -5.102096605039174e-15 -2.8094930895616876e-15
-0.00034264256148578017 0.00021815651413955954 0.00015929683414582334 -0.015886400181553403 -6.2098340114806125e-15 -4.450937909255062e-15
-0.0006447277708862477 0.0008608287524408085 0.00032376667546465097 -0.018266070643299808 -6.5192754759033425e-15 -1.1484069310742015e-14
0.0017685564706873369 -0.0023211476734525047 0.0005588213946847273 -0.018861724796545444 -2.6010094821221977e-15 -9.612400935984922e-15
0.004070803079543194 -0.013550968067116288 0.0007498457299186987 2.8974526184656282e-05 -3.1767513288981017e-15 -7.895434658714354e-15
0.0017076732077019679 -0.0023172408563194736 0.00060545930244785 0.018923567307906706 -3.979263695049124e-15 -1.080118457240202e-14
-0.0007698500028171596 0.0008705340301832444 0.00041603923287217114 0.018340596902870626 -1.9831953632723848e-15 -9.881794682661468e-15
-0.0005381628043815819 0.00023763118105044647 0.0002941414166065817 0.015985653837646233 -2.1919857951621278e-15 2.353965546791903e-15
-8.160345336481631e-05 -8.990651579264276e-05 0.00021460591907437933 0.01469851853369628 -2.0665041638339484e-16 3.0883736052474825e-15
2.7357967212127734e-05 -0.00010690168232647033 0.00017540086023901493 0.013785695215752567 1.815869232323769e-15 1.8121792179923504e-14
9.397518547084488e-06 -0.00012831224373003984 0.0001942959571247635 0.013217673339808788 3.0727551647330605e-15 1.1315843485219627e-14
-0.00028941200799172606 2.3586671734269626e-05 0.0002878304423966395 0.01281329016038065 9.398800402511068e-16 9.702791209918217e-15
-0.0008409802957269564 0.0007287015696551164 0.0004303317350114578 0.012831511648227305 1.5472284979373314e-16 4.171649123688691e-15
-4.489134132634885e-05 -0.00010436684360399304 0.0004961965087721358 0.012502447923649275 1.5105621357165873e-15 -4.8634768358857966e-15
0.0010354017161037128 -0.008192238090007797 0.00042992837565520366 0.009102973371878055 2.0063550836999997e-15 -2.285140392882523e-14
-0.0010523177284661454 -0.004682521396012347 0.002221736852874526 -0.007202172429140416 3.0011859628877556e-16 -7.300746378974265e-17
-0.0028167740905703812 0.00029112134677934984 0.001652709108975096 -0.010531832418446805 -1.3391074205992663e-15 -2.2062938227675882e-15
-0.005866730681714958 0.002382336847281553 0.0014785661327101733 -0.011242482707639823 -4.554103134098847e-15 -4.319397080678258e-15
-0.008409591035975824 0.0030464741586335086 0.0014616073590734096 -0.010915045344133402 -5.7956213477461035e-15 -1.9351755170104318e-15
-0.011102651456262467 0.0040957065938428015 0.0015404525946381845 -0.011264792118507276 -6.467498892936529e-15 3.9278273016897514e-16
-0.014046563230545775 0.005327255436943437 0.0016611678354141737 -0.011901181676934838 -8.36482220160006e-15 7.63850923702139e-16
-0.017097572266462295 0.006632138064524006 0.0017656035890950428 -0.012741492095295584 -7.832989113441721e-15 -1.2546150370777026e-15
-0.020645979039773037 0.008083818627677663 0.001819493468151019 -0.013789307458378447 -7.456240452266474e-15 -3.9633010415207615e-15
-0.02465321231721663 0.010672353924715921 0.0018430722624352064 -0.01496503710514397 -7.114955842982902e-15 -1.2886237487231417e-14
-0.02433957633363245 0.009689044803362395 0.0019380804924287653 -0.0194673905409672 -6.4016273640900485e-15 -8.197896571651708e-15
-0.02204095567839098 -0.010254425009577383 0.0020883930906528325 2.60230161977412e-05 -6.736766325824816e-15 -7.054280120113998e-15
-0.024406799545888282 0.009688383164361724 0.0020006601401019136 0.019522897579015493 -6.813697352105359e-15 -7.227179873439335e-15
-0.024790013324984445 0.0106722435995482 0.0019678683349372557 0.015031786924804872 -8.69089176981034e-15 -9.094860417080755e-15
-0.020855805470971798 0.008086688405008759 0.002004510049966591 0.01387789076337806 -8.192847831769599e-15 2.698840093464175e-15
-0.017382295978076927 0.006641797816800148 0.002004483746311951 0.01286802993233632 -6.500180600415152e-15 5.4399945648413855e-15
-0.014403682476466662 0.005349999005118153 0.0019386613403810631 0.012092082854789741 -5.653377410847794e-16 1.7971630179034262e-14
-0.011517737832989334 0.004144641690207987 0.001825804510618755 0.011561499033302941 5.28996300702602e-15 1.086087498419503e-14
-0.008817001650710551 0.0031192056451026526 0.001698703111282951 0.011369723230352066 6.078850530583102e-15 9.169800810056132e-15
-0.006115029619529411 0.0023813385868082532 0.0015678283338656123 0.011772778804512607 7.278779426520172e-15 3.4413796682133957e-15
-0.0028371303445481285 0.00019151598189991146 0.001439956851159244 0.01074931247632337 6.505863556216518e-15 -4.070542188906734e-15
-0.0009730903984447936 -0.004183441099610194 0.0015711430951344894 0.00712907444521567 5.1610903322330676e-15 -2.0286642374647834e-14
-0.002754071368753143 -0.0019008413507233444 0.00303107448431775 -0.003941429157839641 2.3615956195807697e-16 -2.1018953179526012e-16
-0.005442053360117866 0.0008986104570279992 0.0024154858689160287 -0.006019753758004461 -1.4447959565929216e-15 -1.2454874100380903e-15
-0.01110563755847046 0.003992336053636008 0.0024924122329911427 -0.006606835291674809 -4.589429490197035e-15 -2.312530389078117e-15
-0.016931005926660612 0.006190610826445958 0.002748366403657325 -0.006325511435338995 -7.708076052979386e-15 -1.6040991370489324e-15
-0.022640643109407093 0.008454014440590761 0.003051055930374422 -0.006480256070810997 -9.40990585148252e-15 2.567865082896137e-16
-0.0284191979543259 0.010847851228374021 0.0033089770626243587 -0.006875037570402853 -8.786107166927669e-15 -9.393087165281838e-16
-0.03437381040846656 0.013372367667538352 0.0034395166806791833 -0.007399340562753276 -7.005703204105438e-15 -2.744386749103933e-18
-0.04037707076866707 0.01614793819978844 0.003399776767216132 -0.007875119769690984 -8.714020851468066e-15 -1.525895973160732e-16
-0.04810551916679559 0.018941068640339224 0.003226351062111805 -0.008754076090667463 -7.667210948439102e-15 -6.309014793340513e-15
-0.05165837243277105 0.025153528947461787 0.0031000515295287754 -0.011651118658931685 -8.535066718393992e-15 -1.7279302717398276e-15
-0.05046862123789004 -0.007888013889282086 0.0031257209728468263 1.6868423309987535e-05 -9.257909177229524e-15 -5.695910323261222e-15
-0.0517329296810931 0.025148453678824626 0.0031792392417559893 0.011686987615727045 -1.1022644724593446e-14 -1.1640994022682136e-15
-0.048256230979079794 0.01893147552963385 0.003385164295651169 0.008796833327349327 -1.5242981302090314e-14 -3.8419584896288994e-15
-0.040605211190524765 0.01613480480244768 0.0036376517246605737 0.007931102633773156 -1.5336816459020092e-14 3.989830113428766e-15
-0.03467596414854473 0.013356688351608432 0.0037517147388692077 0.007478123602678145 -1.254421087708605e-14 2.8405656461987644e-15
-0.02877912606115049 0.010830538114473614 0.0036810686965541113 0.006992118161705095 -4.3782065782061244e-15 1.0568836658706587e-14
-0.023014121507746697 0.008434319637362983 0.0034501227139463048 0.006661492692320226 6.592801323856805e-15 5.859731577457887e-15
-0.017230079248674913 0.006153044152159247 0.0031099368840945057 0.006590530121399511 1.2450052788845131e-14 4.5855280564419815e-15
-0.011230729623933674 0.0038990961579037924 0.002705710303760087 0.006868697090611429 1.593644717600741e-14 1.846458980180911e-15
-0.005398001079888533 0.0008194409662352361 0.002332487281791322 0.006072767563428594 1.2924663983916555e-14 -1.6026930623564903e-15
-0.0026494685583262124 -0.001629062164795084 0.002564163215890989 0.0038377133486785105 8.967178670611642e-15 -1.2941782519780565e-14
-0.003629878061471047 -0.0009444141429218896 0.0034846110381832195 -0.0015640153384529256 -1.3335686721571705e-17 -1.753832539266864e-16
-0.007524751111626969 0.0012652222345809878 0.003041881850197705 -0.002377660779013465 -3.408189529208183e-16 -5.010369289598637e-16
-0.016263329283550624 0.004787864160186228 0.003439950553842361 -0.002493474828225739 -3.993794227621916e-15 -1.0282708929124085e-15
-0.0254810047736285 0.0077664997932814835 0.003980530404018938 -0.0024642485230460965 -1.0011333125350963e-14 -1.6294203399741525e-16
-0.03409845960919164 0.010636559595840443 0.004497624472508599 -0.0025697000986598024 -1.31530596418801e-14 3.310882384227609e-17
-0.0426588810542459 0.013623602970133016 0.004864832113613657 -0.0027739485276126272 -7.820136817835235e-15 -2.5774331670683215e-15
-0.051438968187884 0.01671280269117533 0.00497391014191274 -0.002985026847973497 -5.7429138755702575e-15 3.156220944322552e-15
-0.06036487287649298 0.020367140604734008 0.00476578581819718 -0.0033443696012061142 -6.941570528020552e-15 3.9605905360895477e-16
-0.06871714229268114 0.022419773412845286 0.00429019352124304 -0.003523434371376775 -7.74989745771712e-15 4.011615800832147e-15
-0.07997671923942591 0.03398635622628314 0.0037951172991951493 -0.007551420797204845 -1.3183693435450498e-14 9.543554098032092e-16
-0.08736756008602524 -0.006666983434874005 0.003563485423262618 9.746272858566672e-06 -1.2119266094151593e-14 -3.95358387954986e-15
-0.0800602839948429 0.03397912942365795 0.0038919580417091223 0.007572150858792178 -1.4182611248608756e-14 2.3988108591513346e-15
-0.06888550380093915 0.02240556183292038 0.004485396350409322 0.0035480840720172884 -2.438117253662081e-14 2.7929590064312837e-15
-0.06061809462202351 0.020346195054442063 0.0050608705305461585 0.003376333592534614 -2.7728988945480496e-14 2.445390894986743e-15
-0.051770202758782316 0.016684827668697715 0.005366972969612226 0.003028978646932862 -2.2429666224387315e-14 1.4632121469321246e-15
-0.043041301669330685 0.013586624564857274 0.005344390592752186 0.002836487049812036 -9.63612463477162e-15 1.3908823095001854e-15
-0.03446041383299775 0.010582527031483175 0.005032161863311774 0.002660721799062856 9.300503076015154e-15 2.9477830766622137e-15
-0.025695942969254277 0.007674402485895186 0.004501404953242985 0.0025896804417696977 2.0789332711920738e-14 1.5437683683477976e-16
-0.016244925856120494 0.004646124922817047 0.00382195312291847 0.0026200782459610576 2.748482322810497e-14 6.309921118594075e-16
-0.0073699495199837034 0.0011806063727698966 0.0031111160563576062 0.0024228033095902222 2.2268496183315556e-14 6.572975670693371e-18
-0.0034607141838949237 -0.000775350597993501 0.0031546839490220954 0.0015404001316995561 1.5664661408287817e-14 -7.943840897584042e-15
0.014846886196155654 -0.02364493873491804 4.438452643612534e-19 -0.0007780147214812837 -0.002853942384664665 -0.00024764995575257394
0.015613289948119216 0.0001443047191315226 -0.0015852533351151598 -0.00535324913006219 -0.0038909800963535177 0.00029692523113803424
0.019541271647060852 -0.006317252512151652 -0.0030277552644316125 -0.002118157722483198 -0.0036619753506346806 -0.0002868164474969712
0.02693064167594801 -0.008020312120201932 -0.004368417210756248 -0.002420402833711814 -0.0030611336189573174 -0.00033095635971522026
0.035451099933548315 -0.01090229154808586 -0.005403048296745597 -0.002536290717798597 -0.001968411413915127 -0.0004567117300099487
0.0439787189273476 -0.013695146003717898 -0.006129303897370811 -0.0026630903542961015 -0.0005999185780285443 -0.000586777142779375
0.05248471502885745 -0.016632073080006013 -0.006497363553968227 -0.0028341313899652083 0.0009468157901837509 -0.0007086123451424588
0.06139181121974938 -0.019784134172523407 -0.00647318705826809 -0.0031596545814421536 0.0024244323166152113 -0.0007634202210382882
0.07136707727822077 -0.02347562476523581 -0.006072728763135152 -0.00354730026818481 0.003250369712897559 -0.0006431282081656201
0.08139850604925251 -0.027787666405711692 -0.005466774101619268 -0.002979887069290208 0.0025228554766024954 -0.0002785319681099734
0.08608517106263058 -0.03058950247075007 -0.005116263506259408 6.8944759268844285e-06 -3.2585664586619983e-06 3.0585303540658625e-05
0.08137545882386543 -0.027778561478018046 -0.0054703762034840325 0.0029940969545542563 -0.0025256247821690172 -0.00027457751393454593
0.07131746113249657 -0.023455042751540135 -0.006082532634939254 0.0035628128187650734 -0.003241482305274998 -0.0006352665396649603
0.06130796082936718 -0.019746877686491388 -0.006494931587281628 0.0031775612726952633 -0.00239416280017213 -0.0007520502786318426
0.05235317365860795 -0.01656919827164969 -0.0065409965017409885 0.002855629397793671 -0.0008800013747404035 -0.0006949108717755589
0.04377814999428754 -0.013592145478422975 -0.006209885325093515 0.0026906111777256847 0.0007306382629748767 -0.0005749458348362743
0.0351459091350659 -0.010737418575370633 -0.005543399526553706 0.0025683630309235772 0.0022151760781837634 -0.0004498026320648765
0.02647142673806656 -0.007762464742060532 -0.004592681290385952 0.002479173204310772 0.00348325555060103 -0.0003594476890331569
0.018708232900698132 -0.00589180404584856 -0.0034016770376196414 0.0022020503605653433 0.004313358160519949 -0.0002634927093808045
0.013451622199733552 0.0008499033969394244 -0.002016599397581069 0.00523141757084523 0.0039263563504162114 -0.00021208106501732906
0.011640063060945305 -0.022476962873503654 -0.0017701038059598025 0.006719187725880859 0.0034707334103686715 0.00207285789996015
0.006555217409732055 -0.02038020405571143 -0.00023365486967495718 -0.0013271118425742133 -0.0015109905835087628 0.0007396342896282819
0.0076093131285464724 0.0002665312032594399 -0.0007268157878681939 -0.006075374764866497 -0.0018316919384913245 0.0006222190972484747
0.012094914230203759 -0.0046049908900440495 -0.0018902714633523738 -0.005478375164409706 -0.002292904203441051 -6.883577899901625e-05
0.01823441583859756 -0.00655174344898234 -0.002844341027701655 -0.006037979354891914 -0.0019170132484058577 -0.00017393859342007661
0.023804342567609545 -0.008773198150978479 -0.003584034252187987 -0.00638252295052128 -0.001214346207995819 -0.00025410947223633026
0.029487832856991972 -0.011028559921643708 -0.004078581450719245 -0.006609612052156024 -0.00032465759657344354 -0.0002936919347328921
0.035151750648175634 -0.013369406271022705 -0.004320674361864884 -0.006980516696015595 0.00064657398361157 -0.0002560217577238111
0.041012616523773034 -0.015824530749489047 -0.004300558853994601 -0.007748236187816135 0.0015432952295366504 -4.60725612324668e-05
0.04737294382942491 -0.01869278328637929 -0.004040866152952902 -0.008867743219391462 0.0020312933824522487 0.0004881424264699881
0.053572788715355944 -0.02260570508431594 -0.0036392715607715845 -0.007771364581376869 0.0015842064252736892 0.0013818614381953965
0.056423940237109324 -0.026131743667229736 -0.0033825499749408293 1.3371899639979745e-05 2.9256834878088086e-05 0.002019766496095547
0.05354451725395173 -0.022598407149766235 -0.00362998321717132 0.00779933263752302 -0.0015201545990113294 0.0013828003879200106
0.04731324708593537 -0.01867600336288655 -0.004024315352484671 0.00889959266901392 -0.0019504040424455074 0.0004890445133233425
0.040914903489421596 -0.0157935105069654 -0.004281452760690952 0.007787331018980862 -0.0014331895687490907 -4.7732655093537647e-05
0.03500533291350001 -0.013315975534099552 -0.004307596573046916 0.0070314895728529935 -0.0004917746705545265 -0.000265604168492111
0.02927595348158407 -0.010939363559973075 -0.004085979558138413 0.006679042511694038 0.0005477309739513345 -0.0003216017069391151
0.02350313077814941 -0.008627740806328837 -0.0036332278398319216 0.006477872141508548 0.0015409354132144381 -0.0003169397404288023
0.017789285653640276 -0.006322567909807147 -0.002970590968278486 0.0061860220821686445 0.002399433059037167 -0.0003000118713623596
0.011376307426180123 -0.004213520524144808 -0.002125484796311374 0.005764178839685878 0.0028518407768496653 -0.0002651684944054047
0.006973427143774951 0.0006199699582232696 -0.0011965346890513982 0.00660440297560247 0.0020502882447304693 7.688457483104945e-05
0.006183071328966948 -0.019504371226484837 -0.0013396426935832252 0.004990738846979508 0.0013407451707409175 0.002681313750624482
0.0033712333141970243 -0.014300360882678925 0.000420668047927407 -0.008601194278673082 -0.0005301119392114127 0.002549989424186671
0.0032728472644799364 0.0001883622073331295 3.281697992342242e-05 -0.01057464019268538 -0.0006669085937746861 0.0009404689382819661
0.005344265233841245 -0.0015873424028371224 -0.0007314651751895096 -0.009857369097603874 -0.0009330574619300437 0.00023967343798932277
0.009119556845722902 -0.0034074048668805406 -0.0013531821124897821 -0.010651312305309997 -0.0007702709716434516 3.431596554721713e-06
0.012119894719719655 -0.004501787936916114 -0.001785036593310411 -0.011064251108506016 -0.0003747324180535378 -2.922886353518493e-05
0.014907833898903575 -0.005623682912456263 -0.0020457213025494242 -0.011456645214376303 9.412823243357283e-05 4.277538228711711e-05
0.017647942742532053 -0.00677294315068666 -0.002146073857188404 -0.012045915239781805 0.0005802807140381101 0.0002788133468156501
0.02031042420345918 -0.00780612309822111 -0.002095305269617136 -0.013192800355078489 0.001032998933476694 0.0008048080457171092
0.02331773622028758 -0.00899716210611003 -0.0019051890712735611 -0.015185195264678535 0.0013430308695042273 0.0018092768775509584
0.027271080117460423 -0.01250518670536996 -0.0015842999737329315 -0.014090235514710378 0.0011533134662668313 0.003317156144683731
0.029524505063631225 -0.018533736684148067 -0.0013009911255128927 2.1576290171095253e-05 6.117973256738965e-05 0.0044070781496543445
0.02723813061316424 -0.012501610008540722 -0.0015622951559974647 0.014135427393701307 -0.0010239846106841807 0.0033151700185982745
0.023249170083058004 -0.008988215497358185 -0.001862703018979891 0.015236871658086735 -0.0011929036493727439 0.0018032711009863319
0.0202010594431 -0.007787945425794844 -0.002036155768014552 0.013256630528749487 -0.0008484736414689961 0.0007897918363041958
0.017490099842392984 -0.006738963238762385 -0.002077974117944097 0.012129971978692249 -0.00034752418941826573 0.000244693756472595
0.01469099363226836 -0.0055627503861934 -0.0019826160739219913 0.011572555812709454 0.0002023472059509979 -2.8610609549298178e-05
0.011828631013023248 -0.004397072918558031 -0.0017505014312148143 0.011228802510609797 0.0007555881693486426 -0.0001688250554464491
0.008720849913513865 -0.003230268735295931 -0.0013833116155180798 0.01090272708731133 0.0012492126091939997 -0.00023851760621357987
0.004932249025125255 -0.001336685214261779 -0.0008795372995521947 0.01031114447155351 0.0014117520240789828 -0.00019412734502037262
0.0030882294282142376 0.0001340229183648321 -0.0003575772054372156 0.011365469869053953 0.0008030960379516721 0.0005688706360184239
0.00336178951915396 -0.013751472966596652 -0.0004146873231418164 0.009410857850955063 0.00036184398468678647 0.00394420942075025
0.001000542940787313 -0.009034368269439314 0.0013024514398309148 -0.009266919171798543 6.311854559024258e-05 0.0032696435236035278
-1.0920231579191496e-05 -4.288349042886625e-07 0.0008679054092432032 -0.012395987346222258 0.00020288212821565585 0.0011046337813834571
-0.0005893672276315816 0.0006739129324970861 0.0004242085217903836 -0.012297975552711265 0.0002904405504954839 0.0003307183977004456
0.00010681558455850231 -8.395958278269583e-05 0.00014192922148317384 -0.01225250051081578 0.00037275119061652663 6.411415860069218e-05
0.00035069796190451336 -0.0001864074345638895 1.9497817313034248e-05 -0.012615772118120596 0.0004888419776288282 1.9806150562107313e-05
0.0002765430172047222 -0.00012768830069093722 3.7086346433747205e-06 -0.013061737547010229 0.0005746887754095999 0.00012593975671988208
9.557027271058505e-05 -9.299713015252593e-05 5.877888879412881e-05 -0.013739767257821398 0.0006207668415905192 0.0004223204788972784
-0.00041199912599994184 0.00023118880944877318 0.00016337186545629115 -0.0147182017328187 0.0006807835328782087 0.0010295301517585299
-0.000696868736011735 0.0008527827219703239 0.00031268508059709415 -0.016871775011124166 0.0008531146069411304 0.002136511638491633
0.0015980401719369478 -0.002329228466881117 0.0005832033553768287 -0.01762121356958319 0.0009059596807828173 0.003855021121125062
0.0037871259190123793 -0.013324208612748308 0.0009678427668788783 2.4451373785312564e-05 9.30109877972244e-05 0.00525959385905212
0.0015605692099460863 -0.0023295182493568416 0.0006179488210847673 0.01767243303047894 -0.0007116732644286414 0.0038521457085989507
-0.0007739508620253095 0.0008535879969694662 0.0003811442539850317 0.016930353764345457 -0.0006345638954322156 0.002128387689750893
-0.0005324211426237172 0.0002360239163097774 0.0002625546192852194 0.014790545903901843 -0.00042368055505065524 0.0010103672867693863
-7.251975545743526e-05 -7.915275097044265e-05 0.00018178317665547682 0.013835067088249449 -0.00031403973629619237 0.0003806385587745705
5.697431970398361e-05 -9.647362501454448e-05 0.0001365544294198566 0.01319407472497458 -0.00021187562767959768 4.0406169579811645e-05
7.414987001540236e-05 -0.0001234018459030489 0.00013677580551530268 0.012807680623397375 -6.940703971743756e-05 -0.0001440613254431231
-0.00020849844277107734 3.130429646065545e-05 0.0002019952310438158 0.012544646180908219 8.375132454170871e-05 -0.00023102985563963754
-0.0008204832483725439 0.0007610671862868377 0.0003610292850157788 0.012759463600776172 8.740332616109847e-05 -0.00013085582771393586
-4.7302782160661504e-05 -9.440785209051493e-05 0.0005722664100054201 0.012781030482518897 -0.00012323476100820885 0.0008340465963536181
0.0010663498273554516 -0.00858162217942874 0.0006554195600274157 0.00942950513913208 -0.0001957460264933805 0.004176309109896756
-0.001107719881974325 -0.004739657830170753 0.0022124686879775846 -0.0073936794016778735 0.000562540255327357 0.003072535929900112
-0.0029457707815807536 0.00025263455975039757 0.0017368110897359504 -0.010859272262905971 0.001004301644588154 0.0009432978611505088
-0.006095435027476136 0.0024396744767968383 0.0015742367654757758 -0.011455306766799579 0.0014716145725947813 0.00028191522473347254
-0.008686709598903521 0.0031326168091542522 0.0016305498044216886 -0.010898821199730662 0.0015065380075112056 3.2121105848758794e-05
-0.011421994649272207 0.0041671533844836505 0.0018183944588120655 -0.011037381674990587 0.0013577104919174434 -3.057102755068129e-05
-0.014388093005566073 0.005371740600467586 0.002049787515598094 -0.011456750565631826 0.0010613924927796081 4.339362632530372e-05
-0.017412744887318518 0.006628340576527224 0.002262495321751394 -0.012025503122244452 0.0006694511375751397 0.000282160741241169
-0.02085270787019909 0.008003578131390118 0.0024210641917441055 -0.012767696546846058 0.00031184056602604577 0.0007720003810470642
-0.024662050087831885 0.01047556628012624 0.0025177547829925064 -0.013794834781314477 0.00027250898843089445 0.001660967454100648
-0.02433314672854515 0.009404113068745161 0.0026668263629602337 -0.0183027879949486 0.0005709050521731151 0.0032369622352287305
-0.022131129207944265 -0.01017872087262759 0.0031908714126297625 2.1649606418233468e-05 0.00012546798750173184 0.004858721806276047
-0.02437538718001436 0.009399952942607833 0.002714551413527229 0.018348130176194098 -0.00031032645893024345 0.0032352320324997266
-0.024748193239139404 0.010468215199372523 0.0026127028677753123 0.013846655696630406 1.6063088617281534e-05 0.0016554867615305691
-0.020985142472455573 0.007995071467461118 0.0025611564815582488 0.012831593378334026 1.9895756131983163e-05 0.0007578464238309809
-0.01759246641714573 0.006622013200650385 0.0024417418047862293 0.012109512274368925 -0.00028590235222290827 0.0002494548780376994
-0.014612192641506904 0.005372957022135952 0.002254360944037922 0.011574013223519369 -0.0006288082033459039 -2.6322877498528656e-05
-0.0116785562859274 0.004186616357773927 0.0020209144477599367 0.011210208048311535 -0.0008966769726307383 -0.0001701502076232039
-0.008931578809073323 0.003172829814684736 0.0017831743188552421 0.011162715807899279 -0.0010712579952768643 -0.0002264120055917983
-0.006232904358042155 0.0024415733780935936 0.001602326179291571 0.01177541939645553 -0.0011772880475015728 -9.298333740296021e-05
-0.002934948222101532 0.0001940954144387099 0.0015422135094127316 0.011001150819185035 -0.0009640895266857543 0.0007432394876968144
-0.001032686417722839 -0.004420804922337304 0.0017237548593687425 0.0073461672931849475 -0.0006703519656059627 0.0036584996828660354
-0.002894949238637832 -0.0019642031433335714 0.003047466156185985 -0.00399498776841992 0.00119290647600838 0.00185825033311906
-0.0056488057607863105 0.0008311067050478157 0.002584809707509629 -0.00621350436116004 0.0019215897610191548 0.00041035988710668705
-0.011423354034266246 0.004015311170526509 0.002709533595720579 -0.006756073867647611 0.002707884822577191 5.519822842136298e-05
-0.017350691784665206 0.0062402098520160775 0.0031029985573651476 -0.006336368098502697 0.002647027902668066 -0.0001459365298934409
-0.02316544007572325 0.008480239577699233 0.00359966920658361 -0.0063531545481299075 0.0022090403458810692 -0.00025086305784117183
-0.029007334216054087 0.010814276756109022 0.004072267319167013 -0.006608137963209402 0.0014989170602209831 -0.0002922033492646132
-0.03493142044389006 0.013232536731761868 0.0044343099072856615 -0.006963526200382601 0.0006221509152523931 -0.0002538613717686599
-0.040758981014582876 0.015839945182539065 0.004623815061430753 -0.007268033930000489 -0.00021251450697907406 -8.023378588591716e-05
-0.0480735569794842 0.01841925046520804 0.004634800988461628 -0.00808032256944402 -0.0006540330376886876 0.00029069013719371404
-0.05140046126990797 0.024319768590034693 0.004490404402343389 -0.010976926912767922 -0.00017943715198092924 0.001288139973366422
-0.05026187161330027 -0.007937027117996332 0.005046662343086901 1.3527090433922701e-05 0.00015926158116388848 0.0031242130839445334
-0.05144812296854419 0.024311883344345916 0.00455155295568924 0.011005219723643876 0.0005092841719064544 0.0012896241508769638
-0.048170183268548744 0.018404037752650947 0.004757219190392415 0.00811252579600565 0.001016591527671793 0.00029268689239992984
-0.04090588210728881 0.015818562128386685 0.00480653894378993 0.007307460132385439 0.000624813893471055 -8.018357597584283e-05
-0.03512691838032917 0.013206719425506616 0.00467262597968562 0.007014906617343179 -0.0001523935788788413 -0.0002608767395919325
-0.029241136592512772 0.010786644086438977 0.004353074631253362 0.0066791286689768985 -0.0009815711394412763 -0.00031647746001570507
-0.02340834544500326 0.008453836774064544 0.0038942805493599555 0.006458175359174885 -0.0016848051663732266 -0.000312547039495444
-0.01754441160180276 0.006209911362138037 0.003358105943260734 0.006489915846442734 -0.002204681958094976 -0.0002756847834093869
-0.011501853827645885 0.003960114851934108 0.002841952805076378 0.006912600800293837 -0.0024749687761362227 -0.00013630577948536637
-0.005613310599118398 0.0007908965560143921 0.0024969019647639065 0.006247956218138142 -0.0019352613731812459 0.00030900979713780076
-0.0028174384555067237 -0.0017821654911847281 0.0026960682508121313 0.003924255000120387 -0.0013216495953700977 0.0021858003888914615
-0.0038538340958837137 -0.0010325747763512694 0.003688461944034325 -0.0015572780294005593 0.002298472748046741 0.0009537689385722164
-0.007818463270960481 0.001168119893507352 0.0033783926215765355 -0.00248756450891734 0.003167252824432888 4.348582916901675e-05
-0.01669961236784174 0.0047810547901913185 0.0038362294374539034 -0.002577968069008836 0.0040477612050614795 -0.00011576437092785695
-0.02608141760916987 0.007778901876156598 0.004581225999960846 -0.0024826625721014084 0.0037807257937201868 -0.0002840211872000446
-0.03486731927395622 0.01061282863726451 0.005393236649438775 -0.002517441016549985 0.0029872173962521525 -0.0004277201860071575
-0.043538189592281194 0.01351508769524403 0.0061050389848358155 -0.002651143821342793 0.001797593237822735 -0.0005690144475618089
-0.052298827445278966 0.016461544889498185 0.006601922129336026 -0.0027841956088987038 0.00035074686150626865 -0.0006954755161776417
-0.06096240072237384 0.019882430591183005 0.00680497383380605 -0.0030798587813058676 -0.001078099153919574 -0.000789073292714988
-0.0687238853358915 0.021677316218801555 0.006661723032450964 -0.0032579540906547792 -0.0020047436775175362 -0.0007459625564812826
-0.07936115987256845 0.032759483756636586 0.006138778021779593 -0.007175387604433392 -0.0019145911911077251 -0.0004615410891407318
-0.0865035730520049 -0.006771541211647349 0.005903778985789786 7.035192575780398e-06 0.0001948797650931677 0.0021888222520724913
-0.07941526738551301 0.0327497915003295 0.006213962685488531 0.007190183760916241 0.002317861803461718 -0.0004583214233550884
-0.06883322250656489 0.021658288120979204 0.006812983453670812 0.0032750109887688616 0.0024471246728268643 -0.0007397745806739528
-0.06112765776231329 0.019854776678621 0.007032792738309644 0.0031010233971564926 0.0015801689431872619 -0.0007806456020980805
-0.052516572579219246 0.01642628062874697 0.00690346738684601 0.0028119020600908696 0.00022056477346319784 -0.0006865351641649058
-0.043792534252405986 0.013473346009440603 0.0064689815456004645 0.0026888413189040178 -0.0011694017646057815 -0.0005635666013172231
-0.035113840135489016 0.010563719940604165 0.005791325178632963 0.0025710158048864082 -0.0023570478628189267 -0.0004348409742671439
-0.026239398311908614 0.007714638080866015 0.004956593202030982 0.0025571417822103162 -0.0032743287139214193 -0.00031930392581574764
-0.016708941441044033 0.004697350746337203 0.004095381955282397 0.002655531658772078 -0.0038492709597490976 -0.00017714060224688756
-0.007730532702133328 0.0011267772617477836 0.00340766570338957 0.0025166129640295546 -0.003308064369298693 1.431631473667916e-05
-0.003748620592791411 -0.0009147991428250201 0.0034464500072667716 0.0015357366849474566 -0.002584634794210026 0.0011499304521896273
0.010694539079386138 -0.027342493902432423 -1.0672615135404184e-18 -0.01238109402052747 -0.006605222229667986 -0.0023365486967603473
0.013557170221925017 0.0013685559273074951 -0.001696688682665453 -0.005534850381925631 -0.0071271373690277124 0.0007323476862769929
0.019831545200748917 -0.006071599140387803 -0.0038428208626231845 -0.00197795034601478 -0.0066850466030653945 -0.00018297400045613564
0.027663209932535238 -0.007599387040117113 -0.005466833694399408 -0.0021499691696001094 -0.005940275951822511 0.00012514909695847274
0.03666530616602309 -0.010444172694076558 -0.007050839316994539 -0.002135248478793911 -0.004533835588983196 1.2843361916269244e-05
0.045754861849809376 -0.013100033700399359 -0.008489423507760269 -0.0021898094852770677 -0.0027118155891708846 -8.736854952257297e-06
0.05464977728705668 -0.015792741455395776 -0.009730404162310536 -0.002240490475839033 -0.00042164099532744696 -4.0998984780556786e-05
0.06330799478991533 -0.01846425408417891 -0.010682780629172323 -0.0023597597538802762 0.0021079400783486583 -3.248866184461159e-06
0.0717110279360038 -0.02120161934197515 -0.011238566451183957 -0.0024794625749890737 0.004076163077089996 0.0002660614692719899
0.07901822777268562 -0.024004748589594716 -0.011362840725675975 -0.001996448060911636 0.003724503779209957 0.0010220204368781144
0.08219785045049838 -0.025751352285729133 -0.011298098793006868 6.720409368382363e-06 -3.526071776724829e-05 0.0018137391327121874
0.07903798795482445 -0.024009615913221607 -0.011372975219615496 0.0020097840487937274 -0.003791059125253716 0.0010266728179133971
0.07175346592424396 -0.02121168014157451 -0.011260932380902759 0.0024923060543179 -0.0041302281155059135 0.0002752017396980908
0.06338007289180331 -0.018480340579629866 -0.010722077491924189 0.00237108977284856 -0.0021389496888661597 9.492802499914946e-06
0.05476541341545379 -0.015816659425833084 -0.009794931988545428 0.002248416022916291 0.0004299845966916226 -2.5840483501579895e-05
0.0459397130888748 -0.013135737099413286 -0.008593557466608897 0.002190243845944415 0.0027842638304720418 8.007197958773065e-07
0.03696790958770157 -0.01049948695817376 -0.007216059416325095 0.002126832306204274 0.00472575387724492 2.6246195755094666e-05
0.02815881932097283 -0.007687932215934551 -0.005737240080408318 0.002108766455349344 0.006270933141671665 4.853857430583714e-05
0.020744534818576646 -0.006245877084942824 -0.0042256764923933685 0.0019014961305275247 0.007548668106190914 3.613084349968531e-05
0.015603968808420026 0.0009940780241941968 -0.002397149349460607 0.005488439879690106 0.006378043127785374 -0.0008639166790415333
0.013575852611532073 -0.027813893463475046 0.0010237154685970855 0.007315716172207204 0.005388257183339968 0.00430461112375567
0.006401911226790292 -0.02407155823940855 0.001275240806069575 -0.007945282165748647 -0.0011124113433547255 0.00021894786200551026
0.007109954554435642 0.0007762357369176845 -0.0008961385983847391 -0.006902573792228669 -0.0023966563591259044 0.0006655734175343921
0.01171476618099156 -0.004162198469721194 -0.002437559833865366 -0.0054345705962680815 -0.0040773150960837605 -4.3698583772236376e-05
0.018485050153756354 -0.006112398383927555 -0.0037190129539101543 -0.005642910963985671 -0.003419137980873081 5.885558105319242e-05
0.024414790530913985 -0.008278082898123276 -0.004839612942439244 -0.005811220782983082 -0.0025478669060875533 -9.251655675731303e-06
0.03047427138676615 -0.010412503501909764 -0.005855425210204267 -0.00584320779249757 -0.0013884839326735515 -1.1341493444279813e-05
0.03639209427464344 -0.012541870696521365 -0.006717804009592184 -0.00589349600401099 -2.7324262804882856e-06 5.576589984546045e-05
0.042097821955554365 -0.014626183372770515 -0.007376113408012437 -0.006050805208371242 0.0014858322110654287 0.0003201958479659002
0.04750976002111529 -0.01675373943990112 -0.007768230186690849 -0.006273316066303597 0.002638401568231594 0.0010869978693501205
0.05210086024573175 -0.019269001130305226 -0.00787650323673942 -0.0051472667118174125 0.00243159736864889 0.0027600527000196124
0.05407587537588959 -0.02149146157820998 -0.007845258468384532 9.72837291039191e-06 1.3584867684885095e-05 0.004426317762448675
0.05212023632896346 -0.01927497809898674 -0.007880544833890859 0.005166424510783057 -0.002398245066027543 0.0027610542206345664
0.047551123372634715 -0.01676597696701427 -0.00777830704430797 0.006291190859919582 -0.00258627982136138 0.001087892338496042
0.042167250964143296 -0.014645355269175115 -0.007396720359616019 0.006065132816952192 -0.0014013237358050613 0.00031812816418010965
0.036501181082691604 -0.012569361960947262 -0.0067571752112934045 0.005899671054579613 0.00013523143008517 4.5014905438434074e-05
0.03064483639478551 -0.010451501725166342 -0.005927169166977412 0.005833062649037988 0.0015913846200644466 -4.259947479067155e-05
0.02468461766327464 -0.008335108660195894 -0.0049675318309324035 0.005773750079657235 0.002845734806261965 -7.454799393848005e-05
0.01893474284805656 -0.0061978866881381356 -0.0039329959712576055 0.005548738623004892 0.0038818456161250157 -8.9017281812204e-05
0.012497064176165841 -0.004331975363098793 -0.0028035802200947254 0.005193970480112577 0.0046598592215503195 -0.0001766546011637392
0.00789358923905323 0.0006789933188352808 -0.0013031567741032043 0.0063286184342437 0.0025511915163094695 -0.0004845610954669019
0.006972771559060896 -0.0242921792255988 0.0013014357411681404 0.004716165405414292 0.0007629458361366724 0.0045408993687147715
0.003549254836875431 -0.017386649063666798 0.001805994319862235 -0.010486436546129609 0.00017638935977287438 0.0043794138009137385
0.003137250043435017 -0.00022930046529330398 9.687963962648709e-05 -0.011987428785332934 -0.0005478473608824671 0.000658182272455125
0.004938475014718334 -0.0010767372459058774 -0.0010173990980222123 -0.00991327026075634 -0.0016452962885142072 0.00020068556900441429
0.008914513103620373 -0.0029931479786037465 -0.0017948005227722437 -0.010194663658611965 -0.0013974190720663314 -2.7841447929510384e-06
0.012182139821674888 -0.0040801788370526905 -0.002414751947721301 -0.01030515142460169 -0.0008856616750561397 2.1752000727235713e-06
0.015191407855005846 -0.005138981202063592 -0.0029443450674452695 -0.010345450696286946 -0.0002988323956378663 6.652326768772751e-05
0.018123960117990858 -0.006182018672916722 -0.0033804235326912514 -0.010370230588008116 0.00037941084246568895 0.00029275931800472354
0.0208442640429427 -0.0071082742575269515 -0.0037004452536955963 -0.010482903916398244 0.0011496411557157709 0.0008590927959218025
0.02345900805365571 -0.008019984641162478 -0.003881420699387516 -0.010847198542947386 0.0019935330286180277 0.0021893148511368124
0.026284995132104513 -0.010216292133361105 -0.0039015654247977964 -0.009382062615353683 0.002215535743186759 0.00495537307183235
0.027792997406662 -0.014127941783370193 -0.003830905826809614 1.426972686199916e-05 5.691105105615214e-05 0.008154451948968432
0.02630370572607708 -0.010224434496385954 -0.003899333298119663 0.0094100516748753 -0.0020937748486177434 0.004953054677570576
0.02349844955562281 -0.00803643347900127 -0.0038786878902123127 0.010872890276509846 -0.0018481389717267083 0.002182651014337327
0.020908947173503462 -0.007133311811491035 -0.0037012084528632206 0.010502423094253362 -0.000965586757798455 0.0008431539624424178
0.018222362976599144 -0.006216077369372301 -0.003392049099191174 0.010375595789007073 -0.00014274370645144796 0.00025735294593500093
0.015339194054630788 -0.005183586468795016 -0.00297965816235929 0.010322565946836254 0.0006003416325359235 -6.016616100027039e-06
0.01240912944929269 -0.004138397444301415 -0.0024944950426991548 0.010231524944578768 0.0012646437642362361 -0.00014148547392664877
0.009282234622430718 -0.003075485366068231 -0.0019524154139357421 0.010027062144080464 0.0018679225013129212 -0.00024147893260271694
0.005407806807094687 -0.001174474474927659 -0.0012897684658579917 0.009521193895948243 0.002121392769098671 -0.0002790371541873564
0.003483229865593813 -4.697223128086509e-06 -0.00022089350489572457 0.011195087515001782 0.0006450792997213182 0.00020807284165720916
0.003761569995190923 -0.01738297369531941 0.0016270641159031281 0.00957799157347566 -0.00039420608357242293 0.006137040872451124
0.0012030659647350786 -0.010964947077419834 0.0020991516937043033 -0.009915130687511068 0.0005694882236181654 0.0048015862560939985
-5.6651027146750787e-05 -0.0006089901813838433 0.001016744192213946 -0.013169846761084455 0.0005438438053253683 0.0011806185253790792
-0.0010111242209123847 0.0009265525053365802 0.00041309228154974516 -0.012522341372315364 0.0003402446970894027 0.0002978810594288802
-0.0004184097297427793 0.00017589964297306724 0.00018265614892260527 -0.01182836408694512 0.000475637985736129 7.368925212412132e-05
-0.00010679087173472645 -1.702786998575849e-05 0.00010014953311498339 -0.011826682648936522 0.0006389026752571664 6.314527010172395e-05
-8.517940848496189e-05 4.128462008278726e-07 7.783297089542285e-05 -0.01185295703859899 0.0007250747523649548 0.00018717455913302378
-0.00011874503814110504 -6.479509854540521e-06 9.017762096832997e-05 -0.011880772445695539 0.0007844856803656258 0.00048740707163940017
-0.0003471855477543812 0.00014425613619080855 0.00012891443440677882 -0.011798904404500207 0.0009369816016736635 0.0011301209962413543
-0.0004941778131215735 0.0005202074930063569 0.00017525800842717662 -0.012176429615581902 0.0015877530758731662 0.002509875929062114
0.0009508203126973606 -0.001410944190403335 0.0002440817399215186 -0.011917917612129805 0.002454278885482395 0.0055246386493099705
0.0023497916301017233 -0.008828057411155311 0.00037354457933552835 1.551652210914679e-05 9.80384007621839e-05 0.010469702985896083
0.0009687059891831815 -0.0014211989218260253 0.00025271555442744686 0.01194833230842271 -0.002248652619519963 0.005521357184766253
-0.0004571333844200335 0.0004997025395489905 0.00019113291930943278 0.012204263698705932 -0.0013541668472216361 0.0025009914086071895
-0.00028832369132239294 0.00011371420737486914 0.0001487334629939362 0.011819794943087917 -0.0006594193517059753 0.0011099440125601867
-3.340601754018397e-05 -4.6408179440197585e-05 0.00010762912487671007 0.011885643483397856 -0.0004520205916247956 0.00044462068268225037
3.5338110853417326e-05 -4.805194390065369e-05 8.176149629676256e-05 0.011824889083047215 -0.00033547915991213845 0.00010022114141331788
6.898114332165944e-05 -7.454807936105278e-05 7.169889667811054e-05 0.01173700172811608 -0.00020155888051840554 -0.00010303610638390975
-0.00017091924101093564 0.00010680306378201854 9.223440956057062e-05 0.01162717978852979 -1.865965110599706e-05 -0.00022710581983035965
-0.0007590955407061955 0.0009256976282790123 0.00023387124089485332 0.012118776903510898 1.623322513540697e-05 -0.00018776591114098577
0.00010501958328434359 -0.0003699647549814106 0.0007777655039560925 0.012746842198453576 -0.0005140344150191755 0.0008876918757479639
0.0013067649626827584 -0.010996552196878968 0.0018967105747009193 0.009621008930817581 -0.0007454085824497236 0.005852244425056
-0.0009255548549540327 -0.005691448964561142 0.0023687081161782235 -0.007507141342510424 0.0009607027915623809 0.004152803351646003
-0.002977890395511009 -0.0002286818542761957 0.0018596501520704966 -0.011156689081031195 0.001551115148353276 0.0012039285630312461
-0.006567490824253445 0.002483076525463319 0.0018124532209748906 -0.0115332563763687 0.002192079175089951 0.00030929995341983556
-0.00949468249363241 0.0031849294780143694 0.0021471850626862262 -0.010484513423674839 0.0023425764692261947 3.789786293487654e-05
-0.012384344656496933 0.004083258716798649 0.002611491781096777 -0.010267538398356316 0.0021803973981945352 -1.3680515950421511e-05
-0.015390951547740318 0.005139887861969998 0.0030977875105356397 -0.010321381521815125 0.0017625554181882354 6.815485485787165e-05
-0.018338647632270364 0.006199980268635374 0.003559972784266682 -0.010346041059445433 0.0012144356054133915 0.00031822912217584047
-0.021386703550879894 0.007239015913588613 0.003961205270505231 -0.010253606677001634 0.0006769602952843138 0.0007767078856511987
-0.024477757126622438 0.008960346812638322 0.004231863307688536 -0.010081586067217171 0.0008454070812378559 0.00175537079213603
-0.024524367966196173 0.008507377233419355 0.004308165371063099 -0.012745832890644293 0.0026120753068089955 0.004037979499530499
-0.0230829189308361 -0.005283180467689347 0.004434874903991502 1.4610930881045882e-05 0.0001400443042018111 0.010950380298476831
-0.024507274730605703 0.008494940462325174 0.004323281901451972 0.012774592794068599 -0.0023206853762448064 0.004036151777857653
-0.024443066364538336 0.008935657481189891 0.004261077380112934 0.010108319347879806 -0.0005212918271269142 0.0017496917018983886
-0.02133364445481798 0.007202771159129436 0.004001970150071394 0.010274632446510964 -0.0003028481699537314 0.0007622387559120192
-0.0182665432741556 0.0061539983271944486 0.003607138452090931 0.010353433755637041 -0.0007820513254012684 0.00028497490026204196
-0.015298287763101659 0.005087586568203979 0.0031418378886788685 0.010299449523501886 -0.0012802566545850255 -2.928333874637074e-06
-0.012267422857287422 0.004027923697708675 0.002635885902474066 0.01018808724373801 -0.0016817861177419514 -0.00015742454570512725
-0.00936083541992381 0.003140404366527974 0.002126421380587554 0.010301323089167135 -0.001898121428146785 -0.0002308994598746783
-0.006458799602545258 0.002516229014863584 0.0017204530031589861 0.011249938786052951 -0.0019273050243209917 -8.441431963388617e-05
-0.002911913568181059 -6.117930030484725e-05 0.001700122183993766 0.01097501621301484 -0.0015608601870059145 0.0010023837083924993
-0.0008735663882142476 -0.005720019501775279 0.0021938211737164075 0.007439306013720531 -0.0011056852332351455 0.004849578537867509
-0.002723598390739262 -0.0022599402370865568 0.002747961482870019 -0.003925863467498321 0.001721683337135278 0.0026957283522177473
-0.0056800710529029234 0.0005620506493900768 0.0026618819210972623 -0.006237504700061663 0.0028699242835415143 0.0008193611983225449
-0.011975614408996011 0.0039741519999662335 0.003148687084247753 -0.00665328532853323 0.0042380941875073685 0.00028242203794234794
-0.01846447125185513 0.006203851383192383 0.004034562331857666 -0.005964986191687969 0.004398373937158562 4.466982893453552e-05
-0.02466322006614926 0.0083105333779316 0.005026179073085707 -0.0057701652692254135 0.0038810180080995084 -2.0641734399910088e-05
-0.030705662578944443 0.01044015366175308 0.006000322631651301 -0.005816266529875598 0.0029045579930357833 -1.1612388448830817e-05
-0.03663368006045859 0.01256226707732387 0.006895643807395132 -0.005870301101074291 0.0016404447230323914 7.30821414554825e-05
-0.04218829397297539 0.014698342719818467 0.00764377788488682 -0.005761322579786782 0.0003526076212508853 0.00029589776488785893
-0.04828082573906451 0.01659266194225736 0.008138344808520399 -0.005943148846131696 -0.0007897486659967799 0.00046409884536598406
-0.05078630237160064 0.021049744769491185 0.008062697506018221 -0.008050125755043078 0.0016483493457488086 0.0015091012873523976
-0.0498151944608434 -0.0024831823841548186 0.007859410290644455 1.013294319830607e-05 0.00018602054453717263 0.008060865244308463
-0.050769796048337146 0.021034965642073175 0.008084322495811815 0.008070210998901305 -0.001262799079535021 0.0015108804125782132
-0.04824798138643173 0.01656343073441298 0.008180936730990745 0.005962306619878431 0.0012142074173248246 0.00046655280739209086
-0.042139998932013464 0.014655753376337916 0.007705496931306521 0.005777531754230539 0.00013044904219801102 0.0002962464905373849
-0.036572637680356755 0.012509142619453656 0.006972362930466824 0.005878922266576064 -0.0010916947905821853 6.557311595692099e-05
-0.030637993985732893 0.010382120044377751 0.0060838717913020285 0.0058078775494514795 -0.0023073692991416647 -3.855377879231531e-05
-0.024601287307768636 0.008257721530293968 0.005101970781658284 0.005726158509395927 -0.0032937322308616854 -9.01001946944413e-05
-0.01842851517648207 0.006178213343554359 0.004079528343011175 0.005861435024390847 -0.003934117134553705 -0.00010171201479310629
-0.011977738219414648 0.004014471464087899 0.003134617181387725 0.006513798705048265 -0.004037284976733773 6.750699051735393e-05
-0.005687964311135844 0.0006627404000094723 0.002576238166673088 0.006175863859075171 -0.0029336388185756024 0.0007142302199291138
-0.002718182314253372 -0.002256991143568787 0.002616516271705344 0.003911642323584385 -0.0018859513661574662 0.0030944919597296213
-0.003659257481169121 -0.0010942011489415292 0.003334305900783494 -0.0015036750495985769 0.0032915543062006 0.0017470882680644469
-0.007838965545337964 0.001006001121679325 0.003463835217578139 -0.002440928018540465 0.0049434650270017595 0.0005696205618699458
-0.017377479354049475 0.004735932652436167 0.004379520442312111 -0.0023971843516431474 0.006879686297018411 0.00030656236659344665
-0.027572530841828747 0.007750529325771656 0.005749798574243688 -0.0021736405039926372 0.006936475303508149 0.00012699484894314631
-0.03696829251803387 0.010468858154229776 0.007209095258304044 -0.0021252291087853104 0.005963882917349397 6.318805783610553e-05
-0.0460175262546322 0.013154346392674847 0.008619538156193396 -0.0021746961706564935 0.004293704528061442 2.049099608669597e-05
-0.054912627923120017 0.01578465200585441 0.00990324212870049 -0.002202398312612582 0.002160195002991027 -1.1660270632922167e-05
-0.06338060354897695 0.018635601738533125 0.010965010940728447 -0.002302251527414042 -0.00019943873524069127 -5.8679749913370725e-06
-0.07036653656002115 0.020039154989748675 0.011662023434351538 -0.002370196984825116 -0.0026287257551038156 -4.289683661117075e-05
-0.07771081376330645 0.02816217728704348 0.011420280731387839 -0.005745534322445653 -0.00392164358612273 -0.0009291369579505654
-0.08212768194004709 -0.0010318059591919685 0.009535836301216773 4.864284945980913e-06 0.00023933169048814145 0.008571166427025009
-0.07769465169209748 0.02814618122386398 0.011448354011262917 0.005755275349099996 0.004416822805239204 -0.0009257997170455922
-0.0703348328762852 0.020007544751092704 0.011717807554945328 0.0023798233609787257 0.0031715050491776123 -3.679566795601716e-05
-0.06333533654207286 0.018589646513428426 0.011047199328982009 0.002311087541104422 0.0008139791573634955 1.5491055753700557e-06
-0.054858744759611916 0.015727562468321195 0.01000834790293947 0.002208662373849218 -0.0014651483679001436 -5.9048297964739275e-06
-0.045966654163092084 0.01309286965121687 0.008739956283406063 0.00217460788918045 -0.00354015220535471 1.850242879623476e-05
-0.03694594386177455 0.010416564032833291 0.007330567784423921 0.0021107968054072126 -0.0052304853163492974 4.118059623619248e-05
-0.027617017005025703 0.007732353653411557 0.005848902497551045 0.002134178871131746 -0.006384510080309358 6.62758423966152e-05
-0.01749346273905685 0.004778755463607214 0.004424930697163607 0.0023395838813759775 -0.006715378134706302 0.00021406703220246815
-0.007941507600036021 0.001081212950398354 0.00343640485358529 0.0024120481706592263 -0.005151185783883525 0.0005285648694745971
-0.0037207513676437735 -0.0010715652744286495 0.0032537629122377353 0.0014801087757598894 -0.0036334321630703244 0.001988341497193717
0.011433078273482 -0.04248886251117356 4.851804721872632e-18 -0.024070539005982196 -0.009923478562437376 0.012504758104943161
0.01376581384646366 0.0044168010044918745 -0.0015927630397293193 -0.010692603028571406 -0.01032916522357626 0.0004252514683964426
0.01918203227266751 -0.005990622699483869 -0.0042008069463899895 -0.00504078287239597 -0.01009087723161089 0.0035077799444553585
0.026975364322357687 -0.0070373838871065336 -0.0059059633951506875 -0.005198163764181738 -0.008978677971812055 0.003806074568381569
0.036617259651356336 -0.010122422440008695 -0.007811479480803962 -0.004899127271829596 -0.008023686412781627 0.005227384303755961
0.04639560208377518 -0.012828077464555054 -0.009645296428209658 -0.004445076492673782 -0.00630214431749032 0.006446026983223595
0.055933207530401916 -0.015559989862387633 -0.01137035558933179 -0.003713018957172968 -0.003930720276855939 0.007698237090137158
0.06490157613820743 -0.018180956036203882 -0.012879895221830546 -0.0027065830616410298 -0.0009580632542240675 0.008928694095364478
0.07242662636836253 -0.020456984339256884 -0.01401962328549809 -0.0014087016659356006 0.0019396382171547604 0.010197128956941855
0.0772167857236573 -0.02178079608384129 -0.014648186666882406 -0.0002617444233723042 0.0027615128490777853 0.011560014941832484
0.07877294967119713 -0.021855982078829533 -0.014821254369845886 -3.205910343066255e-05 -6.638181456897451e-05 0.012489616562637518
0.07727549758694842 -0.021799501193818398 -0.014662018232975882 0.00019596168075917573 -0.002893110518592431 0.011563239695058148
0.07255533989805292 -0.020497889316061703 -0.014049466557840598 0.0013379273833098292 -0.0020673842450985133 0.01020352112186709
0.06512436905797209 -0.018251432373980966 -0.012930594445485439 0.002627372578445813 0.0008383291073253814 0.008938417631933718
0.05629015997500823 -0.01567177070270159 -0.011450114282980265 0.003622200044344651 0.003825148690887754 0.0077099777292007395
0.04694573455225044 -0.012999033287408722 -0.009769085678157869 0.00433817640429867 0.006224291965400644 0.00646448012639101
0.037443980991122554 -0.010373096567093894 -0.007997565777620478 0.004776603053228649 0.007973889873204288 0.005229151358744686
0.02819070178927841 -0.007397474835908704 -0.0062162503014753364 0.005024701190459582 0.009036116279324474 0.0039035086168604446
0.02114556818979147 -0.006507421265033197 -0.004572664363767042 0.0048307469686584385 0.009932874630212023 0.0031842427055655915
0.017991958426246173 0.003698820478470809 -0.0027299281570456984 0.011094365745345 0.013281823079550288 0.002339343094984642
0.017399479684910343 -0.044838793327085374 0.0035788217379363265 0.014468573111513762 0.01739721573251305 0.004850060625670634
0.007022727389954064 -0.03688579278879065 0.0029682613603407 -0.015449875210371795 -0.008198933793384537 0.0071882468696954525
0.006342167304495921 0.0029495515687305153 -0.001041653073015699 -0.012801564013612467 -0.0068652157168539105 0.0021560753161390493
0.010125968990276386 -0.0036745026173351813 -0.0027166807263050816 -0.010651218734904447 -0.006228936322313262 0.003779590493467335
0.017587064772551213 -0.005644356734615675 -0.004200284831058244 -0.010787797484912515 -0.005507444501470073 0.004901281508718906
0.023880693539736896 -0.007964138469843465 -0.005559634564900529 -0.010545136797623129 -0.004779352669930785 0.006502571935530829
0.030396693666744915 -0.010173389109936181 -0.00690630258912552 -0.009685867705154803 -0.003766203190509952 0.008099349090646829
0.03672824123154078 -0.012352486418392065 -0.008153018316220714 -0.00841578791725018 -0.00235659483939666 0.009705290501068255
0.04268136487823343 -0.014479680211525557 -0.009239503242589086 -0.006563205762054587 -0.0006167533020626916 0.01136275824389023
0.047700458180724443 -0.016322166706640155 -0.010065619847282893 -0.0038768654206683467 0.0010968015273443161 0.013249468627253496
0.05093427714139862 -0.017125687770861223 -0.010561765934518628 -0.0010203860026093822 0.0016357080007689496 0.015616248004386596
0.052004483583082746 -0.016502321565481724 -0.010748621889723782 -5.71602466102459e-05 -1.590126561967294e-05 0.01745193942369588
0.050996005259058286 -0.01714514949219804 -0.0105731024194948 0.0009024253205844162 -0.0016643443797315126 0.015616586396591161
0.04783424570365658 -0.016364383028699928 -0.010090516430080307 0.003747801358306928 -0.001115835765810037 0.013249713166851411
0.042908751816778404 -0.014551447877139547 -0.0092827688963915 0.006414968358939691 0.0006138527339970592 0.011361991557396514
0.037083675174971464 -0.012464505694798664 -0.008223235595494817 0.008239385644685161 0.002377131912534141 0.00970161637674813
0.03093014720233782 -0.010341511580727315 -0.0070164390800091505 0.009471264824536096 0.003815010283980718 0.008091309315385379
0.024657848520369542 -0.008207905952359686 -0.005734969975918807 0.010281858984763654 0.004868779206386334 0.006481646203824964
0.018709910783732096 -0.005982794322061145 -0.00446090107637527 0.010432379225068846 0.005598596504706924 0.004897014383483707
0.011737361995967074 -0.004142600480352137 -0.0031765397629473146 0.010102658432439116 0.006486643956617709 0.003632423045242324
0.007797011619848655 0.0027631255117966224 -0.0014623430607683479 0.01207455575682927 0.007850760856210282 0.003092565247323107
0.008038107659752899 -0.038695723204365165 0.003687911638319312 0.009668079001720401 0.00970789486509447 0.0029196178542726025
0.003621211275959613 -0.025665483715345213 0.003245672140725053 -0.018139114795959164 -0.004992540240815556 0.002380741823703857
0.002126527148288321 0.0006154928772122492 0.00015553638553165633 -0.020793941429354493 -0.0039071846715260415 0.0033508197734559686
0.003146538556922018 -0.00011474047239563254 -0.001172953376054584 -0.01813718875253457 -0.003078988381974229 0.00431520590775536
0.007692320353133912 -0.002545656977644371 -0.002035649207385775 -0.018446247498322233 -0.002496942986042319 0.0062511401407981775
0.011402826362271568 -0.003775287025211029 -0.0027834218452526486 -0.017819759346134688 -0.0020421446765748618 0.008249946558079221
0.014752797377287283 -0.004929258232731618 -0.003492011808976278 -0.016448492817599036 -0.001545442040808519 0.010349606500008796
0.01805308707785405 -0.0060467243457111115 -0.004147302431323582 -0.014409484732903592 -0.0008789558929286713 0.012468426475669469
0.021240065637498952 -0.0072186891745613735 -0.004713400207982708 -0.011446270684895494 8.547791519570201e-06 0.014703420054756576
0.023961469910130824 -0.00826787586763455 -0.005157880284152613 -0.00687419124949488 0.0011367020367149482 0.017335201871105408
0.025358848906170843 -0.007898562179079893 -0.005485706269975108 -0.0014836570656553407 0.001737477776575271 0.020928446041787917
0.025607147230138225 -0.005231564501786349 -0.0056983805179480086 -9.13427430254747e-05 2.4439287940488497e-05 0.024311616674411413
0.025421470104556494 -0.007919233238813501 -0.0054942472526734775 0.001294911332250719 -0.001683773579535961 0.020926560370086313
0.024095912657230583 -0.008312126916694427 -0.005176982852467292 0.006666907086506347 -0.001068762523166463 0.017330865750199702
0.02146490241715708 -0.007292276941567589 -0.00474746276573604 0.011206778489482313 8.221722335646133e-05 0.014695271478298171
0.018396791863521486 -0.0061582728259157605 -0.0042037375996592154 0.01412196884027073 0.0009988777870631412 0.0124542597873424
0.015254280184439516 -0.0050913414749421924 -0.003582912545748048 0.016094325712195642 0.001696942920399007 0.010324490646684939
0.012110520648794523 -0.004002458071714592 -0.0029265969112628374 0.017375699838868663 0.002217493448809825 0.008213135081318762
0.008654919230607563 -0.0028486179130411985 -0.002261764196334631 0.017853000667636346 0.0026776837948139435 0.006177851902844737
0.004147307265086603 -0.000385335283564693 -0.0015197300027517725 0.017275103607986203 0.0033296891103742 0.004331406172411916
0.002795118300633172 0.0009760747068043379 -0.00014763405006633183 0.019644749178645993 0.004278502866614925 0.0034022732943718415
0.004058084899686919 -0.026770390177148776 0.0033978279031050044 0.01714557111327865 0.005478356663324003 0.002275390593228988
0.0009731257193048306 -0.015390130687018578 0.0028986229987115544 -0.016774112130928408 -0.0022521839932428986 0.0008395545392099184
-0.0011096735568701388 -0.0003262749109034863 0.0011273714441116995 -0.021990171055909835 -0.0012760299010575672 0.0029099901841381543
-0.002786724028688903 0.0019458576348967587 0.00041748599683549375 -0.022078405201865287 -0.0002012736343110016 0.0044616955835515915
-0.0018220028676909949 0.0007494732884206775 0.0002379760960532219 -0.0210775788541356 0.00033455733712416395 0.006573294240383055
-0.0010566897463215516 0.00031833099108441107 0.00017184109933918135 -0.020211067804668824 0.0004930463936383759 0.008756654025974591
-0.0007130575695990725 0.00022375465613855237 0.00013316820892170215 -0.018644630700018993 0.000536267039272087 0.010982606932587695
-0.00039448976484351473 0.00013240769488258685 0.00010728076680994764 -0.01636810176604167 0.0005754805314265264 0.013257825111349578
0.0001322721011596833 -9.354765498558216e-05 9.038197204616467e-05 -0.013167601651298015 0.0007251378698514586 0.015627732690135343
0.000722624327136639 -0.0005310544308943531 4.8912531124495535e-05 -0.007931261206865652 0.001403800443983936 0.018345899435264826
0.00016584824554729692 0.0009656504011418491 -0.00011942183622552061 -0.0004913486304650621 0.002282026308196656 0.022246561984385717
-0.0006206471852581183 0.007444762275088845 -0.0004387506451691565 -0.00010255692890812865 6.069222327607263e-05 0.027273207971864603
0.00022845613909420158 0.000944164843340736 -0.00012500723086503518 0.00027924484359401165 -0.002154263718475049 0.02224398798061296
0.000855799715174366 -0.0005765918136609242 3.6016563522365126e-05 0.007697777044308297 -0.0012574347218567883 0.01834010841251965
0.00035141649084915615 -0.00016797572958690034 6.649910402570887e-05 0.012897007414705237 -0.0005499011569975914 0.015617258839351602
-6.758231678130231e-05 2.238068744499336e-05 6.629781551831883e-05 0.016041923670601477 -0.0003655783355704705 0.01323980078195582
-0.00025213752994244544 6.931242921317384e-05 6.581499399337371e-05 0.01823971589040903 -0.0002949286497725751 0.010952632754387273
-0.0004344763730981501 0.00010937533276312515 6.414213945063231e-05 0.01969549761893783 -0.00023940922318494795 0.008707049533426632
-0.001077813402072668 0.0004960888377418781 6.83087994294178e-05 0.02040358110970646 -9.850736067427218e-05 0.006504530977077584
-0.0021569271814872947 0.0018739453907149588 0.00017601564676935808 0.021227953572811622 0.00039627743061464073 0.004423891484012318
-0.0007487923165520724 -1.8714910955971705e-05 0.0009071946966737703 0.0214892982562254 0.0014396730578604064 0.002991501991344292
0.0012141308568767307 -0.016158594781696976 0.0029125104050026496 0.01661393386044146 0.00245559275841676 0.0013158838988831783
-0.0013654051486506314 -0.007373762749719818 0.0025342157092757426 -0.012748414699624917 3.3063390569765906e-05 0.0006629116656214531
-0.004048172027560292 6.662373764989714e-06 0.0018983872336438218 -0.018492634400941604 0.0011954840346552061 0.0022579072245536417
-0.008276373316611083 0.003455111086536025 0.0019549990437078228 -0.020315394890236246 0.0027121090816729938 0.004124819628687364
-0.010991858250807564 0.0038139127275066236 0.0024948778756018054 -0.018933982323389557 0.0032170861052608747 0.006192707356156209
-0.013498180734773737 0.004462939899376431 0.003126647239206796 -0.017836464374280516 0.0030631508763528867 0.00826918395085291
-0.016192349192646043 0.0053842395853279865 0.003757167825287407 -0.016437848224941785 0.002629209114512821 0.010351407921347564
-0.018854777254049035 0.0062852752094611445 0.004360558514124911 -0.014433816416648888 0.002069221408738087 0.012490881774367489
-0.021076749479022775 0.007143957457083174 0.004899775625671318 -0.011582706498460885 0.0014036587602977788 0.014639448989509965
-0.0224441766627609 0.007221070981795975 0.005271289311826113 -0.007362149524073724 0.0012494294768000778 0.016932504954857625
-0.024943116400105103 0.008805793205767043 0.005220758508633876 0.0018925076874623493 0.0025539109021023455 0.020107003219519772
-0.02697678872779005 0.022250964543965336 0.00457640007337393 -9.231175395438035e-05 9.774919176377912e-05 0.026663119392282872
-0.024880254196075483 0.008783451520703464 0.00521812111595168 -0.00208352337086917 -0.002350312253281353 0.020105292268486587
-0.0223117593105141 0.007174154714752737 0.005264617359612857 0.007151620934123151 -0.0010223801589936976 0.016928549207906436
-0.020862590187821585 0.007068483677859788 0.00488613738699387 0.0113384447898677 -0.0011408643993355105 0.014631981714288448
-0.01854424497004245 0.006176533883786792 0.004335277040922154 0.014139212398240003 -0.0017653135204628633 0.012477484135490694
-0.01577313714091615 0.005237992831056159 0.003713615229664574 0.016070773248003073 -0.0022927933297362283 0.01032785233895154
-0.012975492830497733 0.004276424618795766 0.0030557474200472875 0.017366265817753003 -0.0027260418532768873 0.008229832247966093
-0.010442320523040415 0.0036264751198404003 0.002385197234746885 0.018332975190417825 -0.002938850546157239 0.00613934629780329
-0.007874100333723422 0.0034381304577192576 0.0018040819816001216 0.01973290076797974 -0.0025565106856308213 0.004088922470795407
-0.003844956944460979 0.00018525015715121988 0.0017557742003214984 0.018354672864426318 -0.0011320256254151125 0.0023580135892243463
-0.001233815254737123 -0.007815891383700055 0.0025112757238299737 0.012839551163059367 3.5802152461248196e-05 0.0011083809601500193
-0.00320939960853054 -0.0024172000447847206 0.0024320651376860043 -0.0070584381607813685 0.0020412931849152667 0.0009714412898181449
-0.006671481711427228 0.0009030284525557743 0.002569630296090924 -0.010654464287689142 0.0037229882142529023 0.0016208873866069974
-0.013569240916165431 0.004799957997969187 0.003370719210045042 -0.01220478410462094 0.005937181488308107 0.0032409158147658854
-0.0200524126095755 0.006801056049315135 0.0046114939526414635 -0.01134928842463411 0.006412730437813665 0.004890285418304707
-0.026036693300621454 0.008690495035643151 0.005904075663378082 -0.010564966440581969 0.005885559766446418 0.00649714560795776
-0.03186216996819931 0.0106513412919197 0.00716508768759265 -0.009685980525778123 0.004900198782574975 0.008097768369325405
-0.03749559821701938 0.012590754127461629 0.008362184480896411 -0.008441128326902214 0.0036144574149540023 0.009716557933571074
-0.04284897418029826 0.01438020715990808 0.009439702414124318 -0.006763357655182389 0.0021403054405657964 0.011359681642818741
-0.046291500754180544 0.01613470781853279 0.010233438702227904 -0.003924354761793791 2.229170083385229e-05 0.012731149621980792
-0.05021204977414262 0.014745531504958722 0.010244637736875846 0.001994839376623015 0.0009972079378224225 0.014547303561874052
-0.05328290779739016 0.039281560794753194 0.008751216867958558 -5.840474101422846e-05 0.00014057803526390023 0.019333139625162584
-0.05014737529412719 0.014721742744942413 0.010244778321999068 -0.0021156613778055356 -0.0007057600647277623 0.014547843937846333
-0.04615668866591934 0.016085261149573177 0.010232599376846412 0.0037913356568997814 0.00029885577396777154 0.012731948254801716
-0.0426349739439142 0.014302032263329493 0.009435567699693337 0.006609451658493137 -0.0017742579710886192 0.011360029313153998
-0.037194629249367485 0.012481320492961993 0.008351188640431608 0.008256413660265475 -0.00319777301038289 0.009714969101979202
-0.03147843518575262 0.010511457228326847 0.007142663016652388 0.009457724251042004 -0.004446139840574455 0.008091505835760418
-0.025608244086686573 0.008532249616274542 0.005865503178543887 0.01027480217417616 -0.005442081355026634 0.006482812470192486
-0.019674055818452225 0.006674192740444892 0.004552781683595074 0.010997882448128488 -0.0060760926068580984 0.004868286218548684
-0.01335173923714291 0.004804152102342311 0.003291039056382601 0.011921420928914905 -0.005808853752498596 0.0032315051487102993
-0.006598104077905309 0.0009995042990814794 0.0024911596856094717 0.01065172667148715 -0.0037478724344072664 0.0016919109350620025
-0.003176181070071789 -0.0025912212477279895 0.002405059257677283 0.007151487853389687 -0.0020904064251603465 0.0012602655090812305
-0.0036367246544790803 -0.0008188915998842846 0.002776298951681691 -0.003480277632766381 0.0040866330897592965 0.001172455761793151
-0.008255393252321799 0.0013914987143193005 0.003212767042200749 -0.004990754947593663 0.006611104791891017 0.0013556425957580295
-0.018663999459156397 0.005452507502264601 0.004526532563558063 -0.005611039231202368 0.009809692049326496 0.002691458810114855
-0.029382481969967428 0.008313217593622312 0.006317675552583245 -0.0053949954319049975 0.010241727732580619 0.004005630327392087
-0.03886127864950474 0.010836491805446102 0.00812934169023902 -0.005016684245501676 0.009231728139582385 0.005251729820342412
-0.047886679449004474 0.013321528435606474 0.009893830456330526 -0.004500811621883137 0.007536706733391542 0.0064847213544926684
-0.05667306437931216 0.01582423894279188 0.011576550140638037 -0.003824403445184362 0.005320797739810551 0.007735312735965659
-0.0650099324189287 0.01794437805795419 0.013085860032036375 -0.0028033077728290843 0.002689673756731851 0.00887905349379418
-0.0729292385418157 0.021113567472930615 0.014290794325037937 -0.0013718206570946644 -0.001089220695482304 0.010233426892247568
-0.07660383739795704 0.017137322300945737 0.014358122718407203 0.0038125399297514947 -0.007908987182126374 0.009190324848144454
-0.07636765571991808 0.048265185003192226 0.010827600054112669 -3.773869447130408e-05 0.0001954726985258959 0.018953082357795564
-0.07653420044513544 0.017112580822208685 0.01436074069325251 -0.0038905026131795355 0.008313279446329234 0.009191427708719006
-0.0727856722299594 0.02106240633436976 0.014295044552952047 0.0012864613244983293 0.0015320223768670368 0.010235318171949885
-0.06478630530861085 0.017864236214602695 0.013089683711889162 0.002705799466693338 -0.002188688957586357 0.008881018163570188
-0.056367948068458434 0.0157136395581762 0.011576734001799045 0.003710472384258352 -0.004754208840280716 0.007736055085898562
-0.04751989789998856 0.01318424672880623 0.009886340068366133 0.004367305973034046 -0.006921928986702413 0.006482320548745456
-0.038505727135696485 0.010692601466287529 0.008110647074895698 0.004862165210683827 -0.008635038642559394 0.005244882939883514
-0.029174334934058327 0.008216734934561572 0.006286023544284469 0.005230704027295186 -0.009805895483388446 0.003997084176201846
-0.01868383559490181 0.005472824942134337 0.004481050606681022 0.005492848891361736 -0.009703179451921262 0.0026969678553105322
-0.008369256834096485 0.0014663595934623803 0.003168594356748003 0.004997856519243877 -0.006769613663370722 0.001404439644675208
-0.0037310756082126247 -0.0008797220187972568 0.002769309758963648 0.0035084965121985057 -0.0043098060033412815 0.0013651434038664284
SCALARS Stress_vm float 1
LOOKUP_TABLE default
9504.580653314464
4359.395961790768
4714.757377144664
6525.444954665736
8706.219528098416
10906.849894102175
13074.638239416494
15133.864191525996
16881.20623554317
17967.52815921266
18252.170876243028
17981.42530444387
16910.77108867028
15184.085999968704
13154.34303188079
11029.33507186805
8888.490551494067
6792.729802590004
5109.000639252976
5132.590869355353
10270.511744668698
8068.995752842835
2538.237607959373
3357.846003695762
4809.79143931306
6268.385869500024
7745.411322701459
9213.585612614354
10627.451899672224
11849.871469406173
12606.052380061317
12747.5891680672
12618.757082233835
11876.906504219292
10673.041759218135
9284.489777078548
7850.7213365640855
6418.417572461175
5011.727125580575
3589.9654737262513
2683.365441686112
8393.36056439513
5948.687112935745
3141.002796825688
3095.807241367997
3649.6783485934443
4239.886237429007
4872.872706606392
5549.4564096541935
6271.423378230147
6956.472035859716
7307.739797638138
7181.3084052941595
7316.289554778496
6973.507785576694
6299.118837611677
5590.679775759329
4929.279305407922
4307.498297286188
3702.504324954988
3071.462892473966
2942.557374686423
6104.386188026451
4059.862926153704
3452.371854543991
3607.958510984451
3407.132453340252
3315.774987111474
3240.0341263428018
3285.6158203432256
3561.830181566104
4147.8392424056165
4611.172172145699
4364.474439037848
4604.9413090025
4138.676541722827
3542.6508280414528
3248.289323176713
3176.677565658556
3220.4393586671426
3270.4015143988913
3434.7998868863674
3346.2000090523743
4159.777694361127
2524.606770635232
3109.604165422085
3931.3218576559384
4190.743510903405
4601.537314815692
5130.345342871508
5694.3320109782335
6202.231398850487
6689.473043604006
7529.442601445245
8555.38063057663
7513.486105126087
6656.708344257166
6147.71537813807
5614.834014048871
5021.112690996385
4459.0662927283765
4025.4047628030003
3798.6881791610926
3067.7666952071186
2577.6377358003115
1536.3277468201948
2451.8176833261527
4108.2324552951795
5451.513681242848
6747.045223299744
8073.778544859984
9393.206332600432
10642.669439813784
11606.858843240208
12535.487722861331
14754.336580465762
12520.775217625624
11575.807659387265
10590.983268653026
9318.684675298595
7975.512898285198
6631.746119433757
5343.832085428252
4048.655523822762
2442.11614078431
1552.2138475051154
1326.2164100838806
2362.532507154425
4817.431283309706
7156.482083388637
9237.071816011196
11262.193440910398
13260.650434160667
15154.921745714362
16982.68058460763
17994.738198717463
19643.396240686106
17984.600612214843
16951.824728041218
15103.40780353788
13187.208317278297
11169.518603775768
9140.415628511206
7091.287900645348
4817.914593320411
2393.4689316613353
1357.727486186427
6196.605618634925
3660.034086763449
4680.976589953029
6519.145071719859
8576.49721615214
10648.741320514906
12683.760807530858
14662.087449754361
16580.888416119167
18295.162233947467
19135.172401685468
18300.440273712586
16591.830893324357
14680.175710687365
12712.452514451723
10694.744865739836
8652.689398921348
6646.055174850863
4925.697702975663
3965.3191259940854
6496.7990427215545
5249.11604079016
1992.9811763045225
3167.528775698798
4634.857993362228
6065.20086213697
7496.789133138764
8904.600054877093
10261.164601418961
11570.264466231045
12811.835716630663
13554.071237693524
12816.20369317622
11579.633249365399
10276.991872305529
8929.726929373888
7536.511820387341
6128.704882289158
4739.779539713828
3323.365344705485
2107.8122576451788
5345.929938887829
4008.5078684502
1851.1943702415117
2154.766845721762
2873.2085003889797
3598.5421751964623
4319.502372315081
5026.478893681065
5681.300484602572
6357.018100864158
7335.6759296865175
8336.7685280744
7338.815122017889
6364.342018780563
5693.647980888182
5044.9797821400525
4346.441129955316
3638.0747107526395
2926.4148433311548
2196.8138884353275
1751.745714076372
4013.438950743255
2830.8868537529006
2057.365694238177
1991.9421046655618
1851.0725815589449
1897.7816658164065
2035.8785320228885
2249.648522496649
2483.4523418137314
2719.2081447186856
3486.015787449385
5471.379208639545
3483.8260603204403
2715.6083604559526
2481.2327921717238
2246.675075712141
2028.379384488157
1878.4430540916342
1809.4816468961478
1907.7622286912767
1962.910688433632
2843.2300430670252
1841.1963595675948
1971.9860467135588
2597.222244650257
3048.552919085937
3663.656407012324
4367.788395735885
5086.0546199226765
5833.774356128757
6506.29149356452
6552.468681450062
7112.803258177483
6547.206488254524
6499.954049066729
5824.576839113621
5071.315005185087
4344.913802274131
3628.2319076569884
2996.923964682116
2539.5349226655717
1924.024480614398
1858.0546463871458
1274.9072580115055
1840.2494664681872
3323.4370208620007
4742.302781436041
6144.535541907153
7560.949401002308
8967.146068189362
10325.6448617999
11663.815596572098
12357.044327544236
11656.97095750366
12352.96298537703
11659.00691681577
10317.101849765266
8954.15679041017
7542.995599671281
6122.422857489542
4721.254164298002
3313.530946355675
1831.6629256574079
1281.8527511108923
1305.1371089677482
2118.4420328928095
4311.330708123361
6569.690814028098
8670.528938208327
10723.282006951371
12751.588199962212
14709.523724324436
16310.632079861703
17908.571219677488
17907.68023728763
17908.655360565463
16308.430485564619
14703.496413561848
12741.754780951638
10710.272939264161
8658.53252838404
6569.325146741852
4334.403887008293
2148.7683070320572
1331.4300479355693
5754.4152379271945
3633.245200042136
4512.278829541919
6273.224120116475
8229.80735897963
10170.258887664966
12099.998730566998
14105.047135173008
16361.973327380656
18758.21561323585
20056.510354106285
18753.48574170118
16351.687221002274
14087.720485074398
12073.240391842106
10130.447999556263
8171.538081709174
6190.812486759709
4367.451631456824
3356.9029277934833
5285.423864083221
4499.243026140036
1912.472561311876
3139.071261494017
4545.723378494704
5894.951282456085
7235.330935956195
8573.354553265328
9951.712986987935
11505.26385249728
13266.723061536855
14417.031230956778
13261.182368186386
11493.041543521398
9931.56320877239
8543.738118892306
7194.062297794043
5839.571925550656
4472.521235143443
3048.611500950569
1911.3344348290816
4271.162997879991
3239.2283960371165
1652.4338432195689
2170.192537077172
2918.6825537415107
3598.8727076654127
4263.816415235232
4922.08057358654
5563.345983415271
6399.494909480282
7872.402801159919
9393.982085502203
7868.6304500322785
6389.261480864665
5545.921350248911
4897.904462640928
4233.500107847743
3564.082946935745
2887.8940106750038
2177.630327697701
1788.174653815337
3181.9337140117195
2338.4631108984886
1912.3016856027773
1926.4602354141175
1895.8903332412729
1958.6771956805187
2068.814115408605
2233.0669296684423
2428.989864760331
2763.7706361016167
3597.7601891311715
7160.220257286008
3597.8596073515873
2768.929615634158
2436.539617848038
2244.6368567829713
2087.376298753476
1989.671578697061
1947.9123942707622
2015.1652861810269
1979.414698519683
2284.5621704544074
1612.2634781430745
1897.0357019438968
2477.5177931385465
2887.44803967145
3477.541382108613
4166.867452037211
4899.5981996574155
5741.333919023099
6615.594528207285
6599.509688860898
8004.811324792544
6610.944221809665
6636.28928986066
5773.143054999435
4943.076898935187
4221.769706796835
3543.2452790827533
2958.8940382471856
2532.810752596941
1907.3430390320555
1552.5738420462226
1233.2373679326338
1787.7940090752256
3153.714216595392
4444.372897982613
5763.201798942126
7132.231999308979
8532.18202332721
9961.14273383378
11541.367944706877
12550.685977750823
12310.512157908099
12562.335985188258
11565.185489762614
9997.17353483465
8580.244092466608
7189.773943325942
5824.067186428587
4494.926992721894
3175.457469847763
1777.2272955973822
1173.5743597107084
1291.4975810501603
2024.1497628514592
4054.720087552957
6133.178826610044
8104.16861045917
10071.868132014783
12059.685186024326
14058.042386114956
15787.02489068751
18245.08794362743
19319.97002534946
18259.3085404277
15816.174650552537
14101.619176331142
12116.945287787035
10138.55898173152
8169.796893651415
6178.597001627909
4065.833358345659
2017.595409831743
1251.9620024569383
5761.110764203603
3630.668822956226
4437.065467000331
6146.696417465973
8070.124641486301
9980.725542667964
11900.479289040877
13951.305942588235
16339.524954779472
18923.173725840636
20329.95268348782
18914.33024923758
16320.396285063982
13919.114176476945
11850.222476311674
9903.698866840947
7952.385132128609
5967.904592865931
4147.398054583903
3152.348606086666
5024.963529731979
4434.388326857949
1890.3704431233205
3107.038167031815
4482.011855223207
5809.274068451824
7133.426556627699
8471.993055674951
9890.690554203273
11540.34126050552
13427.753351327467
14658.625043372162
13418.311783189183
11519.483387304595
9855.936249861843
8419.753458496312
7057.797950518437
5701.640349399761
4330.579949002296
2920.6074465765173
1804.551717937154
4059.113555821651
3147.184783750858
1553.8163889244324
2144.9326041104305
2897.8840671407015
3573.5064610656623
4232.905557837865
4896.817056400112
5569.547996976523
6473.291162418538
8025.9110820103415
9613.416760572532
8019.713929011068
6456.617632145162
5540.906160136835
4856.28135206259
4180.120388082285
3508.658960716885
2833.094851391001
2130.5095386489847
1731.8928250111849
2979.3716683517655
2228.093676681363
1820.941141212697
1879.9870585521664
1895.5693970258144
1981.2125567250635
2104.107084389794
2284.877463828048
2519.5688989293467
2913.488087033059
3504.257929383377
7526.328822251833
3507.6080073726803
2923.4683084021335
2533.147092009219
2305.0207855376416
2136.903263632921
2035.942874543154
1985.2064349810062
2024.8119807961882
1931.4662253099186
2084.826395044255
1506.8577157550142
1816.3957403386712
2391.7748589506386
2804.8546498561495
3396.0325331361582
4088.1408570169347
4836.381425807525
5720.266748517727
6670.5289616307155
6712.602208252779
8085.0271165098175
6729.4732007698685
6701.531844282095
5768.2232849672255
4903.803456235495
4176.7970124640915
3507.378448427467
2931.931408441616
2494.846590174677
1846.2551077057549
1372.045557079454
1155.7981046744408
1690.5897402314297
3034.540984923974
4309.946862134312
5613.4096571542805
6974.148728313635
8385.454373895616
9863.239834665044
11549.249162109198
12662.961036989953
12314.839891008623
12680.106486123983
11583.945937638364
9916.437240923184
8458.089266263862
7063.802108484492
5711.9775314739845
4395.997772100065
3074.7434952423273
1678.4591326446252
1042.846302476029
1171.8858090988692
1867.9743154320558
3882.3576152336846
5938.322429479706
7879.136534746059
9823.997175397908
11812.404684628344
13866.260553251244
15722.18917171235
18377.163867703715
19407.894370992686
18396.48618883661
15762.632269703092
13928.252176997765
11895.918540583421
9923.847462940876
7979.944277434099
6009.170282717144
3894.6924495809326
1841.177458195219
1080.4314099857888
5754.415237933934
3633.2452000476983
4512.278829546318
6273.2241201183815
8229.807358981625
10170.258887664379
12099.998730569283
14105.047135175799
16361.973327383601
18758.215613241086
20056.51035411093
18753.485741705594
16351.687221009563
14087.72048507504
12073.240391841433
10130.447999544305
8171.538081703835
6190.812486755569
4367.451631452833
3356.9029277891623
5285.423864077119
4499.243026142792
1912.4725613139742
3139.071261496806
4545.723378496699
5894.951282458104
7235.330935955929
8573.354553267134
9951.71298698985
11505.263852499393
13266.723061540899
14417.03123096024
13261.182368187525
11493.041543529045
9931.563208772512
8543.73811889455
7194.062297787107
5839.571925547307
4472.521235140395
3048.611500947201
1911.3344348269811
4271.16299787496
3239.2283960381264
1652.43384321922
2170.1925370778863
2918.6825537424884
3598.8727076655737
4263.816415236103
4922.080573587628
5563.345983415523
6399.49490948381
7872.40280116231
9393.982085503269
7868.630450032279
6389.261480873535
5545.9213502496805
4897.904462647784
4233.500107845714
3564.0829469334485
2887.894010672075
2177.630327694697
1788.1746538132086
3181.9337140071034
2338.463110899467
1912.301685602781
1926.4602354134806
1895.8903332395705
1958.6771956803207
2068.814115410411
2233.066929668612
2428.989864758175
2763.770636106226
3597.760189131597
7160.220257282326
3597.859607352655
2768.929615641765
2436.5396178472124
2244.636856790742
2087.3762987546065
1989.671578695696
1947.9123942677877
2015.165286178534
1979.4146985173059
2284.562170450543
1612.263478143809
1897.0357019446103
2477.5177931385324
2887.4480396702097
3477.5413821082025
4166.867452037412
4899.598199656323
5741.3339190214565
6615.594528206579
6599.509688859963
8004.811324788308
6610.944221810299
6636.289289862157
5773.1430549977085
4943.076898937489
4221.769706789589
3543.2452790809734
2958.894038244857
2532.8107525941746
1907.3430390300496
1552.5738420427901
1233.2373679331504
1787.794009075695
3153.7142165958744
4444.372897982465
5763.20179894134
7132.231999306814
8532.182023326572
9961.142733831866
11541.367944707727
12550.685977750778
12310.51215790639
12562.335985188935
11565.185489763744
9997.17353483141
8580.244092465357
7189.773943317176
5824.067186425252
4494.926992718155
3175.4574698448337
1777.22729559543
1173.57435970862
1291.497581050214
2024.1497628516786
4054.720087554123
6133.178826610815
8104.168610457691
10071.868132010992
12059.685186024317
14058.042386112906
15787.024890689932
18245.087943628176
19319.970025349263
18259.308540429236
15816.174650555278
14101.61917632691
12116.945287783763
10138.558981721828
8169.796893645189
6178.59700162261
4065.833358342217
2017.5954098293164
1251.9620024545616
6196.605618642061
3660.0340867749564
4680.976589960712
6519.145071724957
8576.497216158004
10648.74132052241
12683.760807534341
14662.087449748627
16580.888416116875
18295.162233955216
19135.17240169095
18300.440273719225
16591.830893326663
14680.175710683707
12712.4525144461
10694.744865733132
8652.68939891326
6646.055174839066
4925.697702968312
3965.3191259867294
6496.799042706834
5249.116040792114
1992.9811763086386
3167.528775704334
4634.857993366716
6065.200862141941
7496.789133143833
8904.600054879756
10261.164601417227
11570.2644662315
12811.835716638489
13554.071237697506
12816.203693182242
11579.633249365736
10276.9918723049
8929.726929369244
7536.511820383185
6128.704882284519
4739.779539704368
3323.365344701931
2107.8122576414403
5345.929938875143
4008.5078684509012
1851.194370239341
2154.7668457236177
2873.2085003925595
3598.5421752010593
4319.50237231737
5026.47889368324
5681.300484603877
6357.018100866721
7335.675929697175
8336.76852807954
7338.815122024687
6364.34201877809
5693.647980891482
5044.979782137457
4346.44112995361
3638.074710750013
2926.4148433253763
2196.8138884335517
1751.745714072975
4013.4389507334276
2830.886853754089
2057.365694236337
1991.9421046627613
1851.0725815594647
1897.7816658174063
2035.8785320199854
2249.648522498313
2483.4523418121203
2719.208144714044
3486.0157874604797
5471.3792086469375
3483.826060325031
2715.608360455897
2481.232792174356
2246.675075712598
2028.3793844875922
1878.4430540911476
1809.481646893229
1907.762228688501
1962.9106884307337
2843.2300430593377
1841.1963595682523
1971.9860467126853
2597.222244649188
3048.5529190839534
3663.656407010982
4367.7883957323365
5086.054619920776
5833.774356118863
6506.291493560742
6552.46868145169
7112.80325818074
6547.206488257971
6499.9540490682275
5824.5768391146075
5071.315005180636
4344.913802272575
3628.231907653511
2996.923964674987
2539.5349226620347
1924.0244806113008
1858.0546463812902
1274.9072580125107
1840.2494664685855
3323.437020862829
4742.30278143504
6144.535541906659
7560.9494010032
8967.146068186014
10325.644861790108
11663.81559656542
12357.04432754425
11656.970957504129
12352.96298538055
11659.006916814013
10317.101849762976
8954.15679040463
7542.995599664966
6122.422857481636
4721.254164289139
3313.530946350438
1831.6629256542058
1281.852751107366
1305.1371089692936
2118.4420328941396
4311.330708125595
6569.69081402766
8670.528938208681
10723.282006955385
12751.588199957852
14709.523724314779
16310.632079851179
17908.571219678084
17907.680237294942
17908.65536056843
16308.430485558722
14703.496413557765
12741.754780944892
10710.272939252767
8658.532528371916
6569.32514673083
4334.403887000647
2148.768307027313
1331.4300479319163
9504.580653319836
4359.395961805242
4714.757377155991
6525.444954676323
8706.219528104079
10906.849894107068
13074.63823941727
15133.864191525234
16881.20623554461
17967.5281592177
18252.170876250326
17981.42530445389
16910.771088669604
15184.085999970946
13154.343031877419
11029.335071857178
8888.49055148151
6792.72980257859
5109.000639242188
5132.590869342455
10270.511744640402
8068.995752845935
2538.237607962511
3357.846003701586
4809.79143932025
6268.385869503755
7745.411322705754
9213.58561261601
10627.451899670703
11849.871469406766
12606.052380068006
12747.589168076718
12618.757082243525
11876.906504219782
10673.041759219088
9284.489777076531
7850.721336556996
6418.4175724534125
5011.727125574587
3589.9654737189294
2683.3654416792115
8393.360564371651
5948.687112939484
3141.0027968227623
3095.807241368083
3649.678348594217
4239.886237429777
4872.87270660725
5549.456409654395
6271.42337822707
6956.472035859131
7307.739797643186
7181.30840530832
7316.289554785827
6973.507785580776
6299.118837611126
5590.6797757574195
4929.279305405046
4307.498297283633
3702.504324950571
3071.4628924666267
2942.557374679186
6104.386188009719
4059.8629261568135
3452.3718545434403
3607.958510982419
3407.1324533352467
3315.774987106053
3240.034126338569
3285.615820339045
3561.8301815607124
4147.8392424047815
4611.172172141195
4364.474439043829
4604.941309003151
4138.6765417230845
3542.650828043572
3248.2893231782823
3176.6775656606023
3220.4393586659603
3270.4015143943034
3434.799886878065
3346.2000090439633
4159.777694350381
2524.606770637474
3109.60416542285
3931.3218576547374
4190.743510900649
4601.53731481155
5130.345342865834
5694.332010972084
6202.231398846706
6689.473043601385
7529.442601438836
8555.380630565096
7513.4861051198695
6656.708344257201
6147.715378141013
5614.834014050816
5021.112690993691
4459.066292724028
4025.404762797269
3798.6881791521014
3067.7666951997717
2577.6377357939214
1536.3277468217968
2451.817683327217
4108.2324552956015
5451.513681243626
6747.045223298043
8073.778544854384
9393.206332596394
10642.669439807783
11606.85884323593
12535.487722858194
14754.336580450892
12520.775217622242
11575.807659389942
10590.983268651335
9318.68467529568
7975.512898278631
6631.746119426904
5343.832085419072
4048.6555238149463
2442.1161407788695
1552.2138475017882
1326.2164100861796
2362.532507156461
4817.431283311984
7156.482083391797
9237.071816011325
11262.193440906152
13260.650434156507
15154.921745704647
16982.68058459917
17994.738198712912
19643.396240676266
17984.600612215167
16951.82472804344
15103.407803532573
13187.208317270928
11169.51860376531
9140.41562850052
7091.287900631878
4817.914593311463
2393.4689316561116
1357.7274861833903
SCALARS Statev float 1
LOOKUP_TABLE default
0.0
0.0
0.0
0.0
0.0
0.0
0.0
0.0
0.0
0.0
0.0
0.0
0.0
0.0
0.0
0.0
0.0
0.0
0.0
0.0
0.0
0.0
0.0
0.0
0.0
0.0
0.0
0.0
0.0
0.0
0.0
0.0
0.0
0.0
0.0
0.0
0.0
0.0
0.0
0.0
0.0
0.0
0.0
0.0
0.0
0.0
0.0
0.0
0.0
0.0
0.0
0.0
0.0
0.0
0.0
0.0
0.0
0.0
0.0
0.0
0.0
0.0
0.0
0.0
0.0
0.0
0.0
0.0
0.0
0.0
0.0
0.0
0.0
0.0
0.0
0.0
0.0
0.0
0.0
0.0
0.0
0.0
0.0
0.0
0.0
0.0
0.0
0.0
0.0
0.0
0.0
0.0
0.0
0.0
0.0
0.0
0.0
0.0
0.0
0.0
0.0
0.0
0.0
0.0
0.0
0.0
0.0
0.0
0.0
0.0
0.0
0.0
0.0
0.0
0.0
0.0
0.0
0.0
0.0
0.0
0.0
0.0
0.0
0.0
0.0
0.0
0.0
0.0
0.0
0.0
0.0
0.0
0.0
0.0
0.0
0.0
0.0
0.0
0.0
0.0
0.0
0.0
0.0
0.0
0.0
0.0
0.0
0.0
0.0
0.0
0.0
0.0
0.0
0.0
0.0
0.0
0.0
0.0
0.0
0.0
0.0
0.0
0.0
0.0
0.0
0.0
0.0
0.0
0.0
0.0
0.0
0.0
0.0
0.0
0.0
0.0
0.0
0.0
0.0
0.0
0.0
0.0
0.0
0.0
0.0
0.0
0.0
0.0
0.0
0.0
0.0
0.0
0.0
0.0
0.0
0.0
0.0
0.0
0.0
0.0
0.0
0.0
0.0
0.0
0.0
0.0
0.0
0.0
0.0
0.0
0.0
0.0
0.0
0.0
0.0
0.0
0.0
0.0
0.0
0.0
0.0
0.0
0.0
0.0
0.0
0.0
0.0
0.0
0.0
0.0
0.0
0.0
0.0
0.0
0.0
0.0
0.0
0.0
0.0
0.0
0.0
0.0
0.0
0.0
0.0
0.0
0.0
0.0
0.0
0.0
0.0
0.0
0.0
0.0
0.0
0.0
0.0
0.0
0.0
0.0
0.0
0.0
0.0
0.0
0.0
0.0
0.0
0.0
0.0
0.0
0.0
0.0
0.0
0.0
0.0
0.0
0.0
0.0
0.0
0.0
0.0
0.0
0.0
0.0
0.0
0.0
0.0
0.0
0.0
0.0
0.0
0.0
0.0
0.0
0.0
0.0
0.0
0.0
0.0
0.0
0.0
0.0
0.0
0.0
0.0
0.0
0.0
0.0
0.0
0.0
0.0
0.0
0.0
0.0
0.0
0.0
0.0
0.0
0.0
0.0
0.0
0.0
0.0
0.0
0.0
0.0
0.0
0.0
0.0
0.0
0.0
0.0
0.0
0.0
0.0
0.0
0.0
0.0
0.0
0.0
0.0
0.0
0.0
0.0
0.0
0.0
0.0
0.0
0.0
0.0
0.0
0.0
0.0
0.0
0.0
0.0
0.0
0.0
0.0
0.0
0.0
0.0
0.0
0.0
0.0
0.0
0.0
0.0
0.0
0.0
0.0
0.0
0.0
0.0
0.0
0.0
0.0
0.0
0.0
0.0
0.0
0.0
0.0
0.0
0.0
0.0
0.0
0.0
0.0
0.0
0.0
0.0
0.0
0.0
0.0
0.0
0.0
0.0
0.0
0.0
0.0
0.0
0.0
0.0
0.0
0.0
0.0
0.0
0.0
0.0
0.0
0.0
0.0
0.0
0.0
0.0
0.0
0.0
0.0
0.0
0.0
0.0
0.0
0.0
0.0
0.0
0.0
0.0
0.0
0.0
0.0
0.0
0.0
0.0
0.0
0.0
0.0
0.0
0.0
0.0
0.0
0.0
0.0
0.0
0.0
0.0
0.0
0.0
0.0
0.0
0.0
0.0
0.0
0.0
0.0
0.0
0.0
0.0
0.0
0.0
0.0
0.0
0.0
0.0
0.0
0.0
0.0
0.0
0.0
0.0
0.0
0.0
0.0
0.0
0.0
0.0
0.0
0.0
0.0
0.0
0.0
0.0
0.0
0.0
0.0
0.0
0.0
0.0
0.0
0.0
0.0
0.0
0.0
0.0
0.0
0.0
0.0
0.0
0.0
0.0
0.0
0.0
0.0
0.0
0.0
0.0
0.0
0.0
0.0
0.0
0.0
0.0
0.0
0.0
0.0
0.0
0.0
0.0
0.0
0.0
0.0
0.0
0.0
0.0
0.0
0.0
0.0
0.0
0.0
0.0
0.0
0.0
0.0
0.0
0.0
0.0
0.0
0.0
0.0
0.0
0.0
0.0
0.0
0.0
0.0
0.0
0.0
0.0
0.0
0.0
0.0
0.0
0.0
0.0
0.0
0.0
0.0
0.0
0.0
0.0
0.0
0.0
0.0
0.0
0.0
0.0
0.0
0.0
0.0
0.0
0.0
0.0
0.0
0.0
0.0
0.0
0.0
0.0
0.0
0.0
0.0
0.0
0.0
0.0
0.0
0.0
0.0
0.0
0.0
0.0
0.0
0.0
0.0
0.0
0.0
0.0
0.0
0.0
0.0
0.0
0.0
0.0
0.0
0.0
0.0
0.0
0.0
0.0
0.0
0.0
0.0
0.0
0.0
0.0
0.0
0.0
0.0
0.0
0.0
0.0
0.0
0.0
0.0
0.0
0.0
0.0
0.0
0.0
0.0
0.0
0.0
0.0
0.0
0.0
0.0
0.0
0.0
0.0
0.0
0.0
0.0
0.0
0.0
0.0
0.0
0.0
0.0
0.0
0.0
0.0
0.0
0.0
0.0
0.0
0.0
0.0
0.0
0.0
0.0
0.0
0.0
0.0
0.0
0.0
0.0
0.0
0.0
0.0
0.0
0.0
0.0
0.0
0.0
0.0
0.0
0.0
0.0
0.0
0.0
0.0
0.0
0.0
0.0
0.0
0.0
0.0
0.0
0.0
0.0
0.0
0.0
0.0
0.0
0.0
0.0
0.0
0.0
0.0
0.0
0.0
0.0
0.0
0.0
0.0
0.0
0.0
0.0
0.0
0.0
0.0
0.0
0.0
0.0
0.0
0.0
0.0
0.0
0.0
0.0
0.0
0.0
0.0
0.0
0.0
0.0
0.0
0.0
0.0
0.0
0.0
0.0
0.0
0.0
0.0
0.0
0.0
0.0
0.0
0.0
0.0
0.0
0.0
0.0
0.0
0.0
0.0
0.0
0.0
0.0
0.0
0.0
0.0
0.0
0.0
0.0
0.0
0.0
0.0
0.0
0.0
0.0
0.0
0.0
0.0
0.0
0.0
0.0
0.0
0.0
0.0
0.0
0.0
0.0
0.0
0.0
0.0
0.0
0.0
0.0
0.0
0.0
0.0
0.0
0.0
0.0
0.0
0.0
0.0
0.0
0.0
0.0
0.0
0.0
0.0
0.0
0.0
0.0
0.0
0.0
0.0
0.0
0.0
0.0
0.0
0.0
0.0
0.0
0.0
0.0
0.0
0.0
0.0
0.0
0.0
0.0
0.0
0.0
0.0
0.0
0.0
0.0
0.0
0.0
0.0
0.0
0.0
0.0
0.0
0.0
0.0
0.0
0.0
0.0
0.0
0.0
0.0
0.0
0.0
0.0
0.0
0.0
0.0
0.0
0.0
0.0
0.0
0.0
0.0
0.0
0.0
0.0
0.0
0.0
0.0
0.0
0.0
0.0
0.0
0.0
0.0
0.0
0.0
0.0
0.0
0.0
0.0
0.0
0.0
0.0
0.0
0.0
0.0
0.0
0.0
0.0
0.0
0.0
0.0
0.0
0.0
0.0
0.0
0.0
0.0
0.0
0.0
0.0
0.0
0.0
0.0
0.0
0.0
0.0
0.0
0.0
0.0
0.0
0.0
0.0
0.0
0.0
0.0
0.0
0.0
0.0
0.0
0.0
0.0
0.0
0.0
0.0
0.0
0.0
0.0
0.0
0.0
0.0
0.0
0.0
0.0
0.0
0.0
0.0
0.0
0.0
0.0
0.0
0.0
0.0
0.0
0.0
0.0
0.0
0.0
0.0
0.0
0.0
0.0
0.0
0.0
0.0
0.0
0.0
0.0
0.0
0.0
0.0
0.0
0.0
0.0
0.0
0.0
0.0
0.0
0.0
0.0
0.0
0.0
0.0
0.0
0.0
0.0
0.0
0.0
0.0
0.0
0.0
0.0
0.0
0.0
0.0
0.0
0.0
0.0
0.0
0.0
0.0
0.0
0.0
0.0
0.0
0.0
0.0
0.0
0.0
0.0
0.0
0.0
0.0
0.0
0.0
0.0
0.0
0.0
0.0
0.0
0.0
0.0
0.0
0.0
0.0
0.0
0.0
0.0
0.0
0.0
0.0
0.0
0.0
0.0
0.0
0.0
0.0
0.0
0.0
0.0
0.0
0.0
0.0
0.0
0.0
0.0
0.0
0.0
0.0
0.0
0.0
0.0
0.0
SCALARS Wm float 4
LOOKUP_TABLE default
471.453194114332 471.453194114332 0.0 0.0
85.31026996235829 85.31026996235829 0.0 0.0
101.63888697575317 101.63888697575317 0.0 0.0
212.78191370529055 212.78191370529055 0.0 0.0
375.35617891972413 375.35617891972413 0.0 0.0
591.5633716938987 591.5633716938987 0.0 0.0
851.8231110386001 851.8231110386001 0.0 0.0
1142.9845271058894 1142.9845271058894 0.0 0.0
1423.0004320893347 1423.0004320893347 0.0 0.0
1616.5093168168971 1616.5093168168971 0.0 0.0
1678.7632636470485 1678.7632636470485 0.0 0.0
1618.9547585133691 1618.9547585133691 0.0 0.0
1427.8898065215105 1427.8898065215105 0.0 0.0
1150.4421522681166 1150.4421522681166 0.0 0.0
862.0662389784483 862.0662389784483 0.0 0.0
604.6749866772407 604.6749866772407 0.0 0.0
390.9703750360636 390.9703750360636 0.0 0.0
229.89227371568714 229.89227371568714 0.0 0.0
120.85863601976016 120.85863601976016 0.0 0.0
134.67441134184097 134.67441134184097 0.0 0.0
451.67605598487853 451.67605598487853 0.0 0.0
349.99403716851276 349.99403716851276 0.0 0.0
10.590204496420094 10.590204496420094 0.0 0.0
47.249277303269544 47.249277303269544 0.0 0.0
100.99745884247477 100.99745884247477 0.0 0.0
173.36445710664665 173.36445710664665 0.0 0.0
267.37667151361893 267.37667151361893 0.0 0.0
381.0977116872862 381.0977116872862 0.0 0.0
509.358489114039 509.358489114039 0.0 0.0
635.2759680832935 635.2759680832935 0.0 0.0
724.6744515634011 724.6744515634011 0.0 0.0
753.755874206916 753.755874206916 0.0 0.0
726.2603859367247 726.2603859367247 0.0 0.0
638.4356299198739 638.4356299198739 0.0 0.0
514.1264647387841 514.1264647387841 0.0 0.0
387.50337458395194 387.50337458395194 0.0 0.0
275.3403984014441 275.3403984014441 0.0 0.0
182.4731690752758 182.4731690752758 0.0 0.0
110.55096456911028 110.55096456911028 0.0 0.0
54.03046192800778 54.03046192800778 0.0 0.0
12.23006066720968 12.23006066720968 0.0 0.0
367.6102206746668 367.6102206746668 0.0 0.0
194.70365212342446 194.70365212342446 0.0 0.0
28.915216245069946 28.915216245069946 0.0 0.0
40.60447703215478 40.60447703215478 0.0 0.0
52.85456770518492 52.85456770518492 0.0 0.0
73.12057939002969 73.12057939002969 0.0 0.0
96.55840654871896 96.55840654871896 0.0 0.0
125.31347168068851 125.31347168068851 0.0 0.0
160.87313430594045 160.87313430594045 0.0 0.0
199.5499256848617 199.5499256848617 0.0 0.0
225.2941574451665 225.2941574451665 0.0 0.0
232.58083183414246 232.58083183414246 0.0 0.0
225.94534351392545 225.94534351392545 0.0 0.0
200.78856265716453 200.78856265716453 0.0 0.0
162.6639167804495 162.6639167804495 0.0 0.0
127.59106597628038 127.59106597628038 0.0 0.0
99.15930898039304 99.15930898039304 0.0 0.0
75.73094837203364 75.73094837203364 0.0 0.0
54.389005938703924 54.389005938703924 0.0 0.0
39.50544761268416 39.50544761268416 0.0 0.0
24.46936151444623 24.46936151444623 0.0 0.0
203.15753908785885 203.15753908785885 0.0 0.0
89.81130405084393 89.81130405084393 0.0 0.0
41.95122319325192 41.95122319325192 0.0 0.0
52.297886704070855 52.297886704070855 0.0 0.0
47.88084423275065 47.88084423275065 0.0 0.0
47.260675181868585 47.260675181868585 0.0 0.0
46.55767203737767 46.55767203737767 0.0 0.0
45.73353670341099 45.73353670341099 0.0 0.0
47.286532554035894 47.286532554035894 0.0 0.0
54.65644730915118 54.65644730915118 0.0 0.0
62.795697451659606 62.795697451659606 0.0 0.0
68.1256494519273 68.1256494519273 0.0 0.0
62.56542134086748 62.56542134086748 0.0 0.0
54.10512334778277 54.10512334778277 0.0 0.0
46.37131221415856 46.37131221415856 0.0 0.0
44.38488789707598 44.38488789707598 0.0 0.0
44.67912792708762 44.67912792708762 0.0 0.0
44.65286910938157 44.65286910938157 0.0 0.0
44.19364630473486 44.19364630473486 0.0 0.0
48.08071774504628 48.08071774504628 0.0 0.0
38.47357770305574 38.47357770305574 0.0 0.0
94.53231965781663 94.53231965781663 0.0 0.0
34.09213166674657 34.09213166674657 0.0 0.0
38.57878977322802 38.57878977322802 0.0 0.0
61.7985411998993 61.7985411998993 0.0 0.0
72.78140615918328 72.78140615918328 0.0 0.0
87.75758168195563 87.75758168195563 0.0 0.0
108.51046009451197 108.51046009451197 0.0 0.0
133.0759328208925 133.0759328208925 0.0 0.0
156.99966782757988 156.99966782757988 0.0 0.0
183.88267650866013 183.88267650866013 0.0 0.0
226.05266997911568 226.05266997911568 0.0 0.0
253.0443876173442 253.0443876173442 0.0 0.0
225.01937118996727 225.01937118996727 0.0 0.0
181.76089469984896 181.76089469984896 0.0 0.0
153.7914605988327 153.7914605988327 0.0 0.0
128.8309759993158 128.8309759993158 0.0 0.0
103.3655807210882 103.3655807210882 0.0 0.0
81.97865792068868 81.97865792068868 0.0 0.0
67.08064772565085 67.08064772565085 0.0 0.0
57.792750951659436 57.792750951659436 0.0 0.0
36.85831985829301 36.85831985829301 0.0 0.0
35.86806138568253 35.86806138568253 0.0 0.0
11.895543574713477 11.895543574713477 0.0 0.0
29.440714253869253 29.440714253869253 0.0 0.0
73.15002555197405 73.15002555197405 0.0 0.0
130.91554216124672 130.91554216124672 0.0 0.0
202.8443335237443 202.8443335237443 0.0 0.0
292.0232857116056 292.0232857116056 0.0 0.0
396.41742309409625 396.41742309409625 0.0 0.0
510.24491876657464 510.24491876657464 0.0 0.0
598.0324003244912 598.0324003244912 0.0 0.0
729.3835997662868 729.3835997662868 0.0 0.0
793.4333162478952 793.4333162478952 0.0 0.0
727.5517542776576 727.5517542776576 0.0 0.0
594.4433900439697 594.4433900439697 0.0 0.0
504.8765121901358 504.8765121901358 0.0 0.0
389.6632640776563 389.6632640776563 0.0 0.0
284.47443434857064 284.47443434857064 0.0 0.0
195.56984145042333 195.56984145042333 0.0 0.0
125.46841556532898 125.46841556532898 0.0 0.0
70.63540298797925 70.63540298797925 0.0 0.0
28.784683571278986 28.784683571278986 0.0 0.0
12.335808363739782 12.335808363739782 0.0 0.0
7.309230555002725 7.309230555002725 0.0 0.0
31.778600841396795 31.778600841396795 0.0 0.0
115.37617313351484 115.37617313351484 0.0 0.0
252.10416112183609 252.10416112183609 0.0 0.0
422.34209976127875 422.34209976127875 0.0 0.0
629.7649509875964 629.7649509875964 0.0 0.0
873.7939736503411 873.7939736503411 0.0 0.0
1146.800430460452 1146.800430460452 0.0 0.0
1425.623493110953 1425.623493110953 0.0 0.0
1692.402075416351 1692.402075416351 0.0 0.0
1455.1693239462872 1455.1693239462872 0.0 0.0
1690.0396234880527 1690.0396234880527 0.0 0.0
1420.0272238167752 1420.0272238167752 0.0 0.0
1138.592725199024 1138.592725199024 0.0 0.0
863.7663390707693 863.7663390707693 0.0 0.0
619.2345864071161 619.2345864071161 0.0 0.0
413.52897761464396 413.52897761464396 0.0 0.0
247.48231224936646 247.48231224936646 0.0 0.0
114.94819999046354 114.94819999046354 0.0 0.0
32.35697100157406 32.35697100157406 0.0 0.0
7.741236378246868 7.741236378246868 0.0 0.0
175.47601526288753 175.47601526288753 0.0 0.0
72.40148559666333 72.40148559666333 0.0 0.0
107.53987012753723 107.53987012753723 0.0 0.0
216.67554827868895 216.67554827868895 0.0 0.0
371.4908204527369 371.4908204527369 0.0 0.0
573.4917482672191 573.4917482672191 0.0 0.0
815.5810372736859 815.5810372736859 0.0 0.0
1095.2351719046508 1095.2351719046508 0.0 0.0
1409.741912365884 1409.741912365884 0.0 0.0
1719.0477590484784 1719.0477590484784 0.0 0.0
1867.5482060229047 1867.5482060229047 0.0 0.0
1719.9005825049478 1719.9005825049478 0.0 0.0
1411.334492206794 1411.334492206794 0.0 0.0
1097.5447133689304 1097.5447133689304 0.0 0.0
818.7363943737863 818.7363943737863 0.0 0.0
577.7308269513956 577.7308269513956 0.0 0.0
377.1640467404288 377.1640467404288 0.0 0.0
223.87709068718107 223.87709068718107 0.0 0.0
117.73025778349131 117.73025778349131 0.0 0.0
86.4838462855596 86.4838462855596 0.0 0.0
171.02460358367608 171.02460358367608 0.0 0.0
140.71685860997252 140.71685860997252 0.0 0.0
12.24329826835614 12.24329826835614 0.0 0.0
45.381003761955526 45.381003761955526 0.0 0.0
98.76156350611939 98.76156350611939 0.0 0.0
169.09277495255367 169.09277495255367 0.0 0.0
259.3604660368771 259.3604660368771 0.0 0.0
367.50415465808805 367.50415465808805 0.0 0.0
490.6327160599791 490.6327160599791 0.0 0.0
626.6812605492026 626.6812605492026 0.0 0.0
763.1700567970686 763.1700567970686 0.0 0.0
835.3820859820057 835.3820859820057 0.0 0.0
763.7209648263466 763.7209648263466 0.0 0.0
627.73382803449 627.73382803449 0.0 0.0
492.1725849942502 492.1725849942502 0.0 0.0
369.5735266219326 369.5735266219326 0.0 0.0
262.057254592747 262.057254592747 0.0 0.0
172.51612624432803 172.51612624432803 0.0 0.0
103.13282282473352 103.13282282473352 0.0 0.0
49.67943562177466 49.67943562177466 0.0 0.0
14.074887858623164 14.074887858623164 0.0 0.0
141.5882980084103 141.5882980084103 0.0 0.0
84.54691394563481 84.54691394563481 0.0 0.0
9.942567003833306 9.942567003833306 0.0 0.0
19.41659636955828 19.41659636955828 0.0 0.0
32.750352047934136 32.750352047934136 0.0 0.0
52.58394905728367 52.58394905728367 0.0 0.0
76.19779084756294 76.19779084756294 0.0 0.0
104.0012735879543 104.0012735879543 0.0 0.0
134.01813858377648 134.01813858377648 0.0 0.0
169.45984187447695 169.45984187447695 0.0 0.0
223.4546219578728 223.4546219578728 0.0 0.0
271.8935947934476 271.8935947934476 0.0 0.0
223.7146863345449 223.7146863345449 0.0 0.0
169.97172439596872 169.97172439596872 0.0 0.0
134.76390990898213 134.76390990898213 0.0 0.0
104.9567613398731 104.9567613398731 0.0 0.0
77.33768381433761 77.33768381433761 0.0 0.0
53.904876695616714 53.904876695616714 0.0 0.0
34.08606520502285 34.08606520502285 0.0 0.0
19.80407072506878 19.80407072506878 0.0 0.0
8.70418635848559 8.70418635848559 0.0 0.0
83.82188226801969 83.82188226801969 0.0 0.0
42.03978517114877 42.03978517114877 0.0 0.0
13.867899144425055 13.867899144425055 0.0 0.0
16.96503180911176 16.96503180911176 0.0 0.0
14.63695232200867 14.63695232200867 0.0 0.0
15.212921894928533 15.212921894928533 0.0 0.0
16.595930838534066 16.595930838534066 0.0 0.0
18.44018320560842 18.44018320560842 0.0 0.0
19.562821867422237 19.562821867422237 0.0 0.0
20.638523599888522 20.638523599888522 0.0 0.0
37.51987998795763 37.51987998795763 0.0 0.0
91.78134259244443 91.78134259244443 0.0 0.0
37.46495389903882 37.46495389903882 0.0 0.0
20.609091803836982 20.609091803836982 0.0 0.0
19.5520289711577 19.5520289711577 0.0 0.0
18.395314947381472 18.395314947381472 0.0 0.0
16.45301657785637 16.45301657785637 0.0 0.0
14.8890169994398 14.8890169994398 0.0 0.0
13.96108357226406 13.96108357226406 0.0 0.0
15.804074524210801 15.804074524210801 0.0 0.0
12.352849781646626 12.352849781646626 0.0 0.0
42.320083778483216 42.320083778483216 0.0 0.0
17.417704164297817 17.417704164297817 0.0 0.0
14.899487624339164 14.899487624339164 0.0 0.0
26.60832802033036 26.60832802033036 0.0 0.0
37.508843307258815 37.508843307258815 0.0 0.0
54.357673084572575 54.357673084572575 0.0 0.0
77.80758526502309 77.80758526502309 0.0 0.0
106.37538269010508 106.37538269010508 0.0 0.0
141.70044767302974 141.70044767302974 0.0 0.0
175.13967892774576 175.13967892774576 0.0 0.0
184.83272385752292 184.83272385752292 0.0 0.0
280.0270577742774 280.0270577742774 0.0 0.0
184.44712659375787 184.44712659375787 0.0 0.0
174.60360240200893 174.60360240200893 0.0 0.0
141.00829478908935 141.00829478908935 0.0 0.0
105.50513791377426 105.50513791377426 0.0 0.0
76.75240420616981 76.75240420616981 0.0 0.0
53.114552961159106 53.114552961159106 0.0 0.0
36.16437989902316 36.16437989902316 0.0 0.0
25.463185964010272 25.463185964010272 0.0 0.0
14.013458865988177 14.013458865988177 0.0 0.0
17.790353785794956 17.790353785794956 0.0 0.0
7.672165762422895 7.672165762422895 0.0 0.0
16.225203384523297 16.225203384523297 0.0 0.0
48.7984470262148 48.7984470262148 0.0 0.0
101.62896847351088 101.62896847351088 0.0 0.0
172.94933240254235 172.94933240254235 0.0 0.0
263.4728009005264 263.4728009005264 0.0 0.0
372.1164409134362 372.1164409134362 0.0 0.0
494.3569994855599 494.3569994855599 0.0 0.0
642.6255832330263 642.6255832330263 0.0 0.0
682.4779672650011 682.4779672650011 0.0 0.0
880.4982810957634 880.4982810957634 0.0 0.0
681.8036777080215 681.8036777080215 0.0 0.0
641.6695423386205 641.6695423386205 0.0 0.0
493.0420023748184 493.0420023748184 0.0 0.0
370.53662311074146 370.53662311074146 0.0 0.0
261.8022706651373 261.8022706651373 0.0 0.0
171.4348115949511 171.4348115949511 0.0 0.0
100.59647787760814 100.59647787760814 0.0 0.0
48.40312160680794 48.40312160680794 0.0 0.0
16.014342668751738 16.014342668751738 0.0 0.0
7.828251476491954 7.828251476491954 0.0 0.0
7.123878932686713 7.123878932686713 0.0 0.0
25.160119644486258 25.160119644486258 0.0 0.0
94.90869370264664 94.90869370264664 0.0 0.0
217.04344674656272 217.04344674656272 0.0 0.0
378.7262776710761 378.7262776710761 0.0 0.0
580.4492284493779 580.4492284493779 0.0 0.0
823.5755999873014 823.5755999873014 0.0 0.0
1094.6163045807248 1094.6163045807248 0.0 0.0
1365.893402095415 1365.893402095415 0.0 0.0
1549.8720109295136 1549.8720109295136 0.0 0.0
2325.428360967612 2325.428360967612 0.0 0.0
1549.3900210999086 1549.3900210999086 0.0 0.0
1364.6355514780232 1364.6355514780232 0.0 0.0
1092.6957172657337 1092.6957172657337 0.0 0.0
821.272659710977 821.272659710977 0.0 0.0
578.1633494944596 578.1633494944596 0.0 0.0
377.05654638944424 377.05654638944424 0.0 0.0
216.62363003995995 216.62363003995995 0.0 0.0
95.60381435280279 95.60381435280279 0.0 0.0
25.77605794312388 25.77605794312388 0.0 0.0
7.430606712932377 7.430606712932377 0.0 0.0
124.43677832943375 124.43677832943375 0.0 0.0
80.91104319484177 80.91104319484177 0.0 0.0
103.09398350329955 103.09398350329955 0.0 0.0
203.94047094810156 203.94047094810156 0.0 0.0
348.1343206399194 348.1343206399194 0.0 0.0
534.1066884827845 534.1066884827845 0.0 0.0
761.8932672719067 761.8932672719067 0.0 0.0
1047.9605588777697 1047.9605588777697 0.0 0.0
1428.1174342846991 1428.1174342846991 0.0 0.0
1875.864562672733 1875.864562672733 0.0 0.0
2113.6773117875314 2113.6773117875314 0.0 0.0
1874.827675628503 1874.827675628503 0.0 0.0
1426.1138746015984 1426.1138746015984 0.0 0.0
1045.0087887078478 1045.0087887078478 0.0 0.0
757.9294626919224 757.9294626919224 0.0 0.0
529.0919236674783 529.0919236674783 0.0 0.0
342.13681972077603 342.13681972077603 0.0 0.0
197.36148681377037 197.36148681377037 0.0 0.0
95.1694408721676 95.1694408721676 0.0 0.0
63.078306417222905 63.078306417222905 0.0 0.0
122.79403394312547 122.79403394312547 0.0 0.0
105.29183215830827 105.29183215830827 0.0 0.0
13.630309765647196 13.630309765647196 0.0 0.0
45.46731847669738 45.46731847669738 0.0 0.0
96.48661709542408 96.48661709542408 0.0 0.0
162.02920781758945 162.02920781758945 0.0 0.0
245.57082579593356 245.57082579593356 0.0 0.0
347.50306651011005 347.50306651011005 0.0 0.0
473.05837674140116 473.05837674140116 0.0 0.0
636.7877747343755 636.7877747343755 0.0 0.0
834.015936760616 834.015936760616 0.0 0.0
950.2678882925653 950.2678882925653 0.0 0.0
833.3044444426132 833.3044444426132 0.0 0.0
635.3996684416155 635.3996684416155 0.0 0.0
471.0411074487514 471.0411074487514 0.0 0.0
344.88915777240135 344.88915777240135 0.0 0.0
242.40824466585548 242.40824466585548 0.0 0.0
158.46713878139983 158.46713878139983 0.0 0.0
92.64280972202216 92.64280972202216 0.0 0.0
42.317837629208526 42.317837629208526 0.0 0.0
12.746031620865097 12.746031620865097 0.0 0.0
101.85651042897948 101.85651042897948 0.0 0.0
58.47646007085695 58.47646007085695 0.0 0.0
9.463248156216274 9.463248156216274 0.0 0.0
19.617025546874316 19.617025546874316 0.0 0.0
34.66742127061139 34.66742127061139 0.0 0.0
53.717029485635145 53.717029485635145 0.0 0.0
75.65229577879475 75.65229577879475 0.0 0.0
101.31773254537967 101.31773254537967 0.0 0.0
130.34339635903075 130.34339635903075 0.0 0.0
174.44919695950352 174.44919695950352 0.0 0.0
258.28264990336294 258.28264990336294 0.0 0.0
340.1262832489755 340.1262832489755 0.0 0.0
258.00216559712095 258.00216559712095 0.0 0.0
173.8578999068062 173.8578999068062 0.0 0.0
129.47219086215395 129.47219086215395 0.0 0.0
100.22550304068523 100.22550304068523 0.0 0.0
74.4319108018387 74.4319108018387 0.0 0.0
52.480130441201425 52.480130441201425 0.0 0.0
33.73267219200976 33.73267219200976 0.0 0.0
19.81648198001068 19.81648198001068 0.0 0.0
10.68222516345936 10.68222516345936 0.0 0.0
58.741763034132255 58.741763034132255 0.0 0.0
29.743218962475105 29.743218962475105 0.0 0.0
12.713817123922933 12.713817123922933 0.0 0.0
16.331729561882202 16.331729561882202 0.0 0.0
15.618321886611525 15.618321886611525 0.0 0.0
16.819067952292983 16.819067952292983 0.0 0.0
18.204909355331136 18.204909355331136 0.0 0.0
19.919663024302963 19.919663024302963 0.0 0.0
20.71400858427425 20.71400858427425 0.0 0.0
24.244754620704843 24.244754620704843 0.0 0.0
54.86928933581538 54.86928933581538 0.0 0.0
154.7736447877862 154.7736447877862 0.0 0.0
55.03976851589051 55.03976851589051 0.0 0.0
24.482635779409023 24.482635779409023 0.0 0.0
21.01070416998803 21.01070416998803 0.0 0.0
20.293020168547578 20.293020168547578 0.0 0.0
18.696848786224624 18.696848786224624 0.0 0.0
17.504588987105617 17.504588987105617 0.0 0.0
16.65568542737842 16.65568542737842 0.0 0.0
17.667016205814676 17.667016205814676 0.0 0.0
13.743207417262333 13.743207417262333 0.0 0.0
29.208201032426313 29.208201032426313 0.0 0.0
13.160379208790639 13.160379208790639 0.0 0.0
13.945267888508546 13.945267888508546 0.0 0.0
24.70312137273321 24.70312137273321 0.0 0.0
34.13315791483017 34.13315791483017 0.0 0.0
49.44973505720724 49.44973505720724 0.0 0.0
71.41193577809366 71.41193577809366 0.0 0.0
99.5900801303158 99.5900801303158 0.0 0.0
138.60949304172829 138.60949304172829 0.0 0.0
180.38831313679674 180.38831313679674 0.0 0.0
194.22205944771423 194.22205944771423 0.0 0.0
386.48798283436986 386.48798283436986 0.0 0.0
194.83858815253961 194.83858815253961 0.0 0.0
181.45672457770237 181.45672457770237 0.0 0.0
140.05744801780307 140.05744801780307 0.0 0.0
101.31317070485069 101.31317070485069 0.0 0.0
73.31416836215189 73.31416836215189 0.0 0.0
51.4124092337492 51.4124092337492 0.0 0.0
35.94221800941308 35.94221800941308 0.0 0.0
25.90229285103684 25.90229285103684 0.0 0.0
14.315639366575517 14.315639366575517 0.0 0.0
12.510143226021313 12.510143226021313 0.0 0.0
6.777345340937 6.777345340937 0.0 0.0
15.154660404997943 15.154660404997943 0.0 0.0
44.0766627273608 44.0766627273608 0.0 0.0
90.12720882403815 90.12720882403815 0.0 0.0
154.066038641273 154.066038641273 0.0 0.0
238.0695559788894 238.0695559788894 0.0 0.0
343.16263536898225 343.16263536898225 0.0 0.0
469.8125791615059 469.8125791615059 0.0 0.0
647.479709948739 647.479709948739 0.0 0.0
698.9602449016506 698.9602449016506 0.0 0.0
1124.7498877678165 1124.7498877678165 0.0 0.0
700.0374655297799 700.0374655297799 0.0 0.0
649.4735046029522 649.4735046029522 0.0 0.0
472.4843397597736 472.4843397597736 0.0 0.0
346.2538196056684 346.2538196056684 0.0 0.0
241.19977797201145 241.19977797201145 0.0 0.0
156.7629190058178 156.7629190058178 0.0 0.0
91.88795242636795 91.88795242636795 0.0 0.0
44.73512970140623 44.73512970140623 0.0 0.0
15.170246602002779 15.170246602002779 0.0 0.0
6.234029896683718 6.234029896683718 0.0 0.0
6.789876635010281 6.789876635010281 0.0 0.0
22.96627120003236 22.96627120003236 0.0 0.0
84.67432016333606 84.67432016333606 0.0 0.0
192.37928864017962 192.37928864017962 0.0 0.0
337.52421074030235 337.52421074030235 0.0 0.0
523.8169250079624 523.8169250079624 0.0 0.0
756.6406438792284 756.6406438792284 0.0 0.0
1029.199192056152 1029.199192056152 0.0 0.0
1330.313122568844 1330.313122568844 0.0 0.0
1621.8363043375603 1621.8363043375603 0.0 0.0
3026.2410109872985 3026.2410109872985 0.0 0.0
1623.4946490769219 1623.4946490769219 0.0 0.0
1333.4992957176364 1333.4992957176364 0.0 0.0
1033.454774366033 1033.454774366033 0.0 0.0
761.445218515355 761.445218515355 0.0 0.0
528.4349119952144 528.4349119952144 0.0 0.0
340.9904577299607 340.9904577299607 0.0 0.0
193.88041829128926 193.88041829128926 0.0 0.0
84.65747648444193 84.65747648444193 0.0 0.0
22.74190063606178 22.74190063606178 0.0 0.0
6.373876978852675 6.373876978852675 0.0 0.0
121.02430645453913 121.02430645453913 0.0 0.0
83.24527693195412 83.24527693195412 0.0 0.0
101.47662613729041 101.47662613729041 0.0 0.0
198.58384522133943 198.58384522133943 0.0 0.0
339.48564334010615 339.48564334010615 0.0 0.0
522.5803546845261 522.5803546845261 0.0 0.0
750.7445794974683 750.7445794974683 0.0 0.0
1047.2080513606495 1047.2080513606495 0.0 0.0
1456.4127919461364 1456.4127919461364 0.0 0.0
1949.6258269964899 1949.6258269964899 0.0 0.0
2213.367814517959 2213.367814517959 0.0 0.0
1947.7623297327873 1947.7623297327873 0.0 0.0
1452.8816659386323 1452.8816659386323 0.0 0.0
1042.086128015811 1042.086128015811 0.0 0.0
743.8781692033364 743.8781692033364 0.0 0.0
513.750180364308 513.750180364308 0.0 0.0
328.63888947159825 328.63888947159825 0.0 0.0
186.22088760654256 186.22088760654256 0.0 0.0
87.53019589188675 87.53019589188675 0.0 0.0
56.39474319890337 56.39474319890337 0.0 0.0
112.94485906609195 112.94485906609195 0.0 0.0
99.92724647899207 99.92724647899207 0.0 0.0
13.659760624834126 13.659760624834126 0.0 0.0
45.208484048611375 45.208484048611375 0.0 0.0
94.82953770507855 94.82953770507855 0.0 0.0
158.99094612442732 158.99094612442732 0.0 0.0
241.47536985682098 241.47536985682098 0.0 0.0
343.89966733121906 343.89966733121906 0.0 0.0
474.3055295384257 474.3055295384257 0.0 0.0
650.450276094276 650.450276094276 0.0 0.0
866.1520518147167 866.1520518147167 0.0 0.0
993.0616991944615 993.0616991944615 0.0 0.0
864.9049876717323 864.9049876717323 0.0 0.0
648.0541011743053 648.0541011743053 0.0 0.0
470.85361287665825 470.85361287665825 0.0 0.0
339.40569563557904 339.40569563557904 0.0 0.0
235.9273963106493 235.9273963106493 0.0 0.0
152.50197772678754 152.50197772678754 0.0 0.0
87.65521248096181 87.65521248096181 0.0 0.0
39.23060069798256 39.23060069798256 0.0 0.0
11.168688590527925 11.168688590527925 0.0 0.0
94.52587487003261 94.52587487003261 0.0 0.0
55.766656671514774 55.766656671514774 0.0 0.0
8.324416873055814 8.324416873055814 0.0 0.0
19.20227753364005 19.20227753364005 0.0 0.0
34.51333033229595 34.51333033229595 0.0 0.0
53.494839722489985 53.494839722489985 0.0 0.0
75.39245112740048 75.39245112740048 0.0 0.0
101.50882470205427 101.50882470205427 0.0 0.0
132.39838406369654 132.39838406369654 0.0 0.0
180.9919617992532 180.9919617992532 0.0 0.0
271.5269803892569 271.5269803892569 0.0 0.0
357.5982682864824 357.5982682864824 0.0 0.0
271.02460873295036 271.02460873295036 0.0 0.0
179.97192321672006 179.97192321672006 0.0 0.0
130.91492271318137 130.91492271318137 0.0 0.0
99.64335582914948 99.64335582914948 0.0 0.0
73.26271397099316 73.26271397099316 0.0 0.0
51.24381979099636 51.24381979099636 0.0 0.0
32.670448165257724 32.670448165257724 0.0 0.0
19.066393146618594 19.066393146618594 0.0 0.0
9.85174489216738 9.85174489216738 0.0 0.0
53.707476381819966 53.707476381819966 0.0 0.0
27.662021023764574 27.662021023764574 0.0 0.0
11.383419014241895 11.383419014241895 0.0 0.0
15.402246170348626 15.402246170348626 0.0 0.0
15.32273898765588 15.32273898765588 0.0 0.0
16.95854164681614 16.95854164681614 0.0 0.0
18.666014083641585 18.666014083641585 0.0 0.0
20.850648057968186 20.850648057968186 0.0 0.0
22.61382880093396 22.61382880093396 0.0 0.0
28.10235904602364 28.10235904602364 0.0 0.0
60.9679756770829 60.9679756770829 0.0 0.0
164.39701663720982 164.39701663720982 0.0 0.0
61.22680728451349 61.22680728451349 0.0 0.0
28.475925274159742 28.475925274159742 0.0 0.0
23.07753993862539 23.07753993862539 0.0 0.0
21.448715895772565 21.448715895772565 0.0 0.0
19.488927814340645 19.488927814340645 0.0 0.0
18.13168309679546 18.13168309679546 0.0 0.0
17.055471683982795 17.055471683982795 0.0 0.0
17.523937880750577 17.523937880750577 0.0 0.0
13.01307489351656 13.01307489351656 0.0 0.0
25.600438654275564 25.600438654275564 0.0 0.0
11.695732171850576 11.695732171850576 0.0 0.0
12.683660474723533 12.683660474723533 0.0 0.0
22.97623608966022 22.97623608966022 0.0 0.0
32.30400684987779 32.30400684987779 0.0 0.0
47.47415884210957 47.47415884210957 0.0 0.0
69.31006559441438 69.31006559441438 0.0 0.0
97.92119727165397 97.92119727165397 0.0 0.0
138.8842156225378 138.8842156225378 0.0 0.0
184.79909521524573 184.79909521524573 0.0 0.0
201.19309567062106 201.19309567062106 0.0 0.0
403.4887184841628 403.4887184841628 0.0 0.0
202.19291497129902 202.19291497129902 0.0 0.0
186.51967128099068 186.51967128099068 0.0 0.0
141.18742190993876 141.18742190993876 0.0 0.0
100.69117783028008 100.69117783028008 0.0 0.0
72.447127142339 72.447127142339 0.0 0.0
50.81106231988635 50.81106231988635 0.0 0.0
35.44524622851722 35.44524622851722 0.0 0.0
25.079702997700284 25.079702997700284 0.0 0.0
13.415577089616864 13.415577089616864 0.0 0.0
10.178323308750635 10.178323308750635 0.0 0.0
5.914281502899883 5.914281502899883 0.0 0.0
13.620143783012095 13.620143783012095 0.0 0.0
41.00926167962621 41.00926167962621 0.0 0.0
85.48206281261218 85.48206281261218 0.0 0.0
147.68949738816755 147.68949738816755 0.0 0.0
230.29482816832694 230.29482816832694 0.0 0.0
335.74749918311653 335.74749918311653 0.0 0.0
466.95389664972606 466.95389664972606 0.0 0.0
657.9367800440069 657.9367800440069 0.0 0.0
716.4943332260958 716.4943332260958 0.0 0.0
1168.2773322037804 1168.2773322037804 0.0 0.0
718.2140681226577 718.2140681226577 0.0 0.0
661.052784016229 661.052784016229 0.0 0.0
471.10515147668065 471.10515147668065 0.0 0.0
340.59997115258875 340.59997115258875 0.0 0.0
235.30577499501246 235.30577499501246 0.0 0.0
152.13607498008133 152.13607498008133 0.0 0.0
88.50390397664755 88.50390397664755 0.0 0.0
42.1978329041984 42.1978329041984 0.0 0.0
13.712552871373765 13.712552871373765 0.0 0.0
4.909157487345268 4.909157487345268 0.0 0.0
5.575833543985594 5.575833543985594 0.0 0.0
20.248996664363517 20.248996664363517 0.0 0.0
78.96337848029962 78.96337848029962 0.0 0.0
183.01916407489554 183.01916407489554 0.0 0.0
324.035993876517 324.035993876517 0.0 0.0
506.8330108389504 506.8330108389504 0.0 0.0
739.7411242670421 739.7411242670421 0.0 0.0
1022.1020556711796 1022.1020556711796 0.0 0.0
1350.2524263447112 1350.2524263447112 0.0 0.0
1667.798099925606 1667.798099925606 0.0 0.0
3154.8672067065136 3154.8672067065136 0.0 0.0
1670.2378640722623 1670.2378640722623 0.0 0.0
1355.0143854396492 1355.0143854396492 0.0 0.0
1028.5263883595958 1028.5263883595958 0.0 0.0
747.0997014947923 747.0997014947923 0.0 0.0
514.0354493799366 514.0354493799366 0.0 0.0
329.5649107025145 329.5649107025145 0.0 0.0
185.48364619595944 185.48364619595944 0.0 0.0
78.86796746244859 78.86796746244859 0.0 0.0
19.69802538803028 19.69802538803028 0.0 0.0
4.717208158264889 4.717208158264889 0.0 0.0
124.43677832929095 124.43677832929095 0.0 0.0
80.9110431946256 80.9110431946256 0.0 0.0
103.09398350313528 103.09398350313528 0.0 0.0
203.94047094797432 203.94047094797432 0.0 0.0
348.1343206398875 348.1343206398875 0.0 0.0
534.1066884827399 534.1066884827399 0.0 0.0
761.8932672717687 761.8932672717687 0.0 0.0
1047.9605588775064 1047.9605588775064 0.0 0.0
1428.117434284324 1428.117434284324 0.0 0.0
1875.8645626724322 1875.8645626724322 0.0 0.0
2113.6773117868825 2113.6773117868825 0.0 0.0
1874.8276756276364 1874.8276756276364 0.0 0.0
1426.1138746011025 1426.1138746011025 0.0 0.0
1045.0087887078657 1045.0087887078657 0.0 0.0
757.9294626922635 757.9294626922635 0.0 0.0
529.0919236681648 529.0919236681648 0.0 0.0
342.1368197211897 342.1368197211897 0.0 0.0
197.3614868139788 197.3614868139788 0.0 0.0
95.1694408723124 95.1694408723124 0.0 0.0
63.07830641733785 63.07830641733785 0.0 0.0
122.79403394333872 122.79403394333872 0.0 0.0
105.29183215825253 105.29183215825253 0.0 0.0
13.63030976562251 13.63030976562251 0.0 0.0
45.46731847662195 45.46731847662195 0.0 0.0
96.48661709537089 96.48661709537089 0.0 0.0
162.0292078175163 162.0292078175163 0.0 0.0
245.57082579592003 245.57082579592003 0.0 0.0
347.50306651002313 347.50306651002313 0.0 0.0
473.05837674125416 473.05837674125416 0.0 0.0
636.7877747341445 636.7877747341445 0.0 0.0
834.0159367603117 834.0159367603117 0.0 0.0
950.2678882922114 950.2678882922114 0.0 0.0
833.304444442269 833.304444442269 0.0 0.0
635.3996684412582 635.3996684412582 0.0 0.0
471.04110744873543 471.04110744873543 0.0 0.0
344.88915777242323 344.88915777242323 0.0 0.0
242.4082446661979 242.4082446661979 0.0 0.0
158.46713878153815 158.46713878153815 0.0 0.0
92.64280972214759 92.64280972214759 0.0 0.0
42.31783762927182 42.31783762927182 0.0 0.0
12.746031620884267 12.746031620884267 0.0 0.0
101.85651042916895 101.85651042916895 0.0 0.0
58.476460070836744 58.476460070836744 0.0 0.0
9.463248156219242 9.463248156219242 0.0 0.0
19.617025546855277 19.617025546855277 0.0 0.0
34.66742127058997 34.66742127058997 0.0 0.0
53.71702948562779 53.71702948562779 0.0 0.0
75.65229577876921 75.65229577876921 0.0 0.0
101.31773254529938 101.31773254529938 0.0 0.0
130.34339635893443 130.34339635893443 0.0 0.0
174.4491969594156 174.4491969594156 0.0 0.0
258.28264990328654 258.28264990328654 0.0 0.0
340.1262832488366 340.1262832488366 0.0 0.0
258.00216559718336 258.00216559718336 0.0 0.0
173.85789990649707 173.85789990649707 0.0 0.0
129.47219086220196 129.47219086220196 0.0 0.0
100.22550304054371 100.22550304054371 0.0 0.0
74.43191080195349 74.43191080195349 0.0 0.0
52.480130441259234 52.480130441259234 0.0 0.0
33.73267219204601 33.73267219204601 0.0 0.0
19.81648198005734 19.81648198005734 0.0 0.0
10.68222516347597 10.68222516347597 0.0 0.0
58.741763034253715 58.741763034253715 0.0 0.0
29.743218962452165 29.743218962452165 0.0 0.0
12.713817123922883 12.713817123922883 0.0 0.0
16.331729561884433 16.331729561884433 0.0 0.0
15.618321886625981 15.618321886625981 0.0 0.0
16.819067952313368 16.819067952313368 0.0 0.0
18.204909355324713 18.204909355324713 0.0 0.0
19.919663024271753 19.919663024271753 0.0 0.0
20.71400858432001 20.71400858432001 0.0 0.0
24.244754620607583 24.244754620607583 0.0 0.0
54.86928933577318 54.86928933577318 0.0 0.0
154.77364478792916 154.77364478792916 0.0 0.0
55.03976851585061 55.03976851585061 0.0 0.0
24.482635779157626 24.482635779157626 0.0 0.0
21.01070417006292 21.01070417006292 0.0 0.0
20.29302016831239 20.29302016831239 0.0 0.0
18.69684878631965 18.69684878631965 0.0 0.0
17.504588987109344 17.504588987109344 0.0 0.0
16.655685427423382 16.655685427423382 0.0 0.0
17.66701620584907 17.66701620584907 0.0 0.0
13.743207417288847 13.743207417288847 0.0 0.0
29.20820103249991 29.20820103249991 0.0 0.0
13.160379208779561 13.160379208779561 0.0 0.0
13.945267888503286 13.945267888503286 0.0 0.0
24.703121372731715 24.703121372731715 0.0 0.0
34.13315791484293 34.13315791484293 0.0 0.0
49.44973505724851 49.44973505724851 0.0 0.0
71.41193577811404 71.41193577811404 0.0 0.0
99.59008013034789 99.59008013034789 0.0 0.0
138.60949304178848 138.60949304178848 0.0 0.0
180.38831313678074 180.38831313678074 0.0 0.0
194.22205944773074 194.22205944773074 0.0 0.0
386.4879828344232 386.4879828344232 0.0 0.0
194.83858815249303 194.83858815249303 0.0 0.0
181.45672457764678 181.45672457764678 0.0 0.0
140.05744801782902 140.05744801782902 0.0 0.0
101.31317070478549 101.31317070478549 0.0 0.0
73.31416836234658 73.31416836234658 0.0 0.0
51.41240923381478 51.41240923381478 0.0 0.0
35.942218009478474 35.942218009478474 0.0 0.0
25.902292851085704 25.902292851085704 0.0 0.0
14.315639366599836 14.315639366599836 0.0 0.0
12.510143226062022 12.510143226062022 0.0 0.0
6.777345340932319 6.777345340932319 0.0 0.0
15.154660404993558 15.154660404993558 0.0 0.0
44.07666272735491 44.07666272735491 0.0 0.0
90.12720882405381 90.12720882405381 0.0 0.0
154.06603864132555 154.06603864132555 0.0 0.0
238.06955597901114 238.06955597901114 0.0 0.0
343.16263536896514 343.16263536896514 0.0 0.0
469.8125791617729 469.8125791617729 0.0 0.0
647.4797099485977 647.4797099485977 0.0 0.0
698.9602449018028 698.9602449018028 0.0 0.0
1124.7498877674936 1124.7498877674936 0.0 0.0
700.0374655297934 700.0374655297934 0.0 0.0
649.4735046027531 649.4735046027531 0.0 0.0
472.48433975992583 472.48433975992583 0.0 0.0
346.2538196057403 346.2538196057403 0.0 0.0
241.19977797235472 241.19977797235472 0.0 0.0
156.7629190059952 156.7629190059952 0.0 0.0
91.88795242648762 91.88795242648762 0.0 0.0
44.735129701478776 44.735129701478776 0.0 0.0
15.17024660202899 15.17024660202899 0.0 0.0
6.234029896701319 6.234029896701319 0.0 0.0
6.789876635008823 6.789876635008823 0.0 0.0
22.966271200029993 22.966271200029993 0.0 0.0
84.6743201633014 84.6743201633014 0.0 0.0
192.37928864017195 192.37928864017195 0.0 0.0
337.52421074043065 337.52421074043065 0.0 0.0
523.8169250081269 523.8169250081269 0.0 0.0
756.6406438794256 756.6406438794256 0.0 0.0
1029.1991920563169 1029.1991920563169 0.0 0.0
1330.3131225685436 1330.3131225685436 0.0 0.0
1621.8363043376264 1621.8363043376264 0.0 0.0
3026.241010986745 3026.241010986745 0.0 0.0
1623.4946490767759 1623.4946490767759 0.0 0.0
1333.4992957172242 1333.4992957172242 0.0 0.0
1033.4547743661462 1033.4547743661462 0.0 0.0
761.4452185157775 761.4452185157775 0.0 0.0
528.4349119958761 528.4349119958761 0.0 0.0
340.9904577304912 340.9904577304912 0.0 0.0
193.88041829156498 193.88041829156498 0.0 0.0
84.65747648456428 84.65747648456428 0.0 0.0
22.74190063609956 22.74190063609956 0.0 0.0
6.373876978870133 6.373876978870133 0.0 0.0
175.47601526298524 175.47601526298524 0.0 0.0
72.40148559622656 72.40148559622656 0.0 0.0
107.5398701272748 107.5398701272748 0.0 0.0
216.67554827842594 216.67554827842594 0.0 0.0
371.490820452337 371.490820452337 0.0 0.0
573.4917482667573 573.4917482667573 0.0 0.0
815.5810372734232 815.5810372734232 0.0 0.0
1095.2351719050052 1095.2351719050052 0.0 0.0
1409.741912365913 1409.741912365913 0.0 0.0
1719.047759047255 1719.047759047255 0.0 0.0
1867.548206021828 1867.548206021828 0.0 0.0
1719.9005825038162 1719.9005825038162 0.0 0.0
1411.3344922063725 1411.3344922063725 0.0 0.0
1097.5447133690561 1097.5447133690561 0.0 0.0
818.7363943744205 818.7363943744205 0.0 0.0
577.7308269520709 577.7308269520709 0.0 0.0
377.16404674120724 377.16404674120724 0.0 0.0
223.87709068770334 223.87709068770334 0.0 0.0
117.73025778382721 117.73025778382721 0.0 0.0
86.48384628581337 86.48384628581337 0.0 0.0
171.02460358427166 171.02460358427166 0.0 0.0
140.7168586099387 140.7168586099387 0.0 0.0
12.243298268292023 12.243298268292023 0.0 0.0
45.38100376183531 45.38100376183531 0.0 0.0
98.7615635059582 98.7615635059582 0.0 0.0
169.0927749523312 169.0927749523312 0.0 0.0
259.3604660366234 259.3604660366234 0.0 0.0
367.50415465789735 367.50415465789735 0.0 0.0
490.6327160600645 490.6327160600645 0.0 0.0
626.6812605491349 626.6812605491349 0.0 0.0
763.1700567963176 763.1700567963176 0.0 0.0
835.3820859815954 835.3820859815954 0.0 0.0
763.7209648257801 763.7209648257801 0.0 0.0
627.733828034263 627.733828034263 0.0 0.0
492.172584994355 492.172584994355 0.0 0.0
369.57352662216545 369.57352662216545 0.0 0.0
262.0572545930213 262.0572545930213 0.0 0.0
172.51612624462066 172.51612624462066 0.0 0.0
103.13282282499652 103.13282282499652 0.0 0.0
49.679435621881964 49.679435621881964 0.0 0.0
14.074887858651312 14.074887858651312 0.0 0.0
141.58829800891218 141.58829800891218 0.0 0.0
84.54691394561857 84.54691394561857 0.0 0.0
9.94256700385097 9.94256700385097 0.0 0.0
19.416596369540986 19.416596369540986 0.0 0.0
32.75035204787489 32.75035204787489 0.0 0.0
52.58394905717441 52.58394905717441 0.0 0.0
76.19779084746922 76.19779084746922 0.0 0.0
104.00127358786246 104.00127358786246 0.0 0.0
134.0181385838403 134.0181385838403 0.0 0.0
169.45984187444748 169.45984187444748 0.0 0.0
223.45462195739378 223.45462195739378 0.0 0.0
271.89359479321286 271.89359479321286 0.0 0.0
223.71468633420804 223.71468633420804 0.0 0.0
169.97172439601619 169.97172439601619 0.0 0.0
134.7639099088413 134.7639099088413 0.0 0.0
104.95676133997455 104.95676133997455 0.0 0.0
77.33768381434842 77.33768381434842 0.0 0.0
53.90487669568347 53.90487669568347 0.0 0.0
34.08606520513506 34.08606520513506 0.0 0.0
19.8040707250913 19.8040707250913 0.0 0.0
8.704186358510336 8.704186358510336 0.0 0.0
83.82188226833533 83.82188226833533 0.0 0.0
42.039785171118 42.039785171118 0.0 0.0
13.867899144456613 13.867899144456613 0.0 0.0
16.965031809144932 16.965031809144932 0.0 0.0
14.636952322016334 14.636952322016334 0.0 0.0
15.212921894894105 15.212921894894105 0.0 0.0
16.59593083856901 16.59593083856901 0.0 0.0
18.44018320558659 18.44018320558659 0.0 0.0
19.56282186750982 19.56282186750982 0.0 0.0
20.638523599979486 20.638523599979486 0.0 0.0
37.51987998760474 37.51987998760474 0.0 0.0
91.78134259216492 91.78134259216492 0.0 0.0
37.46495389888287 37.46495389888287 0.0 0.0
20.60909180385861 20.60909180385861 0.0 0.0
19.552028971080585 19.552028971080585 0.0 0.0
18.395314947381173 18.395314947381173 0.0 0.0
16.453016577840078 16.453016577840078 0.0 0.0
14.889016999460509 14.889016999460509 0.0 0.0
13.961083572328493 13.961083572328493 0.0 0.0
15.804074524229982 15.804074524229982 0.0 0.0
12.352849781678113 12.352849781678113 0.0 0.0
42.32008377865718 42.32008377865718 0.0 0.0
17.41770416428217 17.41770416428217 0.0 0.0
14.899487624363061 14.899487624363061 0.0 0.0
26.608328020346317 26.608328020346317 0.0 0.0
37.50884330731293 37.50884330731293 0.0 0.0
54.3576730846047 54.3576730846047 0.0 0.0
77.80758526502152 77.80758526502152 0.0 0.0
106.37538269016268 106.37538269016268 0.0 0.0
141.70044767339576 141.70044767339576 0.0 0.0
175.13967892787187 175.13967892787187 0.0 0.0
184.83272385745119 184.83272385745119 0.0 0.0
280.02705777382295 280.02705777382295 0.0 0.0
184.44712659360852 184.44712659360852 0.0 0.0
174.60360240210662 174.60360240210662 0.0 0.0
141.00829478900368 141.00829478900368 0.0 0.0
105.5051379139481 105.5051379139481 0.0 0.0
76.75240420621691 76.75240420621691 0.0 0.0
53.11455296126037 53.11455296126037 0.0 0.0
36.16437989913908 36.16437989913908 0.0 0.0
25.463185964063314 25.463185964063314 0.0 0.0
14.013458866025092 14.013458866025092 0.0 0.0
17.790353785875354 17.790353785875354 0.0 0.0
7.672165762413959 7.672165762413959 0.0 0.0
16.22520338451609 16.22520338451609 0.0 0.0
48.79844702621815 48.79844702621815 0.0 0.0
101.62896847353841 101.62896847353841 0.0 0.0
172.94933240259897 172.94933240259897 0.0 0.0
263.47280090049327 263.47280090049327 0.0 0.0
372.1164409136911 372.1164409136911 0.0 0.0
494.3569994859964 494.3569994859964 0.0 0.0
642.6255832333687 642.6255832333687 0.0 0.0
682.4779672650336 682.4779672650336 0.0 0.0
880.4982810945181 880.4982810945181 0.0 0.0
681.8036777079582 681.8036777079582 0.0 0.0
641.6695423387471 641.6695423387471 0.0 0.0
493.0420023749463 493.0420023749463 0.0 0.0
370.5366231111083 370.5366231111083 0.0 0.0
261.80227066551515 261.80227066551515 0.0 0.0
171.43481159532206 171.43481159532206 0.0 0.0
100.59647787785853 100.59647787785853 0.0 0.0
48.40312160693158 48.40312160693158 0.0 0.0
16.014342668791592 16.014342668791592 0.0 0.0
7.828251476526403 7.828251476526403 0.0 0.0
7.123878932671683 7.123878932671683 0.0 0.0
25.160119644457495 25.160119644457495 0.0 0.0
94.90869370261801 94.90869370261801 0.0 0.0
217.04344674658802 217.04344674658802 0.0 0.0
378.72627767111044 378.72627767111044 0.0 0.0
580.4492284492319 580.4492284492319 0.0 0.0
823.5755999876855 823.5755999876855 0.0 0.0
1094.616304581667 1094.616304581667 0.0 0.0
1365.8934020962215 1365.8934020962215 0.0 0.0
1549.8720109294986 1549.8720109294986 0.0 0.0
2325.428360963382 2325.428360963382 0.0 0.0
1549.3900210999411 1549.3900210999411 0.0 0.0
1364.6355514785232 1364.6355514785232 0.0 0.0
1092.6957172659097 1092.6957172659097 0.0 0.0
821.2726597117232 821.2726597117232 0.0 0.0
578.1633494952937 578.1633494952937 0.0 0.0
377.0565463903104 377.0565463903104 0.0 0.0
216.62363004047216 216.62363004047216 0.0 0.0
95.60381435304375 95.60381435304375 0.0 0.0
25.776057943204812 25.776057943204812 0.0 0.0
7.430606712966739 7.430606712966739 0.0 0.0
471.4531941151063 471.4531941151063 0.0 0.0
85.31026996160853 85.31026996160853 0.0 0.0
101.63888697535101 101.63888697535101 0.0 0.0
212.78191370485987 212.78191370485987 0.0 0.0
375.3561789192255 375.3561789192255 0.0 0.0
591.5633716935935 591.5633716935935 0.0 0.0
851.8231110385485 851.8231110385485 0.0 0.0
1142.9845271060522 1142.9845271060522 0.0 0.0
1423.000432089207 1423.000432089207 0.0 0.0
1616.5093168160497 1616.5093168160497 0.0 0.0
1678.7632636453404 1678.7632636453404 0.0 0.0
1618.9547585121577 1618.9547585121577 0.0 0.0
1427.8898065210744 1427.8898065210744 0.0 0.0
1150.442152268331 1150.442152268331 0.0 0.0
862.0662389790549 862.0662389790549 0.0 0.0
604.674986678133 604.674986678133 0.0 0.0
390.9703750369023 390.9703750369023 0.0 0.0
229.89227371644648 229.89227371644648 0.0 0.0
120.8586360201573 120.8586360201573 0.0 0.0
134.6744113423787 134.6744113423787 0.0 0.0
451.67605598691495 451.67605598691495 0.0 0.0
349.9940371683294 349.9940371683294 0.0 0.0
10.59020449637444 10.59020449637444 0.0 0.0
47.24927730312839 47.24927730312839 0.0 0.0
100.99745884226164 100.99745884226164 0.0 0.0
173.36445710644549 173.36445710644549 0.0 0.0
267.3766715133956 267.3766715133956 0.0 0.0
381.09771168719436 381.09771168719436 0.0 0.0
509.3584891140496 509.3584891140496 0.0 0.0
635.2759680831605 635.2759680831605 0.0 0.0
724.6744515628847 724.6744515628847 0.0 0.0
753.7558742061351 753.7558742061351 0.0 0.0
726.2603859359149 726.2603859359149 0.0 0.0
638.4356299198582 638.4356299198582 0.0 0.0
514.1264647387262 514.1264647387262 0.0 0.0
387.5033745841311 387.5033745841311 0.0 0.0
275.34039840183374 275.34039840183374 0.0 0.0
182.4731690756047 182.4731690756047 0.0 0.0
110.55096456940718 110.55096456940718 0.0 0.0
54.03046192817426 54.03046192817426 0.0 0.0
12.230060667241604 12.230060667241604 0.0 0.0
367.6102206763246 367.6102206763246 0.0 0.0
194.70365212324387 194.70365212324387 0.0 0.0
28.915216245131045 28.915216245131045 0.0 0.0
40.604477032145866 40.604477032145866 0.0 0.0
52.854567705146785 52.854567705146785 0.0 0.0
73.12057939001187 73.12057939001187 0.0 0.0
96.5584065486837 96.5584065486837 0.0 0.0
125.31347168064768 125.31347168064768 0.0 0.0
160.87313430600653 160.87313430600653 0.0 0.0
199.54992568490061 199.54992568490061 0.0 0.0
225.29415744481256 225.29415744481256 0.0 0.0
232.58083183362757 232.58083183362757 0.0 0.0
225.9453435135246 225.9453435135246 0.0 0.0
200.78856265703064 200.78856265703064 0.0 0.0
162.66391678042487 162.66391678042487 0.0 0.0
127.59106597628075 127.59106597628075 0.0 0.0
99.15930898048819 99.15930898048819 0.0 0.0
75.73094837212845 75.73094837212845 0.0 0.0
54.38900593884316 54.38900593884316 0.0 0.0
39.50544761282912 39.50544761282912 0.0 0.0
24.46936151453636 24.46936151453636 0.0 0.0
203.1575390887358 203.1575390887358 0.0 0.0
89.81130405072882 89.81130405072882 0.0 0.0
41.95122319327878 41.95122319327878 0.0 0.0
52.29788670411126 52.29788670411126 0.0 0.0
47.880844232818404 47.880844232818404 0.0 0.0
47.26067518197755 47.26067518197755 0.0 0.0
46.55767203747442 46.55767203747442 0.0 0.0
45.733536703551245 45.733536703551245 0.0 0.0
47.28653255417613 47.28653255417613 0.0 0.0
54.65644730915794 54.65644730915794 0.0 0.0
62.79569745176697 62.79569745176697 0.0 0.0
68.12564945194597 68.12564945194597 0.0 0.0
62.56542134080972 62.56542134080972 0.0 0.0
54.105123347761435 54.105123347761435 0.0 0.0
46.37131221403611 46.37131221403611 0.0 0.0
44.38488789702237 44.38488789702237 0.0 0.0
44.67912792709959 44.67912792709959 0.0 0.0
44.65286910940674 44.65286910940674 0.0 0.0
44.19364630487501 44.19364630487501 0.0 0.0
48.080717745230615 48.080717745230615 0.0 0.0
38.47357770320183 38.47357770320183 0.0 0.0
94.53231965822154 94.53231965822154 0.0 0.0
34.092131666700084 34.092131666700084 0.0 0.0
38.5787897732162 38.5787897732162 0.0 0.0
61.79854119992774 61.79854119992774 0.0 0.0
72.78140615924393 72.78140615924393 0.0 0.0
87.75758168208503 87.75758168208503 0.0 0.0
108.51046009472182 108.51046009472182 0.0 0.0
133.07593282111057 133.07593282111057 0.0 0.0
156.9996678277549 156.9996678277549 0.0 0.0
183.88267650879132 183.88267650879132 0.0 0.0
226.052669979412 226.052669979412 0.0 0.0
253.04438761779798 253.04438761779798 0.0 0.0
225.0193711902548 225.0193711902548 0.0 0.0
181.7608946997785 181.7608946997785 0.0 0.0
153.79146059885684 153.79146059885684 0.0 0.0
128.83097599926083 128.83097599926083 0.0 0.0
103.36558072122034 103.36558072122034 0.0 0.0
81.97865792082528 81.97865792082528 0.0 0.0
67.08064772585972 67.08064772585972 0.0 0.0
57.79275095188211 57.79275095188211 0.0 0.0
36.8583198584267 36.8583198584267 0.0 0.0
35.868061385838345 35.868061385838345 0.0 0.0
11.895543574687984 11.895543574687984 0.0 0.0
29.440714253855923 29.440714253855923 0.0 0.0
73.15002555196534 73.15002555196534 0.0 0.0
130.91554216123518 130.91554216123518 0.0 0.0
202.8443335238499 202.8443335238499 0.0 0.0
292.0232857118328 292.0232857118328 0.0 0.0
396.4174230943946 396.4174230943946 0.0 0.0
510.2449187671057 510.2449187671057 0.0 0.0
598.0324003248205 598.0324003248205 0.0 0.0
729.3835997667236 729.3835997667236 0.0 0.0
793.4333162489307 793.4333162489307 0.0 0.0
727.5517542778949 727.5517542778949 0.0 0.0
594.4433900438281 594.4433900438281 0.0 0.0
504.8765121904592 504.8765121904592 0.0 0.0
389.663264077926 389.663264077926 0.0 0.0
284.4744343490375 284.4744343490375 0.0 0.0
195.56984145076893 195.56984145076893 0.0 0.0
125.4684155657225 125.4684155657225 0.0 0.0
70.63540298819734 70.63540298819734 0.0 0.0
28.784683571380633 28.784683571380633 0.0 0.0
12.33580836378751 12.33580836378751 0.0 0.0
7.309230554980436 7.309230554980436 0.0 0.0
31.778600841360916 31.778600841360916 0.0 0.0
115.37617313341659 115.37617313341659 0.0 0.0
252.10416112172143 252.10416112172143 0.0 0.0
422.34209976133315 422.34209976133315 0.0 0.0
629.7649509877526 629.7649509877526 0.0 0.0
873.7939736509246 873.7939736509246 0.0 0.0
1146.8004304615324 1146.8004304615324 0.0 0.0
1425.623493111823 1425.623493111823 0.0 0.0
1692.4020754170726 1692.4020754170726 0.0 0.0
1455.1693239464744 1455.1693239464744 0.0 0.0
1690.039623488277 1690.039623488277 0.0 0.0
1420.0272238170644 1420.0272238170644 0.0 0.0
1138.5927251998226 1138.5927251998226 0.0 0.0
863.7663390715319 863.7663390715319 0.0 0.0
619.2345864082533 619.2345864082533 0.0 0.0
413.52897761553334 413.52897761553334 0.0 0.0
247.48231225012637 247.48231225012637 0.0 0.0
114.94819999085934 114.94819999085934 0.0 0.0
32.356971001685466 32.356971001685466 0.0 0.0
7.741236378276355 7.741236378276355 0.0 0.0