# vtk DataFile Version 3.0
Some data
ASCII
DATASET UNSTRUCTURED_GRID
POINTS 1029 float
0.0 0.0 0.0
0.8 0.0 0.0
1.6 0.0 0.0
2.4000000000000004 0.0 0.0
3.2 0.0 0.0
4.0 0.0 0.0
4.800000000000001 0.0 0.0
5.6000000000000005 0.0 0.0
6.4 0.0 0.0
7.2 0.0 0.0
8.0 0.0 0.0
8.8 0.0 0.0
9.600000000000001 0.0 0.0
10.4 0.0 0.0
11.200000000000001 0.0 0.0
12.0 0.0 0.0
12.8 0.0 0.0
13.600000000000001 0.0 0.0
14.4 0.0 0.0
15.200000000000001 0.0 0.0
16.0 0.0 0.0
0.0 0.3333333333333333 0.0
0.8 0.3333333333333333 0.0
1.6 0.3333333333333333 0.0
2.4000000000000004 0.3333333333333333 0.0
3.2 0.3333333333333333 0.0
4.0 0.3333333333333333 0.0
4.800000000000001 0.3333333333333333 0.0
5.6000000000000005 0.3333333333333333 0.0
6.4 0.3333333333333333 0.0
7.2 0.3333333333333333 0.0
8.0 0.3333333333333333 0.0
8.8 0.3333333333333333 0.0
9.600000000000001 0.3333333333333333 0.0
10.4 0.3333333333333333 0.0
11.200000000000001 0.3333333333333333 0.0
12.0 0.3333333333333333 0.0
12.8 0.3333333333333333 0.0
13.600000000000001 0.3333333333333333 0.0
14.4 0.3333333333333333 0.0
15.200000000000001 0.3333333333333333 0.0
16.0 0.3333333333333333 0.0
0.0 0.6666666666666666 0.0
0.8 0.6666666666666666 0.0
1.6 0.6666666666666666 0.0
2.4000000000000004 0.6666666666666666 0.0
3.2 0.6666666666666666 0.0
4.0 0.6666666666666666 0.0
4.800000000000001 0.6666666666666666 0.0
5.6000000000000005 0.6666666666666666 0.0
6.4 0.6666666666666666 0.0
7.2 0.6666666666666666 0.0
8.0 0.6666666666666666 0.0
8.8 0.6666666666666666 0.0
9.600000000000001 0.6666666666666666 0.0
10.4 0.6666666666666666 0.0
11.200000000000001 0.6666666666666666 0.0
12.0 0.6666666666666666 0.0
12.8 0.6666666666666666 0.0
13.600000000000001 0.6666666666666666 0.0
14.4 0.6666666666666666 0.0
15.200000000000001 0.6666666666666666 0.0
16.0 0.6666666666666666 0.0
0.0 1.0 0.0
0.8 1.0 0.0
1.6 1.0 0.0
2.4000000000000004 1.0 0.0
3.2 1.0 0.0
4.0 1.0 0.0
4.800000000000001 1.0 0.0
5.6000000000000005 1.0 0.0
6.4 1.0 0.0
7.2 1.0 0.0
8.0 1.0 0.0
8.8 1.0 0.0
9.600000000000001 1.0 0.0
10.4 1.0 0.0
11.200000000000001 1.0 0.0
12.0 1.0 0.0
12.8 1.0 0.0
13.600000000000001 1.0 0.0
14.4 1.0 0.0
15.200000000000001 1.0 0.0
16.0 1.0 0.0
0.0 1.3333333333333333 0.0
0.8 1.3333333333333333 0.0
1.6 1.3333333333333333 0.0
2.4000000000000004 1.3333333333333333 0.0
3.2 1.3333333333333333 0.0
4.0 1.3333333333333333 0.0
4.800000000000001 1.3333333333333333 0.0
5.6000000000000005 1.3333333333333333 0.0
6.4 1.3333333333333333 0.0
7.2 1.3333333333333333 0.0
8.0 1.3333333333333333 0.0
8.8 1.3333333333333333 0.0
9.600000000000001 1.3333333333333333 0.0
10.4 1.3333333333333333 0.0
11.200000000000001 1.3333333333333333 0.0
12.0 1.3333333333333333 0.0
12.8 1.3333333333333333 0.0
13.600000000000001 1.3333333333333333 0.0
14.4 1.3333333333333333 0.0
15.200000000000001 1.3333333333333333 0.0
16.0 1.3333333333333333 0.0
0.0 1.6666666666666665 0.0
0.8 1.6666666666666665 0.0
1.6 1.6666666666666665 0.0
2.4000000000000004 1.6666666666666665 0.0
3.2 1.6666666666666665 0.0
4.0 1.6666666666666665 0.0
4.800000000000001 1.6666666666666665 0.0
5.6000000000000005 1.6666666666666665 0.0
6.4 1.6666666666666665 0.0
7.2 1.6666666666666665 0.0
8.0 1.6666666666666665 0.0
8.8 1.6666666666666665 0.0
9.600000000000001 1.6666666666666665 0.0
10.4 1.6666666666666665 0.0
11.200000000000001 1.6666666666666665 0.0
12.0 1.6666666666666665 0.0
12.8 1.6666666666666665 0.0
13.600000000000001 1.6666666666666665 0.0
14.4 1.6666666666666665 0.0
15.200000000000001 1.6666666666666665 0.0
16.0 1.6666666666666665 0.0
0.0 2.0 0.0
0.8 2.0 0.0
1.6 2.0 0.0
2.4000000000000004 2.0 0.0
3.2 2.0 0.0
4.0 2.0 0.0
4.800000000000001 2.0 0.0
5.6000000000000005 2.0 0.0
6.4 2.0 0.0
7.2 2.0 0.0
8.0 2.0 0.0
8.8 2.0 0.0
9.600000000000001 2.0 0.0
10.4 2.0 0.0
11.200000000000001 2.0 0.0
12.0 2.0 0.0
12.8 2.0 0.0
13.600000000000001 2.0 0.0
14.4 2.0 0.0
15.200000000000001 2.0 0.0
16.0 2.0 0.0
0.0 0.0 1.6666666666666667
0.8 0.0 1.6666666666666667
1.6 0.0 1.6666666666666667
2.4000000000000004 0.0 1.6666666666666667
3.2 0.0 1.6666666666666667
4.0 0.0 1.6666666666666667
4.800000000000001 0.0 1.6666666666666667
5.6000000000000005 0.0 1.6666666666666667
6.4 0.0 1.6666666666666667
7.2 0.0 1.6666666666666667
8.0 0.0 1.6666666666666667
8.8 0.0 1.6666666666666667
9.600000000000001 0.0 1.6666666666666667
10.4 0.0 1.6666666666666667
11.200000000000001 0.0 1.6666666666666667
12.0 0.0 1.6666666666666667
12.8 0.0 1.6666666666666667
13.600000000000001 0.0 1.6666666666666667
14.4 0.0 1.6666666666666667
15.200000000000001 0.0 1.6666666666666667
16.0 0.0 1.6666666666666667
0.0 0.3333333333333333 1.6666666666666667
0.8 0.3333333333333333 1.6666666666666667
1.6 0.3333333333333333 1.6666666666666667
2.4000000000000004 0.3333333333333333 1.6666666666666667
3.2 0.3333333333333333 1.6666666666666667
4.0 0.3333333333333333 1.6666666666666667
4.800000000000001 0.3333333333333333 1.6666666666666667
5.6000000000000005 0.3333333333333333 1.6666666666666667
6.4 0.3333333333333333 1.6666666666666667
7.2 0.3333333333333333 1.6666666666666667
8.0 0.3333333333333333 1.6666666666666667
8.8 0.3333333333333333 1.6666666666666667
9.600000000000001 0.3333333333333333 1.6666666666666667
10.4 0.3333333333333333 1.6666666666666667
11.200000000000001 0.3333333333333333 1.6666666666666667
12.0 0.3333333333333333 1.6666666666666667
12.8 0.3333333333333333 1.6666666666666667
13.600000000000001 0.3333333333333333 1.6666666666666667
14.4 0.3333333333333333 1.6666666666666667
15.200000000000001 0.3333333333333333 1.6666666666666667
16.0 0.3333333333333333 1.6666666666666667
0.0 0.6666666666666666 1.6666666666666667
0.8 0.6666666666666666 1.6666666666666667
1.6 0.6666666666666666 1.6666666666666667
2.4000000000000004 0.6666666666666666 1.6666666666666667
3.2 0.6666666666666666 1.6666666666666667
4.0 0.6666666666666666 1.6666666666666667
4.800000000000001 0.6666666666666666 1.6666666666666667
5.6000000000000005 0.6666666666666666 1.6666666666666667
6.4 0.6666666666666666 1.6666666666666667
7.2 0.6666666666666666 1.6666666666666667
8.0 0.6666666666666666 1.6666666666666667
8.8 0.6666666666666666 1.6666666666666667
9.600000000000001 0.6666666666666666 1.6666666666666667
10.4 0.6666666666666666 1.6666666666666667
11.200000000000001 0.6666666666666666 1.6666666666666667
12.0 0.6666666666666666 1.6666666666666667
12.8 0.6666666666666666 1.6666666666666667
13.600000000000001 0.6666666666666666 1.6666666666666667
14.4 0.6666666666666666 1.6666666666666667
15.200000000000001 0.6666666666666666 1.6666666666666667
16.0 0.6666666666666666 1.6666666666666667
0.0 1.0 1.6666666666666667
0.8 1.0 1.6666666666666667
1.6 1.0 1.6666666666666667
2.4000000000000004 1.0 1.6666666666666667
3.2 1.0 1.6666666666666667
4.0 1.0 1.6666666666666667
4.800000000000001 1.0 1.6666666666666667
5.6000000000000005 1.0 1.6666666666666667
6.4 1.0 1.6666666666666667
7.2 1.0 1.6666666666666667
8.0 1.0 1.6666666666666667
8.8 1.0 1.6666666666666667
9.600000000000001 1.0 1.6666666666666667
10.4 1.0 1.6666666666666667
11.200000000000001 1.0 1.6666666666666667
12.0 1.0 1.6666666666666667
12.8 1.0 1.6666666666666667
13.600000000000001 1.0 1.6666666666666667
14.4 1.0 1.6666666666666667
15.200000000000001 1.0 1.6666666666666667
16.0 1.0 1.6666666666666667
0.0 1.3333333333333333 1.6666666666666667
0.8 1.3333333333333333 1.6666666666666667
1.6 1.3333333333333333 1.6666666666666667
2.4000000000000004 1.3333333333333333 1.6666666666666667
3.2 1.3333333333333333 1.6666666666666667
4.0 1.3333333333333333 1.6666666666666667
4.800000000000001 1.3333333333333333 1.6666666666666667
5.6000000000000005 1.3333333333333333 1.6666666666666667
6.4 1.3333333333333333 1.6666666666666667
7.2 1.3333333333333333 1.6666666666666667
8.0 1.3333333333333333 1.6666666666666667
8.8 1.3333333333333333 1.6666666666666667
9.600000000000001 1.3333333333333333 1.6666666666666667
10.4 1.3333333333333333 1.6666666666666667
11.200000000000001 1.3333333333333333 1.6666666666666667
12.0 1.3333333333333333 1.6666666666666667
12.8 1.3333333333333333 1.6666666666666667
13.600000000000001 1.3333333333333333 1.6666666666666667
14.4 1.3333333333333333 1.6666666666666667
15.200000000000001 1.3333333333333333 1.6666666666666667
16.0 1.3333333333333333 1.6666666666666667
0.0 1.6666666666666665 1.6666666666666667
0.8 1.6666666666666665 1.6666666666666667
1.6 1.6666666666666665 1.6666666666666667
2.4000000000000004 1.6666666666666665 1.6666666666666667
3.2 1.6666666666666665 1.6666666666666667
4.0 1.6666666666666665 1.6666666666666667
4.800000000000001 1.6666666666666665 1.6666666666666667
5.6000000000000005 1.6666666666666665 1.6666666666666667
6.4 1.6666666666666665 1.6666666666666667
7.2 1.6666666666666665 1.6666666666666667
8.0 1.6666666666666665 1.6666666666666667
8.8 1.6666666666666665 1.6666666666666667
9.600000000000001 1.6666666666666665 1.6666666666666667
10.4 1.6666666666666665 1.6666666666666667
11.200000000000001 1.6666666666666665 1.6666666666666667
12.0 1.6666666666666665 1.6666666666666667
12.8 1.6666666666666665 1.6666666666666667
13.600000000000001 1.6666666666666665 1.6666666666666667
14.4 1.6666666666666665 1.6666666666666667
15.200000000000001 1.6666666666666665 1.6666666666666667
16.0 1.6666666666666665 1.6666666666666667
0.0 2.0 1.6666666666666667
0.8 2.0 1.6666666666666667
1.6 2.0 1.6666666666666667
2.4000000000000004 2.0 1.6666666666666667
3.2 2.0 1.6666666666666667
4.0 2.0 1.6666666666666667
4.800000000000001 2.0 1.6666666666666667
5.6000000000000005 2.0 1.6666666666666667
6.4 2.0 1.6666666666666667
7.2 2.0 1.6666666666666667
8.0 2.0 1.6666666666666667
8.8 2.0 1.6666666666666667
9.600000000000001 2.0 1.6666666666666667
10.4 2.0 1.6666666666666667
11.200000000000001 2.0 1.6666666666666667
12.0 2.0 1.6666666666666667
12.8 2.0 1.6666666666666667
13.600000000000001 2.0 1.6666666666666667
14.4 2.0 1.6666666666666667
15.200000000000001 2.0 1.6666666666666667
16.0 2.0 1.6666666666666667
0.0 0.0 3.3333333333333335
0.8 0.0 3.3333333333333335
1.6 0.0 3.3333333333333335
2.4000000000000004 0.0 3.3333333333333335
3.2 0.0 3.3333333333333335
4.0 0.0 3.3333333333333335
4.800000000000001 0.0 3.3333333333333335
5.6000000000000005 0.0 3.3333333333333335
6.4 0.0 3.3333333333333335
7.2 0.0 3.3333333333333335
8.0 0.0 3.3333333333333335
8.8 0.0 3.3333333333333335
9.600000000000001 0.0 3.3333333333333335
10.4 0.0 3.3333333333333335
11.200000000000001 0.0 3.3333333333333335
12.0 0.0 3.3333333333333335
12.8 0.0 3.3333333333333335
13.600000000000001 0.0 3.3333333333333335
14.4 0.0 3.3333333333333335
15.200000000000001 0.0 3.3333333333333335
16.0 0.0 3.3333333333333335
0.0 0.3333333333333333 3.3333333333333335
0.8 0.3333333333333333 3.3333333333333335
1.6 0.3333333333333333 3.3333333333333335
2.4000000000000004 0.3333333333333333 3.3333333333333335
3.2 0.3333333333333333 3.3333333333333335
4.0 0.3333333333333333 3.3333333333333335
4.800000000000001 0.3333333333333333 3.3333333333333335
5.6000000000000005 0.3333333333333333 3.3333333333333335
6.4 0.3333333333333333 3.3333333333333335
7.2 0.3333333333333333 3.3333333333333335
8.0 0.3333333333333333 3.3333333333333335
8.8 0.3333333333333333 3.3333333333333335
9.600000000000001 0.3333333333333333 3.3333333333333335
10.4 0.3333333333333333 3.3333333333333335
11.200000000000001 0.3333333333333333 3.3333333333333335
12.0 0.3333333333333333 3.3333333333333335
12.8 0.3333333333333333 3.3333333333333335
13.600000000000001 0.3333333333333333 3.3333333333333335
14.4 0.3333333333333333 3.3333333333333335
15.200000000000001 0.3333333333333333 3.3333333333333335
16.0 0.3333333333333333 3.3333333333333335
0.0 0.6666666666666666 3.3333333333333335
0.8 0.6666666666666666 3.3333333333333335
1.6 0.6666666666666666 3.3333333333333335
2.4000000000000004 0.6666666666666666 3.3333333333333335
3.2 0.6666666666666666 3.3333333333333335
4.0 0.6666666666666666 3.3333333333333335
4.800000000000001 0.6666666666666666 3.3333333333333335
5.6000000000000005 0.6666666666666666 3.3333333333333335
6.4 0.6666666666666666 3.3333333333333335
7.2 0.6666666666666666 3.3333333333333335
8.0 0.6666666666666666 3.3333333333333335
8.8 0.6666666666666666 3.3333333333333335
9.600000000000001 0.6666666666666666 3.3333333333333335
10.4 0.6666666666666666 3.3333333333333335
11.200000000000001 0.6666666666666666 3.3333333333333335
12.0 0.6666666666666666 3.3333333333333335
12.8 0.6666666666666666 3.3333333333333335
13.600000000000001 0.6666666666666666 3.3333333333333335
14.4 0.6666666666666666 3.3333333333333335
15.200000000000001 0.6666666666666666 3.3333333333333335
16.0 0.6666666666666666 3.3333333333333335
0.0 1.0 3.3333333333333335
0.8 1.0 3.3333333333333335
1.6 1.0 3.3333333333333335
2.4000000000000004 1.0 3.3333333333333335
3.2 1.0 3.3333333333333335
4.0 1.0 3.3333333333333335
4.800000000000001 1.0 3.3333333333333335
5.6000000000000005 1.0 3.3333333333333335
6.4 1.0 3.3333333333333335
7.2 1.0 3.3333333333333335
8.0 1.0 3.3333333333333335
8.8 1.0 3.3333333333333335
9.600000000000001 1.0 3.3333333333333335
10.4 1.0 3.3333333333333335
11.200000000000001 1.0 3.3333333333333335
12.0 1.0 3.3333333333333335
12.8 1.0 3.3333333333333335
13.600000000000001 1.0 3.3333333333333335
14.4 1.0 3.3333333333333335
15.200000000000001 1.0 3.3333333333333335
16.0 1.0 3.3333333333333335
0.0 1.3333333333333333 3.3333333333333335
0.8 1.3333333333333333 3.3333333333333335
1.6 1.3333333333333333 3.3333333333333335
2.4000000000000004 1.3333333333333333 3.3333333333333335
3.2 1.3333333333333333 3.3333333333333335
4.0 1.3333333333333333 3.3333333333333335
4.800000000000001 1.3333333333333333 3.3333333333333335
5.6000000000000005 1.3333333333333333 3.3333333333333335
6.4 1.3333333333333333 3.3333333333333335
7.2 1.3333333333333333 3.3333333333333335
8.0 1.3333333333333333 3.3333333333333335
8.8 1.3333333333333333 3.3333333333333335
9.600000000000001 1.3333333333333333 3.3333333333333335
10.4 1.3333333333333333 3.3333333333333335
11.200000000000001 1.3333333333333333 3.3333333333333335
12.0 1.3333333333333333 3.3333333333333335
12.8 1.3333333333333333 3.3333333333333335
13.600000000000001 1.3333333333333333 3.3333333333333335
14.4 1.3333333333333333 3.3333333333333335
15.200000000000001 1.3333333333333333 3.3333333333333335
16.0 1.3333333333333333 3.3333333333333335
0.0 1.6666666666666665 3.3333333333333335
0.8 1.6666666666666665 3.3333333333333335
1.6 1.6666666666666665 3.3333333333333335
2.4000000000000004 1.6666666666666665 3.3333333333333335
3.2 1.6666666666666665 3.3333333333333335
4.0 1.6666666666666665 3.3333333333333335
4.800000000000001 1.6666666666666665 3.3333333333333335
5.6000000000000005 1.6666666666666665 3.3333333333333335
6.4 1.6666666666666665 3.3333333333333335
7.2 1.6666666666666665 3.3333333333333335
8.0 1.6666666666666665 3.3333333333333335
8.8 1.6666666666666665 3.3333333333333335
9.600000000000001 1.6666666666666665 3.3333333333333335
10.4 1.6666666666666665 3.3333333333333335
11.200000000000001 1.6666666666666665 3.3333333333333335
12.0 1.6666666666666665 3.3333333333333335
12.8 1.6666666666666665 3.3333333333333335
13.600000000000001 1.6666666666666665 3.3333333333333335
14.4 1.6666666666666665 3.3333333333333335
15.200000000000001 1.6666666666666665 3.3333333333333335
16.0 1.6666666666666665 3.3333333333333335
0.0 2.0 3.3333333333333335
0.8 2.0 3.3333333333333335
1.6 2.0 3.3333333333333335
2.4000000000000004 2.0 3.3333333333333335
3.2 2.0 3.3333333333333335
4.0 2.0 3.3333333333333335
4.800000000000001 2.0 3.3333333333333335
5.6000000000000005 2.0 3.3333333333333335
6.4 2.0 3.3333333333333335
7.2 2.0 3.3333333333333335
8.0 2.0 3.3333333333333335
8.8 2.0 3.3333333333333335
9.600000000000001 2.0 3.3333333333333335
10.4 2.0 3.3333333333333335
11.200000000000001 2.0 3.3333333333333335
12.0 2.0 3.3333333333333335
12.8 2.0 3.3333333333333335
13.600000000000001 2.0 3.3333333333333335
14.4 2.0 3.3333333333333335
15.200000000000001 2.0 3.3333333333333335
16.0 2.0 3.3333333333333335
0.0 0.0 5.0
0.8 0.0 5.0
1.6 0.0 5.0
2.4000000000000004 0.0 5.0
3.2 0.0 5.0
4.0 0.0 5.0
4.800000000000001 0.0 5.0
5.6000000000000005 0.0 5.0
6.4 0.0 5.0
7.2 0.0 5.0
8.0 0.0 5.0
8.8 0.0 5.0
9.600000000000001 0.0 5.0
10.4 0.0 5.0
11.200000000000001 0.0 5.0
12.0 0.0 5.0
12.8 0.0 5.0
13.600000000000001 0.0 5.0
14.4 0.0 5.0
15.200000000000001 0.0 5.0
16.0 0.0 5.0
0.0 0.3333333333333333 5.0
0.8 0.3333333333333333 5.0
1.6 0.3333333333333333 5.0
2.4000000000000004 0.3333333333333333 5.0
3.2 0.3333333333333333 5.0
4.0 0.3333333333333333 5.0
4.800000000000001 0.3333333333333333 5.0
5.6000000000000005 0.3333333333333333 5.0
6.4 0.3333333333333333 5.0
7.2 0.3333333333333333 5.0
8.0 0.3333333333333333 5.0
8.8 0.3333333333333333 5.0
9.600000000000001 0.3333333333333333 5.0
10.4 0.3333333333333333 5.0
11.200000000000001 0.3333333333333333 5.0
12.0 0.3333333333333333 5.0
12.8 0.3333333333333333 5.0
13.600000000000001 0.3333333333333333 5.0
14.4 0.3333333333333333 5.0
15.200000000000001 0.3333333333333333 5.0
16.0 0.3333333333333333 5.0
0.0 0.6666666666666666 5.0
0.8 0.6666666666666666 5.0
1.6 0.6666666666666666 5.0
2.4000000000000004 0.6666666666666666 5.0
3.2 0.6666666666666666 5.0
4.0 0.6666666666666666 5.0
4.800000000000001 0.6666666666666666 5.0
5.6000000000000005 0.6666666666666666 5.0
6.4 0.6666666666666666 5.0
7.2 0.6666666666666666 5.0
8.0 0.6666666666666666 5.0
8.8 0.6666666666666666 5.0
9.600000000000001 0.6666666666666666 5.0
10.4 0.6666666666666666 5.0
11.200000000000001 0.6666666666666666 5.0
12.0 0.6666666666666666 5.0
12.8 0.6666666666666666 5.0
13.600000000000001 0.6666666666666666 5.0
14.4 0.6666666666666666 5.0
15.200000000000001 0.6666666666666666 5.0
16.0 0.6666666666666666 5.0
0.0 1.0 5.0
0.8 1.0 5.0
1.6 1.0 5.0
2.4000000000000004 1.0 5.0
3.2 1.0 5.0
4.0 1.0 5.0
4.800000000000001 1.0 5.0
5.6000000000000005 1.0 5.0
6.4 1.0 5.0
7.2 1.0 5.0
8.0 1.0 5.0
8.8 1.0 5.0
9.600000000000001 1.0 5.0
10.4 1.0 5.0
11.200000000000001 1.0 5.0
12.0 1.0 5.0
12.8 1.0 5.0
13.600000000000001 1.0 5.0
14.4 1.0 5.0
15.200000000000001 1.0 5.0
16.0 1.0 5.0
0.0 1.3333333333333333 5.0
0.8 1.3333333333333333 5.0
1.6 1.3333333333333333 5.0
2.4000000000000004 1.3333333333333333 5.0
3.2 1.3333333333333333 5.0
4.0 1.3333333333333333 5.0
4.800000000000001 1.3333333333333333 5.0
5.6000000000000005 1.3333333333333333 5.0
6.4 1.3333333333333333 5.0
7.2 1.3333333333333333 5.0
8.0 1.3333333333333333 5.0
8.8 1.3333333333333333 5.0
9.600000000000001 1.3333333333333333 5.0
10.4 1.3333333333333333 5.0
11.200000000000001 1.3333333333333333 5.0
12.0 1.3333333333333333 5.0
12.8 1.3333333333333333 5.0
13.600000000000001 1.3333333333333333 5.0
14.4 1.3333333333333333 5.0
15.200000000000001 1.3333333333333333 5.0
16.0 1.3333333333333333 5.0
0.0 1.6666666666666665 5.0
0.8 1.6666666666666665 5.0
1.6 1.6666666666666665 5.0
2.4000000000000004 1.6666666666666665 5.0
3.2 1.6666666666666665 5.0
4.0 1.6666666666666665 5.0
4.800000000000001 1.6666666666666665 5.0
5.6000000000000005 1.6666666666666665 5.0
6.4 1.6666666666666665 5.0
7.2 1.6666666666666665 5.0
8.0 1.6666666666666665 5.0
8.8 1.6666666666666665 5.0
9.600000000000001 1.6666666666666665 5.0
10.4 1.6666666666666665 5.0
11.200000000000001 1.6666666666666665 5.0
12.0 1.6666666666666665 5.0
12.8 1.6666666666666665 5.0
13.600000000000001 1.6666666666666665 5.0
14.4 1.6666666666666665 5.0
15.200000000000001 1.6666666666666665 5.0
16.0 1.6666666666666665 5.0
0.0 2.0 5.0
0.8 2.0 5.0
1.6 2.0 5.0
2.4000000000000004 2.0 5.0
3.2 2.0 5.0
4.0 2.0 5.0
4.800000000000001 2.0 5.0
5.6000000000000005 2.0 5.0
6.4 2.0 5.0
7.2 2.0 5.0
8.0 2.0 5.0
8.8 2.0 5.0
9.600000000000001 2.0 5.0
10.4 2.0 5.0
11.200000000000001 2.0 5.0
12.0 2.0 5.0
12.8 2.0 5.0
13.600000000000001 2.0 5.0
14.4 2.0 5.0
15.200000000000001 2.0 5.0
16.0 2.0 5.0
0.0 0.0 6.666666666666667
0.8 0.0 6.666666666666667
1.6 0.0 6.666666666666667
2.4000000000000004 0.0 6.666666666666667
3.2 0.0 6.666666666666667
4.0 0.0 6.666666666666667
4.800000000000001 0.0 6.666666666666667
5.6000000000000005 0.0 6.666666666666667
6.4 0.0 6.666666666666667
7.2 0.0 6.666666666666667
8.0 0.0 6.666666666666667
8.8 0.0 6.666666666666667
9.600000000000001 0.0 6.666666666666667
10.4 0.0 6.666666666666667
11.200000000000001 0.0 6.666666666666667
12.0 0.0 6.666666666666667
12.8 0.0 6.666666666666667
13.600000000000001 0.0 6.666666666666667
14.4 0.0 6.666666666666667
15.200000000000001 0.0 6.666666666666667
16.0 0.0 6.666666666666667
0.0 0.3333333333333333 6.666666666666667
0.8 0.3333333333333333 6.666666666666667
1.6 0.3333333333333333 6.666666666666667
2.4000000000000004 0.3333333333333333 6.666666666666667
3.2 0.3333333333333333 6.666666666666667
4.0 0.3333333333333333 6.666666666666667
4.800000000000001 0.3333333333333333 6.666666666666667
5.6000000000000005 0.3333333333333333 6.666666666666667
6.4 0.3333333333333333 6.666666666666667
7.2 0.3333333333333333 6.666666666666667
8.0 0.3333333333333333 6.666666666666667
8.8 0.3333333333333333 6.666666666666667
9.600000000000001 0.3333333333333333 6.666666666666667
10.4 0.3333333333333333 6.666666666666667
11.200000000000001 0.3333333333333333 6.666666666666667
12.0 0.3333333333333333 6.666666666666667
12.8 0.3333333333333333 6.666666666666667
13.600000000000001 0.3333333333333333 6.666666666666667
14.4 0.3333333333333333 6.666666666666667
15.200000000000001 0.3333333333333333 6.666666666666667
16.0 0.3333333333333333 6.666666666666667
0.0 0.6666666666666666 6.666666666666667
0.8 0.6666666666666666 6.666666666666667
1.6 0.6666666666666666 6.666666666666667
2.4000000000000004 0.6666666666666666 6.666666666666667
3.2 0.6666666666666666 6.666666666666667
4.0 0.6666666666666666 6.666666666666667
4.800000000000001 0.6666666666666666 6.666666666666667
5.6000000000000005 0.6666666666666666 6.666666666666667
6.4 0.6666666666666666 6.666666666666667
7.2 0.6666666666666666 6.666666666666667
8.0 0.6666666666666666 6.666666666666667
8.8 0.6666666666666666 6.666666666666667
9.600000000000001 0.6666666666666666 6.666666666666667
10.4 0.6666666666666666 6.666666666666667
11.200000000000001 0.6666666666666666 6.666666666666667
12.0 0.6666666666666666 6.666666666666667
12.8 0.6666666666666666 6.666666666666667
13.600000000000001 0.6666666666666666 6.666666666666667
14.4 0.6666666666666666 6.666666666666667
15.200000000000001 0.6666666666666666 6.666666666666667
16.0 0.6666666666666666 6.666666666666667
0.0 1.0 6.666666666666667
0.8 1.0 6.666666666666667
1.6 1.0 6.666666666666667
2.4000000000000004 1.0 6.666666666666667
3.2 1.0 6.666666666666667
4.0 1.0 6.666666666666667
4.800000000000001 1.0 6.666666666666667
5.6000000000000005 1.0 6.666666666666667
6.4 1.0 6.666666666666667
7.2 1.0 6.666666666666667
8.0 1.0 6.666666666666667
8.8 1.0 6.666666666666667
9.600000000000001 1.0 6.666666666666667
10.4 1.0 6.666666666666667
11.200000000000001 1.0 6.666666666666667
12.0 1.0 6.666666666666667
12.8 1.0 6.666666666666667
13.600000000000001 1.0 6.666666666666667
14.4 1.0 6.666666666666667
15.200000000000001 1.0 6.666666666666667
16.0 1.0 6.666666666666667
0.0 1.3333333333333333 6.666666666666667
0.8 1.3333333333333333 6.666666666666667
1.6 1.3333333333333333 6.666666666666667
2.4000000000000004 1.3333333333333333 6.666666666666667
3.2 1.3333333333333333 6.666666666666667
4.0 1.3333333333333333 6.666666666666667
4.800000000000001 1.3333333333333333 6.666666666666667
5.6000000000000005 1.3333333333333333 6.666666666666667
6.4 1.3333333333333333 6.666666666666667
7.2 1.3333333333333333 6.666666666666667
8.0 1.3333333333333333 6.666666666666667
8.8 1.3333333333333333 6.666666666666667
9.600000000000001 1.3333333333333333 6.666666666666667
10.4 1.3333333333333333 6.666666666666667
11.200000000000001 1.3333333333333333 6.666666666666667
12.0 1.3333333333333333 6.666666666666667
12.8 1.3333333333333333 6.666666666666667
13.600000000000001 1.3333333333333333 6.666666666666667
14.4 1.3333333333333333 6.666666666666667
15.200000000000001 1.3333333333333333 6.666666666666667
16.0 1.3333333333333333 6.666666666666667
0.0 1.6666666666666665 6.666666666666667
0.8 1.6666666666666665 6.666666666666667
1.6 1.6666666666666665 6.666666666666667
2.4000000000000004 1.6666666666666665 6.666666666666667
3.2 1.6666666666666665 6.666666666666667
4.0 1.6666666666666665 6.666666666666667
4.800000000000001 1.6666666666666665 6.666666666666667
5.6000000000000005 1.6666666666666665 6.666666666666667
6.4 1.6666666666666665 6.666666666666667
7.2 1.6666666666666665 6.666666666666667
8.0 1.6666666666666665 6.666666666666667
8.8 1.6666666666666665 6.666666666666667
9.600000000000001 1.6666666666666665 6.666666666666667
10.4 1.6666666666666665 6.666666666666667
11.200000000000001 1.6666666666666665 6.666666666666667
12.0 1.6666666666666665 6.666666666666667
12.8 1.6666666666666665 6.666666666666667
13.600000000000001 1.6666666666666665 6.666666666666667
14.4 1.6666666666666665 6.666666666666667
15.200000000000001 1.6666666666666665 6.666666666666667
16.0 1.6666666666666665 6.666666666666667
0.0 2.0 6.666666666666667
0.8 2.0 6.666666666666667
1.6 2.0 6.666666666666667
2.4000000000000004 2.0 6.666666666666667
3.2 2.0 6.666666666666667
4.0 2.0 6.666666666666667
4.800000000000001 2.0 6.666666666666667
5.6000000000000005 2.0 6.666666666666667
6.4 2.0 6.666666666666667
7.2 2.0 6.666666666666667
8.0 2.0 6.666666666666667
8.8 2.0 6.666666666666667
9.600000000000001 2.0 6.666666666666667
10.4 2.0 6.666666666666667
11.200000000000001 2.0 6.666666666666667
12.0 2.0 6.666666666666667
12.8 2.0 6.666666666666667
13.600000000000001 2.0 6.666666666666667
14.4 2.0 6.666666666666667
15.200000000000001 2.0 6.666666666666667
16.0 2.0 6.666666666666667
0.0 0.0 8.333333333333334
0.8 0.0 8.333333333333334
1.6 0.0 8.333333333333334
2.4000000000000004 0.0 8.333333333333334
3.2 0.0 8.333333333333334
4.0 0.0 8.333333333333334
4.800000000000001 0.0 8.333333333333334
5.6000000000000005 0.0 8.333333333333334
6.4 0.0 8.333333333333334
7.2 0.0 8.333333333333334
8.0 0.0 8.333333333333334
8.8 0.0 8.333333333333334
9.600000000000001 0.0 8.333333333333334
10.4 0.0 8.333333333333334
11.200000000000001 0.0 8.333333333333334
12.0 0.0 8.333333333333334
12.8 0.0 8.333333333333334
13.600000000000001 0.0 8.333333333333334
14.4 0.0 8.333333333333334
15.200000000000001 0.0 8.333333333333334
16.0 0.0 8.333333333333334
0.0 0.3333333333333333 8.333333333333334
0.8 0.3333333333333333 8.333333333333334
1.6 0.3333333333333333 8.333333333333334
2.4000000000000004 0.3333333333333333 8.333333333333334
3.2 0.3333333333333333 8.333333333333334
4.0 0.3333333333333333 8.333333333333334
4.800000000000001 0.3333333333333333 8.333333333333334
5.6000000000000005 0.3333333333333333 8.333333333333334
6.4 0.3333333333333333 8.333333333333334
7.2 0.3333333333333333 8.333333333333334
8.0 0.3333333333333333 8.333333333333334
8.8 0.3333333333333333 8.333333333333334
9.600000000000001 0.3333333333333333 8.333333333333334
10.4 0.3333333333333333 8.333333333333334
11.200000000000001 0.3333333333333333 8.333333333333334
12.0 0.3333333333333333 8.333333333333334
12.8 0.3333333333333333 8.333333333333334
13.600000000000001 0.3333333333333333 8.333333333333334
14.4 0.3333333333333333 8.333333333333334
15.200000000000001 0.3333333333333333 8.333333333333334
16.0 0.3333333333333333 8.333333333333334
0.0 0.6666666666666666 8.333333333333334
0.8 0.6666666666666666 8.333333333333334
1.6 0.6666666666666666 8.333333333333334
2.4000000000000004 0.6666666666666666 8.333333333333334
3.2 0.6666666666666666 8.333333333333334
4.0 0.6666666666666666 8.333333333333334
4.800000000000001 0.6666666666666666 8.333333333333334
5.6000000000000005 0.6666666666666666 8.333333333333334
6.4 0.6666666666666666 8.333333333333334
7.2 0.6666666666666666 8.333333333333334
8.0 0.6666666666666666 8.333333333333334
8.8 0.6666666666666666 8.333333333333334
9.600000000000001 0.6666666666666666 8.333333333333334
10.4 0.6666666666666666 8.333333333333334
11.200000000000001 0.6666666666666666 8.333333333333334
12.0 0.6666666666666666 8.333333333333334
12.8 0.6666666666666666 8.333333333333334
13.600000000000001 0.6666666666666666 8.333333333333334
14.4 0.6666666666666666 8.333333333333334
15.200000000000001 0.6666666666666666 8.333333333333334
16.0 0.6666666666666666 8.333333333333334
0.0 1.0 8.333333333333334
0.8 1.0 8.333333333333334
1.6 1.0 8.333333333333334
2.4000000000000004 1.0 8.333333333333334
3.2 1.0 8.333333333333334
4.0 1.0 8.333333333333334
4.800000000000001 1.0 8.333333333333334
5.6000000000000005 1.0 8.333333333333334
6.4 1.0 8.333333333333334
7.2 1.0 8.333333333333334
8.0 1.0 8.333333333333334
8.8 1.0 8.333333333333334
9.600000000000001 1.0 8.333333333333334
10.4 1.0 8.333333333333334
11.200000000000001 1.0 8.333333333333334
12.0 1.0 8.333333333333334
12.8 1.0 8.333333333333334
13.600000000000001 1.0 8.333333333333334
14.4 1.0 8.333333333333334
15.200000000000001 1.0 8.333333333333334
16.0 1.0 8.333333333333334
0.0 1.3333333333333333 8.333333333333334
0.8 1.3333333333333333 8.333333333333334
1.6 1.3333333333333333 8.333333333333334
2.4000000000000004 1.3333333333333333 8.333333333333334
3.2 1.3333333333333333 8.333333333333334
4.0 1.3333333333333333 8.333333333333334
4.800000000000001 1.3333333333333333 8.333333333333334
5.6000000000000005 1.3333333333333333 8.333333333333334
6.4 1.3333333333333333 8.333333333333334
7.2 1.3333333333333333 8.333333333333334
8.0 1.3333333333333333 8.333333333333334
8.8 1.3333333333333333 8.333333333333334
9.600000000000001 1.3333333333333333 8.333333333333334
10.4 1.3333333333333333 8.333333333333334
11.200000000000001 1.3333333333333333 8.333333333333334
12.0 1.3333333333333333 8.333333333333334
12.8 1.3333333333333333 8.333333333333334
13.600000000000001 1.3333333333333333 8.333333333333334
14.4 1.3333333333333333 8.333333333333334
15.200000000000001 1.3333333333333333 8.333333333333334
16.0 1.3333333333333333 8.333333333333334
0.0 1.6666666666666665 8.333333333333334
0.8 1.6666666666666665 8.333333333333334
1.6 1.6666666666666665 8.333333333333334
2.4000000000000004 1.6666666666666665 8.333333333333334
3.2 1.6666666666666665 8.333333333333334
4.0 1.6666666666666665 8.333333333333334
4.800000000000001 1.6666666666666665 8.333333333333334
5.6000000000000005 1.6666666666666665 8.333333333333334
6.4 1.6666666666666665 8.333333333333334
7.2 1.6666666666666665 8.333333333333334
8.0 1.6666666666666665 8.333333333333334
8.8 1.6666666666666665 8.333333333333334
9.600000000000001 1.6666666666666665 8.333333333333334
10.4 1.6666666666666665 8.333333333333334
11.200000000000001 1.6666666666666665 8.333333333333334
12.0 1.6666666666666665 8.333333333333334
12.8 1.6666666666666665 8.333333333333334
13.600000000000001 1.6666666666666665 8.333333333333334
14.4 1.6666666666666665 8.333333333333334
15.200000000000001 1.6666666666666665 8.333333333333334
16.0 1.6666666666666665 8.333333333333334
0.0 2.0 8.333333333333334
0.8 2.0 8.333333333333334
1.6 2.0 8.333333333333334
2.4000000000000004 2.0 8.333333333333334
3.2 2.0 8.333333333333334
4.0 2.0 8.333333333333334
4.800000000000001 2.0 8.333333333333334
5.6000000000000005 2.0 8.333333333333334
6.4 2.0 8.333333333333334
7.2 2.0 8.333333333333334
8.0 2.0 8.333333333333334
8.8 2.0 8.333333333333334
9.600000000000001 2.0 8.333333333333334
10.4 2.0 8.333333333333334
11.200000000000001 2.0 8.333333333333334
12.0 2.0 8.333333333333334
12.8 2.0 8.333333333333334
13.600000000000001 2.0 8.333333333333334
14.4 2.0 8.333333333333334
15.200000000000001 2.0 8.333333333333334
16.0 2.0 8.333333333333334
0.0 0.0 10.0
0.8 0.0 10.0
1.6 0.0 10.0
2.4000000000000004 0.0 10.0
3.2 0.0 10.0
4.0 0.0 10.0
4.800000000000001 0.0 10.0
5.6000000000000005 0.0 10.0
6.4 0.0 10.0
7.2 0.0 10.0
8.0 0.0 10.0
8.8 0.0 10.0
9.600000000000001 0.0 10.0
10.4 0.0 10.0
11.200000000000001 0.0 10.0
12.0 0.0 10.0
12.8 0.0 10.0
13.600000000000001 0.0 10.0
14.4 0.0 10.0
15.200000000000001 0.0 10.0
16.0 0.0 10.0
0.0 0.3333333333333333 10.0
0.8 0.3333333333333333 10.0
1.6 0.3333333333333333 10.0
2.4000000000000004 0.3333333333333333 10.0
3.2 0.3333333333333333 10.0
4.0 0.3333333333333333 10.0
4.800000000000001 0.3333333333333333 10.0
5.6000000000000005 0.3333333333333333 10.0
6.4 0.3333333333333333 10.0
7.2 0.3333333333333333 10.0
8.0 0.3333333333333333 10.0
8.8 0.3333333333333333 10.0
9.600000000000001 0.3333333333333333 10.0
10.4 0.3333333333333333 10.0
11.200000000000001 0.3333333333333333 10.0
12.0 0.3333333333333333 10.0
12.8 0.3333333333333333 10.0
13.600000000000001 0.3333333333333333 10.0
14.4 0.3333333333333333 10.0
15.200000000000001 0.3333333333333333 10.0
16.0 0.3333333333333333 10.0
0.0 0.6666666666666666 10.0
0.8 0.6666666666666666 10.0
1.6 0.6666666666666666 10.0
2.4000000000000004 0.6666666666666666 10.0
3.2 0.6666666666666666 10.0
4.0 0.6666666666666666 10.0
4.800000000000001 0.6666666666666666 10.0
5.6000000000000005 0.6666666666666666 10.0
6.4 0.6666666666666666 10.0
7.2 0.6666666666666666 10.0
8.0 0.6666666666666666 10.0
8.8 0.6666666666666666 10.0
9.600000000000001 0.6666666666666666 10.0
10.4 0.6666666666666666 10.0
11.200000000000001 0.6666666666666666 10.0
12.0 0.6666666666666666 10.0
12.8 0.6666666666666666 10.0
13.600000000000001 0.6666666666666666 10.0
14.4 0.6666666666666666 10.0
15.200000000000001 0.6666666666666666 10.0
16.0 0.6666666666666666 10.0
0.0 1.0 10.0
0.8 1.0 10.0
1.6 1.0 10.0
2.4000000000000004 1.0 10.0
3.2 1.0 10.0
4.0 1.0 10.0
4.800000000000001 1.0 10.0
5.6000000000000005 1.0 10.0
6.4 1.0 10.0
7.2 1.0 10.0
8.0 1.0 10.0
8.8 1.0 10.0
9.600000000000001 1.0 10.0
10.4 1.0 10.0
11.200000000000001 1.0 10.0
12.0 1.0 10.0
12.8 1.0 10.0
13.600000000000001 1.0 10.0
14.4 1.0 10.0
15.200000000000001 1.0 10.0
16.0 1.0 10.0
0.0 1.3333333333333333 10.0
0.8 1.3333333333333333 10.0
1.6 1.3333333333333333 10.0
2.4000000000000004 1.3333333333333333 10.0
3.2 1.3333333333333333 10.0
4.0 1.3333333333333333 10.0
4.800000000000001 1.3333333333333333 10.0
5.6000000000000005 1.3333333333333333 10.0
6.4 1.3333333333333333 10.0
7.2 1.3333333333333333 10.0
8.0 1.3333333333333333 10.0
8.8 1.3333333333333333 10.0
9.600000000000001 1.3333333333333333 10.0
10.4 1.3333333333333333 10.0
11.200000000000001 1.3333333333333333 10.0
12.0 1.3333333333333333 10.0
12.8 1.3333333333333333 10.0
13.600000000000001 1.3333333333333333 10.0
14.4 1.3333333333333333 10.0
15.200000000000001 1.3333333333333333 10.0
16.0 1.3333333333333333 10.0
0.0 1.6666666666666665 10.0
0.8 1.6666666666666665 10.0
1.6 1.6666666666666665 10.0
2.4000000000000004 1.6666666666666665 10.0
3.2 1.6666666666666665 10.0
4.0 1.6666666666666665 10.0
4.800000000000001 1.6666666666666665 10.0
5.6000000000000005 1.6666666666666665 10.0
6.4 1.6666666666666665 10.0
7.2 1.6666666666666665 10.0
8.0 1.6666666666666665 10.0
8.8 1.6666666666666665 10.0
9.600000000000001 1.6666666666666665 10.0
10.4 1.6666666666666665 10.0
11.200000000000001 1.6666666666666665 10.0
12.0 1.6666666666666665 10.0
12.8 1.6666666666666665 10.0
13.600000000000001 1.6666666666666665 10.0
14.4 1.6666666666666665 10.0
15.200000000000001 1.6666666666666665 10.0
16.0 1.6666666666666665 10.0
0.0 2.0 10.0
0.8 2.0 10.0
1.6 2.0 10.0
2.4000000000000004 2.0 10.0
3.2 2.0 10.0
4.0 2.0 10.0
4.800000000000001 2.0 10.0
5.6000000000000005 2.0 10.0
6.4 2.0 10.0
7.2 2.0 10.0
8.0 2.0 10.0
8.8 2.0 10.0
9.600000000000001 2.0 10.0
10.4 2.0 10.0
11.200000000000001 2.0 10.0
12.0 2.0 10.0
12.8 2.0 10.0
13.600000000000001 2.0 10.0
14.4 2.0 10.0
15.200000000000001 2.0 10.0
16.0 2.0 10.0
CELLS 720 6480
8 0 1 22 21 147 148 169 168
8 1 2 23 22 148 149 170 169
8 2 3 24 23 149 150 171 170
8 3 4 25 24 150 151 172 171
8 4 5 26 25 151 152 173 172
8 5 6 27 26 152 153 174 173
8 6 7 28 27 153 154 175 174
8 7 8 29 28 154 155 176 175
8 8 9 30 29 155 156 177 176
8 9 10 31 30 156 157 178 177
8 10 11 32 31 157 158 179 178
8 11 12 33 32 158 159 180 179
8 12 13 34 33 159 160 181 180
8 13 14 35 34 160 161 182 181
8 14 15 36 35 161 162 183 182
8 15 16 37 36 162 163 184 183
8 16 17 38 37 163 164 185 184
8 17 18 39 38 164 165 186 185
8 18 19 40 39 165 166 187 186
8 19 20 41 40 166 167 188 187
8 21 22 43 42 168 169 190 189
8 22 23 44 43 169 170 191 190
8 23 24 45 44 170 171 192 191
8 24 25 46 45 171 172 193 192
8 25 26 47 46 172 173 194 193
8 26 27 48 47 173 174 195 194
8 27 28 49 48 174 175 196 195
8 28 29 50 49 175 176 197 196
8 29 30 51 50 176 177 198 197
8 30 31 52 51 177 178 199 198
8 31 32 53 52 178 179 200 199
8 32 33 54 53 179 180 201 200
8 33 34 55 54 180 181 202 201
8 34 35 56 55 181 182 203 202
8 35 36 57 56 182 183 204 203
8 36 37 58 57 183 184 205 204
8 37 38 59 58 184 185 206 205
8 38 39 60 59 185 186 207 206
8 39 40 61 60 186 187 208 207
8 40 41 62 61 187 188 209 208
8 42 43 64 63 189 190 211 210
8 43 44 65 64 190 191 212 211
8 44 45 66 65 191 192 213 212
8 45 46 67 66 192 193 214 213
8 46 47 68 67 193 194 215 214
8 47 48 69 68 194 195 216 215
8 48 49 70 69 195 196 217 216
8 49 50 71 70 196 197 218 217
8 50 51 72 71 197 198 219 218
8 51 52 73 72 198 199 220 219
8 52 53 74 73 199 200 221 220
8 53 54 75 74 200 201 222 221
8 54 55 76 75 201 202 223 222
8 55 56 77 76 202 203 224 223
8 56 57 78 77 203 204 225 224
8 57 58 79 78 204 205 226 225
8 58 59 80 79 205 206 227 226
8 59 60 81 80 206 207 228 227
8 60 61 82 81 207 208 229 228
8 61 62 83 82 208 209 230 229
8 63 64 85 84 210 211 232 231
8 64 65 86 85 211 212 233 232
8 65 66 87 86 212 213 234 233
8 66 67 88 87 213 214 235 234
8 67 68 89 88 214 215 236 235
8 68 69 90 89 215 216 237 236
8 69 70 91 90 216 217 238 237
8 70 71 92 91 217 218 239 238
8 71 72 93 92 218 219 240 239
8 72 73 94 93 219 220 241 240
8 73 74 95 94 220 221 242 241
8 74 75 96 95 221 222 243 242
8 75 76 97 96 222 223 244 243
8 76 77 98 97 223 224 245 244
8 77 78 99 98 224 225 246 245
8 78 79 100 99 225 226 247 246
8 79 80 101 100 226 227 248 247
8 80 81 102 101 227 228 249 248
8 81 82 103 102 228 229 250 249
8 82 83 104 103 229 230 251 250
8 84 85 106 105 231 232 253 252
8 85 86 107 106 232 233 254 253
8 86 87 108 107 233 234 255 254
8 87 88 109 108 234 235 256 255
8 88 89 110 109 235 236 257 256
8 89 90 111 110 236 237 258 257
8 90 91 112 111 237 238 259 258
8 91 92 113 112 238 239 260 259
8 92 93 114 113 239 240 261 260
8 93 94 115 114 240 241 262 261
8 94 95 116 115 241 242 263 262
8 95 96 117 116 242 243 264 263
8 96 97 118 117 243 244 265 264
8 97 98 119 118 244 245 266 265
8 98 99 120 119 245 246 267 266
8 99 100 121 120 246 247 268 267
8 100 101 122 121 247 248 269 268
8 101 102 123 122 248 249 270 269
8 102 103 124 123 249 250 271 270
8 103 104 125 124 250 251 272 271
8 105 106 127 126 252 253 274 273
8 106 107 128 127 253 254 275 274
8 107 108 129 128 254 255 276 275
8 108 109 130 129 255 256 277 276
8 109 110 131 130 256 257 278 277
8 110 111 132 131 257 258 279 278
8 111 112 133 132 258 259 280 279
8 112 113 134 133 259 260 281 280
8 113 114 135 134 260 261 282 281
8 114 115 136 135 261 262 283 282
8 115 116 137 136 262 263 284 283
8 116 117 138 137 263 264 285 284
8 117 118 139 138 264 265 286 285
8 118 119 140 139 265 266 287 286
8 119 120 141 140 266 267 288 287
8 120 121 142 141 267 268 289 288
8 121 122 143 142 268 269 290 289
8 122 123 144 143 269 270 291 290
8 123 124 145 144 270 271 292 291
8 124 125 146 145 271 272 293 292
8 147 148 169 168 294 295 316 315
8 148 149 170 169 295 296 317 316
8 149 150 171 170 296 297 318 317
8 150 151 172 171 297 298 319 318
8 151 152 173 172 298 299 320 319
8 152 153 174 173 299 300 321 320
8 153 154 175 174 300 301 322 321
8 154 155 176 175 301 302 323 322
8 155 156 177 176 302 303 324 323
8 156 157 178 177 303 304 325 324
8 157 158 179 178 304 305 326 325
8 158 159 180 179 305 306 327 326
8 159 160 181 180 306 307 328 327
8 160 161 182 181 307 308 329 328
8 161 162 183 182 308 309 330 329
8 162 163 184 183 309 310 331 330
8 163 164 185 184 310 311 332 331
8 164 165 186 185 311 312 333 332
8 165 166 187 186 312 313 334 333
8 166 167 188 187 313 314 335 334
8 168 169 190 189 315 316 337 336
8 169 170 191 190 316 317 338 337
8 170 171 192 191 317 318 339 338
8 171 172 193 192 318 319 340 339
8 172 173 194 193 319 320 341 340
8 173 174 195 194 320 321 342 341
8 174 175 196 195 321 322 343 342
8 175 176 197 196 322 323 344 343
8 176 177 198 197 323 324 345 344
8 177 178 199 198 324 325 346 345
8 178 179 200 199 325 326 347 346
8 179 180 201 200 326 327 348 347
8 180 181 202 201 327 328 349 348
8 181 182 203 202 328 329 350 349
8 182 183 204 203 329 330 351 350
8 183 184 205 204 330 331 352 351
8 184 185 206 205 331 332 353 352
8 185 186 207 206 332 333 354 353
8 186 187 208 207 333 334 355 354
8 187 188 209 208 334 335 356 355
8 189 190 211 210 336 337 358 357
8 190 191 212 211 337 338 359 358
8 191 192 213 212 338 339 360 359
8 192 193 214 213 339 340 361 360
8 193 194 215 214 340 341 362 361
8 194 195 216 215 341 342 363 362
8 195 196 217 216 342 343 364 363
8 196 197 218 217 343 344 365 364
8 197 198 219 218 344 345 366 365
8 198 199 220 219 345 346 367 366
8 199 200 221 220 346 347 368 367
8 200 201 222 221 347 348 369 368
8 201 202 223 222 348 349 370 369
8 202 203 224 223 349 350 371 370
8 203 204 225 224 350 351 372 371
8 204 205 226 225 351 352 373 372
8 205 206 227 226 352 353 374 373
8 206 207 228 227 353 354 375 374
8 207 208 229 228 354 355 376 375
8 208 209 230 229 355 356 377 376
8 210 211 232 231 357 358 379 378
8 211 212 233 232 358 359 380 379
8 212 213 234 233 359 360 381 380
8 213 214 235 234 360 361 382 381
8 214 215 236 235 361 362 383 382
8 215 216 237 236 362 363 384 383
8 216 217 238 237 363 364 385 384
8 217 218 239 238 364 365 386 385
8 218 219 240 239 365 366 387 386
8 219 220 241 240 366 367 388 387
8 220 221 242 241 367 368 389 388
8 221 222 243 242 368 369 390 389
8 222 223 244 243 369 370 391 390
8 223 224 245 244 370 371 392 391
8 224 225 246 245 371 372 393 392
8 225 226 247 246 372 373 394 393
8 226 227 248 247 373 374 395 394
8 227 228 249 248 374 375 396 395
8 228 229 250 249 375 376 397 396
8 229 230 251 250 376 377 398 397
8 231 232 253 252 378 379 400 399
8 232 233 254 253 379 380 401 400
8 233 234 255 254 380 381 402 401
8 234 235 256 255 381 382 403 402
8 235 236 257 256 382 383 404 403
8 236 237 258 257 383 384 405 404
8 237 238 259 258 384 385 406 405
8 238 239 260 259 385 386 407 406
8 239 240 261 260 386 387 408 407
8 240 241 262 261 387 388 409 408
8 241 242 263 262 388 389 410 409
8 242 243 264 263 389 390 411 410
8 243 244 265 264 390 391 412 411
8 244 245 266 265 391 392 413 412
8 245 246 267 266 392 393 414 413
8 246 247 268 267 393 394 415 414
8 247 248 269 268 394 395 416 415
8 248 249 270 269 395 396 417 416
8 249 250 271 270 396 397 418 417
8 250 251 272 271 397 398 419 418
8 252 253 274 273 399 400 421 420
8 253 254 275 274 400 401 422 421
8 254 255 276 275 401 402 423 422
8 255 256 277 276 402 403 424 423
8 256 257 278 277 403 404 425 424
8 257 258 279 278 404 405 426 425
8 258 259 280 279 405 406 427 426
8 259 260 281 280 406 407 428 427
8 260 261 282 281 407 408 429 428
8 261 262 283 282 408 409 430 429
8 262 263 284 283 409 410 431 430
8 263 264 285 284 410 411 432 431
8 264 265 286 285 411 412 433 432
8 265 266 287 286 412 413 434 433
8 266 267 288 287 413 414 435 434
8 267 268 289 288 414 415 436 435
8 268 269 290 289 415 416 437 436
8 269 270 291 290 416 417 438 437
8 270 271 292 291 417 418 439 438
8 271 272 293 292 418 419 440 439
8 294 295 316 315 441 442 463 462
8 295 296 317 316 442 443 464 463
8 296 297 318 317 443 444 465 464
8 297 298 319 318 444 445 466 465
8 298 299 320 319 445 446 467 466
8 299 300 321 320 446 447 468 467
8 300 301 322 321 447 448 469 468
8 301 302 323 322 448 449 470 469
8 302 303 324 323 449 450 471 470
8 303 304 325 324 450 451 472 471
8 304 305 326 325 451 452 473 472
8 305 306 327 326 452 453 474 473
8 306 307 328 327 453 454 475 474
8 307 308 329 328 454 455 476 475
8 308 309 330 329 455 456 477 476
8 309 310 331 330 456 457 478 477
8 310 311 332 331 457 458 479 478
8 311 312 333 332 458 459 480 479
8 312 313 334 333 459 460 481 480
8 313 314 335 334 460 461 482 481
8 315 316 337 336 462 463 484 483
8 316 317 338 337 463 464 485 484
8 317 318 339 338 464 465 486 485
8 318 319 340 339 465 466 487 486
8 319 320 341 340 466 467 488 487
8 320 321 342 341 467 468 489 488
8 321 322 343 342 468 469 490 489
8 322 323 344 343 469 470 491 490
8 323 324 345 344 470 471 492 491
8 324 325 346 345 471 472 493 492
8 325 326 347 346 472 473 494 493
8 326 327 348 347 473 474 495 494
8 327 328 349 348 474 475 496 495
8 328 329 350 349 475 476 497 496
8 329 330 351 350 476 477 498 497
8 330 331 352 351 477 478 499 498
8 331 332 353 352 478 479 500 499
8 332 333 354 353 479 480 501 500
8 333 334 355 354 480 481 502 501
8 334 335 356 355 481 482 503 502
8 336 337 358 357 483 484 505 504
8 337 338 359 358 484 485 506 505
8 338 339 360 359 485 486 507 506
8 339 340 361 360 486 487 508 507
8 340 341 362 361 487 488 509 508
8 341 342 363 362 488 489 510 509
8 342 343 364 363 489 490 511 510
8 343 344 365 364 490 491 512 511
8 344 345 366 365 491 492 513 512
8 345 346 367 366 492 493 514 513
8 346 347 368 367 493 494 515 514
8 347 348 369 368 494 495 516 515
8 348 349 370 369 495 496 517 516
8 349 350 371 370 496 497 518 517
8 350 351 372 371 497 498 519 518
8 351 352 373 372 498 499 520 519
8 352 353 374 373 499 500 521 520
8 353 354 375 374 500 501 522 521
8 354 355 376 375 501 502 523 522
8 355 356 377 376 502 503 524 523
8 357 358 379 378 504 505 526 525
8 358 359 380 379 505 506 527 526
8 359 360 381 380 506 507 528 527
8 360 361 382 381 507 508 529 528
8 361 362 383 382 508 509 530 529
8 362 363 384 383 509 510 531 530
8 363 364 385 384 510 511 532 531
8 364 365 386 385 511 512 533 532
8 365 366 387 386 512 513 534 533
8 366 367 388 387 513 514 535 534
8 367 368 389 388 514 515 536 535
8 368 369 390 389 515 516 537 536
8 369 370 391 390 516 517 538 537
8 370 371 392 391 517 518 539 538
8 371 372 393 392 518 519 540 539
8 372 373 394 393 519 520 541 540
8 373 374 395 394 520 521 542 541
8 374 375 396 395 521 522 543 542
8 375 376 397 396 522 523 544 543
8 376 377 398 397 523 524 545 544
8 378 379 400 399 525 526 547 546
8 379 380 401 400 526 527 548 547
8 380 381 402 401 527 528 549 548
8 381 382 403 402 528 529 550 549
8 382 383 404 403 529 530 551 550
8 383 384 405 404 530 531 552 551
8 384 385 406 405 531 532 553 552
8 385 386 407 406 532 533 554 553
8 386 387 408 407 533 534 555 554
8 387 388 409 408 534 535 556 555
8 388 389 410 409 535 536 557 556
8 389 390 411 410 536 537 558 557
8 390 391 412 411 537 538 559 558
8 391 392 413 412 538 539 560 559
8 392 393 414 413 539 540 561 560
8 393 394 415 414 540 541 562 561
8 394 395 416 415 541 542 563 562
8 395 396 417 416 542 543 564 563
8 396 397 418 417 543 544 565 564
8 397 398 419 418 544 545 566 565
8 399 400 421 420 546 547 568 567
8 400 401 422 421 547 548 569 568
8 401 402 423 422 548 549 570 569
8 402 403 424 423 549 550 571 570
8 403 404 425 424 550 551 572 571
8 404 405 426 425 551 552 573 572
8 405 406 427 426 552 553 574 573
8 406 407 428 427 553 554 575 574
8 407 408 429 428 554 555 576 575
8 408 409 430 429 555 556 577 576
8 409 410 431 430 556 557 578 577
8 410 411 432 431 557 558 579 578
8 411 412 433 432 558 559 580 579
8 412 413 434 433 559 560 581 580
8 413 414 435 434 560 561 582 581
8 414 415 436 435 561 562 583 582
8 415 416 437 436 562 563 584 583
8 416 417 438 437 563 564 585 584
8 417 418 439 438 564 565 586 585
8 418 419 440 439 565 566 587 586
8 441 442 463 462 588 589 610 609
8 442 443 464 463 589 590 611 610
8 443 444 465 464 590 591 612 611
8 444 445 466 465 591 592 613 612
8 445 446 467 466 592 593 614 613
8 446 447 468 467 593 594 615 614
8 447 448 469 468 594 595 616 615
8 448 449 470 469 595 596 617 616
8 449 450 471 470 596 597 618 617
8 450 451 472 471 597 598 619 618
8 451 452 473 472 598 599 620 619
8 452 453 474 473 599 600 621 620
8 453 454 475 474 600 601 622 621
8 454 455 476 475 601 602 623 622
8 455 456 477 476 602 603 624 623
8 456 457 478 477 603 604 625 624
8 457 458 479 478 604 605 626 625
8 458 459 480 479 605 606 627 626
8 459 460 481 480 606 607 628 627
8 460 461 482 481 607 608 629 628
8 462 463 484 483 609 610 631 630
8 463 464 485 484 610 611 632 631
8 464 465 486 485 611 612 633 632
8 465 466 487 486 612 613 634 633
8 466 467 488 487 613 614 635 634
8 467 468 489 488 614 615 636 635
8 468 469 490 489 615 616 637 636
8 469 470 491 490 616 617 638 637
8 470 471 492 491 617 618 639 638
8 471 472 493 492 618 619 640 639
8 472 473 494 493 619 620 641 640
8 473 474 495 494 620 621 642 641
8 474 475 496 495 621 622 643 642
8 475 476 497 496 622 623 644 643
8 476 477 498 497 623 624 645 644
8 477 478 499 498 624 625 646 645
8 478 479 500 499 625 626 647 646
8 479 480 501 500 626 627 648 647
8 480 481 502 501 627 628 649 648
8 481 482 503 502 628 629 650 649
8 483 484 505 504 630 631 652 651
8 484 485 506 505 631 632 653 652
8 485 486 507 506 632 633 654 653
8 486 487 508 507 633 634 655 654
8 487 488 509 508 634 635 656 655
8 488 489 510 509 635 636 657 656
8 489 490 511 510 636 637 658 657
8 490 491 512 511 637 638 659 658
8 491 492 513 512 638 639 660 659
8 492 493 514 513 639 640 661 660
8 493 494 515 514 640 641 662 661
8 494 495 516 515 641 642 663 662
8 495 496 517 516 642 643 664 663
8 496 497 518 517 643 644 665 664
8 497 498 519 518 644 645 666 665
8 498 499 520 519 645 646 667 666
8 499 500 521 520 646 647 668 667
8 500 501 522 521 647 648 669 668
8 501 502 523 522 648 649 670 669
8 502 503 524 523 649 650 671 670
8 504 505 526 525 651 652 673 672
8 505 506 527 526 652 653 674 673
8 506 507 528 527 653 654 675 674
8 507 508 529 528 654 655 676 675
8 508 509 530 529 655 656 677 676
8 509 510 531 530 656 657 678 677
8 510 511 532 531 657 658 679 678
8 511 512 533 532 658 659 680 679
8 512 513 534 533 659 660 681 680
8 513 514 535 534 660 661 682 681
8 514 515 536 535 661 662 683 682
8 515 516 537 536 662 663 684 683
8 516 517 538 537 663 664 685 684
8 517 518 539 538 664 665 686 685
8 518 519 540 539 665 666 687 686
8 519 520 541 540 666 667 688 687
8 520 521 542 541 667 668 689 688
8 521 522 543 542 668 669 690 689
8 522 523 544 543 669 670 691 690
8 523 524 545 544 670 671 692 691
8 525 526 547 546 672 673 694 693
8 526 527 548 547 673 674 695 694
8 527 528 549 548 674 675 696 695
8 528 529 550 549 675 676 697 696
8 529 530 551 550 676 677 698 697
8 530 531 552 551 677 678 699 698
8 531 532 553 552 678 679 700 699
8 532 533 554 553 679 680 701 700
8 533 534 555 554 680 681 702 701
8 534 535 556 555 681 682 703 702
8 535 536 557 556 682 683 704 703
8 536 537 558 557 683 684 705 704
8 537 538 559 558 684 685 706 705
8 538 539 560 559 685 686 707 706
8 539 540 561 560 686 687 708 707
8 540 541 562 561 687 688 709 708
8 541 542 563 562 688 689 710 709
8 542 543 564 563 689 690 711 710
8 543 544 565 564 690 691 712 711
8 544 545 566 565 691 692 713 712
8 546 547 568 567 693 694 715 714
8 547 548 569 568 694 695 716 715
8 548 549 570 569 695 696 717 716
8 549 550 571 570 696 697 718 717
8 550 551 572 571 697 698 719 718
8 551 552 573 572 698 699 720 719
8 552 553 574 573 699 700 721 720
8 553 554 575 574 700 701 722 721
8 554 555 576 575 701 702 723 722
8 555 556 577 576 702 703 724 723
8 556 557 578 577 703 704 725 724
8 557 558 579 578 704 705 726 725
8 558 559 580 579 705 706 727 726
8 559 560 581 580 706 707 728 727
8 560 561 582 581 707 708 729 728
8 561 562 583 582 708 709 730 729
8 562 563 584 583 709 710 731 730
8 563 564 585 584 710 711 732 731
8 564 565 586 585 711 712 733 732
8 565 566 587 586 712 713 734 733
8 588 589 610 609 735 736 757 756
8 589 590 611 610 736 737 758 757
8 590 591 612 611 737 738 759 758
8 591 592 613 612 738 739 760 759
8 592 593 614 613 739 740 761 760
8 593 594 615 614 740 741 762 761
8 594 595 616 615 741 742 763 762
8 595 596 617 616 742 743 764 763
8 596 597 618 617 743 744 765 764
8 597 598 619 618 744 745 766 765
8 598 599 620 619 745 746 767 766
8 599 600 621 620 746 747 768 767
8 600 601 622 621 747 748 769 768
8 601 602 623 622 748 749 770 769
8 602 603 624 623 749 750 771 770
8 603 604 625 624 750 751 772 771
8 604 605 626 625 751 752 773 772
8 605 606 627 626 752 753 774 773
8 606 607 628 627 753 754 775 774
8 607 608 629 628 754 755 776 775
8 609 610 631 630 756 757 778 777
8 610 611 632 631 757 758 779 778
8 611 612 633 632 758 759 780 779
8 612 613 634 633 759 760 781 780
8 613 614 635 634 760 761 782 781
8 614 615 636 635 761 762 783 782
8 615 616 637 636 762 763 784 783
8 616 617 638 637 763 764 785 784
8 617 618 639 638 764 765 786 785
8 618 619 640 639 765 766 787 786
8 619 620 641 640 766 767 788 787
8 620 621 642 641 767 768 789 788
8 621 622 643 642 768 769 790 789
8 622 623 644 643 769 770 791 790
8 623 624 645 644 770 771 792 791
8 624 625 646 645 771 772 793 792
8 625 626 647 646 772 773 794 793
8 626 627 648 647 773 774 795 794
8 627 628 649 648 774 775 796 795
8 628 629 650 649 775 776 797 796
8 630 631 652 651 777 778 799 798
8 631 632 653 652 778 779 800 799
8 632 633 654 653 779 780 801 800
8 633 634 655 654 780 781 802 801
8 634 635 656 655 781 782 803 802
8 635 636 657 656 782 783 804 803
8 636 637 658 657 783 784 805 804
8 637 638 659 658 784 785 806 805
8 638 639 660 659 785 786 807 806
8 639 640 661 660 786 787 808 807
8 640 641 662 661 787 788 809 808
8 641 642 663 662 788 789 810 809
8 642 643 664 663 789 790 811 810
8 643 644 665 664 790 791 812 811
8 644 645 666 665 791 792 813 812
8 645 646 667 666 792 793 814 813
8 646 647 668 667 793 794 815 814
8 647 648 669 668 794 795 816 815
8 648 649 670 669 795 796 817 816
8 649 650 671 670 796 797 818 817
8 651 652 673 672 798 799 820 819
8 652 653 674 673 799 800 821 820
8 653 654 675 674 800 801 822 821
8 654 655 676 675 801 802 823 822
8 655 656 677 676 802 803 824 823
8 656 657 678 677 803 804 825 824
8 657 658 679 678 804 805 826 825
8 658 659 680 679 805 806 827 826
8 659 660 681 680 806 807 828 827
8 660 661 682 681 807 808 829 828
8 661 662 683 682 808 809 830 829
8 662 663 684 683 809 810 831 830
8 663 664 685 684 810 811 832 831
8 664 665 686 685 811 812 833 832
8 665 666 687 686 812 813 834 833
8 666 667 688 687 813 814 835 834
8 667 668 689 688 814 815 836 835
8 668 669 690 689 815 816 837 836
8 669 670 691 690 816 817 838 837
8 670 671 692 691 817 818 839 838
8 672 673 694 693 819 820 841 840
8 673 674 695 694 820 821 842 841
8 674 675 696 695 821 822 843 842
8 675 676 697 696 822 823 844 843
8 676 677 698 697 823 824 845 844
8 677 678 699 698 824 825 846 845
8 678 679 700 699 825 826 847 846
8 679 680 701 700 826 827 848 847
8 680 681 702 701 827 828 849 848
8 681 682 703 702 828 829 850 849
8 682 683 704 703 829 830 851 850
8 683 684 705 704 830 831 852 851
8 684 685 706 705 831 832 853 852
8 685 686 707 706 832 833 854 853
8 686 687 708 707 833 834 855 854
8 687 688 709 708 834 835 856 855
8 688 689 710 709 835 836 857 856
8 689 690 711 710 836 837 858 857
8 690 691 712 711 837 838 859 858
8 691 692 713 712 838 839 860 859
8 693 694 715 714 840 841 862 861
8 694 695 716 715 841 842 863 862
8 695 696 717 716 842 843 864 863
8 696 697 718 717 843 844 865 864
8 697 698 719 718 844 845 866 865
8 698 699 720 719 845 846 867 866
8 699 700 721 720 846 847 868 867
8 700 701 722 721 847 848 869 868
8 701 702 723 722 848 849 870 869
8 702 703 724 723 849 850 871 870
8 703 704 725 724 850 851 872 871
8 704 705 726 725 851 852 873 872
8 705 706 727 726 852 853 874 873
8 706 707 728 727 853 854 875 874
8 707 708 729 728 854 855 876 875
8 708 709 730 729 855 856 877 876
8 709 710 731 730 856 857 878 877
8 710 711 732 731 857 858 879 878
8 711 712 733 732 858 859 880 879
8 712 713 734 733 859 860 881 880
8 735 736 757 756 882 883 904 903
8 736 737 758 757 883 884 905 904
8 737 738 759 758 884 885 906 905
8 738 739 760 759 885 886 907 906
8 739 740 761 760 886 887 908 907
8 740 741 762 761 887 888 909 908
8 741 742 763 762 888 889 910 909
8 742 743 764 763 889 890 911 910
8 743 744 765 764 890 891 912 911
8 744 745 766 765 891 892 913 912
8 745 746 767 766 892 893 914 913
8 746 747 768 767 893 894 915 914
8 747 748 769 768 894 895 916 915
8 748 749 770 769 895 896 917 916
8 749 750 771 770 896 897 918 917
8 750 751 772 771 897 898 919 918
8 751 752 773 772 898 899 920 919
8 752 753 774 773 899 900 921 920
8 753 754 775 774 900 901 922 921
8 754 755 776 775 901 902 923 922
8 756 757 778 777 903 904 925 924
8 757 758 779 778 904 905 926 925
8 758 759 780 779 905 906 927 926
8 759 760 781 780 906 907 928 927
8 760 761 782 781 907 908 929 928
8 761 762 783 782 908 909 930 929
8 762 763 784 783 909 910 931 930
8 763 764 785 784 910 911 932 931
8 764 765 786 785 911 912 933 932
8 765 766 787 786 912 913 934 933
8 766 767 788 787 913 914 935 934
8 767 768 789 788 914 915 936 935
8 768 769 790 789 915 916 937 936
8 769 770 791 790 916 917 938 937
8 770 771 792 791 917 918 939 938
8 771 772 793 792 918 919 940 939
8 772 773 794 793 919 920 941 940
8 773 774 795 794 920 921 942 941
8 774 775 796 795 921 922 943 942
8 775 776 797 796 922 923 944 943
8 777 778 799 798 924 925 946 945
8 778 779 800 799 925 926 947 946
8 779 780 801 800 926 927 948 947
8 780 781 802 801 927 928 949 948
8 781 782 803 802 928 929 950 949
8 782 783 804 803 929 930 951 950
8 783 784 805 804 930 931 952 951
8 784 785 806 805 931 932 953 952
8 785 786 807 806 932 933 954 953
8 786 787 808 807 933 934 955 954
8 787 788 809 808 934 935 956 955
8 788 789 810 809 935 936 957 956
8 789 790 811 810 936 937 958 957
8 790 791 812 811 937 938 959 958
8 791 792 813 812 938 939 960 959
8 792 793 814 813 939 940 961 960
8 793 794 815 814 940 941 962 961
8 794 795 816 815 941 942 963 962
8 795 796 817 816 942 943 964 963
8 796 797 818 817 943 944 965 964
8 798 799 820 819 945 946 967 966
8 799 800 821 820 946 947 968 967
8 800 801 822 821 947 948 969 968
8 801 802 823 822 948 949 970 969
8 802 803 824 823 949 950 971 970
8 803 804 825 824 950 951 972 971
8 804 805 826 825 951 952 973 972
8 805 806 827 826 952 953 974 973
8 806 807 828 827 953 954 975 974
8 807 808 829 828 954 955 976 975
8 808 809 830 829 955 956 977 976
8 809 810 831 830 956 957 978 977
8 810 811 832 831 957 958 979 978
8 811 812 833 832 958 959 980 979
8 812 813 834 833 959 960 981 980
8 813 814 835 834 960 961 982 981
8 814 815 836 835 961 962 983 982
8 815 816 837 836 962 963 984 983
8 816 817 838 837 963 964 985 984
8 817 818 839 838 964 965 986 985
8 819 820 841 840 966 967 988 987
8 820 821 842 841 967 968 989 988
8 821 822 843 842 968 969 990 989
8 822 823 844 843 969 970 991 990
8 823 824 845 844 970 971 992 991
8 824 825 846 845 971 972 993 992
8 825 826 847 846 972 973 994 993
8 826 827 848 847 973 974 995 994
8 827 828 849 848 974 975 996 995
8 828 829 850 849 975 976 997 996
8 829 830 851 850 976 977 998 997
8 830 831 852 851 977 978 999 998
8 831 832 853 852 978 979 1000 999
8 832 833 854 853 979 980 1001 1000
8 833 834 855 854 980 981 1002 1001
8 834 835 856 855 981 982 1003 1002
8 835 836 857 856 982 983 1004 1003
8 836 837 858 857 983 984 1005 1004
8 837 838 859 858 984 985 1006 1005
8 838 839 860 859 985 986 1007 1006
8 840 841 862 861 987 988 1009 1008
8 841 842 863 862 988 989 1010 1009
8 842 843 864 863 989 990 1011 1010
8 843 844 865 864 990 991 1012 1011
8 844 845 866 865 991 992 1013 1012
8 845 846 867 866 992 993 1014 1013
8 846 847 868 867 993 994 1015 1014
8 847 848 869 868 994 995 1016 1015
8 848 849 870 869 995 996 1017 1016
8 849 850 871 870 996 997 1018 1017
8 850 851 872 871 997 998 1019 1018
8 851 852 873 872 998 999 1020 1019
8 852 853 874 873 999 1000 1021 1020
8 853 854 875 874 1000 1001 1022 1021
8 854 855 876 875 1001 1002 1023 1022
8 855 856 877 876 1002 1003 1024 1023
8 856 857 878 877 1003 1004 1025 1024
8 857 858 879 878 1004 1005 1026 1025
8 858 859 880 879 1005 1006 1027 1026
8 859 860 881 880 1006 1007 1028 1027
CELL_TYPES 720
12
12
12
12
12
12
12
12
12
12
12
12
12
12
12
12
12
12
12
12
12
12
12
12
12
12
12
12
12
12
12
12
12
12
12
12
12
12
12
12
12
12
12
12
12
12
12
12
12
12
12
12
12
12
12
12
12
12
12
12
12
12
12
12
12
12
12
12
12
12
12
12
12
12
12
12
12
12
12
12
12
12
12
12
12
12
12
12
12
12
12
12
12
12
12
12
12
12
12
12
12
12
12
12
12
12
12
12
12
12
12
12
12
12
12
12
12
12
12
12
12
12
12
12
12
12
12
12
12
12
12
12
12
12
12
12
12
12
12
12
12
12
12
12
12
12
12
12
12
12
12
12
12
12
12
12
12
12
12
12
12
12
12
12
12
12
12
12
12
12
12
12
12
12
12
12
12
12
12
12
12
12
12
12
12
12
12
12
12
12
12
12
12
12
12
12
12
12
12
12
12
12
12
12
12
12
12
12
12
12
12
12
12
12
12
12
12
12
12
12
12
12
12
12
12
12
12
12
12
12
12
12
12
12
12
12
12
12
12
12
12
12
12
12
12
12
12
12
12
12
12
12
12
12
12
12
12
12
12
12
12
12
12
12
12
12
12
12
12
12
12
12
12
12
12
12
12
12
12
12
12
12
12
12
12
12
12
12
12
12
12
12
12
12
12
12
12
12
12
12
12
12
12
12
12
12
12
12
12
12
12
12
12
12
12
12
12
12
12
12
12
12
12
12
12
12
12
12
12
12
12
12
12
12
12
12
12
12
12
12
12
12
12
12
12
12
12
12
12
12
12
12
12
12
12
12
12
12
12
12
12
12
12
12
12
12
12
12
12
12
12
12
12
12
12
12
12
12
12
12
12
12
12
12
12
12
12
12
12
12
12
12
12
12
12
12
12
12
12
12
12
12
12
12
12
12
12
12
12
12
12
12
12
12
12
12
12
12
12
12
12
12
12
12
12
12
12
12
12
12
12
12
12
12
12
12
12
12
12
12
12
12
12
12
12
12
12
12
12
12
12
12
12
12
12
12
12
12
12
12
12
12
12
12
12
12
12
12
12
12
12
12
12
12
12
12
12
12
12
12
12
12
12
12
12
12
12
12
12
12
12
12
12
12
12
12
12
12
12
12
12
12
12
12
12
12
12
12
12
12
12
12
12
12
12
12
12
12
12
12
12
12
12
12
12
12
12
12
12
12
12
12
12
12
12
12
12
12
12
12
12
12
12
12
12
12
12
12
12
12
12
12
12
12
12
12
12
12
12
12
12
12
12
12
12
12
12
12
12
12
12
12
12
12
12
12
12
12
12
12
12
12
12
12
12
12
12
12
12
12
12
12
12
12
12
12
12
12
12
12
12
12
12
12
12
12
12
12
12
12
12
12
12
12
12
12
12
12
12
12
12
12
12
12
12
12
12
12
12
12
12
12
12
12
12
12
12
12
12
12
12
12
12
12
12
12
12
12
12
12
12
12
12
12
12
12
12
12
12
12
12
12
12
12
12
12
12
12
12
12
12
12
12
12
12
12
12
12
12
12
12
12
12
12
12
12
12
12
12
12
12
12
12
12
12
12
12
12
12
12
12
12
12
12
12
12
12
12
12
12
12
12
12
12
12
12
12
12
12
12
POINT_DATA 1029
VECTORS Disp float
0.0 0.0 0.0
0.005487877571208625 -0.1989986226835637 0.004763269709933433
0.013215181292516339 -0.37499297839319756 0.010256317475218785
0.023902628552922064 -0.544519138897147 0.014642797816622036
0.03911153104194089 -0.7029809554874016 0.018617576074252705
0.05905519781819246 -0.8466423814087276 0.021903904222909144
0.08365130904234509 -0.9715558721586572 0.024365082697224285
0.11275107704737203 -1.0739039899525664 0.025826269338311558
0.14595682213502753 -1.1499653504309366 0.026165080811706768
0.1822806383610003 -1.1965627204108331 0.025581734870064262
0.22008493642972402 -1.2120896006018183 0.025053781382294422
0.25790267004531997 -1.1967900744620386 0.025602770639868506
0.2942694141131657 -1.1504253611787438 0.026214531827631764
0.32755579634743726 -1.0746063408390987 0.025920457619947504
0.3567888084088191 -0.9725121652461296 0.024532107286351964
0.38159434992346064 -0.8478601412141404 0.022188856328223514
0.40185671357900987 -0.7044531156820873 0.019084364830600303
0.41754057167497716 -0.546205888192197 0.015401612882112519
0.4289197872967569 -0.3768165038980079 0.011376018438856548
0.4378403171372099 -0.20081217205777266 0.006763126952042282
0.4461920673859821 0.0 -3.861412620488386e-05
0.07810198498358138 -0.008497772502227167 -0.002500951620996101
0.08147289413074645 -0.19811526248266192 0.0024952846487322207
0.0841904655958664 -0.3761911029330918 0.006497223652980265
0.0911938243613777 -0.5459266156745638 0.009888966886425696
0.10107404777748509 -0.7050054399754035 0.012727703069237347
0.11411929015950126 -0.849207996901635 0.015063465490521715
0.1302548736975426 -0.9746678701311353 0.016794367039904667
0.14937840174176886 -1.077540181159808 0.01784062095052461
0.17122898398064584 -1.1540567472987897 0.0181473521531275
0.19517084159526055 -1.2009188796275998 0.017840309055998534
0.22012589003637106 -1.2164607970175882 0.01751372183953416
0.2450951458349955 -1.2011499747007972 0.01783306885375426
0.26908205508504424 -1.1545249390419614 0.0181391471349552
0.29101602171049673 -1.0782566273138883 0.017845674417666952
0.3102744568291527 -0.9756465193866686 0.016838428741473864
0.3266163498784772 -0.8504599478716248 0.01518839819616031
0.3399673981434164 -0.7065277349955106 0.013001425655449901
0.3502878844580536 -0.5476853831593765 0.010402083012788959
0.35792891249581793 -0.3781179881510175 0.0074275093554148925
0.3615557519741987 -0.2000724079620764 0.0038554124387007657
0.3654140436508863 -0.00896775866543804 -0.0010086262513422561
0.15183462489950042 -0.014754317115502062 -0.004087008236582491
0.15357280631195536 -0.19781880205607025 -0.00022117034539406532
0.1538760909618452 -0.37646277944012996 0.0026358837264090075
0.1565934833265828 -0.5467768815909851 0.004742013432334026
0.16126071850083154 -0.7061666108753365 0.0063534950318372
0.16754019663434488 -0.8507117370526964 0.007583454414033796
0.17542340398301126 -0.9764968667260112 0.008439450145653686
0.18487116022907155 -1.0796958620371808 0.008904010747161645
0.19581386699500578 -1.1564942171135963 0.008968258426638447
0.20787417134279274 -1.2034129955191712 0.008654306217373654
0.2201583619449118 -1.2186905292280046 0.008300362768900062
0.2324570326837003 -1.2036481342589094 0.008618837564580064
0.24456297324526696 -1.156971114390224 0.00890238889032553
0.2555891088346343 -1.0804269199899537 0.008819774301655266
0.26516927956574043 -0.9774979675240494 0.00835968583542679
0.27325002902362105 -0.8519967458464367 0.007548144693461184
0.27981338854280957 -0.7077362780630372 0.0064275997735524365
0.28487612884647046 -0.5485990059210142 0.0050283874272199
0.28812211100419916 -0.37847354409015294 0.003278804601694346
0.2888575438209583 -0.19970692185305244 0.0008627884607651996
0.2908054245728135 -0.01547828928178183 -0.0025684532570127584
0.22340007651566457 -0.018763965988353167 -0.00550352587837296
0.22386717686092875 -0.197869065331781 -0.002863182262609743
0.22233478990106492 -0.37623699912205244 -0.0012659030404367148
0.2211919217933789 -0.5469448784656179 -0.0005218345390464225
0.22058566714806754 -0.7065155547854841 -0.000210836733999408
0.22017749963689573 -0.851179700194725 -0.0001405854782482935
0.21990113188124005 -0.9770865598694187 -0.0002248385444464211
0.21979878946263323 -1.0804276568296398 -0.00041712570301610043
0.22002811309834452 -1.1573638976458425 -0.0006742826923816947
0.22049250881667934 -1.2040783044992294 -0.0010469848745982453
0.22018732741405317 -1.2185534228182842 -0.001496934888665558
0.2198966875188065 -1.2043176679963192 -0.0011108904113964035
0.22040664530756698 -1.1578497898086328 -0.0007983050716008757
0.2207182552453682 -1.0811735380905234 -0.0005916083427122273
0.22074400513878395 -0.9781098285170419 -0.0004298641689568178
0.22065337622125925 -0.8524964844616064 -0.00033892385297103347
0.22050195311003706 -0.7081287182241947 -0.0003376937506296204
0.22023627890308142 -0.5488248303245878 -0.00047229926167511937
0.2194672522440421 -0.3782721222644444 -0.0008980742169694539
0.21816562880885026 -0.19968197807935661 -0.0020517275168652842
0.21874841162015246 -0.019675914736321545 -0.004223349525251251
0.2943792294999868 -0.02091036939030096 -0.006959153085227784
0.29372383502863403 -0.19794931202043398 -0.005372009413123478
0.29049298435352855 -0.37568443638617344 -0.005103472574675427
0.28577851664468473 -0.5464770922756157 -0.005755977484468338
0.279940800432748 -0.7060392784788992 -0.006763436156862203
0.2728202631392943 -0.8506222351902422 -0.007856742856523767
0.2643961452077951 -0.9764439036480559 -0.00888554915767849
0.2547196769753929 -1.0797332810991764 -0.00974190400921957
0.24416246570792222 -1.1567066388859526 -0.010306798877878224
0.2331732673791351 -1.2030267353587099 -0.010554411234626821
0.2202170739638059 -1.2157126243179401 -0.010958142898711741
0.20727555020043303 -1.2032704683215703 -0.010647223943101365
0.1963320299355608 -1.1572017511156838 -0.010490023095276637
0.18585626126233937 -1.080494110281803 -0.010008450350233594
0.17630394335525137 -0.977489015249076 -0.00921876065062884
0.16805378609109198 -0.8519690208747563 -0.008222337117886502
0.16116173169996043 -0.7076925279299278 -0.0070975763157237965
0.1555973129737991 -0.548400570385918 -0.0059515458726223155
0.15113710399782795 -0.3777239659338669 -0.005008734340358775
0.1480381766534144 -0.19971440781743616 -0.004840201219332567
0.14744594533113983 -0.021941727194475364 -0.005958785442763913
0.3658331628275955 -0.02171347108823647 -0.008526997450052197
0.3642926510155033 -0.19786640038227518 -0.007739249711114036
0.35942854038462874 -0.37485495468744 -0.00878978640149761
0.3512661797359877 -0.5454193133746129 -0.010817491067389842
0.3401782242794387 -0.7047303788257306 -0.01310341407657428
0.3262709541673875 -0.8490260043605918 -0.015309622325966513
0.3095905411099577 -0.9745724497856283 -0.01723080429552162
0.29027517987903495 -1.0775700738468081 -0.018687332537050065
0.268455525896852 -1.1544754692531258 -0.019503040679221227
0.24583533915500771 -1.2005559872169171 -0.019225446541641093
0.220251958113665 -1.2096530370006593 -0.018844541554210024
0.19468374766949886 -1.2008042873880296 -0.019347884233476234
0.1721104778312986 -1.154980127922726 -0.019747037757749195
0.1503733265502173 -1.0783461446193987 -0.019048645587404697
0.13118090284513328 -0.9756392149635298 -0.017696440599946357
0.11466648247080889 -0.85040128732919 -0.01584881227931303
0.10096160506678907 -0.7064181483766712 -0.013654064277427073
0.09008256814756375 -0.5473742402766545 -0.011268993570289503
0.08207451148105058 -0.3768968700813545 -0.008974944666717524
0.07726489847988835 -0.19960787801649435 -0.007484963615327592
0.07574033156625164 -0.02280227128980969 -0.007797195759501118
0.4383499619807093 -0.021877249408213256 -0.01015322283974203
0.4366043341465631 -0.19758810063941112 -0.009969552285353761
0.43042478445848875 -0.3737644531869869 -0.012198991438472435
0.4186868946657849 -0.5437566698558897 -0.01548012755251795
0.40221760176733223 -0.7025630804646429 -0.018915814989142132
0.3813800671622634 -0.8463616986734674 -0.022103908426044355
0.35624638949628434 -0.9714076019970707 -0.024780394399367838
0.32697392535810615 -1.0739811982352152 -0.026695807699716616
0.29383685437408297 -1.1502527557585334 -0.027614240390016698
0.2569618563579335 -1.1971285227567283 -0.026635678762052303
0.22029717047203376 -1.2000000000000002 -0.022635158025768074
0.18364890686682836 -1.1973817712235928 -0.026788666064332414
0.14682433804471362 -1.1507676466558554 -0.027921011460415604
0.11377466152606247 -1.0747732973764823 -0.027155269188651618
0.08462948494843182 -0.9724964870518911 -0.025383668775641903
0.05966143138031511 -0.8477644379834312 -0.02282430315972786
0.03901038296440784 -0.7042796280834127 -0.01969329743232964
0.022695933330006756 -0.5457308932897404 -0.016199209948527374
0.011003021427671272 -0.3758023050929278 -0.01267181451743473
0.004759451158873436 -0.1993146060978017 -0.009983925763721683
0.0029685348669294858 -0.022978215693569806 -0.009662209773700834
0.0 0.0 0.0
0.005133378758065662 -0.1880839488459352 0.0031705066702180464
0.013014883412988572 -0.3597052892264606 0.0060555105288422045
0.024171662150752896 -0.5245560588145424 0.008736834421483805
0.03957156494819847 -0.6787589747660789 0.01080609659345591
0.05937035607010943 -0.8188862147300121 0.01225860779470189
0.08349623232398877 -0.9414005309621875 0.012994727107896157
0.11183414226567367 -1.042904442108988 0.01294637411649408
0.14427190732232228 -1.1200738360949756 0.012145457526223619
0.18067672908424326 -1.169415606282335 0.010933548203180097
0.22012940598408345 -1.1868789194506408 0.01023252701245379
0.25958666551670084 -1.1695048052265187 0.010940752406893834
0.2960058744206915 -1.1202519588372302 0.012165065269796264
0.32846999280395917 -1.0431708424596304 0.012989863174464553
0.3568507443968239 -0.9417537502509434 0.013081993003370557
0.38104478968280836 -0.8193223306802224 0.01241977065006036
0.40095286896216875 -0.6792675711650855 0.011086799052975544
0.416533982887033 -0.5251117474624383 0.009185362580630118
0.4279853355103332 -0.36025820118636936 0.006803354075085628
0.4364487363128888 -0.18861294258605327 0.004033198794994814
0.44296514556643485 0.0 0.003540207611742806
0.07589209321500984 -0.005468498780482444 0.00046730973934709695
0.07896501060386045 -0.18781023766047167 0.001453631575725603
0.08271764958724492 -0.3609196090545364 0.0037805429266848977
0.09021118613758641 -0.5260759362225655 0.0056886820553760185
0.10046329773482936 -0.680847809304892 0.007168068504342437
0.1136493850472438 -0.8215062214700871 0.008157162901399076
0.12971859826610727 -0.9445590792532643 0.008641348723686057
0.14858579555089316 -1.0465972929258303 0.008601117707940911
0.17013250734343846 -1.1243141599633726 0.008081732305851528
0.19419516517115956 -1.1742165560002513 0.007278543121479957
0.22014933317932842 -1.1920291899077862 0.006765099949807997
0.24610800553199735 -1.174306728409162 0.007259966434260777
0.2701847600551195 -1.1244942948655423 0.00804863070487952
0.2917570839697176 -1.046866910575561 0.008562905521279507
0.31066532098069605 -0.9449170821361089 0.00861519314597947
0.32679821780911017 -0.8219494781001068 0.008171959116150297
0.3400843639197042 -0.6813674685567193 0.007266455679527567
0.35049545076587263 -0.5266493339056305 0.005941181936409413
0.3582617170538587 -0.3615073766033574 0.004250969592464075
0.36249263237500134 -0.1884141269812138 0.0023930693779318037
0.36583956272335577 -0.005562778692704786 0.0026792853869875605
0.14877333620032848 -0.00962862329575668 -0.0008413360958579456
0.15047697852202577 -0.18777345455116687 -6.563395985665309e-05
0.15178509624201714 -0.361370168614344 0.0014629303503605564
0.15521791453613998 -0.5270010181681121 0.002706364224954058
0.1603430288214756 -0.6820702079253248 0.0035700731865883273
0.16691276876493222 -0.8230512161307714 0.004091442605059578
0.17492678036226833 -0.9464172792407937 0.004292147714331107
0.1843117704781947 -1.0487549154581002 0.004190610539181962
0.19493727384348464 -1.1267753318709361 0.0038103781424888164
0.20683241820969628 -1.1771232067344544 0.0031685999473988562
0.22017086917029505 -1.1954755040819196 0.0026019822509451493
0.23351369572007785 -1.1772147964661108 0.0031245903119078546
0.24542242666731967 -1.1269583496240367 0.003725406037863799
0.25607220729347274 -1.0490289845672998 0.004072311535922777
0.26549501595388175 -0.9467814950353255 0.004155948235770329
0.27356567575100954 -0.8235029313702915 0.003965232147714826
0.2802206422463317 -0.6826016146291621 0.003501002862287911
0.2854784400223385 -0.5275909021377043 0.0027666232308834137
0.28913158748387385 -0.36199099133160656 0.0017590745989409869
0.2906699345571522 -0.1883413452585187 0.00071515441069993
0.2924754881548466 -0.009716871690256305 0.0008293746461005865
0.22015154464272732 -0.012423158405943952 -0.0026049028796635977
0.22072901630580022 -0.18790195784659186 -0.0017358108184953572
0.22009715965666365 -0.361350303952895 -0.0008484170435974074
0.21975833705371703 -0.5272731954140033 -0.00028385844298996026
0.21969548631610034 -0.6824798808397102 -3.899563465755567e-05
0.21965581781683927 -0.8235618139509117 -7.417269325916693e-06
0.2196137140839431 -0.9470318867224269 -0.0001175577776347663
0.21954182258021526 -1.0494406026288312 -0.00032674373096822865
0.2192804159580889 -1.1275221538198315 -0.0006253701612559144
0.21906741187960663 -1.1783030728535906 -0.0011664067108253875
0.22019320345826732 -1.1976803666211204 -0.0019356855338431306
0.22132321184449366 -1.1783965022077176 -0.0012358976422613978
0.22112316120787953 -1.1277088682571497 -0.0007622885080720426
0.22088436379545126 -1.0497202353001547 -0.0005251092386815394
0.22084637046420555 -0.9474035130838612 -0.00036356635343409
0.22085229401860704 -0.8240229126876275 -0.00027310885897447747
0.2208802950506233 -0.6830228275344412 -0.00027355161117751254
0.2209185159161947 -0.5278795280520625 -0.00040399046224637704
0.22071621257924934 -0.36197716639332533 -0.0007220585701997535
0.220189784197113 -0.1884160058704657 -0.0011445328201893288
0.220817031379202 -0.012515968170844495 -0.00131083912024277
0.29103961679253065 -0.014014602126720033 -0.0044249373759549125
0.2905953504621529 -0.18801705062372429 -0.0034736221794794925
0.2881808420128399 -0.3609995476122086 -0.003148473530965996
0.28429055927086777 -0.5269306583109207 -0.0032610996088652576
0.27906594681894964 -0.6820770190733166 -0.003636788917654829
0.27240158840062334 -0.8230510509922787 -0.0040995750312356125
0.26429063333311026 -0.9464198710447296 -0.00452499064355091
0.2547964866736346 -1.0486972130036174 -0.004842128383545955
0.24375939792425028 -1.126567248873723 -0.005035509566050755
0.2312978398320642 -1.1776875844106114 -0.005333652725996715
0.22021600467669353 -1.1990067270463671 -0.006381742825348882
0.2091382376584538 -1.1777832760348454 -0.005429102827151799
0.19668902093531207 -1.1267584686082297 -0.005225405735658425
0.1856728939484992 -1.0489834988843465 -0.005122312963234128
0.17620872225867948 -0.9468000583071008 -0.00488348360970248
0.16813701240529802 -0.823522152147854 -0.004508721888215573
0.16152236600609282 -0.6826314338609091 -0.004041828895672657
0.1563602864622919 -0.5275481809121859 -0.0035663486378746025
0.1525359640029521 -0.36162071228029263 -0.0032046523587564695
0.15015983884383924 -0.1884893311605129 -0.0030844270190085107
0.1497405269774965 -0.01411549256901519 -0.003447509718930278
0.36215072851989333 -0.014699737991765686 -0.00609493231236964
0.3608434012923401 -0.18799343058830437 -0.0051696194150249565
0.3566978603091112 -0.36035707334271044 -0.005419067191453591
0.3493468114597062 -0.5259992236227966 -0.0062059971147502705
0.3389719679073301 -0.6808465773529897 -0.007199338413195637
0.3256701201962032 -0.8215058588061075 -0.00814453463837254
0.30949453183154085 -0.9445518946149726 -0.008868619814621679
0.2905017873381525 -1.0465449962633857 -0.009247630122923243
0.26899376961746235 -1.1239380150947682 -0.009269601976994297
0.24415219462863474 -1.1749001219602193 -0.008980808804767919
0.22023891934072076 -1.1997936388081798 -0.010093324686267498
0.1963296079462217 -1.1749985260227933 -0.009103105911481457
0.1714999151343214 -1.1241346052646874 -0.009514438380900186
0.15001154581524886 -1.0468391268364974 -0.009613077887705547
0.1310455161595794 -0.9449419137529794 -0.009345251959508485
0.11490181364209061 -0.8219878780603482 -0.008706149262652991
0.10163304193325585 -0.6814116580553589 -0.007788561098878004
0.09128457782661033 -0.5266233663054413 -0.006716211886690781
0.08394166736381142 -0.36097067478737843 -0.005683905610331122
0.07978594913595875 -0.18844047759058918 -0.004993803929715691
0.07848122162511584 -0.014803975971557738 -0.005392136501821729
0.4338806819026479 -0.014918578221553576 -0.007376923888064747
0.4321242383116886 -0.18779223036396853 -0.006756785243156549
0.4263552749791303 -0.359409886812225 -0.00767245887491829
0.415441858131809 -0.5244491177576416 -0.009162451999939739
0.39988564537097643 -0.678752805722146 -0.010786473298902931
0.3799522973145014 -0.8188749895275768 -0.012210077969709023
0.35570882016653815 -0.9413949642138003 -0.013203844258725964
0.32723617450829556 -1.0428178759156737 -0.013609947667680932
0.2948634407594874 -1.1199301840968108 -0.013323446064982578
0.2596842994106462 -1.169267686502811 -0.012277556043646656
0.22026105954671293 -1.2000000000000002 -0.011807557971676114
0.18084172474821905 -1.1693692897780235 -0.012427925371086938
0.1456741939223062 -1.1201330963144653 -0.0136259669074684
0.11332028518697959 -1.0431211975338068 -0.014065585476754402
0.0848722708419088 -0.9417964012593162 -0.013806934773836415
0.06065589021773348 -0.8193693041300988 -0.012937963091351484
0.04074428284530615 -0.6793283452487906 -0.011582650357428191
0.025187784110392672 -0.5250768955747549 -0.009913186404235483
0.014231946520452588 -0.3600149236946548 -0.00819076391074817
0.008394059880880069 -0.18822423500050825 -0.00681533140697177
0.006608099224408015 -0.015018289026443766 -0.006892900014734966
0.0 0.0 0.0
0.007126505374133326 -0.18329456711119702 0.0013698923446197732
0.014988758350161226 -0.3518773543707193 0.0025706757499921445
0.02588612615529004 -0.5142879134299893 0.003709130427842448
0.040842174359056085 -0.6666263613201028 0.004515897440276102
0.05991918209148827 -0.8056104587657898 0.004925057207391226
0.08306174452930501 -0.9279400903469952 0.004904274372603706
0.11030450851918604 -1.0304449281346684 0.004460708079979314
0.14199788330025942 -1.109860221165763 0.0036879479093491563
0.17881690270627676 -1.1620567104675856 0.002856053418703882
0.22014044910754077 -1.1810428082408162 0.002457583796276491
0.26145866692639264 -1.1620355603715309 0.0028568202006313157
0.29826088957843466 -1.1098114190089823 0.003692667065823787
0.32992342961357435 -1.0303557499122475 0.004476302636097805
0.35711653197462206 -0.9277924857052068 0.00494224330926138
0.38018247632584795 -0.8053836273146185 0.005001741395004405
0.3991435559691592 -0.666302174339112 0.004652245997948175
0.4139225490955278 -0.5138611588985852 0.003927132721290989
0.4245561256377112 -0.35136492075879017 0.0029246654540659492
0.4318824526802045 -0.18268304452905423 0.001968828253119132
0.4374696829494641 0.0 0.002008816810999735
0.07621713335202185 -0.004728987746981567 4.952999114625853e-05
0.07936363770868812 -0.18326570616736862 0.0007030074519746671
0.08352207395541342 -0.3531408048731486 0.0016221039852638433
0.09097475536966847 -0.5158919758540293 0.0024509409786192173
0.10102711316045428 -0.6688068196297178 0.0030484771843683903
0.1138269242345649 -0.8083494879665357 0.0033526150701171926
0.12933543270316156 -0.9312665049629958 0.003358759020721889
0.14757260485680837 -1.0344017549691693 0.003088394134505092
0.16870754456598078 -1.1145553461188074 0.0026108917797496665
0.19305063093305472 -1.1676142437487216 0.0020873025825157857
0.2201374217327149 -1.187160708734963 0.001823204902758784
0.24721761356067137 -1.1675912726671345 0.002071979185969747
0.2715401582965012 -1.1145024275592827 0.00258253304634057
0.29263833076315804 -1.0343051254495441 0.0030522336984358596
0.3108184656463416 -0.9311063253595351 0.003324078318888079
0.32624345036012403 -0.8081020564103107 0.003334059862205098
0.3389233809886711 -0.6684496580541865 0.003066361993582597
0.34880645590715675 -0.5154136518469993 0.002536091070271351
0.3560010952161721 -0.3525432815679598 0.0018203489152215646
0.35972771103629425 -0.18251306384966628 0.0012490988904940443
0.36269558527419915 -0.00449539257470388 0.0015942452310035572
0.1482497539466102 -0.008152081622280899 -0.00047501959685776105
0.14986794593742211 -0.18318795462989104 -2.741106613290701e-05
0.15139168732050537 -0.35371935072673605 0.0006010855303743962
0.15499844056190154 -0.5169086108095797 0.00115241238679892
0.16014646189239023 -0.670135640580492 0.0015239911364013873
0.16663353949282594 -0.8100218827344502 0.0016947642791472573
0.17445798243533217 -0.9332878528554025 0.0016786030802728366
0.18357556452565257 -1.03677474043446 0.001503120239772451
0.193955989670651 -1.1173373344803126 0.0012054170278643966
0.2059605912971232 -1.171098992501305 0.0008511753677749166
0.22013622658340418 -1.1914955057077046 0.0006385511152734478
0.23430411615820423 -1.171074923231442 0.0008201709683402621
0.24628483197203777 -1.1172818203541244 0.0011450131099050296
0.25662331943793204 -1.0366731541150318 0.0014173573959301105
0.2656778490374082 -0.9331188759188418 0.001575587637046796
0.2734138152866276 -0.8097593727386103 0.001588828368743171
0.2797812029243886 -0.669753270661645 0.0014386096881538152
0.28476930105913556 -0.5163901860625084 0.0011235565993472558
0.2881532188413671 -0.3530503289684489 0.0006992676699764992
0.2895042601232579 -0.1824350565457646 0.00042100145097493584
0.29111791909245294 -0.007801748490599645 0.0006856749748013432
0.21863988314689198 -0.010449132100049814 -0.0013052224909667338
0.21912014375846883 -0.18319036128443564 -0.0008296938781774052
0.2186293997245745 -0.3537757418342848 -0.0004397184773309189
0.21855435121993955 -0.5172549378007802 -0.00015652224119539542
0.2187319426857448 -0.6706075348044839 -1.0537667764662048e-05
0.2188910212633636 -0.8105989611315176 1.5080463544523451e-05
0.21899742398225816 -0.9339756822232719 -4.448330250763407e-05
0.21898276872516134 -1.0375242042084625 -0.00015929683420018442
0.2186019048212937 -1.1181542109612461 -0.0003237666755286227
0.21831377473858293 -1.1726163184308622 -0.0005588213947579825
0.22013602338634625 -1.1945742034086224 -0.0007498457300023013
0.2219494156208323 -1.1725919166705505 -0.0006054593025409814
0.22163416982789017 -1.118097713758215 -0.00041603923297575055
0.22120642279328245 -1.0374203036198562 -0.00029414141672107316
0.22112304553096795 -0.933801910655029 -0.00021460591919942497
0.22113680382803813 -0.8103271565647813 -0.0001754008603752811
0.22117774087787895 -0.670208487221611 -0.0001942959572713232
0.2212079877032534 -0.5167057593411192 -0.0002878304425541826
0.2209775823728211 -0.353077955653665 -0.00043033173517957975
0.22042032378481546 -0.1824594546823194 -0.0004961965089504304
0.22093217170194576 -0.009995981761346735 -0.000429928375843912
0.28849401059821356 -0.011765828930053273 -0.0022217368528755603
0.28796230505486586 -0.18318812616385538 -0.0016527091089815718
0.2856660706478974 -0.35344978555373996 -0.0014785661327230415
0.2821106874284887 -0.5169421946426926 -0.0014616073590936172
0.2773268294329472 -0.6702102035543184 -0.001540452594666165
0.2711455725651859 -0.8100729580547289 -0.0016611678354512738
0.2635142601476017 -0.9333250517074647 -0.0017656035891404965
0.2544293374733545 -1.0366822649106835 -0.0018194934682062645
0.24349566059220212 -1.116996221391516 -0.0018430722625001927
0.23075376938902864 -1.1720306838880479 -0.0019380804925035054
0.22013583973279427 -1.196825189152806 -0.002088393090738548
0.20950788534939757 -1.1720067305311772 -0.0020006601401975736
0.19673546803997843 -1.1169403851553312 -0.001967868335043925
0.1857496198398224 -1.0365787445484973 -0.0020045100500853154
0.1765897312664175 -0.9331505370192221 -0.00200448374644257
0.16886085207935594 -0.8097979621886132 -0.0019386613405230734
0.1625620263305618 -0.6698026314000078 -0.001825804510771599
0.15764943804486073 -0.5163776643439304 -0.0016987031114462834
0.1539877106738494 -0.3527459020939328 -0.0015678283340383862
0.15166584986113732 -0.18247281968659934 -0.0014399568513413501
0.15117016038062975 -0.011234397362373718 -0.0015711430953276925
0.35853432574772415 -0.012344995232115493 -0.0030310744843179776
0.3571447501131786 -0.18308930746053914 -0.002415485868921997
0.3531114722173716 -0.3527998720435684 -0.0024924122330033573
0.34617833024028644 -0.5160018910771176 -0.0027483664036769004
0.33645480810409367 -0.6689406734506935 -0.003051055930401532
0.3239395077675906 -0.8084502648913374 -0.0033089770626604184
0.3086077672566786 -0.9313243459926543 -0.0034395166807241447
0.29040534414144886 -1.0343227729559077 -0.0033997767672720907
0.26947914548267027 -1.1139639844491909 -0.0032263510621773953
0.24425472944113788 -1.1688546732033638 -0.003100051529604834
0.2201347026635531 -1.1986456917576707 -0.003125720972934412
0.19600333269236547 -1.1688319354935064 -0.003179239241854048
0.1707445046137523 -1.1139104276784644 -0.0033851642957610146
0.14975995675456077 -1.034222275032866 -0.003637651724783519
0.13147485779075258 -0.9311531053747673 -0.0037517147390050323
0.11603811510943604 -0.8081779737559199 -0.003681068696702747
0.10340336666192598 -0.6685338406785015 -0.003450122714105576
0.09356610348222122 -0.5154366274152481 -0.003109936884263757
0.08656073152418821 -0.35210132630242735 -0.0027057103039376295
0.08252432380767626 -0.18238181651654237 -0.002332487281977082
0.08117195334903264 -0.011764303730283115 -0.002564163216088113
0.4291829423478665 -0.01255151018738526 -0.003484611038182877
0.427333101981842 -0.18285568348183884 -0.003041881850202943
0.42167721760774673 -0.3518436610855309 -0.0034399505538539052
0.4113014741087223 -0.5144461107018872 -0.003980530404037676
0.3966390567029498 -0.6668181077232411 -0.004497624472534942
0.37782884760572183 -0.8057472473522856 -0.00486483211364778
0.3548423946943546 -0.9280320370147584 -0.0049739101419569425
0.3276219732582464 -1.030346286837668 -0.004765785818253035
0.29631849000086574 -1.1096285212054324 -0.004290193521309689
0.26164704333578653 -1.1623027764520386 -0.0037951172992718913
0.2201317765231948 -1.2000000000000002 -0.0035634854233507806
0.17860361320585585 -1.1622819771934423 -0.0038919580418096266
0.14389311983310915 -1.1095787700542723 -0.004485396350522083
0.11252371959956403 -1.0302513196971397 -0.005060870530672359
0.0852105683812876 -0.9278678492490195 -0.00536697296975271
0.06210780992349976 -0.8054833045540273 -0.005344390592907124
0.0431697354989555 -0.6664210966903809 -0.0050321618634783195
0.02839852339340898 -0.5138936997990737 -0.00450140495341844
0.017979913119510037 -0.35116185615315965 -0.003821953123101049
0.01235793961000113 -0.18215646106419278 -0.0031111160565468155
0.010558601725461775 -0.011947263558848037 -0.003154683949221605
0.0 0.0 0.0
0.007559764471585913 -0.1820089503817603 -7.871992571023561e-15
0.01546542144086475 -0.3496459386841907 -1.48230648264334e-14
0.026241384200568648 -0.5113122516028809 -2.139198775374509e-14
0.040975206985297254 -0.6631713487469847 -2.7889256466360948e-14
0.05976107461715959 -0.8019882390717102 -3.472719511212884e-14
0.08256999475909685 -0.9245281527530846 -4.336425245870705e-14
0.10951929109758006 -1.0276544622121737 -5.3440955432028354e-14
0.14111419844084333 -1.10801701838265 -6.22505908967284e-14
0.1781942766999407 -1.1611710339842347 -6.9668533147049e-14
0.22013432565467453 -1.18059630112254 -7.782560995740801e-14
0.26206482493618466 -1.16110724005204 -8.703154092640295e-14
0.2991149172907361 -1.1078800855630613 -9.462062950779713e-14
0.3306550345638644 -1.0274260525257493 -9.823644238515666e-14
0.3575160830652942 -0.9241822786036467 -1.0577565942853402e-13
0.3801876742221145 -0.8014956236825526 -1.1199275040466466e-13
0.398761284876024 -0.6625091258572823 -1.2459793732353953e-13
0.41316659791886295 -0.51048243557417 -1.3832736702205284e-13
0.42343842016456656 -0.34868805037916023 -1.5349790574642503e-13
0.4305040416183689 -0.18099148682976388 -1.6868570589243188e-13
0.43585705975446026 0.0 -1.7977587877138214e-13
0.07619125162855075 -0.0045726693754770936 -1.6346186471369368e-15
0.0793521986597409 -0.18206815880121308 -7.142892664903174e-15
0.08366192981360038 -0.3509339863984553 -1.3856508400652133e-14
0.09107360180292104 -0.5129444688305091 -2.07864976495388e-14
0.10101350246019325 -0.6653800588410508 -2.789238874183152e-14
0.1136522797479887 -0.8047673729594038 -3.5313275767887233e-14
0.12897591058142274 -0.9279186792761679 -4.356836680351045e-14
0.14705726184385282 -1.0317172086023312 -5.28614179679389e-14
0.16815552797850894 -1.112877790408882 -6.162947498203823e-14
0.19266776664767868 -1.16695588862201 -7.071605402208434e-14
0.22012274325238976 -1.186973559494964 -7.877104927824906e-14
0.24756638109758247 -1.1668890830235545 -8.84181687786338e-14
0.2720433712390697 -1.1127341141125975 -9.753924825095034e-14
0.29307857712277313 -1.0314767190645309 -1.0443299477248195e-13
0.3110617324806436 -0.9275525954380414 -1.1303721195300965e-13
0.32623966487226785 -0.8042417095549099 -1.2170086032561028e-13
0.3386649280764617 -0.6646654075268662 -1.3271458853870423e-13
0.34829244522767955 -0.5120314295531718 -1.4518127585441585e-13
0.3552392692079759 -0.34985005069409103 -1.584867765171421e-13
0.3588631052276259 -0.18082876212015633 -1.717357318779572e-13
0.36171996262972533 -0.00430969701301405 -1.8129488826908475e-13
0.14796852453405634 -0.00795483973356891 -1.803459077913913e-15
0.14956891002782788 -0.18199088577698494 -6.9801829433809064e-15
0.15119324563891762 -0.35154040317735497 -1.328712068547301e-14
0.1548357364668572 -0.5139705652621491 -2.052091747023394e-14
0.15996259388184678 -0.6667166759375959 -2.7867642880165235e-14
0.16640240408365894 -0.8064490938624924 -3.572480970214946e-14
0.17416547734955176 -0.9299586943182866 -4.4139722244472716e-14
0.18323157688708963 -1.0341260767059997 -5.265116958470013e-14
0.1936094305878001 -1.1157205933496408 -6.266581803144012e-14
0.20570676192838938 -1.1705268991374695 -7.210322589493222e-14
0.22011310220398697 -1.1914244072174398 -8.068781658934036e-14
0.2345065357859763 -1.1704579440607663 -9.102809275870921e-14
0.24656409557526476 -1.1155720304294332 -1.0093454490501893e-13
0.25687212431154216 -1.0338766926641259 -1.1011273579234131e-13
0.2658328331393643 -0.9295774613578187 -1.1986578772660742e-13
0.27344635206596846 -0.805898406538269 -1.2959442243763946e-13
0.2796787820938697 -0.6659606747639693 -1.400271403213499e-13
0.2845203106751326 -0.5129942593611234 -1.5130649800214754e-13
0.2877717399948018 -0.3503493333895481 -1.6334318611740132e-13
0.28909206059618475 -0.1807526095333409 -1.7506488258787293e-13
0.29064899383618914 -0.007484422497595041 -1.8491726595276688e-13
0.21804393833158925 -0.01022885917305883 -1.5430299386209376e-15
0.2185201186876187 -0.18198473519512764 -6.71533121056801e-15
0.21811383764527764 -0.3516134824328168 -1.2886925353158243e-14
0.218118707985869 -0.514331325001744 -2.0428634681827952e-14
0.21836029672594964 -0.6671972744855026 -2.7883308930897994e-14
0.21857716033838606 -0.8070340328913755 -3.615018968872612e-14
0.21873546643771724 -0.9306554943331655 -4.473597309620273e-14
0.21876209587490392 -1.0348865943924461 -5.3582703000801656e-14
0.2184065295786905 -1.1165527306449836 -6.369972003774424e-14
0.21814315721485214 -1.1720668357944677 -7.344262848185613e-14
0.22010434379054916 -1.1945648333091936 -8.279061588920812e-14
0.2220511281712133 -1.1719966380822417 -9.410295551563506e-14
0.2217437100699443 -1.116401236411911 -1.0410772678953056e-13
0.22131207216850896 -1.0346316326436182 -1.1535469158417574e-13
0.22122707377773676 -0.9302644332839529 -1.2599231666741065e-13
0.22123373285327816 -0.8064662764804297 -1.364596957087095e-13
0.2212533374262607 -0.6664126338888956 -1.4673273882332948e-13
0.22124275447108335 -0.5133061697867863 -1.5696261842800535e-13
0.22097550189858892 -0.3503799747178112 -1.680600879743779e-13
0.22043541338718584 -0.18077930755160215 -1.7876389065584351e-13
0.2209324062109151 -0.00958449604007291 -1.8919755199909538e-13
0.2875435873489836 -0.011530414019758642 -1.1831756084989117e-15
0.28703847483931955 -0.18197468639231046 -6.394565860434843e-15
0.2848394842220353 -0.35129990928332105 -1.2723497735720852e-14
0.28140641338487404 -0.514035679710214 -1.9932020394428006e-14
0.27676627682750077 -0.6668132857050351 -2.7895644408759816e-14
0.2707478679868628 -0.8065175506139189 -3.622687651012152e-14
0.2632815761261755 -0.9300090256361351 -4.559678870895893e-14
0.254334198611058 -1.0340388141003434 -5.450475983871913e-14
0.24346143624799155 -1.1153762618486625 -6.466583692120368e-14
0.23066711478652704 -1.171455358206849 -7.479953414808416e-14
0.22009544296770223 -1.1968447944442873 -8.501643837589116e-14
0.2095077973352714 -1.171384840403296 -9.641048352347451e-14
0.19666491540365005 -1.1152238168173634 -1.0773279418726688e-13
0.18570938454328628 -1.033781640191704 -1.199195422881147e-13
0.17664334215151747 -0.9296134239641374 -1.3166925944273297e-13
0.1690223804043329 -0.8059411672112022 -1.434687486139856e-13
0.16281580697411072 -0.6660119996614605 -1.5327568379944447e-13
0.1579653520846655 -0.5129848246924297 -1.6292875072035297e-13
0.1543514853894307 -0.35005785276168616 -1.726499138008676e-13
0.1520949236499186 -0.18079435627078216 -1.824490631968793e-13
0.15162784025866521 -0.010761317733597394 -1.9350349638797448e-13
0.3571999630037264 -0.012101867731463621 -8.067118206637956e-16
0.3558780087467252 -0.18186828665641538 -6.087752321025884e-15
0.35197559177801413 -0.35066054769390376 -1.2442518138775716e-14
0.3452165966905959 -0.513112735338292 -1.9564726125007514e-14
0.3357218260884228 -0.6655589918479655 -2.7979256567307584e-14
0.32348157930556765 -0.8049031307165969 -3.720809728290478e-14
0.30843939605227105 -0.928002639107355 -4.575580971069088e-14
0.2904827213134377 -1.031653066941374 -5.485447953176902e-14
0.26967740811434626 -1.1122837890750954 -6.580833081635735e-14
0.24430142291330914 -1.1681912178731204 -7.531187966302784e-14
0.22008537057888328 -1.198666603313025 -8.67321112986907e-14
0.19585154652493436 -1.1681212848164986 -9.794972838344298e-14
0.17042175808503351 -1.1121323389720927 -1.107865001123689e-13
0.14952556478501777 -1.031396957281616 -1.2428930472526667e-13
0.13144075534213107 -0.9276077141572326 -1.3729479171291656e-13
0.11623663920241595 -0.8043262768783827 -1.4999974957492625e-13
0.1038127943234292 -0.6647547772128126 -1.6043325350741535e-13
0.09414308255498378 -0.5120584875287449 -1.6922515081363596e-13
0.08727191824470554 -0.3494274392830878 -1.775523780044876e-13
0.08336158211601019 -0.18070270115884207 -1.857598181098189e-13
0.08208983720801373 -0.01125787247991648 -1.972190622798128e-13
0.427439031456641 -0.012290750560047843 -3.5906652787702317e-16
0.4256966899871351 -0.18161524220949934 -5.730521829614259e-15
0.42021527038948125 -0.34970297486186674 -1.176580169984682e-14
0.41008389387492994 -0.5115594353796368 -1.8904884434813055e-14
0.39575350580680263 -0.663431679928797 -2.8273505032746606e-14
0.3773493726501114 -0.8021784101225717 -3.8326336260511737e-14
0.35480097999472937 -0.9246600785691175 -4.5484576724031056e-14
0.3279679631897391 -1.0275796388204257 -5.508368341704431e-14
0.2968507020332873 -1.1077998343925255 -6.433509689651041e-14
0.26199950658875937 -1.1613939466278638 -7.564919388550109e-14
0.22007305156343576 -1.2000000000000002 -8.734882987907133e-14
0.17812664890617327 -1.1613254589317652 -9.868839297824444e-14
0.1432151789283872 -1.107651226605507 -1.1204647594181097e-13
0.1119965652572715 -1.0273277182707268 -1.2854909064037801e-13
0.08502180809124345 -0.9242707486234916 -1.4342939475844773e-13
0.062297170608841955 -0.8016089519654133 -1.5835620813934348e-13
0.04370215848869096 -0.6626382718065165 -1.6829890231706295e-13
0.02921517332917254 -0.5105236070315672 -1.7642843856159553e-13
0.019034053238214367 -0.3484982142985242 -1.8261474716011496e-13
0.013620044507300956 -0.18046657988428835 -1.8856940962598796e-13
0.011958901699031469 -0.011412942599515107 -1.9938153275245772e-13
0.0 0.0 0.0
0.007126505374147609 -0.183294567111204 -0.0013698923446357546
0.014988758350183295 -0.35187735437073037 -0.002570675750020772
0.025886126155317803 -0.5142879134299952 -0.0037091304278845773
0.04084217435908638 -0.6666263613201013 -0.004515897440331941
0.05991918209151905 -0.8056104587657865 -0.004925057207461903
0.08306174452933612 -0.9279400903469927 -0.00490427437268712
0.11030450851922077 -1.030444928134668 -0.004460708080073442
0.1419978833002977 -1.1098602211657635 -0.0036879479094609246
0.1788169027063178 -1.1620567104675756 -0.0028560534188365712
0.22014044910758518 -1.181042808240805 -0.002457583796426831
0.2614586669264445 -1.1620355603715182 -0.0028568202007981016
0.2982608895784935 -1.1098114190089508 -0.003692667066005212
0.3299234296136363 -1.0303557499121876 -0.004476302636294603
0.3571165319746824 -0.9277924857051325 -0.004942243309473778
0.38018247632589786 -0.8053836273145225 -0.005001741395236134
0.39914355596919576 -0.6663021743390295 -0.004652245998201408
0.41392254909555865 -0.5138611588985147 -0.003927132721569094
0.4245561256377366 -0.3513649207587379 -0.002924665454373335
0.43188245268022596 -0.18268304452902395 -0.0019688282534556342
0.4374696829494805 0.0 -0.002008816811357702
0.07621713335203473 -0.004728987746982405 -4.952999114972261e-05
0.07936363770870433 -0.18326570616737708 -0.000703007451989259
0.08352207395543483 -0.3531408048731602 -0.001622103985292218
0.09097475536969424 -0.5158919758540346 -0.0024509409786611053
0.10102711316048298 -0.6688068196297178 -0.003048477184424594
0.11382692423459545 -0.8083494879665301 -0.0033526150701886203
0.12933543270319306 -0.9312665049629936 -0.0033587590208076423
0.1475726048568429 -1.0344017549691724 -0.003088394134604899
0.16870754456601628 -1.1145553461188102 -0.0026108917798675136
0.1930506309330935 -1.1676142437487145 -0.002087302582652472
0.2201374217327596 -1.1871607087349547 -0.0018232049029138623
0.24721761356071886 -1.1675912726671245 -0.002071979186142519
0.27154015829655187 -1.114502427559256 -0.002582533046529715
0.29263833076321333 -1.0343051254494862 -0.003052233698643519
0.31081846564639387 -0.9311063253594626 -0.0033240783191129824
0.32624345036017216 -0.8081020564102086 -0.00333405986245117
0.3389233809887128 -0.6684496580541031 -0.003066361993849602
0.34880645590719317 -0.5154136518469274 -0.00253609107056223
0.3560010952162058 -0.3525432815679071 -0.0018203489155392306
0.359727711036325 -0.18251306384963584 -0.0012490988908367558
0.36269558527422846 -0.004495392574700391 -0.001594245231365097
0.14824975394662815 -0.00815208162228252 0.00047501959685381125
0.14986794593744168 -0.1831879546298996 2.7411066118748828e-05
0.15139168732052666 -0.3537193507267472 -0.0006010855304019641
0.1549984405619262 -0.5169086108095868 -0.0011524123868407747
0.16014646189241716 -0.670135640580492 -0.0015239911364579271
0.1666335394928547 -0.8100218827344452 -0.0016947642792192847
0.17445798243536326 -0.9332878528554017 -0.0016786030803610601
0.18357556452568446 -1.0367747404344627 -0.001503120239877229
0.19395598967068395 -1.117337334480315 -0.0012054170279870591
0.20596059129716116 -1.1710989925012991 -0.0008511753679167158
0.22013622658344606 -1.191495505707698 -0.000638551115434151
0.23430411615824667 -1.1710749232314266 -0.0008201709685192421
0.24628483197208292 -1.117281820354102 -0.0011450131101025064
0.25662331943798017 -1.0366731541149736 -0.0014173573961478358
0.2656778490374566 -0.9331188759187712 -0.001575587637283906
0.2734138152866761 -0.8097593727385115 -0.0015888283690021455
0.2797812029244334 -0.6697532706615611 -0.0014386096884337585
0.2847693010591778 -0.5163901860624385 -0.0011235565996504716
0.28815321884140627 -0.3530503289683955 -0.0006992676703036004
0.2895042601232976 -0.1824350565457344 -0.0004210014513246002
0.2911179190924912 -0.007801748490593356 -0.0006856749751701759
0.21863988314691285 -0.010449132100052456 0.0013052224909632932
0.21912014375849048 -0.1831903612844439 0.0008296938781635002
0.21862939972459638 -0.3537757418342946 0.0004397184773040704
0.21855435121996308 -0.517254937800787 0.0001565222411541671
0.2187319426857707 -0.6706075348044837 1.0537667707839807e-05
0.2188910212633904 -0.8105989611315133 -1.5080463618351458e-05
0.21899742398228675 -0.9339756822232685 4.44833024171512e-05
0.2189827687251913 -1.03752420420846 0.00015929683409199308
0.2186019048213252 -1.118154210961253 0.0003237666754005306
0.2183137747386185 -1.172616318430862 0.00055882139461182
0.22013602338638413 -1.1945742034086126 0.0007498457298352294
0.2219494156208703 -1.172591916670539 0.0006054593023554663
0.22163416982793116 -1.118097713758196 0.000416039232769974
0.2212064227933247 -1.0374203036198029 0.00029414141649307477
0.22112304553101136 -0.9338019106549653 0.00021460591895015497
0.2211368038280844 -0.810327156564684 0.000175400860103398
0.22117774087792658 -0.6702084872215269 0.000194295956978359
0.22120798770329947 -0.5167057593410466 0.0002878304422390209
0.22097758237286702 -0.3530779556536122 0.00043033173484306996
0.22042032378486187 -0.18245945468228966 0.0004961965085934345
0.22093217170199228 -0.009995981761338651 0.0004299283754661379
0.28849401059823526 -0.011765828930056958 0.002221736852873069
0.28796230505488773 -0.18318812616386204 0.0016527091089681588
0.2856660706479187 -0.3534497855537488 0.0014785661326967012
0.28211068742851153 -0.5169421946427001 0.0014616073590527788
0.27732682943297127 -0.6702102035543174 0.00154045259460933
0.2711455725652106 -0.8100729580547229 0.0016611678353758673
0.2635142601476277 -0.9333250517074613 0.0017656035890481847
0.254429337473383 -1.0366822649106826 0.0018194934680942684
0.24349566059223385 -1.1169962213915257 0.0018430722623686466
0.23075376938906111 -1.172030683888051 0.0019380804923527703
0.2201358397328286 -1.1968251891527961 0.002088393090565346
0.20950788534943418 -1.1720067305311686 0.0020006601400050753
0.1967354680400143 -1.116940385155311 0.0019678683348295298
0.18574961983986019 -1.0365787445484493 0.002004510049846865
0.17658973126645686 -0.9331505370191575 0.0020044837461806455
0.16886085207940005 -0.809797962188517 0.0019386613402383895
0.16256202633061018 -0.6698026313999224 0.0018258045104655545
0.15764943804491055 -0.5163776643438556 0.0016987031111194144
0.15398771067390113 -0.35274590209388057 0.0015678283336926088
0.1516658498611906 -0.18247281968657048 0.0014399568509767592
0.15117016038068373 -0.011234397362364484 0.00157114309494089
0.3585343257477464 -0.012344995232119786 0.0030310744843165807
0.3571447501132003 -0.18308930746054453 0.0024154858689092633
0.3531114722173928 -0.35279987204357677 0.002492412232977877
0.3461783302403072 -0.5160018910771249 0.002748366403636302
0.33645480810411627 -0.6689406734506917 0.0030510559303449135
0.32393950776761427 -0.8084502648913288 0.0033089770625852892
0.30860776725670447 -0.9313243459926565 0.003439516680630323
0.29040534414147806 -1.0343227729559041 0.003399776767156519
0.26947914548270135 -1.1139639844492024 0.00322635106204313
0.24425472944116794 -1.1688546732033636 0.003100051529449958
0.2201347026635859 -1.1986456917576678 0.003125720972756107
0.1960033326923989 -1.1688319354934964 0.003179239241654788
0.1707445046137838 -1.1139104276784477 0.0033851642955376603
0.14975995675459294 -1.034222275032819 0.0036376517245341367
0.13147485779078702 -0.9311531053747046 0.0037517147387304156
0.11603811510947751 -0.80817797375583 0.0036810686964039684
0.10340336666197582 -0.6685338406784177 0.0034501227137862735
0.09356610348227577 -0.5154366274151743 0.003109936883925107
0.08656073152424709 -0.35210132630237495 0.002705710303582385
0.082524323807737 -0.18238181651651408 0.0023324872816052537
0.08117195334909394 -0.011764303730273444 0.0025641632156934656
0.42918294234788884 -0.01255151018738987 0.003484611038182283
0.4273331019818643 -0.1828556834818434 0.003041881850191278
0.4216772176077685 -0.35184366108553883 0.0034399505538293467
0.4113014741087414 -0.514446110701894 0.0039805304039976135
0.39663905670297017 -0.6668181077232382 0.004497624472478417
0.3778288476057454 -0.8057472473522792 0.004864832113573804
0.35484239469438045 -0.9280320370147569 0.004973910141861174
0.32762197325827624 -1.0303462868376672 0.0047657858181346996
0.29631849000089683 -1.1096285212054429 0.004290193521171199
0.26164704333581357 -1.1623027764520353 0.0037951172991140137
0.22013177652322485 -1.2000000000000002 0.0035634854231703698
0.17860361320588566 -1.16228197719343 0.0038919580416036533
0.1438931198331342 -1.1095787700542539 0.004485396350288558
0.11252371959958743 -1.0302513196970942 0.005060870530412443
0.08521056838131535 -0.9278678492489557 0.005366972969465827
0.062107809923537725 -0.8054833045539423 0.00534439059259443
0.04316973549900726 -0.666421096690297 0.00503216186314471
0.02839852339347 -0.5138936997990015 0.004501404953067698
0.017979913119577227 -0.35116185615310797 0.00382195312273601
0.012357939610070073 -0.18215646106416464 0.0031111160561680807
0.010558601725530706 -0.011947263558838375 0.0031546839488222596
0.0 0.0 0.0
0.005133378758096243 -0.18808394884594984 -0.0031705066702367225
0.013014883413033798 -0.35970528922646994 -0.00605551052887579
0.024171662150806444 -0.5245560588145453 -0.008736834421531264
0.0395715649482601 -0.6787589747660794 -0.010806096593515741
0.05937035607018079 -0.8188862147300026 -0.012258607794772666
0.08349623232406891 -0.9414005309621639 -0.012994727107976804
0.11183414226575174 -1.0429044421089357 -0.01294637411658728
0.14427190732239267 -1.1200738360949167 -0.012145457526331054
0.18067672908432103 -1.1694156062822982 -0.01093354820330618
0.22012940598417366 -1.1868789194505907 -0.010232527012595763
0.2595866655168007 -1.169504805226464 -0.010940752407053595
0.2960058744208011 -1.120251958837147 -0.012165065269972042
0.3284699928040695 -1.0431708424595227 -0.01298986317465917
0.3568507443969278 -0.9417537502508077 -0.013081993003584192
0.3810447896829017 -0.8193223306800774 -0.012419770650295318
0.4009528689622476 -0.679267571164932 -0.011086799053229946
0.4165339828870954 -0.5251117474623064 -0.009185362580909356
0.42798533551038187 -0.3602582011862638 -0.006803354075392683
0.4364487363129291 -0.18861294258598785 -0.004033198795331316
0.44296514556646494 0.0 -0.003540207612100157
0.07589209321503562 -0.005468498780484629 -0.00046730973935106096
0.07896501060389265 -0.18781023766048813 -0.0014536315757424593
0.08271764958728818 -0.36091960905454695 -0.003780542926716834
0.09021118613763823 -0.5260759362225689 -0.005688682055421939
0.10046329773488832 -0.6808478093048935 -0.007168068504401377
0.11364938504730969 -0.821506221470081 -0.008157162901471072
0.12971859826617868 -0.9445590792532421 -0.008641348723770943
0.14858579555096477 -1.046597292925773 -0.008601117708039882
0.17013250734351162 -1.1243141599633113 -0.00808173230596585
0.1941951651712375 -1.1742165560002165 -0.0072785431216125995
0.22014933317941532 -1.1920291899077362 -0.0067650999499593995
0.2461080055320921 -1.1743067284091082 -0.0072599664344296985
0.2701847600552189 -1.1244942948654608 -0.008048630705065953
0.29175708396981825 -1.0468669105754496 -0.008562905521484563
0.31066532098079336 -0.9449170821359729 -0.008615193146204755
0.3267982178091997 -0.8219494780999604 -0.008171959116396345
0.34008436391978614 -0.6813674685565667 -0.007266455679795201
0.3504954507659436 -0.5266493339054934 -0.0059411819367013365
0.3582617170539208 -0.36150737660325244 -0.004250969592781152
0.36249263237506224 -0.18841412698114907 -0.00239306937827486
0.36583956272341156 -0.005562778692695478 -0.002679285387348422
0.1487733362003642 -0.009628623295760318 0.0008413360958534205
0.15047697852206365 -0.18777345455118272 6.563395984056718e-05
0.15178509624205977 -0.36137016861435706 -0.001462930350390954
0.1552179145361898 -0.5270010181681171 -0.002706364224998519
0.1603430288215312 -0.6820702079253265 -0.0035700731866469787
0.16691276876499378 -0.8230512161307654 -0.004091442605132721
0.1749267803623333 -0.9464172792407721 -0.004292147714419578
0.1843117704782623 -1.0487549154580451 -0.004190610539285552
0.1949372738435569 -1.126775331870876 -0.003810378142608854
0.20683241820977175 -1.177123206734421 -0.0031685999475371132
0.22017086917037773 -1.195475504081874 -0.0026019822511053835
0.23351369572016728 -1.177214796466058 -0.0031245903120853324
0.24542242666741051 -1.1269583496239504 -0.0037254060380601138
0.2560722072935634 -1.0490289845671927 -0.004072311536138673
0.265495015953972 -0.9467814950351856 -0.004155948236007097
0.2735656757510972 -0.8235029313701447 -0.003965232147972905
0.2802206422464164 -0.6826016146290089 -0.00350100286256887
0.2854784400224176 -0.527590902137563 -0.002766623231186868
0.28913158748395024 -0.36199099133150303 -0.0017590745992676774
0.29066993455722845 -0.1883413452584537 -0.0007151544110498061
0.29247548815492014 -0.009716871690240355 -0.0008293746464692044
0.22015154464276865 -0.012423158405949035 0.0026049028796602796
0.22072901630584132 -0.18790195784660627 0.0017358108184800617
0.22009715965670715 -0.3613503039529084 0.0008484170435686278
0.2197583370537641 -0.5272731954140102 0.0002838584429466885
0.21969548631615218 -0.6824798808397133 3.899563459900359e-05
0.21965581781689636 -0.8235618139509058 7.4172692516462595e-06
0.21961371408400404 -0.9470318867224077 0.00011755777754392142
0.21954182258027874 -1.0494406026287828 0.00032674373085981353
0.2192804159581576 -1.127522153819775 0.0006253701611307629
0.2190674118796798 -1.1783030728535617 0.0011664067106805767
0.22019320345834592 -1.1976803666210836 0.0019356855336757836
0.22132321184457732 -1.1783965022076637 0.001235897642075795
0.22112316120796166 -1.12770886825706 0.0007622885078663864
0.22088436379553344 -1.0497202353000448 0.0005251092384550405
0.22084637046429045 -0.9474035130837217 0.00036356635318499504
0.22085229401869366 -0.8240229126874783 0.00027310885870310264
0.22088029505070966 -0.6830228275342862 0.00027355161088404644
0.22091851591628214 -0.5278795280519222 0.00040399046193101813
0.2207162125793389 -0.36197716639322264 0.0007220585698634464
0.22018978419720378 -0.1884160058704003 0.0011445328198317715
0.22081703137929146 -0.012515968170823875 0.001310839119865069
0.2910396167925748 -0.01401460212672651 0.004424937375953457
0.2905953504621969 -0.18801705062373691 0.00347362217946543
0.2881808420128844 -0.36099954761222236 0.003148473530938907
0.2842905592709137 -0.5269306583109269 0.003261099608823537
0.27906594681899755 -0.6820770190733212 0.0036367889175964
0.272401588400676 -0.8230510509922816 0.004099575031160027
0.2642906333331657 -0.9464198710447133 0.004524990643456963
0.254796486673695 -1.0486972130035686 0.004842128383433837
0.24375939792431747 -1.126567248873673 0.005035509565920238
0.23129783983213315 -1.1776875844105814 0.005333652725845707
0.22021600467676658 -1.1990067270463367 0.006381742825175264
0.20913823765853018 -1.17778327603479 0.005429102826958206
0.19668902093538515 -1.1267584686081333 0.00522540573544307
0.18567289394857334 -1.048983498884239 0.005122312962995876
0.17620872225875928 -0.9468000583069606 0.0048834836094401495
0.16813701240538323 -0.8235221521477042 0.004508721887931312
0.1615223660061822 -0.6826314338607532 0.004041828895366225
0.1563602864623874 -0.5275481809120494 0.003566348637547516
0.15253596400305422 -0.3616207122801907 0.0032046523584103644
0.15015983884394343 -0.1884893311604465 0.0030844270186428224
0.14974052697760057 -0.014115492568992322 0.0034475097185434757
0.36215072851994 -0.014699737991772623 0.006094932312370103
0.3608434012923863 -0.18799343058831702 0.0051696194150125975
0.35669786030915507 -0.36035707334272365 0.005419067191428137
0.34934681145975177 -0.5259992236228042 0.006205997114710083
0.3389719679073758 -0.680846577352994 0.007199338413138371
0.3256701201962503 -0.8215058588061148 0.008144534638295536
0.30949453183159015 -0.9445518946149537 0.008868619814524805
0.2905017873382083 -1.0465449962633453 0.00924763012280619
0.26899376961752847 -1.1239380150947207 0.00926960197685686
0.24415219462870008 -1.1749001219601924 0.008980808804611537
0.22023891934078815 -1.1997936388081611 0.01009332468608795
0.19632960794628954 -1.1749985260227342 0.009103105911280855
0.1714999151343846 -1.124134605264586 0.009514438380674155
0.1500115458153155 -1.0468391268363915 0.009613077887454627
0.131045516159653 -0.9449419137528432 0.009345251959232696
0.11490181364217368 -0.8219878780601972 0.008706149262355169
0.10163304193334934 -0.6814116580552032 0.0077885610985584915
0.09128457782671552 -0.5266233663053089 0.006716211886351889
0.08394166736392564 -0.36097067478727696 0.005683905609975058
0.07978594913607691 -0.1884404775905224 0.004993803929342048
0.07848122162523538 -0.014803975971534218 0.005392136501426692
0.4338806819026963 -0.014918578221560874 0.00737692388806677
0.4321242383117355 -0.18779223036398104 0.006756785243146217
0.4263552749791741 -0.35940988681223696 0.0076724588748948224
0.41544185813185147 -0.5244491177576501 0.009162451999901474
0.3998856453710216 -0.6787528057221488 0.010786473298847337
0.3799522973145428 -0.8188749895275823 0.012210077969631009
0.35570882016657895 -0.9413949642137822 0.013203844258625665
0.32723617450834697 -1.042817875915637 0.013609947667556712
0.29486344075955323 -1.1199301840967681 0.013323446064837312
0.25968429941071747 -1.1692676865027836 0.012277556043484022
0.22026105954677322 -1.2000000000000002 0.011807557971493278
0.18084172474826932 -1.1693692897779622 0.012427925370878893
0.14567419392236047 -1.1201330963143659 0.013625966907230343
0.11332028518703918 -1.0431211975337047 0.014065585476489856
0.08487227084197388 -0.9417964012591801 0.013806934773546725
0.060655890217813105 -0.8193693041299527 0.012937963091039959
0.04074428284540429 -0.6793283452486372 0.011582650357095464
0.02518778411050839 -0.5250768955746261 0.009913186403884371
0.014231946520579424 -0.3600149236945548 0.008190763910381886
0.008394059881013851 -0.18822423500044244 0.006815331406590836
0.006608099224544405 -0.015018289026419985 0.0068929000143340665
0.0 0.0 0.0
0.005487877571259208 -0.19899862268359267 -0.004763269709963601
0.013215181292586918 -0.3749929783932312 -0.010256317475263402
0.02390262855300894 -0.5445191388971716 -0.014642797816679584
0.03911153104204119 -0.7029809554874116 -0.01861757607431844
0.059055197818303186 -0.8466423814087091 -0.021903904222981677
0.08365130904245904 -0.971555872158612 -0.024365082697307503
0.11275107704748603 -1.0739039899525071 -0.025826269338414844
0.14595682213513886 -1.149965350430869 -0.02616508081182651
0.18228063836111735 -1.1965627204107565 -0.02558173487018964
0.22008493642985386 -1.212089600601741 -0.02505378138244052
0.25790267004546735 -1.1967900744619357 -0.025602770640030092
0.29426941411332164 -1.1504253611786086 -0.026214531827811253
0.32755579634759346 -1.0746063408389321 -0.025920457620143136
0.3567888084089711 -0.9725121652459314 -0.02453210728656392
0.381594349923599 -0.8478601412139214 -0.022188856328451384
0.40185671357912983 -0.7044531156818663 -0.019084364830849243
0.41754057167507724 -0.546205888191988 -0.015401612882384758
0.42891978729683916 -0.3768165038978548 -0.01137601843915986
0.43784031713727994 -0.20081217205767166 -0.006763126952376921
0.4461920673860371 0.0 3.8614125837369686e-05
0.07810198498362707 -0.008497772502232033 0.002500951620989624
0.08147289413080203 -0.19811526248269357 -0.00249528464875651
0.0841904655959365 -0.37619110293312724 -0.006497223653020095
0.09119382436145995 -0.5459266156745917 -0.009888966886478407
0.10107404777757853 -0.7050054399754135 -0.012727703069300912
0.1141192901596016 -0.849207996901619 -0.015063465490595996
0.13025487369764918 -0.9746678701310892 -0.016794367039991057
0.14937840174187797 -1.0775401811597487 -0.017840620950627724
0.17122898398075334 -1.1540567472987215 -0.018147352153247576
0.19517084159537423 -1.2009188796275234 -0.017840309056131043
0.22012589003649663 -1.2164607970175088 -0.017513721839682705
0.2450951458351337 -1.2011499747006988 -0.01783306885392459
0.26908205508519056 -1.1545249390418229 -0.018139147135145542
0.29101602171064156 -1.0782566273137262 -0.017845674417875
0.3102744568292955 -0.9756465193864723 -0.016838428741698906
0.3266163498786119 -0.8504599478714018 -0.015188398196404378
0.33996739814353893 -0.7065277349952868 -0.013001425655713402
0.35028788445816633 -0.5476853831591687 -0.010402083013076638
0.35792891249592196 -0.37811798815086145 -0.007427509355728636
0.3615557519742955 -0.20007240796197745 -0.0038554124390431516
0.3654140436509771 -0.008967758665419191 0.0010086262509718363
0.15183462489956148 -0.01475431711551146 0.004087008236577916
0.15357280631202075 -0.19781880205609986 0.00022117034537321343
0.15387609096191585 -0.376462779440165 -0.0026358837264443924
0.15659348332666234 -0.5467768815910162 -0.004742013432383189
0.1612607185009194 -0.7061666108753482 -0.006353495031898941
0.16754019663443853 -0.8507117370526828 -0.0075834544141088625
0.1754234039831118 -0.9764968667259676 -0.008439450145742567
0.1848711602291759 -1.0796958620371182 -0.008904010747267294
0.1958138669951101 -1.156494217113526 -0.008968258426760658
0.20787417134290084 -1.2034129955191004 -0.008654306217511844
0.2201583619450328 -1.218690529227935 -0.008300362769052968
0.2324570326838335 -1.2036481342588143 -0.008618837564758224
0.24456297324540532 -1.156971114390092 -0.008902388890526669
0.25558910883477276 -1.0804269199897873 -0.008819774301873872
0.2651692795658751 -0.9774979675238511 -0.008359685835665698
0.2732500290237521 -0.8519967458462097 -0.007548144693720072
0.27981338854293647 -0.7077362780628123 -0.006427599773831509
0.28487612884659397 -0.5485990059208098 -0.005028387427521646
0.2881221110043191 -0.3784735440899957 -0.0032788046020196483
0.2888575438210771 -0.19970692185295297 -0.0008627884611160014
0.2908054245729278 -0.01547828928174967 0.0025684532566365146
0.22340007651573363 -0.018763965988366285 0.005503525878371101
0.22386717686099958 -0.19786906533180917 0.0028631822625921092
0.2223347899011375 -0.3762369991220858 0.0012659030404047972
0.2211919217934569 -0.5469448784656485 0.0005218345390005355
0.22058566714815134 -0.7065155547854962 0.00021083673393884576
0.22017749963698477 -0.8511797001947115 0.00014058547817309897
0.21990113188133406 -0.9770865598693745 0.0002248385443544142
0.21979878946273287 -1.0804276568295756 0.00041712570290643246
0.2200281130984454 -1.1573638976457747 0.0006742826922561167
0.22049250881678242 -1.2040783044991565 0.0010469848744555908
0.22018732741416897 -1.2185534228182249 0.0014969348885075218
0.21989668751893343 -1.204317667996225 0.0011108904112116335
0.22040664530769802 -1.157849789808501 0.0007983050713901767
0.2207182552454996 -1.0811735380903544 0.0005916083424811378
0.22074400513891262 -0.9781098285168383 0.00042986416870374305
0.220653376221389 -0.852496484461379 0.00033892385269698315
0.22050195311016754 -0.7081287182239722 0.0003376937503348213
0.22023627890321426 -0.5488248303243836 0.0004722992613601435
0.21946725224417687 -0.37827212226428736 0.00089807421663265
0.21816562880898588 -0.1996819780792563 0.002051727516505788
0.21874841162028724 -0.019675914736280987 0.004223349524868129
0.2943792295000602 -0.020910369390316205 0.0069591530852284225
0.29372383502870797 -0.19794931202046182 0.005372009413109121
0.2904929843536027 -0.375684436386206 0.005103472574646927
0.2857785166447612 -0.5464770922756473 0.005755977484425389
0.27994080043282715 -0.7060392784789128 0.006763436156803243
0.27282026313937785 -0.8506222351902273 0.007856742856447668
0.2643961452078852 -0.9764439036480148 0.008885549157582585
0.2547196769754887 -1.0797332810991134 0.009741904009105644
0.24416246570802053 -1.1567066388858833 0.010306798877747074
0.23317326737923488 -1.2030267353586441 0.0105544112344801
0.22021707396391713 -1.2157126243179015 0.010958142898550021
0.20727555020055433 -1.2032704683214783 0.010647223942910795
0.1963320299356831 -1.157201751115554 0.010490023095057
0.1858562612624608 -1.0804941102816252 0.010008450349990252
0.17630394335537483 -0.9774890152488722 0.009218760650362534
0.1680537860912203 -0.8519690208745279 0.008222337117596307
0.16116173170009496 -0.7076925279297052 0.007097576315413679
0.1555973129739414 -0.5484005703857129 0.005951545872293965
0.1511371039979752 -0.3777239659337098 0.005008734340010491
0.14803817665356628 -0.19971440781733593 0.00484020121896446
0.14744594533129254 -0.02194172719442989 0.00595878544237368
0.3658331628276729 -0.021713471088252848 0.008526997450055258
0.36429265101557856 -0.19786640038230327 0.007739249711103006
0.35942854038470384 -0.37485495468747154 0.0087897864014729
0.35126617973606167 -0.5454193133746447 0.010817491067350901
0.34017822427951316 -0.7047303788257446 0.01310341407651641
0.3262709541674654 -0.8490260043605802 0.01530962232588919
0.30959054111004153 -0.9745724497855891 0.017230804295421974
0.29027517987912543 -1.0775700738467409 0.018687332536930938
0.2684555258969511 -1.1544754692530539 0.019503040679084913
0.24583533915510752 -1.2005559872168505 0.019225446541488413
0.22025195811377019 -1.2096530370006389 0.018844541554047124
0.1946837476696097 -1.2008042873879428 0.01934788423328054
0.17211047783140712 -1.1549801279225975 0.019747037757521218
0.1503733265503285 -1.0783461446192153 0.019048645587148746
0.13118090284525102 -0.9756392149633233 0.017696440599664878
0.11466648247093603 -0.8504012873289588 0.01584881227900741
0.10096160506692799 -0.7064181483764521 0.013654064277102104
0.090082568147716 -0.5473742402764483 0.011268993569946706
0.08207451148121284 -0.37689687008119976 0.00897494466635776
0.0772648984800576 -0.19960787801639526 0.007484963614951622
0.07574033156642286 -0.022802271289761967 0.007797195759104041
0.4383499619807903 -0.0218772494082296 0.010153222839747572
0.4366043341466417 -0.19758810063943943 0.009969552285346113
0.43042478445856386 -0.37376445318701884 0.012198991438452118
0.4186868946658557 -0.5437566698559206 0.015480127552483496
0.4022176017674 -0.702563080464656 0.018915814989086316
0.38138006716233325 -0.8463616986734586 0.022103908425963145
0.35624638949635734 -0.9714076019970325 0.024780394399264823
0.326973925358192 -1.0739811982351486 0.02669580769959201
0.29383685437418045 -1.1502527557584679 0.027614240389874496
0.256961856358043 -1.1971285227566613 0.026635678761892614
0.22029717047213443 -1.2000000000000002 0.02263515802560639
0.18364890686691676 -1.1973817712235006 0.02678866606413204
0.14682433804480544 -1.1507676466557255 0.027921011460182475
0.11377466152615964 -1.0747732973762982 0.02715526918838075
0.08462948494854083 -0.9724964870516875 0.025383668775346115
0.05966143138043997 -0.8477644379831973 0.022824303159405146
0.03901038296455194 -0.7042796280831944 0.019693297431990456
0.022695933330170587 -0.5457308932895358 0.01619920994816901
0.011003021427853246 -0.375802305092773 0.012671814517063507
0.004759451159062396 -0.19931460609770302 0.00998392576333877
0.002968534867120467 -0.022978215693521552 0.0096622097732978
SCALARS Stress float 6
LOOKUP_TABLE default
-1174.4733367449567 -6514.8193952085185 -2306.7878195860426 -1191.9545757875944 491.403024962899 -619.2260023140999
2595.6200755658174 1669.7082268048318 1074.530249347927 -529.4894768949699 511.49231635809485 -21.058125597501203
2567.570554805425 74.50953353115197 251.77013215507534 -249.61569031590585 499.6924782958937 -173.70256455718064
3713.880616871306 345.3103615174274 457.3645063926372 -257.4090710149047 444.61722648946596 -188.47388487641206
5014.295316123642 385.2691090009776 614.1413443848303 -242.6010139422116 397.32677909588733 -258.85604965706534
6371.864559983213 506.44245087347355 821.6601881252764 -220.11676862796324 312.0773388000699 -319.20229772690675
7693.837953085485 613.2616728384336 1028.196605651145 -183.86584259100354 194.6462444789576 -381.21077898224735
8941.402249259356 713.0360819847573 1238.0449895642187 -134.02791122539293 47.44255537729352 -442.1420633758251
9991.905253735606 792.855347114959 1430.4016822492856 -69.75782288043088 -96.04939248290235 -504.95398200207484
10677.102604992913 872.5344067533061 1578.9370701625635 -12.961382503177209 -136.74799204490617 -572.4430476001904
10928.372752466612 962.2381656869148 1658.9467753290814 -1.5875421413945254 3.2871763946264774 -618.4762047836988
10684.86160031143 872.6261441453947 1579.5114758416757 9.703871690721314 143.26460741186378 -572.6027348990957
10008.958437846992 793.1097752936181 1431.7516446208706 66.25313484544128 102.37527752228655 -505.2705170925725
8971.015337403065 713.604234049364 1240.5718365797954 130.10546902833335 -41.51341252541023 -442.6235654275531
7741.476654188235 614.4777505293065 1032.5841074812954 179.3685598876434 -189.41842074983762 -381.7921663981486
6445.318714382869 508.4811302570299 828.3701723281808 214.82315848180411 -308.2221502093472 -320.11608318224876
5125.138372621905 389.4085759835664 624.6774907122574 236.53370888559843 -394.8608927598893 -258.9435528612875
3874.724741022312 350.126479101169 467.11313972101334 248.81933779713836 -447.4615272946018 -193.29874400795197
2841.8769724907997 103.16743994013 294.7827868937041 239.21487392906013 -491.86831101722225 -157.68124936237163
3190.2859982382847 1774.7156053313884 1138.0222308510015 549.3844575833501 -657.7056621146821 -115.84247056916595
-49.11210774827533 -6213.094915682111 -1417.8888082681833 716.4726108124262 -861.4967406030665 -240.17127136821065
-1302.1948950102665 -5650.82718193773 -1703.7429729401485 -765.0659359042992 406.0048945751484 -355.9564555675146
1240.9238609849947 904.9244179271975 509.6416505241055 -633.9236025974703 339.9602013627106 -106.76719113521663
1280.2759588420254 -86.50151767706004 8.359688839013948 -527.4401585075127 308.4521351912826 -187.16241385930837
2316.8941002890233 16.089854872944574 159.10851455098148 -534.2034331476781 272.7244152173814 -242.70769009543582
3134.407253461565 -19.45591671501955 218.68245079376476 -522.1870625754984 236.66986779058612 -322.0023602689179
3999.61331699658 -18.38526569067949 305.1819570422297 -479.63671809276724 186.49948491530708 -401.07353670002004
4842.514655033636 -18.36510260202522 397.5437575163163 -416.74334397999434 116.69676368194575 -480.5985200041742
5635.585670644564 -25.556294977116686 493.42277021758184 -325.0049007172074 30.54114909265134 -562.6750476544794
6307.260649792279 -33.44162270661025 586.1971527889671 -191.97939342733105 -54.3127679403633 -656.1034945226424
6771.199669224822 30.645451956880056 680.7261722852456 -50.52872993633306 -80.99900196076632 -773.3045886782767
6989.10844608853 204.29985926490818 774.1374233036832 -2.8305314428386588 0.7874184417250596 -864.2066156919045
6779.610565157789 31.01543114400629 681.9008623807689 44.68740770062703 82.41705341942117 -773.32134560014
6325.463273934846 -32.67014859563755 588.6839472295543 185.58824033792777 55.25532878812489 -656.1156039352212
5666.451220404007 -24.318556974562735 497.48330361896444 317.6642985427316 -30.39751519264961 -562.6370819291757
4890.581188091733 -16.59441728092778 403.45444832328184 408.0080391345575 -117.71374374521388 -480.41658019509504
4071.4012929638743 -16.080298055368285 313.2297669211416 469.00974852209686 -188.916374639121 -400.6754132138463
3237.971183019524 -17.00257726466223 227.91319732632124 509.1497478029784 -241.09820108575235 -320.96613413193603
2467.005720426468 21.478195525351587 172.20416120156693 516.60339431899 -277.2381923010124 -242.49638533612062
1490.6306884427695 -82.0963645035487 13.58080270178296 500.2758742998837 -321.2136190064926 -179.8747950290146
1447.9776815604537 949.429345858004 530.9454391515188 597.9227129595542 -388.76363855412774 -153.1414521514814
-1207.1966709718774 -5835.643381564061 -1638.0333923256553 478.75583518257696 -480.7274861094633 -144.57723028443291
-1037.699145815028 -3938.2083612960414 -1074.8919640149898 -898.2350115316437 247.22675230905088 -117.89250376958681
425.83512406084697 276.1846145217834 230.63123121276914 -1029.6999842427222 193.48077940700605 -165.93001762766497
449.70117797019367 126.7091202601714 21.90534230290545 -898.1396353421696 152.46913622265603 -213.68567716297832
992.9181162074548 -21.035407895286145 29.474977043515178 -913.4439866966044 123.64669594358502 -309.5516512035292
1489.1338380324262 -14.08316091724438 84.1496405587702 -882.4207753147673 101.12543350380263 -408.53100744345664
1931.3929005112661 -17.887607017068344 124.45506764286134 -814.5167116425736 76.52910105950379 -512.5045526442744
2371.711901206709 -15.096345548510698 173.0194786646628 -713.5465997556253 43.52521969811535 -617.4268879773838
2794.969159957317 -23.542133930748744 224.57783103058867 -566.8105194928654 -0.4232800607035736 -728.1020507890348
3155.687777476059 -36.25704474415081 271.75213323529323 -340.40466283525683 -56.2886104720603 -858.4258618867399
3400.959401581088 107.19657294832373 346.162110099536 -73.46955661495858 -86.03856297459785 -1036.3605491839182
3626.2981110157734 572.0795452670068 525.8468051979296 -4.5232223708639205 -1.2102147395330811 -1203.8925564733333
3409.6429022844 107.63093654997492 347.7978178687333 64.12301308526524 83.37917244780164 -1036.2671721721522
3174.283198844926 -35.359182031566945 275.1406627896197 330.140110531604 52.924298022525676 -858.211140514938
2825.94112336788 -22.125678508564775 229.90880236973487 554.9510501981881 -4.0713336561045885 -727.6985395501868
2418.8042577155443 -13.091572106775821 180.48258972687347 699.3090339155624 -49.46365964771122 -616.7253644700066
1999.5171924497952 -15.48187574105251 133.91060474773423 796.978629016435 -84.03130807736405 -511.2608349077338
1584.2806245307324 -11.52399875085781 95.02763540860153 860.4312900978892 -109.80856982101635 -406.70813143102544
1120.4540128557962 -18.838608101379364 39.28248114795837 884.0668599851278 -132.59684176261905 -305.9224740354243
577.2940780428289 128.38813331967546 16.039425554228615 855.4498421282318 -164.8836434468761 -214.48790180713738
545.9779946377121 365.8227156323096 254.53232913511408 972.7928679830716 -211.86817079933127 -168.47795640451827
-1032.7506081764066 -4085.955351370905 -1098.1414453382156 849.0354926305965 -271.2840078480432 -112.67559187720006
-759.1952480926393 -2379.786988331861 -568.4969598434992 -830.6411295603218 111.52641889582965 -41.57409497018379
-132.82110715056746 -55.234510482863044 88.73238813972694 -1088.936355172411 63.18801913878349 -144.10047546436903
-307.44106790554804 161.26653916140074 9.89896346984296 -1093.305642208126 9.966915545191192 -220.93973322409227
-242.43803072395121 12.237011661923896 -38.42088335132092 -1043.7454913355314 -16.56702198253376 -325.50447440409454
-146.73320460680003 -10.553266188217185 -25.06139969823355 -1000.8365307134493 -24.41527814641054 -433.6227714785846
-97.07339961244787 -4.292958023930882 -13.264500392129403 -923.2677702434553 -26.555531271677626 -543.8502471422728
-50.56812158561068 1.6149922163942607 -0.8735400837478635 -810.535808608687 -28.49735323909054 -656.5173011864644
22.68990117814138 0.3250599451654743 18.54116723816544 -652.0495048481786 -35.90826951661155 -773.8733014830117
89.43035885432245 -34.73205660392373 22.706979057540195 -392.7499539935783 -69.51511813974334 -908.4748278047026
91.60125278577655 170.81242781443518 63.348542765714654 -24.33120621835346 -113.00418737729045 -1101.6326367254046
412.8295608356363 1211.6153054777942 430.8443143271379 -5.078540229265711 -3.0054322107286993 -1350.5482793760968
100.44148522387596 171.32417420520906 65.43501685476701 13.827989848395246 106.67748221224407 -1101.5051740394272
108.17159671844799 -33.69025661657275 26.981534584951042 381.18799786502336 62.267200168937016 -908.1880608124327
53.36899341230742 1.9291869611575745 25.15121375603875 638.6498863993054 27.23068229396736 -773.3546444488366
-5.12624831379739 3.783549218596277 8.133034020048267 794.3837202248994 18.103157963254347 -655.6247502605045
-33.66268877925751 -1.8267793637192775 -2.1731599658212213 903.2167003415261 14.604639868513178 -542.3659488951974
-62.41359761744096 -8.551361362401016 -13.03118723946628 975.3058917071738 11.855360571257416 -431.1663951654899
-144.88091178201043 10.995944661563357 -31.37073220967233 1010.3696414915713 4.878008725791862 -322.099370499649
-221.56407145977303 177.64734674898725 9.486997108375224 1051.19193173302 -19.623353535307633 -219.06770329498167
-63.78341501139139 8.522328042505269 100.22299110639489 1064.1335194212525 -71.29150238465083 -148.13687745651413
-773.4739722593886 -2494.0419922378314 -605.2690747042243 822.7092248216757 -121.59906447954636 -65.16155845524298
-596.1243143444124 -1191.1828075259755 -209.9118639922228 -631.2916894522 -1.6372736677483675 -32.826875749301394
-560.1133901880717 -158.52882928756148 28.824690488988008 -915.7410304307867 -59.19944979304868 -111.80982890807464
-1032.5820026525341 129.28616419747408 -19.282624658907803 -1006.0027277378069 -134.30155548668696 -204.25789507445032
-1436.4695919408994 29.87118764322902 -100.76399480538551 -937.5962400530274 -159.3076292509464 -306.65810465625407
-1775.7225682580452 3.1191868565535277 -129.22518237249898 -883.2479954586323 -151.68487512728842 -409.4836283356519
-2127.401172602412 9.510985218241057 -151.63169870940058 -813.9895996022796 -130.19641288259697 -512.5937576428718
-2477.0989854775385 12.7331335080908 -177.88784689689857 -714.7514860183097 -102.4662524522166 -618.538857095802
-2758.370877839753 36.56452064056334 -185.69579535426544 -573.5667160300349 -69.50810207252724 -724.9342528466251
-2962.046164213339 -24.04567633897536 -217.14905326793274 -364.56798124027375 -61.87078659173982 -838.4846203612
-3281.1977030609637 61.24238290877993 -293.81393805967446 93.71552491037464 -126.46770332536873 -995.6833325044082
-2682.838703357701 2192.602245685796 442.14057214353744 -4.571207046700404 -4.840464784942708 -1320.3371622142101
-3272.15801217502 61.843611702100105 -291.26122646351314 -103.17447461829278 116.38565484906154 -995.598607525457
-2943.076416321151 -22.836854202048773 -211.95449610607852 354.14276740881684 50.62747902677425 -838.2887348152041
-2727.8725039408077 38.37808082870581 -177.7581383573653 561.4710641120876 56.49472746703134 -724.5644791203702
-2433.233424921226 15.074480794725833 -167.2807642186081 700.1629216420918 87.41696759951958 -617.875416325251
-2068.842545156305 12.067442452329665 -138.90456999096 795.8123291070273 113.53736200117834 -511.42730332309884
-1704.2522045177084 4.351158251880731 -116.54283354808085 859.964124629257 134.99149561932427 -407.53496227958817
-1363.294793162943 30.057083007944623 -92.8771690726693 907.834829141969 145.52961839186958 -304.01570609318213
-975.3323790555214 145.01355509876288 -16.820092055679208 977.1580668783739 126.59644260597071 -202.48029542887542
-522.2205361778165 -123.07502515166377 32.467259892926165 908.9092812692345 56.057038181852796 -116.76701908223873
-607.8622686471681 -1259.7409621907166 -236.95421980771974 635.8046970182404 -1.7728950496265927 -54.88617254666169
-555.140337509662 -476.68211148498335 3.581651778234243 -349.52842815375277 -101.08326829142801 -48.10502540908634
-898.3381636069748 -148.17033005883226 16.88735252172933 -527.6008757842917 -184.3595125326955 -80.26509654822542
-1744.8758277109607 74.38137243850434 -67.16823828855692 -604.3715205652327 -294.0046602381877 -160.4876581349137
-2627.7191204083915 31.807102539138118 -185.0437589584125 -562.0080325661391 -317.5534784113178 -242.16317215660618
-3428.541712441034 10.785593939294934 -265.17709389052015 -523.169011241335 -291.44839228147197 -321.73365270184604
-4198.881728943372 11.591020860008697 -333.6821726473462 -479.64230488359834 -242.65407433017256 -400.995260595969
-4942.2760299272695 18.199250345344183 -400.5917819586922 -417.9981815734614 -178.98515083718382 -481.1564745949549
-5657.1534436621605 10.736631379083601 -478.5633578660789 -334.9162685023386 -105.98627902823486 -562.5226967357338
-6064.522780974509 118.0728757490594 -466.3797386559696 -194.33102906951197 -1.1038678780082303 -630.4367360888124
-6846.376344096084 -413.07742895403146 -858.839023292782 98.78291144015952 -49.38096999763052 -720.3712821500557
-5667.030823106245 3500.4117393978368 476.73344663458124 -2.892157847909326 -6.9613161697492245 -957.3622025920313
-6836.923696487016 -412.3860445403445 -855.7777133515633 -104.76592399874946 34.948695511508134 -720.3980411527675
-6044.892698428738 119.45425445160708 -460.18436342383825 187.7440253161588 -14.799108038882606 -630.4762837718655
-5626.1773617793015 12.776137590479088 -469.19102592032004 327.29496193378594 87.85988991377195 -562.5399131027478
-4899.058261198774 20.77137674561822 -388.2705278794501 408.8512533681575 158.3512596483215 -481.07779687705386
-4144.429955108263 14.184389748775185 -319.45580621268095 468.3392297388045 220.16942479760718 -400.6851447516354
-3368.903455028515 12.318517480705239 -251.79194702600353 508.80029997127303 269.48768248490205 -321.0238867456715
-2575.927679830619 33.56232167833402 -176.53896568223993 544.6066789224783 300.8834319748609 -241.07378870704628
-1712.7860389293808 85.34550719551173 -64.51088101033193 590.339594077603 287.64996947549923 -160.02164919115097
-884.283141563992 -131.82769653386427 15.90355809322017 527.4653111372623 185.59175997379842 -83.78212803464261
-564.3150496281473 -506.38152876175866 -11.557594090702604 354.13617735599956 103.51531816948207 -62.407378575181276
-484.9133663870503 -205.83951578847854 150.2226253757717 -172.34067123761875 -202.36692704064197 -58.05910743475027
-1088.8029846524216 -133.3896456492547 46.98596759238371 -247.1383459625319 -327.37682382891654 -67.1303785398496
-2493.5625552174397 -105.1008080776127 -196.8079414309456 -277.8543465449319 -485.76840436545234 -133.27896992380676
-4005.726807251005 -272.40271585892157 -470.0381295385255 -267.1560237915979 -507.16247906581765 -198.35573255838486
-5326.571960607468 -404.5812328584864 -672.6932154215176 -248.4223448497463 -457.1480761443903 -260.06162091117267
-6575.180284884782 -513.2135424641035 -852.687476951588 -222.87672935361445 -373.2119199720905 -321.118413227608
-7787.123940076576 -607.102553366345 -1027.7871174252443 -189.38151675691756 -263.4818111548392 -383.0467364441707
-8962.456178908802 -746.7888912899734 -1227.9690419349738 -138.81764452017183 -133.19057545389242 -439.68389897131476
-10010.104132954339 -696.2493064873305 -1371.9662624843804 -67.93150369224469 53.93737097779012 -506.75142783765557
-10937.325541575665 -1653.3453021649216 -1928.5929531276602 188.79404459930998 391.64696142351545 -455.0978169991346
-8846.492594063984 3496.9522083309553 -210.80860875617222 -1.8687911206523964 -9.679657667535936 -938.5420590635325
-10926.899560737544 -1652.2664159949304 -1924.8044287646192 -192.65469671170655 -411.6672033540592 -455.152429806324
-9988.706094622925 -694.1367752718321 -1364.365874776588 63.704575202662596 -75.86456962592098 -506.8450825529055
-8929.36655534611 -743.784077565854 -1216.6484119667718 133.98910820618 108.38219357111433 -439.7811879070245
-7742.443540226454 -603.5939964292295 -1013.3067582641432 183.73973825865644 235.42476468643204 -383.0834970423159
-6522.364198460947 -510.3191054140205 -836.9387073586767 216.26563231828797 342.76859886071367 -320.9995271732723
-5277.025352317797 -404.49857730814557 -660.2113679940079 240.77068110624575 427.60047124260683 -259.72256865812346
-3979.1690186349942 -276.0149835641041 -467.22966933196795 259.0204398136722 485.58040134169414 -197.93253372545897
-2498.869692154312 -106.43119665625886 -204.65500103219875 272.0016518325498 480.49398247676464 -133.55177360445916
-1106.2580304748665 -132.15371120580878 36.433000927405175 247.49001032868824 335.22606121636574 -69.54677086623734
-506.3035821667136 -223.90990936870935 137.48458400627214 173.7380484410354 213.4182780508446 -67.60085124948426
-177.42017780507015 -3944.549405802168 -1236.5908750821707 -613.102251984279 327.08552387053555 115.70409411715157
2325.3189203278453 1118.1773123104356 814.6002018994673 -274.081533335626 352.9303600998102 -36.265294080167955
2700.7183434597305 135.3107789089069 356.0455506491784 -97.94657963453557 331.03836543987956 9.060731753163981
3823.969267879568 331.61591385977465 542.8207163691604 -106.46481945623513 294.15789569130845 -6.197287012916833
5055.2228447761345 389.57253459677713 725.6430517496489 -105.73586217106093 224.51205080121886 -0.635993402681778
6326.46949912994 497.5711898356231 954.1989300656835 -108.43768124195006 134.28702196484517 0.43264233671569263
7575.922458676153 599.4037755313921 1199.80833436478 -110.9473649093719 20.879337750484396 2.030238188687352
8807.36310507337 708.7653800380789 1479.4305395282695 -116.85348781281343 -104.38357118674287 0.160881354333391
10019.142723983596 817.2170801051861 1803.9425106373606 -122.78107943453604 -201.84846006726812 -13.175159295755854
11068.16277059486 864.9256885652902 2116.960794316657 -98.86257224664362 -184.43456214338977 -50.60966586458894
11494.31966140889 803.1966981124211 2234.624688256434 0.33278950225509973 1.7460836206825765 -89.81496666882845
11070.473234462628 864.7970821499366 2116.310535457877 99.52296010806481 187.73033168401082 -50.84004819472813
10024.089341809175 816.9642987545599 1802.4710481277546 123.41707865114417 204.5257191820888 -13.62777845641035
8815.741675691417 708.4122645752883 1476.7787049947162 117.41454163583492 105.9191432472187 -0.47007627762904525
7589.394549402382 599.0546430039636 1195.4372641966609 111.33983190370392 -21.29250647054344 1.2796008659714242
6348.1204606244455 497.3787592806149 947.2292421453996 108.45919044824092 -137.87460314340765 -0.039651027967218644
5091.2882170773355 390.1902899346757 715.3759022514837 105.31909977823268 -234.01569680615367 -1.2996914242740611
3883.2044449201294 332.9973215465951 526.1908695870203 104.4244927413904 -310.53178538207106 -2.4035928618463824
2817.572006927022 144.48313571058853 344.56069439533786 94.16062569447959 -373.80423795272094 -1.789171577109557
2600.2193440818796 1153.2782375653728 817.4162957509841 271.7833209658918 -315.83578950267884 42.7804893949828
362.9867145432816 -3736.1900602010533 -880.1576371146875 362.26863737423326 -266.82235090724424 -213.16103161015707
-583.7221375947126 -3601.7676712631824 -1091.4596888756741 -393.4442610961702 55.08575402123267 -10.842129705928357
1223.3719349856947 596.0901674842485 430.4607861997459 -341.8101445195961 118.68057932150619 -32.95868365706614
1540.1493030465476 -32.28084985660085 138.52470734776776 -269.1157554887284 201.90550716145935 2.163920253852977
2473.513234964904 37.41977402376016 274.4569848815761 -279.4326102358421 169.31308270667793 -2.9144831004665024
3257.138451453012 19.28656377222877 359.8273382291366 -287.7671830030943 126.16840929212277 0.45813487231151506
4073.3556965881594 23.992414347182297 475.3184374670476 -289.35115510923407 68.75665628189613 0.5616220311260316
4876.793386496316 30.448778776500145 607.2553833469273 -291.8413886611946 0.1353076481128918 -2.7614844633398627
5661.975943435056 44.11772341771142 762.1534987745296 -299.63121945406124 -73.57726814369546 -15.855852086453922
6412.800086683322 48.24196698717266 938.1529795649145 -310.6497859744829 -130.651616119079 -53.82729833775276
7013.644083592853 -54.71718730043247 1073.5782771572103 -254.88868813223618 -120.41083123600899 -136.67568658722658
7193.187416251829 -290.8853782371627 1060.613583599402 0.4817415432381771 -0.6727121976857232 -219.18785073723632
7016.258126662004 -54.61407148834406 1073.8730691884457 255.83736760095232 118.7592508663408 -136.72528111791155
6418.3115846545825 48.44491640107958 938.5699183621443 311.53493200481114 128.07058730842095 -53.87159176180637
5671.054465349183 44.42134801096707 762.3149977075377 300.34071160823555 69.39247345598713 -15.753461976334552
4890.733551539532 30.86246163846494 606.4924954994015 292.1471724141417 -6.69655639348335 -2.2291034902038103
4094.6917632161144 24.573660949193783 472.6565970011445 288.8487754088951 -78.80414224358952 2.1094932229558396
3290.166688336528 19.943792837173184 353.4634211193119 285.911662598133 -140.91859857975524 3.6915593154440205
2529.208377813393 40.111414127147484 264.42270628252 274.7692683512417 -192.22600887624094 4.408067321003475
1635.936681687215 -30.785503452130897 120.5844001330344 257.2014228136201 -230.75264414517648 8.747799961661407
1321.7334936743748 607.2110131137051 410.9019173706154 313.3883166963722 -126.33304143340182 23.995092708254937
-499.2239044736372 -3595.65653026806 -1060.9042787464068 233.54088305709212 -37.78049092447505 -224.86184374051072
-542.1657640502798 -2615.625477275418 -714.8156037154072 -519.2802712754993 -8.73466541198314 -216.86520264154066
533.9036649466208 200.4856818708399 232.79005764769948 -593.6082523513326 27.12897988960287 -32.59267983833296
700.3731623391732 104.63579422222789 110.51255309871165 -490.89751772093416 81.4738065943808 -9.937795003827038
1189.396120379068 10.079686276955407 128.76217469049288 -504.8319023254809 69.19911751083652 0.1378687081924891
1628.939711279744 18.344690273339943 183.28600719724568 -510.30317150627644 43.857284870583726 -0.10771423463867291
2032.5137610990844 19.02330640981673 236.37669281935115 -512.298760441343 14.79795036100651 -3.2941810442324986
2430.9087989268132 23.682053290719697 301.1477258313525 -513.5258416193616 -18.78813306421146 -14.497216227733247
2809.812511056639 41.436121686916586 378.94226340985165 -519.1053381691054 -56.92934569148512 -42.54161441287516
3181.829460686209 64.19845341382351 474.0754591838718 -537.1449278458721 -98.71822209023918 -108.41318733937845
3506.9864194163033 -108.04491552594169 517.3559027241162 -464.5925237394399 -109.71162574472709 -245.38626269156288
3483.045004484856 -668.7403191375518 351.0622804018711 0.7066258977763222 -2.8181914706329905 -403.80218785809876
3509.790283651533 -107.90052684166307 518.5277649099968 465.9785204378567 103.68211990797226 -245.27145759131488
3187.646544834147 64.48024428799137 476.2569708720911 538.4171627301688 91.51842023494625 -108.08319926722665
2819.106766926275 41.84457899016848 381.7548154688596 520.0719128398279 47.81511348730173 -41.75233564015626
2444.5703431109314 24.22480884515947 303.9122240661054 513.7915222433215 7.0685585405683105 -12.743919918626307
2052.191423645224 19.646814112179257 237.92048292346922 511.16552525157084 -29.72845584221546 0.2979382011719123
1658.0333063612018 19.191700551841482 182.00126532634462 506.657244851527 -62.62418640246506 7.006251834217132
1235.3052456141488 11.415669827851453 122.64279008826415 496.53240425077746 -92.49808540197905 11.957850990010982
754.2253940426651 102.32638245828667 90.90784297092708 471.48219773277225 -105.04973808564955 13.817705231650452
586.9474033980231 241.50847057212906 220.09672343581005 554.3721221381111 -31.94383070759654 -10.303607062941044
-518.385599401742 -2612.508676446726 -729.7837778314304 474.29477503382583 19.520782022987643 -303.90154320491035
-450.028897353614 -1655.1301890275995 -361.28194535007685 -490.98964462199615 -28.20061876575949 -237.77085787372826
20.46889393488818 -34.233926148944185 126.77630508363285 -652.1606809578731 -26.930726898449993 -58.463321208975756
-75.73805868604245 116.16646324154547 65.31415261660366 -620.096712187554 -16.84865567340074 -14.750840923851058
-45.88453736875036 12.974948584656735 13.644102538938636 -585.7314908439898 -23.553227178517744 -3.6490350814636097
-12.334525149225932 -3.444535550960568 8.160534178809092 -585.6482273267488 -31.63796901536068 -3.126905202475941
-8.951056738903423 -0.47413151089817895 7.193438527969601 -586.9493148922708 -35.90514398744123 -9.268740187912455
-14.363571194014272 -3.244965986347845 6.327807545703119 -588.3267124565423 -38.84712744133457 -24.136023258619165
-39.88246962000356 8.789158696294118 7.269740152899535 -584.2726700319023 -46.398608159853914 -55.96272240945435
-33.99119310529909 66.47196702507838 32.3087007607871 -602.9674280772289 -78.62431096891936 -124.28712533269763
78.1204202525117 -155.78510264821432 8.12611929592546 -590.1661125215647 -121.53400250285786 -273.5758561915211
-220.73189897243307 -1327.7688713217592 -416.4563664994656 0.7683662390361937 -4.854786191807369 -518.4516382444053
81.09991770863364 -155.5925879016797 10.189326574601846 591.6722248871439 111.35154798610692 -273.4133605917158
-27.914666679771678 66.84889117133771 36.28863070898243 604.3457504639711 67.05730060774586 -123.84717071410574
-30.477175793266273 9.340039174999962 12.808292375209264 585.3071534310571 32.65393905077284 -54.9635736987918
-1.2424198341689632 -2.5301339447833096 12.725483694475686 588.5679224941623 22.38371198886123 -22.017274190143382
8.628612887754025 0.36979015687310457 13.226313561750812 585.5594113233054 16.612669937675705 -4.96287382962003
11.743992039185656 -2.47092136175179 12.013154150686065 581.2072971133771 9.981040717691462 5.102268729932437
-14.838988823169675 12.666200980237294 11.223343878033443 575.7689991443962 0.9240115691136661 11.24610550165447
-45.432957758510064 121.42636570937326 52.908944650486625 600.1125101265911 -0.8038568215680272 9.298023484644245
48.49268052404888 1.450962406918268 115.1204015138342 631.2138204050898 25.454588820759895 -43.95781884740118
-449.4407507600712 -1667.9423540651921 -391.0134449544213 476.42496147899396 36.91205961181644 -289.798642204102
-407.2240318679482 -879.2308523380678 -80.96529530412606 -371.74786455706476 -47.57326323605727 -205.64362750915282
-394.97350267951225 -122.69611830770684 84.12907078298223 -552.4706612243601 -76.81002898098929 -59.617616342610454
-819.1928347690348 77.16143159724447 10.743931249161891 -571.1179840225777 -108.55007453584746 -15.316295770526665
-1249.5294915466432 6.239771030646108 -96.53683933378905 -519.1850397304007 -116.0025847745134 -1.8766730205966122
-1649.1429311273412 -18.21682780952098 -163.97836086468746 -508.4406033793377 -107.97160193029508 0.6774486261123347
-2055.633263415841 -22.290514179605925 -224.5369912971027 -511.10687343584544 -87.28038849725955 -3.3749759858795674
-2453.446983059307 -23.179027487814633 -284.64130718949235 -512.3279947723825 -60.13791699920753 -15.75846133826768
-2874.746373630487 -39.69915743390812 -364.32848074158767 -507.75071525641783 -33.52255308407517 -38.46197702928861
-3262.516817575957 49.14155333495832 -419.16017840737385 -499.2323869806953 -41.86390835020609 -86.92461134084411
-3298.57371126111 -27.160484758957743 -443.0439672819232 -631.1638402554546 -129.34795990517858 -199.95763867838897
-4063.6805212277495 -2300.8218080443994 -1338.3605548935868 0.7235220582767017 -6.934886218068838 -542.2544090120957
-3295.4121082607858 -26.92348819327755 -440.07813412437287 632.5880085508524 114.91855468897165 -199.8671313071521
-3256.168215552469 49.60924224152253 -413.35397930330123 500.55619847638883 25.813970285409074 -86.6433871610492
-2865.214564274464 -39.01186404479464 -356.0142716736979 508.79189518741987 14.996808415539483 -37.74547685501748
-2440.8621240080656 -22.289253872038213 -274.52633765699716 512.6940753982548 38.72658005555689 -14.111737849339566
-2040.1858942375698 -21.200263347944027 -213.90421910782334 510.0208177498419 63.397324721983125 0.14500884093930777
-1631.17661385981 -17.310560815895162 -155.17584245885658 504.50624331951724 83.28075486884143 7.795542407696089
-1231.1810533436746 6.9225024341467325 -93.50081252211454 510.11359528160386 93.99351302871672 11.433963638441352
-804.7259062193364 84.14712031395051 5.334688385293673 557.0883148869398 95.43866226250927 4.180132174411677
-382.94623355793857 -100.61389741268566 73.82269189828338 543.4743605491536 77.29259579927036 -49.637270175497434
-413.3261176141217 -893.3113779003774 -109.53677253810001 368.38871125732754 54.752682223025325 -240.1473987517327
-435.7970852821993 -389.8770950647083 106.0977868150637 -194.4057390154633 -85.25643448309273 -133.49039436444966
-744.9846309758743 -126.77450084541897 81.1895577947331 -308.87643466656004 -142.1164428869319 -40.57413626320658
-1546.5049788138128 33.13534822676155 -48.617427079283736 -329.46557155738685 -209.86716409302792 -13.985322071332666
-2439.7148881337407 3.397834376575787 -211.4452159006176 -295.3815277614515 -217.80409400392332 -2.212015567645879
-3283.927288541255 -18.257476291450928 -343.53487378993975 -285.73414554291014 -192.18502636336765 1.0221628091563955
-4100.643159797743 -25.62482057405434 -465.3388552862261 -288.0170445080154 -143.83147754059988 0.5750365430755149
-4903.93962986057 -31.64871140599053 -592.8623621773644 -290.6927949099082 -81.23356080478999 -3.618971427557834
-5652.414588380816 -18.44960822263754 -717.1228563015591 -285.2962623650809 -17.460858168451125 -14.652629703488309
-6530.9120845859015 -105.94166998944245 -943.2442322754135 -294.3001592062981 39.10774644073438 -22.98181782316272
-6639.706573747982 474.8250181112512 -811.392162791281 -398.6360349837771 -81.62499164105846 -74.72953490231741
-8234.495380562537 -3546.805722958276 -2522.4912561369138 0.5017755525643097 -9.211594273364947 -399.1678462334348
-6636.337239482553 475.09588946911947 -807.5158836684818 399.63064080982724 62.532839034085335 -74.81763581504755
-6524.227171347724 -105.40462476444033 -935.5939347181875 295.24883742659557 -60.126617301057365 -23.10333613538248
-5642.623289644881 -17.659359103666333 -706.0020647183046 286.09892821429287 -6.459736224980721 -14.66989832932229
-4891.607344380266 -30.623333915422133 -578.9774761905475 291.1197083922741 54.05988626393465 -3.247130261108315
-4087.0197563704387 -24.450770692360262 -450.1426649881917 287.601628650335 114.25915279383331 1.9091534692111236
-3271.4863520493204 -17.180669045677764 -329.7213681895816 283.554964647852 163.10308643219236 4.461692333494401
-2432.0474185348608 4.965117589280848 -202.88541612069344 290.2537536120297 194.81445425979877 5.036700732942331
-1544.9232847967955 38.92055886010575 -48.21885567699391 322.55830126000416 199.92324644497987 -3.342894241884984
-745.2350700065284 -116.27104572874772 73.23882923889809 305.8240276373165 145.27153765146716 -35.368131083203636
-444.40292884264454 -398.7272648228834 83.93741188258863 193.70151890883386 93.39086092094799 -153.23686146838858
-467.8202585580461 -213.78102565491994 224.8114994614677 -74.46083178268015 -162.99523727796043 -86.51446712035826
-1026.614117633205 -150.62222657346499 92.79788100083849 -120.8728778411904 -244.7965854716129 -28.207172054245767
-2334.7325980747987 -144.65429358791457 -179.95281055149368 -118.70672510565528 -340.67677336210164 -15.180732576617961
-3776.0080326571247 -277.66649682696277 -475.8157924118082 -107.63700572622946 -343.4889212799351 -6.28868723148351
-5094.146947363243 -396.04452501547576 -718.8864272070402 -105.23971067544385 -295.3268944659698 -3.129024017831335
-6358.294736535894 -498.0035031995987 -947.1239343101454 -107.68928152733801 -212.6209453813676 -1.0146983641964944
-7609.241693508942 -607.4918543872758 -1189.9776402980558 -109.06107028804766 -106.97119486119001 0.5774076324010755
-8786.256211763373 -663.4974188595786 -1423.1809305676206 -114.00572467510463 9.876052753555044 0.29057760745502126
-9841.011713157424 -887.3711077403595 -1717.029329096297 -117.37033145931115 130.17247729553648 2.1242183513528285
-10528.489710492064 -42.991558391121856 -1701.0832364985617 -284.51444000493996 194.19677373590218 46.01014743701974
-13602.479159384597 -5570.868365118595 -4524.26533357069 0.24087564883734203 -11.851521212415438 -424.43756826234085
-10524.791462102876 -42.47820215898777 -1696.2053203288401 284.99680815165226 -218.7176677611376 45.84488983458417
-9833.721307989626 -886.351216044463 -1707.3540345109527 117.84702220253476 -157.05049041757152 1.8220931725807192
-8775.719298444177 -661.9950150590176 -1408.9873804435597 114.44327727569353 -40.30762173586989 -0.07671051635531168
-7596.336218023326 -605.5769444853754 -1171.9991562484424 109.37126178168059 72.55302014067261 0.2924026293346724
-6345.099624473275 -495.93524670265094 -927.0410898635071 107.68490989681627 175.30561401503343 -0.9162260409961345
-5085.135046354536 -394.4251298637066 -700.0574506205164 104.52503411358039 259.00960941565006 -2.039231448189388
-3777.706997594515 -276.7597112242351 -463.2938160853576 105.6828960225892 316.1560280162875 -3.281928733714607
-2348.2806757675185 -142.47444992333163 -177.5167104469533 115.85439412600644 332.5403595567838 -10.600434767668425
-1040.8372784136525 -147.2409162052569 86.01366651375538 119.442769989432 255.0827575687908 -26.174125748096106
-482.7794870175537 -220.40817201592208 207.96567724084818 73.29384803056547 179.9247657686268 -98.46114144819549
816.903576517064 -2995.267546459448 -653.5091909827154 -38.526690538239535 141.32503154620426 12.263435307803322
2599.0213774604836 1066.9968788244976 895.7041099896779 -265.0887790365806 192.6783413088917 -14.703509041943441
2692.704195806319 131.71574542521196 457.5024920742494 -104.88954106512668 181.3382024590131 14.20292985180957
3747.3257896835603 285.83709641221407 647.5151499442907 -119.85648647726984 151.58498209246497 16.38870435125346
4933.147365393148 342.37878596369643 887.0153772014531 -125.59516535268166 97.47421905444173 22.61601355327653
6149.73589595579 437.8050422051113 1187.1144046619856 -131.87418581370534 29.7075065085051 29.056752743489916
7378.4816384384985 533.2612776576805 1536.9873172550529 -140.3440063299405 -46.88558960910538 35.08993824502329
8689.899910846802 650.3591652686302 1968.6548890816325 -156.46366436922077 -120.05602337024916 37.803982099363935
10174.33208589635 781.2567873639051 2504.8128337231533 -175.65958058783855 -160.95580789856996 31.847214154334598
11637.668448257044 824.0379070479601 3034.6647410070627 -147.56171545046948 -124.92986254332801 13.792688805397455
12267.866982993919 712.5868157488483 3235.4172131908986 0.34140914445848125 0.16136170504251945 -1.5145607040243625
11634.082708751883 823.6364673175739 3033.004816621216 148.26537803795898 125.06699642575713 13.596867276381422
10166.533337044792 780.4103562270542 2500.957031232121 176.4277501593118 160.51571031070748 31.45791037779002
8676.519397206373 648.9728903487087 1961.4252444039137 157.35038994539923 118.55710020226051 37.24095129758612
7357.112505503079 531.1468239483966 1524.3244992365571 141.4085711408315 43.5769911540461 34.41145182385775
6116.6390931741125 434.7732915430072 1165.9009798102704 133.23699582019862 -36.18064475272549 28.47087547515258
4882.073964640261 337.85977793062796 852.2674337279161 127.183361627671 -109.69381541055252 22.27388033828866
3670.2304216650164 279.7584769962622 593.688953461403 122.76675002123368 -172.48813543995385 17.799573062850957
2552.151506398744 115.80169342244122 362.4200413528297 109.04383997034412 -213.5941781434008 13.04795628193603
2244.738111013859 996.6832680436993 712.7892412786213 259.055773941425 -194.43014620050312 10.502091200469172
216.38025552667932 -3162.5175052923473 -1111.7420399472103 332.7290075792893 -171.86804868834798 -102.64632870106277
-395.0410229644761 -3062.683725790421 -1067.4004890970539 -65.71755759091681 74.82309139425602 -36.626121073634394
1284.636256978648 557.4184316875337 459.03887391204853 -300.8478849911109 90.70397579967366 -30.811811065889614
1613.7973780693264 -40.135532876777525 228.7261026515113 -271.2849240068993 113.54285238150239 3.408694825280813
2462.409547194146 7.62646390659438 374.8018960140212 -298.9960930550014 94.92902143527475 8.613305347184522
3207.8236006405714 -18.605912833720186 495.320896373159 -316.05762687698973 60.133490107370534 12.583305596174366
3988.6107706314638 -24.070437252682055 664.244738233707 -327.3029045056374 16.076794445807195 14.543398691053374
4778.408005233015 -27.052728109810968 869.1197590467397 -345.66981715799653 -32.01784630346852 12.678000502571583
5613.327842827634 -15.73578134973235 1125.580665991103 -383.68669583827403 -76.42279261630776 2.281477791845868
6521.921832754714 -21.126141213212378 1429.9771902691105 -439.1238228830804 -100.5880857657705 -24.172437464414095
7335.644923181659 -208.9559050522687 1669.4504919888273 -384.83199609718633 -78.4486835591944 -68.42871544941471
7586.957734499934 -589.2301906391407 1663.8149538841583 0.6621661843013551 -1.448775957537704 -100.0172832201766
7331.976999207922 -209.10109077587313 1669.5024333182357 386.2169527237266 75.27688639405767 -68.47521151740614
6514.051121612932 -21.422720910415784 1429.657918577709 440.7009831280736 96.58250787192284 -24.217108111683025
5600.11580917453 -16.1982693129882 1123.9382190192573 385.6226418044557 70.97044499174093 2.363684363001492
4757.971454215329 -27.696593959833557 864.4793992968556 348.1939548084854 24.352303398237026 13.152514113134874
3957.9642876761177 -24.898842403210207 653.8497654718137 330.7410474536377 -27.123216498447384 15.92546914203247
3162.7687450456697 -19.42334457280983 475.22553576369944 320.77924546971883 -76.30593632776319 15.694612146834327
2392.905976671323 4.90509490574299 336.87973430740647 306.3270550306868 -118.81807936681771 14.856357091887311
1500.8569736199597 -43.13560223047368 163.66024389176246 285.43770215806376 -141.22096154734854 13.130939867405893
1165.789055009416 536.5524299014859 356.6486042578624 327.0449550422027 -101.52869673520905 -3.8072650036929554
-476.6360271922784 -3020.6808187438987 -1221.67405057984 247.13754867250242 -66.39266951333812 -132.7765943832917
-446.67448711620875 -2196.841989305631 -738.8939317558176 -425.924524376925 26.250735451125575 -126.27351475550631
583.6700111896331 278.1873564918836 262.7823964697752 -523.6480480033855 33.02480055675468 -46.57129838646477
754.0153105729005 67.51955424833736 152.2843181410492 -488.12933512185435 46.2042877777873 -11.868444285219288
1226.9661320039274 -13.684883762383816 189.76217748970626 -527.4447920421906 38.143225999314716 -0.16993002172340188
1633.6094502582414 -12.576428234865592 256.48644521856727 -547.8932039312045 18.556461086067927 1.447390838348058
2014.111139103418 -19.298698943816927 335.05711434481594 -567.3242582114163 -4.661157663931288 -2.118204026918909
2396.1996302711277 -22.40733799956405 435.8306785684969 -596.5044565844547 -28.735054589506557 -13.80662246263405
2784.681366592812 0.06177805995262409 565.6523899325153 -653.2973252746617 -51.153312571305456 -39.853475340501866
3231.553197359341 31.135382343398724 733.5134809839584 -751.959188587487 -66.50585555732025 -89.59399922463537
3679.9993703950563 -259.3809014783269 822.2069190564729 -697.7376240458739 -57.11119568544341 -164.26302062662091
3643.80703309789 -1115.8072938454043 590.8973143659096 1.0684412927209852 -3.029573295249332 -218.2351199111919
3676.1888164051124 -259.5739567055353 823.8389565748517 699.9754911309238 50.70693024098161 -164.16466919055205
3223.4898577737067 30.748785870762877 736.4485793992623 754.5181638367526 59.071671099048615 -89.29659778920984
2771.4703340355627 -0.5176481704493558 569.1307506273356 656.4581463745745 42.015762053768945 -39.10988420152661
2376.4250824883015 -23.184049584579416 438.4331421856167 600.6668816359895 17.2091305338423 -12.117046594063709
1985.7423492061864 -20.157298774936848 334.413695611852 573.0640618787544 -10.020077987012552 1.4167753773049387
1593.4717515180025 -13.4970032453436 248.6153652129784 556.0416627858889 -37.41614492468507 8.360086881025858
1168.7828027032954 -14.837601939557521 168.0821897312512 539.8946586510559 -61.8600474750833 11.811208385265108
690.225670756865 69.36006820175378 114.63529437024246 510.5999425823817 -69.90887426992626 9.613036796998871
518.6382555380249 226.0581877357715 177.3708677820711 562.809325246988 -39.76869803351303 -28.170036303047866
-469.5897322647296 -2164.460920758965 -843.6061887617271 466.01844165827 -17.918235780364032 -195.3142165103338
-400.9064519328257 -1394.7486198677695 -371.00589866193104 -458.8907089879704 -3.125581824965626 -161.91023217837414
62.542493870074445 63.58154565561417 149.5800332979212 -613.839758009906 -10.04656692630427 -54.70061513613972
-20.580346574774634 104.53297697601576 79.80263630113258 -608.9862893891465 -14.382392645144668 -16.376920655578296
22.818907408948686 3.9248283362396097 26.296507989720094 -606.7344002955448 -18.45835222813251 -3.1748838153748835
48.38417278837348 -4.809919361579639 15.582620007321406 -624.7233308495022 -24.2070787003708 -0.9807853404924466
38.72062466163692 -1.3138231685519206 11.699527158438197 -646.807195837114 -28.458146090398703 -6.2364398764060756
14.022290875185648 -4.653134600484973 10.37852881475105 -680.3827055548065 -30.73989648294861 -20.912985253221812
-42.09906762158512 21.60127598491023 14.884790186606372 -728.834028114438 -33.711876868927504 -50.98154116844442
-34.209809535953056 119.26528678649287 65.77484730185974 -835.4773202621474 -42.245579094036174 -105.79841286730267
147.2752895464707 -241.67535448692632 46.767412522475766 -872.588941186312 -44.86242650054593 -190.89768051773748
-261.4421295120535 -1956.1223764080198 -540.659595540205 1.210813221699294 -4.605832568913483 -260.4510420596129
143.34025169156868 -241.9280255256769 49.98457856424365 875.1252894905025 35.24151261360564 -190.75529230124502
-42.4245927825949 118.7643519082227 71.97425043807537 838.3780950601164 31.42311597551423 -105.39612117510214
-55.2439606555392 20.861655761254386 23.48921576436495 732.4164558169241 20.980335177726136 -50.03261083509917
-4.945659169752995 -5.6025808381118996 20.240111991818114 685.1018798494598 15.551006172164687 -18.84892863120096
12.851791602348014 -2.345456767589822 20.733283238111422 653.360431091917 10.491918101317726 -2.000882435233985
13.844858125170814 -5.720359894020232 20.047234429446416 634.2264924095781 3.4369832166776835 7.133806020333493
-18.80716904843632 4.942525316096658 21.847492877307964 621.2012291515919 -4.147301167305735 11.44042073673321
-58.85591645266707 97.77840544188027 58.15926714255943 631.8388225391856 -4.328145478103036 6.4798799303685986
27.296391456307664 22.631177800279538 88.65757106516907 632.9067979331128 6.10249056930399 -41.301345877418115
-403.93230381609595 -1359.4526083348994 -444.63020529183615 466.9418410246161 9.69319265818491 -206.8076145787671
-379.70372111523 -739.4052679071656 -50.877353129689666 -366.12931652521814 -27.856560720570368 -152.14961575934913
-362.77933361305503 -46.01418923228881 100.97637094999608 -537.7428091724289 -49.732244900445735 -46.7113844706482
-758.2956925359942 87.00842182908315 1.2968023430626694 -567.2579793173312 -72.87322162409178 -13.960225071152035
-1151.754600292314 18.813303583207336 -129.9491016932954 -539.7012421022525 -74.60260325710456 -1.5906124531668393
-1535.0297736898951 8.89546426816567 -223.72200625425862 -546.5626502523036 -67.2327791677838 1.5138537680303616
-1942.4429973929978 14.540523203285389 -314.4605996234229 -567.3294751246933 -52.55933978731357 -2.148818996240223
-2357.5290315352427 23.463086521095992 -408.9235108285513 -595.4936642258663 -33.150705370950384 -13.972382859579444
-2839.804782829721 18.0773884819149 -534.8062036170467 -632.2465116939961 -15.442104952893356 -38.22886502267524
-3309.2312271209576 170.74424009219882 -617.3851677982557 -683.1096069591499 -13.494435485231735 -82.24983065920792
-3320.740025694053 20.546281153260438 -646.7042291310025 -906.3399824425452 -28.27077902645086 -160.2918799179545
-4354.757125496622 -3171.008992285409 -1846.9051409582241 1.0720718564186882 -6.213078227693776 -240.6001663692836
-3324.825074698493 20.23264898449996 -641.8792332225069 908.5852923790717 15.36712753326749 -160.20620160977683
-3317.654721795637 170.12419086545987 -607.8736650529788 685.6757388225449 -0.7954317928176299 -81.97843097947695
-2852.9839630750007 17.171840591865273 -520.9947397444637 635.4106336373403 -0.9852225400060387 -37.52797194939626
-2375.8336514631155 22.331156839088056 -391.67649102107407 599.6537328156818 14.157664556683365 -12.352813671672996
-1965.9975103319957 13.300965974220777 -295.55999176268483 573.1362317410311 31.13809853085765 1.3034886458294275
-1563.0077075117233 8.254583163128812 -206.23320215550095 555.120879316422 44.40275393318329 8.425707397487457
-1179.870924058144 18.931083871600986 -118.6982585032579 552.7691001035246 53.047871881882934 11.211748354422518
-779.8940093555126 79.21292028154865 -3.9048311383397967 583.1097104984432 58.29839850682135 4.604463342817548
-379.7063006407605 -69.81063279040727 63.70490930759437 544.7685261428315 47.740971754733756 -36.80464770830283
-379.31619630720024 -714.870240514525 -106.32249290282061 363.7765534608254 33.19531368181351 -181.1660900669121
-421.2812812704623 -329.1016199083563 167.2463972551109 -197.82872122453173 -59.071811071589345 -92.01912707263621
-725.3054764537528 -83.54491493449179 90.1391324253929 -307.6879563457327 -95.15564681982404 -20.320705948194625
-1480.3512562343071 48.670393855265296 -80.65180826465584 -334.55558094594244 -134.09237342611857 -2.733373811376441
-2313.172446693683 23.234157708371505 -287.4704224347698 -313.7720741086867 -131.07878556539836 7.226664701365533
-3117.6900192925377 16.44940792110016 -466.9147730637148 -314.60332618190847 -109.38997866701544 12.422545652647063
-3921.717752528293 22.15333413805274 -645.5649081741612 -327.2299087546914 -74.22521980994073 14.469685083765466
-4741.946761678397 28.13745860371528 -843.2253903589809 -344.8284608840489 -30.808434746745956 12.571019852009515
-5544.212354839551 61.258220452940066 -1049.5700511562172 -359.9074494179528 10.523554912019751 3.973115358984374
-6619.551125727217 -34.205773031318905 -1399.3964423626994 -400.1313580058865 32.38721292350563 -14.394751985636125
-6768.60315407822 730.6119185879579 -1233.257803844923 -543.5689769305305 8.88558973668342 -63.78770060446335
-8925.945228036402 -4734.1577443642445 -3448.27311504725 0.6698511128685105 -7.886510991105909 -154.70862867661842
-6772.907414329444 730.2470570421476 -1226.78566414083 544.9700151615231 -25.219360436559775 -63.861195933137644
-6628.335033947361 -34.92660588635627 -1386.4865211867395 401.7260370130599 -50.3408304580914 -14.493629767718598
-5557.688646166511 60.21304256006039 -1030.4007920688289 361.8598046317917 -30.940303379857102 3.9706290025634745
-4760.045774524073 26.843354324475733 -818.3601311752998 347.3727796079208 7.546412799310277 12.918415470542403
-3943.4342306344083 20.855586612779707 -616.315234432821 330.74531389604005 48.60664777005003 15.671720376141199
-3139.8675031056923 15.714005130817046 -435.8574286624903 319.80387595966926 83.43025583510523 15.477088975562241
-2330.048898446489 22.542702791473783 -259.8957185016553 321.37564047315067 109.17415465659056 13.651698409645741
-1488.2206018561387 43.10898852597943 -67.63206034538943 342.30667424585766 122.55854997353482 6.749757349687453
-728.6699997703738 -94.40717575188476 74.55297530683842 309.39398580235047 95.83265453846458 -15.30192745454682
-420.4272052155492 -317.89536355673135 125.62201666041469 194.3260889483352 65.44707130995393 -108.23915387420952
-470.65991546131664 -191.24673285340168 276.31748079975085 -77.11521010976047 -113.8186024272368 -47.229904169657104
-1017.3653007699214 -127.34792967431262 91.55408089459561 -123.18228097045169 -156.83992351766526 -2.153384809866923
-2254.249925689345 -126.83769753890161 -220.411746896317 -127.65899572493188 -200.44202121263353 5.732562598756936
-3602.2650438677383 -248.79109484092416 -565.4839941176414 -122.9395408301162 -187.21863305512036 14.064510712223687
-4854.1978420519235 -349.9139623827896 -866.8543227152888 -124.66174264656863 -147.92470760360672 21.180374595556007
-6088.561430742981 -438.09262245728377 -1171.972446662416 -131.28260269133787 -89.01543437415519 28.177157740020274
-7351.164249816547 -541.2427589696325 -1517.7246284831338 -137.87122486344154 -17.36871477810388 34.43941257989214
-8583.529556131864 -576.7818394984599 -1871.953037585487 -152.51223772769052 53.38664079385129 39.074302476014104
-9806.04764388008 -852.8517206760389 -2339.972968937521 -161.33138045084667 99.27336479958139 36.93949197959724
-10865.344562162181 238.91148957506178 -2397.5622514711117 -355.3196746424736 94.80908302069655 22.855159702505503
-15057.022764010448 -7160.484995204249 -5905.140783343303 0.3483773248953792 -9.65029606112316 -108.38879421380689
-10869.857630176366 238.7972402466394 -2389.2704212214576 356.05236892996993 -114.7787335385975 22.695724329349286
-9815.175603524536 -853.0356086838788 -2323.291744001314 162.17602492447446 -121.17973139652128 36.63306817756103
-8597.303436729118 -576.927718058336 -1846.7972813783242 153.56029322442205 -78.2487505537085 38.65696971918524
-7369.12420500308 -541.1300892129367 -1484.2548622082088 139.2432270137145 -10.922197918171994 33.99669322593891
-6108.711053242943 -437.18637345829745 -1130.8878540147782 133.14935377245496 57.90787584279736 27.907384584654245
-4871.002354774981 -347.16707800510966 -819.8177130853855 127.31472495376916 116.71919705356653 21.532990552979843
-3606.5374318466847 -243.78190448284892 -516.934426137536 126.62769402294876 162.14223920053655 15.811684788231744
-2242.8347053360326 -122.78845985400754 -182.40652281432673 131.4998850260255 190.6129369512361 8.77186636135017
-1003.0219235603165 -125.8075713680327 100.0881108331977 124.62073812282142 163.81280290470207 -0.7089328933278787
-461.65272362722567 -180.99540694785844 250.93599926323353 76.04849930272661 127.98912683023676 -56.94367143126876
1031.3995268236565 -2792.758346156588 -528.407645799879 87.69582657940498 -9.65012070253124e-10 -4.832181321745566e-10
2668.365901949085 1043.555153764908 937.202677343312 -260.09225853760546 -4.869735725776536e-10 1.025335372162317e-11
2703.438050961464 138.31623403638645 521.5517826859399 -101.10491100505914 -1.7584400602288497e-10 -4.3695935758591986e-11
3723.8016665159907 283.8215899768838 724.7364343603243 -120.226789796037 1.8054779893361683e-11 -8.929967876269984e-12
4895.8689308275525 344.0716717972562 990.5603853481346 -128.5523970857234 7.160047554854998e-11 4.008682275014053e-11
6111.49379824514 444.1591279954368 1332.594762415742 -138.19060293779546 -3.902236866970554e-11 -7.842393401347181e-11
7359.785955890368 547.5137098011995 1740.7645742290483 -150.50891471841024 -2.3012947103495662e-10 -4.178879464689089e-13
8729.287100309593 677.7298141387394 2247.788909030784 -170.56311242385408 -1.3632228679227865e-10 1.8581780558690753e-10
10319.304557828942 827.4283490832631 2869.1965787374606 -191.79365439728295 1.30052524305313e-10 1.5074541614978898e-10
11905.597865654825 888.8658585034868 3470.6222395805917 -160.24273439857566 2.515687658188881e-10 -5.043299111662236e-12
12590.869892578647 780.3901172787595 3694.9640891767062 0.4228942940931173 2.462442472150883e-10 5.4331428245291136e-11
11899.5217172252 888.3597544532828 3468.5488406612767 161.12758855241816 4.985269974611128e-10 -3.941313941879798e-11
10306.153154660487 826.3621825635072 2864.3237164303628 192.80345916669444 1.0503654612747937e-09 8.040013099730459e-11
8706.791240768513 675.9723189406025 2238.5051035021324 171.81167765633643 1.1493992424504995e-09 -4.818434540254657e-11
7323.746046057006 544.7531296660169 1724.2359266355825 152.14505298371932 9.271268128219212e-10 5.426237237315945e-11
6054.957775493274 440.0532865121085 1304.5291139797453 140.44416582095843 3.096309320049784e-10 -2.8664626228191992e-11
4807.583323358121 337.53645015300907 944.5592598011831 131.57029920856294 -5.315141660133804e-10 2.0755841489972227e-11
3588.191612304899 275.32346533063344 653.4361854065547 125.09499385300268 -8.732767842190015e-10 5.988654017130557e-11
2481.2813701673012 117.24926204297901 403.00851243232046 110.12995179064107 -1.1136822575252836e-09 8.42466096884209e-11
2156.2397887993943 955.650063910431 680.0803182022074 248.19222629721594 -9.813037604722297e-10 -1.2900014390027081e-11
183.0464051664967 -3055.57132246703 -1120.39263962941 315.93823540798576 -8.833080933356996e-10 -4.501883310581434e-10
-339.52226162166437 -2961.3085903113906 -996.6262419402386 6.885237939530627 -2.953500222169225e-10 -2.8996849366080824e-10
1299.8837018648871 533.6434346775634 459.5459315200208 -285.7346113099458 -2.711673663391423e-10 -1.2215028988293852e-10
1643.8841826699609 -34.417246074087664 273.994192874163 -264.59424642367253 -2.0430135361237944e-10 -1.1495715490639213e-10
2456.93893644272 8.674594324710267 424.125408230238 -300.1910964346975 -1.0150552620658004e-10 -2.312283697847306e-11
3191.5344255454343 -15.605708530612258 560.2871776132915 -322.55462963190416 -4.838273531815318e-11 8.233969062132473e-12
3970.905100198421 -18.329015154338517 754.12363523088 -340.4152948207362 -6.361633442253378e-11 7.710276861416787e-12
4772.976810507875 -17.831513602374553 994.1033651479861 -367.30257154479835 -1.4794154790109815e-10 -4.3698156204641236e-11
5642.2810493295365 -2.0335488008158467 1294.443505334479 -415.22005183424056 -9.312306481490396e-11 1.450239928146857e-11
6610.002962358269 -2.7832221709534224 1646.0136054056693 -477.14475926450183 -5.0369597381916265e-11 -1.4992385111156636e-10
7489.702317891263 -187.97500491424702 1921.7779863852518 -416.05462109074574 9.019385238673294e-11 -1.4970624739873983e-10
7765.1597646296805 -579.4567367718076 1920.9732771170395 0.8185795426037363 2.278738586714013e-10 -1.713140740378094e-10
7483.3881159287475 -188.20514687681901 1921.7875705106687 417.7953708194355 2.4473761905952074e-10 -3.1398794675396857e-10
6596.520537451659 -3.2440474458069914 1645.4818172730256 479.22193495353787 5.177270834266778e-10 -1.5267187514211855e-10
5619.748879261789 -2.7365475099965275 1292.1286108383645 417.94922330983553 6.862218016046029e-10 -4.2062575644763456e-11
4738.086474445142 -18.80576817245982 987.809128310343 371.14713431534796 4.744935069855849e-10 6.420097786730139e-11
3918.215329834098 -19.582214539576768 740.3297273135211 346.0163851419404 2.0670581912796138e-10 4.051171620389482e-10
3112.6753668966644 -16.991366217007894 533.911093512913 330.7612942859678 -2.1735041544346245e-10 1.8791557199193676e-10
2337.4963392153004 5.685465135504251 376.43281598907697 312.81026999490075 -5.094366040125919e-10 2.055486891805458e-10
1464.706048978435 -37.144051344624714 193.8986764349257 288.9981007786809 -6.361812188160343e-10 1.0237177772154382e-10
1121.5942170427916 512.1581645944052 329.3042323180005 317.31506433651043 -4.951352938764586e-10 -4.736167014129933e-11
-476.70679481370456 -2919.276773017074 -1224.054143864204 234.12135270172192 -3.1314112414193573e-10 -6.549978337488938e-10
-437.1906697358318 -2167.849253148691 -720.3532037701879 -393.35002601786505 -1.0640280323492846e-10 -3.59998697518904e-11
599.7150644867021 287.6918689975038 269.7512548089458 -494.2924698610458 -1.2955690686933252e-10 -1.881385047752815e-10
780.0384594661119 68.44536760475815 177.1553860837562 -479.46482921738857 -2.0238033471287054e-10 -1.811399918949519e-10
1240.0731009962215 -7.99752655914234 221.24957752803763 -529.650363521615 -1.6678139945491832e-10 -1.617168621237397e-10
1637.5810043767626 -5.630606039159338 293.3712606859049 -559.4756126503038 -1.393719584186215e-10 -2.821520794782373e-12
2017.3750748417494 -9.082589778929542 384.28684457391904 -589.1914118912372 -1.5409708231661767e-10 4.444200563114009e-11
2405.416347971414 -8.391224988337454 502.9873903040083 -632.0948643853477 -1.2383480352262666e-10 -1.5249712603804255e-10
2810.1933580944706 19.528944176413777 655.38995980372 -705.1485515592137 -1.9880966317664672e-10 -1.831705898069913e-10
3285.681547605958 57.126574029710426 847.6449941451934 -814.9224333317547 -2.2247181874490707e-10 -3.558613403953359e-10
3772.630246158353 -227.07359749027722 954.0781659902029 -751.1900441597984 2.0522736288164367e-11 -2.5256086111369314e-10
3742.3699138193365 -1108.3308015340103 707.9982775837152 1.2790594617068667 6.381818684619844e-11 -3.768032552642353e-10
3766.052652517596 -227.37676229466257 956.005754881432 753.9184123428746 6.575850974854802e-12 -3.7741054725870526e-10
3271.833618993156 56.520868068301034 851.085908205329 818.2054551515643 1.6194935670288402e-10 -3.0244184934247187e-10
2787.6179325680696 18.612918693007966 659.3844906382109 709.5155196724651 2.536053450574727e-10 1.1378697983843722e-10
2371.6789232083584 -9.642966029794753 505.75387886845044 638.3392626223512 2.300585624781526e-10 1.713081898557789e-10
1968.619871016405 -10.59255516813712 382.84654226206794 598.4888942666524 1.9437032192093362e-10 7.435871918204384e-10
1567.9667240564563 -7.085452864285941 283.0433839897976 573.4084287440194 -1.1538964228563486e-11 3.941883486291431e-10
1140.9213390547002 -9.609960570327361 194.73550135983123 551.5247428560313 -1.9048793098441763e-10 3.307139007091564e-10
675.0323706475244 72.18034687745096 134.13310272696822 516.2693576629241 -3.024166611576007e-10 1.7006640540273565e-10
497.3682034283203 212.78088740628345 158.8407904148606 548.7582125974499 -1.5686391768854335e-10 -1.5219092652785093e-10
-468.27219825732305 -2095.534384685669 -857.4226279123 445.99488312995675 -8.177095112138488e-11 -9.781224719063175e-10
-395.0852908463571 -1378.634085806618 -364.0684172841484 -440.08159690315415 -1.8931103212826983e-11 1.2245093827800702e-11
77.25642549692792 74.05616365951698 152.21686356138488 -591.0155119963988 -6.118977546876181e-11 -1.577302732869157e-10
4.850572156828635 105.80749612048055 89.81117443781686 -598.1312962413652 -1.9373502802011444e-10 -2.072283455945012e-10
44.03016829473774 2.482114537924294 34.10592340105012 -609.4046711201883 -2.2395804655239715e-10 -1.1096978891345088e-10
65.61103675621099 -5.605436421060313 19.35840482157556 -638.2754850090615 -2.0294871339032738e-10 -1.8217649611074194e-12
53.9003321837082 -1.7537035386964563 13.70237890738349 -672.0743026025185 -2.4293472788983195e-10 5.305178518710818e-11
27.345839181553085 -4.1948880154088135 12.672510541849242 -720.810405162278 -2.2583915293417078e-10 -1.161286622419766e-10
-31.34908706984648 24.19159061250071 18.362218459083348 -786.6823166827328 -2.8186696726661964e-10 -2.127684695096832e-10
-23.752099900467435 125.35590192916214 72.16610007467209 -904.5217674325243 -2.8887418845879864e-10 -4.737690240119719e-10
175.61788346801737 -229.42012311468355 55.80758267167147 -934.0181029057677 -1.2544629224287007e-10 -4.1408254602970374e-10
-245.31196678922015 -1990.5450707370921 -574.2144735308599 1.4347962486523378 -1.4333879916339498e-10 -3.6416847315479117e-10
168.82016408822972 -229.80113263714614 59.658594625499816 937.0804964973108 -1.9404457207716774e-10 -4.6038395318248604e-10
-37.86315234340484 124.59795861671181 79.5854931143196 908.2122504785342 -1.004254101752422e-10 -4.376239370884605e-10
-53.773473385315604 23.059969402917517 28.656656193414065 791.597281383512 -9.782254173362759e-11 1.201860833077717e-10
-4.880763044116689 -5.703085573440789 24.455357495585822 727.8593312361261 -1.558612960916861e-11 1.2309420149847483e-10
9.82964911869738 -3.4672200187753313 24.491589485773204 682.6570227033158 8.846308408028136e-11 8.487823777159065e-10
6.529946709589679 -7.10861628497879 24.842003607198006 654.529016346396 1.447412745214649e-10 5.125428970131907e-10
-27.028406128758043 3.9705015748516126 30.14079809239188 634.504272364936 4.881901827236135e-11 4.2991610271769787e-10
-59.664784153108535 95.79409289916488 66.2440035065322 635.4065864265417 1.278432915086114e-11 1.9902213210798436e-10
21.324209000137362 15.433846755390613 74.91271723105758 619.1116039114058 7.191922057891986e-11 -2.1788615356399532e-10
-397.1223712558326 -1311.013621284072 -457.08751939637165 450.772239088138 8.64611715556407e-11 -1.0267804384511692e-09
-365.1691120321653 -724.6988983371897 -40.911783303222 -356.64603855839704 3.852473895449293e-14 -1.1379786002407855e-12
-343.81021838299074 -36.009035645402825 98.8405215720162 -521.5282399518885 -6.243588979160108e-11 -1.0255263305225526e-10
-730.022548244912 86.95240895371026 -2.5556522009414784 -556.719095618782 -2.0368884356969374e-10 -1.9306689580389502e-10
-1122.672583645824 11.918488512407162 -145.04428105933007 -540.5046492528052 -2.5981955475984364e-10 -1.0053868848558523e-10
-1505.6342573857069 -0.4122581926416691 -253.48068311385575 -557.8238404837953 -2.903283724542405e-10 1.593802867461136e-11
-1915.4205043427548 3.3326906104971954 -359.75098531012924 -589.3373618867639 -3.6281819215666644e-10 1.61410884658153e-11
-2339.5306329689415 10.623370965523922 -471.3507165050735 -630.9488874115395 -3.5206599614812095e-10 -5.874278841133673e-11
-2842.6989062657717 2.6560550300205548 -617.7530713463274 -682.8358981793417 -3.304530399317329e-10 -1.5938006470150867e-10
-3343.196968481714 155.39276509465014 -719.0457072276312 -741.0571258795566 -3.1344807305266897e-10 -5.99714500282289e-10
-3354.8203894589647 15.321896224587626 -752.3216845701388 -964.0102046729423 -2.8593254847164573e-10 -3.62137209108937e-10
-4426.64252573753 -3259.3226614225287 -2036.9089457265104 1.2886397444928712 -3.099405315731829e-10 -3.0928881677994013e-10
-3361.8721373813755 14.862304114291165 -746.5179569420401 966.7588704992954 -3.139560555975862e-10 -2.9219249242373735e-10
-3357.645437393782 154.48193109349933 -707.5860037669406 744.3625256031578 -3.8598568785630505e-10 -3.8910630273392144e-10
-2865.109476438403 1.310590124788538 -601.0589969609116 687.2224753019614 -3.6083206561565717e-10 1.0437917197236857e-10
-2370.4169224018437 8.892366898501855 -450.38008431334754 637.2149437648224 -2.8380221783752546e-10 2.4256785469134456e-10
-1955.0141872050688 1.3600364518036758 -336.49359765193464 598.7906413671902 -2.5320301411113633e-11 8.407765594853345e-10
-1552.745457098351 -1.5674850894969443 -231.22155191420472 572.5165386684986 2.3020851891430993e-10 4.869685765740428e-10
-1170.2702847207456 11.87332246074881 -128.81106310032453 563.0199484260183 2.7676422265088263e-10 4.118162477695364e-10
-766.5009079787968 74.96632784119915 -5.602476056089446 582.978950415657 3.262149994576191e-10 1.4522461011523546e-10
-370.5398733182019 -70.587400602702 53.056262410472094 532.2976851255733 2.8697430543012103e-10 -1.8570844861898195e-10
-362.6918895820878 -680.6400840243898 -110.71491858338698 353.0262826236524 2.344722194180804e-10 -9.118901189708595e-10
-393.37582177649216 -308.873233452385 179.5761232872221 -195.1765400276188 1.098815483047133e-11 -6.166067656465657e-12
-697.0347855596476 -69.06519597701192 81.16381116192204 -298.0935755165371 -8.045319965788167e-11 -6.17470519159724e-11
-1443.1195815117462 52.16049737941036 -96.38965024211711 -327.1654014627044 -1.9909141002472097e-10 -1.0393541582942589e-10
-2270.4594492836527 19.4699022257351 -321.44468964653447 -313.2344605000142 -3.481744892397387e-10 -5.913358691600479e-11
-3069.43195607028 10.135089747059334 -524.9656088613231 -320.89729581425985 -4.162728495238355e-10 7.67952368363467e-12
-3873.986005565314 14.962134643845253 -731.6763644636338 -340.4465719960125 -3.970268142028388e-10 -5.985589801582591e-11
-4708.8089040637315 19.89911692554484 -963.83516350411 -366.40965286717136 -3.191248654221823e-10 -4.822309218610599e-11
-5546.063485433907 52.08644125016039 -1210.4718544761445 -389.9698732106675 -3.755750155320925e-10 2.027455980879722e-11
-6690.948709424071 -50.75780160181863 -1607.1192540609504 -433.4951141051266 -3.370682621905985e-10 -2.8706759191976516e-10
-6854.646672268923 752.6858682735424 -1431.4566067718529 -576.9544335912743 -3.980424462257659e-10 -1.1481915418443123e-10
-9100.823178773599 -4883.705335594422 -3792.9219790564534 0.8353113467363165 -4.236017370207179e-10 -2.5628854594117456e-10
-6862.063747021177 752.1501818940519 -1423.647017162131 578.7306367403205 -4.923898511144387e-10 -6.852174383453757e-11
-6705.985776418861 -51.81868949781135 -1591.501436710013 435.61241957539806 -6.862023727016719e-10 -1.4711076801177114e-10
-5568.910625358569 50.533266253024294 -1187.1655481817036 392.7421015763031 -6.813702935204446e-10 1.3558065781182904e-10
-4739.1523067649 17.92770046209237 -933.3341092615066 370.3109284019342 -5.606231590071786e-10 1.1110445896633792e-10
-3910.015236894575 12.864965114217982 -695.207486852807 346.24431281530804 -1.9594087463659093e-10 4.6276671383793655e-10
-3105.9829135888876 8.622315205311999 -485.00488009450777 329.8719938985796 2.891846762054229e-10 2.399782594864064e-10
-2298.227403387377 17.6011641948695 -283.7834979305864 326.3579819731064 5.574846140277145e-10 1.8976287208261056e-10
-1455.8824187982707 42.55224997987129 -75.63884903641299 340.13259631386694 7.184737249588125e-10 8.333100876001254e-11
-701.4454206632848 -85.67952571074643 64.17025361841819 300.71877838129546 5.828265092766571e-10 -7.388711864564357e-11
-389.7405302318389 -288.6810508724573 126.60953971466785 190.04061293936527 4.0247272181659355e-10 -5.807669900548262e-10
-440.4377984818955 -174.47358347171652 264.17025657997266 -77.44883647137203 -5.445421891181468e-12 -4.130029651605582e-12
-984.2428820399207 -113.69744486751432 62.26019014069327 -117.7399328068598 -4.318678747949889e-11 -3.1038727144050426e-11
-2207.563862212563 -122.68604999646199 -256.18133985554493 -123.47495543614312 -1.665885207557949e-10 -3.2374103398069565e-11
-3543.74329587015 -250.96159357098958 -625.9181773149791 -122.02769128550504 -4.5203485399269994e-10 -1.27631238910908e-12
-4785.70348584258 -355.216006882691 -963.2066969822087 -127.24957219322398 -5.764468902214048e-10 -1.1756817741570558e-11
-6020.222788277544 -446.09215894048884 -1313.5473495378135 -137.36379728083216 -3.5820424404420237e-10 -1.2451550901459996e-10
-7304.399470682609 -554.752931697939 -1717.3547899430805 -147.81623333710743 -2.7379720712872313e-10 1.2220802148021903e-10
-8595.432470977816 -599.8580588940624 -2144.9922348688347 -165.6106100598578 -2.778199892361499e-10 -3.991740271658273e-11
-9925.884569805572 -899.8246489695246 -2695.3503497726088 -174.4777597364899 -3.473568099821023e-10 1.2742429333911787e-10
-11054.98539717639 231.7422691392854 -2758.3515861398637 -373.9405490922121 -6.107512273700877e-10 2.4267698961466522e-11
-15372.83454509946 -7380.373588302818 -6367.163691775719 0.48262793501263346 -5.378752998552727e-10 -1.901305779483664e-10
-11062.812195548227 231.47586416947559 -2748.3113015436747 374.96708579593417 -6.356786208527865e-10 1.6361756394189797e-10
-9941.620711977826 -900.2940193932928 -2675.0796392963493 175.698393950837 -1.0893685953305976e-09 1.9197887723976237e-10
-8618.957441518405 -600.3787524061609 -2114.2137773697427 167.19344232261562 -1.2343870370301602e-09 6.922462603142776e-11
-7334.689853808397 -555.0089557018442 -1675.9118730156563 149.99269261234406 -1.0140854267426391e-09 8.398526318842414e-11
-6053.628562472908 -445.28586812653725 -1261.5840403630666 140.46065679356659 -4.093738681376635e-10 3.836664319578631e-11
-4812.745073340669 -351.76150695496005 -901.4611341873159 131.7568967805627 4.1457859367710626e-10 1.5409362674745353e-10
-3549.146726475388 -244.19905159113296 -558.4478456899192 128.2389834145413 9.197220762757752e-10 6.45616893280021e-12
-2186.527746665562 -117.51021759770087 -199.1349247032204 129.7442592951811 1.2332348475752042e-09 2.914024577194141e-11
-958.5556185835862 -111.72171766681797 79.4729913809159 119.97535619601635 1.0004139738839513e-09 -7.421174785804396e-12
-423.06752911542867 -157.11325089633138 232.11132443306195 76.27942959861309 7.033769122699596e-10 -3.532676373652066e-10
816.9035765228158 -2995.2675464577046 -653.5091909804669 -38.5266905353022 -141.32503154816447 -12.263435308824176
2599.021377464464 1066.9968788249337 895.7041099907799 -265.08877903669685 -192.67834130974472 14.703509041924788
2692.7041958087525 131.71574542562252 457.5024920748012 -104.88954106527734 -181.3382024592835 -14.20292985200581
3747.3257896855007 285.83709641369995 647.5151499449549 -119.856486477104 -151.58498209255768 -16.388704351253036
4933.147365392931 342.37878596219093 887.0153772006257 -125.59516535254707 -97.47421905438152 -22.61601355339089
6149.735895956852 437.8050422073178 1187.114404662859 -131.87418581369826 -29.707506508099247 -29.05675274341534
7378.481638439569 533.2612776581973 1536.987317255987 -140.34400633004734 46.88558961002874 -35.08993824500467
8689.89991084734 650.359165266143 1968.654889082091 -156.46366436949552 120.05602337081532 -37.80398209950815
10174.332085897353 781.2567873627215 2504.8128337244066 -175.6595805880426 160.9558078982742 -31.84721415437588
11637.668448257573 824.0379070458765 3034.6647410076084 -147.5617154504314 124.92986254325349 -13.792688805490638
12267.86698299549 712.586815747222 3235.4172131919304 0.34140914464682837 -0.1613617044809641 1.514560704155052
11634.08270875448 823.6364673168985 3033.004816622897 148.2653780379734 -125.0669964247271 -13.596867276570944
10166.533337045155 780.4103562229387 2500.9570312320316 176.42775015986012 -160.51571030932277 -31.457910377636306
8676.519397205768 648.9728903466297 1961.4252444032518 157.35038994605495 -118.55710020091442 -37.240951297600425
7357.112505499349 531.1468239448104 1524.3244992341947 141.40857114068058 -43.57699115313174 -34.41145182351088
6116.639093171085 434.7732915463297 1165.9009798095226 133.23699582019248 36.18064475297443 -28.470875475112567
4882.073964636446 337.8597779299356 852.2674337261653 127.18336162757454 109.69381541001634 -22.27388033782734
3670.230421663049 279.75847699642105 593.6889534606652 122.76675002104325 172.4881354384706 -17.79957306272935
2552.1515063968295 115.80169342184095 362.4200413520714 109.04383997031898 213.59417814125553 -13.047956281836104
2244.7381110120477 996.683268043067 712.7892412779573 259.0557739409444 194.43014619860108 -10.502091200393105
216.38025552620002 -3162.517505289554 -1111.7420399463476 332.7290075794478 171.86804868661102 102.64632870001424
-395.04102296345155 -3062.6837257906864 -1067.400489096879 -65.7175575892238 -74.82309139486314 36.62612107299031
1284.6362569800133 557.4184316873992 459.0388739122206 -300.8478849909904 -90.70397580025116 30.81181106567143
1613.7973780711432 -40.13553287618871 228.7261026519128 -271.2849240068117 -113.542852381904 -3.4086948254256275
2462.4095471952483 7.626463906444378 374.8018960139716 -298.9960930547553 -94.92902143545396 -8.613305347247763
3207.8236006411566 -18.60591283412078 495.3208963729697 -316.0576268768057 -60.133490107444146 -12.583305596313549
3988.610770632373 -24.070437251600346 664.244738234196 -327.302904505789 -16.07679444567832 -14.543398691088282
4778.408005233624 -27.052728110142088 869.1197590469976 -345.6698171585372 32.01784630382941 -12.678000502621183
5613.3278428281055 -15.735781350662894 1125.5806659914813 -383.6866958389889 76.42279261644954 -2.2814777917085434
6521.921832755535 -21.126141213491998 1429.9771902699672 -439.1238228832432 100.58808576566047 24.172437464625308
7335.644923183059 -208.95590505329494 1669.4504919896099 -384.8319960969567 78.44868355920727 68.42871544910969
7586.957734501048 -589.2301906405097 1663.8149538845466 0.6621661841161832 1.4487759578816368 100.01728322011905
7331.976999210215 -209.10109077346382 1669.5024333202634 386.21695272346784 -75.27688639334848 68.47521151719802
6514.051121612951 -21.422720914094683 1429.6579185772773 440.7009831290369 -96.58250787113458 24.217108111717806
5600.115809174602 -16.198269313622774 1123.938219019382 385.62264180526716 -70.97044499097736 -2.3636843627794244
4757.971454212847 -27.696593962693495 864.4793992953116 348.19395480944985 -24.352303397721375 -13.15251411278784
3957.964287674362 -24.89884240281436 653.8497654712055 330.7410474541508 27.12321649849489 -15.925469141703804
3162.7687450434923 -19.423344573013246 475.22553576281246 320.77924546908037 76.30593632742068 -15.694612146287641
2392.905976669441 4.905094904726669 336.87973430641443 306.32705503046134 118.81807936580724 -14.85635709153566
1500.8569736189586 -43.13560223046582 163.66024389145903 285.437702157562 141.22096154599006 -13.130939867207365
1165.789055008549 536.5524299011101 356.64860425752244 327.044955041875 101.52869673430648 3.8072650036493707
-476.63602719136264 -3020.6808187408205 -1221.6740505785097 247.13754867243554 66.39266951267763 132.77659438196181
-446.67448711595233 -2196.8419893062974 -738.8939317560101 -425.924524376613 -26.25073545132058 126.273514755401
583.6700111902724 278.18735649215176 262.78239646988527 -523.6480480031692 -33.02480055709099 46.571298386104196
754.0153105741944 67.51955424950619 152.28431814149792 -488.12933512171753 -46.20428777823193 11.868444285054814
1226.9661320046384 -13.68488376282492 189.76217748952462 -527.4447920418377 -38.14322599962615 0.16993002168945126
1633.6094502590583 -12.576428234427201 256.4864452187177 -547.893203930835 -18.556461086275405 -1.4473908384847798
2014.111139103986 -19.298698944042197 335.05711434478843 -567.324258211927 4.661157663802971 2.118204026749966
2396.199630272011 -22.407337998783557 435.8306785689837 -596.5044565853862 28.735054589401496 13.80662246257451
2784.68136659449 0.061778062992279725 565.6523899340623 -653.2973252755488 51.15331257118583 39.85347534086572
3231.5531973599363 31.13538234205604 733.5134809841506 -751.9591885875391 66.50585555717909 89.59399922487758
3679.999370395705 -259.3809014808164 822.2069190563686 -697.7376240458098 57.11119568532881 164.26302062621008
3643.8070330992105 -1115.8072938442526 590.8973143667341 1.068441292267507 3.0295732954024044 218.23511991077783
3676.1888164063776 -259.57395670418236 823.8389565759993 699.9754911305123 -50.70693024060807 164.16466919023603
3223.4898577734184 30.748785867440034 736.4485793986114 754.51816383795 -59.07167109875385 89.29659778931361
2771.4703340354326 -0.517648172330945 569.1307506270662 656.4581463755729 -42.01576205352207 39.109884201676344
2376.425082486557 -23.184049588967298 438.43314218400513 600.6668816371425 -17.20913053372301 12.117046594585494
1985.7423492045377 -20.15729877736052 334.41369561071497 573.0640618792839 10.02007798696957 -1.4167753767834936
1593.4717515167565 -13.497003245648267 248.61536521244543 556.0416627850084 37.4161449244645 -8.360086880353965
1168.7828027022695 -14.837601939598363 168.08218973086912 539.8946586505875 61.86004747452121 -11.811208384665598
690.2256707563415 69.36006820161327 114.63529437004371 510.5999425817583 69.9088742693252 -9.613036796703444
518.6382555376936 226.0581877353348 177.37086778186094 562.809325246419 39.76869803319393 28.17003630284551
-469.58973226423814 -2164.4609207567937 -843.606188760835 466.01844165782137 17.918235780172292 195.31421650841034
-400.9064519329186 -1394.7486198686863 -371.0058986622513 -458.89070898811286 3.125581824901012 161.91023217843707
62.54249387061299 63.581545656577816 149.58003329822895 -613.8397580099994 10.04656692607568 54.700615135825416
-20.58034657402974 104.53297697718956 79.80263630148133 -608.9862893890468 14.382392644750775 16.37692065537028
22.818907409673855 3.924828336439054 26.29650798981321 -606.7344002952002 18.45835222768366 3.1748838153314494
48.384172789092034 -4.809919361051747 15.582620007482248 -624.7233308492292 24.207078699904297 0.9807853403512432
38.72062466233643 -1.3138231678374406 11.699527158713881 -646.8071958375274 28.45814609001116 6.236439876092994
14.022290876326089 -4.65313459898709 10.378528815442849 -680.3827055556566 30.739896482634936 20.91298525318676
-42.09906762037231 21.60127598662278 14.884790187390283 -728.834028115581 33.71187686849025 50.98154116882506
-34.20980953627712 119.26528678334705 65.77484730099498 -835.4773202624818 42.245579093738705 105.79841286762469
147.27528954605617 -241.67535449074293 46.76741252137093 -872.5889411861292 44.86242650030687 190.8976805172791
-261.4421295108638 -1956.1223764062013 -540.6595955394512 1.2108132212432774 4.605832568820244 260.45104205885156
143.34025169102384 -241.92802552825935 49.984578563509224 875.1252894902079 -35.24151261351932 190.75529230079624
-42.42459278227899 118.76435190712063 71.97425043804282 838.3780950613026 -31.423115975701236 105.3961211752459
-55.243960657085516 20.86165575641364 23.489215762774933 732.4164558181398 -20.980335177972538 50.032610835281815
-4.945659170086133 -5.602580840700074 20.240111991163943 685.1018798508338 -15.551006172354079 18.848928631688704
12.851791602792806 -2.345456768386571 20.733283238125658 653.3604310924916 -10.491918101444625 2.0008824358331543
13.84485812545715 -5.720359893298654 20.047234429750052 634.2264924085775 -3.4369832167839514 -7.133806019621961
-18.807169047853925 4.942525318232054 21.847492878016457 621.2012291507791 4.147301167206664 -11.44042073607498
-58.855916452926444 97.77840544119007 58.15926714226008 631.8388225384251 4.328145478167718 -6.479879930074242
27.296391456119768 22.631177799624425 88.65757106491442 632.9067979324062 -6.102490569161213 41.30134587713202
-403.9323038153643 -1359.4526083333246 -444.63020529109053 466.9418410242643 -9.693192658093 206.80761457672614
-379.7037211154999 -739.4052679079801 -50.87735312994379 -366.129316525392 27.85656072053035 152.14961575945898
-362.779333612559 -46.01418923088464 100.97637095046909 -537.7428091727201 49.732244900282076 46.71138447044846
-758.2956925355163 87.00842182987935 1.2968023433200748 -567.2579793174624 72.87322162371845 13.960225070947692
-1151.7546002919057 18.813303583079385 -129.94910169335137 -539.7012421020819 74.60260325658032 1.59061245308269
-1535.0297736893046 8.89546426890249 -223.72200625406 -546.5626502519815 67.23277916707612 -1.5138537681185127
-1942.4429973917722 14.540523205534228 -314.4605996226174 -567.3294751250164 52.559339786696974 2.1488189959495365
-2357.5290315357697 23.46308651850458 -408.9235108296943 -595.493664226569 33.15070537033842 13.972382859561884
-2839.804782828386 18.077388482873307 -534.8062036165911 -632.2465116949104 15.442104952267906 38.22886502300802
-3309.2312271211945 170.74424009009158 -617.3851677990497 -683.1096069594223 13.494435484830344 82.24983065978294
-3320.740025693482 20.546281153560635 -646.7042291308497 -906.3399824421575 28.270779025919346 160.29187991758258
-4354.757125497226 -3171.008992288389 -1846.905140959583 1.0720718564049134 6.213078227281846 240.60016636849662
-3324.8250746984754 20.23264898402955 -641.8792332226965 908.5852923790545 -15.367127533542533 160.20620160938503
-3317.6547217959856 170.12419086421588 -607.8736650534471 685.6757388235718 0.7954317921497231 81.97843097969621
-2852.983963075393 17.171840589413552 -520.9947397451883 635.4106336385518 0.9852225392743705 37.52797194939958
-2375.833651462058 22.331156838940515 -391.67649102071675 599.6537328173274 -14.157664557170817 12.35281367208583
-1965.9975103315642 13.3009659713998 -295.5599917631947 573.1362317416077 -31.13809853105729 -1.3034886453820798
-1563.007707510491 8.254583163698005 -206.23320215495144 555.1208793154275 -44.402753933140005 -8.425707396778055
-1179.8709240572082 18.931083872493275 -118.69825850280507 552.7691001027307 -53.04787188150851 -11.21174835386305
-779.8940093548929 79.2129202815825 -3.9048311382074132 583.1097104975512 -58.29839850613226 -4.604463342560601
-379.7063006406327 -69.81063279097206 63.70490930740494 544.7685261423194 -47.740971754176556 36.80464770807173
-379.316196306569 -714.8702405135759 -106.32249290232902 363.7765534605817 -33.195313681476 181.16609006509668
-421.28128127077 -329.1016199088323 167.24639725503673 -197.82872122455856 59.07181107156079 92.01912707271016
-725.305476453492 -83.54491493347504 90.13913242576177 -307.6879563459259 95.1556468197085 20.320705948077872
-1480.3512562343817 48.67039385559073 -80.6518082646252 -334.5555809459721 134.0923734257036 2.7333738112572306
-2313.1724466933283 23.234157708713408 -287.4704224346352 -313.7720741085799 131.0787855648286 -7.226664701473742
-3117.690019291587 16.44940792225065 -466.91477306318166 -314.6033261814638 109.38997866624487 -12.422545652728632
-3921.7177525275824 22.153334138586583 -645.5649081739816 -327.2299087550763 74.2252198090479 -14.469685083768587
-4741.946761677839 28.137458603047875 -843.2253903594227 -344.82846088436526 30.80843474571452 -12.571019851946723
-5544.212354838653 61.25822045332669 -1049.570051156393 -359.9074494183243 -10.523554912862403 -3.973115358731243
-6619.551125727373 -34.20577303171567 -1399.3964423633056 -400.1313580061567 -32.38721292396526 14.394751986006497
-6768.603154076699 730.6119185911484 -1233.2578038439547 -543.5689769304327 -8.885589737465091 63.787700604234
-8925.945228038045 -4734.157744369042 -3448.273115049655 0.6698511127958053 7.886510990367589 154.70862867610504
-6772.907414329226 730.24705704344 -1226.7856641407368 544.970015161336 25.219360435790595 63.861195932901026
-6628.335033948198 -34.92660588754801 -1386.4865211876888 401.7260370137567 50.34083045687903 14.493629767895479
-5557.688646166434 60.213042559205604 -1030.4007920692368 361.8598046325262 30.940303378675985 -3.9706290026094027
-4760.045774522466 26.84335432450181 -818.3601311748935 347.37277960882875 -7.546412800171062 -12.918415470193095
-3943.4342306334524 20.855586608653894 -616.3152344336044 330.7453138964256 -48.606647770344324 -15.671720375821353
-3139.867503103189 15.714005131218691 -435.8574286615156 319.80387595917773 -83.43025583479492 -15.477088975055066
-2330.048898445014 22.542702791202135 -259.89571850132927 321.3756404728978 -109.17415465569576 -13.651698409244787
-1488.2206018549261 43.108988526358424 -67.63206034498698 342.30667424534926 -122.55854997220199 -6.749757349523083
-728.6699997701335 -94.4071757521851 74.55297530665989 309.3939858020357 -95.83265453740323 15.301927454419301
-420.4272052152257 -317.8953635564259 125.6220166605598 194.32608894823534 -65.4470713092316 108.2391538730533
-470.6599154612267 -191.24673285353506 276.3174807999497 -77.11521010969422 113.81860242731712 47.229904169674185
-1017.3653007695733 -127.34792967341251 91.55408089505694 -123.1822809705039 156.83992351757308 2.15338480981666
-2254.2499256899264 -126.83769753886624 -220.41174689647502 -127.65899572492415 200.4420212121721 -5.732562598830643
-3602.2650438678747 -248.79109484062974 -565.4839941176257 -122.93954082991537 187.21863305441767 -14.0645107123282
-4854.197842050414 -349.91396238123957 -866.854322714291 -124.66174264641818 147.92470760285676 -21.18037459560057
-6088.561430742693 -438.09262245876334 -1171.9724466628804 -131.28260269145397 89.01543437295871 -28.177157739865144
-7351.164249813997 -541.242758965658 -1517.724628481892 -137.87122486376558 17.368714776594786 -34.43941257995937
-8583.529556132555 -576.7818395013139 -1871.9530375876277 -152.51223772817175 -53.38664079495697 -39.07430247577179
-9806.04764388076 -852.8517206755064 -2339.9729689388323 -161.3313804506955 -99.2733648000723 -36.939491979596724
-10865.344562161557 238.91148957761592 -2397.5622514710353 -355.3196746427144 -94.80908302116593 -22.85515970263763
-15057.022764011474 -7160.484995207264 -5905.140783345138 0.34837732462819293 9.650296059951692 108.38879421319757
-10869.857630176846 238.79724024810432 -2389.2704212219624 356.05236893008265 114.7787335368194 -22.695724329598374
-9815.175603525651 -853.035608683084 -2323.2917440024776 162.17602492459457 121.17973139481842 -36.633068177616856
-8597.303436729597 -576.9277180600938 -1846.7972813795632 153.56029322460466 78.24875055218936 -38.656969719233096
-7369.124204999726 -541.13008921089 -1484.2548622068061 139.24322701412842 10.922197916849758 -33.996693225541236
-6108.7110532397055 -437.1863734608436 -1130.8878540141686 133.1493537726681 -57.90787584332739 -27.907384584413116
-4871.002354769999 -347.1670780031686 -819.8177130830129 127.31472495354706 -116.71919705300579 -21.53299055271124
-3606.5374318439162 -243.78190448284786 -516.9344261365698 126.62769402287977 -162.1422391990529 -15.811684787996853
-2242.834705334644 -122.78845985391033 -182.40652281396228 131.49988502573626 -190.6129369492234 -8.771866361265637
-1003.0219235602256 -125.80757136828532 100.08811083286096 124.6207381226408 -163.81280290286938 0.7089328932227517
-461.65272362733947 -180.99540694797628 250.93599926300246 76.04849930270512 -127.98912682875448 56.94367143058143
-177.42017779292271 -3944.5494057988 -1236.5908750775168 -613.1022519784885 -327.08552387282293 -115.70409411831768
2325.318920336111 1118.177312312077 814.6002019013591 -274.0815333357181 -352.9303601007998 36.265294080055185
2700.718343463411 135.3107789090623 356.045550649108 -97.94657963438647 -331.0383654402165 -9.06073175334217
3823.969267882164 331.61591386005813 542.8207163688469 -106.46481945618854 -294.15789569117754 6.197287012845209
5055.222844778965 389.57253459672427 725.643051749727 -105.73586217105814 -224.5120508005891 0.6359934026209335
6326.469499132167 497.5711898333349 954.1989300655393 -108.43768124206652 -134.28702196377222 -0.43264233664523166
7575.922458677129 599.4037755308357 1199.808334364933 -110.94736490933512 -20.879337749418276 -2.0302381886298413
8807.363105073311 708.7653800425475 1479.4305395289016 -116.85348781252705 104.38357118742891 -0.16088135428007355
10019.142723984294 817.2170801074369 1803.9425106376393 -122.78107943463857 201.84846006740315 13.17515929570888
11068.162770598454 864.9256885651624 2116.960794318275 -98.8625722471181 184.4345621435145 50.60966586460231
11494.319661413792 803.1966981147169 2234.6246882589303 0.3327895023773664 -1.7460836202376135 89.81496666799485
11070.473234466557 864.7970821507936 2116.310535459715 99.52296010855817 -187.73033168326648 50.84004819464849
10024.089341810899 816.9642987542128 1802.471048128324 123.41707865138076 -204.5257191813683 13.627778456326254
8815.741675691752 708.4122645784919 1476.7787049958772 117.41454163623904 -105.9191432467659 0.47007627765475446
7589.394549398936 599.0546430029652 1195.4372641953685 111.33983190404889 21.292506470754407 -1.2796008657243543
6348.120460619658 497.37875927951865 947.2292421439225 108.45919044825172 137.87460314351577 0.039651028341226136
5091.288217070255 390.1902899304389 715.3759022484145 105.31909977838684 234.01569680587846 1.2996914244205844
3883.2044449163077 332.99732154960964 526.1908695872249 104.4244927409864 310.53178538088656 2.403592862197612
2817.572006922179 144.48313570812894 344.56069439345805 94.16062569434376 373.80423795088 1.7891715771477945
2600.2193440776823 1153.278237563086 817.4162957491785 271.7833209654886 315.8357895010185 -42.780489394842455
362.98671454261296 -3736.1900601937696 -880.1576371134371 362.26863737376493 266.82235090581787 213.1610316091135
-583.7221375928812 -3601.7676712639945 -1091.4596888755987 -393.4442610926653 -55.085754021849795 10.842129705145268
1223.371934988741 596.0901674847859 430.4607862000812 -341.81014451904406 -118.68057932206091 32.95868365676263
1540.1493030493896 -32.28084985730116 138.52470734753385 -269.1157554882938 -201.90550716180647 -2.163920254082008
2473.5132349673827 37.4197740237771 274.45698488149276 -279.4326102358441 -169.31308270667267 2.9144831002209095
3257.1384514554325 19.286563772551794 359.82733822939855 -287.76718300345345 -126.1684092918188 -0.458134872416597
4073.3556965898756 23.99241434626048 475.3184374670668 -289.35115510923436 -68.75665628143116 -0.5616220311440268
4876.793386497102 30.448778776060376 607.2553833469796 -291.8413886602766 -0.1353076475563536 2.7614844634757163
5661.975943435829 44.11772341901993 762.1534987749013 -299.6312194532181 73.57726814408902 15.855852086776874
6412.800086684986 48.241966988544824 938.1529795656572 -310.64978597559707 130.6516161191276 53.82729833799923
7013.644083595196 -54.71718730089598 1073.5782771580984 -254.88868813325877 120.41083123593744 136.6756865874969
7193.187416254721 -290.8853782376877 1060.6135836006147 0.48174154326883656 0.672712197851437 219.1878507366272
7016.258126664309 -54.6140714882469 1073.8730691893586 255.83736760135326 -118.75925086581054 136.72528111793608
6418.311584656517 48.444916403245045 938.5699183632846 311.5349320055974 -128.07058730782896 53.87159176208344
5671.054465348521 44.42134801030842 762.3149977071109 300.34071160871576 -69.39247345574077 15.753461976260331
4890.733551538005 30.86246163946955 606.4924954992354 292.147172414274 6.696556393638698 2.229103490443366
4094.6917632132145 24.573660948590216 472.6565970002429 288.84877540907144 78.80414224354556 -2.109493222789659
3290.1666883324697 19.943792835062148 353.4634211177327 285.9116625984039 140.9185985793221 -3.691559315244271
2529.208377811383 40.11141413045779 264.4227062831586 274.7692683508032 192.2260088754444 -4.408067320552886
1635.9366816848126 -30.785503453869527 120.58440013209098 257.201422813264 230.75264414412405 -8.747799961484992
1321.7334936729683 607.2110131129642 410.90191736999435 313.3883166957919 126.33304143265917 -23.995092708217644
-499.2239044727577 -3595.6565302612044 -1060.904278744767 233.54088305665317 37.78049092410279 224.86184373929905
-542.1657640500624 -2615.625477276547 -714.8156037157294 -519.2802712747064 8.734665411833054 216.86520264140225
533.9036649482659 200.485681872275 232.79005764811112 -593.6082523506163 -27.12897988984012 32.59267983794762
700.3731623407404 104.63579422146674 110.51255309835376 -490.89751772022714 -81.47380659466589 9.937795003589388
1189.3961203807266 10.079686275985257 128.76217469014122 -504.83190232547184 -69.19911751095533 -0.13786870850033184
1628.9397112816819 18.34469027338505 183.28600719744188 -510.3031715066742 -43.85728487055429 0.10771423434935867
2032.5137611010368 19.02330641075072 236.3766928199762 -512.2987604412035 -14.797950360921408 3.294181044158566
2430.9087989273858 23.6820532896309 301.1477258311398 -513.5258416179047 18.788133064389097 14.497216228103397
2809.8125110561164 41.43612168275162 378.9422634083766 -519.1053381679216 56.92934569168454 42.54161441342985
3181.829460686873 64.19845341211254 474.07545918358454 -537.1449278478467 98.71822209021647 108.41318733991254
3506.9864194173397 -108.04491552798882 517.3559027240912 -464.59252374105495 109.71162574432608 245.3862626917061
3483.0450044850327 -668.7403191432659 351.06228040080305 0.7066258977539182 2.818191470557612 403.80218785760104
3509.7902836533603 -107.90052684076282 518.5277649108708 465.97852043871785 -103.68211990751121 245.27145759121325
3187.646544835977 64.48024429193481 476.2569708735413 538.4171627309557 -91.51842023456996 108.08319926761882
2819.1067669256913 41.844578989130376 381.7548154683079 520.0719128403938 -47.81511348712667 41.752335640172525
2444.570343110936 24.224808846521444 303.91222406637945 513.7915222439549 -7.0685585406126386 12.743919918882952
2052.191423644628 19.646814112975854 237.92048292353493 511.1655252519769 29.728455841921836 -0.2979382011169023
1658.0333063598832 19.19170055220546 182.0012653261252 506.65724485182903 62.62418640210213 -7.006251833870843
1235.305245613173 11.415669828896347 122.64279008839769 496.5324042501493 92.49808540156945 -11.957850989492243
754.225394041587 102.3263824568357 90.90784297030648 471.48219773212367 105.04973808517948 -13.817705231412724
586.9474033975328 241.50847057220665 220.0967234355985 554.3721221371221 31.943830707354163 10.303607062836534
-518.3855994007105 -2612.508676441712 -729.783777830185 474.2947750327251 -19.52078202304621 303.90154320319243
-450.02889735430125 -1655.1301890290379 -361.28194535059373 -490.9896446219152 28.20061876570919 237.77085787387267
20.46889393589843 -34.23392614719403 126.77630508417327 -652.1606809574841 26.930726898331745 58.46332120868373
-75.73805868514752 116.16646324150807 65.3141526164704 -620.0967121867992 16.84865567318436 14.75084092364518
-45.88453736751435 12.974948584369411 13.644102538870545 -585.7314908439041 23.553227178292378 3.6490350811606453
-12.3345251478768 -3.444535551703139 8.160534178702818 -585.6482273270777 31.637969015154884 3.126905202159118
-8.951056738911257 -0.47413151457638625 7.193438526750688 -586.9493148922089 35.90514398729305 9.26874018783143
-14.363571193815028 -3.2449659884559776 6.327807545012236 -588.3267124553499 38.8471274411722 24.13602325902265
-39.88246961954301 8.789158694223612 7.2697401522987 -584.2726700306836 46.39860815980269 55.962722410008425
-33.99119310537614 66.47196702078698 32.308700759659935 -602.9674280791909 78.6243109687221 124.28712533335191
78.12042025397551 -155.7851026489652 8.126119296398182 -590.1661125236938 121.534002502264 273.57585619177166
-220.73189897338324 -1327.768871328757 -416.4563665011553 0.7683662391718906 4.854786191595399 518.4516382438902
81.0999177100882 -155.5925878997518 10.189326575661449 591.6722248884258 -111.3515479858371 273.41336059177866
-27.914666678038365 66.84889117629496 36.28863071060508 604.3457504648336 -67.05730060759898 123.84717071463481
-30.4771757927915 9.340039175147245 12.80829237515765 585.307153431698 -32.653939050813406 54.963573698907545
-1.2424198332335088 -2.530133944214014 12.725483694634354 588.5679224950347 -22.383711989110655 22.0172741905066
8.62861288855923 0.36979015826618644 13.226313562243964 585.5594113238857 -16.612669937927123 4.96287382960875
11.743992039815483 -2.4709213604571096 12.01315415112327 581.2072971135046 -9.981040717953475 -5.102268729608587
-14.838988823532326 12.666200978120639 11.223343877302478 575.7689991435984 -0.9240115691833032 -11.246105501258135
-45.43295775819447 121.42636570871846 52.90894465036443 600.1125101258044 0.8038568215981009 -9.298023484408624
48.49268052426516 1.450962407576112 115.12040151390465 631.2138204041777 -25.454588820671944 43.95781884713735
-449.4407507593508 -1667.9423540621285 -391.0134449536957 476.4249614780173 -36.91205961169121 289.79864220238295
-407.22403186824204 -879.2308523388837 -80.9652953042206 -371.7478645570103 47.57326323602576 205.64362750937366
-394.9735026790657 -122.69611830678805 84.1290707833181 -552.470661224056 76.81002898095915 59.61761634241558
-819.1928347686617 77.16143159745165 10.74393124916878 -571.1179840221315 108.55007453569982 15.316295770324235
-1249.5294915461573 6.23977103050649 -96.53683933384372 -519.1850397300497 116.00258477417754 1.8766730203392006
-1649.1429311262066 -18.216827809491882 -163.97836086449755 -508.44060338001617 107.97160192983073 -0.6774486263627701
-2055.633263417201 -22.290514185734526 -224.53699129940767 -511.10687343604235 87.28038849681795 3.3749759857369224
-2453.446983057911 -23.179027487478074 -284.64130718924775 -512.3279947709341 60.1379169988518 15.758461338509804
-2874.746373629792 -39.69915743696763 -364.3284807424448 -507.75071525548697 33.522553083819226 38.461977029852
-3262.5168175760086 49.14155333137166 -419.1601784084412 -499.23238698223093 41.86390834978466 86.92461134136562
-3298.5737112601882 -27.160484759421497 -443.0439672814824 -631.1638402578254 129.34795990451886 199.95763867867518
-4063.6805212298054 -2300.8218080528845 -1338.3605548958667 0.7235220581670907 6.934886217717038 542.2544090111529
-3295.412108259477 -26.923488190333106 -440.07813412295803 632.5880085525804 -114.91855468903303 199.86713130736493
-3256.1682155504914 49.60924224731634 -413.35397930137293 500.55619847679486 -25.813970285599865 86.6433871612894
-2865.214564274188 -39.01186404664671 -356.01427167454534 508.7918951877866 -14.996808415958174 37.745476855265416
-2440.862124006547 -22.289253872795356 -274.5263376571021 512.694075399158 -38.72658005590651 14.111737849503854
-2040.185894235409 -21.200263346508823 -213.90421910716782 510.0208177502744 -63.397324722211685 -0.14500884092710287
-1631.1766138576454 -17.310560814806127 -155.17584245819472 504.5062433197506 -83.28075486892648 -7.795542407506068
-1231.1810533427827 6.922502431094097 -93.50081252287194 510.11359528090617 -93.9935130284267 -11.433963638056154
-804.7259062178437 84.14712031405782 5.334688385582256 557.0883148862605 -95.4386622620676 -4.180132174213119
-382.94623355736985 -100.61389741195094 73.8226918984035 543.4743605483259 -77.2925957988657 49.63727017521264
-413.32611761367093 -893.3113778990718 -109.5367725378346 368.38871125642225 -54.75268222271687 240.14739875024412
-435.79708528236097 -389.87709506501324 106.09778681526556 -194.40573901552716 85.25643448313328 133.49039436460555
-744.9846309763903 -126.77450084556047 81.18955779466788 -308.8764346665047 142.1164428869079 40.574136263091454
-1546.5049788135084 33.13534822772427 -48.617427078847214 -329.46557155717585 209.86716409290216 13.985322071187959
-2439.714888133812 3.3978343756144787 -211.44521590080316 -295.38152776142505 217.80409400353628 2.212015567443378
-3283.9272885405394 -18.257476290291326 -343.5348737894662 -285.7341455432791 192.18502636263233 -1.0221628091963084
-4100.6431597975425 -25.62482057501049 -465.33885528661835 -288.0170445082451 143.83147753976522 -0.5750365433618805
-4903.939629858623 -31.648711404726978 -592.862362176848 -290.69279490914374 81.23356080404224 3.6189714278436407
-5652.414588380077 -18.449608227599253 -717.1228563030995 -285.2962623646351 17.460858167760314 14.652629703612218
-6530.9120845857215 -105.9416699928142 -943.244232276528 -294.30015920736344 -39.10774644114621 22.981817823439247
-6639.706573748187 474.8250181101509 -811.3921627914983 -398.63603498522673 81.62499164052153 74.72953490255047
-8234.495380568193 -3546.8057229733336 -2522.4912561419455 0.5017755526886809 9.21159427279913 399.1678462326264
-6636.33723948183 475.09588947234647 -807.5158836670141 399.6306408111054 -62.532839034655694 74.81763581518253
-6524.22717134763 -105.40462476350193 -935.5939347182299 295.24883742669147 60.12661730024387 23.10333613530419
-5642.623289644142 -17.659359105797936 -706.0020647192189 286.0989282142514 6.459736224256462 14.669898329469138
-4891.6073443779505 -30.6233339162973 -578.9774761906405 291.1197083928692 -54.059886264359 3.2471302613405584
-4087.019756367299 -24.450770692746307 -450.14266498788993 287.6016286506798 -114.25915279399393 -1.9091534690502012
-3271.4863520454237 -17.18066904528748 -329.7213681887254 283.55496464800467 -163.10308643208174 -4.461692333422184
-2432.047418532333 4.9651175869481055 -202.88541612094838 290.2537536116687 -194.81445425916306 -5.036700732583838
-1544.9232847946669 38.92055886004339 -48.218855676720096 322.55830125962376 -199.9232464440675 3.3428942419466576
-745.23507000571 -116.27104572877772 73.23882923881612 305.82402763689214 -145.27153765065813 35.368131083033454
-444.4029288419491 -398.72726482226653 83.93741188279769 193.70151890829126 -93.39086092033321 153.23686146743398
-467.8202585586607 -213.78102565533877 224.81149946162896 -74.46083178285139 162.99523727818936 86.51446712047576
-1026.6141176339656 -150.6222265735984 92.79788100088253 -120.87287784125083 244.79658547172238 28.20717205413907
-2334.732598074971 -144.6542935868105 -179.9528105508874 -118.70672510537906 340.67677336195214 15.180732576501693
-3776.0080326570187 -277.666496827635 -475.81579241155293 -107.63700572659704 343.48892127949046 6.288687231340269
-5094.146947362699 -396.0445250138307 -718.8864272063183 -105.23971067541609 295.3268944649212 3.1290240178400657
-6358.294736536367 -498.00350319849287 -947.1239343104905 -107.68928152769563 212.62094538000824 1.0146983639776916
-7609.241693507466 -607.4918543875439 -1189.9776402982436 -109.06107028792916 106.9711948597282 -0.577407632350285
-8786.25621175983 -663.4974188612001 -1423.1809305675238 -114.00572467491394 -9.876052754663348 -0.2905776076724944
-9841.01171315595 -887.3711077448085 -1717.0293290974682 -117.37033146001994 -130.17247729592617 -2.1242183513924875
-10528.489710492919 -42.991558390804 -1701.0832364988435 -284.51444000576697 -194.1967737357843 -46.01014743701454
-13602.479159396595 -5570.868365139126 -4524.265333579008 0.24087564880709067 11.851521211725817 424.43756826141106
-10524.791462102681 -42.47820215636297 -1696.20532032755 284.9968081525841 218.7176677594706 -45.844889834467274
-9833.721307988719 -886.3512160461441 -1707.3540345111528 117.84702220240706 157.05049041606432 -1.8220931728199528
-8775.719298443964 -661.9950150622599 -1408.9873804453073 114.44327727581499 40.307621734869315 0.0767105164273918
-7596.336218019512 -605.5769444841733 -1171.9991562476148 109.3712617818846 -72.55302014115766 -0.292402629305446
-6345.0996244686885 -495.9352467049294 -927.0410898635776 107.68490989687082 -175.30561401511628 0.9162260413502024
-5085.135046348144 -394.42512986319616 -700.0574506188664 104.52503411391805 -259.00960941535783 2.0392314482374267
-3777.706997590265 -276.75971122554483 -463.29381608506526 105.68289602242767 -316.15602801532464 3.2819287340418897
-2348.2806757646536 -142.47444992367116 -177.51671044667526 115.8543941258773 -332.5403595552358 10.600434767705854
-1040.8372784122187 -147.24091620559537 86.01366651376301 119.44276998938025 -255.0827575673779 26.174125748017918
-482.7794870164796 -220.40817201533443 207.96567724106683 73.29384803038805 -179.92476576748027 98.46114144760305
-1174.4733367254082 -6514.819395204212 -2306.7878195788853 -1191.9545757777023 -491.40302496658865 619.2260023121921
2595.6200755787495 1669.708226807534 1074.5302493508643 -529.4894768955506 -511.4923163596495 21.05812559838468
2567.57055481142 74.5095335316225 251.7701321553308 -249.61569031578819 -499.6924782960822 173.70256455716205
3713.8806168752126 345.31036151556884 457.36450639170846 -257.4090710147861 -444.6172264887954 188.47388487653845
5014.295316128301 385.26910900282024 614.1413443858853 -242.60101394159446 -397.3267790945147 258.85604965716595
6371.864559984889 506.442450872052 821.6601881251127 -220.11676862766654 -312.07733879881783 319.20229772687935
7693.83795308614 613.261672838942 1028.1966056511212 -183.86584259073453 -194.64624447886172 381.21077898266026
8941.402249258032 713.036081983963 1238.0449895620488 -134.02791122549462 -47.44255537743001 442.1420633762906
9991.905253735496 792.8553471148854 1430.401682247361 -69.75782288055588 96.0493924839763 504.9539820024606
10677.102604997051 872.5344067552567 1578.937070164526 -12.961382503550439 136.74799204559142 572.4430476004019
10928.372752473757 962.2381656915477 1658.9467753319975 -1.5875421410440538 -3.287176394524403 618.4762047845595
10684.861600314802 872.6261441429002 1579.5114758416566 9.703871691482703 -143.26460741108542 572.6027348994197
10008.958437850155 793.109775297843 1431.7516446225436 66.25313484652503 -102.37527752167465 505.270517092441
8971.015337399924 713.6042340436547 1240.5718365769806 130.10546902881995 41.513412526122714 442.6235654274058
7741.476654183468 614.4777505253335 1032.5841074789457 179.36855988819354 189.41842075068632 381.7921663979711
6445.318714378352 508.4811302588304 828.3701723284368 214.8231584821564 308.22215020973005 320.11608318186626
5125.138372615602 389.4085759838921 624.6774907112915 236.53370888577152 394.86089275959125 258.9435528609062
3874.7247410142118 350.1264790968912 467.11313971837103 248.81933779674173 447.46152729348006 193.29874400795703
2841.876972486054 103.16743994094847 294.7827868930997 239.2148739288151 491.8683110153691 157.68124936212183
3190.2859982317086 1774.71560532689 1138.022230847959 549.3844575818391 657.7056621124866 115.84247056896416
-49.1121077472514 -6213.094915666374 -1417.8888082647113 716.4726108105938 861.4967406005194 240.17127136736173
-1302.194895008293 -5650.82718194094 -1703.742972940906 -765.0659358986086 -406.00489457615635 355.9564555666835
1240.9238609894137 904.924417928431 509.641650524668 -633.9236025971376 -339.9602013633759 106.76719113569
1280.2759588467256 -86.5015176760236 8.359688839525067 -527.4401585072903 -308.45213519145153 187.16241385920205
2316.8941002919078 16.089854870934317 159.10851455019426 -534.2034331471881 -272.7244152170483 242.7076900952104
3134.4072534646843 -19.455916714559645 218.68245079413884 -522.1870625746328 -236.6698677898739 322.00236026900996
3999.613316998115 -18.385265692143367 305.18195704190856 -479.6367180918395 -186.4994849146825 401.0735367002466
4842.514655035007 -18.36510260224169 397.54375751642897 -416.7433439793017 -116.696763681651 480.5985200047299
5635.585670645298 -25.556294975278448 493.4227702177176 -325.0049007172352 -30.541149092499634 562.6750476542386
6307.260649793152 -33.44162270574312 586.197152788612 -191.9793934273203 54.312767940593304 656.1034945226469
6771.199669227488 30.645451955637245 680.7261722857063 -50.52872993699286 80.99900196112077 773.3045886788443
6989.108446092449 204.29985926366888 774.1374233049378 -2.8305314428173673 -0.787418441767016 864.2066156926157
6779.610565160399 31.015431141824227 681.90086238068 44.68740770215236 -82.4170534194265 773.3213456003357
6325.463273935211 -32.67014859699049 588.6839472286657 185.58824033923366 -55.25532878769262 656.1156039353714
5666.451220403022 -24.31855697510693 497.483303618041 317.66429854361 30.397515193122608 562.6370819287434
4890.581188089565 -16.59441728191932 403.45444832237433 408.00803913575515 117.71374374568597 480.41658019468343
4071.4012929614178 -16.08029805300169 313.2297669214076 469.00974852270105 188.91637463942803 400.67541321379764
3237.9711830161878 -17.002577264034286 227.91319732614403 509.14974780311866 241.09820108546097 320.96613413172173
2467.0057204218897 21.478195521513985 172.20416119969846 516.6033943183294 277.23819230039373 242.49638533594705
1490.6306884406279 -82.09636450248749 13.580802701969272 500.27587429869743 321.2136190056208 179.87479502881186
1447.9776815573405 949.4293458560636 530.9454391501016 597.9227129583146 388.7636385527644 153.14145215111571
-1207.1966709681285 -5835.643381549431 -1638.0333923216042 478.75583518146505 480.72748610806445 144.57723028370742
-1037.6991458149841 -3938.208361299485 -1074.891964016019 -898.2350115306804 -247.22675230955372 117.89250376992298
425.8351240632216 276.184614523995 230.631231213417 -1029.6999842420373 -193.48077940727111 165.9300176278382
449.70117797325855 126.70912026213415 21.90534230364705 -898.1396353419015 -152.46913622274678 213.68567716285764
992.9181162100853 -21.03540789560543 29.474977043486486 -913.4439866957858 -123.64669594344356 309.55165120300353
1489.1338380347008 -14.083160917319509 84.1496405589656 -882.4207753134461 -101.12543350349216 408.53100744330624
1931.3929005132854 -17.887607017340073 124.45506764308736 -814.5167116408464 -76.52910105927943 512.5045526446073
2371.7119012086564 -15.096345548330547 173.01947866523338 -713.5465997544541 -43.52521969789849 617.426887977879
2794.9691599590014 -23.542133928096813 224.5778310315583 -566.8105194926152 0.4232800608334957 728.10205078855
3155.687777476461 -36.25704474449291 271.75213323497957 -340.4046628357155 56.28861047195211 858.4258618865636
3400.9594015838775 107.19657294795643 346.1621101002756 -73.46955661653895 86.0385629746428 1036.3605491846306
3626.2981110174765 572.0795452599044 525.8468051974385 -4.523222370881832 1.2102147393391123 1203.8925564733868
3409.6429022872703 107.63093654973446 347.7978178693989 64.12301308740915 -83.37917244819012 1036.2671721725005
3174.283198844048 -35.35918203515289 275.1406627875244 330.1401105337694 -52.92429802219533 858.2111405146071
2825.941123368553 -22.125678505193704 229.90880237054296 554.9510502002898 4.071333656597523 727.6985395503094
2418.804257715547 -13.091572103453922 180.4825897275338 699.3090339172061 49.46365964785269 616.7253644693234
1999.517192448966 -15.481875739679982 133.91060474777342 796.9786290173095 84.03130807746643 511.2608349080657
1584.2806245290537 -11.523998751951876 95.02763540805866 860.4312900976937 109.80856982086534 406.7081314306371
1120.4540128535964 -18.83860810378335 39.28248114683508 884.0668599839549 132.59684176241194 305.92247403510885
577.2940780421607 128.3881333199333 16.039425554316384 855.4498421262714 164.88364344642753 214.48790180691498
545.9779946367172 365.8227156324314 254.53232913470885 972.7928679811125 211.86817079873074 168.477956404018
-1032.7506081743113 -4085.955351361283 -1098.1414453358686 849.0354926288286 271.2840078473382 112.67559187627819
-759.1952480930738 -2379.786988334445 -568.496959844182 -830.641129560355 -111.52641889613707 41.57409497047301
-132.82110714965305 -55.234510481876995 88.73238813993804 -1088.9363551723893 -63.188019138883945 144.10047546451187
-307.44106790369955 161.2665391631279 9.898963470432314 -1093.3056422077746 -9.966915545205485 220.93973322393637
-242.43803072193458 12.237011662398151 -38.42088335096961 -1043.7454913347028 16.567021982594174 325.5044744035948
-146.73320460506125 -10.553266188394531 -25.0613996980707 -1000.8365307120099 24.415278146486084 433.62277147849494
-97.07339961012262 -4.292958022569479 -13.26450039117117 -923.2677702414748 26.555531271636436 543.8502471425423
-50.56812158403122 1.6149922158805925 -0.8735400836037037 -810.5358086071062 28.497353238928397 656.5173011869144
22.689901179500183 0.32505994573244834 18.54116723853653 -652.0495048480194 35.90826951668026 773.8733014827317
89.4303588548842 -34.73205660389577 22.70697905763933 -392.7499539939304 69.51511813960197 908.4748278040192
91.60125278795502 170.81242781321114 63.348542766324535 -24.33120622009379 113.00418737707257 1101.6326367268132
412.82956083483487 1211.6153054650863 430.84431432452203 -5.078540229400517 3.0054322103222813 1350.5482793760693
100.44148522657993 171.324174205146 65.43501685566656 13.82798985108154 -106.67748221293438 1101.5051740399415
108.17159671861981 -33.69025661744139 26.981534583946953 381.1879978672073 -62.26720016889197 908.1880608122625
53.36899341391644 1.9291869663626464 25.151213757378557 638.6498864012328 -27.230682293662344 773.3546444486087
-5.1262483132212395 3.7835492210497765 8.133034020351054 794.3837202268423 -18.10315796331088 655.6247502602655
-33.66268877878048 -1.8267793630061675 -2.173159965872477 903.2167003422769 -14.604639868545362 542.3659488952337
-62.41359761750463 -8.551361363641107 -13.031187240064629 975.3058917069154 -11.855360571167246 431.16639516486293
-144.88091178091304 10.995944662300055 -31.370732209065586 1010.369641490324 -4.878008725686419 322.0993704995154
-221.56407145918024 177.6473467492935 9.48699710857041 1051.191931730626 19.623353535245467 219.0677032948166
-63.783415011398546 8.522328042716815 100.22299110615751 1064.1335194189564 71.29150238443215 148.13687745600734
-773.4739722572774 -2494.0419922316164 -605.2690747025558 822.7092248199993 121.59906447929977 65.16155845435436
-596.1243143446483 -1191.1828075273716 -209.91186399239774 -631.2916894525282 1.637273667632284 32.82687574951038
-560.1133901878856 -158.52882928745842 28.82469048902904 -915.7410304311854 59.19944979302552 111.8098289081439
-1032.582002651712 129.2861641985107 -19.282624658564302 -1006.0027277376754 134.30155548667608 204.25789507442116
-1436.4695919402025 29.871187642965992 -100.76399480544131 -937.5962400524801 159.30762925087953 306.6581046557859
-1775.7225682570606 3.1191868560407334 -129.22518237243193 -883.2479954571945 151.68487512708182 409.48362833550505
-2127.4011726006092 9.510985218002041 -151.63169870901723 -813.9895996005762 130.19641288214697 512.593757643596
-2477.098985476156 12.733133506505437 -177.887846897257 -714.7514860168505 102.46625245194154 618.538857096117
-2758.3708778374817 36.56452064268905 -185.69579535321978 -573.5667160296448 69.50810207245233 724.9342528460671
-2962.046164211662 -24.045676336620666 -217.1490532668278 -364.5679812404077 61.870786591562855 838.4846203608275
-3281.197703059205 61.24238290714807 -293.8139380589756 93.7155249080206 126.46770332530865 995.6833325050125
-2682.8387033605736 2192.602245668888 442.14057213942306 -4.571207046595056 4.840464784493092 1320.3371622140346
-3272.158012174031 61.84361169944461 -291.2612264635631 -103.17447461507467 -116.38565484996997 995.5986075260054
-2943.076416322222 -22.83685420403326 -211.95449610766013 354.1427674108032 -50.62747902709262 838.288734814634
-2727.8725039378537 38.37808083578308 -177.75813835513767 561.4710641136455 -56.49472746710565 724.5644791208665
-2433.2334249195837 15.074480796242213 -167.280764218272 700.1629216435866 -87.41696759981589 617.875416324812
-2068.8425451535704 12.067442454913063 -138.90456999026748 795.8123291077529 -113.53736200132883 511.42730332307497
-1704.2522045158719 4.351158250909908 -116.54283354839262 859.9641246290996 -134.99149561900174 407.5349622790714
-1363.2947931599228 30.057083009981252 -92.87716907133616 907.834829140836 -145.52961839144672 304.0157060931516
-975.3323790541631 145.01355509831436 -16.820092055738034 977.1580668759336 -126.59644260575737 202.48029542877578
-522.2205361771518 -123.07502515203332 32.467259892639746 908.909281267333 -56.05703818162508 116.76701908179712
-607.8622686455224 -1259.7409621871593 -236.95421980668428 635.8046970168807 1.772895049779919 54.88617254593012
-555.1403375106078 -476.68211148569947 3.5816517781304675 -349.52842815407445 101.08326829151655 48.105025409254125
-898.3381636074897 -148.1703300591901 16.887352521675624 -527.6008757844819 184.35951253269818 80.26509654831564
-1744.8758277111156 74.38137243861043 -67.16823828846191 -604.3715205653496 294.0046602383058 160.4876581350327
-2627.71912040821 31.807102539658445 -185.04375895801593 -562.0080325659032 317.5534784109643 242.16317215643502
-3428.5417124401556 10.785593939793692 -265.17709389018574 -523.1690112403736 291.44839228079496 321.73365270173025
-4198.88172894277 11.591020857688736 -333.6821726479087 -479.642304882343 242.65407432941956 400.995260596339
-4942.276029925443 18.199250344873317 -400.5917819587136 -417.9981815725796 178.98515083664984 481.15647459509546
-5657.153443658507 10.736631381643349 -478.5633578645296 -334.9162685017996 105.98627902802447 562.5226967357656
-6064.522780973419 118.07287574767423 -466.37973865587907 -194.33102906969089 1.1038678778923234 630.4367360886152
-6846.3763440941075 -413.0774289524143 -858.8390232911214 98.78291143838499 49.380969998027034 720.3712821504919
-5667.030823110899 3500.4117393804327 476.7334466305165 -2.8921578482405863 6.961316169342442 957.3622025921273
-6836.923696485881 -412.38604453961824 -855.7777133502408 -104.76592399699494 -34.948695512957364 720.3980411529876
-6044.8926984288955 119.45425445142327 -460.1843634242372 187.7440253176175 14.79910803785596 630.476283771418
-5626.177361776279 12.776137594357404 -469.1910259190171 327.29496193496806 -87.85988991443915 562.5399131032929
-4899.058261195888 20.77137674644503 -388.27052787921764 408.851253368939 -158.3512596487673 481.0777968768614
-4144.429955103161 14.184389752895207 -319.455806211109 468.3392297390536 -220.1694247976728 400.68514475159907
-3368.9034550244914 12.318517480494101 -251.79194702569134 508.80029997121113 -269.4876824844979 321.0238867451043
-2575.9276798260357 33.5623216800016 -176.53896568095803 544.6066789217479 -300.8834319742251 241.07378870698113
-1712.7860389265547 85.34550719559859 -64.51088101002418 590.3395940761114 -287.64996947470325 160.02164919091376
-884.2831415626225 -131.82769653405828 15.903558093217333 527.4653111361675 -185.59175997307509 83.78212803434725
-564.3150496268663 -506.3815287601351 -11.557594090144889 354.13617735534547 -103.51531816902528 62.40737857472222
-484.9133663876232 -205.83951578845216 150.22262537614364 -172.3406712380874 202.36692704093164 58.05910743494959
-1088.8029846535499 -133.38964564982757 46.98596759229342 -247.1383459624061 327.3768238292083 67.13037853991781
-2493.562555219154 -105.10080807865879 -196.80794143129418 -277.8543465451354 485.76840436564964 133.27896992393295
-4005.726807251822 -272.40271585819664 -470.0381295379767 -267.1560237913386 507.16247906533147 198.3557325583805
-5326.571960607276 -404.58123285757534 -672.6932154212035 -248.42234484929645 457.1480761428718 260.06162091118506
-6575.180284885139 -513.2135424666226 -852.687476952914 -222.8767293529329 373.2119199708813 321.1184132272783
-7787.12394007381 -607.1025533661593 -1027.7871174247707 -189.3815167566571 263.48181115404407 383.0467364443816
-8962.456178904053 -746.7888912890285 -1227.9690419333124 -138.81764451986754 133.19057545350293 439.6838989715126
-10010.10413295203 -696.2493064919398 -1371.9662624845957 -67.93150369271638 -53.93737097806096 506.75142783722737
-10937.325541574704 -1653.3453021642927 -1928.5929531266793 188.7940445981543 -391.6469614224665 455.0978169994322
-8846.492594075631 3496.9522083099 -210.80860876274846 -1.8687911203904264 9.679657667403859 938.5420590639342
-10926.899560736594 -1652.2664159899723 -1924.8044287616708 -192.65469671037513 411.6672033519119 455.1524298067315
-9988.706094619856 -694.1367752688064 -1364.3658747740105 63.70457520344462 75.86456962379884 506.84508255323556
-8929.36655534244 -743.7840775636271 -1216.6484119659717 133.98910820654825 -108.38219357274278 439.78118790741354
-7742.4435402223135 -603.5939964302074 -1013.3067582641163 183.73973825910406 -235.4247646870214 383.0834970421039
-6522.364198453237 -510.31910540902754 -836.9387073565832 216.26563231850957 -342.76859886072083 320.9995271733837
-5277.025352310333 -404.4985773058589 -660.2113679920656 240.77068110599077 -427.60047124209484 259.72256865776086
-3979.1690186281653 -276.0149835627892 -467.22966933064805 259.0204398132085 -485.58040134083524 197.93253372536478
-2498.8696921492665 -106.43119665421766 -204.65500103083352 272.0016518318315 -480.49398247501665 133.55177360432845
-1106.2580304732905 -132.1537112055564 36.43300092765208 247.49001032795155 -335.22606121506465 69.54677086612942
-506.3035821658309 -223.90990936801086 137.4845840064197 173.73804844065165 -213.41827805010018 67.60085124916144
SCALARS Strain float 6
LOOKUP_TABLE default
0.006859846964010786 -0.025493317506681504 -1.6296913905172739e-18 -0.01444232340371051 0.005954087137416795 -0.007502854862988311
0.008259488307822712 0.002650080602705266 -0.0009556578238292293 -0.006415561817134989 0.006197499134125962 -0.0002551508810265422
0.011509219363570888 -0.0035943736196826994 -0.0025204841678259466 -0.003024469723439242 0.006054526338963713 -0.002104667966673322
0.01618521859339035 -0.004222430332250089 -0.0035435780370829365 -0.0031188982585106176 0.005387206783094699 -0.0022836447410263462
0.021970355790793997 -0.006073453464006085 -0.00468688768847808 -0.0029394763631052064 0.0048142118476839834 -0.0031364305822524376
0.027837361250252594 -0.007696846478722012 -0.005787177856924344 -0.0026670458956081643 0.0037812865905074216 -0.003867616189933141
0.033559924518237215 -0.009335993917433739 -0.006822213353596875 -0.002227811374306482 0.002358432166112709 -0.004618942254076677
0.03894094568292653 -0.010908573621724833 -0.007727937133090484 -0.0016239498369840467 0.000574837952532566 -0.005357216457213945
0.04345597582101764 -0.012274190603559214 -0.008411773971289895 -0.0008452209995615213 -0.0011637829302777042 -0.00611827737416126
0.04633007143418529 -0.013068477650299955 -0.008788912000130501 -0.0001570466540201469 -0.0016569077094369363 -0.006936008965098289
0.0472637698026998 -0.013113589247309992 -0.008892752621904379 -1.9235462062186515e-05 3.9829088743316814e-05 -0.007493769937574336
0.04636529855215103 -0.013079700716275223 -0.008797210939784804 0.00011757700844838742 0.0017358663111643876 -0.006937943817030614
0.04353320393882327 -0.012298733589653178 -0.0084296799347013 0.0008027564299731471 0.0012404305470648214 -0.006122112673121492
0.03907462143478336 -0.010950859424368586 -0.007758356667289769 0.0015764235470623427 -0.0005029974643866914 -0.0053630505791607335
0.03377409598501465 -0.009403062421617042 -0.006870068569788842 0.0021733200265998173 -0.0022950892145245914 -0.004625986637522595
0.028167440731369273 -0.00779941997245341 -0.0058614514068978975 0.0026029058425761304 -0.0037345751792361346 -0.0038786880758387744
0.022466388594697805 -0.0062238579402697685 -0.004798539466574854 0.0028659618319340904 -0.004784333923923983 -0.0031374908152502
0.016914421073591892 -0.004438484901538637 -0.0037297501808894423 0.0030148207142787166 -0.005421669767606293 -0.0023421051701155095
0.0126873409138955 -0.0039044527590289127 -0.0027435986182625543 0.0028984481811986517 -0.005959724778148173 -0.0019105456233416988
0.010795175055765787 0.002219292287088851 -0.0016379568942284793 0.006656619447221591 -0.007969093847756103 -0.0014036058569930016
0.010439687810965312 -0.026903275996314056 0.002147293042768605 0.008681143866928948 -0.010438329439537262 -0.0029100363754121176
0.0042136364339563324 -0.022131475673253118 0.001780956816205919 -0.009269925126292825 0.004919360276017477 -0.004312948121826898
0.003805300382678146 0.0017697309412401838 -0.0006249918438039698 -0.007680938408170325 0.0041191294301036315 -0.001293645189677109
0.00607558139414453 -0.002204701570398515 -0.0016300084357772204 -0.006390731240945242 0.0037373617933855316 -0.0022677542960814496
0.010552238863511676 -0.0033866140407571494 -0.0025201708986298064 -0.006472678490953795 0.003304466700885908 -0.002940768905233094
0.014328416123827226 -0.004778483081902385 -0.003335780738936944 -0.006327082078583514 0.0028676116019665638 -0.0039015431613163214
0.01823801620003593 -0.006104033465953286 -0.004143781553473585 -0.005811520623103556 0.0022597219143126067 -0.004859609454384362
0.022036944738917253 -0.007411491851030998 -0.004891810989731165 -0.005049472750358765 0.001413956903640605 -0.005823174300633343
0.02560881892693957 -0.008687808126921897 -0.005543701945550219 -0.003937923457234707 0.0003700519812388386 -0.006817654946338217
0.028620274908432313 -0.009793300023989156 -0.006039371908365581 -0.002326119252402508 -0.000658080916403221 -0.007949681176352261
0.030560566284828283 -0.010275412662507073 -0.006337059560711148 -0.0006122316015605015 -0.0009814248004564373 -0.00936974880262684
0.03120269014983435 -0.009901392939279444 -0.0064491731338356985 -3.4296147966795566e-05 9.540759371767592e-06 -0.010471163654210266
0.030597603155420695 -0.010287089695306144 -0.0063438614516960895 0.0005414551923372087 0.0009986066278392313 -0.009369951837951508
0.028700547422188274 -0.009818629817220108 -0.0060543098580454055 0.002248680814969992 0.000669501459490568 -0.007949827900107958
0.02574525109006778 -0.00873086872628279 -0.005569661337832466 0.0038489810153535925 -0.0003683116403932914 -0.006817194934442048
0.022250205104987788 -0.007478703416879779 -0.0049339413572966374 0.004943631386796803 -0.001426279147515655 -0.005820969826051877
0.01855808832141482 -0.0062049069484444025 -0.004209863448006008 0.005682758894714635 -0.0022890061703852186 -0.004854785589232556
0.014794709112235162 -0.004924743571424704 -0.003440981985553399 0.006169115390854406 -0.0029212675238344575 -0.003888987722297149
0.01122594647025084 -0.0035896765932258356 -0.0026765406458277253 0.0062594275350477116 -0.0033591579028304586 -0.0029382086300913266
0.007042417197590655 -0.002485560288217602 -0.0019059238577704928 0.0060615950594763105 -0.0038919863739806213 -0.002179453827147071
0.004678206971917722 0.0016578753070803994 -0.0008774058364613771 0.007244733454110103 -0.004710456513741634 -0.001855539148398113
0.004822864595859502 -0.023217433922672774 0.002212746982997892 0.005800847401045381 -0.005824736919072216 -0.0017517707125718717
0.002172726765568664 -0.015399290229189021 0.0019474032844347283 -0.01088346887758555 0.002995524144482352 -0.0014284450942180721
0.001275916288965491 0.0003692957263214406 9.332183132244671e-05 -0.012476364857619065 0.0023443108029119436 -0.0020104918640709
0.001887923134142148 -6.884428344086744e-05 -0.0007037720256290711 -0.010882313251524054 0.0018473930291832018 -0.0025891235446538776
0.0046153922118664665 -0.0015273941865811078 -0.0012213895244279813 -0.011067748499002397 0.001498165791626937 -0.003750684084484316
0.006841695817351307 -0.0022651722151206073 -0.0016700531071493247 -0.010691855607695958 0.0012252868059487994 -0.004949967934848163
0.008851678426362305 -0.0029575549396353004 -0.0020952070853845306 -0.00986909569057998 0.0009272652244877168 -0.006209763899999953
0.010831852246704136 -0.003628034607425366 -0.002488381458793547 -0.008645690839756446 0.0005273735357591309 -0.007481055885396019
0.012744039382496575 -0.004331213504747906 -0.0028280401247878094 -0.006867762410944188 -5.128674910637552e-06 -0.008822052032862777
0.014376881946075726 -0.004960725520579107 -0.0030947281704897774 -0.004124514749696109 -0.0006820212220302107 -0.010401121122667525
0.015215309343691278 -0.00473913730744445 -0.0032914237619848796 -0.0008901942393769703 -0.0010424866659443247 -0.012557067625065112
0.015364288338067236 -0.0031389387010439494 -0.0034190283107729466 -5.4805645813091143e-05 -1.4663572766071288e-05 -0.014586970004648465
0.015252882062721946 -0.004751539943283448 -0.0032965483516033266 0.0007769467993293533 0.0010102641477174594 -0.012555936222046987
0.014457547594333755 -0.004987276150007036 -0.0031061897114770384 0.004000144251881406 0.0006412575139036471 -0.010398519450121758
0.012878941450295915 -0.004375366164952899 -0.0028484776594394933 0.006724067093666231 -4.933033400864567e-05 -0.008817162886976277
0.011038075118116737 -0.003694963695560281 -0.0025222425597938762 0.008473181304144983 -0.000599326672236502 -0.007472555872411731
0.009152568110668237 -0.0030548048849723597 -0.002149747527447816 0.00965659542730607 -0.001018165752238391 -0.006194694388009893
0.007266312389280879 -0.0024014748430259913 -0.0017559581467587132 0.010425419903319823 -0.0013304960692875093 -0.0049278810487943464
0.005192951538368507 -0.0017091707478169185 -0.001357058517801893 0.010711800400594083 -0.0016066102768904256 -0.0037067111417101108
0.002488384359054916 -0.00023120117014043277 -0.0009118380016520163 0.010365062164812632 -0.001997813466229395 -0.002598843703448639
0.0016770709803839892 0.0005856448240797172 -8.858043003916153e-05 0.011786849507209676 -0.0025671017199755783 -0.002041363976628869
0.002434850939819053 -0.016062234106325284 0.002038696741868009 0.010287342667987733 -0.0032870139980025618 -0.0013652343559481972
0.0005838754315802405 -0.009234078412198336 0.0017391737992256174 -0.010064467278555273 0.0013513103959416637 -0.0005037327235224155
-0.0006658041341247726 -0.00019576494654556832 0.0006764228664686313 -0.013194102633543994 0.000765617940633025 -0.0017459941104806494
-0.0016720344172186502 0.0011675145809347054 0.00025049159810358357 -0.013247043121122992 0.00012076418058632162 -0.002677017350132186
-0.0010932017206233366 0.0004496839730544216 0.0001427856576338771 -0.01264654731249185 -0.00020073440227382747 -0.00394397654423486
-0.0006340138478019487 0.0001909985946559737 0.00010310465960511091 -0.012126640682817403 -0.00029582783618148665 -0.005253992415584614
-0.00042783454176716833 0.00013425279368131676 7.990092535342575e-05 -0.01118677842003489 -0.000321760223563265 -0.006589564159548465
-0.00023669385891405376 7.944461693297963e-05 6.436846008699196e-05 -0.009820861059645976 -0.0003452883188580486 -0.007954695066803193
7.936326069030896e-05 -5.6128592993760787e-05 5.422918322872294e-05 -0.007900560990782872 -0.0004350827219103362 -0.009376639614086668
0.00043357459627883343 -0.0003186326585345526 2.9347518675467636e-05 -0.004758756724118773 -0.0008422802663922289 -0.011007539661168414
9.950894731788738e-05 0.0005793902406920451 -7.165310173628567e-05 -0.00029480917826237366 -0.0013692157849210186 -0.013347937190617375
-0.00037238831117053907 0.004466857365096629 -0.00026325038710654455 -6.153415733994246e-05 -3.641533397037422e-05 -0.016363924783119647
0.00013707368344615222 0.000566498906008862 -7.500433851899699e-05 0.00016754690613112968 0.0012925582310777364 -0.013346392788361233
0.0005134798291010734 -0.0003459550881901949 2.160993811729938e-05 0.0046186662265630795 0.0007544608331151266 -0.011004065047513228
0.00021084989451059766 -0.00010078543777399786 3.98994624184129e-05 0.00773820444880193 0.00032994069420240224 -0.009370355303612259
-4.054939006810968e-05 1.3428412459706303e-05 3.9778689313636774e-05 0.00962515420233958 0.00021934700134118167 -0.007943880469174972
-0.00015128251796679465 4.158745752044146e-05 3.9488996397933676e-05 0.01094382953423601 0.00017695718986313733 -0.006571579652634057
-0.0002606858238611217 6.562519966438887e-05 3.848528367126476e-05 0.011817298571362524 0.00014364553391171158 -0.005224229720062412
-0.0006466880412468749 0.00029765330264432073 4.0985279657245476e-05 0.01224214866583658 5.910441640554942e-05 -0.003902718586248045
-0.0012941563088945064 0.0011243672344288622 0.0001056093880618198 0.012736772143713028 -0.0002377664583695205 -0.002654334890408171
-0.0004492753899310294 -1.1228946575548286e-05 0.0005443168180055734 0.012893578953761245 -0.0008638038347185295 -0.0017949011948121712
0.0007284785141277481 -0.009695156869040308 0.0017475062430050892 0.00996836031628362 -0.0014733556550527856 -0.0007895303393405128
-0.0008192430891909637 -0.004424257649824936 0.0015205294255637239 -0.007649048819769851 -1.9838034343244224e-05 -0.0003977469993703048
-0.0024289032165364143 3.997424258698095e-06 0.00113903234018639 -0.011095580640558494 -0.0007172904207934803 -0.0013547443347306427
-0.0049658239899683316 0.002073066651918655 0.0011729994262256586 -0.01218923693414273 -0.001627265449003713 -0.0024748917772123755
-0.006595114950487869 0.0022883476365075975 0.0014969267253618457 -0.011360389394040254 -0.0019302516631568938 -0.0037156244136981533
-0.008098908440869025 0.0026777639396301438 0.001875988343524422 -0.010701878624584672 -0.0018378905258136413 -0.004961510370512799
-0.00971540951559556 0.0032305437511996405 0.002254300695172892 -0.009862708934984966 -0.0015775254687127418 -0.006210844752799321
-0.011312866352438375 0.00377116512568551 0.0026163351084765463 -0.008660289850007203 -0.0012415328452458092 -0.007494529064617029
-0.012646049687420552 0.004286374474247507 0.002939865375404167 -0.0069496238990827885 -0.0008421952561798003 -0.008783669393715525
-0.01346650599766112 0.004332642589074847 0.003162773587096479 -0.00441728971444732 -0.0007496576860826869 -0.010159502972921555
-0.01496586984007268 0.005283475923468421 0.003132455105178062 0.0011355046125001876 -0.0015323465412635197 -0.01206420193170509
-0.01618607323668876 0.013350578726437362 0.0027458400440177138 -5.53870523701683e-05 -5.8649515064016205e-05 -0.015997871635372838
-0.01492815251765318 0.005270070912434654 0.0031308726695697363 -0.0012501140225514287 0.0014101873519594041 -0.012063175361084958
-0.013387055586308533 0.0043044928288595895 0.0031587704157709237 0.004290972560451843 0.0006134280953931494 -0.010157129524750117
-0.012517554112693384 0.004241090206687136 0.0029316824321996776 0.0068030668739034895 0.0006845186396007621 -0.00877918902856464
-0.01112654698202961 0.0037059203302681138 0.002601166224555816 0.008483527438928284 0.0010591881122737998 -0.00748649048129917
-0.009463882284556828 0.0031427956986246897 0.0022281691378025566 0.009642463948792411 0.0013756759978392826 -0.006196711403371616
-0.007785295698308014 0.0025658547712852074 0.0018334484520306832 0.010419759490651628 0.0016356251119695377 -0.004937899348785012
-0.006265392313832775 0.002175885071900027 0.0014311183408486279 0.010999785114261173 0.0017633103276988196 -0.0036836077786821632
-0.00472446020024045 0.0020628782746348055 0.0010824491889613824 0.01183974046081421 0.0015339064113805945 -0.0024533534824773794
-0.0023069741666800754 0.00011115009429338891 0.0010534645201944345 0.011012803718677135 0.0006792153752516774 -0.00141480815353956
-0.0007402891528432013 -0.0046895348302322185 0.001506765434300182 0.007703730697850042 -2.1481291475189233e-05 -0.0006650285760987228
-0.0019256397651153194 -0.0014503200268684699 0.0014592390826095349 -0.004235062896464564 -0.0012247759109486399 -0.0005828647738889026
-0.004002889026854196 0.00054181707153427 0.0015417781776534464 -0.006392678572608831 -0.002233792928551266 -0.0009725324319628955
-0.008141544549697139 0.0028799747987799306 0.0020224315260264102 -0.007322870462770642 -0.00356230889298295 -0.0019445494888577783
-0.012031447565743722 0.004080633629588923 0.0027668963715837434 -0.006809573054781419 -0.0038476382626918943 -0.002934171250984593
-0.01562201598037511 0.005214297021384735 0.0035424453980271867 -0.006338979864360375 -0.0035313358598756768 -0.003898287364775308
-0.019117301980925563 0.006390804775161714 0.004299052612556382 -0.005811588315482194 -0.00294011926955267 -0.004858661021590306
-0.022497358930220302 0.007554452476477887 0.005017310688539967 -0.005064676996151365 -0.0021686744489773763 -0.0058299347601406095
-0.02570938450819108 0.008628124295942388 0.005663821448476093 -0.004058014593115999 -0.001284183264341712 -0.0068158089856919825
-0.02777490045251699 0.00968082469112837 0.0061400632213361615 -0.002354612857077005 -1.3375020503186778e-05 -0.007638689773193162
-0.03012722986449186 0.008847318902972126 0.006146782642123907 0.0011969036259891572 -0.0005983247626917842 -0.008728382137119628
-0.031969744678443025 0.023568936476909927 0.005250730120765516 -3.504284460336521e-05 -8.434682116346392e-05 -0.011599883775096943
-0.030088425176478976 0.008833045646966334 0.006146866993196865 -0.001269396826698692 0.000423456038821714 -0.008728706362704933
-0.02769401319955094 0.009651156689742112 0.006139559626109404 0.0022748013941235883 -0.0001793134643915886 -0.0076391689528853505
-0.025580984366353293 0.008581219357981557 0.005661340619819489 0.003965670995082494 0.0010645547826456997 -0.006816017587886155
-0.022316777549630254 0.007488792295777534 0.005010713184262725 0.00495384819615137 0.0019186638062249593 -0.005828981461189309
-0.018887061111465184 0.006306874336987569 0.0042855978099960255 0.005674634550621619 0.002667683904343592 -0.004854903501456921
-0.0153649464520282 0.00511934976977234 0.0035193019071294413 0.00616488130450537 0.003265248813019802 -0.0038896874821215174
-0.011804433491086529 0.004004515644266516 0.0027316690101592323 0.006598729468884086 0.0036456555641214113 -0.0029209717311296543
-0.008011043542297138 0.002882491261408586 0.0019746234338318437 0.007152852557365346 0.0034853122515077256 -0.0019389030892282004
-0.003958862446749345 0.0005997025794517222 0.0014946958113671407 0.006391036002904412 0.0022487234606525016 -0.0010151465610406844
-0.0019057086420458925 -0.001554732748641673 0.0014430355546076348 0.004290892712040691 0.0012542438551016335 -0.000756159305454224
-0.002182034792682723 -0.0004913349599304093 0.0016657793710063687 -0.0020881665796559376 -0.0024519798538515446 -0.0007034734570736924
-0.0049532359513878264 0.0008348992285921945 0.001927660225318326 -0.00299445296855449 -0.003966662875131096 -0.0008133855574536493
-0.011198399675486363 0.00327150450135938 0.0027159195381324876 -0.0033666235387190646 -0.005885815229592783 -0.0016148752860672192
-0.017629489181972775 0.0049879305561695035 0.003790605331546923 -0.003236997259143657 -0.006145036639554031 -0.0024033781964355834
-0.023316767189700854 0.006501895083263664 0.004877605014143524 -0.0030100105473057403 -0.005539036883767529 -0.003151037892205396
-0.028732007669404935 0.007992917061372822 0.0059362982738011974 -0.002700486973139385 -0.004522024040048187 -0.003890832812699191
-0.03400383862759836 0.009494543365673189 0.006945930084385123 -0.0022946420671124605 -0.0031924786438928647 -0.004641187641576272
-0.03900595945137589 0.010766626834779094 0.007851516019221407 -0.001681984663700645 -0.0016138042540419354 -0.005327432096274435
-0.04375754312510791 0.012668140483777061 0.008574476595020471 -0.0008230923942528172 0.0006535324172828694 -0.0061400561353529655
-0.04596230243878077 0.010282393380566229 0.008614873631043383 0.002287523957860562 0.004745392309282996 -0.005514194908883418
-0.045820593431940754 0.02895911100197742 0.006496560032455171 -2.264321668417617e-05 -0.00011728361911761076 -0.011371849414673991
-0.04592052026707506 0.010267548493310928 0.008616444415947284 -0.0023343015679212096 -0.004987967667820288 -0.005514856625226904
-0.04367140333797869 0.01263744380061168 0.00857702673176832 0.0007718767946890006 -0.000919213426143984 -0.00614119090316503
-0.038871783185176145 0.010718541728749647 0.007853810227138328 0.0016234796800132642 0.001313213374533852 -0.005328610898135547
-0.033820768841092114 0.009428183734916296 0.006946040401083291 0.002226283430552684 0.0028525253041635414 -0.004641633051541674
-0.028511938740015036 0.007910548037275965 0.005931804041025829 0.002620383583817803 0.004153157392021186 -0.003889392329245001
-0.023103436281442697 0.00641556087977539 0.0048663882449408655 0.002917299126412763 0.005181023185539292 -0.0031469297639344913
-0.017504600960460324 0.004930040960742419 0.0037716141265751383 0.003138422416381985 0.005883537290040853 -0.002398250505722081
-0.01121030135695834 0.0032836949652798584 0.0026886303640119356 0.003295709334824221 0.005821907671172336 -0.0016181807131877236
-0.00502155410046362 0.0008798157560780587 0.0019011566140499437 0.002998713911554402 0.0040617681980376664 -0.0008426637868062898
-0.0022386453649299387 -0.0005278332112803703 0.0016615858553795217 0.002105097907323812 0.0025858836020131674 -0.0008190860423235402
0.006416723447582078 -0.016405496341447327 1.3772755722354924e-18 -0.007428656412389484 0.003963133337772558 0.0014019292180412824
0.00813430213311785 0.000821133556390664 -0.001018013209594098 -0.003320910229153506 0.0042762824214037844 -0.0004394086117673202
0.011898927120429515 -0.003642959484227366 -0.0023056925175679904 -0.0011867702076103917 0.004011027961834566 0.00010978440027154408
0.01659792595950618 -0.004559632224069512 -0.0032801002166338742 -0.0012899815017608743 0.003564165571093957 -7.508945817599538e-05
0.021999183699597833 -0.0062665036164390574 -0.004230503590192976 -0.00128114908727612 0.002720301353395855 -7.706017150705908e-06
0.027452917109868906 -0.007860020220225122 -0.005093654104655371 -0.001313885691164754 0.0016270893535138924 5.2421129727584725e-06
0.03278986637222761 -0.009475644873230465 -0.005838242497386172 -0.0013442942855044656 0.0002529845972080948 2.4599390868404886e-05
0.03798479687395845 -0.011078552450526958 -0.006409668377499671 -0.0014158558523341446 -0.0012647640470011352 1.949319709878676e-06
0.043026616761605976 -0.012720971605191367 -0.006743139870707277 -0.0014876775449934416 -0.002445697846251664 -0.00015963688156428528
0.047410936663600765 -0.014402849153748756 -0.0068177044354081106 -0.0011978688365419069 -0.002234702267523175 -0.0006132122621263074
0.049318710270286004 -0.015450811371436743 -0.0067788592758053715 4.03224562026621e-06 2.1156430666107545e-05 -0.0010882434796367299
0.047422792772879946 -0.014405769547929943 -0.00682378513177115 0.0012058704292711249 0.002274635475160852 -0.0006160036907471288
0.04305207955453647 -0.012727008084936556 -0.006756559428542386 0.0014953836325891196 0.0024781368693123904 -0.0001651210438217607
0.038028043735082784 -0.011088204347791475 -0.006433246495154907 0.0014226538637044574 0.0012833698133250867 -5.69568149992807e-06
0.03285924804928077 -0.009489995655496597 -0.005876959193127173 0.0013490496137465143 -0.0002579907580117874 1.5504290103606464e-05
0.02756382785334053 -0.007881442259652682 -0.00515613447996573 0.0013141463075668973 -0.0016705582982807078 -4.804318734953317e-07
0.02218074575264037 -0.006299692174901035 -0.004329635649795636 0.0012760993837211516 -0.002835452326349149 -1.5747717451476938e-05
0.016895291592602737 -0.004612759329576729 -0.003442344048246456 0.001265259873216169 -0.0037625598850159667 -2.91231445785522e-05
0.012446720891159823 -0.003747526250964083 -0.0025354058954371803 0.001140897678317217 -0.004529200863735761 -2.1678506099247137e-05
0.009362381285063517 0.0005964468145184289 -0.001438289609676945 0.0032930639278189134 -0.003826825876690944 0.0005183500074264439
0.008145511566932552 -0.01668833607811435 0.000614229281161387 0.004389429703329599 -0.003232954310020383 -0.002582766674265756
0.0038411467360632643 -0.014442934943635003 0.0007651444836427069 -0.004767169299493803 0.0006674468060052731 -0.00013136871721323605
0.0042659727326469325 0.0004657414421524942 -0.0005376831590272658 -0.004141544275343546 0.0014379938154686293 -0.00039934405052406913
0.00702885970857873 -0.002497319081825115 -0.0014625359003149264 -0.0032607423577658396 0.002446389057645613 2.6219150260492858e-05
0.01109103009224028 -0.003667439030354453 -0.002231407772341943 -0.003385746578391602 0.002051482788523203 -3.5313348634332956e-05
0.014648874318535867 -0.00496684973886883 -0.0029037677654606877 -0.0034867324697853007 0.00152872014365516 5.550993404420843e-06
0.01828456283204869 -0.006247502101138902 -0.0035132551261213537 -0.003505924675498353 0.0008330903596088578 6.804896066295778e-06
0.02183525656478083 -0.007525122417909116 -0.004030682405754833 -0.0035360976024199305 1.6394557743301413e-06 -3.3459539905733076e-05
0.025258693173332004 -0.00877571002366829 -0.004425668044805854 -0.003630483125036163 -0.0008914993266347221 -0.00019211750877659998
0.028505856012666492 -0.010052243663940677 -0.00466093811201335 -0.003763989639769695 -0.0015830409409376338 -0.0006521987216074726
0.03126051614743123 -0.011561400678178995 -0.004725901942044824 -0.003088360027078892 -0.001458958421188951 -0.0016560316200084145
0.03244552522552359 -0.01289487694691838 -0.00470715508103261 5.837023748428339e-06 -8.15092060880601e-06 -0.0026557906574753948
0.03127214179736937 -0.011564986859388393 -0.004728326900335351 0.0030998547064680056 0.0014389470396224727 -0.0016566325323801427
0.02853067402357514 -0.010059586180210049 -0.004666984226584388 0.003774714515942945 0.0015517678928237716 -0.0006527354030951397
0.02530035057848535 -0.008787213161503812 -0.0044380322157693275 0.0036390796901662912 0.0008407942414858748 -0.0001908768985093817
0.021900708649620383 -0.0075416171765730206 -0.004054305126775735 0.0035398026327457897 -8.113885804909183e-05 -2.7008943260296737e-05
0.018386901836880163 -0.006270901035103424 -0.0035563015001865627 0.0034998375894204395 -0.0009548307720383832 2.555968487597408e-05
0.01481077059797656 -0.005001065196114713 -0.002980519098560189 0.0034642500477919044 -0.0017074408837616463 4.472879636566734e-05
0.011360845708846571 -0.00371873201289918 -0.0023597975827552835 0.003329243173809188 -0.0023291073696837293 5.341036909313657e-05
0.007498238505705504 -0.00259918521785573 -0.0016821481320579994 0.0031163822880714656 -0.0027959155329422463 0.00010599276070048204
0.004736153543435729 0.00040739599130181923 -0.0007818940644620153 0.003797171060553249 -0.0015307149097941643 0.00029073665728062293
0.004183662935443063 -0.014575307535384462 0.0007808614447037428 0.0028296992432542494 -0.00045776750168646113 -0.0027245396212430884
0.002129552902121616 -0.010431989438192242 0.0010835965919174181 -0.006291861927686567 -0.00010583361586545689 -0.002627648280549705
0.001882350026055416 -0.00013758027918035155 5.812778377834775e-05 -0.007192457271207348 0.00032870841652660047 -0.00039490936347766044
0.002963085008821383 -0.0006460423475379649 -0.0006104394588103831 -0.0059479621564625966 0.000987177773104745 -0.00012041134140528053
0.005348707862161542 -0.0017958887871565607 -0.001076880313660532 -0.006116798195167055 0.0008384514432379753 1.6704868726527271e-06
0.007309283892995144 -0.002448107302227506 -0.0014488511686307445 -0.006183090854755669 0.0005313970050335624 -1.3051200465932988e-06
0.009114844712995441 -0.003083388721236787 -0.0017666070404659612 -0.006207270417774748 0.00017929943738356682 -3.9913960613628026e-05
0.010874376070789043 -0.003709211203743644 -0.0020282541196142544 -0.006222138352826687 -0.00022764650547725724 -0.00017565559079865477
0.01250655842576019 -0.004264964554501416 -0.002220267152216757 -0.006289742349855907 -0.000689784693427128 -0.0005154556775474159
0.01407540483218848 -0.004811990784687844 -0.0023288524196322146 -0.006508319125745698 -0.0011961198171708649 -0.0013135889106761127
0.01577099707925652 -0.0061297752800088786 -0.0023409392548796224 -0.005629237569194036 -0.0013293214459156532 -0.002973223843098023
0.016675798443988504 -0.008476765070000699 -0.0022985434960879833 8.561836122995986e-06 -3.414663063418579e-05 -0.004892671169386756
0.015782223435640376 -0.006134660697833856 -0.0023395999788719396 0.0056460310049212354 0.0012562649091753533 -0.0029718328065430647
0.014099069733371815 -0.004821860087410879 -0.002327212734126149 0.006523734165897012 0.0011088833830405454 -0.0013095906085974793
0.012545368304101316 -0.0042799870868905085 -0.0022207250717175466 0.00630145385654504 0.0005793520546808862 -0.0005058923774650205
0.01093341778596047 -0.003729646421628258 -0.002035229459513998 0.006225357473394397 8.564622387036649e-05 -0.0001544117675580384
0.009203516432781195 -0.0031101518812810176 -0.0017877948974154034 0.006193539568097459 -0.0003602049795245638 3.609969660794183e-06
0.0074454776695806035 -0.0024830384665828153 -0.0014966970256195856 0.006138914966745555 -0.0007587862585459368 8.48912843599898e-05
0.005569340773463842 -0.001845291219648147 -0.0011714492483617936 0.006016237286455324 -0.0011207535007923125 0.00014488735956815133
0.003244684084258529 -0.0007046846849517632 -0.0007738610795153552 0.005712716337577213 -0.0012728356614642997 0.00016742229251555125
0.002089937919357955 -2.8183338779161514e-06 -0.0001325361029370789 0.006717052509011682 -0.00038704757983536777 -0.00012484370499540163
0.002256941997118014 -0.010429784217209553 0.0009762384695442295 0.005746794944097709 0.0002365236501426402 -0.003682224523490858
0.000721839578841133 -0.006578968246445028 0.0012594910162218665 -0.005949078412506629 -0.0003416929341714793 -0.0028809517536544545
-3.399061628978385e-05 -0.000365394108836147 0.0006100465153297018 -0.007901908056653643 -0.0003263062831966117 -0.0007083711152306662
-0.000606674532551991 0.0005559315032031709 0.00024785536893173835 -0.0075134048233980255 -0.00020414681825623127 -0.00017872863565952303
-0.00025104583785208034 0.00010553978578705918 0.00010959368935530802 -0.007097018452167858 -0.00028538279144441016 -4.4213551277675024e-05
-6.407452304861552e-05 -1.0216721987829226e-05 6.008971987042346e-05 -0.0070960095893567755 -0.00038334160515681993 -3.7887162064621514e-05
-5.110764509829411e-05 2.477077391609045e-07 4.669978253784477e-05 -0.007111774223161127 -0.0004350448514204079 -0.00011230473548057645
-7.124702289001834e-05 -3.887705903800433e-06 5.410657258163542e-05 -0.007128463467436665 -0.00047069140822098997 -0.00029244424297895715
-0.0002083113286588875 8.655368172394063e-05 7.73486606447743e-05 -0.0070793426427179515 -0.0005621889610047836 -0.0006780725977387132
-0.0002965066878803876 0.00031212449581984893 0.00010515480505592136 -0.007305857769326122 -0.0009526518455259841 -0.0015059255574304167
0.0005704921876115615 -0.000846566514235196 0.00014644904395207824 -0.007150750567253747 -0.001472567331295904 -0.0033147831895833104
0.001409874978054432 -0.005296834446670829 0.00022412674759897608 9.30991326827246e-06 -5.88230404595861e-05 -0.0062818217915425615
0.0005812235935076469 -0.0008527193531025036 0.0001516293326566262 0.007168999385045547 0.001349191571714664 -0.0033128143108589834
-0.0002742800306514989 0.0002998215237109191 0.0001146797515875369 0.007322558219215407 0.0008125001083343798 -0.0015005948451579862
-0.00017299421479624038 6.822852442982686e-05 8.924007779734565e-05 0.007091876965844911 0.0003956516110230038 -0.0006659664075351364
-2.00436105276179e-05 -2.7844907662981274e-05 6.457747492721763e-05 0.007131386090026046 0.00027121235497208743 -0.00026677240960531134
2.120286651110162e-05 -2.8831166343464165e-05 4.9056897778725486e-05 0.007094933449820284 0.00020128749594403093 -6.013268484797246e-05
4.1388685992285624e-05 -4.4728847620563035e-05 4.301933800748855e-05 0.007042201036869725 0.00012093532830762679 6.182166383418814e-05
-0.00010255154460871721 6.408183827757259e-05 5.5340645736280794e-05 0.006976307873127322 1.1195790662717356e-05 0.00013626349190359082
-0.00045545732442607605 0.0005554185769709773 0.0001403227445369618 0.007271266142115516 -9.7399350806425e-06 0.00011265954668775296
6.30117499704097e-05 -0.00022197885299129276 0.00046665930237445633 0.007648105319081404 0.00030842064901268924 -0.0005326151254515641
0.0007840589776112722 -0.006597931318138322 0.001138026344822201 0.005772605358501596 0.0004472451494711813 -0.003511346655053854
-0.000555332912972203 -0.0034148693787326026 0.0014212248697056656 -0.004504284805506321 -0.0005764216749377061 -0.0024916820109847485
-0.0017867342373067377 -0.0001372091125687832 0.0011157900912425712 -0.006694013448620396 -0.000930669089012341 -0.000722357137820832
-0.003940494494553204 0.001489845915276919 0.0010874719325857146 -0.006919953825826358 -0.0013152475050554526 -0.00018557997205423144
-0.0056968094961814 0.001910957686810014 0.0012883110376124155 -0.0062907080542086895 -0.001405545881539294 -2.2738717763570908e-05
-0.007430606793902762 0.002449955230080608 0.00156689506865881 -0.006160523039004201 -0.0013082384389217219 8.20830956711031e-06
-0.00923457092864959 0.0030839327172063782 0.0018586725063217463 -0.00619282891308705 -0.0010575332509175528 -4.0892912916023885e-05
-0.011003188579367955 0.003719988161181418 0.0021359836705613974 -0.006207624635689946 -0.0007286613632519918 -0.00019093747330301892
-0.012832022130537486 0.004343409548168206 0.002376723162303989 -0.006152164006215176 -0.0004061761771738949 -0.00046602473138468415
-0.014686654275981483 0.005376208087595049 0.0025391179846134078 -0.006048951640310958 -0.0005072442487477617 -0.0010532224752766186
-0.014714620779722971 0.005104426340057183 0.0025848992226369925 -0.00764749973436032 -0.0015672451840932613 -0.00242278769971529
-0.013849751358506503 -0.003169908280588832 0.002660924942391955 8.76655853389843e-06 -8.402658252545471e-05 -0.006570228179096345
-0.014704364838363394 0.005096964277386163 0.0025939691408711357 0.0076647556764278995 0.0013924112257459194 -0.0024216910667120765
-0.0146658398187216 0.005361394488693335 0.002556646428069811 0.006064991608724635 0.0003127750962738284 -0.0010498150211363413
-0.012800186672895352 0.004321662695486035 0.002401182090044482 0.00616477946790197 0.00018170890196738597 -0.0004573432535443408
-0.010959925964500745 0.0036923989963223943 0.0021642830712558796 0.006212060253368642 0.00046923079523642614 -0.00017098494015542752
-0.009178972657866697 0.0030525519409189583 0.001885102733209028 0.006179669714095146 0.0007681539927478172 1.757000325254533e-06
-0.007360453714378831 0.002416754218623545 0.001581531541485658 0.006112852346241159 0.0010090716706435254 9.445472742514207e-05
-0.005616501251962932 0.0018842426199318168 0.0012758528283528085 0.006180793853508545 0.0011388728568910902 0.00013853967592973148
-0.003875279761532904 0.0015097374089203563 0.0010322718018961165 0.006749963271638912 0.0011563830145977167 5.064859178327463e-05
-0.0017471481409097555 -3.67075801852491e-05 0.0010200733103973643 0.00658500972781735 0.000936516112208235 -0.0006014302250385771
-0.0005241398329284171 -0.0034320117010698563 0.0013162927042308656 0.004463583608243118 0.0006634111399447482 -0.002909747122737965
-0.0016341590344415384 -0.0013559641422503032 0.0016487768897202647 -0.0023555180804976307 -0.0010330100022805495 -0.0016174370113284683
-0.0034080426317388227 0.0003372303896336404 0.0015971291526576121 -0.0037425028200369108 -0.0017219545701249264 -0.0004916167189947559
-0.0071853686453962175 0.002384491199975331 0.0018892122505482767 -0.00399197119712202 -0.0025428565125054856 -0.0001694532227669465
-0.011078682751113206 0.003722310829918607 0.0024207373991138826 -0.0035789917150125935 -0.002639024362299171 -2.6801897363080534e-05
-0.01479793203968935 0.00498632002675569 0.0030157074438518245 -0.003462099161529273 -0.0023286108048674275 1.2385040639072884e-05
-0.018423397547368298 0.006264092197052957 0.003600193578991829 -0.003489759917922264 -0.0017427347958303447 6.967433066193938e-06
-0.021980208036281687 0.007537360246393751 0.004137386284439241 -0.003522180660656845 -0.0009842668338279213 -4.384928487030571e-05
-0.02531297638379906 0.008819005631915724 0.004586266730933393 -0.0034567935478808745 -0.00021156457275873204 -0.00017753865893225783
-0.02896849544344859 0.009955597165368485 0.0048830068851131465 -0.0035658893076651876 0.0004738491995925811 -0.00027845930721727793
-0.030471781422963494 0.012629846861700461 0.0048376185036108745 -0.004830075453009242 -0.00098900960745674 -0.0009054607724089423
-0.029889116676508162 -0.0014899094304492084 0.0047156461743826815 6.079765920281751e-06 -0.00011161232672950103 -0.004836519146594122
-0.03046187762899956 0.01262097938523297 0.004850593497486655 0.004842126599330568 0.0007576794477145533 -0.0009065282475457546
-0.028948788831858006 0.009938058440646356 0.004908562038596454 0.003577383971926271 -0.000728524450403936 -0.00027993168443652924
-0.02528399935921375 0.008793452025809636 0.0046232981587863535 0.0034665190525382085 -7.82694253271392e-05 -0.00017774789432053472
-0.02194358260822391 0.007505485571676678 0.004183417758282395 0.0035273533599372285 0.0006550168743436456 -3.934386957202411e-05
-0.01838279639145222 0.006229272026632756 0.003650323074783085 0.003484726529666172 0.0013844215794821945 2.3132267277164805e-05
-0.014760772384675165 0.0049546329181779725 0.0030611824689964484 0.0034356951056366963 0.0019762393385174735 5.406011681744454e-05
-0.011057109105902765 0.003706928006146375 0.0024477170058077253 0.00351686101463884 0.0023604702807390565 6.102720888063078e-05
-0.007186642931657233 0.0024086828784568317 0.0018807703088339668 0.003908279223033402 0.002422370986050725 -4.0504194309301414e-05
-0.003412778586684743 0.0003976442400068824 0.0015457429000051536 0.0037055183154494674 0.0017601832911547633 -0.0004285381319593416
-0.0016309093885536507 -0.0013541946861428385 0.0015699097630239014 0.0023469853941568445 0.0011315708197017662 -0.0018566951758490677
-0.0021955544886990744 -0.0006565206893636647 0.0020005835404677446 -0.0009022050297550471 -0.001974932583717491 -0.0010482529608369204
-0.004703379327198518 0.0006036006730075848 0.002078301130545245 -0.0014645568111242833 -0.002966079016199687 -0.00034177233712310857
-0.010426487612424777 0.002841559591456232 0.002627712265385558 -0.0014383106109885297 -0.004127811778212141 -0.00018393741995722732
-0.016543518505096187 0.004650317595465037 0.0034498791445440814 -0.001304184302392256 -0.004161885182109182 -7.619690936775777e-05
-0.022180975510817245 0.006281314892530922 0.004325457154982156 -0.0012751374652704916 -0.0035783297504205277 -3.7912834701369966e-05
-0.027610515752773884 0.00789260783559239 0.005171722893718973 -0.0013048177023895846 -0.0025762227168518188 -1.229459765490617e-05
-0.03294757675387865 0.00947079120351659 0.005941945277223269 -0.0013214389875686706 -0.001296117001811396 6.996162380771954e-06
-0.03802836212940675 0.011181361043136133 0.006579006564439074 -0.0013813509164525065 0.00011966324113167498 3.5207849909722085e-06
-0.04221992193603087 0.01202349299387228 0.006997214060612103 -0.0014221181908856421 0.0015772354530562845 2.573810196551839e-05
-0.046626488257984065 0.016897306372224696 0.006852168438834126 -0.0034473205934590894 0.002352986151672469 0.0005574821747707721
-0.04927660916401696 -0.0006190835754610435 0.005721501780725189 2.91857096879449e-06 -0.00014359901430186542 -0.005142699856225829
-0.04661679101525412 0.0168877087343095 0.006869012406756837 0.0034531652094512383 -0.0026500936831619403 0.0005554798302284585
-0.04220089972577465 0.01200452685066609 0.007030684532968055 0.0014278940165899881 -0.0019029030295235165 2.207740077049917e-05
-0.03800120192524839 0.011153787908071738 0.006628319597393778 0.0013866525246605068 -0.0004883874944295548 -9.294633438490377e-07
-0.032915246855778825 0.009436537480989686 0.00600500874176676 0.0013251974243057459 0.000879089020733545 3.5428978776133385e-06
-0.027579992497876696 0.00785572179074855 0.005243973770046219 0.001304764733507263 0.002124091323210531 -1.1101457274277824e-05
-0.022167566317088 0.006249938419704963 0.004398340670655394 0.0012664780832405919 0.0031382911898118052 -2.4708357741133843e-05
-0.016570210203033463 0.0046394121920589225 0.0035093414985326796 0.0012805073226817316 0.0038307060481956646 -3.976550543400115e-05
-0.010496077643445387 0.002867253278171054 0.002654958418300107 0.0014037503288277509 0.004029226880841444 -0.000128440219320623
-0.004764904560027871 0.0006487277702427204 0.0020618429121524594 0.0014472289023962025 0.003090711470346558 -0.0003171389216856347
-0.002232450820590073 -0.0006429391646580608 0.0019522577473437702 0.0008880652654575663 0.002180059297855686 -0.0011930048983231811
0.008908131717666658 -0.014186963240944688 1.4738373282224826e-19 -0.0004668088329307474 0.0017123654307747151 0.00014858997343877205
0.009367973968850769 8.658283148512967e-05 -0.0009511520010677746 -0.0032119494780351227 0.002334588057801167 -0.00017815513868283317
0.011724762988222935 -0.003790351507287765 -0.0018166531586571082 -0.0012708946334885028 0.002197185210377019 0.00017208986849605654
0.01615838500555928 -0.00481218727212028 -0.002621050326451557 -0.0014522417002294026 0.0018366801713722005 0.00019857381582877372
0.02127065996012389 -0.006541374928845248 -0.0032418289780451392 -0.0015217744306808573 0.001181046848347617 0.00027402703800515174
0.026387231356405548 -0.008217087602237442 -0.0036775823384209835 -0.001597854212577748 0.00035995114681979787 0.0003520662856684359
0.03149082901731108 -0.009979243848001982 -0.0038984181323818553 -0.001700478833979145 -0.0005680894741000289 0.0004251674070854006
0.03683508673184651 -0.011870480503502763 -0.0038839122349642557 -0.001895792748862936 -0.0014546593899621679 0.0004580521326217075
0.04282024636693168 -0.014085374859132097 -0.0036436372578857565 -0.002128380160909265 -0.0019502218277408403 0.0003858769248992733
0.04883910362955083 -0.01667259984340828 -0.003280064460974928 -0.0017879322415743813 -0.001513713285961165 0.00016711918086581296
0.05165110263757239 -0.0183537014824397 -0.0030697581037594825 4.136685556487598e-06 1.955139881966516e-06 -1.8351182122844865e-05
0.04882527529430857 -0.016667136886810652 -0.0032822257220942587 0.0017964581727322926 0.0015153748693121976 0.00016474650835880856
0.042790476679488536 -0.01407302565090155 -0.003649519580967265 0.002137687691251735 0.001944889383179923 0.0003811599238009784
0.03678477649761713 -0.011848126611889727 -0.0038969589523688347 0.0019065367636108335 0.0014364976801200713 0.00045123016717852607
0.031411904195171016 -0.009941518962984687 -0.0039245979010428984 0.0017133776386767969 0.0005280008248577161 0.0004169465230693417
0.026266889996585756 -0.008155287287076545 -0.0037259311950517053 0.0016143667066373497 -0.000438382957778868 0.0003449675009030351
0.02108754548104992 -0.006442451145223709 -0.0033260397159300395 0.0015410178185563523 -0.0013291056469143371 0.00026988157924409786
0.015882856042844992 -0.004657478845242288 -0.0027556087742305327 0.0014875039225880498 -0.0020899533303773933 0.0002156686134216648
0.011224939740422935 -0.0035350824275088145 -0.0020410062225717377 0.0013212302163395995 -0.0025880148963373737 0.00015809562562966951
0.008070973319845567 0.0005099420381638294 -0.0012099596385490496 0.0031388505425133367 -0.0023558138102722907 0.00012724863901146765
0.006984037836574508 -0.01348617772411163 -0.0010620622835767737 0.004031512635523239 -0.002082440046241589 -0.0012437147399885417
0.003933130445832837 -0.012228122433421354 -0.00014019292180461924 -0.0007962671055684723 0.0009065943500977743 -0.0004437805737850375
0.0045655878771197304 0.00015991872195900454 -0.00043608947271982386 -0.003645224858921202 0.0010990151630876318 -0.00037333145835145154
0.0072569485381127185 -0.0027629945340251097 -0.0011341628780096257 -0.0032870250986466827 0.0013757425220594804 4.1301467397736735e-05
0.01094064950315053 -0.003931046069385722 -0.0017066046166190414 -0.0036227876129384766 0.0011502079490407304 0.00010436315605159728
0.014282605540560274 -0.00526391889058397 -0.0021504205513110997 -0.003829513770315283 0.0007286077247954117 0.0001524656833402855
0.01769269971419204 -0.006617135952990504 -0.0024471488704303165 -0.003965767231292233 0.00019479455794439677 0.00017621516083897348
0.021091050388902154 -0.008021643762610957 -0.002592404617118887 -0.004188310017605258 -0.0003879443901629224 0.0001536130546326274
0.02460756991426202 -0.009494718449687481 -0.002580335312398131 -0.004648941712682468 -0.0009259771377197358 2.7643536739396665e-05
0.02842376629765397 -0.011215669971823881 -0.0024245196917739467 -0.005320645931632747 -0.0012187760294721758 -0.0002928854558799934
0.03214367322920883 -0.013563423050579367 -0.0021835629364652023 -0.0046628187488275755 -0.0009505238551635531 -0.0008291168629209428
0.03385436414226042 -0.01567904620033249 -0.0020295299849660306 8.023139787020176e-06 -1.755410092287065e-05 -0.0012118598976580538
0.03212671035236642 -0.013559044289866184 -0.0021779899303047577 0.004679599582517371 0.0009120927594141814 -0.0008296802327543287
0.028387948251554163 -0.011205602017713201 -0.002414589211493117 0.005339755601398507 0.0011702424254763826 -0.00029342670799466106
0.02454894209365025 -0.009476106304176505 -0.0025688716564151817 0.004672398611378793 0.0008599137412588494 2.8639593057530054e-05
0.02100319974810374 -0.007989585320452398 -0.0025845579438277515 0.004218893743700198 0.00029506480234006217 0.00015936250109829035
0.017565572088955938 -0.006563618135987715 -0.0024515877348816 0.004007425507012221 -0.00032863858436862935 0.00019296102416723238
0.014101878466895422 -0.005176644483799741 -0.0021799367038980834 0.0038867232849136004 -0.0009245612479313799 0.000190163844264335
0.010673571392188157 -0.0037935407458848103 -0.001782354580966379 0.003711613249303349 -0.0014396598354335561 0.00018000712282207132
0.006825784455710965 -0.0025281123144880713 -0.001275290877786769 0.0034585073038171125 -0.0017111044661256684 0.00015910109664581836
0.004184056286266877 0.0003719819749344015 -0.0007179208134310616 0.003962641785365334 -0.0012301729468489452 -4.6130744899108495e-05
0.003709842797381094 -0.011702622735899464 -0.0008037856161506571 0.002994443308186535 -0.000804447102452194 -0.0016087882503903889
0.0020227399885149417 -0.008580216529602369 0.0002524008287568426 -0.005160716567207412 0.00031806716352444464 -0.001529993654513162
0.0019637083586844894 0.00011301732439952582 1.96901879549017e-05 -0.006344784115613413 0.0004001451562607213 -0.0005642813629735143
0.0032065591402996255 -0.0009524054417042772 -0.0004388791051121532 -0.005914421458563701 0.0005598344771525421 -0.00014380406279543536
0.005471734107428051 -0.002044442920126351 -0.0008119092674923739 -0.006390787383190837 0.0004621625829820338 -2.058957933018238e-06
0.007271936831827761 -0.002701072762149061 -0.001071021955984859 -0.00663855066510839 0.00022483945082905126 1.7537318119111797e-05
0.008944700339338713 -0.003374209747473097 -0.0012274327815285908 -0.006873987128620988 -5.647693946231246e-05 -2.5665229375291956e-05
0.010588765645516635 -0.004063765890414009 -0.0012876443143125743 -0.007227549143861032 -0.00034816842842422984 -0.0001672880080921505
0.012186254522074273 -0.004683673858939602 -0.0012571831617703842 -0.007915680213039327 -0.0006197993600867809 -0.00048288482742781154
0.013990641732169167 -0.005398297263657989 -0.0011431134427654444 -0.00911111715880878 -0.0008058185217038088 -0.0010855661265288482
0.01636264807047077 -0.007503112023211208 -0.0009505799842412878 -0.00845414130882765 -0.0006919880797614314 -0.001990293686815299
0.01771470303817566 -0.011120242010489908 -0.0007805946753077511 1.2945774111487872e-05 -3.670783953907343e-05 -0.0026442468897975926
0.016342878367895986 -0.007500966005123672 -0.0009373770935996645 0.00848125643622899 0.0006143907664142664 -0.0019891020111628133
0.013949502049829894 -0.005392929298398496 -0.0011176218113894206 0.009142122994839845 0.0007157421896271842 -0.0010819626605934273
0.012120635665856552 -0.00467276725546806 -0.001221693460809867 0.00795397831723831 0.0005090841848844335 -0.00047387510178331107
0.010494059905434745 -0.0040433779432408595 -0.0012467844707670585 0.0072779831872031315 0.0002085145136529053 -0.00014681625387922051
0.008814596179362722 -0.0033376502317058725 -0.0011895696443533267 0.0069435334876193034 -0.00012140832357040995 1.7166365736221505e-05
0.007097178607817456 -0.002638243751136745 -0.0010503008587283817 0.0067372815063754315 -0.00045335290161106155 0.00010129503327685546
0.005232509948111546 -0.0019381612411798793 -0.0008299869693104164 0.006541636252392419 -0.0007495275655225779 0.00014311056373602117
0.0029593494150764706 -0.0008020111285577751 -0.0005277223797312991 0.006186686682938531 -0.0008470512144543074 0.00011647640701593372
0.00185293765692866 8.041375102033519e-05 -0.00021454632326249864 0.006819281921437988 -0.00048185762277469415 -0.0003413223816134533
0.002017073711493755 -0.008250883779964281 -0.0002488123938856515 0.005646514710576481 -0.000217106390814246 -0.0023665256524728335
0.0006003257644710116 -0.0054206209616585385 0.0007814708638986158 -0.005560151503077143 -3.787112735476074e-05 -0.0019617861141611693
-6.55213894841652e-06 -2.573009465476321e-07 0.0005207432455465926 -0.007437592407731233 -0.00012172927693208436 -0.0006627802688337224
-0.000353620336580782 0.00040434775949423573 0.0002545251130753559 -0.007378785331627251 -0.00017426433030203348 -0.00019843103862269754
6.408935073144422e-05 -5.037574966942485e-05 8.515753289085935e-05 -0.007351500306493604 -0.00022365071437548814 -3.8468495160982615e-05
0.00021041877714006351 -0.00011184446073941447 1.1698690388901476e-05 -0.007569463270875551 -0.000293305186582747 -1.188369033905899e-05
0.00016592581032086058 -7.661298041828252e-05 2.2251807869297244e-06 -0.00783704252820251 -0.00034481326525033837 -7.556385403701279e-05
5.7342163623606635e-05 -5.579827809336913e-05 3.5267333277008916e-05 -0.008243860354686125 -0.00037246010495817867 -0.00025339228734155166
-0.0002471994756027543 0.0001387132856648723 9.802311927439327e-05 -0.008830921039681005 -0.00040847011973153515 -0.0006177180910525114
-0.00041812124161151967 0.0005116696331950508 0.00018761104835766422 -0.010123065006673234 -0.0005118687641681356 -0.0012819069830925045
0.0009588241031578054 -0.0013975370801145618 0.0003499220132255827 -0.010572728141752015 -0.0005435758084723918 -0.002313012672680688
0.002272275551405857 -0.007994525167652531 0.0005807056601281017 1.4670824279951442e-05 -5.5806592679802135e-05 -0.0031557563154400317
0.0009363415259649564 -0.0013977109496030123 0.0003707692926501881 0.010603459818294546 0.0004270039586574756 -0.0023112874251641348
-0.0004643705172186428 0.0005121527981896371 0.00022868655239038026 0.010158212258595053 0.00038073833725688343 -0.0012770326138517142
-0.0003194526855763694 0.00014161434980181932 0.00015753277156985512 0.00887432754232686 0.0002542083330275168 -0.0006062203720621988
-4.351185327769898e-05 -4.749165057038589e-05 0.000109069905992429 0.008301040252935777 0.00018842384177549082 -0.00022838313526144096
3.418459181937702e-05 -5.788417500455043e-05 8.1932657651405e-05 0.007916444834978881 0.00012712537660639615 -2.424370174007043e-05
4.4489922009551634e-05 -7.404110754408368e-05 8.206548330923372e-05 0.0076846083740484804 4.164422382940107e-05 8.643679527542938e-05
-0.00012509906566112648 1.8782577866998553e-05 0.000121197138626824 0.007526787708553904 -5.025079472606831e-05 0.00013861791339266947
-0.0004922899490236895 0.0004566403117742835 0.00021661757100950788 0.007655678160473363 -5.244199569580107e-05 7.85134966320237e-05
-2.8381669297099752e-05 -5.664471125209171e-05 0.0003433598460031694 0.007668618289518244 7.394085660662309e-05 -0.0005004279578154278
0.0006398098964128482 -0.005148973307661111 0.0003932517360160717 0.005657703083481372 0.00011744761589708427 -0.002505785465962094
-0.0006646319291845695 -0.002843794698098509 0.0013274812127861183 -0.0044362076410043305 -0.00033752415319661773 -0.001843521557938442
-0.001767462468947585 0.000151580735844751 0.0010420866538419298 -0.00651556335773948 -0.000602580986754675 -0.0005659787166927477
-0.0036572610164857344 0.0014638046860745903 0.0009445420592859819 -0.006873184060077481 -0.0008829687435614312 -0.00016914913484237468
-0.005212025759343896 0.0018795700854939814 0.0009783298826535971 -0.0065392927198410005 -0.0009039228045125907 -1.9272663510239537e-05
-0.006853196789564272 0.0025002920306855785 0.001091036675288079 -0.006622429004999301 -0.0008146262951581833 1.8342616529220385e-05
-0.008632855803340911 0.003223044360270264 0.0012298725093598147 -0.006874050339375773 -0.0006368354956745921 -2.6036175799431642e-05
-0.0104476469323946 0.003977004345926355 0.0013574971930515939 -0.007215301873340765 -0.00040167068255230024 -0.0001692964447464698
-0.012511624722124744 0.004802146878831889 0.001452638515047434 -0.007660617928100722 -0.00018710433962276798 -0.00046320022862573714
-0.014797230052703664 0.0062853397680832455 0.0015106528697958264 -0.00827690086878796 -0.00016350539306339543 -0.0009965804724549206
-0.014599888037129914 0.005642467841247269 0.0016000958177765738 -0.010981672796973657 -0.00034254303131013006 -0.00194217734114159
-0.013278677524769442 -0.0061072325235723085 0.001914522847579159 1.298976385431881e-05 -7.528079250619957e-05 -0.0029152330837742147
-0.014625232308009878 0.005639971765566128 0.001628730848116615 0.011008878105721336 0.00018619587535442754 -0.0019411392195047461
-0.014848915943484479 0.00628092911962633 0.0015676217206652074 0.008307993417968125 -9.637853178437044e-06 -0.000993292056918186
-0.01259108548347558 0.004797042880484883 0.0015366938889342621 0.007698956026985587 -1.1937453688037298e-05 -0.000454707854300905
-0.010555479850291509 0.0039732079203928725 0.0014650450828712414 0.007265707364604484 0.00017154141132780522 -0.00014967292681940158
-0.008767315584909804 0.003223774213291959 0.0013526165664216314 0.006944407934105867 0.0003772849220048107 1.579372650432092e-05
-0.007007133771559508 0.0025119698146640656 0.0012125486686558134 0.006726124828997174 0.0005380061835783756 0.00010209012458312393
-0.00535894728544526 0.0019036978888066747 0.0010699045913135012 0.006697629484748492 0.0006427547971703302 0.00013584720336245971
-0.0037397426148271266 0.0014649440268564963 0.0009613957075751459 0.007065251637882601 0.0007063728285091503 5.5790002444960256e-05
-0.0017609689332622777 0.00011645724866555993 0.0009253281056478181 0.006600690491515802 0.0005784537160180193 -0.00044594369262081386
-0.0006196118506344655 -0.0026524829534045817 0.001034252915621032 0.0044077003759125976 0.0004022111793676768 -0.002195099809740975
-0.0017369695431819357 -0.0011785218859979916 0.0018284796937106497 -0.002396992661050177 -0.0007157438856051258 -0.0011149501998703598
-0.0033892834564703505 0.0004986640230248447 0.0015508858245056598 -0.003728102616693864 -0.00115295385661283 -0.0002462159322653696
-0.006854012420557594 0.0024091867023135383 0.0016257201574323447 -0.00405364432058753 -0.0016247308935509388 -3.311893705421614e-05
-0.010410415070798712 0.0037441259112082625 0.001861799134419211 -0.0038018208591028965 -0.0015882167416069355 8.756191793520735e-05
-0.013899264045434895 0.005088143746615914 0.002159801523950297 -0.0038118927288835775 -0.0013254242075368674 0.00015051783470403722
-0.017404400529634403 0.0064885660536648185 0.0024433603915005988 -0.00396488277792155 -0.0008993502361423285 0.0001753220095584844
-0.020958852266338594 0.007939522039059508 0.0026605859443727766 -0.004178115720227153 -0.0003732905491632359 0.00015231682306065782
-0.024455388608755225 0.009503967109522872 0.002774289036860516 -0.004360820357997596 0.00012750870417724318 4.81402715332485e-05
-0.028844134187694388 0.01105155027912589 0.0027808805930785462 -0.00484819354166474 0.00039241982260722195 -0.00017441408231230298
-0.030840276761948247 0.014591861154013544 0.002694242641407782 -0.006586156147663017 0.00010766229117916035 -0.0007728839840227718
-0.03015712296798273 -0.0047622162707912676 0.00302799740585423 8.116254261650737e-06 -9.55569487070077e-05 -0.00187452785037192
-0.030868873781125464 0.014587130006602616 0.002730931773415051 0.006603131834191293 -0.0003055705031528435 -0.0007737744905295574
-0.028902109961127936 0.011042422651588793 0.002854331514236819 0.004867515477596306 -0.0006099549166172913 -0.00017561213543885342
-0.02454352926437482 0.00949113727703612 0.0028839233662743776 0.0043844760794231 -0.00037488833609683307 4.811014558394321e-05
-0.02107615102820296 0.007924031655304128 0.0028035755878113564 0.0042089439703965744 9.143614731598902e-05 0.00015652604375881738
-0.01754468195551662 0.006471986451878898 0.002611844778750898 0.004007477201381972 0.0005889426836597714 0.00018988647601367735
-0.014045007267009245 0.005072302064440378 0.002336568329615272 0.0038749052155102903 0.001010883099826394 0.0001875282237036611
-0.01052664696108609 0.0037259468172849445 0.002014863565956467 0.0038939495078685136 0.0013228091748670103 0.0001654108700507451
-0.006901112296590603 0.0023760689111596493 0.0017051716830460708 0.004147560480182109 0.0014849812656974118 8.178346769325392e-05
-0.0033679863594722275 0.00047453793360990106 0.0014981411788589796 0.003748773730886145 0.0011611568239213927 -0.00018540587828411024
-0.0016904630733045123 -0.0010692992947114966 0.001617640950487352 0.00235455300007245 0.0007929897572305962 -0.0013114802333485003
-0.0023123004575307457 -0.0006195448658093231 0.0022130771664193145 -0.0009343668176400587 -0.0013790836488270972 -0.0005722613631429812
-0.00469107796257486 0.0007008719361009202 0.0020270355729452467 -0.0014925387053508752 -0.0019003516946604483 -2.6091497502049703e-05
-0.010019767420699764 0.002868632874112469 0.0023017376624719574 -0.0015467808414048865 -0.0024286567230414344 6.945862255585542e-05
-0.01564885056549811 0.004667341125691255 0.00274873559997625 -0.00148959754326137 -0.0022684354762393774 0.0001704127123191193
-0.020920391564375345 0.0063676971823572815 0.0032359419896623976 -0.0015104646099307324 -0.0017923304377584115 0.0002566321116044743
-0.026122913755372033 0.008109052617155173 0.0036630233909012095 -0.001590686292804633 -0.001078555942705749 0.00034140866853935215
-0.03137929646717212 0.009876926933687656 0.003961153277604144 -0.0016705173653361407 -0.00021044811692093017 0.00041728530970638585
-0.03657744043343052 0.011929458354718727 0.004082984300287755 -0.0018479152687787864 0.0006468594923375795 0.00047344397563151767
-0.0412343312015374 0.013006389731275693 0.003997033819475473 -0.001954772454395297 0.0012028462065031798 0.0004475775338886818
-0.04761669592354437 0.019655690253975407 0.0036832668130713023 -0.004305232562658883 0.0011487547146582895 0.0002769246534828619
-0.0519021438312067 -0.004062924726988413 0.0035422673914766293 4.2211155478596096e-06 -0.00011692785906922004 -0.001313293351249149
-0.0476491604313035 0.0196498749001926 0.003728377611296474 0.004314110256550984 -0.0013907170820958033 0.0002749928540105758
-0.04129993350393239 0.012994972872576362 0.004087790072206905 0.001965006593259684 -0.0014682748037148955 0.00044386474840438277
-0.03667659465738848 0.011912866007178951 0.004219675642987756 0.001860614038292652 -0.0009481013659315862 0.0004683873612575972
-0.03150994354754018 0.009855768377243349 0.004142080432107895 0.0016871412360502812 -0.00013233886409633292 0.00041192109850438086
-0.02627552055145759 0.00808400760567764 0.0038813889273579386 0.0016133047913403913 0.0007016410587540116 0.0003381399607926216
-0.021068304081306735 0.006338231964362184 0.0034747951071779676 0.0015426094829345716 0.0014142287176958747 0.0002609045845639364
-0.01574363898715341 0.004628782848522968 0.002973955921217718 0.001534285069326526 0.0019645972283697474 0.00019158235549227186
-0.010025364864629915 0.0028184104478030983 0.0024572291731696666 0.0015933189952663902 0.0023095625758732885 0.00010628436134906837
-0.004638319621280174 0.0006760663570488015 0.002044599422034961 0.0015099677784197654 0.0019848386216009158 -8.589788843295485e-06
-0.0022491723556742034 -0.0005488794856947779 0.0020678700043606783 0.0009214420109686776 0.0015507808765435505 -0.0006899582713218965
0.009449705589482379 -0.013718008126431286 1.8126505071242027e-19 0.0010625669084519907 -9.84148607876753e-15 -4.917754707145852e-15
0.009665888400540465 -0.00017762525835834619 -0.0008219354067766577 -0.003151409113154221 -4.979450892957961e-15 1.0247912815650878e-16
0.011676012330614209 -0.0038641431427938046 -0.0015424054500038742 -0.0012250381449934033 -1.8316020222860704e-15 -4.305570114847279e-16
0.015943615965270313 -0.004896651682884937 -0.0022254782567181068 -0.001456728482189078 1.6403301243347879e-16 -4.495034444489121e-17
0.020949806510369335 -0.006626130282198353 -0.0027095384641824104 -0.0015576057433303672 7.579140697748336e-16 5.01091139068488e-16
0.025996742358624727 -0.00833740166308087 -0.0029550343244559383 -0.0016743871113251234 -4.2931144953579047e-16 -8.318812218938154e-16
0.031098885300262762 -0.010171579569249706 -0.0029425646235872465 -0.001823641995812044 -2.3644755316014343e-15 1.4994177232295625e-16
0.036590127301091555 -0.01218823917047211 -0.002676424848015826 -0.002066628779660209 -1.3765843933505328e-15 1.913762524103843e-15
0.0429218660014754 -0.0145823160786956 -0.0022127687456430234 -0.002323868744541283 1.3254913659721534e-15 1.6652125641933302e-15
0.049387579508644516 -0.017354563913325592 -0.0017136320512621353 -0.0019415818692171774 2.588473394502834e-15 -1.9349959460256139e-16
0.052419092647652446 -0.019131775117272248 -0.0014745502778109965 5.1240007674529825e-06 2.4999508282182344e-15 5.43632521811388e-16
0.04936286977253839 -0.017345528914544012 -0.0017140921204288246 0.001952303208867606 5.0713404152078964e-15 -3.555471618076761e-16
0.04286888101729983 -0.014562085648608548 -0.0022156002395486984 0.002336104048932462 1.0663733147919276e-14 6.524254335567303e-16
0.03650072860909885 -0.012151999616344812 -0.0026857815817177217 0.0020817570263603146 1.1642362827924899e-14 -5.10337350720716e-16
0.030957899786406347 -0.01011095050318452 -0.002965345985620546 0.0018434662730460452 9.482767837363571e-15 5.039642748255746e-16
0.02577825113170616 -0.008238257617071774 -0.0030010448370721594 0.0017016924169377368 3.1885776029076662e-15 -2.4680168390738e-16
0.020611827310467748 -0.006468845008751889 -0.0027913475988448734 0.0015941721690520892 -5.433353826534912e-15 2.6857381878360453e-16
0.015423209555339027 -0.004646981937005652 -0.0023562796328580236 0.0015157141002760655 -8.821146802373211e-15 6.189473033494514e-16
0.010835902312191167 -0.0034860009447924907 -0.0017547992725317854 0.0013343900954819092 -1.1359543609034371e-14 8.4847290326463265e-16
0.007761649743683564 0.00048817412882265276 -0.0011812969519724294 0.0030072223147463556 -9.978847717757866e-15 -1.35022133990019e-16
0.006691272670114254 -0.01292909103904214 -0.0012052900867072305 0.003828067163000464 -8.99507654776241e-15 -4.575238300198736e-15
0.003951183788987687 -0.011932259600353351 -2.9717994688794344e-05 8.3425018914543e-05 -3.0233595913809787e-15 -2.9552928707725704e-15
0.004669173865656017 2.7096907162989736e-05 -0.0004218044711891779 -0.003462104804998386 -2.7669927879167295e-15 -1.2220635609147198e-15
0.007325876964487583 -0.002841696739746351 -0.0009732623911668181 -0.003205957471230645 -2.107067301128536e-15 -1.163677579860481e-15
0.010844732904120542 -0.003987470488902363 -0.0014705645871840969 -0.0036372668771893616 -1.0427399097174064e-15 -2.5855341901758616e-16
0.014111673715667291 -0.00531799078591689 -0.001829086310637895 -0.003908234735735044 -4.787539802768857e-16 7.200288271429905e-17
0.017476505075768423 -0.006691282186173192 -0.002011569042091743 -0.00412464357219908 -6.390130903534321e-16 1.721899397155377e-16
0.020878113809915066 -0.008145812347803169 -0.00201525541245886 -0.00445042339114694 -1.5097341610106462e-15 -4.512229213318383e-16
0.024487260873178863 -0.009707421740738818 -0.0018530364807329972 -0.005031015773681885 -9.384045088569899e-16 2.1653550263608934e-16
0.02850656550239116 -0.011555362450486249 -0.0015665350678851543 -0.005781326791864035 -5.211192331063159e-16 -1.4307470681297618e-15
0.03247950954617557 -0.014033797729852047 -0.0012523815495504773 -0.005041127836128293 9.124795831986143e-16 -1.5303818596493907e-15
0.0343116340311899 -0.016242159142349503 -0.0010939229417017936 9.918323003162624e-06 2.3573949714370988e-15 -1.8476295797140163e-15
0.032450392491674925 -0.01402605601309016 -0.0012431875116336794 0.005062219638666476 2.50855456537997e-15 -2.994546071614229e-15
0.028445122515744183 -0.011537917299557733 -0.0015495198278610857 0.005806494901182854 5.204977226812681e-15 -1.5414119226885362e-15
0.02438647577598371 -0.009675960207564812 -0.0018313402191238132 0.0050640837931140974 6.929297232373074e-15 -4.1156145060960297e-16
0.020725679843434205 -0.008092774131258307 -0.0019944469914003177 0.004497006054618232 4.905513439931692e-15 6.326929540174941e-16
0.017251997247386335 -0.0066041742835746655 -0.0020004359173968803 0.004192509210265396 2.136561623626641e-15 4.249955625596456e-15
0.0137829877221323 -0.005177323360030323 -0.0018398171962296594 0.0040076708278546855 -2.1722918026824325e-15 1.804600305993498e-15
0.010358963207196335 -0.003767735680430217 -0.0015216546422500746 0.0037901671548889056 -5.163476424045483e-15 2.1336590534746375e-15
0.006606662499966468 -0.0024919245155818155 -0.0010922093492282381 0.003501646890987613 -6.471065748677417e-15 1.1009971417636627e-15
0.004050433388593396 0.0003583159446344452 -0.0007494593343992402 0.003844749517397048 -5.047454086095325e-15 -4.9715412992965e-16
0.0035710717526242614 -0.011226633746392562 -0.0009565471387105966 0.0028367325065214374 -3.182082977784594e-15 -6.6716516209167076e-15
0.0020004818672144 -0.008484284696372591 0.0002850117581134717 -0.004766027499712318 -1.0742760051348681e-15 -3.5230810781737565e-16
0.002015450690538301 0.0001251354091281166 1.6446639675496652e-05 -0.005989097110549528 -1.3232987153090673e-15 -1.922372614012683e-15
0.0032917665243933363 -0.0010192440515422463 -0.00036065131823290804 -0.005809437930711726 -2.068524655050505e-15 -1.8529658872817184e-15
0.005480842651830734 -0.002080284256852293 -0.0006914474320919088 -0.006417511200728595 -1.7210924923939989e-15 -1.6014801111760221e-15
0.007229167260501109 -0.0027258234666776653 -0.0009143946818577944 -0.006778888976579978 -1.4190958123029237e-15 7.977356297241e-18
0.008876802167315621 -0.0033999898979574293 -0.0010168585675099631 -0.00713894060233567 -1.5499553087527798e-15 3.2900623143840985e-16
0.010518233002144174 -0.004105222585496791 -0.0010071618481901693 -0.007658780492750249 -1.2586284909400303e-15 -1.5304089647037028e-15
0.01215247077390524 -0.004754078685172374 -0.0009018721438949039 -0.008543935848019863 -2.007460038179693e-15 -1.845024106368262e-15
0.014046990650812349 -0.005512410354152694 -0.0007232502167554371 -0.009874011619396326 -2.293616566882402e-15 -3.735832037601514e-15
0.016564794760116765 -0.0076664207586862885 -0.0005107052207074898 -0.009101797816614146 1.5506039242321398e-16 -2.453251360737263e-15
0.017999858660991803 -0.011386910721343844 -0.0003831306692122797 1.5497730178562658e-05 7.064278073506914e-16 -3.93741571465267e-15
0.016531870857048592 -0.00766133258803131 -0.0004921025810578513 0.009134856102950287 7.376301717869349e-17 -3.8854993712495595e-15
0.013978492828478656 -0.005500683448969956 -0.0006870078660022609 0.009913790369212179 1.6216898937810361e-15 -3.1294818082436282e-15
0.0120429609775622 -0.004732370368631058 -0.000850414437623384 0.008596848238362714 2.5841427268017596e-15 1.1285087718904824e-15
0.010358892346516445 -0.004067756768867465 -0.0009453525822992108 0.0077344407743002936 2.3365635725279186e-15 1.7434360568722648e-15
0.008653718096565904 -0.0033368503882797392 -0.0009532970213235951 0.007251593592671443 1.955045096773115e-15 7.605427518233426e-15
0.0069212241307276155 -0.002620839543043898 -0.0008631658129762722 0.0069477060104142325 -9.308002705730144e-17 4.020226737773934e-15
0.005058098688082583 -0.0019121103504218264 -0.0006741339596993183 0.006682552224118789 -1.9437676074691426e-15 3.4022984150600295e-15
0.0028573437006575784 -0.0007948860355801313 -0.00041956060208402985 0.006255380178283717 -3.080670687625152e-15 1.753729201247299e-15
0.0017982836508670897 7.418185283123859e-05 -0.0002526008706898608 0.00664903154681083 -1.5951244523958587e-15 -1.5555946423573622e-15
0.0019461665500055268 -0.00791219854058829 -0.0004114049849914558 0.005403899166467191 -8.277798883632101e-16 -9.969808182144768e-15
0.0005952254450368185 -0.005363361429284601 0.0007831334945790079 -0.005332250805195086 -1.9601178844499923e-16 1.3603010319725162e-16
4.368707105523439e-05 2.4299077011747974e-05 0.0004978163269022715 -0.007161042320111257 -6.034194953603855e-16 -1.608647703975688e-15
-0.00025088168859357685 0.0003607408410508828 0.00026383108639049677 -0.007247260754458681 -1.9860491628554723e-15 -2.0955036073326203e-15
0.00015403692542000042 -9.767167209732504e-05 9.391334470486859e-05 -0.007383854655903334 -2.2941929728030087e-15 -1.1403367399659414e-15
0.00028653272032315837 -0.00014491465115859512 6.322600641750451e-06 -0.0077336680125387235 -2.065993402966754e-15 9.554531645028508e-19
0.00023448106985473566 -0.00010268512713993913 -9.04827814886271e-06 -0.008143191549983515 -2.47631924426455e-15 5.457246931911061e-16
0.00011558471032364133 -7.549697677266065e-05 2.6689981477435404e-05 -0.008733702773233317 -2.3007824656161736e-15 -1.1830288945734527e-15
-0.0002055855368917224 0.00013089390848449088 9.557810048765314e-05 -0.009531840108933922 -2.8831455689407644e-15 -2.1610792040431537e-15
-0.00038683666253235753 0.0005164972514677613 0.00019426000527874576 -0.010959642385976295 -2.935697822329026e-15 -4.879675493969088e-15
0.0010611338824116734 -0.0013926886040692482 0.0003352928368109407 -0.011317034877924669 -1.277338178195457e-15 -4.191512046301804e-15
0.0024424818477257353 -0.008130580840270475 0.00044990743795125874 1.7384715713950218e-05 -1.5379005476056935e-15 -3.5604962175198734e-15
0.0010246039246219589 -0.0013903445137945006 0.00036327558146893423 0.01135414038474427 -1.9279521788549247e-15 -4.671928805193709e-15
-0.0004619100016902399 0.0005223204181048452 0.00024962353972371703 0.01100435814171758 -9.88846948757429e-16 -4.465103688264943e-15
-0.0003228976826297334 0.00014257870863280177 0.00017648484996424425 0.009591392302590032 -9.917535555508219e-16 1.278228621581258e-15
-4.896207201925224e-05 -5.394390947819903e-05 0.00012876355144487392 0.008819111120222723 -1.6651068968331602e-16 1.3640855751808484e-15
1.641478032744604e-05 -6.414100939970058e-05 0.00010524051614360336 0.008271417129457524 9.145332145792323e-16 8.514974885126883e-15
5.6385111282313256e-06 -7.698734623705607e-05 0.00011657757427490453 0.007930604003888392 1.4804662080676947e-15 5.283547579483516e-15
-0.0001736472047948584 1.4152003040567406e-05 0.0001726982654379608 0.00768797409622691 5.001992133750292e-16 4.3484858861528655e-15
-0.0005045881774359463 0.0004372209417930281 0.0002581990410067948 0.007698906988933397 1.4210947041793254e-16 2.0029796574051913e-15
-2.693480479613319e-05 -6.26201061619102e-05 0.00029771790526315943 0.007501468754187497 7.381816961147159e-16 -2.216878346476478e-15
0.0006212410296615984 -0.004915342854003537 0.00025795702539301485 0.005461784023125912 9.15896725866075e-16 -1.0463201485788609e-14
-0.0006313906370800997 -0.0028095128376071977 0.0013330421117245883 -0.004321303457483897 -1.0942818645578306e-17 -1.3078188705606397e-18
-0.001690064454342698 0.0001746728080684029 0.0009916254653849186 -0.0063190994510667065 -6.313385483348345e-16 -1.0421673154450625e-15
-0.0035200384090284444 0.0014294021083696945 0.000887139679625923 -0.006745489624584878 -2.062714114911459e-15 -1.9901360968259743e-15
-0.005045754621584088 0.0018278844951780471 0.0008769644154439185 -0.006549027206480883 -2.6373522777570907e-15 -9.752449363483948e-16
-0.006661590873757029 0.0024574239563057436 0.0009242715567826485 -0.006758875271105783 -2.951932267554339e-15 1.5478849484714535e-16
-0.008427937938328292 0.0031963532621679205 0.0009967007012481421 -0.007140709006165165 -3.6681865041261275e-15 2.2944089662045586e-16
-0.01025854335987797 0.003979282838716002 0.0010593621534566034 -0.007644895257184528 -3.612659921013362e-15 -5.365208331862409e-16
-0.012387587423864962 0.004850291176608203 0.001091696080890159 -0.00827358447502889 -3.3683525109076294e-15 -1.5605497850987998e-15
-0.014791927390331845 0.0064034123548322285 0.0011058433574606516 -0.008979022263082333 -3.1800787919522718e-15 -6.122713284723719e-15
-0.01460374580018082 0.005813426882020951 0.001162848295456882 -0.011680434324579998 -2.9497364934572598e-15 -3.698677784403151e-15
-0.013224573407034751 -0.006152655005747004 0.0012530358543911685 1.5613809721703724e-05 -3.1952460815431625e-15 -3.057668660909514e-15
-0.014644079727532554 0.005813029898614795 0.0012003960840607944 0.011713738547408897 -3.200486462629588e-15 -3.120681135921656e-15
-0.014874007994990657 0.006403346159727648 0.0011807210009620367 0.009019072154878804 -3.916798085683553e-15 -4.002864256421115e-15
-0.012513483282582841 0.004852013043003452 0.001202706029979654 0.008326734458029464 -3.642044738033255e-15 9.997055537992044e-16
-0.010429377586845845 0.003985078690080418 0.0012026902477869645 0.007720817959405042 -2.9052876454567023e-15 2.5217847964996085e-15
-0.00864220948587921 0.0032099994030704965 0.0011631968042284382 0.007255249712879716 -2.8543951531285854e-16 8.616820432638846e-15
-0.006910642699792113 0.002486785014124259 0.0010954827063711457 0.006936899419985392 2.325475170094531e-15 5.006882901987739e-15
-0.005290200990425016 0.0018715233870621217 0.001019221866769709 0.00682183393820941 2.835924752680758e-15 4.162712079062211e-15
-0.003669017771716804 0.0014288031520851216 0.0009406970003192983 0.007063667282704578 3.3131083868129935e-15 1.5259510303023034e-15
-0.0017022782067284215 0.00011490958914010032 0.0008639741106954325 0.006449587485792263 2.932246163068965e-15 -1.9031712241313753e-15
-0.00058385423906675 -0.0025100646597653506 0.0009426858570805746 0.0042774446671292425 2.3779026978813095e-15 -9.275742608901016e-15
-0.0016524428212515256 -0.0011405048104338015 0.0018186446905903678 -0.0023648574947035717 9.746554014171058e-17 -4.5707591899736555e-17
-0.0032652320160701798 0.0005391662742166633 0.001449291521349378 -0.003611852254801711 -7.986758362955523e-16 -6.315613179999624e-16
-0.006663382535080794 0.002395401632181554 0.0014954473397943697 -0.003964101175003875 -2.0643412652031345e-15 -1.0822133391253513e-15
-0.010158603555994537 0.003714366495865858 0.00164901984219396 -0.0037953068612046888 -3.5155365557125624e-15 -6.324473144627904e-16
-0.013584385865642631 0.0050724086643571245 0.001830633558223933 -0.003888153642487656 -4.275444541045233e-15 4.9969861690320194e-17
-0.017051518772594806 0.006508710737021031 0.0019853862375737124 -0.004125022542245401 -4.028190753302256e-15 -5.996722216017325e-16
-0.020624286245081173 0.008023420600526502 0.002063710008406339 -0.004439604337654758 -3.2633858587432715e-15 -4.584379479765505e-16
-0.02422624246120299 0.009688762919876416 0.002039866060328583 -0.004725071861815946 -3.79094254224872e-15 2.2982883771029833e-16
-0.02886331150008037 0.011364641184204778 0.0019358106372661561 -0.005252445654398044 -3.440638514384548e-15 -2.968105938165686e-15
-0.030995023459664383 0.015092117368478075 0.0018600309177164368 -0.006990671195357625 -4.104066058893165e-15 -1.2122752481762492e-15
-0.03028117274273426 -0.004732808333569628 0.0018754325837071558 1.0121053988916995e-05 -4.317531490611931e-15 -2.6422252583026447e-15
-0.03103975780865604 0.015089072207296 0.0019075435450526504 0.007012192569435621 -4.999377343042118e-15 -6.224065859060379e-16
-0.02895373858744784 0.011358885317785 0.0020310985773896026 0.005278099996407434 -6.99708167925181e-15 -1.50571795429124e-15
-0.024363126714314037 0.009680882881465775 0.002182591034795296 0.004758661580265345 -6.923281816139911e-15 1.2514064762735033e-15
-0.020805578489126144 0.008014013010968771 0.002251028843320634 0.004486874161609827 -5.728908609303881e-15 1.1080478440166075e-15
-0.017267475636688675 0.006498322868683287 0.002208641217932015 0.004195270897026158 -2.0126256686085232e-15 4.645584386468206e-15
-0.013808472904645097 0.0050605917824161455 0.002070073628367554 0.003996895615393773 2.9660484951368055e-15 2.4987590528614476e-15
-0.010338047549202284 0.0036918264912938203 0.0018659621304566586 0.003954318072838514 5.672334008207346e-15 1.92283932916662e-15
-0.006738437774358497 0.0023394576947429993 0.0016234261822560049 0.004121218254364963 7.339538793892618e-15 8.871746856576289e-16
-0.003238800647932395 0.0004916645797407122 0.0013994923690746998 0.0036436605380559648 5.946236511262127e-15 -7.604543215836493e-16
-0.001589681134995605 -0.0009774372988765542 0.0015384979295344743 0.00230262800920678 4.081011516134797e-15 -5.925341055486311e-15
-0.002177926836882373 -0.0005666484857526442 0.0020907666229095473 -0.0009384092030707322 1.366772363689539e-17 -4.332742931795197e-17
-0.00451485066697485 0.0007591333407481082 0.001825129110118267 -0.0014265964674072375 -4.634828762103971e-16 -3.080015084123977e-16
-0.009757997570128197 0.002872718496111085 0.002063970332304976 -0.0014960848969344362 -1.7044471303101494e-15 -3.1996838989120646e-16
-0.015288602864174087 0.004659899875965772 0.0023883182424105876 -0.0014785491138293704 -4.6026550626354634e-15 -5.419655609711915e-17
-0.020459075765511585 0.006381935757505473 0.0026985746835040078 -0.0015418200591951925 -5.979449520156915e-15 -5.26109104198591e-17
-0.025595328632545794 0.008174161782075699 0.0029188992681664755 -0.0016643691165689535 -3.64941773632263e-15 -1.432542777977941e-15
-0.030863380912732715 0.010027681614712649 0.002984346085145435 -0.0017910161087838126 -2.7422403676155907e-15 1.2705900784629187e-15
-0.03621892372590134 0.012220284362844629 0.002859471490916321 -0.0020066217607259546 -2.8300014512806088e-15 -4.1018078690557846e-16
-0.041230285375612324 0.013451864047709124 0.0025741161127442675 -0.0021140606228260174 -3.520628070758508e-15 1.2509999004588213e-15
-0.04798603154365721 0.020391813735769843 0.0022770703795157716 -0.0045308524783210045 -6.273478373071406e-15 1.3965879234328904e-17
-0.0524205360516163 -0.004000190060925256 0.0021380912539563455 5.847763718967963e-06 -5.426150658351461e-15 -1.852311977846438e-15
-0.0480361703969053 0.02038747765419973 0.002335174825023984 0.004543290515274926 -6.466608661308965e-15 1.483161466905858e-15
-0.041331302280563614 0.01344333709975741 0.0026912378102431924 0.002128850443210241 -1.1157714292428511e-14 1.851505602480652e-15
-0.03637085677321486 0.012207717032667566 0.003036522318325442 0.0020258001555209532 -1.2603186181313342e-14 7.156411964762133e-16
-0.031062121655268494 0.01001089660122315 0.0032201837817655626 0.0018173871881582843 -1.0310964254178594e-14 8.31217148063168e-16
-0.025824781001595333 0.008151974738908106 0.003206634355650466 0.0017018922298876146 -4.160212484834863e-15 3.9916258232769453e-16
-0.020676248299793372 0.006349516218888701 0.0030192971179869095 0.0015964330794389604 4.242937110595507e-15 1.5279932267381335e-15
-0.015417565781547859 0.00460464149153341 0.0027008429719458417 0.0015538082650614804 9.349529343002233e-15 6.691560283308973e-17
-0.009746955513669749 0.002787674953690936 0.002293171873751118 0.0015720469475759842 1.25583747502718e-14 3.995488293516425e-16
-0.004421969711989321 0.000708363823661163 0.0018666696338144693 0.0014536819857533531 1.019981489677399e-14 -6.184018141314196e-17
-0.002076428510336859 -0.00046521035879587027 0.0018928103694131615 0.0009242400790201632 7.161019823995196e-15 -3.598087539719019e-15
0.00890813171768451 -0.014186963240947231 1.4399560103323106e-19 -0.00046680883290080885 -0.0017123654307946972 -0.00014858997344917763
0.009367973968864554 8.658283148077784e-05 -0.0009511520010686545 -0.0032119494780362993 -0.002334588057809882 0.00017815513868260806
0.011724762988231363 -0.003790351507289389 -0.0018166531586582884 -0.0012708946334899333 -0.0021971852103797903 -0.00017208986849806041
0.016158385005564418 -0.004812187272117915 -0.0026210503264529595 -0.001452241700227539 -0.0018366801713731423 -0.0001985738158289053
0.021270659960125785 -0.006541374928849706 -0.0032418289780463535 -0.0015217744306797447 -0.0011810468483469795 -0.0002740270380062629
0.02638723135640608 -0.008217087602230702 -0.0036775823384213825 -0.0015978542125777487 -0.00035995114681562347 -0.0003520662856679157
0.03149082901731356 -0.009979243848002665 -0.0038984181323800295 -0.0017004788339799108 0.0005680894741093963 -0.0004251674070852185
0.03683508673185099 -0.011870480503513336 -0.0038839122349601488 -0.0018957927488654968 0.0014546593899678801 -0.00045805213262320026
0.042820246366935655 -0.014085374859139682 -0.003643637257880639 -0.0021283801609116113 0.001950221827737845 -0.0003858769248998288
0.048839103629554695 -0.016672599843416534 -0.003280064460970952 -0.001787932241573934 0.0015137132859604253 -0.00016711918086678614
0.05165110263757914 -0.01835370148244916 -0.003069758103755379 4.136685559135166e-06 -1.955139876211878e-06 1.835118212370937e-05
0.04882527529431761 -0.016667136886818652 -0.003282225722089969 0.0017964581727321048 -0.0015153748693016642 -0.00016474650836059487
0.04279047667949487 -0.014073025650916228 -0.003649519580963225 0.002137687691256776 -0.0019448893831658179 -0.0003811599237992018
0.036784776497618014 -0.011848126611895715 -0.0038969589523682796 0.0019065367636176952 -0.001436497680106276 -0.00045123016717883127
0.03141190419516346 -0.009941518962990281 -0.003924597901043523 0.001713377638675239 -0.0005280008248484089 -0.00041694652306583204
0.02626688999657086 -0.008155287287058308 -0.0037259311950549943 0.001614366706637469 0.00043838295778139745 -0.00034496750090251554
0.02108754548103797 -0.006442451145220793 -0.0033260397159316033 0.001541017818555619 0.0013291056469089588 -0.0002698815792395628
0.01588285604283799 -0.0046574788452383754 -0.002755608774231308 0.001487503922585678 0.002089953330362289 -0.00021566861342032245
0.011224939740417031 -0.0035350824275077776 -0.002041006222571754 0.0013212302163395234 0.0025880148963155175 -0.0001580956256286337
0.008070973319839955 0.0005099420381643304 -0.0012099596385487892 0.0031388505425084564 0.002355813810252822 -0.00012724863901062805
0.006984037836568258 -0.013486177724101139 -0.0010620622835761137 0.004031512635524416 0.0020824400462237974 0.0012437147399778081
0.003933130445837002 -0.01222812243342379 -0.00014019292180482778 -0.0007962671055511466 -0.0009065943501039604 0.00044378057377845477
0.004565587877125066 0.00015991872195664138 -0.0004360894727205949 -0.0036452248589199853 -0.0010990151630935383 0.0003733314583492302
0.007256948538118689 -0.00276299453402528 -0.001134162878010893 -0.0032870250986458153 -0.0013757425220635754 -4.130146739926741e-05
0.010940649503155094 -0.0039310460693873835 -0.001706604616620345 -0.003622787612935893 -0.0011502079490425766 -0.00010436315605221271
0.014282605540563254 -0.0052639188905861545 -0.0021504205513120443 -0.0038295137703134715 -0.0007286077247961775 -0.00015246568334178218
0.017692699714193776 -0.006617135952988007 -0.002447148870430727 -0.003965767231293769 -0.00019479455794310438 -0.00017621516083924187
0.021091050388904638 -0.00802164376261353 -0.002592404617118211 -0.004188310017610672 0.0003879443901666087 -0.00015361305463320002
0.024607569914264535 -0.00949471844969206 -0.0025803353123961042 -0.004648941712689846 0.0009259771377211708 -2.7643536738125217e-05
0.028423766297656625 -0.011215669971827083 -0.0024245196917712653 -0.0053206459316343805 0.0012187760294710647 0.00029288545588201194
0.032143673229214596 -0.013563423050585525 -0.002183562936462564 -0.004662818748825258 0.0009505238551636916 0.0008291168629177909
0.033854364142265864 -0.0156790462003395 -0.0020295299849641887 8.023139785126678e-06 1.755410092639648e-05 0.0012118598976574256
0.03212671035237014 -0.013559044289862297 -0.0021779899303023833 0.0046795995825148875 -0.0009120927594069916 0.0008296802327521147
0.02838794825155905 -0.011205602017726829 -0.0024145892114905243 0.005339755601408097 -0.001170242425468359 0.0002934267079950671
0.024548942093651265 -0.009476106304179142 -0.0025688716564140394 0.004672398611386906 -0.0008599137412510143 -2.86395930554312e-05
0.021003199748099267 -0.007989585320458166 -0.002584557943827516 0.004218893743709894 -0.00029506480233486374 -0.00015936250109467156
0.0175655720889493 -0.006563618135983362 -0.002451587734882393 0.004007425507017135 0.0003286385843691544 -0.0001929610241640826
0.01410187846688808 -0.0051766444837973635 -0.002179936703898746 0.0038867232849070913 0.0009245612479279135 -0.00019016384425875611
0.010673571392183149 -0.0037935407458857457 -0.001782354580966846 0.0037116132493011313 0.0014396598354232037 -0.00018000712281845182
0.00682578445570745 -0.002528112314486406 -0.001275290877786799 0.0034585073038119938 0.0017111044661118873 -0.00015910109664374212
0.004184056286264197 0.00037198197493434106 -0.0007179208134309372 0.003962641785361942 0.0012301729468397668 4.6130744898676115e-05
0.0037098427973793523 -0.01170262273589003 -0.0008037856161501379 0.0029944433081857138 0.0008044471024454256 0.0016087882503768422
0.0020227399885169067 -0.008580216529605065 0.00025240082875656696 -0.005160716567204185 -0.00031806716352645394 0.001529993654512091
0.00196370835868656 0.00011301732439975129 1.9690187954264243e-05 -0.00634478411561122 -0.00040014515626413436 0.0005642813629698215
0.0032065591403028044 -0.0009524054417016976 -0.00043887910511330005 -0.005914421458562125 -0.0005598344771570577 0.00014380406279381543
0.005471734107431556 -0.0020444429201286938 -0.0008119092674933998 -0.006390787383187217 -0.00046216258298520656 2.0589579325161094e-06
0.007271936831830317 -0.002701072762148906 -0.001071021955985733 -0.006638550665104943 -0.0002248394508312251 -1.753731812051137e-05
0.008944700339341296 -0.003374209747474805 -0.0012274327815290991 -0.006873987128626119 5.647693946099342e-05 2.5665229373511483e-05
0.010588765645518583 -0.0040637658904124395 -0.0012876443143126312 -0.007227549143870265 0.0003481684284232424 0.00016728800809155824
0.012186254522075413 -0.004683673858931562 -0.00125718316176987 -0.007915680213048249 0.0006197993600855457 0.00048288482743166083
0.013990641732172923 -0.00539829726366419 -0.0011431134427638565 -0.009111117158809415 0.0008058185217023557 0.001085566126531421
0.01636264807047633 -0.007503112023221719 -0.000950579984239503 -0.008454141308826909 0.0006919880797602764 0.0019902936868111364
0.017714703038178473 -0.01112024201048735 -0.0007805946753074089 1.2945774107004892e-05 3.670783954063203e-05 0.002644246889793345
0.01634287836789805 -0.007500966005121421 -0.0009373770935982912 0.008481256436224615 -0.0006143907664104024 0.0019891020111595264
0.013949502049833447 -0.005392929298410311 -0.001117621811387754 0.009142122994852111 -0.0007157421896241661 0.0010819626605944965
0.012120635665858586 -0.004672767255474996 -0.0012216934608085678 0.007953978317248799 -0.0005090841848819851 0.00047387510178476065
0.01049405990543495 -0.004043377943254044 -0.001246784470766169 0.007277983187215066 -0.00020851451365163048 0.00014681625388463554
0.008814596179360515 -0.0033376502317129506 -0.0011895696443529932 0.006943533487624763 0.00012140832356995546 -1.716636573088403e-05
0.007097178607813586 -0.002638243751135545 -0.0010503008587286527 0.0067372815063662505 0.00045335290160880874 -0.00010129503327004854
0.005232509948108022 -0.001938161241178679 -0.0008299869693106683 0.0065416362523878415 0.0007495275655168622 -0.00014311056372992822
0.002959349415074852 -0.0008020111285575974 -0.0005277223797313002 0.006186686682932091 0.0008470512144481942 -0.00011647640701292731
0.001852937656928074 8.041375101922922e-05 -0.00021454632326242226 0.0068192819214320174 0.00048185762277147163 0.0003413223816113822
0.0020170737114920158 -0.008250883779957389 -0.00024881239388528615 0.005646514710572263 0.00021710639081233535 0.00236652565245325
0.0006003257644720652 -0.005420620961661648 0.0007814708638985466 -0.005560151503078575 3.787112735407729e-05 0.0019617861141618263
-6.55213894778268e-06 -2.5730094370231376e-07 0.000520743245546033 -0.007437592407732199 0.00012172927692977021 0.0006627802688305178
-0.00035362033657962953 0.0004043477594976043 0.0002545251130744543 -0.007378785331626305 0.0001742643302980234 0.00019843103862053605
6.408935073395111e-05 -5.037574966995585e-05 8.515753289013498e-05 -0.0073515003064901175 0.000223650714370892 3.846849516051343e-05
0.00021041877714208726 -0.00011184446073832693 1.1698690388065907e-05 -0.007569463270872796 0.00029330518657791897 1.1883690337693434e-05
0.00016592581032251886 -7.66129804162615e-05 2.2251807863385682e-06 -0.007837042528206589 0.0003448132652464115 7.556385403374591e-05
5.734216362555262e-05 -5.5798278089526704e-05 3.526733327659691e-05 -0.008243860354694932 0.0003724601049550219 0.00025339228734114194
-0.00024719947560096635 0.00013871328566989973 9.80231192740187e-05 -0.008830921039692555 0.00040847011972706894 0.0006177180910563201
-0.00041812124160799894 0.0005116696331840928 0.0001876110483583385 -0.010123065006676424 0.0005118687641650073 0.001281906983095947
0.0009588241031618629 -0.0013975370801278875 0.0003499220132262055 -0.010572728141749838 0.0005435758084699807 0.002313012672675975
0.002272275551407392 -0.007994525167647802 0.0005807056601275719 1.467082427558817e-05 5.580659267882445e-05 0.0031557563154322884
0.0009363415259668861 -0.0013977109496125294 0.0003707692926509693 0.01060345981829147 -0.0004270039586565839 0.0023112874251598136
-0.00046437051721600893 0.0005121527981855577 0.00022868655239114799 0.010158212258607127 -0.000380738337258767 0.0012770326138532163
-0.00031945268557487483 0.000141614349786641 0.0001575327715711183 0.008874327542339095 -0.00025420833303003813 0.0006062203720640215
-4.3511853275172494e-05 -4.7491650579387295e-05 0.00010906990599329592 0.008301040252949534 -0.00018842384177743176 0.0002283831352662413
3.418459182202288e-05 -5.788417500825551e-05 8.193265765186844e-05 0.007916444834984998 -0.00012712537660771985 2.424370174627943e-05
4.4489922009437454e-05 -7.404110754160848e-05 8.20654833092335e-05 0.007684608374038316 -4.1644223830514524e-05 -8.643679526828899e-05
-0.00012509906566220605 1.8782577874302122e-05 0.00012119713862639399 0.00752678770854561 5.025079472506676e-05 -0.0001386179133859187
-0.0004922899490234977 0.0004566403117722947 0.00021661757100945186 0.007655678160465575 5.24419956965027e-05 -7.851349662899795e-05
-2.8381669296727556e-05 -5.6644711254187865e-05 0.0003433598460031601 0.00766861828951081 -7.394085660519417e-05 0.0005004279578125092
0.0006398098964129788 -0.005148973307656674 0.00039325173601628005 0.005657703083477845 -0.00011744761589621352 0.002505785465941308
-0.000664631929184378 -0.0028437946981010134 0.001327481212786392 -0.004436207641005986 0.00033752415319619945 0.00184352155793957
-0.0017674624689478276 0.00015158073584910288 0.0010420866538415467 -0.006515563357742597 0.0006025809867529899 0.0005659787166907177
-0.0036572610164851186 0.0014638046860768034 0.0009445420592854891 -0.006873184060078991 0.0008829687435576529 0.0001691491348403187
-0.005212025759342142 0.0018795700854930778 0.0009783298826530403 -0.006539292719839106 0.0009039228045072622 1.927266350931772e-05
-0.006853196789563068 0.002500292030687837 0.0010910366752872882 -0.006622429004995895 0.0008146262951509559 -1.8342616530192006e-05
-0.008632855803339707 0.0032230443602770395 0.0012298725093588753 -0.006874050339378949 0.0006368354956682782 2.6036175796540407e-05
-0.010447646932392253 0.003977004345918079 0.0013574971930507673 -0.007215301873347971 0.00040167068254607827 0.00016929644474637462
-0.012511624722121143 0.004802146878833817 0.0014526385150465026 -0.007660617928110038 0.00018710433961637883 0.0004632002286291399
-0.014797230052701144 0.006285339768075958 0.0015106528697954704 -0.00827690086879093 0.00016350539305933382 0.0009965804724607085
-0.014599888037128306 0.00564246784124731 0.0016000958177761516 -0.010981672796969853 0.0003425430313047627 0.001942177341137585
-0.013278677524766842 -0.006107232523582436 0.0019145228475780844 1.2989763854146695e-05 7.528079250199858e-05 0.0029152330837664327
-0.01462523230800893 0.005639971765564059 0.0016287308481163837 0.011008878105721147 -0.00018619587535725302 0.0019411392195007719
-0.014848915943483754 0.006280929119622301 0.00156762172066524 0.008307993417978516 9.637853171668987e-06 0.000993292056920483
-0.012591085483473409 0.004797042880475901 0.001536693888934738 0.007698956026998197 1.1937453680566936e-05 0.00045470785430099333
-0.010555479850287614 0.003973207920390882 0.001465045082871545 0.0072657073646212374 -0.00017154141133276737 0.00014967292682353347
-0.00876731558490421 0.0032237742132810825 0.001352616566422434 0.006944407934111788 -0.0003772849220068395 -1.579372649970326e-05
-0.007007133771555938 0.0025119698146639324 0.0012125486686558491 0.006726124828987191 -0.0005380061835779181 -0.00010209012457593554
-0.005358947285443152 0.001903697888808316 0.0010699045913131332 0.006697629484740362 -0.0006427547971665278 -0.000135847203356698
-0.003739742614824964 0.0014649440268558764 0.0009613957075749046 0.0070652516378733815 -0.0007063728285021174 -5.57900024422958e-05
-0.0017609689332608795 0.00011645724866338848 0.0009253281056475811 0.006600690491510482 -0.0005784537160123692 0.0004459436926183779
-0.0006196118506336096 -0.002652482953402193 0.001034252915621094 0.0044077003759101325 -0.0004022111793642441 0.002195099809722506
-0.0017369695431826392 -0.0011785218859993842 0.001828479693711271 -0.0023969926610505204 0.0007157438856048964 0.0011149501998711253
-0.003389283456471033 0.0004986640230280316 0.0015508858245056054 -0.003728102616695853 0.001152953856611622 0.00024621593226419367
-0.006854012420558212 0.0024091867023149725 0.001625720157432173 -0.004053644320587955 0.0016247308935466488 3.311893705300443e-05
-0.010410415070797837 0.0037441259112091225 0.0018617991344188937 -0.0038018208591018812 0.0015882167416011424 -8.756191793631044e-05
-0.013899264045433115 0.005088143746618702 0.002159801523949904 -0.0038118927288790998 0.00132542420752902 -0.000150517834704916
-0.017404400529632387 0.00648856605366559 0.002443360391499823 -0.003964882777925508 0.0008993502361331867 -0.00017532200955847348
-0.020958852266335103 0.007939522039056734 0.0026605859443711672 -0.004178115720230398 0.0003732905491527162 -0.00015231682306004592
-0.024455388608751946 0.00950396710952313 0.0027742890368583116 -0.004360820358001369 -0.0001275087041858384 -4.814027153077518e-05
-0.02884413418769384 0.011051550279124672 0.0027808805930768002 -0.0048481935416677 -0.00039241982261192294 0.00017441408231615453
-0.030840276761947175 0.01459186115402322 0.002694242641406055 -0.006586156147662162 -0.00010766229118712139 0.0007728839840203244
-0.030157122967980645 -0.0047622162708055174 0.003027997405852404 8.116254261155717e-06 9.555694869949263e-05 0.0018745278503666898
-0.030868873781126262 0.014587130006607583 0.0027309317734136407 0.006603131834189593 0.0003055705031450345 0.0007737744905271909
-0.028902109961128714 0.011042422651585943 0.0028543315142354813 0.004867515477603227 0.0006099549166049083 0.00017561213544057798
-0.02454352926437299 0.009491137277032824 0.002883923366273672 0.0043844760794304345 0.00037488833608479235 -4.811014558431812e-05
-0.021076151028197144 0.007924031655302505 0.0028035755878109974 0.004208943970405866 -9.14361473247608e-05 -0.00015652604375531912
-0.017544681955507006 0.006471986451862254 0.0026118447787515484 0.004007477201385862 -0.0005889426836627622 -0.00018988647601024587
-0.014045007267001065 0.005072302064437742 0.002336568329615677 0.003874905215505357 -0.0010108830998232184 -0.00018752822369855375
-0.01052664696108044 0.003725946817281085 0.002014863565956334 0.0038939495078657636 -0.0013228091748578974 -0.0001654108700466601
-0.00690111229658674 0.0023760689111590716 0.0017051716830457826 0.004147560480176929 -0.0014849812656838562 -8.17834676915656e-05
-0.0033679863594707217 0.00047453793360877766 0.0014981411788583415 0.0037487737308829396 -0.0011611568239105498 0.00018540587828279914
-0.0016904630733038132 -0.0010692992947108457 0.0016176409504871736 0.0023545530000714933 -0.0007929897572232121 0.0013114802333367246
-0.0023123004575305965 -0.0006195448658102538 0.002213077166420138 -0.0009343668176395906 0.0013790836488278722 0.0005722613631431924
-0.004691077962575195 0.0007008719361034522 0.002027035572945584 -0.0014925387053512118 0.001900351694659571 2.6091497501523178e-05
-0.010019767420701878 0.0028686328741137747 0.002301737662471976 -0.0015467808414046037 0.002428656723036772 -6.945862255660844e-05
-0.015648850565499 0.0046673411256927195 0.0027487355999761135 -0.0014895975432594316 0.0022684354762321805 -0.000170412712320151
-0.02092039156437245 0.006367697182360288 0.003235941989662684 -0.001510464609929246 0.0017923304377508442 -0.0002566321116049739
-0.02612291375536854 0.008109052617148877 0.0036630233909008005 -0.0015906862928054594 0.0010785559426936212 -0.00034140866853768763
-0.031379296467168236 0.009876926933698748 0.003961153277601345 -0.0016705173653395306 0.0002104481169054627 -0.0004172853097068845
-0.036577440433427255 0.011929458354710775 0.00408298430028354 -0.0018479152687840839 -0.0006468594923488835 -0.00047344397562899734
-0.041234331201539166 0.01300638973127951 0.0039970338194704955 -0.001954772454393743 -0.0012028462065081403 -0.0004475775338885305
-0.047616695923545026 0.019655690253984986 0.0036832668130679018 -0.004305232562661318 -0.0011487547146630745 -0.0002769246534839901
-0.05190214383120498 -0.004062924726996909 0.0035422673914741877 4.221115545137815e-06 0.00011692785905726634 0.0013132933512430137
-0.04764916043130661 0.019649874900198903 0.0037283776112932744 0.0043141102565519085 0.0013907170820776757 -0.0002749928540127464
-0.04129993350393638 0.01299497287258161 0.004087790072202717 0.0019650065932612787 0.0014682748036974696 -0.0004438647484047845
-0.03667659465738676 0.011912866007174578 0.004219675642985523 0.0018606140382947166 0.0009481013659160924 -0.00046838736125835994
-0.031509943547531075 0.009855768377246525 0.0041420804321070466 0.0016871412360548199 0.0001323388640828527 -0.0004119210985004132
-0.026275520551442586 0.008084007605663319 0.003881388927359494 0.001613304791342446 -0.0007016410587593716 -0.0003381399607902903
-0.02106830408129232 0.006338231964361564 0.0034747951071791294 0.0015426094829322672 -0.0014142287176901961 -0.000260904584561078
-0.015743638987143767 0.00462878284851838 0.0029739559212182396 0.0015342850693257498 -0.0019645972283546926 -0.00019158235548984417
-0.010025364864624967 0.002818410447801143 0.00245722917316935 0.00159331899526357 -0.002309562575852762 -0.00010628436134821275
-0.004638319621279086 0.0006760663570482938 0.0020445994220338218 0.0015099677784180382 -0.0019848386215822267 8.589788842202438e-06
-0.002249172355674216 -0.0005488794856947819 0.0020678700043600356 0.0009214420109685101 -0.0015507808765284096 0.0006899582713149094
0.0064167234476203 -0.016405496341453902 -6.742382260144231e-19 -0.007428656412330365 -0.003963133337795901 -0.0014019292180531863
0.00813430213314612 0.0008211335563852259 -0.0010180132095983518 -0.003320910229154496 -0.004276282421413885 0.00043940861176618097
0.011898927120443869 -0.003642959484231065 -0.0023056925175727874 -0.0011867702076088877 -0.004011027961838001 -0.00010978440027335043
0.016597925959516438 -0.004559632224070955 -0.0032801002166385003 -0.0012899815017604998 -0.003564165571092624 7.508945817505307e-05
0.021999183699608967 -0.006266503616442257 -0.004230503590195945 -0.0012811490872762113 -0.002720301353389441 7.70601715011745e-06
0.02745291710988048 -0.0078600202202355 -0.005093654104655929 -0.0013138856911660175 -0.0016270893535029218 -5.2421129720822115e-06
0.03278986637223182 -0.009475644873234584 -0.00583824249738611 -0.0013442942855038495 -0.00025298459719726233 -2.4599390868110982e-05
0.03798479687395234 -0.0110785524505116 -0.006409668377502419 -0.0014158558523313482 0.0012647640470081697 -1.9493197095591717e-06
0.04302661676160578 -0.012720971605183538 -0.0067431398707096715 -0.001487677544994698 0.002445697846253022 0.00015963688156393497
0.04741093666361313 -0.014402849153754737 -0.00681770443540592 -0.0011978688365467274 0.0022347022675244512 0.0006132122621265012
0.04931871027029978 -0.015450811371436593 -0.006778859275804103 4.032245621333932e-06 -2.115643066152867e-05 0.0010882434796282998
0.04742279277289207 -0.014405769547932643 -0.0068237851317695915 0.0012058704292764494 -0.0022746354751532897 0.0006160036907464142
0.04305207955454298 -0.01272700808494212 -0.0067565594285418085 0.001495383632591686 -0.002478136869305037 0.00016512104382087605
0.03802804373507917 -0.011088204347780573 -0.00643324649515456 0.0014226538637080745 -0.001283369813320431 5.6956815003198665e-06
0.032859248049270075 -0.009489995655495643 -0.005876959193127041 0.0013490496137498846 0.00025799075801399623 -1.5504290101250103e-05
0.027563827853324858 -0.007881442259649252 -0.005156134479964572 0.0013141463075665983 0.0016705582982817703 4.80431877254325e-07
0.022180745752621092 -0.006299692174904308 -0.0043296356497943495 0.0012760993837225027 0.0028354523263464065 1.574771745310094e-05
0.016895291592583888 -0.0046127593295609386 -0.003442344048244696 0.0012652598732121074 0.003762559885003913 2.9123144582112096e-05
0.012446720891145936 -0.0037475262509659825 -0.0025354058954359555 0.001140897678316068 0.004529200863717031 2.1678506099655028e-05
0.009362381285051909 0.0005964468145164687 -0.0014382896096763857 0.003293063927814846 0.003826825876674033 -0.0005183500074250073
0.008145511566919936 -0.016688336078086445 0.000614229281158517 0.00438942970332468 0.0032329543100058644 0.002582766674255188
0.003841146736071282 -0.014442934943640476 0.0007651444836418042 -0.004767169299458022 -0.0006674468060115432 0.00013136871720524076
0.004265972732657844 0.0004657414421506923 -0.0005376831590301753 -0.004141544275337815 -0.0014379938154743036 0.0003993440505209868
0.007028859708590983 -0.0024973190818307583 -0.0014625359003183624 -0.003260742357761465 -0.002446389057649169 -2.6219150262847325e-05
0.011091030092250095 -0.0036674390303577174 -0.002231407772345191 -0.003385746578391544 -0.0020514827885231286 3.531334863196262e-05
0.01464887431854467 -0.004966849738870629 -0.0029037677654628943 -0.003486732469788521 -0.0015287201436520422 -5.550993405544612e-06
0.018284562832056466 -0.0062475021011442625 -0.0035132551261222132 -0.003505924675498382 -0.0008330903596041306 -6.804896066692344e-06
0.021835256564784408 -0.007525122417912272 -0.0040306824057550214 -0.003536097602410803 -1.6394557686786767e-06 3.345953990711309e-05
0.0252586931733331 -0.008775710023664276 -0.004425668044806846 -0.0036304831250274167 0.0008914993266387262 0.00019211750877971858
0.028505856012670448 -0.010052243663938415 -0.004660938112014019 -0.0037639896397808274 0.0015830409409381733 0.000652198721609849
0.031260516147439826 -0.01156140067818426 -0.004725901942043573 -0.0030883600270894384 0.0014589584211882418 0.0016560316200110088
0.03244552522553414 -0.012894876946925225 -0.004707155081030653 5.837023748736625e-06 8.150920610436621e-06 0.002655790657469378
0.031272141797377216 -0.011564986859391273 -0.004728326900334622 0.0030998547064719577 -0.0014389470396171345 0.0016566325323800748
0.02853067402357884 -0.010059586180205669 -0.004666984226584745 0.003774714515950864 -0.001551767892817674 0.0006527354030978142
0.025300350578484013 -0.008787213161505063 -0.004438032215769444 0.003639079690170834 -0.0008407942414832838 0.00019087689850875365
0.02190070864961343 -0.007541617176566829 -0.004054305126775777 0.0035398026327470556 8.113885805063801e-05 2.7008943262728796e-05
0.01838690183687054 -0.006270901035101039 -0.0035563015001859612 0.0034998375894221847 0.0009548307720378877 -2.5559684874266095e-05
0.01481077059796491 -0.005001065196115482 -0.00298051909855914 0.0034642500477948305 0.0017074408837572117 -4.472879636359661e-05
0.011360845708834152 -0.0037187320128849086 -0.0023597975827543216 0.0033292431738046425 0.002329107369675684 -5.341036908861104e-05
0.007498238505699228 -0.002599185217858859 -0.0016821481320568206 0.003116382288067941 0.0027959155329314316 -0.0001059927606987235
0.00473615354343175 0.0004073959913012424 -0.0007818940644619196 0.0037971710605475078 0.001530714909786595 -0.00029073665728026867
0.0041836629354365835 -0.014575307535360538 0.0007808614447010804 0.0028296992432498835 0.00045776750168269374 0.002724539621230767
0.0021295529021243213 -0.010431989438196598 0.0010835965919172314 -0.006291861927678469 0.00010583361586392579 0.0026276482805483187
0.0018823500260597345 -0.00013758027917722582 5.812778377633904e-05 -0.007192457271199906 -0.0003287084165290227 0.0003949093634737074
0.0029630850088288364 -0.0006460423475423165 -0.0006104394588127281 -0.005947962156455514 -0.000987177773107662 0.00012041134140286364
0.005348707862169634 -0.0017958887871619563 -0.0010768803136627242 -0.006116798195167019 -0.0008384514432391642 -1.6704868758147359e-06
0.007309283893002484 -0.002448107302229925 -0.0014488511686323042 -0.006183090854759427 -0.0005313970050332164 1.3051200436882723e-06
0.009114844713001311 -0.0030833887212370725 -0.0017666070404668732 -0.006207270417773394 -0.00017929943738272897 3.991396061284178e-05
0.010874376070792826 -0.0037092112037484084 -0.0020282541196144526 -0.0062221383528118035 0.00022764650547903062 0.0001756555908025496
0.012506558425764754 -0.004264964554514813 -0.00222026715221702 -0.006289742349843964 0.00068978469342913 0.0005154556775528568
0.014075404832193397 -0.004811990784695309 -0.00232885241963208 -0.0065083191257659595 0.0011961198171706344 0.0013135889106816896
0.015770997079263032 -0.006129775280017916 -0.002340939254878538 -0.005629237569210409 0.0013293214459115788 0.0029732238430993773
0.016675798443997233 -0.008476765070021442 -0.002298543496085645 8.56183612280256e-06 3.414663063339015e-05 0.004892671169381548
0.015782223435645476 -0.006134660697833495 -0.0023395999788716937 0.00564603100493008 -0.0012562649091706552 0.0029718328065420096
0.01409906973337257 -0.004821860087398704 -0.0023272127341272485 0.006523734165904913 -0.001108883383036642 0.001309590608601516
0.01254536830410093 -0.004279987086892988 -0.0022207250717178103 0.0063014538565508635 -0.0005793520546790619 0.0005058923774652685
0.010933417785958629 -0.003729646421623186 -0.002035229459514538 0.006225357473400774 -8.56462238708463e-05 0.0001544117675606754
0.00920351643277776 -0.003110151881276828 -0.0017877948974153774 0.006193539568101354 0.00036020497952166065 -3.6099696602093846e-06
0.007445477669575271 -0.002483038466579515 -0.0014966970256193256 0.006138914966748748 0.0007587862585422165 -8.489128435653959e-05
0.005569340773458663 -0.001845291219643214 -0.001171449248361352 0.006016237286448953 0.0011207535007881119 -0.00014488735956281695
0.0032446840842567507 -0.0007046846849553007 -0.0007738610795148137 0.005712716337570619 0.001272835661459514 -0.00016742229251307498
0.002089937919356185 -2.8183338768941215e-06 -0.0001325361029374211 0.0067170525090018 0.00038704757983291243 0.0001248437049943179
0.0022569419971146592 -0.01042978421719259 0.0009762384695420073 0.005746794944086696 -0.0002365236501432637 0.003682224523473339
0.0007218395788407957 -0.006578968246449274 0.0012594910162223413 -0.005949078412505701 0.0003416929341709529 0.0028809517536559064
-3.399061628845814e-05 -0.0003653941088312986 0.0006100465153285825 -0.007901908056649648 0.00032630628319544057 0.0007083711152277114
-0.0006066745325482642 0.000555931503201976 0.0002478553689302178 -0.007513404823390417 0.00020414681825397087 0.00017872863565745705
-0.00025104583784685047 0.00010553978578517893 0.00010959368935391009 -0.007097018452167153 0.00028538279144212965 4.421355127458824e-05
-6.407452304232433e-05 -1.0216721992261202e-05 6.008971986930142e-05 -0.007096009589360353 0.00038334160515476683 3.788716206140133e-05
-5.1107645092570904e-05 2.477077256769531e-07 4.6699782537434626e-05 -0.007111774223160524 0.00043504485141889095 0.00011230473547965442
-7.124702288599642e-05 -3.887705911619506e-06 5.4106572581178475e-05 -0.0071284634674243655 0.00047069140821930967 0.00029244424298295157
-0.00020831132865401663 8.655368171513806e-05 7.73486606443311e-05 -0.0070793426427056 0.0005621889610042417 0.0006780725977444444
-0.0002965066878743398 0.00031212449580426694 0.00010515480505667505 -0.00730585776934596 0.0009526518455240247 0.0015059255574371127
0.000570492187617713 -0.0008465665142406571 0.0001464490439531309 -0.007150750567275689 0.0014725673312898277 0.003314783189585843
0.0014098749780609653 -0.00529683444669429 0.0002241267476016871 9.309913269471985e-06 5.88230404574743e-05 0.0062818217915372575
0.0005812235935098353 -0.0008527193530980228 0.0001516293326568494 0.007168999385059024 -0.001349191571711927 0.003312814310859408
-0.0002742800306524227 0.00029982152372578347 0.00011467975158606027 0.0073225582192238785 -0.0008125001083329236 0.0015005948451633313
-0.00017299421479449918 6.82285244303025e-05 8.924007779641848e-05 0.00709187696585135 -0.00039565161102338126 0.0006659664075362497
-2.004361052485406e-05 -2.7844907662461237e-05 6.457747492607602e-05 0.007131386090034988 -0.0002712123549746208 0.0002667724096090659
2.1202866512006805e-05 -2.883116633924487e-05 4.905689777807531e-05 0.0070949334498261515 -0.00020128749594667633 6.013268484786891e-05
4.138868599277484e-05 -4.4728847616746766e-05 4.301933800693882e-05 0.007042201036871058 -0.00012093532831029107 -6.182166383105729e-05
-0.00010255154460674378 6.408183827049554e-05 5.534064573633673e-05 0.006976307873119328 -1.1195790663429582e-05 -0.0001362634918994201
-0.00045545732442395215 0.0005554185769684661 0.00014032274453687398 0.0072712661421073035 9.739935080936821e-06 -0.00011265954668538207
6.301174997035274e-05 -0.00022197885298919258 0.0004666593023737054 0.00764810531907198 -0.0003084206490117833 0.0005326151254488921
0.0007840589776095753 -0.006597931318127966 0.0011380263448205975 0.005772605358491485 -0.0004472451494698924 0.003511346655036311
-0.0005553329129723012 -0.0034148693787353717 0.0014212248697066056 -0.004504284805505833 0.0005764216749374587 0.0024916820109869573
-0.0017867342373064875 -0.0001372091125661574 0.0011157900912422882 -0.006694013448617334 0.0009306690890119957 0.000722357137818871
-0.003940494494552024 0.0014898459152771976 0.0010874719325850676 -0.0069199538258217595 0.001315247505053999 0.0001855799720521274
-0.00569680949617926 0.001910957686809001 0.0012883110376117825 -0.006290708054205164 0.0014055458815358387 2.2738717760926532e-05
-0.007430606793898529 0.0024499552300789994 0.0015668950686581733 -0.006160523039011227 0.0013082384389170622 -8.208309569602988e-06
-0.009234570928644905 0.0030839327171865334 0.0018586725063215387 -0.006192828913088968 0.0010575332509130458 4.08929129145101e-05
-0.011003188579363159 0.003719988161180786 0.0021359836705603184 -0.006207624635675046 0.0007286613632483728 0.00019093747330536562
-0.012832022130530153 0.004343409548156235 0.0023767231623034123 -0.006152164006205648 0.00040617617717126053 0.000466024731390343
-0.014686654275976157 0.005376208087581811 0.002539117984613528 -0.00604895164032672 0.000507244248743449 0.0010532224752818316
-0.014714620779719315 0.0051044263400540045 0.002584899222638199 -0.007647499734384355 0.0015672451840865087 0.0024227876997185327
-0.013849751358501838 -0.0031699082806165733 0.0026609249423954016 8.76655853291228e-06 8.402658252187659e-05 0.006570228179086625
-0.014704364838363349 0.005096964277394307 0.0025939691408717147 0.007664755676445299 -0.0013924112257465815 0.0024216910667145554
-0.014665839818722994 0.005361394488710762 0.002556646428068241 0.006064991608728651 -0.0003127750962758032 0.001049815021138757
-0.012800186672891158 0.004321662695479908 0.0024011820900430164 0.006164779467905982 -0.00018170890197166025 0.00045734325354679996
-0.01095992596449381 0.0036923989963177535 0.0021642830712545655 0.0062120602533780565 -0.0004692307952399701 0.00017098494015714119
-0.009178972657860673 0.0030525519409215184 0.0018851027332073742 0.006179669714099618 -0.000768153992750133 -1.7570003251690132e-06
-0.007360453714372387 0.002416754218624543 0.0015815315414844369 0.006112852346243588 -0.0010090716706444161 -9.445472742320773e-05
-0.005616501251954974 0.0018842426199198602 0.001275852828352365 0.006180793853501408 -0.0011388728568881782 -0.00013853967592582244
-0.0038752797615274983 0.001509737408918578 0.0010322718018953637 0.006749963271631982 -0.001156383014593213 -5.0648591781215835e-05
-0.0017471481409085448 -3.6707580183186236e-05 0.0010200733103963105 0.006585009727808955 -0.0009365161122041048 0.0006014302250356969
-0.0005241398329285737 -0.003432011701065524 0.0013162927042298367 0.004463583608233918 -0.0006634111399415539 0.0029097471227227992
-0.0016341590344421284 -0.0013559641422515479 0.001648776889721602 -0.0023555180804983263 0.0010330100022810087 0.0016174370113300474
-0.003408042631740582 0.00033723038963381083 0.0015971291526581213 -0.0037425028200364155 0.0017219545701247366 0.000491616718993581
-0.007185368645396596 0.0023844911999781455 0.0018892122505485048 -0.003991971197119951 0.002542856512504213 0.00016945322276542537
-0.011078682751112078 0.003722310829915148 0.0024207373991143757 -0.003578991715012165 0.0026390243622952145 2.6801897360965784e-05
-0.014797932039688436 0.004986320026758731 0.0030157074438514463 -0.0034620991615331408 0.0023286108048599743 -1.2385040639452818e-05
-0.01842339754736599 0.006264092197049024 0.0036001935789911686 -0.003489759917924628 0.0017427347958218421 -6.967433069006799e-06
-0.021980208036276216 0.0075373602463961855 0.004137386284437493 -0.0035221806606490305 0.0009842668338202916 4.384928487323242e-05
-0.025312976383788533 0.008819005631897234 0.004586266730932321 -0.0034567935478764344 0.00021156457275172205 0.0001775386589333351
-0.02896849544344262 0.009955597165357525 0.004883006885112533 -0.0035658893076758783 -0.0004738491995967314 0.00027845930722015085
-0.030471781422962717 0.012629846861697228 0.0048376185036115345 -0.004830075453023785 0.0009890096074512964 0.0009054607724113817
-0.029889116676506632 -0.0014899094304955348 0.0047156461743873045 6.079765921395786e-06 0.00011161232672363148 0.004836519146585712
-0.030461877629002185 0.012620979385242476 0.004850593497487722 0.004842126599343181 -0.000757679447720413 0.0009065282475471399
-0.02894878883185876 0.009938058440650828 0.004908562038595063 0.0035773839719272773 0.0007285244503956269 0.00027993168443589736
-0.02528399935920723 0.008793452025801559 0.00462329815878438 0.003466519052537983 7.826942531975029e-05 0.0001777478943221202
-0.021943582608213646 0.007505485571670696 0.004183417758280339 0.003527353359943352 -0.0006550168743479529 3.934386957430514e-05
-0.01838279639143982 0.006229272026627089 0.0036503230747810295 0.003484726529669809 -0.001384421579483808 -2.313226727558706e-05
-0.014760772384661343 0.00495463291817422 0.0030611824689947484 0.0034356951056381557 -0.0019762393385163845 -5.406011681659788e-05
-0.011057109105889803 0.0037069280061348777 0.0024477170058064797 0.0035168610146352206 -0.002360470280732562 -6.102720887688631e-05
-0.007186642931649128 0.0024086828784539364 0.0018807703088326109 0.003908279223029491 -0.0024223709860414187 4.050419430993297e-05
-0.003412778586681411 0.0003976442400060371 0.001545742900003909 0.0037055183154451523 -0.0017601832911465331 0.0004285381319576172
-0.0016309093885519173 -0.001354194686141497 0.0015699097630231724 0.002346985394151313 -0.001131570819695497 0.0018566951758393273
-0.002195554488701016 -0.0006565206893647489 0.002000583540469584 -0.000902205029756734 0.0019749325837197943 0.0010482529608380907
-0.004703379327201424 0.0006036006730079434 0.0020783011305464507 -0.0014645568111248124 0.002966079016200748 0.00034177233712202936
-0.010426487612427517 0.0028415595914600337 0.0026277122653868314 -0.0014383106109861997 0.004127811778210621 0.0001839374199560592
-0.016543518505095275 0.004650317595462086 0.0034498791445457667 -0.0013041843023958025 0.004161885182104669 7.619690936618034e-05
-0.02218097551081795 0.0062813148925357914 0.004325457154982371 -0.001275137465270403 0.003578329750409919 3.791283470151331e-05
-0.027610515752776642 0.007892607835597459 0.005171722893716803 -0.0013048177023934219 0.0025762227168378816 1.229459765262894e-05
-0.03294757675387237 0.009470791203514427 0.005941945277221093 -0.0013214389875675255 0.001296117001796628 -6.996162380139607e-06
-0.038028362129391105 0.011181361043124958 0.006579006564437194 -0.0013813509164503422 -0.00011966324114301251 -3.52078499289704e-06
-0.04221992193601845 0.012023492993857297 0.006997214060610988 -0.001422118190892526 -0.0015772354530603173 -2.5738101966071766e-05
-0.04662648825798753 0.01689730637222718 0.00685216843883358 -0.0034473205934678042 -0.002352986151671251 -0.0005574821747703899
-0.04927660916403008 -0.0006190835755174486 0.005721501780730806 2.918570968526665e-06 0.00014359901429464848 0.005142699856216116
-0.046616791015257904 0.01688770873431738 0.006869012406758518 0.003453165209460652 0.002650093683144995 -0.0005554798302271221
-0.04220089972576887 0.012004526850659903 0.007030684532968172 0.0014278940165886496 0.0019029030295082284 -2.2077400772852715e-05
-0.038001201925241646 0.01115378790806033 0.006628319597390491 0.001386652524662134 0.0004883874944194051 9.294633444146118e-07
-0.03291524685576633 0.00943653748098933 0.006005008741764087 0.0013251974243077404 -0.0008790890207385442 -3.542897877377931e-06
-0.027579992497856014 0.00785572179073349 0.005243973770043217 0.0013047647335077094 -0.0021240913232113802 1.110145727788056e-05
-0.022167566317065433 0.006249938419698238 0.004398340670653727 0.001266478083243989 -0.003138291189808829 2.4708357741615e-05
-0.01657021020301554 0.004639412192048581 0.0035093414985303915 0.0012805073226800044 -0.0038307060481858196 3.976550543724241e-05
-0.010496077643434099 0.002867253278166521 0.0026549584182982487 0.0014037503288263809 -0.0040292268808256645 0.00012844021932104712
-0.004764904560021896 0.0006487277702398634 0.0020618429121512065 0.001447228902395504 -0.0030907114703321932 0.0003171389216847895
-0.0022324508205868046 -0.0006429391646573094 0.001952257747342664 0.0008880652654555468 -0.002180059297844041 0.0011930048983171523
0.006859846964073994 -0.025493317506696072 2.8528069663524835e-18 -0.014442323403609599 -0.005954087137454489 0.007502854862968869
0.008259488307866816 0.0026500806026972462 -0.0009556578238361278 -0.00641556181714093 -0.00619749913414184 0.0002551508810355677
0.01150921936359358 -0.0035943736196882114 -0.002520484167832565 -0.0030244697234379937 -0.006054526338965615 0.0021046679666731345
0.016185218593408914 -0.004222430332260073 -0.0035435780370889907 -0.0031188982585095594 -0.005387206783087885 0.002283644741027719
0.021970355790808905 -0.006073453464005674 -0.004686887688481613 -0.0029394763630988027 -0.004814211847670153 0.00313643058225332
0.027837361250261136 -0.007696846478729706 -0.005787177856925401 -0.002667045895605088 -0.0037812865904947356 0.0038676161899330154
0.03355992451823924 -0.009335993917431194 -0.006822213353598415 -0.002227811374303405 -0.0023584321661116498 0.004618942254080487
0.03894094568292485 -0.010908573621724456 -0.007727937133096531 -0.001623949836984772 -0.0005748379525338067 0.005357216457218564
0.04345597582101956 -0.01227419060355849 -0.008411773971297266 -0.0008452209995625333 0.001163782930288482 0.0061182773741655155
0.046330071434196915 -0.013068477650300437 -0.008788912000130069 -0.00015704665402445296 0.0016569077094440504 0.006936008965100552
0.047263769802718736 -0.01311358924730317 -0.008892752621906851 -1.9235462058820934e-05 -3.9829088742165323e-05 0.007493769937583343
0.04636529855216729 -0.013079700716289024 -0.008797210939785891 0.00011757700845672382 -0.0017358663111567277 0.0069379438170335496
0.04353320393882881 -0.012298733589642489 -0.00842967993470352 0.0008027564299837431 -0.0012404305470583442 0.006122112673119939
0.03907462143478093 -0.01095085942438182 -0.0077583566672903715 0.0015764235470674436 0.0005029974643939497 0.005363050579158866
0.033774095985003416 -0.00940306242162281 -0.0068700685697878315 0.002173320026605122 0.002295089214533272 0.004625986637520938
0.028167440731349157 -0.007799419972440788 -0.0058614514068936335 0.002602905842579435 0.0037345751792399943 0.0038786880758347134
0.022466388594673897 -0.006223857940261222 -0.004798539466571577 0.0028659618319358377 0.0047843339239209675 0.0031374908152467323
0.016914421073568348 -0.004438484901542061 -0.003729750180885233 0.0030148207142744964 0.005421669767594916 0.002342105170115489
0.012687340913876707 -0.003904452759019931 -0.002743598618260302 0.002898448181195891 0.005959724778129289 0.001910545623339185
0.010795175055748766 0.002219292287082541 -0.0016379568942273626 0.006656619447206111 0.007969093847733786 0.0014036058569909479
0.010439687810946499 -0.026903275996257556 0.0021472930427625164 0.008681143866910022 0.010438329439511186 0.0029100363754033876
0.0042136364339687175 -0.02213147567326715 0.0017809568162044085 -0.009269925126234677 -0.004919360276027793 0.004312948121818418
0.0038053003826933993 0.0017697309412391497 -0.0006249918438084294 -0.007680938408167099 -0.004119129430110441 0.001293645189681971
0.006075581394161186 -0.0022047015704005878 -0.0016300084357819557 -0.0063907312409428344 -0.0037373617933871926 0.0022677542960803814
0.010552238863526246 -0.0033866140407669493 -0.002520170898633879 -0.006472678490948808 -0.003304466700882491 0.002940768905230884
0.014328416123838509 -0.004778483081904672 -0.003335780738939719 -0.006327082078574911 -0.0028676116019593647 0.003901543161317283
0.018238016200044147 -0.006104033465960529 -0.004143781553474955 -0.005811520623094228 -0.0022597219143061916 0.0048596094543864815
0.022036944738922735 -0.00741149185103317 -0.004891810989732065 -0.005049472750351794 -0.0014139569036375407 0.005823174300639146
0.025608818926940113 -0.008687808126916486 -0.0055437019455527 -0.003937923457235359 -0.00037005198123739346 0.006817654946335865
0.028620274908435158 -0.009793300023986162 -0.006039371908369034 -0.002326119252402359 0.0006580809164054724 0.007949681176352507
0.030560566284839587 -0.010275412662515762 -0.006337059560711062 -0.0006122316015668912 0.0009814248004600926 0.009369748802632636
0.031202690149849673 -0.009901392939290841 -0.006449173133833982 -3.42961479663917e-05 -9.540759372192589e-06 0.010471163654217705
0.030597603155433674 -0.010287089695317657 -0.006343861451696936 0.0005414551923529367 -0.0009986066278392972 0.009369951837953418
0.02870054742219243 -0.009818629817224896 -0.006054309858047751 0.00224868081498336 -0.0006695014594860569 0.007949827900109618
0.025745251090065608 -0.008730868726282447 -0.00556966133783426 0.0038489810153628534 0.0003683116403981379 0.0068171949344379285
0.02225020510498145 -0.007478703416879594 -0.004933941357296491 0.004943631386808862 0.0014262791475204335 0.005820969826047655
0.01855808832140213 -0.006204906948432316 -0.004209863448004816 0.005682758894720506 0.002289006170388246 0.0048547855892323005
0.014794709112221548 -0.004924743571418693 -0.003440981985550921 0.006169115390855662 0.0029212675238315202 0.0038889877222945675
0.011225946470239405 -0.0035896765932327177 -0.002676540645825179 0.00625942753504094 0.0033591579028242015 0.0029382086300895932
0.0070424171975807005 -0.002485560288211288 -0.0019059238577684892 0.006061595059464344 0.0038919863739716168 0.002179453827144968
0.004678206971909487 0.0016578753070780492 -0.0008774058364609758 0.007244733454097426 0.004710456513727749 0.0018555391483942927
0.0048228645958520965 -0.023217433922624493 0.0022127469829921523 0.005800847401034122 0.005824736919058083 0.001751770712564485
0.0021727267655740623 -0.015399290229201371 0.0019474032844346947 -0.010883468877575702 -0.0029955241444874882 0.0014284450942215314
0.0012759162889714752 0.0003692957263265746 9.332183131958839e-05 -0.012476364857612084 -0.0023443108029147053 0.002010491864072645
0.0018879231341510042 -6.884428343766426e-05 -0.0007037720256320626 -0.010882313251521216 -0.0018473930291840982 0.0025891235446525653
0.004615392211877222 -0.0015273941865854826 -0.0012213895244308011 -0.01106774849899408 -0.0014981657916255664 0.003750684084479042
0.00684169581736013 -0.0022651722151236877 -0.001670053107151177 -0.010691855607682483 -0.0012252868059456324 0.004949967934846637
0.008851678426370257 -0.0029575549396389637 -0.0020952070853856846 -0.00986909569056248 -0.0009272652244854149 0.0062097639000032
0.01083185224671083 -0.0036280346074279634 -0.0024883814587937933 -0.008645690839744756 -0.0005273735357569469 0.007481055885400986
0.012744039382498911 -0.004331213504740612 -0.002828040124789044 -0.006867762410941653 5.128674911860369e-06 0.008822052032857443
0.014376881946078104 -0.004960725520579793 -0.0030947281704910815 -0.004124514749700763 0.0006820212220290677 0.010401121122665669
0.015215309343701711 -0.00473913730744992 -0.0032914237619848384 -0.0008901942393933731 0.0010424866659447575 0.012557067625072322
0.0153642883380829 -0.003138938701073869 -0.003419028310768549 -5.4805645812778256e-05 1.4663572764079212e-05 0.01458697000464876
0.015252882062732778 -0.004751539943289064 -0.0032965483516037334 0.0007769467993515126 -0.0010102641477213372 0.012555936222050519
0.014457547594336996 -0.004987276150017072 -0.0031061897114799323 0.004000144251903188 -0.0006412575139003895 0.010398519450118505
0.012878941450293611 -0.004375366164942184 -0.00284847765944112 0.00672406709368759 4.9330334013711136e-05 0.008817162886977519
0.011038075118112101 -0.0036949636955487023 -0.00252224255979516 0.00847318130416181 0.0005993266722379678 0.007472555872404705
0.009152568110663362 -0.003054804884966092 -0.0021497475274482995 0.009656595427314932 0.0010181657522393697 0.006194694388013207
0.007266312389276156 -0.002401474843027749 -0.0017559581467575848 0.010425419903317882 0.0013304960692860116 0.004927881048790266
0.005192951538364132 -0.0017091707478223046 -0.0013570585178008666 0.01071180040058222 0.0016066102768882294 0.003706711141707109
0.002488384359051953 -0.0002312011701388416 -0.0009118380016511818 0.010365062164792773 0.001997813466224851 0.0025988437034464664
0.0016770709803804104 0.0005856448240817609 -8.85804300397181e-05 0.011786849507189662 0.002567101719969328 0.0020413639766237554
0.0024348509398133254 -0.0160622341062927 0.002038696741863429 0.010287342667969674 0.0032870139979952737 0.0013652343559388406
0.0005838754315824795 -0.009234078412207126 0.0017391737992264898 -0.010064467278555563 -0.0013513103959447747 0.0005037327235254031
-0.0006658041341225593 -0.00019576494654287359 0.0006764228664672289 -0.013194102633543855 -0.0007656179406339841 0.0017459941104821257
-0.001672034417214168 0.0011675145809384947 0.00025049159810170145 -0.013247043121119304 -0.00012076418058652387 0.0026770173501305707
-0.0010932017206163355 0.0004496839730533279 0.00014278565763230786 -0.01264654731248321 0.00020073440227445078 0.003943976544229756
-0.0006340138477950636 0.00019099859465327465 0.00010310465960390477 -0.012126640682802692 0.0002958278361823168 0.00525399241558367
-0.0004278345417607786 0.0001342527936829245 7.990092535287117e-05 -0.011186778420014878 0.0003217602235627929 0.006589564159551328
-0.00023669385890741547 7.944461692919552e-05 6.436846008629513e-05 -0.00982086105962986 0.0003452883188563766 0.007954695066807635
7.936326069458023e-05 -5.6128592993176456e-05 5.422918322797073e-05 -0.007900560990781022 0.0004350827219110409 0.009376639614083653
0.00043357459628096486 -0.00031863265853552354 2.934751867521171e-05 -0.00475875672412246 0.0008422802663908721 0.011007539661161683
9.950894732724703e-05 0.0005793902406845132 -7.165310173499272e-05 -0.00029480917828016953 0.0013692157849187283 0.013347937190631091
-0.00037238831115559616 0.00446685736505059 -0.0002632503871009574 -6.153415734126493e-05 3.641533396634935e-05 0.016363924783119724
0.00013707368345568097 0.0005664989060043797 -7.500433851849742e-05 0.00016754690615857767 -0.0012925582310846643 0.013346392788366473
0.0005134798291038937 -0.00034595508819266384 2.1609938114273535e-05 0.0046186662265856925 -0.0007544608331147484 0.011004065047511086
0.00021084989450915564 -0.00010078543775666072 3.989946241565758e-05 0.007738204448821289 -0.0003299406941993298 0.009370355303610207
-4.0549390069135325e-05 1.3428412468298876e-05 3.977868931124824e-05 0.009625154202359315 -0.0002193470013417942 0.007943880469172413
-0.00015128251796566957 4.158745752277316e-05 3.948899639632745e-05 0.010943829534243575 -0.00017695718986339247 0.006571579652634257
-0.0002606858238591895 6.562519966077661e-05 3.8485283670464344e-05 0.011817298571359915 -0.00014364553391078372 0.00522422972005612
-0.0006466880412441628 0.0002976533026452364 4.098527965747477e-05 0.012242148665824095 -5.910441640455276e-05 0.003902718586246611
-0.0012941563088927467 0.0011243672344288618 0.0001056093880615221 0.01273677214368859 0.00023776645836882354 0.002654334890406458
-0.0004492753899310036 -1.1228946574484493e-05 0.0005443168180044092 0.012893578953738032 0.0008638038347163871 0.0017949011948070323
0.0007284785141267478 -0.009695156869020316 0.0017475062430018346 0.009968360316266613 0.001473355655050372 0.0007895303393314654
-0.0008192430891902617 -0.0044242576498298445 0.0015205294255649776 -0.007649048819772957 1.9838034342080133e-05 0.00039774699937243424
-0.0024289032165358817 3.997424258866126e-06 0.0011390323401862144 -0.01109558064056262 0.0007172904207932006 0.0013547443347314027
-0.004965823989966677 0.002073066651921339 0.0011729994262248116 -0.012189236934141411 0.001627265449003666 0.002474891777211987
-0.006595114950484723 0.002288347636505865 0.001496926725361111 -0.011360389394034456 0.0019302516631562127 0.0037156244136933225
-0.008098908440864605 0.002677763939627349 0.001875988343524105 -0.010701878624569885 0.001837890525811676 0.00496151037051138
-0.009715409515588717 0.0032305437511966377 0.002254300695172584 -0.009862708934967792 0.00157752546870819 0.006210844752806737
-0.01131286635243072 0.0037711651256783106 0.002616335108475373 -0.00866028984999252 0.0012415328452429141 0.00749452906462043
-0.012646049687415417 0.004286374474252111 0.0029398653754030848 -0.006949623899078955 0.0008421952561790658 0.008783669393709708
-0.01346650599765862 0.004332642589081193 0.0031627735870961 -0.004417289714448118 0.0007496576860808843 0.010159502972917244
-0.014965869840064625 0.005283475923459213 0.0031324551051806356 0.0011355046124761929 0.0015323465412629058 0.01206420193171154
-0.016186073236675334 0.013350578726379583 0.002745840044024852 -5.538705236950972e-05 5.864951505948374e-05 0.015997871635370534
-0.014928152517646214 0.005270070912423696 0.0031308726695715543 -0.0012501140225184384 -0.001410187351968677 0.0120631753610904
-0.01338705558630846 0.004304492828854818 0.003158770415768357 0.004290972560471838 -0.0006134280953965641 0.010157129524744334
-0.012517554112692699 0.004241090206708907 0.0029316824321966232 0.006803066873919492 -0.0006845186396015624 0.008779189028569768
-0.011126546982025342 0.0037059203302721834 0.0026011662245534308 0.008483527438943497 -0.001059188112276866 0.0074864904812946805
-0.009463882284549939 0.0031427956986306706 0.002228169137798996 0.009642463948799876 -0.0013756759978408289 0.006196711403371457
-0.007785295698299338 0.0025658547712799655 0.0018334484520284731 0.01041975949065005 -0.0016356251119663177 0.004937899348779661
-0.00626539231382486 0.0021758850719028363 0.0014311183408478685 0.010999785114249675 -0.0017633103276946179 0.003683607778681835
-0.004724460200234439 0.0020628782746314116 0.0010824491889600755 0.011839740460789366 -0.0015339064113783813 0.0024533534824763103
-0.00230697416667666 0.00011115009429154737 0.0010534645201929814 0.011012803718657777 -0.0006792153752493152 0.0014148081535350048
-0.0007402891528421468 -0.00468953483022146 0.0015067654342981207 0.007703730697836292 2.14812914767465e-05 0.0006650285760913268
-0.0019256397651180371 -0.0014503200268700868 0.0014592390826110929 -0.004235062896467763 0.0012247759109494645 0.0005828647738905924
-0.004002889026855684 0.0005418170715335399 0.001541778177654244 -0.0063926785726109775 0.0022337929285513947 0.0009725324319637417
-0.00814154454969803 0.0028799747987807343 0.0020224315260268556 -0.007322870462771792 0.0035623088929841594 0.0019445494888590876
-0.012031447565744141 0.004080633629590125 0.002766896371584488 -0.006809573054778851 0.0038476382626881395 0.002934171250982786
-0.015622015980372658 0.005214297021385132 0.0035424453980268207 -0.006338979864350415 0.0035313358598688194 0.0038982873647742528
-0.019117301980919748 0.00639080477515294 0.004299052612556187 -0.0058115883154696 0.0029401192695449876 0.004858661021594087
-0.022497358930212437 0.007554452476473732 0.005017310688538297 -0.005064676996142233 0.0021686744489719193 0.00582993476014215
-0.025709384508181492 0.00862812429594732 0.0056638214484748435 -0.004058014593110576 0.0012841832643395905 0.006815808985692181
-0.027774900452511166 0.009680824691122736 0.0061400632213368285 -0.0023546128570786145 1.3375020502002412e-05 0.007638689773191175
-0.030127229864488063 0.008847318902973958 0.006146782642126119 0.0011969036259713334 0.0005983247626958401 0.008728382137123921
-0.03196974467843612 0.023568936476852372 0.005250730120775501 -3.5042844606719735e-05 8.43468211592949e-05 0.011599883775097871
-0.03008842517647687 0.008833045646966605 0.006146866993199807 -0.0012693968266805093 -0.0004234560388366041 0.008728706362706999
-0.02769401319955075 0.009651156689741994 0.006139559626108234 0.0022748013941382185 0.00017931346438114675 0.007639168952881186
-0.025580984366347568 0.008581219357990928 0.005661340619816466 0.003965670995094645 -0.0010645547826524063 0.006816017587891594
-0.022316777549620283 0.007488792295777134 0.005010713184259306 0.004953848196159335 -0.0019186638062294998 0.005828981461187301
-0.018887061111451883 0.006306874336995772 0.004285597809991338 0.005674634550624012 -0.0026676839043443114 0.004854903501456403
-0.015364946452012503 0.005119349769765955 0.0035193019071261666 0.006164881304504645 -0.003265248813015721 0.0038896874821157342
-0.01180443349107198 0.004004515644265798 0.0027316690101568853 0.006598729468876655 -0.003645655564114921 0.0029209717311290207
-0.00801104354228651 0.002882491261405116 0.0019746234338296176 0.0071528525573502245 -0.003485312251499593 0.0019389030892258904
-0.003958862446743739 0.0005997025794493712 0.0014946958113657436 0.006391036002893167 -0.002248723460645138 0.0010151465610377002
-0.0019057086420434205 -0.001554732748637496 0.0014430355546064095 0.004290892712033899 -0.0012542438550969762 0.0007561593054495285
-0.002182034792685745 -0.0004913349599302576 0.0016657793710084792 -0.0020881665796602545 0.0024519798538546393 0.0007034734570757069
-0.004953235951391516 0.0008348992285915338 0.001927660225319938 -0.002994452968553801 0.00396666287513395 0.0008133855574542864
-0.011198399675491258 0.0032715045013581414 0.0027159195381343754 -0.0033666235387209806 0.005885815229594783 0.0016148752860685376
-0.017629489181977397 0.004987930556172323 0.0037906053315492146 -0.0032369972591411943 0.0061450366395489914 0.0024033781964354415
-0.02331676718970152 0.006501895083265827 0.004877605014143388 -0.0030100105473008574 0.0055390368837518605 0.003151037892205443
-0.028732007669401698 0.007992917061365035 0.005936298273799285 -0.0027004869731317056 0.004522024040035874 0.0038908328126959443
-0.03400383862758828 0.00949454336567003 0.006945930084383493 -0.002294642067109107 0.00319247864388507 0.004641187641578395
-0.03900595945136053 0.010766626834776782 0.007851516019221181 -0.0016819846636976776 0.0016138042540380592 0.005327432096276306
-0.04375754312509313 0.012668140483757799 0.00857447659502231 -0.0008230923942574306 -0.0006535324172857642 0.006140056135348838
-0.04596230243877882 0.010282393380567297 0.008614873631045163 0.002287523957848505 -0.004745392309272242 0.00551419490888615
-0.04582059343195392 0.028959111001916 0.006496560032467871 -2.264321668186877e-05 0.0001172836191163588 0.011371849414677889
-0.0459205202670806 0.01026754849332643 0.008616444415951887 -0.002334301567907157 0.004987967667798488 0.005514856625231249
-0.04367140333797323 0.01263744380061587 0.00857702673177128 0.0007718767946966174 0.0009192134261224477 0.006141190903168259
-0.038871783185165404 0.01071854172875204 0.00785381022713454 0.0016234796800171341 -0.001313213374550476 0.0053286108981397805
-0.03382076884107482 0.009428183734907537 0.00694604040107964 0.0022262834305574975 -0.0028525253041696095 0.004641633051539288
-0.028511938739993067 0.007910548037284106 0.005931804041019111 0.0026203835838200145 -0.004153157392021163 0.003889392329246253
-0.023103436281418373 0.00641556087977288 0.004866388244936997 0.0029172991264103873 -0.005181023185533991 0.0031469297639306355
-0.0175046009604367 0.0049300409607376415 0.0037716141265707838 0.0031384224163774803 -0.005883537290032037 0.0023982505057210906
-0.011210301356942618 0.0032836949652801733 0.002688630364008972 0.0032957093348169094 -0.005821907671154616 0.0016181807131864204
-0.005021554100458001 0.0008798157560767375 0.0019011566140487643 0.0029987139115469222 -0.0040617681980244565 0.0008426637868050671
-0.0022386453649274234 -0.0005278332112787535 0.0016615858553782423 0.0021050979073200535 -0.0025858836020055884 0.0008190860423203073
SCALARS Stress_vm float 1
LOOKUP_TABLE default
5098.811496309042
2338.6342920024244
2529.2708846140954
3500.629324638722
4670.524017677724
5851.070516106924
7013.998638853774
8118.687561078963
9056.063761776148
9638.830210411288
9791.529167985092
9646.285449780287
9071.924073609249
8145.629468732675
7056.756938977468
5916.778710428717
4768.304827103032
3644.0165086807046
2740.765967932088
2753.421143455694
5509.701613024294
4328.6800132435155
1361.658716769798
1801.3444707326307
2580.2526992149546
3362.7278362420857
4155.090449157443
4942.704781767186
5701.185133678298
6356.962298692153
6762.621849720854
6838.550439120092
6769.437393073826
6371.465468409221
5725.642193746897
4980.74191166166
4211.584883677193
3443.2135935594365
2688.582780910041
1925.866894759007
1439.513752570938
4502.68821944022
3191.222774126772
1685.0171253803198
1660.7715930255224
1957.9003640890287
2274.522304454049
2614.09317073136
2977.0521364291626
3364.3573331131297
3731.857394237335
3920.2979122749325
3852.4727382577967
3924.884500740628
3740.996364137765
3379.214793093516
2999.166754704003
2644.35296071328
2310.793357398059
1986.2392993245226
1647.7118641914146
1578.5594249617056
3274.7488404511005
2177.947298926115
1852.053651135481
1935.519409538441
1827.7845973645874
1778.7751232939559
1738.1433073607893
1762.595986955145
1910.7734828194182
2225.1429269152904
2473.7017381820506
2341.358683443096
2470.3591397247155
2220.227519778773
1900.4845587926502
1742.5718764957664
1704.1551524107135
1727.6315309513886
1754.4341457449511
1842.627022652248
1795.0968798558472
2231.5474089537292
1354.3463404970207
1668.1730679084976
2108.990371554772
2248.159279286542
2468.533038677054
2752.2165120610116
3054.7718600558605
3327.238719175125
3588.6235598501607
4039.232228900373
4589.60523411068
4030.672233478554
3571.0466638466437
3297.9931455636415
3012.1244971199108
2693.6177456904525
2392.103271619852
2159.4619300450972
2037.8379294453625
1645.7290083659607
1382.7952436843336
824.1758225128501
1315.2980280341978
2203.895535913368
2924.50994358337
3619.508635415909
4331.24578187765
5039.063813842716
5709.348709899834
6226.596150279811
6724.766851327179
7915.086811394849
6716.874205288221
6209.938483942623
5681.621232662612
4999.086049769454
4278.530356892072
3557.6554703210268
2866.7432541616013
2171.934994550398
1310.0935546913329
832.6980536093535
711.4598449928403
1267.400251233845
2584.3511571920308
3839.1544509844416
4955.304151297686
6041.697522988036
7113.786430825656
8129.984061502389
9110.500521950595
9653.427262854024
10537.863608284631
9647.988870094141
9093.947640563802
8102.348977939169
7074.387795206558
5991.981334316642
4903.452134044435
3804.1804883664076
2584.610432874683
1283.9963539638634
728.3642243603197
3324.220722496655
1963.455786128243
2511.1488998184645
3497.2496999329833
4600.933402414652
5712.606020901339
6804.309183206501
7865.598996483026
8894.955764897313
9814.592240086513
10265.222694654805
9817.423688502078
8900.825947980848
7875.302594795703
6819.701088481081
5737.285006099759
4641.807333796058
3565.331682341188
2642.4315802416686
2127.2284894652644
3485.261986459349
2815.9320427153402
1069.1513602049808
1699.2472077966788
2486.4081943557817
3253.7275458337313
4021.715003715205
4776.946904439015
5504.687260136533
6206.964791780273
6873.016035484367
7271.194466054631
6875.3592729019765
6211.9907535653465
5513.1779314970945
4790.426425653063
4043.0245703119235
3287.7948066446143
2542.6942322418545
1782.8470338782006
1130.753450715706
2867.868665131935
2150.3974502621923
993.0886465356892
1155.942630777768
1541.3566434379413
1930.4679377356297
2317.2330434814635
2696.4964898389153
3047.7809891361417
3410.2753353595535
3935.2844831136836
4472.32894995676
3936.968528999649
3414.2043121579745
3054.4049064140227
2706.4214456269256
2331.6845645072635
1951.6754958723043
1569.899629495155
1178.4991172334392
939.7385861970143
2153.0427704504073
1518.65284341944
1103.6909713880862
1068.593941565314
993.0233119820939
1018.0807894744433
1092.1640041580074
1206.8426969642037
1332.2687042024445
1458.7418693018853
1870.102219309348
2935.166971302194
1868.9275219430901
1456.8107350357852
1331.0780083007778
1205.2475666580274
1088.141023970065
1007.7064300594294
970.7115084910084
1023.4349455999248
1053.0197963991998
1525.274450186694
987.7251303929181
1057.8883479764909
1393.301516661287
1635.421618051303
1965.3990100117617
2343.136483129008
2728.4563846460737
3129.5768681313907
3490.3542908184904
3515.1264280698874
3815.722581210461
3512.3034806777705
3486.9545159057566
3124.6427834825263
2720.549195489762
2330.865216844913
1946.3952421281058
1607.72483521987
1362.3546720548557
1032.158966162761
996.7688988428245
683.9346227873939
987.2171616989152
1782.885485149856
2544.0478462911306
3296.287295918797
4056.1343140794593
4810.500234497365
5539.278233152957
6257.151075244399
6629.03940488071
6253.47921157783
6626.8499348638325
6254.571418916842
5534.695263155098
4803.53202818847
4046.502847740269
3284.4247620900937
2532.7561402219167
1777.5712889300942
982.6108403264622
687.6605904395888
700.1516782481349
1136.4558822287647
2312.8492861287214
3524.3653846085904
4651.377503309388
5752.593993312512
6840.695753104474
7891.0465812783805
8749.97450117576
9607.202268889625
9606.724293962436
9607.247406970475
8748.79343756821
7887.813180191925
6835.420533530752
5745.615170542517
4644.941929288596
3524.1692193451618
2325.2270852175548
1152.724664709756
714.2567444652911
3087.004007846059
1949.0846646057055
2420.649580431158
3365.3233561037136
4414.948739452593
5455.920132445308
6491.145152336033
7566.770077723038
8777.516941251184
10063.001084184541
10759.482117046893
10060.46370518375
8771.998873767208
7557.47505188859
6476.790418540324
5434.563249761078
4383.689700083098
3321.112948626081
2342.955823124817
1800.8385498055954
2835.409677085908
2413.6564150644763
1025.9618427870091
1683.9809371555252
2438.5911874214753
3162.3957400676654
3881.4535750180357
4599.247494720716
5338.679362811316
6172.094670871026
7117.044142387404
7734.1365457739585
7114.071791266882
6165.537911368728
5327.869846372544
4583.359511697472
3859.314670169976
3132.687022560525
2399.3212876027164
1635.4530447804984
1025.3512853508687
2291.30098323732
1737.7110666239703
886.4619054771638
1164.217871452801
1565.7515783092483
1930.6452546329872
2287.3598477562755
2640.49114103873
2984.503314019732
3433.0623733151565
4223.216086039214
5039.4799729517235
4221.19237684029
3427.572565255891
2975.155724352406
2627.5216648544592
2271.0964120219933
1911.981997574712
1549.234807809655
1168.2079362126265
959.2811944944516
1706.9748569955811
1254.4880230339427
1025.8701750889738
1033.465647123159
1017.0661683533147
1050.7487039328491
1109.8325723289097
1197.9473633122632
1303.0518545327086
1482.6477891592688
1930.048434794533
3841.1598255227054
1930.1017685271736
1485.415366720691
1307.1019824915159
1204.1541471288185
1119.7904102689502
1067.3758989885357
1044.9738365096152
1081.0522108157309
1061.8735101432217
1225.5724143580685
864.9121783787773
1017.6806109385765
1329.0850661106258
1548.9955629486462
1865.5560539436872
2235.3507685406275
2628.4302841917083
3079.98642530914
3548.9908146112625
3540.3619685035765
4294.247741945816
3546.4961189919245
3560.092691956387
3097.0507013802235
2651.7547947412054
2264.803540625077
1900.8034570079994
1587.3233642678395
1358.747434986775
1023.2100678139667
832.8911756808351
661.5804630055229
959.0769944516893
1691.8362724443193
2384.2208775634654
3091.717631723992
3826.14529129566
4577.1601479306655
5343.738029088612
6191.463012004268
6732.920081814295
6604.076834711212
6739.169825387513
6204.240132528395
5363.067052541145
4602.943445437391
3857.0141466795853
3124.3693760527
2411.3410429702394
1703.500621845116
953.4083929505697
629.5737450530166
692.8346398341534
1085.8720081962417
2175.188380301704
3290.1948913583374
4347.548785818941
5403.137591653349
6469.518615418989
7541.553988385779
8469.081061150533
9787.729469758622
10364.35891984921
9795.358227416911
8484.718692743692
7564.931120635075
6500.236274176873
5438.914453740773
4382.755625239552
3314.5598498311197
2181.15018702888
1082.355870899209
671.6254492345813
3090.5958787128698
1947.702545648016
2380.3007453176697
3297.446515619209
4329.285614963672
5354.243390076498
6384.111285266562
7484.294333785019
8765.474324699357
10151.49423834193
10906.172533329303
10146.750081621389
8755.212590424535
7467.024792588624
6357.15059927121
5312.921787940581
4266.123274006271
3201.5321513805275
2224.906248031783
1691.1036793067694
2695.6835602206042
2378.864571178702
1014.1049773003917
1666.7965166888152
2404.4126098329098
3116.433484637931
3826.7861215240896
4544.871274658798
5305.943370223982
6190.912238708313
7203.430183264433
7863.741559725671
7198.36517535644
6179.722858814066
5287.299134040282
4516.846907422518
3786.2145255383866
3058.692479104971
2323.175701808133
1566.7842031111709
968.0668070183349
2177.545292966659
1688.3335037828076
833.557750308406
1150.666969913239
1554.5940568514948
1917.0373202588496
2270.7774607152874
2626.938316714566
2987.8304358781925
3472.6509881721354
4305.566882536808
5157.1975330154
4302.2423681675455
3463.706333910913
2972.4652838237703
2605.1926003253866
2242.460416523262
1882.2493383010722
1519.8373421524007
1142.929596254299
929.0883384173883
1598.3087595843522
1195.2794203028698
976.859049712948
1008.5347241191581
1016.8939994460529
1062.8379861597407
1128.765779646761
1225.7415561167224
1351.6437322380057
1562.964963356493
1879.888368367067
4037.5618161039606
1881.6855456213789
1568.3189362780668
1358.9278670676315
1236.547608908605
1146.3595633030307
1092.1985212394736
1064.980535432447
1086.22726053113
1036.151152119236
1118.4224931746517
808.3663787644136
974.4206315357677
1283.0875545412475
1504.6876507040226
1821.8299526720402
2193.117230587046
2594.517119053287
3068.684766132337
3578.460849208255
3601.031392969055
4337.280171878062
3610.0819774957668
3595.092603963966
3094.4114497477703
2630.6862291263405
2240.6775639784296
1881.562396812428
1572.8590368201312
1338.3812436872977
990.4389379878712
736.0452728082021
620.037524903472
906.9309543948908
1627.904799203802
2312.1069104156345
3011.3603889943015
3741.3402032095064
4498.446877663028
5291.217202971834
6195.690956756662
6793.150972968659
6606.398483197488
6802.348792035394
6214.30433112916
5319.755394870297
4537.412470964591
3789.4355061139277
3064.2379465716076
2358.2696381574806
1649.471770885132
900.423388866554
559.4435893490942
628.6679080060889
1002.0903879660002
2082.7230956720127
3185.662553314195
4226.828453535437
5270.165151385017
6336.862929775133
7438.671025963567
8434.299399408339
9858.582699862018
10411.526667772476
9868.948320053474
8455.995436351417
7471.926949119167
6381.664633750499
5323.730670222705
4280.9076071645895
3223.669474582063
2089.340220348008
987.7149905941874
579.6064334819671
3087.004007849305
1949.0846646083799
2420.6495804332517
3365.323356104473
4414.94873945346
5455.9201324446385
6491.145152336374
7566.770077724838
8777.516941252696
10063.00108418596
10759.482117049123
10060.463705186477
8771.998873770313
7557.475051889148
6476.790418540026
5434.56324975587
4383.68970008064
3321.112948624059
2342.955823122956
1800.8385498035232
2835.4096770830247
2413.6564150658187
1025.961842788002
1683.9809371568833
2438.5911874222875
3162.3957400685217
3881.4535750178197
4599.24749472141
5338.679362812413
6172.094670872055
7117.044142388829
7734.136545775693
7114.071791267382
6165.537911371935
5327.8698463726005
4583.3595116984925
3859.3146701670476
3132.6870225591233
2399.321287601438
1635.4530447790023
1025.3512853498205
2291.300983234957
1737.7110666244323
886.4619054769462
1164.2178714530892
1565.7515783097667
1930.6452546329476
2287.359847756705
2640.491141039423
2984.5033140196006
3433.0623733167513
4223.216086040416
5039.479972952435
4221.192376839624
3427.5725652599385
2975.1557243525544
2627.521664857683
2271.0964120209874
1911.9819975737264
1549.2348078085802
1168.2079362112963
959.2811944935315
1706.9748569933122
1254.4880230345673
1025.8701750889393
1033.4656471228059
1017.0661683525028
1050.7487039325163
1109.8325723294531
1197.9473633121954
1303.0518545318014
1482.6477891608988
1930.0484347948916
3841.159825521283
1930.1017685275997
1485.415366724125
1307.1019824910252
1204.1541471326345
1119.7904102694354
1067.375898987735
1044.9738365083224
1081.0522108145028
1061.873510142074
1225.5724143562047
864.912178379175
1017.6806109389628
1329.0850661106913
1548.9955629481742
1865.5560539432154
2235.350768540893
2628.430284190649
3079.9864253086675
3548.9908146109624
3540.3619685032395
4294.247741943678
3546.496118992004
3560.092691956985
3097.050701379098
2651.754794742457
2264.803540621473
1900.8034570068978
1587.3233642666753
1358.7474349853371
1023.2100678129796
832.891175679244
661.580463005685
959.0769944520166
1691.836272444546
2384.2208775634504
3091.71763172368
3826.145291294847
4577.160147930378
5343.738029087039
6191.463012004876
6732.920081814606
6604.0768347102585
6739.169825387838
6204.240132529027
5363.067052539946
4602.9434454369175
3857.0141466751934
3124.3693760508986
2411.3410429683827
1703.5006218437218
953.4083929496314
629.5737450520141
692.8346398342629
1085.8720081964022
2175.188380302148
3290.1948913586625
4347.548785818508
5403.137591651851
6469.518615419466
7541.55398838367
8469.081061151617
9787.729469759377
10364.35891984914
9795.35822741788
8484.718692745204
7564.931120633738
6500.236274175572
5438.914453736041
4382.755625236642
3314.5598498285276
2181.1501870271304
1082.3558708980026
671.6254492334883
3324.220722500036
1963.4557861338349
2511.1488998221625
3497.2496999354394
4600.933402417496
5712.60602090472
6804.309183208103
7865.598996480022
8894.955764896138
9814.592240090382
10265.22269465688
9817.423688505223
8900.825947982292
7875.3025947939095
6819.701088478419
5737.285006096412
4641.8073337921405
3565.331682335477
2642.4315802382903
2127.2284894617114
3485.2619864522176
2815.9320427162575
1069.1513602070122
1699.247207799356
2486.408194357988
3253.727545836022
4021.715003717502
4776.94690444048
5504.687260135445
6206.964791780233
6873.016035488336
7271.194466056486
6875.359272904762
6211.990753565697
5513.177931496876
4790.42642565091
4043.024570309805
3287.794806642143
2542.69423223728
1782.8470338765758
1130.7534507139587
2867.868665125821
2150.397450262505
993.088646534642
1155.942630778697
1541.3566434396773
1930.4679377376538
2317.233043482622
2696.4964898403223
3047.780989136652
3410.27533536036
3935.284483118995
4472.32894995972
3936.9685290025905
3414.204312156633
3054.4049064155274
2706.4214456254704
2331.684564506627
1951.6754958708848
1569.8996294924116
1178.4991172326177
939.7385861953915
2153.0427704456597
1518.6528434199636
1103.6909713871078
1068.593941563959
993.0233119823911
1018.0807894748258
1092.1640041566923
1206.8426969649047
1332.2687042018158
1458.7418692994443
1870.1022193147514
2935.16697130561
1868.9275219453743
1456.810735035736
1331.0780083019295
1205.2475666581759
1088.1410239697732
1007.7064300594561
970.7115084897147
1023.4349455985655
1053.0197963976984
1525.2744501830086
987.7251303933376
1057.8883479759227
1393.3015166607493
1635.4216180503054
1965.3990100110893
2343.1364831272813
2728.4563846451947
3129.576868126761
3490.354290816386
3515.1264280704854
3815.7225812119445
3512.3034806798805
3486.954515906505
3124.6427834830147
2720.5491954874287
2330.865216844228
1946.3952421265062
1607.7248352165077
1362.354672053061
1032.1589661612554
996.7688988401355
683.9346227878433
987.2171616991941
1782.8854851501842
2544.0478462905266
3296.2872959186043
4056.1343140794056
4810.500234495962
5539.278233148553
6257.151075241356
6629.039404880538
6253.479211577954
6626.8499348656815
6254.571418916188
5534.695263153873
4803.532028185509
4046.502847737099
3284.4247620863225
2532.756140217842
1777.571288927661
982.6108403249327
687.6605904378923
700.151678249003
1136.4558822296185
2312.8492861295736
3524.365384608334
4651.37750330959
5752.5939933137815
6840.69575310258
7891.046581273862
8749.974501171188
9607.202268889949
9606.72429396566
9607.24740697168
8748.79343756556
7887.813180189989
6835.42053352749
5745.615170536885
4644.94192928275
3524.1692193401755
2325.2270852140455
1152.7246647074714
714.256744463544
5098.811496311624
2338.6342920094044
2529.270884619514
3500.629324643452
4670.524017680591
5851.070516109027
7013.998638853898
8118.687561078939
9056.06376177701
9638.830210413249
9791.529167988943
9646.285449785053
9071.924073609285
8145.629468733986
7056.75693897598
5916.778710423086
4768.304827097134
3644.016508674941
2740.7659679268436
2753.4211434494655
5509.701613010673
4328.6800132450035
1361.6587167712787
1801.3444707354079
2580.252699218326
3362.727836244014
4155.09044915949
4942.70478176779
5701.185133677689
6356.962298692515
6762.621849723758
6838.550439124512
6769.437393078467
6371.465468409974
5725.642193747417
4980.741911660796
4211.584883673285
3443.2135935559386
2688.5827809070743
1925.8668947554452
1439.5137525675625
4502.688219429121
3191.222774128571
1685.0171253788312
1660.7715930255986
1957.900364089531
2274.522304454149
2614.0931707319955
2977.052136429255
3364.357333111659
3731.8573942371154
3920.2979122778534
3852.4727382640062
3924.8845007442865
3740.996364139893
3379.2147930931933
2999.1667547031425
2644.3529607117484
2310.7933573968403
1986.2392993224303
1647.7118641878992
1578.559424958288
3274.7488404431538
2177.9472989276014
1852.0536511351934
1935.5194095375177
1827.7845973623641
1778.7751232913186
1738.1433073587996
1762.5959869531837
1910.7734828170267
2225.142926914991
2473.7017381805044
2341.3586834452553
2470.359139725569
2220.22751977854
1900.4845587938282
1742.571876496506
1704.1551524115885
1727.6315309508464
1754.434145742908
1842.627022648193
1795.0968798519302
2231.547408948614
1354.3463404980494
1668.1730679090513
2108.990371554399
2248.159279285343
2468.533038674943
2752.21651205836
3054.7718600529925
3327.2387191734965
3588.623559849197
4039.232228897374
4589.605234105119
4030.6722334756346
3571.0466638464422
3297.9931455651135
3012.124497120729
2693.6177456892174
2392.1032716176396
2159.461930042205
2037.8379294409904
1645.729008362511
1382.7952436811538
824.1758225137669
1315.2980280347401
2203.895535913622
2924.509943583689
3619.5086354150244
4331.2457818751955
5039.063813840505
5709.348709897447
6226.596150277733
6724.766851325172
7915.086811387915
6716.874205286928
6209.938483943202
5681.621232661697
4999.086049767907
4278.5303568891895
3557.655470317613
2866.743254157082
2171.9349945466715
1310.0935546887174
832.6980536077465
711.4598449940748
1267.4002512347356
2584.3511571931276
3839.154450985862
4955.30415129756
6041.697522986302
7113.786430823183
8129.984061498276
9110.500521946127
9653.427262851359
10537.863608279891
9647.988870094689
9093.947640564234
8102.348977936401
7074.387795202712
5991.981334311738
4903.4521340394895
3804.1804883599925
2584.6104328703677
1283.9963539613673
728.3642243588604
SCALARS Statev float 1
LOOKUP_TABLE default
0.0
0.0
0.0
0.0
0.0
0.0
0.0
0.0
0.0
0.0
0.0
0.0
0.0
0.0
0.0
0.0
0.0
0.0
0.0
0.0
0.0
0.0
0.0
0.0
0.0
0.0
0.0
0.0
0.0
0.0
0.0
0.0
0.0
0.0
0.0
0.0
0.0
0.0
0.0
0.0
0.0
0.0
0.0
0.0
0.0
0.0
0.0
0.0
0.0
0.0
0.0
0.0
0.0
0.0
0.0
0.0
0.0
0.0
0.0
0.0
0.0
0.0
0.0
0.0
0.0
0.0
0.0
0.0
0.0
0.0
0.0
0.0
0.0
0.0
0.0
0.0
0.0
0.0
0.0
0.0
0.0
0.0
0.0
0.0
0.0
0.0
0.0
0.0
0.0
0.0
0.0
0.0
0.0
0.0
0.0
0.0
0.0
0.0
0.0
0.0
0.0
0.0
0.0
0.0
0.0
0.0
0.0
0.0
0.0
0.0
0.0
0.0
0.0
0.0
0.0
0.0
0.0
0.0
0.0
0.0
0.0
0.0
0.0
0.0
0.0
0.0
0.0
0.0
0.0
0.0
0.0
0.0
0.0
0.0
0.0
0.0
0.0
0.0
0.0
0.0
0.0
0.0
0.0
0.0
0.0
0.0
0.0
0.0
0.0
0.0
0.0
0.0
0.0
0.0
0.0
0.0
0.0
0.0
0.0
0.0
0.0
0.0
0.0
0.0
0.0
0.0
0.0
0.0
0.0
0.0
0.0
0.0
0.0
0.0
0.0
0.0
0.0
0.0
0.0
0.0
0.0
0.0
0.0
0.0
0.0
0.0
0.0
0.0
0.0
0.0
0.0
0.0
0.0
0.0
0.0
0.0
0.0
0.0
0.0
0.0
0.0
0.0
0.0
0.0
0.0
0.0
0.0
0.0
0.0
0.0
0.0
0.0
0.0
0.0
0.0
0.0
0.0
0.0
0.0
0.0
0.0
0.0
0.0
0.0
0.0
0.0
0.0
0.0
0.0
0.0
0.0
0.0
0.0
0.0
0.0
0.0
0.0
0.0
0.0
0.0
0.0
0.0
0.0
0.0
0.0
0.0
0.0
0.0
0.0
0.0
0.0
0.0
0.0
0.0
0.0
0.0
0.0
0.0
0.0
0.0
0.0
0.0
0.0
0.0
0.0
0.0
0.0
0.0
0.0
0.0
0.0
0.0
0.0
0.0
0.0
0.0
0.0
0.0
0.0
0.0
0.0
0.0
0.0
0.0
0.0
0.0
0.0
0.0
0.0
0.0
0.0
0.0
0.0
0.0
0.0
0.0
0.0
0.0
0.0
0.0
0.0
0.0
0.0
0.0
0.0
0.0
0.0
0.0
0.0
0.0
0.0
0.0
0.0
0.0
0.0
0.0
0.0
0.0
0.0
0.0
0.0
0.0
0.0
0.0
0.0
0.0
0.0
0.0
0.0
0.0
0.0
0.0
0.0
0.0
0.0
0.0
0.0
0.0
0.0
0.0
0.0
0.0
0.0
0.0
0.0
0.0
0.0
0.0
0.0
0.0
0.0
0.0
0.0
0.0
0.0
0.0
0.0
0.0
0.0
0.0
0.0
0.0
0.0
0.0
0.0
0.0
0.0
0.0
0.0
0.0
0.0
0.0
0.0
0.0
0.0
0.0
0.0
0.0
0.0
0.0
0.0
0.0
0.0
0.0
0.0
0.0
0.0
0.0
0.0
0.0
0.0
0.0
0.0
0.0
0.0
0.0
0.0
0.0
0.0
0.0
0.0
0.0
0.0
0.0
0.0
0.0
0.0
0.0
0.0
0.0
0.0
0.0
0.0
0.0
0.0
0.0
0.0
0.0
0.0
0.0
0.0
0.0
0.0
0.0
0.0
0.0
0.0
0.0
0.0
0.0
0.0
0.0
0.0
0.0
0.0
0.0
0.0
0.0
0.0
0.0
0.0
0.0
0.0
0.0
0.0
0.0
0.0
0.0
0.0
0.0
0.0
0.0
0.0
0.0
0.0
0.0
0.0
0.0
0.0
0.0
0.0
0.0
0.0
0.0
0.0
0.0
0.0
0.0
0.0
0.0
0.0
0.0
0.0
0.0
0.0
0.0
0.0
0.0
0.0
0.0
0.0
0.0
0.0
0.0
0.0
0.0
0.0
0.0
0.0
0.0
0.0
0.0
0.0
0.0
0.0
0.0
0.0
0.0
0.0
0.0
0.0
0.0
0.0
0.0
0.0
0.0
0.0
0.0
0.0
0.0
0.0
0.0
0.0
0.0
0.0
0.0
0.0
0.0
0.0
0.0
0.0
0.0
0.0
0.0
0.0
0.0
0.0
0.0
0.0
0.0
0.0
0.0
0.0
0.0
0.0
0.0
0.0
0.0
0.0
0.0
0.0
0.0
0.0
0.0
0.0
0.0
0.0
0.0
0.0
0.0
0.0
0.0
0.0
0.0
0.0
0.0
0.0
0.0
0.0
0.0
0.0
0.0
0.0
0.0
0.0
0.0
0.0
0.0
0.0
0.0
0.0
0.0
0.0
0.0
0.0
0.0
0.0
0.0
0.0
0.0
0.0
0.0
0.0
0.0
0.0
0.0
0.0
0.0
0.0
0.0
0.0
0.0
0.0
0.0
0.0
0.0
0.0
0.0
0.0
0.0
0.0
0.0
0.0
0.0
0.0
0.0
0.0
0.0
0.0
0.0
0.0
0.0
0.0
0.0
0.0
0.0
0.0
0.0
0.0
0.0
0.0
0.0
0.0
0.0
0.0
0.0
0.0
0.0
0.0
0.0
0.0
0.0
0.0
0.0
0.0
0.0
0.0
0.0
0.0
0.0
0.0
0.0
0.0
0.0
0.0
0.0
0.0
0.0
0.0
0.0
0.0
0.0
0.0
0.0
0.0
0.0
0.0
0.0
0.0
0.0
0.0
0.0
0.0
0.0
0.0
0.0
0.0
0.0
0.0
0.0
0.0
0.0
0.0
0.0
0.0
0.0
0.0
0.0
0.0
0.0
0.0
0.0
0.0
0.0
0.0
0.0
0.0
0.0
0.0
0.0
0.0
0.0
0.0
0.0
0.0
0.0
0.0
0.0
0.0
0.0
0.0
0.0
0.0
0.0
0.0
0.0
0.0
0.0
0.0
0.0
0.0
0.0
0.0
0.0
0.0
0.0
0.0
0.0
0.0
0.0
0.0
0.0
0.0
0.0
0.0
0.0
0.0
0.0
0.0
0.0
0.0
0.0
0.0
0.0
0.0
0.0
0.0
0.0
0.0
0.0
0.0
0.0
0.0
0.0
0.0
0.0
0.0
0.0
0.0
0.0
0.0
0.0
0.0
0.0
0.0
0.0
0.0
0.0
0.0
0.0
0.0
0.0
0.0
0.0
0.0
0.0
0.0
0.0
0.0
0.0
0.0
0.0
0.0
0.0
0.0
0.0
0.0
0.0
0.0
0.0
0.0
0.0
0.0
0.0
0.0
0.0
0.0
0.0
0.0
0.0
0.0
0.0
0.0
0.0
0.0
0.0
0.0
0.0
0.0
0.0
0.0
0.0
0.0
0.0
0.0
0.0
0.0
0.0
0.0
0.0
0.0
0.0
0.0
0.0
0.0
0.0
0.0
0.0
0.0
0.0
0.0
0.0
0.0
0.0
0.0
0.0
0.0
0.0
0.0
0.0
0.0
0.0
0.0
0.0
0.0
0.0
0.0
0.0
0.0
0.0
0.0
0.0
0.0
0.0
0.0
0.0
0.0
0.0
0.0
0.0
0.0
0.0
0.0
0.0
0.0
0.0
0.0
0.0
0.0
0.0
0.0
0.0
0.0
0.0
0.0
0.0
0.0
0.0
0.0
0.0
0.0
0.0
0.0
0.0
0.0
0.0
0.0
0.0
0.0
0.0
0.0
0.0
0.0
0.0
0.0
0.0
0.0
0.0
0.0
0.0
0.0
0.0
0.0
0.0
0.0
0.0
0.0
0.0
0.0
0.0
0.0
0.0
0.0
0.0
0.0
0.0
0.0
0.0
0.0
0.0
0.0
0.0
0.0
0.0
0.0
0.0
0.0
0.0
0.0
0.0
0.0
0.0
0.0
0.0
0.0
0.0
0.0
0.0
0.0
0.0
0.0
0.0
0.0
0.0
0.0
0.0
0.0
0.0
0.0
0.0
0.0
0.0
0.0
0.0
0.0
0.0
0.0
0.0
0.0
0.0
0.0
0.0
0.0
0.0
0.0
0.0
0.0
0.0
0.0
0.0
0.0
0.0
0.0
0.0
0.0
0.0
0.0
0.0
0.0
0.0
0.0
0.0
0.0
0.0
0.0
0.0
0.0
0.0
0.0
0.0
0.0
0.0
0.0
0.0
0.0
0.0
0.0
0.0
0.0
0.0
0.0
0.0
0.0
0.0
0.0
0.0
0.0
0.0
0.0
0.0
0.0
0.0
0.0
0.0
0.0
0.0
0.0
0.0
0.0
0.0
0.0
0.0
0.0
0.0
0.0
0.0
0.0
0.0
0.0
0.0
0.0
0.0
0.0
0.0
0.0
0.0
0.0
0.0
0.0
SCALARS Wm float 4
LOOKUP_TABLE default
185.58827231957588 185.58827231957588 0.0 0.0
33.582518500380765 33.582518500380765 0.0 0.0
40.0103036097441 40.0103036097441 0.0 0.0
83.7619263977414 83.7619263977414 0.0 0.0
147.759535028716 147.759535028716 0.0 0.0
232.8698277808716 232.8698277808716 0.0 0.0
335.3214729967486 335.3214729967486 0.0 0.0
449.93761060821015 449.93761060821015 0.0 0.0
560.1663007020697 560.1663007020697 0.0 0.0
636.3413697085117 636.3413697085117 0.0 0.0
660.8477312762968 660.8477312762968 0.0 0.0
637.3040215798513 637.3040215798513 0.0 0.0
562.0910104399591 562.0910104399591 0.0 0.0
452.87331618154 452.87331618154 0.0 0.0
339.35369600697703 339.35369600697703 0.0 0.0
238.0312351114955 238.0312351114955 0.0 0.0
153.9060872573014 153.9060872573014 0.0 0.0
90.49744583590831 90.49744583590831 0.0 0.0
47.57618727337592 47.57618727337592 0.0 0.0
53.014788400266816 53.014788400266816 0.0 0.0
177.80297158845903 177.80297158845903 0.0 0.0
137.77568906339204 137.77568906339204 0.0 0.0
4.168850228476009 4.168850228476009 0.0 0.0
18.599750415371886 18.599750415371886 0.0 0.0
39.757804442152604 39.757804442152604 0.0 0.0
68.24518420426807 68.24518420426807 0.0 0.0
105.2532364701794 105.2532364701794 0.0 0.0
150.01969820101507 150.01969820101507 0.0 0.0
200.50974978224755 200.50974978224755 0.0 0.0
250.0773583347792 250.0773583347792 0.0 0.0
285.2692083511341 285.2692083511341 0.0 0.0
296.71715493921414 296.71715493921414 0.0 0.0
285.89351384752734 285.89351384752734 0.0 0.0
251.32116405872824 251.32116405872824 0.0 0.0
202.38667069343785 202.38667069343785 0.0 0.0
152.54129721637833 152.54129721637833 0.0 0.0
108.38816976328667 108.38816976328667 0.0 0.0
71.8308426289932 71.8308426289932 0.0 0.0
43.51855661131486 43.51855661131486 0.0 0.0
21.26917413442814 21.26917413442814 0.0 0.0
4.8143821230376425 4.8143821230376425 0.0 0.0
144.71032669581098 144.71032669581098 0.0 0.0
76.64539102289568 76.64539102289568 0.0 0.0
11.382519184646195 11.382519184646195 0.0 0.0
15.984014606137174 15.984014606137174 0.0 0.0
20.80628157165225 20.80628157165225 0.0 0.0
28.784028127095663 28.784028127095663 0.0 0.0
38.01036470430498 38.01036470430498 0.0 0.0
49.32984015786406 49.32984015786406 0.0 0.0
63.32795584201653 63.32795584201653 0.0 0.0
78.55313403674663 78.55313403674663 0.0 0.0
88.68739031968092 88.68739031968092 0.0 0.0
91.55580085898364 91.55580085898364 0.0 0.0
88.94373071356111 88.94373071356111 0.0 0.0
79.04072537901168 79.04072537901168 0.0 0.0
64.03290010731273 64.03290010731273 0.0 0.0
50.22641864251284 50.22641864251284 0.0 0.0
39.03421393219537 39.03421393219537 0.0 0.0
29.81160387701091 29.81160387701091 0.0 0.0
21.410315533677473 21.410315533677473 0.0 0.0
15.55137999102371 15.55137999102371 0.0 0.0
9.632401657098706 9.632401657098706 0.0 0.0
79.97327658127814 79.97327658127814 0.0 0.0
35.35435746674559 35.35435746674559 0.0 0.0
16.514163296217067 16.514163296217067 0.0 0.0
20.587143242508198 20.587143242508198 0.0 0.0
18.84836770497764 18.84836770497764 0.0 0.0
18.604237207763898 18.604237207763898 0.0 0.0
18.327498942647924 18.327498942647924 0.0 0.0
18.003076805527108 18.003076805527108 0.0 0.0
18.61441600191693 18.61441600191693 0.0 0.0
21.51559423894144 21.51559423894144 0.0 0.0
24.719622530185347 24.719622530185347 0.0 0.0
26.817766302665778 26.817766302665778 0.0 0.0
24.62897398630049 24.62897398630049 0.0 0.0
21.298564716710597 21.298564716710597 0.0 0.0
18.254138112641414 18.254138112641414 0.0 0.0
17.472179136215377 17.472179136215377 0.0 0.0
17.58800717493453 17.58800717493453 0.0 0.0
17.57767035111742 17.57767035111742 0.0 0.0
17.39689659036436 17.39689659036436 0.0 0.0
18.927048219401303 18.927048219401303 0.0 0.0
15.14518281985509 15.14518281985509 0.0 0.0
37.21279249496531 37.21279249496531 0.0 0.0
13.420419873507633 13.420419873507633 0.0 0.0
15.186599712494786 15.186599712494786 0.0 0.0
24.327090443625526 24.327090443625526 0.0 0.0
28.650512065018507 28.650512065018507 0.0 0.0
34.545906509106345 34.545906509106345 0.0 0.0
42.715308897991825 42.715308897991825 0.0 0.0
52.385544880938156 52.385544880938156 0.0 0.0
61.8031598270904 61.8031598270904 0.0 0.0
72.38569739000255 72.38569739000255 0.0 0.0
88.98597994108874 88.98597994108874 0.0 0.0
99.61131095162284 99.61131095162284 0.0 0.0
88.57922028935113 88.57922028935113 0.0 0.0
71.5504547295727 71.5504547295727 0.0 0.0
60.54024413523638 60.54024413523638 0.0 0.0
50.71451112311444 50.71451112311444 0.0 0.0
40.690019248612586 40.690019248612586 0.0 0.0
32.27102431485246 32.27102431485246 0.0 0.0
26.406399771824617 26.406399771824617 0.0 0.0
22.750204973940054 22.750204973940054 0.0 0.0
14.509334094037175 14.509334094037175 0.0 0.0
14.119517328820576 14.119517328820576 0.0 0.0
4.682698956954528 4.682698956954528 0.0 0.0
11.589382281081507 11.589382281081507 0.0 0.0
28.795619653867707 28.795619653867707 0.0 0.0
51.535103787163145 51.535103787163145 0.0 0.0
79.84998273092532 79.84998273092532 0.0 0.0
114.95541391778933 114.95541391778933 0.0 0.0
156.05032607229637 156.05032607229637 0.0 0.0
200.85869417335584 200.85869417335584 0.0 0.0
235.41637081439197 235.41637081439197 0.0 0.0
287.1229717576351 287.1229717576351 0.0 0.0
312.33624080079056 312.33624080079056 0.0 0.0
286.401862973981 286.401862973981 0.0 0.0
234.00355141769506 234.00355141769506 0.0 0.0
198.74541269803413 198.74541269803413 0.0 0.0
153.3915410254187 153.3915410254187 0.0 0.0
111.9837970108884 111.9837970108884 0.0 0.0
76.9863677788499 76.9863677788499 0.0 0.0
49.39083405553102 49.39083405553102 0.0 0.0
27.805734628157385 27.805734628157385 0.0 0.0
11.331134797584845 11.331134797584845 0.0 0.0
4.85600986582259 4.85600986582259 0.0 0.0
2.877289808664863 2.877289808664863 0.0 0.0
12.50969491884455 12.50969491884455 0.0 0.0
45.41800735681961 45.41800735681961 0.0 0.0
99.24118935082008 99.24118935082008 0.0 0.0
166.2556147693948 166.2556147693948 0.0 0.0
247.9079380100577 247.9079380100577 0.0 0.0
343.97033673209154 343.97033673209154 0.0 0.0
451.43974681131726 451.43974681131726 0.0 0.0
561.1988726929325 561.1988726929325 0.0 0.0
666.216670429707 666.216670429707 0.0 0.0
572.8296342773369 572.8296342773369 0.0 0.0
665.2866876080503 665.2866876080503 0.0 0.0
558.9958927096905 558.9958927096905 0.0 0.0
448.20877105773536 448.20877105773536 0.0 0.0
340.0229430135575 340.0229430135575 0.0 0.0
243.7626438563457 243.7626438563457 0.0 0.0
162.78631573123238 162.78631573123238 0.0 0.0
97.42179145972555 97.42179145972555 0.0 0.0
45.24953507327226 45.24953507327226 0.0 0.0
12.737371218705896 12.737371218705896 0.0 0.0
3.0473495629950396 3.0473495629950396 0.0 0.0
69.07640230826424 69.07640230826424 0.0 0.0
28.5009557533873 28.5009557533873 0.0 0.0
42.33323467014349 42.33323467014349 0.0 0.0
85.29466161420501 85.29466161420501 0.0 0.0
146.23793074491482 146.23793074491482 0.0 0.0
225.75590552595492 225.75590552595492 0.0 0.0
321.05472512168626 321.05472512168626 0.0 0.0
431.14100376194466 431.14100376194466 0.0 0.0
554.9470640954844 554.9470640954844 0.0 0.0
676.7057846232012 676.7057846232012 0.0 0.0
735.1632131372465 735.1632131372465 0.0 0.0
677.0414998839291 677.0414998839291 0.0 0.0
555.5739855905373 555.5739855905373 0.0 0.0
432.05015829870797 432.05015829870797 0.0 0.0
322.29683627957314 322.29683627957314 0.0 0.0
227.42462534603314 227.42462534603314 0.0 0.0
148.4712049668487 148.4712049668487 0.0 0.0
88.12955981903893 88.12955981903893 0.0 0.0
46.344696386734014 46.344696386734014 0.0 0.0
34.044498618462555 34.044498618462555 0.0 0.0
67.32409727943019 67.32409727943019 0.0 0.0
55.39340702679881 55.39340702679881 0.0 0.0
4.8195931250057304 4.8195931250057304 0.0 0.0
17.86430167288529 17.86430167288529 0.0 0.0
38.87764081671248 38.87764081671248 0.0 0.0
66.56362997836966 66.56362997836966 0.0 0.0
102.09764490020271 102.09764490020271 0.0 0.0
144.6685736456594 144.6685736456594 0.0 0.0
193.13832052405533 193.13832052405533 0.0 0.0
246.69403854342582 246.69403854342582 0.0 0.0
300.4230623421611 300.4230623421611 0.0 0.0
328.84943828875123 328.84943828875123 0.0 0.0
300.63992813218476 300.63992813218476 0.0 0.0
247.10838334703803 247.10838334703803 0.0 0.0
193.74449228982633 193.74449228982633 0.0 0.0
145.48318509041448 145.48318509041448 0.0 0.0
103.159239847825 103.159239847825 0.0 0.0
67.91123746037373 67.91123746037373 0.0 0.0
40.59839374605414 40.59839374605414 0.0 0.0
19.556385961453273 19.556385961453273 0.0 0.0
5.540601173951581 5.540601173951581 0.0 0.0
55.73645048142816 55.73645048142816 0.0 0.0
33.28202223467344 33.28202223467344 0.0 0.0
3.913906737081445 3.913906737081445 0.0 0.0
7.643372914930958 7.643372914930958 0.0 0.0
12.892226270408386 12.892226270408386 0.0 0.0
20.699752126204586 20.699752126204586 0.0 0.0
29.995377132873887 29.995377132873887 0.0 0.0
40.94026071977431 40.94026071977431 0.0 0.0
52.75644562327195 52.75644562327195 0.0 0.0
66.70812643466063 66.70812643466063 0.0 0.0
87.9632543561922 87.9632543561922 0.0 0.0
107.03133024094608 107.03133024094608 0.0 0.0
88.06562909663056 88.06562909663056 0.0 0.0
66.90962977368716 66.90962977368716 0.0 0.0
53.05001964829707 53.05001964829707 0.0 0.0
41.31638993753476 41.31638993753476 0.0 0.0
30.444097746022564 30.444097746022564 0.0 0.0
21.21973731524574 21.21973731524574 0.0 0.0
13.418031801560037 13.418031801560037 0.0 0.0
7.795902788746943 7.795902788746943 0.0 0.0
3.4264162983438258 3.4264162983438258 0.0 0.0
32.99661240376053 32.99661240376053 0.0 0.0
16.549025854528825 16.549025854528825 0.0 0.0
5.459119749418378 5.459119749418378 0.0 0.0
6.678310768928391 6.678310768928391 0.0 0.0
5.761858711268341 5.761858711268341 0.0 0.0
5.98859001626605 5.98859001626605 0.0 0.0
6.533013606250529 6.533013606250529 0.0 0.0
7.259006376683818 7.259006376683818 0.0 0.0
7.700934806216049 7.700934806216049 0.0 0.0
8.124386441643617 8.124386441643617 0.0 0.0
14.769758252796242 14.769758252796242 0.0 0.0
36.129866157437974 36.129866157437974 0.0 0.0
14.748136513746564 14.748136513746564 0.0 0.0
8.112800570028309 8.112800570028309 0.0 0.0
7.696686166060905 7.696686166060905 0.0 0.0
7.241343918095236 7.241343918095236 0.0 0.0
6.476755188518068 6.476755188518068 0.0 0.0
5.861084357811006 5.861084357811006 0.0 0.0
5.49580194223217 5.49580194223217 0.0 0.0
6.22129815467226 6.22129815467226 0.0 0.0
4.862718246095596 4.862718246095596 0.0 0.0
16.659365830848824 16.659365830848824 0.0 0.0
6.856505935222552 6.856505935222552 0.0 0.0
5.865206135346252 5.865206135346252 0.0 0.0
10.474409099891277 10.474409099891277 0.0 0.0
14.765413646575707 14.765413646575707 0.0 0.0
21.39798130760945 21.39798130760945 0.0 0.0
30.629075172163642 30.629075172163642 0.0 0.0
41.874832405929865 41.874832405929865 0.0 0.0
55.780598368678305 55.780598368678305 0.0 0.0
68.94400299447372 68.94400299447372 0.0 0.0
72.75968498473742 72.75968498473742 0.0 0.0
110.23308040699864 110.23308040699864 0.0 0.0
72.60789403097583 72.60789403097583 0.0 0.0
68.7329756486545 68.7329756486545 0.0 0.0
55.5081313252709 55.5081313252709 0.0 0.0
41.532259216186404 41.532259216186404 0.0 0.0
30.21370153138662 30.21370153138662 0.0 0.0
20.908625166084434 20.908625166084434 0.0 0.0
14.236163565670408 14.236163565670408 0.0 0.0
10.023622174605428 10.023622174605428 0.0 0.0
5.516419556869933 5.516419556869933 0.0 0.0
7.003200029780454 7.003200029780454 0.0 0.0
3.020159809229379 3.020159809229379 0.0 0.0
6.3870761758717665 6.3870761758717665 0.0 0.0
19.20958345076937 19.20958345076937 0.0 0.0
40.00639917615175 40.00639917615175 0.0 0.0
68.08176972837285 68.08176972837285 0.0 0.0
103.71647182103656 103.71647182103656 0.0 0.0
146.48420719798034 146.48420719798034 0.0 0.0
194.60439040165184 194.60439040165184 0.0 0.0
252.97054560104607 252.97054560104607 0.0 0.0
268.6584976451614 268.6584976451614 0.0 0.0
346.6094976312582 346.6094976312582 0.0 0.0
268.3930625278326 268.3930625278326 0.0 0.0
252.59419863800198 252.59419863800198 0.0 0.0
194.08673977396265 194.08673977396265 0.0 0.0
145.86230949909245 145.86230949909245 0.0 0.0
103.05886503398398 103.05886503398398 0.0 0.0
67.48557629165327 67.48557629165327 0.0 0.0
39.59995767090985 39.59995767090985 0.0 0.0
19.05396299363168 19.05396299363168 0.0 0.0
6.304070531988816 6.304070531988816 0.0 0.0
3.081603189761911 3.081603189761911 0.0 0.0
2.804325858505713 2.804325858505713 0.0 0.0
9.904319653499988 9.904319653499988 0.0 0.0
37.36095271443539 37.36095271443539 0.0 0.0
85.43948540985706 85.43948540985706 0.0 0.0
149.08617956658475 149.08617956658475 0.0 0.0
228.49472826132723 228.49472826132723 0.0 0.0
324.2017969848317 324.2017969848317 0.0 0.0
430.8973856915685 430.8973856915685 0.0 0.0
537.6860308339997 537.6860308339997 0.0 0.0
610.1094921309019 610.1094921309019 0.0 0.0
915.4084377874169 915.4084377874169 0.0 0.0
609.9197560960371 609.9197560960371 0.0 0.0
537.1908760111985 537.1908760111985 0.0 0.0
430.1413435520462 430.1413435520462 0.0 0.0
323.29524101613515 323.29524101613515 0.0 0.0
227.59488850790981 227.59488850790981 0.0 0.0
148.4288872889506 148.4288872889506 0.0 0.0
85.27422392003264 85.27422392003264 0.0 0.0
37.63458802360105 37.63458802360105 0.0 0.0
10.146784708633607 10.146784708633607 0.0 0.0
2.9250697192337567 2.9250697192337567 0.0 0.0
48.9847284767121 48.9847284767121 0.0 0.0
31.85075614200591 31.85075614200591 0.0 0.0
40.58310458763617 40.58310458763617 0.0 0.0
80.28147890776214 80.28147890776214 0.0 0.0
137.04360880205462 137.04360880205462 0.0 0.0
210.25191638803256 210.25191638803256 0.0 0.0
299.92045218914404 299.92045218914404 0.0 0.0
412.53127990007505 412.53127990007505 0.0 0.0
562.1806164575021 562.1806164575021 0.0 0.0
738.436959676466 738.436959676466 0.0 0.0
832.052312790559 832.052312790559 0.0 0.0
738.0287875027566 738.0287875027566 0.0 0.0
561.391912118203 561.391912118203 0.0 0.0
411.369311049586 411.369311049586 0.0 0.0
298.3600944421967 298.3600944421967 0.0 0.0
208.27784653394434 208.27784653394434 0.0 0.0
134.68268337469965 134.68268337469965 0.0 0.0
77.69165172166038 77.69165172166038 0.0 0.0
37.46359623730802 37.46359623730802 0.0 0.0
24.830871982555724 24.830871982555724 0.0 0.0
48.33805963171717 48.33805963171717 0.0 0.0
41.44829107866885 41.44829107866885 0.0 0.0
5.365592326379951 5.365592326379951 0.0 0.0
17.89827959262091 17.89827959262091 0.0 0.0
37.98210467602423 37.98210467602423 0.0 0.0
63.783045951462775 63.783045951462775 0.0 0.0
96.6693318880815 96.6693318880815 0.0 0.0
136.79511464645057 136.79511464645057 0.0 0.0
186.2201549203102 186.2201549203102 0.0 0.0
250.67248333963468 250.67248333963468 0.0 0.0
328.31165155427925 328.31165155427925 0.0 0.0
374.0744104197145 374.0744104197145 0.0 0.0
328.03157151305874 328.03157151305874 0.0 0.0
250.12605317044842 250.12605317044842 0.0 0.0
185.42605377206584 185.42605377206584 0.0 0.0
135.76614546632678 135.76614546632678 0.0 0.0
95.42437697992192 95.42437697992192 0.0 0.0
62.38083201687056 62.38083201687056 0.0 0.0
36.468984013232884 36.468984013232884 0.0 0.0
16.6584816307389 16.6584816307389 0.0 0.0
5.017494879617144 5.017494879617144 0.0 0.0
40.095971415640435 40.095971415640435 0.0 0.0
23.019348116411006 23.019348116411006 0.0 0.0
3.7252221382072235 3.7252221382072235 0.0 0.0
7.722272167720443 7.722272167720443 0.0 0.0
13.646883507645931 13.646883507645931 0.0 0.0
21.145790973164168 21.145790973164168 0.0 0.0
29.780642163125467 29.780642163125467 0.0 0.0
39.883880676087834 39.883880676087834 0.0 0.0
51.309877715321484 51.309877715321484 0.0 0.0
68.67219370956416 68.67219370956416 0.0 0.0
101.67336092753719 101.67336092753719 0.0 0.0
133.89123261148274 133.89123261148274 0.0 0.0
101.56294785060568 101.56294785060568 0.0 0.0
68.43942871868138 68.43942871868138 0.0 0.0
50.96692633647962 50.96692633647962 0.0 0.0
39.45392285781334 39.45392285781334 0.0 0.0
29.30023574685728 29.30023574685728 0.0 0.0
20.658883768901163 20.658883768901163 0.0 0.0
13.278918100448823 13.278918100448823 0.0 0.0
7.800788498276593 7.800788498276593 0.0 0.0
4.2050743050750965 4.2050743050750965 0.0 0.0
23.123785034469886 23.123785034469886 0.0 0.0
11.708463723183929 11.708463723183929 0.0 0.0
5.004813593525449 5.004813593525449 0.0 0.0
6.429010368830143 6.429010368830143 0.0 0.0
6.148176344229074 6.148176344229074 0.0 0.0
6.620851873012328 6.620851873012328 0.0 0.0
7.166390464989076 7.166390464989076 0.0 0.0
7.841405874457286 7.841405874457286 0.0 0.0
8.154101221399735 8.154101221399735 0.0 0.0
9.543984809149975 9.543984809149975 0.0 0.0
21.59937982888027 21.59937982888027 0.0 0.0
60.9268824463578 60.9268824463578 0.0 0.0
21.666489219364923 21.666489219364923 0.0 0.0
9.637627091799086 9.637627091799086 0.0 0.0
8.27089589340209 8.27089589340209 0.0 0.0
7.988378486386631 7.988378486386631 0.0 0.0
7.360043175829713 7.360043175829713 0.0 0.0
6.890708278855539 6.890708278855539 0.0 0.0
6.55653609172287 6.55653609172287 0.0 0.0
6.9546480024134105 6.9546480024134105 0.0 0.0
5.410034659944318 5.410034659944318 0.0 0.0
11.497853095167104 11.497853095167104 0.0 0.0
5.180603442548169 5.180603442548169 0.0 0.0
5.489576074083708 5.489576074083708 0.0 0.0
9.724421583519558 9.724421583519558 0.0 0.0
13.436569918935305 13.436569918935305 0.0 0.0
19.465963982197596 19.465963982197596 0.0 0.0
28.111417950914554 28.111417950914554 0.0 0.0
39.20378765543813 39.20378765543813 0.0 0.0
54.56383934146329 54.56383934146329 0.0 0.0
71.0101358938681 71.0101358938681 0.0 0.0
76.45581132804928 76.45581132804928 0.0 0.0
152.14158669804897 152.14158669804897 0.0 0.0
76.69850879749065 76.69850879749065 0.0 0.0
71.43071769485792 71.43071769485792 0.0 0.0
55.133829036669326 55.133829036669326 0.0 0.0
39.88208490056095 39.88208490056095 0.0 0.0
28.8602347226501 28.8602347226501 0.0 0.0
20.238573679410596 20.238573679410596 0.0 0.0
14.148709197384239 14.148709197384239 0.0 0.0
10.196477273574267 10.196477273574267 0.0 0.0
5.635373373987077 5.635373373987077 0.0 0.0
4.92463705151303 4.92463705151303 0.0 0.0
2.667912379085705 2.667912379085705 0.0 0.0
5.965655291478704 5.965655291478704 0.0 0.0
17.35084582584782 17.35084582584782 0.0 0.0
35.4787138648129 35.4787138648129 0.0 0.0
60.64833220242417 60.64833220242417 0.0 0.0
93.71644552961773 93.71644552961773 0.0 0.0
135.0864972764583 135.0864972764583 0.0 0.0
184.9424417291294 184.9424417291294 0.0 0.0
254.88138002109108 254.88138002109108 0.0 0.0
275.1467714943151 275.1467714943151 0.0 0.0
442.75951688973504 442.75951688973504 0.0 0.0
275.57082104538335 275.57082104538335 0.0 0.0
255.66624034212438 255.66624034212438 0.0 0.0
185.9941843829127 185.9941843829127 0.0 0.0
136.30334668820373 136.30334668820373 0.0 0.0
94.94866221403345 94.94866221403345 0.0 0.0
61.70996329066464 61.70996329066464 0.0 0.0
36.17183328205223 36.17183328205223 0.0 0.0
17.61005235922547 17.61005235922547 0.0 0.0
5.971790821815992 5.971790821815992 0.0 0.0
2.454035421879162 2.454035421879162 0.0 0.0
2.672845342201243 2.672845342201243 0.0 0.0
9.040707851483992 9.040707851483992 0.0 0.0
33.332175887506516 33.332175887506516 0.0 0.0
75.73040177586275 75.73040177586275 0.0 0.0
132.86692278109808 132.86692278109808 0.0 0.0
206.20133522807586 206.20133522807586 0.0 0.0
297.85274894149524 297.85274894149524 0.0 0.0
405.1458391008067 405.1458391008067 0.0 0.0
523.6797992749135 523.6797992749135 0.0 0.0
638.4383465092552 638.4383465092552 0.0 0.0
1191.2844113955327 1191.2844113955327 0.0 0.0
639.0911564573623 639.0911564573623 0.0 0.0
524.9340412176539 524.9340412176539 0.0 0.0
406.82105559850766 406.82105559850766 0.0 0.0
299.744077109622 299.744077109622 0.0 0.0
208.01921288234047 208.01921288234047 0.0 0.0
134.23141622034078 134.23141622034078 0.0 0.0
76.32132376338332 76.32132376338332 0.0 0.0
33.32554534750991 33.32554534750991 0.0 0.0
8.952384035153171 8.952384035153171 0.0 0.0
2.5090864400770356 2.5090864400770356 0.0 0.0
47.641403693890844 47.641403693890844 0.0 0.0
32.769630829629854 32.769630829629854 0.0 0.0
39.946429382077824 39.946429382077824 0.0 0.0
78.17283498193959 78.17283498193959 0.0 0.0
133.63904372975105 133.63904372975105 0.0 0.0
205.71455742532999 205.71455742532999 0.0 0.0
295.5317541624346 295.5317541624346 0.0 0.0
412.23505416277413 412.23505416277413 0.0 0.0
573.31912736078 573.31912736078 0.0 0.0
767.4731944096523 767.4731944096523 0.0 0.0
871.2956319564776 871.2956319564776 0.0 0.0
766.739625856421 766.739625856421 0.0 0.0
571.9290941970337 571.9290941970337 0.0 0.0
410.21880118932984 410.21880118932984 0.0 0.0
292.82878122810223 292.82878122810223 0.0 0.0
202.238545772833 202.238545772833 0.0 0.0
129.36920244784977 129.36920244784977 0.0 0.0
73.3061377718446 73.3061377718446 0.0 0.0
34.45639574441201 34.45639574441201 0.0 0.0
22.199877079735966 22.199877079735966 0.0 0.0
44.4609168484443 44.4609168484443 0.0 0.0
39.336513705300256 39.336513705300256 0.0 0.0
5.377185702230466 5.377185702230466 0.0 0.0
17.796389023370395 17.796389023370395 0.0 0.0
37.32979283470753 37.32979283470753 0.0 0.0
62.58702958013675 62.58702958013675 0.0 0.0
95.05714938173868 95.05714938173868 0.0 0.0
135.3766310378222 135.3766310378222 0.0 0.0
186.71109852997682 186.71109852997682 0.0 0.0
256.0507479364323 256.0507479364323 0.0 0.0
340.9620824908756 340.9620824908756 0.0 0.0
390.92025965860574 390.92025965860574 0.0 0.0
340.4711737801038 340.4711737801038 0.0 0.0
255.10749000733475 255.10749000733475 0.0 0.0
185.35224624641924 185.35224624641924 0.0 0.0
133.6075721933033 133.6075721933033 0.0 0.0
92.87318109356714 92.87318109356714 0.0 0.0
60.03263722669198 60.03263722669198 0.0 0.0
34.50560871627764 34.50560871627764 0.0 0.0
15.443186081867891 15.443186081867891 0.0 0.0
4.396571378594843 4.396571378594843 0.0 0.0
37.21025549435163 37.21025549435163 0.0 0.0
21.952629855750423 21.952629855750423 0.0 0.0
3.2769194584393806 3.2769194584393806 0.0 0.0
7.559005976751524 7.559005976751524 0.0 0.0
13.586225373646975 13.586225373646975 0.0 0.0
21.05832563242653 21.05832563242653 0.0 0.0
29.678353917919278 29.678353917919278 0.0 0.0
39.959104396376844 39.959104396376844 0.0 0.0
52.118826774341656 52.118826774341656 0.0 0.0
71.24776311489323 71.24776311489323 0.0 0.0
106.88701191904852 106.88701191904852 0.0 0.0
140.769106295596 140.769106295596 0.0 0.0
106.68925254670692 106.68925254670692 0.0 0.0
70.8462233637832 70.8462233637832 0.0 0.0
51.53485994047101 51.53485994047101 0.0 0.0
39.22475971592306 39.22475971592306 0.0 0.0
28.839979622685483 28.839979622685483 0.0 0.0
20.1722081869262 20.1722081869262 0.0 0.0
12.860771984556536 12.860771984556536 0.0 0.0
7.505514879572113 7.505514879572113 0.0 0.0
3.878154473648933 3.878154473648933 0.0 0.0
21.142030379220042 21.142030379220042 0.0 0.0
10.889196965377838 10.889196965377838 0.0 0.0
4.481100338944447 4.481100338944447 0.0 0.0
6.0631178074064485 6.0631178074064485 0.0 0.0
6.0318196831047155 6.0318196831047155 0.0 0.0
6.67575590658951 6.67575590658951 0.0 0.0
7.34790504787153 7.34790504787153 0.0 0.0
8.20788955959666 8.20788955959666 0.0 0.0
8.901968360951269 8.901968360951269 0.0 0.0
11.062536702617818 11.062536702617818 0.0 0.0
24.00013705282716 24.00013705282716 0.0 0.0
64.71513752167247 64.71513752167247 0.0 0.0
24.10202651174225 24.10202651174225 0.0 0.0
11.209591620775042 11.209591620775042 0.0 0.0
9.084508960907497 9.084508960907497 0.0 0.0
8.44331988044471 8.44331988044471 0.0 0.0
7.67184629898124 7.67184629898124 0.0 0.0
7.1375648361056765 7.1375648361056765 0.0 0.0
6.713912564260719 6.713912564260719 0.0 0.0
6.89832500050386 6.89832500050386 0.0 0.0
5.122616873113015 5.122616873113015 0.0 0.0
10.077651906452049 10.077651906452049 0.0 0.0
4.60404289202657 4.60404289202657 0.0 0.0
4.992942382357714 4.992942382357714 0.0 0.0
9.04463054555145 9.04463054555145 0.0 0.0
12.716521799218524 12.716521799218524 0.0 0.0
18.68827537774094 18.68827537774094 0.0 0.0
27.284013532196067 27.284013532196067 0.0 0.0
38.54682936070015 38.54682936070015 0.0 0.0
54.67198430636868 54.67198430636868 0.0 0.0
72.74644701816317 72.74644701816317 0.0 0.0
79.19997041965817 79.19997041965817 0.0 0.0
158.83395233857576 158.83395233857576 0.0 0.0
79.59355081955343 79.59355081955343 0.0 0.0
73.42375442303967 73.42375442303967 0.0 0.0
55.57864499089842 55.57864499089842 0.0 0.0
39.637236452344645 39.637236452344645 0.0 0.0
28.51892261777064 28.51892261777064 0.0 0.0
20.001852545262704 20.001852545262704 0.0 0.0
13.95307549427092 13.95307549427092 0.0 0.0
9.872663517267926 9.872663517267926 0.0 0.0
5.2810624794039285 5.2810624794039285 0.0 0.0
4.006712567785559 4.006712567785559 0.0 0.0
2.3281659766805314 2.3281659766805314 0.0 0.0
5.361590471735343 5.361590471735343 0.0 0.0
16.143358702918366 16.143358702918366 0.0 0.0
33.65014501917322 33.65014501917322 0.0 0.0
58.13819696671032 58.13819696671032 0.0 0.0
90.65591201297362 90.65591201297362 0.0 0.0
132.1675175538852 132.1675175538852 0.0 0.0
183.8171169776484 183.8171169776484 0.0 0.0
258.9978216885731 258.9978216885731 0.0 0.0
282.04909223253446 282.04909223253446 0.0 0.0
459.8941620937084 459.8941620937084 0.0 0.0
282.72606850993816 282.72606850993816 0.0 0.0
260.2244414272761 260.2244414272761 0.0 0.0
185.45126480177024 185.45126480177024 0.0 0.0
134.07770058066382 134.07770058066382 0.0 0.0
92.62847891009481 92.62847891009481 0.0 0.0
59.888599049739824 59.888599049739824 0.0 0.0
34.83969742409025 34.83969742409025 0.0 0.0
16.611241586840904 16.611241586840904 0.0 0.0
5.397967450979258 5.397967450979258 0.0 0.0
1.9324973677026225 1.9324973677026225 0.0 0.0
2.1949354190155583 2.1949354190155583 0.0 0.0
7.971048566559138 7.971048566559138 0.0 0.0
31.084054942516005 31.084054942516005 0.0 0.0
72.04577439724537 72.04577439724537 0.0 0.0
127.55726554330877 127.55726554330877 0.0 0.0
199.5155913892458 199.5155913892458 0.0 0.0
291.20022714921134 291.20022714921134 0.0 0.0
402.35204048705026 402.35204048705026 0.0 0.0
531.5289367613606 531.5289367613606 0.0 0.0
656.5312777745289 656.5312777745289 0.0 0.0
1241.9183104480403 1241.9183104480403 0.0 0.0
657.491694669663 657.491694669663 0.0 0.0
533.4034892565012 533.4034892565012 0.0 0.0
404.8809888946779 404.8809888946779 0.0 0.0
294.0969423513402 294.0969423513402 0.0 0.0
202.35084235795668 202.35084235795668 0.0 0.0
129.73373212443283 129.73373212443283 0.0 0.0
73.01592156081887 73.01592156081887 0.0 0.0
31.046496249134364 31.046496249134364 0.0 0.0
7.7541578793179085 7.7541578793179085 0.0 0.0
1.8569362201653385 1.8569362201653385 0.0 0.0
48.98472847668259 48.98472847668259 0.0 0.0
31.850756141961142 31.850756141961142 0.0 0.0
40.58310458760138 40.58310458760138 0.0 0.0
80.28147890773465 80.28147890773465 0.0 0.0
137.04360880204808 137.04360880204808 0.0 0.0
210.25191638802315 210.25191638802315 0.0 0.0
299.9204521891175 299.9204521891175 0.0 0.0
412.53127990002065 412.53127990002065 0.0 0.0
562.1806164574192 562.1806164574192 0.0 0.0
738.4369596763918 738.4369596763918 0.0 0.0
832.0523127904328 832.0523127904328 0.0 0.0
738.0287875025888 738.0287875025888 0.0 0.0
561.3919121180853 561.3919121180853 0.0 0.0
411.3693110495846 411.3693110495846 0.0 0.0
298.3600944422602 298.3600944422602 0.0 0.0
208.27784653408816 208.27784653408816 0.0 0.0
134.6826833747856 134.6826833747856 0.0 0.0
77.69165172170433 77.69165172170433 0.0 0.0
37.46359623733807 37.46359623733807 0.0 0.0
24.830871982579374 24.830871982579374 0.0 0.0
48.338059631762555 48.338059631762555 0.0 0.0
41.44829107865792 41.44829107865792 0.0 0.0
5.365592326374269 5.365592326374269 0.0 0.0
17.89827959260527 17.89827959260527 0.0 0.0
37.98210467601224 37.98210467601224 0.0 0.0
63.78304595144856 63.78304595144856 0.0 0.0
96.6693318880791 96.6693318880791 0.0 0.0
136.79511464643284 136.79511464643284 0.0 0.0
186.22015492027916 186.22015492027916 0.0 0.0
250.67248333958545 250.67248333958545 0.0 0.0
328.3116515542226 328.3116515542226 0.0 0.0
374.07441041963926 374.07441041963926 0.0 0.0
328.031571512995 328.031571512995 0.0 0.0
250.12605317037958 250.12605317037958 0.0 0.0
185.4260537720605 185.4260537720605 0.0 0.0
135.76614546632737 135.76614546632737 0.0 0.0
95.42437697999674 95.42437697999674 0.0 0.0
62.3808320168986 62.3808320168986 0.0 0.0
36.46898401326034 36.46898401326034 0.0 0.0
16.65848163075093 16.65848163075093 0.0 0.0
5.017494879622415 5.017494879622415 0.0 0.0
40.095971415678854 40.095971415678854 0.0 0.0
23.0193481164067 23.0193481164067 0.0 0.0
3.725222138207857 3.725222138207857 0.0 0.0
7.722272167717 7.722272167717 0.0 0.0
13.646883507643041 13.646883507643041 0.0 0.0
21.145790973161162 21.145790973161162 0.0 0.0
29.780642163118205 29.780642163118205 0.0 0.0
39.88388067607173 39.88388067607173 0.0 0.0
51.30987771530172 51.30987771530172 0.0 0.0
68.67219370954253 68.67219370954253 0.0 0.0
101.67336092752065 101.67336092752065 0.0 0.0
133.8912326114578 133.8912326114578 0.0 0.0
101.56294785061955 101.56294785061955 0.0 0.0
68.43942871860759 68.43942871860759 0.0 0.0
50.96692633648628 50.96692633648628 0.0 0.0
39.453922857784555 39.453922857784555 0.0 0.0
29.300235746881878 29.300235746881878 0.0 0.0
20.658883768912357 20.658883768912357 0.0 0.0
13.278918100455092 13.278918100455092 0.0 0.0
7.800788498287021 7.800788498287021 0.0 0.0
4.205074305078769 4.205074305078769 0.0 0.0
23.123785034494365 23.123785034494365 0.0 0.0
11.708463723179248 11.708463723179248 0.0 0.0
5.004813593525584 5.004813593525584 0.0 0.0
6.42901036883064 6.42901036883064 0.0 0.0
6.148176344231727 6.148176344231727 0.0 0.0
6.620851873016113 6.620851873016113 0.0 0.0
7.166390464987887 7.166390464987887 0.0 0.0
7.841405874451343 7.841405874451343 0.0 0.0
8.154101221408773 8.154101221408773 0.0 0.0
9.543984809130967 9.543984809130967 0.0 0.0
21.599379828875417 21.599379828875417 0.0 0.0
60.926882446391005 60.926882446391005 0.0 0.0
21.666489219356308 21.666489219356308 0.0 0.0
9.637627091752927 9.637627091752927 0.0 0.0
8.270895893418139 8.270895893418139 0.0 0.0
7.988378486339026 7.988378486339026 0.0 0.0
7.360043175845456 7.360043175845456 0.0 0.0
6.890708278857514 6.890708278857514 0.0 0.0
6.556536091731494 6.556536091731494 0.0 0.0
6.95464800242106 6.95464800242106 0.0 0.0
5.4100346599504086 5.4100346599504086 0.0 0.0
11.497853095182212 11.497853095182212 0.0 0.0
5.180603442546117 5.180603442546117 0.0 0.0
5.489576074082703 5.489576074082703 0.0 0.0
9.72442158351859 9.72442158351859 0.0 0.0
13.43656991893825 13.43656991893825 0.0 0.0
19.465963982206357 19.465963982206357 0.0 0.0
28.111417950919446 28.111417950919446 0.0 0.0
39.20378765544355 39.20378765544355 0.0 0.0
54.563839341478804 54.563839341478804 0.0 0.0
71.01013589386373 71.01013589386373 0.0 0.0
76.45581132804915 76.45581132804915 0.0 0.0
152.1415866980594 152.1415866980594 0.0 0.0
76.69850879747221 76.69850879747221 0.0 0.0
71.43071769484804 71.43071769484804 0.0 0.0
55.13382903667632 55.13382903667632 0.0 0.0
39.88208490054441 39.88208490054441 0.0 0.0
28.86023472269187 28.86023472269187 0.0 0.0
20.23857367942471 20.23857367942471 0.0 0.0
14.148709197399105 14.148709197399105 0.0 0.0
10.196477273584557 10.196477273584557 0.0 0.0
5.635373373992322 5.635373373992322 0.0 0.0
4.924637051521471 4.924637051521471 0.0 0.0
2.667912379084599 2.667912379084599 0.0 0.0
5.965655291477561 5.965655291477561 0.0 0.0
17.350845825846697 17.350845825846697 0.0 0.0
35.4787138648162 35.4787138648162 0.0 0.0
60.64833220243455 60.64833220243455 0.0 0.0
93.71644552964553 93.71644552964553 0.0 0.0
135.0864972764547 135.0864972764547 0.0 0.0
184.94244172918627 184.94244172918627 0.0 0.0
254.8813800210606 254.8813800210606 0.0 0.0
275.14677149434357 275.14677149434357 0.0 0.0
442.759516889665 442.759516889665 0.0 0.0
275.57082104538813 275.57082104538813 0.0 0.0
255.6662403420856 255.6662403420856 0.0 0.0
185.99418438294026 185.99418438294026 0.0 0.0
136.3033466882191 136.3033466882191 0.0 0.0
94.94866221410454 94.94866221410454 0.0 0.0
61.70996329070126 61.70996329070126 0.0 0.0
36.171833282075696 36.171833282075696 0.0 0.0
17.610052359240882 17.610052359240882 0.0 0.0
5.971790821821479 5.971790821821479 0.0 0.0
2.454035421882716 2.454035421882716 0.0 0.0
2.6728453422004224 2.6728453422004224 0.0 0.0
9.040707851483585 9.040707851483585 0.0 0.0
33.33217588750065 33.33217588750065 0.0 0.0
75.7304017758603 75.7304017758603 0.0 0.0
132.8669227811242 132.8669227811242 0.0 0.0
206.20133522811346 206.20133522811346 0.0 0.0
297.8527489415364 297.8527489415364 0.0 0.0
405.1458391008384 405.1458391008384 0.0 0.0
523.6797992748466 523.6797992748466 0.0 0.0
638.438346509271 638.438346509271 0.0 0.0
1191.2844113954216 1191.2844113954216 0.0 0.0
639.0911564573262 639.0911564573262 0.0 0.0
524.9340412175695 524.9340412175695 0.0 0.0
406.82105559853187 406.82105559853187 0.0 0.0
299.74407710971326 299.74407710971326 0.0 0.0
208.0192128824786 208.0192128824786 0.0 0.0
134.23141622045134 134.23141622045134 0.0 0.0
76.32132376343814 76.32132376343814 0.0 0.0
33.32554534753575 33.32554534753575 0.0 0.0
8.952384035161327 8.952384035161327 0.0 0.0
2.5090864400807975 2.5090864400807975 0.0 0.0
69.07640230828477 69.07640230828477 0.0 0.0
28.50095575329655 28.50095575329655 0.0 0.0
42.33323467008821 42.33323467008821 0.0 0.0
85.29466161414976 85.29466161414976 0.0 0.0
146.2379307448309 146.2379307448309 0.0 0.0
225.75590552585442 225.75590552585442 0.0 0.0
321.0547251216369 321.0547251216369 0.0 0.0
431.14100376201446 431.14100376201446 0.0 0.0
554.9470640954959 554.9470640954959 0.0 0.0
676.7057846229424 676.7057846229424 0.0 0.0
735.1632131370145 735.1632131370145 0.0 0.0
677.0414998836904 677.0414998836904 0.0 0.0
555.5739855904636 555.5739855904636 0.0 0.0
432.0501582987258 432.0501582987258 0.0 0.0
322.29683627970564 322.29683627970564 0.0 0.0
227.42462534617226 227.42462534617226 0.0 0.0
148.47120496700876 148.47120496700876 0.0 0.0
88.12955981915012 88.12955981915012 0.0 0.0
46.34469638680369 46.34469638680369 0.0 0.0
34.044498618516144 34.044498618516144 0.0 0.0
67.32409727955499 67.32409727955499 0.0 0.0
55.39340702679115 55.39340702679115 0.0 0.0
4.819593124992642 4.819593124992642 0.0 0.0
17.864301672860083 17.864301672860083 0.0 0.0
38.87764081667936 38.87764081667936 0.0 0.0
66.56362997832336 66.56362997832336 0.0 0.0
102.09764490015219 102.09764490015219 0.0 0.0
144.66857364561932 144.66857364561932 0.0 0.0
193.13832052406963 193.13832052406963 0.0 0.0
246.69403854341036 246.69403854341036 0.0 0.0
300.4230623420112 300.4230623420112 0.0 0.0
328.8494382886573 328.8494382886573 0.0 0.0
300.6399281320724 300.6399281320724 0.0 0.0
247.1083833469839 247.1083833469839 0.0 0.0
193.7444922898494 193.7444922898494 0.0 0.0
145.48318509046263 145.48318509046263 0.0 0.0
103.15923984788247 103.15923984788247 0.0 0.0
67.91123746043675 67.91123746043675 0.0 0.0
40.59839374610718 40.59839374610718 0.0 0.0
19.556385961475396 19.556385961475396 0.0 0.0
5.540601173957252 5.540601173957252 0.0 0.0
55.73645048153194 55.73645048153194 0.0 0.0
33.282022234670094 33.282022234670094 0.0 0.0
3.9139067370852176 3.9139067370852176 0.0 0.0
7.643372914927935 7.643372914927935 0.0 0.0
12.892226270393115 12.892226270393115 0.0 0.0
20.699752126183107 20.699752126183107 0.0 0.0
29.995377132855715 29.995377132855715 0.0 0.0
40.9402607197512 40.9402607197512 0.0 0.0
52.75644562329434 52.75644562329434 0.0 0.0
66.70812643464656 66.70812643464656 0.0 0.0
87.96325435609481 87.96325435609481 0.0 0.0
107.0313302408882 107.0313302408882 0.0 0.0
88.06562909656627 88.06562909656627 0.0 0.0
66.9096297737 66.9096297737 0.0 0.0
53.0500196482648 53.0500196482648 0.0 0.0
41.316389937558995 41.316389937558995 0.0 0.0
30.44409774602361 30.44409774602361 0.0 0.0
21.21973731526042 21.21973731526042 0.0 0.0
13.418031801582671 13.418031801582671 0.0 0.0
7.795902788750931 7.795902788750931 0.0 0.0
3.4264162983486846 3.4264162983486846 0.0 0.0
32.99661240382598 32.99661240382598 0.0 0.0
16.549025854522412 16.549025854522412 0.0 0.0
5.459119749424987 5.459119749424987 0.0 0.0
6.678310768934891 6.678310768934891 0.0 0.0
5.761858711269896 5.761858711269896 0.0 0.0
5.988590016258232 5.988590016258232 0.0 0.0
6.533013606255209 6.533013606255209 0.0 0.0
7.259006376680963 7.259006376680963 0.0 0.0
7.700934806234252 7.700934806234252 0.0 0.0
8.12438644166221 8.12438644166221 0.0 0.0
14.769758252729163 14.769758252729163 0.0 0.0
36.129866157377506 36.129866157377506 0.0 0.0
14.748136513713122 14.748136513713122 0.0 0.0
8.112800570038408 8.112800570038408 0.0 0.0
7.696686166044243 7.696686166044243 0.0 0.0
7.241343918093874 7.241343918093874 0.0 0.0
6.4767551885146775 6.4767551885146775 0.0 0.0
5.861084357815068 5.861084357815068 0.0 0.0
5.495801942245125 5.495801942245125 0.0 0.0
6.221298154676947 6.221298154676947 0.0 0.0
4.862718246102445 4.862718246102445 0.0 0.0
16.659365830885083 16.659365830885083 0.0 0.0
6.856505935218882 6.856505935218882 0.0 0.0
5.865206135350867 5.865206135350867 0.0 0.0
10.474409099894906 10.474409099894906 0.0 0.0
14.765413646587472 14.765413646587472 0.0 0.0
21.397981307616174 21.397981307616174 0.0 0.0
30.629075172164804 30.629075172164804 0.0 0.0
41.874832405940325 41.874832405940325 0.0 0.0
55.78059836875312 55.78059836875312 0.0 0.0
68.9440029945015 68.9440029945015 0.0 0.0
72.759684984715 72.759684984715 0.0 0.0
110.23308040691441 110.23308040691441 0.0 0.0
72.60789403094587 72.60789403094587 0.0 0.0
68.73297564866867 68.73297564866867 0.0 0.0
55.50813132525322 55.50813132525322 0.0 0.0
41.532259216223764 41.532259216223764 0.0 0.0
30.213701531395326 30.213701531395326 0.0 0.0
20.90862516610714 20.90862516610714 0.0 0.0
14.236163565693905 14.236163565693905 0.0 0.0
10.023622174617042 10.023622174617042 0.0 0.0
5.516419556877756 5.516419556877756 0.0 0.0
7.003200029796775 7.003200029796775 0.0 0.0
3.020159809227419 3.020159809227419 0.0 0.0
6.387076175870338 6.387076175870338 0.0 0.0
19.20958345077017 19.20958345077017 0.0 0.0
40.00639917615801 40.00639917615801 0.0 0.0
68.08176972838521 68.08176972838521 0.0 0.0
103.7164718210309 103.7164718210309 0.0 0.0
146.48420719803306 146.48420719803306 0.0 0.0
194.60439040174364 194.60439040174364 0.0 0.0
252.9705456011062 252.9705456011062 0.0 0.0
268.65849764517526 268.65849764517526 0.0 0.0
346.6094976310076 346.6094976310076 0.0 0.0
268.39306252781773 268.39306252781773 0.0 0.0
252.59419863802486 252.59419863802486 0.0 0.0
194.08673977399016 194.08673977399016 0.0 0.0
145.86230949916626 145.86230949916626 0.0 0.0
103.05886503406438 103.05886503406438 0.0 0.0
67.48557629172862 67.48557629172862 0.0 0.0
39.599957670962475 39.599957670962475 0.0 0.0
19.0539629936568 19.0539629936568 0.0 0.0
6.304070531997185 6.304070531997185 0.0 0.0
3.0816031897689626 3.0816031897689626 0.0 0.0
2.8043258585029607 2.8043258585029607 0.0 0.0
9.904319653493411 9.904319653493411 0.0 0.0
37.360952714430006 37.360952714430006 0.0 0.0
85.43948540986544 85.43948540986544 0.0 0.0
149.0861795665867 149.0861795665867 0.0 0.0
228.49472826129235 228.49472826129235 0.0 0.0
324.20179698491404 324.20179698491404 0.0 0.0
430.8973856917567 430.8973856917567 0.0 0.0
537.6860308341822 537.6860308341822 0.0 0.0
610.1094921308924 610.1094921308924 0.0 0.0
915.4084377865508 915.4084377865508 0.0 0.0
609.9197560960404 609.9197560960404 0.0 0.0
537.1908760113093 537.1908760113093 0.0 0.0
430.14134355208546 430.14134355208546 0.0 0.0
323.2952410162918 323.2952410162918 0.0 0.0
227.59488850807892 227.59488850807892 0.0 0.0
148.42888728913206 148.42888728913206 0.0 0.0
85.27422392014012 85.27422392014012 0.0 0.0
37.63458802365176 37.63458802365176 0.0 0.0
10.146784708650376 10.146784708650376 0.0 0.0
2.9250697192409607 2.9250697192409607 0.0 0.0
185.5882723197367 185.5882723197367 0.0 0.0
33.582518500223635 33.582518500223635 0.0 0.0
40.01030360966034 40.01030360966034 0.0 0.0
83.76192639765006 83.76192639765006 0.0 0.0
147.75953502861023 147.75953502861023 0.0 0.0
232.86982778080568 232.86982778080568 0.0 0.0
335.32147299673335 335.32147299673335 0.0 0.0
449.9376106082474 449.9376106082474 0.0 0.0
560.166300702043 560.166300702043 0.0 0.0
636.3413697083364 636.3413697083364 0.0 0.0
660.847731275949 660.847731275949 0.0 0.0
637.3040215795966 637.3040215795966 0.0 0.0
562.091010439867 562.091010439867 0.0 0.0
452.873316181577 452.873316181577 0.0 0.0
339.35369600709987 339.35369600709987 0.0 0.0
238.03123511167706 238.03123511167706 0.0 0.0
153.90608725747856 153.90608725747856 0.0 0.0
90.49744583606525 90.49744583606525 0.0 0.0
47.576187273459915 47.576187273459915 0.0 0.0
53.014788400380226 53.014788400380226 0.0 0.0
177.8029715888847 177.8029715888847 0.0 0.0
137.77568906335335 137.77568906335335 0.0 0.0
4.168850228465867 4.168850228465867 0.0 0.0
18.599750415342402 18.599750415342402 0.0 0.0
39.75780444210881 39.75780444210881 0.0 0.0
68.24518420422483 68.24518420422483 0.0 0.0
105.25323647013224 105.25323647013224 0.0 0.0
150.01969820099893 150.01969820099893 0.0 0.0
200.50974978224696 200.50974978224696 0.0 0.0
250.07735833474953 250.07735833474953 0.0 0.0
285.2692083510257 285.2692083510257 0.0 0.0
296.7171549390542 296.7171549390542 0.0 0.0
285.89351384736096 285.89351384736096 0.0 0.0
251.32116405871497 251.32116405871497 0.0 0.0
202.3866706934349 202.3866706934349 0.0 0.0
152.54129721642124 152.54129721642124 0.0 0.0
108.38816976336786 108.38816976336786 0.0 0.0
71.83084262905982 71.83084262905982 0.0 0.0
43.518556611378315 43.518556611378315 0.0 0.0
21.269174134462514 21.269174134462514 0.0 0.0
4.8143821230438455 4.8143821230438455 0.0 0.0
144.71032669615528 144.71032669615528 0.0 0.0
76.64539102285742 76.64539102285742 0.0 0.0
11.382519184659309 11.382519184659309 0.0 0.0
15.984014606135396 15.984014606135396 0.0 0.0
20.8062815716445 20.8062815716445 0.0 0.0
28.784028127091958 28.784028127091958 0.0 0.0
38.01036470429648 38.01036470429648 0.0 0.0
49.32984015785824 49.32984015785824 0.0 0.0
63.32795584202434 63.32795584202434 0.0 0.0
78.55313403675716 78.55313403675716 0.0 0.0
88.68739031961022 88.68739031961022 0.0 0.0
91.55580085887277 91.55580085887277 0.0 0.0
88.94373071348213 88.94373071348213 0.0 0.0
79.04072537898519 79.04072537898519 0.0 0.0
64.03290010730353 64.03290010730353 0.0 0.0
50.22641864251398 50.22641864251398 0.0 0.0
39.0342139322158 39.0342139322158 0.0 0.0
29.81160387703023 29.81160387703023 0.0 0.0
21.410315533706036 21.410315533706036 0.0 0.0
15.551379991053388 15.551379991053388 0.0 0.0
9.632401657116803 9.632401657116803 0.0 0.0
79.97327658146195 79.97327658146195 0.0 0.0
35.354357466722426 35.354357466722426 0.0 0.0
16.51416329622185 16.51416329622185 0.0 0.0
20.587143242517005 20.587143242517005 0.0 0.0
18.848367704992164 18.848367704992164 0.0 0.0
18.604237207785854 18.604237207785854 0.0 0.0
18.327498942667333 18.327498942667333 0.0 0.0
18.003076805553263 18.003076805553263 0.0 0.0
18.614416001947525 18.614416001947525 0.0 0.0
21.515594238945813 21.515594238945813 0.0 0.0
24.719622530202074 24.719622530202074 0.0 0.0
26.81776630267172 26.81776630267172 0.0 0.0
24.628973986280542 24.628973986280542 0.0 0.0
21.29856471671425 21.29856471671425 0.0 0.0
18.254138112614893 18.254138112614893 0.0 0.0
17.472179136200513 17.472179136200513 0.0 0.0
17.588007174938618 17.588007174938618 0.0 0.0
17.57767035112001 17.57767035112001 0.0 0.0
17.39689659039252 17.39689659039252 0.0 0.0
18.92704821944028 18.92704821944028 0.0 0.0
15.145182819884573 15.145182819884573 0.0 0.0
37.212792495049854 37.212792495049854 0.0 0.0
13.420419873497886 13.420419873497886 0.0 0.0
15.186599712492187 15.186599712492187 0.0 0.0
24.327090443631295 24.327090443631295 0.0 0.0
28.65051206503119 28.65051206503119 0.0 0.0
34.54590650913489 34.54590650913489 0.0 0.0
42.71530889803381 42.71530889803381 0.0 0.0
52.38554488098352 52.38554488098352 0.0 0.0
61.80315982712622 61.80315982712622 0.0 0.0
72.38569739002276 72.38569739002276 0.0 0.0
88.9859799411679 88.9859799411679 0.0 0.0
99.61131095170714 99.61131095170714 0.0 0.0
88.57922028941312 88.57922028941312 0.0 0.0
71.5504547295534 71.5504547295534 0.0 0.0
60.540244135244635 60.540244135244635 0.0 0.0
50.71451112310362 50.71451112310362 0.0 0.0
40.690019248639246 40.690019248639246 0.0 0.0
32.27102431488359 32.27102431488359 0.0 0.0
26.406399771868013 26.406399771868013 0.0 0.0
22.75020497398631 22.75020497398631 0.0 0.0
14.509334094064593 14.509334094064593 0.0 0.0
14.119517328852638 14.119517328852638 0.0 0.0
4.682698956949117 4.682698956949117 0.0 0.0
11.589382281078901 11.589382281078901 0.0 0.0
28.79561965386525 28.79561965386525 0.0 0.0
51.535103787162015 51.535103787162015 0.0 0.0
79.8499827309489 79.8499827309489 0.0 0.0
114.95541391783561 114.95541391783561 0.0 0.0
156.05032607235918 156.05032607235918 0.0 0.0
200.8586941734654 200.8586941734654 0.0 0.0
235.41637081446055 235.41637081446055 0.0 0.0
287.12297175772284 287.12297175772284 0.0 0.0
312.33624080099503 312.33624080099503 0.0 0.0
286.4018629740321 286.4018629740321 0.0 0.0
234.00355141767682 234.00355141767682 0.0 0.0
198.74541269809887 198.74541269809887 0.0 0.0
153.3915410254732 153.3915410254732 0.0 0.0
111.98379701098328 111.98379701098328 0.0 0.0
76.98636777892432 76.98636777892432 0.0 0.0
49.390834055613034 49.390834055613034 0.0 0.0
27.805734628202757 27.805734628202757 0.0 0.0
11.33113479760613 11.33113479760613 0.0 0.0
4.8560098658326005 4.8560098658326005 0.0 0.0
2.877289808659703 2.877289808659703 0.0 0.0
12.509694918837457 12.509694918837457 0.0 0.0
45.41800735680026 45.41800735680026 0.0 0.0
99.24118935079537 99.24118935079537 0.0 0.0
166.25561476940894 166.25561476940894 0.0 0.0
247.90793801009627 247.90793801009627 0.0 0.0
343.9703367322081 343.9703367322081 0.0 0.0
451.4397468115436 451.4397468115436 0.0 0.0
561.1988726931256 561.1988726931256 0.0 0.0
666.2166704298625 666.2166704298625 0.0 0.0
572.829634277366 572.829634277366 0.0 0.0
665.286687608101 665.286687608101 0.0 0.0
558.9958927097503 558.9958927097503 0.0 0.0
448.20877105789117 448.20877105789117 0.0 0.0
340.02294301371586 340.02294301371586 0.0 0.0
243.7626438565828 243.7626438565828 0.0 0.0
162.78631573141814 162.78631573141814 0.0 0.0
97.42179145988364 97.42179145988364 0.0 0.0
45.24953507335299 45.24953507335299 0.0 0.0
12.737371218728947 12.737371218728947 0.0 0.0
3.0473495630012657 3.0473495630012657 0.0 0.0