# vtk DataFile Version 2.0
Some data
ASCII
DATASET UNSTRUCTURED_GRID
POINTS 682 float
-50.0 -50.0 0.0
50.0 -50.0 0.0
50.0 50.0 0.0
-50.0 50.0 0.0
0.0 20.0 0.0
0.0 -20.0 0.0
-45.99999999999896 50.0 0.0
-41.9999999999979 50.0 0.0
-37.99999999999686 50.0 0.0
-33.99999999999581 50.0 0.0
-30.00000000000059 50.0 0.0
-26.00000000001376 50.0 0.0
-22.00000000002693 50.0 0.0
-18.0000000000401 50.0 0.0
-14.00000000005324 50.0 0.0
-10.0000000000664 50.0 0.0
-6.000000000079542 50.0 0.0
-2.000000000092656 50.0 0.0
1.999999999906121 50.0 0.0
5.999999999915295 50.0 0.0
9.999999999923459 50.0 0.0
13.99999999993163 50.0 0.0
17.99999999994331 50.0 0.0
21.99999999995853 50.0 0.0
25.99999999997376 50.0 0.0
29.99999999998899 50.0 0.0
33.99999999999586 50.0 0.0
37.9999999999969 50.0 0.0
41.99999999999793 50.0 0.0
45.99999999999896 50.0 0.0
50.0 45.99999999999896 0.0
50.0 41.9999999999979 0.0
50.0 37.99999999999686 0.0
50.0 33.99999999999581 0.0
50.0 30.00000000000059 0.0
50.0 26.00000000001376 0.0
50.0 22.00000000002693 0.0
50.0 18.0000000000401 0.0
50.0 14.00000000005324 0.0
50.0 10.0000000000664 0.0
50.0 6.000000000079542 0.0
50.0 2.000000000092656 0.0
50.0 -1.999999999906121 0.0
50.0 -5.999999999915295 0.0
50.0 -9.999999999923459 0.0
50.0 -13.99999999993163 0.0
50.0 -17.99999999994331 0.0
50.0 -21.99999999995853 0.0
50.0 -25.99999999997376 0.0
50.0 -29.99999999998899 0.0
50.0 -33.99999999999586 0.0
50.0 -37.9999999999969 0.0
50.0 -41.99999999999793 0.0
50.0 -45.99999999999896 0.0
45.99999999999896 -50.0 0.0
41.9999999999979 -50.0 0.0
37.99999999999686 -50.0 0.0
33.99999999999581 -50.0 0.0
30.00000000000059 -50.0 0.0
26.00000000001376 -50.0 0.0
22.00000000002693 -50.0 0.0
18.0000000000401 -50.0 0.0
14.00000000005324 -50.0 0.0
10.0000000000664 -50.0 0.0
6.000000000079542 -50.0 0.0
2.000000000092656 -50.0 0.0
-1.999999999906121 -50.0 0.0
-5.999999999915295 -50.0 0.0
-9.999999999923459 -50.0 0.0
-13.99999999993163 -50.0 0.0
-17.99999999994331 -50.0 0.0
-21.99999999995853 -50.0 0.0
-25.99999999997376 -50.0 0.0
-29.99999999998899 -50.0 0.0
-33.99999999999586 -50.0 0.0
-37.9999999999969 -50.0 0.0
-41.99999999999793 -50.0 0.0
-45.99999999999896 -50.0 0.0
-50.0 -45.99999999999896 0.0
-50.0 -41.9999999999979 0.0
-50.0 -37.99999999999686 0.0
-50.0 -33.99999999999581 0.0
-50.0 -30.00000000000059 0.0
-50.0 -26.00000000001376 0.0
-50.0 -22.00000000002693 0.0
-50.0 -18.0000000000401 0.0
-50.0 -14.00000000005324 0.0
-50.0 -10.0000000000664 0.0
-50.0 -6.000000000079542 0.0
-50.0 -2.000000000092656 0.0
-50.0 1.999999999906121 0.0
-50.0 5.999999999915295 0.0
-50.0 9.999999999923459 0.0
-50.0 13.99999999993163 0.0
-50.0 17.99999999994331 0.0
-50.0 21.99999999995853 0.0
-50.0 25.99999999997376 0.0
-50.0 29.99999999998899 0.0
-50.0 33.99999999999586 0.0
-50.0 37.9999999999969 0.0
-50.0 41.99999999999793 0.0
-50.0 45.99999999999896 0.0
-3.901806440288044 19.61570560807148 0.0
-7.653668647265455 18.47759065024079 0.0
-11.11140466035381 16.62939224607645 0.0
-14.14213562369474 14.14213562376717 0.0
-16.62939224601915 11.11140466043957 0.0
-18.47759065020115 7.653668647361153 0.0
-19.61570560805066 3.901806440392695 0.0
-20.0 7.776568614319829e-11 0.0
-19.6157056080774 -3.901806440258285 0.0
-18.47759065024524 -7.653668647254714 0.0
-16.62939224607186 -11.11140466036069 0.0
-14.14213562374694 -14.14213562371497 0.0
-11.11140466040043 -16.6293922460453 0.0
-7.65366864729932 -18.47759065022676 0.0
-3.90180644030583 -19.61570560806794 0.0
3.901806440288044 -19.61570560807148 0.0
7.653668647265455 -18.47759065024079 0.0
11.11140466035381 -16.62939224607645 0.0
14.14213562369474 -14.14213562376717 0.0
16.62939224601915 -11.11140466043957 0.0
18.47759065020115 -7.653668647361153 0.0
19.61570560805066 -3.901806440392695 0.0
20.0 -7.776568614319829e-11 0.0
19.6157056080774 3.901806440258285 0.0
18.47759065024524 7.653668647254714 0.0
16.62939224607186 11.11140466036069 0.0
14.14213562374694 14.14213562371497 0.0
11.11140466040043 16.6293922460453 0.0
7.65366864729932 18.47759065022676 0.0
3.90180644030583 19.61570560806794 0.0
21.0349885606842 -31.33291989490623 0.0
-21.92213524993364 32.47129740082516 0.0
-32.94195718131923 -21.14859496421213 0.0
32.48407655338185 21.92361233001349 0.0
-31.42766785017118 20.52973637256061 0.0
31.34269999426618 -20.843591133012 0.0
-20.66850481250735 -31.44486891594184 0.0
20.0281921064395 31.55415036089927 0.0
-18.67233805424752 42.50512532845049 0.0
18.19374025937458 -41.3023818091193 0.0
-42.17227278268256 -16.24076058910855 0.0
42.33829241096302 18.38562740073045 0.0
-40.86321105291192 18.22045265123251 0.0
-19.09931494913455 -40.64436380017196 0.0
-13.30478786335714 35.15565346988954 0.0
13.36569963208577 -33.83771726345368 0.0
-35.00763648785878 -13.66986120776997 0.0
35.15137232365157 13.29896341749408 0.0
-35.91973878086461 15.7257524773399 0.0
35.68134262944334 -13.50523986115313 0.0
14.28764867624587 35.97175823727987 0.0
-13.25608024279581 -36.09807581453354 0.0
-3.43573809733963 36.46130396748957 0.0
35.94387149962209 3.283015085636099 0.0
-35.62528452942622 -38.11661102564214 0.0
-38.61144023634591 34.81445789116533 0.0
34.36510053755555 38.72526495721833 0.0
38.75250588014823 -36.60167160487691 0.0
-40.57866978399257 46.81464340686621 0.0
45.20714492860375 -46.49369314478449 0.0
-34.56961509198562 -30.09715433458693 0.0
28.89989496625516 -35.30943539832101 0.0
35.24685681111853 -28.36472795070014 0.0
-30.34643278536468 34.20824456163002 0.0
34.03674534806063 30.31422029262094 0.0
-28.98189249145605 -10.98912622604279 0.0
25.41109985201274 -43.16931712699911 0.0
-26.597795920339 42.20147207521702 0.0
41.32669930959985 25.54113667098549 0.0
-22.48882370483756 -40.46175611878148 0.0
-18.0669898619053 25.26632201893649 0.0
17.72813917294362 -23.64712901441006 0.0
23.72778775552051 -17.64338066683542 0.0
-22.77443519795011 17.31221796259062 0.0
-25.07450847978108 -17.78314326524689 0.0
25.28898803843497 18.0556593023152 0.0
-17.71437862979588 -23.80397494215774 0.0
17.65719024624709 23.77463017495757 0.0
-27.9747090463393 -35.48993805662332 0.0
-35.40621929961179 27.30862593778066 0.0
26.16468943600576 -25.93382240574992 0.0
-26.50488120041251 25.78703828377619 0.0
-25.97573520979492 -26.47925882668211 0.0
25.80354875442789 26.4894138501519 0.0
-42.69565153438871 -35.45658735479477 0.0
27.18760823652676 35.38729571427982 0.0
41.88190235801823 34.45418445087055 0.0
-34.6954444584546 41.95187196559198 0.0
27.48629807742796 43.2394635414067 0.0
-43.21551196682957 27.63698140879208 0.0
43.40873777236504 -29.7149531370159 0.0
0.03902805686112204 25.50793362079343 0.0
26.49058815765176 0.4508521119359422 0.0
-27.16496611088848 -0.3998490888626399 0.0
-13.90465237569755 42.85919552680384 0.0
11.88268567144881 -43.5135427466366 0.0
-43.04762412693207 -13.58015228415966 0.0
42.8552257871967 13.9000399701175 0.0
43.84814664488243 -13.00404812910894 0.0
-43.89144862605731 12.87407331471758 0.0
-13.51069816788382 -43.5843256978244 0.0
13.05276926181895 43.88413546700496 0.0
43.47454277746057 -4.273927059036473 0.0
4.251839695595125 -43.00296293389271 0.0
-3.677127186826619 42.47072306863843 0.0
-42.57048792093359 -4.104201340196073 0.0
42.23487267792431 4.555512209557088 0.0
1.403550233453511 38.06263322058061 0.0
-28.6840696329963 -43.9094240394531 0.0
33.45783844263915 -43.62753908831294 0.0
46.33332628542988 -37.22257550074718 0.0
-46.58186236091294 35.08454843805947 0.0
-36.97468536493553 -45.693350813237 0.0
-41.50382447786544 42.97499305120035 0.0
-19.37061511912771 38.0783770016086 0.0
20.62296912632873 -38.16205147245761 0.0
-39.43229634248945 20.8134107432894 0.0
38.03064832695853 19.30833920884766 0.0
-20.71607715948846 -38.35175377766666 0.0
20.12189638536551 40.28938809992449 0.0
-41.03453967019605 -39.37510093269113 0.0
-46.42354308684152 43.6290998046874 0.0
-32.92916635725854 17.48596688573752 0.0
33.39922705361964 -17.56142203091263 0.0
-17.51123177642824 -33.46247860523317 0.0
16.29579410043273 32.3606547707406 0.0
-16.93738969355763 35.11727165207721 0.0
17.66368300133982 -33.38345136950765 0.0
35.09735848955847 16.90917182891173 0.0
-31.95048704757514 -16.86533364453098 0.0
41.12700327893752 -46.82287762733851 0.0
46.76974310941768 -41.50919855609006 0.0
19.2957726357979 -45.77701341558947 0.0
-45.76103885556889 -20.35867523002106 0.0
46.35337201291616 20.17070680000077 0.0
-46.70307824580135 19.91031570263512 0.0
-20.22689438772374 -46.69049767040066 0.0
19.89010420255736 46.694342063494 0.0
-41.32201878705205 -43.02276791727626 0.0
42.55326811187462 -43.1237758300644 0.0
40.75109930525767 42.8781751402188 0.0
-44.64664607221794 -40.31474560117277 0.0
-9.48349620752917 34.75512027243715 0.0
8.839568714324972 -36.26944765178768 0.0
34.7531496671939 9.48137247453693 0.0
-35.79167376164647 -9.47755618328256 0.0
16.77397813178351 -37.05172633854437 0.0
-37.99817303550739 17.61249595904635 0.0
37.17101194375822 -17.66060549259279 0.0
-17.56397712116187 -37.24041616734706 0.0
-40.87405509507679 -46.63739324906918 0.0
-36.49599937835107 8.108151523774188 0.0
36.30113923803823 -8.41251196005289 0.0
-7.862078692618412 -36.10177033464163 0.0
8.387693823454779 36.44673844565912 0.0
-46.86026167424509 -36.33176564404296 0.0
-47.84280426237672 -40.10656090758755 0.0
-24.2845560941761 10.04357796342171 0.0
24.45065917299803 -10.63823576451899 0.0
10.67341336290341 25.03669293607638 0.0
-10.66487524635786 -24.46785092437751 0.0
-9.442240815741325 24.5716331986801 0.0
10.55599485582231 -25.14245433446974 0.0
-25.4176844222611 -9.602754668773738 0.0
24.57370499155401 9.440224709866296 0.0
31.7775279301888 -39.86443256499796 0.0
-28.74292279463252 -19.72043452254821 0.0
-19.91350375568665 28.7759248820648 0.0
28.78440433333324 19.90267071306655 0.0
34.27171978713856 -36.12886642978678 0.0
-24.97928262938201 -22.11982520009731 0.0
24.93910918910761 22.11705602762547 0.0
-22.12717428288939 24.92334430133729 0.0
41.4433884223758 30.01312781027387 0.0
-30.30972234325325 41.26155945377006 0.0
-21.76575115563634 -24.81903908726212 0.0
21.86738564489765 -24.44453101328128 0.0
21.70053754803671 24.80786306315723 0.0
24.66866364651609 -21.69992801870708 0.0
21.53397179143645 20.79002112385452 0.0
-20.81238915222155 21.52823876486881 0.0
-21.56726400591951 -20.79710903808696 0.0
-32.41141883193087 38.15853607211221 0.0
-25.19718413950319 21.19588217897681 0.0
-26.28637981374742 5.757344021361345 0.0
27.09044992097831 -7.865367665577171 0.0
5.292297663326828 26.15875440873394 0.0
-7.182834282322627 -26.79319164752931 0.0
6.07554513823264 -26.01617958827297 0.0
-5.167406982938196 26.14218292748527 0.0
26.1420072436647 5.166883667742996 0.0
-25.90619011663622 -5.317432027607834 0.0
37.00465183982011 -32.44224693105269 0.0
20.88652671096859 -20.77498475663256 0.0
-28.79982085586687 -16.4369437253037 0.0
-37.45350829121612 -23.11877944895929 0.0
-15.10258591314434 28.89602376670976 0.0
28.9013055661156 15.09521053187982 0.0
29.68999742037443 -43.31981760192348 0.0
32.28802864858128 -31.62881681890865 0.0
27.82804206942537 -30.30013556405221 0.0
-38.14439335805944 -27.66627416732167 0.0
-22.98369302518139 36.67752571171749 0.0
41.06123645712469 -32.8726901915552 0.0
36.8149944293849 23.09956855971062 0.0
30.62108924979503 -27.41426834463885 0.0
-42.49714928391047 -28.93273599191799 0.0
18.64170406124944 -28.53882502576317 0.0
-31.8721956957397 -37.10275290420343 0.0
38.05743322617566 32.24492185236286 0.0
28.61679479186527 -18.51328504651171 0.0
-18.47455258739948 -28.71169188983244 0.0
-32.79333722339119 -41.28544063528315 0.0
-30.24441309414651 -28.39779293230465 0.0
27.24885644594872 -39.76191319704936 0.0
-29.05665361759432 18.16192768609967 0.0
-28.48010453428999 29.9443665808475 0.0
-27.18014007087914 -30.95699773619476 0.0
37.54130055318566 27.7669489208769 0.0
17.9155158341415 28.03638967459029 0.0
-27.57094307763599 37.93969612336196 0.0
-30.97397708962258 26.82237305728564 0.0
26.78179049924921 30.94065166786703 0.0
39.59204495502527 -29.17613422922446 0.0
29.96137657966497 28.44157396572155 0.0
46.22951749688345 -23.10348972462486 0.0
30.5010366361774 32.76492978218841 0.0
-28.74508703314905 -39.67600195136983 0.0
-32.80254604484505 30.6430386233863 0.0
-35.17450863250387 -34.40542732519621 0.0
-40.86320176941266 31.24387768384927 0.0
-31.16926360526568 -32.74167721485155 0.0
-18.29235422726632 -14.07297047736662 0.0
-14.07591592655374 18.20333108125833 0.0
18.21377941283814 14.07715105758181 0.0
-42.75411559414035 8.592811767496478 0.0
43.39334985526564 -6.944158408799351 0.0
8.797223026487808 42.6608082197339 0.0
-9.490762946082466 -43.97245280505431 0.0
-25.90232122849978 33.44073908523711 0.0
-36.42010031645136 38.08814524026629 0.0
-24.50274483972967 -45.62129349970063 0.0
33.39817839843299 25.86047376623846 0.0
30.9440428473042 40.97733438204173 0.0
-39.24848436563897 -32.15184566594076 0.0
-36.96453485115451 30.97953267423736 0.0
-33.73039942317713 -25.72802894429692 0.0
-24.0421762222579 29.2833252825036 0.0
24.56499477991099 -32.73283792917382 0.0
-45.71626931619788 -31.97831920681199 0.0
14.81453938568843 -26.83464864859409 0.0
24.20991787485559 -36.83071623954785 0.0
29.28261406326955 24.01922903602504 0.0
45.2669583349542 25.1940279193114 0.0
-34.5927455110154 34.48199251046626 0.0
25.02993334449447 13.25525763516154 0.0
-13.25693681265574 25.01962940230319 0.0
-26.3836775832552 -13.65895279252274 0.0
-29.42597287582431 -23.98010393094112 0.0
30.74664517741998 36.97902902031694 0.0
38.01985475999823 36.23486146701501 0.0
34.34803934320186 34.56360979994062 0.0
36.26704224384486 -40.22600997812489 0.0
26.86814794906538 -14.74030795864398 0.0
-14.73044119909943 -26.92144100865037 0.0
14.64765790954706 25.70244253836058 0.0
-26.49251568532352 14.14247946127732 0.0
-39.48758295567198 27.83624405073167 0.0
-44.66607386367298 31.58755726078512 0.0
27.67242487226863 39.49781283126286 0.0
-46.55675186613041 -27.7621746902413 0.0
-39.45600522301348 2.381576184787837 0.0
30.66396661694665 44.39449981822943 0.0
7.857090284066949 -43.27191349714475 0.0
-9.159082885848226 43.31969347140967 0.0
-43.62116548617896 -9.253162047198638 0.0
43.611430039383 9.040613863437962 0.0
45.98376717286205 32.2009835676242 0.0
-45.389712979206 23.86914127750428 0.0
10.34228162882368 -39.99424199609026 0.0
-43.67182065233586 17.51833736258743 0.0
33.05028478376012 -24.45798819789671 0.0
-39.67852562212685 10.69446869876732 0.0
41.30332959498383 -10.12984759752794 0.0
11.34367296257085 39.09720076987105 0.0
-10.88813169860112 -40.26160986423455 0.0
17.68115346783402 43.55158748812199 0.0
23.81133263496577 45.37465429702623 0.0
-24.21477708668854 -33.24418528356734 0.0
-38.75091420128646 -36.52976907067565 0.0
45.26097195937459 -33.62178219366206 0.0
34.2175687603951 43.43437483821785 0.0
43.58359628715256 46.36436102462177 0.0
22.49068308813261 -41.36141860811821 0.0
-16.49612922610315 46.46889704172005 0.0
45.45731611874064 16.61099966478978 0.0
23.32075006006632 -28.86688113527965 0.0
43.78120466144439 22.42130580750169 0.0
-23.05199524807827 42.8073676407578 0.0
-33.21780115492601 23.8802161043464 0.0
-32.88131466013829 -45.12916391509268 0.0
-12.21852879601559 46.37003840516165 0.0
12.68254213086002 -46.95803841041158 0.0
-46.44682984019337 -12.07028681347912 0.0
46.368502470457 12.21700317338924 0.0
-47.50656647873077 12.46160355352135 0.0
12.49772665178411 47.50158423076506 0.0
-12.28265180294652 -46.89783805356987 0.0
-3.784605527721563 39.26762646546352 0.0
-38.26583489745879 -3.513573764117757 0.0
23.35399842694721 33.33716781648582 0.0
-23.01824103204051 -29.25803295477584 0.0
37.65981943679709 -24.83183282924892 0.0
37.95339171695685 -44.41709099308546 0.0
29.06147032268861 -23.11808967269176 0.0
-32.28050962748894 -10.45216305041422 0.0
22.63462329308984 29.26925584229041 0.0
42.22946982563396 -24.98616802294894 0.0
-24.40176943548067 -37.75136497953744 0.0
15.28456907833274 -44.19138684509478 0.0
-29.24378688698793 22.84763830097437 0.0
-2.730717915239267 32.42776599584344 0.0
2.985326047153879 -32.09665181538278 0.0
32.42756409409181 2.73053293116756 0.0
-33.2008857284848 -1.779286612206676 0.0
33.10728888970361 -4.200165305863423 0.0
-33.24920662120177 4.705315264350861 0.0
5.35467298512423 33.65539659523793 0.0
-3.71093239838771 -33.26207075614978 0.0
-25.08491320105205 -41.7910731553382 0.0
-21.70477177110357 39.9396383172768 0.0
-37.39559096185176 23.98819575107854 0.0
40.02673130927776 21.43045826939929 0.0
-38.17643466040309 41.31751653961903 0.0
-42.28737628336636 34.81441633977674 0.0
23.51595654981091 37.55469642733454 0.0
-45.43685154328325 -15.97552352726063 0.0
1.951831922298741 -23.22190297024119 0.0
-2.716919267654542 22.51366256351107 0.0
-22.43128952473501 -2.653122040379019 0.0
22.51357015653226 2.716726214107093 0.0
23.24338192508096 -1.858998830143491 0.0
-23.40529607523518 2.255009256770901 0.0
2.544843574512266 22.54871600298237 0.0
-2.344943004272483 -22.67700029238049 0.0
-40.78373382049886 -20.46167648598446 0.0
23.53331952422296 -46.10227274250673 0.0
-5.379525234768785 46.54605864896269 0.0
5.18656265570794 -46.55019183487264 0.0
46.54578705178262 5.379262074893452 0.0
-46.63858653186009 -5.419198644419137 0.0
-11.27299034254566 39.1594459455923 0.0
-39.41917377032643 -12.25245634408604 0.0
39.17171247084511 10.76431886454337 0.0
28.45143883563859 46.74704246057239 0.0
-46.78103518429548 28.6584376795706 0.0
-44.71823608998358 38.99085985437731 0.0
28.1661137251386 -46.62812885120958 0.0
42.59942759989208 -36.53473999539553 0.0
-44.32437218066914 -45.82829421422312 0.0
-10.07308123514103 27.83687864922294 0.0
8.887174428190713 -28.67710826936883 0.0
-29.39519034636816 -8.080780658776558 0.0
27.83890778889226 10.07028880302913 0.0
-28.81120868989421 9.613338105428737 0.0
9.52852946187912 29.44550799163751 0.0
-27.82940713094477 -47.20394413992642 0.0
46.16594428354865 -5.227897204048392 0.0
-4.344992781012237 -47.17354102974387 0.0
20.89070178964936 -34.9312531971647 0.0
-40.18450466959527 38.27200132002321 0.0
43.7699083197834 -39.60966085490522 0.0
37.75891881780754 40.30421782125342 0.0
-30.74070412629276 -13.6833295354835 0.0
-11.4293235511668 31.69155164873536 0.0
31.69061169328526 11.42492735600181 0.0
-21.88282974408322 -43.12495350631431 0.0
40.3478768248974 -40.07202049758223 0.0
21.01744837280825 43.46437911646579 0.0
-42.93654142480851 20.78409374694154 0.0
40.44584547842847 -15.36603429956696 0.0
-35.27051674230485 19.71777292592257 0.0
14.07608710620581 -40.57091742576254 0.0
19.0155456041985 35.89797855206449 0.0
35.72072125637826 -20.97241494379196 0.0
-41.30953943847621 24.15467782972293 0.0
-20.7895935409564 -35.20337669966668 0.0
-15.39590088150711 -40.11774072993636 0.0
23.83443073315342 41.54304094754578 0.0
-39.71485452247299 14.8792012438567 0.0
31.53911045077602 -46.77048324527022 0.0
15.91711439300562 39.78200810237781 0.0
39.50391324506235 -20.68159230960598 0.0
34.76868780347802 19.9549872542895 0.0
-19.95244127722108 34.75262490481177 0.0
-2.352567565848247 28.86111638316622 0.0
28.86101661273092 2.352387825475975 0.0
-35.02062089719441 46.50726166806006 0.0
-37.3394791905376 -41.06011503384426 0.0
38.78251641197095 45.72819737135973 0.0
44.3587895273903 -16.01479761831144 0.0
-17.96237256297601 -43.549021290574 0.0
-29.2479712196853 3.421022961629238 0.0
30.67536620016686 -0.4914470181134574 0.0
1.626676257092886 30.12819597382147 0.0
-0.7581016015596034 -30.34183406893162 0.0
-36.0349161702575 -18.41166548751916 0.0
-16.82687377969134 -16.74273847018291 0.0
-16.99535689037419 17.31249728963522 0.0
16.76801788445852 16.72138758599757 0.0
16.57737946623868 -16.54425079646755 0.0
-39.26885611211623 -7.799781908290981 0.0
0.8987954993666669 -40.22960191236773 0.0
-0.431326277078848 40.12844694678397 0.0
-39.53490800705038 -0.4981641722913104 0.0
38.94112847784663 1.545713640484382 0.0
8.948991043468133 -46.66003581939572 0.0
-47.34131637164648 -8.548529501048563 0.0
-8.747476214000415 -47.22638344536633 0.0
47.24653877566342 8.550811993885086 0.0
-8.551427383355714 47.2471581051068 0.0
-38.01645911095953 44.75936913457986 0.0
-32.0244112531224 46.79183300815812 0.0
-21.49128356452019 -7.401337324923633 0.0
-21.4829858127214 -11.88669873042717 0.0
45.52370100019567 1.093042895227357 0.0
-46.31971088087451 -1.000436795173481 0.0
-0.9123327375372096 46.30018608610672 0.0
1.415298204359818 -45.18239701938184 0.0
-7.490125935307967 21.52952705218452 0.0
21.53048451317721 7.489389847929297 0.0
-6.604111656599542 -22.53345851752308 0.0
-21.93094388335399 6.810529847952751 0.0
23.24790195907892 -6.554563716961505 0.0
-12.01530484001243 21.65441371339356 0.0
6.793927701778879 22.24932199444125 0.0
21.65823097787382 12.01271385840435 0.0
-32.7578637254792 8.95735466511468 0.0
6.800371367428713 -22.27132585311922 0.0
8.868981991972701 33.09194503975532 0.0
32.52024696254496 -10.96372775352367 0.0
-10.79155458387817 -32.58320753494758 0.0
45.89196283595568 -9.303153395529984 0.0
22.65749848453843 -13.86222515269921 0.0
-17.2222681495106 -19.81249365031845 0.0
-13.89532287244852 -22.66563450974666 0.0
17.16148034127474 19.75522207053878 0.0
13.89666970345974 -22.73911728576056 0.0
-15.06449206390618 32.45583065904845 0.0
13.8579907914976 22.51167005138225 0.0
32.45140185814345 15.05250349565029 0.0
-22.38143617081021 13.50174352513063 0.0
-34.99720410975066 -43.29201759936427 0.0
-19.65287476305809 18.49910991482686 0.0
16.88056763985711 -20.02765672454288 0.0
-36.05175636114199 11.99810199113258 0.0
46.22840724031474 36.23046095866492 0.0
-37.38114447356732 4.902808957137039 0.0
9.489335350381822 -32.22825854877907 0.0
19.99435152702641 -16.85235161582461 0.0
31.06711570699806 -7.617085439222946 0.0
4.897334462285786 37.29743523538321 0.0
38.58543159601813 15.5846331248032 0.0
-7.133501990166136 -31.00893174066447 0.0
-15.64807880423341 38.62504298508611 0.0
6.180941768346437 30.41181104872811 0.0
46.72395347013808 -30.77942893840272 0.0
-5.74103013594171 34.41042358725414 0.0
34.40969389891239 5.74028499626277 0.0
-30.09840124213721 6.12761932981204 0.0
-47.46897041921054 -43.7082667871633 0.0
-34.87336288762795 -4.917191506107566 0.0
37.48993120925683 -3.150733462686841 0.0
45.63898514765926 -2.391755727562408 0.0
-3.414397019353642 -37.73832135190472 0.0
5.945904085438757 -29.78894516650583 0.0
15.8525767690168 -47.38528773421916 0.0
15.33108490837751 -30.46376129263902 0.0
30.91932126878137 -14.5197881480331 0.0
-32.10142780438347 44.08209988146397 0.0
30.84503089601201 6.50929063287421 0.0
-6.510509504994916 30.84584296203149 0.0
-47.48830352751673 40.69280848074916 0.0
-14.43046396036058 -31.03989201738768 0.0
11.17316049440569 35.70452072982244 0.0
-46.75306076293847 3.715473189630325 0.0
3.804698959991915 46.78161745181856 0.0
-15.99710282023416 -46.78694711872815 0.0
-28.85607009079623 45.67186062099918 0.0
42.52037660433121 39.01607277866671 0.0
-16.43178368766621 21.15788425770072 0.0
28.81918299406516 -10.69287642948178 0.0
-6.814420179500674 38.5276521347372 0.0
37.9830690971662 6.0930319724401 0.0
6.170460344163463 -33.61019222661262 0.0
21.1891076858439 16.44700510106781 0.0
-20.61100154463511 -16.60443577455139 0.0
-10.67261405969346 -28.83799918339065 0.0
15.93089090918977 46.80276131737323 0.0
-46.82278928739177 15.91754715224133 0.0
47.08030700186296 23.15720810537092 0.0
-31.72691261520481 13.66685366698206 0.0
12.06804392752782 -29.71265533377547 0.0
-43.99016902508966 -24.77086174631929 0.0
45.60690977374499 28.25356104845801 0.0
12.23284387268576 32.63586632710199 0.0
-30.67895828481284 -47.24850641889444 0.0
40.71381054962541 -5.780468901743395 0.0
-6.245382670822798 -41.00593914562671 0.0
0.04122670852614377 -34.96003076635095 0.0
1.208919611397362 34.78410608477213 0.0
34.68989273695332 -0.06911203107258244 0.0
-36.02397792723743 0.3872339990911862 0.0
-47.60579428177628 31.86610867568002 0.0
-6.20800144836755 -44.4357177318071 0.0
32.18433204901267 47.04534116363804 0.0
4.207389043067255 40.77083846819889 0.0
5.415797655636512 43.99105642663729 0.0
-41.13010373214024 5.081183301919435 0.0
-42.96557696640625 1.364974567581056 0.0
-44.04458040311627 5.469812775885852 0.0
1.401183242875502 43.40714474136398 0.0
41.99265176882528 -1.644387236883892 0.0
-2.605259754933285 -43.79871485135303 0.0
13.54895909026492 28.86959237308456 0.0
-44.08433955811598 46.90312271045891 0.0
46.01805644224521 43.29908465780875 0.0
-46.42139598071188 8.444824943012918 0.0
8.509745079365437 46.40274311370855 0.0
46.91621779437245 -19.03281122713645 0.0
-24.38183980846764 39.91313997366621 0.0
47.2408057876539 -14.20640773460838 0.0
-32.47502528161832 -7.488700081805204 0.0
34.99006812207295 -46.96302266533372 0.0
-20.52993264049286 46.19124165655224 0.0
-13.08093302560058 -18.6033413254328 0.0
6.04817338187029 -39.91006899426107 0.0
18.60391129859582 -12.97399483931749 0.0
12.99253911098136 -18.61299940470116 0.0
43.28135974234355 -20.04154973638074 0.0
-42.55619551675659 -32.14983626804546 0.0
-30.74944229301699 -3.738121762027062 0.0
-10.44075947309608 -21.29473944142159 0.0
-24.50596564995784 46.14532366558771 0.0
10.25793337403336 21.48356717198536 0.0
7.718649905807215 39.46319356552929 0.0
-39.48797776006516 7.475884849818892 0.0
-4.089667652585582 -28.66960951734868 0.0
12.99323304610157 18.53156648569873 0.0
-47.55866851997573 -47.10731220027707 0.0
-23.3880433550982 -14.98330764068705 0.0
10.37984873699152 -21.4486975056583 0.0
38.4188704995637 -11.89059365185463 0.0
4.163925115900903 -36.17933222779381 0.0
21.2931401995853 -10.39600514989833 0.0
-38.68354660632483 -16.20728402289363 0.0
-40.57379075575491 -24.99006556810054 0.0
-47.26159194935779 -24.17834233332447 0.0
-1.202198605691927 -25.90395974302978 0.0
-26.4583979506419 2.519320601936815 0.0
35.32372672374684 47.12854081845406 0.0
-1.106990866279834 -47.23093058009575 0.0
-31.60607498341913 0.4327191269958171 0.0
46.43194642750343 -27.43067330382586 0.0
-18.14875799224159 32.07816221092285 0.0
32.08120576733511 18.1396926923019 0.0
-2.955661267654541 -40.69704842172446 0.0
-18.83953881788787 14.7586694799547 0.0
2.499717830978743 -27.89491222539403 0.0
-47.30157652899129 47.30644450302906 0.0
12.67952304264475 -37.54481013512771 0.0
27.84601325137979 -4.019539409135154 0.0
-20.42390964374141 10.64659902071009 0.0
-4.284751040294422 -25.31544394356227 0.0
40.75483478564721 7.532984215573745 0.0
-25.88019716009278 17.7031268222361 0.0
42.17308848119799 1.387470377096234 0.0
47.10209505088354 46.97930770169142 0.0
46.98439730667694 39.7115249548355 0.0
47.80178623215067 -48.12342328619587 0.0
CELLS 1232 4928
3 220 145 171
3 56 232 55
3 233 51 52
3 51 233 212
3 141 248 217
3 249 144 218
3 251 145 220
3 252 75 76
3 75 252 214
3 81 257 80
3 258 79 80
3 257 258 80
3 232 241 161
3 241 233 161
3 240 214 252
3 229 248 147
3 250 225 151
3 251 226 153
3 222 240 243
3 212 50 51
3 214 74 75
3 99 213 98
3 235 84 85
3 236 36 37
3 234 60 61
3 71 238 70
3 23 239 22
3 95 237 94
3 52 53 233
3 53 161 233
3 101 223 100
3 268 134 231
3 163 271 267
3 176 272 268
3 177 273 270
3 172 274 269
3 277 184 272
3 279 185 273
3 280 182 278
3 177 281 273
3 172 282 274
3 176 283 272
3 284 189 276
3 285 183 274
3 294 159 271
3 173 295 278
3 231 296 268
3 296 176 268
3 298 172 269
3 299 177 270
3 211 300 267
3 163 301 271
3 163 302 301
3 305 159 294
3 307 164 301
3 309 173 278
3 311 188 275
3 174 312 280
3 178 313 277
3 314 156 310
3 316 163 267
3 184 319 315
3 320 170 306
3 170 320 275
3 179 321 279
3 169 322 276
3 183 323 318
3 164 325 294
3 326 185 324
3 187 328 324
3 180 329 310
3 330 165 318
3 156 331 310
3 333 180 310
3 333 162 315
3 133 341 304
3 165 341 318
3 342 189 284
3 135 344 306
3 166 344 326
3 162 346 303
3 346 162 331
3 181 347 330
3 157 347 332
3 134 348 297
3 162 348 315
3 349 133 269
3 349 183 318
3 163 350 302
3 351 186 257
3 353 163 316
3 163 353 350
3 354 135 270
3 354 185 326
3 356 165 330
3 165 356 284
3 357 177 299
3 358 172 298
3 359 167 265
3 359 176 296
3 360 134 268
3 360 184 315
3 187 361 328
3 158 361 345
3 362 188 311
3 363 166 328
3 166 363 311
3 364 211 267
3 369 191 332
3 191 370 332
3 371 190 345
3 190 374 345
3 383 164 307
3 201 384 337
3 203 386 339
3 255 387 153
3 202 387 340
3 390 180 319
3 186 391 222
3 156 391 331
3 212 392 50
3 192 392 305
3 393 158 345
3 168 395 316
3 396 196 140
3 397 199 143
3 236 397 143
3 398 182 302
3 182 398 278
3 399 236 143
3 401 181 323
3 210 402 314
3 403 196 396
3 406 199 397
3 412 187 324
3 184 413 319
3 413 184 277
3 164 414 325
3 182 416 307
3 416 182 280
3 247 417 148
3 185 418 324
3 418 185 279
3 419 192 325
3 180 420 329
3 234 421 141
3 197 421 404
3 183 422 323
3 422 183 285
3 210 431 343
3 431 210 329
3 432 216 304
3 181 433 369
3 170 434 306
3 434 219 306
3 435 189 342
3 436 157 332
3 187 437 371
3 438 198 142
3 235 438 142
3 198 438 405
3 117 439 5
3 102 440 4
3 193 440 291
3 110 441 109
3 195 441 293
3 125 442 124
3 194 442 292
3 443 123 124
3 444 108 109
3 445 131 4
3 445 193 288
3 446 116 5
3 456 190 389
3 457 191 380
3 213 458 436
3 460 159 305
3 167 464 265
3 468 72 73
3 468 210 343
3 471 132 350
3 157 472 342
3 472 157 436
3 473 212 233
3 241 473 233
3 212 473 460
3 158 474 362
3 474 158 393
3 231 475 296
3 478 171 145
3 478 238 343
3 159 479 364
3 479 159 460
3 480 239 389
3 481 237 380
3 136 483 401
3 484 248 141
3 191 487 380
3 487 191 369
3 138 488 390
3 251 489 145
3 190 490 389
3 490 190 371
3 249 491 144
3 219 495 306
3 495 219 230
3 495 135 306
3 216 496 304
3 496 216 228
3 496 133 304
3 500 240 222
3 503 238 478
3 145 503 478
3 439 446 5
3 440 445 4
3 440 193 445
3 442 443 124
3 442 194 443
3 441 444 109
3 441 195 444
3 421 484 141
3 421 197 484
3 491 382 144
3 201 382 491
3 203 388 493
3 459 448 168
3 500 391 156
3 222 391 500
3 382 481 144
3 382 237 481
3 388 239 480
3 454 142 198
3 508 148 231
3 152 485 227
3 364 271 159
3 267 271 364
3 316 300 168
3 267 300 316
3 360 272 184
3 268 272 360
3 349 274 183
3 269 274 349
3 354 273 185
3 270 273 354
3 294 301 164
3 294 271 301
3 277 283 178
3 277 272 283
3 279 281 179
3 279 273 281
3 285 282 175
3 274 282 285
3 311 320 166
3 311 275 320
3 284 322 165
3 284 276 322
3 413 313 138
3 277 313 413
3 309 398 132
3 309 278 398
3 280 295 174
3 280 278 295
3 418 321 139
3 279 321 418
3 416 312 137
3 280 312 416
3 342 356 157
3 342 284 356
3 422 317 136
3 285 317 422
3 305 325 192
3 305 294 325
3 359 475 167
3 359 296 475
3 303 348 162
3 303 297 348
3 307 302 182
3 301 302 307
3 398 350 132
3 302 350 398
3 308 303 346
3 322 341 165
3 322 304 341
3 460 392 212
3 305 392 460
3 320 344 166
3 320 306 344
3 383 416 137
3 383 307 416
3 333 331 162
3 310 331 333
3 314 329 210
3 314 310 329
3 362 363 158
3 362 311 363
3 360 348 134
3 315 348 360
3 333 319 180
3 315 319 333
3 353 395 217
3 353 316 395
3 349 341 133
3 318 341 349
3 330 323 181
3 318 323 330
3 390 413 138
3 390 319 413
3 401 422 136
3 401 323 422
3 412 418 139
3 412 324 418
3 326 328 166
3 326 324 328
3 325 414 419
3 354 344 135
3 326 344 354
3 363 361 158
3 328 361 363
3 431 420 171
3 329 420 431
3 356 347 157
3 330 347 356
3 346 391 186
3 346 331 391
3 369 347 181
3 332 347 369
3 436 370 213
3 332 370 436
3 435 472 215
3 435 342 472
3 478 431 171
3 343 431 478
3 371 361 187
3 345 361 371
3 345 374 393
3 471 353 217
3 350 353 471
3 369 433 487
3 371 437 490
3 375 381 197
3 417 464 167
3 481 380 487
3 486 383 137
3 480 389 490
3 474 501 242
3 474 393 501
3 472 458 215
3 436 458 472
3 479 473 241
3 460 473 479
3 81 82 351
3 257 81 351
3 493 152 386
3 203 493 386
3 150 491 249
3 201 491 384
3 153 489 251
3 489 153 387
3 202 489 387
3 151 482 250
3 484 197 381
3 432 140 216
3 140 432 400
3 434 143 219
3 143 434 399
3 434 170 399
3 259 286 466
3 291 263 462
3 290 264 463
3 261 288 467
3 293 265 464
3 292 266 465
3 58 492 57
3 211 492 300
3 34 379 33
3 188 379 275
3 25 456 24
3 190 456 374
3 97 457 96
3 191 457 370
3 459 58 59
3 459 492 58
3 459 168 300
3 459 300 492
3 372 308 351
3 204 469 338
3 470 66 67
3 469 42 43
3 399 170 355
3 41 451 40
3 89 452 88
3 65 450 64
3 17 449 16
3 207 377 452
3 208 378 451
3 205 375 450
3 206 376 449
3 39 406 38
3 406 378 199
3 87 405 86
3 405 377 198
3 408 20 21
3 409 68 69
3 409 202 340
3 63 404 62
3 15 403 14
3 403 376 196
3 407 92 93
3 236 37 397
3 376 453 196
3 453 244 146
3 378 455 199
3 455 246 149
3 377 454 198
3 454 247 148
3 148 475 231
3 475 148 417
3 167 475 417
3 244 476 146
3 246 477 149
3 237 95 380
3 239 23 389
3 238 71 343
3 437 187 412
3 55 232 161
3 433 181 401
3 433 483 218
3 433 401 483
3 461 252 76
3 77 461 76
3 240 252 461
3 243 240 461
3 8 160 7
3 164 383 414
3 414 383 486
3 420 180 390
3 420 220 171
3 420 488 220
3 420 390 488
3 9 499 8
3 395 141 217
3 141 395 234
3 168 448 395
3 448 234 395
3 448 59 60
3 459 59 448
3 60 234 448
3 415 211 364
3 415 241 232
3 415 479 241
3 415 364 479
3 500 156 314
3 500 214 240
3 242 501 394
3 402 74 214
3 85 438 235
3 485 139 227
3 139 485 412
3 437 485 221
3 437 412 485
3 218 483 249
3 224 483 136
3 150 483 224
3 150 249 483
3 220 488 251
3 488 226 251
3 226 488 138
3 179 367 321
3 321 227 139
3 200 502 482
3 202 503 489
3 489 503 145
3 317 224 136
3 178 366 313
3 313 226 138
3 447 235 142
3 471 217 248
3 229 471 248
3 471 229 132
3 352 173 309
3 229 309 132
3 486 225 250
3 225 486 137
3 174 365 312
3 312 225 137
3 458 213 99
3 458 223 215
3 14 396 13
3 14 403 396
3 38 397 37
3 38 406 397
3 96 380 95
3 96 457 380
3 24 389 23
3 24 456 389
3 72 343 71
3 72 468 343
3 48 327 47
3 86 438 85
3 86 405 438
3 513 454 377
3 454 513 247
3 63 518 404
3 375 518 450
3 87 519 405
3 377 519 452
3 519 377 405
3 520 68 409
3 340 520 409
3 39 521 406
3 378 521 451
3 521 378 406
3 15 522 403
3 376 522 449
3 522 376 403
3 523 160 8
3 499 523 8
3 10 524 9
3 524 499 9
3 265 526 359
3 41 527 451
3 89 528 452
3 17 529 449
3 65 530 450
3 263 536 358
3 266 538 357
3 542 254 151
3 543 255 153
3 545 365 174
3 283 546 178
3 547 366 178
3 281 548 179
3 352 549 173
3 476 550 146
3 550 476 298
3 550 228 146
3 551 367 179
3 477 552 149
3 552 477 299
3 552 230 149
3 553 368 175
3 554 402 214
3 554 500 314
3 500 554 214
3 402 554 314
3 282 555 175
3 556 295 173
3 253 557 539
3 557 253 384
3 245 560 147
3 295 561 174
3 199 564 143
3 564 199 455
3 196 566 140
3 566 196 453
3 568 49 50
3 392 568 50
3 423 569 154
3 425 570 155
3 461 572 243
3 79 572 78
3 575 469 204
3 578 62 404
3 421 578 404
3 579 229 147
3 225 580 151
3 581 276 189
3 499 581 189
3 584 100 223
3 584 458 99
3 458 584 223
3 100 584 99
3 226 585 153
3 152 586 386
3 256 586 541
3 586 256 386
3 589 70 238
3 503 589 238
3 276 590 169
3 362 591 188
3 594 410 154
3 600 22 239
3 388 600 239
3 601 94 237
3 382 601 237
3 36 602 35
3 602 355 35
3 275 606 170
3 606 355 170
3 607 152 227
3 608 402 210
3 608 468 73
3 468 608 210
3 338 609 204
3 615 98 213
3 370 615 213
3 98 615 97
3 340 616 520
3 26 617 25
3 621 373 516
3 569 594 154
3 569 244 594
3 570 595 155
3 570 246 595
3 258 572 79
3 258 243 572
3 624 575 204
3 337 620 622
3 385 544 200
3 385 338 544
3 339 618 619
3 340 610 616
3 546 547 178
3 561 545 174
3 548 551 179
3 549 556 173
3 557 491 150
3 384 491 557
3 192 568 392
3 208 451 527
3 207 452 528
3 205 450 530
3 206 449 529
3 197 518 375
3 197 404 518
3 207 513 377
3 207 411 513
3 585 543 153
3 410 206 515
3 154 515 209
3 154 410 515
3 411 207 516
3 580 542 151
3 74 608 73
3 74 402 608
3 425 155 613
3 612 154 209
3 423 154 612
3 617 456 25
3 374 456 617
3 615 457 97
3 370 457 615
3 524 581 499
3 577 596 424
3 556 561 295
3 556 512 561
3 525 526 265
3 531 536 263
3 532 538 266
3 603 557 150
3 607 586 152
3 541 586 607
3 224 603 150
3 67 68 520
3 161 54 55
3 527 41 42
3 469 575 42
3 527 42 575
3 89 90 528
3 528 90 587
3 17 18 529
3 529 18 588
3 626 367 261
3 467 626 261
3 599 366 262
3 593 365 260
3 352 604 264
3 604 463 264
3 33 558 32
3 558 33 379
3 600 21 22
3 21 600 408
3 203 600 388
3 203 408 600
3 601 93 94
3 93 601 407
3 201 601 382
3 201 407 601
3 589 69 70
3 69 589 409
3 503 202 589
3 589 202 409
3 61 578 234
3 578 61 62
3 578 421 234
3 591 474 242
3 474 591 362
3 336 597 538
3 597 357 538
3 357 597 177
3 335 592 536
3 592 358 536
3 358 592 172
3 610 387 255
3 387 610 340
3 255 576 610
3 609 385 254
3 385 609 338
3 254 574 609
3 373 620 559
3 334 598 526
3 236 602 36
3 602 236 399
3 355 602 399
3 467 288 567
3 506 429 567
3 63 64 518
3 64 450 518
3 466 286 571
3 504 428 571
3 87 88 519
3 88 452 519
3 15 16 522
3 16 449 522
3 39 40 521
3 40 451 521
3 498 194 292
3 497 193 291
3 193 506 288
3 506 567 288
3 35 355 606
3 379 606 275
3 606 379 34
3 35 606 34
3 504 571 286
3 523 215 160
3 215 523 435
3 499 189 523
3 523 189 435
3 551 261 367
3 290 463 577
3 553 259 368
3 545 260 365
3 547 262 366
3 292 465 582
3 582 498 292
3 425 498 582
3 291 462 583
3 583 497 291
3 423 497 583
3 264 549 352
3 455 595 246
3 206 410 594
3 594 453 376
3 453 594 244
3 206 594 376
3 570 425 582
3 582 477 246
3 477 582 465
3 246 570 582
3 569 423 583
3 583 476 244
3 476 583 462
3 244 569 583
3 256 541 429
3 467 567 541
3 567 429 541
3 255 430 576
3 430 611 576
3 254 427 574
3 427 613 574
3 313 585 226
3 585 313 366
3 366 599 585
3 565 430 255
3 255 543 565
3 43 44 544
3 544 338 469
3 469 43 544
3 321 626 227
3 626 321 367
3 626 607 227
3 562 427 254
3 254 542 562
3 312 580 225
3 580 312 365
3 365 593 580
3 612 209 563
3 256 429 563
3 429 612 563
3 253 539 428
3 466 571 539
3 571 428 539
3 253 428 559
3 428 614 559
3 245 596 560
3 577 463 560
3 577 560 596
3 579 309 229
3 309 579 352
3 604 352 579
3 611 507 424
3 611 430 507
3 194 498 505
3 505 498 425
3 613 505 425
3 613 427 505
3 193 497 506
3 506 497 423
3 612 506 423
3 612 429 506
3 419 414 494
3 537 130 131
3 537 288 261
3 445 288 537
3 445 537 131
3 534 107 108
3 534 286 259
3 444 286 534
3 444 534 108
3 533 115 116
3 533 289 262
3 446 533 116
3 393 374 617
3 535 122 123
3 535 287 260
3 443 535 123
3 111 525 110
3 293 525 265
3 293 441 525
3 525 441 110
3 494 486 250
3 486 494 414
3 118 540 117
3 290 540 264
3 290 439 540
3 540 439 117
3 126 532 125
3 292 532 266
3 292 442 532
3 532 442 125
3 103 531 102
3 291 531 263
3 291 440 531
3 531 440 102
3 598 283 176
3 598 546 283
3 598 334 509
3 509 546 598
3 597 281 177
3 597 548 281
3 597 336 511
3 511 548 597
3 623 588 619
3 621 587 622
3 481 218 144
3 487 433 218
3 481 487 218
3 335 536 104
3 317 603 224
3 603 317 368
3 336 538 127
3 513 573 247
3 411 573 513
3 524 10 590
3 276 581 590
3 524 590 581
3 334 526 112
3 222 243 186
3 257 186 243
3 257 243 258
3 134 508 231
3 508 134 297
3 592 282 172
3 592 555 282
3 592 335 510
3 592 510 555
3 437 221 490
3 493 388 221
3 388 480 221
3 480 490 221
3 520 470 67
3 616 470 520
3 619 618 623
3 621 620 373
3 622 620 621
3 536 103 104
3 531 103 536
3 538 126 127
3 532 126 538
3 526 111 112
3 525 111 526
3 29 394 28
3 627 7 160
3 629 92 407
3 630 20 408
3 169 632 322
3 304 632 432
3 632 304 322
3 634 417 247
3 573 634 247
3 635 57 492
3 211 635 492
3 638 375 205
3 642 186 351
3 642 308 346
3 308 642 351
3 186 642 346
3 644 533 262
3 547 644 262
3 645 400 169
3 646 537 261
3 551 646 261
3 647 386 256
3 563 647 256
3 648 384 253
3 648 559 620
3 559 648 253
3 651 77 0
3 78 651 0
3 77 651 461
3 652 359 526
3 652 598 176
3 598 652 526
3 359 652 176
3 540 653 264
3 653 549 264
3 654 151 254
3 385 654 254
3 151 654 482
3 655 424 596
3 656 535 260
3 545 656 260
3 454 657 142
3 508 657 148
3 657 454 148
3 215 627 160
3 215 223 627
3 400 632 169
3 400 432 632
3 630 203 339
3 408 203 630
3 629 201 337
3 407 201 629
3 572 651 78
3 572 461 651
3 627 6 7
3 648 337 384
3 620 337 648
3 415 635 211
3 637 644 547
3 650 646 551
3 639 656 545
3 653 640 549
3 426 643 573
3 633 45 46
3 633 502 200
3 631 502 633
3 46 631 633
3 633 44 45
3 544 633 200
3 544 44 633
3 636 12 13
3 636 13 396
3 636 396 140
3 400 636 140
3 242 394 628
3 628 591 242
3 386 647 339
3 618 647 563
3 647 618 339
3 645 11 12
3 636 400 645
3 12 636 645
3 537 646 130
3 535 656 122
3 533 644 115
3 653 540 118
3 655 611 424
3 634 464 417
3 464 634 643
3 634 573 643
3 20 630 19
3 619 630 339
3 467 607 626
3 467 541 607
3 47 631 46
3 631 47 327
3 631 641 502
3 92 629 91
3 622 629 337
3 650 128 129
3 637 113 114
3 381 638 245
3 638 381 375
3 56 415 232
3 415 56 635
3 57 635 56
3 639 120 121
3 120 640 119
3 335 105 510
3 335 104 105
3 527 575 624
3 336 128 511
3 336 127 128
3 334 113 509
3 334 112 113
3 560 463 604
3 604 147 560
3 579 147 604
3 293 643 195
3 643 293 464
3 466 368 259
3 466 603 368
3 558 379 188
3 591 558 188
3 205 530 514
3 206 529 623
3 515 206 623
3 588 623 529
3 207 528 621
3 516 207 621
3 587 621 528
3 593 542 580
3 599 543 585
3 610 625 616
3 614 516 373
3 373 559 614
3 614 411 516
3 358 462 263
3 298 462 358
3 476 462 298
3 357 465 266
3 299 465 357
3 477 465 299
3 590 10 11
3 11 645 590
3 590 645 169
3 82 372 351
3 372 82 83
3 250 482 494
3 482 641 494
3 482 502 641
3 466 539 603
3 603 539 557
3 609 624 204
3 574 624 609
3 262 289 599
3 599 289 565
3 565 543 599
3 260 287 593
3 593 287 562
3 562 542 593
3 641 327 419
3 327 641 631
3 494 641 419
3 650 548 511
3 128 650 511
3 548 650 551
3 140 566 216
3 228 566 146
3 453 146 566
3 228 216 566
3 143 564 219
3 230 564 149
3 455 149 564
3 230 219 564
3 611 514 576
3 611 655 514
3 637 546 509
3 113 637 509
3 546 637 547
3 235 447 605
3 605 308 372
3 556 640 512
3 640 120 512
3 549 640 556
3 639 561 512
3 120 639 512
3 639 545 561
3 152 493 485
3 221 485 493
3 625 470 616
3 625 514 530
3 646 129 130
3 650 129 646
3 656 121 122
3 639 121 656
3 644 114 115
3 637 114 644
3 119 653 118
3 119 640 653
3 658 303 308
3 605 658 308
3 83 659 372
3 659 605 372
3 195 661 444
3 286 661 504
3 661 286 444
3 661 195 504
3 26 662 617
3 662 26 27
3 66 663 65
3 663 530 65
3 664 428 504
3 428 664 614
3 665 192 419
3 327 665 419
3 269 666 298
3 666 269 133
3 270 667 299
3 667 270 135
3 576 668 610
3 625 668 514
3 668 625 610
3 668 576 514
3 669 553 175
3 555 669 175
3 290 670 439
3 6 671 3
3 671 101 3
3 147 672 245
3 672 381 245
3 496 666 133
3 496 228 666
3 495 667 135
3 495 230 667
3 550 666 228
3 550 298 666
3 552 667 230
3 552 299 667
3 393 662 501
3 393 617 662
3 27 501 662
3 84 659 83
3 659 84 235
3 605 659 235
3 595 517 155
3 208 517 595
3 470 663 66
3 663 470 625
3 530 663 625
3 672 147 248
3 672 484 381
3 484 672 248
3 671 6 627
3 223 671 627
3 671 223 101
3 209 515 618
3 618 563 209
3 623 618 515
3 649 507 430
3 649 565 289
3 565 649 430
3 245 655 596
3 638 655 245
3 673 505 427
3 673 562 287
3 562 673 427
3 669 555 510
3 105 669 510
3 669 105 106
3 658 297 303
3 297 658 447
3 658 605 447
3 657 447 142
3 447 508 297
3 508 447 657
3 194 673 443
3 673 194 505
3 535 673 287
3 535 443 673
3 588 18 19
3 630 588 19
3 619 588 630
3 439 660 446
3 670 660 439
3 507 649 660
3 587 90 91
3 629 587 91
3 622 587 629
3 613 155 517
3 613 517 574
3 624 574 517
3 674 553 669
3 106 674 669
3 533 675 289
3 660 675 446
3 675 533 446
3 378 676 455
3 595 676 208
3 676 595 455
3 676 378 208
3 175 677 285
3 317 677 368
3 677 317 285
3 677 175 368
3 675 649 289
3 660 649 675
3 107 674 106
3 27 28 501
3 28 394 501
3 638 205 514
3 655 638 514
3 665 48 49
3 49 568 665
3 192 665 568
3 48 665 327
3 424 670 577
3 507 670 424
3 577 670 290
3 660 670 507
3 614 664 426
3 643 426 664
3 504 195 664
3 643 664 195
3 411 426 573
3 614 426 411
3 678 208 527
3 678 624 517
3 624 678 527
3 208 678 517
3 674 534 259
3 674 107 534
3 553 674 259
3 679 29 2
3 30 679 2
3 394 679 628
3 679 394 29
3 32 680 31
3 680 628 31
3 680 32 558
3 681 53 1
3 681 54 161
3 54 681 1
3 53 681 161
3 628 30 31
3 30 628 679
3 591 680 558
3 591 628 680
3 482 385 200
3 654 385 482
CELL_TYPES 1232
5
5
5
5
5
5
5
5
5
5
5
5
5
5
5
5
5
5
5
5
5
5
5
5
5
5
5
5
5
5
5
5
5
5
5
5
5
5
5
5
5
5
5
5
5
5
5
5
5
5
5
5
5
5
5
5
5
5
5
5
5
5
5
5
5
5
5
5
5
5
5
5
5
5
5
5
5
5
5
5
5
5
5
5
5
5
5
5
5
5
5
5
5
5
5
5
5
5
5
5
5
5
5
5
5
5
5
5
5
5
5
5
5
5
5
5
5
5
5
5
5
5
5
5
5
5
5
5
5
5
5
5
5
5
5
5
5
5
5
5
5
5
5
5
5
5
5
5
5
5
5
5
5
5
5
5
5
5
5
5
5
5
5
5
5
5
5
5
5
5
5
5
5
5
5
5
5
5
5
5
5
5
5
5
5
5
5
5
5
5
5
5
5
5
5
5
5
5
5
5
5
5
5
5
5
5
5
5
5
5
5
5
5
5
5
5
5
5
5
5
5
5
5
5
5
5
5
5
5
5
5
5
5
5
5
5
5
5
5
5
5
5
5
5
5
5
5
5
5
5
5
5
5
5
5
5
5
5
5
5
5
5
5
5
5
5
5
5
5
5
5
5
5
5
5
5
5
5
5
5
5
5
5
5
5
5
5
5
5
5
5
5
5
5
5
5
5
5
5
5
5
5
5
5
5
5
5
5
5
5
5
5
5
5
5
5
5
5
5
5
5
5
5
5
5
5
5
5
5
5
5
5
5
5
5
5
5
5
5
5
5
5
5
5
5
5
5
5
5
5
5
5
5
5
5
5
5
5
5
5
5
5
5
5
5
5
5
5
5
5
5
5
5
5
5
5
5
5
5
5
5
5
5
5
5
5
5
5
5
5
5
5
5
5
5
5
5
5
5
5
5
5
5
5
5
5
5
5
5
5
5
5
5
5
5
5
5
5
5
5
5
5
5
5
5
5
5
5
5
5
5
5
5
5
5
5
5
5
5
5
5
5
5
5
5
5
5
5
5
5
5
5
5
5
5
5
5
5
5
5
5
5
5
5
5
5
5
5
5
5
5
5
5
5
5
5
5
5
5
5
5
5
5
5
5
5
5
5
5
5
5
5
5
5
5
5
5
5
5
5
5
5
5
5
5
5
5
5
5
5
5
5
5
5
5
5
5
5
5
5
5
5
5
5
5
5
5
5
5
5
5
5
5
5
5
5
5
5
5
5
5
5
5
5
5
5
5
5
5
5
5
5
5
5
5
5
5
5
5
5
5
5
5
5
5
5
5
5
5
5
5
5
5
5
5
5
5
5
5
5
5
5
5
5
5
5
5
5
5
5
5
5
5
5
5
5
5
5
5
5
5
5
5
5
5
5
5
5
5
5
5
5
5
5
5
5
5
5
5
5
5
5
5
5
5
5
5
5
5
5
5
5
5
5
5
5
5
5
5
5
5
5
5
5
5
5
5
5
5
5
5
5
5
5
5
5
5
5
5
5
5
5
5
5
5
5
5
5
5
5
5
5
5
5
5
5
5
5
5
5
5
5
5
5
5
5
5
5
5
5
5
5
5
5
5
5
5
5
5
5
5
5
5
5
5
5
5
5
5
5
5
5
5
5
5
5
5
5
5
5
5
5
5
5
5
5
5
5
5
5
5
5
5
5
5
5
5
5
5
5
5
5
5
5
5
5
5
5
5
5
5
5
5
5
5
5
5
5
5
5
5
5
5
5
5
5
5
5
5
5
5
5
5
5
5
5
5
5
5
5
5
5
5
5
5
5
5
5
5
5
5
5
5
5
5
5
5
5
5
5
5
5
5
5
5
5
5
5
5
5
5
5
5
5
5
5
5
5
5
5
5
5
5
5
5
5
5
5
5
5
5
5
5
5
5
5
5
5
5
5
5
5
5
5
5
5
5
5
5
5
5
5
5
5
5
5
5
5
5
5
5
5
5
5
5
5
5
5
5
5
5
5
5
5
5
5
5
5
5
5
5
5
5
5
5
5
5
5
5
5
5
5
5
5
5
5
5
5
5
5
5
5
5
5
5
5
5
5
5
5
5
5
5
5
5
5
5
5
5
5
5
5
5
5
5
5
5
5
5
5
5
5
5
5
5
5
5
5
5
5
5
5
5
5
5
5
5
5
5
5
5
5
5
5
5
5
5
5
5
5
5
5
5
5
5
5
5
5
5
5
5
5
5
5
5
5
5
5
5
5
5
5
5
5
5
5
5
5
5
5
5
5
5
5
5
5
5
5
5
5
5
5
5
5
5
5
5
5
5
5
5
5
5
5
5
5
5
5
5
5
5
5
5
5
5
5
5
5
5
5
5
5
5
5
5
5
5
5
5
5
5
5
5
5
5
5
5
5
5
5
5
5
5
5
5
5
5
5
5
5
5
5
5
5
5
5
5
5
5
5
5
5
5
5
5
5
5
5
5
5
5
5
5
5
5
5
5
5
5
5
5
5
5
5
5
5
5
5
5
5
5
5
5
5
5
5
5
5
5
5
5
5
5
5
5
5
5
5
5
5
5
5
5
5
5
5
5
5
5
5
5
5
5
5
5
5
5
5
5
5
5
5
5
5
5
5
5
5
5
5
5
5
5
5
5
5
5
5
5
5
5
5
5
5
5
5
5
5
5
5
5
5
5
5
5
5
5
5
5
5
5
5
5
5
5
5
5
5
5
5
5
5
5
5
5
5
5
5
5
5
5
5
5
5
5
5
5
5
5
5
5
5
5
5
5
5
5
5
5
5
5
5
5
5
5
5
5
5
5
5
5
5
POINT_DATA 682
VECTORS Displacement float
-0.5 0.0 0.0
0.5 8.815041436344587e-05 0.0
0.5 -0.17377589384966646 0.0
-0.5 -0.1738823074783915 0.0
-4.9999736243041346e-05 -0.257718173518062 0.0
0.001309849931015878 0.08364181935855651 0.0
-0.4519865514873629 -0.1756123465683301 0.0
-0.40419423309802227 -0.18042804205679158 0.0
-0.35685566255083595 -0.18855628693869966 0.0
-0.310101007405006 -0.20017711796072266 0.0
-0.26433697851578386 -0.21468506594222247 0.0
-0.2204765931651904 -0.23157863433096812 0.0
-0.1786312629608174 -0.25048590610130317 0.0
-0.1395894200724141 -0.27011184744500294 0.0
-0.10376945945716838 -0.2889791920109025 0.0
-0.07110661921920686 -0.3051216461091733 0.0
-0.04176188269735003 -0.3174405351474713 0.0
-0.0136056995458804 -0.3237265602816916 0.0
0.013851413239954913 -0.32381358490767653 0.0
0.04135444391457485 -0.31755570559396346 0.0
0.07120484575719364 -0.3056381233687312 0.0
0.10353533425652023 -0.2888025288631353 0.0
0.13938837271880772 -0.2701049914356561 0.0
0.1785413455330854 -0.2503492359196891 0.0
0.2202867525118415 -0.23166638291131633 0.0
0.2643407260824031 -0.2144697050693478 0.0
0.31018747935915786 -0.20019655144008866 0.0
0.3571222265168566 -0.18898335239224515 0.0
0.4041047079629781 -0.18073216804232844 0.0
0.4518703912983611 -0.17580072318446338 0.0
0.5 -0.16008823397414076 0.0
0.5 -0.14699812762361544 0.0
0.5 -0.13450159850189258 0.0
0.5 -0.12256395215089297 0.0
0.5 -0.11161817925691106 0.0
0.5 -0.10191091522743671 0.0
0.5 -0.0943095676440712 0.0
0.5 -0.08842530662645648 0.0
0.5 -0.0845086653231084 0.0
0.5 -0.08321892854012558 0.0
0.5 -0.08389658589578866 0.0
0.5 -0.08566490504119824 0.0
0.5 -0.08815503178515698 0.0
0.5 -0.08993853657230079 0.0
0.5 -0.09011765734964622 0.0
0.5 -0.08820635441687229 0.0
0.5 -0.08527697254855958 0.0
0.5 -0.07958738225752421 0.0
0.5 -0.07179130367912527 0.0
0.5 -0.062135744731569305 0.0
0.5 -0.05154118640208696 0.0
0.5 -0.03934408691841796 0.0
0.5 -0.02641265042374532 0.0
0.5 -0.013951740784246736 0.0
0.45178278694514673 0.0019735087614991542 0.0
0.4043176495979638 0.0068445552316637945 0.0
0.3569943911556072 0.01489498018126845 0.0
0.3100490381480565 0.026438400853749034 0.0
0.2643475846878507 0.04088600733561839 0.0
0.22038159607315289 0.05795316580919557 0.0
0.1786054641861857 0.07675642070937751 0.0
0.13956220526064064 0.0961755611302085 0.0
0.10372514902516408 0.11527662748049376 0.0
0.07119342366651221 0.13155726508689114 0.0
0.04133815408495322 0.1435970596186249 0.0
0.013296647459009003 0.150423662398646 0.0
-0.013732467541602624 0.15028769651937998 0.0
-0.04125969700506747 0.14372282476578285 0.0
-0.07093114885718246 0.13154878717717092 0.0
-0.10357222844470129 0.11516158842838067 0.0
-0.1394179436691054 0.09636243851917815 0.0
-0.17849539699679415 0.07668528301412231 0.0
-0.2202254357887447 0.05793084037191141 0.0
-0.2643569827431438 0.04087323561586659 0.0
-0.31024485174286603 0.026308371895117658 0.0
-0.35670620800776986 0.01512647073493138 0.0
-0.404192786631141 0.006941622307708923 0.0
-0.451699538004856 0.0019403450001736432 0.0
-0.5 -0.013689376914848062 0.0
-0.5 -0.026835017038865556 0.0
-0.5 -0.039368431119696276 0.0
-0.5 -0.051298630802956935 0.0
-0.5 -0.0622302906472572 0.0
-0.5 -0.07164116853375137 0.0
-0.5 -0.07956084554956683 0.0
-0.5 -0.08558641776462014 0.0
-0.5 -0.0890995127969193 0.0
-0.5 -0.09042486331641536 0.0
-0.5 -0.08997332160238214 0.0
-0.5 -0.08824033883784274 0.0
-0.5 -0.08586661911196085 0.0
-0.5 -0.08380710248441046 0.0
-0.5 -0.08330102230639129 0.0
-0.5 -0.08479290792641513 0.0
-0.5 -0.08828766884100277 0.0
-0.5 -0.09408422901459666 0.0
-0.5 -0.10203616106770332 0.0
-0.5 -0.11189825419105928 0.0
-0.5 -0.12269524024420043 0.0
-0.5 -0.13411891243731985 0.0
-0.5 -0.1469112284986443 0.0
-0.5 -0.16004835467242215 0.0
-0.09438270153405401 -0.25279463574155 0.0
-0.18521535605479045 -0.23584009697416672 0.0
-0.261122126225056 -0.21293084414083227 0.0
-0.33041180849579316 -0.18836993878462804 0.0
-0.3841623758024117 -0.16241004254916247 0.0
-0.4231911700537109 -0.13644233572849299 0.0
-0.4462223747575589 -0.11097861977569057 0.0
-0.45388321800665576 -0.08749144281287143 0.0
-0.44638724184775924 -0.06225941363689584 0.0
-0.423203759218394 -0.036715773892668925 0.0
-0.38486478262998747 -0.012079640894918309 0.0
-0.3300116979036983 0.015211879035932836 0.0
-0.26149788832133997 0.040820837204505515 0.0
-0.18340513445113762 0.06234931439219164 0.0
-0.09523568895968913 0.07805992252918 0.0
0.09411538357897259 0.07873977361201046 0.0
0.18387377786746714 0.06181325849510148 0.0
0.26145152538367 0.040454571567337866 0.0
0.3297064494870143 0.01510813207074775 0.0
0.385224828181359 -0.01202338067272038 0.0
0.4230662729335343 -0.03775789337210189 0.0
0.44611662395462487 -0.06167684967145487 0.0
0.45371264016786117 -0.08600363859853674 0.0
0.4463355532496477 -0.11146949417429558 0.0
0.42297754195107445 -0.13708895436808446 0.0
0.3847944916651762 -0.16120811842748373 0.0
0.3304153344087398 -0.18870184559688327 0.0
0.26174703133691185 -0.2144722248004594 0.0
0.18441231517510512 -0.23570375920812803 0.0
0.09543186213489623 -0.25225320087066755 0.0
0.23029504597938347 0.019847803904719383 0.0
-0.2351969880634237 -0.19272367977817184 0.0
-0.388071787473825 -0.0652281130998241 0.0
0.38081632742582955 -0.11194233136988574 0.0
-0.38007988580792823 -0.11028319647585162 0.0
0.3779557217758601 -0.06220709623953525 0.0
-0.2259698409021384 0.02234140867325831 0.0
0.21862357836116794 -0.19995505623196688 0.0
-0.17272200238047714 -0.24478476627992585 0.0
0.17124713475199047 0.06977610645204023 0.0
-0.460544082632423 -0.0857888807630201 0.0
0.4571654417683709 -0.09077313385942397 0.0
-0.44918919622913156 -0.09175474519351454 0.0
-0.1818647453994074 0.062896103837818 0.0
-0.13603047172632965 -0.25107723771415846 0.0
0.13980658104893348 0.07316596017252372 0.0
-0.433832126158598 -0.0837192178799913 0.0
0.4362041790691636 -0.08948727008238982 0.0
-0.43002978278391923 -0.09231418444892447 0.0
0.43779387857859875 -0.08448163726132465 0.0
0.14431837488436006 -0.24819943875621178 0.0
-0.1331500629772674 0.08062211352485203 0.0
-0.03394815241752634 -0.2933720695010419 0.0
0.46718919173757045 -0.08593507432996206 0.0
-0.35736783195159805 -0.0182695199952271 0.0
-0.39358879698974963 -0.1370090332555544 0.0
0.3432695313615044 -0.1612018736228562 0.0
0.39155873725705254 -0.03142752526233366 0.0
-0.39317835631966114 -0.1719200104012414 0.0
0.4461103630418725 -0.00971447059743964 0.0
-0.36749820738948413 -0.041765132857862666 0.0
0.2972889101209302 -0.004210531922238992 0.0
0.37902496707846106 -0.04904033792596844 0.0
-0.3150712179585295 -0.1598875487765693 0.0
0.36195528890459944 -0.13417185358010786 0.0
-0.42259656338765583 -0.07925557155382215 0.0
0.23876466705934132 0.03876426098727929 0.0
-0.2541349773571949 -0.20361712013760735 0.0
0.43563232782271116 -0.10583014456302664 0.0
-0.216748408831921 0.04437477323252662 0.0
-0.22912793509940665 -0.1871353568572226 0.0
0.23703476730587175 0.009288695336545711 0.0
0.3436654701040689 -0.047164536786138196 0.0
-0.340005980454975 -0.129339374184609 0.0
-0.352487975283954 -0.05249510543546743 0.0
0.35168440551263425 -0.12123370900748229 0.0
-0.23563074693091784 0.010055780312554679 0.0
0.23510218423527343 -0.18387984300489563 0.0
-0.2873435335879471 0.000498522732019864 0.0
-0.38354928321379844 -0.12101892672096265 0.0
0.30687108508787997 -0.0273314135746537 0.0
-0.3106396218028572 -0.14432060219106116 0.0
-0.3021965861503008 -0.024379863987011238 0.0
0.30039507108966385 -0.1501400894344817 0.0
-0.4312389713586244 -0.04211362192989644 0.0
0.27966764660021787 -0.17736920087332186 0.0
0.42499281249990384 -0.12996526829023952 0.0
-0.33941475136206783 -0.1706984185845305 0.0
0.26027034991362524 -0.20299880462008452 0.0
-0.44674545362523094 -0.10909687908258674 0.0
0.44508121521675365 -0.05931249974410429 0.0
0.0009176501744904242 -0.2795249062771195 0.0
0.45961605130218963 -0.08718450419072919 0.0
-0.45994265983053156 -0.08656944977891962 0.0
-0.12541609179152893 -0.2703171846334855 0.0
0.10479670955138992 0.10767741081460765 0.0
-0.46990838610266167 -0.0883294426754107 0.0
0.46841913794459694 -0.08557039574052194 0.0
0.4743579852465761 -0.0890341677813215 0.0
-0.474701814300426 -0.08454481291987923 0.0
-0.11986461542122585 0.10041130409685473 0.0
0.11481246416483185 -0.27732792527767064 0.0
0.48274844813162066 -0.08900427315454215 0.0
0.03729080325898468 0.13128379211208063 0.0
-0.03240405349697142 -0.30557431602739715 0.0
-0.4810745910441725 -0.08919408391876825 0.0
0.47965044698669573 -0.08454764996442088 0.0
0.013397421409099044 -0.2983924565821676 0.0
-0.2707203700386769 0.0260845059837714 0.0
0.322141932155395 0.006672593209771519 0.0
0.4643799617906491 -0.04044199321243203 0.0
-0.4681389135256279 -0.12675066731302284 0.0
-0.35519793536144634 0.0028504454916261153 0.0
-0.40936766440716976 -0.1572078474543875 0.0
-0.19155561288281578 -0.2268684341451839 0.0
0.20413515239229857 0.046582035465011294 0.0
-0.4336425808766848 -0.09765523134593523 0.0
0.4293866424772439 -0.09631119604798564 0.0
-0.20443612318607948 0.046693555866021544 0.0
0.1932021881291415 -0.2299260642265564 0.0
-0.4097053427443599 -0.027024633774255694 0.0
-0.4613069776441625 -0.15328326949565965 0.0
-0.4049572288827079 -0.09982065668889421 0.0
0.40796917678912903 -0.07486346919713863 0.0
-0.18501164731457542 0.04808754615831848 0.0
0.17568861818877315 -0.22489922915549898 0.0
-0.174271958388255 -0.2305861076926862 0.0
0.1868976726052572 0.04672419939887846 0.0
0.420694915983742 -0.09517904364412717 0.0
-0.40292346259027007 -0.07398877279189747 0.0
0.3993437312234759 -0.0027505711642198736 0.0
0.46631953036849977 -0.027529238310506465 0.0
0.16887818213981673 0.07759769773721213 0.0
-0.47440908565813006 -0.08165964415399611 0.0
0.4782082390311676 -0.09163379264638602 0.0
-0.48046663642538956 -0.09122724160200363 0.0
-0.1745954774830385 0.07567499687331752 0.0
0.1712383330278155 -0.2511109686945445 0.0
-0.40727078126556937 -0.015952773414999854 0.0
0.42024631227638476 -0.017727263648341145 0.0
0.4013980256752208 -0.15863271199611784 0.0
-0.44524723087183143 -0.029469021950937424 0.0
-0.09706708758248589 -0.26934037838726094 0.0
0.08782856011203587 0.10251499397315411 0.0
0.44923991741380637 -0.0866631066975051 0.0
-0.45257872294077806 -0.08772810270144832 0.0
0.16745106503131846 0.06414656050075346 0.0
-0.43457836776197634 -0.09308681091233405 0.0
0.42946540137427847 -0.07962178118084075 0.0
-0.17500106893317133 0.060364031744407354 0.0
-0.3966452389951156 -0.0027512847552532333 0.0
-0.45897964312098544 -0.08531112280140388 0.0
0.45773417869198996 -0.08846690531066807 0.0
-0.07817685118810164 0.1060082909509715 0.0
0.08318348821030948 -0.27809872829357296 0.0
-0.4701164242909009 -0.04354826360264182 0.0
-0.4779961532778971 -0.03232982753193119 0.0
-0.41404861957458294 -0.10503386002135615 0.0
0.4094444700134371 -0.06831621062874381 0.0
0.1455129947999616 -0.23660279221143357 0.0
-0.14979370790144234 0.06130322928041702 0.0
-0.1342327665120114 -0.24250559068587044 0.0
0.14371683716992867 0.06378468946558827 0.0
-0.42065533166197205 -0.07319897429466792 0.0
0.41939958856231935 -0.10283431346135148 0.0
0.3140991977592761 0.00015612687795535574 0.0
-0.3653550910676628 -0.0588115719898596 0.0
-0.229337623092412 -0.1898107247501911 0.0
0.36402364071696186 -0.11552442404726046 0.0
0.34857076707370904 -0.021008670924258586 0.0
-0.318925034963776 -0.03669382838956584 0.0
0.3183384285137093 -0.13710554452554122 0.0
-0.2735107040398764 -0.16177345794005865 0.0
0.42809798248725345 -0.11762443256587947 0.0
-0.2953979643292786 -0.18431993359805238 0.0
-0.2705214267427218 -0.010157146663945068 0.0
0.27406496199510316 -0.012320463709596797 0.0
0.2696995490375615 -0.16367485847639385 0.0
0.3190760840358807 -0.037058938746960486 0.0
0.2983930816504665 -0.14834026836642233 0.0
-0.28561805873266916 -0.15566472221508673 0.0
-0.2988293853358059 -0.025285767748570567 0.0
-0.32500962513312237 -0.16577993608333766 0.0
-0.3271221246349662 -0.13229022256064568 0.0
-0.44572235629538903 -0.09277235493834483 0.0
0.4358903526199369 -0.07980014464437452 0.0
0.07060885385819897 -0.269879039919403 0.0
-0.09239375556648637 0.08785470034261365 0.0
0.08183124134631146 0.0919152336528349 0.0
-0.06883496026551518 -0.27024921544536495 0.0
0.4481120709883153 -0.09221764705314522 0.0
-0.4473897523247502 -0.08057718158973567 0.0
0.38363422319459367 -0.04057301909633969 0.0
0.29281971195682627 -0.02150250840847528 0.0
-0.3864504547166798 -0.06791361099224148 0.0
-0.4131374374996088 -0.06848283785106132 0.0
-0.17601059617632223 -0.22021086530541706 0.0
0.39641167665297933 -0.10182049307122708 0.0
0.28304811246854944 0.020011606839675504 0.0
0.34176875717317473 -0.029720105166443918 0.0
0.30322798460521866 -0.017802114269225084 0.0
-0.4053815669773006 -0.057216702255633994 0.0
-0.23276799309891064 -0.20253793091928976 0.0
0.41994491084798025 -0.04736290262836205 0.0
0.4085563226064604 -0.10635438936110574 0.0
0.34117304641464546 -0.038738395179987326 0.0
-0.4388702753030956 -0.060640242422021255 0.0
0.2163342286015375 0.022882924143305627 0.0
-0.32208818799918676 -0.009484763831060228 0.0
0.3936621291391686 -0.13024163408476452 0.0
0.3719034221112913 -0.06225380932052889 0.0
-0.2136647904002199 0.024625666020383713 0.0
-0.3209850070404239 0.0012425481999520536 0.0
-0.33373446298158554 -0.03414718616464579 0.0
0.26774619557767193 0.018731982374942 0.0
-0.37703180773876954 -0.10912260930541055 0.0
-0.31103096020749077 -0.15187542503022133 0.0
-0.2942884563384917 -0.012596779171175436 0.0
0.4000722764062627 -0.1177905968562428 0.0
0.21108208276622162 -0.19906127477301463 0.0
-0.2762762603667684 -0.18453698644880148 0.0
-0.3467160191091141 -0.1317820127668077 0.0
0.29041980625120933 -0.16287814692709393 0.0
0.41411064377499146 -0.05570460028663957 0.0
0.33093385104834966 -0.140905978978949 0.0
0.4744975343646946 -0.07689905408627244 0.0
0.32083486871862377 -0.15427890884813003 0.0
-0.28331196531425973 0.011735926425909203 0.0
-0.349659249360812 -0.1389515794300168 0.0
-0.36159159620526304 -0.02936240254230371 0.0
-0.4209960576762118 -0.12198094925474667 0.0
-0.3274670356661908 -0.022053438515774012 0.0
-0.34836794962555584 -0.02418218526160183 0.0
-0.2614987354291334 -0.19249362187942623 0.0
0.3484466826247595 -0.15011893845023905 0.0
-0.47648842196567315 -0.08386228099079213 0.0
0.4804233468503204 -0.08997189536949997 0.0
0.07818470293468907 -0.29175477132450134 0.0
-0.08224082682148125 0.11859850549715878 0.0
-0.27291391157566547 -0.17616031198831436 0.0
-0.36559871827849083 -0.15288819489936542 0.0
-0.22173761544080547 0.05097200992422266 0.0
0.37167539205084466 -0.1215189197585684 0.0
0.30254142558026986 -0.18081083341774337 0.0
-0.4046813166910784 -0.04629000610177481 0.0
-0.38678593531971084 -0.1287108510940239 0.0
-0.3748495241392636 -0.053568171899816476 0.0
-0.26976204179983015 -0.16920717713351469 0.0
0.261701527898182 0.006356264780328895 0.0
-0.46255281034269236 -0.0555457428628715 0.0
0.1835657869890641 0.041055388565229035 0.0
0.24482355949252146 0.023132956504593776 0.0
0.3447449267045517 -0.127646167569832 0.0
0.46550014338478213 -0.10188605142978893 0.0
-0.355866454907983 -0.1462720220127098 0.0
0.3904253930747292 -0.10853739089707605 0.0
-0.17689438601860577 -0.21879060521715535 0.0
-0.3930194612448535 -0.06837749731566384 0.0
-0.3464029976164093 -0.046903157462192605 0.0
0.31109500591512257 -0.16802723704987516 0.0
0.3849930503207299 -0.14295858816507523 0.0
0.3531175947863809 -0.14739171751975164 0.0
0.3593967363061162 -0.013356920444951223 0.0
0.38760783235681057 -0.06724939858406762 0.0
-0.18191765072188318 0.04196714213238328 0.0
0.18843493045515192 -0.211702699424577 0.0
-0.39028812371027255 -0.10608255928727886 0.0
-0.41611168295588347 -0.11456252535388396 0.0
-0.4536625198856282 -0.11820753322642369 0.0
0.2727970539507154 -0.1895954057186025 0.0
-0.4729762049379938 -0.06695506520852922 0.0
-0.47504300622238294 -0.08584864713449897 0.0
0.2901446484255623 -0.19331206418518818 0.0
0.06870816589204773 0.12274784459001778 0.0
-0.08041347327023933 -0.2923605178646826 0.0
-0.4785421170723908 -0.09037966238276486 0.0
0.47906522826316333 -0.08347007359724104 0.0
0.46476826224143036 -0.11880366261165945 0.0
-0.46787098795178717 -0.0986755922754668 0.0
0.09700166039833641 0.10520130336476513 0.0
-0.46620059975330874 -0.0890427001915503 0.0
0.37442431652973773 -0.05572311770868405 0.0
-0.46234762011462044 -0.08483547803712403 0.0
0.46931109720018405 -0.08960124747955926 0.0
0.10821125449467517 -0.272148347953684 0.0
-0.10163808692395351 0.10350143057371533 0.0
0.15992151631017665 -0.25318009025754334 0.0
0.21554122928448052 -0.22716723908490097 0.0
-0.2561888134863476 0.009983607094196588 0.0
-0.3916343665969461 -0.03143565947041958 0.0
0.45700919580034804 -0.05017958757340128 0.0
0.3305931831588697 -0.17715350926745863 0.0
0.42765305895940536 -0.16566268881986812 0.0
0.21434737326431494 0.04731519776229035 0.0
-0.13963694984913047 -0.2676488532333942 0.0
0.47680391192117727 -0.08715544202553603 0.0
0.26419878112300244 -0.002351485759424228 0.0
0.45890984803174045 -0.09689447276494488 0.0
-0.2158444301408728 -0.22291887887287307 0.0
-0.3782350461328665 -0.11590647091484417 0.0
-0.31178530573525015 0.013796475748585977 0.0
-0.10100555627282978 -0.28745450007152845 0.0
0.1032405981653239 0.11323694559620247 0.0
-0.48586736406963965 -0.0898682412307596 0.0
0.48536688397074834 -0.08386284051214239 0.0
-0.4897561819954081 -0.08414014785198795 0.0
0.10004240372005758 -0.2891100415277871 0.0
-0.10000619319717308 0.1147495960225888 0.0
-0.035725389340088474 -0.2979423065525439 0.0
-0.4715639684072484 -0.08833550980776483 0.0
0.2470584072826509 -0.18841588962326863 0.0
-0.25926770897446244 0.0008324612288868648 0.0
0.40950499747675795 -0.06418073886694728 0.0
0.36867486422017515 -0.004067427302234748 0.0
0.34753958684206426 -0.048295479738264625 0.0
-0.4370192381507072 -0.0845354126033525 0.0
0.25520580446065544 -0.17656077617684604 0.0
0.4435698038671655 -0.07020673815456879 0.0
-0.24402417849400268 0.02532248684102477 0.0
0.13494305668443998 0.09339750182013609 0.0
-0.3505827807211761 -0.12380672894931298 0.0
-0.029067714295184625 -0.28738566713433167 0.0
0.03206696264957713 0.11235632988234584 0.0
0.46215040086223264 -0.08649577537438904 0.0
-0.4640744313764959 -0.08726779731691944 0.0
0.4606008683699474 -0.08758232584859671 0.0
-0.4605199052729212 -0.08605971505001646 0.0
0.05569906875624619 -0.2830175203942775 0.0
-0.038886761839502064 0.11314908831915266 0.0
-0.23965477747104905 0.035755994090718925 0.0
-0.21034428745312944 -0.220610573275336 0.0
-0.40967456262429436 -0.10776443634283493 0.0
0.4359540227205001 -0.09819858986024138 0.0
-0.37718318126720796 -0.1589817621072508 0.0
-0.42821802919615637 -0.13030472379008048 0.0
0.23551825695086182 -0.2027972913720184 0.0
-0.4776709840869902 -0.08696404829759782 0.0
0.032670734298130305 0.09831660508804908 0.0
-0.04896479040242921 -0.2681699471939814 0.0
-0.4540612689959737 -0.078426501704947 0.0
0.45393062279490465 -0.09552716838489062 0.0
0.45617727184683765 -0.08226776644921431 0.0
-0.456025840909458 -0.09196328929111192 0.0
0.04507920038671468 -0.2689203216613474 0.0
-0.04076874263787694 0.09587121531363281 0.0
-0.443335635497867 -0.0784031640445179 0.0
0.21017166320993044 0.057088610181925965 0.0
-0.042711384711386996 -0.3112530322759818 0.0
0.041203363681391963 0.1377649367942878 0.0
0.49057966781157675 -0.08406055447295155 0.0
-0.49086581023559517 -0.08984692427500632 0.0
-0.10747178776087486 -0.2725796194336936 0.0
-0.45741235883317055 -0.08834318995970059 0.0
0.460302366957663 -0.08506416725270916 0.0
0.25920827532380225 -0.21002882885755988 0.0
-0.47405856134915064 -0.10905320409244304 0.0
-0.4472721672172044 -0.13993252596794198 0.0
0.2566469000572716 0.03737679507720465 0.0
0.4290119860479991 -0.03858689299688692 0.0
-0.43659103928262777 -0.010985700539780398 0.0
-0.12329486805578652 -0.24846942124189264 0.0
0.1060253882027791 0.08360133154668868 0.0
-0.44010042034428415 -0.0835252160529945 0.0
0.42470015951701245 -0.09509749707070468 0.0
-0.430524041110034 -0.09282715237660834 0.0
0.110576765755042 -0.2559502790657017 0.0
-0.2508351214801096 0.040592152944977734 0.0
0.4894044305872278 -0.08944321149521722 0.0
-0.03379306597592062 0.14109801839065378 0.0
0.21621691330456988 0.03397822045317825 0.0
-0.4028261536239944 -0.1446650635932466 0.0
0.43701657929588994 -0.03053718082644449 0.0
0.3746113015577439 -0.15682268482616268 0.0
-0.41392684643960076 -0.0779271061582141 0.0
-0.12488890067279713 -0.2514445295836994 0.0
0.43079239361663113 -0.09102485121130675 0.0
-0.20293973066820487 0.05613745770249252 0.0
0.40165539400761113 -0.023628320238499582 0.0
0.19328881171125767 -0.23531282285493302 0.0
-0.45619746736313754 -0.09445411788353883 0.0
0.4542567902326821 -0.08580346938340792 0.0
-0.41005016292291413 -0.10092737101964638 0.0
0.13215354976466265 0.089052273637585 0.0
0.19367999129047495 -0.22139179401038916 0.0
0.40826659223967726 -0.0708403594935521 0.0
-0.43831235889092857 -0.10279069494099162 0.0
-0.21421802998167638 0.035469967124707964 0.0
-0.14612926616435248 0.08113087641200606 0.0
0.2275858614232719 -0.2147004833018332 0.0
-0.4516931956604518 -0.08779673187291202 0.0
0.2925844324869791 0.02410753900734022 0.0
0.15197456888528754 -0.25109027324217353 0.0
0.43458694219656396 -0.07640498591336062 0.0
0.4059444087081678 -0.10213933845561048 0.0
-0.20703088188708446 -0.21220162741851203 0.0
-0.028162670409710933 -0.28236147531703587 0.0
0.45844156460896235 -0.08758409730883047 0.0
-0.3316186082130753 -0.1849475418697623 0.0
-0.3687670781839473 -0.013413950627080968 0.0
0.37495128595086574 -0.17223071812647486 0.0
0.4724225872667346 -0.08654588358259854 0.0
-0.1626269305274174 0.07795704097032578 0.0
-0.45732892492327837 -0.0877502569490766 0.0
0.46205860262172477 -0.08701203942352789 0.0
0.018267365448158157 -0.2857139972574309 0.0
-0.008807778058019921 0.11253030001127155 0.0
-0.42011965837145593 -0.07689328778191974 0.0
-0.30275064977591426 -0.007472248668071052 0.0
-0.296957953315569 -0.1661093874368937 0.0
0.302991689845795 -0.16664128290714275 0.0
0.3042104510407936 -0.006029319779169937 0.0
-0.46733609258060876 -0.08950764511338552 0.0
0.00831639855508108 0.12983362450922403 0.0
-0.004046401921602109 -0.302874914971922 0.0
-0.47590392887692806 -0.087238028118037 0.0
0.47480195047756574 -0.08605079334348491 0.0
0.07190727550706492 0.12732185763604953 0.0
-0.4913050219160847 -0.09034644675966504 0.0
-0.06903938695312196 0.12942485565791859 0.0
0.4911555873624403 -0.08345352961913569 0.0
-0.06752892498822041 -0.303748538845813 0.0
-0.36868630045198286 -0.17068335707144786 0.0
-0.29782097790555534 -0.19615448750472778 0.0
-0.42958213458624617 -0.061636028488219384 0.0
-0.3880096663383207 -0.052854928308545254 0.0
0.4892228770945079 -0.08615340396572549 0.0
-0.49103127711617195 -0.0876063582553231 0.0
-0.007287787696943755 -0.3164517635363532 0.0
0.011902812886510813 0.13996470909540734 0.0
-0.13345501153958686 -0.24681934712599352 0.0
0.4290215447146335 -0.11229598884848026 0.0
-0.11023918922445188 0.08032586906044833 0.0
-0.43366873253113136 -0.10844956668476964 0.0
0.4372018700167822 -0.07231227263031823 0.0
-0.19119859145942117 -0.21651967463458546 0.0
0.11550467253896492 -0.2523981360413451 0.0
0.3871495165385319 -0.1206190994705526 0.0
-0.4457449865409471 -0.0877951861491067 0.0
0.11585408733737813 0.07838795806504194 0.0
0.09374598015508395 -0.2681847168948179 0.0
0.4359576732589701 -0.08415545363230131 0.0
-0.11557441245136424 0.08357346559485745 0.0
0.48593612468286745 -0.09030543525384017 0.0
0.3729944872694673 -0.05353674733002352 0.0
-0.2687203280832113 -0.0017273042376157973 0.0
-0.20308806814142388 0.032456207230987494 0.0
0.26901244236668526 -0.17213765412585955 0.0
0.20237820590205868 0.032564845050089775 0.0
-0.16224571786388986 -0.23248456429901077 0.0
0.20446422038452997 -0.2059382994927858 0.0
0.41503089849552893 -0.0957852558643577 0.0
-0.37504160120438396 -0.12137825869603044 0.0
-0.3391939518735585 0.0008443908825328076 0.0
-0.30414411607139524 -0.15134488904909085 0.0
0.2632976212300596 0.0013262597985946823 0.0
-0.4447823334833037 -0.0874351706903701 0.0
0.4641066028122063 -0.13033325356475955 0.0
-0.4681917254941812 -0.08534113565082818 0.0
0.10238636574398573 0.08932212411222033 0.0
0.32435837053442834 -0.029757813003748062 0.0
0.44628428512408375 -0.08552963641084672 0.0
0.04766468389869444 -0.29143189401961156 0.0
0.44424886728919993 -0.08967307621949044 0.0
-0.07907816077508137 0.09748484902602836 0.0
-0.15224809756640117 -0.24896906555445258 0.0
0.06983033722551182 -0.2737417421769091 0.0
0.47214615510637153 -0.05904509893586623 0.0
-0.05904606212955557 -0.2833771865634301 0.0
0.45960879537327565 -0.08621583746496353 0.0
-0.45020264027108536 -0.0883373740594947 0.0
-0.4725772286322897 -0.02080437987235476 0.0
-0.46241195556954295 -0.08817891712537221 0.0
0.47069500057092123 -0.08813589516543105 0.0
0.48906398005595536 -0.08809908875266888 0.0
-0.032657954582407375 0.12219671827567864 0.0
0.06848698831374402 0.09990878039759979 0.0
0.1303563005899765 0.09957692345848282 0.0
0.17212390138208458 0.050446841339522014 0.0
0.41014889953831735 -0.07683224096554173 0.0
-0.30641074323805306 -0.18688466097302098 0.0
0.45021072750230123 -0.08758644379402693 0.0
-0.07245214082107436 -0.2739459442138344 0.0
-0.4742715474606625 -0.14348629360889084 0.0
-0.159712712132892 0.05807666798638836 0.0
0.11284014564361507 -0.2636084242464303 0.0
-0.49178249622919495 -0.08484723045202626 0.0
0.029813552154201638 -0.3149102127074435 0.0
-0.13381876404143245 0.09721719963758575 0.0
-0.26727631139329955 -0.20496893932756638 0.0
0.4249967801015535 -0.1429782539453552 0.0
-0.24543472991396043 -0.1820554109496279 0.0
0.42432975013408814 -0.07951236852611407 0.0
-0.06495039844876113 -0.2887639842520414 0.0
0.46748620747845965 -0.08462327931592278 0.0
0.06430650685548162 0.10634592073777326 0.0
0.3376857515937946 -0.13479674050774143 0.0
-0.3314607561291408 -0.03456445613126676 0.0
-0.1257710206025916 0.07408706729484656 0.0
0.13311191348808107 -0.2713453256210866 0.0
-0.4843568864467986 -0.08628946724371701 0.0
0.48021760837412997 -0.09679523508772692 0.0
-0.4190504202922823 -0.09401553140427313 0.0
0.13844244711444514 0.06796623132286593 0.0
-0.4569027857496289 -0.07234538449544736 0.0
0.4650294923499562 -0.10859121041346403 0.0
0.13099748550026127 -0.24952478502888958 0.0
-0.28149291169563806 0.028987574600027377 0.0
0.4745119262079051 -0.08944180808476383 0.0
-0.05680365651740129 0.12246295393615846 0.0
0.0004923462687338769 0.11985485904123044 0.0
0.01209703703880812 -0.2927817593580729 0.0
0.4673498116684951 -0.08699669243067262 0.0
-0.46976747761960536 -0.086646905888303 0.0
-0.47914252308958355 -0.1172540884151997 0.0
-0.05269864628725053 0.13026454876180493 0.0
0.29882657011366365 -0.19627762401335913 0.0
0.0384319559025661 -0.3006440267562079 0.0
0.046125549908768514 -0.30504903383454945 0.0
-0.47663339059482507 -0.08467417723638736 0.0
-0.48341709718651105 -0.08616770094041903 0.0
-0.4837487187100968 -0.08421826331978143 0.0
0.012022253815558031 -0.30978339296942 0.0
0.4809042973412074 -0.08769650000602949 0.0
-0.022245454899140926 0.13624474673386072 0.0
0.1589005516016859 -0.22975383684664424 0.0
-0.4326429717874335 -0.16662517650333694 0.0
0.45715453194154504 -0.15256248564185562 0.0
-0.488652510829887 -0.08330360289250482 0.0
0.06870063169066731 -0.3023896502390961 0.0
0.48251870855151885 -0.08376526662662676 0.0
-0.23790710021372907 -0.20672086577774398 0.0
0.4877775007555653 -0.08877655653230745 0.0
-0.44959473931097527 -0.08654766185605153 0.0
0.3300699008812747 0.012880116251687054 0.0
-0.17957086875181 -0.24638777845022183 0.0
-0.24507731800459415 0.02691498254699041 0.0
0.056269592595500025 0.12056950304341782 0.0
0.3641668608381161 -0.02911761183342405 0.0
0.24434869906460502 0.027293359963150427 0.0
0.4596056708033472 -0.08078814306284098 0.0
-0.43431790592988323 -0.05128160625633901 0.0
-0.4582276202614787 -0.08675381058050667 0.0
-0.17713773046868983 0.053067930576517965 0.0
-0.21994457726587577 -0.22631527314794175 0.0
0.17212076697942016 -0.22826057947316417 0.0
0.07259777583974168 -0.2875912243788357 0.0
-0.46869195626351007 -0.08455410592729803 0.0
-0.04921043151293181 0.10447287955941639 0.0
0.2457389727962579 -0.20104620766658346 0.0
-0.4721182886998751 -0.009353708730960607 0.0
-0.36557681554223836 -0.05346561576151295 0.0
0.17412475024362853 0.053675149907537974 0.0
0.4540622746722786 -0.08770123983993822 0.0
0.04118239997271359 0.11735174249455775 0.0
0.4020910147797688 -0.05384050569566889 0.0
-0.4426930790818951 -0.08349891120275289 0.0
-0.431325628445608 -0.06803121305833754 0.0
-0.4806814427024935 -0.0750619397001239 0.0
-0.01656680188332755 0.1057157866029426 0.0
-0.45632191871264965 -0.08931380779927701 0.0
0.3333545384315669 -0.18633409077234653 0.0
-0.008596818947363444 0.1448755303848908 0.0
-0.46345831086428985 -0.0869518559897955 0.0
0.4722762633865487 -0.06757905023334591 0.0
-0.19661987428079297 -0.21299835320802052 0.0
0.3968638613106177 -0.10248323689274655 0.0
-0.02704574350338035 0.12847850322137894 0.0
-0.3425520019049774 -0.1456391733649451 0.0
0.03063394653592647 0.10640496374014854 0.0
-0.4690088143721116 -0.1653249557844289 0.0
0.12464574197427886 0.08735480912626545 0.0
0.4539247757875767 -0.08492406598862717 0.0
-0.3977962986354989 -0.12621497832973672 0.0
-0.06083104658511136 0.09720158357534264 0.0
0.4724138789776022 -0.08394578586251947 0.0
-0.35856238864519635 -0.11920192493858472 0.0
0.48145201783298236 -0.08617738106996689 0.0
0.46700965334183825 -0.16440787823169467 0.0
0.4695143933326343 -0.14065594399593873 0.0
0.4744711226040523 -0.0058135141972993866 0.0
SCALARS Stress float 6
LOOKUP_TABLE default
1182.3146508440336 2.056649120573354 0.0 2.8358293504745764 0.0 0.0
1189.5480768539876 -2.8333713117642674 0.0 -4.954966903275596 0.0 0.0
1178.8425464815714 3.830312982291275 0.0 4.006789000258214 0.0 0.0
1181.8395258674623 1.742214504811841 0.0 -3.5676927565178924 0.0 0.0
2259.430948419173 194.10971393961938 0.0 -3.122815385509744 0.0 0.0
2232.9769450780436 173.2714928423345 0.0 -3.5447505547852525 0.0 0.0
1185.693056397318 0.5757019406592008 0.0 0.5338004061043683 0.0 0.0
1176.3169559640514 0.053467476132880165 0.0 -2.7141293260143446 0.0 0.0
1155.4673501724008 0.1410552280034949 0.0 -7.798923260768052 0.0 0.0
1144.4005210878931 -0.9569329361418113 0.0 -11.649846685264526 0.0 0.0
1116.5869941291758 -1.7168465159752486 0.0 -16.475585920139963 0.0 0.0
1069.0089089159837 -1.1777723293127451 0.0 -24.912713024517664 0.0 0.0
1017.4076357980558 0.5566274821767365 0.0 -30.793618273870305 0.0 0.0
950.6451976799178 1.9052030445760124 0.0 -33.231969387241236 0.0 0.0
880.6700351845623 4.1820379084579145 0.0 -32.43310256536944 0.0 0.0
802.0515400632863 6.675341099098489 0.0 -24.87266253982948 0.0 0.0
759.492114699808 11.565223933412767 0.0 -20.72915037085909 0.0 0.0
733.8296176573256 7.318744065627186 0.0 -4.8509359657248154 0.0 0.0
727.0300270758921 8.168825781524703 0.0 10.150204343957542 0.0 0.0
754.0140924787903 9.06144280807331 0.0 19.272469448746552 0.0 0.0
812.7811578468722 7.151757669743802 0.0 30.56519269265442 0.0 0.0
868.8866148501813 4.7879673792562585 0.0 27.822861166187703 0.0 0.0
949.3728840353809 5.093007485668352 0.0 31.028739901138927 0.0 0.0
1010.9482385877701 0.44527661832580634 0.0 31.61254085399753 0.0 0.0
1074.183652957938 -1.733046748535628 0.0 23.960387761379533 0.0 0.0
1118.8563468088196 -2.2608453380594256 0.0 15.106157088141826 0.0 0.0
1149.3857469796922 -0.19912784640115433 0.0 8.643667682032412 0.0 0.0
1161.4965025043302 -0.9544896774167455 0.0 8.21503359141232 0.0 0.0
1169.8974160654677 1.4782576233840814 0.0 1.6979615982983713 0.0 0.0
1184.6893508711223 2.141246699664407 0.0 -1.5476796452570292 0.0 0.0
1117.388543083949 1.7419446865764598 0.0 5.203109567274058 0.0 0.0
1051.877269949205 -4.6731533839698045 0.0 4.275840114394161 0.0 0.0
982.2910726009302 -9.616683318087098 0.0 3.8649484573419666 0.0 0.0
913.1872131015973 -12.420530997155254 0.0 2.744339572716377 0.0 0.0
835.4156403358252 -8.503416864578355 0.0 0.638181407133131 0.0 0.0
744.0226004760416 5.083205495870601 0.0 -5.020941571143705 0.0 0.0
648.1905676137096 23.388513343130455 0.0 -8.237851314116023 0.0 0.0
564.4109223560088 44.84056565807174 0.0 -10.67532508745721 0.0 0.0
479.41813196397766 76.68159566844515 0.0 -10.797537279733307 0.0 0.0
394.92744061975253 110.67988508905277 0.0 -7.913775924200234 0.0 0.0
329.5986339047934 125.54697391811892 0.0 -5.923039430424463 0.0 0.0
295.68030761717245 140.39551551200174 0.0 -3.9693165009085822 0.0 0.0
296.2636434140335 141.10508942964356 0.0 2.84415027226494 0.0 0.0
340.98740368209167 125.90056777780626 0.0 7.5234930991267746 0.0 0.0
409.34240255103975 97.91021296902105 0.0 11.337222571712395 0.0 0.0
467.9238761271212 79.88690925388377 0.0 9.68337154202661 0.0 0.0
535.1767408275703 54.503953842346334 0.0 10.643313683447873 0.0 0.0
640.885961385229 25.101877111563226 0.0 6.302191331550705 0.0 0.0
735.5974736230157 3.2106948933872843 0.0 2.590859710005207 0.0 0.0
820.68242034446 -8.125151402534641 0.0 -1.0682647498766433 0.0 0.0
912.4326557879203 -11.099353836424996 0.0 -3.5883987828008133 0.0 0.0
1000.995612363696 -10.208504408855447 0.0 -3.6267358048692957 0.0 0.0
1047.2774552038056 -2.7173625829503294 0.0 -5.23698079592894 0.0 0.0
1117.894984672279 3.481514257243873 0.0 -5.082551571432866 0.0 0.0
1188.8140186040353 -2.498412297127061 0.0 3.063734754799265 0.0 0.0
1174.7341283982814 -0.028117785700544573 0.0 -3.7787743907697053 0.0 0.0
1157.8733730868905 -0.06488185278647052 0.0 -8.59324109658609 0.0 0.0
1146.8796521068198 0.42844062657627546 0.0 -9.473097632632015 0.0 0.0
1114.0782962308567 -0.9347161655313698 0.0 -15.469831683413434 0.0 0.0
1070.551882517475 -0.8218470299551086 0.0 -21.90223059879236 0.0 0.0
1015.3942685079436 0.6859436678175257 0.0 -30.58734032425164 0.0 0.0
939.8495127673186 3.814102443951981 0.0 -33.97894450901382 0.0 0.0
878.4753216255187 6.267454883010032 0.0 -31.047574836866175 0.0 0.0
813.0903853174023 5.747233938160832 0.0 -26.95048511452865 0.0 0.0
761.4953502356948 6.583117048543244 0.0 -18.254497646695217 0.0 0.0
739.8644924219777 7.34292052211336 0.0 -6.152694725021053 0.0 0.0
719.306330524424 10.2808255082509 0.0 5.31545125884456 0.0 0.0
749.7430928432843 7.747636795004382 0.0 15.23580579249683 0.0 0.0
807.5723811401107 7.184782320510749 0.0 22.8060284597423 0.0 0.0
876.6878744348687 5.164887441571352 0.0 29.063883245031455 0.0 0.0
949.2089802179846 3.560561873269762 0.0 30.576148392989673 0.0 0.0
1012.5948485791429 0.657151628661893 0.0 29.8786967569788 0.0 0.0
1076.5241046745014 -1.6170952529803913 0.0 22.920960976474973 0.0 0.0
1117.1809567281691 -1.4498775785221483 0.0 15.194864043158727 0.0 0.0
1134.6297228227345 0.7478592277363987 0.0 14.552637685385656 0.0 0.0
1163.0510638579667 0.7062631645304691 0.0 6.917630837624598 0.0 0.0
1172.551217977288 -0.24104083194646364 0.0 5.40455657489013 0.0 0.0
1183.7730394418413 -0.40627099057991245 0.0 -1.1395257571991237 0.0 0.0
1122.6084609803154 1.2148091076019796 0.0 2.5014138399604398 0.0 0.0
1058.1047997876713 -1.8855475919396554 0.0 2.4677056362229575 0.0 0.0
984.4932515676247 -9.607458671941004 0.0 3.651518489956551 0.0 0.0
910.6857180472178 -11.853370197040363 0.0 3.2988409129570972 0.0 0.0
833.3546443327298 -7.109174278133537 0.0 -0.1908988568843887 0.0 0.0
751.906676551582 7.471115244115168 0.0 -2.942492359368766 0.0 0.0
657.0815779916561 20.81479217027544 0.0 -6.483631980783006 0.0 0.0
560.1641073339831 47.70173982194919 0.0 -9.378078055078467 0.0 0.0
469.40100030675546 77.15377688608594 0.0 -9.319114307496296 0.0 0.0
394.89602535244126 107.43413816657417 0.0 -7.773082396977154 0.0 0.0
330.1662859406715 122.50115555296574 0.0 -7.041557487863492 0.0 0.0
297.4216988523355 140.2794687718609 0.0 -2.680139983582128 0.0 0.0
292.2820736078916 144.16063252449283 0.0 1.6373381176766424 0.0 0.0
324.6076528046463 129.85052779211682 0.0 6.059470024996767 0.0 0.0
388.6863972691838 100.52168483104938 0.0 8.259387157294725 0.0 0.0
477.25098442786293 81.6272888705104 0.0 8.336576950335763 0.0 0.0
559.7775902058717 49.53482444520611 0.0 8.225221029139915 0.0 0.0
657.5492130919769 23.114712240905504 0.0 6.423537274624627 0.0 0.0
749.4639904460759 1.3665534337690985 0.0 2.634482955349329 0.0 0.0
836.356418160229 -7.880374568862862 0.0 0.9117486798723149 0.0 0.0
908.2668907370954 -7.701543623414466 0.0 -2.3188121093021823 0.0 0.0
986.5091722537555 -7.470994403016789 0.0 -6.665505742944013 0.0 0.0
1057.5980775850408 -5.699735441326368 0.0 -3.8651092965721308 0.0 0.0
1123.4771232830701 1.0602782734382572 0.0 -3.9507141403486234 0.0 0.0
2042.0306960760201 212.22697989174833 0.0 305.90837268343705 0.0 0.0
1605.4833600073866 215.63935490889855 0.0 426.79439656803277 0.0 0.0
1081.2763752882768 177.77170821191385 0.0 358.3328469507855 0.0 0.0
663.3590424571344 109.16625070936979 0.0 270.7856100543517 0.0 0.0
280.31216632959354 -64.07179534041944 0.0 116.20780951281405 0.0 0.0
85.38574226479771 -265.7218679164149 0.0 11.430146021046054 0.0 0.0
7.9123358411040385 -421.50428333238426 0.0 -16.053619260446396 0.0 0.0
-8.865344263505364 -495.3877998200097 0.0 -4.550964180415535 0.0 0.0
6.469607014021108 -436.66042887771135 0.0 37.50579689264679 0.0 0.0
99.53579996594848 -259.0118391143275 0.0 -2.1160052428126206 0.0 0.0
299.8100318168525 -46.78282929496528 0.0 -152.43222500263664 0.0 0.0
634.183864657172 114.2741835187835 0.0 -274.8420023752642 0.0 0.0
1112.6663781720517 212.9359583105619 0.0 -370.85277231409367 0.0 0.0
1619.7440711063905 219.03170639622476 0.0 -384.9103346287496 0.0 0.0
2069.5175727701267 192.05380510766832 0.0 -271.9668231523853 0.0 0.0
2036.923982552032 209.0687053572271 0.0 250.29341883068557 0.0 0.0
1629.1538870649458 215.68318093450983 0.0 390.9198806467816 0.0 0.0
1110.451355864653 208.83924150571124 0.0 369.38512942924933 0.0 0.0
616.2211013364073 118.9486798738619 0.0 272.4963541886523 0.0 0.0
234.44924191446046 -61.82164341340342 0.0 142.8530071509281 0.0 0.0
82.99701968998794 -259.79476550871397 0.0 32.28491139052039 0.0 0.0
7.124764689115068 -417.09231675514553 0.0 -18.69970100738078 0.0 0.0
-12.002236069509422 -510.04867261151145 0.0 -3.0577897460502497 0.0 0.0
7.5167349596854365 -438.3164757760815 0.0 34.076062769799094 0.0 0.0
104.1844734435572 -262.607136540529 0.0 -7.494897264475593 0.0 0.0
302.85367167500584 -46.74475605925758 0.0 -156.26190485663435 0.0 0.0
635.7996297067702 112.95642915663561 0.0 -275.59733552386297 0.0 0.0
1108.5233449990315 211.95386050037968 0.0 -372.59039691779753 0.0 0.0
1618.7653376492835 210.48365496831008 0.0 -400.09294991189165 0.0 0.0
2052.5194909589814 189.46865867070994 0.0 -289.7751074187859 0.0 0.0
1037.302686674708 -66.13900708025528 0.0 -65.20796697200873 0.0 0.0
1032.942016300781 -64.89474228087687 0.0 -67.97556471821632 0.0 0.0
708.2071717509954 -60.457289382348904 0.0 -95.00066087088388 0.0 0.0
733.8953875920666 -68.56485504795654 0.0 -90.20419456894795 0.0 0.0
690.367334074784 -72.52533956825698 0.0 106.96038191873882 0.0 0.0
709.2698391405077 -72.262675122183 0.0 102.05830089526523 0.0 0.0
1038.860647463407 -62.71323324171152 0.0 69.67077332119139 0.0 0.0
1046.0325999465113 -56.725321076448665 0.0 72.55938133344793 0.0 0.0
997.8851999888436 -8.036897118204138 0.0 -90.56591895321522 0.0 0.0
1002.1390304612819 -7.247840929790414 0.0 -97.56017017606986 0.0 0.0
529.4687813821248 40.50098711867486 0.0 -61.11859253724791 0.0 0.0
582.6737637358892 25.577756083263182 0.0 -52.572669086884005 0.0 0.0
582.5789849358462 16.025456712454258 0.0 67.43656905315483 0.0 0.0
1011.4958047704943 -14.975854540570424 0.0 100.37533446795958 0.0 0.0
1058.0779484417196 22.94791119045061 0.0 -113.4989519593438 0.0 0.0
1074.0727804205721 22.62187764128737 0.0 -107.23941007061097 0.0 0.0
463.14848648563554 7.035013518076823 0.0 -118.45681137425616 0.0 0.0
439.85603151265155 12.34037493706677 0.0 -119.12232018598019 0.0 0.0
524.9373139928662 -4.026879565068299 0.0 111.00629852727481 0.0 0.0
463.7853756974222 17.603948501026224 0.0 112.49691673281087 0.0 0.0
1045.1294851705975 11.233777609417302 0.0 113.90821648610344 0.0 0.0
1046.5418315502807 19.495864833700352 0.0 109.83395875265096 0.0 0.0
1022.051990826181 117.4690493754392 0.0 -35.69775773750887 0.0 0.0
216.62530402608542 85.76129260699284 0.0 -40.67988171775878 0.0 0.0
1002.0091968884415 -29.622543474033193 0.0 24.818137679425007 0.0 0.0
944.0028124355567 -29.118464591963516 0.0 -7.3587403733885495 0.0 0.0
1011.0211736277802 -26.458298256605246 0.0 29.64477555807265 0.0 0.0
972.3546784339477 -25.99477808460415 0.0 -12.179353377242494 0.0 0.0
1138.8650728065245 0.010662800337229328 0.0 -6.053405676944017 0.0 0.0
1137.3290006312286 0.16096385634244825 0.0 -1.4260960633735202 0.0 0.0
895.1244314135282 -53.81382236926464 0.0 -11.802135947034218 0.0 0.0
996.5292233993267 -52.957205721519244 0.0 -43.4160459222629 0.0 0.0
859.1328238662084 -52.53929167570692 0.0 25.70121314648283 0.0 0.0
977.1077731303376 -56.23168895112303 0.0 -30.552944596857017 0.0 0.0
901.3733087898224 -56.802558903286354 0.0 -9.397882862042877 0.0 0.0
348.5733966774619 -43.62499882976155 0.0 -163.76733493863438 0.0 0.0
1039.0614836304312 -12.664903750096414 0.0 -60.81426623524303 0.0 0.0
1035.7527574430605 -20.83737205278186 0.0 -62.6841413871442 0.0 0.0
753.6966327577738 -15.96833675579046 0.0 -33.117070396493915 0.0 0.0
1021.5101388199976 -24.47165443087016 0.0 89.605080355467 0.0 0.0
1053.378631840344 -68.93728659450244 0.0 20.72190212412098 0.0 0.0
1040.0930008255486 -70.19984397129662 0.0 54.64337775082912 0.0 0.0
688.0367090994228 -110.83739203537442 0.0 164.7215408830269 0.0 0.0
666.7887567211624 -104.19120205712326 0.0 171.5110370012766 0.0 0.0
675.6890353781998 -107.19622408458216 0.0 -153.70581773692388 0.0 0.0
682.5675437034557 -109.34654926110682 0.0 -159.80587186811445 0.0 0.0
1040.337977445803 -68.68064175451633 0.0 -50.891731707244446 0.0 0.0
1037.4989909475107 -68.07663854003249 0.0 -55.93091272256982 0.0 0.0
1000.9493222214419 -55.27254830165441 0.0 48.54673583773729 0.0 0.0
836.0901659646236 -52.57404308757293 0.0 33.60557344451693 0.0 0.0
912.9850475653134 -101.4914144883412 0.0 39.59947576224107 0.0 0.0
902.840189695022 -101.8691301758899 0.0 42.94345296170531 0.0 0.0
928.6953341096252 -98.56857378853505 0.0 -29.413524442782226 0.0 0.0
932.368435242075 -99.47967959327389 0.0 -28.99241059703776 0.0 0.0
944.7440342110765 -17.68244395733518 0.0 5.284069902109288 0.0 0.0
1003.5957270823482 -55.26866407342385 0.0 52.72637202098999 0.0 0.0
929.864060189513 -21.787465004624778 0.0 1.3564663142959292 0.0 0.0
1051.9374041802241 -15.843340080154519 0.0 -29.84446408220932 0.0 0.0
1040.8982413375938 -15.09089903324815 0.0 55.307028717407064 0.0 0.0
799.8978146608872 -13.547362032262129 0.0 18.628201350486897 0.0 0.0
838.8835709435805 -17.234435145834766 0.0 12.546174991332016 0.0 0.0
1479.0781974085835 227.12039112453022 0.0 0.6578382903849003 0.0 0.0
40.307008891274485 -93.1381470434206 0.0 -10.168861876372063 0.0 0.0
52.521601007823044 -74.37322122971423 0.0 -7.815356125206538 0.0 0.0
959.1733781049713 8.918947080524447 0.0 -90.39082237283358 0.0 0.0
929.6050663490907 15.549072316110141 0.0 -80.87748754914934 0.0 0.0
453.93090804465675 70.06985484131984 0.0 -52.13683406670135 0.0 0.0
464.2502915195158 63.054109170576425 0.0 -55.115475025371595 0.0 0.0
451.2344645157827 75.45453974990593 0.0 45.260839059119114 0.0 0.0
438.37982436261836 76.438275782933 0.0 46.61362440040712 0.0 0.0
946.7296562531083 10.450009675421029 0.0 84.35245480007322 0.0 0.0
937.0161774068594 11.381857035471171 0.0 82.14164436072556 0.0 0.0
296.8388207904708 131.93330017572003 0.0 24.38186280017286 0.0 0.0
892.2942584824493 40.153005594984165 0.0 -39.77976975803478 0.0 0.0
904.5673624419518 48.060149363188515 0.0 -33.12478641618592 0.0 0.0
285.31208911830873 124.02938735560554 0.0 -24.093791835094486 0.0 0.0
284.76299927614656 121.99354248831617 0.0 -29.662033249237993 0.0 0.0
999.4459969021616 104.24990315634167 0.0 14.026862715973985 0.0 0.0
1054.2242317843275 -11.077745587340019 0.0 45.28885518779394 0.0 0.0
1070.277115058068 -10.286300744972834 0.0 -30.19895636690391 0.0 0.0
969.9638289215238 -10.236020094955165 0.0 -3.4492385256507045 0.0 0.0
930.4149821661475 -12.169868282890548 0.0 0.06608211888098083 0.0 0.0
1106.0671764844974 -4.475639920861909 0.0 16.094178618029016 0.0 0.0
1070.3001363227675 -6.287583798370861 0.0 -10.57003754419201 0.0 0.0
1027.3921384150733 -23.186932096819817 0.0 -102.91241963347302 0.0 0.0
1024.2028404243276 -25.627224704889272 0.0 -98.58524198034222 0.0 0.0
650.2872834216655 -8.374663459114174 0.0 65.725649971678 0.0 0.0
615.1383297431731 -7.861560081854549 0.0 -82.49519441461143 0.0 0.0
1024.9870515799705 -26.514502221119756 0.0 97.90028574472743 0.0 0.0
1016.198555718267 -18.022220094963927 0.0 97.27937378749866 0.0 0.0
1014.4966968317444 -13.596321320459595 0.0 13.57137893059247 0.0 0.0
1084.019804324806 -2.529889906198264 0.0 -1.5248196103479739 0.0 0.0
602.4206335620121 -37.841641975998016 0.0 126.3808934235535 0.0 0.0
598.3107215270236 -33.789881362926195 0.0 116.95793925497564 0.0 0.0
1059.8074253396408 -29.822035995522015 0.0 94.26216892025877 0.0 0.0
1077.3834389554363 -20.11874819738557 0.0 92.45076094433135 0.0 0.0
1051.2560488832207 -17.39943509822001 0.0 -107.49709217793108 0.0 0.0
1064.4422847040464 -33.477954989365685 0.0 -91.39571548298113 0.0 0.0
567.2436628775341 -11.949424495080365 0.0 -112.06716979051276 0.0 0.0
583.8637823978742 -45.29510903011237 0.0 -130.52613466126397 0.0 0.0
1139.210661862333 -0.6630311345908808 0.0 -6.078928167556932 0.0 0.0
1048.9491482970186 -5.095106110047425 0.0 -3.8288417419314666 0.0 0.0
983.4903351487818 -2.1818466291479126 0.0 -59.62713796724403 0.0 0.0
616.0655066903756 26.466471241884847 0.0 -29.16204936600236 0.0 0.0
612.8535874184782 26.91544535263455 0.0 -25.34187815965864 0.0 0.0
603.1980052126661 31.49591183111764 0.0 24.32265973104009 0.0 0.0
989.4476520740621 -0.6515641323846353 0.0 50.33547507703456 0.0 0.0
987.1618042172145 -0.4719639111863785 0.0 51.429934944899586 0.0 0.0
1073.685345160335 -7.149033805303816 0.0 12.645199404965098 0.0 0.0
1073.9849166984234 -6.2824098976694245 0.0 -10.274425335605702 0.0 0.0
1071.0659752257823 -6.545610267572897 0.0 11.677588649910874 0.0 0.0
1028.532201719386 -8.135696253412902 0.0 5.831027288849462 0.0 0.0
1066.3802249591179 77.6651950143119 0.0 -102.90495425890305 0.0 0.0
1042.2550667130083 69.00395528217939 0.0 -97.01549278078622 0.0 0.0
315.3031325104504 45.15319753032246 0.0 -107.93970887902422 0.0 0.0
339.45414829264064 53.67882484668904 0.0 -101.83821054853425 0.0 0.0
1033.3873905807918 -7.070008765190266 0.0 -111.04950361033625 0.0 0.0
577.7783247975367 2.2076614725596926 0.0 83.2189460109265 0.0 0.0
578.8325956864551 -3.5967049764202272 0.0 95.91525243922464 0.0 0.0
1031.8906911905303 -15.078712401953112 0.0 109.04691652828991 0.0 0.0
1136.0071626413621 -2.4367406984965214 0.0 6.954980095584933 0.0 0.0
302.32422653164673 69.94483361463587 0.0 89.51449656359233 0.0 0.0
312.81714938194915 62.32254057424721 0.0 90.49324956575674 0.0 0.0
1044.472089334438 82.74341660030979 0.0 89.40057620646104 0.0 0.0
1035.6315690677034 77.47863401021067 0.0 93.19224729122871 0.0 0.0
960.2865326479075 -12.045138922883439 0.0 0.8195133017632459 0.0 0.0
1022.4376905354263 -5.47237754928733 0.0 1.6204078689291133 0.0 0.0
263.83779279353257 -111.01215274643694 0.0 154.95546739336544 0.0 0.0
309.77978708394073 -103.99478520052664 0.0 166.19117500512672 0.0 0.0
1269.3086353074139 81.86865150265146 0.0 -20.722064446336457 0.0 0.0
1276.7581980176449 83.30132926912313 0.0 -36.38347751021408 0.0 0.0
1294.4321235859902 106.73722116880276 0.0 43.00360842975027 0.0 0.0
1267.726360331881 82.45629241399956 0.0 15.962959471216978 0.0 0.0
254.91334178114462 -84.04459454016589 0.0 -155.46639201311285 0.0 0.0
245.29146383330414 -91.28855891586187 0.0 -151.72906150418692 0.0 0.0
1025.9600003225967 -27.483536889562856 0.0 -41.928726422273655 0.0 0.0
701.2052326836757 -91.05595969886625 0.0 -123.63534611907603 0.0 0.0
1048.6858728109098 -73.58802791547276 0.0 -37.166618664562414 0.0 0.0
715.883981251233 -92.83138763477825 0.0 -124.24190685583206 0.0 0.0
980.4717453088125 -37.47532218417933 0.0 -24.038416170495132 0.0 0.0
841.7021108718106 -113.81120111164006 0.0 -96.59891983911912 0.0 0.0
841.1042132211014 -114.81567894175305 0.0 -96.86325697440134 0.0 0.0
965.4619827220777 -100.98966555000169 0.0 35.17132386453675 0.0 0.0
852.5284351726417 -24.66231116550921 0.0 -13.083145382553273 0.0 0.0
1041.6660157076458 -21.148889868445224 0.0 -45.686437522600826 0.0 0.0
969.2871850157999 -104.03933603593555 0.0 -38.79956474119067 0.0 0.0
963.3224837646375 -105.48815912067886 0.0 44.87349279606363 0.0 0.0
971.9635473456967 -105.43961402898054 0.0 -39.28294882081874 0.0 0.0
829.1173753029603 -112.74538915871153 0.0 102.92746303231861 0.0 0.0
859.333004031243 -111.1638670844622 0.0 -122.95715537837108 0.0 0.0
905.2165843355964 -106.79879299415103 0.0 106.67067047787634 0.0 0.0
865.4724565651994 -107.5709954005352 0.0 -120.7376738189495 0.0 0.0
1007.971435693133 -34.425657391505524 0.0 -38.504859908853184 0.0 0.0
796.8066531028315 -109.57379580642896 0.0 114.16001801250731 0.0 0.0
127.33686442400973 -91.19061082820559 0.0 102.98747835445927 0.0 0.0
211.87471100741917 -60.93292655741378 0.0 136.72258995362395 0.0 0.0
1376.2635086504815 191.57628384196312 0.0 2.062560014212566 0.0 0.0
1307.5433359981819 155.8595094614052 0.0 17.82237403600808 0.0 0.0
1377.9508822332746 174.9665702156803 0.0 0.30105665900126044 0.0 0.0
1400.727281640408 187.6014295072072 0.0 15.966915237931111 0.0 0.0
114.01703758889249 -94.25410226565712 0.0 -87.0192142092239 0.0 0.0
104.51231923992154 -101.02222348432551 0.0 -86.41259799099348 0.0 0.0
916.287612798688 -39.2765135634603 0.0 -0.025608909557737633 0.0 0.0
870.644357236316 -104.05511755604476 0.0 122.60791506974135 0.0 0.0
581.4793920070907 -72.64027611984096 0.0 -154.04449694724866 0.0 0.0
723.4412621373461 -33.5530483970164 0.0 -62.77296988724099 0.0 0.0
1114.9193757118803 -12.91589322617233 0.0 -60.44208264718133 0.0 0.0
523.7209950323263 -63.28277076996875 0.0 -160.87750229763367 0.0 0.0
1055.4516083857409 -13.850498585160892 0.0 -46.69608409609432 0.0 0.0
935.8555039255917 -59.530159997733904 0.0 -5.085834200335641 0.0 0.0
960.5367120660337 -79.76318597196774 0.0 -10.8435008538147 0.0 0.0
821.6425234461708 -37.36709517446525 0.0 -30.796957902511444 0.0 0.0
1025.3210268178718 -46.110858570773814 0.0 -83.16536163254689 0.0 0.0
905.1642024148958 -25.00630549777236 0.0 3.374145810837647 0.0 0.0
728.9003417090886 -34.055451869291915 0.0 -63.67896283361484 0.0 0.0
885.7468072481198 -78.93676960141153 0.0 31.035525565284455 0.0 0.0
825.5787946746743 -20.45275360528433 0.0 -16.53353050470728 0.0 0.0
1058.8140402664835 -61.88841331155851 0.0 -37.3577813637173 0.0 0.0
998.2801012810078 -40.35755010263648 0.0 35.86363940869733 0.0 0.0
910.0849104231393 -36.75585734510611 0.0 -3.0944285243668133 0.0 0.0
664.2467846196585 -88.51864085499722 0.0 136.76483118311134 0.0 0.0
1063.2531619619124 -59.30856834868433 0.0 41.13667286340209 0.0 0.0
1040.2050653890913 -20.46007224140709 0.0 35.390783680364585 0.0 0.0
904.1220652590825 -79.17444147756709 0.0 -19.373767543616196 0.0 0.0
1027.1317303849164 -30.939396277249557 0.0 -63.917150058980596 0.0 0.0
646.6197069804028 -79.9828267724784 0.0 138.6506072625267 0.0 0.0
947.63046696757 -79.94681285931603 0.0 -4.662086609227734 0.0 0.0
973.6689719879076 -77.92772333952348 0.0 20.734054293017014 0.0 0.0
829.1364951177999 -40.301592800500885 0.0 -29.199300868293072 0.0 0.0
1069.0954111729316 -56.84696777291765 0.0 34.80633846571111 0.0 0.0
1017.8734066863957 -39.84855587598224 0.0 -60.26034246319797 0.0 0.0
871.000280293821 -77.75680981851178 0.0 38.37819971670681 0.0 0.0
977.8103728155639 -78.13918506055126 0.0 22.819505565297863 0.0 0.0
837.6025275613023 -29.69886832923288 0.0 19.903880904542465 0.0 0.0
910.5604193358247 -78.68356710989303 0.0 -17.593388291046423 0.0 0.0
689.3541629931938 14.423573640743314 0.0 18.721032430505645 0.0 0.0
962.2494718517296 -61.21315776112772 0.0 20.431199622059534 0.0 0.0
1025.495093690802 -31.73912215568413 0.0 56.83343791884945 0.0 0.0
916.5075505896119 -59.907666353990805 0.0 2.886558743039466 0.0 0.0
955.7578086253665 -41.50259566606644 0.0 13.459060597164664 0.0 0.0
876.8510083336214 -24.823276300062446 0.0 8.589756156647558 0.0 0.0
957.9776377283308 -60.38252421334306 0.0 17.534154522219257 0.0 0.0
464.9298433797131 -9.175942786632987 0.0 -202.18743163489546 0.0 0.0
906.1116904946017 96.31045176834641 0.0 277.7638138300971 0.0 0.0
466.2816441901324 -8.153543586973967 0.0 -202.66386053773147 0.0 0.0
344.48582682875565 103.47115710967684 0.0 47.527072977107956 0.0 0.0
323.616477876807 115.68016402129714 0.0 36.528021114389276 0.0 0.0
929.9250858468237 27.80679199705031 0.0 72.71551621184025 0.0 0.0
907.313970279537 19.94558624848071 0.0 70.78421351740731 0.0 0.0
1001.6331671214891 -67.21251925517242 0.0 -48.64436453271016 0.0 0.0
1000.3560504372424 -25.624984180332547 0.0 -22.338725215573817 0.0 0.0
1036.888774620583 -5.034636006329777 0.0 46.2004251633792 0.0 0.0
825.0210613623161 -63.71521600753573 0.0 -46.886971759833266 0.0 0.0
1036.2284844145486 -23.12567252833196 0.0 45.844962219094995 0.0 0.0
900.8124826419028 -30.767524755746194 0.0 -2.8473439497126103 0.0 0.0
892.6261839664679 -40.9247626323982 0.0 7.749132483237722 0.0 0.0
816.1201593782524 -63.05902775766816 0.0 -50.14830495234192 0.0 0.0
987.4983627744399 -89.30768266588154 0.0 -17.21024131613906 0.0 0.0
1009.6920345424022 -70.34433097298603 0.0 -54.069404541907446 0.0 0.0
878.2327609059198 -15.078164090098767 0.0 -4.478718526962711 0.0 0.0
1133.9507428519655 -11.66872039182806 0.0 -23.636469653891826 0.0 0.0
1022.1288218539743 -42.6279002541242 0.0 -76.81340321719509 0.0 0.0
831.6564229280141 -91.38000474064995 0.0 -68.60359012419681 0.0 0.0
733.2616003847667 0.6322012691958605 0.0 -20.457998016269638 0.0 0.0
958.1725592508245 -41.64634599063373 0.0 -16.48369243010386 0.0 0.0
455.5798927433507 -95.14530304325248 0.0 -183.45088358121703 0.0 0.0
1171.5935667895342 12.630773562044737 0.0 17.92383950853927 0.0 0.0
456.25536941247833 -83.52763198563864 0.0 -181.3962328415083 0.0 0.0
823.327965418333 -90.78579156513968 0.0 -71.4591495810013 0.0 0.0
1001.6247614966186 -40.95733451491793 0.0 41.19258357436041 0.0 0.0
975.2248507759122 -28.198984096482263 0.0 13.519234756223366 0.0 0.0
960.5027782807487 -43.33052088307278 0.0 17.089529365036174 0.0 0.0
1027.480797063067 -20.471247784357047 0.0 -25.652797125400127 0.0 0.0
503.8589723661842 -84.69777143949156 0.0 177.17414765239712 0.0 0.0
1141.4763472432505 -5.461311913382758 0.0 22.88558956870813 0.0 0.0
1140.8265863359022 -11.556630329416805 0.0 3.089165678326426 0.0 0.0
503.97164730173364 -83.59867642429728 0.0 175.34908840405538 0.0 0.0
815.3328110039297 -29.298627580307823 0.0 26.814557997243124 0.0 0.0
870.0397810230193 -15.935285617907425 0.0 6.591666337137228 0.0 0.0
1023.574893218742 -33.59973146818999 0.0 62.86520832081851 0.0 0.0
784.7613146156632 -4.939545911405332 0.0 -11.347351393287354 0.0 0.0
245.60154143885077 113.34409919351481 0.0 21.47482497276316 0.0 0.0
1065.6844433604685 -8.180650198401338 0.0 38.40968049262363 0.0 0.0
905.4243980696579 32.33506060790319 0.0 -64.72328741786104 0.0 0.0
914.1641472991305 25.925119281278057 0.0 -70.50754613953308 0.0 0.0
368.9833010623208 100.2196891782529 0.0 -43.046425914955066 0.0 0.0
361.68583867902265 101.70562379133196 0.0 -42.240147290710034 0.0 0.0
879.3905266370164 -14.854367499622583 0.0 -3.3914413857718433 0.0 0.0
708.275740840782 6.066831553397719 0.0 20.795361255561208 0.0 0.0
977.9807916024419 37.21934357405274 0.0 -96.7579146981124 0.0 0.0
547.7787991661162 37.90188233718024 0.0 48.22260356736631 0.0 0.0
791.6242281873513 -65.02128679942376 0.0 62.479684903817315 0.0 0.0
380.67854313012487 75.880357776294 0.0 77.10386418869331 0.0 0.0
371.9687780824309 82.19806717260796 0.0 62.83343640715412 0.0 0.0
996.9783933206661 31.480881306271158 0.0 103.16104477571908 0.0 0.0
979.0229039033048 32.156417793201854 0.0 97.75169968585628 0.0 0.0
981.5600510170152 -4.4082392322569035 0.0 85.71797789898613 0.0 0.0
1032.0174143890897 -6.816804402516482 0.0 49.32330144835293 0.0 0.0
1013.9683851860746 -65.70784502057688 0.0 59.61690272627188 0.0 0.0
975.829898084919 -25.216829247712838 0.0 12.78594296107249 0.0 0.0
907.2941475727503 -14.653574465192378 0.0 2.999126180072888 0.0 0.0
1070.181174339968 -10.806806622315207 0.0 26.624371429383125 0.0 0.0
1132.999877636556 -2.0103918026975975 0.0 6.378736128441626 0.0 0.0
1018.383756188008 -18.068879140746617 0.0 -80.55187439638638 0.0 0.0
942.5924449280855 2.873884196830602 0.0 -56.53081913083962 0.0 0.0
521.9650006174993 54.13137469470004 0.0 -29.736798308458546 0.0 0.0
999.0735573655014 -88.77970715850813 0.0 -18.218941513737622 0.0 0.0
673.3733459846347 5.68096948751608 0.0 -36.4680936483705 0.0 0.0
1019.634937233426 -14.033638072951078 0.0 -76.02135293639166 0.0 0.0
772.3587950279918 -62.875245835885664 0.0 69.46962354968983 0.0 0.0
1085.4984270430039 -6.39305051046972 0.0 26.664037509100417 0.0 0.0
885.635534237572 10.606376422721496 0.0 -52.562273367644714 0.0 0.0
885.7074819301415 5.4333650187952 0.0 -49.48859170057102 0.0 0.0
421.0234733882059 85.71643477415284 0.0 -26.733618083405233 0.0 0.0
423.21295632731164 88.06389911902399 0.0 -28.55883245176961 0.0 0.0
432.0746293674366 88.55621561440697 0.0 20.0891862040933 0.0 0.0
872.0252416118728 5.951379915219832 0.0 43.74658261980923 0.0 0.0
878.7686013612064 7.3622104005863775 0.0 48.426283203233524 0.0 0.0
967.9613113369837 81.75233252828372 0.0 -41.84496115762757 0.0 0.0
237.21254190913317 102.8259956964749 0.0 -35.37246664903482 0.0 0.0
1019.4068619127418 -63.69984631926178 0.0 64.11769924294946 0.0 0.0
1006.9383164924859 -84.00888553144296 0.0 25.846478487433526 0.0 0.0
762.5861152140209 -33.421660217355964 0.0 48.5532111375215 0.0 0.0
1087.4634322844593 -5.866037048856128 0.0 -16.552997692839764 0.0 0.0
811.1941597114078 -94.07683820641552 0.0 81.619029561519 0.0 0.0
344.1779448013894 2.001383891397097 0.0 -138.53957549633017 0.0 0.0
1011.7613900627716 -83.4161666208264 0.0 27.46142348582676 0.0 0.0
739.253063962725 -8.872557873853708 0.0 32.108664121099956 0.0 0.0
1023.9063477035186 -39.50628720818236 0.0 77.8969270837779 0.0 0.0
955.685415887263 3.3067008880288995 0.0 -81.48324001120443 0.0 0.0
796.499367377292 -95.12687695088886 0.0 87.04759674937561 0.0 0.0
1131.0402030971716 168.1204507742334 0.0 -33.73720645793469 0.0 0.0
1145.1353368736268 170.24209678505656 0.0 -38.62464774229726 0.0 0.0
170.04909923007705 53.2405674808406 0.0 -48.40193662141584 0.0 0.0
185.1629714803159 73.99836681888617 0.0 -33.697345865441356 0.0 0.0
189.17961064308673 52.49802583764079 0.0 60.09694478722297 0.0 0.0
200.20338720448044 52.57980174864146 0.0 70.0806993647936 0.0 0.0
1098.8935893831767 134.34138420013048 0.0 67.53345785398905 0.0 0.0
1110.6535590811818 155.72528257351843 0.0 45.89709878858159 0.0 0.0
1029.0716613449245 -21.76131586702894 0.0 71.61800104275689 0.0 0.0
1019.7021034535296 -25.988731423189222 0.0 -91.66854414496241 0.0 0.0
743.2605248447494 -31.63447663791277 0.0 55.05047730590244 0.0 0.0
668.2213381132588 -2.8235017343365314 0.0 -53.80167384705977 0.0 0.0
1041.9606277378305 -14.394829290814414 0.0 -20.178097819217093 0.0 0.0
936.7120384034231 -19.003050676444673 0.0 -2.829277872150087 0.0 0.0
1023.8060892640675 -38.755850366337654 0.0 81.33973950332182 0.0 0.0
506.87767638283754 58.752547584415126 0.0 -31.388923096300406 0.0 0.0
1728.2914577957881 191.3042517171981 0.0 62.76303567770275 0.0 0.0
1830.4443885470407 186.61886478705543 0.0 95.08416349085324 0.0 0.0
7.084211644367471 -300.3696426364062 0.0 -19.524028241140268 0.0 0.0
8.24385907804782 -305.3069642392504 0.0 -19.91434850724992 0.0 0.0
10.290211563633022 -277.28764745875446 0.0 7.330474705656657 0.0 0.0
13.007461912014492 -253.15240031480192 0.0 18.54409319887375 0.0 0.0
1825.9204825036475 180.10333297607656 0.0 -95.83412811015292 0.0 0.0
1805.0941593247305 171.8240717759573 0.0 -82.15290056107698 0.0 0.0
639.9042252470235 2.478507790966802 0.0 -57.04998755576524 0.0 0.0
1032.6202725450487 -5.458177686199292 0.0 -46.02078820784613 0.0 0.0
815.2800684834551 17.128960668274146 0.0 -30.1194442913342 0.0 0.0
814.9465160794915 15.58301529481335 0.0 -28.875208687355386 0.0 0.0
314.7575124068798 127.82183556955223 0.0 -15.426043847568842 0.0 0.0
314.4505730974593 127.16394975182274 0.0 -15.826534622752181 0.0 0.0
1001.5670312286413 31.832022297338085 0.0 -104.27734793538184 0.0 0.0
423.8960438344666 58.13144257351257 0.0 -79.20704059182073 0.0 0.0
385.2673440153652 64.96396249683981 0.0 -81.3666113837086 0.0 0.0
1076.7044197026032 -3.3813187809418537 0.0 30.868410302233254 0.0 0.0
807.5628010745588 -7.201762562895283 0.0 10.333970887220474 0.0 0.0
1002.8678614586524 -9.25774432074627 0.0 -4.537827210047405 0.0 0.0
1070.5406277985858 -4.2404472632638885 0.0 -33.72410154078116 0.0 0.0
965.4887537136036 -16.2314420269862 0.0 -4.755645682908462 0.0 0.0
1123.703153815476 -3.3234900762449797 0.0 4.539550352393992 0.0 0.0
1219.9773950019212 81.81677599153232 0.0 -46.96446698858044 0.0 0.0
1225.0168695125585 114.59928157977845 0.0 -59.8634992489068 0.0 0.0
237.11324090886507 -17.629641920608734 0.0 -128.70458254917384 0.0 0.0
311.6561814912636 -52.49320174000721 0.0 -157.20820965472166 0.0 0.0
300.7650387816545 -39.9382186730375 0.0 151.71817997895175 0.0 0.0
1193.7595907734728 97.19925236648072 0.0 72.31229447161908 0.0 0.0
1078.4253659959395 -3.6582174439521395 0.0 28.187414906817782 0.0 0.0
311.25995738016746 129.6071490486722 0.0 17.111402508889846 0.0 0.0
792.9918813666729 15.117777523710657 0.0 26.420215975226796 0.0 0.0
1036.2407456151043 -43.77420064504304 0.0 -87.81679359859159 0.0 0.0
997.3051910929198 -17.9204497169614 0.0 -13.352125743123837 0.0 0.0
1014.8643488221164 -9.302299737034161 0.0 -6.816113648547061 0.0 0.0
1035.368516135082 -14.15273195618795 0.0 19.14156106283895 0.0 0.0
464.7320418789247 -36.034729319753666 0.0 -152.67752590845703 0.0 0.0
1120.2382761848319 49.729871835193194 0.0 -95.0147773570492 0.0 0.0
388.3152213635643 -8.180272028640388 0.0 -142.65531339324775 0.0 0.0
1014.6689019586553 -12.165204533028316 0.0 79.31096039291226 0.0 0.0
1023.6447854931159 -14.064341892904679 0.0 -13.943322467332148 0.0 0.0
1009.9619392692784 -10.791390334739276 0.0 79.25706024761219 0.0 0.0
635.6597630610215 13.080324694460217 0.0 45.186092294847434 0.0 0.0
505.0717724560944 37.218295673947736 0.0 71.23171864270665 0.0 0.0
653.8206917856908 -30.749347393704596 0.0 90.88788945707988 0.0 0.0
989.2837089379447 8.433694970604847 0.0 -103.76923150483599 0.0 0.0
1038.245450341967 -29.45611158611206 0.0 99.36450813592617 0.0 0.0
677.9200647976577 -39.29502041506424 0.0 84.45526764923612 0.0 0.0
726.8293857980952 -10.350406039286497 0.0 39.38325463411398 0.0 0.0
1036.4200329256896 -40.91923832900454 0.0 89.83908100809882 0.0 0.0
999.9454574977294 4.317327409713187 0.0 107.24766684754306 0.0 0.0
1024.3622239713122 -20.30840740071386 0.0 76.90191848343898 0.0 0.0
496.1668386327578 36.69313300852373 0.0 80.62835960352747 0.0 0.0
1099.9170502172026 -4.195126570446064 0.0 -23.47624065152715 0.0 0.0
1006.2446311990666 -1.5629957642248655 0.0 107.85553708650474 0.0 0.0
653.2808166163757 -3.2169493670284623 0.0 64.65991963256461 0.0 0.0
656.9545122387838 -38.340873310044344 0.0 -97.46930764028262 0.0 0.0
1043.2456498134636 -40.39498522208288 0.0 -96.03789962689305 0.0 0.0
1264.4914620649233 214.83680980870028 0.0 -25.137963322784167 0.0 0.0
104.21756708758177 -7.127533594041445 0.0 -51.56721592268512 0.0 0.0
1111.8565889080814 -3.894926574801616 0.0 -18.206229944107818 0.0 0.0
1040.6513915176583 -13.953846997974608 0.0 22.921907852158228 0.0 0.0
1113.6516554401678 -4.524462224894421 0.0 11.759630089085954 0.0 0.0
515.0491061771653 46.53073485083655 0.0 42.96098401001615 0.0 0.0
983.3868148650911 -2.49754720137463 0.0 85.56839320623595 0.0 0.0
122.7594114027131 -12.854758378025082 0.0 58.54046318526866 0.0 0.0
111.79173447593361 23.421125870902923 0.0 8.483553080614858 0.0 0.0
1217.8176227078652 205.2763159510359 0.0 17.825688379743646 0.0 0.0
1209.1086138793835 207.00688155555721 0.0 2.432890195901651 0.0 0.0
607.4947482138629 -17.306140538064028 0.0 -95.87377128080847 0.0 0.0
703.6249058840386 29.302774796874985 0.0 -230.5584370415615 0.0 0.0
729.8168058069903 2.3394435600541215 0.0 218.395702846378 0.0 0.0
700.5102469312047 30.247108658425674 0.0 -235.81742205970207 0.0 0.0
697.2489526427591 33.01991330164077 0.0 226.55810338231487 0.0 0.0
308.70502025832974 91.91841247245179 0.0 -64.32069564607512 0.0 0.0
949.4613417965224 75.50222277670682 0.0 -13.086739958663937 0.0 0.0
951.4316026473497 78.01615090482522 0.0 -0.8918961677816943 0.0 0.0
240.30334651349312 118.78414330520987 0.0 -5.507418377384677 0.0 0.0
237.6498930775569 112.27903455992279 0.0 -14.930849355512528 0.0 0.0
844.1606952618213 12.046281095420284 0.0 -43.99039058361158 0.0 0.0
359.8867104888212 111.32792773243587 0.0 -18.314636926698963 0.0 0.0
826.9763790414781 9.665558731509691 0.0 37.105088879309676 0.0 0.0
356.25421261203286 113.83749544143262 0.0 -18.116111369711856 0.0 0.0
825.43744816488 14.280563738200954 0.0 -39.24108124213139 0.0 0.0
1093.6116231693818 -4.685278635616669 0.0 -14.62197260682892 0.0 0.0
1106.0370906890173 -2.499801590951563 0.0 -20.686155272379317 0.0 0.0
89.2384833014634 -224.02830934676808 0.0 -58.58300246782262 0.0 0.0
328.1572819589111 -106.86274171552648 0.0 -158.13369416038068 0.0 0.0
281.72263716055426 137.64260306731904 0.0 -4.601877028836439 0.0 0.0
285.8339575409535 141.31998626264377 0.0 -3.018168862909416 0.0 0.0
797.8416717894611 20.229325965910817 0.0 -4.338227944373372 0.0 0.0
836.9703782968385 27.663037004971102 0.0 -10.390681943629728 0.0 0.0
1567.7326039551067 163.8142218131049 0.0 215.98279774332667 0.0 0.0
86.69829629769296 -222.5954899984015 0.0 -60.682445763717325 0.0 0.0
1565.9511958963199 166.1506314868031 0.0 -173.3246445188078 0.0 0.0
79.1877662706613 -227.58873942026702 0.0 57.43536033626452 0.0 0.0
101.13314235828103 -182.03757392903765 0.0 72.99277108347212 0.0 0.0
1210.4079818101302 99.14422111728999 0.0 217.18047097901254 0.0 0.0
1585.1856576544274 162.73422275323458 0.0 -206.2719970573834 0.0 0.0
301.3677753312836 -107.89279885008902 0.0 -147.87588478157042 0.0 0.0
301.0311539021266 21.201673888786047 0.0 122.1282634466337 0.0 0.0
1577.0737026593386 168.27347503970066 0.0 199.71417639826433 0.0 0.0
1105.6605990094577 93.79312060124005 0.0 94.33370284394654 0.0 0.0
361.3994068765728 3.2855493030938447 0.0 138.37049603020893 0.0 0.0
1107.1892336998915 65.41333810868616 0.0 100.8002845837348 0.0 0.0
370.5128494327234 104.44109307649623 0.0 27.26963196547516 0.0 0.0
472.8216825530204 -107.27263914009205 0.0 184.55059627025207 0.0 0.0
914.7945210695633 -48.23673421211112 0.0 -154.53960366705957 0.0 0.0
1139.646447869514 17.012318879335396 0.0 -105.95689470203408 0.0 0.0
906.9738313893063 -47.60228348405411 0.0 -157.0473608839948 0.0 0.0
1142.6673553667079 15.948151731778637 0.0 105.15911257088302 0.0 0.0
1083.307431525887 -4.041356939762238 0.0 -98.8247593035968 0.0 0.0
1140.5279905611628 19.709208510041265 0.0 -114.64087285805462 0.0 0.0
508.3901476822435 -21.07007473569203 0.0 -137.87735818723678 0.0 0.0
447.310762457419 -99.85598549822231 0.0 186.89514546173376 0.0 0.0
1068.9678384416047 -8.814681909837873 0.0 27.439528020125724 0.0 0.0
806.2362911838031 -80.25768981736599 0.0 183.37877311770143 0.0 0.0
919.5831501546612 -43.75679546122319 0.0 160.1110290477569 0.0 0.0
408.5910082407578 34.81839949217674 0.0 108.86652534854939 0.0 0.0
955.7144905186805 -13.310005609257132 0.0 1.334938619851935 0.0 0.0
252.11387457095782 94.88051531005028 0.0 50.55386747793843 0.0 0.0
1127.7303315555205 90.11760831367104 0.0 -93.23947987150491 0.0 0.0
691.8765243732731 -75.45278383271051 0.0 188.70379061044113 0.0 0.0
250.63765651803854 5.51418765066272 0.0 120.70693163262946 0.0 0.0
1015.3160801577566 94.22837623977779 0.0 60.31719397481329 0.0 0.0
511.5236877819864 25.375357824663865 0.0 -87.1397155172854 0.0 0.0
1161.6873673457603 128.34345020249344 0.0 74.67057788128044 0.0 0.0
1015.851302712775 0.5278565667753696 0.0 -110.86950689157679 0.0 0.0
1180.2700075366206 156.05741469920522 0.0 59.85337749542271 0.0 0.0
857.09416557951 -10.6263395612213 0.0 3.520512356774954 0.0 0.0
1075.7574956118765 120.45405677358701 0.0 -74.87131268247413 0.0 0.0
234.737048152972 64.4411247000666 0.0 -77.58364397945085 0.0 0.0
197.5741339492761 -0.6109589235670398 0.0 110.9834759444007 0.0 0.0
1085.4499637663473 -1.4146954318490543 0.0 2.4656833499982826 0.0 0.0
235.15677788408073 70.08200652508923 0.0 -70.93548676163655 0.0 0.0
236.61415118619814 100.37745308862918 0.0 35.84479312795369 0.0 0.0
285.3599759771882 136.53336684943284 0.0 11.318104922037946 0.0 0.0
999.1352952071413 102.37000244605329 0.0 41.288988642891894 0.0 0.0
1208.8709473205943 164.8239099719192 0.0 -54.321538629107955 0.0 0.0
925.7835245632368 3.437559167706354 0.0 -47.06858457543473 0.0 0.0
1101.0868099566246 -11.453433490095563 0.0 -80.06524232601285 0.0 0.0
486.95832851952343 -40.41625676957372 0.0 154.5894973210435 0.0 0.0
1073.1995655577748 -9.17520895051075 0.0 -33.43900106372275 0.0 0.0
217.64950039128706 11.504551071837454 0.0 -105.27549309810868 0.0 0.0
1171.410651121191 143.09245613175753 0.0 -68.51139078956164 0.0 0.0
1026.8107320446945 -4.009068450514121 0.0 -1.5244972047171037 0.0 0.0
1106.4434916689652 6.592785772729144 0.0 90.25261787753226 0.0 0.0
1055.1552155494417 48.71164963867608 0.0 111.07387061020161 0.0 0.0
296.9948278537471 135.81554319307187 0.0 10.175454013711448 0.0 0.0
801.5803567596723 16.6332617455071 0.0 20.439648791750923 0.0 0.0
934.521729536186 4.044045767596913 0.0 51.84712438994892 0.0 0.0
1069.100660257528 -7.765213422834336 0.0 -34.93871402943142 0.0 0.0
1006.2806570282612 -14.058941603431776 0.0 10.191283755332323 0.0 0.0
994.8297248215541 -31.493159013988702 0.0 134.38213931268112 0.0 0.0
346.98418734161714 -40.43836655867629 0.0 157.34772849175698 0.0 0.0
992.7458914404675 73.6225744940972 0.0 -78.00774901007043 0.0 0.0
281.4407412993758 92.60215432916904 0.0 -59.116458303005764 0.0 0.0
1101.938672188686 126.32358188610095 0.0 -74.96982485205103 0.0 0.0
645.7074487389881 -89.7232072380477 0.0 -186.80737229467846 0.0 0.0
668.7741821245208 -91.51194783972016 0.0 -184.39862139956978 0.0 0.0
1183.600867194685 73.6938834389498 0.0 60.29755239841417 0.0 0.0
931.6105885212518 5.808778647476515 0.0 50.64967068322923 0.0 0.0
507.32695816008123 60.63229976446726 0.0 24.070817649991778 0.0 0.0
685.6660207730537 11.154877418662494 0.0 -16.888998957162418 0.0 0.0
464.4739573899378 -23.036078543694487 0.0 146.6036629259732 0.0 0.0
1149.6650689591124 44.064511155936486 0.0 -73.94420202002128 0.0 0.0
720.2986808293103 -2.320291805443304 0.0 -27.588908008273414 0.0 0.0
796.7894486721322 -9.14072709271477 0.0 -11.365092121969795 0.0 0.0
1100.6559288205794 38.4666695424321 0.0 103.32576986188195 0.0 0.0
1102.9079526276284 -0.5833507476108934 0.0 22.441902272918938 0.0 0.0
292.452417092873 111.08889845709595 0.0 42.549580988941216 0.0 0.0
940.6448572453309 56.147209755014444 0.0 66.45859739369233 0.0 0.0
1064.2676314210235 144.82627476951413 0.0 -3.4450941417603493 0.0 0.0
1069.256109301533 153.71894430363508 0.0 16.081317268064144 0.0 0.0
189.65551457790016 81.79406858964234 0.0 1.9554795591378995 0.0 0.0
200.17015000197645 90.68632058104953 0.0 7.27632861787361 0.0 0.0
873.0034549778622 -10.525451406546438 0.0 4.5787083819550665 0.0 0.0
868.9883507612118 26.066698133228954 0.0 49.46595860103552 0.0 0.0
1105.2799400454433 -3.4399800446673794 0.0 21.037162111878168 0.0 0.0
944.1090612136421 66.12632845927007 0.0 43.41822216033876 0.0 0.0
877.4754870594361 28.81568755964463 0.0 42.88115357431192 0.0 0.0
280.1977504920585 112.37211584118673 0.0 36.90932577823548 0.0 0.0
272.7768244362403 131.89013671673408 0.0 8.168725754538267 0.0 0.0
310.67128307064485 124.86892430505739 0.0 26.534088095619207 0.0 0.0
878.6217285019219 39.999196071361894 0.0 9.599725669509999 0.0 0.0
263.4212126185166 127.58232476696764 0.0 14.198919287569622 0.0 0.0
875.7912622098594 34.348235076564464 0.0 23.851398945786055 0.0 0.0
1135.7334494363445 16.23077746809446 0.0 66.02707374924073 0.0 0.0
1140.3361534064813 -0.07489296382198063 0.0 -2.7577254013175243 0.0 0.0
1079.812871330497 -3.189792023134771 0.0 4.446649872199994 0.0 0.0
359.21852098379367 112.05144610430756 0.0 23.01150436550043 0.0 0.0
848.8626578718863 11.060661179044075 0.0 44.24309386371859 0.0 0.0
586.6141986465523 41.75976933936161 0.0 23.180705725987153 0.0 0.0
1025.4500929535832 -28.623540665556447 0.0 -79.52718656393398 0.0 0.0
470.71634399430087 73.11055976398805 0.0 23.307969622664277 0.0 0.0
260.0804271717714 35.45950384121456 0.0 -108.08959704114271 0.0 0.0
1120.8169962229654 -1.7970180374840083 0.0 -16.07728987743387 0.0 0.0
994.9735018122659 -1.8051461305631165 0.0 -53.059357078034466 0.0 0.0
960.0345755543109 111.73374304971489 0.0 -267.24215621758003 0.0 0.0
963.2406145417882 64.2434320696565 0.0 -64.15078859818108 0.0 0.0
421.9533909716783 -24.35548437649848 0.0 190.23935032705438 0.0 0.0
967.9721730549776 115.66686459411338 0.0 268.36211380570785 0.0 0.0
611.6571286069848 20.284163957114117 0.0 45.46696725941799 0.0 0.0
888.512869782359 -21.091728753535904 0.0 -4.198835498017805 0.0 0.0
155.26228145476503 18.543132472251205 0.0 -65.72663538861046 0.0 0.0
1275.6834197156836 141.39980908192769 0.0 -258.8697306090986 0.0 0.0
1037.1397179201738 -5.110549209127612 0.0 -44.77519078802571 0.0 0.0
1283.972761474074 139.48805781811978 0.0 -257.903816246202 0.0 0.0
981.0077314081252 61.260431903500944 0.0 81.73277117912343 0.0 0.0
307.49251842287487 96.54624141785365 0.0 64.76054550731335 0.0 0.0
1275.4849720718216 201.10679749346352 0.0 35.72887540799951 0.0 0.0
963.0686200355673 115.69767790050525 0.0 -272.3948420534249 0.0 0.0
1151.3524142308197 0.5317992816987953 0.0 1.9866262952430487 0.0 0.0
552.5843195672311 -107.31264010814743 0.0 -197.1151984876941 0.0 0.0
1277.679355043882 136.9696072588219 0.0 252.1894724979074 0.0 0.0
408.8340099936146 54.46463699270102 0.0 89.84039980005652 0.0 0.0
1035.9849369409917 116.71887465356781 0.0 -56.16986150291414 0.0 0.0
217.67451640215899 -120.77989376031299 0.0 119.0894331946898 0.0 0.0
526.3268525998483 15.960918456423741 0.0 -83.32380017935631 0.0 0.0
753.4173657450484 -17.861124639581675 0.0 -38.161331139646435 0.0 0.0
708.1809911890319 10.707765701316134 0.0 -15.56337085794788 0.0 0.0
1461.0310795859066 238.1403230732421 0.0 -4.415007713566526 0.0 0.0
44.96094425940316 -73.7183662963458 0.0 49.47264654380531 0.0 0.0
1126.8021512108314 -2.2016657544152736 0.0 13.012903110433106 0.0 0.0
772.5665645090982 12.430813734577242 0.0 7.209088066162023 0.0 0.0
133.79565948608337 41.80970297692397 0.0 3.676500962555111 0.0 0.0
785.3154720035809 -5.25413378088308 0.0 11.691221163207295 0.0 0.0
1064.9597542708545 -38.40527663281017 0.0 -85.93280941832415 0.0 0.0
613.059494945406 -53.18051205751809 0.0 -126.00783923046404 0.0 0.0
941.2734713198922 68.92884698681615 0.0 31.521692644470114 0.0 0.0
518.1752337355106 -42.12701341056143 0.0 188.49348885506137 0.0 0.0
1327.0999636648476 218.90364546024742 0.0 -14.567216220387964 0.0 0.0
1156.5793089028898 1.2948381998779155 0.0 -1.1320029593323675 0.0 0.0
1024.3826625150436 24.050644897929487 0.0 -113.26936619312202 0.0 0.0
109.12315622046309 -50.6883673784852 0.0 71.36929118299113 0.0 0.0
230.02168486569883 -128.93536077040412 0.0 120.61374014353828 0.0 0.0
1477.176078316184 210.97567302421967 0.0 -13.628933266177366 0.0 0.0
321.82909144412093 98.99298133557139 0.0 -56.23360573022161 0.0 0.0
665.838925430965 -101.70825241646625 0.0 158.29046073047562 0.0 0.0
255.34686994577046 127.3221522767272 0.0 -10.080693537225104 0.0 0.0
1151.4272779650994 0.784865277207075 0.0 2.514164064557166 0.0 0.0
1015.251633328656 -7.353129877451181 0.0 2.8861342845006175 0.0 0.0
1167.908362242033 1.9533448140877567 0.0 -0.4722623068957657 0.0 0.0
SCALARS Strain float 6
LOOKUP_TABLE default
0.011816976561078616 -0.003526377461326367 0.0 3.6865781556169494e-05 0.0 0.0
0.011903980882475167 -0.003596977943679605 0.0 -6.441456974258275e-05 0.0 0.0
0.01177693452586884 -0.0034982245096218017 0.0 5.208825700335678e-05 0.0 0.0
0.011813168615160189 -0.003528096432554269 0.0 -4.63800058347326e-05 0.0 0.0
0.022011980342372874 -0.004837195705861325 0.0 -4.059660001162667e-05 0.0 0.0
0.021809954972253433 -0.004966215906810787 0.0 -4.608175721220828e-05 0.0 0.0
0.011855203458151203 -0.0035513221497853616 0.0 6.939405279356787e-06 0.0 0.0
0.011763009157212116 -0.0035284161931308255 0.0 -3.528368123818648e-05 0.0 0.0
0.011554250336039996 -0.0034649914982371674 0.0 -0.00010138600238998468 0.0 0.0
0.011446876009687357 -0.0034427708926250975 0.0 -0.00015144800690843885 0.0 0.0
0.011171020480839684 -0.00336692944754728 0.0 -0.00021418261696181954 0.0 0.0
0.010693622406147775 -0.003218804450041078 0.0 -0.00032386526931872965 0.0 0.0
0.010172406475534027 -0.0030466566325724 0.0 -0.000400317037560314 0.0 0.0
0.009500736367665451 -0.002832883562593994 0.0 -0.0004320156020341361 0.0 0.0
0.00879415423812025 -0.0026001897264691077 0.0 -0.0004216303333498027 0.0 0.0
0.008000489377335569 -0.002339401209198874 0.0 -0.0003233446130177833 0.0 0.0
0.007560225475197842 -0.0021628241047652965 0.0 -0.0002694789548211682 0.0 0.0
0.007316339944376375 -0.002128301412315705 0.0 -6.306216755442261e-05 0.0 0.0
0.007245793793414347 -0.0020994018234124293 0.0 0.00013195265647144804 0.0 0.0
0.007512956596363684 -0.002171427849355638 0.0 0.0002505421028337052 0.0 0.0
0.008106356305459491 -0.0023668258968431786 0.0 0.0003973475050045075 0.0 0.0
0.008674502246364044 -0.002558780170757981 0.0 0.0003616971951604401 0.0 0.0
0.009478449817896806 -0.00279718857724946 0.0 0.00040337361871480606 0.0 0.0
0.010108146556022725 -0.0030283919495800527 0.0 0.00041096303110196787 0.0 0.0
0.010747035669824987 -0.00323988142635917 0.0 0.00031148504089793393 0.0 0.0
0.011195346004102375 -0.003379177493807053 0.0 0.00019638004214584374 0.0 0.0
0.011494454853336125 -0.003450148519403088 0.0 0.00011236767986642134 0.0 0.0
0.011617828494075553 -0.0034940344042871585 0.0 0.00010679543668836015 0.0 0.0
0.011694539387784524 -0.003494909671962562 0.0 2.2073500777878827e-05 0.0 0.0
0.011840469768612229 -0.0035326555856167226 0.0 -2.011983538834138e-05 0.0 0.0
0.01116865959677976 -0.0033347461823860823 0.0 6.764042437456276e-05 0.0 0.0
0.010532792159643959 -0.003202363343687313 0.0 5.55859214871241e-05 0.0 0.0
0.009851760775963564 -0.0030430400509836616 0.0 5.024432994544557e-05 0.0 0.0
0.009169133724007439 -0.0028637669492763444 0.0 3.56764144453129e-05 0.0 0.0
0.008379666653951987 -0.002591281089653259 0.0 8.296358292730703e-06 0.0 0.0
0.007424976388272805 -0.002181235746469419 0.0 -6.527224042486817e-05 0.0 0.0
0.006411740136107705 -0.0017106865694098245 0.0 -0.0001070920670835083 0.0 0.0
0.005509587526585872 -0.0012448271104873088 0.0 -0.00013877922613694373 0.0 0.0
0.004564136532634441 -0.0006714384392074814 0.0 -0.000140367984636533 0.0 0.0
0.003617234750930367 -7.798347096872988e-05 0.0 -0.00010287908701460304 0.0 0.0
0.0029193454172935776 0.0002666738374668089 0.0 -7.699951259551802e-05 0.0 0.0
0.0025356165296357195 0.0005169142322685 0.0 -5.160111451181157e-05 0.0 0.0
0.0025393211658514044 0.0005222599640543349 0.0 3.697395353944422e-05 0.0 0.0
0.003032172333487498 0.00023604346673178765 0.0 9.780541028864807e-05 0.0 0.0
0.0037996933866033342 -0.00024892507796290875 0.0 0.00014738389343226115 0.0 0.0
0.004439578033509561 -0.0006049025358425261 0.0 0.00012588383004634592 0.0 0.0
0.005188255546748664 -0.0010604906840592475 0.0 0.00013836307788482236 0.0 0.0
0.006333553982517601 -0.001671639113040055 0.0 8.192848731015916e-05 0.0 0.0
0.007346342651549996 -0.0021746854719351745 0.0 3.3681176230067694e-05 0.0 0.0
0.008231199657652203 -0.0025432987750587262 0.0 -1.3887441748396363e-05 0.0 0.0
0.009157624619388478 -0.002848291505728011 0.0 -4.664918417641057e-05 0.0 0.0
0.010040581636863525 -0.003105071881179642 0.0 -4.7147565463300845e-05 0.0 0.0
0.010480926639786906 -0.0031690059914409193 0.0 -6.808075034707622e-05 0.0 0.0
0.011168505303951057 -0.003318869811444398 0.0 -6.607317042862725e-05 0.0 0.0
0.011895635422931735 -0.0035914261787833766 0.0 3.9828551812390444e-05 0.0 0.0
0.011747425637339916 -0.0035244835630518496 0.0 -4.912406708000617e-05 0.0 0.0
0.011578928376427265 -0.0034742689377885365 0.0 -0.00011171213425561916 0.0 0.0
0.011467511199188467 -0.003436354550054696 0.0 -0.0001231502692242162 0.0 0.0
0.011143587110805162 -0.003351582050347884 0.0 -0.00020110781188437463 0.0 0.0
0.010707984366264614 -0.0032198741178519757 0.0 -0.0002847289977843007 0.0 0.0
0.010151884854075983 -0.0030393233688456554 0.0 -0.00039763542421527133 0.0 0.0
0.00938705282034133 -0.002781407513862436 0.0 -0.0004417262786171797 0.0 0.0
0.008765950851606159 -0.0025727514160464567 0.0 -0.0004036184728792603 0.0 0.0
0.00811366215135954 -0.002381798816570598 0.0 -0.00035035630648887244 0.0 0.0
0.007595204151211319 -0.002218654880221652 0.0 -0.00023730846940703783 0.0 0.0
0.007376616162653437 -0.0021461642720447993 0.0 -7.998503142527369e-05 0.0 0.0
0.0071622208287194875 -0.002055110736490763 0.0 6.910086636497928e-05 0.0 0.0
0.00747418801804783 -0.0021717529105798094 0.0 0.0001980654753024588 0.0 0.0
0.008054169464439575 -0.002350869320215225 0.0 0.00029647836997664993 0.0 0.0
0.008751384082023974 -0.002578414748888893 0.0 0.0003778304821854089 0.0 0.0
0.009481408116560038 -0.002812021321921256 0.0 0.00039748992910886575 0.0 0.0
0.010123977030905442 -0.0030312130294508095 0.0 0.00038842305784072444 0.0 0.0
0.010770092332503955 -0.003245743266553308 0.0 0.00029797249269417466 0.0 0.0
0.01117615920001726 -0.0033660416459697297 0.0 0.00019753323256106346 0.0 0.0
0.011344053650544136 -0.0033964105761908393 0.0 0.00018918428991001354 0.0 0.0
0.011628391849086078 -0.003482090559928596 0.0 8.992920088911978e-05 0.0 0.0
0.011726235302268719 -0.0035200640622513285 0.0 7.025923547357169e-05 0.0 0.0
0.011838949207390153 -0.003555381828231323 0.0 -1.4813834843588608e-05 0.0 0.0
0.011222440182480347 -0.003355677291864926 0.0 3.251837991948572e-05 0.0 0.0
0.010586704640652532 -0.00319316987528241 0.0 3.208017327089845e-05 0.0 0.0
0.009873754891692071 -0.0030495543414222844 0.0 4.746974036943517e-05 0.0 0.0
0.0091424172910633 -0.0028505908561120576 0.0 4.2884931868442266e-05 0.0 0.0
0.008354873966161698 -0.0025711556757795247 0.0 -2.481685139497053e-06 0.0 0.0
0.007496653419783474 -0.002181008877213594 0.0 -3.825240067179396e-05 0.0 0.0
0.006508371403405735 -0.001763096812272214 0.0 -8.428721575017908e-05 0.0 0.0
0.005458535853873983 -0.0012034749237824574 0.0 -0.00012191501471602007 0.0 0.0
0.004462548672409297 -0.000636665232059407 0.0 -0.00012114848599745185 0.0 0.0
0.00362665783902469 -0.00011034669439158205 0.0 -0.000101050071160703 0.0 0.0
0.002934159392747818 0.00023451269770764286 0.0 -9.154024734222539e-05 0.0 0.0
0.0025533785822077723 0.0005105295911616025 0.0 -3.4841819786567664e-05 0.0 0.0
0.0024903388385054378 0.0005647601044212533 0.0 2.128539552979635e-05 0.0 0.0
0.0028565249446701126 0.0003246823195072294 0.0 7.877311032495796e-05 0.0 0.0
0.003585298918198689 -0.00016084234349705737 0.0 0.00010737203304483143 0.0 0.0
0.0045276279776670985 -0.000615480064578485 0.0 0.00010837550035436492 0.0 0.0
0.005449171428723099 -0.001183984526165554 0.0 0.0001069278733788189 0.0 0.0
0.006506147994197052 -0.0017415005168668755 0.0 8.350598457012014e-05 0.0 0.0
0.007490540244159452 -0.0022347264370005367 0.0 3.424827841954128e-05 0.0 0.0
0.008387205305308879 -0.002587873000169316 0.0 1.1852732838340094e-05 0.0 0.0
0.009105773538241197 -0.002801816108445431 0.0 -3.014455742092837e-05 0.0 0.0
0.009887504705746605 -0.0030342374607914345 0.0 -8.665157465827217e-05 0.0 0.0
0.010593079982174385 -0.0032297915871683856 0.0 -5.02464208554377e-05 0.0 0.0
0.011231590398010386 -0.0033598285871148277 0.0 -5.135928382453211e-05 0.0 0.0
0.019783626021084955 -0.004003822289310576 0.0 0.003976808844884681 0.0 0.0
0.01540791553534717 -0.002660056530933174 0.0 0.005548327155384426 0.0 0.0
0.010279448628247026 -0.0014661120437456916 0.0 0.004658327010360211 0.0 0.0
0.006306091672443234 -0.000898414620277705 0.0 0.0035202129307065726 0.0 0.0
0.0029953370493171943 -0.0014816544523929753 0.0 0.0015107015236665827 0.0 0.0
0.0016510230263972218 -0.0029133759059585423 0.0 0.0001485918982735987 0.0 0.0
0.001343636208408193 -0.004238779840847155 0.0 -0.00020869705038580315 0.0 0.0
0.0013975099568249755 -0.004927281965409582 0.0 -5.9162534345401965e-05 0.0 0.0
0.0013746773567733452 -0.0043860131098191766 0.0 0.0004875753596044083 0.0 0.0
0.0017723935170024672 -0.00288872579104112 0.0 -2.7508068156564067e-05 0.0 0.0
0.0031384488060534205 -0.00136725838840021 0.0 -0.0019816189250342763 0.0 0.0
0.0059990160960153695 -0.0007598097587836808 0.0 -0.003572946030878435 0.0 0.0
0.010487855906788834 -0.001208639551410537 0.0 -0.004821086040083218 0.0 0.0
0.015540345591875232 -0.0026689151493569244 0.0 -0.005003834350173745 0.0 0.0
0.02011901431237826 -0.004288014667233697 0.0 -0.0035355687009810087 0.0 0.0
0.019742033709448638 -0.0040200848940838245 0.0 0.0032538144447989124 0.0 0.0
0.01564448932784593 -0.002730629851849739 0.0 0.005081958448408161 0.0 0.0
0.010477995834129396 -0.0012429616525368465 0.0 0.004802006682580242 0.0 0.0
0.005805364973742488 -0.0006591765052706031 0.0 0.0035424526044524796 0.0 0.0
0.0025299573493848147 -0.0013215641598774155 0.0 0.0018570890929620653 0.0 0.0
0.0016093544934260213 -0.0028469387141571035 0.0 0.0004197038480767651 0.0 0.0
0.0013225245971565873 -0.004192297461618801 0.0 -0.00024309611309595016 0.0 0.0
0.0014101236571394402 -0.0050644800179065865 0.0 -3.9751266698653246e-05 0.0 0.0
0.001390116776925099 -0.004405714962639871 0.0 0.0004429888160073882 0.0 0.0
0.001829666144057159 -0.0029386247857359615 0.0 -9.743366443818271e-05 0.0 0.0
0.003168770984927831 -0.0013760085756175933 0.0 -0.0020314047631362466 0.0 0.0
0.006019127009597796 -0.0007778345975539545 0.0 -0.003582765361810219 0.0 0.0
0.010449371868489175 -0.0012060314299932975 0.0 -0.004843675159931368 0.0 0.0
0.015556202411587904 -0.00275145946326475 0.0 -0.005201208348854592 0.0 0.0
0.01995678893357768 -0.004262871886169843 0.0 -0.003767076396444217 0.0 0.0
0.010571443887987846 -0.003773298130826677 0.0 -0.0008477035706361136 0.0 0.0
0.010524104389850441 -0.0037477734717111123 0.0 -0.0008836823413368122 0.0 0.0
0.007263443585657 -0.002729194409076475 0.0 -0.0012350085913214904 0.0 0.0
0.007544648441064537 -0.0028873347132557657 0.0 -0.0011726545293963234 0.0 0.0
0.007121249359452611 -0.002796355397906922 0.0 0.0013904849649436046 0.0 0.0
0.0073094864167716255 -0.002850436268643353 0.0 0.0013267579116384481 0.0 0.0
0.010576746174359207 -0.0037437142748073366 0.0 0.000905720053175488 0.0 0.0
0.01063050196269446 -0.003705351010604021 0.0 0.0009432719573348232 0.0 0.0
0.01000296269124305 -0.0030740245711485727 0.0 -0.0011773569463917979 0.0 0.0
0.01004313382740219 -0.0030788955006817494 0.0 -0.0012682822122889082 0.0 0.0
0.005173184852465223 -0.0011833964729596259 0.0 -0.0007945417029842229 0.0 0.0
0.005750004369109102 -0.0014922437303750357 0.0 -0.0006834446981294921 0.0 0.0
0.0057777134792211 -0.0015874823876829963 0.0 0.0008766753976910128 0.0 0.0
0.010159885611326653 -0.0031842459597171864 0.0 0.0013048793480834745 0.0 0.0
0.010511935750845844 -0.0029447547334206527 0.0 -0.0014754863754714695 0.0 0.0
0.01067286217128186 -0.002995999564848843 0.0 -0.0013941123309179427 0.0 0.0
0.004610379824302125 -0.0013190953242761384 0.0 -0.0015399385478653302 0.0 0.0
0.004361539190315315 -0.001196164345167287 0.0 -0.0015485901624177425 0.0 0.0
0.005261453778623867 -0.0016150807376292817 0.0 0.0014430818808545726 0.0 0.0
0.004585041911471143 -0.0012153166420820042 0.0 0.0014624599175265414 0.0 0.0
0.010417593518877723 -0.0030230506794176196 0.0 0.0014808068143193447 0.0 0.0
0.010406930721001706 -0.0029446668463138388 0.0 0.0014278414637844624 0.0 0.0
0.009868112760135493 -0.001891465478724151 0.0 -0.00046407085058761534 0.0 0.0
0.0019089691624398757 0.0002077370139916722 0.0 -0.0005288384623308641 0.0 0.0
0.010108959599306513 -0.003302253025405656 0.0 0.0003226357898325251 0.0 0.0
0.009527383518131458 -0.003123193083226306 0.0 -9.566362485405115e-05 0.0 0.0
0.010189586631047617 -0.003297646503449393 0.0 0.0003853820822549444 0.0 0.0
0.009801531118593288 -0.003177011816147884 0.0 -0.00015833159390415242 0.0 0.0
0.011388618739664234 -0.0034164885904162017 0.0 -7.869427380027222e-05 0.0 0.0
0.01137280711474326 -0.003410377363330262 0.0 -1.8539248823855763e-05 0.0 0.0
0.009112685781243076 -0.003223511517933231 0.0 -0.00015342776731144483 0.0 0.0
0.010124163851157825 -0.0035191597274131722 0.0 -0.0005644085969894177 0.0 0.0
0.008748946113689204 -0.0031027913883556945 0.0 0.0003341157709042768 0.0 0.0
0.009939772798156745 -0.0034936402089022433 0.0 -0.00039718827975914123 0.0 0.0
0.009184140764608084 -0.003272145515402331 0.0 -0.0001221724772065574 0.0 0.0
0.0036166089632639043 -0.0014819701783300014 0.0 -0.002128975354202247 0.0 0.0
0.010428609547554602 -0.0032438334883922583 0.0 -0.0007905854610581594 0.0 0.0
0.010420039690588953 -0.003315631992857001 0.0 -0.0008148938380328747 0.0 0.0
0.0075848713378451095 -0.002420773265831226 0.0 -0.00043052191515442095 0.0 0.0
0.010288516351492586 -0.0033092469607686943 0.0 0.001164866044621071 0.0 0.0
0.010740598178186948 -0.003849508761466057 0.0 0.00026938472761357275 0.0 0.0
0.010611529540169378 -0.0038222774421896124 0.0 0.0007103639107607785 0.0 0.0
0.0072128792671003516 -0.0031724840476520127 0.0 0.00214138003147935 0.0 0.0
0.006980461173382993 -0.0030422782907347195 0.0 0.002229643481016596 0.0 0.0
0.007078479026035745 -0.003099029346980421 0.0 -0.0019981756305800106 0.0 0.0
0.007153715084817877 -0.003141168123721435 0.0 -0.0020774763342854877 0.0 0.0
0.01060942169972158 -0.003807820349882573 0.0 -0.0006615925121941778 0.0 0.0
0.010579219825095205 -0.0037932633582428575 0.0 -0.0007271018653934077 0.0 0.0
0.010175310867119381 -0.003555573449680869 0.0 0.0006311075658905847 0.0 0.0
0.008518623788908955 -0.0030340109287696 0.0 0.00043687245477872004 0.0 0.0
0.009434324719118158 -0.0037538692875793526 0.0 0.000514793184909134 0.0 0.0
0.00933400928747789 -0.003727211870843965 0.0 0.000558264888502169 0.0 0.0
0.009582659062461857 -0.0037717717402142264 0.0 -0.00038237581775616894 0.0 0.0
0.009622123391200572 -0.003791902101658964 0.0 -0.0003769013377614909 0.0 0.0
0.00950048767398277 -0.003011056542206581 0.0 6.869290872742074e-05 0.0 0.0
0.010201763263043753 -0.0035634738219812827 0.0 0.0006854428362728699 0.0 0.0
0.009364002996909005 -0.003007466830614787 0.0 1.763406208584708e-05 0.0 0.0
0.010566904062042705 -0.0033142456133422172 0.0 -0.0003879780330687212 0.0 0.0
0.010454255110475685 -0.0032736037143452634 0.0 0.0007189913733262919 0.0 0.0
0.008039620232705658 -0.0025351670643052825 0.0 0.00024216661755632965 0.0 0.0
0.00844053901487331 -0.0026889950642890893 0.0 0.0001631002748873162 0.0 0.0
0.014109420800712242 -0.0021660306809804476 0.0 8.551897775003704e-06 0.0 0.0
0.0006824845300430067 -0.0010523024971080294 0.0 -0.00013219520439283682 0.0 0.0
0.0007483356737673731 -0.0009012970153206114 0.0 -0.00010159962962768499 0.0 0.0
0.00956497693980814 -0.00278833066350967 0.0 -0.0011750806908468366 0.0 0.0
0.009249403446542577 -0.002633324475886171 0.0 -0.0010514073381389414 0.0 0.0
0.004329099515922608 -0.0006610941757207719 0.0 -0.0006777788428671175 0.0 0.0
0.004453340587683429 -0.0007622097828527833 0.0 -0.0007165011753298308 0.0 0.0
0.004285981025908109 -0.0005991579960482888 0.0 0.0005883909077685485 0.0 0.0
0.004154483416277385 -0.000550756715258525 0.0 0.0006059771172052925 0.0 0.0
0.009435946533504819 -0.002735688872005114 0.0 0.0010965819124009518 0.0 0.0
0.00933601620296218 -0.0026972299618658667 0.0 0.0010678413766894324 0.0 0.0
0.002572588307377548 0.0004288165393857879 0.0 0.0003169642164022472 0.0 0.0
0.00880248356803954 -0.0022753527194975063 0.0 -0.0005171370068544522 0.0 0.0
0.008901493176329952 -0.0022331005936939703 0.0 -0.00043062222341041693 0.0 0.0
0.0024810327291162706 0.0003843576062011293 0.0 -0.0003132192938562283 0.0 0.0
0.0024816493652965173 0.00036564642705472184 0.0 -0.0003856064322400939 0.0 0.0
0.00968171025955259 -0.001955838959143068 0.0 0.0001823492153076618 0.0 0.0
0.010575475554605295 -0.0032734501512263828 0.0 0.0005887551174413213 0.0 0.0
0.010733630052815597 -0.003313694352623932 0.0 -0.00039258643276975086 0.0 0.0
0.009730346349500103 -0.003012251687714123 0.0 -4.484010083345916e-05 0.0 0.0
0.009340659426510146 -0.0029129436293273475 0.0 8.590675454527508e-07 0.0 0.0
0.01107409868460756 -0.0033629579286621114 0.0 0.0002092243220343772 0.0 0.0
0.010721864114622788 -0.003273776246952011 0.0 -0.00013741048807449613 0.0 0.0
0.010343482180441193 -0.003314045736213418 0.0 -0.0013378614552351494 0.0 0.0
0.010318910078357944 -0.003328880768321876 0.0 -0.001281608145744449 0.0 0.0
0.0065279968245939984 -0.0020346084848561386 0.0 0.0008544334496318139 0.0 0.0
0.006174967977677295 -0.0019240305900480648 0.0 -0.0010724375273899486 0.0 0.0
0.010329414022463065 -0.003340106176951109 0.0 0.0012727037146814566 0.0 0.0
0.010216052217467561 -0.0032288178681044405 0.0 0.0012646318592374826 0.0 0.0
0.010185755932278823 -0.0031794533036998292 0.0 0.0001764279260977021 0.0 0.0
0.010847787712966656 -0.003277358312036401 0.0 -1.982265493452366e-05 0.0 0.0
0.006137731261548115 -0.0021856783204460164 0.0 0.0016429516145061956 0.0 0.0
0.006084476859359015 -0.0021328309782103327 0.0 0.0015204532103146834 0.0 0.0
0.010687540361382974 -0.0034776426359741427 0.0 0.0012254081959633641 0.0 0.0
0.010834190634146519 -0.0034333377988401644 0.0 0.0012018598922763075 0.0 0.0
0.010564758794126869 -0.003327762497631863 0.0 -0.0013974621983131041 0.0 0.0
0.01074485671200856 -0.003528106404005796 0.0 -0.0011881443012787547 0.0 0.0
0.0057082849022605815 -0.0018212252335834055 0.0 -0.001456873207276666 0.0 0.0
0.005974523151069078 -0.002204542437494746 0.0 -0.0016968397505964317 0.0 0.0
0.011394095712027104 -0.003424262296932908 0.0 -7.902606617824012e-05 0.0 0.0
0.010504776801300329 -0.00319779850599153 0.0 -4.9774942645109066e-05 0.0 0.0
0.009841448891375261 -0.0029722894717378245 0.0 -0.0007751527935741724 0.0 0.0
0.006081255653178102 -0.0015835318076522784 0.0 -0.0003791066417580307 0.0 0.0
0.0060477895381268795 -0.0015694063087290894 0.0 -0.0003294444160755623 0.0 0.0
0.005937492316633308 -0.001494634897326822 0.0 0.0003161945765035212 0.0 0.0
0.009896431213137775 -0.0029748585975460325 0.0 0.0006543611760014493 0.0 0.0
0.009873033933905704 -0.0029662050517635075 0.0 0.0006685891542836946 0.0 0.0
0.01075830055301926 -0.003292546373534043 0.0 0.00016438759226454627 0.0 0.0
0.010758696396677243 -0.0032847788490719646 0.0 -0.00013356752936287414 0.0 0.0
0.010730296583060543 -0.0032786540283530766 0.0 0.00015180865244884137 0.0 0.0
0.010309729105954096 -0.003166953567692286 0.0 7.580335475504302e-05 0.0 0.0
0.010430806664548242 -0.002422488724734234 0.0 -0.0013377644053657396 0.0 0.0
0.010215538801283544 -0.002436725647317231 0.0 -0.0012612014061502209 0.0 0.0
0.003017571732513537 -0.0004943774222281266 0.0 -0.001403216215427315 0.0 0.0
0.003233505008386339 -0.00048157419641103145 0.0 -0.0013238967371309452 0.0 0.0
0.010355083932103487 -0.0031708622593942777 0.0 -0.0014436435469343712 0.0 0.0
0.005771160263557688 -0.0017112583596670132 0.0 0.0010818462981420445 0.0 0.0
0.005799116071793811 -0.0017724648368235673 0.0 0.0012468982817099203 0.0 0.0
0.010364143049111162 -0.003246459197591122 0.0 0.0014176099148677688 0.0 0.0
0.011367381848509111 -0.003432388894909052 0.0 9.041474124260413e-05 0.0 0.0
0.0028134077644725594 -0.00020752434344858142 0.0 0.0011636884553267004 0.0 0.0
0.00294120387209675 -0.00031522604240337535 0.0 0.0011764122443548377 0.0 0.0
0.010196490643543452 -0.0023059821020002167 0.0 0.0011622074906839936 0.0 0.0
0.010123879788646404 -0.0023321083671010044 0.0 0.0012114992147859733 0.0 0.0
0.009639000743247726 -0.003001310987172557 0.0 1.0653672922922196e-05 0.0 0.0
0.010240794038002127 -0.0031220368470991525 0.0 2.106530229607847e-05 0.0 0.0
0.0029714143861746365 -0.001901634905844967 0.0 0.002014421076113751 0.0 0.0
0.0034097822264409867 -0.0019692872132570883 0.0 0.0021604852750666476 0.0 0.0
0.012447480398566186 -0.002989239390895727 0.0 -0.00026938683780237396 0.0 0.0
0.012517677992369079 -0.002997261301361703 0.0 -0.000472985207632783 0.0 0.0
0.012624109572353492 -0.0028159241590699426 0.0 0.0005590469095867536 0.0 0.0
0.012429894726076812 -0.0029786161568556477 0.0 0.0002075184731258207 0.0 0.0
0.002801267201431944 -0.001605185970745093 0.0 -0.002021063096170467 0.0 0.0
0.0027267803150806268 -0.001648759980658531 0.0 -0.00197247779955443 0.0 0.0
0.010342050613894656 -0.0033527153698634186 0.0 -0.0005450734434895576 0.0 0.0
0.0072852202059333565 -0.0030141752950396897 0.0 -0.0016072594995479885 0.0 0.0
0.010707622811855517 -0.0038819378975874573 0.0 -0.0004831660426393114 0.0 0.0
0.007437333975416665 -0.003075965820101482 0.0 -0.0016151447891258168 0.0 0.0
0.009917143419640662 -0.0033161684577682304 0.0 -0.0003124994102164367 0.0 0.0
0.008758454712053027 -0.0036632183437318323 0.0 -0.0012557859579085486 0.0 0.0
0.008755489169036273 -0.003671469429080835 0.0 -0.0012592223406672175 0.0 0.0
0.009957588823870782 -0.00390628260366625 0.0 0.00045722721023897775 0.0 0.0
0.008599271285222945 -0.0028042084171730174 0.0 -0.00017008088997319255 0.0 0.0
0.010480106826681794 -0.0033364869458073895 0.0 -0.0005939236877938107 0.0 0.0
0.010004989858265805 -0.003948254915406755 0.0 -0.0005043943416354787 0.0 0.0
0.009949689315008411 -0.003944849042500701 0.0 0.0005833554063488272 0.0 0.0
0.01003595431554391 -0.003970286782326896 0.0 -0.0005106783346706436 0.0 0.0
0.008629409920505739 -0.0036148060174959963 0.0 0.001338057019420142 0.0 0.0
0.008926821641565818 -0.0036896376829383517 0.0 -0.0015984430199188241 0.0 0.0
0.009372562222338416 -0.003783637682948299 0.0 0.0013867187162123925 0.0 0.0
0.0089774375518536 -0.0036721273237009504 0.0 -0.0015695897596463436 0.0 0.0
0.010182991329105847 -0.0033681708809944542 0.0 -0.0005005631788150914 0.0 0.0
0.008296787918447603 -0.0034861579173727847 0.0 0.001484080234162595 0.0 0.0
0.001546940476724714 -0.0012939167015540852 0.0 0.0013388372186079705 0.0 0.0
0.002301545889746433 -0.0012449533985963953 0.0 0.0017773936693971115 0.0 0.0
0.013187906234978926 -0.0022130276875318134 0.0 2.6813280184763363e-05 0.0 0.0
0.012607854831597603 -0.0023640349133804933 0.0 0.00023169086246810502 0.0 0.0
0.013254609111685706 -0.0023841869445430214 0.0 3.9137365670163855e-06 0.0 0.0
0.013444468527882458 -0.002326167549849152 0.0 0.00020756989809310445 0.0 0.0
0.0014229326826858963 -0.0012845921354232488 0.0 -0.0011312497847199108 0.0 0.0
0.001348189862852192 -0.0013237591925630197 0.0 -0.0011233637738829153 0.0 0.0
0.009280705668677261 -0.0031416279740306675 0.0 -3.3291582425058923e-07 0.0 0.0
0.009018608925031294 -0.003652484247269395 0.0 0.0015939028959066376 0.0 0.0
0.00603271474843043 -0.002470840937219682 0.0 -0.0020025784603142326 0.0 0.0
0.007335071766564511 -0.002505854270382203 0.0 -0.0008160486085341329 0.0 0.0
0.01118794143679732 -0.0034739170593973646 0.0 -0.0007857470744133573 0.0 0.0
0.005427058262633169 -0.0022039906927966662 0.0 -0.002091407529869238 0.0 0.0
0.010596067579612891 -0.0033048598110088315 0.0 -0.0006070490932492262 0.0 0.0
0.00953714551924912 -0.0034028681117541145 0.0 -6.611584460436334e-05 0.0 0.0
0.00984465667857624 -0.0036792419959177786 0.0 -0.0001409655110995911 0.0 0.0
0.008328526519985103 -0.002838598522083165 0.0 -0.0004003604527326488 0.0 0.0
0.01039154284389104 -0.0035370716661613536 0.0 -0.0010811497012231095 0.0 0.0
0.009126660940642276 -0.002965555662222411 0.0 4.3863895540889414e-05 0.0 0.0
0.007391169772698762 -0.002527255543820185 0.0 -0.000827826516836993 0.0 0.0
0.009094278381285433 -0.0034466081177584747 0.0 0.0004034618323486979 0.0 0.0
0.008317146207562597 -0.002681263920076866 0.0 -0.00021493589656119464 0.0 0.0
0.010773805642599511 -0.0037953262539150356 0.0 -0.00048565115772832495 0.0 0.0
0.010103873663117989 -0.0033984158048693883 0.0 0.0004662273123130653 0.0 0.0
0.009211116676266711 -0.0030978133047204785 0.0 -4.0227570816768574e-05 0.0 0.0
0.006908023768761575 -0.0028779267624089474 0.0 0.0017779428053804475 0.0 0.0
0.010810457324665176 -0.0037828451693725806 0.0 0.0005347767472242272 0.0 0.0
0.010463430870615135 -0.003325215918581345 0.0 0.00046008018784473957 0.0 0.0
0.009278743977023527 -0.0035041106105529185 0.0 -0.00025185897806701056 0.0 0.0
0.010364135492680913 -0.003390789153927245 0.0 -0.0008309229507667478 0.0 0.0
0.006706145550121463 -0.0027396873886659924 0.0 0.0018024578944128473 0.0 0.0
0.009716145108253648 -0.0036423595294958703 0.0 -6.0607125919960546e-05 0.0 0.0
0.009970472889897646 -0.0037002841493589574 0.0 0.0002695427058092212 0.0 0.0
0.008412269729579501 -0.002890425413358408 0.0 -0.00037959091128780993 0.0 0.0
0.010861495015048071 -0.003775755911247972 0.0 0.00045248240005424443 0.0 0.0
0.010298279734491904 -0.0034521057788190097 0.0 -0.0007833844520215736 0.0 0.0
0.008943273232393745 -0.0033905689390665806 0.0 0.0004989165963171885 0.0 0.0
0.010012521283337293 -0.003714822969052204 0.0 0.0002966535723488722 0.0 0.0
0.008465121880600722 -0.002809796265976236 0.0 0.00025875045175905207 0.0 0.0
0.009341654894687926 -0.0035185169291064044 0.0 -0.00022871404778360352 0.0 0.0
0.006850270909009707 -0.001923826752572148 0.0 0.00024337342159657337 0.0 0.0
0.009806134191800679 -0.0034988799931664656 0.0 0.00026560559508677394 0.0 0.0
0.010350168303375071 -0.003393876502629247 0.0 0.0007388346929450429 0.0 0.0
0.009344798504958092 -0.0033485993153087442 0.0 3.7525263659513056e-05 0.0 0.0
0.009682085873251865 -0.0032822993825367642 0.0 0.00017496778776314063 0.0 0.0
0.008842979912236402 -0.0028787857880014887 0.0 0.00011166683003641827 0.0 0.0
0.009760923949923337 -0.003477758155318423 0.0 0.00022794400878885034 0.0 0.0
0.00467682626215703 -0.0014865489580054693 0.0 -0.002628436611253641 0.0 0.0
0.008772185549640979 -0.0017552305538003413 0.0 0.003610929579791262 0.0 0.0
0.004687277072662246 -0.001480380368440137 0.0 -0.0026346301869905092 0.0 0.0
0.003134444796958526 1.2540906105013116e-06 0.0 0.0006178519487024034 0.0 0.0
0.002889124286704178 0.00018595220658255062 0.0 0.0004748642744870606 0.0 0.0
0.009215830482477086 -0.002511707337569968 0.0 0.0009453017107539232 0.0 0.0
0.009013302944049928 -0.0025224860483538036 0.0 0.0009201947757262951 0.0 0.0
0.010217969228980408 -0.0036770246939161915 0.0 -0.0006323767389252321 0.0 0.0
0.01008043545691342 -0.003257317993115052 0.0 -0.00029040342780245964 0.0 0.0
0.010383991654224819 -0.0031610126839250467 0.0 0.0006006055271239296 0.0 0.0
0.008441356261645768 -0.003112215344162305 0.0 -0.0006095306328778324 0.0 0.0
0.010431661861730482 -0.003339942178526965 0.0 0.000595984508848235 0.0 0.0
0.009100427400686267 -0.0030101126954831703 0.0 -3.701547134626394e-05 0.0 0.0
0.009049036127561874 -0.0030871261782233856 0.0 0.00010073872228209039 0.0 0.0
0.008350378677055528 -0.003078950755711439 0.0 -0.0006519279643804449 0.0 0.0
0.010142906675742044 -0.003855571914982135 0.0 -0.00022373313710980782 0.0 0.0
0.01030795333834298 -0.003732519413357067 0.0 -0.0007029022590447968 0.0 0.0
0.008827562101329494 -0.002785479923618747 0.0 -5.8223340850515254e-05 0.0 0.0
0.01137451358969514 -0.003518539432474177 0.0 -0.00030727410550059373 0.0 0.0
0.010349171919302114 -0.0034926654681031646 0.0 -0.0009985742418235361 0.0 0.0
0.008590704243502091 -0.003408769316190542 0.0 -0.0008918466716145586 0.0 0.0
0.0073307194000400795 -0.0021934627884623416 0.0 -0.0002659539742115053 0.0 0.0
0.009706664630480146 -0.0032909811376588107 0.0 -0.00021428800159135019 0.0 0.0
0.004841234836563265 -0.002318192708662577 0.0 -0.0023848614865558215 0.0 0.0
0.011678043347209207 -0.003388472964748155 0.0 0.00023300991361101053 0.0 0.0
0.0048131365900817 -0.0022040424280938215 0.0 -0.002358151026939608 0.0 0.0
0.008505637028878748 -0.0033778418119063958 0.0 -0.0009289689445530169 0.0 0.0
0.010139119618510939 -0.003414447629639035 0.0 0.0005355035864666853 0.0 0.0
0.009836845460048569 -0.0032076643932925594 0.0 0.00017575005183090376 0.0 0.0
0.009735019345456706 -0.003314813543672974 0.0 0.00022216388174547028 0.0 0.0
0.01033622171398374 -0.0032871548690327707 0.0 -0.00033348636263020166 0.0 0.0
0.005292683037980317 -0.0023585546314934683 0.0 0.0023032639194811625 0.0 0.0
0.011431147408172655 -0.0034790421608635793 0.0 0.0002975126643932057 0.0 0.0
0.011442935754347272 -0.003538046062301874 0.0 4.015915381824354e-05 0.0 0.0
0.005290512502290228 -0.0023479017061481737 0.0 0.0022795381492527198 0.0 0.0
0.00824122399278022 -0.0027389847088148673 0.0 0.00034858925396416063 0.0 0.0
0.008748203667083915 -0.002769472199248132 0.0 8.569166238278397e-05 0.0 0.0
0.01033654812659199 -0.0034067219943381254 0.0 0.0008172477081706406 0.0 0.0
0.007862431783890848 -0.002403679402961043 0.0 -0.00014751556811273562 0.0 0.0
0.002115983116807963 0.0003966363676185959 0.0 0.00027917272464592107 0.0 0.0
0.01068138638419989 -0.003278859832065419 0.0 0.0004993258464041072 0.0 0.0
0.008957238798872868 -0.0023929225881299415 0.0 -0.0008414027364321935 0.0 0.0
0.00906386611514747 -0.0024832412490846108 0.0 -0.0009165980998139299 0.0 0.0
0.003389173943088449 -0.00010475301140443322 0.0 -0.0005596035368944158 0.0 0.0
0.0033117415154162305 -6.800127812374826e-05 0.0 -0.0005491219147792304 0.0 0.0
0.008838468368869031 -0.002786715254907275 0.0 -4.408873801503396e-05 0.0 0.0
0.007064556913747627 -0.002064158906988369 0.0 0.0002703396963222957 0.0 0.0
0.00966814988530226 -0.0025617489390667983 0.0 -0.0012578528910754613 0.0 0.0
0.005364082344649621 -0.001264317574126546 0.0 0.0006268938463757621 0.0 0.0
0.008111306142271785 -0.003025085552556292 0.0 0.0008122359037496251 0.0 0.0
0.003579144357972367 -0.0003832320516274346 0.0 0.001002350234453013 0.0 0.0
0.003473093579306485 -0.000293925662521213 0.0 0.0008168346732930035 0.0 0.0
0.009875341289287848 -0.0026761263668992866 0.0 0.001341093582084348 0.0 0.0
0.009693759785653443 -0.002615504533777896 0.0 0.0012707720959161317 0.0 0.0
0.009828825227866923 -0.0029887625453736146 0.0 0.0011143337126868198 0.0 0.0
0.010340624557098447 -0.003164220287192434 0.0 0.0006412029188285881 0.0 0.0
0.010336807386922477 -0.0036989836057639927 0.0 0.0007750197354415344 0.0 0.0
0.009833949468592328 -0.0031796579867318852 0.0 0.00016621725849394237 0.0 0.0
0.00911690219912308 -0.0028684181873701747 0.0 3.8988640340947543e-05 0.0 0.0
0.010734232163266626 -0.003318611589243056 0.0 0.00034611682858198063 0.0 0.0
0.011336029951773654 -0.0034191035509366446 0.0 8.292356966974114e-05 0.0 0.0
0.01023804419930232 -0.00323584005997149 0.0 -0.001047174367153023 0.0 0.0
0.009417302796690362 -0.00279903849281595 0.0 -0.0007349006487009151 0.0 0.0
0.005057255882090893 -0.0010245812549054974 0.0 -0.0003865783780099611 0.0 0.0
0.01025707469513054 -0.003885017743681586 0.0 -0.00023684623967858907 0.0 0.0
0.0067166905513838 -0.0019633103430787436 0.0 -0.0004740852174288165 0.0 0.0
0.010238450286553112 -0.0031992411924297885 0.0 -0.0009882775881730917 0.0 0.0
0.007912213687787576 -0.0029458288434428327 0.0 0.0009031051061459677 0.0 0.0
0.010874163421961448 -0.003320425786233709 0.0 0.0003466324876183054 0.0 0.0
0.008824536213107555 -0.002550842838485501 0.0 -0.0006833095537793813 0.0 0.0
0.00884077472424503 -0.0026027887956024723 0.0 -0.0006433516921074233 0.0 0.0
0.003953085429559601 -0.0004059060724230894 0.0 -0.00034753703508426804 0.0 0.0
0.003967937865916044 -0.0003889998777916951 0.0 -0.00037126482187300493 0.0 0.0
0.004055077646831146 -0.00041066173195824016 0.0 0.0002611594206532129 0.0 0.0
0.008702398276373069 -0.00255656192568342 0.0 0.00056870557405752 0.0 0.0
0.008765599382410305 -0.002562683700077756 0.0 0.0006295416816420358 0.0 0.0
0.009434356115784987 -0.0020863606087281146 0.0 -0.0005439844950491584 0.0 0.0
0.002063647432001907 0.0003166223312373496 0.0 -0.0004598420664374526 0.0 0.0
0.010385168158085203 -0.0036952190489308433 0.0 0.000833530090158343 0.0 0.0
0.010321409821519188 -0.003860903804791887 0.0 0.00033600422033663586 0.0 0.0
0.007726126132792276 -0.002621974947815622 0.0 0.0006311917447877795 0.0 0.0
0.01089223243399116 -0.003321050667341939 0.0 -0.0002151889700069169 0.0 0.0
0.008394172111733324 -0.0033743508611983786 0.0 0.001061047384299747 0.0 0.0
0.0034357752963397026 -0.0010125199954901971 0.0 -0.0018010144814522924 0.0 0.0
0.010367862400490197 -0.003869445836396579 0.0 0.0003569985053157479 0.0 0.0
0.007419148313248812 -0.0023064847706267123 0.0 0.00041741263357429945 0.0 0.0
0.010357582338659735 -0.0034667819151923797 0.0 0.0010126600520891126 0.0 0.0
0.009546934056208543 -0.0028339892387814996 0.0 -0.0010592821201456577 0.0 0.0
0.008250374304625586 -0.003340766871640765 0.0 0.001131618757741883 0.0 0.0
0.010806040678649015 -0.0017119161015491807 0.0 -0.00043858368395315094 0.0 0.0
0.010940627078381098 -0.0017329850427703147 0.0 -0.0005021204206498644 0.0 0.0
0.0015407692898582487 2.2258377118174893e-05 0.0 -0.0006292251760784059 0.0 0.0
0.0016296346143465001 0.0001844947537479141 0.0 -0.0004380654962507376 0.0 0.0
0.0017343020289179451 -4.255857355285236e-05 0.0 0.0007812602822338986 0.0 0.0
0.00184429446679888 -7.481214412702668e-05 0.0 0.0009110490917423169 0.0 0.0
0.010585911741231377 -0.0019532669261482253 0.0 0.0008779349521018577 0.0 0.0
0.010639359743091265 -0.0017747078515083618 0.0 0.0005966622842515606 0.0 0.0
0.010356000561050332 -0.003304828142705063 0.0 0.0009310340135558396 0.0 0.0
0.010274987228804863 -0.0033189936245924807 0.0 -0.0011916910738845113 0.0 0.0
0.007527508678361231 -0.0025461263409133758 0.0 0.0007156562049767317 0.0 0.0
0.006690683886335597 -0.0020328990316831417 0.0 -0.000699421760011777 0.0 0.0
0.010462790765250748 -0.003269830176121635 0.0 -0.0002623152716498222 0.0 0.0
0.009424129536063565 -0.003000166621974716 0.0 -3.6780612337951134e-05 0.0 0.0
0.010354328443739687 -0.003458976771455579 0.0 0.0010574166135431837 0.0 0.0
0.0048925191210751305 -0.0009331075533043616 0.0 -0.0004080560002519053 0.0 0.0
0.016709001822806286 -0.0032718318562153827 0.0 0.0008159194638101358 0.0 0.0
0.01774458729110924 -0.0036251445177705676 0.0 0.001236094125381092 0.0 0.0
0.0009719510443528933 -0.0030249490612971643 0.0 -0.0002538123671348235 0.0 0.0
0.0009983594834982296 -0.003077801219626648 0.0 -0.00025888653059424893 0.0 0.0
0.0009347650580125935 -0.0028037471092784436 0.0 9.529617117353654e-05 0.0 0.0
0.0008895318200645506 -0.0025705463888840625 0.0 0.00024107321158535873 0.0 0.0
0.017718894826108247 -0.003676728117750178 0.0 -0.0012458436654319879 0.0 0.0
0.017535469377919433 -0.003697041760214619 0.0 -0.0010679877072940008 0.0 0.0
0.006391606729097335 -0.0018949275978314025 0.0 -0.0007416498382249482 0.0 0.0
0.010342577258509086 -0.0031524425944971395 0.0 -0.0005982702467019997 0.0 0.0
0.008101413802829728 -0.0022745505987676238 0.0 -0.0003915527757873446 0.0 0.0
0.008102716114910475 -0.002289009395290341 0.0 -0.00037537771293562 0.0 0.0
0.0027641096173601416 0.0003339458184748829 0.0 -0.00020053857001839495 0.0 0.0
0.002763013881719125 0.00032828777822584945 0.0 -0.00020574495009577837 0.0 0.0
0.0099201742453944 -0.0026863808707125432 0.0 -0.0013556055231599639 0.0 0.0
0.004064566110624128 -0.0006903737057682741 0.0 -0.0010296915276936695 0.0 0.0
0.003657781552663133 -0.0005061624070776975 0.0 -0.0010577659479882118 0.0 0.0
0.010777188153368858 -0.0032639264469172284 0.0 0.0004012893339290323 0.0 0.0
0.008097233298434274 -0.0024947060288526292 0.0 0.00013434162153386616 0.0 0.0
0.010056451847548763 -0.00310118102758342 0.0 -5.899175373061627e-05 0.0 0.0
0.01071812761977565 -0.003254026356028396 0.0 -0.0004384133200301551 0.0 0.0
0.009703581863216994 -0.0030587806814106728 0.0 -6.182339387781e-05 0.0 0.0
0.011247002008383494 -0.0034043443622088776 0.0 5.90141545811219e-05 0.0 0.0
0.011954323622044617 -0.002841764425090441 0.0 -0.0006105380708515458 0.0 0.0
0.011906370850386249 -0.0025290577927398906 0.0 -0.0007782254902357884 0.0 0.0
0.002424021334850477 -0.0008876361419326825 0.0 -0.00167315957313926 0.0 0.0
0.003274041420132658 -0.001459900561873863 0.0 -0.0020437067255113816 0.0 0.0
0.003127465043835657 -0.0013016773030753383 0.0 0.0019723363397263728 0.0 0.0
0.011645998150635287 -0.0026092862486556114 0.0 0.000940059828131048 0.0 0.0
0.01079522831229125 -0.0032718582724273397 0.0 0.0003664363937886312 0.0 0.0
0.0027237781266556582 0.00036229161834621965 0.0 0.00022244823261556798 0.0 0.0
0.007884565481095597 -0.002227797868862912 0.0 0.00034346280767794834 0.0 0.0
0.010493730058086171 -0.003546464243295743 0.0 -0.0011416183167816906 0.0 0.0
0.010026813260080083 -0.0031711200704483736 0.0 -0.00017357763466060988 0.0 0.0
0.010176550387432266 -0.0031376160438366905 0.0 -8.86094774311118e-05 0.0 0.0
0.010396143357219383 -0.003247632867967125 0.0 0.00024884029381690636 0.0 0.0
0.004755424606748508 -0.0017545434188343107 0.0 -0.0019848078368099415 0.0 0.0
0.01105319314634274 -0.002863416110202564 0.0 -0.0012351921056416395 0.0 0.0
0.003907693029721564 -0.0012467483843770966 0.0 -0.001854519074112221 0.0 0.0
0.010183184633185637 -0.003165658751206249 0.0 0.0010310424851078595 0.0 0.0
0.010278640880609874 -0.003211577775408395 0.0 -0.00018126319207531792 0.0 0.0
0.010131993563697003 -0.0031377997211552286 0.0 0.0010303417832189584 0.0 0.0
0.006317356656526834 -0.0017761760422384623 0.0 0.0005874191998330166 0.0 0.0
0.004939062837539101 -0.0011430323606288057 0.0 0.0009260123423551866 0.0 0.0
0.006630454960038021 -0.0022689555492941185 0.0 0.0011815425629420385 0.0 0.0
0.009867536004467633 -0.0028835141771077857 0.0 -0.0013490000095628678 0.0 0.0
0.010470822838178006 -0.003409297466887021 0.0 0.0012917386057670402 0.0 0.0
0.00689708570922177 -0.0024267103985436155 0.0 0.0010979184794400695 0.0 0.0
0.007299345076098812 -0.0022839922177871506 0.0 0.0005119823102434817 0.0 0.0
0.010486958044243908 -0.003518452482067114 0.0 0.0011679080531052845 0.0 0.0
0.009986502592748154 -0.002956663098396056 0.0 0.0013942196690180598 0.0 0.0
0.010304547461915264 -0.003276170745921075 0.0 0.0009997249402847067 0.0 0.0
0.004851588987302007 -0.0011215691858130362 0.0 0.001048168674845857 0.0 0.0
0.011011755881883363 -0.003341702416356068 0.0 -0.00030519112846985293 0.0 0.0
0.010067135299283339 -0.0030343638512394483 0.0 0.0014021219821245617 0.0 0.0
0.006542459014264842 -0.0019920119435194116 0.0 0.00084057895522334 0.0 0.0
0.006684567742317971 -0.0023542722698167945 0.0 -0.0012671009993236741 0.0 0.0
0.010553641453800885 -0.00353368680166122 0.0 -0.0012484926951496097 0.0 0.0
0.012000404191223134 -0.0016451062881077676 0.0 -0.0003267935231961942 0.0 0.0
0.001063558271657942 -0.0003839280372031598 0.0 -0.0006703738069949066 0.0 0.0
0.011130250668805217 -0.0033745190324722596 0.0 -0.00023668098927340163 0.0 0.0
0.010448375456170507 -0.003261492644532721 0.0 0.00029798480207805696 0.0 0.0
0.011150089941076361 -0.0033861995885694474 0.0 0.0001528751911581174 0.0 0.0
0.0050108988572191435 -0.0010798399700231304 0.0 0.0005584927921302099 0.0 0.0
0.009841360790255034 -0.002975135916609019 0.0 0.0011123891116810675 0.0 0.0
0.0012661583891612062 -0.0004968258179883901 0.0 0.0007610260214084926 0.0 0.0
0.0010476539671466273 -0.00010116394471877156 0.0 0.00011028619004799315 0.0 0.0
0.011562347279225544 -0.0016006897086132366 0.0 0.0002317339489366674 0.0 0.0
0.011470065494127163 -0.0015572570260825778 0.0 3.162757254672146e-05 0.0 0.0
0.00612686590375282 -0.001995545650022229 0.0 -0.0012463590266505102 0.0 0.0
0.006948340734449762 -0.0018178469696833663 0.0 -0.0029972596815402994 0.0 0.0
0.007291149727389741 -0.0021660559818204297 0.0 0.002839144137002914 0.0 0.0
0.00691436114333677 -0.0017990596542093575 0.0 -0.003065626486776127 0.0 0.0
0.0068734297865226685 -0.0017615477249118695 0.0 0.002945255343970093 0.0 0.0
0.0028112949651659417 -6.9309360504712156e-06 0.0 -0.0008361690433989767 0.0 0.0
0.009268106749635104 -0.002093361797622499 0.0 -0.00017012761946263118 0.0 0.0
0.009280267573759021 -0.0020741332988937966 0.0 -1.1594650181162027e-05 0.0 0.0
0.0020466810352193017 0.00046693139351161925 0.0 -7.15964389060008e-05 0.0 0.0
0.0020396618270958006 0.00040984066636655717 0.0 -0.00019410104162166287 0.0 0.0
0.008405468109331952 -0.0024120192748312615 0.0 -0.0005718750775869505 0.0 0.0
0.003264883321690905 3.3619145857894974e-05 0.0 -0.0002380902800470865 0.0 0.0
0.008240767114220253 -0.002384273549809338 0.0 0.0004823661554310258 0.0 0.0
0.0032210296397960306 6.961231657822781e-05 0.0 -0.00023550944780625414 0.0 0.0
0.008211532790434198 -0.0023335067071126306 0.0 -0.0005101340561477081 0.0 0.0
0.01095017206760067 -0.0033276876558643123 0.0 -0.00019008564388877598 0.0 0.0
0.011067870311663027 -0.0033431092879765674 0.0 -0.0002689200185409311 0.0 0.0
0.0015644697610549382 -0.0025079985433720713 0.0 -0.000761579032081694 0.0 0.0
0.0036021610447356904 -0.002053099263031998 0.0 -0.002055738024084949 0.0 0.0
0.0024042985624035855 0.0005312581191915277 0.0 -5.982440137487371e-05 0.0 0.0
0.002434379616621604 0.000555697990003577 0.0 -3.923619521782241e-05 0.0 0.0
0.007917728739996879 -0.002191231755709275 0.0 -5.6396963276853845e-05 0.0 0.0
0.008286714671953473 -0.002234280764840805 0.0 -0.00013507886526718647 0.0 0.0
0.015185883374111753 -0.0030650555937342715 0.0 0.0028077763706632467 0.0 0.0
0.0015347694329721343 -0.002486049788877094 0.0 -0.0007888717949283252 0.0 0.0
0.015161060064502789 -0.003036347272820928 0.0 -0.0022532203787445013 0.0 0.0
0.0014746438809674141 -0.0025134506930146543 0.0 0.0007466596843714389 0.0 0.0
0.0015574441453699234 -0.00212377516636522 0.0 0.0009489060240851375 0.0 0.0
0.011806647154749432 -0.0026397817342574906 0.0 0.002823346122727163 0.0 0.0
0.01536365390828457 -0.0031282147454309364 0.0 -0.002681535961745984 0.0 0.0
0.0033373561498631034 -0.001983031314494741 0.0 -0.0019223865021604156 0.0 0.0
0.0029467065173549084 -0.0006910767228185196 0.0 0.001587667424806238 0.0 0.0
0.015265916601474284 -0.0030484863575810095 0.0 0.0025962842931774362 0.0 0.0
0.010775226628290856 -0.0023790505910159724 0.0 0.001226338136971305 0.0 0.0
0.0036041374208564464 -0.0010513427275987799 0.0 0.001798816448392716 0.0 0.0
0.010875652322672857 -0.002667434320012813 0.0 0.0013104036995885524 0.0 0.0
0.0033918052150977455 -6.712761753320786e-05 0.0 0.0003545052155511771 0.0 0.0
0.005050034742950481 -0.002491191439059982 0.0 0.002399157751513277 0.0 0.0
0.009292655413331966 -0.0032267509053298007 0.0 -0.0020090148476717743 0.0 0.0
0.011345427522057135 -0.0032488161548151887 0.0 -0.001377439631126443 0.0 0.0
0.009212545164345226 -0.00319694432900846 0.0 -0.0020416156914919324 0.0 0.0
0.011378829098471741 -0.003268520548782337 0.0 0.0013670684634214793 0.0 0.0
0.010845198386078158 -0.003290335863975284 0.0 -0.0012847218709467585 0.0 0.0
0.011346152280081505 -0.0032244918865830755 0.0 -0.00149033134715471 0.0 0.0
0.005147111701029512 -0.0017358711904036511 0.0 -0.0017924056564340783 0.0 0.0
0.004772675581068858 -0.00234049214235448 0.0 0.002429636891002539 0.0 0.0
0.010716122430145561 -0.003295050334423193 0.0 0.0003567138642616344 0.0 0.0
0.008303135981290129 -0.0032212857717250688 0.0 0.0023839240505301187 0.0 0.0
0.009327101887930282 -0.003196317405076216 0.0 0.0020814433776208396 0.0 0.0
0.003981454883931048 -0.000877589029800506 0.0 0.001415264829531142 0.0 0.0
0.009597074922014576 -0.003000243527648613 0.0 1.7354202058075157e-05 0.0 0.0
0.0022364971997794274 0.0001924635293876293 0.0 0.0006572002772131996 0.0 0.0
0.011006950490614193 -0.0024820149115298514 0.0 -0.0012121132383295639 0.0 0.0
0.007145123595230863 -0.0028301574114469245 0.0 0.0024531492779357347 0.0 0.0
0.0024898340022283974 -0.0006967710930474884 0.0 0.0015691901112241831 0.0 0.0
0.009870475672858231 -0.0021036644780754914 0.0 0.0007841235216725728 0.0 0.0
0.005039110804345872 -0.0012808174850993206 0.0 -0.0011328163017247101 0.0 0.0
0.011231843322850123 -0.0022016276000123465 0.0 0.0009707175124566458 0.0 0.0
0.010156929457427424 -0.0030422753424705715 0.0 -0.0014413035895904983 0.0 0.0
0.011334527831268591 -0.00198023587561781 0.0 0.0007780939074404952 0.0 0.0
0.008602820674478765 -0.0026775458923507436 0.0 4.5766660638074406e-05 0.0 0.0
0.010396212785798003 -0.0020227319190997592 0.0 -0.0009733270648721637 0.0 0.0
0.0021540471074295202 -5.9799897458249976e-05 0.0 -0.001008587371732861 0.0 0.0
0.001977574216263462 -0.0005988319910834988 0.0 0.001442785187277209 0.0 0.0
0.01085874372395902 -0.003270496845617532 0.0 3.2053883549977674e-05 0.0 0.0
0.0021413217592655396 -4.6502684013499595e-06 0.0 -0.0009221613279012753 0.0 0.0
0.0020650091525960938 0.00029393207732769747 0.0 0.00046598231066339804 0.0 0.0
0.0024439996592235834 0.0005092537405627639 0.0 0.0001471353639864933 0.0 0.0
0.009684242944733253 -0.001973705861160891 0.0 0.0005367568523575947 0.0 0.0
0.011594237743290185 -0.001978373742242591 0.0 -0.0007061800021784034 0.0 0.0
0.00924752256812925 -0.002742974982012647 0.0 -0.0006118915994806515 0.0 0.0
0.011045228400036532 -0.003417794764770829 0.0 -0.001040848150238167 0.0 0.0
0.004990832055503955 -0.0018650375532543073 0.0 0.0020096634651735655 0.0 0.0
0.01075952128242928 -0.003311350786178432 0.0 -0.0004347070138283958 0.0 0.0
0.002141981350697358 -0.0005379029904554867 0.0 -0.0013685814102754128 0.0 0.0
0.011284829142816637 -0.0020833073920459976 0.0 -0.0008906480802643015 0.0 0.0
0.010280134525798488 -0.003120522880639225 0.0 -1.9818463661322348e-05 0.0 0.0
0.011044656559371466 -0.0032534026172796045 0.0 0.0011732840324079194 0.0 0.0
0.010405417206578388 -0.0026783491502615645 0.0 0.001443960317932621 0.0 0.0
0.0025625016489582556 0.0004671709483694775 0.0 0.00013228090217824883 0.0 0.0
0.007965903782360203 -0.002238408452823946 0.0 0.000265715434292762 0.0 0.0
0.009333085158059069 -0.002763124730932589 0.0 0.0006740126170693359 0.0 0.0
0.010714302242843783 -0.0032849541150009277 0.0 -0.00045420328238260843 0.0 0.0
0.010104983395092908 -0.0031594313871191014 0.0 0.0001324866888193202 0.0 0.0
0.010042776725257507 -0.003299420764604549 0.0 0.0017469678110648545 0.0 0.0
0.0035911569730922004 -0.0014453362276116144 0.0 0.002045520470392841 0.0 0.0
0.009706591190922384 -0.0022420119293804306 0.0 -0.0010141007371309155 0.0 0.0
0.002536600950006251 8.169931939356295e-05 0.0 -0.0007685139579390749 0.0 0.0
0.010640415976228558 -0.002042580197705049 0.0 -0.0009746077230766635 0.0 0.0
0.006726244109104025 -0.0028343544185974413 0.0 -0.00242849583983082 0.0 0.0
0.006962277664764369 -0.0029214420247707642 0.0 -0.002397182078194407 0.0 0.0
0.01161492702163 -0.0028138637671945572 0.0 0.0007838681811793842 0.0 0.0
0.009298679549270088 -0.0027367439790889903 0.0 0.00065844571888198 0.0 0.0
0.00489137268230741 -0.0009156578768355708 0.0 0.0003129206294498931 0.0 0.0
0.006823195575474549 -0.0019454492881325358 0.0 -0.00021955698644311145 0.0 0.0
0.004713847809530462 -0.0016237826576067584 0.0 0.0019058476180376517 0.0 0.0
0.011364457156123315 -0.0030083500953179726 0.0 -0.0009612746262602767 0.0 0.0
0.007209947683709432 -0.0021840989605423637 0.0 -0.0003586558041075544 0.0 0.0
0.007995316667999465 -0.0024817756169435443 0.0 -0.00014774619758560733 0.0 0.0
0.010891159279578498 -0.002917301091037418 0.0 0.0013432350082044655 0.0 0.0
0.011030829578519117 -0.003314557365358994 0.0 0.0002917447295479462 0.0 0.0
0.0025912574755574424 0.0002335317332923405 0.0 0.0005531445528562358 0.0 0.0
0.009238006943188265 -0.002260462474185848 0.0 0.0008639617661180002 0.0 0.0
0.01020819748990169 -0.0017445401465679287 0.0 -4.4786223842884544e-05 0.0 0.0
0.010231404260104425 -0.0016705788848682482 0.0 0.00020905712448483386 0.0 0.0
0.0016511729400100748 0.0002489741421627228 0.0 2.5421234268792695e-05 0.0 0.0
0.001729642538276616 0.00030635275580456593 0.0 9.459227203235693e-05 0.0 0.0
0.008761610903998261 -0.002724264878999051 0.0 5.9523208965415866e-05 0.0 0.0
0.008611683413212431 -0.0023462980709513456 0.0 0.0006430574618134618 0.0 0.0
0.011063119340588436 -0.003350239620583004 0.0 0.00027348310745441617 0.0 0.0
0.009242711626758611 -0.0021710638990482256 0.0 0.0005644368880844038 0.0 0.0
0.008688307807915427 -0.0023442695855818616 0.0 0.0005574549964660549 0.0 0.0
0.002464861157397025 0.0002831279069356917 0.0 0.00047982123511706125 0.0 0.0
0.0023320978342122006 0.0005005708938586199 0.0 0.00010619343480899746 0.0 0.0
0.0027321060577912763 0.00031667539383863937 0.0 0.0003449431452430497 0.0 0.0
0.008666219696805134 -0.002235873224792147 0.0 0.00012479643370363 0.0 0.0
0.0022514651518842636 0.00048555960981412654 0.0 0.00018458595073840507 0.0 0.0
0.0086548679168689 -0.0022838914358639336 0.0 0.0003100681862952187 0.0 0.0
0.011308642161959162 -0.003244892573628089 0.0 0.0008583519587401294 0.0 0.0
0.01140358621295628 -0.003421757389857664 0.0 -3.5850430217127816e-05 0.0 0.0
0.010807698089374375 -0.003271336534222839 0.0 5.7806448338599924e-05 0.0 0.0
0.0032560308715250145 4.2858898091694507e-05 0.0 0.0002991495567515056 0.0 0.0
0.008455444595181731 -0.002435981361825218 0.0 0.0005751602202283417 0.0 0.0
0.005740862678447437 -0.0013422449025460405 0.0 0.000301349174437833 0.0 0.0
0.0103403715515325 -0.0033625856855163134 0.0 -0.0010338534253311418 0.0 0.0
0.004487831760651044 -0.0006810434343430219 0.0 0.0003030036050946356 0.0 0.0
0.0024944257601940702 -0.0004256462431031686 0.0 -0.0014051647615348553 0.0 0.0
0.011213561016342105 -0.003380421169043736 0.0 -0.0002090047684066403 0.0 0.0
0.009955150456514348 -0.0030029719667424284 0.0 -0.000689771642014448 0.0 0.0
0.009265144526393964 -0.001762766296165784 0.0 -0.0034741480308285405 0.0 0.0
0.009439675849208913 -0.0022472875229288 0.0 -0.0008339602517763541 0.0 0.0
0.004292600362846279 -0.0015094150166800198 0.0 0.002473111554251707 0.0 0.0
0.009332721136767436 -0.0017472478732237992 0.0 0.003488707479474202 0.0 0.0
0.0060557187941985054 -0.0016321297462498132 0.0 0.0005910705743724339 0.0 0.0
0.008948403884084197 -0.0028764558968824355 0.0 -5.4584861474231467e-05 0.0 0.0
0.0014969934171308967 -0.0002803555196417831 0.0 -0.0008544462600519361 0.0 0.0
0.012332634769911052 -0.0024130521683277733 0.0 -0.0033653064979182823 0.0 0.0
0.01038672882682912 -0.0031625246458517973 0.0 -0.0005820774802443343 0.0 0.0
0.01242126344128638 -0.0024570377062410245 0.0 -0.003352749611200626 0.0 0.0
0.009626296018370749 -0.002330418875189366 0.0 0.0010625260253286047 0.0 0.0
0.002785286459975188 4.2984858909911904e-05 0.0 0.0008418870915950737 0.0 0.0
0.012151529328237827 -0.00181538694128083 0.0 0.0004644753803039936 0.0 0.0
0.009283593166654157 -0.0017322290811016491 0.0 -0.0035411329466945238 0.0 0.0
0.0115119287444631 -0.003448739249875471 0.0 2.5826141838159632e-05 0.0 0.0
0.005847781115996754 -0.0027308793597831675 0.0 -0.0025624975803400234 0.0 0.0
0.012365884728662353 -0.0024633419925434268 0.0 0.0032784631424727963 0.0 0.0
0.003924946188958043 -0.0006818556600538337 0.0 0.0011679251974007346 0.0 0.0
0.010009692745449213 -0.0019407660642872969 0.0 -0.0007302081995378838 0.0 0.0
0.0025390848453025285 -0.0018608224868096068 0.0 0.0015481626315309676 0.0 0.0
0.005215385770629212 -0.0014193713732353077 0.0 -0.0010832094023316321 0.0 0.0
0.007587757031369229 -0.0024388633436309617 0.0 -0.0004960973048154036 0.0 0.0
0.007049686614786371 -0.0020174653165539345 0.0 -0.00020232382115332244 0.0 0.0
0.01389588982663934 -0.002001690008025299 0.0 -5.739510027636484e-05 0.0 0.0
0.0006707645414830691 -0.0008720664957416677 0.0 0.0006431444050694691 0.0 0.0
0.011274626509371562 -0.0034024231111766477 0.0 0.00016916774043563039 0.0 0.0
0.00768837320388725 -0.002193391556181522 0.0 9.37181448601063e-05 0.0 0.0
0.0012125274859300617 1.6710051310989604e-05 0.0 4.779451251321645e-05 0.0 0.0
0.007868917121378459 -0.0024084877538195736 0.0 0.00015198587512169485 0.0 0.0
0.010764813372606975 -0.0035789320291406647 0.0 -0.001117126522438214 0.0 0.0
0.006290136485626614 -0.002370983605411399 0.0 -0.0016381019099960326 0.0 0.0
0.009205948172238474 -0.0021345319440915153 0.0 0.0004097820043781115 0.0 0.0
0.00530813337758679 -0.001975795835312146 0.0 0.002450415355115798 0.0 0.0
0.012614288700267732 -0.001792263436392068 0.0 -0.00018937381086504354 0.0 0.0
0.011561908574429264 -0.00345678954470989 0.0 -1.4716038471320777e-05 0.0 0.0
0.010171674690456647 -0.0028326415385658355 0.0 -0.0014725017605105863 0.0 0.0
0.0012432966643400865 -0.0008342531424462413 0.0 0.0009278007853788848 0.0 0.0
0.0026870229309682004 -0.0019794186623011377 0.0 0.0015679786218659978 0.0 0.0
0.014138833764089183 -0.002321771504706356 0.0 -0.00017717613246030577 0.0 0.0
0.0029213119704344956 2.4442539023351037e-05 0.0 -0.000731036874492881 0.0 0.0
0.006963514011559049 -0.003014599300457558 0.0 0.002057775989496183 0.0 0.0
0.002171502242627523 0.0005071809129299606 0.0 -0.00013104901598392634 0.0 0.0
0.011511918183819374 -0.003446433181123228 0.0 3.268413283924316e-05 0.0 0.0
0.010174575722918914 -0.00311928619876048 0.0 3.7519745698508026e-05 0.0 0.0
0.011673223587978067 -0.0034841916385852214 0.0 -6.139409989644954e-06 0.0 0.0
SCALARS VMStress float 1
LOOKUP_TABLE default
1181.2978806395404
1190.9982122681674
1176.9525257448197
1180.9855492530369
2168.9072254441667
2151.58906264537
1185.4056708387068
1176.2996168249526
1155.475790361944
1145.0570901579636
1117.8107202497554
1070.46831499715
1018.5268925967896
951.4367245979437
880.3805559342553
799.8957516534011
754.6306535908443
730.2460923179352
723.1939492972639
750.2674123689889
810.9588382416408
867.8415800937842
948.3606890637026
1012.2077089114358
1075.8519576434335
1120.294061984431
1149.5828150652899
1162.061157225839
1169.1626870582002
1183.6232157147995
1116.5549599543237
1054.2476282392
987.1572456101649
919.4726858629999
839.7003688742665
741.5450618730026
636.978341345356
543.694535818071
446.4403940646808
353.121905465551
288.30962215280505
256.2670917114787
256.71531381187555
298.93588535538885
370.74844351095413
433.86055702649173
510.44629189190755
628.8057187531882
734.0111105236912
824.7770884518918
918.0536965340078
1006.1583162174286
1048.6780071651524
1116.1930152805783
1190.0770226621898
1174.7664199935434
1158.001471786905
1146.7828778271614
1114.8679822728127
1071.634714627572
1016.4330986016791
939.7928908608886
877.0086789544308
811.5756099587877
758.8841630256458
736.2976208169998
714.280751316173
746.3661188074174
804.9738411358924
875.5652111512929
948.9127204196604
1013.5884472620278
1078.0648015392849
1118.2163563109075
1134.5360116315167
1162.7598275968912
1172.7091187916544
1183.9778723302657
1122.0099146873376
1059.0574575036096
989.3521843274091
916.6876902432382
836.931942465468
748.2164534119485
647.022837058531
538.1471226957368
436.2734028145953
353.89392925487704
289.34289092160304
257.7545108080354
253.14733366923224
283.18009166631236
349.735565031073
442.3610606753628
536.9163132679397
646.3976966298368
748.7955524409442
840.325802416119
912.1508901124439
990.3331025988276
1060.4805642494296
1122.9682082643988
2015.5136925036543
1680.5749389428559
1180.5711835058985
774.2871623641363
375.703306184991
317.77293735199993
426.4231530396504
491.0784224286279
444.7013174453757
320.6070668555304
419.29392971045166
754.5802135524361
1207.9059757031123
1661.6974254007837
2035.737405010726
1988.681060613289
1675.6299081054692
1205.8799049561087
737.1169085022597
366.74697683412074
314.7554022442057
421.9448826942501
504.18253417011863
446.0449273108758
327.63549772077164
425.81168184825776
756.996923531301
1206.3430086785445
1674.5757815897089
2027.746373976838
1077.837482484416
1073.347602014573
758.3562121997313
786.1510034979086
752.5009475530438
768.6267138441617
1078.3676342172205
1082.8356702422398
1014.1330887944013
1019.8786556589419
521.2868300490277
577.5388348433422
586.4827935958833
1033.7899576978075
1065.0919721323771
1079.0493117502845
503.38236418124495
480.3831871162055
560.9424691195306
495.18581226392814
1058.1145172768493
1054.237711014622
970.6455395564132
201.66311982876002
1018.0519665521618
958.978394185553
1025.7924707169486
985.8349269484897
1138.9080041172301
1137.251209704464
923.4346828989023
1026.7926864505475
887.6877115894945
1007.7928709784708
931.2172912752018
468.05158625413156
1050.7444528357391
1051.9449799922218
763.9627639536322
1045.5463069486673
1090.0752945643137
1081.0612984607023
802.0842805437497
783.0610973586762
781.8915854865943
793.161569382221
1079.926443267733
1077.5216145016927
1033.1263120707033
865.5376593421284
970.1580817674632
960.729771101232
983.0190375386355
987.1577880486894
953.7521201155357
1036.3718515434184
940.9499267955106
1061.2076101710018
1052.8920061401752
807.4017462564627
847.910711910707
1379.6117082963708
119.84868283390229
111.26245833026516
967.4966679992613
932.5107831046744
432.7943269043032
446.48002425318424
425.91533355044646
413.5567342454853
952.8163099757933
942.1813139918569
261.03674392161207
875.6256628673258
883.3855347634629
251.27818433232005
252.73039343089903
951.9235543244935
1062.705564290002
1076.728393877925
975.140434248795
936.5592269660178
1108.6622823995979
1073.6138478988385
1054.3563012529705
1051.214934788906
664.3411821579176
635.381213987778
1052.25087029523
1039.080501590635
1021.633191455168
1085.2901743298614
659.5874363649674
648.3608582722933
1087.3558834583143
1099.3074521181086
1076.2899964830967
1093.0933319064195
605.2797277085364
648.4643031572969
1139.5909634389752
1051.5268722772541
989.9848542300101
605.3787062553523
601.4527129665955
589.5899677698941
993.6059326943197
991.4079230199452
1077.5002761620071
1077.2868582176181
1074.5441112280344
1032.6734758601233
1045.058049776516
1023.4126564763255
349.52950412319507
361.9421205710986
1054.6286164811133
594.4184606430036
603.9380822109721
1056.5316081921399
1137.2912913625478
314.93608122920466
326.8182877032916
1017.5080433354249
1012.1021446148967
966.3664468793842
1025.1886754015939
428.0851211414953
471.0121380608876
1230.9421242756694
1238.8164613534786
1246.7281981670708
1228.8863241145455
407.4037202567635
399.94866143162494
1042.506753395951
780.8239097117091
1089.252980531846
796.1609126080577
1000.6029552352957
919.3501047497157
919.4337173423434
1021.5324279889716
865.4200078545174
1055.3706436078899
1027.4736221957983
1023.1216770063015
1030.991542672372
908.519946881415
944.2948602953295
980.6298900029208
947.3365734555808
1027.7837773945987
879.3826913230137
260.6944439104224
342.9184461638033
1291.1839650725633
1237.3849887175115
1299.3332392638185
1317.2765847178925
235.26012220551746
232.56782377707358
936.54376230136
951.0742177832487
675.886704822848
748.7242908747487
1126.3089941540331
623.7592625577598
1065.5186707765781
967.0359813311857
1002.9761482671214
842.6390023954012
1058.979359712287
917.9414555401315
754.6148311376651
929.2932924193606
836.4831701287274
1092.9924427904377
1020.9498682906672
929.0237966985512
750.9803062456698
1096.4312532450722
1052.3713157006496
946.7917876822592
1048.8049769408115
730.6878558781615
990.0607231723899
1015.5144048079768
851.5074073866593
1100.2753527700625
1043.6038000060823
914.785478422253
1019.8952655081478
853.5363832670413
952.8305750715975
683.0268531645908
994.8998578962771
1046.3680003253417
947.8954815756418
977.4483735819107
889.6468695208811
990.0175004757882
585.789552115011
987.1698340848019
586.9453303294603
317.03136457922545
290.99210786583274
924.9531276920312
905.8425761004966
1040.2920913650155
1014.1499057637219
1042.4909946416733
862.4853273767491
1050.9866939784115
916.5968917281673
913.874719182053
853.8365515588633
1035.475082413655
1050.8201281378276
885.9020531627261
1140.564881319625
1052.538155389603
888.8862900660362
733.8017405344302
980.0758101827266
600.7617118116813
1165.7429739023585
593.2702064640315
881.0089158599586
1025.2043861266684
989.9026979747453
983.330240997059
1038.818498252039
630.7894612221988
1144.9031776737172
1146.6610640278222
628.7681854754697
831.6677198394991
878.1900913214356
1046.4618716340717
787.4880137024828
216.1319523509563
1071.8648040577816
896.7325441732264
909.7155201728463
338.7805413089077
331.2519978835049
886.9304630325396
706.1810554276182
974.4322384640856
536.3884566172391
833.114785276108
373.6615787901478
355.5085114316004
997.7463643876058
978.1125683784785
994.9116709822218
1038.9609412657346
1053.4408430641447
988.9275278809685
914.7237200877612
1076.6133685984996
1134.0602289516628
1036.9661641908926
946.2383819361604
499.7757658099607
1046.767909697498
673.5193305523267
1035.132491136803
814.5745758954884
1089.6881504217831
885.0750186398627
887.1540199304585
388.15396461543656
389.9249855709443
396.83563453173355
872.3617242264716
879.1212045322889
932.6051959124738
214.95346893450355
1058.5449064849124
1052.4153900371289
784.355612878079
1090.7851451718022
873.6051716385754
418.75204234343676
1057.0141973072377
745.8054567981247
1052.900511724862
964.4189638353
861.3714149902712
1058.6689924149575
1072.3071671224009
172.4122560554734
171.65622671354765
198.61606186484386
216.91770481413272
1044.830199697067
1044.588188538777
1047.493869549547
1045.0731668183932
765.5333244010701
676.0904623681934
1049.8140183503776
946.3693568579642
1053.1893750028387
483.27246904949953
1644.6205555308377
1752.3928785667729
305.8489062076345
311.42728692846623
282.8584169187799
261.8775519842692
1750.7486954612166
1731.4667494605683
646.267480322548
1038.4239898742717
808.5367239071692
808.8155929762189
275.4845163637053
275.34431854589457
1002.4416130102808
421.006767051113
384.03688083864506
1079.7236210546857
811.3851067614312
1007.5592901922953
1074.2563629366794
973.7407850598211
1125.396046871363
1183.9937480351327
1176.5050736765538
332.27747971820776
436.33497000321034
416.0792089981769
1155.0603098068104
1081.3618072327215
272.4291811668445
786.8738651821108
1069.6761386251435
1006.6507746055577
1019.6156775332161
1043.0439852614502
551.3185527025267
1108.5039347838995
463.77124474754726
1030.0074333927314
1031.0318091816937
1024.6382342978834
634.0702973515635
502.89825961456614
687.9777643987163
1001.3561939497927
1067.250611588439
713.5521511226764
735.2307042458418
1068.8608742397178
1014.9377574448383
1043.2043317970922
498.8234147286022
1102.7705152539636
1024.207941538093
664.4023337198355
697.6734631881254
1076.9424161891204
1172.744623668577
140.11584674598834
1114.2554666472033
1048.449979916971
1116.10663557264
499.01103806057466
995.7297676214959
164.60290994677408
103.1676536920645
1129.6823794665393
1120.0533212359414
638.3087819819551
796.7434199952135
820.9876533014456
798.2923360042951
786.2627037412647
296.2829127116765
914.3329654739139
914.9229307797874
208.33179994640037
207.53251193703753
841.6583978547462
320.7073244560684
824.6942030954108
316.7104869458282
821.2081286825941
1096.2543571587323
1107.8686381185428
297.388704169893
478.74150626417423
244.13034461664517
247.599811949783
787.9576259483202
823.6840498817263
1538.7493060948098
295.65363885222536
1519.786069612958
293.2337674821222
278.8538265387157
1223.2800878555604
1552.087771641976
447.86229659946446
359.76775902991295
1539.4008608691465
1074.3722326288446
432.2870725229914
1090.0477294346574
334.2481787635137
622.8686539565044
977.2154142166328
1146.026180747669
970.5839244157044
1149.3019242445191
1098.7485403520059
1148.1033208579436
571.5302322872957
599.5950126966479
1074.453969605632
906.6687595061541
982.1875909807176
435.3024339800512
962.4412995345264
237.2975013595937
1097.4285058973362
802.1331679787698
324.3116835583187
977.2351997238338
521.6323277892711
1110.6852396075903
1033.5831203874884
1115.3244378846662
862.4779901099268
1029.0778178037347
249.36937738186612
275.8779026216475
1086.166398436224
242.5396232116422
214.86207518425385
247.98148391721352
954.7689849720883
1139.3583900873707
927.6588114632402
1115.5114960546114
574.5751982232077
1079.3714942542679
279.72931248633864
1113.1665505924614
1028.824513149679
1114.182536782863
1049.447100493607
258.11992419681974
794.1839683495303
936.8203357949362
1074.7094753067306
1013.5369960370494
1037.3928905036971
458.6280459123581
967.5390466630466
268.71229561763255
1052.5621446883085
766.5600364898902
786.6655744768915
1153.267116244436
932.8540498282043
481.6998347850548
680.7859559203896
539.8557941913871
1135.5242215420005
723.0424054095125
801.6406359862959
1096.6372392785004
1103.8843197450335
266.10588735485675
921.0868080823024
999.7709391448552
1001.6731238780744
164.79763165587408
174.06389106581668
878.3492851281053
860.5284496579023
1107.603451979208
915.9364448173875
866.6169250360675
252.46534952526292
236.69773063125157
274.6413642289845
859.4814593055179
229.48839203400783
860.1249442718432
1133.4896527223293
1140.3836050545865
1081.438721533897
320.8287793319927
846.8609814914597
568.3091219716637
1049.1391389435555
440.60694433551146
307.77746030166645
1122.0621793842079
1000.108737362357
1020.3615384711845
939.3741470325796
545.4243891060542
1026.8599307992263
606.9025227631583
899.2736757477056
185.82558098922897
1291.518994682622
1042.5927867083296
1299.4180385830066
962.326758396877
294.56300423395373
1189.3808547342983
1025.6993548324735
1151.0917497014968
701.9458095880433
1291.1315030899211
414.79939823285076
987.6407491061694
361.6732808612546
538.2402936782516
765.3642857083454
703.404998516077
1357.7373429924085
134.5843960650287
1128.1297726573207
766.5284753476262
118.72625217534147
788.2158352868582
1094.8368191922673
677.4266423096508
910.4102866299849
631.4260203369835
1232.5756410800366
1155.9340965686556
1031.4024709486816
187.85413387759732
377.9355164877511
1384.004670196416
301.66439705597907
772.382655553524
221.8253874997937
1151.043283386315
1018.9603593501481
1166.9332026740756
VECTORS PrincipalStress float
1182.3214645082217 2.049835456385312 0.0
1189.5686669705963 -2.8539614283728594 0.0
1178.8562094639283 3.8166499999343233 0.0
1181.8503116858424 1.7314286864318849 0.0
2259.4356701803567 194.10499217843562 0.0
2232.983045571328 173.2653923490499 0.0
1185.6932968315796 0.5754615063978367 0.0
1176.323218556447 0.047204883737245136 0.0
1155.5199936835493 0.08841171685497555 0.0
1144.5190036534843 -1.0754155017330524 0.0
1116.8296706091041 -1.959522995903495 0.0
1069.5885342426611 -1.7573976559901812 0.0
1018.3393149649928 -0.37505168476021244 0.0
951.8078050746069 0.7425956498869046 0.0
881.8685339045658 2.983539188454322 0.0
802.8285881305108 5.898293031874029 0.0
760.0661923473069 10.99114628591388 0.0
733.8620060655242 7.286355657428631 0.0
727.1733177637432 8.025535093673698 0.0
754.5123520878792 8.56318319898421 0.0
813.9391221946273 5.993793321988724 0.0
869.7815482007129 3.8930340287245624 0.0
950.3913801290114 4.0745113920378335 0.0
1011.9362382606719 -0.5427230545758926 0.0
1074.7169802534693 -2.2663740440670135 0.0
1119.0598532474855 -2.4643517767254273 0.0
1149.4507345845614 -0.2641154512701961 0.0
1161.5545551940754 -1.0125423671620482 0.0
1169.8998835596713 1.475790129180535 0.0
1184.6913764193205 2.1392211514663693 0.0
1117.412808617848 1.7176791526772734 0.0
1051.8945739120381 -4.6904573468029795 0.0
982.3061320655843 -9.631742782741243 0.0
913.1953497378058 -12.428667633363782 0.0
835.4161229357524 -8.503899464505484 0.0
744.0567151688293 5.049090803082769 0.0
648.299162649414 23.279918307426044 0.0
564.630169845387 44.62131816869366 0.0
479.7074107321102 76.39231690031261 0.0
395.1475986425949 110.45972706621036 0.0
329.77041827658564 125.3751895463267 0.0
295.7817032027038 140.2941199264704 0.0
296.3157609050174 141.05297193865965 0.0
341.2502457209247 125.63772573897322 0.0
409.7545716734012 97.49804384665963 0.0
468.1653720981675 79.64541328283751 0.0
535.4122953322255 54.268399337690994 0.0
640.9504538872454 25.037384609546876 0.0
735.6066388212839 3.2015296951190795 0.0
820.683797247518 -8.126528305592563 0.0
912.446598359802 -11.11329640830654 0.0
1001.0086196717064 -10.22151171686586 0.0
1047.3035746523653 -2.7434820315102226 0.0
1117.918164393148 3.458334536374926 0.0
1188.8218976526584 -2.5062913457501472 0.0
1174.746283188073 -0.040272575492100254 0.0
1157.9371413628205 -0.12865012871659573 0.0
1146.9579227314814 0.3501700019145999 0.0
1114.2928853353508 -1.1493052700254383 0.0
1070.9994456592738 -1.2694101717537536 0.0
1016.3154561817794 -0.235244006018143 0.0
941.0813585002047 2.582256711066007 0.0
879.5791107445359 5.163665763992878 0.0
813.9890379783728 4.848581277190213 0.0
761.9365035955236 6.141963688714525 0.0
739.9161673262203 7.291245617870747 0.0
719.3461773763547 10.240978656320095 0.0
750.0558063330081 7.43492330528063 0.0
808.2216832303338 6.535480230287657 0.0
877.6560324661539 4.196729410286094 0.0
950.1965835091994 2.5729585820549663 0.0
1013.47628583654 -0.22428562873520508 0.0
1077.0111774366262 -2.104168015105432 0.0
1117.387317308909 -1.6562381592617865 0.0
1134.8164657255788 0.5611163248920021 0.0
1163.092232297432 0.6650947250650893 0.0
1172.576123165128 -0.26594601978634846 0.0
1183.7741359968456 -0.40736754558424976 0.0
1122.614040680232 1.2092294076855004 0.0
1058.1105446872527 -1.8912924915212688 0.0
984.5066640994227 -9.620871203738986 0.0
910.6975139834157 -11.865166133238144 0.0
833.3546876925637 -7.1092176379675625 0.0
751.9183070088941 7.459484786803054 0.0
657.1476400907598 20.748730071171785 0.0
560.335669033269 47.53017812266321 0.0
469.6222814808101 76.93249571203131 0.0
395.106059094196 107.22410442481946 0.0
330.4047788109634 122.26266268267383 0.0
297.46739670220336 140.23377092199308 0.0
292.3001705734074 144.14253555897704 0.0
324.7959986883185 129.66218190844464 0.0
388.9229339569438 100.28514814328939 0.0
477.42657472762403 81.45169857074933 0.0
559.9101480664245 49.40226658465325 0.0
657.6142436067034 23.049681726178925 0.0
749.4732678664066 1.3572760134383777 0.0
836.3574028184349 -7.881359227068779 0.0
908.2727608685739 -7.7074137548929125 0.0
986.5538682854916 -7.51569043475291 0.0
1057.612127150742 -5.713785007027658 0.0
1123.491028944697 1.0463726118111 0.0
2091.8180845385823 162.43959142918598 0.0
1726.0796261492387 95.04308876704654 0.0
1206.1370836257083 52.91099987448233 0.0
773.6994275150613 -1.1741343485571178 0.0
315.85639624189446 -99.61602525272036 0.0
85.75745186678233 -266.0935775183995 0.0
8.511659414349197 -422.1036069056295 0.0
-8.822777958816573 -495.4303661246985 0.0
9.621615521213187 -439.81243738490343 0.0
99.54828735051012 -259.024326498889 0.0
357.3105597822235 -104.28335726033629 0.0
752.5339875830393 -4.075939407083922 0.0
1245.8195949132964 79.78274156931715 0.0
1718.5466638811326 120.22911362148271 0.0
2108.1205868203397 153.45079105745523 0.0
2070.5777515931377 175.41493631612101 0.0
1730.0652465895287 114.77182140992703 0.0
1242.4587122517912 76.83188511857273 0.0
736.467295082379 -1.2975138721096897 0.0
292.1076063130886 -119.48000781203152 0.0
86.0111827165154 -262.8089285352414 0.0
7.947461377180275 -417.91501344321074 0.0
-11.983463270374557 -510.06744541064637 0.0
10.10620712106055 -440.90594793745663 0.0
104.33755777990132 -262.7602208768731 0.0
362.5167107996747 -106.40779518392644 0.0
754.2400365319521 -5.483977668546288 0.0
1243.1475270328276 77.32967846658357 0.0
1724.4940493930499 104.75494322454364 0.0
2096.5499234478566 145.43822618183472 0.0
1041.1427922010357 -69.97911260658336 0.0
1037.1348957292362 -69.08762170933196 0.0
719.7744095071013 -72.02452713845479 0.0
743.9102139277118 -78.57968138360168 0.0
705.0798431405658 -87.23784863403878 0.0
722.3775283019002 -85.37036428357538 0.0
1043.2495984444922 -67.10218422279664 0.0
1050.7863771103214 -61.47909824025868 0.0
1005.9740531454175 -16.12575027477799 0.0
1011.4820242519719 -16.59083472048046 0.0
536.992539512001 32.97722898879867 0.0
587.5915884860426 20.659931333109682 0.0
590.4953112834781 8.109130364822258 0.0
1021.2190792634194 -24.699129033495723 0.0
1070.3766487106918 10.649210921478383 0.0
1084.8988562034242 11.795801858435448 0.0
492.07791931177854 -21.894419308066183 0.0
470.80728830509173 -18.610881855373446 0.0
547.2882310552721 -26.377796627474364 0.0
490.5446626358305 -9.155338437382124 0.0
1057.5304439053502 -1.167181125335233 0.0
1058.1563091795663 7.881387204414626 0.0
1023.4585522746394 116.06248792698094 0.0
228.24003833676935 74.14655829630892 0.0
1002.6059058420487 -30.21925242764031 0.0
944.058456027935 -29.17410818434181 0.0
1011.8675483191034 -27.30467294792853 0.0
972.503238217008 -26.14333786766429 0.0
1138.897247845524 -0.021512238662114207 0.0
1137.3307890624171 0.15917542515399238 0.0
895.2711942540245 -53.96058520976111 0.0
998.3222319714913 -54.75021429368393 0.0
859.8567993015847 -53.263267111083245 0.0
978.0103494991508 -57.13426531993643 0.0
901.465475280969 -56.89472539443292 0.0
407.96321111911664 -103.01481327141619 0.0
1042.56628430312 -16.169704422785124 0.0
1039.4586109447735 -24.54322555449464 0.0
755.1189624379451 -17.390666435961705 0.0
1029.1307275382048 -32.0922431490773 0.0
1053.7611007496096 -69.31975550376795 0.0
1042.7758077023477 -72.88265084809554 0.0
720.6681061151139 -143.46878905106567 0.0
703.2212346896424 -140.62368002560322 0.0
704.7851206032362 -136.29230930961862 0.0
713.5998405805839 -140.37884613823502 0.0
1042.6684498201425 -71.01111412885592 0.0
1040.3213229137987 -70.8989705063206 0.0
1003.1759638892737 -57.49918996948635 0.0
837.3591764271733 -53.84305355012271 0.0
914.5284411043399 -103.03480802736765 0.0
904.6723448501054 -103.70128533097336 0.0
929.5368386962562 -99.41007837516608 0.0
933.1824090302944 -100.29365338149304 0.0
944.7730447939623 -17.711454540221048 0.0
1006.2147696581917 -57.88770664926752 0.0
929.8659936673405 -21.78939848245229 0.0
1052.7709061099708 -16.67684200990122 0.0
1043.7870232841035 -17.979680979757873 0.0
800.3241840151661 -13.973731386541115 0.0
839.0673922340181 -17.418256436272465 0.0
1479.0785430680735 227.12004546504022 0.0
41.077453989052046 -93.90859214119813 0.0
53.001130759378015 -74.8527509812692 0.0
967.6951796388244 0.397145546671414 0.0
936.7061010136276 8.448037651573326 0.0
460.8862193201295 63.11454356584704 0.0
471.68419252440594 55.62020816568632 0.0
456.60903979197485 70.07996447371379 0.0
444.286686848307 70.53141329724437 0.0
954.268538373397 2.91112755513229 0.0
944.2489863740569 4.1490480682736655 0.0
300.3682267497809 128.40389421640992 0.0
894.1472336315209 38.3000304459126 0.0
905.8465287955188 46.780983009621465 0.0
288.8344969277507 120.50697954616355 0.0
289.9999207870343 116.75662097742843 0.0
999.6657304289321 104.03016962957112 0.0
1056.1461157287995 -12.999629531812083 0.0
1071.120439712457 -11.129625399361807 0.0
969.9759663433993 -10.248157516830675 0.0
930.4149867989893 -12.169872915732261 0.0
1106.3003671401675 -4.708830576531869 0.0
1070.4039039246848 -6.391351400288009 0.0
1037.378290972635 -33.173084654381526 0.0
1033.3803479205467 -34.80473220110828 0.0
656.7817871735135 -14.869167210962228 0.0
625.8769188113173 -18.600149149998728 0.0
1034.0244059617362 -35.551856602885394 0.0
1025.2691536382185 -27.092818014915743 0.0
1014.6758151016593 -13.775439590374592 0.0
1084.0219441903614 -2.532029771753813 0.0
626.463980018397 -61.88498843238304 0.0
619.2573823802719 -54.73654221617451 0.0
1067.9017715029076 -37.91638215878869 0.0
1085.116761962718 -27.85207120466731 0.0
1061.9620312505556 -28.105417465554794 0.0
1071.9984629032788 -41.03413318859818 0.0
588.1712062761274 -32.87696789367364 0.0
609.8680995019778 -71.29942613421596 0.0
1139.2430797670297 -0.6954490392875128 0.0
1048.9630564755282 -5.10901428855704 0.0
987.0843078789342 -5.775819359300289 0.0
617.5043740104604 25.02760392180005 0.0
613.9475833806353 25.821449390477618 0.0
604.2309292672145 30.462987776569207 0.0
992.000068217511 -3.2039802758335263 0.0
989.832737924319 -3.14289761829096 0.0
1073.8332671640976 -7.296955809066444 0.0
1074.0826279462694 -6.380121145515438 0.0
1071.1925051078852 -6.672140149676046 0.0
1028.5649989186181 -8.168493452644707 0.0
1076.9769477357574 67.06847223767235 0.0
1051.831523604188 59.427498390999595 0.0
353.13342114445663 7.32290889631615 0.0
372.03131210568836 21.101661033641363 0.0
1045.1078352962031 -18.790453480601442 0.0
589.569010358153 -9.583024088056645 0.0
594.2214486261668 -18.985557916131924 0.0
1043.1278451464432 -26.31586635786591 0.0
1136.0496504115345 -2.4792284686690045 0.0
332.8072632519875 39.46179689429509 0.0
342.08817876862685 33.05151118756949 0.0
1052.7120087409096 74.5034971938382 0.0
1044.6115088271017 68.49869425081222 0.0
960.2872233603406 -12.045829635316572 0.0
1022.440244956497 -5.474931970357952 0.0
319.59858706785053 -166.77294702075488 0.0
368.26366707865407 -162.47866519523996 0.0
1269.670146853408 81.50713995665755 0.0
1277.8663481934536 82.19317909331416 0.0
1295.9871460411548 105.18219871363819 0.0
1267.9413070177866 82.24134572809406 0.0
315.41898113667787 -144.55023389569917 0.0
303.5919112900643 -149.589006372622 0.0
1027.6261948864878 -29.14973145345397 0.0
720.0507177896712 -109.90144480486174 0.0
1049.9153818012787 -74.81753690584179 0.0
734.5407036400545 -111.48811002359977 0.0
981.0390867689887 -38.042663644355464 0.0
851.3700887041057 -123.4791789439351 0.0
850.8205948508414 -124.532060571493 0.0
966.6206657977862 -102.1483486257101 0.0
852.723524591829 -24.857400584696467 0.0
1043.6262892137447 -23.109163374544107 0.0
970.6879182884034 -105.440069308539 0.0
965.2031661874069 -107.36884154344806 0.0
973.3939348875087 -106.87000157079262 0.0
840.2341539607592 -123.86216781651027 0.0
874.6687334947026 -126.49959654792178 0.0
916.3379056171455 -117.92011427570012 0.0
880.2300696065527 -122.32860844188826 0.0
1009.3918221741272 -35.84604387249967 0.0
810.9641463636665 -123.7312890672639 0.0
168.2230021153232 -132.07674851951907 0.0
268.60055950078174 -117.65877505077631 0.0
1376.2670995906287 191.57269290181597 0.0
1307.8190722536365 155.58377320595065 0.0
1377.95095757516 174.96649487379483 0.0
1400.9373985319562 187.39131261565885 0.0
145.58909665007633 -125.82616132684095 0.0
136.0143636382106 -132.5242678826146 0.0
916.2876134850011 -39.27651424977347 0.0
885.8306557399253 -119.24141605965426 0.0
615.9411231335214 -107.1020072462718 0.0
728.611335460011 -38.72312171968119 0.0
1118.1492915504182 -16.14580906471022 0.0
564.9203610264346 -104.48213676407713 0.0
1057.486937495388 -15.885827694808068 0.0
935.8814888631227 -59.55614493526493 0.0
960.6497263408232 -79.87620024675726 0.0
822.7452312982239 -38.46980302651831 0.0
1031.7379540293862 -52.52778578228808 0.0
905.176441794723 -25.01854487759953 0.0
734.1786937980115 -39.3338039582148 0.0
886.7442420485286 -79.93420440182012 0.0
825.9017770904775 -20.77573602108751 0.0
1060.0579534069138 -63.13232645198895 0.0
999.5169818777347 -41.59443069936346 0.0
910.0950234072291 -36.76597032919586 0.0
688.3245137440141 -112.59636997935289 0.0
1064.7586110003326 -60.81401738710442 0.0
1041.3846235433887 -21.639630395704454 0.0
904.5036360975416 -79.55601231602608 0.0
1030.978920894393 -34.78658678672629 0.0
672.1780566859547 -105.5411764780302 0.0
947.6516182761877 -79.96796416793366 0.0
974.0776210596205 -78.33637241123644 0.0
830.1160239724181 -41.28112165511911 0.0
1070.170355782982 -57.921912382967875 0.0
1021.2954764179964 -43.27062560758291 0.0
872.5501859769445 -79.30671550163532 0.0
978.3032816588272 -78.63209390381435 0.0
838.0590655652638 -30.15540633319468 0.0
910.873213222655 -78.99636099672337 0.0
689.8730427485173 13.904693885419793 0.0
962.6571737893024 -61.62085969870055 0.0
1028.5414944408637 -34.785522905745935 0.0
916.5160839967252 -59.91619976110429 0.0
955.9394194953767 -41.684206536076594 0.0
876.9328308023016 -24.90509876874276 0.0
958.2794518551284 -60.6843383401407 0.0
539.4436873372867 -83.68978674420663 0.0
992.227616508598 10.194525754350124 0.0
541.0653759691661 -82.93727536600768 0.0
353.5193751710862 94.43760876734632 0.0
329.8466602354839 109.44998166262025 0.0
935.7487470057617 21.98313083811238 0.0
912.9248562781687 14.334700249849035 0.0
1003.8424600583536 -69.42181219203717 0.0
1000.8422020171145 -26.1111357602048 0.0
1038.9333576903368 -7.079219076083534 0.0
827.4878259684301 -66.18198061364969 0.0
1038.2087843541585 -25.10597246794181 0.0
900.8211853746428 -30.7762274884863 0.0
892.6905028100705 -40.98908147600056 0.0
818.9713677972218 -65.91023617663764 0.0
987.773358243592 -89.58267813503365 0.0
1012.3921380220881 -73.04443445267195 0.0
878.2552149192984 -15.100618103477291 0.0
1134.4382040877076 -12.15618162757014 0.0
1027.6417306978506 -48.14080909800053 0.0
836.727444158917 -96.45102597155281 0.0
733.8324262909116 0.061375363050923726 0.0
958.4442467540382 -41.91803349384739 0.0
511.0930827301497 -150.65849303005152 0.0
1171.8707001209245 12.353640230654468 0.0
511.5499930156118 -138.822255588772 0.0
828.8804256082209 -96.33825175502761 0.0
1003.2497542397291 -42.582327258028265 0.0
975.4069637942516 -28.381097114821785 0.0
960.7936307748712 -43.62137337719536 0.0
1028.1083755375296 -21.098826258819667 0.0
553.0779640138376 -133.91676308714497 0.0
1141.9328165565507 -5.917781226682967 0.0
1140.834867327742 -11.564911321256428 0.0
552.3224586058369 -131.9494877284006 0.0
816.1832379024145 -30.149054478792507 0.0
870.0888203943019 -15.984324989190117 0.0
1027.30006540641 -37.324903655858 0.0
784.9243330636139 -5.102564359355923 0.0
249.0010582122377 109.94458242012787 0.0
1067.0565160546132 -9.552722892546173 0.0
910.1963410038372 27.5631176737238 0.0
919.7261392320688 20.363127348339688 0.0
375.709484094314 93.49350614625963 0.0
368.3765933790903 95.01486909126436 0.0
879.4033885603212 -14.86722942292734 0.0
708.8910398652536 5.451532528926138 0.0
987.8293040793685 27.370831097126256 0.0
552.299464841669 33.38121666162746 0.0
796.1572152699362 -69.55427388200874 0.0
399.0731544401407 57.48574646627811 0.0
385.0068438038223 69.16000145121663 0.0
1007.8778547575455 20.581419869391766 0.0
989.0091788872928 22.170142809213782 0.0
988.9566999676106 -11.804888182852416 0.0
1034.3540032062047 -9.153393219631447 0.0
1017.2502988139541 -68.9897586484565 0.0
975.9931808485303 -25.380112011324126 0.0
907.303903725346 -14.663330617788105 0.0
1070.8365263699654 -11.462158652312707 0.0
1133.0357248801156 -2.0462390462573556 0.0
1024.6067885935413 -24.291911546279593 0.0
945.9809610256948 -0.5146319007785345 0.0
523.8475781550073 52.24879715719197 0.0
999.3785955470377 -89.08474534004449 0.0
675.3592575455469 3.6950579266038996 0.0
1025.1960237904789 -19.59472463000405 0.0
778.0974221910581 -68.6138729989518 0.0
1086.149176166403 -7.043799633869038 0.0
888.7815949817007 7.460315678592834 0.0
888.4809685448229 2.6598784041139116 0.0
423.1415325973164 83.59837556504232 0.0
425.6291026083193 85.64775283801634 0.0
433.245467738103 87.38537724374055 0.0
874.2293324623863 3.7472890647063424 0.0
881.4515136177098 4.6792981440829315 0.0
969.9327584924224 79.78088537284499 0.0
245.95442105509633 94.08411655051172 0.0
1023.1892894125267 -67.48227381904664 0.0
1007.5503221862477 -84.62089122520477 0.0
765.5367248525422 -36.37226985587738 0.0
1087.7139870921283 -6.116591856524995 0.0
818.4940485020659 -101.37672699707356 0.0
393.23601041589035 -47.056681723103864 0.0
1012.4495489942195 -84.10432555227419 0.0
740.6286006112946 -10.248094522423198 0.0
1029.5821468756378 -45.18208638030179 0.0
962.606628131904 -3.6145113566121188 0.0
804.918150734529 -103.54566030812586 0.0
1132.220784681427 166.939869189978 0.0
1146.6632261913473 168.71420746733597 0.0
187.49867795846265 35.790988752455014 0.0
194.57992645888243 64.58141184031966 0.0
211.84489869101608 29.832737789711434 0.0
228.17315061109804 24.610038342023824 0.0
1103.5990131975182 129.63596038578893 0.0
1112.854457072106 153.52438458259428 0.0
1033.9302188917861 -26.619873413890524 0.0
1027.6772324543122 -33.96386042397174 0.0
747.1519065088232 -35.52585830198672 0.0
672.5075619586662 -7.109725579744084 0.0
1042.3459215114385 -14.780123064422359 0.0
936.720414061836 -19.01142633485757 0.0
1029.9966276334853 -44.94638873575545 0.0
509.0656307858959 56.56459318135678 0.0
1730.8501335027518 188.7455760102345 0.0
1835.9260829501154 181.13717038398065 0.0
8.319072718968187 -301.6045037110069 0.0
9.503604828144603 -306.5667099893472 0.0
10.47694704269145 -277.47438293781283 0.0
14.293268461590856 -254.4382068643783 0.0
1831.4820052873824 174.54181019234167 0.0
1809.2160185313621 167.7022125693257 0.0
644.9699751371451 -2.587242099154799 0.0
1034.656502767612 -7.494407908762216 0.0
816.415057479308 15.99397167242119 0.0
815.9882105633194 14.54132081098554 0.0
316.02192640229384 126.55742157413817 0.0
315.7785677187936 125.83595513048837 0.0
1012.6534179456131 20.745635580366383 0.0
440.31173908756716 41.71574732041199 0.0
404.75164492012834 45.47966159207665 0.0
1077.5859068855282 -4.262805963866882 0.0
807.6938497054389 -7.332811193775327 0.0
1002.8882062278797 -9.278089089973559 0.0
1071.5977709688682 -5.29759043354632 0.0
965.5117904559137 -16.254478769296274 0.0
1123.7214383726237 -3.3417746333923883 0.0
1221.912023853027 79.88214714042653 0.0
1228.2348329995853 111.38131809275167 0.0
290.81734631706297 -71.33374732880665 0.0
370.13421696424734 -110.97123721299089 0.0
358.5319834896716 -97.70516338105456 0.0
1198.5076413504546 92.45120178949901 0.0
1079.159128123395 -4.3919795714075285 0.0
312.8577696812148 128.00933674762481 0.0
793.8882017589926 14.221457131390853 0.0
1043.334597903152 -50.868052933090496 0.0
997.480766283348 -18.096024907389513 0.0
1014.9097099434769 -9.347660858394574 0.0
1035.7175110345647 -14.501726855670608 0.0
507.6100869207712 -78.91277436160013 0.0
1128.6060647922213 41.362083227803645 0.0
434.30651231174943 -54.171562976825555 0.0
1020.7586330786094 -18.254935652982503 0.0
1023.83210306451 -14.251659464298795 0.0
1016.0792449775901 -16.908696043050835 0.0
638.9222211172 9.8178666382816 0.0
515.6765794228324 26.613488707209648 0.0
665.682030479517 -42.610686087530844 0.0
1000.1417965046865 -2.4243925961368706 0.0
1047.413970888481 -38.62463213262606 0.0
687.7308467191046 -49.105802336511076 0.0
728.9274342732392 -12.44845451443052 0.0
1043.8603100661649 -48.35951546947988 0.0
1011.3670013813389 -7.104216473896338 0.0
1029.9928987422986 -25.939082171700232 0.0
509.9047358715897 22.95523576969181 0.0
1100.4159894973814 -4.694065850624894 0.0
1017.658069632747 -12.976434197905183 0.0
659.5887066725224 -9.524839423175223 0.0
670.3597023267689 -51.746063398029605 0.0
1051.6912086134992 -48.84054402211821 0.0
1265.0931410847963 214.23513078882726 0.0
124.43052669081044 -27.340493197270092 0.0
1112.1535892661059 -4.191926932826355 0.0
1041.1493654157578 -14.451820896073977 0.0
1113.7753153948595 -4.648122179586066 0.0
518.9558547167701 42.62398631123174 0.0
990.7584790907092 -9.869211426992791 0.0
144.5334997089232 -34.62884668423517 0.0
112.59878273668718 22.61407761014935 0.0
1218.1313449653544 204.96259369354664 0.0
1209.1145203853075 207.00097504963313 0.0
621.8752972660733 -31.68668959027444 0.0
774.9179711918059 -41.990290510892464 0.0
790.3451528240594 -58.18890345701505 0.0
775.1627980077661 -44.405442418135834 0.0
767.1650641238548 -36.89619817945484 0.0
326.35242493695523 74.27100779382629 0.0
949.6572598608019 75.30630471242732 0.0
951.4325134143198 78.01524013785514 0.0
240.55243973457755 118.53505008412544 0.0
239.40353041532524 110.52539722215447 0.0
846.4798188064085 9.727157550833134 0.0
361.2289456209186 109.98569260033854 0.0
828.6574550410642 7.9844827319236265 0.0
357.6005752010004 112.49113285246504 0.0
827.3313795491265 12.386632353954424 0.0
1093.8062556050907 -4.879911071325551 0.0
1106.4229760081732 -2.8856869101073737 0.0
99.83543416999214 -234.62526021529686 0.0
379.5652324786829 -158.2706922352984 0.0
281.86947022020934 137.4957700076639 0.0
285.8969644138424 141.25697938975486 0.0
797.8658736119634 20.205124143408632 0.0
837.1037620862974 27.529653215512244 0.0
1600.2087571112804 131.338068656931 0.0
98.17792356168002 -234.07511726238852 0.0
1587.0931020743712 145.0087253087516 0.0
89.58833089434125 -237.98930404394693 0.0
118.84109314852651 -199.74552471928314 0.0
1251.3447424698932 58.20746045752694 0.0
1614.4936382440733 133.42624216358868 0.0
349.2069550969856 -155.7319786157911 0.0
346.8351453245303 -24.602317533617637 0.0
1604.8383739831147 140.5088037159249 0.0
1114.3799429179453 85.07377669275232 0.0
408.6338343502649 -43.948878170598235 0.0
1116.8528399787979 55.74973182978005 0.0
373.27895102719765 101.67499148202202 0.0
526.5568337861487 -161.0077903732204 0.0
938.9861098731044 -72.42832301565217 0.0
1149.55938121092 7.099385537929614 0.0
932.1474773015555 -72.77592939630321 0.0
1152.3980430470046 6.21746405148189 0.0
1092.2162255967264 -12.950151010601674 0.0
1152.133647658723 8.103551412480963 0.0
542.1431979437413 -54.82312499718985 0.0
505.0545046567242 -157.59972769752758 0.0
1069.6659758560736 -9.512819324306637 0.0
842.6721844908219 -116.69358312438479 0.0
945.497164808435 -69.67081011499695 0.0
437.9878772853588 5.4215304475757335 0.0
955.7163295410621 -13.311844631638806 0.0
266.96524206407656 80.02914781693158 0.0
1136.04221232908 81.80572754011129 0.0
735.7720267380205 -119.34828619745782 0.0
300.0978453719308 -43.946001203229564 0.0
1019.249142012811 90.29531438472326 0.0
526.6710937467822 10.227951859867998 0.0
1167.0552616353543 122.97555591289937 0.0
1027.816823567409 -11.437664287858524 0.0
1183.755880986012 152.5715412498137 0.0
857.1084487538405 -10.64062273555187 0.0
1081.5898798888743 114.62167249658934 0.0
264.7819559944732 34.396216858565424 0.0
247.26554058560941 -50.30236555990037 0.0
1085.4555574371343 -1.4202891026358024 0.0
261.45074484212296 43.788039567046994 0.0
245.46955527130882 91.5220490035185 0.0
286.21578456832697 135.67755825829403 0.0
1001.0323154321113 100.47298222108331 0.0
1211.6896750481353 162.00518224437826 0.0
928.1792763852708 1.0418073456723302 0.0
1106.819260603574 -17.18588413704501 0.0
528.9324514710306 -82.3903797210809 0.0
1074.2316494729225 -10.207292865658566 0.0
261.90952207751286 -32.75547061438832 0.0
1175.9551184922861 138.54798876066224 0.0
1026.8129866450067 -4.011323050826272 0.0
1113.800319351863 -0.7640419101685554 0.0
1067.2678556371213 36.599009550996286 0.0
297.6346771832549 135.17569386356405 0.0
802.1122350873031 16.101383417876384 0.0
937.4017874042369 1.163987899546 0.0
1070.233049594236 -8.897602759542439 0.0
1006.3824387342788 -14.16072330944935 0.0
1012.1333852784622 -48.79681947089671 0.0
402.8372637738638 -96.29144299092293 0.0
999.319542554791 67.04892337977361 0.0
298.42054397091596 75.62235165762893 0.0
1107.6660049790416 120.59624909574536 0.0
690.4379435943267 -134.45370209338634 0.0
711.1374501458982 -133.87521586109744 0.0
1186.8670211307908 70.42772950284395 0.0
934.373335732252 3.0460314364763463 0.0
508.62030587127197 59.338952053276486 0.0
686.0886374839846 10.73226070773159 0.0
505.16426416465305 -63.72638531840969 0.0
1154.5886405122556 39.14093960279344 0.0
721.3504683092527 -3.3720792853856154 0.0
796.949685435817 -9.300963856399498 0.0
1110.6137184063118 28.508879956699584 0.0
1103.3641690406366 -1.0395671606192303 0.0
301.93875806305994 101.60255748690908 0.0
945.610486834938 51.18158016540743 0.0
1064.2805398103765 144.81336638016094 0.0
1069.5384889107024 153.43656469446535 0.0
189.69095489909014 81.75862826845236 0.0
200.65161968909354 90.20485089393244 0.0
873.0271825631141 -10.549178991798259 0.0
871.8812792056669 23.17376968877382 0.0
1105.6789614426687 -3.8390014418927874 0.0
946.2509646872726 63.98442498563958 0.0
879.6366858727113 26.654488746369545 0.0
287.95640768784915 104.61345864539605 0.0
273.24887223863817 131.4180889143362 0.0
314.38628743457184 121.15391994113041 0.0
878.7316023213225 39.88932225196116 0.0
264.88952101346035 126.11401637202388 0.0
876.466807495646 33.67268979077787 0.0
1139.6142032092707 12.350023695168398 0.0
1140.3428220589308 -0.08156161627177196 0.0
1079.8311283140092 -3.2080490066469465 0.0
361.3426605541832 109.92730653391801 0.0
851.1925911654175 8.730727885512948 0.0
587.5986377348393 40.77533025107468 0.0
1031.4164465619187 -34.589894273892135 0.0
472.0780125817862 71.7488911765027 0.0
303.64491791381397 -8.104986900827996 0.0
1121.0471966785722 -2.0272184930907566 0.0
997.789937606457 -4.621581924754189 0.0
1037.2043620335794 34.56395657044621 0.0
967.7952219520663 59.68882465937835 0.0
492.0376162779314 -94.43970968275164 0.0
1045.4307864049183 38.208251244172615 0.0
615.1323766913104 16.808915872788575 0.0
888.5322516587377 -21.111110629914563 0.0
181.73425247518395 -7.928838548167711 0.0
1331.9703310647246 85.11289773288658 0.0
1039.059728241669 -7.030559530622876 0.0
1339.40523601718 84.05558327501402 0.0
988.2143955431907 54.053767768435456 0.0
325.78735316051467 78.25140668021385 0.0
1276.6718389638277 199.9199306014574 0.0
1043.0778266955522 35.688471240520514 0.0
1151.3558436725802 0.5283698399381828 0.0
606.9799574444421 -161.7082779853584 0.0
1330.9463314835357 83.70263081916815 0.0
430.309109475372 32.989537510943606 0.0
1039.404361421492 113.29945017306753 0.0
255.3775895265041 -158.48296688465808 0.0
539.5860624673269 2.7017085889450847 0.0
755.3009129493204 -19.744671843853585 0.0
708.5280984616217 10.360658428726499 0.0
1461.0470188993288 238.12438375981992 0.0
62.878893426303364 -91.636315463246 0.0
1126.9521180707818 -2.3516326143657995 0.0
772.6349289781974 12.362449265478013 0.0
133.94236814043177 41.662994322575585 0.0
785.4883280962746 -5.4269898735767095 0.0
1071.6123045186316 -45.05782688058733 0.0
636.0952330519441 -76.21625016405618 0.0
942.4110069819578 67.7913113247507 0.0
575.6843645306599 -99.63614420571079 0.0
1327.2914163260816 218.71219279901337 0.0
1156.5804180924463 1.2937290103214627 0.0
1037.0479960455377 11.385311367435323 0.0
136.35518650537378 -77.9203976633959 0.0
266.78426467238614 -165.6979405770914 0.0
1477.3227583410585 210.82899299934525 0.0
335.2156893700112 85.60638340968113 0.0
697.2015039434959 -133.07083092899714 0.0
256.13576469288114 126.53325752961653 0.0
1151.4327714100618 0.779371832244615 0.0
1015.2597789045985 -7.3612754533935885 0.0
1167.9085535287006 1.953153527420098 0.0
VECTORS DirPrincipal1 float
0.9999971135144428 0.0024026990620428785 0.0
0.9999913662299742 -0.004155413999768376 0.0
0.9999941861437921 0.0034099382127325967 0.0
0.9999954301879327 -0.003023177674447558 0.0
0.9999988568988172 -0.0015120188686825295 0.0
0.9999985190936748 -0.0017209911264735884 0.0
0.9999998985610264 0.0004504197340900459 0.0
0.9999973379544179 -0.0023073976852551457 0.0
0.999977218854142 -0.0067499461283106795 0.0
0.9999482863973194 -0.010169785202476208 0.0
0.9998915391556885 -0.014727862196131076 0.0
0.9997294507177219 -0.023259952012895328 0.0
0.9995426135554311 -0.03024175402945462 0.0
0.9993885998031252 -0.03496321758003286 0.0
0.9993179383015508 -0.03692774280589074 0.0
0.9995123553591363 -0.03122581439180772 0.0
0.9996167355437999 -0.027683605631431372 0.0
0.9999777113579769 -0.006676585000041313 0.0
0.9999003696947225 0.014115618454649545 0.0
0.9996659672928951 0.025844802888787488 0.0
0.9992831324665762 0.03785790759916912 0.0
0.9994830947093261 0.0321487696540365 0.0
0.999461718204527 0.032806612803737874 0.0
0.9995119697018946 0.031238156517935486 0.0
0.9997523669533462 0.02225319687554298 0.0
0.9999092682661599 0.013470532113935845 0.0
0.9999717371123592 0.0075183094170491035 0.0
0.9999750322305702 0.00706646414201091 0.0
0.9999989440925088 0.0014532081294262077 0.0
0.9999991435688244 -0.0013087633926714252 0.0
0.9999891253151515 0.004663609271612031 0.0
0.9999918113388085 0.004046882173782549 0.0
0.999992409039823 0.003896390988019776 0.0
0.9999956047736787 0.002964866493586725 0.0
0.9999997140724337 0.0007562109828745837 0.0
0.9999769183122204 -0.006794324307457279 0.0
0.9999131228725318 -0.013181301426694244 0.0
0.9997891664695043 -0.020533451005945103 0.0
0.999641309409628 -0.026781570562686725 0.0
0.9996132595992624 -0.02780883372846816 0.0
0.9995796856850243 -0.028990549595136313 0.0
0.9996738899687372 -0.02553651727963602 0.0
0.9998321495263908 0.01832137476929806 0.0
0.9993902900629527 0.03491486972462035 0.0
0.9993397972690136 0.0363313858024574 0.0
0.9996891620308573 0.024931492495282367 0.0
0.9997551841103158 0.02212627046179694 0.0
0.9999476434308827 0.01023280983034579 0.0
0.9999937430618472 0.0035374902341230117 0.0
0.9999991693493752 -0.0012889144889927024 0.0
0.99999245169448 -0.003885428427180251 0.0
0.999993568551097 -0.003586482460926313 0.0
0.9999875626473962 -0.004987439274821412 0.0
0.9999896004141297 -0.0045605990384303624 0.0
0.9999966931607415 0.0025717051895556425 0.0
0.9999948267959096 -0.0032165791485295825 0.0
0.9999724673873176 -0.0074205436000411625 0.0
0.9999658680310405 -0.0082621288375129 0.0
0.9999038052227298 -0.013870122605988966 0.0
0.9997912790937963 -0.02043032667361186 0.0
0.9995468025053008 -0.030102983264605445 0.0
0.9993434995212216 -0.036229407456902854 0.0
0.9993686424009263 -0.03552909491852697 0.0
0.9994445325845475 -0.0333260601760173 0.0
0.9997081099888531 -0.02415977695499298 0.0
0.9999647324204023 -0.008398447201301219 0.0
0.9999719030323015 0.00749620877226414 0.0
0.9997894306339352 0.020520584608424895 0.0
0.9995949577204718 0.028459102231239576 0.0
0.9994456373309919 0.033292912459673814 0.0
0.9994787694624627 0.03228295825666377 0.0
0.9995651433108863 0.029487697059741944 0.0
0.9997742930177743 0.0212453058535187 0.0
0.9999077917502658 0.013579690611616653 0.0
0.9999176770072644 0.012831181099030699 0.0
0.9999822918776387 0.0059511285606204355 0.0
0.9999893824920207 0.004608134462790871 0.0
0.9999995369986548 -0.0009622902244229291 0.0
0.999997512179901 0.0022306129222015637 0.0
0.9999972901427318 0.0023280264588399404 0.0
0.9999932540964002 0.0036731133513980187 0.0
0.9999936069525908 0.0035757592127194557 0.0
0.9999999742048205 -0.00022713511026221147 0.0
0.9999921886191754 -0.003952556214853852 0.0
0.9999480955949445 -0.010188528649604763 0.0
0.9998327084499494 -0.018290847810814564 0.0
0.999718209686228 -0.023738180675088875 0.0
0.9996351420059794 -0.027010791670840292 0.0
0.9994269270649769 -0.03384992551627437 0.0
0.9998546711287396 -0.017048067985545434 0.0
0.9999389247872074 0.011051999611083491 0.0
0.9995172765099175 0.031067892722180995 0.0
0.9995901694454032 0.0286267907406721 0.0
0.9997782564242021 0.021057967171173163 0.0
0.999870162174344 0.016113931657145735 0.0
0.9999487584204909 0.010123266929137523 0.0
0.9999937994581091 0.0035215117967834007 0.0
0.999999416836482 0.0010799660623993597 0.0
0.9999967957052751 -0.0025315171700485773 0.0
0.9999775184071534 -0.006705421707189698 0.0
0.9999933935532138 -0.0036349484078087926 0.0
0.9999938056167771 -0.0035197625027188198 0.0
0.9870132298340429 0.16063898696322437 0.0
0.9623209334809417 0.27191620213655715 0.0
0.9443141437156615 0.3290452825654199 0.0
0.926068074146705 0.3773564919889586 0.0
0.9562680805606654 0.2924916376596444 0.0
0.9994716402751832 0.03250292733947045 0.0
0.9993038655411614 -0.037306625611177965 0.0
0.9999562612291267 -0.009352840673644301 0.0
0.996487188238199 0.08374535018213394 0.0
0.9999825872183202 -0.005901293091725853 0.0
0.935644425097364 -0.35294406041782755 0.0
0.9184652505284534 -0.3955016859277661 0.0
0.9411732175483415 -0.33792451016418196 0.0
0.9685986668457688 -0.2486294885660172 0.0
0.9900761976167923 -0.14053157265424113 0.0
0.9910813694331019 0.13325809229689436 0.0
0.968260056241844 0.2499449209056693 0.0
0.9416739874197777 0.3365265240912463 0.0
0.9148840561639497 0.403716687513656 0.0
0.9273145608074816 0.374282921483772 0.0
0.9956701139379633 0.09295710952241867 0.0
0.9990336147819274 -0.043952662442169825 0.0
0.999981154808528 -0.006139220455614457 0.0
0.9971251332318549 0.07577247968329644 0.0
0.9997914720435648 -0.020420882178832846 0.0
0.9342195761104705 -0.3566984491303166 0.0
0.9187495558141757 -0.394840795373597 0.0
0.9404912696647325 -0.33981785074421783 0.0
0.9668116935821596 -0.2554900177165371 0.0
0.9886521918324451 -0.15022264671114713 0.0
0.9982704736691429 -0.058788276045357774 0.0
0.9981030669944648 -0.06156514968911375 0.0
0.9926687227450989 -0.12086689738557062 0.0
0.9938932386125194 -0.11034595706376121 0.0
0.9906720184568591 0.13626794137511763 0.0
0.9918530885318327 0.1273870117785335 0.0
0.9980216645044139 0.06287095656850593 0.0
0.99786073221045 0.06537552380229707 0.0
0.9960351618901101 -0.08896041973002403 0.0
0.9954456935150298 -0.09533032708630242 0.0
0.9925081168154689 -0.12217871359370043 0.0
0.9956533242921841 -0.09313676946256268 0.0
0.9931802878395682 0.11658866088480652 0.0
0.9953409463891953 0.09641784296000987 0.0
0.9941802997433657 -0.10772897290047642 0.0
0.994942927776418 -0.10044187606615672 0.0
0.9714494467945264 -0.23724664870680182 0.0
0.9678631499565866 -0.25147748001782166 0.0
0.9803256861744913 0.19738680053770719 0.0
0.9728562565022724 0.23141025081958824 0.0
0.9941260436077798 0.10822850558306195 0.0
0.9944553726483483 0.10515945896986499 0.0
0.9992246456608173 -0.039371404648732046 0.0
0.961574438467289 -0.2745443484873033 0.0
0.9997110860632853 0.024036314238388787 0.0
0.99997141259459 -0.007561348661461186 0.0
0.9995926820016291 0.028538922348081544 0.0
0.9999256166736016 -0.01219676678130347 0.0
0.9999858746438418 -0.005315121145441087 0.0
0.999999213649079 -0.0012540738510214465 0.0
0.9999226908975538 -0.012434316555206293 0.0
0.9991483147986417 -0.04126311955044323 0.0
0.999603491905647 0.028157751508905766 0.0
0.9995639386090801 -0.029528505419389554 0.0
0.9999519133269907 -0.009806683113584666 0.0
0.9400916299837812 -0.3409218784918879 0.0
0.9983434463068576 -0.05753575597962088 0.0
0.9982570114911598 -0.059016429989779726 0.0
0.9990789856062587 -0.04290897947946515 0.0
0.9964030561733653 0.0847404841169654 0.0
0.9998297088426691 0.018454086690583175 0.0
0.9987969339431314 0.04903758503229875 0.0
0.9809373896925881 0.19432405281665838 0.0
0.9781746386014895 0.20778444695608345 0.0
0.9825508512204383 -0.18599415250483625 0.0
0.981662624802884 -0.19062657491837903 0.0
0.9989531581135724 -0.04574481276516634 0.0
0.9987292680232618 -0.050396916510038046 0.0
0.9989498144330733 0.045817772142790064 0.0
0.9992877808831766 0.03773500997185945 0.0
0.9992413350119355 0.038945531239989666 0.0
0.9990911165829391 0.04262558814909144 0.0
0.9995910009082241 -0.028597742975537674 0.0
0.9996061185382037 -0.02806435071379396 0.0
0.9999849292110607 0.005490113910475562 0.0
0.9987686072710903 0.04961117948372657 0.0
0.9999989841497113 0.0014253769835736029 0.0
0.9996102360319222 -0.0279173068221998 0.0
0.9986387077724653 0.052160630158584756 0.0
0.9997381638998659 0.022882387159665493 0.0
0.9998926828751663 0.014650007942047094 0.0
0.9999998619524871 0.000525447434924826 0.0
0.9971421209274761 -0.07554859808265457 0.0
0.998122934469444 -0.06124220510486215 0.0
0.9955853038938252 -0.09386108176789644 0.0
0.9961677320126504 -0.08746341919209696 0.0
0.9912185996827331 -0.1322334588634883 0.0
0.9910261317394633 -0.13366826926954675 0.0
0.9930233071315046 0.11791824071622542 0.0
0.9920664839869107 0.12571432436221647 0.0
0.9960299480110618 0.08901877703654214 0.0
0.9961457425220477 0.08771350896639685 0.0
0.9896847689328853 0.14326220067506168 0.0
0.9989168748884838 -0.04653038859740333 0.0
0.9992552123112272 -0.03858783057965441 0.0
0.9894817239836213 -0.14465793411493363 0.0
0.9847696633022628 -0.17386405677870323 0.0
0.9998773234252336 0.01566327232702758 0.0
0.9991008015421666 0.04239797586913995 0.0
0.9996103077134574 -0.027914740066977077 0.0
0.999993808834555 -0.0035188481864797667 0.0
0.9999999975424803 7.010734191442354e-05 0.0
0.9998950490717903 0.014487609938229529 0.0
0.9999518153049665 -0.009816672975197815 0.0
0.995325049380827 -0.09658181027012502 0.0
0.9956948915663327 -0.09269133135686873 0.0
0.9951535245616057 0.098333425408728 0.0
0.991633760838931 -0.12908324587039888 0.0
0.9957663020413384 0.09192100803906507 0.0
0.995681035446311 0.0928400541391582 0.0
0.9999129146526265 0.01319708721230313 0.0
0.999999015296681 -0.0014033551469920349 0.0
0.9823802686567616 0.18689303827020687 0.0
0.9843381471988908 0.1762907030136718 0.0
0.9963333877247029 0.0855557157939603 0.0
0.9965197572678992 0.08335690358169175 0.0
0.9950771857356897 -0.09910294863594936 0.0
0.9965998092389843 -0.08239429728336814 0.0
0.9830070529942672 -0.1835677906483755 0.0
0.9807262123692264 -0.1953870424872416 0.0
0.9999857807529273 -0.005332756506557595 0.0
0.9999934026217114 -0.0036324527597434535 0.0
0.9981884502595489 -0.06016492141139897 0.0
0.9987849802302357 -0.04928045521794654 0.0
0.9990694979201099 -0.04312932095059351 0.0
0.9990994709896047 0.04242931849902767 0.0
0.9987168185231855 0.05064302912471238 0.0
0.9986541803649637 0.051863552130396104 0.0
0.9999315868427789 0.011697078014701028 0.0
0.9999547816631585 -0.009509712350265931 0.0
0.9999413035782394 0.010834638814991134 0.0
0.9999841823096952 0.005624511570813656 0.0
0.9947397872985607 -0.10243415233804704 0.0
0.9951634256764348 -0.0982331725841279 0.0
0.9437181754583406 -0.3307506694015606 0.0
0.9524541783669801 -0.30468186377150974 0.0
0.994476491092918 -0.1049595572757315 0.0
0.9901116329013304 0.14028169657322015 0.0
0.9873724272045244 0.15841619234234325 0.0
0.9947323882153615 0.10250597951028675 0.0
0.9999813407602745 0.006108856790253789 0.0
0.9466175863747848 0.32235872125006454 0.0
0.9514636037081032 0.30776128869432184 0.0
0.9957793532886056 0.09177951603776702 0.0
0.9953895244729977 0.09591503828607735 0.0
0.9999996448168897 0.0008428321862717678 0.0
0.9999987574740042 0.0015764042780018433 0.0
0.9409322502743834 0.33859489126917625 0.0
0.9432960274185002 0.3319527144887901 0.0
0.9998478579763314 -0.017443075994275234 0.0
0.9995364924621686 -0.030443393970202307 0.0
0.9993468575814559 0.03613666063804639 0.0
0.9999093546279303 0.013464120006739213 0.0
0.9319105096795691 -0.36268829861020585 0.0
0.9334628108201933 -0.3586741987035923 0.0
0.9992113503897212 -0.03970739543649067 0.0
0.9885814521559363 -0.15068746614519796 0.0
0.9994532723435485 -0.03306291580869054 0.0
0.9889124772812838 -0.14849953628679852 0.0
0.9997216020970463 -0.02359487869252906 0.0
0.9950289403308243 -0.0995861832992744 0.0
0.995006574643451 -0.09980940044057258 0.0
0.9994577886939163 0.03292610847134653 0.0
0.9998888420104252 -0.01490984986681878 0.0
0.9990807585432838 -0.04286767906682871 0.0
0.9993489671308036 -0.03607827455125843 0.0
0.9991228991876016 0.04187400528922401 0.0
0.9993377260386884 -0.036388312901576236 0.0
0.99421789567161 0.10738145056906044 0.0
0.9923115271028705 -0.12376523412804148 0.0
0.9946089952226166 0.10369641566735607 0.0
0.9926127394760392 -0.12132579869868028 0.0
0.9993203129161201 -0.03686342622746536 0.0
0.9923977842325442 0.123071677693678 0.0
0.929434727282602 0.36898656848334654 0.0
0.9236560566579588 0.38322250586189444 0.0
0.999998484443394 0.00174100859132826 0.0
0.9998803400859364 0.015469502565756816 0.0
0.9999999686854283 0.0002502581519238266 0.0
0.9999134248011524 0.013158377651906361 0.0
0.9400405214869104 -0.3410627771578388 0.0
0.9395162736375845 -0.3425042650393531 0.0
0.9999999996408859 -2.6799781222053304e-05 0.0
0.9924164140031899 0.12292136192317953 0.0
0.975878031115398 -0.21831644094372316 0.0
0.9966254536442593 -0.08208352543826644 0.0
0.9985752303698977 -0.05336205854074368 0.0
0.9687381081403171 -0.24808562601795273 0.0
0.9990514502793666 -0.04354537512405453 0.0
0.9999869478979753 -0.005109210672116306 0.0
0.9999456922020089 -0.010421739137259946 0.0
0.9993595902221672 -0.035782809154427844 0.0
0.9970364969688683 -0.07692999227900377 0.0
0.9999934210459829 0.0036273771173553275 0.0
0.9965822222250745 -0.0826067451539635 0.0
0.9994839585855431 0.032121901098349365 0.0
0.999809246602906 -0.019531267427620954 0.0
0.9994461055457514 -0.033278853787817315 0.0
0.9994058041408185 0.034467936544619666 0.0
0.9999946597171285 -0.003268109120608785 0.0
0.9848540215397306 0.17338557107504562 0.0
0.9993310281716059 0.03657179423381993 0.0
0.9994450335689131 0.033311032323149456 0.0
0.9998061053336877 -0.019691412785341977 0.0
0.9981934728368922 -0.06008153448293712 0.0
0.983431131801534 0.18128212543864886 0.0
0.9999897085371774 -0.0045368292596409815 0.0
0.9998058327087809 0.01970525009994029 0.0
0.9994377969425219 -0.03352745207555024 0.0
0.9995234428788796 0.03086887000768413 0.0
0.9983914459456572 -0.05669674296235883 0.0
0.9991855198393907 0.0403521615689457 0.0
0.9997667944815289 0.021595292360328183 0.0
0.999737047670536 0.02293110365858383 0.0
0.9998419899907965 -0.017776249639448866 0.0
0.9996161215471887 0.027705767322996053 0.0
0.9998009610171409 0.019950898455994612 0.0
0.9985664871700858 0.0535254210706934 0.0
0.9999956303033504 0.0029562432587455965 0.0
0.9999089741204539 0.013492348697741286 0.0
0.9999546346843537 0.00952515476412865 0.0
0.9998518904782827 0.01721037788672779 0.0
0.9383073767090212 -0.3458023522381465 0.0
0.9551484331192367 0.2961274568659026 0.0
0.9381656491311196 -0.34618667621730503 0.0
0.9824115444524818 0.18672856590915418 0.0
0.985764656976103 0.16813102348105075 0.0
0.9968082790259873 0.07983266790762557 0.0
0.996873061570179 0.07901961222189306 0.0
0.9989702298343507 -0.04537047393079024 0.0
0.9997632759392825 -0.021757575305026422 0.0
0.999022199540778 0.044211365334107154 0.0
0.998618914294917 -0.052538214781636526 0.0
0.9990683742485482 0.04315534238495803 0.0
0.9999953291234258 -0.003056424599351287 0.0
0.9999655556614849 0.008299848831009473 0.0
0.9983876323912755 -0.05676385723454193 0.0
0.9998723666966741 -0.015976555210421857 0.0
0.9987554386794232 -0.04987558228504969 0.0
0.999987432692751 -0.005013427625974547 0.0
0.9997874082315216 -0.020618883134083592 0.0
0.997434430473404 -0.07158601054812594 0.0
0.9972792293576493 -0.07371661069130221 0.0
0.9996109570110904 -0.027891479404508635 0.0
0.9998641962227456 -0.01647996091751715 0.0
0.9571372615066991 -0.289634705509296 0.0
0.9998804890836901 0.015459869008527926 0.0
0.9565458893322029 -0.29158182659703813 0.0
0.9969948641173545 -0.07746767663753626 0.0
0.9992228080956052 0.039418013414345476 0.0
0.9999092830019704 0.01346943823942181 0.0
0.9998552025050397 0.01701687467210209 0.0
0.9997008825581537 -0.02445701151916757 0.0
0.9635123690285772 0.2676638091504693 0.0
0.9998011436747083 0.019941742821166914 0.0
0.9999964070599154 0.002680646798782847 0.0
0.9640227033840632 0.26581991528115867 0.0
0.9994974546942892 0.03169918074078975 0.0
0.99997232731289 0.0074393957041235595 0.0
0.9982489436904175 0.05915273806820502 0.0
0.9998968219570256 -0.014364729034705604 0.0
0.987700854326432 0.15635543598748475 0.0
0.9993625773962441 0.0356992843056563 0.0
0.9972930940273103 -0.07352880119677332 0.0
0.9969030203017447 -0.07864075351405954 0.0
0.9880114071570775 -0.15438089042200712 0.0
0.9876862717656821 -0.1564475265563734 0.0
0.9999928086815705 -0.0037924378892494285 0.0
0.9995625539740435 0.02957533926918805 0.0
0.9948598041366449 -0.10126188874989808 0.0
0.9956346163430523 0.09333654557258518 0.0
0.9973784935482943 0.07236118163307617 0.0
0.9727022263816741 0.2320568438812666 0.0
0.979142630601751 0.20317408530194758 0.0
0.9944648284133623 0.10507000070801456 0.0
0.9948222014336097 0.1016306426959227 0.0
0.9962976362326094 0.08597104185314529 0.0
0.9988797883486148 0.04731985237325339 0.0
0.9984881811753218 0.05496682684308489 0.0
0.999918467258168 0.01276944932547867 0.0
0.9999947090427718 0.0032529811653685937 0.0
0.9996971948335134 0.02460728839193964 0.0
0.9999842092783923 0.0056197147497732145 0.0
0.997029126799143 -0.0770254523786681 0.0
0.9982083623309025 -0.059833647495850094 0.0
0.9980020515950964 -0.06318152429293206 0.0
0.9998598668670993 -0.01674056834478292 0.0
0.9985205541147951 -0.05437557365474224 0.0
0.9973351093050132 -0.07295669775666475 0.0
0.9966054641392855 0.08232586985704739 0.0
0.9997023187990978 0.02439823329069142 0.0
0.9982135496605772 -0.059747044061028036 0.0
0.9984332835476519 -0.055955145467187516 0.0
0.996876136944604 -0.07898080520229737 0.0
0.9964403131048393 -0.08430125989289763 0.0
0.998305917635549 0.058183286378862 0.0
0.9987331801700567 0.050319328566713575 0.0
0.9984688338801121 0.055317156200308734 0.0
0.998892020574337 -0.04706093106727047 0.0
0.9707927288048972 -0.23991973178448917 0.0
0.9982645038744319 0.058889560232137456 0.0
0.9997197822806162 0.023671859174917483 0.0
0.998158563601603 0.06065873316172016 0.0
0.9998854625376776 -0.015134787934235743 0.0
0.9960242083406656 0.0890829748007452 0.0
0.9426444265738034 -0.3337985695735459 0.0
0.9996861682095857 0.025051249278949483 0.0
0.9990836263802414 0.04280078853136203 0.0
0.99735601898473 0.07267029238231314 0.0
0.9964119749514142 -0.08463554911160104 0.0
0.9953556880936036 0.0962655399388004 0.0
0.999388290619761 -0.034972054159175245 0.0
0.9992185244190059 -0.0395264526349705 0.0
0.9407331945125801 -0.33914754420776233 0.0
0.9630997129540093 -0.269144836301767 0.0
0.93566755361987 0.3528827412937726 0.0
0.9287621104890958 0.370676330671167 0.0
0.9975814684150581 0.06950693400558254 0.0
0.9988522397916526 0.0478978398594213 0.0
0.9977067868688883 0.0676843219346891 0.0
0.9962368812679027 -0.0866722354713582 0.0
0.9975109612322258 0.07051157508920773 0.0
0.9968416023031833 -0.07941548915433375 0.0
0.9998177469520937 -0.019091172819892335 0.0
0.9999956181868128 -0.002960339030242158 0.0
0.997116369530659 0.07588771714841837 0.0
0.9975794468302549 -0.06953594223020745 0.0
0.9991700504608504 0.0407334047442839 0.0
0.9983423137552283 0.05755540431494908 0.0
0.9980058090575945 -0.06312214419121387 0.0
0.9980051851990082 -0.063132007063717 0.0
0.9996756990786853 0.025465597804524617 0.0
0.9976047682975302 0.06917171582396253 0.0
0.9983203384575655 -0.05793532447455392 0.0
0.998743705367012 -0.05010998892208083 0.0
0.9960808899502525 -0.08844693706349109 0.0
0.9990225859766376 -0.044202632371293855 0.0
0.9992907535469582 -0.037656206335112484 0.0
0.9993499050233869 -0.036052286054388774 0.0
0.9966576044951378 -0.08169222363244569 0.0
0.9964980897631361 -0.08361553144255462 0.0
0.9943958808871916 -0.10572053761964298 0.0
0.9791916083700453 -0.2029379070003526 0.0
0.9725056651687994 -0.23287922022926552 0.0
0.9995925184344446 0.028544650810345278 0.0
0.9999196014649347 0.0126803235844362 0.0
0.9999899498375138 -0.004483327332077888 0.0
0.9995090503804192 -0.03133142524100774 0.0
0.9999882676365187 -0.004844026147160179 0.0
0.9999918883736532 0.004027801744785277 0.0
0.9991526277405633 -0.04115855292800569 0.0
0.998558322667279 -0.05367752073177853 0.0
0.9228802807629346 -0.3850869867691286 0.0
0.9372570037507305 -0.34863922458639524 0.0
0.9345501332281795 0.35583148888651217 0.0
0.9978513044403647 0.06551926607237611 0.0
0.9996613512795625 0.02602273540424606 0.0
0.995668667258404 0.0929726037060029 0.0
0.9994250247598633 0.03390604494402897 0.0
0.9967531666612259 -0.08051785361532136 0.0
0.9999135551437051 -0.013148469107731178 0.0
0.9999778563352876 -0.0066548357668037225 0.0
0.9998338328393513 0.018229281658148043 0.0
0.9627536047188134 -0.2703802814573033 0.0
0.9961444021205245 -0.08772873032218477 0.0
0.9517603630768413 -0.3068423231495928 0.0
0.9970651584185333 0.07655762449178481 0.0
0.9999097731661583 -0.013433001407057268 0.0
0.9970346269400605 0.07695422459159995 0.0
0.997403690887872 0.0720130363423897 0.0
0.9890986178555048 0.14725462354822813 0.0
0.9915914584182727 0.12940780344292685 0.0
0.9945701106599772 -0.1040687031811232 0.0
0.9957699693257182 0.09188127224335878 0.0
0.993320325372784 0.11538947612891896 0.0
0.9985840280563714 0.05319717013819568 0.0
0.9965881449735123 0.08253526093890819 0.0
0.9943769907568192 0.10589806539032208 0.0
0.9973302252245027 0.07302343359253262 0.0
0.9857930005525073 0.16796475839200417 0.0
0.9997742326177242 -0.02124814800495668 0.0
0.9944474917092904 0.10523395950500498 0.0
0.995275221169333 0.09709394484897375 0.0
0.9906745046525155 -0.13624986543660547 0.0
0.9961555747004404 -0.0876017750575594 0.0
0.9997136791255612 -0.023928221188259123 0.0
0.93103134904635 -0.36493921013359676 0.0
0.9998669676590466 -0.016310946762921337 0.0
0.9997640999993617 0.02171967661974584 0.0
0.9999447153158267 0.0105150516855855 0.0
0.9958906884575354 0.09056343988374214 0.0
0.9963096707327177 0.08583146278879226 0.0
0.9372658503675252 0.3486154410447705 0.0
0.9955055363633136 0.09470336356218484 0.0
0.9998451657009463 0.017596721980166284 0.0
0.9999970529713649 0.00242776617185123 0.0
0.9889371346349476 -0.14833524105895954 0.0
0.9553680896328446 -0.2954180314593016 0.0
0.9636737811771896 0.2670820912597067 0.0
0.9533689436038902 -0.3018073182870194 0.0
0.9555345561201773 0.29487914822892414 0.0
0.9643615682997764 -0.2645879165540178 0.0
0.9998879574389885 -0.01496905369378413 0.0
0.9999994786185049 -0.0010211575384286916 0.0
0.9989787501601793 -0.04518248253920749 0.0
0.9931732263700814 -0.11664879948650624 0.0
0.9986132504923516 -0.05264575900392889 0.0
0.997325236397992 -0.0730915374286887 0.0
0.9989752691857379 0.04525938085394542 0.0
0.9972497662036149 -0.07411412690462896 0.0
0.9988373242202759 -0.048207880522582076 0.0
0.9999114209943805 -0.013309777045429147 0.0
0.9998260543271157 -0.018651034520149257 0.0
0.9840306419456646 -0.17799914525638352 0.0
0.9510084323684093 -0.30916494232719927 0.0
0.9994913533004482 -0.03189098113320423 0.0
0.9997821704143344 -0.0208713133655403 0.0
0.9999844392231317 -0.005578647828870916 0.0
0.9999176176198938 -0.012835808247078744 0.0
0.9888834073539557 0.14869299465687855 0.0
0.9825727164502309 -0.18587860793435637 0.0
0.9926426052592726 -0.12108120508189416 0.0
0.983996990437305 0.17818508021247548 0.0
0.9718112750955868 0.2357601442082392 0.0
0.9826951791788928 0.18523008615925138 0.0
0.9900563529859737 -0.14067131161723484 0.0
0.951450205937593 -0.3078027056757495 0.0
0.9363143241125975 0.35116304825760003 0.0
0.9904742949351893 0.13769775260562364 0.0
0.9957554475006384 0.09203851787596093 0.0
0.9463792062722396 0.32305788635401833 0.0
0.995436018940725 0.09543129568145188 0.0
0.9948948085891219 0.10091739117919285 0.0
0.9601287029867964 0.27955835473276747 0.0
0.9879683335663475 -0.1546563023938388 0.0
0.9956521320693946 -0.09314951371676035 0.0
0.9873954055831546 -0.15827290682007963 0.0
0.9957461203931726 0.09213937118271144 0.0
0.9959613228684931 -0.08978331331623389 0.0
0.9949148012399679 -0.10072009865779008 0.0
0.9713181959917275 -0.23778343536793306 0.0
0.9554370313820837 0.29519498482154305 0.0
0.9996764899555618 0.02543453223724899 0.0
0.9808266173064519 0.1948823921835496 0.0
0.9871540789455919 0.15977116267048935 0.0
0.9654225943824767 0.2606898813836239 0.0
0.9999990510991821 0.001377606887144616 0.0
0.959454935046175 0.28186207197056495 0.0
0.9960500660580804 -0.08879338886253536 0.0
0.9739956131873343 0.2265668675950409 0.0
0.9253316730737084 0.3791586670598625 0.0
0.9978808237912635 0.06506812975389184 0.0
0.9852257360439706 -0.17126076327231674 0.0
0.9974260530589846 0.07170264067087015 0.0
0.9942265527133853 -0.10730126690611806 0.0
0.9983083410669499 0.058141690344835 0.0
0.9999917699519505 0.0040570960507703676 0.0
0.9969796289389392 -0.07766350160001347 0.0
0.9325173897610074 -0.36112507223026946 0.0
0.9126928172192776 0.4086463280103448 0.0
0.9999974267171354 0.002268602897713858 0.0
0.937655888826341 -0.3475650070839765 0.0
0.9708129421058589 0.23983792744219182 0.0
0.9971534526542788 0.07539888500270348 0.0
0.9989461991994162 0.045896526067233226 0.0
0.9986564426830545 -0.05181997189913414 0.0
0.9987071488430268 -0.05083336355025687 0.0
0.9974467295470518 -0.07141443632690933 0.0
0.9650589926308274 0.262032709298615 0.0
0.9995240259474765 -0.03084998466366658 0.0
0.9218435079753079 -0.3875623134462105 0.0
0.997807295204167 -0.06618611362925442 0.0
0.9999989064084327 -0.0014789124175253986 0.0
0.9966942205868847 0.08124426532809875 0.0
0.994106526853235 0.10840762550576584 0.0
0.9980287929409943 0.06275769642635168 0.0
0.9996616024226008 0.02601308597375494 0.0
0.9984607136168699 0.05546353183571091 0.0
0.9994751856231061 -0.032393723522581984 0.0
0.9999501323179286 0.00998663493660118 0.0
0.9918115268523737 0.12771020007330294 0.0
0.9423899668953281 0.33451629301877445 0.0
0.9964681498642634 -0.08397158034771066 0.0
0.9611391252783935 -0.27606445236408916 0.0
0.9970945999729104 -0.07617321514063943 0.0
0.9725091754863053 -0.23286456062472544 0.0
0.9746110539441573 -0.22390465276509738 0.0
0.9985361737747588 0.05408798076527357 0.0
0.9985156672959399 0.054465238129875033 0.0
0.9985596109949582 0.053653548713926746 0.0
0.9996870668130108 -0.02501536421479293 0.0
0.9635737083793521 0.2674429070288902 0.0
0.9977905657439962 -0.06643784247156354 0.0
0.999274088149636 -0.03809588892142355 0.0
0.9999006235057889 -0.01409762791162846 0.0
0.9953882453247285 0.09592831213650356 0.0
0.9997934344469249 0.020324577162207546 0.0
0.9760368303375476 0.21760539015528402 0.0
0.9972202705483284 0.07450994569531307 0.0
0.9999929804809613 -0.003746863862449238 0.0
0.9998458679295071 0.017556776022110334 0.0
0.9998358080843691 0.018120620085325924 0.0
0.9978179735092977 0.06602493272846698 0.0
0.9999865728953481 0.0051820873223899794 0.0
0.9982942310207376 0.058383459221892045 0.0
0.9998201663729054 0.01896404266120089 0.0
0.9987853982059088 0.04927198322235401 0.0
0.9987323478065838 0.050335846518645457 0.0
0.978612421337236 0.20571273369549123 0.0
0.9983344898083247 0.057690956476314934 0.0
0.9903405575231781 0.138656338205944 0.0
0.9999345065096625 0.011444766982222552 0.0
0.994695703229935 0.10286135316971715 0.0
0.9995991424848384 0.0283117350859311 0.0
0.9982772008526503 0.05867393167154466 0.0
0.9999970762365774 -0.002418164241096383 0.0
0.9999915713757934 0.004105749306924759 0.0
0.9957666762222248 0.09191695450428662 0.0
0.9986162302669929 0.052589206566940015 0.0
0.9990994508258937 0.04242979329901875 0.0
0.9971976126563138 -0.07481257456168984 0.0
0.9982978649645516 0.05832128948521176 0.0
0.9275010548550814 -0.37382053614363003 0.0
0.9998975080146283 -0.01431689443057791 0.0
0.998594181715657 -0.05300622834759584 0.0
0.9607462914087114 -0.27742848365733364 0.0
0.9974890978091672 -0.07082019310799441 0.0
0.9383494470645314 0.3456881762422435 0.0
0.9607792787904734 0.2773142215012742 0.0
0.9970916156974905 0.0762122687352101 0.0
0.9999893463853933 -0.0046159631404391645 0.0
0.9275916903521682 -0.37359557811838146 0.0
0.9771678356138142 -0.2124688707594922 0.0
0.9990818707727457 -0.04284174941841829 0.0
0.9776722354951967 -0.21013567032235375 0.0
0.9961352379323468 0.08783272595944497 0.0
0.9623368485356875 0.271859871901686 0.0
0.9994487151014618 0.03320038978742621 0.0
0.9594673903495721 -0.2818196708105764 0.0
0.9999985100093658 0.0017262615817520332 0.0
0.9639687552875983 -0.2660154860704135 0.0
0.9784131267344814 0.20665854309380832 0.0
0.9725996395494239 0.23248643218117265 0.0
0.9981521603899601 -0.06076400833433771 0.0
0.9533619933842846 0.3018292722224651 0.0
0.9875745113140563 -0.15715147025339266 0.0
0.9987841405704984 -0.049297469963992264 0.0
0.9997513845489177 -0.022297288905203355 0.0
0.9999934830851512 -0.003610233680464751 0.0
0.9402327553600012 0.34053247385255364 0.0
0.9999335998667611 0.011523708495978549 0.0
0.9999550384843309 0.009482668917578546 0.0
0.9992047680582133 0.03987269102696837 0.0
0.999890718048881 0.014783502957456783 0.0
0.9970168056758105 -0.07718477310974838 0.0
0.983697404172765 -0.17983163521406345 0.0
0.9993494853935494 0.036063916088635455 0.0
0.9564735873114798 0.29181891092852247 0.0
0.9999136458072199 -0.013141572528188194 0.0
0.9999995199504014 -0.0009798463995543576 0.0
0.993806601193961 -0.11112353226615494 0.0
0.9342971604486613 0.35649518366671973 0.0
0.9565543989184162 0.2915539090971469 0.0
0.99994209040893 -0.01076177627622166 0.0
0.97281539682136 -0.2315819589417534 0.0
0.9809312692371246 0.19435494599531994 0.0
0.9969518378184533 -0.07801944033642247 0.0
0.9999976128991054 0.0021849933846779983 0.0
0.9999960172968625 0.002822302324857185 0.0
0.9999999179699861 -0.00040504323375914204 0.0
VECTORS DirPrincipal2 float
-0.0024026990620428785 0.9999971135144428 0.0
0.004155413999768376 0.9999913662299742 0.0
-0.0034099382127325967 0.9999941861437921 0.0
0.003023177674447558 0.9999954301879327 0.0
0.0015120188686825295 0.9999988568988172 0.0
0.0017209911264735884 0.9999985190936748 0.0
-0.0004504197340900459 0.9999998985610264 0.0
0.0023073976852551457 0.9999973379544179 0.0
0.0067499461283106795 0.999977218854142 0.0
0.010169785202476208 0.9999482863973194 0.0
0.014727862196131076 0.9998915391556885 0.0
0.023259952012895328 0.9997294507177219 0.0
0.03024175402945462 0.9995426135554311 0.0
0.03496321758003286 0.9993885998031252 0.0
0.03692774280589074 0.9993179383015508 0.0
0.03122581439180772 0.9995123553591363 0.0
0.027683605631431372 0.9996167355437999 0.0
0.006676585000041313 0.9999777113579769 0.0
-0.014115618454649545 0.9999003696947225 0.0
-0.025844802888787488 0.9996659672928951 0.0
-0.03785790759916912 0.9992831324665762 0.0
-0.0321487696540365 0.9994830947093261 0.0
-0.032806612803737874 0.999461718204527 0.0
-0.031238156517935486 0.9995119697018946 0.0
-0.02225319687554298 0.9997523669533462 0.0
-0.013470532113935845 0.9999092682661599 0.0
-0.0075183094170491035 0.9999717371123592 0.0
-0.00706646414201091 0.9999750322305702 0.0
-0.0014532081294262077 0.9999989440925088 0.0
0.0013087633926714252 0.9999991435688244 0.0
-0.004663609271612031 0.9999891253151515 0.0
-0.004046882173782549 0.9999918113388085 0.0
-0.003896390988019776 0.999992409039823 0.0
-0.002964866493586725 0.9999956047736787 0.0
-0.0007562109828745837 0.9999997140724337 0.0
0.006794324307457279 0.9999769183122204 0.0
0.013181301426694244 0.9999131228725318 0.0
0.020533451005945103 0.9997891664695043 0.0
0.026781570562686725 0.999641309409628 0.0
0.02780883372846816 0.9996132595992624 0.0
0.028990549595136313 0.9995796856850243 0.0
0.02553651727963602 0.9996738899687372 0.0
-0.01832137476929806 0.9998321495263908 0.0
-0.03491486972462035 0.9993902900629527 0.0
-0.0363313858024574 0.9993397972690136 0.0
-0.024931492495282367 0.9996891620308573 0.0
-0.02212627046179694 0.9997551841103158 0.0
-0.01023280983034579 0.9999476434308827 0.0
-0.0035374902341230117 0.9999937430618472 0.0
0.0012889144889927024 0.9999991693493752 0.0
0.003885428427180251 0.99999245169448 0.0
0.003586482460926313 0.999993568551097 0.0
0.004987439274821412 0.9999875626473962 0.0
0.0045605990384303624 0.9999896004141297 0.0
-0.0025717051895556425 0.9999966931607415 0.0
0.0032165791485295825 0.9999948267959096 0.0
0.0074205436000411625 0.9999724673873176 0.0
0.0082621288375129 0.9999658680310405 0.0
0.013870122605988966 0.9999038052227298 0.0
0.02043032667361186 0.9997912790937963 0.0
0.030102983264605445 0.9995468025053008 0.0
0.036229407456902854 0.9993434995212216 0.0
0.03552909491852697 0.9993686424009263 0.0
0.0333260601760173 0.9994445325845475 0.0
0.02415977695499298 0.9997081099888531 0.0
0.008398447201301219 0.9999647324204023 0.0
-0.00749620877226414 0.9999719030323015 0.0
-0.020520584608424895 0.9997894306339352 0.0
-0.028459102231239576 0.9995949577204718 0.0
-0.033292912459673814 0.9994456373309919 0.0
-0.03228295825666377 0.9994787694624627 0.0
-0.029487697059741944 0.9995651433108863 0.0
-0.0212453058535187 0.9997742930177743 0.0
-0.013579690611616653 0.9999077917502658 0.0
-0.012831181099030699 0.9999176770072644 0.0
-0.0059511285606204355 0.9999822918776387 0.0
-0.004608134462790871 0.9999893824920207 0.0
0.0009622902244229291 0.9999995369986548 0.0
-0.0022306129222015637 0.999997512179901 0.0
-0.0023280264588399404 0.9999972901427318 0.0
-0.0036731133513980187 0.9999932540964002 0.0
-0.0035757592127194557 0.9999936069525908 0.0
0.00022713511026221147 0.9999999742048205 0.0
0.003952556214853852 0.9999921886191754 0.0
0.010188528649604763 0.9999480955949445 0.0
0.018290847810814564 0.9998327084499494 0.0
0.023738180675088875 0.999718209686228 0.0
0.027010791670840292 0.9996351420059794 0.0
0.03384992551627437 0.9994269270649769 0.0
0.017048067985545434 0.9998546711287396 0.0
-0.011051999611083491 0.9999389247872074 0.0
-0.031067892722180995 0.9995172765099175 0.0
-0.0286267907406721 0.9995901694454032 0.0
-0.021057967171173163 0.9997782564242021 0.0
-0.016113931657145735 0.999870162174344 0.0
-0.010123266929137523 0.9999487584204909 0.0
-0.0035215117967834007 0.9999937994581091 0.0
-0.0010799660623993597 0.999999416836482 0.0
0.0025315171700485773 0.9999967957052751 0.0
0.006705421707189698 0.9999775184071534 0.0
0.0036349484078087926 0.9999933935532138 0.0
0.0035197625027188198 0.9999938056167771 0.0
-0.16063898696322437 0.9870132298340429 0.0
-0.27191620213655715 0.9623209334809417 0.0
-0.3290452825654199 0.9443141437156615 0.0
-0.3773564919889586 0.926068074146705 0.0
-0.2924916376596444 0.9562680805606654 0.0
-0.03250292733947045 0.9994716402751832 0.0
0.037306625611177965 0.9993038655411614 0.0
0.009352840673644301 0.9999562612291267 0.0
-0.08374535018213394 0.996487188238199 0.0
0.005901293091725853 0.9999825872183202 0.0
0.35294406041782755 0.935644425097364 0.0
0.3955016859277661 0.9184652505284534 0.0
0.33792451016418196 0.9411732175483415 0.0
0.2486294885660172 0.9685986668457688 0.0
0.14053157265424113 0.9900761976167923 0.0
-0.13325809229689436 0.9910813694331019 0.0
-0.2499449209056693 0.968260056241844 0.0
-0.3365265240912463 0.9416739874197777 0.0
-0.403716687513656 0.9148840561639497 0.0
-0.374282921483772 0.9273145608074816 0.0
-0.09295710952241867 0.9956701139379633 0.0
0.043952662442169825 0.9990336147819274 0.0
0.006139220455614457 0.999981154808528 0.0
-0.07577247968329644 0.9971251332318549 0.0
0.020420882178832846 0.9997914720435648 0.0
0.3566984491303166 0.9342195761104705 0.0
0.394840795373597 0.9187495558141757 0.0
0.33981785074421783 0.9404912696647325 0.0
0.2554900177165371 0.9668116935821596 0.0
0.15022264671114713 0.9886521918324451 0.0
0.058788276045357774 0.9982704736691429 0.0
0.06156514968911375 0.9981030669944648 0.0
0.12086689738557062 0.9926687227450989 0.0
0.11034595706376121 0.9938932386125194 0.0
-0.13626794137511763 0.9906720184568591 0.0
-0.1273870117785335 0.9918530885318327 0.0
-0.06287095656850593 0.9980216645044139 0.0
-0.06537552380229707 0.99786073221045 0.0
0.08896041973002403 0.9960351618901101 0.0
0.09533032708630242 0.9954456935150298 0.0
0.12217871359370043 0.9925081168154689 0.0
0.09313676946256268 0.9956533242921841 0.0
-0.11658866088480652 0.9931802878395682 0.0
-0.09641784296000987 0.9953409463891953 0.0
0.10772897290047642 0.9941802997433657 0.0
0.10044187606615672 0.994942927776418 0.0
0.23724664870680182 0.9714494467945264 0.0
0.25147748001782166 0.9678631499565866 0.0
-0.19738680053770719 0.9803256861744913 0.0
-0.23141025081958824 0.9728562565022724 0.0
-0.10822850558306195 0.9941260436077798 0.0
-0.10515945896986499 0.9944553726483483 0.0
0.039371404648732046 0.9992246456608173 0.0
0.2745443484873033 0.961574438467289 0.0
-0.024036314238388787 0.9997110860632853 0.0
0.007561348661461186 0.99997141259459 0.0
-0.028538922348081544 0.9995926820016291 0.0
0.01219676678130347 0.9999256166736016 0.0
0.005315121145441087 0.9999858746438418 0.0
0.0012540738510214465 0.999999213649079 0.0
0.012434316555206293 0.9999226908975538 0.0
0.04126311955044323 0.9991483147986417 0.0
-0.028157751508905766 0.999603491905647 0.0
0.029528505419389554 0.9995639386090801 0.0
0.009806683113584666 0.9999519133269907 0.0
0.3409218784918879 0.9400916299837812 0.0
0.05753575597962088 0.9983434463068576 0.0
0.059016429989779726 0.9982570114911598 0.0
0.04290897947946515 0.9990789856062587 0.0
-0.0847404841169654 0.9964030561733653 0.0
-0.018454086690583175 0.9998297088426691 0.0
-0.04903758503229875 0.9987969339431314 0.0
-0.19432405281665838 0.9809373896925881 0.0
-0.20778444695608345 0.9781746386014895 0.0
0.18599415250483625 0.9825508512204383 0.0
0.19062657491837903 0.981662624802884 0.0
0.04574481276516634 0.9989531581135724 0.0
0.050396916510038046 0.9987292680232618 0.0
-0.045817772142790064 0.9989498144330733 0.0
-0.03773500997185945 0.9992877808831766 0.0
-0.038945531239989666 0.9992413350119355 0.0
-0.04262558814909144 0.9990911165829391 0.0
0.028597742975537674 0.9995910009082241 0.0
0.02806435071379396 0.9996061185382037 0.0
-0.005490113910475562 0.9999849292110607 0.0
-0.04961117948372657 0.9987686072710903 0.0
-0.0014253769835736029 0.9999989841497113 0.0
0.0279173068221998 0.9996102360319222 0.0
-0.052160630158584756 0.9986387077724653 0.0
-0.022882387159665493 0.9997381638998659 0.0
-0.014650007942047094 0.9998926828751663 0.0
-0.000525447434924826 0.9999998619524871 0.0
0.07554859808265457 0.9971421209274761 0.0
0.06124220510486215 0.998122934469444 0.0
0.09386108176789644 0.9955853038938252 0.0
0.08746341919209696 0.9961677320126504 0.0
0.1322334588634883 0.9912185996827331 0.0
0.13366826926954675 0.9910261317394633 0.0
-0.11791824071622542 0.9930233071315046 0.0
-0.12571432436221647 0.9920664839869107 0.0
-0.08901877703654214 0.9960299480110618 0.0
-0.08771350896639685 0.9961457425220477 0.0
-0.14326220067506168 0.9896847689328853 0.0
0.04653038859740333 0.9989168748884838 0.0
0.03858783057965441 0.9992552123112272 0.0
0.14465793411493363 0.9894817239836213 0.0
0.17386405677870323 0.9847696633022628 0.0
-0.01566327232702758 0.9998773234252336 0.0
-0.04239797586913995 0.9991008015421666 0.0
0.027914740066977077 0.9996103077134574 0.0
0.0035188481864797667 0.999993808834555 0.0
-7.010734191442354e-05 0.9999999975424803 0.0
-0.014487609938229529 0.9998950490717903 0.0
0.009816672975197815 0.9999518153049665 0.0
0.09658181027012502 0.995325049380827 0.0
0.09269133135686873 0.9956948915663327 0.0
-0.098333425408728 0.9951535245616057 0.0
0.12908324587039888 0.991633760838931 0.0
-0.09192100803906507 0.9957663020413384 0.0
-0.0928400541391582 0.995681035446311 0.0
-0.01319708721230313 0.9999129146526265 0.0
0.0014033551469920349 0.999999015296681 0.0
-0.18689303827020687 0.9823802686567616 0.0
-0.1762907030136718 0.9843381471988908 0.0
-0.0855557157939603 0.9963333877247029 0.0
-0.08335690358169175 0.9965197572678992 0.0
0.09910294863594936 0.9950771857356897 0.0
0.08239429728336814 0.9965998092389843 0.0
0.1835677906483755 0.9830070529942672 0.0
0.1953870424872416 0.9807262123692264 0.0
0.005332756506557595 0.9999857807529273 0.0
0.0036324527597434535 0.9999934026217114 0.0
0.06016492141139897 0.9981884502595489 0.0
0.04928045521794654 0.9987849802302357 0.0
0.04312932095059351 0.9990694979201099 0.0
-0.04242931849902767 0.9990994709896047 0.0
-0.05064302912471238 0.9987168185231855 0.0
-0.051863552130396104 0.9986541803649637 0.0
-0.011697078014701028 0.9999315868427789 0.0
0.009509712350265931 0.9999547816631585 0.0
-0.010834638814991134 0.9999413035782394 0.0
-0.005624511570813656 0.9999841823096952 0.0
0.10243415233804704 0.9947397872985607 0.0
0.0982331725841279 0.9951634256764348 0.0
0.3307506694015606 0.9437181754583406 0.0
0.30468186377150974 0.9524541783669801 0.0
0.1049595572757315 0.994476491092918 0.0
-0.14028169657322015 0.9901116329013304 0.0
-0.15841619234234325 0.9873724272045244 0.0
-0.10250597951028675 0.9947323882153615 0.0
-0.006108856790253789 0.9999813407602745 0.0
-0.32235872125006454 0.9466175863747848 0.0
-0.30776128869432184 0.9514636037081032 0.0
-0.09177951603776702 0.9957793532886056 0.0
-0.09591503828607735 0.9953895244729977 0.0
-0.0008428321862717678 0.9999996448168897 0.0
-0.0015764042780018433 0.9999987574740042 0.0
-0.33859489126917625 0.9409322502743834 0.0
-0.3319527144887901 0.9432960274185002 0.0
0.017443075994275234 0.9998478579763314 0.0
0.030443393970202307 0.9995364924621686 0.0
-0.03613666063804639 0.9993468575814559 0.0
-0.013464120006739213 0.9999093546279303 0.0
0.36268829861020585 0.9319105096795691 0.0
0.3586741987035923 0.9334628108201933 0.0
0.03970739543649067 0.9992113503897212 0.0
0.15068746614519796 0.9885814521559363 0.0
0.03306291580869054 0.9994532723435485 0.0
0.14849953628679852 0.9889124772812838 0.0
0.02359487869252906 0.9997216020970463 0.0
0.0995861832992744 0.9950289403308243 0.0
0.09980940044057258 0.995006574643451 0.0
-0.03292610847134653 0.9994577886939163 0.0
0.01490984986681878 0.9998888420104252 0.0
0.04286767906682871 0.9990807585432838 0.0
0.03607827455125843 0.9993489671308036 0.0
-0.04187400528922401 0.9991228991876016 0.0
0.036388312901576236 0.9993377260386884 0.0
-0.10738145056906044 0.99421789567161 0.0
0.12376523412804148 0.9923115271028705 0.0
-0.10369641566735607 0.9946089952226166 0.0
0.12132579869868028 0.9926127394760392 0.0
0.03686342622746536 0.9993203129161201 0.0
-0.123071677693678 0.9923977842325442 0.0
-0.36898656848334654 0.929434727282602 0.0
-0.38322250586189444 0.9236560566579588 0.0
-0.00174100859132826 0.999998484443394 0.0
-0.015469502565756816 0.9998803400859364 0.0
-0.0002502581519238266 0.9999999686854283 0.0
-0.013158377651906361 0.9999134248011524 0.0
0.3410627771578388 0.9400405214869104 0.0
0.3425042650393531 0.9395162736375845 0.0
2.6799781222053304e-05 0.9999999996408859 0.0
-0.12292136192317953 0.9924164140031899 0.0
0.21831644094372316 0.975878031115398 0.0
0.08208352543826644 0.9966254536442593 0.0
0.05336205854074368 0.9985752303698977 0.0
0.24808562601795273 0.9687381081403171 0.0
0.04354537512405453 0.9990514502793666 0.0
0.005109210672116306 0.9999869478979753 0.0
0.010421739137259946 0.9999456922020089 0.0
0.035782809154427844 0.9993595902221672 0.0
0.07692999227900377 0.9970364969688683 0.0
-0.0036273771173553275 0.9999934210459829 0.0
0.0826067451539635 0.9965822222250745 0.0
-0.032121901098349365 0.9994839585855431 0.0
0.019531267427620954 0.999809246602906 0.0
0.033278853787817315 0.9994461055457514 0.0
-0.034467936544619666 0.9994058041408185 0.0
0.003268109120608785 0.9999946597171285 0.0
-0.17338557107504562 0.9848540215397306 0.0
-0.03657179423381993 0.9993310281716059 0.0
-0.033311032323149456 0.9994450335689131 0.0
0.019691412785341977 0.9998061053336877 0.0
0.06008153448293712 0.9981934728368922 0.0
-0.18128212543864886 0.983431131801534 0.0
0.0045368292596409815 0.9999897085371774 0.0
-0.01970525009994029 0.9998058327087809 0.0
0.03352745207555024 0.9994377969425219 0.0
-0.03086887000768413 0.9995234428788796 0.0
0.05669674296235883 0.9983914459456572 0.0
-0.0403521615689457 0.9991855198393907 0.0
-0.021595292360328183 0.9997667944815289 0.0
-0.02293110365858383 0.999737047670536 0.0
0.017776249639448866 0.9998419899907965 0.0
-0.027705767322996053 0.9996161215471887 0.0
-0.019950898455994612 0.9998009610171409 0.0
-0.0535254210706934 0.9985664871700858 0.0
-0.0029562432587455965 0.9999956303033504 0.0
-0.013492348697741286 0.9999089741204539 0.0
-0.00952515476412865 0.9999546346843537 0.0
-0.01721037788672779 0.9998518904782827 0.0
0.3458023522381465 0.9383073767090212 0.0
-0.2961274568659026 0.9551484331192367 0.0
0.34618667621730503 0.9381656491311196 0.0
-0.18672856590915418 0.9824115444524818 0.0
-0.16813102348105075 0.985764656976103 0.0
-0.07983266790762557 0.9968082790259873 0.0
-0.07901961222189306 0.996873061570179 0.0
0.04537047393079024 0.9989702298343507 0.0
0.021757575305026422 0.9997632759392825 0.0
-0.044211365334107154 0.999022199540778 0.0
0.052538214781636526 0.998618914294917 0.0
-0.04315534238495803 0.9990683742485482 0.0
0.003056424599351287 0.9999953291234258 0.0
-0.008299848831009473 0.9999655556614849 0.0
0.05676385723454193 0.9983876323912755 0.0
0.015976555210421857 0.9998723666966741 0.0
0.04987558228504969 0.9987554386794232 0.0
0.005013427625974547 0.999987432692751 0.0
0.020618883134083592 0.9997874082315216 0.0
0.07158601054812594 0.997434430473404 0.0
0.07371661069130221 0.9972792293576493 0.0
0.027891479404508635 0.9996109570110904 0.0
0.01647996091751715 0.9998641962227456 0.0
0.289634705509296 0.9571372615066991 0.0
-0.015459869008527926 0.9998804890836901 0.0
0.29158182659703813 0.9565458893322029 0.0
0.07746767663753626 0.9969948641173545 0.0
-0.039418013414345476 0.9992228080956052 0.0
-0.01346943823942181 0.9999092830019704 0.0
-0.01701687467210209 0.9998552025050397 0.0
0.02445701151916757 0.9997008825581537 0.0
-0.2676638091504693 0.9635123690285772 0.0
-0.019941742821166914 0.9998011436747083 0.0
-0.002680646798782847 0.9999964070599154 0.0
-0.26581991528115867 0.9640227033840632 0.0
-0.03169918074078975 0.9994974546942892 0.0
-0.0074393957041235595 0.99997232731289 0.0
-0.05915273806820502 0.9982489436904175 0.0
0.014364729034705604 0.9998968219570256 0.0
-0.15635543598748475 0.987700854326432 0.0
-0.0356992843056563 0.9993625773962441 0.0
0.07352880119677332 0.9972930940273103 0.0
0.07864075351405954 0.9969030203017447 0.0
0.15438089042200712 0.9880114071570775 0.0
0.1564475265563734 0.9876862717656821 0.0
0.0037924378892494285 0.9999928086815705 0.0
-0.02957533926918805 0.9995625539740435 0.0
0.10126188874989808 0.9948598041366449 0.0
-0.09333654557258518 0.9956346163430523 0.0
-0.07236118163307617 0.9973784935482943 0.0
-0.2320568438812666 0.9727022263816741 0.0
-0.20317408530194758 0.979142630601751 0.0
-0.10507000070801456 0.9944648284133623 0.0
-0.1016306426959227 0.9948222014336097 0.0
-0.08597104185314529 0.9962976362326094 0.0
-0.04731985237325339 0.9988797883486148 0.0
-0.05496682684308489 0.9984881811753218 0.0
-0.01276944932547867 0.999918467258168 0.0
-0.0032529811653685937 0.9999947090427718 0.0
-0.02460728839193964 0.9996971948335134 0.0
-0.0056197147497732145 0.9999842092783923 0.0
0.0770254523786681 0.997029126799143 0.0
0.059833647495850094 0.9982083623309025 0.0
0.06318152429293206 0.9980020515950964 0.0
0.01674056834478292 0.9998598668670993 0.0
0.05437557365474224 0.9985205541147951 0.0
0.07295669775666475 0.9973351093050132 0.0
-0.08232586985704739 0.9966054641392855 0.0
-0.02439823329069142 0.9997023187990978 0.0
0.059747044061028036 0.9982135496605772 0.0
0.055955145467187516 0.9984332835476519 0.0
0.07898080520229737 0.996876136944604 0.0
0.08430125989289763 0.9964403131048393 0.0
-0.058183286378862 0.998305917635549 0.0
-0.050319328566713575 0.9987331801700567 0.0
-0.055317156200308734 0.9984688338801121 0.0
0.04706093106727047 0.998892020574337 0.0
0.23991973178448917 0.9707927288048972 0.0
-0.058889560232137456 0.9982645038744319 0.0
-0.023671859174917483 0.9997197822806162 0.0
-0.06065873316172016 0.998158563601603 0.0
0.015134787934235743 0.9998854625376776 0.0
-0.0890829748007452 0.9960242083406656 0.0
0.3337985695735459 0.9426444265738034 0.0
-0.025051249278949483 0.9996861682095857 0.0
-0.04280078853136203 0.9990836263802414 0.0
-0.07267029238231314 0.99735601898473 0.0
0.08463554911160104 0.9964119749514142 0.0
-0.0962655399388004 0.9953556880936036 0.0
0.034972054159175245 0.999388290619761 0.0
0.0395264526349705 0.9992185244190059 0.0
0.33914754420776233 0.9407331945125801 0.0
0.269144836301767 0.9630997129540093 0.0
-0.3528827412937726 0.93566755361987 0.0
-0.370676330671167 0.9287621104890958 0.0
-0.06950693400558254 0.9975814684150581 0.0
-0.0478978398594213 0.9988522397916526 0.0
-0.0676843219346891 0.9977067868688883 0.0
0.0866722354713582 0.9962368812679027 0.0
-0.07051157508920773 0.9975109612322258 0.0
0.07941548915433375 0.9968416023031833 0.0
0.019091172819892335 0.9998177469520937 0.0
0.002960339030242158 0.9999956181868128 0.0
-0.07588771714841837 0.997116369530659 0.0
0.06953594223020745 0.9975794468302549 0.0
-0.0407334047442839 0.9991700504608504 0.0
-0.05755540431494908 0.9983423137552283 0.0
0.06312214419121387 0.9980058090575945 0.0
0.063132007063717 0.9980051851990082 0.0
-0.025465597804524617 0.9996756990786853 0.0
-0.06917171582396253 0.9976047682975302 0.0
0.05793532447455392 0.9983203384575655 0.0
0.05010998892208083 0.998743705367012 0.0
0.08844693706349109 0.9960808899502525 0.0
0.044202632371293855 0.9990225859766376 0.0
0.037656206335112484 0.9992907535469582 0.0
0.036052286054388774 0.9993499050233869 0.0
0.08169222363244569 0.9966576044951378 0.0
0.08361553144255462 0.9964980897631361 0.0
0.10572053761964298 0.9943958808871916 0.0
0.2029379070003526 0.9791916083700453 0.0
0.23287922022926552 0.9725056651687994 0.0
-0.028544650810345278 0.9995925184344446 0.0
-0.0126803235844362 0.9999196014649347 0.0
0.004483327332077888 0.9999899498375138 0.0
0.03133142524100774 0.9995090503804192 0.0
0.004844026147160179 0.9999882676365187 0.0
-0.004027801744785277 0.9999918883736532 0.0
0.04115855292800569 0.9991526277405633 0.0
0.05367752073177853 0.998558322667279 0.0
0.3850869867691286 0.9228802807629346 0.0
0.34863922458639524 0.9372570037507305 0.0
-0.35583148888651217 0.9345501332281795 0.0
-0.06551926607237611 0.9978513044403647 0.0
-0.02602273540424606 0.9996613512795625 0.0
-0.0929726037060029 0.995668667258404 0.0
-0.03390604494402897 0.9994250247598633 0.0
0.08051785361532136 0.9967531666612259 0.0
0.013148469107731178 0.9999135551437051 0.0
0.0066548357668037225 0.9999778563352876 0.0
-0.018229281658148043 0.9998338328393513 0.0
0.2703802814573033 0.9627536047188134 0.0
0.08772873032218477 0.9961444021205245 0.0
0.3068423231495928 0.9517603630768413 0.0
-0.07655762449178481 0.9970651584185333 0.0
0.013433001407057268 0.9999097731661583 0.0
-0.07695422459159995 0.9970346269400605 0.0
-0.0720130363423897 0.997403690887872 0.0
-0.14725462354822813 0.9890986178555048 0.0
-0.12940780344292685 0.9915914584182727 0.0
0.1040687031811232 0.9945701106599772 0.0
-0.09188127224335878 0.9957699693257182 0.0
-0.11538947612891896 0.993320325372784 0.0
-0.05319717013819568 0.9985840280563714 0.0
-0.08253526093890819 0.9965881449735123 0.0
-0.10589806539032208 0.9943769907568192 0.0
-0.07302343359253262 0.9973302252245027 0.0
-0.16796475839200417 0.9857930005525073 0.0
0.02124814800495668 0.9997742326177242 0.0
-0.10523395950500498 0.9944474917092904 0.0
-0.09709394484897375 0.995275221169333 0.0
0.13624986543660547 0.9906745046525155 0.0
0.0876017750575594 0.9961555747004404 0.0
0.023928221188259123 0.9997136791255612 0.0
0.36493921013359676 0.93103134904635 0.0
0.016310946762921337 0.9998669676590466 0.0
-0.02171967661974584 0.9997640999993617 0.0
-0.0105150516855855 0.9999447153158267 0.0
-0.09056343988374214 0.9958906884575354 0.0
-0.08583146278879226 0.9963096707327177 0.0
-0.3486154410447705 0.9372658503675252 0.0
-0.09470336356218484 0.9955055363633136 0.0
-0.017596721980166284 0.9998451657009463 0.0
-0.00242776617185123 0.9999970529713649 0.0
0.14833524105895954 0.9889371346349476 0.0
0.2954180314593016 0.9553680896328446 0.0
-0.2670820912597067 0.9636737811771896 0.0
0.3018073182870194 0.9533689436038902 0.0
-0.29487914822892414 0.9555345561201773 0.0
0.2645879165540178 0.9643615682997764 0.0
0.01496905369378413 0.9998879574389885 0.0
0.0010211575384286916 0.9999994786185049 0.0
0.04518248253920749 0.9989787501601793 0.0
0.11664879948650624 0.9931732263700814 0.0
0.05264575900392889 0.9986132504923516 0.0
0.0730915374286887 0.997325236397992 0.0
-0.04525938085394542 0.9989752691857379 0.0
0.07411412690462896 0.9972497662036149 0.0
0.048207880522582076 0.9988373242202759 0.0
0.013309777045429147 0.9999114209943805 0.0
0.018651034520149257 0.9998260543271157 0.0
0.17799914525638352 0.9840306419456646 0.0
0.30916494232719927 0.9510084323684093 0.0
0.03189098113320423 0.9994913533004482 0.0
0.0208713133655403 0.9997821704143344 0.0
0.005578647828870916 0.9999844392231317 0.0
0.012835808247078744 0.9999176176198938 0.0
-0.14869299465687855 0.9888834073539557 0.0
0.18587860793435637 0.9825727164502309 0.0
0.12108120508189416 0.9926426052592726 0.0
-0.17818508021247548 0.983996990437305 0.0
-0.2357601442082392 0.9718112750955868 0.0
-0.18523008615925138 0.9826951791788928 0.0
0.14067131161723484 0.9900563529859737 0.0
0.3078027056757495 0.951450205937593 0.0
-0.35116304825760003 0.9363143241125975 0.0
-0.13769775260562364 0.9904742949351893 0.0
-0.09203851787596093 0.9957554475006384 0.0
-0.32305788635401833 0.9463792062722396 0.0
-0.09543129568145188 0.995436018940725 0.0
-0.10091739117919285 0.9948948085891219 0.0
-0.27955835473276747 0.9601287029867964 0.0
0.1546563023938388 0.9879683335663475 0.0
0.09314951371676035 0.9956521320693946 0.0
0.15827290682007963 0.9873954055831546 0.0
-0.09213937118271144 0.9957461203931726 0.0
0.08978331331623389 0.9959613228684931 0.0
0.10072009865779008 0.9949148012399679 0.0
0.23778343536793306 0.9713181959917275 0.0
-0.29519498482154305 0.9554370313820837 0.0
-0.02543453223724899 0.9996764899555618 0.0
-0.1948823921835496 0.9808266173064519 0.0
-0.15977116267048935 0.9871540789455919 0.0
-0.2606898813836239 0.9654225943824767 0.0
-0.001377606887144616 0.9999990510991821 0.0
-0.28186207197056495 0.959454935046175 0.0
0.08879338886253536 0.9960500660580804 0.0
-0.2265668675950409 0.9739956131873343 0.0
-0.3791586670598625 0.9253316730737084 0.0
-0.06506812975389184 0.9978808237912635 0.0
0.17126076327231674 0.9852257360439706 0.0
-0.07170264067087015 0.9974260530589846 0.0
0.10730126690611806 0.9942265527133853 0.0
-0.058141690344835 0.9983083410669499 0.0
-0.0040570960507703676 0.9999917699519505 0.0
0.07766350160001347 0.9969796289389392 0.0
0.36112507223026946 0.9325173897610074 0.0
-0.4086463280103448 0.9126928172192776 0.0
-0.002268602897713858 0.9999974267171354 0.0
0.3475650070839765 0.937655888826341 0.0
-0.23983792744219182 0.9708129421058589 0.0
-0.07539888500270348 0.9971534526542788 0.0
-0.045896526067233226 0.9989461991994162 0.0
0.05181997189913414 0.9986564426830545 0.0
0.05083336355025687 0.9987071488430268 0.0
0.07141443632690933 0.9974467295470518 0.0
-0.262032709298615 0.9650589926308274 0.0
0.03084998466366658 0.9995240259474765 0.0
0.3875623134462105 0.9218435079753079 0.0
0.06618611362925442 0.997807295204167 0.0
0.0014789124175253986 0.9999989064084327 0.0
-0.08124426532809875 0.9966942205868847 0.0
-0.10840762550576584 0.994106526853235 0.0
-0.06275769642635168 0.9980287929409943 0.0
-0.02601308597375494 0.9996616024226008 0.0
-0.05546353183571091 0.9984607136168699 0.0
0.032393723522581984 0.9994751856231061 0.0
-0.00998663493660118 0.9999501323179286 0.0
-0.12771020007330294 0.9918115268523737 0.0
-0.33451629301877445 0.9423899668953281 0.0
0.08397158034771066 0.9964681498642634 0.0
0.27606445236408916 0.9611391252783935 0.0
0.07617321514063943 0.9970945999729104 0.0
0.23286456062472544 0.9725091754863053 0.0
0.22390465276509738 0.9746110539441573 0.0
-0.05408798076527357 0.9985361737747588 0.0
-0.054465238129875033 0.9985156672959399 0.0
-0.053653548713926746 0.9985596109949582 0.0
0.02501536421479293 0.9996870668130108 0.0
-0.2674429070288902 0.9635737083793521 0.0
0.06643784247156354 0.9977905657439962 0.0
0.03809588892142355 0.999274088149636 0.0
0.01409762791162846 0.9999006235057889 0.0
-0.09592831213650356 0.9953882453247285 0.0
-0.020324577162207546 0.9997934344469249 0.0
-0.21760539015528402 0.9760368303375476 0.0
-0.07450994569531307 0.9972202705483284 0.0
0.003746863862449238 0.9999929804809613 0.0
-0.017556776022110334 0.9998458679295071 0.0
-0.018120620085325924 0.9998358080843691 0.0
-0.06602493272846698 0.9978179735092977 0.0
-0.0051820873223899794 0.9999865728953481 0.0
-0.058383459221892045 0.9982942310207376 0.0
-0.01896404266120089 0.9998201663729054 0.0
-0.04927198322235401 0.9987853982059088 0.0
-0.050335846518645457 0.9987323478065838 0.0
-0.20571273369549123 0.978612421337236 0.0
-0.057690956476314934 0.9983344898083247 0.0
-0.138656338205944 0.9903405575231781 0.0
-0.011444766982222552 0.9999345065096625 0.0
-0.10286135316971715 0.994695703229935 0.0
-0.0283117350859311 0.9995991424848384 0.0
-0.05867393167154466 0.9982772008526503 0.0
0.002418164241096383 0.9999970762365774 0.0
-0.004105749306924759 0.9999915713757934 0.0
-0.09191695450428662 0.9957666762222248 0.0
-0.052589206566940015 0.9986162302669929 0.0
-0.04242979329901875 0.9990994508258937 0.0
0.07481257456168984 0.9971976126563138 0.0
-0.05832128948521176 0.9982978649645516 0.0
0.37382053614363003 0.9275010548550814 0.0
0.01431689443057791 0.9998975080146283 0.0
0.05300622834759584 0.998594181715657 0.0
0.27742848365733364 0.9607462914087114 0.0
0.07082019310799441 0.9974890978091672 0.0
-0.3456881762422435 0.9383494470645314 0.0
-0.2773142215012742 0.9607792787904734 0.0
-0.0762122687352101 0.9970916156974905 0.0
0.0046159631404391645 0.9999893463853933 0.0
0.37359557811838146 0.9275916903521682 0.0
0.2124688707594922 0.9771678356138142 0.0
0.04284174941841829 0.9990818707727457 0.0
0.21013567032235375 0.9776722354951967 0.0
-0.08783272595944497 0.9961352379323468 0.0
-0.271859871901686 0.9623368485356875 0.0
-0.03320038978742621 0.9994487151014618 0.0
0.2818196708105764 0.9594673903495721 0.0
-0.0017262615817520332 0.9999985100093658 0.0
0.2660154860704135 0.9639687552875983 0.0
-0.20665854309380832 0.9784131267344814 0.0
-0.23248643218117265 0.9725996395494239 0.0
0.06076400833433771 0.9981521603899601 0.0
-0.3018292722224651 0.9533619933842846 0.0
0.15715147025339266 0.9875745113140563 0.0
0.049297469963992264 0.9987841405704984 0.0
0.022297288905203355 0.9997513845489177 0.0
0.003610233680464751 0.9999934830851512 0.0
-0.34053247385255364 0.9402327553600012 0.0
-0.011523708495978549 0.9999335998667611 0.0
-0.009482668917578546 0.9999550384843309 0.0
-0.03987269102696837 0.9992047680582133 0.0
-0.014783502957456783 0.999890718048881 0.0
0.07718477310974838 0.9970168056758105 0.0
0.17983163521406345 0.983697404172765 0.0
-0.036063916088635455 0.9993494853935494 0.0
-0.29181891092852247 0.9564735873114798 0.0
0.013141572528188194 0.9999136458072199 0.0
0.0009798463995543576 0.9999995199504014 0.0
0.11112353226615494 0.993806601193961 0.0
-0.35649518366671973 0.9342971604486613 0.0
-0.2915539090971469 0.9565543989184162 0.0
0.01076177627622166 0.99994209040893 0.0
0.2315819589417534 0.97281539682136 0.0
-0.19435494599531994 0.9809312692371246 0.0
0.07801944033642247 0.9969518378184533 0.0
-0.0021849933846779983 0.9999976128991054 0.0
-0.002822302324857185 0.9999960172968625 0.0
0.00040504323375914204 0.9999999179699861 0.0
CELL_DATA 1232
SCALARS Stress float 6
LOOKUP_TABLE default
1012.3872611650982 -29.439304435779775 0.0 98.06374580483329 0.0 0.0
1190.4659188842375 0.6117330492907058 0.0 -11.545991279511844 0.0 0.0
1045.3448208794762 -9.159897197215969 0.0 -5.579268803902862 0.0 0.0
985.3120261085053 -8.690871725280545 0.0 8.003740101883341 0.0 0.0
1031.4675658236108 -4.977437552619449 0.0 -111.34480246510734 0.0 0.0
569.2479066529083 -9.39301344524182 0.0 77.58761824933617 0.0 0.0
1029.195860005797 -11.444165292063246 0.0 108.22278409639254 0.0 0.0
1195.1922592763115 2.572157171036963 0.0 11.068611735301007 0.0 0.0
1125.3547816937655 -0.3284142068561664 0.0 -3.4806295387693584 0.0 0.0
952.7199751976827 -11.994219320625803 0.0 9.71891833710981 0.0 0.0
1023.4855019386287 -5.79880622496853 0.0 7.784877747451418 0.0 0.0
977.2900785664971 -11.017211301046132 0.0 -6.547908604464512 0.0 0.0
1140.3559452729417 -7.15171355920387 0.0 -5.160844486727443 0.0 0.0
1070.575661156762 -1.620512115670806 0.0 -13.874026526314607 0.0 0.0
1105.9214463643427 -4.831050229657478 0.0 25.12269368595099 0.0 0.0
1070.7001102615616 -12.165734929698033 0.0 -116.80824567763118 0.0 0.0
586.3855991579685 13.161435422914934 0.0 107.96816270852601 0.0 0.0
1047.3794238101057 -17.591129014048363 0.0 105.43694434433952 0.0 0.0
1025.5018976907056 -7.074655189884027 0.0 0.15857616768282445 0.0 0.0
972.3511874553902 -12.757226993108247 0.0 -13.309001976925416 0.0 0.0
1168.6403938342419 -0.10017324692830698 0.0 13.171803043996189 0.0 0.0
935.0673118126633 -4.663797889187947 0.0 -10.749325323666302 0.0 0.0
615.793586766804 34.212231654834596 0.0 3.3854332189449803 0.0 0.0
610.1897512017297 36.05860156880286 0.0 0.1604459903226813 0.0 0.0
983.6225504540098 5.329850600735426 0.0 -32.88927872704238 0.0 0.0
983.5930631916513 2.2491228507767005 0.0 31.136453343819248 0.0 0.0
986.3177236231188 4.944207189385054 0.0 32.565519805084826 0.0 0.0
605.2585951417252 36.76857454649004 0.0 -1.994979850782215 0.0 0.0
1049.2102123469228 3.7255548074540457 0.0 -4.89465235697436 0.0 0.0
1124.1550134689223 -2.8480713336467147 0.0 0.8479249658731769 0.0 0.0
1087.2210708953326 -1.7225078129321219 0.0 -10.950494793905422 0.0 0.0
703.8042553257197 -47.61300905772211 0.0 -105.85094242090469 0.0 0.0
991.8657862475806 -26.28942947861401 0.0 -38.26179820452505 0.0 0.0
712.4680540090726 -139.2046566605867 0.0 -155.38123875490265 0.0 0.0
713.2029832115888 -142.85475783818586 0.0 -157.47813315140752 0.0 0.0
1031.537980730485 -75.95140069455732 0.0 -14.988430821610207 0.0 0.0
968.7749921243822 -102.04157574902337 0.0 -48.09493984749966 0.0 0.0
973.0338234121546 -100.8283660702121 0.0 -47.541777663720666 0.0 0.0
955.967407305689 -112.84364393724826 0.0 59.737323104394804 0.0 0.0
853.914980475023 -91.03526788543269 0.0 -110.44428525105405 0.0 0.0
1005.4177267680302 -103.15504119206014 0.0 67.41054831097134 0.0 0.0
858.5987568291766 -92.95495494848262 0.0 -112.04265995688509 0.0 0.0
1037.4913166053784 -37.65770980431847 0.0 -43.73713782667995 0.0 0.0
946.1760855065436 -111.28203860331325 0.0 64.32490608096545 0.0 0.0
976.4770689685838 -38.57604806814288 0.0 -16.160952828094917 0.0 0.0
1024.3794516894127 -99.64057982499816 0.0 77.10807761263308 0.0 0.0
582.0052849144957 -96.24967152348066 0.0 -156.31653270703734 0.0 0.0
665.7217430054914 -69.66161897540277 0.0 -123.11520833627392 0.0 0.0
1078.9764946971025 -77.26425218572837 0.0 -16.672493064241593 0.0 0.0
681.8091815153682 -70.43388167697793 0.0 -135.44594689597778 0.0 0.0
1057.3592052193846 -25.649040464640052 0.0 -45.7800131182362 0.0 0.0
986.9496260756039 -58.19094838123755 0.0 -28.311747930087765 0.0 0.0
946.2560269888651 -65.85340660892717 0.0 -16.617233092619724 0.0 0.0
911.187739437486 -29.74703562829086 0.0 -1.1327144544818262 0.0 0.0
872.0461109802038 -66.06324521070428 0.0 19.451012387826033 0.0 0.0
992.7906579388243 -88.94278459134983 0.0 9.128200942619749 0.0 0.0
909.2885586045087 -22.095251395835533 0.0 6.1459497559286165 0.0 0.0
680.091989399096 -126.94143911757826 0.0 157.91676484408913 0.0 0.0
992.9103006196516 -88.80509643351172 0.0 -6.319320605663105 0.0 0.0
1005.1062509335152 -25.1250052454472 0.0 27.24141776169939 0.0 0.0
1020.1837701833969 -53.050296888496064 0.0 -50.89456432117634 0.0 0.0
907.1385413207917 -95.60834750040095 0.0 -14.449052218861366 0.0 0.0
752.907763986982 -42.84303099253572 0.0 -56.03868437704078 0.0 0.0
825.2611614762487 -19.753678317866104 0.0 -12.929752099702606 0.0 0.0
994.956933471218 -91.38344326251945 0.0 -13.0152256305063 0.0 0.0
1035.289198523217 -37.590856247132024 0.0 -55.77218574201462 0.0 0.0
883.1194033328676 -87.53994827430802 0.0 24.197055520411016 0.0 0.0
846.1302896366573 -43.13571197460112 0.0 19.025643898666004 0.0 0.0
912.0060435980575 -98.29516755726797 0.0 -14.585501025737758 0.0 0.0
964.0551764940499 -72.82417894342831 0.0 28.22352630197965 0.0 0.0
1001.9475315672341 -40.03751573829845 0.0 42.874716038052114 0.0 0.0
931.5789822118209 -62.4786846678013 0.0 -12.013931303173624 0.0 0.0
997.7854390045524 -38.25378384225178 0.0 33.19273384633373 0.0 0.0
1000.1814854716749 -51.947988966342336 0.0 43.00642278241935 0.0 0.0
895.9772444936104 -74.78509815870564 0.0 -12.08397090277161 0.0 0.0
1014.7037725762358 -54.952152266361566 0.0 -70.2096478203307 0.0 0.0
991.0902282501473 -78.01453461677141 0.0 -30.54995230560562 0.0 0.0
1009.2044401864468 -16.384439150528294 0.0 -32.75637179959358 0.0 0.0
732.7793468417003 -70.51123868760033 0.0 -77.69186622663345 0.0 0.0
910.4279692217914 -55.21067430137322 0.0 -14.655715016105859 0.0 0.0
893.7103258220599 -30.964450650639947 0.0 -4.333026574250514 0.0 0.0
900.4355708133875 -50.27037164308888 0.0 -11.694278106980935 0.0 0.0
905.1465359249568 -52.62260103418032 0.0 12.357885919393109 0.0 0.0
885.7132316479317 -32.85663283045517 0.0 5.7393599537144055 0.0 0.0
718.4282962579987 -71.93666200461243 0.0 -85.01414793729296 0.0 0.0
903.533193238215 -56.59729583435478 0.0 -16.545215565330665 0.0 0.0
1014.2894734706488 -69.34711889578438 0.0 -53.30360509454241 0.0 0.0
974.9613942410004 -100.8937668928171 0.0 8.597792000080394 0.0 0.0
1007.4683018675504 -67.12609918229361 0.0 -46.8445666171472 0.0 0.0
949.182617812421 -16.03778016727142 0.0 8.074183211554132 0.0 0.0
1023.8053798860582 -31.85696468070205 0.0 -71.35954079208561 0.0 0.0
999.2885103969646 -68.26655308330328 0.0 -51.61589592514598 0.0 0.0
731.3199979277731 -106.3525009657616 0.0 -111.3636880824897 0.0 0.0
931.1773521516255 -78.80679848556895 0.0 -27.98152526009977 0.0 0.0
967.284027703723 -59.52114694180233 0.0 -16.91046859369421 0.0 0.0
972.2170701195322 -35.28622644159651 0.0 -30.29153060588689 0.0 0.0
517.8098238332783 -121.81666258227571 0.0 -205.86547322015065 0.0 0.0
1116.2979917083023 -21.67577524417385 0.0 -44.06317184130306 0.0 0.0
331.0364506897625 -73.20992912140122 0.0 -203.8680580645239 0.0 0.0
600.1763748630685 -103.06595141080388 0.0 -184.12140898989384 0.0 0.0
702.6719563238202 -108.70549893167464 0.0 -117.34883303762462 0.0 0.0
927.3803368001535 -81.28135368613943 0.0 -29.519876781000765 0.0 0.0
1004.2974206066446 -48.36022936035994 0.0 47.985365397353426 0.0 0.0
1012.7261372443589 -32.33409586467383 0.0 32.039095452675 0.0 0.0
933.3484619685617 -36.209129570124674 0.0 -7.953042722238233 0.0 0.0
960.9371826540379 -46.47987608709792 0.0 20.443241080877637 0.0 0.0
908.504403221708 -56.39005923541447 0.0 -8.718003459692753 0.0 0.0
1031.9804341442837 -8.635094835489497 0.0 -29.80197746505753 0.0 0.0
806.7174997510915 -28.485233786625088 0.0 20.822551703245654 0.0 0.0
871.7273891389839 -14.2098610164864 0.0 8.673001880303094 0.0 0.0
1035.830775848926 -25.55832200760409 0.0 51.33984599710803 0.0 0.0
1042.0764012444183 -17.434853360466718 0.0 55.151497918095195 0.0 0.0
881.4989070434963 -69.21418853478798 0.0 38.441795845096124 0.0 0.0
395.0718536097181 98.012445483472 0.0 46.785998145113744 0.0 0.0
926.9480627738511 23.128329606871546 0.0 84.9587421620748 0.0 0.0
1033.9677468847224 28.786367857131722 0.0 111.54403520527991 0.0 0.0
934.6478019271261 35.45984932276065 0.0 95.90427032989655 0.0 0.0
1014.1395694669545 -66.57581405706082 0.0 52.2888743767026 0.0 0.0
966.1717110902447 -15.143443639950249 0.0 17.517533107030385 0.0 0.0
972.1272991701308 -37.2829224928044 0.0 6.956897223165729 0.0 0.0
913.2851144536571 -11.361727539152923 0.0 6.261036331124672 0.0 0.0
903.1403081370481 -18.657517616202995 0.0 2.384768483891219 0.0 0.0
1035.8467163098621 -15.966973698474419 0.0 45.06653698007661 0.0 0.0
1023.6929662064944 -14.280422129830356 0.0 -72.35585936972707 0.0 0.0
975.3989177297476 -1.3169023559759694 0.0 -79.58956581886174 0.0 0.0
537.9695978212286 51.81120103247257 0.0 -53.226240768841535 0.0 0.0
583.9470656321504 39.74553699061252 0.0 -25.35803556676282 0.0 0.0
992.5302676389352 -97.26129045120035 0.0 3.041119614636633 0.0 0.0
922.9912303719797 -104.88539312353106 0.0 22.87033802129691 0.0 0.0
605.3123387414357 10.651134150941175 0.0 -45.320725183655625 0.0 0.0
859.162692492733 -67.93004297066301 0.0 49.792431732599916 0.0 0.0
1055.9192683207898 -17.855488567951966 0.0 47.19042830876099 0.0 0.0
918.3198411523963 13.33314950508759 0.0 -79.54163450414833 0.0 0.0
451.9781425222961 63.66612691603895 0.0 -35.25544351633055 0.0 0.0
1017.5737608134467 -63.734627444749435 0.0 55.79774836188224 0.0 0.0
1005.8019598372398 -89.5642331936873 0.0 9.213298164243886 0.0 0.0
933.8042148316675 -103.56242847679147 0.0 -15.793246313016324 0.0 0.0
853.843510748812 -30.22968940340661 0.0 27.698416556557216 0.0 0.0
911.2768958707646 -83.42032704953027 0.0 45.010971173715134 0.0 0.0
805.4143613647798 -117.3769963692057 0.0 83.69015428891386 0.0 0.0
343.33272468307484 20.848359907706552 0.0 -122.18243630490208 0.0 0.0
1010.6613301215577 -88.54409355843967 0.0 12.054297826014809 0.0 0.0
937.3937075403398 -108.11892947837322 0.0 -16.6834327484903 0.0 0.0
836.4314073863084 -11.790389450488874 0.0 17.980886228331485 0.0 0.0
1023.7210861619737 -46.8083908016863 0.0 68.99177433736789 0.0 0.0
962.9597937454762 -11.363982537228367 0.0 -84.27600753478187 0.0 0.0
948.2497621428304 13.751904600797673 0.0 -79.60124696052443 0.0 0.0
901.7957454578216 -86.54977320107622 0.0 54.29970791814733 0.0 0.0
788.3247664468491 -125.15620982635761 0.0 92.69916697848353 0.0 0.0
1047.9758616324928 -11.747401537341034 0.0 56.75964487076211 0.0 0.0
1029.0668294189566 -22.57288305790587 0.0 68.16042827831303 0.0 0.0
1027.7938321258682 -32.66818881171099 0.0 -97.22033214920361 0.0 0.0
828.6189870792326 -33.12467165271261 0.0 36.47256039210306 0.0 0.0
729.1607457943668 -9.124279280640962 0.0 -40.472846589422176 0.0 0.0
678.67583495414 -15.776811422497843 0.0 -74.66135950753838 0.0 0.0
1045.3352658410931 -23.834553118305678 0.0 -23.584049925774842 0.0 0.0
939.6465579733768 -23.357239577747066 0.0 -2.576846501503839 0.0 0.0
1024.613284838684 -46.013418342320506 0.0 72.98865282322258 0.0 0.0
533.228849495815 74.23343307988753 0.0 -60.08892515496883 0.0 0.0
527.4455121646462 35.43084933881525 0.0 -33.5186859703135 0.0 0.0
444.8226494585014 62.73066394228806 0.0 -33.2890184568634 0.0 0.0
2431.3600070458565 229.99158092580467 0.0 144.49261850337163 0.0 0.0
2458.586657094581 241.57893227009185 0.0 207.916632481757 0.0 0.0
1471.6417615514895 248.89330132799287 0.0 74.3234618048328 0.0 0.0
13.239830693831976 -611.0504553833134 0.0 48.27693845789852 0.0 0.0
-25.577684521797796 -95.92888401565453 0.0 -47.98178329091556 0.0 0.0
7.356171208965463 -619.3057456117737 0.0 47.247994312136406 0.0 0.0
-26.584993002132556 -102.86270544622805 0.0 -33.949632455752194 0.0 0.0
-1.8790999460902071 -599.4991791176857 0.0 -19.363798742632834 0.0 0.0
9.86727342723404 -572.4562159198638 0.0 -27.17671304687528 0.0 0.0
2481.3704828483387 220.1820427701307 0.0 -207.49144396049923 0.0 0.0
1453.517723081205 253.1692372050617 0.0 -50.97127286323127 0.0 0.0
2516.284033199889 221.91358394267388 0.0 -181.45163378120924 0.0 0.0
1035.4980535605048 -17.128915492750593 0.0 56.52582950553808 0.0 0.0
799.4115115874959 3.4134375063036373 0.0 12.977495861821046 0.0 0.0
937.2502488585428 -7.65415799344072 0.0 -4.534211345281145 0.0 0.0
968.3654383629503 -24.377322777910877 0.0 -7.044522742957259 0.0 0.0
263.3867100879826 -35.56531136570665 0.0 -134.4767946061496 0.0 0.0
1108.0627328835392 -7.40475445521264 0.0 18.456759838706308 0.0 0.0
1038.4186654295202 -7.328440828706164 0.0 47.683114720137006 0.0 0.0
1015.5444010431933 -65.49528580652037 0.0 -66.90104979441328 0.0 0.0
994.6154107802995 -29.007729395945717 0.0 -17.275173907118745 0.0 0.0
940.1208560788976 -21.77670440678844 0.0 -7.25725328498201 0.0 0.0
1017.0487388794459 -5.4644051277206245 0.0 -14.571060262288073 0.0 0.0
1051.1336971959672 -11.513912687910704 0.0 3.2708736167346744 0.0 0.0
968.5687714062207 -10.780843633231484 0.0 1.4887859764779523 0.0 0.0
1011.958404628029 -18.502033062490284 0.0 33.13691693665443 0.0 0.0
1033.724676557547 -18.947157278205452 0.0 16.280529440399828 0.0 0.0
594.7110704371455 -27.543822466605576 0.0 -137.34643142317373 0.0 0.0
1015.4852296860767 -15.700798615361123 0.0 91.02168417232451 0.0 0.0
1026.749910521472 -7.3438155577620705 0.0 66.80342812834465 0.0 0.0
1026.455993657544 -25.980501412971137 0.0 -20.93971029804721 0.0 0.0
970.9798897471895 -15.943551576117272 0.0 -8.959683721312453 0.0 0.0
1025.0874962167438 -4.175252464380833 0.0 66.82023654932688 0.0 0.0
624.362000180563 14.481506707219921 0.0 26.291223617855145 0.0 0.0
673.5792146490908 -64.36303425339023 0.0 92.47205917548682 0.0 0.0
996.5379753537298 -7.291889652249324 0.0 -106.34144881059977 0.0 0.0
712.5998491514113 -13.427680156552412 0.0 24.989430588883668 0.0 0.0
811.338165379881 -9.982928087285245 0.0 27.16279258609844 0.0 0.0
1016.1620332812548 -60.40245704657957 0.0 70.44202955800064 0.0 0.0
1002.287681926757 -15.290135267495486 0.0 109.08663818547244 0.0 0.0
1041.934148694581 -8.955881332002093 0.0 60.55818655334438 0.0 0.0
1025.4169342173668 -25.963875996523086 0.0 72.16260918894955 0.0 0.0
577.4909574859038 28.702164190286 0.0 74.72111391448315 0.0 0.0
645.1318142976326 -27.34305404894326 0.0 -80.17317776606062 0.0 0.0
631.386087160769 -23.30554004791466 0.0 -108.56984412815733 0.0 0.0
741.2232933544346 -41.25040295914914 0.0 -80.0095751000899 0.0 0.0
1025.440135382965 -38.07660848541747 0.0 -95.79379283300865 0.0 0.0
1052.1823633840986 -24.9263489034999 0.0 -108.60066711909995 0.0 0.0
1044.1169390617638 -59.21345146901746 0.0 -87.17197194823626 0.0 0.0
1043.5575586410794 -7.332164577611309 0.0 27.300062398257612 0.0 0.0
997.015096182935 -4.657544992058604 0.0 70.96017450127587 0.0 0.0
1001.4805265248568 -12.64959996461522 0.0 94.97505068203641 0.0 0.0
1753.8072078386779 71.17797609897445 0.0 25.94581679292755 0.0 0.0
1840.8944755937337 125.05595757470041 0.0 -9.859105672226333 0.0 0.0
1860.261210298422 190.40336756942844 0.0 3.6993544431499292 0.0 0.0
-40.4246297458978 -310.38631047227 0.0 -37.14697241262232 0.0 0.0
46.271362584462196 -267.65652589669094 0.0 7.706586063608865 0.0 0.0
-48.55286648596484 -301.6755640804968 0.0 -34.85896254765633 0.0 0.0
39.87695219309845 -254.55522806463443 0.0 10.720189474243819 0.0 0.0
1003.438101943982 8.095475305363948 0.0 -100.48659356978843 0.0 0.0
939.4922036182659 3.844156778777517 0.0 -91.32621687218425 0.0 0.0
549.7031870767172 25.70021495146736 0.0 77.13650413200817 0.0 0.0
490.49714148577226 51.99310043653392 0.0 49.746511343326475 0.0 0.0
963.3667758319069 -0.13588693308861366 0.0 99.95825263995658 0.0 0.0
1040.2157633427566 -15.40726550402843 0.0 -56.90312835851694 0.0 0.0
998.2584448801189 -16.482397621250414 0.0 24.556837133551852 0.0 0.0
1021.7652889894777 -22.66534033898762 0.0 11.25703741820327 0.0 0.0
567.6714967919922 18.032863181067484 0.0 47.20802042939555 0.0 0.0
615.8771691585911 30.545597102462608 0.0 46.68806714691483 0.0 0.0
996.1007185612065 -5.113963880516053 0.0 71.51511715741225 0.0 0.0
437.04136953686657 46.03671966662196 0.0 -70.41908225455224 0.0 0.0
580.0953480198871 1.4414991029539692 0.0 -107.76102106519127 0.0 0.0
1040.5996082433765 -19.654132559838445 0.0 102.41781025777112 0.0 0.0
980.7505317853357 -21.294754412139582 0.0 -18.831970480683577 0.0 0.0
1021.9859672255033 -39.4730300633957 0.0 -34.21300004533333 0.0 0.0
1042.0862281193831 -31.35581416906041 0.0 -61.12220472758528 0.0 0.0
1032.4467883447958 -11.771413738137085 0.0 -52.61696665494695 0.0 0.0
829.4887063643633 -119.14451410204651 0.0 -77.83429608522901 0.0 0.0
840.9253263485525 -84.57515549629574 0.0 -83.82446087653803 0.0 0.0
922.9203874915595 -99.54447625865504 0.0 13.54446717543865 0.0 0.0
1022.2615701438465 -102.9071643713865 0.0 1.4550289489377428 0.0 0.0
830.1598163440186 -122.075875777678 0.0 -79.21135957569308 0.0 0.0
837.2954607686358 -85.37621241177771 0.0 -81.62979885301048 0.0 0.0
926.9216503825281 -52.4487734083321 0.0 2.9513507245979165 0.0 0.0
924.8952441599195 -40.97402412834106 0.0 -8.44360729944714 0.0 0.0
1029.922565402028 -93.13751119600266 0.0 -63.644380781624164 0.0 0.0
840.2987789488745 -144.63002351830016 0.0 -102.3809382144308 0.0 0.0
1028.2427240231416 -94.51693744887928 0.0 -63.23961095072413 0.0 0.0
839.3693703110503 -146.3975227780847 0.0 -104.83614674841604 0.0 0.0
845.3862756063289 -131.83403508010963 0.0 148.76488902615716 0.0 0.0
864.7291434641485 -112.75922857882478 0.0 79.26455984797329 0.0 0.0
901.4640459759636 -35.05337671625813 0.0 -2.282722036936286 0.0 0.0
848.4301699632108 -43.068641727190084 0.0 -26.38298091220863 0.0 0.0
1008.5295231228446 -56.63860653930618 0.0 -45.42837349903634 0.0 0.0
1019.2064771861255 -18.42918161231853 0.0 -51.5052661447507 0.0 0.0
1040.3443610116365 -59.1730981204102 0.0 64.9287158211899 0.0 0.0
1050.3053800217103 -91.73305430709416 0.0 3.465852768841103 0.0 0.0
1039.3978057109298 -62.56302447552156 0.0 -61.04092220965776 0.0 0.0
1041.1612581594088 -97.32117535868213 0.0 4.883711603147232 0.0 0.0
868.1153061692511 -100.82621302653155 0.0 123.75956760803768 0.0 0.0
842.9406494698032 -128.9534194856493 0.0 95.50264081479246 0.0 0.0
1032.0643940211614 -58.626065375001815 0.0 59.7027987475505 0.0 0.0
1059.0961833338326 -91.05712203979658 0.0 9.656176009371762 0.0 0.0
703.0219584614476 -116.96837860769693 0.0 124.93411432022344 0.0 0.0
822.6063985999629 -89.15666164157449 0.0 96.94954244090202 0.0 0.0
953.3372614383643 -26.685253500073884 0.0 -14.91837891221194 0.0 0.0
1001.2408469107345 -42.12422655123055 0.0 -27.30555021842187 0.0 0.0
689.41154452482 -115.25324354448873 0.0 124.40411796737338 0.0 0.0
802.3536389663432 -84.06028966494529 0.0 100.09216613325825 0.0 0.0
830.9497473108833 -29.05378161532468 0.0 16.308295232884667 0.0 0.0
912.2245495754278 -30.70485851186561 0.0 3.615164459415477 0.0 0.0
469.8551370295959 -49.92111764721335 0.0 -161.77835640039538 0.0 0.0
465.0027260510807 -66.46447911896814 0.0 -169.34891376179215 0.0 0.0
820.2746020858413 -65.25904340291777 0.0 -43.256912489465634 0.0 0.0
814.9000273066819 -33.613500634444506 0.0 -35.85089454070921 0.0 0.0
889.9796972381071 -92.93074089606836 0.0 23.258365664253745 0.0 0.0
958.1789101779809 -73.56901275350589 0.0 0.4701135710033716 0.0 0.0
1029.588342690323 -88.72074010025352 0.0 -50.70840916843079 0.0 0.0
968.9460535478449 -81.7127328135511 0.0 -28.359875487864873 0.0 0.0
826.8527738894943 -34.54029740104096 0.0 -23.858535614305076 0.0 0.0
992.023791512582 -45.39801666092649 0.0 -48.11454493117457 0.0 0.0
1021.348490217516 -61.871448718314014 0.0 -69.43235774347919 0.0 0.0
963.2912260372995 -12.304864505812532 0.0 -8.571284369059299 0.0 0.0
905.2208039730937 -17.43467347281762 0.0 6.121004148862802 0.0 0.0
824.2652813917034 -69.61818896778749 0.0 -40.83429685211339 0.0 0.0
822.6223926532164 -31.347466048217655 0.0 -36.72511501036235 0.0 0.0
823.3970907044355 -69.05433839694018 0.0 79.51823095774863 0.0 0.0
801.6521292696232 -88.29575935211994 0.0 59.586841701204676 0.0 0.0
956.9415372809902 -44.911492328021836 0.0 17.09844264495393 0.0 0.0
957.609079188271 -52.15407894802871 0.0 15.657688543088936 0.0 0.0
1043.2723501766761 -19.354005421803095 0.0 40.407449417770636 0.0 0.0
1027.1125070330884 -34.595700010356154 0.0 53.20668414802032 0.0 0.0
970.5036764825561 -40.96416446502724 0.0 10.914323389675234 0.0 0.0
959.5698109523933 -27.645034533283876 0.0 20.624222031090856 0.0 0.0
824.3759228855106 -53.71112553635595 0.0 -61.37863047687054 0.0 0.0
815.3968723954249 -97.07070238316811 0.0 -58.84321127082343 0.0 0.0
961.781215883077 -68.86153246083478 0.0 26.322551686107367 0.0 0.0
975.4697307224409 -69.57333896130984 0.0 15.20014000248666 0.0 0.0
1029.6136818761574 -22.67007141859898 0.0 -93.74272073059585 0.0 0.0
1020.6082948967293 -43.30419195646141 0.0 -75.15587238674733 0.0 0.0
1023.0873506129612 -88.19424616994962 0.0 -44.57316648719126 0.0 0.0
967.614200609859 -74.78315456499604 0.0 -28.97779845044306 0.0 0.0
853.2197060011064 -63.660013593834435 0.0 24.721907293552178 0.0 0.0
937.5451338513211 -75.85462014735594 0.0 10.787922854075816 0.0 0.0
1033.7322290310997 -82.54735456076241 0.0 57.4372864316226 0.0 0.0
977.7945316865396 -77.27927612968756 0.0 35.82568816304596 0.0 0.0
805.999237966039 -74.69517154804157 0.0 84.28603935021357 0.0 0.0
791.3087727486011 -84.8750504374255 0.0 66.48427666842008 0.0 0.0
1048.2141452821818 -73.75890574908954 0.0 62.04427914071093 0.0 0.0
983.2937204083445 -80.20723649919404 0.0 37.99394198490045 0.0 0.0
902.7618472914031 -77.97167168842651 0.0 -10.338293019253062 0.0 0.0
979.3818823524989 -65.13184728292111 0.0 17.43112366725667 0.0 0.0
746.1706464033869 -33.18635359795016 0.0 34.80710464608474 0.0 0.0
832.454570141243 -58.89255571527906 0.0 -55.99537860125723 0.0 0.0
827.7478485591663 -96.5725192666145 0.0 -55.42634055725463 0.0 0.0
1001.4312183348051 -32.000981962733306 0.0 40.4297833941189 0.0 0.0
962.1506156619898 -56.4532340931479 0.0 18.842748821870725 0.0 0.0
1022.2110268527721 -36.569534261207934 0.0 85.32153198323577 0.0 0.0
1027.8967319698615 -27.046815624401006 0.0 67.35863116010486 0.0 0.0
950.6591210385862 -40.982506631403 0.0 -7.857937594700432 0.0 0.0
904.3785842152801 -45.22948046766783 0.0 -1.6094795364905485 0.0 0.0
946.9806104438804 -33.599510253439405 0.0 -3.1149026047693273 0.0 0.0
949.7356770874857 -26.085454095069906 0.0 19.5381411793901 0.0 0.0
822.1514533010011 -45.331318333119725 0.0 27.61513731895309 0.0 0.0
887.8127341054341 -28.457064704609877 0.0 10.260102064610788 0.0 0.0
934.4836590395021 -19.131437704440827 0.0 -0.6547613288760972 0.0 0.0
869.5789802697993 -21.51951312714027 0.0 8.63065617482635 0.0 0.0
1045.5992251641278 -13.071169500413419 0.0 -23.21415191702954 0.0 0.0
998.4695628586773 -15.677503222663063 0.0 -18.18768406570223 0.0 0.0
1029.114918567511 -18.248260558273273 0.0 81.06399496612957 0.0 0.0
1018.1835114508167 -14.370240278992014 0.0 71.0436145101799 0.0 0.0
1003.7384328496414 -44.55092626219181 0.0 48.76476206630459 0.0 0.0
1025.4615070849127 -32.017034977220476 0.0 59.09318362986403 0.0 0.0
1065.474156289968 -15.42188934364043 0.0 32.37703262618278 0.0 0.0
1022.1090984933008 -38.95054507838108 0.0 -89.02457655255793 0.0 0.0
1037.3838654352749 -50.6934170153242 0.0 -79.98397998656202 0.0 0.0
735.4684327311636 -30.330915023702175 0.0 38.56670532730252 0.0 0.0
1026.4193153584315 -27.48226954516923 0.0 72.84201373558753 0.0 0.0
922.9148103473349 36.779977502812415 0.0 -81.06531116960416 0.0 0.0
341.07589887072675 -23.068756962022903 0.0 -159.69337428465496 0.0 0.0
716.8638296367625 9.851279253914356 0.0 39.34468916591556 0.0 0.0
687.018745695369 -68.98301306657535 0.0 88.09930215800429 0.0 0.0
1007.9623711012118 -18.896588450275544 0.0 76.48946499881768 0.0 0.0
1066.7386041449977 -4.757952427736882 0.0 8.665465998564349 0.0 0.0
1071.9454112029807 -13.974975847254882 0.0 30.055141726035753 0.0 0.0
1005.8115653933528 -7.4345252992677615 0.0 -3.5962604316201645 0.0 0.0
999.2871650799035 -20.516954010641257 0.0 -10.580763054739625 0.0 0.0
1021.0323427769606 -2.2215150760524693 0.0 -12.70468682698893 0.0 0.0
1016.5841530985665 -16.499045860136448 0.0 -11.562586332520192 0.0 0.0
874.8596496474987 -10.46016000435958 0.0 11.442910739264343 0.0 0.0
904.4996265446451 -13.083930726243068 0.0 -11.263655653376878 0.0 0.0
999.08223364549 8.954748691418501 0.0 106.87466378491766 0.0 0.0
998.9981039232292 12.353695228301376 0.0 109.51275051561484 0.0 0.0
507.05910330378396 14.563472673467658 0.0 86.42912073467895 0.0 0.0
446.77966797347443 63.250122937777846 0.0 82.97541700046487 0.0 0.0
1040.2970778578863 6.596280908871847 0.0 123.55045049105316 0.0 0.0
994.6557250037577 26.75193859893693 0.0 109.67804349251475 0.0 0.0
987.4683062283241 5.561777291908754 0.0 99.43765763885708 0.0 0.0
494.5467630111406 1.6244452095544943 0.0 112.9640778414201 0.0 0.0
984.080321497815 17.326368098001694 0.0 -103.00412619652222 0.0 0.0
1018.2190589171665 -15.608496138601822 0.0 -98.1940899126201 0.0 0.0
1003.205781898686 -23.711223379358557 0.0 -91.30285967049664 0.0 0.0
594.9815483602982 4.279138187661687 0.0 -60.6740503791294 0.0 0.0
670.8895255055625 20.421371073203005 0.0 -43.282637537408775 0.0 0.0
667.4902026507509 -13.824140453822508 0.0 -49.928505017698946 0.0 0.0
284.0360502195995 -80.43920518984218 0.0 132.280138912239 0.0 0.0
1360.4295046605944 122.65931837002586 0.0 21.044978554030134 0.0 0.0
1335.5916363621393 111.13822900534291 0.0 -41.27904457719295 0.0 0.0
1339.6986026972377 109.19811814929739 0.0 36.10813082356294 0.0 0.0
239.51008625946815 -75.35327525000305 0.0 -151.27996360823562 0.0 0.0
251.30380552839614 -73.66147497776691 0.0 -118.36160635107134 0.0 0.0
1149.2743739303755 -1.4706688104080285 0.0 -10.129159439081961 0.0 0.0
1067.398328580589 -1.3585139265909447 0.0 -32.151628302026985 0.0 0.0
878.1366559186763 -9.828919498500397 0.0 11.103357119909585 0.0 0.0
879.9757678034033 -24.53603437015181 0.0 -17.515044523428678 0.0 0.0
1105.8909727047287 -8.15787097684273 0.0 22.26819405521035 0.0 0.0
1064.6593728175058 4.514714532884341 0.0 36.10195236463811 0.0 0.0
807.9864447452709 -3.8524544069638296 0.0 -5.513746749301323 0.0 0.0
797.702453279106 -18.513997405695477 0.0 17.155013662443483 0.0 0.0
1105.092865194108 -3.359251144483096 0.0 -19.90812602511819 0.0 0.0
1087.8929605922908 2.038797075544437 0.0 -16.378484326714077 0.0 0.0
1052.1630340717013 -1.219730499268735 0.0 -49.42692054639804 0.0 0.0
1081.2943686963852 -11.7235976836742 0.0 -39.07823922447432 0.0 0.0
816.414705706059 -8.930206695203879 0.0 -1.2530743851724306 0.0 0.0
314.83042017303546 130.82831766334252 0.0 29.036403283759835 0.0 0.0
696.7869985625273 20.345395101284538 0.0 9.256805457710684 0.0 0.0
318.8080041524285 140.23996120336477 0.0 -1.5160705632673495 0.0 0.0
747.0505490353104 1.3648856934828473 0.0 -31.475835998571288 0.0 0.0
314.67838872691453 138.62126698033396 0.0 -1.2303363622394061 0.0 0.0
313.3033324597272 137.32495394298974 0.0 -1.433538586999342 0.0 0.0
704.3472256294256 2.3555270182550885 0.0 -2.994049636987172 0.0 0.0
708.1244671233874 5.396661513915603 0.0 -0.6921325973623369 0.0 0.0
309.2743299127826 113.98562404326753 0.0 -37.04354893634686 0.0 0.0
306.48816709816407 113.83397033003259 0.0 -34.482566829126206 0.0 0.0
889.9214773977825 17.349024846963175 0.0 -50.76213985870991 0.0 0.0
903.2886588227278 14.751928687057273 0.0 -60.868199452416704 0.0 0.0
433.0662701876421 97.68165967214537 0.0 -0.7509382911978 0.0 0.0
436.43958796279094 92.52978551091131 0.0 -48.505991240405265 0.0 0.0
427.03277980733185 94.98156018593767 0.0 -1.399605884192746 0.0 0.0
431.15968304414463 85.49349809815192 0.0 -46.44377047298184 0.0 0.0
813.6818773380028 4.224948178334159 0.0 27.26302348567563 0.0 0.0
822.4491563786634 7.511593563432029 0.0 26.59654713178087 0.0 0.0
915.8870127783352 0.6054150064703094 0.0 61.73762193244945 0.0 0.0
818.3392581831401 3.0352857587844255 0.0 -25.763943176155223 0.0 0.0
823.017895691979 7.662132918202758 0.0 -28.975347557763435 0.0 0.0
929.595779000021 1.5838185405700074 0.0 -70.15708698734244 0.0 0.0
440.09749012962266 94.73906192181468 0.0 1.2178562301364124 0.0 0.0
552.7821444507357 37.29015405996415 0.0 -32.94583575871119 0.0 0.0
946.141856293772 32.447746839994466 0.0 -100.00591723367437 0.0 0.0
1057.245592137473 38.096438663636434 0.0 -122.2793861761511 0.0 0.0
382.3467046905251 74.79102518425387 0.0 -55.15934284249919 0.0 0.0
370.61896375484514 31.755415765774686 0.0 -123.46466795952988 0.0 0.0
423.46256206606853 81.91848768226026 0.0 -50.45464521034291 0.0 0.0
431.5076129536005 49.284761723728025 0.0 -112.3735445623555 0.0 0.0
454.8665817298455 -37.18942938965816 0.0 -150.00360478267098 0.0 0.0
466.48253630741556 1.2188699978606792 0.0 -138.57244193201083 0.0 0.0
337.7533737053577 -36.096079172567116 0.0 -159.0628167011017 0.0 0.0
1069.5079222225063 58.418709791210574 0.0 -98.98401707618903 0.0 0.0
371.03188637625345 28.744740202135475 0.0 -111.9599258435367 0.0 0.0
664.414323951882 20.324937425011058 0.0 28.55998886651248 0.0 0.0
997.0207338928145 -1.4443143934002478 0.0 35.2521104160856 0.0 0.0
1005.4167544377863 3.065002025868239 0.0 30.804211110757457 0.0 0.0
1007.3489645738179 -56.09850067443415 0.0 62.59752579903623 0.0 0.0
1140.7003919463014 1.5748025877201712 0.0 5.409819957909091 0.0 0.0
748.3927535327085 -52.657875550891106 0.0 50.698088869246334 0.0 0.0
646.9432042189803 -34.356669152905226 0.0 76.26010923256956 0.0 0.0
755.915715538978 -32.56642867449057 0.0 73.13029020810899 0.0 0.0
1128.0002883573131 -2.266911379273324 0.0 1.9394821728312175 0.0 0.0
1194.497381075281 -1.0078463158511113 0.0 3.2070942433302654 0.0 0.0
1125.6244095288366 -7.288849420775307 0.0 0.1250484437432707 0.0 0.0
1069.163020578719 -5.7133338912207705 0.0 16.905109152462966 0.0 0.0
1190.752061628353 0.26131997260955586 0.0 -6.953967433707884 0.0 0.0
774.5056271773383 -54.029733146728006 0.0 46.663460404753906 0.0 0.0
781.887303980034 -40.37427724784692 0.0 62.59911416802069 0.0 0.0
1003.9826408178566 -57.371928087810204 0.0 57.792983406738486 0.0 0.0
1028.3582146993772 -22.39613712535771 0.0 92.55479355580756 0.0 0.0
1023.1541657703966 -36.30815923027859 0.0 89.34801108979403 0.0 0.0
1038.0600876059182 -50.020844187926116 0.0 83.91095214223222 0.0 0.0
1177.0056164173636 2.9532770371681636 0.0 -4.53163926438852 0.0 0.0
1004.6676318043305 -28.411239253639735 0.0 -97.80899400895015 0.0 0.0
1013.7856732253008 0.4859360673173114 0.0 -85.10459722602737 0.0 0.0
1037.1626559568826 -1.0512643718388404 0.0 -64.26527233745402 0.0 0.0
999.1800405967236 -17.228665829156398 0.0 -75.43162101015434 0.0 0.0
1049.947718261497 -3.3811754526171853 0.0 -25.1559932069312 0.0 0.0
1056.6325006875381 4.284653977878406 0.0 -20.648550790697474 0.0 0.0
1012.6303017276583 0.11757506476936896 0.0 -33.71723403779731 0.0 0.0
1072.3209768285835 -19.43837175199252 0.0 -32.977887612979224 0.0 0.0
1085.4907105918835 0.6076385788533685 0.0 -20.83824731262461 0.0 0.0
1075.4256410860592 -15.731528240246462 0.0 -12.33473187385674 0.0 0.0
1031.46558828598 -7.963758930684094 0.0 -17.148945387175935 0.0 0.0
1036.8088063398275 -30.9458691758349 0.0 32.14041028168442 0.0 0.0
1072.4413511522334 -10.589000010461916 0.0 6.2550039251558305 0.0 0.0
1120.6485200530371 -13.612904281726458 0.0 9.756847435849036 0.0 0.0
1107.628166476018 4.538115509047543 0.0 9.368398136055864 0.0 0.0
554.6494758029705 43.72052066580733 0.0 -34.889940588935175 0.0 0.0
1079.0544210403184 -30.744659404933316 0.0 101.38079028863747 0.0 0.0
1022.8563297331181 -58.69001263769138 0.0 78.80362690630653 0.0 0.0
1030.1261901056528 -18.996490876801204 0.0 99.83835873411581 0.0 0.0
1037.2127240531222 -49.66343620193294 0.0 87.4652597165305 0.0 0.0
651.9944593921763 -5.427021903514429 0.0 73.73608890829394 0.0 0.0
665.8052935096758 -48.43935786716105 0.0 113.8351318664524 0.0 0.0
599.4873115164978 -12.613242795753393 0.0 103.16821581718304 0.0 0.0
583.2038636290031 -17.304172863604236 0.0 103.63966843439988 0.0 0.0
1031.8466883569592 -32.97827164911814 0.0 101.31157812293829 0.0 0.0
1040.3521817886678 -19.742761496918035 0.0 106.66846548820867 0.0 0.0
1068.9753297107295 -46.024940734715244 0.0 87.34807842999037 0.0 0.0
1138.1669195958766 -52.61214075876728 0.0 10.514540250917547 0.0 0.0
1048.0048186170231 -61.75323008067983 0.0 60.86922742000115 0.0 0.0
509.21647563324353 64.56315365261317 0.0 43.95697467032471 0.0 0.0
966.8649157233033 7.642775586818118 0.0 100.84090744063259 0.0 0.0
1008.1452033719851 -5.323196144397571 0.0 100.88189202083423 0.0 0.0
617.2382198965216 -59.71462901080528 0.0 119.83914811927472 0.0 0.0
1139.5365008453448 -53.495242348655665 0.0 7.124877145651948 0.0 0.0
1035.1086386540906 -65.39742013235679 0.0 68.19842038823082 0.0 0.0
632.7195659315553 35.635003913964 0.0 -54.93731076256873 0.0 0.0
1033.165455897866 -33.11638351035879 0.0 -101.00439831670046 0.0 0.0
1040.6890206008927 -26.469944766818855 0.0 -106.00295060442937 0.0 0.0
1068.5810534845473 -47.88055693503901 0.0 -83.97942415088335 0.0 0.0
1130.6729702962296 -57.80915259087038 0.0 -2.7087355747124184 0.0 0.0
1033.4219542293476 -66.01104482102664 0.0 -63.41210547686697 0.0 0.0
571.291613904347 -35.17168729709155 0.0 98.83639645375088 0.0 0.0
694.6955029413682 -47.454796820154456 0.0 104.24116396870522 0.0 0.0
686.0368347876291 -91.16361758828586 0.0 149.89233031410828 0.0 0.0
638.3970060608473 -58.69504404829806 0.0 113.52818365407478 0.0 0.0
986.2795128130715 -16.55335316089753 0.0 5.011793140723863 0.0 0.0
1069.9046458957416 -11.903237959552996 0.0 -12.604373598977746 0.0 0.0
900.8343189357612 0.7109465320808113 0.0 -32.40277632534051 0.0 0.0
918.2069894310172 4.200543328998265 0.0 -35.90446210882123 0.0 0.0
530.2950208841751 61.22041142841361 0.0 0.7628590057267973 0.0 0.0
474.94096758408824 71.20201336199491 0.0 -32.404210834643656 0.0 0.0
703.0200374490752 12.305313730865379 0.0 -7.289731260372908 0.0 0.0
737.4296143027235 -4.310358894022016 0.0 20.703283822336573 0.0 0.0
1049.5251488997703 -2.1555852207210364 0.0 27.023883696430836 0.0 0.0
1067.1507707477115 5.123815146623031 0.0 22.59464258646219 0.0 0.0
1048.7917350266625 -3.3341706477416437 0.0 27.699318696561456 0.0 0.0
1072.7349983268573 5.896275406891334 0.0 22.611596255706477 0.0 0.0
681.5892393477692 9.764741223849768 0.0 -5.47325602005229 0.0 0.0
510.1038681875035 65.24235288819023 0.0 3.3720168766800263 0.0 0.0
471.10286708130286 71.28551024956954 0.0 -29.93264612872589 0.0 0.0
360.65075443372456 81.33907519480125 0.0 -79.19266452100213 0.0 0.0
334.2153337244385 73.10806438711273 0.0 -75.45920557535143 0.0 0.0
870.0961853435522 9.926584984559668 0.0 -38.85074578211239 0.0 0.0
831.8177099299375 23.36268774914126 0.0 -43.06159064737264 0.0 0.0
393.9807113563938 106.94731601243791 0.0 -20.68338049129044 0.0 0.0
370.14796194402885 126.56751513757042 0.0 -22.535464919130177 0.0 0.0
358.12183129633746 92.95947364129889 0.0 -28.667891152767538 0.0 0.0
852.020425079174 3.0169962111568225 0.0 28.360738393222213 0.0 0.0
866.0619030555671 17.283771413891714 0.0 69.1178038892859 0.0 0.0
392.6115574766668 109.70706011244748 0.0 -22.837249009580038 0.0 0.0
364.2207406038323 127.77106875416342 0.0 -19.598883545809624 0.0 0.0
350.3367082096468 93.71021447730675 0.0 -31.611994029309297 0.0 0.0
843.2392002337517 1.7972568887784632 0.0 -26.63382889172404 0.0 0.0
832.0417083649396 5.137596604151327 0.0 -33.927597795352746 0.0 0.0
881.5632160506982 35.20802530538111 0.0 -74.15791096911086 0.0 0.0
1141.7051641664923 2.9979787809283494 0.0 0.2820380088705116 0.0 0.0
1112.4620608385233 -5.60911379888347 0.0 -19.99477821687177 0.0 0.0
1150.57135309382 -2.4398439479725766 0.0 -13.842116284521975 0.0 0.0
1105.6552161254895 -3.3687656813518174 0.0 -16.57841221546312 0.0 0.0
351.8141977611641 -103.85918004535651 0.0 -147.0481994888145 0.0 0.0
286.9479048192285 134.67167285083198 0.0 -10.022505320760828 0.0 0.0
291.27133826935244 137.84794550800942 0.0 -7.033034903758993 0.0 0.0
801.5540811442406 6.127025115525271 0.0 -25.039299236327857 0.0 0.0
807.4688821840094 8.03852181278711 0.0 -28.50874115738162 0.0 0.0
1251.6579461604601 69.51112172113835 0.0 88.55693583352554 0.0 0.0
370.1208650292516 -86.71608150717299 0.0 -145.46837845309008 0.0 0.0
350.9929191543326 35.8000655334191 0.0 109.51410490654452 0.0 0.0
1045.8158645145922 68.36542353258409 0.0 97.17865557425614 0.0 0.0
506.83324308969077 -120.31632197961426 0.0 212.06213081589544 0.0 0.0
881.3207789486498 -102.94481527910875 0.0 -124.9924775594198 0.0 0.0
1058.9488196501504 -38.78973138365154 0.0 -8.543147316378276 0.0 0.0
872.955530550331 -102.93475725445444 0.0 -128.25558019969895 0.0 0.0
1066.4485029479981 -39.69063364398778 0.0 6.050156491276479 0.0 0.0
1097.988071692198 23.533171216860012 0.0 -121.72707255612363 0.0 0.0
1113.390375012109 -3.1503667264803425 0.0 -81.43794539368182 0.0 0.0
1055.0479046302273 -5.775412398382912 0.0 -103.47350782521957 0.0 0.0
1059.115630683552 -32.1423264523022 0.0 -29.751235554763035 0.0 0.0
434.9282979665846 -26.558877931392402 0.0 -153.6167370757121 0.0 0.0
516.4452913965367 -9.914802855060117 0.0 -145.46466067805076 0.0 0.0
511.14489238308954 -1.3256650987003127 0.0 -112.37248327085307 0.0 0.0
495.4851284302155 -97.64184812999821 0.0 218.5530917241583 0.0 0.0
1095.229823627756 -13.210120184450545 0.0 29.851842892055004 0.0 0.0
1044.4474869169212 -2.8827685652460104 0.0 26.576995160336896 0.0 0.0
1067.3620025568016 -6.729670114290229 0.0 32.36268012232602 0.0 0.0
1068.844915227508 -12.423067429327318 0.0 20.965666716024092 0.0 0.0
767.1823745796788 -125.03859873830629 0.0 138.12186228336097 0.0 0.0
889.0336953285741 -97.77702777961059 0.0 119.73533269816912 0.0 0.0
290.60048326586457 39.480159692629705 0.0 107.17402565266956 0.0 0.0
389.65086718394514 69.02402588554699 0.0 103.78936748921008 0.0 0.0
1075.9601464601783 80.05807751024412 0.0 -123.96437151047539 0.0 0.0
690.2919133547648 -120.19149574465578 0.0 169.37936886295984 0.0 0.0
502.9161207562122 41.21230805578227 0.0 -54.91553020835511 0.0 0.0
473.98981663382494 54.46285634780935 0.0 -83.66204973712938 0.0 0.0
981.8287393936289 2.6160681460833075 0.0 -106.83613378700565 0.0 0.0
1003.8392026094839 4.926879246336398 0.0 -106.2026428941591 0.0 0.0
851.0909569815345 -9.185906560279875 0.0 -12.016141113210434 0.0 0.0
913.0539752407153 -11.052159246154531 0.0 4.711203302096105 0.0 0.0
1080.1192360259809 130.21524172358914 0.0 -76.86487785420906 0.0 0.0
191.70118743496275 56.37039879715754 0.0 -70.63391330971612 0.0 0.0
1085.939360990138 -3.617240987439743 0.0 -2.056383647162424 0.0 0.0
1088.905071108852 -1.429457223100087 0.0 6.309427443616759 0.0 0.0
301.95236707128754 138.09359872501724 0.0 14.214484089563594 0.0 0.0
912.9866670299559 5.565499195865925 0.0 -33.093360432879294 0.0 0.0
899.5100514073681 -6.047729119762948 0.0 -62.00186308859559 0.0 0.0
1062.1959566885307 -15.85933732159765 0.0 -89.84754838658898 0.0 0.0
476.03182741668036 -22.70639524687897 0.0 131.40757893770342 0.0 0.0
1051.8418452998776 -3.804431326207009 0.0 -31.698741098093684 0.0 0.0
1070.7836809792564 -15.440430400136961 0.0 -36.735081617437494 0.0 0.0
1059.4239789523665 -3.9131551074690947 0.0 10.888394402579001 0.0 0.0
998.5607059869063 2.8082560578830567 0.0 -9.389646462030996 0.0 0.0
1023.1169862990168 -3.459823445575182 0.0 3.937502966484451 0.0 0.0
1026.1621966073023 -11.447857081423649 0.0 -11.53297295046106 0.0 0.0
1051.615960800663 3.1249588843821243 0.0 108.84085934323126 0.0 0.0
1044.2744905227823 36.06520102473672 0.0 125.8345078884644 0.0 0.0
1051.9302016035294 86.31847942995569 0.0 110.65149064164217 0.0 0.0
1031.6535190809375 35.85817228792939 0.0 98.6863318925417 0.0 0.0
961.111307527998 2.832211229518407 0.0 29.461354006492922 0.0 0.0
962.8448366560556 0.029754995007579055 0.0 72.85316208056229 0.0 0.0
1039.7303363879855 -10.997964029455716 0.0 -52.860258585805994 0.0 0.0
971.8699976582271 -20.054291413909368 0.0 20.953449606488782 0.0 0.0
986.4816753974718 101.54332577676752 0.0 -76.7195245398571 0.0 0.0
957.8179034688426 1.7725684975747527 0.0 30.125033207539385 0.0 0.0
960.6682004489859 1.2592829693334124 0.0 72.30648902260566 0.0 0.0
560.5235615642591 45.13192410009904 0.0 24.510449372140325 0.0 0.0
548.8472551360915 41.842364767551544 0.0 21.897036292644 0.0 0.0
684.4948550431017 15.495330944053308 0.0 3.768014471429541 0.0 0.0
744.3848053099464 6.130078853699217 0.0 -10.764019086461683 0.0 0.0
802.7016616061192 -25.11458998528866 0.0 -33.457747048954154 0.0 0.0
751.4781005590954 -2.2940442789947326 0.0 -7.521536821720704 0.0 0.0
1091.893316015241 8.190447017424106 0.0 120.21735524815061 0.0 0.0
1079.3295768799126 7.939952991766688 0.0 24.350767967730395 0.0 0.0
1087.2937956848843 -2.839185274327633 0.0 19.717950147472084 0.0 0.0
1085.6526282282907 -6.584325468808061 0.0 32.46818585080023 0.0 0.0
292.6429806040912 124.1897566633549 0.0 29.04907221441751 0.0 0.0
917.1194052583901 -10.655333996457614 0.0 8.902023442723658 0.0 0.0
872.3682312842814 -14.30344093538065 0.0 2.4240211569371213 0.0 0.0
872.6287882619347 -7.7717182625120245 0.0 -5.106664057139088 0.0 0.0
876.0687532557528 3.4544126970871503 0.0 42.02151764458647 0.0 0.0
1151.8022277660616 -5.239177383387073 0.0 12.339731912761778 0.0 0.0
270.96109898285624 129.68445145512916 0.0 7.182196518940493 0.0 0.0
1025.4893162107305 109.95226710901747 0.0 -54.54939864884426 0.0 0.0
1058.5646281981478 83.67801215556034 0.0 -103.84294225198435 0.0 0.0
265.16056282860706 95.12626416390073 0.0 -45.48707469508098 0.0 0.0
269.9720340123504 65.24936166108223 0.0 -97.96638176940708 0.0 0.0
1061.9371427346834 1.5818067570300514 0.0 -6.691459363254365 0.0 0.0
1025.590983254805 -4.647833687278421 0.0 9.252840508054481 0.0 0.0
276.70107363332266 132.23654775786076 0.0 24.031168200036902 0.0 0.0
292.54115577527847 104.77139499856537 0.0 42.94715211426979 0.0 0.0
364.5397035611842 80.71030481390136 0.0 44.415282385080374 0.0 0.0
373.2689247747287 110.28353677383265 0.0 42.85227640355395 0.0 0.0
921.293865753402 28.99492834219177 0.0 73.92378942938787 0.0 0.0
903.0059830008862 47.27544348151051 0.0 81.54769503813039 0.0 0.0
1139.8667696311293 -34.152671887575025 0.0 -108.90992327452362 0.0 0.0
697.4866417235656 -105.10274724703044 0.0 175.27642414938774 0.0 0.0
1132.0358564962812 -34.127569311582704 0.0 -111.75734863958758 0.0 0.0
1137.6973993040224 -36.56125291854528 0.0 118.49565869656408 0.0 0.0
494.00614500789857 21.319680213094017 0.0 111.51479590330085 0.0 0.0
407.82513224017225 51.54219195927257 0.0 81.90143016054188 0.0 0.0
845.845031345165 -17.06541555860781 0.0 7.085910638022996 0.0 0.0
301.2441326099346 138.72494793427828 0.0 -10.842164551859549 0.0 0.0
289.23221321278606 137.51592818478872 0.0 -8.47003820952806 0.0 0.0
827.0438997335601 29.395815671231958 0.0 -12.384776010053491 0.0 0.0
816.4787442264135 52.78021370081882 0.0 -17.656699946307434 0.0 0.0
917.8252285417052 15.191939927644341 0.0 -72.64194884922227 0.0 0.0
865.1760628861729 6.465039997610461 0.0 -57.616198215843276 0.0 0.0
330.1908096482155 119.44081882294921 0.0 -37.01159418211366 0.0 0.0
274.2984826378735 105.8445214688382 0.0 -53.45017754046475 0.0 0.0
1112.201250628435 20.55909943823025 0.0 112.55569626363867 0.0 0.0
944.9266956798289 48.42007749524083 0.0 -5.070976485853702 0.0 0.0
994.7387846084215 59.79921171475951 0.0 -2.09380249488032 0.0 0.0
970.3645590564103 115.73767067983289 0.0 -18.818769476996625 0.0 0.0
264.3028757367372 121.65620506574567 0.0 -13.12644196888819 0.0 0.0
470.73916998341673 -5.144880884464129 0.0 148.90423518887735 0.0 0.0
1156.2114585647873 5.905030906796583 0.0 7.413265779220523 0.0 0.0
1106.0915640163007 -7.310105716658143 0.0 28.25971260149618 0.0 0.0
177.32288799407334 80.52995750730143 0.0 -19.415676791483374 0.0 0.0
1031.8587134969312 141.4192308293827 0.0 -25.749023598999326 0.0 0.0
1065.7833540892448 163.82916495098482 0.0 4.922767508619016 0.0 0.0
1098.9029610008117 6.631132874373407 0.0 10.717682728955962 0.0 0.0
1088.1826650930925 -11.212547005082286 0.0 36.999852673592876 0.0 0.0
828.4699722179948 -12.000851956362169 0.0 13.354269327229684 0.0 0.0
874.4673496769432 -7.868561333149216 0.0 3.3201654910962954 0.0 0.0
1107.805984448209 0.9423180962712081 0.0 -20.18459104729909 0.0 0.0
1149.2354074822101 160.3887208004045 0.0 -38.58634632944932 0.0 0.0
909.6201567391802 -76.47001208270893 0.0 150.08527498218987 0.0 0.0
688.3152981889839 -59.248807802277724 0.0 202.70785433261918 0.0 0.0
259.42667563898556 -112.71692256909512 0.0 -202.29334566021146 0.0 0.0
1343.135265408628 113.57440140818704 0.0 54.761176181626816 0.0 0.0
248.5261641344359 -117.23024172747917 0.0 -192.45657716093487 0.0 0.0
452.2302875998387 9.234340630375385 0.0 107.17549928487296 0.0 0.0
1048.1806526924356 35.312937072243926 0.0 107.37721457620874 0.0 0.0
1099.7873409280614 50.04272832788837 0.0 112.80676583971511 0.0 0.0
513.8036248679551 -39.14785372753565 0.0 154.14464745883637 0.0 0.0
748.3199560599313 11.064259130473744 0.0 13.441031806485338 0.0 0.0
1193.0681454403275 -2.2495686828922885 0.0 -5.202568745716656 0.0 0.0
285.41898781578635 147.89824222872647 0.0 -0.6543695030495965 0.0 0.0
287.84349673601486 132.74977907838166 0.0 11.020662275705025 0.0 0.0
292.98979181968855 143.53897668313033 0.0 2.5254997412745164 0.0 0.0
287.69370914132105 145.66871384363992 0.0 0.42674402423660307 0.0 0.0
293.7075138472857 146.67886340493305 0.0 2.871901666366308 0.0 0.0
691.938344439332 10.51528456267161 0.0 11.182319432390837 0.0 0.0
793.1727039156374 -6.068472014894155 0.0 1.9695239889321008 0.0 0.0
1184.711013583108 24.122814387239202 0.0 56.42266249434981 0.0 0.0
1159.5959503636716 69.46480641464655 0.0 40.48665843883215 0.0 0.0
1147.2665859201575 52.45052734607572 0.0 35.78596545841672 0.0 0.0
327.78156753732367 -77.1415595663213 0.0 185.8110862092508 0.0 0.0
1150.1403060357939 38.055264025596045 0.0 -61.34598433392061 0.0 0.0
1217.6273384394246 82.18481217435982 0.0 -26.67821805854262 0.0 0.0
952.5400970347387 -12.233794038235771 0.0 11.312983816602863 0.0 0.0
908.906503669663 -15.173738581008763 0.0 -14.182441238204158 0.0 0.0
904.008029329542 8.575243908024675 0.0 30.389601646289314 0.0 0.0
889.0046930466949 1.581972023310982 0.0 25.804735302786558 0.0 0.0
957.7473559144856 -0.8056012601107341 0.0 70.9807713247702 0.0 0.0
920.487073518665 22.581860117436634 0.0 74.29233549378907 0.0 0.0
513.5897058798439 66.74605563029859 0.0 2.1623549701909166 0.0 0.0
478.09186038523256 83.42573659185769 0.0 21.62927008503992 0.0 0.0
514.1753743405296 59.426688470061364 0.0 46.671518245197774 0.0 0.0
428.84160694295485 67.33738143560477 0.0 27.562750382417807 0.0 0.0
902.946521381939 5.61293448517489 0.0 31.124623742021083 0.0 0.0
904.7076873873906 2.3920165401515874 0.0 29.45663558022944 0.0 0.0
964.0014035315216 0.017012542833867883 0.0 72.89610422803727 0.0 0.0
911.5877245077869 13.494259411878431 0.0 75.28774200504964 0.0 0.0
931.8002639327262 -4.101162905679985 0.0 -34.77326687276712 0.0 0.0
904.1472054893727 10.224068088453578 0.0 -34.27209353141282 0.0 0.0
980.518165454748 11.604555768239038 0.0 -71.20529142645799 0.0 0.0
1023.7333034500397 -2.9264184170797307 0.0 23.264621554047316 0.0 0.0
1004.1793922956406 -25.763783296247823 0.0 3.4395551773835895 0.0 0.0
459.30574162615403 -100.87954931220182 0.0 -138.90863674865096 0.0 0.0
452.5790453956155 -129.44406697913706 0.0 -235.34342934280147 0.0 0.0
648.6091007885863 -89.88990860074827 0.0 -156.2608442839188 0.0 0.0
1108.1923134075662 95.71552444962958 0.0 254.55052216450616 0.0 0.0
1144.2690485830599 6.169913024164259 0.0 43.56905018517809 0.0 0.0
1122.2345857338062 -52.58832352046704 0.0 69.35887153515641 0.0 0.0
975.2067315323213 80.76623421167992 0.0 95.54423283660873 0.0 0.0
948.3274380641424 15.702291941774206 0.0 74.37232753481317 0.0 0.0
1004.3186568369472 56.368489209055326 0.0 61.508685694630806 0.0 0.0
314.75064000075594 95.17155397198809 0.0 52.42345924633808 0.0 0.0
319.08018577475644 96.89618336910384 0.0 53.830357524395 0.0 0.0
301.05623646533024 103.52918693910729 0.0 60.01070466907855 0.0 0.0
263.12646763067823 112.43824118259735 0.0 25.83283217439 0.0 0.0
452.51722582716565 -111.49931864942226 0.0 -150.73810161479122 0.0 0.0
649.9156585599283 18.651425361625144 0.0 -28.644065572714087 0.0 0.0
675.0749054565619 19.21391191479006 0.0 -19.945940133567554 0.0 0.0
674.511403068705 -3.651954946300748 0.0 -28.85508935207651 0.0 0.0
1201.8390174587362 170.67748574561716 0.0 82.90363455815184 0.0 0.0
1190.6994236347653 141.96020841164142 0.0 49.65408246098048 0.0 0.0
750.9169734929966 4.322719691057614 0.0 -16.22059426767881 0.0 0.0
829.3263384914267 13.12794906115397 0.0 -35.53969855212782 0.0 0.0
156.20137641756563 -34.709854449532415 0.0 146.01963277912108 0.0 0.0
188.30301059972308 18.12313409357705 0.0 102.52611091317775 0.0 0.0
363.6948394672255 120.39763184703403 0.0 -1.236050626475119 0.0 0.0
313.51413400666104 109.7958931316293 0.0 -18.452841474735767 0.0 0.0
739.9649091882985 10.6042726661247 0.0 -18.987430212553317 0.0 0.0
830.5114431625097 18.762703956204433 0.0 -42.50561823033967 0.0 0.0
359.13127869498567 124.68225256103997 0.0 -0.15245144492559692 0.0 0.0
314.99660942262904 113.34923871543259 0.0 -16.384732599908013 0.0 0.0
118.23054344513744 -66.13229349940218 0.0 -65.0839363359109 0.0 0.0
1419.141304812799 194.25609682332072 0.0 -41.50413363985797 0.0 0.0
1411.548973121503 217.89891713241653 0.0 47.55310680321713 0.0 0.0
1220.9519030829842 219.05796225963306 0.0 4.031389282584997 0.0 0.0
748.9253806900659 1.6518441546203633 0.0 -23.67144337718332 0.0 0.0
849.6105791014699 -13.30597592953086 0.0 5.641268822588136 0.0 0.0
829.7965556216047 -12.761286137695379 0.0 -19.766897025424047 0.0 0.0
798.3410723756193 -2.8848072282889348 0.0 10.579354377285105 0.0 0.0
142.76765568859656 -16.753323209121902 0.0 72.31765319673738 0.0 0.0
1089.6331133908468 -3.2827065019147312 0.0 -20.900244509528875 0.0 0.0
1068.9427955847052 -8.442691743972546 0.0 -6.717254324197897 0.0 0.0
1097.4948017760469 -2.8066099903881536 0.0 -11.210302359302737 0.0 0.0
1051.4936915978883 -10.926313707904797 0.0 -29.183928846498524 0.0 0.0
1231.1095962993686 22.93316259220512 0.0 -49.95405395248395 0.0 0.0
1216.5388195837709 170.2843017046462 0.0 -62.34314057099029 0.0 0.0
475.55270584656836 -100.12590189280368 0.0 171.41316040090288 0.0 0.0
495.5379244708059 -95.97006241155415 0.0 179.98347895248435 0.0 0.0
1252.8393298182718 19.868336210450025 0.0 -22.810754174702133 0.0 0.0
187.46123007075565 -45.195175064052094 0.0 -161.65089090438713 0.0 0.0
110.9716394251231 -20.848749852257754 0.0 -53.93348927359378 0.0 0.0
139.80116042841811 26.88184506074642 0.0 -88.09099109810619 0.0 0.0
1255.5864000159515 149.4492718132364 0.0 -96.89202094422001 0.0 0.0
1264.8530693405603 222.01806313365995 0.0 -4.262834281733177 0.0 0.0
1169.8009267438013 180.1512396325163 0.0 -73.18260628180113 0.0 0.0
1242.579080837505 17.223593938099214 0.0 26.753914156040285 0.0 0.0
344.07754833485177 83.36724334457068 0.0 -74.44947868404668 0.0 0.0
970.2151792503208 61.36517084373054 0.0 -66.76906844767322 0.0 0.0
988.8838731259599 25.671519775194042 0.0 -93.92123251876806 0.0 0.0
1001.9287380607842 66.44628512478056 0.0 -89.70710791618713 0.0 0.0
917.9227664060638 66.84823895260863 0.0 -60.49721660206218 0.0 0.0
231.8708517487048 55.78970203730736 0.0 -73.47578448715683 0.0 0.0
321.2781046940015 12.278334687266778 0.0 -139.49550303075375 0.0 0.0
317.5850432536042 2.5169671013000823 0.0 -120.09671302239624 0.0 0.0
215.02854057709578 49.76156481090081 0.0 -100.35990480897411 0.0 0.0
1135.3852653402296 134.44730361478096 0.0 -48.46048159485252 0.0 0.0
1131.8211233202169 75.42196788052661 0.0 -111.93651098632499 0.0 0.0
1163.7040455871154 96.5952187132749 0.0 -54.05610407184837 0.0 0.0
1079.3838227175788 144.0581539267708 0.0 -90.62887460385029 0.0 0.0
1088.7271417363695 86.54223045497616 0.0 83.6829051160005 0.0 0.0
1182.0618837960328 102.68680339839364 0.0 76.84010091739768 0.0 0.0
1106.0708912747086 146.07889451383397 0.0 85.79259376146993 0.0 0.0
1040.9277074698098 130.0107009126464 0.0 85.54997810226908 0.0 0.0
1058.7375828771899 121.67289256481723 0.0 6.639225747096229 0.0 0.0
202.49141199160613 70.6263834603102 0.0 73.39245759369211 0.0 0.0
238.49132330705876 92.51960529466045 0.0 25.09625433559473 0.0 0.0
1115.476993810936 -33.19792373903664 0.0 89.05607510213846 0.0 0.0
1069.3088026108492 -22.936879611362883 0.0 61.494466047300925 0.0 0.0
1181.2305823943502 10.614176912087942 0.0 64.21337933044714 0.0 0.0
1104.4002603180274 118.89533929639728 0.0 55.92279767177875 0.0 0.0
1107.0326140076932 96.22004317036465 0.0 118.4895006985856 0.0 0.0
378.3294966568154 117.97696869396131 0.0 2.050320720372185 0.0 0.0
318.29616714106146 116.25146830802287 0.0 27.883839292882087 0.0 0.0
325.84472675032083 119.50918780640887 0.0 22.03225139582386 0.0 0.0
1120.362073257547 -22.401107350795655 0.0 87.71088169253001 0.0 0.0
1091.229181349342 -19.70939530536532 0.0 28.20047371862832 0.0 0.0
1084.4566896848382 5.779048420004983 0.0 82.09453177611597 0.0 0.0
277.02181294725597 59.102231747276605 0.0 78.94735562401364 0.0 0.0
290.24109558748955 17.97915732047278 0.0 140.99017544691057 0.0 0.0
623.3425572513596 -51.61167723523519 0.0 145.83810391559945 0.0 0.0
496.84709137100697 -84.58465667264701 0.0 168.37665370625095 0.0 0.0
510.7501849347171 -38.48152732611945 0.0 166.98893231785036 0.0 0.0
1019.2931000053809 125.33919777624942 0.0 54.183971118031494 0.0 0.0
1036.4955384110383 122.32691994723768 0.0 91.78468570870818 0.0 0.0
1065.6067321212042 111.35082972289885 0.0 32.98154921561282 0.0 0.0
299.86924589834956 56.43265436762423 0.0 98.85371260439742 0.0 0.0
313.90917180867996 8.155549021907433 0.0 130.07860952844473 0.0 0.0
186.8649972696277 22.350693361174798 0.0 104.02306329003909 0.0 0.0
218.4462837635764 71.4696140312067 0.0 83.22568628750192 0.0 0.0
217.00631612423206 89.18257283916259 0.0 29.211829722758257 0.0 0.0
1095.798985750174 67.76552973119277 0.0 -81.77741679103117 0.0 0.0
1207.8224674627081 123.33912524787792 0.0 -61.35894040024689 0.0 0.0
1125.4558339479372 144.11760302877516 0.0 -98.81633798272902 0.0 0.0
1111.1215851156385 -32.38665058424397 0.0 -88.31298808734462 0.0 0.0
1063.3548402147978 -27.746786855063988 0.0 -60.037550919697864 0.0 0.0
1150.7548644141043 0.4138910873648456 0.0 -50.47133707118975 0.0 0.0
1142.3251787142033 169.36671311357733 0.0 -38.251016641091006 0.0 0.0
1103.0393919207595 192.49132807270988 0.0 36.24802868431765 0.0 0.0
31.44223505743048 -10.92997410494905 0.0 -40.59761470355076 0.0 0.0
120.7911800438838 35.64710635359363 0.0 -10.181910509978668 0.0 0.0
158.92308059437215 64.4799979701352 0.0 -28.649729910930166 0.0 0.0
136.16050361752608 55.537496187212724 0.0 44.84725917165008 0.0 0.0
1260.9601077792388 260.45581051154556 0.0 -29.055536336899667 0.0 0.0
1208.3022829354454 217.7346007997816 0.0 22.365482695414325 0.0 0.0
1127.3795761650351 182.60789304061475 0.0 -31.1329825173174 0.0 0.0
1106.090593549174 197.98323237855533 0.0 61.25719543038764 0.0 0.0
755.9795201001377 -5.03415985885124 0.0 50.658774851949794 0.0 0.0
2049.3008243873583 257.53113068754783 0.0 -415.5661847612987 0.0 0.0
1312.8868727307238 168.47956580686494 0.0 -40.750769512856536 0.0 0.0
1695.4939774111774 204.42503152656263 0.0 -64.76193171239525 0.0 0.0
1629.3996831932886 92.99835842829413 0.0 -245.55551741483046 0.0 0.0
31.811629610937075 -455.1979865172484 0.0 -49.50852381252181 0.0 0.0
79.10432396441198 -106.79530404284708 0.0 138.7465297833652 0.0 0.0
101.75835603688186 -234.41003475651888 0.0 54.32025729940964 0.0 0.0
-17.086950076178418 -235.88553910485456 0.0 28.441378109582683 0.0 0.0
2054.601255540345 262.0716384940527 0.0 -390.6515811643564 0.0 0.0
1305.4650435205829 136.68569390807238 0.0 -2.8632367339236753 0.0 0.0
1640.2407051771934 94.44003780109625 0.0 -242.97255828982898 0.0 0.0
1068.055798119776 -1.3319191945992657 0.0 31.4185242857335 0.0 0.0
37.901753563476376 -435.2144923651481 0.0 -20.479905693551142 0.0 0.0
186.2513776431628 -113.79350649814751 0.0 189.5360168550717 0.0 0.0
-13.919152323526383 -215.58365166350768 0.0 -16.40686320890049 0.0 0.0
39.28498705362557 -426.82101589792086 0.0 83.61376572192715 0.0 0.0
84.96216699081909 -102.83822724135194 0.0 -93.99597448753227 0.0 0.0
97.40582406792379 -265.5609534768043 0.0 -74.29787687419791 0.0 0.0
-32.110987357520486 -271.04301128552095 0.0 -19.197588893838798 0.0 0.0
669.5418301525642 -6.055062372641743 0.0 84.0742668775977 0.0 0.0
663.2976197281138 -37.55403302640221 0.0 68.91219593201492 0.0 0.0
2086.8389148647902 275.78378079399755 0.0 397.2058716037375 0.0 0.0
1304.2096119090677 144.6900024234062 0.0 37.245428611996175 0.0 0.0
1675.1562948932174 211.9922882618157 0.0 98.5316513850199 0.0 0.0
1595.249249639283 124.35326369231257 0.0 208.51396707874173 0.0 0.0
41.88497453027608 -428.5527635564039 0.0 81.5121468029529 0.0 0.0
67.57594414716809 -86.3852779186349 0.0 -99.32665414514844 0.0 0.0
90.18796045113393 -263.2854649792707 0.0 -77.10974176394183 0.0 0.0
-25.663687966895203 -265.98326331049077 0.0 -26.365003284944436 0.0 0.0
2042.9397563529083 285.0622707045834 0.0 490.6704626318429 0.0 0.0
1306.8507803853922 173.03480858861369 0.0 83.56652822904492 0.0 0.0
1728.8361246973984 205.30594460215036 0.0 75.7590488884563 0.0 0.0
1627.3872879813898 113.50369574549717 0.0 218.49694331701468 0.0 0.0
687.2308043564169 -121.82115974047738 0.0 -177.41349171598213 0.0 0.0
896.0325709734526 -89.4268812056481 0.0 -143.87273655465782 0.0 0.0
710.9023051431665 -15.422169201129321 0.0 -239.40278772129093 0.0 0.0
701.8952967935049 -59.89070042430981 0.0 -194.38560547105547 0.0 0.0
680.6309168358753 -139.56464878532228 0.0 -193.31200542647358 0.0 0.0
881.4906342581545 -91.99459123674688 0.0 -137.5554455694723 0.0 0.0
700.9249504342287 -19.65625765007411 0.0 -246.49227838718576 0.0 0.0
697.9197889454398 -55.29976931149807 0.0 -199.67771830598355 0.0 0.0
864.9469157642693 -3.3229936306056516 0.0 26.24377769876533 0.0 0.0
298.9157824642256 135.5008976297314 0.0 20.5502873993231 0.0 0.0
648.8313558428462 17.140345657134674 0.0 60.53289260319255 0.0 0.0
744.3745478555024 -6.641091613262574 0.0 55.1789999690533 0.0 0.0
640.4547399604861 -11.473927161834979 0.0 51.06987879537836 0.0 0.0
853.1186281195316 51.97949431376176 0.0 288.9960120450364 0.0 0.0
615.8926558146367 -29.165565416922988 0.0 140.91971208940603 0.0 0.0
472.55052131575064 -66.44225940449468 0.0 167.4077846644836 0.0 0.0
310.2891234013152 39.32441406768996 0.0 -218.90176628173114 0.0 0.0
315.40928252479944 76.59804679748389 0.0 -89.58966684574301 0.0 0.0
237.56927445159909 95.3302638943883 0.0 -51.257479725135525 0.0 0.0
1097.077764132084 1.5680955588259735 0.0 -12.791901511993856 0.0 0.0
1066.4756103268992 -18.38990650725583 0.0 -38.54349443453786 0.0 0.0
1069.1146260750418 -9.169626937240594 0.0 -40.03172394736251 0.0 0.0
300.6535600255453 30.639939351770565 0.0 -210.44815447264995 0.0 0.0
1015.5353032795122 -15.738250412098239 0.0 11.619165568777685 0.0 0.0
954.1882754917244 -12.625643164155576 0.0 0.631784765135051 0.0 0.0
1023.9192023118746 -7.4595109666823305 0.0 4.304141181657079 0.0 0.0
588.001527592225 -64.34104642947446 0.0 -125.91761983652454 0.0 0.0
712.2267759097508 -16.195440887946603 0.0 -74.49907854312995 0.0 0.0
966.0878772867785 -82.43878349633798 0.0 63.24816136747953 0.0 0.0
982.9060948940578 -85.13524681817216 0.0 143.1873788431048 0.0 0.0
839.612900414624 -35.72394175528996 0.0 159.7401562468948 0.0 0.0
801.7664300434806 -64.32076264426223 0.0 206.64070899615479 0.0 0.0
1017.1498650779299 -34.25805265919723 0.0 92.3065340560913 0.0 0.0
1018.1574804299801 -2.1304742083009955 0.0 105.13774829044281 0.0 0.0
993.3579409095254 -19.47348174635266 0.0 94.40769279360507 0.0 0.0
1027.3124988015172 -6.2803914294929655 0.0 87.05358305671066 0.0 0.0
804.2334803309878 -8.083037441087527 0.0 22.98468206572836 0.0 0.0
815.3352822574245 31.407070252628444 0.0 46.697639147188376 0.0 0.0
888.1320755014704 75.16123634307544 0.0 23.194658496813265 0.0 0.0
252.1792397483466 117.35044443262038 0.0 27.953881284448144 0.0 0.0
291.97961914851066 132.57586565133622 0.0 18.702556627000963 0.0 0.0
1413.6650912370785 263.64981591043977 0.0 416.408321161092 0.0 0.0
1361.5729721417501 98.81287502213638 0.0 373.2146711703433 0.0 0.0
171.32368904449493 -186.3168923460723 0.0 -53.27253982451659 0.0 0.0
99.59319050959367 -172.21105840814874 0.0 -50.7328617529985 0.0 0.0
171.1316582733204 -186.1925338070897 0.0 -44.27665112424521 0.0 0.0
88.46381303101703 -163.25197889081122 0.0 -45.685364204769876 0.0 0.0
1201.4612924623384 0.37778387605766284 0.0 -2.4043859403098207 0.0 0.0
1137.3173726062175 3.591020520790323 0.0 0.3919693560385306 0.0 0.0
372.8175266231059 88.25108685122706 0.0 21.47062347122788 0.0 0.0
871.4384857796025 4.514671075046124 0.0 42.88295611619361 0.0 0.0
1024.7796578946966 -27.992127844673348 0.0 -76.07475107992403 0.0 0.0
1019.874692829676 -44.98193364314369 0.0 -86.83377546088285 0.0 0.0
1024.0008052654384 -30.988113338062135 0.0 -75.49185731976887 0.0 0.0
344.2773752361539 41.030696719201956 0.0 -127.13869899469364 0.0 0.0
268.12579198299636 61.39862173091213 0.0 -84.34327855176454 0.0 0.0
1109.4953382800122 -0.44025555519351656 0.0 -15.334485880498292 0.0 0.0
1104.2009942072193 -12.172576836442033 0.0 -27.785891619700884 0.0 0.0
904.7344256377341 71.44418197001218 0.0 -56.6359732941604 0.0 0.0
885.5634696107002 -16.142454715534768 0.0 -4.75826621070077 0.0 0.0
892.3972770671052 -25.394183888384475 0.0 -3.490959254893342 0.0 0.0
880.3879980816449 -28.41718544093669 0.0 -15.562239014084462 0.0 0.0
895.7101335874008 -14.406635116638029 0.0 7.01608689179769 0.0 0.0
1489.6701809217664 149.1873877068743 0.0 -140.728360988803 0.0 0.0
1145.0102973088992 38.03934158152856 0.0 -90.06815672691434 0.0 0.0
1029.3971491483362 -5.550194161939032 0.0 -62.357102144856135 0.0 0.0
1486.8090875516175 142.41937262580467 0.0 -116.41815864141608 0.0 0.0
1171.2047481168245 37.862399005868326 0.0 -71.1519120613863 0.0 0.0
996.4072458322001 74.02163645236794 0.0 101.90855298425444 0.0 0.0
1008.7031853879283 59.88858064697865 0.0 72.41470096519029 0.0 0.0
304.27321872732676 81.3972365991091 0.0 73.49830667092766 0.0 0.0
262.26178664700086 95.49687674033053 0.0 59.621996222671775 0.0 0.0
311.22924442135655 102.0039547679468 0.0 70.58431885572804 0.0 0.0
1215.0861334926306 0.9079915513271999 0.0 -2.9098413154024096 0.0 0.0
1149.5597262169683 3.2191169949674077 0.0 8.57344018211809 0.0 0.0
1141.7702337657167 -1.0982946180685076 0.0 -3.711565388949968 0.0 0.0
444.33671033969995 -86.57450016817245 0.0 -238.47905448290334 0.0 0.0
674.0301894831293 -122.22057563741092 0.0 -158.7235802525757 0.0 0.0
560.0293706235253 -119.20098356508052 0.0 -226.07403589073178 0.0 0.0
532.2565348338024 -100.8931859272571 0.0 -165.1727158663373 0.0 0.0
1478.588372321905 144.71435651495744 0.0 109.59724839624631 0.0 0.0
1146.1423375602496 40.458712168544594 0.0 67.60333409218504 0.0 0.0
408.51120193932326 54.28298059965559 0.0 103.2022596334768 0.0 0.0
357.76702135180557 62.537377838893875 0.0 105.56916584653882 0.0 0.0
459.6068186013227 46.580274618031794 0.0 73.60119054778816 0.0 0.0
1093.0359604980492 123.20739086380905 0.0 -78.75962867607453 0.0 0.0
244.6895034102954 -161.64380400469395 0.0 112.40207540664804 0.0 0.0
275.86650837329046 -107.5496304814663 0.0 188.66821986786871 0.0 0.0
530.5303774126578 49.51759867787975 0.0 -81.27540820692477 0.0 0.0
515.9633254321357 -12.002810117756553 0.0 -113.04196036192158 0.0 0.0
450.0940567317313 25.968700416506636 0.0 -85.32108982946136 0.0 0.0
1134.9725059655239 -3.478741896386566 0.0 -3.082415992523597 0.0 0.0
1077.3612896848508 3.6771526865579744 0.0 -3.8727420441719285 0.0 0.0
1029.1776750761974 -26.18498314363859 0.0 -74.44490919612875 0.0 0.0
1029.4239309849345 -12.966346941859001 0.0 -84.79061426042301 0.0 0.0
926.1351370254102 25.742792969462016 0.0 86.77976994943933 0.0 0.0
865.5835398098668 -3.068032848558687 0.0 48.497798711398104 0.0 0.0
352.8949974032215 86.17567832454736 0.0 44.02125365212174 0.0 0.0
440.5667117167859 109.0695430672594 0.0 28.564173811183224 0.0 0.0
1129.372761043531 1.865095644150415 0.0 -7.379885219680166 0.0 0.0
1121.031767436065 -2.1924242800153024 0.0 15.359349319817092 0.0 0.0
1200.9180831684928 -3.6672616746866993 0.0 -1.5843467499689423 0.0 0.0
340.59309507562403 92.20821596742275 0.0 73.69935978213405 0.0 0.0
319.13278878775856 111.66111175084436 0.0 46.404751898812876 0.0 0.0
1088.466095567373 5.577158442938355 0.0 -12.693319876268635 0.0 0.0
1309.1946268449126 123.27298275493672 0.0 -229.90510242107615 0.0 0.0
1323.5619874825895 131.39954431331432 0.0 -243.80606770781677 0.0 0.0
399.67234168775343 -143.70024666550708 0.0 137.43662166596775 0.0 0.0
1327.7015509305604 125.16408879317532 0.0 235.5452234600323 0.0 0.0
155.44966570683144 59.24157033733168 0.0 -36.73168902048157 0.0 0.0
463.7315699399419 65.91174076853628 0.0 10.048022681333913 0.0 0.0
461.69872837638525 52.08283051675227 0.0 45.12663018219245 0.0 0.0
500.2045077763715 47.17283252239709 0.0 24.594111584910845 0.0 0.0
564.0105360722841 66.4317711566037 0.0 22.423265128014663 0.0 0.0
472.1167261771327 93.86386040545433 0.0 9.31862720972317 0.0 0.0
455.7852666424997 104.53722677420582 0.0 29.022819430783485 0.0 0.0
377.6228297170271 81.9212663908664 0.0 22.635079463640928 0.0 0.0
981.6429528345459 -1.2337632391861462 0.0 -32.26127025172938 0.0 0.0
969.483369456283 6.249744672520251 0.0 -35.026619222311396 0.0 0.0
973.3863803042518 -5.820182875102319 0.0 -76.71808955760885 0.0 0.0
1012.9677618371303 -0.8442505417378356 0.0 -74.60058642732662 0.0 0.0
1075.8052571768185 7.507870938637723 0.0 9.383833768585333 0.0 0.0
1068.468610518948 -18.89372904893702 0.0 7.317805468066163 0.0 0.0
981.6347585289706 30.073999155565048 0.0 94.32388658852791 0.0 0.0
974.5366816700737 85.9393095453737 0.0 82.73137018279098 0.0 0.0
943.8479001401679 56.431342374042856 0.0 57.27170223824175 0.0 0.0
1051.8465447273338 -2.9194157194111767 0.0 -29.001520701197364 0.0 0.0
1013.6512161929569 -14.928718738720761 0.0 -68.63376234247653 0.0 0.0
1018.750141309461 5.830895688017051 0.0 -31.120549202702257 0.0 0.0
1340.9075172704456 115.60374790681948 0.0 -354.8289424424533 0.0 0.0
68.76859396400995 -102.71483916117981 0.0 65.86187402509066 0.0 0.0
1313.770068807052 122.40562722380702 0.0 -337.4723559661418 0.0 0.0
1326.0746829703348 112.62238678929776 0.0 347.518813916603 0.0 0.0
1061.7549578306005 165.72446813494605 0.0 -14.500209304875309 0.0 0.0
232.39074633222756 8.328235868262524 0.0 -124.65567252609073 0.0 0.0
251.7822553796564 29.59765330051905 0.0 -97.48319868036458 0.0 0.0
203.92014239291447 37.050855652636706 0.0 -106.85203633272963 0.0 0.0
753.322024209049 12.778726564332203 0.0 21.527900129412323 0.0 0.0
879.8397520979956 2.5488710596711144 0.0 39.03210212572714 0.0 0.0
1174.1878351580415 40.39949310207959 0.0 101.23485918065046 0.0 0.0
1105.553982968705 91.21970668788003 0.0 96.17951714184647 0.0 0.0
577.8499593248919 31.21639126487304 0.0 -0.5310298623439258 0.0 0.0
663.2667225319801 34.37126946303894 0.0 24.91855086806581 0.0 0.0
602.2734791418123 50.11476418728407 0.0 45.00968949312954 0.0 0.0
353.1773024527853 118.60599555237212 0.0 2.087242764367004 0.0 0.0
366.733841178723 128.06256542376678 0.0 31.304482079078973 0.0 0.0
942.9920797732669 222.6835202366408 0.0 -356.9089094734669 0.0 0.0
940.490418590085 220.37255350374943 0.0 -357.83325717272874 0.0 0.0
979.1901342341259 75.85867511968286 0.0 -85.60482165484875 0.0 0.0
965.5176877593251 29.98373184960093 0.0 -84.153129694571 0.0 0.0
1139.1074802284984 1.088715665245843 0.0 1.7424657778186345 0.0 0.0
1120.0772383578185 -5.12608129981561 0.0 -21.611691191529406 0.0 0.0
1181.9014877792945 3.2139093671164574 0.0 -2.959781999006594 0.0 0.0
385.14252973812364 23.12218536699565 0.0 218.68588473411143 0.0 0.0
942.555617275677 224.11822522242343 0.0 355.60905990144374 0.0 0.0
752.4115656030418 152.72845418577958 0.0 315.7280497470468 0.0 0.0
978.0127988853311 218.0684464397055 0.0 369.6412736313498 0.0 0.0
267.32014338251616 136.05927717056252 0.0 4.799073649044479 0.0 0.0
434.5815812984714 33.85749624216845 0.0 -212.02686204762006 0.0 0.0
427.3400844249104 7.589793865482733 0.0 -196.78045201836065 0.0 0.0
433.57426279592346 35.24305838781966 0.0 -207.3660874420638 0.0 0.0
428.02391833658714 16.057410569450354 0.0 -202.73919292217735 0.0 0.0
1147.7519002157694 86.35652913338663 0.0 -107.56154667140942 0.0 0.0
1113.803669338876 39.263757406152536 0.0 -85.89896998015624 0.0 0.0
1118.0789862365637 18.4478932260551 0.0 -111.64452863078112 0.0 0.0
136.68174263946938 -56.04852174817975 0.0 -46.40360877098898 0.0 0.0
94.91674608223062 -9.258539830379242 0.0 -104.78212238587045 0.0 0.0
271.07627333568365 -78.3457448806558 0.0 187.04630142070428 0.0 0.0
482.17427614687153 -36.321686506433934 0.0 163.96890138852302 0.0 0.0
930.0242819980639 -13.42126012005599 0.0 14.369178886846244 0.0 0.0
954.7677311428885 -14.329563608630622 0.0 -7.8649135124894896 0.0 0.0
899.461564430744 51.1536629001906 0.0 -45.37765668281638 0.0 0.0
874.6823819337064 4.104266222023284 0.0 -2.6411732061043613 0.0 0.0
904.9400927612164 88.37841072175505 0.0 -18.352129491871516 0.0 0.0
809.5378598802527 54.10431467857808 0.0 6.1563238485552585 0.0 0.0
287.61676655019073 141.9048176717415 0.0 -8.280564196155876 0.0 0.0
242.3297496222923 127.96715195538499 0.0 -11.294434211985578 0.0 0.0
265.4868728969737 138.31097945233125 0.0 2.374706219886854 0.0 0.0
344.4011564603897 -39.665684049237555 0.0 166.09862416572935 0.0 0.0
1108.9706365336617 61.64675354505937 0.0 105.30801924637817 0.0 0.0
880.4967594663029 39.240166064358505 0.0 36.20494693485205 0.0 0.0
201.0851257393629 108.45822122595669 0.0 11.549452943086365 0.0 0.0
240.67982451345833 98.82200246420196 0.0 34.86119998024851 0.0 0.0
222.86556071458966 106.19720664366596 0.0 -21.850235446126696 0.0 0.0
1210.3664216398445 55.39840673841428 0.0 -32.88525756376517 0.0 0.0
1185.0348241726629 19.717039592388915 0.0 -16.970258014496952 0.0 0.0
1145.175456247297 47.755715677382284 0.0 -101.89295510805125 0.0 0.0
289.50256812269316 -91.83109114787142 0.0 -203.1653420052423 0.0 0.0
455.6674773272364 -50.447230110552596 0.0 -154.7036521367772 0.0 0.0
368.91066807449295 -55.800834017320966 0.0 -185.3875114236836 0.0 0.0
1102.1329534814513 -4.267330706883513 0.0 -22.798810764593462 0.0 0.0
1053.0656206561387 3.6641215981205164 0.0 -22.94412419716153 0.0 0.0
1056.168880890913 -16.690578170960578 0.0 -54.5980811175905 0.0 0.0
836.8656406184956 -12.34833284335997 0.0 -18.038394071460342 0.0 0.0
788.3701961541785 1.5158761287343054 0.0 6.019916008193149 0.0 0.0
572.525260572989 8.569682578143585 0.0 75.73594534520004 0.0 0.0
628.5111380973563 27.93667550878348 0.0 66.73541379511555 0.0 0.0
501.92930433996975 18.786265470948734 0.0 56.13020132171038 0.0 0.0
297.7347843252337 -17.471503748285016 0.0 151.04390859028058 0.0 0.0
417.45194010622936 18.54469699941491 0.0 141.69641104539178 0.0 0.0
298.0740817846528 134.3276014443903 0.0 25.578944650050634 0.0 0.0
229.168037579287 112.50445575822673 0.0 34.42686391568517 0.0 0.0
1321.0669650677573 104.74461969512328 0.0 2.2349993361975935 0.0 0.0
1181.3790103142976 132.8261433522829 0.0 83.68417760222252 0.0 0.0
1162.0526485796045 80.40364072385864 0.0 70.42715813789235 0.0 0.0
329.26856337088543 -67.3037856193355 0.0 140.82789653537037 0.0 0.0
219.3351768880949 -27.307899167161864 0.0 158.062519544948 0.0 0.0
350.8076897175609 7.677952398222629 0.0 126.40151857222781 0.0 0.0
695.1905399268189 10.653900146771747 0.0 40.38016993198153 0.0 0.0
612.2029974752958 21.374274358789904 0.0 22.68437236259331 0.0 0.0
629.9924795267674 -7.021231040983935 0.0 41.874156623098045 0.0 0.0
931.2062307711335 5.595973657852198 0.0 -183.44505764759967 0.0 0.0
739.282375409349 188.35436269887072 0.0 -337.0225597896267 0.0 0.0
927.0367688840047 -6.0475986232706305 0.0 -181.38544173737586 0.0 0.0
1020.2217961446702 -11.530874509869477 0.0 -106.71879426917354 0.0 0.0
1057.2653584568668 0.014892799061783535 0.0 -120.98022735099696 0.0 0.0
1011.4846904578056 23.470057765373042 0.0 -113.52351559441682 0.0 0.0
1020.5090810688502 -16.299088571372124 0.0 -110.94347662283351 0.0 0.0
582.8701393332224 11.128656741798778 0.0 -85.2468090325185 0.0 0.0
516.3620202551153 -0.2628882389095679 0.0 -125.25857869042827 0.0 0.0
435.2743290692128 41.95639512332416 0.0 -88.11777488904767 0.0 0.0
557.8949032195118 3.9749102313717515 0.0 -85.68028916725585 0.0 0.0
994.8823430669838 121.41353506764145 0.0 31.305708595900793 0.0 0.0
1025.2771254042545 98.48159421761744 0.0 -42.108318299494876 0.0 0.0
937.5124135792857 2.1856056038762404 0.0 -179.42887301373645 0.0 0.0
735.6416820724038 186.04952339862223 0.0 -331.76395603345844 0.0 0.0
932.94202448013 -4.41521339075598 0.0 -175.4295880271334 0.0 0.0
623.4810793282096 0.9350706740434305 0.0 -33.41844085462008 0.0 0.0
797.3831873992547 -11.815409131966021 0.0 -25.171026157303498 0.0 0.0
957.251654339228 17.361169405559792 0.0 192.95220363394938 0.0 0.0
732.0133033255364 195.33339458742827 0.0 324.1546252331235 0.0 0.0
936.4020225664596 -9.030316177840803 0.0 176.46398515201588 0.0 0.0
703.8531349094081 -20.594681067673662 0.0 220.69981471974577 0.0 0.0
406.32400396681095 33.83992265694536 0.0 191.85318019050686 0.0 0.0
462.61270359609705 -70.26722507925598 0.0 213.84238880637892 0.0 0.0
1046.8133738453062 -1.401534684806336 0.0 120.7050604361662 0.0 0.0
1011.0963129370447 -26.986314224883927 0.0 104.93212047093363 0.0 0.0
870.1424893248329 9.034207975935146 0.0 40.85936795178309 0.0 0.0
877.124423723204 61.18354368938938 0.0 15.311650981195449 0.0 0.0
1467.8113735401696 259.03735474209157 0.0 -429.5519593167297 0.0 0.0
916.1141058365001 154.61049815729896 0.0 -331.1221973858823 0.0 0.0
142.74900841109968 -240.60296497305714 0.0 51.44137050401997 0.0 0.0
175.93109794836943 33.08618891448822 0.0 158.55216371738726 0.0 0.0
1492.7137168774982 273.4924382145921 0.0 -426.18240993285724 0.0 0.0
906.1986328292166 145.41922766117298 0.0 -328.37545539031515 0.0 0.0
1476.4172951968244 259.4373379594863 0.0 427.6671036564687 0.0 0.0
913.747814919492 143.43320628038708 0.0 324.712265252374 0.0 0.0
831.366610866874 -13.199934938066178 0.0 -23.599010135232437 0.0 0.0
734.4045860863039 -20.74960636242392 0.0 -22.812926866994786 0.0 0.0
754.6086208919638 4.889746353699223 0.0 -17.455807478064536 0.0 0.0
715.025830496338 -2.8551007724624355 0.0 -12.197543206012847 0.0 0.0
-1.497204505828261 -71.86116624602066 0.0 10.118562305811137 0.0 0.0
119.99667955306029 -65.51701867003084 0.0 89.0100533713144 0.0 0.0
8.318409140158742 -98.65594661590626 0.0 88.44945588638274 0.0 0.0
53.14632914976208 -58.57895822219005 0.0 10.345764165132833 0.0 0.0
1115.201330434643 2.862474961237467 0.0 9.621632859603778 0.0 0.0
1181.1847627134416 1.797296699657636 0.0 3.9734996387133643 0.0 0.0
680.3367270841471 7.752511640946295 0.0 -11.26170928197092 0.0 0.0
767.5186616991293 11.387042239311853 0.0 18.17174012594164 0.0 0.0
129.49855180996045 44.19841910158378 0.0 28.08540357547244 0.0 0.0
161.65990069296103 66.7296085233503 0.0 44.72684897167562 0.0 0.0
774.7901345025181 -18.348446496476356 0.0 30.663320444410314 0.0 0.0
736.434664940977 2.8049199618046714 0.0 8.412972107515582 0.0 0.0
1094.476756825297 -39.57448985883724 0.0 -81.59604412987241 0.0 0.0
1050.6813837477555 -76.28371585625007 0.0 -57.89402171974762 0.0 0.0
619.4071519875483 -90.6887762263355 0.0 -160.24048337299755 0.0 0.0
712.5629273224403 -60.95406168090091 0.0 -99.28747945244598 0.0 0.0
944.1055416537522 102.08521733920585 0.0 57.82860837443078 0.0 0.0
939.5636137389295 39.0900976192944 0.0 5.2250784869029285 0.0 0.0
929.3259691898021 51.74956879262305 0.0 58.17091334749479 0.0 0.0
952.2110658755697 82.83533254153988 0.0 4.8715914122074455 0.0 0.0
543.0016335563902 -101.65219725947563 0.0 152.37096332519096 0.0 0.0
683.7423561028447 -70.00099677812406 0.0 227.51818925233172 0.0 0.0
1400.1542645720897 212.6649172226237 0.0 -35.998629561423684 0.0 0.0
1208.1771868763817 2.091952355391072 0.0 3.6408502560883997 0.0 0.0
1155.5122925578046 1.4029246501902435 0.0 -10.77061539880411 0.0 0.0
1044.428959582539 22.25538992334492 0.0 -103.81612688250947 0.0 0.0
1031.840860836857 42.841840444027866 0.0 -122.43323744154546 0.0 0.0
1050.8272005343965 -41.3008597646687 0.0 -94.69849488214663 0.0 0.0
1043.6723641093504 -38.44241545383704 0.0 -93.92252111044593 0.0 0.0
653.2003769220685 -73.26454710364379 0.0 -116.87013837089522 0.0 0.0
613.9361419590603 -26.431932324024928 0.0 -101.7395843943377 0.0 0.0
1078.8829317452041 -18.934733636550447 0.0 -107.05413863144894 0.0 0.0
1071.259804392714 -15.813377032578217 0.0 -80.42336186704284 0.0 0.0
572.8750520500741 -24.18235443013799 0.0 -138.79975019477428 0.0 0.0
506.6352125112677 -43.28944221799301 0.0 -139.1371511093782 0.0 0.0
1106.722502445703 2.347180795492875 0.0 6.045766320567184 0.0 0.0
1109.594857369048 -12.296419369174885 0.0 25.125219469063513 0.0 0.0
1121.351328359457 -5.685984835396482 0.0 20.29803666943962 0.0 0.0
712.7654778464482 16.03372197050652 0.0 2.606732494659046 0.0 0.0
642.7258768339232 12.240907190791148 0.0 -25.43921235644106 0.0 0.0
715.8361951304241 23.287923497203877 0.0 -25.327213878928053 0.0 0.0
212.90438491942678 98.7849811165808 0.0 -40.84330317037228 0.0 0.0
282.80969094661134 119.2951838391676 0.0 -36.51952681923383 0.0 0.0
780.9142768756715 2.815155251751918 0.0 17.95317376693526 0.0 0.0
790.7974460421108 35.35948828681799 0.0 20.756041265102127 0.0 0.0
843.4502053917118 4.957542382044892 0.0 -9.575997250183025 0.0 0.0
1033.4737614363157 26.52340571328307 0.0 -118.6426907110698 0.0 0.0
984.4819208404664 20.601488475018527 0.0 -104.2634228612659 0.0 0.0
1027.7203295137285 8.057083840947257 0.0 -117.18533091263208 0.0 0.0
1148.0160091857394 3.3233656254125776 0.0 -0.4549608276333606 0.0 0.0
1143.5197173390172 -3.8283291335712306 0.0 -7.946999311571103 0.0 0.0
1127.7143402345139 3.517327786783426 0.0 9.869703222379544 0.0 0.0
964.0647013151022 134.164974349481 0.0 15.992768526501008 0.0 0.0
987.5072553635895 60.64941422296175 0.0 27.799358395757775 0.0 0.0
929.7785154470315 21.747869161182848 0.0 22.990846710001343 0.0 0.0
1210.1917022569983 187.02323591582578 0.0 8.244786616646582 0.0 0.0
1268.5131285231769 157.52471844237004 0.0 36.658950658743336 0.0 0.0
1147.0923633011435 184.48930190106168 0.0 82.73389417818926 0.0 0.0
1046.325967156759 136.250429509135 0.0 -76.87692104493274 0.0 0.0
1022.5476332617719 58.185559699679175 0.0 -84.56431685013405 0.0 0.0
138.31686938608263 23.41245674011686 0.0 28.59953018758463 0.0 0.0
223.9164240222269 -38.10527613861714 0.0 110.17861720638454 0.0 0.0
142.77591356984766 14.096585595795641 0.0 109.72386808424481 0.0 0.0
796.0516415672367 -56.23895532994129 0.0 201.3120272104624 0.0 0.0
460.4418635807984 16.748746210133362 0.0 208.10603157324556 0.0 0.0
463.62005945126754 49.75688665831301 0.0 190.0194147786394 0.0 0.0
742.864602779539 -46.529193949861565 0.0 -53.88003216339535 0.0 0.0
722.7120855398651 -6.167807034377489 0.0 -43.89447187583893 0.0 0.0
735.8055990602835 -2.59475478721626 0.0 -46.625206202673716 0.0 0.0
515.9992626002236 2.2980805483225026 0.0 -66.4767913855019 0.0 0.0
629.6951046983709 -26.692040153131842 0.0 -83.50017769282323 0.0 0.0
619.1705549602672 14.153110303309177 0.0 -70.51183053260613 0.0 0.0
-12.206985686111954 -82.90252570671565 0.0 13.947596294485853 0.0 0.0
85.29421734790454 -27.205292688408697 0.0 56.91754459378909 0.0 0.0
100.95551077829413 -57.66548432262318 0.0 85.10335534723204 0.0 0.0
85.39035547337375 -185.51124134821995 0.0 95.3243815592263 0.0 0.0
696.1094141601932 20.15822276058921 0.0 17.30027501649988 0.0 0.0
812.7261744350166 -5.665631051376181 0.0 18.96086410857501 0.0 0.0
833.3208469573651 40.79922765240872 0.0 51.99616119686384 0.0 0.0
1774.631007032295 234.63338957306138 0.0 -51.951393220734346 0.0 0.0
1473.506325851493 260.02476120734644 0.0 49.84164285607031 0.0 0.0
1264.6152310691027 243.30085577210488 0.0 44.723169215192314 0.0 0.0
295.4454026414133 140.1347915083751 0.0 1.613322454192739 0.0 0.0
325.2157623784347 130.82632549338408 0.0 14.477767936411203 0.0 0.0
303.21660841991314 123.46798364991648 0.0 19.172042161847656 0.0 0.0
236.08581374113473 98.0766139186085 0.0 -27.028494511586732 0.0 0.0
191.0529035703669 99.84397417014895 0.0 16.874474419240755 0.0 0.0
257.5179953760707 123.4209895066843 0.0 5.288356322591013 0.0 0.0
486.8410448001157 -88.54961224075873 0.0 213.4105759093749 0.0 0.0
196.0687711933009 -43.15796267947094 0.0 126.13000500441439 0.0 0.0
1472.5197334914537 206.91363731919364 0.0 -67.42711138446273 0.0 0.0
1461.4144608246643 216.71667588741116 0.0 -11.283664519084828 0.0 0.0
1689.5040402169077 197.19590953462654 0.0 -31.428473821186085 0.0 0.0
369.8129045212221 90.14343661761765 0.0 -69.28457227124485 0.0 0.0
274.3690630660932 108.11119705153862 0.0 -43.13172061656249 0.0 0.0
320.92184323688775 78.49814777094177 0.0 -75.46657157225198 0.0 0.0
322.2663509479828 119.30388724836287 0.0 -37.07429817885552 0.0 0.0
666.7742633522986 -100.01422392552874 0.0 156.27369043385252 0.0 0.0
664.9850401648805 -103.33580606152134 0.0 160.28933481673997 0.0 0.0
664.5681408789226 -101.32926578836378 0.0 157.69468584903547 0.0 0.0
667.0284312736567 -102.15338728610823 0.0 158.90415003932148 0.0 0.0
1296.926357691885 197.31869710443297 0.0 54.400325691387444 0.0 0.0
1466.3181815116789 237.4816187937441 0.0 -12.537736323782827 0.0 0.0
181.60027859347946 -198.2036423573392 0.0 32.61235686004759 0.0 0.0
1181.9869715140326 1.0473303083848577 0.0 0.3714315696034976 0.0 0.0
1126.2858059018406 3.0379250874775607 0.0 7.130838687238509 0.0 0.0
940.4366252640142 31.50232402714613 0.0 -33.74460745756248 0.0 0.0
967.306313936031 118.62769635012597 0.0 -40.16915598703818 0.0 0.0
777.681865082838 -7.793070980037896 0.0 -8.159310308801453 0.0 0.0
833.2977567342589 -7.368557356563201 0.0 16.97480239884987 0.0 0.0
842.2265423325169 -8.416931317925787 0.0 0.8457315854694347 0.0 0.0
747.5607603005018 7.702347738873613 0.0 21.40921477030339 0.0 0.0
1217.195068139279 190.8486235196923 0.0 -70.63011392394166 0.0 0.0
1207.6908424737258 212.14593521957138 0.0 9.027367621282597 0.0 0.0
1337.4295948510153 200.32247362219226 0.0 5.899692272235141 0.0 0.0
1327.4076017815344 238.04445847007548 0.0 -45.40441176440263 0.0 0.0
164.30962937952893 68.72709064860057 0.0 -31.878094329478863 0.0 0.0
181.8020508695098 54.0535560982776 0.0 -27.322187673709536 0.0 0.0
103.05034309357217 1.8030229871438834 0.0 49.04876655452488 0.0 0.0
62.62217883663711 15.75197591607757 0.0 -40.59986096755176 0.0 0.0
230.6053631736374 91.087965969599 0.0 -56.89064712569423 0.0 0.0
193.6812390546223 96.93448060004607 0.0 -15.673854698920316 0.0 0.0
266.16137906596066 131.221285488859 0.0 -21.61312307095442 0.0 0.0
243.20598056027615 123.16662385305062 0.0 1.675034493616537 0.0 0.0
271.98959081220414 131.411554024471 0.0 3.594220955218221 0.0 0.0
240.04152567881306 123.51429134827478 0.0 -23.977866438335 0.0 0.0
238.0023112814559 -188.6502914925527 0.0 121.68136015409083 0.0 0.0
43.21112548569873 -142.84874324461921 0.0 51.13881562240825 0.0 0.0
236.24852862198142 -110.89647174676693 0.0 178.7348252449368 0.0 0.0
1212.179566250592 5.625337703869093 0.0 -4.805331119618802 0.0 0.0
1145.5212935750278 2.050366287167037 0.0 12.810611872265277 0.0 0.0
1133.43753836337 -9.7443398544425 0.0 11.841547634358603 0.0 0.0
1140.4615133474329 0.44280643042628753 0.0 2.5666834497076967 0.0 0.0
1013.6978644015522 -7.81585859724305 0.0 10.264474167904112 0.0 0.0
1060.8813393819614 -3.7896359251644185 0.0 -10.080567496138634 0.0 0.0
980.648756013872 -8.784958444080871 0.0 -9.982108465907903 0.0 0.0
1168.1104850214415 0.051860993983666503 0.0 -11.94438390853015 0.0 0.0
1162.4061921576163 0.48079714802872786 0.0 12.34965669771494 0.0 0.0
1210.9941944466905 -5.708504444357288 0.0 2.0394024096852426 0.0 0.0
1130.1566739667967 13.029121575996555 0.0 -4.334218954802563 0.0 0.0
1081.0691773198478 -2.396434053753694 0.0 12.64140974979032 0.0 0.0
1125.590644437877 5.589698527223391 0.0 -9.844334160473124 0.0 0.0
1007.4977857564002 -15.839137301227424 0.0 14.356574143135626 0.0 0.0
1013.5876987849881 -0.5013506133672081 0.0 9.872017666543389 0.0 0.0
465.02675423110827 75.4721776732541 0.0 63.79930122433312 0.0 0.0
409.5079964393828 54.52517649626962 0.0 76.97922411653865 0.0 0.0
SCALARS Strain float 6
LOOKUP_TABLE default
0.010212190524958321 -0.003331554827853092 0.0 0.0012748286954628327 0.0 0.0
0.011902823989694503 -0.0035652804261598055 0.0 -0.00015009788663365397 0.0 0.0
0.010480927900386409 -0.003227633434610588 0.0 -7.253049445073722e-05 0.0 0.0
0.009879192876260894 -0.0030428447955783214 0.0 0.00010404862132448344 0.0 0.0
0.010329607970893967 -0.003144177072997027 0.0 -0.0014474824320463953 0.0 0.0
0.0057206581068648095 -0.0018016738544111433 0.0 0.0010086390372413703 0.0 0.0
0.01032629109593416 -0.0032020292329380234 0.0 0.0014068961932531031 0.0 0.0
0.011944206121250004 -0.003559855206118565 0.0 0.0001438919525589131 0.0 0.0
0.011254533059558222 -0.0033793484871498572 0.0 -4.524818400400166e-05 0.0 0.0
0.009563182409938704 -0.002978102118799306 0.0 0.00012634593838242755 0.0 0.0
0.010252251438061192 -0.003128444568065571 0.0 0.00010120341071686843 0.0 0.0
0.00980595241956811 -0.003042042348709953 0.0 -8.512281185803866e-05 0.0 0.0
0.011425014593407029 -0.003492584971410864 0.0 -6.709097832745676e-05 0.0 0.0
0.010710618147914634 -0.0032279321046269943 0.0 -0.00018036234484208988 0.0 0.0
0.0110737076143324 -0.003366074841389603 0.0 0.00032659501791736285 0.0 0.0
0.01074349830740471 -0.003333757680081665 0.0 -0.0015185071938092053 0.0 0.0
0.005824371685310941 -0.0016275424432447565 0.0 0.0014035861152108381 0.0 0.0
0.010526567625143202 -0.0033180495615708007 0.0 0.0013706802764764138 0.0 0.0
0.010276242942476707 -0.003147252244970957 0.0 2.0614901798767178e-06 0.0 0.0
0.009761783555533227 -0.003044625832297253 0.0 -0.0001730170257000304 0.0 0.0
0.011686704458083204 -0.0035069229139720087 0.0 0.00017123343957195045 0.0 0.0
0.009364664511794197 -0.0028518399143298693 0.0 -0.0001397412292076619 0.0 0.0
0.006055299172703536 -0.001505258443752066 0.0 4.4010631846284746e-05 0.0 0.0
0.005993721707310888 -0.0014699832379171606 0.0 2.085797874194857e-06 0.0 0.0
0.009820235952737892 -0.002897569145354675 0.0 -0.0004275606234515509 0.0 0.0
0.009829183263364183 -0.0029282879610671867 0.0 0.00040477389346965024 0.0 0.0
0.009848344614663034 -0.0029095110989755067 0.0 0.00042335175746610273 0.0 0.0
0.005942280227777781 -0.0014480900399602749 0.0 -2.5934738060168794e-05 0.0 0.0
0.010480925459046865 -0.003110375088966228 0.0 -6.363048064066668e-05 0.0 0.0
0.011250094348690164 -0.0034009457537432343 0.0 1.10230245563513e-05 0.0 0.0
0.010877378232392123 -0.0032788882908153195 0.0 -0.0001423564323207705 0.0 0.0
0.0071808815804303636 -0.0025875428565543803 0.0 -0.001376062251471761 0.0 0.0
0.009997526150911649 -0.0032384916535288825 0.0 -0.0004974033766588257 0.0 0.0
0.007542294510072487 -0.0035294507286330852 0.0 -0.0020199561038137344 0.0 0.0
0.007560594105630446 -0.003568156528016625 0.0 -0.002047215730968298 0.0 0.0
0.010543234009388523 -0.0038541279491370287 0.0 -0.00019484960068093268 0.0 0.0
0.009993874648490893 -0.00392674073386338 0.0 -0.0006252342180174956 0.0 0.0
0.010032823332332182 -0.003927385130938585 0.0 -0.0006180431096283686 0.0 0.0
0.009898205004868635 -0.0039963386612895495 0.0 0.0007765852003571325 0.0 0.0
0.008812255608406528 -0.0034720976202793964 0.0 -0.0014357757082637027 0.0 0.0
0.010363642391256483 -0.004047803592224692 0.0 0.0008763371280426273 0.0 0.0
0.008864852433137215 -0.003505345819972356 0.0 -0.0014565545794395062 0.0 0.0
0.01048788629546674 -0.00348905104785932 0.0 -0.0005685827917468393 0.0 0.0
0.009795606970875375 -0.003951348642552763 0.0 0.0008362237790525509 0.0 0.0
0.009880498833890266 -0.00331519168758718 0.0 -0.00021009238676523393 0.0 0.0
0.010542716256369121 -0.00406954415331822 0.0 0.00100240500896423 0.0 0.0
0.006108801863715399 -0.002708512569978294 0.0 -0.0020321149251914853 0.0 0.0
0.006866202286981122 -0.002693781418770502 0.0 -0.001600497708371561 0.0 0.0
0.01102155770352821 -0.004009572005948591 0.0 -0.00021674240983514072 0.0 0.0
0.007029393460184616 -0.002749766361315884 0.0 -0.001760797309647711 0.0 0.0
0.010650539173587766 -0.003428568020304555 0.0 -0.0005951401705370705 0.0 0.0
0.010044069105899752 -0.003542758362039187 0.0 -0.00036805272309114095 0.0 0.0
0.009660120489715431 -0.0034973021470558665 0.0 -0.0002160240302040564 0.0 0.0
0.009201118501259733 -0.0030310335745953663 0.0 -1.472528790826374e-05 0.0 0.0
0.008918650845434152 -0.0032767707850476545 0.0 0.0002528631610417384 0.0 0.0
0.010194734933162293 -0.0038677998197299717 0.0 0.00011866661225405674 0.0 0.0
0.009159171340232593 -0.0029488181897718807 0.0 7.989734682707201e-05 0.0 0.0
0.007181744211343695 -0.0033096903593730705 0.0 0.0020529179429731588 0.0 0.0
0.010195518295497051 -0.0038667818661940723 0.0 -8.215116787362037e-05 0.0 0.0
0.010126437525071494 -0.0032665688052550177 0.0 0.0003541384309020921 0.0 0.0
0.010360988592499457 -0.0035910542794351514 0.0 -0.0006616293361752924 0.0 0.0
0.009358210455709118 -0.003677499098966384 0.0 -0.00018783767884519777 0.0 0.0
0.007657606732847428 -0.0026871536018863032 0.0 -0.0007285028969015302 0.0 0.0
0.008311872649716086 -0.0026733202676074075 0.0 -0.0001680867772961339 0.0 0.0
0.010223719664499739 -0.0038987052330388483 0.0 -0.0001691979331965819 0.0 0.0
0.010465664553973566 -0.003481776158040971 0.0 -0.0007250384146461901 0.0 0.0
0.009093813878151601 -0.0035247576927416834 0.0 0.0003145617217653432 0.0 0.0
0.008590710032290377 -0.0029697479886559835 0.0 0.00024733337068265804 0.0 0.0
0.009414945938652379 -0.003718969806366852 0.0 -0.00018961151333459086 0.0 0.0
0.009859024301770783 -0.0036204073189164327 0.0 0.00036690584192573545 0.0 0.0
0.010139587862887236 -0.0034062177520846866 0.0 0.0005573713084946775 0.0 0.0
0.009503225876121613 -0.0034195237933134755 0.0 -0.00015618110694125712 0.0 0.0
0.010092615741572279 -0.0033758941554361747 0.0 0.00043150554000233847 0.0 0.0
0.010157658821615777 -0.003520024346078448 0.0 0.0005590834961714515 0.0 0.0
0.009184127739412221 -0.0034357827150678874 0.0 -0.00015709162173603092 0.0 0.0
0.010311894182561442 -0.0035936328403923224 0.0 -0.0009127254216642992 0.0 0.0
0.010144945886351788 -0.003753416030918156 0.0 -0.00039714937997287306 0.0 0.0
0.010141197719316054 -0.003191457712064624 0.0 -0.0004258328333947166 0.0 0.0
0.007539327184479804 -0.0029034504274011042 0.0 -0.0010099942609462348 0.0 0.0
0.009269911715122033 -0.003283390650679106 0.0 -0.00019052429520937617 0.0 0.0
0.009029996610172519 -0.002990775483972579 0.0 -5.6329345465256684e-05 0.0 0.0
0.009155166823063141 -0.003204010428871051 0.0 -0.00015202561539075216 0.0 0.0
0.00920933316235211 -0.003241665618116674 0.0 0.0001606525169521104 0.0 0.0
0.008955702214970683 -0.0029857060232483467 0.0 7.461167939828727e-05 0.0 0.0
0.007400092948593824 -0.0028746515088201204 0.0 -0.0011051839231848086 0.0 0.0
0.009205123819885214 -0.0032765725380581932 0.0 -0.00021508780234929864 0.0 0.0
0.01035093609139384 -0.00373633960936979 0.0 -0.0006929468662290513 0.0 0.0
0.010052295243088455 -0.003933821851651172 0.0 0.00011177129600104512 0.0 0.0
0.010276061316222385 -0.0036936658974255875 0.0 -0.0006089793660229136 0.0 0.0
0.009539939518626025 -0.0030079256551099774 0.0 0.00010496438175020372 0.0 0.0
0.010333624692902688 -0.003389985786465195 0.0 -0.000927674030297113 0.0 0.0
0.010197684763219557 -0.003680531062023927 0.0 -0.0006710066470268977 0.0 0.0
0.007632257482175017 -0.0032574850034409355 0.0 -0.001447727945072366 0.0 0.0
0.009548193916972963 -0.0035816000413105664 0.0 -0.000363759828381297 0.0 0.0
0.009851403717862637 -0.003497063552529192 0.0 -0.0002198360917180247 0.0 0.0
0.00982802938052011 -0.003269513474774561 0.0 -0.0003937898978765296 0.0 0.0
0.0055435482260796105 -0.002771596097322592 0.0 -0.0026762511518619585 0.0 0.0
0.011228007242815544 -0.0035656517275666454 0.0 -0.0005728212339369397 0.0 0.0
0.0035299942942618283 -0.0017252086432832997 0.0 -0.0026502847548388105 0.0 0.0
0.0063109616028630975 -0.0028311886386972445 0.0 -0.00239357831686862 0.0 0.0
0.0073528360600332255 -0.003195070858288207 0.0 -0.00152553482948912 0.0 0.0
0.009517647429059953 -0.0035949545472618544 0.0 -0.00038375839815300996 0.0 0.0
0.010188054894147525 -0.003496494555423533 0.0 0.0006238097501655946 0.0 0.0
0.01022426366003761 -0.003361519370379815 0.0 0.00041650824088477497 0.0 0.0
0.00944211200839599 -0.0031621366816069313 0.0 -0.00010338955538909703 0.0 0.0
0.009748811454801673 -0.0033476103088330928 0.0 0.0002657621340514093 0.0 0.0
0.009254214209923324 -0.003289413802019269 0.0 -0.00011333404497600579 0.0 0.0
0.010345709625949304 -0.003182292250787746 0.0 -0.0003874257070457479 0.0 0.0
0.00815263069887079 -0.002705004837119525 0.0 0.00027069317214219353 0.0 0.0
0.008759903474439298 -0.0027572807775818158 0.0 0.00011274902444394021 0.0 0.0
0.01043498272451207 -0.0033630755476228187 0.0 0.0006674179979624043 0.0 0.0
0.010473068572525583 -0.0033005777373379223 0.0 0.0007169694729352375 0.0 0.0
0.009022631636039327 -0.0033366386064783687 0.0 0.0004997433459862496 0.0 0.0
0.003656681199646765 -0.00020509110599443422 0.0 0.0006082179758864787 0.0 0.0
0.009200095638917896 -0.0025495608922528378 0.0 0.0011044636481069724 0.0 0.0
0.010253318365275828 -0.00281403956208285 0.0 0.0014500724576686388 0.0 0.0
0.00924009847130298 -0.002449344912553772 0.0 0.001246755514288655 0.0 0.0
0.010341123136840729 -0.003708176848971472 0.0 0.0006797553668971339 0.0 0.0
0.009707147441822299 -0.0030499495696702365 0.0 0.00022772793039139503 0.0 0.0
0.009833121759179721 -0.0032892111224384363 0.0 9.043966390115448e-05 0.0 0.0
0.00916693632715403 -0.0028534726187525008 0.0 8.139347230462075e-05 0.0 0.0
0.00908737563421909 -0.0028959961005731744 0.0 3.1001990290585845e-05 0.0 0.0
0.010406368084194043 -0.0032672098859143303 0.0 0.000585864980740996 0.0 0.0
0.010279770928454434 -0.003213883119917786 0.0 -0.000940626171806452 0.0 0.0
0.009757939884365404 -0.0029393657767490026 0.0 -0.0010346643556452028 0.0 0.0
0.005224262375114868 -0.0010957967831389602 0.0 -0.00069194112999494 0.0 0.0
0.005720234045349667 -0.0013543858269903263 0.0 -0.00032965446236791666 0.0 0.0
0.010217086547742954 -0.003950203707428809 0.0 3.953455499027623e-05 0.0 0.0
0.00954456848309039 -0.00381782762235125 0.0 0.0002973143942768598 0.0 0.0
0.006021169984961533 -0.0017094256747148952 0.0 -0.0005891694273875231 0.0 0.0
0.008795417053839318 -0.0032567885071848285 0.0 0.0006473016125237989 0.0 0.0
0.010612759148911756 -0.0033463126906418893 0.0 0.0006134755680138929 0.0 0.0
0.0091431989630087 -0.0026216280284063133 0.0 -0.0010340412485539284 0.0 0.0
0.004328783044474844 -0.0007192731584064987 0.0 -0.00045832076571229713 0.0 0.0
0.010366941490468715 -0.0036900675568878345 0.0 0.0007253707287044692 0.0 0.0
0.01032671229795346 -0.003913048211448593 0.0 0.00011977287613517052 0.0 0.0
0.00964872943374705 -0.0038370369292629177 0.0 -0.00020531220206921222 0.0 0.0
0.00862912417569834 -0.002863827426280502 0.0 0.00036007941523524383 0.0 0.0
0.009363029939856236 -0.0035680339581075963 0.0 0.0005851426252582967 0.0 0.0
0.008406274602755415 -0.0035900130477863963 0.0 0.0010879720057558801 0.0 0.0
0.0033707821671076286 -0.0008215145749721589 0.0 -0.0015883716719637272 0.0 0.0
0.010372245581890897 -0.00391742492594907 0.0 0.00015670587173819252 0.0 0.0
0.009698293863838518 -0.0038933704174047516 0.0 -0.0002168846257303739 0.0 0.0
0.00839968524221455 -0.0026271981166638135 0.0 0.0002337515209683093 0.0 0.0
0.010377636034024796 -0.003539247166502784 0.0 0.0008968930663857826 0.0 0.0
0.009663689885066449 -0.0030025192066087127 0.0 -0.0010955880979521644 0.0 0.0
0.009441241907625911 -0.0027072302404205144 0.0 -0.0010348162104868177 0.0 0.0
0.009277606774181445 -0.0035708849683842273 0.0 0.0007058962029359153 0.0 0.0
0.008258716293947565 -0.0036165363976041237 0.0 0.001205089170720286 0.0 0.0
0.01051500082093695 -0.0032614016002708883 0.0 0.0007378753833199074 0.0 0.0
0.010358386943363284 -0.0033129293188359286 0.0 0.0008860855676180695 0.0 0.0
0.010375942887693815 -0.0034100633844947148 0.0 -0.001263864317939647 0.0 0.0
0.008385563885750465 -0.0028171036777648244 0.0 0.00047414328509733984 0.0 0.0
0.0073189802957855914 -0.0022787250301895103 0.0 -0.0005261470056624883 0.0 0.0
0.006834088783808894 -0.0021937956190873987 0.0 -0.000970597673597999 0.0 0.0
0.010524856317765847 -0.0033743513287063363 0.0 -0.00030659264903507293 0.0 0.0
0.00946653729846701 -0.0030525120696976017 0.0 -3.349900451954991e-05 0.0 0.0
0.0103841731034138 -0.003533974037939257 0.0 0.0009488524867018936 0.0 0.0
0.005109588195718488 -0.00085735221768857 0.0 -0.0007811560270145947 0.0 0.0
0.005168162573630016 -0.001228028043105786 0.0 -0.0004357429176140755 0.0 0.0
0.0042600345027581496 -0.0007071613089526236 0.0 -0.00043275723993922423 0.0 0.0
0.023623625327681155 -0.004994164211879525 0.0 0.0018784040405438313 0.0 0.0
0.023861129774135532 -0.004959970648582823 0.0 0.002702916222262841 0.0 0.0
0.013969737711530915 -0.001925992271374539 0.0 0.0009662050034628265 0.0 0.0
0.00196554967308826 -0.006150224045914631 0.0 0.0006276001999526807 0.0 0.0
3.2009806828985666e-05 -0.0008825557865911521 0.0 -0.0006237631827819023 0.0 0.0
0.0019314789489249754 -0.006215125969744633 0.0 0.0006142239260577733 0.0 0.0
4.273818631735854e-05 -0.0009488720754558828 0.0 -0.00044134522192477857 0.0 0.0
0.001779706537892155 -0.005989354491338586 0.0 -0.00025172938365422684 0.0 0.0
0.001816041382031932 -0.00575416397948034 0.0 -0.0003532972696093787 0.0 0.0
0.024153158700172993 -0.005242291020843708 0.0 -0.00269738877148649 0.0 0.0
0.013775669519196867 -0.0018288607971929983 0.0 -0.0006626265472220066 0.0 0.0
0.024497099580170868 -0.0053297162601729274 0.0 -0.00235887123915572 0.0 0.0
0.0104063672820833 -0.0032777833156090205 0.0 0.000734835783571995 0.0 0.0
0.007983874803356049 -0.0023641001596994516 0.0 0.0001687074462036736 0.0 0.0
0.00939546496256575 -0.002888292326510036 0.0 -5.8944747488654886e-05 0.0 0.0
0.009756786351963236 -0.00314886954286796 0.0 -9.157879565844437e-05 0.0 0.0
0.0027405630349769455 -0.0011458132439210141 0.0 -0.001748198329879945 0.0 0.0
0.011102841592201028 -0.003398235743202743 0.0 0.00023993787790318203 0.0 0.0
0.01040617197678132 -0.003188540404575622 0.0 0.0006198804913617811 0.0 0.0
0.010351929867851493 -0.0037015860611947834 0.0 -0.0008697136473273726 0.0 0.0
0.010033177295990832 -0.0032739235263003555 0.0 -0.0002245772607925437 0.0 0.0
0.009466538674009341 -0.003038129612304577 0.0 -9.434429270476614e-05 0.0 0.0
0.01018688060417762 -0.0031057902679155437 0.0 -0.00018942378340974496 0.0 0.0
0.010545878710023406 -0.003268540218467009 0.0 4.2521357017550765e-05 0.0 0.0
0.009718030244961902 -0.003013514750550977 0.0 1.935421769421338e-05 0.0 0.0
0.01017509014546776 -0.00322089554450899 0.0 0.0004307799201765076 0.0 0.0
0.010394088237410084 -0.0032906456024546947 0.0 0.00021164688272519777 0.0 0.0
0.006029742171771272 -0.0020595714359774924 0.0 -0.0017855036085012584 0.0 0.0
0.01020195469270685 -0.003203463675211841 0.0 0.0011832818942402188 0.0 0.0
0.010289530551888007 -0.003153687887142037 0.0 0.0008684445656684805 0.0 0.0
0.010342501440814354 -0.0033391729951023435 0.0 -0.0002722162338746137 0.0 0.0
0.009757629552200248 -0.0030723751850027414 0.0 -0.0001164758883770619 0.0 0.0
0.01026340071956058 -0.0031170150132940394 0.0 0.0008686630751412494 0.0 0.0
0.006200175481683971 -0.0017282709334694901 0.0 0.0003417859070321169 0.0 0.0
0.0069288812492510786 -0.0026643679864811745 0.0 0.0012021367692813287 0.0 0.0
0.009987255422494045 -0.0030625328225836823 0.0 -0.001382438834537797 0.0 0.0
0.0071662815319837704 -0.002272076349019758 0.0 0.0003248625976554877 0.0 0.0
0.008143330438060667 -0.0025338437770124956 0.0 0.00035311630361927973 0.0 0.0
0.010342827703952288 -0.0036525106703095603 0.0 0.0009157463842540083 0.0 0.0
0.010068747225070057 -0.003159764398455226 0.0 0.0014181262964111417 0.0 0.0
0.010446209130941814 -0.0032153612594037636 0.0 0.000787256425193477 0.0 0.0
0.010332060970163238 -0.003335889562617332 0.0 0.000938113919456344 0.0 0.0
0.00568880308228818 -0.0014454512305548512 0.0 0.000971374480888281 0.0 0.0
0.006533347305123155 -0.00220882598338233 0.0 -0.0010422513109587881 0.0 0.0
0.006383777491751433 -0.0021272136619614533 0.0 -0.0014114079736660453 0.0 0.0
0.007535984142421795 -0.0026361739096547954 0.0 -0.0010401244763011688 0.0 0.0
0.010368631179285904 -0.00345708649100307 0.0 -0.0012453193068291124 0.0 0.0
0.010596602680551485 -0.0034058105791872945 0.0 -0.0014118086725482995 0.0 0.0
0.010618809745024691 -0.0037244853318754664 0.0 -0.0011332356353270713 0.0 0.0
0.010457572080143628 -0.003203994321699351 0.0 0.000354900811177349 0.0 0.0
0.009984123596805526 -0.003037620738469391 0.0 0.0009224822685165864 0.0 0.0
0.010052754065142413 -0.003130937579220722 0.0 0.0012346756588664733 0.0 0.0
0.017324538150089854 -0.004549641862526288 0.0 0.0003372956183080581 0.0 0.0
0.018033776883213237 -0.004272123851034197 0.0 -0.00012816837373894234 0.0 0.0
0.018031402000275934 -0.003676749955200981 0.0 4.809160776094908e-05 0.0 0.0
0.0005269126339578321 -0.002982589215485007 0.0 -0.00048291064136409017 0.0 0.0
0.0012656832035346948 -0.002815379346720296 0.0 0.00010018561882691524 0.0 0.0
0.0004194980273818419 -0.0028710970413470733 0.0 -0.0004531665131195323 0.0 0.0
0.0011624352061248876 -0.0026651831372256395 0.0 0.00013936246316516965 0.0 0.0
0.010010094593523729 -0.002929359552778307 0.0 -0.0013063257164072496 0.0 0.0
0.009383389565846327 -0.0027800350430670223 0.0 -0.0011872408193383953 0.0 0.0
0.00541993122591277 -0.0013921074117154777 0.0 0.0010027745537161063 0.0 0.0
0.00474899211354812 -0.0009515604200919773 0.0 0.0006467046474632442 0.0 0.0
0.009634075419118336 -0.002891459196826607 0.0 0.0012994572843194356 0.0 0.0
0.01044837942993965 -0.003274719945068554 0.0 -0.0007397406686607202 0.0 0.0
0.01003203164166494 -0.0031595993108528607 0.0 0.0003192388827361741 0.0 0.0
0.010285648910911738 -0.003291949270358309 0.0 0.0001463414864366425 0.0 0.0
0.00562261637837672 -0.001522685858565302 0.0 0.0006137042655821422 0.0 0.0
0.006067134900278523 -0.001542175536451147 0.0 0.0006069448729098928 0.0 0.0
0.009976349077253612 -0.00303944179448878 0.0 0.0009296965230463592 0.0 0.0
0.0042323035363688 -0.0008507569119443801 0.0 -0.0009154480693091791 0.0 0.0
0.005796628982890009 -0.0017258710530301217 0.0 -0.0014008932738474866 0.0 0.0
0.01046495848011328 -0.003318340150328514 0.0 0.0013314315333510247 0.0 0.0
0.009871389581089777 -0.003155199139477403 0.0 -0.0002448156162488865 0.0 0.0
0.01033827876244522 -0.003460688202310467 0.0 -0.0004447690005893333 0.0 0.0
0.010514929723701012 -0.0034398168260487533 0.0 -0.0007945886614586086 0.0 0.0
0.010359782124662369 -0.003215054502415758 0.0 -0.0006840205665143103 0.0 0.0
0.008652320605949773 -0.0036799112601135554 0.0 -0.0010118458491079772 0.0 0.0
0.008662978729974413 -0.0033685275340086147 0.0 -0.0010897179913949943 0.0 0.0
0.00952783730369156 -0.003764205925061229 0.0 0.00017607807328070245 0.0 0.0
0.010531337194552626 -0.004095856354145405 0.0 1.8915376336190656e-05 0.0 0.0
0.00866782579077322 -0.0037112382068088356 0.0 -0.00102974767448401 0.0 0.0
0.008629083244921692 -0.0033656485064236844 0.0 -0.0010611873850891363 0.0 0.0
0.009426562824050279 -0.0033052526852309057 0.0 3.8367559419772916e-05 0.0 0.0
0.009371874513984219 -0.0031844259737631693 0.0 -0.00010976689489281281 0.0 0.0
0.01057863818760829 -0.004021142808166111 0.0 -0.0008273769501611142 0.0 0.0
0.008836877860043646 -0.003967196572029625 0.0 -0.0013309521967876004 0.0 0.0
0.010565978052578053 -0.004029897546558217 0.0 -0.0008221149423594137 0.0 0.0
0.008832886271444757 -0.003982083338713998 0.0 -0.0013628699077294086 0.0 0.0
0.008849364861303619 -0.0038544991776200835 0.0 0.001933943557340043 0.0 0.0
0.00898556912037796 -0.0037217797161806935 0.0 0.0010304392780236527 0.0 0.0
0.009119800589908411 -0.0030549259050904726 0.0 -2.967538648017172e-05 0.0 0.0
0.008613507624813678 -0.0029759769271615333 0.0 -0.0003429787518587122 0.0 0.0
0.010255211050846364 -0.0035919746347615952 0.0 -0.0005905688554874724 0.0 0.0
0.01024735231669821 -0.0032419112476815616 0.0 -0.0006695684598817591 0.0 0.0
0.010580962904477595 -0.003712764064239011 0.0 0.0008440733056754686 0.0 0.0
0.010778252963138385 -0.004068246683136072 0.0 4.505608599493434e-05 0.0 0.0
0.010581667130535863 -0.003743823661888005 0.0 -0.0007935319887255509 0.0 0.0
0.010703576107670134 -0.0040966955280650474 0.0 6.348825084091401e-05 0.0 0.0
0.008983631700772106 -0.003612608048773069 0.0 0.00160887437890449 0.0 0.0
0.00881626675315498 -0.003818356143265903 0.0 0.0012415343305923019 0.0 0.0
0.01049652213633662 -0.0036824538358135026 0.0 0.0007761363837181565 0.0 0.0
0.010864133199457716 -0.004087859770399464 0.0 0.00012553028812183292 0.0 0.0
0.007381124720437567 -0.003278749661461312 0.0 0.0016241434861629048 0.0 0.0
0.008493533970924352 -0.003359385812215633 0.0 0.0012603440517317264 0.0 0.0
0.009613428374883864 -0.0031268643193158316 0.0 -0.00019393892585875522 0.0 0.0
0.010138781148761038 -0.0034249648062445095 0.0 -0.00035497215283948434 0.0 0.0
0.007239875175881666 -0.003220767069019347 0.0 0.001617253533575854 0.0 0.0
0.008275717258658267 -0.003247663813548482 0.0 0.0013011981597323573 0.0 0.0
0.008396658817954806 -0.0027833870580858963 0.0 0.0002120078380275007 0.0 0.0
0.009214360071289875 -0.0030437222338449395 0.0 4.69971379724012e-05 0.0 0.0
0.004848314723237599 -0.0019087765875609214 0.0 -0.00210311863320514 0.0 0.0
0.004849420697867712 -0.0020596529693429236 0.0 -0.002201535878903298 0.0 0.0
0.008398523151067165 -0.0031134142402867012 0.0 -0.0005623398623630533 0.0 0.0
0.008249840774970152 -0.0027808350882644905 0.0 -0.00046606162902921975 0.0 0.0
0.009178589195069276 -0.003599246500675005 0.0 0.00030235875363529867 0.0 0.0
0.009802496140040327 -0.003610226858069002 0.0 6.111476423043831e-06 0.0 0.0
0.010562045647203993 -0.0039759724290735045 0.0 -0.0006592093191896003 0.0 0.0
0.009934598733919104 -0.003723965488779046 0.0 -0.00036867838134224337 0.0 0.0
0.008372148631098066 -0.0028259612956788925 0.0 -0.000310160962985966 0.0 0.0
0.010056431965108598 -0.0034300515411470104 0.0 -0.0006254890841052694 0.0 0.0
0.010399099248330101 -0.0036827599578356882 0.0 -0.0009026206506652295 0.0 0.0
0.009669826853890432 -0.003012922323170023 0.0 -0.00011142669679777089 0.0 0.0
0.00910451206014939 -0.002890009146647457 0.0 7.957305393521643e-05 0.0 0.0
0.008451507380820397 -0.0031689777338529852 0.0 -0.000530845859077474 0.0 0.0
0.008320266324676816 -0.0027813418384418256 0.0 -0.00047742649513471055 0.0 0.0
0.008441133922235175 -0.0031607346560827082 0.0 0.0010337370024507322 0.0 0.0
0.008281408570752592 -0.003287913981330069 0.0 0.0007746289421156608 0.0 0.0
0.009704149849793968 -0.003319939535123189 0.0 0.0002222797543844011 0.0 0.0
0.009732553028726797 -0.0033943680270451006 0.0 0.00020354995106015617 0.0 0.0
0.01049078551803217 -0.0033233571047480595 0.0 0.0005252968424310182 0.0 0.0
0.010374912170361952 -0.003427294521202827 0.0 0.0006916868939242642 0.0 0.0
0.009827929258220642 -0.0033211526740979406 0.0 0.00014188620406577803 0.0 0.0
0.009678633213123783 -0.0031551597781900183 0.0 0.00026811488640418114 0.0 0.0
0.008404892605464174 -0.0030102390240200915 0.0 -0.0007979221961993171 0.0 0.0
0.008445180831103754 -0.0034168976410179556 0.0 -0.0007649617465207046 0.0 0.0
0.009824396756213275 -0.003573958972257579 0.0 0.0003421931719193958 0.0 0.0
0.009963417324108338 -0.003622142581780421 0.0 0.0001976018200323266 0.0 0.0
0.010364147033017372 -0.003315541759814462 0.0 -0.0012186553694977461 0.0 0.0
0.010335995524836676 -0.0034948668042548013 0.0 -0.0009770263410277154 0.0 0.0
0.010495456244639462 -0.00395120451353838 0.0 -0.0005794511643334864 0.0 0.0
0.009900491469793578 -0.0036506741474795377 0.0 -0.0003767113798557598 0.0 0.0
0.008723177100792567 -0.0031962592539416636 0.0 0.00032138479481617834 0.0 0.0
0.009603015198955279 -0.0035711816030275225 0.0 0.0001402429971029856 0.0 0.0
0.010584964353993285 -0.003926670232700924 0.0 0.0007466847236110939 0.0 0.0
0.010009783145254459 -0.003706176356356495 0.0 0.00046573394611959746 0.0 0.0
0.008284077894304515 -0.003164949429378533 0.0 0.0010957185115527763 0.0 0.0
0.008167712878798288 -0.0032226768226200587 0.0 0.000864295596689461 0.0 0.0
0.010703418170069087 -0.003882231493337441 0.0 0.0008065756288292421 0.0 0.0
0.010073558913581027 -0.003751953526216974 0.0 0.0004939212458037059 0.0 0.0
0.00926153348797931 -0.0034880022587584747 0.0 -0.0001343978092502898 0.0 0.0
0.009989214365373754 -0.0035894641198867083 0.0 0.00022660460767433673 0.0 0.0
0.007561265524827719 -0.002570375475189662 0.0 0.0004524923603991016 0.0 0.0
0.008501223368558268 -0.0030862892675765194 0.0 -0.000727939921816344 0.0 0.0
0.008567196043391507 -0.003448968738343644 0.0 -0.0007205424272443103 0.0 0.0
0.01011031512923625 -0.003324303474631748 0.0 0.0005255871841235457 0.0 0.0
0.009790865858899342 -0.0034509841879174484 0.0 0.00024495573468431945 0.0 0.0
0.010331818871311344 -0.003432328423170395 0.0 0.001109179915782065 0.0 0.0
0.010360107766571819 -0.003354158352153595 0.0 0.0008756622050813633 0.0 0.0
0.009629538730280073 -0.0032618024294297893 0.0 -0.00010215318873110561 0.0 0.0
0.009179474283555804 -0.0031654305573225183 0.0 -2.092323397437713e-05 0.0 0.0
0.009570604635199124 -0.003176936933866036 0.0 -4.049373386200126e-05 0.0 0.0
0.009575613133160066 -0.0031100615722131565 0.0 0.0002539958353320713 0.0 0.0
0.00835750848800937 -0.0029197675432342004 0.0 0.00035899678514639017 0.0 0.0
0.00896349853516817 -0.0029480088493624014 0.0 0.00013338132683994025 0.0 0.0
0.009402230903508342 -0.002994765354162914 0.0 -8.511897275389263e-06 0.0 0.0
0.008760348342079415 -0.002823932072080801 0.0 0.00011219853027274256 0.0 0.0
0.010495205760142519 -0.003267509370496518 0.0 -0.00030178397492138404 0.0 0.0
0.010031728138254762 -0.0031521837208026626 0.0 -0.00023643989285412897 0.0 0.0
0.010345893967349931 -0.0032698273612852664 0.0 0.0010538319345596845 0.0 0.0
0.010224945835345143 -0.00319825293714237 0.0 0.0009235669886323389 0.0 0.0
0.01017103710728299 -0.0034567245611708424 0.0 0.0006339419068619597 0.0 0.0
0.010350666175780787 -0.003396554871026943 0.0 0.0007682113871882324 0.0 0.0
0.010701007230930603 -0.0033506413623063088 0.0 0.0004209014241403762 0.0 0.0
0.010337942620168152 -0.0034558327462637134 0.0 -0.001157319495183253 0.0 0.0
0.01052591890539872 -0.003619085766459066 0.0 -0.0010397917398253062 0.0 0.0
0.007445677072382743 -0.0025097144484305125 0.0 0.0005013671692549328 0.0 0.0
0.010346639962219822 -0.0033540806415269867 0.0 0.0009469461785626379 0.0 0.0
0.009118808170964911 -0.0024009446560138803 0.0 -0.0010538490452048541 0.0 0.0
0.0034799652595933358 -0.0012539152662324091 0.0 -0.0020760138657005146 0.0 0.0
0.007139084458605882 -0.002052078696371144 0.0 0.0005114809591569023 0.0 0.0
0.0070771364961534165 -0.0027508863677518608 0.0 0.001145290928054056 0.0 0.0
0.010136313476362945 -0.003212852997806391 0.0 0.0009943630449846298 0.0 0.0
0.010681659898733188 -0.0032477953367123624 0.0 0.00011265105798133653 0.0 0.0
0.010761379039571573 -0.0033555859920814915 0.0 0.0003907168424384648 0.0 0.0
0.010080419229831331 -0.0030917799491727363 0.0 -4.675138561106214e-05 0.0 0.0
0.010054422512830959 -0.003203031035346123 0.0 -0.00013754991971161513 0.0 0.0
0.010216987972997764 -0.003085312179091407 0.0 -0.00016516092875085609 0.0 0.0
0.010215338668566075 -0.0032147429178970644 0.0 -0.0001503136223227625 0.0 0.0
0.008779976976488066 -0.0027291805489860917 0.0 0.00014875783961043647 0.0 0.0
0.00908424805762518 -0.0028443381868963656 0.0 -0.0001464275234938994 0.0 0.0
0.009963958090380646 -0.0029076992140222857 0.0 0.0013893706292039296 0.0 0.0
0.009952919953547388 -0.0028734573594866738 0.0 0.001423665756702993 0.0 0.0
0.005026900615017436 -0.0013755425831766751 0.0 0.0011235785695508263 0.0 0.0
0.004278046310921411 -0.0007078377745426448 0.0 0.0010786804210060434 0.0 0.0
0.010383181935852246 -0.0030549284244849404 0.0 0.0016061558563836911 0.0 0.0
0.009866301434240766 -0.0027164477890219037 0.0 0.0014258145654026918 0.0 0.0
0.009857997730407514 -0.0029067871457658847 0.0 0.001292689549305142 0.0 0.0
0.004940594294482743 -0.0014673958369378769 0.0 0.0014685330119384615 0.0 0.0
0.009788824110684146 -0.002778977283513428 0.0 -0.0013390536405547889 0.0 0.0
0.010229016077587472 -0.0032107421381375183 0.0 -0.0012765231688640613 0.0 0.0
0.010103191489124936 -0.0032467295794896436 0.0 -0.0011869371757164565 0.0 0.0
0.005936978069039998 -0.0017421532632042782 0.0 -0.0007887626549286822 0.0 0.0
0.006647631141836015 -0.0018084548657846572 0.0 -0.000562674287986314 0.0 0.0
0.006716374447868978 -0.002140712012490478 0.0 -0.0006490705652300863 0.0 0.0
0.0030816781177655217 -0.0016565002025572203 0.0 0.0017196418058591071 0.0 0.0
0.013236317091495867 -0.0028546953302815248 0.0 0.00027358472120239175 0.0 0.0
0.013022501676605364 -0.002895392619032989 0.0 -0.0005366275795035084 0.0 0.0
0.013069391672524485 -0.0029271146265987392 0.0 0.00046940570070631816 0.0 0.0
0.0026211606883446907 -0.001472063011278435 0.0 -0.001966639526907063 0.0 0.0
0.0027340224802172622 -0.0014905261663628576 0.0 -0.0015387008825639276 0.0 0.0
0.01149715574573498 -0.0034625298098952067 0.0 -0.0001316790727080655 0.0 0.0
0.01067805882758566 -0.0032157801250076758 0.0 -0.00041797116792635083 0.0 0.0
0.008810853317682265 -0.0027326991627410328 0.0 0.0001443436425588246 0.0 0.0
0.008873365781144489 -0.002885287647111728 0.0 -0.0002276955788045728 0.0 0.0
0.011083383339977815 -0.0033992516278826134 0.0 0.0002894865227177346 0.0 0.0
0.010633049584576403 -0.0031488309731236733 0.0 0.00046932538074029545 0.0 0.0
0.0080914218106736 -0.0024624838783054506 0.0 -7.16787077409172e-05 0.0 0.0
0.008032566525008146 -0.0025782473338942726 0.0 0.0002230151776117653 0.0 0.0
0.01106100640537453 -0.0033488711070271556 0.0 -0.00025880563832653646 0.0 0.0
0.010872813214696277 -0.0032432909110214287 0.0 -0.00021292029624728299 0.0 0.0
0.010525289532214818 -0.003168686407207791 0.0 -0.0006425499671031745 0.0 0.0
0.010848114480014876 -0.003361119082925898 0.0 -0.0005080171099181662 0.0 0.0
0.0081909376771462 -0.0025385461840702153 0.0 -1.6289967007241598e-05 0.0 0.0
0.002755819248740327 0.00036379191611431876 0.0 0.00037747324268887786 0.0 0.0
0.006906833800321419 -0.0018869070446747363 0.0 0.00012033847095023889 0.0 0.0
0.0027673601579141912 0.00044597559957636207 0.0 -1.9708917322475543e-05 0.0 0.0
0.0074664108332726555 -0.0022275027901711027 0.0 -0.00040918586798142676 0.0 0.0
0.0027309200863281434 0.00044217750362259597 0.0 -1.599437270911228e-05 0.0 0.0
0.0027210584627683026 0.00043333954205071603 0.0 -1.8636001630991446e-05 0.0 0.0
0.00703640567523949 -0.0020894864067057257 0.0 -3.8922645280833234e-05 0.0 0.0
0.007065054686692128 -0.0020704067862310064 0.0 -8.99772376571038e-06 0.0 0.0
0.002750786426998023 0.00021203325069432764 0.0 -0.00048156613617250914 0.0 0.0
0.002723379759991543 0.0002188752020058336 0.0 -0.0004482733687786407 0.0 0.0
0.008847167699436935 -0.0024962741837237156 0.0 -0.0006599078181632288 0.0 0.0
0.008988630802166107 -0.002562346689597611 0.0 -0.0007912865928814171 0.0 0.0
0.004037617722859985 -0.0003223822138414725 0.0 -9.7621977855714e-06 0.0 0.0
0.004086806523095176 -0.00038402090877925974 0.0 -0.0006305778861252684 0.0 0.0
0.0039853831175155055 -0.00033128273756261885 0.0 -1.8194876494505697e-05 0.0 0.0
0.0040551163361469906 -0.00043854406815091484 0.0 -0.000603769016148764 0.0 0.0
0.008124143928845026 -0.0023987961502306672 0.0 0.00035441930531378323 0.0 0.0
0.008201956783096338 -0.0023922315335016694 0.0 0.0003457551127131513 0.0 0.0
0.009157053882763942 -0.0027416068882703025 0.0 0.0008025890851218429 0.0 0.0
0.008174286724555049 -0.002424664916961576 0.0 -0.0003349312612900179 0.0 0.0
0.008207192558165183 -0.0023924323578939093 0.0 -0.00037667951825092464 0.0 0.0
0.0092912063343785 -0.0027729491515943627 0.0 -0.0009120421308354518 0.0 0.0
0.004116757715530783 -0.0003729018511707211 0.0 1.583213099177336e-05 0.0 0.0
0.005415950982327464 -0.0012854448927525654 0.0 -0.0004282958648632455 0.0 0.0
0.009364075322417736 -0.0025139481004813713 0.0 -0.0013000769240377667 0.0 0.0
0.010458166605383823 -0.0027907723897760556 0.0 -0.0015896320202899645 0.0 0.0
0.003599093971352489 -0.00039912986222903645 0.0 -0.0007170714569524895 0.0 0.0
0.0036109233902511277 -0.0007943027336067887 0.0 -0.0016050406834738884 0.0 0.0
0.003988870157613905 -0.0004512028093756031 0.0 -0.0006559103877344578 0.0 0.0
0.004167221844364822 -0.0008016752216235214 0.0 -0.0014608560793106216 0.0 0.0
0.00466023410546743 -0.0017364940390861181 0.0 -0.0019500468621747227 0.0 0.0
0.004661168753080573 -0.0013872589089436397 0.0 -0.0018014417451161409 0.0 0.0
0.0034858219745712783 -0.0013742209128417442 0.0 -0.002067816617114322 0.0 0.0
0.01051982309285143 -0.002624336668755413 0.0 -0.0012867922219904574 0.0 0.0
0.0036240846431561283 -0.0008256482571074057 0.0 -0.0014554790359659771 0.0 0.0
0.006583168427243788 -0.0017899935976055357 0.0 0.0003712798552646622 0.0 0.0
0.009974540282108346 -0.0030055053456124457 0.0 0.00045827743540911283 0.0 0.0
0.010044972538300258 -0.0029856002430546764 0.0 0.00040045474443984696 0.0 0.0
0.010241785147761482 -0.0035830319004657952 0.0 0.000813767835387471 0.0 0.0
0.011402279511699854 -0.0034063531499617028 0.0 7.032765945281819e-05 0.0 0.0
0.007641901161979759 -0.0027717570161070364 0.0 0.0006590751553002023 0.0 0.0
0.00657250204964852 -0.0022843963041859934 0.0 0.0009913814200234042 0.0 0.0
0.007656856441413252 -0.00259341143336184 0.0 0.0009506937727054169 0.0 0.0
0.011286803617710953 -0.003406669978864673 0.0 2.5213268246805828e-05 0.0 0.0
0.011947997349700364 -0.0035935706063843545 0.0 4.169222516329345e-05 0.0 0.0
0.011278110643550693 -0.0034497617227942632 0.0 1.6256297686625192e-06 0.0 0.0
0.01070877020746085 -0.003264622400648364 0.0 0.00021976641898201855 0.0 0.0
0.0119067366563657 -0.003569642985158963 0.0 -9.04015766382025e-05 0.0 0.0
0.007907145471213567 -0.002863814212999295 0.0 0.0006066249852618008 0.0 0.0
0.00793999587154388 -0.002749404684418571 0.0 0.000813788484184269 0.0 0.0
0.010211942192441996 -0.0035856672033316717 0.0 0.0007513087842876004 0.0 0.0
0.010350770558369846 -0.003309036015351709 0.0 0.0012032123162254984 0.0 0.0
0.010340466135394803 -0.003432544089613976 0.0 0.0011615241441673223 0.0 0.0
0.010530663408622961 -0.003614388704697016 0.0 0.0010908423778490189 0.0 0.0
0.011761196333062131 -0.003501484078880409 0.0 -5.891131043705076e-05 0.0 0.0
0.010131910035804225 -0.003298115287949389 0.0 -0.001271516922116352 0.0 0.0
0.010136398924051056 -0.003036497659002729 0.0 -0.0011063597639383558 0.0 0.0
0.010374780352684345 -0.0031220006115890374 0.0 -0.0008354485403869024 0.0 0.0
0.010043486403454706 -0.0031698267800817346 0.0 -0.0009806110731320065 0.0 0.0
0.010509620708972822 -0.0031836549093106634 0.0 -0.0003270279116901056 0.0 0.0
0.010553471044941747 -0.0031270509622838305 0.0 -0.00026843116027906716 0.0 0.0
0.010125950292082275 -0.0030367151545352814 0.0 -0.00043832404249136505 0.0 0.0
0.010781524883541813 -0.003411346648005676 0.0 -0.0004287125389687299 0.0 0.0
0.010853084190182277 -0.0032503957459871172 0.0 -0.0002708972150641199 0.0 0.0
0.010801450995581332 -0.003383592205660642 0.0 -0.0001603515143601376 0.0 0.0
0.010338547159651853 -0.0031740343541647813 0.0 -0.00022293629003328718 0.0 0.0
0.01046092567092578 -0.0034198851107778315 0.0 0.00041782533366189746 0.0 0.0
0.01075618051155372 -0.0033232140535613196 0.0 8.13150510270258e-05 0.0 0.0
0.01124732391337555 -0.003498074602976376 0.0 0.00012683901666603746 0.0 0.0
0.011062667318233035 -0.003277503344337578 0.0 0.00012178917576872624 0.0 0.0
0.005415333196032284 -0.0012267432207508386 0.0 -0.0004535692276561573 0.0 0.0
0.010882778188617983 -0.003544609857170288 0.0 0.0013179502737522871 0.0 0.0
0.010404633335244254 -0.0036554691155762675 0.0 0.001024447149781985 0.0 0.0
0.010358251373686931 -0.00328034347908497 0.0 0.0012978986635435055 0.0 0.0
0.01052111754913702 -0.0036082725341786957 0.0 0.0011370483763148964 0.0 0.0
0.006536225659632306 -0.002010253597211673 0.0 0.0009585691558078211 0.0 0.0
0.006803371008698241 -0.0024818094592006378 0.0 0.0014798567142638812 0.0 0.0
0.0060327128435522384 -0.0019245943625070274 0.0 0.0013411868056233795 0.0 0.0
0.0058839511548808435 -0.0019226533195230515 0.0 0.0013473156896471985 0.0 0.0
0.010417401698516945 -0.0034253227815620587 0.0 0.0013170505155981978 0.0 0.0
0.010462750102377433 -0.003318484160335184 0.0 0.0013866900513467128 0.0 0.0
0.010827828119311442 -0.0036671753964793415 0.0 0.0011355250195898747 0.0 0.0
0.011539505618235068 -0.003940622166375303 0.0 0.00013668902326192812 0.0 0.0
0.01066530787641227 -0.0037615467566578676 0.0 0.000791299956460015 0.0 0.0
0.004898475295374596 -0.0008820178903735989 0.0 0.0005714406707142212 0.0 0.0
0.009645720830472578 -0.0028241669913017286 0.0 0.0013109317967282237 0.0 0.0
0.010097421622153043 -0.0030776675715599305 0.0 0.001311464596270845 0.0 0.0
0.006351526085997632 -0.002448860949797618 0.0 0.0015579089255505715 0.0 0.0
0.011555850735499416 -0.0039535619260225915 0.0 9.262340289347532e-05 0.0 0.0
0.010547278646937976 -0.003759300117285839 0.0 0.0008865794650470006 0.0 0.0
0.006220290647573661 -0.001541808658655026 0.0 -0.0007141850399133934 0.0 0.0
0.010431003709509737 -0.0034306602027971865 0.0 -0.001313057178117106 0.0 0.0
0.010486300040309383 -0.0033867665094708664 0.0 -0.001378038357857582 0.0 0.0
0.01082945220565059 -0.003684548729804032 0.0 -0.0010917325139614836 0.0 0.0
0.011480157160734906 -0.003970110436797392 0.0 -3.521356247126144e-05 0.0 0.0
0.010532252676756556 -0.0037603763108983094 0.0 -0.0008243573711992706 0.0 0.0
0.005818431200934744 -0.0020655917146839564 0.0 0.0012848731538987615 0.0 0.0
0.007089319419874146 -0.002558634477025649 0.0 0.001355135131593168 0.0 0.0
0.007133859200641149 -0.0029697466802457457 0.0 0.0019486002940834078 0.0 0.0
0.006560055192753367 -0.0025021414586655225 0.0 0.0014758663875029721 0.0 0.0
0.009912455187613406 -0.0031243720700481897 0.0 6.515331082941022e-05 0.0 0.0
0.010734756172836075 -0.0033287463172827552 0.0 -0.0001638568567867107 0.0 0.0
0.00900621034976137 -0.0026953934914864756 0.0 -0.0004212360922294267 0.0 0.0
0.009169468264323178 -0.002712615535003069 0.0 -0.000466758007414676 0.0 0.0
0.00511928897455651 -0.000978680948368389 0.0 9.917167074448365e-06 0.0 0.0
0.004535803635754898 -0.0007128027691323158 0.0 -0.0004212547408503676 0.0 0.0
0.006993284433298156 -0.001986006975038572 0.0 -9.47665063848478e-05 0.0 0.0
0.007387227219709302 -0.002255392431848391 0.0 0.00026914268969037544 0.0 0.0
0.010501718244659867 -0.0031701312989065216 0.0 0.00035131048805360087 0.0 0.0
0.010656136262037246 -0.003150214160776904 0.0 0.00029373035362400846 0.0 0.0
0.01049791986220985 -0.003179716911557404 0.0 0.00036009114305529894 0.0 0.0
0.0107096611570479 -0.003159242240911659 0.0 0.0002939507513241842 0.0 0.0
0.006786598169806143 -0.00194712030580481 0.0 -7.115232826067977e-05 0.0 0.0
0.004905311623210465 -0.0008778880756806084 0.0 4.383621939684034e-05 0.0 0.0
0.00449717214006432 -0.0007004534987482133 0.0 -0.00038912439967343657 0.0 0.0
0.003362490318752842 -0.00026856151135316115 0.0 -0.0010295046387730276 0.0 0.0
0.003122829144083047 -0.00027156535730218814 0.0 -0.0009809696724795687 0.0 0.0
0.008671182098481842 -0.0025110227061850596 0.0 -0.0005050596951674611 0.0 0.0
0.008248089036051951 -0.0022618262522984 0.0 -0.0005598006784158443 0.0 0.0
0.003618965165526624 -0.00011246897394480222 0.0 -0.00026888394638677573 0.0 0.0
0.0033217770740275776 0.00015523126554361754 0.0 -0.0002929610439486923 0.0 0.0
0.003302339892039478 -0.00014477075747602354 0.0 -0.000372682584985978 0.0 0.0
0.00851115326215827 -0.0025258913131259537 0.0 0.0003686895991118888 0.0 0.0
0.008608767716313996 -0.0024253479950277846 0.0 0.0008985314505607167 0.0 0.0
0.003596994394429325 -8.076407130552549e-05 0.0 -0.0002968842371245405 0.0 0.0
0.003258894199775833 0.00018504846573013723 0.0 -0.0002547854860955251 0.0 0.0
0.003222236438664548 -0.00011390797985587308 0.0 -0.00041095592238102086 0.0 0.0
0.008427000231671183 -0.002511745031813471 0.0 -0.00034623977559241254 0.0 0.0
0.008305004293836942 -0.002444749159053305 0.0 -0.00044105877133958566 0.0 0.0
0.00871000808459084 -0.0022926093950982837 0.0 -0.0009640528425984412 0.0 0.0
0.011408057705322138 -0.0033951357046901934 0.0 3.666494115316651e-06 0.0 0.0
0.011141447949781884 -0.0033934773205044045 0.0 -0.000259932116819333 0.0 0.0
0.011513033062782119 -0.003476112498761186 0.0 -0.00017994751169878568 0.0 0.0
0.011066658458298951 -0.0033506533051899864 0.0 -0.0002155193588010206 0.0 0.0
0.0038297195177477107 -0.0020940343937370575 0.0 -0.0019116265933545886 0.0 0.0
0.0024654640296397886 0.00048587301405063446 0.0 -0.00013029256916989078 0.0 0.0
0.0024991695461694962 0.0005046654402720368 0.0 -9.142945374886691e-05 0.0 0.0
0.00799715973609583 -0.0023433919922774687 0.0 -0.00032551089007226214 0.0 0.0
0.008050573256401733 -0.0023420214284241574 0.0 -0.00037061363504596107 0.0 0.0
0.012308046096441186 -0.0030598626212699973 0.0 0.001151240165835832 0.0 0.0
0.003961356894814035 -0.0019775234101594846 0.0 -0.001891088919890171 0.0 0.0
0.0034025289949430686 -0.0006949781021288068 0.0 0.0014236833637850787 0.0 0.0
0.01025306237454817 -0.002453793358217936 0.0 0.0012633225224653298 0.0 0.0
0.00542928139683575 -0.002723662949065215 0.0 0.002756807700606641 0.0 0.0
0.009122042235323825 -0.0036734104896370373 0.0 -0.0016249022082724573 0.0 0.0
0.01070585739065246 -0.0035647437727869664 0.0 -0.00011106091511291758 0.0 0.0
0.009038359577266673 -0.0036482141641955373 0.0 -0.0016673225425960865 0.0 0.0
0.010783556930411945 -0.003596251845283873 0.0 7.865203438659423e-05 0.0 0.0
0.010909281203271401 -0.0030586325029079947 0.0 -0.0015824519432296072 0.0 0.0
0.01114335485030053 -0.0033716747923011304 0.0 -0.0010586932901178636 0.0 0.0
0.010567805283497421 -0.0032228978378745113 0.0 -0.0013451556017278544 0.0 0.0
0.010687583286192424 -0.003498770156573677 0.0 -0.00038676606221191946 0.0 0.0
0.004428959613460023 -0.0015703736732136776 0.0 -0.0019970175819842575 0.0 0.0
0.005194197322530548 -0.0016484839027402114 0.0 -0.0018910405888146599 0.0 0.0
0.005115425919126996 -0.0015466913281362716 0.0 -0.0014608422825210898 0.0 0.0
0.0052477768286921505 -0.002462873866590629 0.0 0.0028411901924140577 0.0 0.0
0.010991928596830913 -0.0034177906727277736 0.0 0.00038807395759671504 0.0 0.0
0.01045312317486495 -0.003162170146403224 0.0 0.00034550093708437965 0.0 0.0
0.010693809035910886 -0.0032693827088133066 0.0 0.0004207148415902383 0.0 0.0
0.010725718354563062 -0.003330765419975797 0.0 0.0002725536673083132 0.0 0.0
0.008046939542011708 -0.0035519331111220995 0.0 0.0017955842096836927 0.0 0.0
0.009183668036624574 -0.0036448713637818285 0.0 0.0015565593250761985 0.0 0.0
0.002787564353580757 -0.0004769998528712967 0.0 0.0013932623334847042 0.0 0.0
0.0036894365941828105 -0.0004787123426963655 0.0 0.001349261777359731 0.0 0.0
0.01051942723207105 -0.0024272996642780934 0.0 -0.00161153682963618 0.0 0.0
0.007263493620781615 -0.0032727906975108523 0.0 0.0022019317952184777 0.0 0.0
0.004905524283394775 -0.001096625281710814 0.0 -0.0007139018927086164 0.0 0.0
0.0045765095972948215 -0.0008773408864233814 0.0 -0.001087606646582682 0.0 0.0
0.00981043918949804 -0.0029193255367200538 0.0 -0.0013888697392310735 0.0 0.0
0.010023611388355828 -0.0029622488153650873 0.0 -0.0013806343576240683 0.0 0.0
0.008538467289496185 -0.0026451319365474023 0.0 -0.00015620983447173564 0.0 0.0
0.009163696230145617 -0.002849683518183691 0.0 6.124564292724936e-05 0.0 0.0
0.01041054663508904 -0.0019382052908420509 0.0 -0.0009992434121047177 0.0 0.0
0.0017479006779581548 -1.139957433331284e-05 0.0 -0.0009182408730263096 0.0 0.0
0.010870245332863699 -0.003293990492844811 0.0 -2.673298741311151e-05 0.0 0.0
0.010893339082757822 -0.003281009785557557 0.0 8.202255676701786e-05 0.0 0.0
0.0026052428745378235 0.00047507888603630984 0.0 0.00018478829316432674 0.0 0.0
0.009113170172711961 -0.002683305009131209 0.0 -0.0004302136856274308 0.0 0.0
0.00901324370143297 -0.0027590074454197336 0.0 -0.0008060242201517427 0.0 0.0
0.010669537578850101 -0.0033451812432815694 0.0 -0.0011680181290256567 0.0 0.0
0.004828437459907441 -0.0016551594347188308 0.0 0.0017082985261901446 0.0 0.0
0.010529831746977398 -0.003193569849161703 0.0 -0.0004120836342752179 0.0 0.0
0.010754158100992976 -0.0033667553469391392 0.0 -0.00047755606102668747 0.0 0.0
0.010605979254846071 -0.00321740348793179 0.0 0.00014154912723352703 0.0 0.0
0.009977182291695414 -0.002967599557381888 0.0 -0.00012206540400640294 0.0 0.0
0.010241549333326895 -0.0031039491933528025 0.0 5.1187538564297864e-05 0.0 0.0
0.010295965537317295 -0.003192965160636144 0.0 -0.00014992864835599378 0.0 0.0
0.010506784731353483 -0.0031235982935581674 0.0 0.0014149311714620064 0.0 0.0
0.010334549302153615 -0.0027721714613209805 0.0 0.0016358486025500373 0.0 0.0
0.010260346577745426 -0.002292605810511031 0.0 0.0014384693783413482 0.0 0.0
0.010208960673945586 -0.0027363788343635186 0.0 0.0012829223146030421 0.0 0.0
0.009602616441591424 -0.0028550118102888098 0.0 0.000382997602084408 0.0 0.0
0.009628359101575534 -0.002888236960018091 0.0 0.0009470911070473098 0.0 0.0
0.010430297255968222 -0.003229170649458514 0.0 -0.000687183361615478 0.0 0.0
0.009778862850824 -0.0031161529071137757 0.0 0.0002723948448843542 0.0 0.0
0.009560186776644415 -0.0019440117684247403 0.0 -0.0009973538190181425 0.0 0.0
0.009572861329195702 -0.0028557280254307804 0.0 0.000391625431698012 0.0 0.0
0.009602904155581859 -0.0028694117716536235 0.0 0.0009399843572938737 0.0 0.0
0.005469839843342293 -0.0012302514436917868 0.0 0.0003186358418378242 0.0 0.0
0.005362945457058261 -0.0012281181177327591 0.0 0.000284661471804372 0.0 0.0
0.006798462557598858 -0.0018985312556887722 0.0 4.898418812858404e-05 0.0 0.0
0.007425457816538367 -0.0021718536273928474 0.0 -0.0001399322481240019 0.0 0.0
0.008102360386017058 -0.0026592508846712444 0.0 -0.00043495071163640397 0.0 0.0
0.007521663138427938 -0.0022773747444672335 0.0 -9.777997868236915e-05 0.0 0.0
0.010894361819100138 -0.003193775477871482 0.0 0.001562825618225958 0.0 0.0
0.010769475909823826 -0.003158589200722071 0.0 0.00031655998358049516 0.0 0.0
0.010881455512671827 -0.0032902732397979296 0.0 0.0002563333519171371 0.0 0.0
0.010876279258689331 -0.0033228011393729526 0.0 0.000422086416060403 0.0 0.0
0.002553860536050847 0.0003639686248212755 0.0 0.00037763793878742763 0.0 0.0
0.009203160054573273 -0.0028579115557397466 0.0 0.00011572630475540755 0.0 0.0
0.008766592635648955 -0.0027601391032066507 0.0 3.151227504018258e-05 0.0 0.0
0.008749603037406883 -0.0026956035474109243 0.0 -6.638663274280815e-05 0.0 0.0
0.008750324294466266 -0.002593662132796387 0.0 0.0005462797293796241 0.0 0.0
0.011533739809810777 -0.0035077984571320556 0.0 0.00016041651486590312 0.0 0.0
0.002320557635463175 0.0004839612176027228 0.0 9.33685547462264e-05 0.0 0.0
0.009925036360780255 -0.0019769452775420175 0.0 -0.0007091421824349754 0.0 0.0
0.010334612245514798 -0.00233891376303884 0.0 -0.0013499582492757967 0.0 0.0
0.0023662268357943685 0.00015578095315318605 0.0 -0.0005913319710360527 0.0 0.0
0.0025039722551402567 -0.00015742248542622867 0.0 -0.001273562963002292 0.0 0.0
0.010614626007075745 -0.0031699933606337497 0.0 -8.698897172230675e-05 0.0 0.0
0.010269853333609887 -0.0031232512866371997 0.0 0.00012028692660470827 0.0 0.0
0.002370301093059644 0.0004922622566786398 0.0 0.0003124051866004797 0.0 0.0
0.0026110973727570884 0.0001700904826598184 0.0 0.0005583129774855073 0.0 0.0
0.0034032661211701376 -0.0002865160625445389 0.0 0.0005773986710060449 0.0 0.0
0.0034018386374257887 -1.6971406585859585e-05 0.0 0.0005570795932462013 0.0 0.0
0.009125953872507446 -0.002473932313838289 0.0 0.0009610092625820423 0.0 0.0
0.00888823349956433 -0.0022362635141875533 0.0 0.001060120035495695 0.0 0.0
0.011501125711974019 -0.003761127027769138 0.0 -0.001415829002568807 0.0 0.0
0.007290174658976748 -0.0031434873976410012 0.0 0.0022785935139420406 0.0 0.0
0.01142274127289756 -0.003737383262604671 0.0 -0.0014528455323146385 0.0 0.0
0.011486657751795859 -0.0037787047270975197 0.0 0.001540443563055333 0.0 0.0
0.004876102409439704 -0.0012688216328927554 0.0 0.0014496923467429111 0.0 0.0
0.003923624746523905 -0.000708053477127791 0.0 0.0010647185920870444 0.0 0.0
0.008509646560127473 -0.0027081892496215727 0.0 9.211683829429895e-05 0.0 0.0
0.002596266482296511 0.00048351708151297897 0.0 -0.00014094813917417414 0.0 0.0
0.0024797743475734944 0.0005074626422095289 0.0 -0.00011011049672386479 0.0 0.0
0.008182251550321906 -0.0021871735424883612 0.0 -0.00016100208813069538 0.0 0.0
0.008006446801161679 -0.0019216340956710522 0.0 -0.00022953709930199665 0.0 0.0
0.009132676465634119 -0.0026015562863486727 0.0 -0.0009443453350398896 0.0 0.0
0.008632365508868898 -0.002530877788682414 0.0 -0.0007490105768059626 0.0 0.0
0.002943585640013308 0.0002038357592848456 0.0 -0.0004811507243674776 0.0 0.0
0.0024254512619722203 0.00023554976677476151 0.0 -0.0006948523080260418 0.0 0.0
0.01106033520796966 -0.003131012757503003 0.0 0.0014632240514273027 0.0 0.0
0.009304006724312567 -0.002350579312087078 0.0 -6.592269431609813e-05 0.0 0.0
0.009767990210939936 -0.002386224236677669 0.0 -2.721943243344416e-05 0.0 0.0
0.009356432578524605 -0.001753716970370902 0.0 -0.0002446440032009561 0.0 0.0
0.002278060142170135 0.00042365342344724506 0.0 -0.00017064374559554648 0.0 0.0
0.00472282634248756 -0.0014636663187948917 0.0 0.0019357550574554056 0.0 0.0
0.011544399492927484 -0.003409584066626396 0.0 9.63724551298668e-05 0.0 0.0
0.011082845957312982 -0.0033913757492154838 0.0 0.0003673762638194503 0.0 0.0
0.001531639007418829 0.0002733309110907943 0.0 -0.00025240379828928385 0.0 0.0
0.009894329442481163 -0.0016813838321969663 0.0 -0.00033473730678699125 0.0 0.0
0.010166346046039495 -0.0015590584127578866 0.0 6.399597761204721e-05 0.0 0.0
0.010969136211384997 -0.0032303975542587013 0.0 0.0001393298754764275 0.0 0.0
0.010915464291946172 -0.0033766734653301006 0.0 0.00048099808475670735 0.0 0.0
0.008320702278049034 -0.0026054184362176063 0.0 0.0001736055012539859 0.0 0.0
0.00876827918076888 -0.0027020876623623214 0.0 4.316215138425184e-05 0.0 0.0
0.011075232890193278 -0.003313994772381915 0.0 -0.0002623996836148882 0.0 0.0
0.01101118791242089 -0.0018438190144425854 0.0 -0.0005016225022828411 0.0 0.0
0.009325611603639929 -0.00349356059104463 0.0 0.0019511085747684683 0.0 0.0
0.007060899405296672 -0.002657433972589729 0.0 0.0026352021063240495 0.0 0.0
0.0029324175240971408 -0.001905449252607908 0.0 -0.002629813493582749 0.0 0.0
0.013090629449861719 -0.0028936617821440132 0.0 0.0007118952903611486 0.0 0.0
0.0028369523665267966 -0.0019178809096780994 0.0 -0.0025019355030921533 0.0 0.0
0.004494599854107261 -0.001264347456495762 0.0 0.0013932814907033485 0.0 0.0
0.010375867715707624 -0.0027914125873548675 0.0 0.0013959037894907137 0.0 0.0
0.010847745224296951 -0.0027989347395053015 0.0 0.0014664879559162965 0.0 0.0
0.005255479809862158 -0.0019328894118792218 0.0 0.0020038804169648728 0.0 0.0
0.007450006783207893 -0.002134317276875057 0.0 0.0001747334134843094 0.0 0.0
0.011937430160451953 -0.003601700123149906 0.0 -6.763339369431652e-05 0.0 0.0
0.002410495151471684 0.0006227254588399058 0.0 -8.506803539644755e-06 0.0 0.0
0.0024801856301250036 0.0004639673005757719 0.0 0.00014326860958416532 0.0 0.0
0.002499280988147495 0.0005564203913722374 0.0 3.2831496636568714e-05 0.0 0.0
0.0024399309498822908 0.0005936060110124362 0.0 5.54767231507584e-06 0.0 0.0
0.002497038548258058 0.0005856660925074736 0.0 3.7334721662762005e-05 0.0 0.0
0.006887837590705305 -0.00197066218769128 0.0 0.0001453701526210809 0.0 0.0
0.007949932455201057 -0.002440202831895854 0.0 2.5603811856117312e-05 0.0 0.0
0.011774741692669365 -0.0033129048968769327 0.0 0.0007334946124265475 0.0 0.0
0.011387565084392776 -0.002784139786944549 0.0 0.000526326559704818 0.0 0.0
0.011315314277163346 -0.002917294484299715 0.0 0.0004652175509594174 0.0 0.0
0.003509240354072201 -0.0017547602982751842 0.0 0.00241554412072026 0.0 0.0
0.01138723726828115 -0.0030698682778514215 0.0 -0.000797497796340968 0.0 0.0
0.011929718947871166 -0.0028310338935746754 0.0 -0.00034681683476105407 0.0 0.0
0.009562102352462094 -0.002979958231486574 0.0 0.00014706878961583722 0.0 0.0
0.009134586252439656 -0.002878456896819076 0.0 -0.00018437173609665405 0.0 0.0
0.009014354561571345 -0.0026262716489083788 0.0 0.0003950648214017611 0.0 0.0
0.008885301014397017 -0.002651194358906975 0.0 0.00033546155893622527 0.0 0.0
0.009579890362925189 -0.0028812980803445644 0.0 0.0009227500272220126 0.0 0.0
0.009137125154834341 -0.002535642619381629 0.0 0.0009658003614192579 0.0 0.0
0.004935658891907543 -0.000873308561336546 0.0 2.8110614612481914e-05 0.0 0.0
0.004530641394076752 -0.0006000182152371208 0.0 0.000281180511105519 0.0 0.0
0.004963473677995113 -0.0009482592383209753 0.0 0.000606729737187571 0.0 0.0
0.004086403925122734 -0.0006131510064728169 0.0 0.0003583157549714315 0.0 0.0
0.009012626410363865 -0.002652710219294068 0.0 0.00040462010864627406 0.0 0.0
0.00903990082425345 -0.0026902028967606554 0.0 0.00038293626254298275 0.0 0.0
0.009639962997686715 -0.0028918340851662263 0.0 0.0009476493549644846 0.0 0.0
0.009075394466842234 -0.0025998205794045765 0.0 0.0009787406460656453 0.0 0.0
0.009330306128044303 -0.002836412420854979 0.0 -0.00045205246934597256 0.0 0.0
0.009010799850628366 -0.0026102009355835824 0.0 -0.0004455372159083667 0.0 0.0
0.009770367987242764 -0.002825508938681854 0.0 -0.0009256687885439538 0.0 0.0
0.010246112289751638 -0.003100464094520917 0.0 0.0003024400802026151 0.0 0.0
0.01011908527284515 -0.0032701760098494 0.0 4.471421730598667e-05 0.0 0.0
0.004895696064198146 -0.0023867127180004803 0.0 -0.0018058122777324626 0.0 0.0
0.004914122654893566 -0.0026521778059782172 0.0 -0.003059464581456419 0.0 0.0
0.006755760733688107 -0.0028447263883732412 0.0 -0.0020313909756909444 0.0 0.0
0.010794776560726775 -0.0023674216957264033 0.0 0.00330915678813858 0.0 0.0
0.011424180746758106 -0.003371108015507537 0.0 0.0005663976524073152 0.0 0.0
0.011380110827899461 -0.0038925869924060883 0.0 0.0009016653299570334 0.0 0.0
0.009509768612688173 -0.0021179578524801648 0.0 0.0012420750268759134 0.0 0.0
0.009436167504816103 -0.0026879593947746858 0.0 0.0009668402579525711 0.0 0.0
0.009874081100742307 -0.0024492710784202888 0.0 0.0007996129140302005 0.0 0.0
0.002861991738091595 7.463619717613019e-06 0.0 0.0006815049702023951 0.0 0.0
0.002900113307640253 1.1721276366768992e-05 0.0 0.000699794647817135 0.0 0.0
0.0026999748038359804 0.0001321231599950822 0.0 0.0007801391606980212 0.0 0.0
0.00229394995275899 0.0003350030089339388 0.0 0.00033582681826707 0.0 0.0
0.004859670214219923 -0.0024725448639757197 0.0 -0.001959595320992286 0.0 0.0
0.006443202309514407 -0.001763232722063533 0.0 -0.00037237285244528314 0.0 0.0
0.006693107318821248 -0.001833085597221785 0.0 -0.0002592972217363782 0.0 0.0
0.006756069895525953 -0.002060053758669123 0.0 -0.00037511616157699467 0.0 0.0
0.01150635771735051 -0.0018987421949200368 0.0 0.001077747249255974 0.0 0.0
0.01148111361111273 -0.002152496186787882 0.0 0.0006455030719927463 0.0 0.0
0.007496201575856794 -0.002209523723568414 0.0 -0.00021086772547982452 0.0 0.0
0.008253879537730805 -0.00235669952486274 0.0 -0.0004620160811776616 0.0 0.0
0.0016661433275242535 -0.0008157026737480211 0.0 0.0018982552261285741 0.0 0.0
0.0018286607037164995 -0.0003836776908633987 0.0 0.0013328394418713108 0.0 0.0
0.003275755499131153 0.00011289180006866383 0.0 -1.6068658144176547e-05 0.0 0.0
0.0028057536606717224 0.00015741652929630995 0.0 -0.00023988693917156495 0.0 0.0
0.007367836273884611 -0.0021138520009036485 0.0 -0.00024683659276319314 0.0 0.0
0.008248826319756484 -0.0023039072899254847 0.0 -0.0005525730369944158 0.0 0.0
0.0032172660292667365 0.00016942868952544277 0.0 -1.98186878403276e-06 0.0 0.0
0.002809918378079993 0.00018850255888643876 0.0 -0.00021300152379880418 0.0 0.0
0.0013807023149495809 -0.001016014565329434 0.0 -0.0008460911723668417 0.0 0.0
0.01360864475765803 -0.0023148629462051906 0.0 -0.0005395537373181536 0.0 0.0
0.013461792979817781 -0.002055657748040344 0.0 0.0006181903884418228 0.0 0.0
0.011552345144050945 -0.0014722760866526226 0.0 5.240806067360496e-05 0.0 0.0
0.007484298274436798 -0.002230257700523994 0.0 -0.00030772876390338315 0.0 0.0
0.008536023718803291 -0.0026818914965997184 0.0 7.333649469364577e-05 0.0 0.0
0.008336249414629134 -0.0026170025282417683 0.0 -0.0002569696613305126 0.0 0.0
0.00799206514544106 -0.0024238712894097472 0.0 0.00013753160690470638 0.0 0.0
0.0014779365265133314 -0.0005958361991570087 0.0 0.0009401294915575859 0.0 0.0
0.010906179253414212 -0.0033017264051916875 0.0 -0.0002717031786238754 0.0 0.0
0.01071475603107897 -0.003291255304193841 0.0 -8.732430621457265e-05 0.0 0.0
0.010983367847731634 -0.0033205505052320227 0.0 -0.00014573393067093558 0.0 0.0
0.010547715857102598 -0.003263744211872713 0.0 -0.00037939107500448084 0.0 0.0
0.01224229647521707 -0.0034639971629760544 0.0 -0.0006494027013822914 0.0 0.0
0.011654535290723772 -0.0019467734417048515 0.0 -0.0008104608274228739 0.0 0.0
0.005055904764144094 -0.002427917136467742 0.0 0.0022283710852117377 0.0 0.0
0.005243289431942722 -0.0024463143975279595 0.0 0.0023397852263822966 0.0 0.0
0.012468788289551367 -0.003559834627350315 0.0 -0.00029653980427112774 0.0 0.0
0.002010197825899713 -0.001014335440852788 0.0 -0.0021014615817570325 0.0 0.0
0.0011722626438080044 -0.0005414024167979469 0.0 -0.0007011353605567191 0.0 0.0
0.0013173660691019418 -0.00015058503067779012 0.0 -0.0011451828842753804 0.0 0.0
0.012107516184719808 -0.002272266481915491 0.0 -0.0012595962722748602 0.0 0.0
0.011982476504004625 -0.001574378576685082 0.0 -5.5416845662531307e-05 0.0 0.0
0.011157555548540464 -0.0017078903839062409 0.0 -0.0009513738816634146 0.0 0.0
0.012374120026560752 -0.003555501303131523 0.0 0.0003478008840285237 0.0 0.0
0.0031906737533148057 -0.00019856021155884848 0.0 -0.0009678432228926068 0.0 0.0
0.009518056279972016 -0.002296993829313657 0.0 -0.0008679978898197519 0.0 0.0
0.009811824171934016 -0.0027099364216259386 0.0 -0.0012209760227439848 0.0 0.0
0.0098199485252335 -0.0023413233629345463 0.0 -0.0011661924029104326 0.0 0.0
0.008978682947202813 -0.0020852859096921056 0.0 -0.0007864638158268084 0.0 0.0
0.002151339411375126 -0.00013771553487304083 0.0 -0.0009551851983330388 0.0 0.0
0.003175946042878215 -0.0008410509672093369 0.0 -0.001813441539399799 0.0 0.0
0.003168299531232142 -0.0009275854587478118 0.0 -0.0015612572692911511 0.0 0.0
0.0020010007113382554 -0.00014746997362227927 0.0 -0.0013046787625166634 0.0 0.0
0.010950510742557954 -0.0020616827598728795 0.0 -0.0006299862607330827 0.0 0.0
0.01109194532956059 -0.002641243691155385 0.0 -0.001455174642822225 0.0 0.0
0.011347254799731329 -0.0025251599496285975 0.0 -0.0007027293529340288 0.0 0.0
0.010361663765395476 -0.0017975699288850283 0.0 -0.0011781753698500539 0.0 0.0
0.010627644725998767 -0.002400759120659347 0.0 0.0010878777665080065 0.0 0.0
0.011512558427765147 -0.0025193176174041617 0.0 0.0009989213119261698 0.0 0.0
0.010622472229205584 -0.0018574237286857862 0.0 0.001115303718899109 0.0 0.0
0.010019244971960158 -0.0018226761132829653 0.0 0.001112149715329498 0.0 0.0
0.010222357151077449 -0.0019594838229833977 0.0 8.630993471225098e-05 0.0 0.0
0.0018130349695351306 9.878959862828365e-05 0.0 0.0009541019487179975 0.0 0.0
0.002107354417186606 0.00020972208302542827 0.0 0.00032625130636273147 0.0 0.0
0.011254363709326469 -0.0036784102188231744 0.0 0.0011577289763278 0.0 0.0
0.01076189866494258 -0.0034372952039461767 0.0 0.000799428058614912 0.0 0.0
0.011780463293207238 -0.003437549978062171 0.0 0.0008347739312958128 0.0 0.0
0.010687316585291083 -0.0021242473879901098 0.0 0.0007269963697331238 0.0 0.0
0.010781666010565839 -0.0023588974103194334 0.0 0.001540363509081613 0.0 0.0
0.00342936406048627 4.478119696916692e-05 0.0 2.665416936483841e-05 0.0 0.0
0.0028342072664865464 0.00020762618165704418 0.0 0.0003624899108074671 0.0 0.0
0.0028999197040839816 0.00021755769781312632 0.0 0.00028641926814571017 0.0 0.0
0.011270824054627858 -0.003585097293280598 0.0 0.0011402414620028901 0.0 0.0
0.010971419999409517 -0.0034707814971016793 0.0 0.00036660615834216816 0.0 0.0
0.010827229751588369 -0.0031955795848544652 0.0 0.0010672289130895076 0.0 0.0
0.00259291143423073 -0.00024004312136900196 0.0 0.0010263156231121774 0.0 0.0
0.0028484734839134772 -0.000690931713557741 0.0 0.0018328722808098376 0.0 0.0
0.006388260604219301 -0.0023861444441064306 0.0 0.0018958953509027928 0.0 0.0
0.005222224883728011 -0.0023363878408394914 0.0 0.0021888964981812624 0.0 0.0
0.005222946431325529 -0.0019170658280653456 0.0 0.0021708561201320546 0.0 0.0
0.009816913406725062 -0.0018044873222536487 0.0 0.0007043916245344094 0.0 0.0
0.009997974624268671 -0.0018862174157607385 0.0 0.0011932009142132064 0.0 0.0
0.010322014832043347 -0.0020833118991346244 0.0 0.0004287601398029667 0.0 0.0
0.0028293944958806233 -0.00033528119401880644 0.0 0.0012850982638571665 0.0 0.0
0.0031146250710210772 -0.0008601720252069656 0.0 0.0016910219238697817 0.0 0.0
0.0018015978926127526 -0.00033708805819713514 0.0 0.0013522998227705081 0.0 0.0
0.0019700539955421438 5.935728902133783e-05 0.0 0.0010819339217375248 0.0 0.0
0.0019025154427248327 0.00024080678001892983 0.0 0.0003797537863958573 0.0 0.0
0.010754693268308161 -0.002609741659938594 0.0 -0.0010631064182834052 0.0 0.0
0.01170820729888345 -0.002390076149909346 0.0 -0.0007976662252032095 0.0 0.0
0.010822205530393047 -0.00193519147155606 0.0 -0.0012846123937754774 0.0 0.0
0.011208375802909117 -0.003657231261189355 0.0 -0.0011480688451354802 0.0 0.0
0.01071678876271317 -0.003467532389195033 0.0 -0.0007804881619560722 0.0 0.0
0.011506306970878948 -0.003448125682368664 0.0 -0.0006561273819254668 0.0 0.0
0.0109151516478013 -0.0017333084050068365 0.0 -0.0004972632163341831 0.0 0.0
0.010452919934989466 -0.00138420489503518 0.0 0.0004712243728961295 0.0 0.0
0.00034721227288915193 -0.00020362644622178193 0.0 -0.0005277689911461599 0.0 0.0
0.0011009704813780572 -5.902476595715123e-06 0.0 -0.0001323648366297227 0.0 0.0
0.0013957908120333159 0.00016803073791823563 0.0 -0.00037244648884209215 0.0 0.0
0.0011949925476136226 0.000146893451019549 0.0 0.000583014369231451 0.0 0.0
0.011828233646257753 -0.0011783222182222613 0.0 -0.00037772197237969567 0.0 0.0
0.011429819026955109 -0.0014475608408085205 0.0 0.00029075127504038625 0.0 0.0
0.010725972082528507 -0.0015560597980889576 0.0 -0.0004047287727251262 0.0 0.0
0.010466956238356074 -0.001338439456861969 0.0 0.0007963435405950394 0.0 0.0
0.007574897680577931 -0.0023182801588889257 0.0 0.0006585640730753474 0.0 0.0
0.019720414851810936 -0.003572591166286595 0.0 -0.005402360401896883 0.0 0.0
0.012623430029886643 -0.002253864960123522 0.0 -0.000529760003667135 0.0 0.0
0.016341664679532086 -0.003042231616967906 0.0 -0.0008419051122611382 0.0 0.0
0.016015001756648006 -0.003958215465296925 0.0 -0.003192221726392796 0.0 0.0
0.0016837102556611161 -0.004647414754005296 0.0 -0.0006436108095627835 0.0 0.0
0.001111429151772661 -0.0013052660123217068 0.0 0.0018037048871837474 0.0 0.0
0.0017208136646383754 -0.0026493754156758347 0.0 0.0007061633448923253 0.0 0.0
0.0005367871165527794 -0.0023075945408200104 0.0 0.0003697379154245749 0.0 0.0
0.019759797639921292 -0.0035430873816805083 0.0 -0.005078470555136634 0.0 0.0
0.012644593353481611 -0.0025495381914810247 0.0 -3.722207754100778e-05 0.0 0.0
0.016119086938368644 -0.003976321737520617 0.0 -0.0031586432577677768 0.0 0.0
0.01068455373878156 -0.0032174865863053214 0.0 0.0004084408157145355 0.0 0.0
0.0016846610127302082 -0.00446585018434191 0.0 -0.0002662387740161649 0.0 0.0
0.0022038942959260706 -0.0016966891979109636 0.0 0.002463968219115932 0.0 0.0
0.0005075594317552592 -0.0021140790596644978 0.0 -0.00021328922171570637 0.0 0.0
0.0016733129182300182 -0.004386065120140085 0.0 0.001086978954385053 0.0 0.0
0.0011581363516322467 -0.0012832687733859767 0.0 -0.0012219476683379194 0.0 0.0
0.0017707411011096508 -0.0029478270069718143 0.0 -0.0009658723993645729 0.0 0.0
0.000492019160281358 -0.0026140971507826478 0.0 -0.0002495686556199044 0.0 0.0
0.006713583488643568 -0.0020691761141841103 0.0 0.00109296546940877 0.0 0.0
0.006745638296360344 -0.0023654331894483634 0.0 0.000895858547116194 0.0 0.0
0.02004103780626591 -0.0035026789366543946 0.0 0.005163676330848587 0.0 0.0
0.012608026111820459 -0.002465728811493141 0.0 0.0004841905719559503 0.0 0.0
0.01611558608414673 -0.0029055460020614957 0.0 0.0012809114680052587 0.0 0.0
0.015579432705315893 -0.003542215111994724 0.0 0.0027106815720236424 0.0 0.0
0.0017045080359719726 -0.004411182559154867 0.0 0.0010596579084383878 0.0 0.0
0.0009349152752275855 -0.0010665806116278533 0.0 -0.0012912465038869298 0.0 0.0
0.0016917359994491515 -0.002903418531146109 0.0 -0.0010024266429312437 0.0 0.0
0.0005413129102625203 -0.002582841569204222 0.0 -0.00034274504270427765 0.0 0.0
0.01957421075141533 -0.0032781965620128904 0.0 0.006378716014213958 0.0 0.0
0.01254940337808808 -0.0021902042552700398 0.0 0.001086364866977584 0.0 0.0
0.016672443413167534 -0.003133448928070692 0.0 0.000984867635549932 0.0 0.0
0.015933361792577407 -0.003747124906489197 0.0 0.002840460263121191 0.0 0.0
0.007237771522785602 -0.003279904010474025 0.0 -0.0023063753923077677 0.0 0.0
0.00922860635335147 -0.003582366524976839 0.0 -0.0018703455752105518 0.0 0.0
0.007155289559035053 -0.0022869286074407927 0.0 -0.0031122362403767823 0.0 0.0
0.007198625069207979 -0.002704592894623613 0.0 -0.0025270128711237213 0.0 0.0
0.007225003114714719 -0.0034375392383608487 0.0 -0.0025130560705441565 0.0 0.0
0.009090890116291786 -0.0035644178151419325 0.0 -0.0017882207924031402 0.0 0.0
0.0070682182772925095 -0.002299337427803427 0.0 -0.003204399619033415 0.0 0.0
0.007145097197388893 -0.0026467570599513005 0.0 -0.002595810337977786 0.0 0.0
0.00865943813853451 -0.0026280706835988647 0.0 0.00034116911008394933 0.0 0.0
0.0025826551317530617 0.00045826162890463736 0.0 0.0002671537361912003 0.0 0.0
0.006436892521457058 -0.001775090610957192 0.0 0.0007869276038415031 0.0 0.0
0.007463668753394812 -0.002299534559699133 0.0 0.0007173269995976929 0.0 0.0
0.006438969181090366 -0.002036103491499808 0.0 0.0006639084243399186 0.0 0.0
0.008375247798254031 -0.002039560941220977 0.0 0.0037569481565854733 0.0 0.0
0.006246423254397136 -0.00213933362161314 0.0 0.0018319562571622785 0.0 0.0
0.004924831991370991 -0.002082074157992199 0.0 0.0021763012006382866 0.0 0.0
0.002984917991810082 -0.000537623229527046 0.0 -0.002845722961662505 0.0 0.0
0.0029242986848555426 -0.00018024737959955933 0.0 -0.0011646656689946592 0.0 0.0
0.002089701952832826 0.00024059481558908572 0.0 -0.0006663472364267618 0.0 0.0
0.010966073354644362 -0.0032755523368079922 0.0 -0.00016629471965592013 0.0 0.0
0.01071992582279076 -0.003383325896053256 0.0 -0.0005010654276489923 0.0 0.0
0.010718655141562141 -0.003299040147597532 0.0 -0.0005204124113157127 0.0 0.0
0.0029146157822001416 -0.0005955612865589303 0.0 -0.0027358260081444493 0.0 0.0
0.010202567784031415 -0.0032039884139595186 0.0 0.00015104915239410991 0.0 0.0
0.009579759684409711 -0.0029888212581167294 0.0 8.213201946755663e-06 0.0 0.0
0.010261570556018793 -0.003146352716602447 0.0 5.595383536154203e-05 0.0 0.0
0.006073038415210673 -0.0024074150470714197 0.0 -0.001636929057874819 0.0 0.0
0.007170854081761348 -0.0022986347366087184 0.0 -0.0009684880210606894 0.0 0.0
0.0099081951233568 -0.003722651466823716 0.0 0.0008222260977772339 0.0 0.0
0.010084466689395093 -0.0038000707528638945 0.0 0.0018614359249603625 0.0 0.0
0.00850330082941211 -0.0028760781187967713 0.0 0.0020766220312096323 0.0 0.0
0.008210626588367593 -0.003048506916573064 0.0 0.002686329216950012 0.0 0.0
0.01027427280875689 -0.0033940301218257623 0.0 0.001199984942729187 0.0 0.0
0.010187966226924704 -0.0030757771833729505 0.0 0.0013667907277757566 0.0 0.0
0.009991999854334311 -0.0031748086401921028 0.0 0.0012273000063168658 0.0 0.0
0.01029196616230365 -0.003144741410699481 0.0 0.0011316965797372386 0.0 0.0
0.008066583915633141 -0.002493530815403839 0.0 0.0002988008668544687 0.0 0.0
0.00805913161181636 -0.0021319351442459895 0.0 0.0006070693089134489 0.0 0.0
0.008655837045985477 -0.0019127838630736565 0.0 0.00030153056045857245 0.0 0.0
0.002169741064185605 0.00041696672508116395 0.0 0.0003634004566978259 0.0 0.0
0.002522068594531098 0.0004498197990678302 0.0 0.00024313323615101254 0.0 0.0
0.013345701464639466 -0.001604497114606838 0.0 0.005413308175094196 0.0 0.0
0.013319291096351092 -0.003096590166203887 0.0 0.004851790725214463 0.0 0.0
0.0022721875674831665 -0.002377139990594208 0.0 -0.0006925430177187157 0.0 0.0
0.001512565080320383 -0.0020208901556102686 0.0 -0.0006595272027889805 0.0 0.0
0.002269894184154473 -0.0023753203128908584 0.0 -0.0005755964646151877 0.0 0.0
0.0013743940669826038 -0.0018979112280011633 0.0 -0.0005939097346620084 0.0 0.0
0.01201347957299521 -0.0036006060386264385 0.0 -3.125701722402767e-05 0.0 0.0
0.011362400664499806 -0.0033760419126107498 0.0 5.095601628500898e-06 0.0 0.0
0.0034634220056773773 -0.0002359417113570469 0.0 0.0002791181051259625 0.0 0.0
0.008700840844570887 -0.0025691687465883464 0.0 0.0005574784295105169 0.0 0.0
0.010331772962480987 -0.003354260252130823 0.0 -0.0009889717640390123 0.0 0.0
0.01033369272922619 -0.0035094434149204644 0.0 -0.001128839080991477 0.0 0.0
0.01033297239266857 -0.0033818835491769366 0.0 -0.0009813941451569954 0.0 0.0
0.0033196816622039333 -0.0006225251585164422 0.0 -0.0016528030869310173 0.0 0.0
0.002497062054637227 -0.00019039115863986764 0.0 -0.0010964626211729391 0.0 0.0
0.011096274149465703 -0.003332888570391972 0.0 -0.0001993483164464778 0.0 0.0
0.01107852767258152 -0.0034343287509860784 0.0 -0.0003612165910561115 0.0 0.0
0.008833011710467305 -0.001999761457213081 0.0 -0.0007362676528240852 0.0 0.0
0.008904062060253607 -0.0028181149559874485 0.0 -6.185746073911e-05 0.0 0.0
0.009000155322336206 -0.0029311336700851604 0.0 -4.5382470313613446e-05 0.0 0.0
0.00888913153713926 -0.002925335848654302 0.0 -0.000202309107183098 0.0 0.0
0.009000321241223923 -0.002831196751928583 0.0 9.120912959336997e-05 0.0 0.0
0.01444913964609704 -0.0029771366656965556 0.0 -0.001829468692854439 0.0 0.0
0.011335984948344409 -0.0030546374761114127 0.0 -0.0011708860374498864 0.0 0.0
0.01031062207396918 -0.003143693389064399 0.0 -0.0008106423278831298 0.0 0.0
0.014440832757638763 -0.0030362335363968065 0.0 -0.0015134360623384091 0.0 0.0
0.01159846028415064 -0.0031349902542917906 0.0 -0.0009249748567980218 0.0 0.0
0.009742007548964898 -0.0022490053729729213 0.0 0.0013248111887953077 0.0 0.0
0.009907366111938348 -0.0024272237496939988 0.0 0.0009413911125474738 0.0 0.0
0.0027985404774759403 -9.884729019088912e-05 0.0 0.0009554779867220597 0.0 0.0
0.0023361272362490172 0.00016818340746230275 0.0 0.0007750859508947331 0.0 0.0
0.002806280579909725 8.635181441539835e-05 0.0 0.0009175961451244647 0.0 0.0
0.012148137360272324 -0.00363617848496462 0.0 -3.7827937100231325e-05 0.0 0.0
0.011485939911184781 -0.0034164880087012312 0.0 0.00011145472236753517 0.0 0.0
0.011420997221511374 -0.0034362936474778357 0.0 -4.825035005634958e-05 0.0 0.0
0.004703090603901517 -0.0021987551327008244 0.0 -0.0031002277082777434 0.0 0.0
0.0071069636217435265 -0.0032442963248234973 0.0 -0.002063406543283484 0.0 0.0
0.005957896656930494 -0.002872097947521381 0.0 -0.002938962466579513 0.0 0.0
0.005625244906119795 -0.002605701463773978 0.0 -0.002147245306262385 0.0 0.0
0.014351740653674177 -0.002988621551816141 0.0 0.0014247642291512022 0.0 0.0
0.011340047239096863 -0.0030338398909953027 0.0 0.0008788433431984055 0.0 0.0
0.003922263077594266 -0.0006827037998214139 0.0 0.0013416293752351984 0.0 0.0
0.003390058080001374 -0.000447927285666478 0.0 0.0013723991560050048 0.0 0.0
0.004456327362159131 -0.0009130177096236499 0.0 0.0009568154771212462 0.0 0.0
0.010560737432389066 -0.002047033972856057 0.0 -0.001023875172788969 0.0 0.0
0.002931826446117036 -0.0023505065502778255 0.0 0.0014612269802864244 0.0 0.0
0.003081313975177304 -0.0019030958299345346 0.0 0.0024526868582822933 0.0 0.0
0.005156750978092938 -0.0010964151454591756 0.0 -0.001056580306690022 0.0 0.0
0.005195641684674627 -0.0016679180774739726 0.0 -0.0014695454847049806 0.0 0.0
0.004423034466067793 -0.0010905951660301276 0.0 -0.0011091741677829977 0.0 0.0
0.011360161285344398 -0.003439704936860437 0.0 -4.007140790280676e-05 0.0 0.0
0.010762581438788834 -0.003195312342188972 0.0 -5.034564657423507e-05 0.0 0.0
0.010370331700192892 -0.003349382856664979 0.0 -0.0009677838195496737 0.0 0.0
0.010333138350674922 -0.0032179352623733937 0.0 -0.0011022779853854991 0.0 0.0
0.009184122991345717 -0.0025209774813816106 0.0 0.0011281370093427113 0.0 0.0
0.008665039496644345 -0.002627430947915188 0.0 0.0006304713832481753 0.0 0.0
0.003270422939058573 -0.00019692820896419075 0.0 0.0005722762974775826 0.0 0.0
0.004078458487966081 -0.0002310047044777638 0.0 0.0003713342595453819 0.0 0.0
0.011288132323502858 -0.0033694673266890882 0.0 -9.593850785584217e-05 0.0 0.0
0.011216894947200694 -0.0033850195451083477 0.0 0.0001996715411576222 0.0 0.0
0.012020182616708988 -0.0036394268662523458 0.0 -2.059650774959625e-05 0.0 0.0
0.0031293063028539725 -9.969712555264478e-05 0.0 0.0009580916771677428 0.0 0.0
0.0028563445526250527 0.00015921275114516781 0.0 0.0006032617746845674 0.0 0.0
0.010867929480344917 -0.0032096267022727358 0.0 -0.00016501315839149226 0.0 0.0
0.012722127320184316 -0.002694854052985371 0.0 -0.00298876633147399 0.0 0.0
0.012841421241885951 -0.0026566905193146245 0.0 -0.003169478880201618 0.0 0.0
0.004427824156874056 -0.0026360194917183313 0.0 0.001786676081657581 0.0 0.0
0.012901523242926077 -0.0027314637648599275 0.0 0.00306208790498042 0.0 0.0
0.0013767719460563194 0.00012606670625282248 0.0 -0.00047751195726626036 0.0 0.0
0.00443958047709381 -0.000732077302134463 0.0 0.00013062429485734088 0.0 0.0
0.004460738792213596 -0.000864267879961633 0.0 0.0005866461923685019 0.0 0.0
0.004860526580196524 -0.0010288851981051438 0.0 0.00031972345060384097 0.0 0.0
0.005440810047253031 -0.0010277138966508156 0.0 0.0002915024466641906 0.0 0.0
0.004439575680554964 -0.00047771157447685494 0.0 0.0001211421537264012 0.0 0.0
0.00424424098610238 -0.00032198353218544103 0.0 0.0003772966526001853 0.0 0.0
0.0035304644979976723 -0.00031365582524241735 0.0 0.00029425603302733207 0.0 0.0
0.009820130818063016 -0.002957266490895499 0.0 -0.0004193965132724819 0.0 0.0
0.009676084460545268 -0.0028459526616436462 0.0 -0.0004553460498900481 0.0 0.0
0.009751324351667824 -0.0029783609696637783 0.0 -0.000997335164248915 0.0 0.0
0.010132210369996515 -0.003047345790928769 0.0 -0.000969807623555246 0.0 0.0
0.010735528958952273 -0.003152337062144079 0.0 0.00012198983899160933 0.0 0.0
0.010741367292336292 -0.003394343122046215 0.0 9.513147108486012e-05 0.0 0.0
0.009726125587823011 -0.0026441642840312617 0.0 0.0012262105256508628 0.0 0.0
0.009487548888064617 -0.0020642169495564845 0.0 0.0010755078123762828 0.0 0.0
0.009269184974279551 -0.0022672302766800754 0.0 0.0007445321290971428 0.0 0.0
0.010527223694431572 -0.0031847337913761134 0.0 -0.00037701976911556575 0.0 0.0
0.01018129831814573 -0.0031902408359660776 0.0 -0.0008922389104521949 0.0 0.0
0.01017000872603056 -0.002997941467048213 0.0 -0.00040456713963512935 0.0 0.0
0.013062263928983997 -0.002866685072743142 0.0 -0.004612776251751893 0.0 0.0
0.000995830457123639 -0.001233454173503828 0.0 0.0008562043623261786 0.0 0.0
0.012770483806399098 -0.0027172539341830857 0.0 -0.004387140627559843 0.0 0.0
0.012922879669335455 -0.002852000181018027 0.0 0.004517744580915839 0.0 0.0
0.010120376173901166 -0.0015280201921423408 0.0 -0.000188502720963379 0.0 0.0
0.0022989227557174883 -0.0006138898803140576 0.0 -0.0016205237428391795 0.0 0.0
0.002429029593895007 -0.00045937023313377884 0.0 -0.0012672815828447396 0.0 0.0
0.0019280488569712346 -0.00024125187065237634 0.0 -0.001389076472325485 0.0 0.0
0.007494884062397493 -0.002132178806983825 0.0 0.0002798627016823602 0.0 0.0
0.008790750907800944 -0.0026140305456972763 0.0 0.0005074173276344529 0.0 0.0
0.011620679872274175 -0.003118568574453328 0.0 0.001316053169348456 0.0 0.0
0.01078188070962341 -0.0024044648820273143 0.0 0.0012503337228440042 0.0 0.0
0.005684850419454299 -0.0014213859653259453 0.0 -6.903388210471036e-06 0.0 0.0
0.006529553416930684 -0.0016460874729655507 0.0 0.00032394116128485554 0.0 0.0
0.005872390498856271 -0.0013056727955525966 0.0 0.000585125963410684 0.0 0.0
0.0031759550378707363 0.00012652804816536538 0.0 2.7134155936771052e-05 0.0 0.0
0.0032831507155159302 0.00018042413070149863 0.0 0.00040695826702802666 0.0 0.0
0.008761870237022747 -0.0006021410369533928 0.0 -0.0046398158231550695 0.0 0.0
0.008743786525389602 -0.0006177457207327605 0.0 -0.0046518323432454736 0.0 0.0
0.00956432531698221 -0.002178983651505549 0.0 -0.0011128626815130338 0.0 0.0
0.009565225682044447 -0.002596715744781966 0.0 -0.0010939906860294231 0.0 0.0
0.011387808655289247 -0.0034064352840330373 0.0 2.265205511164225e-05 0.0 0.0
0.011216150627477633 -0.0034114925280716124 0.0 -0.0002809519854898823 0.0 0.0
0.011809373149691596 -0.003513565369666719 0.0 -3.847716598708572e-05 0.0 0.0
0.0037820587412802495 -0.0009242057355444143 0.0 0.0028429165015434487 0.0 0.0
0.0087532014970895 -0.0005864845996027967 0.0 0.004622917778718769 0.0 0.0
0.007065930293473079 -0.0007299501549513296 0.0 0.004104464646711608 0.0 0.0
0.009125922649534195 -0.0007533539322589385 0.0 0.004805336557207548 0.0 0.0
0.002265023602313474 0.0005586323415580767 0.0 6.238795743757823e-05 0.0 0.0
0.004244243324258209 -0.0009651697814737298 0.0 -0.002756349206619061 0.0 0.0
0.004250631462652656 -0.0012061223146199041 0.0 -0.0025581458762386883 0.0 0.0
0.004230013452795776 -0.0009482922045095738 0.0 -0.0026957591367468294 0.0 0.0
0.004232066951657521 -0.001123497649315258 0.0 -0.0026356095079883056 0.0 0.0
0.011218449414757534 -0.002579690409313442 0.0 -0.0013983001067283225 0.0 0.0
0.011020245421170305 -0.0029487734339551036 0.0 -0.0011166866097420312 0.0 0.0
0.011125446182687472 -0.00316975802644914 0.0 -0.0014513788722001547 0.0 0.0
0.0015349629916392331 -0.0009705304454002057 0.0 -0.0006032469140228567 0.0 0.0
0.000976943080313444 -0.00037733563655048427 0.0 -0.0013621675910163158 0.0 0.0
0.0029457999679988038 -0.001596686268813609 0.0 0.0024316019184691556 0.0 0.0
0.004930707820988017 -0.0018097396935049536 0.0 0.0021315957180507994 0.0 0.0
0.009340506600340807 -0.0029242854471947517 0.0 0.0001867993255290012 0.0 0.0
0.009590666002254777 -0.0030075988295149717 0.0 -0.00010224387566236337 0.0 0.0
0.00884115465560687 -0.0021868480642903265 0.0 -0.0005899095368766129 0.0 0.0
0.008734511020670995 -0.0025830044835808866 0.0 -3.43352516793567e-05 0.0 0.0
0.0087842656954469 -0.0018310361710660986 0.0 -0.00023857768339432972 0.0 0.0
0.007933065654766792 -0.001887570432854977 0.0 8.003221003121836e-05 0.0 0.0
0.0024504532124866828 0.0005561978770668428 0.0 -0.00010764733455002639 0.0 0.0
0.002039396040356768 0.0005526822706869731 0.0 -0.00014682764475581252 0.0 0.0
0.0022399357906127434 0.0005866491758323912 0.0 3.08711808585291e-05 0.0 0.0
0.0035630086167516097 -0.0014298603098735446 0.0 0.0021592821141544817 0.0 0.0
0.01090476610470144 -0.002710444374150392 0.0 0.0013690042502029162 0.0 0.0
0.008687247096469954 -0.0022490886177553237 0.0 0.0004706643101530767 0.0 0.0
0.0016854765937157588 0.0004813268350414782 0.0 0.00015014288826012274 0.0 0.0
0.0021103322377419775 0.00026618055110164465 0.0 0.0004531955997432306 0.0 0.0
0.0019100639872148988 0.0003933753842928907 0.0 -0.00028405306079964704 0.0 0.0
0.011937468996183202 -0.0030771151975353904 0.0 -0.0004275083483289473 0.0 0.0
0.011791197122949463 -0.0033579340765941 0.0 -0.0002206133541884604 0.0 0.0
0.011308487415440825 -0.0029579692119680685 0.0 -0.0013246084164046663 0.0 0.0
0.003170518954670546 -0.0017868186158467936 0.0 -0.00264114944606815 0.0 0.0
0.004708016463604021 -0.001871474733087235 0.0 -0.0020111474777781036 0.0 0.0
0.0038565091827968924 -0.0016647403443966885 0.0 -0.002410037648507887 0.0 0.0
0.011034131526935161 -0.003349072167513188 0.0 -0.000296384539939715 0.0 0.0
0.010519663841767024 -0.0031225556459872107 0.0 -0.0002982736145630999 0.0 0.0
0.010611760543422012 -0.0033354124243823446 0.0 -0.0007097750545286766 0.0 0.0
0.008405701404715036 -0.0026340802502890863 0.0 -0.00023449912292898445 0.0 0.0
0.007879154333155582 -0.002349951827175193 0.0 7.825890810651094e-05 0.0 0.0
0.00569954355799546 -0.0016318789559375314 0.0 0.0009845672894876006 0.0 0.0
0.006201301354447211 -0.0016061666592042338 0.0 0.0008675603793365022 0.0 0.0
0.0049629342469868516 -0.0013179252583104218 0.0 0.000729692617182235 0.0 0.0
0.0030297623544971925 -0.0010679193904585514 0.0 0.0019635708116736476 0.0 0.0
0.004118885310064049 -0.0010669088503245392 0.0 0.0018420533435900932 0.0 0.0
0.0025777580135133574 0.00044905376908994455 0.0 0.00033252628045065823 0.0 0.0
0.0019541670085181898 0.00043754044484440625 0.0 0.00044754923090390715 0.0 0.0
0.012896435791592203 -0.0029157546982520387 0.0 2.9054991370568716e-05 0.0 0.0
0.011415311673086126 -0.002215875597420063 0.0 0.0010878943088288929 0.0 0.0
0.01137931556362447 -0.002682121538500227 0.0 0.0009155530557926006 0.0 0.0
0.0034945969905668603 -0.001660843546306011 0.0 0.0018307626549598148 0.0 0.0
0.0022752754663824346 -0.0009310845223359034 0.0 0.002054812754084324 0.0 0.0
0.003485043039980941 -0.0009756435451704563 0.0 0.0016432197414389617 0.0 0.0
0.0069199436988278745 -0.0019790326183127395 0.0 0.0005249422091157599 0.0 0.0
0.006057907151676588 -0.0016228662488379883 0.0 0.00029489684071371306 0.0 0.0
0.006320988488390625 -0.0019601897489901414 0.0 0.0005443640361002746 0.0 0.0
0.009295274386737778 -0.002737658955734879 0.0 -0.0023847857494187956 0.0 0.0
0.006827760665996879 -0.0003343034992393402 0.0 -0.004381293277265147 0.0 0.0
0.009288510484709859 -0.0028415862928847205 0.0 -0.0023580107425858862 0.0 0.0
0.01023681058497631 -0.003175974133532705 0.0 -0.001387344325499256 0.0 0.0
0.010572608906171484 -0.003171647147379983 0.0 -0.0015727429555629604 0.0 0.0
0.010044436731281938 -0.002799753493719687 0.0 -0.0014758057027274187 0.0 0.0
0.010253988076402617 -0.0032245181289202716 0.0 -0.0014422651960968357 0.0 0.0
0.005795315423106827 -0.001637323850581679 0.0 -0.0011082085174227406 0.0 0.0
0.005164408867267882 -0.001551714943154442 0.0 -0.0016283615229755674 0.0 0.0
0.004226874105322156 -0.000886259035974397 0.0 -0.0011455310735576196 0.0 0.0
0.005567024301501003 -0.0016339356073448179 0.0 -0.001113843759174326 0.0 0.0
0.009584582825466915 -0.0017705116785245373 0.0 0.00040697421174671033 0.0 0.0
0.009957326471389694 -0.0020910154340365895 0.0 -0.0005474081378934334 0.0 0.0
0.009368567318981228 -0.0027906811846990947 0.0 -0.002332575349178574 0.0 0.0
0.006798268250528172 -0.0003464298122309894 0.0 -0.00431293142843496 0.0 0.0
0.009342665884973568 -0.00284297820734795 0.0 -0.0022805846443527344 0.0 0.0
0.006232005581259965 -0.0018610925312441942 0.0 -0.000434439731110061 0.0 0.0
0.008009278101388444 -0.0025103036535174244 0.0 -0.00032722334004494546 0.0 0.0
0.009520433035175602 -0.0026981432689620866 0.0 0.002508378647241342 0.0 0.0
0.00673413284949308 -0.00024270596410232685 0.0 0.004214010128030606 0.0 0.0
0.009391111174198117 -0.0028995092294777864 0.0 0.0022940318069762065 0.0 0.0
0.007100315392297102 -0.002317506215404961 0.0 0.002869097591356695 0.0 0.0
0.003961720271697273 -0.0008805727853309792 0.0 0.002494091342476589 0.0 0.0
0.004836928711198739 -0.002090510361580851 0.0 0.002779951054482926 0.0 0.0
0.010472338342507478 -0.003154455468383981 0.0 0.0015691657856701606 0.0 0.0
0.010191922072045098 -0.003303152081059973 0.0 0.0013641175661221372 0.0 0.0
0.008674322269320524 -0.002520085388215147 0.0 0.0005311717833731802 0.0 0.0
0.008587693606163873 -0.0020195378342757185 0.0 0.00019905146275554084 0.0 0.0
0.013901001671175422 -0.0018130605731995933 0.0 -0.005584175471117486 0.0 0.0
0.008697309563893104 -0.0012022373359365105 0.0 -0.0043045885660164705 0.0 0.0
0.002149298979030168 -0.0028342766749638705 0.0 0.0006687378165522596 0.0 0.0
0.0016600524127402298 -0.0001969314047002262 0.0 0.0020611781283260346 0.0 0.0
0.014106659854131206 -0.0017432167684865733 0.0 -0.0055403713291271445 0.0 0.0
0.008625728645308648 -0.00126440362187592 0.0 -0.004268880920074097 0.0 0.0
0.013985860938089786 -0.001834878505995611 0.0 0.005559672347534093 0.0 0.0
0.008707178530353759 -0.001306911381954605 0.0 0.004221259448280862 0.0 0.0
0.008353265913482939 -0.0026260991819812836 0.0 -0.0003067871317580217 0.0 0.0
0.00740629467995031 -0.0024107098218831505 0.0 -0.0002965680492709322 0.0 0.0
0.007531416969858541 -0.002214928399138899 0.0 -0.00022692549721483896 0.0 0.0
0.007158823607280767 -0.0021736284992136382 0.0 -0.000158568061678167 0.0 0.0
0.00020061145367977935 -0.0007141200489427218 0.0 0.0001315413099755448 0.0 0.0
0.0013965178515406955 -0.0010151602253594893 0.0 0.0011571306938270873 0.0 0.0
0.00037915193124930623 -0.0010115146935795389 0.0 0.0011498429265229756 0.0 0.0
0.000707200166164191 -0.0007452285696711868 0.0 0.00013449493414672683 0.0 0.0
0.01114342587946272 -0.003316979241691555 0.0 0.0001250812271748491 0.0 0.0
0.011806455737035445 -0.003525581321143749 0.0 5.1655495303273736e-05 0.0 0.0
0.006780109735918632 -0.0019634850648429783 0.0 -0.00014640222066562196 0.0 0.0
0.007641025490273358 -0.0021886855627042696 0.0 0.00023623262163724131 0.0 0.0
0.001162390260794853 5.348853558595655e-05 0.0 0.00036511024648114174 0.0 0.0
0.0014164101813595592 0.00018231638315461995 0.0 0.000581449036631783 0.0 0.0
0.00780294668451461 -0.002507854868472318 0.0 0.0003986231657773341 0.0 0.0
0.007355931889524356 -0.0021812547952048842 0.0 0.00010936863739770257 0.0 0.0
0.01106349103782948 -0.003679175169064263 0.0 -0.0010607485736883414 0.0 0.0
0.010735664985046306 -0.003914881309805767 0.0 -0.000752622282356719 0.0 0.0
0.00646613784855449 -0.0027651092182259997 0.0 -0.002083126283848968 0.0 0.0
0.007308491458267105 -0.0027472293987763296 0.0 -0.0012907372328817977 0.0 0.0
0.009134799764519905 -0.0018114644515691983 0.0 0.0007517719088676001 0.0 0.0
0.009278365844531412 -0.0024277898650238447 0.0 6.792602032973807e-05 0.0 0.0
0.009138010985520152 -0.002270482219643176 0.0 0.0007562218735174323 0.0 0.0
0.009273604661131078 -0.0020282798722113106 0.0 6.333068835869679e-05 0.0 0.0
0.0057349729273423284 -0.002645526873263927 0.0 0.0019808225232274823 0.0 0.0
0.007047426551362819 -0.0027512370360897745 0.0 0.0029577364602803124 0.0 0.0
0.013363547894053026 -0.002073813621490032 0.0 -0.0004679821842985079 0.0 0.0
0.012075496011697643 -0.003603612037075234 0.0 4.73310533291492e-05 0.0 0.0
0.011550914151627477 -0.003452507631171512 0.0 -0.00014001800018445342 0.0 0.0
0.010377523426055356 -0.0029107329795141678 0.0 -0.0013496096494726231 0.0 0.0
0.010189883087036486 -0.002667104178070292 0.0 -0.001591632086740091 0.0 0.0
0.010632174584637973 -0.003565490199249877 0.0 -0.0012310804334679062 0.0 0.0
0.010552050887455014 -0.003515441246866421 0.0 -0.0012209927744357971 0.0 0.0
0.006751797410531616 -0.0026922466018026434 0.0 -0.001519311798821638 0.0 0.0
0.006218657216562677 -0.00210612774911743 0.0 -0.0013226145971263902 0.0 0.0
0.010845633518361694 -0.0034259961316011173 0.0 -0.0013917038022088362 0.0 0.0
0.010760038175024873 -0.0033719131835039237 0.0 -0.001045503704271557 0.0 0.0
0.0058012975837911564 -0.0019604487004516026 0.0 -0.0018043967525320657 0.0 0.0
0.005196220451766657 -0.0019528000597137333 0.0 -0.0018087829644219168 0.0 0.0
0.011060183482070551 -0.0032966956993821803 0.0 7.859496216737339e-05 0.0 0.0
0.011132837831798003 -0.0034517487657988928 0.0 0.0003266278530978257 0.0 0.0
0.01123057123810076 -0.003420913833432336 0.0 0.0002638744767027151 0.0 0.0
0.007079553612552964 -0.0019779592138342798 0.0 3.38875224305676e-05 0.0 0.0
0.006390536046766857 -0.001805768558593858 0.0 -0.0003307097606337338 0.0 0.0
0.00708849818081263 -0.0019146293504192337 0.0 -0.0003292537804260647 0.0 0.0
0.0018326889058445253 0.00034913665640752767 0.0 -0.0005309629412148396 0.0 0.0
0.002470211357948611 0.000344522765551842 0.0 -0.0004747538486500398 0.0 0.0
0.007800697303001459 -0.002314591278109495 0.0 0.00023339125897015842 0.0 0.0
0.0078018959955606535 -0.002018797455258152 0.0 0.00026982853644632763 0.0 0.0
0.008419629426770985 -0.0024807751923546866 0.0 -0.00012448796425237933 0.0 0.0
0.010255167397223309 -0.0028351872271761168 0.0 -0.0015423549792439074 0.0 0.0
0.009783014742979608 -0.0027474308777712137 0.0 -0.0013554244971964566 0.0 0.0
0.010253032043614444 -0.0030025901501317133 0.0 -0.001523409301864217 0.0 0.0
0.011470189994981157 -0.0034108143713030923 0.0 -5.914490759233688e-06 0.0 0.0
0.011446682160790886 -0.003468842443352764 0.0 -0.00010331099105042434 0.0 0.0
0.01126659141898479 -0.003347969742835708 0.0 0.00012830614189093408 0.0 0.0
0.00923815209010258 -0.0015505443604504968 0.0 0.0002079059908445131 0.0 0.0
0.00969312431096701 -0.0023560276238611512 0.0 0.0003613916591448511 0.0 0.0
0.009232541546986767 -0.002571856854729266 0.0 0.00029888100723001745 0.0 0.0
0.011540847314822505 -0.0017603427476127367 0.0 0.00010718222601640556 0.0 0.0
0.012212557129904659 -0.00223029220114583 0.0 0.00047656635856366334 0.0 0.0
0.01091745572730825 -0.0015963840708928137 0.0 0.0010755406243164603 0.0 0.0
0.010054508383040185 -0.0017764736063789269 0.0 -0.0009993999735841256 0.0 0.0
0.010050919653518682 -0.002485787302788524 0.0 -0.0010993361190517427 0.0 0.0
0.0013129313236404758 -0.00018082604075707933 0.0 0.0003717938924386002 0.0 0.0
0.00235348006863812 -0.001052802033452852 0.0 0.0014323220236829991 0.0 0.0
0.0013854693789110899 -0.00028736188475158664 0.0 0.0014264102850951826 0.0 0.0
0.008129233281662191 -0.0029505444780011233 0.0 0.002617056353736011 0.0 0.0
0.004554172397177584 -0.0012138381286410614 0.0 0.0027053784104521922 0.0 0.0
0.004486929934537737 -0.0008932913117706727 0.0 0.002470252392122312 0.0 0.0
0.007568233609644976 -0.0026938857478372327 0.0 -0.0007004404181241396 0.0 0.0
0.007245624276501784 -0.0022298143269633705 0.0 -0.0005706281343859062 0.0 0.0
0.007365840254964484 -0.002233364345053013 0.0 -0.0006061276806347583 0.0 0.0
0.005153098384357268 -0.0015250169823174456 0.0 -0.0008641982880115246 0.0 0.0
0.006377027167443105 -0.0021560057156264313 0.0 -0.001085502310006702 0.0 0.0
0.006149246218692744 -0.0017159805618477098 0.0 -0.0009166537969238797 0.0 0.0
0.0001266377202590274 -0.0007924043000088205 0.0 0.0001813187518283161 0.0 0.0
0.0009345580515442714 -0.0005279355789278005 0.0 0.0007399280797192582 0.0 0.0
0.0011825515607508108 -0.0008795213755611142 0.0 0.0011063436195140166 0.0 0.0
0.0014104372787783973 -0.002111283479902321 0.0 0.001239216960269942 0.0 0.0
0.0069006194733201645 -0.0018867460148746875 0.0 0.00022490357521449847 0.0 0.0
0.008144258637504294 -0.0024948348338188113 0.0 0.00024649123341147515 0.0 0.0
0.008210810786616425 -0.002091970264348008 0.0 0.0006759500955592299 0.0 0.0
0.017042409901603765 -0.0029775591253662706 0.0 -0.0006753681118695465 0.0 0.0
0.013954988974892894 -0.0018202713654810155 0.0 0.000647941357128914 0.0 0.0
0.011916249743374711 -0.0013608371354862587 0.0 0.0005814011997975001 0.0 0.0
0.0025340496518890076 0.000515011707159511 0.0 2.0973191904505606e-05 0.0 0.0
0.0028596786473041947 0.0003326159677985367 0.0 0.00018821098317334565 0.0 0.0
0.0026617621332493823 0.0003250300112394254 0.0 0.00024923654810401954 0.0 0.0
0.002066628295655522 0.00027250869796268084 0.0 -0.0003513704286506275 0.0 0.0
0.0016109971131932225 0.0004252810309903888 0.0 0.0002193681674501298 0.0 0.0
0.002204916985240654 0.00046165590893863074 0.0 6.874863219368317e-05 0.0 0.0
0.005134059284723433 -0.0023460192568079343 0.0 0.0027743374868218736 0.0 0.0
0.0020901615999714216 -0.001019785940374612 0.0 0.001639690065057387 0.0 0.0
0.014104456422956957 -0.002348422827282425 0.0 -0.0008765524479980156 0.0 0.0
0.013963994580584409 -0.002217076623599881 0.0 -0.00014668763874810278 0.0 0.0
0.016303452673565196 -0.003096553025304457 0.0 -0.0004085701596754191 0.0 0.0
0.003427698735359368 -0.00020800434738748973 0.0 -0.0009006994395261832 0.0 0.0
0.002419357039506316 0.00025800478131710654 0.0 -0.0005607123680153123 0.0 0.0
0.002973723989056052 -0.00017778405200124546 0.0 -0.0009810654304392757 0.0 0.0
0.002864751847734739 0.0002262398196396804 0.0 -0.0004819658763251218 0.0 0.0
0.006967785305299573 -0.0030004650293121832 0.0 0.002031557975640083 0.0 0.0
0.0069598578198333694 -0.003028313181109855 0.0 0.0020837613526176195 0.0 0.0
0.006949669206154317 -0.0030069970805204054 0.0 0.002050030916037461 0.0 0.0
0.006976744474594892 -0.0030226191666820525 0.0 0.0020657539505111793 0.0 0.0
0.012377307485605551 -0.0019175921020313255 0.0 0.0007072042339880368 0.0 0.0
0.013950736958735556 -0.0020241383565975956 0.0 -0.00016299057220917675 0.0 0.0
0.0024106137130068123 -0.00252683725935383 0.0 0.00042396063918061867 0.0 0.0
0.011816727724215171 -0.0035354876114582494 0.0 4.828610404845469e-06 0.0 0.0
0.011253744283755975 -0.0033484781668307465 0.0 9.270090293410062e-05 0.0 0.0
0.009309859280558703 -0.0025062866355205814 0.0 -0.00043867989694831226 0.0 0.0
0.009317180050309931 -0.0017156419783068329 0.0 -0.0005221990278314963 0.0 0.0
0.007800197863768493 -0.0024109763050488924 0.0 -0.0001060710340144189 0.0 0.0
0.008355083239412277 -0.0025735788437684084 0.0 0.00022067243118504832 0.0 0.0
0.008447516217278947 -0.0026108489401768086 0.0 1.0994510611102652e-05 0.0 0.0
0.007452500559788397 -0.0021656588035127693 0.0 0.0002783197920139441 0.0 0.0
0.011599404810833715 -0.0017430989692209147 0.0 -0.0009181914810112416 0.0 0.0
0.011440470619078543 -0.0015016131752254634 0.0 0.00011735577907667376 0.0 0.0
0.012773328527643575 -0.002009064048331123 0.0 7.669599953905684e-05 0.0 0.0
0.012559942642405116 -0.001601778220643848 0.0 -0.0005902573529372342 0.0 0.0
0.0014369150218494877 0.00019434201834741882 0.0 -0.00041441522628322524 0.0 0.0
0.0016558598404002652 -4.870591625753408e-06 0.0 -0.00035518843975822396 0.0 0.0
0.00102509436197429 -0.00029112079940927767 0.0 0.0006376339652088234 0.0 0.0
0.0005789658606181385 -3.0346777349135654e-05 0.0 -0.0005277981925781729 0.0 0.0
0.002032789733827577 0.00021906357017507783 0.0 -0.000739578412634025 0.0 0.0
0.001646008948746085 0.00038830108883659376 0.0 -0.00020376011108596412 0.0 0.0
0.0022679499341930294 0.0005137287176907079 0.0 -0.00028097059992240745 0.0 0.0
0.0020625599340436097 0.0005020482968496777 0.0 2.177544841701498e-05 0.0 0.0
0.0023256612460486287 0.0004981467678080976 0.0 4.6724872417836874e-05 0.0 0.0
0.002029872382743306 0.0005150183364463088 0.0 -0.000311712263698355 0.0 0.0
0.0029459739872922173 -0.0026005098487698946 0.0 0.0015818576820031808 0.0 0.0
0.0008606574845908449 -0.0015581208089032884 0.0 0.0006648046030913073 0.0 0.0
0.002695174701460115 -0.0018177103033336136 0.0 0.0023235527281841783 0.0 0.0
0.012104919649394311 -0.0035802853217130844 0.0 -6.246930455504442e-05 0.0 0.0
0.011449061836888775 -0.0034160602178534122 0.0 0.0001665379543394486 0.0 0.0
0.011363608403197027 -0.003497756013634535 0.0 0.00015394011924666184 0.0 0.0
0.01140328671418305 -0.003416956475738036 0.0 3.336688484620006e-05 0.0 0.0
0.010160426219807252 -0.003119252179177087 0.0 0.00013343816418275346 0.0 0.0
0.010620182301595109 -0.003220540377397529 0.0 -0.00013104737744980226 0.0 0.0
0.009832842435470963 -0.0030297958524824246 0.0 -0.00012976741005680273 0.0 0.0
0.011680949267232463 -0.0035038128451244876 0.0 -0.00015527699081089197 0.0 0.0
0.011622619530132078 -0.0034824106049925617 0.0 0.00016054553707029422 0.0 0.0
0.012127067457799977 -0.003690067627783644 0.0 2.6512231325908156e-05 0.0 0.0
0.011262479374939979 -0.003260178806140425 0.0 -5.634484641243332e-05 0.0 0.0
0.010817881075359739 -0.0032671718724970804 0.0 0.00016433832674727416 0.0 0.0
0.011239137348797102 -0.0033208749480413977 0.0 -0.00012797634408615063 0.0 0.0
0.010122495269467685 -0.0031808847302814748 0.0 0.00018663546386076313 0.0 0.0
0.010137381039689983 -0.0030457766024886367 0.0 0.00012833622966506407 0.0 0.0
0.004423851009291321 -0.0006403584859607838 0.0 0.0008293909159163306 0.0 0.0
0.003931504434905019 -0.0006832722243554521 0.0 0.0010007299135150025 0.0 0.0
SCALARS VMStress float 1
LOOKUP_TABLE default
1041.3683837755016
1190.3281735048781
1049.9992067007786
989.7831681941929
1051.7971167174285
589.5234318396357
1051.8031601515754
1194.0621729136642
1125.5351702105688
958.9211213089307
1026.485755330602
982.9104299114047
1143.9834924288693
1071.656297040502
1109.1987179250061
1095.6756288820145
609.3233875061425
1071.9554745929026
1029.0575011510437
979.0635689283476
1168.9131429771687
937.5927887794008
599.4488543071392
592.9833415261543
982.6211283059195
983.9494839972931
985.4704851887719
587.7476832158153
1047.3867156719843
1125.5827097180882
1088.2486438446201
751.4858168082678
1007.4504222422954
835.8214661818995
839.8502865497143
1071.8488394538615
1027.0015408977554
1030.4616699928451
1022.3442966283187
922.9238393883904
1067.170193040206
929.1416095453932
1059.5351309608868
1012.5899274632555
996.7184824437335
1085.9043399940244
690.8809909292497
734.7690101280032
1119.9822627338112
756.890991157589
1073.3471199861556
1018.475306938121
981.2643476572262
926.4215918819474
907.5097761219589
1040.2382646356414
920.596632805183
799.8651215881275
1040.2175285315466
1018.9943208409696
1051.4186040140953
958.8522469499908
781.2704266024973
835.6133504368647
1043.8970312909796
1059.002273177663
930.9284840750331
869.126869065845
965.2465803688303
1003.6443460503599
1025.2473226350173
964.5619831018981
1019.074813501425
1029.8386628065662
935.8481964468001
1050.3293889424287
1033.666024314522
1019.0761700478598
782.1218981737047
939.5940707186228
909.6188863050461
926.8154221083836
932.8176170651963
902.6449258930917
771.1534541033384
933.5599890136568
1054.729365549404
1029.2320273777216
1045.8054072714197
957.4044139320678
1047.4178755852022
1038.9650781225882
813.0947778006245
974.1836458597738
998.8057387578383
991.7206014670969
687.8851333799056
1129.8727181573884
513.6794095501923
731.02263994955
789.4690083500952
971.9228087009473
1032.6799408841318
1030.7690418963225
952.0692940025043
985.6361739420227
938.0931282767623
1037.6097068836293
822.1221353953471
879.0468412172096
1052.6063176207836
1055.2349087080786
920.4762210736973
365.42172805895945
927.3525942140889
1038.0173389821925
932.3488250314608
1052.9154533634064
974.3042943291407
991.3679660481458
919.0826336620169
912.6214640893652
1046.8360327578107
1038.4970382052225
985.7447869680356
522.2278581897328
566.8277369508698
1044.5758041748904
980.4545946473097
605.1703194652645
899.2084520858983
1068.091327405661
922.0767986741065
428.1246992896972
1055.3261638665592
1053.5643645011564
990.0357570949342
870.6753734530199
958.8959855881816
882.0537949091422
394.8920522890572
1057.9226769313423
996.2839358293492
842.9639976867389
1054.7010093641447
979.6280411909516
951.4912304222134
952.6919868719607
872.675862395557
1058.4740776763729
1047.2127823935414
1057.9975963267682
848.0242593683174
737.1064142293494
698.7704152330575
1058.2427061342073
951.5506737628708
1055.9723519925565
510.97185557032594
513.9423876652766
420.97836260583017
2338.343351551352
2374.606066199933
1370.389544730836
623.4100938196486
119.62309386332609
628.3681705796258
109.59300320647529
599.5007489648873
579.3684366910879
2405.9269484497677
1347.8192285071284
2433.3736771518425
1048.7478655662499
798.0268926384133
941.1334410282715
980.8572316304052
366.4108426889309
1112.2431113758742
1045.3698191504627
1056.201062837647
1009.8752860209463
951.2792366358861
1020.1041666001798
1056.9528736049367
974.0073559560076
1022.946524299899
1043.7082986345404
653.7680492909199
1035.4977242102552
1036.9173864772026
1040.3221372079113
979.1720170016296
1033.6811107712876
618.926170177517
725.8501262897764
1017.0217618776794
720.7085578668282
817.7299431461897
1054.7505187730153
1027.540356241077
1051.6845052075705
1046.1358116688923
578.354661536405
673.6956210263182
670.2749929388457
775.1734787853331
1058.0888120399893
1081.3502800120634
1085.4994431365342
1048.3098563026754
1006.8815603168074
1021.2014327138535
1719.9107928185842
1781.7430362572127
1772.756686517644
299.2762159242142
293.8436002614987
286.9908626282518
277.2799839483125
1014.456957805698
950.826091639398
553.6756502435298
474.5654931936263
978.8674215700152
1052.6286128712827
1007.4990816735839
1033.4683566187443
564.8231241457036
606.600949522144
1006.3200550455687
433.45256795750794
608.6984448585498
1065.436124701556
992.1057621106694
1043.9664306064633
1063.3955650498167
1042.3741798380265
905.12457211193
898.058668674865
976.7871460946147
1077.4103178589821
907.8731437774461
894.3311319426896
954.2414027914517
946.161004737558
1085.1227270670618
938.082023757331
1084.1589594610207
939.05624112533
953.8877440896628
936.3898427878506
919.5004930210845
871.9619150342257
1040.986382697122
1032.4064105106531
1077.0447801264354
1099.063283631051
1077.2501025571235
1093.1087621844154
947.2424085489431
929.1072410147274
1067.6109198193828
1107.5622333077024
798.1092738734853
886.6615357707489
967.3012753955292
1024.0463658794313
783.8734963097329
865.0658349108838
846.3224673574844
927.9791760337597
570.2879721262665
581.0235709265797
858.0518532508067
834.5294628905092
940.7599648509906
997.0015862729216
1080.2700556671007
1013.4700306309819
845.6630367441275
1018.8979947770387
1060.4884168521494
969.615885087586
914.1243356339669
864.0868717094551
841.1442172801999
870.9649012058277
855.4978293858883
980.6165869744626
985.0958865225238
1055.4058739632435
1048.8963220677654
991.8007301968395
974.3417707301669
859.1046005933276
873.9756852658162
999.0362238066954
1012.3939273031383
1053.7185462998762
1051.0272963297457
1072.6959826563814
1008.3402908548007
887.7983781369688
977.8604548931313
1081.963665531883
1020.5233589313857
858.3302399950314
844.8646028486675
1092.271429918388
1027.86070663536
944.3352295601245
1013.9682008922973
765.6822148493856
868.8387473486063
885.2382080589463
1020.2151892678561
992.120172331279
1051.4151353694963
1048.1965993054662
971.8940094195173
927.8247001852703
964.2346167977297
963.6378004922409
847.0802425165076
902.5528288551935
944.1954368489718
880.6628601975438
1052.9636700215422
1006.8928132661212
1047.8092315157612
1032.8007039074191
1030.207313882422
1046.8546427447616
1074.7322706863279
1053.4761441967564
1072.6210658257062
754.0579439044471
1048.0544333508826
915.9118308915173
448.59676183199997
715.2431655516389
739.8854622588887
1026.1306873291119
1069.23086848388
1080.2558078588204
1009.5685752052415
1009.8682934646157
1022.3817516322237
1025.1289224366742
880.3594800215944
911.3209006350661
1011.7141632216329
1010.8351175612015
521.8682461289054
442.7285176266753
1058.8642834739887
999.7672370568102
999.6479648556923
531.0917285692268
991.7123042208193
1040.1119089908216
1027.511525916471
602.0958119905267
665.1537145778397
680.0296483587529
403.09885032430293
1303.945191781061
1285.6256509929017
1290.0912371259685
386.97280154283396
359.33192750675465
1150.1442305332728
1069.5290059267843
883.3015239680318
893.0122143294012
1110.662292345386
1064.2478012784727
809.9758462118069
807.665473261823
1107.3133297259787
1087.245152511491
1056.2485288872213
1089.308469174842
820.9191086470904
278.522613256878
687.0274485217134
276.7725844554981
748.3574893562935
273.1698523575359
272.0274260148021
703.1915434921596
705.4426369153535
278.4011129454415
274.90279499799175
885.7495917599273
902.184894460502
393.42999468207506
407.0824329835436
388.36082297083846
403.5065456776292
812.9502452664276
820.0141852642138
921.8077331239998
818.0438883404145
820.749538347441
936.7201077960578
401.2123089146008
538.1464556853688
946.3300943769673
1060.0938796779046
363.7502678000923
415.1243622621149
398.7214329467438
453.0391798081146
541.0232285209823
524.0666233837464
451.0817884483016
1055.544492350878
406.73182885199236
656.3553430020434
999.610211592037
1005.3045997203559
1042.1924464718022
1139.9523168608923
781.0148695905211
677.7827945654608
783.0266499597631
1129.1404478115999
1195.0145335079274
1129.2864970368526
1072.4309023075778
1190.6823448146777
806.942963635682
810.1246326706627
1038.6978327981997
1052.0231108291766
1053.2144961901292
1073.8336071765345
1175.5579639162677
1033.1543443725911
1024.205726284813
1043.641647263152
1016.3374970059825
1052.5446179921132
1055.1030201221831
1014.2542271743855
1083.6775002934558
1085.7870710348132
1083.5877057997498
1035.8963671857007
1054.0939784115249
1077.8293163963076
1127.6432440770643
1105.48519020101
537.5405890996275
1108.743898392005
1062.234001817802
1054.0363896012707
1073.6567210956057
667.0649505703356
718.8668533737049
631.6934793402072
618.6611221345863
1063.3041816189507
1066.4878566447182
1103.1387661182257
1165.5063444994207
1085.338856072028
486.1993882900966
978.776435935199
1025.808515548504
681.5359657400304
1167.2691423205176
1075.812820397366
622.9857644839251
1064.5881471360533
1070.0425940496384
1102.9414774192544
1160.667274414697
1073.591608491917
614.0116818891489
741.9023482162675
780.3217769460562
697.9488028399419
994.6973802107192
1076.1271201297782
902.226329876917
918.2222731768752
502.49140734407723
447.18228376790455
697.0632196770705
740.4630169186497
1051.6467546142035
1065.3171787439803
1051.5578098903677
1070.5156956186786
676.8260990956472
480.84951478167363
442.8595906115639
355.1963503965401
331.1995129164155
867.7885493907959
823.7693379083105
354.69248140968466
328.18239346480743
325.6799607028116
851.9333067033879
865.8665862355812
353.08898905631787
321.8659182267164
318.88123157451844
843.6042579349479
831.5637981410662
873.9870686677555
1140.2092354218482
1115.8147690036694
1152.0427155712994
1107.7156810887743
485.76600545172084
249.2652342872021
252.66239085402574
799.6850898746773
804.9956535739688
1228.0074328087073
489.98746107493037
384.5674479225077
1027.2478193640604
683.5549043636516
961.7279831269026
1078.9682767629151
954.9098752016649
1086.8880282027594
1106.6819394116462
1123.85588792379
1073.020537393046
1076.7808025365498
521.7408472345758
579.1497199252284
547.5684343813655
668.3680785085188
1103.1066988332752
1046.904376569448
1072.2089144964932
1075.7233823841327
870.2665124294939
964.3018099149095
330.14116029573637
402.5090574325621
1060.2177738342077
812.3941473497412
492.8933871854358
472.0336062179581
997.8315814151482
1018.1397882284484
855.9739498851397
918.6661614380008
1029.8981571707404
209.97176921496202
1087.7583236581513
1089.6753035091199
262.97060605734157
912.0196894304403
908.9156142465475
1081.4690188894665
538.2701025776884
1055.178578179852
1080.461872490885
1061.553503933914
997.292159837552
1024.8739697921174
1032.1270724780109
1066.8451788927896
1049.5955940182193
1029.5330352210806
1028.503066903777
961.0540103346514
971.0634791776943
1049.2748282845016
982.7211060382416
949.1807884191387
958.3543359528832
968.1734912234547
541.0437442481858
530.5256511271563
676.9116865236695
741.5731730650151
817.6053362104951
752.7404883789092
1107.5701513385877
1076.2083589993563
1089.2517065928776
1090.4108501150026
259.3285464349117
922.6220739207707
879.6171976959309
876.5851132957658
877.3707963049977
1154.6285653834311
235.0601720080506
979.7396971492836
1035.0519638797973
245.64734551960632
297.1853147974546
1061.210414936374
1028.0477074461503
243.29505771749993
267.2841216222754
340.43999487791643
340.3464180402144
916.135592178143
891.5799707693315
1172.5938203180656
814.2526878449534
1165.6640246919394
1174.4834623563813
520.8370149587549
409.97715494155057
854.5936887236473
261.83051693026323
251.01213525526234
813.0278249035177
792.0004073789235
918.9782139137769
867.7193656778657
296.5862330195885
256.8666835253155
1119.1759453483394
921.7129079537001
966.2348328284006
918.562621907493
230.25869785938787
539.0372405360887
1153.3417582995276
1110.843583034009
157.41531546601746
969.9464802397549
994.0827214789464
1095.759701868227
1095.707762314168
834.8555984894848
878.4468853493107
1107.8868780988414
1080.0967017056191
985.0847303506941
800.8380949862155
481.68129948349196
1293.5849648596368
464.5014191683934
484.6454585481292
1047.6187022982037
1093.2411490889144
597.4301177129909
743.2143382425832
1194.2285162919543
247.23714660588024
250.25903949449244
253.79151973265914
249.15781788299458
254.40686274755222
687.0141540950509
796.2315919507074
1176.9002007497265
1128.6516414525158
1123.6720364595287
492.193495305715
1136.5702895365462
1179.591194658361
958.9157587318647
916.9166861581391
901.2893798435168
889.3385853732422
966.0057033604662
918.4650978271181
483.6975937351705
443.90313228736284
493.8489636890667
402.2952790523086
901.7660297717989
904.9534384419208
972.2262248159507
914.2635317936642
935.7978180927945
901.0362741625271
982.538875235943
1025.991247700991
1017.3234374151101
570.4032188391326
668.0769568525325
748.551754022725
1151.3332973774777
1143.6889740082404
1155.6921700133382
951.9315520645121
949.3546791255011
983.1436318889307
293.9641811204831
298.28929797913656
284.5854822428163
233.01164021031607
579.5042932729217
642.7113138805208
666.5718222385066
678.1888405480917
1135.358975885883
1129.7267207589418
749.2918699898802
825.140215572413
308.2054031028142
252.80158491574736
320.9144934185387
277.38999277793584
735.4558418332518
824.584039796281
315.8222797275426
277.7978876381792
197.1764563873232
1334.6117048762542
1318.7719070351832
1127.5191620826529
749.2235034442054
856.3968442102979
836.9507966910418
799.9972614127801
196.83657922392726
1091.8784292802527
1073.252113116186
1099.072322232303
1058.207173877796
1222.8694754653827
1146.0654349122738
609.8673056609675
632.0657015646277
1243.6519994028956
352.20688711328125
154.23831843561265
199.47168484522524
1199.7291405719468
1169.7775831509775
1098.2780485206001
1234.9271486880543
336.57515425019005
948.1139612486708
989.761477986175
982.7736046450984
892.5632254124436
245.22775073774545
397.24375899282256
378.5986069076322
261.20808068822004
1077.7622861936009
1113.0735373274422
1122.4507482982733
1027.116802663635
1058.1133953545768
1141.9920856890803
1051.3036451612033
993.5078912331313
1003.514890752268
218.7440978751747
212.74945711585735
1142.8978517667465
1086.19461015213
1181.2072779215434
1054.4714652022153
1081.8410532980304
335.3061547972258
283.120085113422
288.0487000160095
1141.8799990284165
1102.2988950141828
1090.885474248498
287.33187456025
372.7996004088505
697.9955024501472
617.3243309076871
604.6957392809637
967.3255227391612
993.865612308238
1016.1318166497852
324.80757548489737
383.1536421031501
252.3963381927786
240.8193464130932
195.58139975204514
1072.9272217320413
1156.0149846927397
1074.4844003166493
1137.9908304439246
1082.5024725390078
1153.8642509817582
1069.8174879071007
1022.4309525807944
79.97649813023128
108.93292996645967
147.0689526773375
141.76005341154163
1154.1082740891181
1116.1604690010447
1049.4616382200636
1027.0850512020097
763.5673079297085
2063.076139030186
1239.2919632030196
1607.0066379963077
1641.021956860658
479.63638127739716
289.59022764094226
313.0624190995705
233.0882299851997
2051.6922574007435
1242.7824257691968
1649.7003029962536
1070.1069558363367
456.7295363082703
420.2433107178557
210.8953945942833
470.5963592701348
230.2984131456875
349.911734029559
258.6457287972774
688.1732999034944
693.2028640272993
2080.565917677949
1239.9005938167008
1589.0546200260808
1578.7158311333333
472.5404046840341
217.86198350156926
345.01597094525977
258.1955653414451
2096.3708663082366
1237.9900752672079
1641.1285274986326
1618.5736761583687
815.6423653425152
976.2679071748066
829.7738672085927
807.2411011901557
830.5644739152165
960.9087446249553
829.2979235103933
805.2070995575086
867.8044883914777
261.6767554859457
648.9587192745832
753.800502303191
652.2935332652405
967.8453758365368
676.544416133592
585.8259062625708
478.93398450869495
324.4525643439986
225.30305243001405
1096.5184243504482
1077.8578782656523
1075.9652247106287
463.66436067188806
1023.6930246240461
960.5639541878134
1027.6963026981389
659.7605181046603
731.9251583240863
1015.7588487273991
1057.6106235276031
901.5381619554115
909.1963181503056
1046.9835359395734
1035.364762040256
1016.4751794141699
1041.4400208808204
809.2850934877318
804.1720851733819
853.9839967475317
223.8669433927972
255.28095162645363
1488.4338562209855
1465.2547816464073
323.2648737914652
253.86604886589922
318.90187625934976
234.90509758806914
1201.2796637407876
1135.526323938172
339.5034220488027
872.3577261669215
1047.37995632343
1053.8804547330126
1048.0299742512693
393.1631149387631
283.79577676435053
1110.033332989523
1111.3798387586571
876.7174810305419
893.7820366572058
905.3817016248088
895.3408638308913
903.0814138477393
1441.716871130226
1137.2233523834361
1037.8188059296233
1435.1981347695964
1159.3089689763815
977.6026630561797
988.124801320323
301.0759137420652
252.031870980708
300.7794437888879
1214.642848676443
1148.0495944132956
1142.33786605374
643.4401783538883
791.9687165437863
740.2203937742416
654.998923334847
1424.5095736653022
1132.5274189793447
423.798251085874
378.1122850872958
456.3452022446454
1045.8713116916717
404.2980265233927
473.4191441638812
526.745630792419
557.5757212002669
461.9629213444449
1136.7284069713596
1075.5483449828507
1050.460600787492
1046.3259379738583
925.8184831521713
871.1808224405547
327.6641165395853
400.48785104768643
1128.513762374732
1122.444892377898
1202.759037635549
330.74962847179614
291.7866031213038
1085.910843085047
1313.9130644516465
1331.7247947239016
542.6667767725181
1333.687204534797
150.04243018028203
434.88947996640246
444.9056064537529
480.2586524256054
535.314164406552
433.1863795004169
416.5917491187302
346.28282580721907
983.8485110449859
968.2761133064563
985.3107136472869
1021.5945087694527
1072.194236823678
1078.1141646025762
980.6531233937218
945.4574226972118
922.2856903536491
1054.5063862248558
1028.0933559936072
1017.2763094186735
1426.2166725270363
188.03290169100302
1386.2989775272733
1408.5879983309596
989.6768070183357
314.255506910009
292.10799951025086
263.9182593588912
747.9446659350638
881.1653664456688
1167.757718051565
1075.8595784976233
562.8920803589691
648.2049156469699
584.0716191773804
311.3289471474727
326.9078864057519
1054.0327916177607
1053.5473100547226
955.1294926714228
961.9869301701005
1138.5675128059625
1123.2729406387118
1180.308947985311
532.385776716219
1052.0311729552013
879.5380001093554
1095.7614539581564
231.66763650569652
556.9199289747327
543.6923472568085
550.4092242390857
547.6302587990673
1122.6684564603343
1104.7642456824644
1125.703444425503
189.58910809152184
207.15110242493108
453.6706193770083
576.1788630761997
937.1375635633946
962.1090023243257
878.5297061772072
872.6494784843385
864.7314899680754
783.959841638039
249.5032666976856
210.8832481987505
230.02255320827211
465.416683596476
1094.7698809111478
863.8263075123946
175.46865270548614
218.06882785006158
196.7523906175874
1185.0096232811693
1175.6678470456209
1135.8544287820316
492.60378759017107
552.2359957079831
512.7376768175324
1104.9786334465512
1051.989241967628
1068.8040985210803
843.6863328449597
787.6823666109943
583.2324184701781
625.7867393892674
502.30306754768964
403.2318397738949
476.5523340133809
262.32676857485677
207.24006259786034
1271.9393422513106
1130.2169072061017
1130.6094788493776
441.1418099784375
360.2700436150897
410.32125592944334
693.4613011321727
603.0818494526641
637.6703534563469
981.2856980190485
885.1674153996574
981.703685447914
1042.5527454522364
1077.8232410761427
1019.1051389856422
1046.5482204599848
595.9663916465449
560.209501151983
443.00763611378164
575.385328841614
941.6369167402089
982.4663932482489
986.6455450237586
876.9944656532048
983.2833133618013
625.6971378644745
804.5381915779132
1005.8353694641946
863.852204398969
989.3457004391162
810.2186321567855
512.7546118220538
623.4101452239888
1068.1743696876108
1040.8467839804523
868.5487805950617
848.6038181492968
1547.545560312194
1024.9167437337114
347.20533496023415
318.8133049889016
1561.9349474091869
1016.885110388518
1553.3111226506878
1020.1767203403547
839.0407647771669
746.0432542403672
752.7830705027394
716.7690708025614
73.25185242082702
224.32538050180875
184.64227847694008
98.43976712640199
1113.8975234453342
1180.3072060121729
676.7749430554326
762.5388054287916
123.96012902543681
160.62607296257315
785.9219624124338
735.1806426379226
1123.7137598361317
1095.4248531254257
724.6336924275481
764.5056823734664
903.0004926959982
920.6856634862048
910.1560977032863
913.6531525750248
655.768239405523
821.9245554596857
1308.3510021525146
1207.1490419219701
1154.9621414744067
1049.0073140141674
1033.0995676859177
1084.5492372618498
1075.7859589367822
721.7137547428729
651.8409170216993
1104.15444177026
1088.2056873539075
632.7876350264866
581.8613327743916
1105.60037208066
1116.6422090738538
1124.7547063974316
704.8998569377313
638.2165034917957
705.8454861933271
197.63481527762426
253.9209633426643
780.1304937922547
774.5586748562404
841.1459357515932
1040.9555835562041
990.9388804983398
1043.6430274663833
1146.3582102168348
1145.521380983322
1126.0895598956406
904.900314220423
959.8310305695679
919.9598323809823
1128.455408187933
1199.22852565103
1076.4597599891695
994.2484747910493
1005.4576501966094
137.45967098496973
310.71040738020616
233.8568023740494
896.2196972549084
578.3595485951869
550.1573870478682
772.8433532944615
729.7866284728664
741.517078037867
527.5719891053593
659.5097239098658
624.2796266380362
81.20009637082367
141.6139338433544
202.64924114540582
291.21644437841223
686.9062820631851
816.2346989318477
818.6575391125966
1672.1474791340281
1364.968207078843
1164.8027758911805
255.9909651917501
284.5397224470583
266.17628173720703
210.69564539470764
168.07377437400058
223.2689699129969
651.6111142390884
310.6345698355297
1385.670397604839
1366.15058581635
1600.9716080160917
354.897553191057
250.76898098395984
317.87832368896665
289.4216661288907
771.0655437150394
773.7429613054596
770.6240831904706
774.1143604347626
1214.0523105158018
1363.3541351317697
333.83810321648696
1181.4638296767866
1124.837730626301
926.9323593760288
916.4307933023741
781.7352929493757
837.5225854154006
846.4676615730151
744.663351455694
1140.4616901375218
1116.942633124411
1249.413554029291
1228.3642633858994
153.2226588899035
168.48213878510896
132.86898233871278
90.15700253676937
224.00918460388516
169.9156695086415
233.5299733005604
210.64834180887544
235.6767160901343
212.01879519491987
426.0895425629884
190.50237576448632
436.0607025030916
1209.405349526524
1144.7125556766484
1138.525745365093
1140.2488410010687
1017.7835945800072
1062.9246375677349
985.222332371996
1168.2677490441208
1162.3627003701902
1213.8636534777024
1123.7238421327288
1082.4908478872076
1122.9356900345713
1015.8144003690618
1013.9826465446034
446.16185678008776
407.5766198814754