# vtk DataFile Version 2.0
Some data
ASCII
DATASET UNSTRUCTURED_GRID
POINTS 682 float
-50.0 -50.0 0.0
50.0 -50.0 0.0
50.0 50.0 0.0
-50.0 50.0 0.0
0.0 20.0 0.0
0.0 -20.0 0.0
-45.99999999999896 50.0 0.0
-41.9999999999979 50.0 0.0
-37.99999999999686 50.0 0.0
-33.99999999999581 50.0 0.0
-30.00000000000059 50.0 0.0
-26.00000000001376 50.0 0.0
-22.00000000002693 50.0 0.0
-18.0000000000401 50.0 0.0
-14.00000000005324 50.0 0.0
-10.0000000000664 50.0 0.0
-6.000000000079542 50.0 0.0
-2.000000000092656 50.0 0.0
1.999999999906121 50.0 0.0
5.999999999915295 50.0 0.0
9.999999999923459 50.0 0.0
13.99999999993163 50.0 0.0
17.99999999994331 50.0 0.0
21.99999999995853 50.0 0.0
25.99999999997376 50.0 0.0
29.99999999998899 50.0 0.0
33.99999999999586 50.0 0.0
37.9999999999969 50.0 0.0
41.99999999999793 50.0 0.0
45.99999999999896 50.0 0.0
50.0 45.99999999999896 0.0
50.0 41.9999999999979 0.0
50.0 37.99999999999686 0.0
50.0 33.99999999999581 0.0
50.0 30.00000000000059 0.0
50.0 26.00000000001376 0.0
50.0 22.00000000002693 0.0
50.0 18.0000000000401 0.0
50.0 14.00000000005324 0.0
50.0 10.0000000000664 0.0
50.0 6.000000000079542 0.0
50.0 2.000000000092656 0.0
50.0 -1.999999999906121 0.0
50.0 -5.999999999915295 0.0
50.0 -9.999999999923459 0.0
50.0 -13.99999999993163 0.0
50.0 -17.99999999994331 0.0
50.0 -21.99999999995853 0.0
50.0 -25.99999999997376 0.0
50.0 -29.99999999998899 0.0
50.0 -33.99999999999586 0.0
50.0 -37.9999999999969 0.0
50.0 -41.99999999999793 0.0
50.0 -45.99999999999896 0.0
45.99999999999896 -50.0 0.0
41.9999999999979 -50.0 0.0
37.99999999999686 -50.0 0.0
33.99999999999581 -50.0 0.0
30.00000000000059 -50.0 0.0
26.00000000001376 -50.0 0.0
22.00000000002693 -50.0 0.0
18.0000000000401 -50.0 0.0
14.00000000005324 -50.0 0.0
10.0000000000664 -50.0 0.0
6.000000000079542 -50.0 0.0
2.000000000092656 -50.0 0.0
-1.999999999906121 -50.0 0.0
-5.999999999915295 -50.0 0.0
-9.999999999923459 -50.0 0.0
-13.99999999993163 -50.0 0.0
-17.99999999994331 -50.0 0.0
-21.99999999995853 -50.0 0.0
-25.99999999997376 -50.0 0.0
-29.99999999998899 -50.0 0.0
-33.99999999999586 -50.0 0.0
-37.9999999999969 -50.0 0.0
-41.99999999999793 -50.0 0.0
-45.99999999999896 -50.0 0.0
-50.0 -45.99999999999896 0.0
-50.0 -41.9999999999979 0.0
-50.0 -37.99999999999686 0.0
-50.0 -33.99999999999581 0.0
-50.0 -30.00000000000059 0.0
-50.0 -26.00000000001376 0.0
-50.0 -22.00000000002693 0.0
-50.0 -18.0000000000401 0.0
-50.0 -14.00000000005324 0.0
-50.0 -10.0000000000664 0.0
-50.0 -6.000000000079542 0.0
-50.0 -2.000000000092656 0.0
-50.0 1.999999999906121 0.0
-50.0 5.999999999915295 0.0
-50.0 9.999999999923459 0.0
-50.0 13.99999999993163 0.0
-50.0 17.99999999994331 0.0
-50.0 21.99999999995853 0.0
-50.0 25.99999999997376 0.0
-50.0 29.99999999998899 0.0
-50.0 33.99999999999586 0.0
-50.0 37.9999999999969 0.0
-50.0 41.99999999999793 0.0
-50.0 45.99999999999896 0.0
-3.901806440288044 19.61570560807148 0.0
-7.653668647265455 18.47759065024079 0.0
-11.11140466035381 16.62939224607645 0.0
-14.14213562369474 14.14213562376717 0.0
-16.62939224601915 11.11140466043957 0.0
-18.47759065020115 7.653668647361153 0.0
-19.61570560805066 3.901806440392695 0.0
-20.0 7.776568614319829e-11 0.0
-19.6157056080774 -3.901806440258285 0.0
-18.47759065024524 -7.653668647254714 0.0
-16.62939224607186 -11.11140466036069 0.0
-14.14213562374694 -14.14213562371497 0.0
-11.11140466040043 -16.6293922460453 0.0
-7.65366864729932 -18.47759065022676 0.0
-3.90180644030583 -19.61570560806794 0.0
3.901806440288044 -19.61570560807148 0.0
7.653668647265455 -18.47759065024079 0.0
11.11140466035381 -16.62939224607645 0.0
14.14213562369474 -14.14213562376717 0.0
16.62939224601915 -11.11140466043957 0.0
18.47759065020115 -7.653668647361153 0.0
19.61570560805066 -3.901806440392695 0.0
20.0 -7.776568614319829e-11 0.0
19.6157056080774 3.901806440258285 0.0
18.47759065024524 7.653668647254714 0.0
16.62939224607186 11.11140466036069 0.0
14.14213562374694 14.14213562371497 0.0
11.11140466040043 16.6293922460453 0.0
7.65366864729932 18.47759065022676 0.0
3.90180644030583 19.61570560806794 0.0
21.0349885606842 -31.33291989490623 0.0
-21.92213524993364 32.47129740082516 0.0
-32.94195718131923 -21.14859496421213 0.0
32.48407655338185 21.92361233001349 0.0
-31.42766785017118 20.52973637256061 0.0
31.34269999426618 -20.843591133012 0.0
-20.66850481250735 -31.44486891594184 0.0
20.0281921064395 31.55415036089927 0.0
-18.67233805424752 42.50512532845049 0.0
18.19374025937458 -41.3023818091193 0.0
-42.17227278268256 -16.24076058910855 0.0
42.33829241096302 18.38562740073045 0.0
-40.86321105291192 18.22045265123251 0.0
-19.09931494913455 -40.64436380017196 0.0
-13.30478786335714 35.15565346988954 0.0
13.36569963208577 -33.83771726345368 0.0
-35.00763648785878 -13.66986120776997 0.0
35.15137232365157 13.29896341749408 0.0
-35.91973878086461 15.7257524773399 0.0
35.68134262944334 -13.50523986115313 0.0
14.28764867624587 35.97175823727987 0.0
-13.25608024279581 -36.09807581453354 0.0
-3.43573809733963 36.46130396748957 0.0
35.94387149962209 3.283015085636099 0.0
-35.62528452942622 -38.11661102564214 0.0
-38.61144023634591 34.81445789116533 0.0
34.36510053755555 38.72526495721833 0.0
38.75250588014823 -36.60167160487691 0.0
-40.57866978399257 46.81464340686621 0.0
45.20714492860375 -46.49369314478449 0.0
-34.56961509198562 -30.09715433458693 0.0
28.89989496625516 -35.30943539832101 0.0
35.24685681111853 -28.36472795070014 0.0
-30.34643278536468 34.20824456163002 0.0
34.03674534806063 30.31422029262094 0.0
-28.98189249145605 -10.98912622604279 0.0
25.41109985201274 -43.16931712699911 0.0
-26.597795920339 42.20147207521702 0.0
41.32669930959985 25.54113667098549 0.0
-22.48882370483756 -40.46175611878148 0.0
-18.0669898619053 25.26632201893649 0.0
17.72813917294362 -23.64712901441006 0.0
23.72778775552051 -17.64338066683542 0.0
-22.77443519795011 17.31221796259062 0.0
-25.07450847978108 -17.78314326524689 0.0
25.28898803843497 18.0556593023152 0.0
-17.71437862979588 -23.80397494215774 0.0
17.65719024624709 23.77463017495757 0.0
-27.9747090463393 -35.48993805662332 0.0
-35.40621929961179 27.30862593778066 0.0
26.16468943600576 -25.93382240574992 0.0
-26.50488120041251 25.78703828377619 0.0
-25.97573520979492 -26.47925882668211 0.0
25.80354875442789 26.4894138501519 0.0
-42.69565153438871 -35.45658735479477 0.0
27.18760823652676 35.38729571427982 0.0
41.88190235801823 34.45418445087055 0.0
-34.6954444584546 41.95187196559198 0.0
27.48629807742796 43.2394635414067 0.0
-43.21551196682957 27.63698140879208 0.0
43.40873777236504 -29.7149531370159 0.0
0.03902805686112204 25.50793362079343 0.0
26.49058815765176 0.4508521119359422 0.0
-27.16496611088848 -0.3998490888626399 0.0
-13.90465237569755 42.85919552680384 0.0
11.88268567144881 -43.5135427466366 0.0
-43.04762412693207 -13.58015228415966 0.0
42.8552257871967 13.9000399701175 0.0
43.84814664488243 -13.00404812910894 0.0
-43.89144862605731 12.87407331471758 0.0
-13.51069816788382 -43.5843256978244 0.0
13.05276926181895 43.88413546700496 0.0
43.47454277746057 -4.273927059036473 0.0
4.251839695595125 -43.00296293389271 0.0
-3.677127186826619 42.47072306863843 0.0
-42.57048792093359 -4.104201340196073 0.0
42.23487267792431 4.555512209557088 0.0
1.403550233453511 38.06263322058061 0.0
-28.6840696329963 -43.9094240394531 0.0
33.45783844263915 -43.62753908831294 0.0
46.33332628542988 -37.22257550074718 0.0
-46.58186236091294 35.08454843805947 0.0
-36.97468536493553 -45.693350813237 0.0
-41.50382447786544 42.97499305120035 0.0
-19.37061511912771 38.0783770016086 0.0
20.62296912632873 -38.16205147245761 0.0
-39.43229634248945 20.8134107432894 0.0
38.03064832695853 19.30833920884766 0.0
-20.71607715948846 -38.35175377766666 0.0
20.12189638536551 40.28938809992449 0.0
-41.03453967019605 -39.37510093269113 0.0
-46.42354308684152 43.6290998046874 0.0
-32.92916635725854 17.48596688573752 0.0
33.39922705361964 -17.56142203091263 0.0
-17.51123177642824 -33.46247860523317 0.0
16.29579410043273 32.3606547707406 0.0
-16.93738969355763 35.11727165207721 0.0
17.66368300133982 -33.38345136950765 0.0
35.09735848955847 16.90917182891173 0.0
-31.95048704757514 -16.86533364453098 0.0
41.12700327893752 -46.82287762733851 0.0
46.76974310941768 -41.50919855609006 0.0
19.2957726357979 -45.77701341558947 0.0
-45.76103885556889 -20.35867523002106 0.0
46.35337201291616 20.17070680000077 0.0
-46.70307824580135 19.91031570263512 0.0
-20.22689438772374 -46.69049767040066 0.0
19.89010420255736 46.694342063494 0.0
-41.32201878705205 -43.02276791727626 0.0
42.55326811187462 -43.1237758300644 0.0
40.75109930525767 42.8781751402188 0.0
-44.64664607221794 -40.31474560117277 0.0
-9.48349620752917 34.75512027243715 0.0
8.839568714324972 -36.26944765178768 0.0
34.7531496671939 9.48137247453693 0.0
-35.79167376164647 -9.47755618328256 0.0
16.77397813178351 -37.05172633854437 0.0
-37.99817303550739 17.61249595904635 0.0
37.17101194375822 -17.66060549259279 0.0
-17.56397712116187 -37.24041616734706 0.0
-40.87405509507679 -46.63739324906918 0.0
-36.49599937835107 8.108151523774188 0.0
36.30113923803823 -8.41251196005289 0.0
-7.862078692618412 -36.10177033464163 0.0
8.387693823454779 36.44673844565912 0.0
-46.86026167424509 -36.33176564404296 0.0
-47.84280426237672 -40.10656090758755 0.0
-24.2845560941761 10.04357796342171 0.0
24.45065917299803 -10.63823576451899 0.0
10.67341336290341 25.03669293607638 0.0
-10.66487524635786 -24.46785092437751 0.0
-9.442240815741325 24.5716331986801 0.0
10.55599485582231 -25.14245433446974 0.0
-25.4176844222611 -9.602754668773738 0.0
24.57370499155401 9.440224709866296 0.0
31.7775279301888 -39.86443256499796 0.0
-28.74292279463252 -19.72043452254821 0.0
-19.91350375568665 28.7759248820648 0.0
28.78440433333324 19.90267071306655 0.0
34.27171978713856 -36.12886642978678 0.0
-24.97928262938201 -22.11982520009731 0.0
24.93910918910761 22.11705602762547 0.0
-22.12717428288939 24.92334430133729 0.0
41.4433884223758 30.01312781027387 0.0
-30.30972234325325 41.26155945377006 0.0
-21.76575115563634 -24.81903908726212 0.0
21.86738564489765 -24.44453101328128 0.0
21.70053754803671 24.80786306315723 0.0
24.66866364651609 -21.69992801870708 0.0
21.53397179143645 20.79002112385452 0.0
-20.81238915222155 21.52823876486881 0.0
-21.56726400591951 -20.79710903808696 0.0
-32.41141883193087 38.15853607211221 0.0
-25.19718413950319 21.19588217897681 0.0
-26.28637981374742 5.757344021361345 0.0
27.09044992097831 -7.865367665577171 0.0
5.292297663326828 26.15875440873394 0.0
-7.182834282322627 -26.79319164752931 0.0
6.07554513823264 -26.01617958827297 0.0
-5.167406982938196 26.14218292748527 0.0
26.1420072436647 5.166883667742996 0.0
-25.90619011663622 -5.317432027607834 0.0
37.00465183982011 -32.44224693105269 0.0
20.88652671096859 -20.77498475663256 0.0
-28.79982085586687 -16.4369437253037 0.0
-37.45350829121612 -23.11877944895929 0.0
-15.10258591314434 28.89602376670976 0.0
28.9013055661156 15.09521053187982 0.0
29.68999742037443 -43.31981760192348 0.0
32.28802864858128 -31.62881681890865 0.0
27.82804206942537 -30.30013556405221 0.0
-38.14439335805944 -27.66627416732167 0.0
-22.98369302518139 36.67752571171749 0.0
41.06123645712469 -32.8726901915552 0.0
36.8149944293849 23.09956855971062 0.0
30.62108924979503 -27.41426834463885 0.0
-42.49714928391047 -28.93273599191799 0.0
18.64170406124944 -28.53882502576317 0.0
-31.8721956957397 -37.10275290420343 0.0
38.05743322617566 32.24492185236286 0.0
28.61679479186527 -18.51328504651171 0.0
-18.47455258739948 -28.71169188983244 0.0
-32.79333722339119 -41.28544063528315 0.0
-30.24441309414651 -28.39779293230465 0.0
27.24885644594872 -39.76191319704936 0.0
-29.05665361759432 18.16192768609967 0.0
-28.48010453428999 29.9443665808475 0.0
-27.18014007087914 -30.95699773619476 0.0
37.54130055318566 27.7669489208769 0.0
17.9155158341415 28.03638967459029 0.0
-27.57094307763599 37.93969612336196 0.0
-30.97397708962258 26.82237305728564 0.0
26.78179049924921 30.94065166786703 0.0
39.59204495502527 -29.17613422922446 0.0
29.96137657966497 28.44157396572155 0.0
46.22951749688345 -23.10348972462486 0.0
30.5010366361774 32.76492978218841 0.0
-28.74508703314905 -39.67600195136983 0.0
-32.80254604484505 30.6430386233863 0.0
-35.17450863250387 -34.40542732519621 0.0
-40.86320176941266 31.24387768384927 0.0
-31.16926360526568 -32.74167721485155 0.0
-18.29235422726632 -14.07297047736662 0.0
-14.07591592655374 18.20333108125833 0.0
18.21377941283814 14.07715105758181 0.0
-42.75411559414035 8.592811767496478 0.0
43.39334985526564 -6.944158408799351 0.0
8.797223026487808 42.6608082197339 0.0
-9.490762946082466 -43.97245280505431 0.0
-25.90232122849978 33.44073908523711 0.0
-36.42010031645136 38.08814524026629 0.0
-24.50274483972967 -45.62129349970063 0.0
33.39817839843299 25.86047376623846 0.0
30.9440428473042 40.97733438204173 0.0
-39.24848436563897 -32.15184566594076 0.0
-36.96453485115451 30.97953267423736 0.0
-33.73039942317713 -25.72802894429692 0.0
-24.0421762222579 29.2833252825036 0.0
24.56499477991099 -32.73283792917382 0.0
-45.71626931619788 -31.97831920681199 0.0
14.81453938568843 -26.83464864859409 0.0
24.20991787485559 -36.83071623954785 0.0
29.28261406326955 24.01922903602504 0.0
45.2669583349542 25.1940279193114 0.0
-34.5927455110154 34.48199251046626 0.0
25.02993334449447 13.25525763516154 0.0
-13.25693681265574 25.01962940230319 0.0
-26.3836775832552 -13.65895279252274 0.0
-29.42597287582431 -23.98010393094112 0.0
30.74664517741998 36.97902902031694 0.0
38.01985475999823 36.23486146701501 0.0
34.34803934320186 34.56360979994062 0.0
36.26704224384486 -40.22600997812489 0.0
26.86814794906538 -14.74030795864398 0.0
-14.73044119909943 -26.92144100865037 0.0
14.64765790954706 25.70244253836058 0.0
-26.49251568532352 14.14247946127732 0.0
-39.48758295567198 27.83624405073167 0.0
-44.66607386367298 31.58755726078512 0.0
27.67242487226863 39.49781283126286 0.0
-46.55675186613041 -27.7621746902413 0.0
-39.45600522301348 2.381576184787837 0.0
30.66396661694665 44.39449981822943 0.0
7.857090284066949 -43.27191349714475 0.0
-9.159082885848226 43.31969347140967 0.0
-43.62116548617896 -9.253162047198638 0.0
43.611430039383 9.040613863437962 0.0
45.98376717286205 32.2009835676242 0.0
-45.389712979206 23.86914127750428 0.0
10.34228162882368 -39.99424199609026 0.0
-43.67182065233586 17.51833736258743 0.0
33.05028478376012 -24.45798819789671 0.0
-39.67852562212685 10.69446869876732 0.0
41.30332959498383 -10.12984759752794 0.0
11.34367296257085 39.09720076987105 0.0
-10.88813169860112 -40.26160986423455 0.0
17.68115346783402 43.55158748812199 0.0
23.81133263496577 45.37465429702623 0.0
-24.21477708668854 -33.24418528356734 0.0
-38.75091420128646 -36.52976907067565 0.0
45.26097195937459 -33.62178219366206 0.0
34.2175687603951 43.43437483821785 0.0
43.58359628715256 46.36436102462177 0.0
22.49068308813261 -41.36141860811821 0.0
-16.49612922610315 46.46889704172005 0.0
45.45731611874064 16.61099966478978 0.0
23.32075006006632 -28.86688113527965 0.0
43.78120466144439 22.42130580750169 0.0
-23.05199524807827 42.8073676407578 0.0
-33.21780115492601 23.8802161043464 0.0
-32.88131466013829 -45.12916391509268 0.0
-12.21852879601559 46.37003840516165 0.0
12.68254213086002 -46.95803841041158 0.0
-46.44682984019337 -12.07028681347912 0.0
46.368502470457 12.21700317338924 0.0
-47.50656647873077 12.46160355352135 0.0
12.49772665178411 47.50158423076506 0.0
-12.28265180294652 -46.89783805356987 0.0
-3.784605527721563 39.26762646546352 0.0
-38.26583489745879 -3.513573764117757 0.0
23.35399842694721 33.33716781648582 0.0
-23.01824103204051 -29.25803295477584 0.0
37.65981943679709 -24.83183282924892 0.0
37.95339171695685 -44.41709099308546 0.0
29.06147032268861 -23.11808967269176 0.0
-32.28050962748894 -10.45216305041422 0.0
22.63462329308984 29.26925584229041 0.0
42.22946982563396 -24.98616802294894 0.0
-24.40176943548067 -37.75136497953744 0.0
15.28456907833274 -44.19138684509478 0.0
-29.24378688698793 22.84763830097437 0.0
-2.730717915239267 32.42776599584344 0.0
2.985326047153879 -32.09665181538278 0.0
32.42756409409181 2.73053293116756 0.0
-33.2008857284848 -1.779286612206676 0.0
33.10728888970361 -4.200165305863423 0.0
-33.24920662120177 4.705315264350861 0.0
5.35467298512423 33.65539659523793 0.0
-3.71093239838771 -33.26207075614978 0.0
-25.08491320105205 -41.7910731553382 0.0
-21.70477177110357 39.9396383172768 0.0
-37.39559096185176 23.98819575107854 0.0
40.02673130927776 21.43045826939929 0.0
-38.17643466040309 41.31751653961903 0.0
-42.28737628336636 34.81441633977674 0.0
23.51595654981091 37.55469642733454 0.0
-45.43685154328325 -15.97552352726063 0.0
1.951831922298741 -23.22190297024119 0.0
-2.716919267654542 22.51366256351107 0.0
-22.43128952473501 -2.653122040379019 0.0
22.51357015653226 2.716726214107093 0.0
23.24338192508096 -1.858998830143491 0.0
-23.40529607523518 2.255009256770901 0.0
2.544843574512266 22.54871600298237 0.0
-2.344943004272483 -22.67700029238049 0.0
-40.78373382049886 -20.46167648598446 0.0
23.53331952422296 -46.10227274250673 0.0
-5.379525234768785 46.54605864896269 0.0
5.18656265570794 -46.55019183487264 0.0
46.54578705178262 5.379262074893452 0.0
-46.63858653186009 -5.419198644419137 0.0
-11.27299034254566 39.1594459455923 0.0
-39.41917377032643 -12.25245634408604 0.0
39.17171247084511 10.76431886454337 0.0
28.45143883563859 46.74704246057239 0.0
-46.78103518429548 28.6584376795706 0.0
-44.71823608998358 38.99085985437731 0.0
28.1661137251386 -46.62812885120958 0.0
42.59942759989208 -36.53473999539553 0.0
-44.32437218066914 -45.82829421422312 0.0
-10.07308123514103 27.83687864922294 0.0
8.887174428190713 -28.67710826936883 0.0
-29.39519034636816 -8.080780658776558 0.0
27.83890778889226 10.07028880302913 0.0
-28.81120868989421 9.613338105428737 0.0
9.52852946187912 29.44550799163751 0.0
-27.82940713094477 -47.20394413992642 0.0
46.16594428354865 -5.227897204048392 0.0
-4.344992781012237 -47.17354102974387 0.0
20.89070178964936 -34.9312531971647 0.0
-40.18450466959527 38.27200132002321 0.0
43.7699083197834 -39.60966085490522 0.0
37.75891881780754 40.30421782125342 0.0
-30.74070412629276 -13.6833295354835 0.0
-11.4293235511668 31.69155164873536 0.0
31.69061169328526 11.42492735600181 0.0
-21.88282974408322 -43.12495350631431 0.0
40.3478768248974 -40.07202049758223 0.0
21.01744837280825 43.46437911646579 0.0
-42.93654142480851 20.78409374694154 0.0
40.44584547842847 -15.36603429956696 0.0
-35.27051674230485 19.71777292592257 0.0
14.07608710620581 -40.57091742576254 0.0
19.0155456041985 35.89797855206449 0.0
35.72072125637826 -20.97241494379196 0.0
-41.30953943847621 24.15467782972293 0.0
-20.7895935409564 -35.20337669966668 0.0
-15.39590088150711 -40.11774072993636 0.0
23.83443073315342 41.54304094754578 0.0
-39.71485452247299 14.8792012438567 0.0
31.53911045077602 -46.77048324527022 0.0
15.91711439300562 39.78200810237781 0.0
39.50391324506235 -20.68159230960598 0.0
34.76868780347802 19.9549872542895 0.0
-19.95244127722108 34.75262490481177 0.0
-2.352567565848247 28.86111638316622 0.0
28.86101661273092 2.352387825475975 0.0
-35.02062089719441 46.50726166806006 0.0
-37.3394791905376 -41.06011503384426 0.0
38.78251641197095 45.72819737135973 0.0
44.3587895273903 -16.01479761831144 0.0
-17.96237256297601 -43.549021290574 0.0
-29.2479712196853 3.421022961629238 0.0
30.67536620016686 -0.4914470181134574 0.0
1.626676257092886 30.12819597382147 0.0
-0.7581016015596034 -30.34183406893162 0.0
-36.0349161702575 -18.41166548751916 0.0
-16.82687377969134 -16.74273847018291 0.0
-16.99535689037419 17.31249728963522 0.0
16.76801788445852 16.72138758599757 0.0
16.57737946623868 -16.54425079646755 0.0
-39.26885611211623 -7.799781908290981 0.0
0.8987954993666669 -40.22960191236773 0.0
-0.431326277078848 40.12844694678397 0.0
-39.53490800705038 -0.4981641722913104 0.0
38.94112847784663 1.545713640484382 0.0
8.948991043468133 -46.66003581939572 0.0
-47.34131637164648 -8.548529501048563 0.0
-8.747476214000415 -47.22638344536633 0.0
47.24653877566342 8.550811993885086 0.0
-8.551427383355714 47.2471581051068 0.0
-38.01645911095953 44.75936913457986 0.0
-32.0244112531224 46.79183300815812 0.0
-21.49128356452019 -7.401337324923633 0.0
-21.4829858127214 -11.88669873042717 0.0
45.52370100019567 1.093042895227357 0.0
-46.31971088087451 -1.000436795173481 0.0
-0.9123327375372096 46.30018608610672 0.0
1.415298204359818 -45.18239701938184 0.0
-7.490125935307967 21.52952705218452 0.0
21.53048451317721 7.489389847929297 0.0
-6.604111656599542 -22.53345851752308 0.0
-21.93094388335399 6.810529847952751 0.0
23.24790195907892 -6.554563716961505 0.0
-12.01530484001243 21.65441371339356 0.0
6.793927701778879 22.24932199444125 0.0
21.65823097787382 12.01271385840435 0.0
-32.7578637254792 8.95735466511468 0.0
6.800371367428713 -22.27132585311922 0.0
8.868981991972701 33.09194503975532 0.0
32.52024696254496 -10.96372775352367 0.0
-10.79155458387817 -32.58320753494758 0.0
45.89196283595568 -9.303153395529984 0.0
22.65749848453843 -13.86222515269921 0.0
-17.2222681495106 -19.81249365031845 0.0
-13.89532287244852 -22.66563450974666 0.0
17.16148034127474 19.75522207053878 0.0
13.89666970345974 -22.73911728576056 0.0
-15.06449206390618 32.45583065904845 0.0
13.8579907914976 22.51167005138225 0.0
32.45140185814345 15.05250349565029 0.0
-22.38143617081021 13.50174352513063 0.0
-34.99720410975066 -43.29201759936427 0.0
-19.65287476305809 18.49910991482686 0.0
16.88056763985711 -20.02765672454288 0.0
-36.05175636114199 11.99810199113258 0.0
46.22840724031474 36.23046095866492 0.0
-37.38114447356732 4.902808957137039 0.0
9.489335350381822 -32.22825854877907 0.0
19.99435152702641 -16.85235161582461 0.0
31.06711570699806 -7.617085439222946 0.0
4.897334462285786 37.29743523538321 0.0
38.58543159601813 15.5846331248032 0.0
-7.133501990166136 -31.00893174066447 0.0
-15.64807880423341 38.62504298508611 0.0
6.180941768346437 30.41181104872811 0.0
46.72395347013808 -30.77942893840272 0.0
-5.74103013594171 34.41042358725414 0.0
34.40969389891239 5.74028499626277 0.0
-30.09840124213721 6.12761932981204 0.0
-47.46897041921054 -43.7082667871633 0.0
-34.87336288762795 -4.917191506107566 0.0
37.48993120925683 -3.150733462686841 0.0
45.63898514765926 -2.391755727562408 0.0
-3.414397019353642 -37.73832135190472 0.0
5.945904085438757 -29.78894516650583 0.0
15.8525767690168 -47.38528773421916 0.0
15.33108490837751 -30.46376129263902 0.0
30.91932126878137 -14.5197881480331 0.0
-32.10142780438347 44.08209988146397 0.0
30.84503089601201 6.50929063287421 0.0
-6.510509504994916 30.84584296203149 0.0
-47.48830352751673 40.69280848074916 0.0
-14.43046396036058 -31.03989201738768 0.0
11.17316049440569 35.70452072982244 0.0
-46.75306076293847 3.715473189630325 0.0
3.804698959991915 46.78161745181856 0.0
-15.99710282023416 -46.78694711872815 0.0
-28.85607009079623 45.67186062099918 0.0
42.52037660433121 39.01607277866671 0.0
-16.43178368766621 21.15788425770072 0.0
28.81918299406516 -10.69287642948178 0.0
-6.814420179500674 38.5276521347372 0.0
37.9830690971662 6.0930319724401 0.0
6.170460344163463 -33.61019222661262 0.0
21.1891076858439 16.44700510106781 0.0
-20.61100154463511 -16.60443577455139 0.0
-10.67261405969346 -28.83799918339065 0.0
15.93089090918977 46.80276131737323 0.0
-46.82278928739177 15.91754715224133 0.0
47.08030700186296 23.15720810537092 0.0
-31.72691261520481 13.66685366698206 0.0
12.06804392752782 -29.71265533377547 0.0
-43.99016902508966 -24.77086174631929 0.0
45.60690977374499 28.25356104845801 0.0
12.23284387268576 32.63586632710199 0.0
-30.67895828481284 -47.24850641889444 0.0
40.71381054962541 -5.780468901743395 0.0
-6.245382670822798 -41.00593914562671 0.0
0.04122670852614377 -34.96003076635095 0.0
1.208919611397362 34.78410608477213 0.0
34.68989273695332 -0.06911203107258244 0.0
-36.02397792723743 0.3872339990911862 0.0
-47.60579428177628 31.86610867568002 0.0
-6.20800144836755 -44.4357177318071 0.0
32.18433204901267 47.04534116363804 0.0
4.207389043067255 40.77083846819889 0.0
5.415797655636512 43.99105642663729 0.0
-41.13010373214024 5.081183301919435 0.0
-42.96557696640625 1.364974567581056 0.0
-44.04458040311627 5.469812775885852 0.0
1.401183242875502 43.40714474136398 0.0
41.99265176882528 -1.644387236883892 0.0
-2.605259754933285 -43.79871485135303 0.0
13.54895909026492 28.86959237308456 0.0
-44.08433955811598 46.90312271045891 0.0
46.01805644224521 43.29908465780875 0.0
-46.42139598071188 8.444824943012918 0.0
8.509745079365437 46.40274311370855 0.0
46.91621779437245 -19.03281122713645 0.0
-24.38183980846764 39.91313997366621 0.0
47.2408057876539 -14.20640773460838 0.0
-32.47502528161832 -7.488700081805204 0.0
34.99006812207295 -46.96302266533372 0.0
-20.52993264049286 46.19124165655224 0.0
-13.08093302560058 -18.6033413254328 0.0
6.04817338187029 -39.91006899426107 0.0
18.60391129859582 -12.97399483931749 0.0
12.99253911098136 -18.61299940470116 0.0
43.28135974234355 -20.04154973638074 0.0
-42.55619551675659 -32.14983626804546 0.0
-30.74944229301699 -3.738121762027062 0.0
-10.44075947309608 -21.29473944142159 0.0
-24.50596564995784 46.14532366558771 0.0
10.25793337403336 21.48356717198536 0.0
7.718649905807215 39.46319356552929 0.0
-39.48797776006516 7.475884849818892 0.0
-4.089667652585582 -28.66960951734868 0.0
12.99323304610157 18.53156648569873 0.0
-47.55866851997573 -47.10731220027707 0.0
-23.3880433550982 -14.98330764068705 0.0
10.37984873699152 -21.4486975056583 0.0
38.4188704995637 -11.89059365185463 0.0
4.163925115900903 -36.17933222779381 0.0
21.2931401995853 -10.39600514989833 0.0
-38.68354660632483 -16.20728402289363 0.0
-40.57379075575491 -24.99006556810054 0.0
-47.26159194935779 -24.17834233332447 0.0
-1.202198605691927 -25.90395974302978 0.0
-26.4583979506419 2.519320601936815 0.0
35.32372672374684 47.12854081845406 0.0
-1.106990866279834 -47.23093058009575 0.0
-31.60607498341913 0.4327191269958171 0.0
46.43194642750343 -27.43067330382586 0.0
-18.14875799224159 32.07816221092285 0.0
32.08120576733511 18.1396926923019 0.0
-2.955661267654541 -40.69704842172446 0.0
-18.83953881788787 14.7586694799547 0.0
2.499717830978743 -27.89491222539403 0.0
-47.30157652899129 47.30644450302906 0.0
12.67952304264475 -37.54481013512771 0.0
27.84601325137979 -4.019539409135154 0.0
-20.42390964374141 10.64659902071009 0.0
-4.284751040294422 -25.31544394356227 0.0
40.75483478564721 7.532984215573745 0.0
-25.88019716009278 17.7031268222361 0.0
42.17308848119799 1.387470377096234 0.0
47.10209505088354 46.97930770169142 0.0
46.98439730667694 39.7115249548355 0.0
47.80178623215067 -48.12342328619587 0.0
CELLS 1232 4928
3 220 145 171
3 56 232 55
3 233 51 52
3 51 233 212
3 141 248 217
3 249 144 218
3 251 145 220
3 252 75 76
3 75 252 214
3 81 257 80
3 258 79 80
3 257 258 80
3 232 241 161
3 241 233 161
3 240 214 252
3 229 248 147
3 250 225 151
3 251 226 153
3 222 240 243
3 212 50 51
3 214 74 75
3 99 213 98
3 235 84 85
3 236 36 37
3 234 60 61
3 71 238 70
3 23 239 22
3 95 237 94
3 52 53 233
3 53 161 233
3 101 223 100
3 268 134 231
3 163 271 267
3 176 272 268
3 177 273 270
3 172 274 269
3 277 184 272
3 279 185 273
3 280 182 278
3 177 281 273
3 172 282 274
3 176 283 272
3 284 189 276
3 285 183 274
3 294 159 271
3 173 295 278
3 231 296 268
3 296 176 268
3 298 172 269
3 299 177 270
3 211 300 267
3 163 301 271
3 163 302 301
3 305 159 294
3 307 164 301
3 309 173 278
3 311 188 275
3 174 312 280
3 178 313 277
3 314 156 310
3 316 163 267
3 184 319 315
3 320 170 306
3 170 320 275
3 179 321 279
3 169 322 276
3 183 323 318
3 164 325 294
3 326 185 324
3 187 328 324
3 180 329 310
3 330 165 318
3 156 331 310
3 333 180 310
3 333 162 315
3 133 341 304
3 165 341 318
3 342 189 284
3 135 344 306
3 166 344 326
3 162 346 303
3 346 162 331
3 181 347 330
3 157 347 332
3 134 348 297
3 162 348 315
3 349 133 269
3 349 183 318
3 163 350 302
3 351 186 257
3 353 163 316
3 163 353 350
3 354 135 270
3 354 185 326
3 356 165 330
3 165 356 284
3 357 177 299
3 358 172 298
3 359 167 265
3 359 176 296
3 360 134 268
3 360 184 315
3 187 361 328
3 158 361 345
3 362 188 311
3 363 166 328
3 166 363 311
3 364 211 267
3 369 191 332
3 191 370 332
3 371 190 345
3 190 374 345
3 383 164 307
3 201 384 337
3 203 386 339
3 255 387 153
3 202 387 340
3 390 180 319
3 186 391 222
3 156 391 331
3 212 392 50
3 192 392 305
3 393 158 345
3 168 395 316
3 396 196 140
3 397 199 143
3 236 397 143
3 398 182 302
3 182 398 278
3 399 236 143
3 401 181 323
3 210 402 314
3 403 196 396
3 406 199 397
3 412 187 324
3 184 413 319
3 413 184 277
3 164 414 325
3 182 416 307
3 416 182 280
3 247 417 148
3 185 418 324
3 418 185 279
3 419 192 325
3 180 420 329
3 234 421 141
3 197 421 404
3 183 422 323
3 422 183 285
3 210 431 343
3 431 210 329
3 432 216 304
3 181 433 369
3 170 434 306
3 434 219 306
3 435 189 342
3 436 157 332
3 187 437 371
3 438 198 142
3 235 438 142
3 198 438 405
3 117 439 5
3 102 440 4
3 193 440 291
3 110 441 109
3 195 441 293
3 125 442 124
3 194 442 292
3 443 123 124
3 444 108 109
3 445 131 4
3 445 193 288
3 446 116 5
3 456 190 389
3 457 191 380
3 213 458 436
3 460 159 305
3 167 464 265
3 468 72 73
3 468 210 343
3 471 132 350
3 157 472 342
3 472 157 436
3 473 212 233
3 241 473 233
3 212 473 460
3 158 474 362
3 474 158 393
3 231 475 296
3 478 171 145
3 478 238 343
3 159 479 364
3 479 159 460
3 480 239 389
3 481 237 380
3 136 483 401
3 484 248 141
3 191 487 380
3 487 191 369
3 138 488 390
3 251 489 145
3 190 490 389
3 490 190 371
3 249 491 144
3 219 495 306
3 495 219 230
3 495 135 306
3 216 496 304
3 496 216 228
3 496 133 304
3 500 240 222
3 503 238 478
3 145 503 478
3 439 446 5
3 440 445 4
3 440 193 445
3 442 443 124
3 442 194 443
3 441 444 109
3 441 195 444
3 421 484 141
3 421 197 484
3 491 382 144
3 201 382 491
3 203 388 493
3 459 448 168
3 500 391 156
3 222 391 500
3 382 481 144
3 382 237 481
3 388 239 480
3 454 142 198
3 508 148 231
3 152 485 227
3 364 271 159
3 267 271 364
3 316 300 168
3 267 300 316
3 360 272 184
3 268 272 360
3 349 274 183
3 269 274 349
3 354 273 185
3 270 273 354
3 294 301 164
3 294 271 301
3 277 283 178
3 277 272 283
3 279 281 179
3 279 273 281
3 285 282 175
3 274 282 285
3 311 320 166
3 311 275 320
3 284 322 165
3 284 276 322
3 413 313 138
3 277 313 413
3 309 398 132
3 309 278 398
3 280 295 174
3 280 278 295
3 418 321 139
3 279 321 418
3 416 312 137
3 280 312 416
3 342 356 157
3 342 284 356
3 422 317 136
3 285 317 422
3 305 325 192
3 305 294 325
3 359 475 167
3 359 296 475
3 303 348 162
3 303 297 348
3 307 302 182
3 301 302 307
3 398 350 132
3 302 350 398
3 308 303 346
3 322 341 165
3 322 304 341
3 460 392 212
3 305 392 460
3 320 344 166
3 320 306 344
3 383 416 137
3 383 307 416
3 333 331 162
3 310 331 333
3 314 329 210
3 314 310 329
3 362 363 158
3 362 311 363
3 360 348 134
3 315 348 360
3 333 319 180
3 315 319 333
3 353 395 217
3 353 316 395
3 349 341 133
3 318 341 349
3 330 323 181
3 318 323 330
3 390 413 138
3 390 319 413
3 401 422 136
3 401 323 422
3 412 418 139
3 412 324 418
3 326 328 166
3 326 324 328
3 325 414 419
3 354 344 135
3 326 344 354
3 363 361 158
3 328 361 363
3 431 420 171
3 329 420 431
3 356 347 157
3 330 347 356
3 346 391 186
3 346 331 391
3 369 347 181
3 332 347 369
3 436 370 213
3 332 370 436
3 435 472 215
3 435 342 472
3 478 431 171
3 343 431 478
3 371 361 187
3 345 361 371
3 345 374 393
3 471 353 217
3 350 353 471
3 369 433 487
3 371 437 490
3 375 381 197
3 417 464 167
3 481 380 487
3 486 383 137
3 480 389 490
3 474 501 242
3 474 393 501
3 472 458 215
3 436 458 472
3 479 473 241
3 460 473 479
3 81 82 351
3 257 81 351
3 493 152 386
3 203 493 386
3 150 491 249
3 201 491 384
3 153 489 251
3 489 153 387
3 202 489 387
3 151 482 250
3 484 197 381
3 432 140 216
3 140 432 400
3 434 143 219
3 143 434 399
3 434 170 399
3 259 286 466
3 291 263 462
3 290 264 463
3 261 288 467
3 293 265 464
3 292 266 465
3 58 492 57
3 211 492 300
3 34 379 33
3 188 379 275
3 25 456 24
3 190 456 374
3 97 457 96
3 191 457 370
3 459 58 59
3 459 492 58
3 459 168 300
3 459 300 492
3 372 308 351
3 204 469 338
3 470 66 67
3 469 42 43
3 399 170 355
3 41 451 40
3 89 452 88
3 65 450 64
3 17 449 16
3 207 377 452
3 208 378 451
3 205 375 450
3 206 376 449
3 39 406 38
3 406 378 199
3 87 405 86
3 405 377 198
3 408 20 21
3 409 68 69
3 409 202 340
3 63 404 62
3 15 403 14
3 403 376 196
3 407 92 93
3 236 37 397
3 376 453 196
3 453 244 146
3 378 455 199
3 455 246 149
3 377 454 198
3 454 247 148
3 148 475 231
3 475 148 417
3 167 475 417
3 244 476 146
3 246 477 149
3 237 95 380
3 239 23 389
3 238 71 343
3 437 187 412
3 55 232 161
3 433 181 401
3 433 483 218
3 433 401 483
3 461 252 76
3 77 461 76
3 240 252 461
3 243 240 461
3 8 160 7
3 164 383 414
3 414 383 486
3 420 180 390
3 420 220 171
3 420 488 220
3 420 390 488
3 9 499 8
3 395 141 217
3 141 395 234
3 168 448 395
3 448 234 395
3 448 59 60
3 459 59 448
3 60 234 448
3 415 211 364
3 415 241 232
3 415 479 241
3 415 364 479
3 500 156 314
3 500 214 240
3 242 501 394
3 402 74 214
3 85 438 235
3 485 139 227
3 139 485 412
3 437 485 221
3 437 412 485
3 218 483 249
3 224 483 136
3 150 483 224
3 150 249 483
3 220 488 251
3 488 226 251
3 226 488 138
3 179 367 321
3 321 227 139
3 200 502 482
3 202 503 489
3 489 503 145
3 317 224 136
3 178 366 313
3 313 226 138
3 447 235 142
3 471 217 248
3 229 471 248
3 471 229 132
3 352 173 309
3 229 309 132
3 486 225 250
3 225 486 137
3 174 365 312
3 312 225 137
3 458 213 99
3 458 223 215
3 14 396 13
3 14 403 396
3 38 397 37
3 38 406 397
3 96 380 95
3 96 457 380
3 24 389 23
3 24 456 389
3 72 343 71
3 72 468 343
3 48 327 47
3 86 438 85
3 86 405 438
3 513 454 377
3 454 513 247
3 63 518 404
3 375 518 450
3 87 519 405
3 377 519 452
3 519 377 405
3 520 68 409
3 340 520 409
3 39 521 406
3 378 521 451
3 521 378 406
3 15 522 403
3 376 522 449
3 522 376 403
3 523 160 8
3 499 523 8
3 10 524 9
3 524 499 9
3 265 526 359
3 41 527 451
3 89 528 452
3 17 529 449
3 65 530 450
3 263 536 358
3 266 538 357
3 542 254 151
3 543 255 153
3 545 365 174
3 283 546 178
3 547 366 178
3 281 548 179
3 352 549 173
3 476 550 146
3 550 476 298
3 550 228 146
3 551 367 179
3 477 552 149
3 552 477 299
3 552 230 149
3 553 368 175
3 554 402 214
3 554 500 314
3 500 554 214
3 402 554 314
3 282 555 175
3 556 295 173
3 253 557 539
3 557 253 384
3 245 560 147
3 295 561 174
3 199 564 143
3 564 199 455
3 196 566 140
3 566 196 453
3 568 49 50
3 392 568 50
3 423 569 154
3 425 570 155
3 461 572 243
3 79 572 78
3 575 469 204
3 578 62 404
3 421 578 404
3 579 229 147
3 225 580 151
3 581 276 189
3 499 581 189
3 584 100 223
3 584 458 99
3 458 584 223
3 100 584 99
3 226 585 153
3 152 586 386
3 256 586 541
3 586 256 386
3 589 70 238
3 503 589 238
3 276 590 169
3 362 591 188
3 594 410 154
3 600 22 239
3 388 600 239
3 601 94 237
3 382 601 237
3 36 602 35
3 602 355 35
3 275 606 170
3 606 355 170
3 607 152 227
3 608 402 210
3 608 468 73
3 468 608 210
3 338 609 204
3 615 98 213
3 370 615 213
3 98 615 97
3 340 616 520
3 26 617 25
3 621 373 516
3 569 594 154
3 569 244 594
3 570 595 155
3 570 246 595
3 258 572 79
3 258 243 572
3 624 575 204
3 337 620 622
3 385 544 200
3 385 338 544
3 339 618 619
3 340 610 616
3 546 547 178
3 561 545 174
3 548 551 179
3 549 556 173
3 557 491 150
3 384 491 557
3 192 568 392
3 208 451 527
3 207 452 528
3 205 450 530
3 206 449 529
3 197 518 375
3 197 404 518
3 207 513 377
3 207 411 513
3 585 543 153
3 410 206 515
3 154 515 209
3 154 410 515
3 411 207 516
3 580 542 151
3 74 608 73
3 74 402 608
3 425 155 613
3 612 154 209
3 423 154 612
3 617 456 25
3 374 456 617
3 615 457 97
3 370 457 615
3 524 581 499
3 577 596 424
3 556 561 295
3 556 512 561
3 525 526 265
3 531 536 263
3 532 538 266
3 603 557 150
3 607 586 152
3 541 586 607
3 224 603 150
3 67 68 520
3 161 54 55
3 527 41 42
3 469 575 42
3 527 42 575
3 89 90 528
3 528 90 587
3 17 18 529
3 529 18 588
3 626 367 261
3 467 626 261
3 599 366 262
3 593 365 260
3 352 604 264
3 604 463 264
3 33 558 32
3 558 33 379
3 600 21 22
3 21 600 408
3 203 600 388
3 203 408 600
3 601 93 94
3 93 601 407
3 201 601 382
3 201 407 601
3 589 69 70
3 69 589 409
3 503 202 589
3 589 202 409
3 61 578 234
3 578 61 62
3 578 421 234
3 591 474 242
3 474 591 362
3 336 597 538
3 597 357 538
3 357 597 177
3 335 592 536
3 592 358 536
3 358 592 172
3 610 387 255
3 387 610 340
3 255 576 610
3 609 385 254
3 385 609 338
3 254 574 609
3 373 620 559
3 334 598 526
3 236 602 36
3 602 236 399
3 355 602 399
3 467 288 567
3 506 429 567
3 63 64 518
3 64 450 518
3 466 286 571
3 504 428 571
3 87 88 519
3 88 452 519
3 15 16 522
3 16 449 522
3 39 40 521
3 40 451 521
3 498 194 292
3 497 193 291
3 193 506 288
3 506 567 288
3 35 355 606
3 379 606 275
3 606 379 34
3 35 606 34
3 504 571 286
3 523 215 160
3 215 523 435
3 499 189 523
3 523 189 435
3 551 261 367
3 290 463 577
3 553 259 368
3 545 260 365
3 547 262 366
3 292 465 582
3 582 498 292
3 425 498 582
3 291 462 583
3 583 497 291
3 423 497 583
3 264 549 352
3 455 595 246
3 206 410 594
3 594 453 376
3 453 594 244
3 206 594 376
3 570 425 582
3 582 477 246
3 477 582 465
3 246 570 582
3 569 423 583
3 583 476 244
3 476 583 462
3 244 569 583
3 256 541 429
3 467 567 541
3 567 429 541
3 255 430 576
3 430 611 576
3 254 427 574
3 427 613 574
3 313 585 226
3 585 313 366
3 366 599 585
3 565 430 255
3 255 543 565
3 43 44 544
3 544 338 469
3 469 43 544
3 321 626 227
3 626 321 367
3 626 607 227
3 562 427 254
3 254 542 562
3 312 580 225
3 580 312 365
3 365 593 580
3 612 209 563
3 256 429 563
3 429 612 563
3 253 539 428
3 466 571 539
3 571 428 539
3 253 428 559
3 428 614 559
3 245 596 560
3 577 463 560
3 577 560 596
3 579 309 229
3 309 579 352
3 604 352 579
3 611 507 424
3 611 430 507
3 194 498 505
3 505 498 425
3 613 505 425
3 613 427 505
3 193 497 506
3 506 497 423
3 612 506 423
3 612 429 506
3 419 414 494
3 537 130 131
3 537 288 261
3 445 288 537
3 445 537 131
3 534 107 108
3 534 286 259
3 444 286 534
3 444 534 108
3 533 115 116
3 533 289 262
3 446 533 116
3 393 374 617
3 535 122 123
3 535 287 260
3 443 535 123
3 111 525 110
3 293 525 265
3 293 441 525
3 525 441 110
3 494 486 250
3 486 494 414
3 118 540 117
3 290 540 264
3 290 439 540
3 540 439 117
3 126 532 125
3 292 532 266
3 292 442 532
3 532 442 125
3 103 531 102
3 291 531 263
3 291 440 531
3 531 440 102
3 598 283 176
3 598 546 283
3 598 334 509
3 509 546 598
3 597 281 177
3 597 548 281
3 597 336 511
3 511 548 597
3 623 588 619
3 621 587 622
3 481 218 144
3 487 433 218
3 481 487 218
3 335 536 104
3 317 603 224
3 603 317 368
3 336 538 127
3 513 573 247
3 411 573 513
3 524 10 590
3 276 581 590
3 524 590 581
3 334 526 112
3 222 243 186
3 257 186 243
3 257 243 258
3 134 508 231
3 508 134 297
3 592 282 172
3 592 555 282
3 592 335 510
3 592 510 555
3 437 221 490
3 493 388 221
3 388 480 221
3 480 490 221
3 520 470 67
3 616 470 520
3 619 618 623
3 621 620 373
3 622 620 621
3 536 103 104
3 531 103 536
3 538 126 127
3 532 126 538
3 526 111 112
3 525 111 526
3 29 394 28
3 627 7 160
3 629 92 407
3 630 20 408
3 169 632 322
3 304 632 432
3 632 304 322
3 634 417 247
3 573 634 247
3 635 57 492
3 211 635 492
3 638 375 205
3 642 186 351
3 642 308 346
3 308 642 351
3 186 642 346
3 644 533 262
3 547 644 262
3 645 400 169
3 646 537 261
3 551 646 261
3 647 386 256
3 563 647 256
3 648 384 253
3 648 559 620
3 559 648 253
3 651 77 0
3 78 651 0
3 77 651 461
3 652 359 526
3 652 598 176
3 598 652 526
3 359 652 176
3 540 653 264
3 653 549 264
3 654 151 254
3 385 654 254
3 151 654 482
3 655 424 596
3 656 535 260
3 545 656 260
3 454 657 142
3 508 657 148
3 657 454 148
3 215 627 160
3 215 223 627
3 400 632 169
3 400 432 632
3 630 203 339
3 408 203 630
3 629 201 337
3 407 201 629
3 572 651 78
3 572 461 651
3 627 6 7
3 648 337 384
3 620 337 648
3 415 635 211
3 637 644 547
3 650 646 551
3 639 656 545
3 653 640 549
3 426 643 573
3 633 45 46
3 633 502 200
3 631 502 633
3 46 631 633
3 633 44 45
3 544 633 200
3 544 44 633
3 636 12 13
3 636 13 396
3 636 396 140
3 400 636 140
3 242 394 628
3 628 591 242
3 386 647 339
3 618 647 563
3 647 618 339
3 645 11 12
3 636 400 645
3 12 636 645
3 537 646 130
3 535 656 122
3 533 644 115
3 653 540 118
3 655 611 424
3 634 464 417
3 464 634 643
3 634 573 643
3 20 630 19
3 619 630 339
3 467 607 626
3 467 541 607
3 47 631 46
3 631 47 327
3 631 641 502
3 92 629 91
3 622 629 337
3 650 128 129
3 637 113 114
3 381 638 245
3 638 381 375
3 56 415 232
3 415 56 635
3 57 635 56
3 639 120 121
3 120 640 119
3 335 105 510
3 335 104 105
3 527 575 624
3 336 128 511
3 336 127 128
3 334 113 509
3 334 112 113
3 560 463 604
3 604 147 560
3 579 147 604
3 293 643 195
3 643 293 464
3 466 368 259
3 466 603 368
3 558 379 188
3 591 558 188
3 205 530 514
3 206 529 623
3 515 206 623
3 588 623 529
3 207 528 621
3 516 207 621
3 587 621 528
3 593 542 580
3 599 543 585
3 610 625 616
3 614 516 373
3 373 559 614
3 614 411 516
3 358 462 263
3 298 462 358
3 476 462 298
3 357 465 266
3 299 465 357
3 477 465 299
3 590 10 11
3 11 645 590
3 590 645 169
3 82 372 351
3 372 82 83
3 250 482 494
3 482 641 494
3 482 502 641
3 466 539 603
3 603 539 557
3 609 624 204
3 574 624 609
3 262 289 599
3 599 289 565
3 565 543 599
3 260 287 593
3 593 287 562
3 562 542 593
3 641 327 419
3 327 641 631
3 494 641 419
3 650 548 511
3 128 650 511
3 548 650 551
3 140 566 216
3 228 566 146
3 453 146 566
3 228 216 566
3 143 564 219
3 230 564 149
3 455 149 564
3 230 219 564
3 611 514 576
3 611 655 514
3 637 546 509
3 113 637 509
3 546 637 547
3 235 447 605
3 605 308 372
3 556 640 512
3 640 120 512
3 549 640 556
3 639 561 512
3 120 639 512
3 639 545 561
3 152 493 485
3 221 485 493
3 625 470 616
3 625 514 530
3 646 129 130
3 650 129 646
3 656 121 122
3 639 121 656
3 644 114 115
3 637 114 644
3 119 653 118
3 119 640 653
3 658 303 308
3 605 658 308
3 83 659 372
3 659 605 372
3 195 661 444
3 286 661 504
3 661 286 444
3 661 195 504
3 26 662 617
3 662 26 27
3 66 663 65
3 663 530 65
3 664 428 504
3 428 664 614
3 665 192 419
3 327 665 419
3 269 666 298
3 666 269 133
3 270 667 299
3 667 270 135
3 576 668 610
3 625 668 514
3 668 625 610
3 668 576 514
3 669 553 175
3 555 669 175
3 290 670 439
3 6 671 3
3 671 101 3
3 147 672 245
3 672 381 245
3 496 666 133
3 496 228 666
3 495 667 135
3 495 230 667
3 550 666 228
3 550 298 666
3 552 667 230
3 552 299 667
3 393 662 501
3 393 617 662
3 27 501 662
3 84 659 83
3 659 84 235
3 605 659 235
3 595 517 155
3 208 517 595
3 470 663 66
3 663 470 625
3 530 663 625
3 672 147 248
3 672 484 381
3 484 672 248
3 671 6 627
3 223 671 627
3 671 223 101
3 209 515 618
3 618 563 209
3 623 618 515
3 649 507 430
3 649 565 289
3 565 649 430
3 245 655 596
3 638 655 245
3 673 505 427
3 673 562 287
3 562 673 427
3 669 555 510
3 105 669 510
3 669 105 106
3 658 297 303
3 297 658 447
3 658 605 447
3 657 447 142
3 447 508 297
3 508 447 657
3 194 673 443
3 673 194 505
3 535 673 287
3 535 443 673
3 588 18 19
3 630 588 19
3 619 588 630
3 439 660 446
3 670 660 439
3 507 649 660
3 587 90 91
3 629 587 91
3 622 587 629
3 613 155 517
3 613 517 574
3 624 574 517
3 674 553 669
3 106 674 669
3 533 675 289
3 660 675 446
3 675 533 446
3 378 676 455
3 595 676 208
3 676 595 455
3 676 378 208
3 175 677 285
3 317 677 368
3 677 317 285
3 677 175 368
3 675 649 289
3 660 649 675
3 107 674 106
3 27 28 501
3 28 394 501
3 638 205 514
3 655 638 514
3 665 48 49
3 49 568 665
3 192 665 568
3 48 665 327
3 424 670 577
3 507 670 424
3 577 670 290
3 660 670 507
3 614 664 426
3 643 426 664
3 504 195 664
3 643 664 195
3 411 426 573
3 614 426 411
3 678 208 527
3 678 624 517
3 624 678 527
3 208 678 517
3 674 534 259
3 674 107 534
3 553 674 259
3 679 29 2
3 30 679 2
3 394 679 628
3 679 394 29
3 32 680 31
3 680 628 31
3 680 32 558
3 681 53 1
3 681 54 161
3 54 681 1
3 53 681 161
3 628 30 31
3 30 628 679
3 591 680 558
3 591 628 680
3 482 385 200
3 654 385 482
CELL_TYPES 1232
5
5
5
5
5
5
5
5
5
5
5
5
5
5
5
5
5
5
5
5
5
5
5
5
5
5
5
5
5
5
5
5
5
5
5
5
5
5
5
5
5
5
5
5
5
5
5
5
5
5
5
5
5
5
5
5
5
5
5
5
5
5
5
5
5
5
5
5
5
5
5
5
5
5
5
5
5
5
5
5
5
5
5
5
5
5
5
5
5
5
5
5
5
5
5
5
5
5
5
5
5
5
5
5
5
5
5
5
5
5
5
5
5
5
5
5
5
5
5
5
5
5
5
5
5
5
5
5
5
5
5
5
5
5
5
5
5
5
5
5
5
5
5
5
5
5
5
5
5
5
5
5
5
5
5
5
5
5
5
5
5
5
5
5
5
5
5
5
5
5
5
5
5
5
5
5
5
5
5
5
5
5
5
5
5
5
5
5
5
5
5
5
5
5
5
5
5
5
5
5
5
5
5
5
5
5
5
5
5
5
5
5
5
5
5
5
5
5
5
5
5
5
5
5
5
5
5
5
5
5
5
5
5
5
5
5
5
5
5
5
5
5
5
5
5
5
5
5
5
5
5
5
5
5
5
5
5
5
5
5
5
5
5
5
5
5
5
5
5
5
5
5
5
5
5
5
5
5
5
5
5
5
5
5
5
5
5
5
5
5
5
5
5
5
5
5
5
5
5
5
5
5
5
5
5
5
5
5
5
5
5
5
5
5
5
5
5
5
5
5
5
5
5
5
5
5
5
5
5
5
5
5
5
5
5
5
5
5
5
5
5
5
5
5
5
5
5
5
5
5
5
5
5
5
5
5
5
5
5
5
5
5
5
5
5
5
5
5
5
5
5
5
5
5
5
5
5
5
5
5
5
5
5
5
5
5
5
5
5
5
5
5
5
5
5
5
5
5
5
5
5
5
5
5
5
5
5
5
5
5
5
5
5
5
5
5
5
5
5
5
5
5
5
5
5
5
5
5
5
5
5
5
5
5
5
5
5
5
5
5
5
5
5
5
5
5
5
5
5
5
5
5
5
5
5
5
5
5
5
5
5
5
5
5
5
5
5
5
5
5
5
5
5
5
5
5
5
5
5
5
5
5
5
5
5
5
5
5
5
5
5
5
5
5
5
5
5
5
5
5
5
5
5
5
5
5
5
5
5
5
5
5
5
5
5
5
5
5
5
5
5
5
5
5
5
5
5
5
5
5
5
5
5
5
5
5
5
5
5
5
5
5
5
5
5
5
5
5
5
5
5
5
5
5
5
5
5
5
5
5
5
5
5
5
5
5
5
5
5
5
5
5
5
5
5
5
5
5
5
5
5
5
5
5
5
5
5
5
5
5
5
5
5
5
5
5
5
5
5
5
5
5
5
5
5
5
5
5
5
5
5
5
5
5
5
5
5
5
5
5
5
5
5
5
5
5
5
5
5
5
5
5
5
5
5
5
5
5
5
5
5
5
5
5
5
5
5
5
5
5
5
5
5
5
5
5
5
5
5
5
5
5
5
5
5
5
5
5
5
5
5
5
5
5
5
5
5
5
5
5
5
5
5
5
5
5
5
5
5
5
5
5
5
5
5
5
5
5
5
5
5
5
5
5
5
5
5
5
5
5
5
5
5
5
5
5
5
5
5
5
5
5
5
5
5
5
5
5
5
5
5
5
5
5
5
5
5
5
5
5
5
5
5
5
5
5
5
5
5
5
5
5
5
5
5
5
5
5
5
5
5
5
5
5
5
5
5
5
5
5
5
5
5
5
5
5
5
5
5
5
5
5
5
5
5
5
5
5
5
5
5
5
5
5
5
5
5
5
5
5
5
5
5
5
5
5
5
5
5
5
5
5
5
5
5
5
5
5
5
5
5
5
5
5
5
5
5
5
5
5
5
5
5
5
5
5
5
5
5
5
5
5
5
5
5
5
5
5
5
5
5
5
5
5
5
5
5
5
5
5
5
5
5
5
5
5
5
5
5
5
5
5
5
5
5
5
5
5
5
5
5
5
5
5
5
5
5
5
5
5
5
5
5
5
5
5
5
5
5
5
5
5
5
5
5
5
5
5
5
5
5
5
5
5
5
5
5
5
5
5
5
5
5
5
5
5
5
5
5
5
5
5
5
5
5
5
5
5
5
5
5
5
5
5
5
5
5
5
5
5
5
5
5
5
5
5
5
5
5
5
5
5
5
5
5
5
5
5
5
5
5
5
5
5
5
5
5
5
5
5
5
5
5
5
5
5
5
5
5
5
5
5
5
5
5
5
5
5
5
5
5
5
5
5
5
5
5
5
5
5
5
5
5
5
5
5
5
5
5
5
5
5
5
5
5
5
5
5
5
5
5
5
5
5
5
5
5
5
5
5
5
5
5
5
5
5
5
5
5
5
5
5
5
5
5
5
5
5
5
5
5
5
5
5
5
5
5
5
5
5
5
5
5
5
5
5
5
5
5
5
5
5
5
5
5
5
5
5
5
5
5
5
5
5
5
5
5
5
5
5
5
5
5
5
5
5
5
5
5
5
5
5
5
5
5
5
5
5
5
5
5
5
5
5
5
5
5
5
5
5
5
5
5
5
5
5
5
5
5
5
5
5
5
5
5
5
5
5
5
5
5
5
5
5
5
5
5
5
5
5
5
5
5
5
5
5
5
5
5
5
5
5
5
5
5
5
5
5
5
5
5
5
5
5
5
5
5
5
5
5
5
5
5
5
5
5
5
5
5
5
5
5
5
5
5
5
5
5
5
5
5
5
5
5
5
5
5
5
5
5
5
5
5
5
5
5
5
5
5
5
5
5
POINT_DATA 682
VECTORS Displacement float
-0.5 0.0 0.0
0.5 8.815041436344587e-05 0.0
0.5 -0.17377589384966646 0.0
-0.5 -0.1738823074783915 0.0
-4.9999736243041346e-05 -0.257718173518062 0.0
0.001309849931015878 0.08364181935855651 0.0
-0.4519865514873629 -0.1756123465683301 0.0
-0.40419423309802227 -0.18042804205679158 0.0
-0.35685566255083595 -0.18855628693869966 0.0
-0.310101007405006 -0.20017711796072266 0.0
-0.26433697851578386 -0.21468506594222247 0.0
-0.2204765931651904 -0.23157863433096812 0.0
-0.1786312629608174 -0.25048590610130317 0.0
-0.1395894200724141 -0.27011184744500294 0.0
-0.10376945945716838 -0.2889791920109025 0.0
-0.07110661921920686 -0.3051216461091733 0.0
-0.04176188269735003 -0.3174405351474713 0.0
-0.0136056995458804 -0.3237265602816916 0.0
0.013851413239954913 -0.32381358490767653 0.0
0.04135444391457485 -0.31755570559396346 0.0
0.07120484575719364 -0.3056381233687312 0.0
0.10353533425652023 -0.2888025288631353 0.0
0.13938837271880772 -0.2701049914356561 0.0
0.1785413455330854 -0.2503492359196891 0.0
0.2202867525118415 -0.23166638291131633 0.0
0.2643407260824031 -0.2144697050693478 0.0
0.31018747935915786 -0.20019655144008866 0.0
0.3571222265168566 -0.18898335239224515 0.0
0.4041047079629781 -0.18073216804232844 0.0
0.4518703912983611 -0.17580072318446338 0.0
0.5 -0.16008823397414076 0.0
0.5 -0.14699812762361544 0.0
0.5 -0.13450159850189258 0.0
0.5 -0.12256395215089297 0.0
0.5 -0.11161817925691106 0.0
0.5 -0.10191091522743671 0.0
0.5 -0.0943095676440712 0.0
0.5 -0.08842530662645648 0.0
0.5 -0.0845086653231084 0.0
0.5 -0.08321892854012558 0.0
0.5 -0.08389658589578866 0.0
0.5 -0.08566490504119824 0.0
0.5 -0.08815503178515698 0.0
0.5 -0.08993853657230079 0.0
0.5 -0.09011765734964622 0.0
0.5 -0.08820635441687229 0.0
0.5 -0.08527697254855958 0.0
0.5 -0.07958738225752421 0.0
0.5 -0.07179130367912527 0.0
0.5 -0.062135744731569305 0.0
0.5 -0.05154118640208696 0.0
0.5 -0.03934408691841796 0.0
0.5 -0.02641265042374532 0.0
0.5 -0.013951740784246736 0.0
0.45178278694514673 0.0019735087614991542 0.0
0.4043176495979638 0.0068445552316637945 0.0
0.3569943911556072 0.01489498018126845 0.0
0.3100490381480565 0.026438400853749034 0.0
0.2643475846878507 0.04088600733561839 0.0
0.22038159607315289 0.05795316580919557 0.0
0.1786054641861857 0.07675642070937751 0.0
0.13956220526064064 0.0961755611302085 0.0
0.10372514902516408 0.11527662748049376 0.0
0.07119342366651221 0.13155726508689114 0.0
0.04133815408495322 0.1435970596186249 0.0
0.013296647459009003 0.150423662398646 0.0
-0.013732467541602624 0.15028769651937998 0.0
-0.04125969700506747 0.14372282476578285 0.0
-0.07093114885718246 0.13154878717717092 0.0
-0.10357222844470129 0.11516158842838067 0.0
-0.1394179436691054 0.09636243851917815 0.0
-0.17849539699679415 0.07668528301412231 0.0
-0.2202254357887447 0.05793084037191141 0.0
-0.2643569827431438 0.04087323561586659 0.0
-0.31024485174286603 0.026308371895117658 0.0
-0.35670620800776986 0.01512647073493138 0.0
-0.404192786631141 0.006941622307708923 0.0
-0.451699538004856 0.0019403450001736432 0.0
-0.5 -0.013689376914848062 0.0
-0.5 -0.026835017038865556 0.0
-0.5 -0.039368431119696276 0.0
-0.5 -0.051298630802956935 0.0
-0.5 -0.0622302906472572 0.0
-0.5 -0.07164116853375137 0.0
-0.5 -0.07956084554956683 0.0
-0.5 -0.08558641776462014 0.0
-0.5 -0.0890995127969193 0.0
-0.5 -0.09042486331641536 0.0
-0.5 -0.08997332160238214 0.0
-0.5 -0.08824033883784274 0.0
-0.5 -0.08586661911196085 0.0
-0.5 -0.08380710248441046 0.0
-0.5 -0.08330102230639129 0.0
-0.5 -0.08479290792641513 0.0
-0.5 -0.08828766884100277 0.0
-0.5 -0.09408422901459666 0.0
-0.5 -0.10203616106770332 0.0
-0.5 -0.11189825419105928 0.0
-0.5 -0.12269524024420043 0.0
-0.5 -0.13411891243731985 0.0
-0.5 -0.1469112284986443 0.0
-0.5 -0.16004835467242215 0.0
-0.09438270153405401 -0.25279463574155 0.0
-0.18521535605479045 -0.23584009697416672 0.0
-0.261122126225056 -0.21293084414083227 0.0
-0.33041180849579316 -0.18836993878462804 0.0
-0.3841623758024117 -0.16241004254916247 0.0
-0.4231911700537109 -0.13644233572849299 0.0
-0.4462223747575589 -0.11097861977569057 0.0
-0.45388321800665576 -0.08749144281287143 0.0
-0.44638724184775924 -0.06225941363689584 0.0
-0.423203759218394 -0.036715773892668925 0.0
-0.38486478262998747 -0.012079640894918309 0.0
-0.3300116979036983 0.015211879035932836 0.0
-0.26149788832133997 0.040820837204505515 0.0
-0.18340513445113762 0.06234931439219164 0.0
-0.09523568895968913 0.07805992252918 0.0
0.09411538357897259 0.07873977361201046 0.0
0.18387377786746714 0.06181325849510148 0.0
0.26145152538367 0.040454571567337866 0.0
0.3297064494870143 0.01510813207074775 0.0
0.385224828181359 -0.01202338067272038 0.0
0.4230662729335343 -0.03775789337210189 0.0
0.44611662395462487 -0.06167684967145487 0.0
0.45371264016786117 -0.08600363859853674 0.0
0.4463355532496477 -0.11146949417429558 0.0
0.42297754195107445 -0.13708895436808446 0.0
0.3847944916651762 -0.16120811842748373 0.0
0.3304153344087398 -0.18870184559688327 0.0
0.26174703133691185 -0.2144722248004594 0.0
0.18441231517510512 -0.23570375920812803 0.0
0.09543186213489623 -0.25225320087066755 0.0
0.23029504597938347 0.019847803904719383 0.0
-0.2351969880634237 -0.19272367977817184 0.0
-0.388071787473825 -0.0652281130998241 0.0
0.38081632742582955 -0.11194233136988574 0.0
-0.38007988580792823 -0.11028319647585162 0.0
0.3779557217758601 -0.06220709623953525 0.0
-0.2259698409021384 0.02234140867325831 0.0
0.21862357836116794 -0.19995505623196688 0.0
-0.17272200238047714 -0.24478476627992585 0.0
0.17124713475199047 0.06977610645204023 0.0
-0.460544082632423 -0.0857888807630201 0.0
0.4571654417683709 -0.09077313385942397 0.0
-0.44918919622913156 -0.09175474519351454 0.0
-0.1818647453994074 0.062896103837818 0.0
-0.13603047172632965 -0.25107723771415846 0.0
0.13980658104893348 0.07316596017252372 0.0
-0.433832126158598 -0.0837192178799913 0.0
0.4362041790691636 -0.08948727008238982 0.0
-0.43002978278391923 -0.09231418444892447 0.0
0.43779387857859875 -0.08448163726132465 0.0
0.14431837488436006 -0.24819943875621178 0.0
-0.1331500629772674 0.08062211352485203 0.0
-0.03394815241752634 -0.2933720695010419 0.0
0.46718919173757045 -0.08593507432996206 0.0
-0.35736783195159805 -0.0182695199952271 0.0
-0.39358879698974963 -0.1370090332555544 0.0
0.3432695313615044 -0.1612018736228562 0.0
0.39155873725705254 -0.03142752526233366 0.0
-0.39317835631966114 -0.1719200104012414 0.0
0.4461103630418725 -0.00971447059743964 0.0
-0.36749820738948413 -0.041765132857862666 0.0
0.2972889101209302 -0.004210531922238992 0.0
0.37902496707846106 -0.04904033792596844 0.0
-0.3150712179585295 -0.1598875487765693 0.0
0.36195528890459944 -0.13417185358010786 0.0
-0.42259656338765583 -0.07925557155382215 0.0
0.23876466705934132 0.03876426098727929 0.0
-0.2541349773571949 -0.20361712013760735 0.0
0.43563232782271116 -0.10583014456302664 0.0
-0.216748408831921 0.04437477323252662 0.0
-0.22912793509940665 -0.1871353568572226 0.0
0.23703476730587175 0.009288695336545711 0.0
0.3436654701040689 -0.047164536786138196 0.0
-0.340005980454975 -0.129339374184609 0.0
-0.352487975283954 -0.05249510543546743 0.0
0.35168440551263425 -0.12123370900748229 0.0
-0.23563074693091784 0.010055780312554679 0.0
0.23510218423527343 -0.18387984300489563 0.0
-0.2873435335879471 0.000498522732019864 0.0
-0.38354928321379844 -0.12101892672096265 0.0
0.30687108508787997 -0.0273314135746537 0.0
-0.3106396218028572 -0.14432060219106116 0.0
-0.3021965861503008 -0.024379863987011238 0.0
0.30039507108966385 -0.1501400894344817 0.0
-0.4312389713586244 -0.04211362192989644 0.0
0.27966764660021787 -0.17736920087332186 0.0
0.42499281249990384 -0.12996526829023952 0.0
-0.33941475136206783 -0.1706984185845305 0.0
0.26027034991362524 -0.20299880462008452 0.0
-0.44674545362523094 -0.10909687908258674 0.0
0.44508121521675365 -0.05931249974410429 0.0
0.0009176501744904242 -0.2795249062771195 0.0
0.45961605130218963 -0.08718450419072919 0.0
-0.45994265983053156 -0.08656944977891962 0.0
-0.12541609179152893 -0.2703171846334855 0.0
0.10479670955138992 0.10767741081460765 0.0
-0.46990838610266167 -0.0883294426754107 0.0
0.46841913794459694 -0.08557039574052194 0.0
0.4743579852465761 -0.0890341677813215 0.0
-0.474701814300426 -0.08454481291987923 0.0
-0.11986461542122585 0.10041130409685473 0.0
0.11481246416483185 -0.27732792527767064 0.0
0.48274844813162066 -0.08900427315454215 0.0
0.03729080325898468 0.13128379211208063 0.0
-0.03240405349697142 -0.30557431602739715 0.0
-0.4810745910441725 -0.08919408391876825 0.0
0.47965044698669573 -0.08454764996442088 0.0
0.013397421409099044 -0.2983924565821676 0.0
-0.2707203700386769 0.0260845059837714 0.0
0.322141932155395 0.006672593209771519 0.0
0.4643799617906491 -0.04044199321243203 0.0
-0.4681389135256279 -0.12675066731302284 0.0
-0.35519793536144634 0.0028504454916261153 0.0
-0.40936766440716976 -0.1572078474543875 0.0
-0.19155561288281578 -0.2268684341451839 0.0
0.20413515239229857 0.046582035465011294 0.0
-0.4336425808766848 -0.09765523134593523 0.0
0.4293866424772439 -0.09631119604798564 0.0
-0.20443612318607948 0.046693555866021544 0.0
0.1932021881291415 -0.2299260642265564 0.0
-0.4097053427443599 -0.027024633774255694 0.0
-0.4613069776441625 -0.15328326949565965 0.0
-0.4049572288827079 -0.09982065668889421 0.0
0.40796917678912903 -0.07486346919713863 0.0
-0.18501164731457542 0.04808754615831848 0.0
0.17568861818877315 -0.22489922915549898 0.0
-0.174271958388255 -0.2305861076926862 0.0
0.1868976726052572 0.04672419939887846 0.0
0.420694915983742 -0.09517904364412717 0.0
-0.40292346259027007 -0.07398877279189747 0.0
0.3993437312234759 -0.0027505711642198736 0.0
0.46631953036849977 -0.027529238310506465 0.0
0.16887818213981673 0.07759769773721213 0.0
-0.47440908565813006 -0.08165964415399611 0.0
0.4782082390311676 -0.09163379264638602 0.0
-0.48046663642538956 -0.09122724160200363 0.0
-0.1745954774830385 0.07567499687331752 0.0
0.1712383330278155 -0.2511109686945445 0.0
-0.40727078126556937 -0.015952773414999854 0.0
0.42024631227638476 -0.017727263648341145 0.0
0.4013980256752208 -0.15863271199611784 0.0
-0.44524723087183143 -0.029469021950937424 0.0
-0.09706708758248589 -0.26934037838726094 0.0
0.08782856011203587 0.10251499397315411 0.0
0.44923991741380637 -0.0866631066975051 0.0
-0.45257872294077806 -0.08772810270144832 0.0
0.16745106503131846 0.06414656050075346 0.0
-0.43457836776197634 -0.09308681091233405 0.0
0.42946540137427847 -0.07962178118084075 0.0
-0.17500106893317133 0.060364031744407354 0.0
-0.3966452389951156 -0.0027512847552532333 0.0
-0.45897964312098544 -0.08531112280140388 0.0
0.45773417869198996 -0.08846690531066807 0.0
-0.07817685118810164 0.1060082909509715 0.0
0.08318348821030948 -0.27809872829357296 0.0
-0.4701164242909009 -0.04354826360264182 0.0
-0.4779961532778971 -0.03232982753193119 0.0
-0.41404861957458294 -0.10503386002135615 0.0
0.4094444700134371 -0.06831621062874381 0.0
0.1455129947999616 -0.23660279221143357 0.0
-0.14979370790144234 0.06130322928041702 0.0
-0.1342327665120114 -0.24250559068587044 0.0
0.14371683716992867 0.06378468946558827 0.0
-0.42065533166197205 -0.07319897429466792 0.0
0.41939958856231935 -0.10283431346135148 0.0
0.3140991977592761 0.00015612687795535574 0.0
-0.3653550910676628 -0.0588115719898596 0.0
-0.229337623092412 -0.1898107247501911 0.0
0.36402364071696186 -0.11552442404726046 0.0
0.34857076707370904 -0.021008670924258586 0.0
-0.318925034963776 -0.03669382838956584 0.0
0.3183384285137093 -0.13710554452554122 0.0
-0.2735107040398764 -0.16177345794005865 0.0
0.42809798248725345 -0.11762443256587947 0.0
-0.2953979643292786 -0.18431993359805238 0.0
-0.2705214267427218 -0.010157146663945068 0.0
0.27406496199510316 -0.012320463709596797 0.0
0.2696995490375615 -0.16367485847639385 0.0
0.3190760840358807 -0.037058938746960486 0.0
0.2983930816504665 -0.14834026836642233 0.0
-0.28561805873266916 -0.15566472221508673 0.0
-0.2988293853358059 -0.025285767748570567 0.0
-0.32500962513312237 -0.16577993608333766 0.0
-0.3271221246349662 -0.13229022256064568 0.0
-0.44572235629538903 -0.09277235493834483 0.0
0.4358903526199369 -0.07980014464437452 0.0
0.07060885385819897 -0.269879039919403 0.0
-0.09239375556648637 0.08785470034261365 0.0
0.08183124134631146 0.0919152336528349 0.0
-0.06883496026551518 -0.27024921544536495 0.0
0.4481120709883153 -0.09221764705314522 0.0
-0.4473897523247502 -0.08057718158973567 0.0
0.38363422319459367 -0.04057301909633969 0.0
0.29281971195682627 -0.02150250840847528 0.0
-0.3864504547166798 -0.06791361099224148 0.0
-0.4131374374996088 -0.06848283785106132 0.0
-0.17601059617632223 -0.22021086530541706 0.0
0.39641167665297933 -0.10182049307122708 0.0
0.28304811246854944 0.020011606839675504 0.0
0.34176875717317473 -0.029720105166443918 0.0
0.30322798460521866 -0.017802114269225084 0.0
-0.4053815669773006 -0.057216702255633994 0.0
-0.23276799309891064 -0.20253793091928976 0.0
0.41994491084798025 -0.04736290262836205 0.0
0.4085563226064604 -0.10635438936110574 0.0
0.34117304641464546 -0.038738395179987326 0.0
-0.4388702753030956 -0.060640242422021255 0.0
0.2163342286015375 0.022882924143305627 0.0
-0.32208818799918676 -0.009484763831060228 0.0
0.3936621291391686 -0.13024163408476452 0.0
0.3719034221112913 -0.06225380932052889 0.0
-0.2136647904002199 0.024625666020383713 0.0
-0.3209850070404239 0.0012425481999520536 0.0
-0.33373446298158554 -0.03414718616464579 0.0
0.26774619557767193 0.018731982374942 0.0
-0.37703180773876954 -0.10912260930541055 0.0
-0.31103096020749077 -0.15187542503022133 0.0
-0.2942884563384917 -0.012596779171175436 0.0
0.4000722764062627 -0.1177905968562428 0.0
0.21108208276622162 -0.19906127477301463 0.0
-0.2762762603667684 -0.18453698644880148 0.0
-0.3467160191091141 -0.1317820127668077 0.0
0.29041980625120933 -0.16287814692709393 0.0
0.41411064377499146 -0.05570460028663957 0.0
0.33093385104834966 -0.140905978978949 0.0
0.4744975343646946 -0.07689905408627244 0.0
0.32083486871862377 -0.15427890884813003 0.0
-0.28331196531425973 0.011735926425909203 0.0
-0.349659249360812 -0.1389515794300168 0.0
-0.36159159620526304 -0.02936240254230371 0.0
-0.4209960576762118 -0.12198094925474667 0.0
-0.3274670356661908 -0.022053438515774012 0.0
-0.34836794962555584 -0.02418218526160183 0.0
-0.2614987354291334 -0.19249362187942623 0.0
0.3484466826247595 -0.15011893845023905 0.0
-0.47648842196567315 -0.08386228099079213 0.0
0.4804233468503204 -0.08997189536949997 0.0
0.07818470293468907 -0.29175477132450134 0.0
-0.08224082682148125 0.11859850549715878 0.0
-0.27291391157566547 -0.17616031198831436 0.0
-0.36559871827849083 -0.15288819489936542 0.0
-0.22173761544080547 0.05097200992422266 0.0
0.37167539205084466 -0.1215189197585684 0.0
0.30254142558026986 -0.18081083341774337 0.0
-0.4046813166910784 -0.04629000610177481 0.0
-0.38678593531971084 -0.1287108510940239 0.0
-0.3748495241392636 -0.053568171899816476 0.0
-0.26976204179983015 -0.16920717713351469 0.0
0.261701527898182 0.006356264780328895 0.0
-0.46255281034269236 -0.0555457428628715 0.0
0.1835657869890641 0.041055388565229035 0.0
0.24482355949252146 0.023132956504593776 0.0
0.3447449267045517 -0.127646167569832 0.0
0.46550014338478213 -0.10188605142978893 0.0
-0.355866454907983 -0.1462720220127098 0.0
0.3904253930747292 -0.10853739089707605 0.0
-0.17689438601860577 -0.21879060521715535 0.0
-0.3930194612448535 -0.06837749731566384 0.0
-0.3464029976164093 -0.046903157462192605 0.0
0.31109500591512257 -0.16802723704987516 0.0
0.3849930503207299 -0.14295858816507523 0.0
0.3531175947863809 -0.14739171751975164 0.0
0.3593967363061162 -0.013356920444951223 0.0
0.38760783235681057 -0.06724939858406762 0.0
-0.18191765072188318 0.04196714213238328 0.0
0.18843493045515192 -0.211702699424577 0.0
-0.39028812371027255 -0.10608255928727886 0.0
-0.41611168295588347 -0.11456252535388396 0.0
-0.4536625198856282 -0.11820753322642369 0.0
0.2727970539507154 -0.1895954057186025 0.0
-0.4729762049379938 -0.06695506520852922 0.0
-0.47504300622238294 -0.08584864713449897 0.0
0.2901446484255623 -0.19331206418518818 0.0
0.06870816589204773 0.12274784459001778 0.0
-0.08041347327023933 -0.2923605178646826 0.0
-0.4785421170723908 -0.09037966238276486 0.0
0.47906522826316333 -0.08347007359724104 0.0
0.46476826224143036 -0.11880366261165945 0.0
-0.46787098795178717 -0.0986755922754668 0.0
0.09700166039833641 0.10520130336476513 0.0
-0.46620059975330874 -0.0890427001915503 0.0
0.37442431652973773 -0.05572311770868405 0.0
-0.46234762011462044 -0.08483547803712403 0.0
0.46931109720018405 -0.08960124747955926 0.0
0.10821125449467517 -0.272148347953684 0.0
-0.10163808692395351 0.10350143057371533 0.0
0.15992151631017665 -0.25318009025754334 0.0
0.21554122928448052 -0.22716723908490097 0.0
-0.2561888134863476 0.009983607094196588 0.0
-0.3916343665969461 -0.03143565947041958 0.0
0.45700919580034804 -0.05017958757340128 0.0
0.3305931831588697 -0.17715350926745863 0.0
0.42765305895940536 -0.16566268881986812 0.0
0.21434737326431494 0.04731519776229035 0.0
-0.13963694984913047 -0.2676488532333942 0.0
0.47680391192117727 -0.08715544202553603 0.0
0.26419878112300244 -0.002351485759424228 0.0
0.45890984803174045 -0.09689447276494488 0.0
-0.2158444301408728 -0.22291887887287307 0.0
-0.3782350461328665 -0.11590647091484417 0.0
-0.31178530573525015 0.013796475748585977 0.0
-0.10100555627282978 -0.28745450007152845 0.0
0.1032405981653239 0.11323694559620247 0.0
-0.48586736406963965 -0.0898682412307596 0.0
0.48536688397074834 -0.08386284051214239 0.0
-0.4897561819954081 -0.08414014785198795 0.0
0.10004240372005758 -0.2891100415277871 0.0
-0.10000619319717308 0.1147495960225888 0.0
-0.035725389340088474 -0.2979423065525439 0.0
-0.4715639684072484 -0.08833550980776483 0.0
0.2470584072826509 -0.18841588962326863 0.0
-0.25926770897446244 0.0008324612288868648 0.0
0.40950499747675795 -0.06418073886694728 0.0
0.36867486422017515 -0.004067427302234748 0.0
0.34753958684206426 -0.048295479738264625 0.0
-0.4370192381507072 -0.0845354126033525 0.0
0.25520580446065544 -0.17656077617684604 0.0
0.4435698038671655 -0.07020673815456879 0.0
-0.24402417849400268 0.02532248684102477 0.0
0.13494305668443998 0.09339750182013609 0.0
-0.3505827807211761 -0.12380672894931298 0.0
-0.029067714295184625 -0.28738566713433167 0.0
0.03206696264957713 0.11235632988234584 0.0
0.46215040086223264 -0.08649577537438904 0.0
-0.4640744313764959 -0.08726779731691944 0.0
0.4606008683699474 -0.08758232584859671 0.0
-0.4605199052729212 -0.08605971505001646 0.0
0.05569906875624619 -0.2830175203942775 0.0
-0.038886761839502064 0.11314908831915266 0.0
-0.23965477747104905 0.035755994090718925 0.0
-0.21034428745312944 -0.220610573275336 0.0
-0.40967456262429436 -0.10776443634283493 0.0
0.4359540227205001 -0.09819858986024138 0.0
-0.37718318126720796 -0.1589817621072508 0.0
-0.42821802919615637 -0.13030472379008048 0.0
0.23551825695086182 -0.2027972913720184 0.0
-0.4776709840869902 -0.08696404829759782 0.0
0.032670734298130305 0.09831660508804908 0.0
-0.04896479040242921 -0.2681699471939814 0.0
-0.4540612689959737 -0.078426501704947 0.0
0.45393062279490465 -0.09552716838489062 0.0
0.45617727184683765 -0.08226776644921431 0.0
-0.456025840909458 -0.09196328929111192 0.0
0.04507920038671468 -0.2689203216613474 0.0
-0.04076874263787694 0.09587121531363281 0.0
-0.443335635497867 -0.0784031640445179 0.0
0.21017166320993044 0.057088610181925965 0.0
-0.042711384711386996 -0.3112530322759818 0.0
0.041203363681391963 0.1377649367942878 0.0
0.49057966781157675 -0.08406055447295155 0.0
-0.49086581023559517 -0.08984692427500632 0.0
-0.10747178776087486 -0.2725796194336936 0.0
-0.45741235883317055 -0.08834318995970059 0.0
0.460302366957663 -0.08506416725270916 0.0
0.25920827532380225 -0.21002882885755988 0.0
-0.47405856134915064 -0.10905320409244304 0.0
-0.4472721672172044 -0.13993252596794198 0.0
0.2566469000572716 0.03737679507720465 0.0
0.4290119860479991 -0.03858689299688692 0.0
-0.43659103928262777 -0.010985700539780398 0.0
-0.12329486805578652 -0.24846942124189264 0.0
0.1060253882027791 0.08360133154668868 0.0
-0.44010042034428415 -0.0835252160529945 0.0
0.42470015951701245 -0.09509749707070468 0.0
-0.430524041110034 -0.09282715237660834 0.0
0.110576765755042 -0.2559502790657017 0.0
-0.2508351214801096 0.040592152944977734 0.0
0.4894044305872278 -0.08944321149521722 0.0
-0.03379306597592062 0.14109801839065378 0.0
0.21621691330456988 0.03397822045317825 0.0
-0.4028261536239944 -0.1446650635932466 0.0
0.43701657929588994 -0.03053718082644449 0.0
0.3746113015577439 -0.15682268482616268 0.0
-0.41392684643960076 -0.0779271061582141 0.0
-0.12488890067279713 -0.2514445295836994 0.0
0.43079239361663113 -0.09102485121130675 0.0
-0.20293973066820487 0.05613745770249252 0.0
0.40165539400761113 -0.023628320238499582 0.0
0.19328881171125767 -0.23531282285493302 0.0
-0.45619746736313754 -0.09445411788353883 0.0
0.4542567902326821 -0.08580346938340792 0.0
-0.41005016292291413 -0.10092737101964638 0.0
0.13215354976466265 0.089052273637585 0.0
0.19367999129047495 -0.22139179401038916 0.0
0.40826659223967726 -0.0708403594935521 0.0
-0.43831235889092857 -0.10279069494099162 0.0
-0.21421802998167638 0.035469967124707964 0.0
-0.14612926616435248 0.08113087641200606 0.0
0.2275858614232719 -0.2147004833018332 0.0
-0.4516931956604518 -0.08779673187291202 0.0
0.2925844324869791 0.02410753900734022 0.0
0.15197456888528754 -0.25109027324217353 0.0
0.43458694219656396 -0.07640498591336062 0.0
0.4059444087081678 -0.10213933845561048 0.0
-0.20703088188708446 -0.21220162741851203 0.0
-0.028162670409710933 -0.28236147531703587 0.0
0.45844156460896235 -0.08758409730883047 0.0
-0.3316186082130753 -0.1849475418697623 0.0
-0.3687670781839473 -0.013413950627080968 0.0
0.37495128595086574 -0.17223071812647486 0.0
0.4724225872667346 -0.08654588358259854 0.0
-0.1626269305274174 0.07795704097032578 0.0
-0.45732892492327837 -0.0877502569490766 0.0
0.46205860262172477 -0.08701203942352789 0.0
0.018267365448158157 -0.2857139972574309 0.0
-0.008807778058019921 0.11253030001127155 0.0
-0.42011965837145593 -0.07689328778191974 0.0
-0.30275064977591426 -0.007472248668071052 0.0
-0.296957953315569 -0.1661093874368937 0.0
0.302991689845795 -0.16664128290714275 0.0
0.3042104510407936 -0.006029319779169937 0.0
-0.46733609258060876 -0.08950764511338552 0.0
0.00831639855508108 0.12983362450922403 0.0
-0.004046401921602109 -0.302874914971922 0.0
-0.47590392887692806 -0.087238028118037 0.0
0.47480195047756574 -0.08605079334348491 0.0
0.07190727550706492 0.12732185763604953 0.0
-0.4913050219160847 -0.09034644675966504 0.0
-0.06903938695312196 0.12942485565791859 0.0
0.4911555873624403 -0.08345352961913569 0.0
-0.06752892498822041 -0.303748538845813 0.0
-0.36868630045198286 -0.17068335707144786 0.0
-0.29782097790555534 -0.19615448750472778 0.0
-0.42958213458624617 -0.061636028488219384 0.0
-0.3880096663383207 -0.052854928308545254 0.0
0.4892228770945079 -0.08615340396572549 0.0
-0.49103127711617195 -0.0876063582553231 0.0
-0.007287787696943755 -0.3164517635363532 0.0
0.011902812886510813 0.13996470909540734 0.0
-0.13345501153958686 -0.24681934712599352 0.0
0.4290215447146335 -0.11229598884848026 0.0
-0.11023918922445188 0.08032586906044833 0.0
-0.43366873253113136 -0.10844956668476964 0.0
0.4372018700167822 -0.07231227263031823 0.0
-0.19119859145942117 -0.21651967463458546 0.0
0.11550467253896492 -0.2523981360413451 0.0
0.3871495165385319 -0.1206190994705526 0.0
-0.4457449865409471 -0.0877951861491067 0.0
0.11585408733737813 0.07838795806504194 0.0
0.09374598015508395 -0.2681847168948179 0.0
0.4359576732589701 -0.08415545363230131 0.0
-0.11557441245136424 0.08357346559485745 0.0
0.48593612468286745 -0.09030543525384017 0.0
0.3729944872694673 -0.05353674733002352 0.0
-0.2687203280832113 -0.0017273042376157973 0.0
-0.20308806814142388 0.032456207230987494 0.0
0.26901244236668526 -0.17213765412585955 0.0
0.20237820590205868 0.032564845050089775 0.0
-0.16224571786388986 -0.23248456429901077 0.0
0.20446422038452997 -0.2059382994927858 0.0
0.41503089849552893 -0.0957852558643577 0.0
-0.37504160120438396 -0.12137825869603044 0.0
-0.3391939518735585 0.0008443908825328076 0.0
-0.30414411607139524 -0.15134488904909085 0.0
0.2632976212300596 0.0013262597985946823 0.0
-0.4447823334833037 -0.0874351706903701 0.0
0.4641066028122063 -0.13033325356475955 0.0
-0.4681917254941812 -0.08534113565082818 0.0
0.10238636574398573 0.08932212411222033 0.0
0.32435837053442834 -0.029757813003748062 0.0
0.44628428512408375 -0.08552963641084672 0.0
0.04766468389869444 -0.29143189401961156 0.0
0.44424886728919993 -0.08967307621949044 0.0
-0.07907816077508137 0.09748484902602836 0.0
-0.15224809756640117 -0.24896906555445258 0.0
0.06983033722551182 -0.2737417421769091 0.0
0.47214615510637153 -0.05904509893586623 0.0
-0.05904606212955557 -0.2833771865634301 0.0
0.45960879537327565 -0.08621583746496353 0.0
-0.45020264027108536 -0.0883373740594947 0.0
-0.4725772286322897 -0.02080437987235476 0.0
-0.46241195556954295 -0.08817891712537221 0.0
0.47069500057092123 -0.08813589516543105 0.0
0.48906398005595536 -0.08809908875266888 0.0
-0.032657954582407375 0.12219671827567864 0.0
0.06848698831374402 0.09990878039759979 0.0
0.1303563005899765 0.09957692345848282 0.0
0.17212390138208458 0.050446841339522014 0.0
0.41014889953831735 -0.07683224096554173 0.0
-0.30641074323805306 -0.18688466097302098 0.0
0.45021072750230123 -0.08758644379402693 0.0
-0.07245214082107436 -0.2739459442138344 0.0
-0.4742715474606625 -0.14348629360889084 0.0
-0.159712712132892 0.05807666798638836 0.0
0.11284014564361507 -0.2636084242464303 0.0
-0.49178249622919495 -0.08484723045202626 0.0
0.029813552154201638 -0.3149102127074435 0.0
-0.13381876404143245 0.09721719963758575 0.0
-0.26727631139329955 -0.20496893932756638 0.0
0.4249967801015535 -0.1429782539453552 0.0
-0.24543472991396043 -0.1820554109496279 0.0
0.42432975013408814 -0.07951236852611407 0.0
-0.06495039844876113 -0.2887639842520414 0.0
0.46748620747845965 -0.08462327931592278 0.0
0.06430650685548162 0.10634592073777326 0.0
0.3376857515937946 -0.13479674050774143 0.0
-0.3314607561291408 -0.03456445613126676 0.0
-0.1257710206025916 0.07408706729484656 0.0
0.13311191348808107 -0.2713453256210866 0.0
-0.4843568864467986 -0.08628946724371701 0.0
0.48021760837412997 -0.09679523508772692 0.0
-0.4190504202922823 -0.09401553140427313 0.0
0.13844244711444514 0.06796623132286593 0.0
-0.4569027857496289 -0.07234538449544736 0.0
0.4650294923499562 -0.10859121041346403 0.0
0.13099748550026127 -0.24952478502888958 0.0
-0.28149291169563806 0.028987574600027377 0.0
0.4745119262079051 -0.08944180808476383 0.0
-0.05680365651740129 0.12246295393615846 0.0
0.0004923462687338769 0.11985485904123044 0.0
0.01209703703880812 -0.2927817593580729 0.0
0.4673498116684951 -0.08699669243067262 0.0
-0.46976747761960536 -0.086646905888303 0.0
-0.47914252308958355 -0.1172540884151997 0.0
-0.05269864628725053 0.13026454876180493 0.0
0.29882657011366365 -0.19627762401335913 0.0
0.0384319559025661 -0.3006440267562079 0.0
0.046125549908768514 -0.30504903383454945 0.0
-0.47663339059482507 -0.08467417723638736 0.0
-0.48341709718651105 -0.08616770094041903 0.0
-0.4837487187100968 -0.08421826331978143 0.0
0.012022253815558031 -0.30978339296942 0.0
0.4809042973412074 -0.08769650000602949 0.0
-0.022245454899140926 0.13624474673386072 0.0
0.1589005516016859 -0.22975383684664424 0.0
-0.4326429717874335 -0.16662517650333694 0.0
0.45715453194154504 -0.15256248564185562 0.0
-0.488652510829887 -0.08330360289250482 0.0
0.06870063169066731 -0.3023896502390961 0.0
0.48251870855151885 -0.08376526662662676 0.0
-0.23790710021372907 -0.20672086577774398 0.0
0.4877775007555653 -0.08877655653230745 0.0
-0.44959473931097527 -0.08654766185605153 0.0
0.3300699008812747 0.012880116251687054 0.0
-0.17957086875181 -0.24638777845022183 0.0
-0.24507731800459415 0.02691498254699041 0.0
0.056269592595500025 0.12056950304341782 0.0
0.3641668608381161 -0.02911761183342405 0.0
0.24434869906460502 0.027293359963150427 0.0
0.4596056708033472 -0.08078814306284098 0.0
-0.43431790592988323 -0.05128160625633901 0.0
-0.4582276202614787 -0.08675381058050667 0.0
-0.17713773046868983 0.053067930576517965 0.0
-0.21994457726587577 -0.22631527314794175 0.0
0.17212076697942016 -0.22826057947316417 0.0
0.07259777583974168 -0.2875912243788357 0.0
-0.46869195626351007 -0.08455410592729803 0.0
-0.04921043151293181 0.10447287955941639 0.0
0.2457389727962579 -0.20104620766658346 0.0
-0.4721182886998751 -0.009353708730960607 0.0
-0.36557681554223836 -0.05346561576151295 0.0
0.17412475024362853 0.053675149907537974 0.0
0.4540622746722786 -0.08770123983993822 0.0
0.04118239997271359 0.11735174249455775 0.0
0.4020910147797688 -0.05384050569566889 0.0
-0.4426930790818951 -0.08349891120275289 0.0
-0.431325628445608 -0.06803121305833754 0.0
-0.4806814427024935 -0.0750619397001239 0.0
-0.01656680188332755 0.1057157866029426 0.0
-0.45632191871264965 -0.08931380779927701 0.0
0.3333545384315669 -0.18633409077234653 0.0
-0.008596818947363444 0.1448755303848908 0.0
-0.46345831086428985 -0.0869518559897955 0.0
0.4722762633865487 -0.06757905023334591 0.0
-0.19661987428079297 -0.21299835320802052 0.0
0.3968638613106177 -0.10248323689274655 0.0
-0.02704574350338035 0.12847850322137894 0.0
-0.3425520019049774 -0.1456391733649451 0.0
0.03063394653592647 0.10640496374014854 0.0
-0.4690088143721116 -0.1653249557844289 0.0
0.12464574197427886 0.08735480912626545 0.0
0.4539247757875767 -0.08492406598862717 0.0
-0.3977962986354989 -0.12621497832973672 0.0
-0.06083104658511136 0.09720158357534264 0.0
0.4724138789776022 -0.08394578586251947 0.0
-0.35856238864519635 -0.11920192493858472 0.0
0.48145201783298236 -0.08617738106996689 0.0
0.46700965334183825 -0.16440787823169467 0.0
0.4695143933326343 -0.14065594399593873 0.0
0.4744711226040523 -0.0058135141972993866 0.0
SCALARS Stress float 6
LOOKUP_TABLE default
1174.5176353806282 -0.9102512552220219 0.0 3.0087571669297684 0.0 0.0
1181.6299644245137 -5.861400376650408 0.0 -5.126745301964202 0.0 0.0
1171.0967091829566 0.8876824777743195 0.0 4.203442606266001 0.0 0.0
1174.0472216731218 -1.2234393544046611 0.0 -3.7334902011466338 0.0 0.0
2232.9912709028176 185.0018852860038 0.0 -3.0573774996984304 0.0 0.0
2206.986981635628 164.23428953009056 0.0 -3.426122738139678 0.0 0.0
1177.8043237419968 -2.4578496344872747 0.0 0.04757409282749033 0.0 0.0
1168.4175667641086 -3.0564503872782325 0.0 -3.615229898063492 0.0 0.0
1147.596256700933 -3.077359465320626 0.0 -9.12687114992953 0.0 0.0
1136.342332758672 -4.411542330230986 0.0 -13.389908062131834 0.0 0.0
1108.5813934379303 -5.2849188203457516 0.0 -18.460218067695653 0.0 0.0
1061.2780368950184 -4.74209446537003 0.0 -27.02689836111257 0.0 0.0
1010.061079507572 -2.9257941048508656 0.0 -32.9335340104219 0.0 0.0
944.0308343542544 -1.2771855159469965 0.0 -35.21497235862907 0.0 0.0
875.0382362787728 1.5055257019432133 0.0 -34.09244407961683 0.0 0.0
797.5990120716194 4.622310589011136 0.0 -26.11271810389692 0.0 0.0
755.8917215897231 10.060164308879394 0.0 -21.502946670907395 0.0 0.0
730.7731655715623 6.140502219677757 0.0 -5.161877371658557 0.0 0.0
724.0628600370809 7.048236110088226 0.0 10.328847937149238 0.0 0.0
750.5062975397517 7.607800295363802 0.0 19.990066695247325 0.0 0.0
808.2030060478106 5.071500375183518 0.0 31.81152455779133 0.0 0.0
863.3428303151386 2.0961770230770753 0.0 29.50836038882614 0.0 0.0
942.7886532522949 1.9137415858025406 0.0 33.01426717931718 0.0 0.0
1003.6650066255622 -3.0112327547004725 0.0 33.73994758820209 0.0 0.0
1066.3685536667908 -5.3492572897139326 0.0 26.110578034551427 0.0 0.0
1110.8130985596927 -5.858412086742931 0.0 17.11379823631863 0.0 0.0
1141.3092820225297 -3.652870752293893 0.0 10.362397587087873 0.0 0.0
1153.5336022660751 -4.214425236413717 0.0 9.562468801701288 0.0 0.0
1162.0659535770162 -1.6179559835165946 0.0 2.657802977225378 0.0 0.0
1176.8117553106965 -0.8910859676604446 0.0 -1.0070390990127114 0.0 0.0
1110.419226149198 -0.908842460938672 0.0 5.3347106371817885 0.0 0.0
1045.6694411964977 -7.051911004374972 0.0 4.395140880282693 0.0 0.0
976.8517586891921 -11.714716664946593 0.0 3.971216440621618 0.0 0.0
908.4678378040998 -14.25043865305804 0.0 2.862702946475169 0.0 0.0
831.4720319880491 -10.027216556458143 0.0 0.7605926608149247 0.0 0.0
740.9302073179897 3.9088413816944865 0.0 -4.8822000480800085 0.0 0.0
645.8959544923575 22.54914327564174 0.0 -8.159308709813002 0.0 0.0
562.724763038123 44.25196018436827 0.0 -10.60513622343964 0.0 0.0
478.2692585681026 76.30870236790884 0.0 -10.7370646149895 0.0 0.0
394.2099936106956 110.46147447179044 0.0 -7.8803870580581865 0.0 0.0
329.1301956500631 125.40182022695362 0.0 -5.906579148138455 0.0 0.0
295.32339434659735 140.27468170091552 0.0 -3.960276164906261 0.0 0.0
295.9054233083079 140.9833075176391 0.0 2.8336003642443277 0.0 0.0
340.48202281025397 125.7437753599612 0.0 7.498231800813055 0.0 0.0
408.54995099299157 97.6674181852449 0.0 11.309263506579944 0.0 0.0
466.8361918027192 79.54229752738865 0.0 9.68923435821309 0.0 0.0
533.6857705896092 53.99745044938159 0.0 10.596621578681974 0.0 0.0
638.6473062630491 24.286090838982886 0.0 6.223259378482048 0.0 0.0
732.5715685223664 2.0618205979853315 0.0 2.49149579823971 0.0 0.0
816.8776728585096 -9.594073539772296 0.0 -1.1765509139687678 0.0 0.0
907.7209817328219 -12.9249578592528 0.0 -3.7488058536084643 0.0 0.0
995.3471175633912 -12.38830510002839 0.0 -3.7304433717343852 0.0 0.0
1041.1371149846211 -5.063192181672207 0.0 -5.253656127787271 0.0 0.0
1110.9258755780497 0.8352164243297011 0.0 -5.235343272416307 0.0 0.0
1180.870413612864 -5.565766578506668 0.0 2.5633718393395943 0.0 0.0
1166.8687739666602 -3.1141240734611415 0.0 -4.633691210993563 0.0 0.0
1149.9811416855114 -3.2823295871581877 0.0 -9.899699287178255 0.0 0.0
1138.7935202427113 -3.0475873498897954 0.0 -11.236248369354435 0.0 0.0
1106.0762535633598 -4.5235433958689555 0.0 -17.488113389930522 0.0 0.0
1062.7815230074875 -4.436244034137246 0.0 -24.061457483153557 0.0 0.0
1008.0741089416912 -2.7861967821880285 0.0 -32.72194401020252 0.0 0.0
933.3617808664202 0.6935484275711019 0.0 -35.92605706574315 0.0 0.0
872.8537746053798 3.5794554020545775 0.0 -32.72074305942838 0.0 0.0
808.5247283604001 3.6566880749761026 0.0 -28.205534225329117 0.0 0.0
757.8541134242637 5.038619243818488 0.0 -19.059038987252734 0.0 0.0
736.7768972885808 6.164550052106364 0.0 -6.404604043277241 0.0 0.0
716.3802365642541 9.16028967798394 0.0 5.605572822485244 0.0 0.0
746.2210059415913 6.246392479034455 0.0 16.024992881352873 0.0 0.0
803.0502860180887 5.082141592087908 0.0 24.0833854462885 0.0 0.0
871.0900434163502 2.473617907438495 0.0 30.741446980103866 0.0 0.0
942.6185306774906 0.37040687823537155 0.0 32.56930996766464 0.0 0.0
1005.3023601289901 -2.8124263850149305 0.0 32.01559353101606 0.0 0.0
1068.6815907055102 -5.25165336698177 0.0 25.083597696373726 0.0 0.0
1109.122631007992 -5.072243445508832 0.0 17.237319867969525 0.0 0.0
1126.719906835699 -2.6185548840313686 0.0 16.23140779432328 0.0 0.0
1155.1252309904696 -2.512467438911358 0.0 8.192506170044778 0.0 0.0
1164.6990409255568 -3.326001325288246 0.0 6.281829464579879 0.0 0.0
1175.8992745449216 -3.441576641636914 0.0 -0.6226762435402299 0.0 0.0
1115.5760906527216 -1.4608644473726144 0.0 2.590406557143297 0.0 0.0
1051.8398495621452 -4.277414322674474 0.0 2.5477763050732065 0.0 0.0
979.0313619528685 -11.71357925895984 0.0 3.7376581040678616 0.0 0.0
905.9946869435613 -13.670410194275235 0.0 3.4065095698195402 0.0 0.0
829.4366905727553 -8.619551879178914 0.0 -0.07885987859101129 0.0 0.0
748.761062524141 6.286539215371363 0.0 -2.865304204888073 0.0 0.0
654.715713431479 19.94521250900084 0.0 -6.4039050997277265 0.0 0.0
558.5084950616515 47.12527633315875 0.0 -9.291794944165598 0.0 0.0
468.3030791606396 76.79922561352201 0.0 -9.263786029213636 0.0 0.0
394.1750387497644 107.21505248745844 0.0 -7.743973710880721 0.0 0.0
329.6932658253444 122.35517312707432 0.0 -7.023018540902413 0.0 0.0
297.0600018065485 140.15767143222823 0.0 -2.673086064035351 0.0 0.0
291.93687834087103 144.04110813603643 0.0 1.6346927978973107 0.0 0.0
324.15846412239927 129.7093188043638 0.0 6.0425501494635565 0.0 0.0
387.9814096678696 100.30647961128425 0.0 8.229100629383435 0.0 0.0
476.1226456482583 81.26735473737958 0.0 8.297729711815181 0.0 0.0
558.130388043131 48.96683341819491 0.0 8.166092826871346 0.0 0.0
655.1848849682468 22.247889027451862 0.0 6.328571628698365 0.0 0.0
746.3176352409489 0.16840021674013883 0.0 2.5349227696573684 0.0 0.0
832.4107564262612 -9.401455199082193 0.0 0.8373620324076296 0.0 0.0
903.6190086041146 -9.490937657365805 0.0 -2.4023063262201387 0.0 0.0
981.0278203894685 -9.579845847443494 0.0 -6.801394421711037 0.0 0.0
1051.3189294963547 -8.108686095761016 0.0 -3.9820868792709843 0.0 0.0
1116.430459525358 -1.6219273849989122 0.0 -4.072630348149333 0.0 0.0
2018.5117659921068 198.9494955954284 0.0 297.6682091033348 0.0 0.0
1586.6720675279473 196.55343984506658 0.0 416.7290204390416 0.0 0.0
1068.4820935105288 160.72279242222288 0.0 351.5528131589599 0.0 0.0
653.068036680351 93.86893699008341 0.0 266.6978296696917 0.0 0.0
272.58250633034953 -74.02177519272016 0.0 114.26194176079206 0.0 0.0
80.49434551830186 -271.0098249532674 0.0 10.013625168820512 0.0 0.0
6.135637965293569 -423.7640958718683 0.0 -16.997026883397815 0.0 0.0
-9.374856267730905 -496.76095531045985 0.0 -4.552309435643527 0.0 0.0
4.300351221956049 -439.1449873227331 0.0 38.59740595380342 0.0 0.0
94.34514797082903 -264.42652463280274 0.0 -0.6322998070654681 0.0 0.0
292.1584315033779 -57.4198682814353 0.0 -150.40706939642448 0.0 0.0
623.6506364642826 98.32483226230612 0.0 -270.8880834868046 0.0 0.0
1099.2971295690172 195.00206595598092 0.0 -363.8227391605487 0.0 0.0
1601.7705951470487 202.5915111495463 0.0 -375.7387857721536 0.0 0.0
2045.6176760106582 179.54768863502636 0.0 -264.36809899726444 0.0 0.0
2014.012140462847 197.44833009841255 0.0 243.24098143590697 0.0 0.0
1610.8367492792365 198.76872735048084 0.0 381.5261015363556 0.0 0.0
1097.1579789105822 191.04297807376537 0.0 362.38263364988063 0.0 0.0
605.6846943401258 102.92899544153016 0.0 268.6816114142345 0.0 0.0
226.94001991174812 -72.23574473089064 0.0 141.1514913630003 0.0 0.0
78.78839666031658 -264.6999062048176 0.0 30.99457163591355 0.0 0.0
5.469298325024738 -419.20316689266315 0.0 -19.592747655177067 0.0 0.0
-12.536544831372794 -511.498580397119 0.0 -3.045298445447531 0.0 0.0
5.378623701917974 -440.8087175054234 0.0 35.16336442770761 0.0 0.0
99.09452538607799 -268.01251032721296 0.0 -5.991312737662351 0.0 0.0
295.4387339341632 -57.17280425868756 0.0 -154.24317001490468 0.0 0.0
625.2496216879165 96.97725517921018 0.0 -271.62167724804715 0.0 0.0
1095.1871808718652 193.97258392639728 0.0 -365.57201160621355 0.0 0.0
1600.4985893159549 193.25521148551195 0.0 -390.61861333681884 0.0 0.0
2028.7695157061619 176.4884098620467 0.0 -281.8044688738416 0.0 0.0
1029.076937397181 -70.04411106632165 0.0 -67.54933876238711 0.0 0.0
1024.8539209725193 -68.68581421551983 0.0 -70.22203884229147 0.0 0.0
704.5908618348494 -62.98696066280945 0.0 -93.4830604648607 0.0 0.0
729.990037769272 -71.24513441022671 0.0 -88.59299688247157 0.0 0.0
686.7785662867038 -75.24838247702979 0.0 105.35102710671353 0.0 0.0
705.4943956018922 -75.05861517960179 0.0 100.39295540650014 0.0 0.0
1030.6024665680316 -66.59615645564156 0.0 71.99313809672002 0.0 0.0
1037.6603224080693 -60.633564802567776 0.0 74.89984847053515 0.0 0.0
990.6773526867637 -11.069887773620223 0.0 -92.25897711178351 0.0 0.0
994.8698049523757 -10.26500214923908 0.0 -99.21469249894348 0.0 0.0
527.9015252332644 39.75078339212001 0.0 -60.69076677319675 0.0 0.0
580.7390140078825 24.681257847646208 0.0 -52.0886118720634 0.0 0.0
580.5817746164338 14.991588857407265 0.0 66.8410797630118 0.0 0.0
1004.0466416636524 -18.079652031470516 0.0 102.07124611616469 0.0 0.0
1050.260579020147 19.882768676200897 0.0 -115.06695840013421 0.0 0.0
1065.967924693978 19.383041210050123 0.0 -108.96337003810214 0.0 0.0
461.6187183061802 5.644301555616664 0.0 -117.67669404353214 0.0 0.0
438.47693582469975 11.046698149627446 0.0 -118.40621624845723 0.0 0.0
523.041442624522 -5.535237107569998 0.0 110.12299498134414 0.0 0.0
462.31233313365567 16.336933267082316 0.0 111.76990517343522 0.0 0.0
1037.3851329431066 8.160079511278184 0.0 115.5001145065862 0.0 0.0
1038.9168622364107 16.49503432269387 0.0 111.36742429050194 0.0 0.0
1016.5813763776475 115.63701010538102 0.0 -35.98297226050018 0.0 0.0
216.396695960334 85.61200375496517 0.0 -40.589512016165614 0.0 0.0
995.7169568313982 -32.31299303602094 0.0 26.06495516489058 0.0 0.0
938.5796080315007 -31.427381099002673 0.0 -8.33550235710896 0.0 0.0
1004.5616141206394 -29.218468961716326 0.0 30.961247192628353 0.0 0.0
966.6330464553237 -28.394921261604395 0.0 -13.156804610403272 0.0 0.0
1131.373146273831 -2.975312834013039 0.0 -7.067326417290698 0.0 0.0
1130.0418758338644 -2.652915550710418 0.0 -1.9644841067469427 0.0 0.0
889.8856949479864 -56.351296159423555 0.0 -10.427284829493344 0.0 0.0
989.6542351774012 -56.09171310137208 0.0 -45.14228233255941 0.0 0.0
854.306653443164 -54.95815041732283 0.0 24.358715980641726 0.0 0.0
970.582650421214 -59.25202566165899 0.0 -32.20851161957655 0.0 0.0
896.0028908015208 -59.422632900727365 0.0 -7.958906272226902 0.0 0.0
347.0021222852857 -46.09038132022103 0.0 -162.8062676443639 0.0 0.0
1031.6262822475844 -15.891535105265007 0.0 -62.618200770051956 0.0 0.0
1028.3459255224104 -24.053866083188666 0.0 -64.46208415974544 0.0 0.0
750.3241513965402 -17.473580086441103 0.0 -32.42928937645906 0.0 0.0
1013.9805767003065 -27.67526947852747 0.0 91.37045553312015 0.0 0.0
1043.932612053609 -74.81111777134339 0.0 17.004488700802767 0.0 0.0
1030.4506751783583 -76.8666488944503 0.0 50.52903530421482 0.0 0.0
682.6935716776385 -116.72522202017169 0.0 161.77182197348293 0.0 0.0
661.2799085806306 -110.58634383933162 0.0 168.46707639525073 0.0 0.0
670.8670934381298 -112.29639791045906 0.0 -151.06549380467447 0.0 0.0
677.717728246391 -114.50711648590686 0.0 -157.13610551067103 0.0 0.0
1030.7415481953997 -75.23970167245307 0.0 -46.830606089753914 0.0 0.0
1027.842574916502 -74.79991502509358 0.0 -51.79363306440962 0.0 0.0
993.9272104735661 -58.477203211528604 0.0 50.32575218008348 0.0 0.0
831.5081201030383 -54.926826719617395 0.0 32.2814746668092 0.0 0.0
906.4593000523395 -105.53303448418455 0.0 37.08941500212554 0.0 0.0
896.487773756259 -105.82579883291311 0.0 40.49240019847086 0.0 0.0
921.9811307938727 -102.59980035791739 0.0 -26.905354299607293 0.0 0.0
925.6090601016707 -103.5291900836558 0.0 -26.47450086368545 0.0 0.0
939.5467282929652 -19.77573231583034 0.0 5.9054329171381195 0.0 0.0
996.4700724936354 -58.51813756317159 0.0 54.54357713908445 0.0 0.0
924.7842221851306 -23.869970111594284 0.0 2.0487908381487108 0.0 0.0
1045.0436316240316 -18.743031565603474 0.0 -31.205913019888737 0.0 0.0
1033.5472723334174 -18.279447832676738 0.0 57.06194578323863 0.0 0.0
796.1733318141295 -15.09975322079498 0.0 18.06538361407542 0.0 0.0
834.7934603221279 -18.915384197092862 0.0 12.002140514327861 0.0 0.0
1468.2135665328663 223.62539893034906 0.0 0.5964133651741985 0.0 0.0
40.25411401302055 -93.2240868795723 0.0 -10.143441374655415 0.0 0.0
52.474015036063705 -74.43456451891909 0.0 -7.799672895070912 0.0 0.0
952.7177411905828 6.301366083134383 0.0 -91.78750795424762 0.0 0.0
923.7296775450582 13.196075214405312 0.0 -82.09596002573221 0.0 0.0
452.85431240347964 69.60014123096883 0.0 -51.868471134797886 0.0 0.0
463.09352657503285 62.513798444985895 0.0 -54.79451087805949 0.0 0.0
450.18740584516235 75.02262182703168 0.0 45.02287811392741 0.0 0.0
437.3936445662095 76.02437718469847 0.0 46.380127690829724 0.0 0.0
940.4658698024502 7.893613359227288 0.0 85.73202742007236 0.0 0.0
930.9174400591305 8.89818559623319 0.0 83.47478459443332 0.0 0.0
296.46573501062994 131.7900682582005 0.0 24.316670818469163 0.0 0.0
887.7811573388843 38.50358033209358 0.0 -40.2315504813305 0.0 0.0
900.0273728195356 46.42378353473171 0.0 -33.497949339916694 0.0 0.0
284.96376640253504 123.89273847572579 0.0 -24.027870605074234 0.0 0.0
284.41167235583197 121.84697292323014 0.0 -29.58370842805122 0.0 0.0
994.2607071302612 102.49979186994582 0.0 14.161569698011824 0.0 0.0
1046.8372177938002 -14.288399314937578 0.0 47.04473421966793 0.0 0.0
1063.1030730567954 -13.317232476912238 0.0 -31.680126919456292 0.0 0.0
964.6276574404225 -12.310948302814722 0.0 -3.761418676131057 0.0 0.0
925.498482619774 -14.0888771812767 0.0 -0.22034435898780047 0.0 0.0
1098.7397982797627 -7.492252903115059 0.0 17.390027421814125 0.0 0.0
1063.6766556393527 -8.915422679924689 0.0 -11.376389475423416 0.0 0.0
1019.6579205267493 -26.429835587049865 0.0 -104.68397508000037 0.0 0.0
1016.5335013648605 -28.866558086342422 0.0 -100.36378828277559 0.0 0.0
647.6938764766422 -9.755201850465255 0.0 64.93502534993533 0.0 0.0
612.7456449026315 -9.301637505811414 0.0 -81.63472070296058 0.0 0.0
1017.3110536763148 -29.761253890876105 0.0 99.68311564635842 0.0 0.0
1008.6909676919067 -21.173339535161915 0.0 99.00953331390826 0.0 0.0
1008.4624935152879 -16.02392603348693 0.0 14.376725269731972 0.0 0.0
1077.4126139359776 -5.071786901651876 0.0 -1.880503015598619 0.0 0.0
599.7118421050468 -40.13608934149363 0.0 125.06307806451423 0.0 0.0
595.6889407626763 -35.91631188615017 0.0 115.71861546007952 0.0 0.0
1051.4139022498653 -33.480409751425384 0.0 96.36721683730578 0.0 0.0
1068.716356577767 -23.905347453009767 0.0 94.65828796504675 0.0 0.0
1043.134753691407 -20.787928553059373 0.0 -109.35766889777356 0.0 0.0
1055.9480305216737 -37.21781494233733 0.0 -93.56429269927257 0.0 0.0
565.026820069517 -13.658929132156146 0.0 -111.05900912432999 0.0 0.0
581.1879691132663 -47.715793670732836 0.0 -129.1661610932836 0.0 0.0
1131.739502481417 -3.6270172049663643 0.0 -7.031988461723279 0.0 0.0
1042.7552008382559 -7.478984298264834 0.0 -4.106810725940214 0.0 0.0
976.4734083091507 -5.335653939998167 0.0 -61.51666315661947 0.0 0.0
613.9769886067572 25.652578440506943 0.0 -28.881166921988008 0.0 0.0
610.7970400777854 26.132103906788615 0.0 -25.110343217830536 0.0 0.0
601.2174439905212 30.7483849757472 0.0 24.09906644516099 0.0 0.0
982.3685337400985 -3.897255083609707 0.0 52.30505368018335 0.0 0.0
980.0897000619358 -3.71471703899698 0.0 53.40013374239632 0.0 0.0
1066.9856527714144 -9.818654913131866 0.0 13.508050650554079 0.0 0.0
1067.3587179787528 -8.89074467745752 0.0 -10.986765870058107 0.0 0.0
1064.4204337693318 -9.18541481128426 0.0 12.502255968874074 0.0 0.0
1022.5061825790838 -10.48996475007334 0.0 6.331489363706399 0.0 0.0
1059.212028200207 75.05904796404798 0.0 -104.04090600516149 0.0 0.0
1035.503825610534 66.55312510459896 0.0 -98.0285407755946 0.0 0.0
314.59015701709177 44.349749482870344 0.0 -107.53447775904776 0.0 0.0
338.688690353926 52.920043283303855 0.0 -101.4280055269937 0.0 0.0
1025.6582891163714 -10.21556088406345 0.0 -112.72116997905903 0.0 0.0
575.6838527493283 0.9248002793955266 0.0 82.4454786284824 0.0 0.0
576.6656175514355 -5.04484063351461 0.0 95.04424985267259 0.0 0.0
1024.1040057469058 -18.29235283031312 0.0 110.78217223174238 0.0 0.0
1128.5368974662904 -5.420205120483729 0.0 7.966935513193514 0.0 0.0
301.7600358578197 69.40539133231941 0.0 89.21818019606647 0.0 0.0
312.1989241181552 61.7360102415358 0.0 90.16961707229001 0.0 0.0
1037.8920701053219 80.39195350038031 0.0 90.32158146814054 0.0 0.0
1029.0950586153092 75.13644768288395 0.0 94.11442404926498 0.0 0.0
955.0571735758544 -14.081463752667673 0.0 1.0945034939982583 0.0 0.0
1016.560461086034 -7.731483493078997 0.0 1.8181560543455086 0.0 0.0
261.5065903608216 -114.93043142442643 0.0 153.7871913390217 0.0 0.0
307.4084682267413 -107.93655468776655 0.0 164.90458424887106 0.0 0.0
1257.8004105760097 75.65737718226615 0.0 -16.760524023909312 0.0 0.0
1265.0249303294534 76.71007249912753 0.0 -32.18583456181847 0.0 0.0
1282.699908628405 100.20685320811566 0.0 38.84594772438951 0.0 0.0
1256.3281767202222 76.4059177408439 0.0 12.104300873080517 0.0 0.0
253.11502038074494 -87.20396933520774 0.0 -154.51844056598685 0.0 0.0
243.21104393205465 -94.86194455093647 0.0 -150.71514281659393 0.0 0.0
1019.0905795318486 -30.446627448668835 0.0 -43.43753517637663 0.0 0.0
697.0580022349526 -94.64005790999514 0.0 -121.57826178981612 0.0 0.0
1039.960773392428 -78.12273754662567 0.0 -40.01104834051213 0.0 0.0
711.5894031002169 -96.50679537326752 0.0 -122.12544348606146 0.0 0.0
974.3059169015 -40.18235204576257 0.0 -25.37473086418808 0.0 0.0
835.5536854647323 -118.59720746117318 0.0 -93.73784764196111 0.0 0.0
834.9846116011665 -119.57293948559175 0.0 -94.01903698932017 0.0 0.0
957.6554614023162 -105.99256327718518 0.0 32.02966025005114 0.0 0.0
848.2164725377049 -26.496925906152683 0.0 -12.369704814560603 0.0 0.0
1034.522083462916 -24.230518909882335 0.0 -47.30160656622319 0.0 0.0
961.331055925664 -109.21987222464571 0.0 -35.55284964571616 0.0 0.0
955.3931088200742 -110.76022864576953 0.0 41.58094437115889 0.0 0.0
963.9504947155235 -110.66791888007936 0.0 -36.007530868945416 0.0 0.0
823.0254185499861 -117.64228144967393 0.0 100.03028291370289 0.0 0.0
851.9170147270133 -117.76412070331935 0.0 -119.24369201118574 0.0 0.0
897.2455527271255 -113.44956631560422 0.0 102.81948640683066 0.0 0.0
858.0019022856446 -114.15480666397099 0.0 -117.01805276077663 0.0 0.0
1001.3421171073717 -37.30626978562913 0.0 -39.95683558797991 0.0 0.0
791.087424802758 -114.39754505473235 0.0 111.35708768991665 0.0 0.0
126.64653663861543 -92.51218910087076 0.0 102.62422302187092 0.0 0.0
210.8225508945472 -62.8767921650399 0.0 136.13266265100097 0.0 0.0
1365.7430117562417 187.49292304522822 0.0 4.245028254819617 0.0 0.0
1297.1983902105628 151.513205331216 0.0 20.381457476122794 0.0 0.0
1367.029881533331 170.5036657610629 0.0 -2.241896870800198 0.0 0.0
1389.7373610348488 183.1453116457655 0.0 13.4589601922605 0.0 0.0
113.36194517461658 -95.43757181541281 0.0 -86.6877204882433 0.0 0.0
103.86776941666287 -102.20259348485874 0.0 -86.0907371965128 0.0 0.0
911.0241423814545 -41.63558625227671 0.0 -1.1646751960842856 0.0 0.0
862.9489999262139 -110.9074824314007 0.0 118.7687746485005 0.0 0.0
578.3132690315646 -76.04927262272491 0.0 -152.28012841137414 0.0 0.0
720.0893823854226 -35.392732825739415 0.0 -61.71222083150228 0.0 0.0
1105.46058880422 -17.41453118845584 0.0 -63.2378664100731 0.0 0.0
521.0446032794396 -66.42543263988154 0.0 -159.33255131286296 0.0 0.0
1048.0940885334776 -17.02391749934651 0.0 -48.39421041646301 0.0 0.0
929.9616629800092 -62.36800672941598 0.0 -6.657154583615947 0.0 0.0
953.834699784497 -83.20124311521283 0.0 -12.893098382208695 0.0 0.0
817.4257792134381 -39.384431297201274 0.0 -29.75257664636027 0.0 0.0
1017.628245159052 -49.49245342734423 0.0 -85.05784367167345 0.0 0.0
900.3012912221545 -27.043349259944705 0.0 2.615164049493515 0.0 0.0
725.4727594358533 -35.96078601110759 0.0 -62.56865980666504 0.0 0.0
880.1605433608061 -82.05226397432955 0.0 29.16370480123931 0.0 0.0
821.5630784032799 -22.153487696572824 0.0 -15.882422142600756 0.0 0.0
1049.9022155045632 -66.51649348283422 0.0 -40.27653515148177 0.0 0.0
991.7105263941372 -43.257837879734666 0.0 37.35771127857674 0.0 0.0
904.9647338675636 -39.02403858322617 0.0 -2.0452935393892746 0.0 0.0
660.3699010413513 -92.1521006978854 0.0 134.74721705177896 0.0 0.0
1054.3067475122352 -63.899826489847385 0.0 44.02546265891784 0.0 0.0
1033.3059413230367 -23.403092678208907 0.0 36.845081926700374 0.0 0.0
898.3089308032215 -82.3172012424368 0.0 -17.49878770959794 0.0 0.0
1019.8362760320165 -34.112458915722584 0.0 -65.64241170232255 0.0 0.0
642.9514978769912 -83.47715582501067 0.0 136.72442079044396 0.0 0.0
941.1610348263296 -83.28826340900332 0.0 -6.646503652881579 0.0 0.0
966.7569397750855 -81.40586208224295 0.0 22.8001809957373 0.0 0.0
824.8056641451121 -42.38979000348996 0.0 -28.10293513521941 0.0 0.0
1059.9732195790648 -61.62408814675467 0.0 37.831301757380054 0.0 0.0
1010.685438646348 -43.01334487982945 0.0 -61.981873371836755 0.0 0.0
865.6095136499536 -80.8168516063306 0.0 36.53650781019552 0.0 0.0
970.8105713449944 -81.65797508065447 0.0 24.914278933968415 0.0 0.0
833.3298818262224 -31.61861395666 0.0 19.00712627184413 0.0 0.0
904.6485938565897 -81.87293955546056 0.0 -15.685852622705136 0.0 0.0
686.7102097383831 13.405632958058845 0.0 18.458246645299514 0.0 0.0
955.8916163102839 -64.23500185983568 0.0 22.119337120249398 0.0 0.0
1018.3441550682389 -34.85036763156097 0.0 58.497121117044614 0.0 0.0
910.8702579948788 -62.66330798964583 0.0 1.3514561351971177 0.0 0.0
949.9388623539409 -44.09193735330399 0.0 14.729442724893838 0.0 0.0
872.2660481321185 -26.77407004321526 0.0 7.80997611575457 0.0 0.0
951.732359230539 -63.34336495394331 0.0 19.171503597026877 0.0 0.0
456.85374849947215 -20.885500367425493 0.0 -199.2686729592033 0.0 0.0
894.6728053763673 81.38669337495523 0.0 272.15494319701577 0.0 0.0
458.3374446653938 -19.697620890496125 0.0 -199.7645001980523 0.0 0.0
343.9137630431784 103.2014038905759 0.0 47.35844618151274 0.0 0.0
323.141247365156 115.48407052882332 0.0 36.41558259463497 0.0 0.0
924.4909076842861 25.735177652073673 0.0 73.61074012348386 0.0 0.0
901.9566812162595 17.840155119349674 0.0 71.80172868419021 0.0 0.0
994.3473487719461 -70.64724764984538 0.0 -50.626476412206 0.0 0.0
994.1773264545966 -28.23374375174552 0.0 -23.493025253092334 0.0 0.0
1029.3972914242643 -8.415072666502738 0.0 48.19496351798378 0.0 0.0
820.3664451426621 -66.32064053760348 0.0 -45.34513424182986 0.0 0.0
1029.1803849417938 -26.15731570479869 0.0 47.41250938279287 0.0 0.0
895.8836221364957 -32.898622128390684 0.0 -1.9303616823830505 0.0 0.0
887.6187973967466 -43.2127953436692 0.0 6.6165994349231765 0.0 0.0
811.5886379733521 -65.60507390845697 0.0 -48.647147896519805 0.0 0.0
979.9912986633608 -93.29881617610823 0.0 -19.673175386341835 0.0 0.0
1002.1230140775907 -73.93909937345109 0.0 -56.178293904362945 0.0 0.0
873.81857019312 -16.827416936028612 0.0 -4.113027627139383 0.0 0.0
1123.8270216379037 -17.03790330159393 0.0 -27.063207702080973 0.0 0.0
1014.588769164666 -45.944415964683174 0.0 -78.66356777679286 0.0 0.0
826.4093106704654 -94.8278346597433 0.0 -66.4952026950306 0.0 0.0
730.2137029018485 -0.5827599182375707 0.0 -20.103995111979746 0.0 0.0
952.2793004717278 -44.2748150746375 0.0 -17.79531245785485 0.0 0.0
452.33736489990054 -99.8817106996161 0.0 -181.57311501376597 0.0 0.0
1160.6921316060645 6.2523511781396905 0.0 13.870714103876788 0.0 0.0
453.39171687816633 -87.64829889542955 0.0 -179.69872727987845 0.0 0.0
818.1724612765216 -94.21263974842611 0.0 -69.36564120730806 0.0 0.0
994.9173380163749 -43.926604197618815 0.0 42.75357071371352 0.0 0.0
969.4296685512368 -30.64574911876531 0.0 14.544535275046407 0.0 0.0
954.5557694959883 -45.992883654219725 0.0 18.428085237884297 0.0 0.0
1020.9803030605558 -23.19186112198838 0.0 -26.85532127903662 0.0 0.0
500.769775482725 -88.80663073337033 0.0 175.34965091299023 0.0 0.0
1131.248268211491 -10.881998229147086 0.0 26.345567626890805 0.0 0.0
1130.3218694089683 -17.4991278782947 0.0 6.881706650376783 0.0 0.0
500.8192714082388 -87.787081702542 0.0 173.49788823938025 0.0 0.0
811.2714482670197 -31.162464659888258 0.0 25.90949121469397 0.0 0.0
865.6811490589891 -17.684179713809613 0.0 6.138836827938809 0.0 0.0
1016.3440332125741 -36.74830943467441 0.0 64.56705697776339 0.0 0.0
781.2742458649315 -6.303970739235012 0.0 -11.075898660337865 0.0 0.0
245.3471343645698 113.2412243536897 0.0 21.42594031079088 0.0 0.0
1058.3193084444702 -11.351683282387626 0.0 40.093081966699565 0.0 0.0
900.3571125379126 30.412424828604173 0.0 -65.54057573278084 0.0 0.0
908.8371525153333 23.867434249265045 0.0 -71.45201968394454 0.0 0.0
368.32757748538194 99.94476109717458 0.0 -42.8837186562993 0.0 0.0
361.05942691985877 101.44236231970139 0.0 -42.08395079377604 0.0 0.0
874.969405180718 -16.601539006111125 0.0 -3.0468313180905304 0.0 0.0
705.4494104466752 4.950075337967775 0.0 20.46944237389457 0.0 0.0
971.7560481802756 34.87743242886614 0.0 -97.80705418559505 0.0 0.0
546.122134548196 37.182273502985595 0.0 47.853764293869574 0.0 0.0
787.2707666798308 -67.62248660192574 0.0 60.91935593514136 0.0 0.0
379.8773906425729 75.35753188056657 0.0 76.77640478104477 0.0 0.0
371.2447793946633 81.79910813681681 0.0 62.57935251801582 0.0 0.0
990.3690122730654 28.968859735996944 0.0 104.32639049387572 0.0 0.0
972.7110556096509 29.760112850108328 0.0 98.85254039387848 0.0 0.0
974.5644317631259 -7.375182965229101 0.0 87.40126994479989 0.0 0.0
1024.554615877968 -10.177030383268288 0.0 51.30395387511315 0.0 0.0
1006.3412762164854 -69.28181897409667 0.0 61.704235917487665 0.0 0.0
970.0676992545008 -27.631192081657332 0.0 13.771076507409344 0.0 0.0
902.5760563871372 -16.52604431764479 0.0 2.573764406994188 0.0 0.0
1063.0724294271668 -13.80104569843877 0.0 28.05428181553825 0.0 0.0
1125.6998616235453 -4.857243242492586 0.0 7.072216731250287 0.0 0.0
1010.9642098911577 -21.252848297714763 0.0 -82.33519431119919 0.0 0.0
936.141661892025 -0.02728553106965137 0.0 -58.27700883771396 0.0 0.0
520.5302411748648 53.59871669003388 0.0 -29.534472138751596 0.0 0.0
991.3106270703065 -92.93064438330856 0.0 -20.79657327108189 0.0 0.0
670.7802990644758 4.5807105269297494 0.0 -36.00389609902472 0.0 0.0
1012.2188630165632 -17.234451376636457 0.0 -77.83424319528676 0.0 0.0
768.2057225254483 -65.42249868722274 0.0 67.93838617858755 0.0 0.0
1078.106445269562 -9.541467834578668 0.0 28.25033586290973 0.0 0.0
880.1661351700924 8.231552794972743 0.0 -53.943793435234355 0.0 0.0
880.1556130089425 2.9687872397620936 0.0 -50.949336188161844 0.0 0.0
420.15475816422514 85.41649504774412 0.0 -26.612492875452517 0.0 0.0
422.33588616989016 87.75640055908039 0.0 -28.42639564127629 0.0 0.0
431.1662126892156 88.2583408538116 0.0 19.99770287005011 0.0 0.0
866.6126593915683 3.504737146775369 0.0 45.21898627668652 0.0 0.0
873.3488589398393 4.970634190325143 0.0 49.83552383795928 0.0 0.0
962.8755740486184 79.9886425243227 0.0 -42.211112550057344 0.0 0.0
236.95871368609065 102.69072560162378 0.0 -35.29146321694623 0.0 0.0
1011.6742577660243 -67.29715601410828 0.0 66.21652979491616 0.0 0.0
999.0770486138582 -88.12776893234366 0.0 28.397826094813833 0.0 0.0
758.913646502146 -35.30425976329454 0.0 47.50674506402398 0.0 0.0
1080.4303233201326 -8.734035363941132 0.0 -17.712162730053763 0.0 0.0
806.0938463929904 -97.6257478211624 0.0 79.46158307114813 0.0 0.0
343.095481661013 0.542627540270658 0.0 -137.88413816924805 0.0 0.0
1003.8094781608067 -87.57384677760683 0.0 30.038772468475095 0.0 0.0
736.049707095649 -10.270384329236464 0.0 31.493738181901488 0.0 0.0
1016.3778552363918 -42.795109711049236 0.0 79.71951123022835 0.0 0.0
949.143720321608 0.5570994367071194 0.0 -83.03238118034355 0.0 0.0
791.5770204705232 -98.6169740031076 0.0 84.93729079359741 0.0 0.0
1124.503311958823 165.9895086246693 0.0 -34.12108498962914 0.0 0.0
1138.3809309523917 168.03000422886223 0.0 -39.10006693904395 0.0 0.0
169.88116849285063 53.083025621093824 0.0 -48.315426549587784 0.0 0.0
184.999093823081 73.8968909516437 0.0 -33.63526331289427 0.0 0.0
188.9500812250926 52.25115977964782 0.0 59.970675293175624 0.0 0.0
199.9315499795852 52.260976922680875 0.0 69.92535396070129 0.0 0.0
1092.2441629085185 132.08694681403603 0.0 68.2281614419077 0.0 0.0
1104.165067213762 153.57063570883255 0.0 46.45612727027124 0.0 0.0
1021.6482352829597 -24.96473078064031 0.0 73.39064356823471 0.0 0.0
1012.1560641122715 -29.200509134346362 0.0 -93.44122851860446 0.0 0.0
739.7502252216564 -33.49134148471137 0.0 53.99349933326833 0.0 0.0
665.5462083899923 -4.136256939519683 0.0 -53.08620337453938 0.0 0.0
1035.4485196287471 -17.063507351782334 0.0 -21.24096407187249 0.0 0.0
931.5912950325302 -21.07834371534028 0.0 -3.4694817927141743 0.0 0.0
1016.2373294705078 -42.05208658895663 0.0 83.16885434656567 0.0 0.0
505.5355995639649 58.25547023323118 0.0 -31.192566304363897 0.0 0.0
1712.717257128996 185.5860795867364 0.0 60.52968584872778 0.0 0.0
1812.775678359926 179.79522546300433 0.0 92.03216796391648 0.0 0.0
6.576604705522186 -301.27883757113875 0.0 -19.207053555949482 0.0 0.0
7.720864599031785 -306.2447538360525 0.0 -19.587168527285204 0.0 0.0
9.928266448152414 -277.943099421723 0.0 7.09922337538343 0.0 0.0
12.632446822851108 -253.82122133264366 0.0 18.30895681089107 0.0 0.0
1808.3203816104785 173.30988084402668 0.0 -92.84225005019442 0.0 0.0
1787.8577694501857 165.23866367849712 0.0 -79.35623004836441 0.0 0.0
637.4717570824577 1.2803137232890265 0.0 -56.39364769158444 0.0 0.0
1025.1593594569993 -8.837342061372624 0.0 -48.022962549944694 0.0 0.0
811.3432501322309 15.601022734640793 0.0 -30.715519566653324 0.0 0.0
811.0045185309395 14.045167548733701 0.0 -29.484667561225393 0.0 0.0
314.3341234325044 127.68047469091232 0.0 -15.381816704453994 0.0 0.0
314.02742194760685 127.0223804124937 0.0 -15.78116063010284 0.0 0.0
994.8910762893194 29.296244722357756 0.0 -105.45333047479588 0.0 0.0
422.867341826093 57.48146396493982 0.0 -78.8014846875978 0.0 0.0
384.41492259251595 64.37454739724905 0.0 -81.0026112019878 0.0 0.0
1069.0235411964636 -6.809496982859741 0.0 32.81991010144206 0.0 0.0
803.8671203041521 -8.6476483280818 0.0 10.070932906742728 0.0 0.0
997.1399526431144 -11.496736377962577 0.0 -4.993788140310588 0.0 0.0
1062.8931811047864 -7.656140245673896 0.0 -35.6767804935897 0.0 0.0
960.0742290303652 -18.40654015528372 0.0 -5.395832611762299 0.0 0.0
1116.5411216952461 -6.110638656834055 0.0 5.15586313028909 0.0 0.0
1209.9184343788352 77.37289203410342 0.0 -49.66188285105307 0.0 0.0
1215.427814378994 110.70198210389799 0.0 -62.085228976205485 0.0 0.0
236.29721831748685 -19.041094460166264 0.0 -128.21397254450287 0.0 0.0
310.1842479137634 -54.91696444690733 0.0 -156.32231843645195 0.0 0.0
299.490172702633 -42.03547242322155 0.0 150.94290241811694 0.0 0.0
1184.5069614248896 93.48438158212446 0.0 74.39082641623689 0.0 0.0
1070.670526180798 -7.16153666513776 0.0 30.211320560389638 0.0 0.0
310.8476245556292 129.46594281565825 0.0 17.0627828711595 0.0 0.0
789.3017964823266 13.690698220384888 0.0 26.943054920981485 0.0 0.0
1028.2635449008744 -47.287862172873474 0.0 -89.81579225134993 0.0 0.0
991.4188106159277 -20.317663473701714 0.0 -14.201869830090095 0.0 0.0
1008.9641246823511 -11.622852233393417 0.0 -7.381884288688963 0.0 0.0
1028.930620316613 -16.797968483903276 0.0 20.21089068324368 0.0 0.0
462.73012188159225 -38.429449751375444 0.0 -151.51226371257806 0.0 0.0
1111.6574916850493 46.2926352331383 0.0 -96.89211291576498 0.0 0.0
386.9506946675316 -9.912999766375833 0.0 -141.844262620801 0.0 0.0
1007.2818528983895 -15.341120939859081 0.0 81.1121122042459 0.0 0.0
1017.4765854609835 -16.557568620027155 0.0 -14.808415069218814 0.0 0.0
1002.6011568708808 -13.966033927507283 0.0 81.07239416601087 0.0 0.0
633.3446675668815 12.054211864077985 0.0 44.687354495165586 0.0 0.0
503.6020656695377 36.4200023512999 0.0 70.74868356683673 0.0 0.0
650.9383009375771 -32.65041589072564 0.0 89.74542557534414 0.0 0.0
982.4040053926265 5.695741750136733 0.0 -105.17902933954666 0.0 0.0
1030.2776693136093 -32.85571913460922 0.0 101.2599083880823 0.0 0.0
674.8287988123417 -41.258395906783875 0.0 83.2817127934275 0.0 0.0
723.6948220523283 -11.777559894055997 0.0 38.69200513661608 0.0 0.0
1028.4397696979033 -44.416222032375344 0.0 91.82531210431404 0.0 0.0
992.8305301377613 1.4692252610628884 0.0 108.73116892653142 0.0 0.0
1016.9328584302457 -23.501032128539123 0.0 78.6753037780136 0.0 0.0
494.7162233524772 35.82722808257486 0.0 80.09662924112557 0.0 0.0
1092.2239732040005 -7.540656185291141 0.0 -25.25715565032743 0.0 0.0
998.9792714870748 -4.496414261497819 0.0 109.39906111844427 0.0 0.0
650.6918569774508 -4.567637096462676 0.0 63.89096610661471 0.0 0.0
653.9915386351439 -40.37052925307799 0.0 -96.25637139099169 0.0 0.0
1035.1165359810993 -43.93056306300264 0.0 -98.03711564446697 0.0 0.0
1256.4519217162167 212.23552610340977 0.0 -25.721867315597855 0.0 0.0
104.08560037672949 -7.340359644709437 0.0 -51.485619379553675 0.0 0.0
1104.288110683252 -7.081879607425094 0.0 -19.730420849560783 0.0 0.0
1034.098578630149 -16.653692460814682 0.0 24.050589661081883 0.0 0.0
1106.354801298932 -7.482435552894913 0.0 12.897554703122774 0.0 0.0
513.618450499217 45.942031847404806 0.0 42.67473607393977 0.0 0.0
976.3908692921943 -5.45637903664084 0.0 87.24289372611868 0.0 0.0
122.56812509732511 -13.157507256856206 0.0 58.423168744644265 0.0 0.0
111.72994730501598 23.39836248679031 0.0 8.472371655315458 0.0 0.0
1210.4292647131965 202.90630267231433 0.0 18.212146188470665 0.0 0.0
1201.9133067871262 204.72263925768897 0.0 2.581453614366411 0.0 0.0
605.0371491742944 -18.97509225592404 0.0 -94.8712312226065 0.0 0.0
694.1827938847683 16.568519881134677 0.0 -226.2687730587429 0.0 0.0
720.2999577413502 -9.977670561440505 0.0 213.9245766815653 0.0 0.0
691.0587127203594 17.350347815447748 0.0 -231.5218628274265 0.0 0.0
687.7863299385567 20.301292655832555 0.0 222.32157650809862 0.0 0.0
308.2074056729619 91.58416308331866 0.0 -64.11293890404238 0.0 0.0
944.7005214356096 73.85365557289 0.0 -13.167713911849406 0.0 0.0
946.6696929827679 76.37079577521075 0.0 -0.9621697702966939 0.0 0.0
240.06943358664589 118.70141555953995 0.0 -5.493801741669971 0.0 0.0
237.41557240747827 112.19046873720428 0.0 -14.89691596188884 0.0 0.0
839.492109756577 10.099629669823742 0.0 -45.033688592361244 0.0 0.0
359.2990237994052 111.1397914353658 0.0 -18.253813737405963 0.0 0.0
822.5265821246795 7.7925470535165005 0.0 38.111697215970345 0.0 0.0
355.6817203852599 113.65297458901787 0.0 -18.054272824103837 0.0 0.0
820.9867846460357 12.413548601424452 0.0 -40.25414462638527 0.0 0.0
1086.5017799691502 -7.591264523617269 0.0 -15.813790111839108 0.0 0.0
1098.303733650407 -5.8593782669184975 0.0 -22.46718950251675 0.0 0.0
86.77692003389483 -227.33047076605752 0.0 -57.67729162763824 0.0 0.0
323.5201396695218 -113.75448537705489 0.0 -156.21659887598696 0.0 0.0
281.4008578284713 137.53114948840215 0.0 -4.590249756076247 0.0 0.0
285.5038816171471 141.20508250977966 0.0 -3.009653811781722 0.0 0.0
794.3390927312448 18.936107408480126 0.0 -4.42227185776135 0.0 0.0
833.1182213465819 26.249164002262177 0.0 -10.576197746435541 0.0 0.0
1551.9046534600657 153.08536656954544 0.0 209.30656295699646 0.0 0.0
84.20464289913954 -225.96141436368038 0.0 -59.78028568145538 0.0 0.0
1550.8164353525915 157.0470598095249 0.0 -167.5395153910042 0.0 0.0
76.9008159624134 -230.69028085806002 0.0 56.583786026723786 0.0 0.0
99.40631030006132 -184.5792279000715 0.0 72.29729747101902 0.0 0.0
1197.5157969064744 87.1475793719112 0.0 210.83827876398504 0.0 0.0
1569.3401167929742 152.46570967836232 0.0 -199.81793909447498 0.0 0.0
296.6912825441227 -114.74314659785239 0.0 -146.06756706760922 0.0 0.0
300.2445722849071 20.13997731047708 0.0 121.65268607629258 0.0 0.0
1561.4927299325245 158.32261797607129 0.0 193.44308672613437 0.0 0.0
1098.0577177116925 91.01430189819115 0.0 95.60276713522856 0.0 0.0
360.2525411724592 1.807398536925902 0.0 137.68477603842754 0.0 0.0
1099.064355921225 62.29554503051793 0.0 102.39115104849773 0.0 0.0
369.87358089195993 104.22135517809194 0.0 27.172545763261652 0.0 0.0
468.275482482023 -113.82896756616282 0.0 182.1416338113133 0.0 0.0
905.2727824644832 -57.58677708506792 0.0 -149.78007649342277 0.0 0.0
1128.121468534391 8.235344903837017 0.0 -100.81819596320992 0.0 0.0
897.4783367557684 -57.03904719126359 0.0 -152.2918953076975 0.0 0.0
1131.1586804702604 7.23641880089599 0.0 100.03850911924177 0.0 0.0
1074.7106474870143 -7.682234956182924 0.0 -100.89813054219559 0.0 0.0
1128.9530184175649 10.722802595142184 0.0 -109.42195571022941 0.0 0.0
506.3406713302271 -23.126057044938847 0.0 -136.77313217438353 0.0 0.0
442.96848970503044 -106.30558448938788 0.0 184.62888753113634 0.0 0.0
1061.9315325041127 -11.747552694732462 0.0 28.79685124917205 0.0 0.0
798.0826169536749 -89.32634503860135 0.0 179.0737731833122 0.0 0.0
909.9250854096257 -53.34712930932278 0.0 155.2715682864373 0.0 0.0
407.46687971150453 33.80041193801435 0.0 108.29300793328417 0.0 0.0
950.5184839672298 -15.342359461057242 0.0 1.660682968177763 0.0 0.0
251.8013691455636 94.67537968138885 0.0 50.42792722031383 0.0 0.0
1119.6478763132202 87.08913017438948 0.0 -94.72754909980847 0.0 0.0
684.7326244644973 -84.20776931033316 0.0 184.96083581557824 0.0 0.0
249.9595864604518 4.44340528557548 0.0 120.28788780988548 0.0 0.0
1009.6178649571365 92.26366691940265 0.0 60.82038662679758 0.0 0.0
509.9275277407957 24.361254256006532 0.0 -86.52059048970933 0.0 0.0
1153.6637062167638 125.42515267115971 0.0 76.02798922653707 0.0 0.0
1008.4692618598978 -2.4329811432203883 0.0 -112.41096527069915 0.0 0.0
1172.3833336077869 153.260477216418 0.0 61.076971141364545 0.0 0.0
852.9214236991627 -12.257249979784149 0.0 3.258339593945644 0.0 0.0
1069.2488940674914 118.22597020828601 0.0 -75.58855902947693 0.0 0.0
234.3836829714876 64.0554967308956 0.0 -77.38716102449577 0.0 0.0
197.0644210158247 -1.5117860971531911 0.0 110.67131934923634 0.0 0.0
1078.8462824022442 -3.942158772438802 0.0 2.7138073560557467 0.0 0.0
234.82318909444038 69.74934198710214 0.0 -70.7579662140464 0.0 0.0
236.3603584894129 100.2427919419676 0.0 35.76342887601704 0.0 0.0
285.0266226814897 136.41537786636692 0.0 11.288801489573087 0.0 0.0
993.8121678886032 100.56129407339907 0.0 41.62839785244484 0.0 0.0
1200.6637235965254 161.90477303674064 0.0 -55.61702612176312 0.0 0.0
919.5119729975394 0.5368829746655024 0.0 -48.847257020884975 0.0 0.0
1091.9736783147034 -15.562246230044138 0.0 -82.54423875787955 0.0 0.0
484.82437016391333 -42.88518093954531 0.0 153.361958651353 0.0 0.0
1065.8654207808972 -12.308148306973521 0.0 -35.04417044830251 0.0 0.0
217.14922893307624 10.710978512752689 0.0 -104.96662408567606 0.0 0.0
1163.507727506431 140.28013339955945 0.0 -69.7386988249172 0.0 0.0
1020.888507645661 -6.282213378497659 0.0 -1.7359205229233658 0.0 0.0
1097.475508654587 2.726413441988086 0.0 92.51750120360525 0.0 0.0
1047.7660816221287 45.93501103652653 0.0 112.37661201000053 0.0 0.0
296.63010818969417 135.69143881486707 0.0 10.148580472561171 0.0 0.0
797.8949763962163 15.227801961049721 0.0 20.872448576815437 0.0 0.0
928.1801821272986 1.1622236904746615 0.0 53.59454680281806 0.0 0.0
1061.5390441961767 -11.108043675956367 0.0 -36.80824729651455 0.0 0.0
1000.411376804672 -16.39649084339453 0.0 10.851777937387416 0.0 0.0
984.6392847942209 -40.56324968950912 0.0 129.46604548141175 0.0 0.0
345.4516640827017 -42.79520895604391 0.0 156.41530815515367 0.0 0.0
986.9634100981676 71.57130960659447 0.0 -78.70421394368267 0.0 0.0
281.0281547089674 92.31103759657776 0.0 -58.93928446583101 0.0 0.0
1095.03564491215 123.93575661629967 0.0 -75.83746337992405 0.0 0.0
639.3401542881165 -97.72620584545123 0.0 -183.412642269215 0.0 0.0
662.0579649476132 -99.77493628605055 0.0 -180.8345848665971 0.0 0.0
1174.061078117203 69.58172245348914 0.0 62.75293834260686 0.0 0.0
925.3046525568562 2.935252443216939 0.0 52.39724014135135 0.0 0.0
505.9937752799501 60.16039786803772 0.0 23.92018316982043 0.0 0.0
683.0484870314709 10.152399319979622 0.0 -16.67169634128929 0.0 0.0
462.6129957027861 -25.15305706815252 0.0 145.54059236866593 0.0 0.0
1140.2988373369374 40.00405842136888 0.0 -76.36764011812166 0.0 0.0
717.3163764109294 -3.5623751090562052 0.0 -27.11820566768654 0.0 0.0
793.1658953238582 -10.58019116227689 0.0 -11.017362762329087 0.0 0.0
1092.2588395548676 35.121475570089615 0.0 105.12482260857276 0.0 0.0
1095.1245762640096 -3.996361673666968 0.0 24.303677026870822 0.0 0.0
292.05650795916154 110.88908359163882 0.0 42.42632636423567 0.0 0.0
935.4752042876996 54.28628509559118 0.0 67.06762205568036 0.0 0.0
1058.549224262177 142.95826131707648 0.0 -3.4360287687648294 0.0 0.0
1063.4909718866977 151.84654388165328 0.0 16.2215489103679 0.0 0.0
189.50490535756504 81.74572606417772 0.0 1.9531092581082328 0.0 0.0
200.00370341715947 90.62936913059391 0.0 7.262306504511484 0.0 0.0
868.6888645589898 -12.203015835356098 0.0 4.383500883108702 0.0 0.0
864.443748224298 24.33617054005566 0.0 50.15058474875589 0.0 0.0
1097.5843172211094 -6.768400783850552 0.0 22.779614126083086 0.0 0.0
939.176045352104 64.38189930943099 0.0 43.84243743646127 0.0 0.0
872.9693882613531 27.122848886998497 0.0 43.46699568922259 0.0 0.0
279.8432818195419 112.20325153334738 0.0 36.808236329335855 0.0 0.0
272.4735659554028 131.78374939981745 0.0 8.147739573961701 0.0 0.0
310.25032534114996 124.70765578583217 0.0 26.45388591365233 0.0 0.0
874.4272026663267 38.48468940622092 0.0 9.761698814535915 0.0 0.0
263.1368801612778 127.47759026599203 0.0 14.165502092006875 0.0 0.0
871.5431869535844 32.79693129747662 0.0 24.13964620170465 0.0 0.0
1126.151715637514 11.82498136117971 0.0 68.74268633150993 0.0 0.0
1132.976418086326 -2.9339483574743213 0.0 -3.409383359640789 0.0 0.0
1073.240349479738 -5.7235057858192135 0.0 4.844263654943185 0.0 0.0
358.630228152001 111.85255478883815 0.0 22.928100538346296 0.0 0.0
844.2047000814106 9.141440292394464 0.0 45.236999567461034 0.0 0.0
584.7700591698863 41.08254169577566 0.0 22.988286630096628 0.0 0.0
1017.962056001099 -31.849957767960802 0.0 -81.3069720059184 0.0 0.0
469.60086551272116 72.73409714430517 0.0 23.20275468468518 0.0 0.0
259.5121096514431 34.67535507592399 0.0 -107.74528770932548 0.0 0.0
1113.1571790222658 -5.018815673417691 0.0 -17.614859013238828 0.0 0.0
987.8314055873811 -5.055473598849915 0.0 -55.019919076999834 0.0 0.0
948.249871539647 97.11833847966008 0.0 -261.4473004282565 0.0 0.0
957.8860726882525 62.33007991049516 0.0 -64.76093754305884 0.0 0.0
414.5615210569682 -35.09803856843149 0.0 187.6247957642161 0.0 0.0
956.1008546834328 100.98038204629358 0.0 262.52200757262193 0.0 0.0
609.5370874994908 19.35516816757041 0.0 45.01382817776699 0.0 0.0
883.8816578634687 -23.0003572551322 0.0 -3.5548974680412364 0.0 0.0
155.03443660104014 18.21123299060486 0.0 -65.58933163703358 0.0 0.0
1261.9776690847852 128.17634646665806 0.0 -251.98071760136514 0.0 0.0
1029.6457595757872 -8.50250934841307 0.0 -46.78087027731595 0.0 0.0
1270.1561324076881 126.25442815384918 0.0 -250.97100271768295 0.0 0.0
975.2137974205111 59.169331663328364 0.0 82.50669879349529 0.0 0.0
307.00575569923785 96.22078905314275 0.0 64.55828579444456 0.0 0.0
1266.8963335023095 198.17651093702878 0.0 36.832779674657075 0.0 0.0
951.2054763088701 100.87067739180068 0.0 -266.55236253479933 0.0 0.0
1143.9378686446846 -2.3004224294872415 0.0 2.264115709485452 0.0 0.0
548.0231429696304 -113.57982689485036 0.0 -194.51332289035378 0.0 0.0
1264.0065808449656 123.97808053689437 0.0 245.35567590200756 0.0 0.0
407.8369226785513 53.741168967469065 0.0 89.40046657097504 0.0 0.0
1030.1969448459593 114.76640624085266 0.0 -56.6182203989352 0.0 0.0
213.1757138934879 -127.12475707228968 0.0 117.64490234167958 0.0 0.0
524.6209661076334 14.901133376076956 0.0 -82.67999862113255 0.0 0.0
750.004143060399 -19.439683985361455 0.0 -37.382462244349135 0.0 0.0
705.3900909906325 9.643210074837214 0.0 -15.35682060277952 0.0 0.0
1450.4447168302056 234.71740753758192 0.0 -3.838557877039847 0.0 0.0
44.8014718021183 -74.04176057847498 0.0 49.386402569142646 0.0 0.0
1119.1218220426235 -5.41847296533922 0.0 14.508592657874397 0.0 0.0
769.2524470418296 11.192409432101755 0.0 7.319307315477942 0.0 0.0
133.7145951485166 41.78447435579396 0.0 3.670288675312663 0.0 0.0
781.8185510470705 -6.627001726569688 0.0 11.398585911629471 0.0 0.0
1056.3627353263907 -42.269374527716366 0.0 -88.21486999325138 0.0 0.0
610.1506203103767 -55.688592266434426 0.0 -124.57505346204249 0.0 0.0
936.4849381377894 67.25174291115613 0.0 31.804509212756464 0.0 0.0
510.95948677668963 -52.122142210218755 0.0 185.39881214220205 0.0 0.0
1318.195507337324 215.96804151332609 0.0 -15.38653164770699 0.0 0.0
1149.1001531145207 -1.5613175433131232 0.0 -1.428278458606483 0.0 0.0
1017.1785388500692 21.276980487740673 0.0 -114.61400284202963 0.0 0.0
108.83036722621827 -51.22825149709143 0.0 71.19792894753411 0.0 0.0
225.08168398197466 -135.82107938361054 0.0 119.01603978550308 0.0 0.0
1465.413915492979 206.50028888067305 0.0 -11.34260088369749 0.0 0.0
321.3145770076203 98.70235659323585 0.0 -56.0485769487627 0.0 0.0
661.3477851120483 -106.47092094227614 0.0 155.81635175429903 0.0 0.0
255.08279177899016 127.22615130419348 0.0 -10.057684171861808 0.0 0.0
1144.0055501890095 -2.0529093562828393 0.0 2.840464595139 0.0 0.0
1009.4367797159305 -9.598482011923295 0.0 3.1541391465402517 0.0 0.0
1160.2889358580808 -0.9533895942467439 0.0 -0.7565087535087786 0.0 0.0
SCALARS Strain float 6
LOOKUP_TABLE default
0.011747907107571948 -0.0035326554186941046 0.0 3.911384317008699e-05 0.0 0.0
0.011833883845375088 -0.0036035038970400448 0.0 -6.664768892553462e-05 0.0 0.0
0.011708304044396241 -0.0035044133027711264 0.0 5.4644753881458007e-05 0.0 0.0
0.011744142534794432 -0.003534376058563412 0.0 -4.853537261490624e-05 0.0 0.0
0.021774907053170166 -0.004848954959848415 0.0 -3.97459074960796e-05 0.0 0.0
0.02157716694776601 -0.004978618049605978 0.0 -4.453959559581582e-05 0.0 0.0
0.01178541678632343 -0.0035579914675708635 0.0 6.184632067573743e-07 0.0 0.0
0.011693345018802922 -0.0035358172041651086 0.0 -4.6997988674825396e-05 0.0 0.0
0.011485194645405292 -0.0034735623647560053 0.0 -0.00011864932494908388 0.0 0.0
0.011376657954577412 -0.0034531424215783254 0.0 -0.00017406880480771384 0.0 0.0
0.011101668690840342 -0.003378593368517249 0.0 -0.00023998283488004348 0.0 0.0
0.010627006652346293 -0.003231255055338755 0.0 -0.0003513496786944634 0.0 0.0
0.010109388177390273 -0.0030594411795712246 0.0 -0.0004281359421354847 0.0 0.0
0.009444139900090385 -0.0028448643582222335 0.0 -0.0004577946406621779 0.0 0.0
0.008745865785681898 -0.0026100594518168865 0.0 -0.00044320177303501886 0.0 0.0
0.00796212318894916 -0.0023465739303247463 0.0 -0.00033946533535065995 0.0 0.0
0.007528736722970594 -0.002167073521680376 0.0 -0.00027953830672179615 0.0 0.0
0.00728931014905659 -0.0021309144745179096 0.0 -6.710440583156124e-05 0.0 0.0
0.007219483892040544 -0.0021017062190103607 0.0 0.0001342750231829401 0.0 0.0
0.007482239574511426 -0.0021754408896656175 0.0 0.00025987086703821525 0.0 0.0
0.008066815559352555 -0.0023738940143915965 0.0 0.0004135498192512873 0.0 0.0
0.008627139772082156 -0.002569066720714645 0.0 0.00038360868505473984 0.0 0.0
0.00942214530776554 -0.0028092285438988587 0.0 0.0004291854733311233 0.0 0.0
0.010045683764519725 -0.003041107347423692 0.0 0.0004386193186466272 0.0 0.0
0.010679733308537049 -0.0032525982338975114 0.0 0.00033943751444916854 0.0 0.0
0.011125706221857157 -0.0033910234165465073 0.0 0.0002224793770721422 0.0 0.0
0.01142405143248218 -0.0034604565535905282 0.0 0.00013471116863214235 0.0 0.0
0.011547979298369994 -0.0035027450591623628 0.0 0.00012431209442211673 0.0 0.0
0.011625513403720714 -0.003502377420566215 0.0 3.4551438703929916e-05 0.0 0.0
0.011770790811009946 -0.003539346125608694 0.0 -1.3091508287165247e-05 0.0 0.0
0.011106918788874796 -0.0033403461030569806 0.0 6.935123828336325e-05 0.0 0.0
0.010477850144978101 -0.003207527433633243 0.0 5.713683144367501e-05 0.0 0.0
0.009803661736886762 -0.0030477024427170425 0.0 5.162581372808103e-05 0.0 0.0
0.009127429694000171 -0.0028679078999428796 0.0 3.7215138304177195e-05 0.0 0.0
0.008344801969549866 -0.0025946882615287287 0.0 9.887704590594022e-06 0.0 0.0
0.007397575549034813 -0.002183702208137024 0.0 -6.346860062504011e-05 0.0 0.0
0.006391312115096651 -0.0017121964307206554 0.0 -0.00010607101322756903 0.0 0.0
0.005494491749828126 -0.0012456546872706864 0.0 -0.00013786677090471533 0.0 0.0
0.004553766478577299 -0.0006717207520252192 0.0 -0.0001395818399948635 0.0 0.0
0.003610715512691585 -7.801523611418254e-05 0.0 -0.00010244503175475643 0.0 0.0
0.0029150964958197705 0.0002666276153193468 0.0 -7.678552892579992e-05 0.0 0.0
0.002532409898363227 0.0005167766339693633 0.0 -5.148359014378139e-05 0.0 0.0
0.002536104310530162 0.0005221168052514673 0.0 3.683680473517626e-05 0.0 0.0
0.003027588902022656 0.00023599168516885013 0.0 9.747701341056971e-05 0.0 0.0
0.0037924972553741807 -0.00024897567112652563 0.0 0.00014702042558553926 0.0 0.0
0.004429735025445026 -0.000605085600134271 0.0 0.00012596004665677018 0.0 0.0
0.005174865354547948 -0.001061082807275012 0.0 0.00013775608052286567 0.0 0.0
0.0063136147901135435 -0.0016730810103993189 0.0 8.090237192026663e-05 0.0 0.0
0.007319530223429708 -0.002177096499587246 0.0 3.238944537711623e-05 0.0 0.0
0.008197558949204414 -0.0025465737539732518 0.0 -1.529516188159398e-05 0.0 0.0
0.009115984690905977 -0.0028524125237909936 0.0 -4.8734476096910036e-05 0.0 0.0
0.009990636090933997 -0.003109924403690458 0.0 -4.8495763832547006e-05 0.0 0.0
0.010426560726391228 -0.0031740432667705853 0.0 -6.829752966123452e-05 0.0 0.0
0.011106753106507508 -0.003324425462490852 0.0 -6.805946254141198e-05 0.0 0.0
0.011825401435864158 -0.0035982689066236585 0.0 3.332383391141473e-05 0.0 0.0
0.011678030111886985 -0.0035317475626345917 0.0 -6.0237985742916315e-05 0.0 0.0
0.011509658405616588 -0.003482766720928116 0.0 -0.00012869609073331732 0.0 0.0
0.011397077964476783 -0.0034468564342270322 0.0 -0.00014607122880160766 0.0 0.0
0.011074333165821204 -0.0033634641946487685 0.0 -0.0002273454740690968 0.0 0.0
0.010641123962177288 -0.0032327070093638357 0.0 -0.00031279894728099625 0.0 0.0
0.010089099679763475 -0.0030520842946469536 0.0 -0.00042538527213263275 0.0 0.0
0.009331537163381488 -0.0027931498583235494 0.0 -0.00046703874185466095 0.0 0.0
0.008717799379847634 -0.0025827667697955934 0.0 -0.0004253696597725689 0.0 0.0
0.008074277219379073 -0.0023890073043314397 0.0 -0.00036667194492927854 0.0 0.0
0.0075634252765111815 -0.0022231761478346064 0.0 -0.00024776750683428556 0.0 0.0
0.0073492753227294896 -0.002148685191344679 0.0 -8.325985256260414e-05 0.0 0.0
0.0071363214966085895 -0.002057537812912923 0.0 7.287244669230817e-05 0.0 0.0
0.00744347088197881 -0.0021761990930344293 0.0 0.00020832490745758734 0.0 0.0
0.008015256435404624 -0.0023583294421333873 0.0 0.0003130840108017505 0.0 0.0
0.008703479580441187 -0.0025885339511746656 0.0 0.00039963881074135026 0.0 0.0
0.009425074086140201 -0.0028241515232501186 0.0 0.0004234010295796403 0.0 0.0
0.010061460880444946 -0.0030440313442371197 0.0 0.00041620271590320874 0.0 0.0
0.010702570867156048 -0.0032585613057863486 0.0 0.00032608677005285846 0.0 0.0
0.011106443040416445 -0.003378090327479064 0.0 0.00022408515828360384 0.0 0.0
0.011275054733009084 -0.0034063452693474106 0.0 0.00021100830132620265 0.0 0.0
0.011558789712221431 -0.0034905003673605228 0.0 0.00010650258021058213 0.0 0.0
0.011656968413231432 -0.0035273571360295527 0.0 8.166378303953842e-05 0.0 0.0
0.011769317475374127 -0.003562113590051134 0.0 -8.094791166022989e-06 0.0 0.0
0.011160143499869334 -0.003361336916431891 0.0 3.3675285242862864e-05 0.0 0.0
0.010531230738589475 -0.00319829369191318 0.0 3.312109196595168e-05 0.0 0.0
0.009825454357305564 -0.0030542298784482043 0.0 4.85895553528822e-05 0.0 0.0
0.009100958100018439 -0.0028546881627734364 0.0 4.4284624407654025e-05 0.0 0.0
0.00832022556136509 -0.0025745055905100553 0.0 -1.0251784216831468e-06 0.0 0.0
0.007468751007595297 -0.0021834177954187096 0.0 -3.7248954663544946e-05 0.0 0.0
0.006487321496787787 -0.0017646950152044284 0.0 -8.325076629646044e-05 0.0 0.0
0.005443709121617039 -0.0012042727218533672 0.0 -0.00012079333427415279 0.0 0.0
0.00445263311476583 -0.0006369169813466986 0.0 -0.00012042921837977727 0.0 0.0
0.0036201052300352684 -0.00011037459137470868 0.0 -0.00010067165824144937 0.0 0.0
0.0029298671388722206 0.00023447193379471022 0.0 -9.129924103173137e-05 0.0 0.0
0.0025501270037688005 0.0005103967089026368 0.0 -3.475011883245956e-05 0.0 0.0
0.002487245459000601 0.0005646004463377512 0.0 2.125100637266504e-05 0.0 0.0
0.0028524566848109013 0.00032461779567644 0.0 7.855315194302624e-05 0.0 0.0
0.0035788946578448433 -0.0001608794328907664 0.0 0.00010697830818198466 0.0 0.0
0.004517424392270444 -0.000615694389570979 0.0 0.00010787048625359736 0.0 0.0
0.005434403380176724 -0.0011847228299474435 0.0 0.0001061592067493275 0.0 0.0
0.006485105182600112 -0.0017430757646302215 0.0 8.227143117307874e-05 0.0 0.0
0.007462671151759269 -0.0022372689035554455 0.0 3.295399600554579e-05 0.0 0.0
0.008352311929859859 -0.0025912468212696054 0.0 1.0885706421299185e-05 0.0 0.0
0.009064662899013243 -0.0028057664023860016 0.0 -3.12299822408618e-05 0.0 0.0
0.009839017741437014 -0.0030388819196428404 0.0 -8.841812748224348e-05 0.0 0.0
0.01053751535325083 -0.0032350436494466743 0.0 -5.17671294305228e-05 0.0 0.0
0.011169170377408576 -0.0033655106524260628 0.0 -5.294419452594132e-05 0.0 0.0
0.019588269173134783 -0.0040660403420220365 0.0 0.0038696867183433525 0.0 0.0
0.015277060355744275 -0.0027944818041331764 0.0 0.0054174772657075414 0.0 0.0
0.01020265255783862 -0.0015982183563093579 0.0 0.004570186571066479 0.0 0.0
0.0062490735558332604 -0.0010205147401402192 0.0 0.003467071785705992 0.0 0.0
0.002947890388881656 -0.0015579652709182502 0.0 0.0014854052428902968 0.0 0.0
0.0016179729300428208 -0.00295158128608758 0.0 0.00013017712719466668 0.0 0.0
0.0013326486672685404 -0.004256047872614564 0.0 -0.00022096134948417162 0.0 0.0
0.0013965343032540703 -0.004939484984301405 0.0 -5.918002266336585e-05 0.0 0.0
0.0013604384741877596 -0.004404350926893199 0.0 0.0005017662773994444 0.0 0.0
0.0017367310536066988 -0.002927300690240515 0.0 -8.219897491851084e-06 0.0 0.0
0.0030938439198780854 -0.001450673977324487 0.0 -0.001955291902153518 0.0 0.0
0.005941531867855907 -0.0008877035867697865 0.0 -0.0035215450853284596 0.0 0.0
0.01040796509782223 -0.0013478707291472425 0.0 -0.004729695609087133 0.0 0.0
0.015409931418021848 -0.002779396673945683 0.0 -0.004884604215037997 0.0 0.0
0.019917533694201503 -0.004341376141681711 0.0 -0.003436785286964438 0.0 0.0
0.01954777641433323 -0.0040675531204044145 0.0 0.0031621327586667906 0.0 0.0
0.015512061310740923 -0.002844822974332901 0.0 0.004959839319972623 0.0 0.0
0.010398450854884526 -0.0013810441559940928 0.0 0.004710974237448449 0.0 0.0
0.005748059957076668 -0.0007877641286050757 0.0 0.003492860948385049 0.0 0.0
0.0024861074333101534 -0.0014031775070441508 0.0 0.0018349693877190041 0.0 0.0
0.0015819836852176187 -0.002883364252029126 0.0 0.00040292943126687616 0.0 0.0
0.001312302483928237 -0.004208439563901706 0.0 -0.0002547057195173019 0.0 0.0
0.001409130292877629 -0.005077376169477072 0.0 -3.9588879790817904e-05 0.0 0.0
0.0013762123895354498 -0.004424223046159988 0.0 0.00045712373756019893 0.0 0.0
0.0017949827848424188 -0.0029774086794303635 0.0 -7.788706558961057e-05 0.0 0.0
0.003125905752117695 -0.0014580442443893652 0.0 -0.002005161210193761 0.0 0.0
0.005961564451341534 -0.0009059763132716477 0.0 -0.0035310818042246133 0.0 0.0
0.010369954056939459 -0.0013458357033516227 0.0 -0.004752436150880776 0.0 0.0
0.015425220258703014 -0.0028689436530927458 0.0 -0.005078041973378645 0.0 0.0
0.01975822992747548 -0.004321424448498019 0.0 -0.0036634580953599405 0.0 0.0
0.010500901707170773 -0.003787671922854759 0.0 -0.0008781414039110325 0.0 0.0
0.010454596652371754 -0.0037614199050727565 0.0 -0.0009128865049497891 0.0 0.0
0.0072348695003369235 -0.0027436421921326433 0.0 -0.0012152797860431892 0.0 0.0
0.007513635780923401 -0.0029024214574100834 0.0 -0.0011517089594721304 0.0 0.0
0.007093530810298128 -0.0028128195236304093 0.0 0.001369563352387276 0.0 0.0
0.007280119801557728 -0.0028670693386016947 0.0 0.0013051084202845018 0.0 0.0
0.010505813135047242 -0.0037577689642605107 0.0 0.0009359107952573603 0.0 0.0
0.010558503918488395 -0.003719316615249885 0.0 0.0009736980301169569 0.0 0.0
0.009939983190188498 -0.003082730935796494 0.0 -0.0011993667024531856 0.0 0.0
0.009979493055971475 -0.0030872594363495183 0.0 -0.0012897910024862653 0.0 0.0
0.005159762902156284 -0.001186196741778593 0.0 -0.0007889799680515577 0.0 0.0
0.005733346366535886 -0.0014954044635471853 0.0 -0.0006771519543368243 0.0 0.0
0.005760842979592116 -0.0015918294352752285 0.0 0.0008689340369191534 0.0 0.0
0.010094705372730935 -0.003192936445305662 0.0 0.001326926199510141 0.0 0.0
0.010442957484172868 -0.0029519540502984318 0.0 -0.0014958704592017448 0.0 0.0
0.01060153012330963 -0.003004073361981433 0.0 -0.0014165238104953278 0.0 0.0
0.004599254278394952 -0.0013284131393623737 0.0 -0.0015297970225659177 0.0 0.0
0.004351629263798115 -0.001204963825977825 0.0 -0.001539280811229944 0.0 0.0
0.005247020137567931 -0.0016244766989492664 0.0 0.0014315989347574738 0.0 0.0
0.00457411253153531 -0.001223567666730144 0.0 0.0014530087672546578 0.0 0.0
0.010349371090897232 -0.0030305546037165385 0.0 0.0015015014885856207 0.0 0.0
0.010339683519396025 -0.0029518002434822934 0.0 0.0014477765157765252 0.0 0.0
0.009818902733460332 -0.0018933740280791323 0.0 -0.00046777863938650237 0.0 0.0
0.0019071309483384444 0.0002069299496686498 0.0 -0.000527663656210153 0.0 0.0
0.010054108547422044 -0.0033102808008544037 0.0 0.00033884441714357753 0.0 0.0
0.009480078223612015 -0.003130012635084529 0.0 -0.00010836153064241647 0.0 0.0
0.010133271548091544 -0.003305869531979082 0.0 0.00040249621350416857 0.0 0.0
0.00975151522833805 -0.0031838483519820147 0.0 -0.00017103845993524255 0.0 0.0
0.011322657401240348 -0.003423872567161623 0.0 -9.187524342477908e-05 0.0 0.0
0.011308377504990775 -0.003416654783008697 0.0 -2.5538293387710256e-05 0.0 0.0
0.009067910837958135 -0.0032331700464381954 0.0 -0.00013555470278341347 0.0 0.0
0.01006481749107813 -0.003529879836545925 0.0 -0.0005868496703232723 0.0 0.0
0.008707940985683608 -0.0031125014645027203 0.0 0.00031666330774834245 0.0 0.0
0.009883582581197117 -0.0035042682078802317 0.0 -0.0004187106510544951 0.0 0.0
0.009138296806717391 -0.0032822350014118365 0.0 -0.00010346578153894973 0.0 0.0
0.00360829236681352 -0.0015019101800580674 0.0 -0.002116481479376731 0.0 0.0
0.010363937427791639 -0.0032537941977954033 0.0 -0.0008140366100106754 0.0 0.0
0.01035562085347367 -0.0033255764373991176 0.0 -0.0008380070940766909 0.0 0.0
0.007555662254224726 -0.002425708255054032 0.0 -0.0004215807618939678 0.0 0.0
0.010222831575438648 -0.0033186944248861944 0.0 0.001187815921930562 0.0 0.0
0.010663759473850122 -0.003879909013874262 0.0 0.00022105835311043596 0.0 0.0
0.010535106698466934 -0.0038600185144795776 0.0 0.0006568774589547927 0.0 0.0
0.007177111382836899 -0.0032153329352346324 0.0 0.002103033685655278 0.0 0.0
0.0069445581173243 -0.003089703164135208 0.0 0.0021900719931382596 0.0 0.0
0.007045560128112675 -0.00313556525941898 0.0 -0.001963851419460768 0.0 0.0
0.0071206986319216296 -0.0031782243495982413 0.0 -0.0020427693716387235 0.0 0.0
0.010533134586971356 -0.0038446216613107296 0.0 -0.0006087978791668009 0.0 0.0
0.0105028254942403 -0.003831526875000442 0.0 -0.000673317229837325 0.0 0.0
0.010114703714370248 -0.003566553663535985 0.0 0.0006542347783410852 0.0 0.0
0.008479861681189235 -0.0030437926275052886 0.0 0.00041965917066851964 0.0 0.0
0.009381192103975948 -0.003774708244998864 0.0 0.0004821623950276321 0.0 0.0
0.00928235513406133 -0.0037477213095979084 0.0 0.0005264012025801212 0.0 0.0
0.00952761070901248 -0.003791941395960792 0.0 -0.0003497696058948948 0.0 0.0
0.009566678171267674 -0.0038121190811415697 0.0 -0.00034416851122791086 0.0 0.0
0.009454794479877144 -0.003016397508037199 0.0 7.677062792279556e-05 0.0 0.0
0.010140255137625868 -0.003574591593112622 0.0 0.0007090665028080978 0.0 0.0
0.009319452132186089 -0.003013052367671335 0.0 2.663428089593324e-05 0.0 0.0
0.010506665410937126 -0.003322561210528129 0.0 -0.0004056768692585536 0.0 0.0
0.010390311066832204 -0.0032834362953270196 0.0 0.0007418052951821022 0.0 0.0
0.008007032577803679 -0.0025395175276503377 0.0 0.00023484998698298045 0.0 0.0
0.008404680755812558 -0.0026935342229373127 0.0 0.00015602782668626219 0.0 0.0
0.014011259468537617 -0.0021683867102951088 0.0 7.75337374726458e-06 0.0 0.0
0.0006822134007689224 -0.0010530032108347846 0.0 -0.0001318647378705204 0.0 0.0
0.0007480438439173944 -0.000901767690297382 0.0 -0.00010139574763592185 0.0 0.0
0.009508273313656425 -0.0027951395627404045 0.0 -0.001193237603405219 0.0 0.0
0.009197708549807365 -0.002639228280491121 0.0 -0.0010672474803345188 0.0 0.0
0.00431974270034189 -0.0006625615249007508 0.0 -0.0006742901247523725 0.0 0.0
0.004443393870415371 -0.0007641425952752397 0.0 -0.0007123286414147734 0.0 0.0
0.004276806192970529 -0.0006003359992651703 0.0 0.0005852974154810564 0.0 0.0
0.004145863314108 -0.0005519371618516439 0.0 0.0006029416599807865 0.0 0.0
0.009380977857946822 -0.0027424614758150777 0.0 0.0011145163564609407 0.0 0.0
0.009282479843802606 -0.0027037704642150595 0.0 0.0010851721997276332 0.0 0.0
0.002569287145331698 0.00042850347755011507 0.0 0.0003161167206400991 0.0 0.0
0.008762300832392562 -0.0022783076686957167 0.0 -0.0005230101562572966 0.0 0.0
0.008861002377591161 -0.0022358442831112895 0.0 -0.00043547334141891703 0.0 0.0
0.002477959448598173 0.0003840360855496529 0.0 -0.00031236231786596505 0.0 0.0
0.002478575804788629 0.00036523471216480557 0.0 -0.00038458820956466586 0.0 0.0
0.009635107695692775 -0.0019577842026913253 0.0 0.00018410040607415372 0.0 0.0
0.010511237375882814 -0.0032833956465307765 0.0 0.0006115815448556831 0.0 0.0
0.010670982427998693 -0.0033224815439395093 0.0 -0.0004118416499529318 0.0 0.0
0.00968320941931267 -0.003016992455349415 0.0 -4.889844278970374e-05 0.0 0.0
0.00929725145774157 -0.002917384219672089 0.0 -2.8644766668414062e-06 0.0 0.0
0.011009874741506973 -0.003371141923870439 0.0 0.00022607035648358363 0.0 0.0
0.010663512824433301 -0.003280184193717305 0.0 -0.0001478930631805044 0.0 0.0
0.010275868712028643 -0.003323272117450747 0.0 -0.0013608916760400047 0.0 0.0
0.010251934687907633 -0.003338266084958006 0.0 -0.0013047292476760827 0.0 0.0
0.006506204370317818 -0.0020406336479345793 0.0 0.0008441553295491593 0.0 0.0
0.00615536136154375 -0.0019312533097660088 0.0 -0.0010612513691384876 0.0 0.0
0.010262394298435777 -0.0033495456999377057 0.0 0.0012958805034026595 0.0 0.0
0.010150429695524554 -0.00323780629842734 0.0 0.0012871239330808075 0.0 0.0
0.010132696713253338 -0.003185626740880732 0.0 0.00018689742850651564 0.0 0.0
0.01078934150006473 -0.0032829557108244507 0.0 -2.444653920278205e-05 0.0 0.0
0.00611752668907495 -0.002200496419730077 0.0 0.001625820014838685 0.0 0.0
0.006064638343285214 -0.002146229941149531 0.0 0.0015043420009810337 0.0 0.0
0.010614580251752928 -0.003489045804263849 0.0 0.001252773818884975 0.0 0.0
0.0107588796081367 -0.0034452025442633987 0.0 0.0012305577435456079 0.0 0.0
0.010493711322573247 -0.0033372835466048143 0.0 -0.0014216496956710564 0.0 0.0
0.01067113375004375 -0.0035400222409883945 0.0 -0.0012163358050905435 0.0 0.0
0.005691244988091638 -0.0018316697515301122 0.0 -0.0014437671186162898 0.0 0.0
0.005955027072144861 -0.002220721844047127 0.0 -0.0016791600942126866 0.0 0.0
0.01132827607642907 -0.0034314886794939146 0.0 -9.141585000240263e-05 0.0 0.0
0.010449988961277355 -0.0032030554454974165 0.0 -5.338853943722278e-05 0.0 0.0
0.0097807410449115 -0.0029827767643274333 0.0 -0.0007997166210360531 0.0 0.0
0.006062812150746052 -0.0015854051814152023 0.0 -0.0003754551699858441 0.0 0.0
0.006029574089057488 -0.0015710700811654701 0.0 -0.000326434461831797 0.0 0.0
0.005919929284977971 -0.0014961684822140916 0.0 0.0003132878637870929 0.0 0.0
0.009835377102651815 -0.0029860781520563927 0.0 0.0006799656978423835 0.0 0.0
0.00981204115173635 -0.002977416270575777 0.0 0.0006942017386511522 0.0 0.0
0.01069931249245354 -0.003299143507445562 0.0 0.00017560465845720304 0.0 0.0
0.0107002594138199 -0.0032909836007108334 0.0 -0.0001428279563107554 0.0 0.0
0.01067176058212717 -0.003285115449420838 0.0 0.00016252932759536296 0.0 0.0
0.010256531720041059 -0.0031724181952379853 0.0 8.230936172818319e-05 0.0 0.0
0.010366943138109925 -0.0024270456049601406 0.0 -0.0013525317780670994 0.0 0.0
0.010155378880791545 -0.002440980225785613 0.0 -0.00127437103008273 0.0 0.0
0.0030128523217223062 -0.0005002729762225718 0.0 -0.0013979482108676209 0.0 0.0
0.0032281267736893483 -0.00048686563822873945 0.0 -0.0013185640718509182 0.0 0.0
0.010287229573815905 -0.0031791304761897487 0.0 -0.0014653752097277674 0.0 0.0
0.005754064126655097 -0.0017178035554540297 0.0 0.0010717912221702712 0.0 0.0
0.005781790697414899 -0.0017804452589894526 0.0 0.0012355752480847438 0.0 0.0
0.010295917115959998 -0.003255235545543849 0.0 0.001440168239012651 0.0 0.0
0.011301629590024356 -0.003439812743603709 0.0 0.00010357016167151568 0.0 0.0
0.0028093841845812386 -0.00021122619425026498 0.0 0.001159836342548864 0.0 0.0
0.0029367812104569447 -0.00031923666993910764 0.0 0.00117220502193977 0.0 0.0
0.010137744840552076 -0.002309756675312162 0.0 0.001174180559085827 0.0 0.0
0.01006554124310444 -0.002335920699017088 0.0 0.0012234875126404447 0.0 0.0
0.009592816127016547 -0.00300598615825424 0.0 1.4228545421977358e-05 0.0 0.0
0.010188799061339578 -0.0031269962181888922 0.0 2.3636028706491613e-05 0.0 0.0
0.0029598571978814952 -0.0019338240853267292 0.0 0.001999233487407282 0.0 0.0
0.003397894346330713 -0.0020015909515578895 0.0 0.002143759595235324 0.0 0.0
0.012351031974213297 -0.0030168274599053674 0.0 -0.00021788681231082107 0.0 0.0
0.012420119085797151 -0.0030279740659970847 0.0 -0.0004184158493036401 0.0 0.0
0.012526378526659703 -0.0028460311938040585 0.0 0.0005049973204170636 0.0 0.0
0.012334064013979691 -0.003004925352752228 0.0 0.00015735591135004673 0.0 0.0
0.0027927621118130725 -0.0016313847544943121 0.0 -0.002008739727357829 0.0 0.0
0.002716696272973356 -0.0016782525773055288 0.0 -0.001959296856615721 0.0 0.0
0.010282245677664491 -0.0033617380130822336 0.0 -0.0005646879572928961 0.0 0.0
0.007254500196079511 -0.0030375745858048087 0.0 -0.0015805174032676097 0.0 0.0
0.010633975946564159 -0.0039011096956435413 0.0 -0.0005201436284266578 0.0 0.0
0.007405414417121972 -0.0030998361630333263 0.0 -0.001587630765318799 0.0 0.0
0.009863606225152288 -0.0033247412711621257 0.0 -0.00032987150123444504 0.0 0.0
0.008711328477030843 -0.003692633131005929 0.0 -0.0012185920193454945 0.0 0.0
0.00870856493446844 -0.003700683229659417 0.0 -0.0012222474808611622 0.0 0.0
0.009894532303854717 -0.0039328920169788 0.0 0.0004163855832506648 0.0 0.0
0.008561655503095508 -0.002809618676674642 0.0 -0.00016080616258928784 0.0 0.0
0.010417912391358806 -0.003345871439487571 0.0 -0.0006149208853609015 0.0 0.0
0.009940970175930578 -0.0039761918900234495 0.0 -0.00046218704539431 0.0 0.0
0.00988621177413805 -0.003973781612917918 0.0 0.0005405522768250656 0.0 0.0
0.009971508703795474 -0.003998530672947365 0.0 -0.0004680979012962904 0.0 0.0
0.008583181029848883 -0.0036454990701466974 0.0 0.0013003936778781377 0.0 0.0
0.008872462509380091 -0.0037333922512142338 0.0 -0.0015501679961454147 0.0 0.0
0.009312804226218068 -0.0038262323213374186 0.0 0.0013366533232887987 0.0 0.0
0.008922483442848359 -0.0037155537734966434 0.0 -0.0015212346858900962 0.0 0.0
0.010125339980430605 -0.003377089049178407 0.0 -0.0005194388626437389 0.0 0.0
0.008254066883191778 -0.0035172377249555976 0.0 0.0014476421399689165 0.0 0.0
0.0015440019336887666 -0.001305061500924554 0.0 0.0013341148992843219 0.0 0.0
0.0022968558854405915 -0.0012612355743340407 0.0 0.0017697246144630127 0.0 0.0
0.013094951348426732 -0.0022222998048164427 0.0 5.518536731265503e-05 0.0 0.0
0.012517444286111982 -0.002376463117319529 0.0 0.0002649589471895963 0.0 0.0
0.013158787818050122 -0.0023960529869893644 0.0 -2.9144659320402572e-05 0.0 0.0
0.013347937675411193 -0.0023377589666468915 0.0 0.0001749664824993865 0.0 0.0
0.0014199321671924043 -0.001294461553677978 0.0 -0.001126940366347163 0.0 0.0
0.0013452854746212046 -0.0013336292430985758 0.0 -0.0011191795835546665 0.0 0.0
0.009235148182571375 -0.0031494282896671307 0.0 -1.5140777549095714e-05 0.0 0.0
0.008962212446556341 -0.0036979218240926486 0.0 0.0015439940704305064 0.0 0.0
0.0060112805081838205 -0.002495432533321943 0.0 -0.001979641669347864 0.0 0.0
0.0073070720223314435 -0.0025141954754136614 0.0 -0.0008022588708095297 0.0 0.0
0.011106849481607568 -0.0034905270782972183 0.0 -0.0008220922633309503 0.0 0.0
0.005409722330714041 -0.0022273881362371343 0.0 -0.0020713231670672185 0.0 0.0
0.010532012637832816 -0.003314521440593898 0.0 -0.0006291247354140192 0.0 0.0
0.00948672064998834 -0.0034135650562341874 0.0 -8.654300958700731e-05 0.0 0.0
0.009787950727190608 -0.003693516530505619 0.0 -0.00016761027896871304 0.0 0.0
0.008292411086025984 -0.002846121650612327 0.0 -0.0003867834964026835 0.0 0.0
0.010324759811872553 -0.003547809269750598 0.0 -0.0011057519677317548 0.0 0.0
0.009084142960001379 -0.0029713373662659105 0.0 3.3997132643415694e-05 0.0 0.0
0.0073626099523918555 -0.0025360261384186357 0.0 -0.0008133925774866455 0.0 0.0
0.00904776222553105 -0.003461004269825714 0.0 0.000379128162416111 0.0 0.0
0.008282091247122517 -0.002686224112175568 0.0 -0.00020647148785380982 0.0 0.0
0.010698571635494133 -0.0038148715813420314 0.0 -0.000523594956969263 0.0 0.0
0.010046878777580577 -0.0034077099579797585 0.0 0.00048565024662149754 0.0 0.0
0.009166719454425315 -0.003105134587434953 0.0 -2.6588816012060573e-05 0.0 0.0
0.00688015531250717 -0.002902630710102908 0.0 0.0017517138216731267 0.0 0.0
0.010734766954591895 -0.00380191850743518 0.0 0.0005723310145659319 0.0 0.0
0.010403268691264993 -0.0033339487507511993 0.0 0.0004789860650471049 0.0 0.0
0.009230040911759526 -0.003518098804834032 0.0 -0.00022748424022477325 0.0 0.0
0.010300700137067333 -0.0034006334172532755 0.0 -0.0008533513521301931 0.0 0.0
0.006679946446244945 -0.0027636260518810805 0.0 0.0017774174702757713 0.0 0.0
0.009661475138490307 -0.0036563657385690223 0.0 -8.640454748746053e-05 0.0 0.0
0.009911786983997584 -0.003714329440147686 0.0 0.0002964023529445849 0.0 0.0
0.008375226011461592 -0.002898314892470236 0.0 -0.00036533815675785235 0.0 0.0
0.010784604460230912 -0.003796160540204741 0.0 0.0004918069228459407 0.0 0.0
0.010235894421102969 -0.0034621897647373386 0.0 -0.0008057643538338778 0.0 0.0
0.008898545691318527 -0.003404997057013167 0.0 0.00047497460153254185 0.0 0.0
0.009953079638691907 -0.003729011464841528 0.0 0.0003238856261415894 0.0 0.0
0.008428154660132204 -0.0028161757850452673 0.0 0.0002470926415339737 0.0 0.0
0.00929210475723228 -0.003532675177124375 0.0 -0.00020391608409516676 0.0 0.0
0.0068268851985096544 -0.001926074299634561 0.0 0.00023995720638889367 0.0 0.0
0.009751621168682346 -0.0035100248675292087 0.0 0.0002875513825632422 0.0 0.0
0.010287992653577074 -0.0034035361415203267 0.0 0.00076046257452158 0.0 0.0
0.009296692503917726 -0.0033592438538810948 0.0 1.756892975756253e-05 0.0 0.0
0.009631664435599322 -0.0032907359605948627 0.0 0.0001914827554236199 0.0 0.0
0.008802982691450831 -0.0028845388448285082 0.0 0.00010152968950480942 0.0 0.0
0.00970735368716722 -0.00348863072723105 0.0 0.0002492295467613494 0.0 0.0
0.004631193986096998 -0.0015794162491726714 0.0 -0.002590492748469643 0.0 0.0
0.008702567973638806 -0.0018701514823795495 0.0 0.003538014261561205 0.0 0.0
0.004642467309325426 -0.0015719885429011427 0.0 -0.00259693850257468 0.0 0.0
0.003129533418760056 2.7274977622384803e-07 0.0 0.0006156598003596656 0.0 0.0
0.00288496026206509 0.0001854169631927653 0.0 0.00047340257373025465 0.0 0.0
0.00916770354388664 -0.0025161209465321215 0.0 0.0009569396216052903 0.0 0.0
0.008966046346804547 -0.0025274684924552816 0.0 0.0009334224728944727 0.0 0.0
0.010155415230668999 -0.0036895145228142924 0.0 -0.0006581441933586781 0.0 0.0
0.010026474495801203 -0.0032648694168812453 0.0 -0.00030540932829020034 0.0 0.0
0.01031921813224215 -0.0031723426009378193 0.0 0.0006265345257337892 0.0 0.0
0.00840262637303943 -0.003124305740804021 0.0 -0.0005894867451437882 0.0 0.0
0.010370275796532335 -0.003349114311873369 0.0 0.0006163626219763073 0.0 0.0
0.009057532087750128 -0.0030166370876933937 0.0 -2.5094701870979658e-05 0.0 0.0
0.009005826359998474 -0.003094984345626932 0.0 8.60157926540013e-05 0.0 0.0
0.008312701601458892 -0.0030908166530046258 0.0 -0.0006324129226547574 0.0 0.0
0.010079809435161933 -0.0038729620577511647 0.0 -0.00025575128002244384 0.0 0.0
0.010243047438896261 -0.0037457600359672833 0.0 -0.0007303178207567183 0.0 0.0
0.008788667952739285 -0.002789729879939646 0.0 -5.346935915281198e-05 0.0 0.0
0.011289383926283819 -0.0035418600979296505 0.0 -0.0003518217001270527 0.0 0.0
0.01028372093954071 -0.00350321046714083 0.0 -0.0010226263810983072 0.0 0.0
0.008548576610683884 -0.003427506278608829 0.0 -0.0008644376350353978 0.0 0.0
0.0073038853087731975 -0.002196468707887921 0.0 -0.0002613519364557367 0.0 0.0
0.00965561744994119 -0.0032995860521615582 0.0 -0.00023133906195211304 0.0 0.0
0.004823018781097853 -0.002355829201695862 0.0 -0.0023604504951789578 0.0 0.0
0.011588164262526226 -0.003419552883036797 0.0 0.00018031928335039823 0.0 0.0
0.004796862065467952 -0.0022366581395887944 0.0 -0.00233608345463842 0.0 0.0
0.008464362532010494 -0.0033966437813138257 0.0 -0.0009017533356950047 0.0 0.0
0.010080953192756604 -0.0034240180560253125 0.0 0.0005557964192782758 0.0 0.0
0.009786233932868664 -0.0032147464968413633 0.0 0.0001890789585756033 0.0 0.0
0.009683536345922544 -0.003323596145030162 0.0 0.00023956510809249585 0.0 0.0
0.010279378613971523 -0.0032948595204015515 0.0 -0.00034911917662747605 0.0 0.0
0.0052741176470273606 -0.0023903756337818782 0.0 0.002279545461868873 0.0 0.0
0.011345128676802353 -0.0035025647869259442 0.0 0.00034249237914958045 0.0 0.0
0.011355716077724566 -0.0035659568870098513 0.0 8.946218645489818e-05 0.0 0.0
0.005271553959190014 -0.0023803286312501365 0.0 0.002255472547111943 0.0 0.0
0.008206201876649862 -0.002745438991399942 0.0 0.0003368233857910216 0.0 0.0
0.008709864029731321 -0.0027738852443150636 0.0 7.980487876320451e-05 0.0 0.0
0.010273685260429764 -0.0034165151939844663 0.0 0.000839371740710924 0.0 0.0
0.00783165437086702 -0.0024068624449871444 0.0 -0.00014398668258439225 0.0 0.0
0.002113747670584629 0.0003963708404431876 0.0 0.0002785372240402815 0.0 0.0
0.010617248134291865 -0.003288474758157287 0.0 0.0005212100655670943 0.0 0.0
0.008912333850893314 -0.002396947089327696 0.0 -0.0008520274845261509 0.0 0.0
0.009016769222405538 -0.0024878371150533498 0.0 -0.000928876255891279 0.0 0.0
0.003383441491562296 -0.00010553512148440015 0.0 -0.000557488342531891 0.0 0.0
0.003306267182239484 -6.875465756256246e-05 0.0 -0.0005470913603190886 0.0 0.0
0.008799498668825513 -0.0027909236056032653 0.0 -3.9608807135176896e-05 0.0 0.0
0.007039643878452849 -0.0020668474779603476 0.0 0.0002661027508606294 0.0 0.0
0.009612928184516157 -0.0025664938202521652 0.0 -0.0012714917044127356 0.0 0.0
0.005349674524973003 -0.0012665436686147321 0.0 0.0006220989358203045 0.0 0.0
0.008075575126604085 -0.0030380371660587496 0.0 0.0007919516271568377 0.0 0.0
0.0035727013107840293 -0.000386056853122053 0.0 0.000998093262153582 0.0 0.0
0.0034670504695361822 -0.00029574325681582176 0.0 0.0008135315827342057 0.0 0.0
0.009816783543522665 -0.0026814184394592273 0.0 0.0013562430764203844 0.0 0.0
0.009637830217546184 -0.0026205320383278696 0.0 0.0012850830251204203 0.0 0.0
0.009767769866526945 -0.0029974451249416677 0.0 0.0011362165092823986 0.0 0.0
0.010276077249929487 -0.003175434151466587 0.0 0.000666951400376471 0.0 0.0
0.010271258219087144 -0.003711842018390423 0.0 0.0008021550669273397 0.0 0.0
0.00978357056878998 -0.003186515018580076 0.0 0.00017902399459632148 0.0 0.0
0.009075338696824307 -0.00287298861233786 0.0 3.3458937290924444e-05 0.0 0.0
0.010672127431366982 -0.0033272277452658875 0.0 0.00036470566360199724 0.0 0.0
0.011271570345962932 -0.003425672017295562 0.0 9.193881750625373e-05 0.0 0.0
0.010173400643804722 -0.0032454211126506207 0.0 -0.0010703575260455895 0.0 0.0
0.00936149847551346 -0.0028086978409867717 0.0 -0.0007576011148902814 0.0 0.0
0.005044506261678547 -0.0010256035566242555 0.0 -0.00038394813780377073 0.0 0.0
0.010191898203852991 -0.003903238325044005 0.0 -0.00027035545252406456 0.0 0.0
0.006694060859063969 -0.00196653379192413 0.0 -0.00046805064928732136 0.0 0.0
0.010173891984295542 -0.0032090011028160542 0.0 -0.0010118451615387279 0.0 0.0
0.007878324721316152 -0.0029588421544485726 0.0 0.0008831990203216381 0.0 0.0
0.010809688856199358 -0.003329734014154473 0.0 0.0003672543662178265 0.0 0.0
0.008776966693316006 -0.00255818287756055 0.0 -0.0007012693146580466 0.0 0.0
0.00879264976837014 -0.002610778966629207 0.0 -0.000662341370446104 0.0 0.0
0.003945298096499019 -0.00040629932401523407 0.0 -0.0003459624073808827 0.0 0.0
0.0039600896600216606 -0.0003894436529188665 0.0 -0.0003695431433365918 0.0 0.0
0.004046887104330722 -0.00041091522952953094 0.0 0.0002599701373106514 0.0 0.0
0.008655612382475357 -0.0025647906067069516 0.0 0.0005878468215969248 0.0 0.0
0.008718576686827417 -0.002570340234916266 0.0 0.0006478618098934707 0.0 0.0
0.009388789812913216 -0.0020887402969026283 0.0 -0.0005487444631507455 0.0 0.0
0.002061514960056035 0.000316031114957966 0.0 -0.0004587890218203009 0.0 0.0
0.010318634045702569 -0.0037079943334391557 0.0 0.00086081488733391 0.0 0.0
0.010255153792935614 -0.0038785088351650115 0.0 0.00036917173923257983 0.0 0.0
0.007695049244311343 -0.002629783537139383 0.0 0.0006175876858323118 0.0 0.0
0.010830505339293148 -0.0033286313235998087 0.0 -0.00023025811549069893 0.0 0.0
0.008353815707393391 -0.0033945390173905953 0.0 0.0010330005799249256 0.0 0.0
0.0034293269339893185 -0.0010238601695803325 0.0 -0.0017924937962002247 0.0 0.0
0.010300816321940888 -0.0038871669022584885 0.0 0.00039050404209017625 0.0 0.0
0.0073913082239442 -0.0023108529645793118 0.0 0.00040941859636471937 0.0 0.0
0.010292163881497066 -0.003477084662819668 0.0 0.0010363536459929686 0.0 0.0
0.009489765904905958 -0.0028418601665977524 0.0 -0.001079420955344466 0.0 0.0
0.008211621126714554 -0.0033609008014426453 0.0 0.0011041847803167663 0.0 0.0
0.010747064593714222 -0.0017136148496297758 0.0 -0.00044357410486517884 0.0 0.0
0.010879719296837332 -0.0017348427505685536 0.0 -0.0005083008702075713 0.0 0.0
0.001539562608065225 2.118675073238629e-05 0.0 -0.0006281005451446412 0.0 0.0
0.001628300265375879 0.00018397162804719395 0.0 -0.00043725842306762547 0.0 0.0
0.0017327473329119822 -4.43386458787995e-05 0.0 0.0007796187788112831 0.0 0.0
0.0018425325690278095 -7.718488071194682e-05 0.0 0.0009090296014891168 0.0 0.0
0.01052618078864308 -0.001955863020585196 0.0 0.0008869660987448001 0.0 0.0
0.010580938765011122 -0.0017767888445529604 0.0 0.0006039296545135261 0.0 0.0
0.010291376545171517 -0.003314592013655282 0.0 0.0009540783663870513 0.0 0.0
0.010209162168525753 -0.003328473283680278 0.0 -0.001214735970741858 0.0 0.0
0.007497976276670698 -0.002554164090512083 0.0 0.0007019154913324884 0.0 0.0
0.006667870854718482 -0.0020380011945651737 0.0 -0.0006901206438690119 0.0 0.0
0.010405675718342819 -0.0032769806324040654 0.0 -0.0002761325329343424 0.0 0.0
0.009379147981471323 -0.0030055573222509935 0.0 -4.5103263305284265e-05 0.0 0.0
0.010288529554471949 -0.0034692328543010896 0.0 0.0010811951065053537 0.0 0.0
0.004880589584939955 -0.0009340520963595829 0.0 -0.0004055033619567307 0.0 0.0
0.01657041433252975 -0.0032822909755196236 0.0 0.0007868859160334612 0.0 0.0
0.017588371107210246 -0.003640374780449734 0.0 0.0011964181835309143 0.0 0.0
0.0009696025597686381 -0.0030325181898279542 0.0 -0.00024969169622734327 0.0 0.0
0.0009959429074984755 -0.0030856101321576207 0.0 -0.0002546331908547077 0.0 0.0
0.0009331119627466931 -0.002809215793561687 0.0 9.22899038799846e-05 0.0 0.0
0.000887788132226442 -0.00257610955379499 0.0 0.00023801643854158387 0.0 0.0
0.017563274173572705 -0.003691862336391168 0.0 -0.0012069492506525275 0.0 0.0
0.017382861703466368 -0.0037111866715655866 0.0 -0.0010316309906287374 0.0 0.0
0.00637087662965471 -0.0018996121340144828 0.0 -0.0007331174199905978 0.0 0.0
0.01027810562075411 -0.003163851498984724 0.0 -0.000624298513149281 0.0 0.0
0.008066629433118387 -0.002278019523050285 0.0 -0.0003993017543664932 0.0 0.0
0.008067909682663195 -0.002292561880105482 0.0 -0.0003833006782959301 0.0 0.0
0.002760299810252307 0.0003338023766116101 0.0 -0.00019996361715790193 0.0 0.0
0.0027592070782385875 0.00032814153828211647 0.0 -0.00020515508819133693 0.0 0.0
0.009861022028726121 -0.0026917107816443802 0.0 -0.0013708932961723464 0.0 0.0
0.004056229026366111 -0.000693787385828881 0.0 -0.0010244193009387715 0.0 0.0
0.0036510255837334123 -0.0005094992938050574 0.0 -0.0010530339456258414 0.0 0.0
0.010710663902913215 -0.0032751655934179884 0.0 0.0004266588313187468 0.0 0.0
0.008064614148025766 -0.002498077844193274 0.0 0.00013092212778765546 0.0 0.0
0.010005889735565031 -0.003106387221708969 0.0 -6.491924582403765e-05 0.0 0.0
0.010651900231784885 -0.003265240945771098 0.0 -0.0004637981464166662 0.0 0.0
0.009655961910769504 -0.0030642880886439334 0.0 -7.014582395290989e-05 0.0 0.0
0.011183743132922964 -0.0034107297516540788 0.0 6.702622069375817e-05 0.0 0.0
0.011867065667686041 -0.0028560263827954713 0.0 -0.0006456044770636899 0.0 0.0
0.011822172197478248 -0.002539263622098003 0.0 -0.0008071079766906713 0.0 0.0
0.0024200954665553674 -0.0008993025995541232 0.0 -0.0016667816430785375 0.0 0.0
0.003266593372478356 -0.0014797223882103633 0.0 -0.0020321901396738755 0.0 0.0
0.0031210081442959946 -0.0013188252423401144 0.0 0.0019622577314355205 0.0 0.0
0.011564616469502523 -0.002618677068453424 0.0 0.0009670807434110796 0.0 0.0
0.010728189871803394 -0.003283626945193772 0.0 0.0003927471672850653 0.0 0.0
0.002720078417109317 0.0003621165544896951 0.0 0.00022181617732507347 0.0 0.0
0.007851945870162112 -0.002230998407243131 0.0 0.0003502597139727593 0.0 0.0
0.010424499035527364 -0.0035576692564313578 0.0 -0.001167605299267549 0.0 0.0
0.009975141096580382 -0.0031774330665848005 0.0 -0.00018462430779117123 0.0 0.0
0.010124509803523692 -0.0031431208963809878 0.0 -9.596449575295651e-05 0.0 0.0
0.010339700108617837 -0.003254771545788871 0.0 0.0002627415788821678 0.0 0.0
0.0047425895680700495 -0.0017724848631585314 0.0 -0.001969659428263515 0.0 0.0
0.010977697011151078 -0.0028720461227237652 0.0 -0.0012595974679049447 0.0 0.0
0.0038992459459744437 -0.0012599820816663531 0.0 -0.0018439754140704132 0.0 0.0
0.010118841891803471 -0.003175256768093759 0.0 0.0010544574586551967 0.0 0.0
0.010224438560469916 -0.0032180054425832217 0.0 -0.0001925093958998446 0.0 0.0
0.010067909670491329 -0.0031474638098877147 0.0 0.0010539411241581413 0.0 0.0
0.006297284040076581 -0.0017794918840598646 0.0 0.0005809356084371526 0.0 0.0
0.004926760649641477 -0.001146606173495614 0.0 0.0009197328863688775 0.0 0.0
0.006607334257047948 -0.0022793190617199878 0.0 0.0011666905324794739 0.0 0.0
0.009806952828675854 -0.002890254598676512 0.0 -0.0013673273814141067 0.0 0.0
0.01040134385053992 -0.0034193901992869203 0.0 0.0013163788090450699 0.0 0.0
0.006872063175843769 -0.0024370703555048638 0.0 0.0010826622663145575 0.0 0.0
0.007272280900205451 -0.0022888600650975447 0.0 0.0005029960667760091 0.0 0.0
0.01041764636307616 -0.003529481529417464 0.0 0.0011937290573560825 0.0 0.0
0.009923897625594424 -0.0029637993378026552 0.0 0.0014135051960449086 0.0 0.0
0.010239831680688073 -0.003285808896576128 0.0 0.0010227789491141768 0.0 0.0
0.004839680549277047 -0.001125876389231683 0.0 0.0010412561801346324 0.0 0.0
0.010944861700595878 -0.003352078481464913 0.0 -0.0003283430234542566 0.0 0.0
0.010003281957655243 -0.0030419019570762026 0.0 0.0014221877945397754 0.0 0.0
0.006520621481063896 -0.001997751941896979 0.0 0.0008305825593859913 0.0 0.0
0.006661026974110674 -0.0023656799084362115 0.0 -0.001251332828082892 0.0 0.0
0.010482957049000003 -0.003544655238573325 0.0 -0.0012744825033780705 0.0 0.0
0.011927812638851938 -0.0016470005041145526 0.0 -0.0003343842751027721 0.0 0.0
0.0010628770827014232 -0.00038566039757728285 0.0 -0.0006693130519341978 0.0 0.0
0.011064126745654794 -0.0033836831281240064 0.0 -0.0002564954710442902 0.0 0.0
0.010390946863683933 -0.0032688326604985935 0.0 0.0003126576655940645 0.0 0.0
0.011085995319648004 -0.003393888759425745 0.0 0.00016766821114059605 0.0 0.0
0.004998358409449955 -0.0010814350330236027 0.0 0.000554771568961217 0.0 0.0
0.009780277830031867 -0.0029837363982429914 0.0 0.0011341576184395429 0.0 0.0
0.0012651537727438197 -0.0004992794478605373 0.0 0.0007595011936803754 0.0 0.0
0.001047104385589789 -0.00010120621704714483 0.0 0.00011014083151910094 0.0 0.0
0.011495573739115021 -0.0016022247674164461 0.0 0.00023675790045011864 0.0 0.0
0.011404965150098196 -0.001558513527784489 0.0 3.355889698676334e-05 0.0 0.0
0.006107296768510717 -0.002004862370082124 0.0 -0.0012333260058938844 0.0 0.0
0.00689212237920428 -0.0019168631828429582 0.0 -0.002941494049763658 0.0 0.0
0.007232932589097824 -0.002260676578838456 0.0 0.002781019496860349 0.0 0.0
0.006858536083757251 -0.0018996726600066008 0.0 -0.0030097842167565447 0.0 0.0
0.00681695942141807 -0.0018603460632573448 0.0 0.002890180494605282 0.0 0.0
0.0028073215674796633 -8.780586185699177e-06 0.0 -0.000833468205752551 0.0 0.0
0.009225444247637427 -0.002095565008577929 0.0 -0.00017118028085404228 0.0 0.0
0.009237584542502047 -0.0020763011211961963 0.0 -1.2508207013857021e-05 0.0 0.0
0.002044590089187839 0.0004668058548354618 0.0 -7.141942264170962e-05 0.0 0.0
0.0020375843178631696 0.0004096579701496081 0.0 -0.00019365990750455493 0.0 0.0
0.0083646222085563 -0.0024174800325714937 0.0 -0.0005854379517006962 0.0 0.0
0.0032595708636879548 3.350084295544226e-05 0.0 -0.00023729957858627753 0.0 0.0
0.008201888180086245 -0.0023896542758388736 0.0 0.0004954520638076145 0.0 0.0
0.0032158582800855453 6.94845847343991e-05 0.0 -0.0002347055467133499 0.0 0.0
0.008172627200656084 -0.0023388248679238628 0.0 -0.0005233038801430085 0.0 0.0
0.010887791593262353 -0.003335417985143623 0.0 -0.0002055792714539084 0.0 0.0
0.011000615471304825 -0.003353504983620406 0.0 -0.00029207346353271775 0.0 0.0
0.0015497606126371208 -0.0025336354677622597 0.0 -0.0007498047911592971 0.0 0.0
0.003576464852826383 -0.0021081052727791143 0.0 -0.0020308157853878303 0.0 0.0
0.0024014151298195068 0.0005311089213986076 0.0 -5.9673246828991216e-05 0.0 0.0
0.0024314235686421323 0.0005555391802463552 0.0 -3.912549955316239e-05 0.0 0.0
0.007886582605087008 -0.0021936562041089333 0.0 -5.748953415089755e-05 0.0 0.0
0.008252434721459033 -0.002236863024017124 0.0 -0.00013749057070366205 0.0 0.0
0.015059790434892022 -0.003124860294684743 0.0 0.002720985318440954 0.0 0.0
0.0015199306720824366 -0.0025122280723342224 0.0 -0.00077714371385892 0.0 0.0
0.015037023174097339 -0.003081978707962525 0.0 -0.0021780137000830544 0.0 0.0
0.0014610790021983141 -0.0025376052564678405 0.0 0.0007355892183474092 0.0 0.0
0.0015478007867008277 -0.0021440112099008987 0.0 0.0009398648671232472 0.0 0.0
0.011713715230949011 -0.0027210715970003114 0.0 0.0027408976239318055 0.0 0.0
0.015236004038894654 -0.0031833632535952987 0.0 -0.002597633208228175 0.0 0.0
0.0033111422652347846 -0.0020375053136108922 0.0 -0.0018988783718789197 0.0 0.0
0.00294202579091764 -0.0006993339437499506 0.0 0.0015814849189918036 0.0 0.0
0.015139959445397031 -0.0031012520100368608 0.0 0.0025147601274397467 0.0 0.0
0.010707534271422351 -0.002384030134153166 0.0 0.0012428359727579713 0.0 0.0
0.0035971032161138143 -0.0010626836381481186 0.0 0.001789902088499558 0.0 0.0
0.010803756924120696 -0.0026742376174584957 0.0 0.0013310849636304705 0.0 0.0
0.003386071743385324 -6.740719089496042e-05 0.0 0.0003532430949224015 0.0 0.0
0.0050242417275187185 -0.0025431161231076974 0.0 0.002367841239547073 0.0 0.0
0.009225488155900035 -0.0032916861182441283 0.0 -0.001947140994414496 0.0 0.0
0.011256508650632397 -0.0033020109565648024 0.0 -0.001310636547521729 0.0 0.0
0.009145900509131475 -0.0032628254821799414 0.0 -0.0019797946390000677 0.0 0.0
0.011289877548299914 -0.003321111853401821 0.0 0.001300500618550143 0.0 0.0
0.010770153179738692 -0.003300954292022872 0.0 -0.0013116756970485426 0.0 0.0
0.011257361776390222 -0.003279631029301273 0.0 -0.0014224854242329823 0.0 0.0
0.005132784884437087 -0.0017502825844400698 0.0 -0.001778050718266986 0.0 0.0
0.004748601650518468 -0.00239196131400897 0.0 0.0024001755379047724 0.0 0.0
0.010654557983125324 -0.0033032701244596627 0.0 0.00037435906623923664 0.0 0.0
0.008248805204652553 -0.003287511301247038 0.0 0.0023279590513830585 0.0 0.0
0.009259292242024226 -0.003263246549322105 0.0 0.002018530387723685 0.0 0.0
0.003973267561301002 -0.0008843965197543699 0.0 0.0014078091031326943 0.0 0.0
0.00955121191805547 -0.0030049790465122624 0.0 2.158887858631092e-05 0.0 0.0
0.0022339875524114696 0.00019134968937719753 0.0 0.0006555630538640798 0.0 0.0
0.010935211372609032 -0.0024880523271957654 0.0 -0.00123145813829751 0.0 0.0
0.007099949552575972 -0.002896275566496823 0.0 0.002404490865602517 0.0 0.0
0.0024862656487477917 -0.0007054447065256007 0.0 0.0015637425415285112 0.0 0.0
0.009819387648813157 -0.002106216925677383 0.0 0.0007906650261483685 0.0 0.0
0.005026191514639938 -0.0012861700406623217 0.0 -0.0011247676763662213 0.0 0.0
0.01116036160415416 -0.0022067395919386943 0.0 0.000988363859944982 0.0 0.0
0.010091991562028639 -0.003049737597011897 0.0 -0.001461342548519089 0.0 0.0
0.011264051904428616 -0.001984545228659181 0.0 0.0007940006248377391 0.0 0.0
0.00856598598693098 -0.0026813367708953297 0.0 4.2358414721293375e-05 0.0 0.0
0.010337811030050055 -0.002025486980119614 0.0 -0.0009826512673832 0.0 0.0
0.002151670339522189 -6.259608160550683e-05 0.0 -0.001006033093318445 0.0 0.0
0.0019751795684497067 -0.000606311124019006 0.0 0.0014387271515400725 0.0 0.0
0.01080028930033976 -0.0032759604349311207 0.0 3.5279495628724706e-05 0.0 0.0
0.0021389838649830974 -6.9761474122996545e-06 0.0 -0.0009198535607826033 0.0 0.0
0.0020628752090682263 0.00029334684395143716 0.0 0.0004649245753882215 0.0 0.0
0.002441020093215796 0.0005090739106192002 0.0 0.00014675441936445015 0.0 0.0
0.009636437796665835 -0.001975823562931819 0.0 0.0005411691720817829 0.0 0.0
0.011520922916855034 -0.00198294344042217 0.0 -0.0007230213395829205 0.0 0.0
0.009193509081051397 -0.002753167089245963 0.0 -0.0006350143412715047 0.0 0.0
0.010966423521837167 -0.003431543497244552 0.0 -0.0010730751038524342 0.0 0.0
0.00497689924445777 -0.0018833249198871934 0.0 0.001993705462467589 0.0 0.0
0.010695578652729892 -0.0033206777454124264 0.0 -0.0004555742158279326 0.0 0.0
0.0021393593537925044 -0.0005443379016717019 0.0 -0.0013645661131137887 0.0 0.0
0.011214236874865632 -0.0020877218485236986 0.0 -0.0009066030847239236 0.0 0.0
0.010227731716592102 -0.0031254876567219595 0.0 -2.2566966798003756e-05 0.0 0.0
0.010966575846219904 -0.0032651623915438796 0.0 0.0012027275156468683 0.0 0.0
0.010339855783111708 -0.002683948134501121 0.0 0.0014608959561300068 0.0 0.0
0.002559226765452341 0.00046702406357958796 0.0 0.00013193154614329523 0.0 0.0
0.007933266358079014 -0.0022414069095781516 0.0 0.0002713418314986007 0.0 0.0
0.009278315150201562 -0.0027729183094771493 0.0 0.0006967291084366348 0.0 0.0
0.010648714572989638 -0.003295697569348095 0.0 -0.00047850721485468914 0.0 0.0
0.010053303240576905 -0.003165199038847962 0.0 0.0001410731131860364 0.0 0.0
0.009968082597010736 -0.0033595503512777536 0.0 0.001683058591258353 0.0 0.0
0.0035829022676951484 -0.001464307081808544 0.0 0.0020333990060169976 0.0 0.0
0.009654920172161893 -0.002245177134228558 0.0 -0.0010231547812678747 0.0 0.0
0.0025333484342999406 8.002591183887541e-05 0.0 -0.0007662106980558031 0.0 0.0
0.010578549179272602 -0.0020457493685734534 0.0 -0.0009858870239390126 0.0 0.0
0.006686580160417519 -0.0028952825213188617 0.0 -0.0023843643494997954 0.0 0.0
0.006919904458334284 -0.002983923257703345 0.0 -0.0023508496032657623 0.0 0.0
0.011531865613811563 -0.0028263660098167176 0.0 0.0008157881984538892 0.0 0.0
0.009244240768238913 -0.0027465614332384 0.0 0.0006811641218375675 0.0 0.0
0.004879456559195388 -0.000916377347159473 0.0 0.0003109623812076656 0.0 0.0
0.00680002767235477 -0.0019476214678946164 0.0 -0.0002167320524367608 0.0 0.0
0.004701589128232319 -0.0016393695577898836 0.0 0.001892027700792657 0.0 0.0
0.011282976198105267 -0.0030208559277971232 0.0 -0.0009927793215355816 0.0 0.0
0.007183850889436463 -0.0021875728803233503 0.0 -0.000352536673679925 0.0 0.0
0.007963399526725413 -0.002485299597594343 0.0 -0.00014322571591027813 0.0 0.0
0.010817223968838406 -0.0029255617629637062 0.0 0.001366622693911446 0.0 0.0
0.010963234847661098 -0.003325337345528699 0.0 0.0003159478013493207 0.0 0.0
0.002587897828816699 0.0002327213120389037 0.0 0.0005515422427350637 0.0 0.0
0.009191893187590222 -0.002263562761907187 0.0 0.0008718790867238447 0.0 0.0
0.01015661745867054 -0.001746065059615766 0.0 -4.466837399394278e-05 0.0 0.0
0.010179370087222016 -0.00167200747684356 0.0 0.0002108801358347827 0.0 0.0
0.001649811875383117 0.00024894254456908215 0.0 2.5390420355407027e-05 0.0 0.0
0.001728148926779813 0.0003062825810544607 0.0 9.440998455864929e-05 0.0 0.0
0.008723497693095966 -0.00272809675203053 0.0 5.698551148041313e-05 0.0 0.0
0.008571428970622814 -0.0023499695392723372 0.0 0.0006519576017338266 0.0 0.0
0.010996148374562646 -0.0033604369595018335 0.0 0.0002961349836390801 0.0 0.0
0.009198614755592747 -0.0021737091429620023 0.0 0.0005699516866739965 0.0 0.0
0.008648325335952535 -0.0023476796759140744 0.0 0.0005650709439598937 0.0 0.0
0.0024618230635953774 0.0002825026698748479 0.0 0.00047850707228136615 0.0 0.0
0.0023293844113545757 0.0005004167961319662 0.0 0.00010592061446150211 0.0 0.0
0.002728380286054003 0.0003163255818348719 0.0 0.0003439005168774803 0.0 0.0
0.008628817958444604 -0.0022384347139367705 0.0 0.0001269020845889669 0.0 0.0
0.002248936030814802 0.0004853652621760869 0.0 0.00018415152719608937 0.0 0.0
0.008617041075643414 -0.002286660247885987 0.0 0.00031381540062216045 0.0 0.0
0.011226042212291601 -0.003260205333300745 0.0 0.0008936549223096291 0.0 0.0
0.011338566025935684 -0.0034282687378337216 0.0 -4.432198367533026e-05 0.0 0.0
0.010749574012154837 -0.003276956106297406 0.0 6.29754275142614e-05 0.0 0.0
0.0032507446171534957 4.2634863432378443e-05 0.0 0.00029806530699850184 0.0 0.0
0.008414622679936923 -0.0024411996973202872 0.0 0.0005880809943769934 0.0 0.0
0.005724452966611536 -0.0013434847605519023 0.0 0.00029884772619125614 0.0 0.0
0.010275170433314872 -0.0033723857456829046 0.0 -0.0010569906360769392 0.0 0.0
0.004477806363694296 -0.0006814616250951117 0.0 0.0003016358109009073 0.0 0.0
0.0024910950312866595 -0.00043178277819508955 0.0 -0.0014006887402212313 0.0 0.0
0.011146628237242912 -0.0033896596938009743 0.0 -0.00022899316717210475 0.0 0.0
0.00989348047667036 -0.0030140489527506423 0.0 -0.0007152589480009979 0.0 0.0
0.00919114369995749 -0.0018735662298223403 0.0 -0.0033988149055673347 0.0 0.0
0.00939187048715104 -0.0022503574189598062 0.0 -0.0008418921880597649 0.0 0.0
0.004250909326274976 -0.0015946649488552194 0.0 0.002439122344934809 0.0 0.0
0.009258067400695447 -0.0018584987435873628 0.0 0.0034127860984440855 0.0 0.0
0.006037305370492197 -0.0016350595808227683 0.0 0.0005851797663109709 0.0 0.0
0.008907817650400085 -0.0028816485461417283 0.0 -4.6213667084536074e-05 0.0 0.0
0.0014957106670385868 -0.00028299097989707185 0.0 -0.0008526613112814366 0.0 0.0
0.01223524765144788 -0.0025041695425877756 0.0 -0.003275749328817747 0.0 0.0
0.01032196512380311 -0.0031739623722114923 0.0 -0.0006081513136051073 0.0 0.0
0.012322798039615335 -0.002547924115684573 0.0 -0.0032626230353298784 0.0 0.0
0.009574629979215127 -0.00233394807562825 0.0 0.0010725870843154388 0.0 0.0
0.0027813951898329504 4.119062343371401e-05 0.0 0.0008392577153277793 0.0 0.0
0.01207443380221201 -0.0018189238911366411 0.0 0.00047882613577054196 0.0 0.0
0.009209442730913299 -0.0018449096550086032 0.0 -0.0034651807129523916 0.0 0.0
0.011446279953735308 -0.003454817830228926 0.0 2.9433504223310878e-05 0.0 0.0
0.005820970910380855 -0.0027798676978573944 0.0 -0.002528673197574599 0.0 0.0
0.012268131566838973 -0.002552238937165953 0.0 0.0031896237867260983 0.0 0.0
0.003917145719883106 -0.0006860990783609632 0.0 0.0011622060654226756 0.0 0.0
0.009957670229737035 -0.0019429267721293513 0.0 -0.0007360368651861577 0.0 0.0
0.002513131410151748 -0.0019107747124033605 0.0 0.0015293837304418347 0.0 0.0
0.005201506260948103 -0.0014248515645621305 0.0 -0.0010748399820747232 0.0 0.0
0.007558360482560074 -0.0024444092690348116 0.0 -0.00048597200917653875 0.0 0.0
0.007024971279681814 -0.0020197381722235255 0.0 -0.00019963866783613375 0.0 0.0
0.013800294945689311 -0.0020041600751147977 0.0 -4.9901252401518016e-05 0.0 0.0
0.000670139999756608 -0.0008748220211911048 0.0 0.0006420232333988544 0.0 0.0
0.011207473639322254 -0.003411550195781263 0.0 0.00018861170455236717 0.0 0.0
0.00765894724212199 -0.0021958332468044713 0.0 9.515099510121324e-05 0.0 0.0
0.001211792528417784 1.670095811238977e-05 0.0 4.771375277906462e-05 0.0 0.0
0.007838066515650414 -0.0024117256704069084 0.0 0.00014818161685118314 0.0 0.0
0.010690435476847057 -0.0035917819512563355 0.0 -0.001146793309912268 0.0 0.0
0.00626857197990307 -0.0023873377835954743 0.0 -0.0016194756950065523 0.0 0.0
0.009163094152644425 -0.0021369373853018067 0.0 0.00041345861976583404 0.0 0.0
0.005265961294397553 -0.0020540998824322564 0.0 0.0024101845578486268 0.0 0.0
0.012534050948833262 -0.001794906106878711 0.0 -0.00020002491142019087 0.0 0.0
0.011495685483775147 -0.0034629136347766936 0.0 -1.856761996188428e-05 0.0 0.0
0.01010795444703747 -0.0028387658116728006 0.0 -0.0014899820369463853 0.0 0.0
0.001241988426753457 -0.0008387736166495691 0.0 0.0009255730763179435 0.0 0.0
0.002658280077970578 -0.0020334558457820295 0.0 0.00154720851721154 0.0 0.0
0.01403463828828777 -0.0023312388576722065 0.0 -0.00014745381148806736 0.0 0.0
0.0029170387002964955 2.307983490949752e-05 0.0 -0.0007286315003339151 0.0 0.0
0.006932890613947312 -0.0030487525647589064 0.0 0.0020256125728058873 0.0 0.0
0.002169149463877321 0.0005070131377049644 0.0 -0.00013074989423420352 0.0 0.0
0.011446214229958944 -0.003452545744129857 0.0 3.6926039736807e-05 0.0 0.0
0.010123163243195074 -0.003124295159267024 0.0 4.100380890502327e-05 0.0 0.0
0.011605749527363547 -0.0034904007035167096 0.0 -9.834613795614122e-06 0.0 0.0
SCALARS VMStress float 1
LOOKUP_TABLE default
1174.9845821917852
1184.6048225931575
1170.6757599779896
1174.677218619822
2146.484605398993
2129.6330000698613
1179.035172828469
1169.9655431669842
1149.2467550831543
1138.7906963711494
1111.6931851311795
1064.6866203093316
1013.1342597831518
946.6371177792118
876.2783080919951
796.5829659199611
751.8352458494338
727.7772639865298
720.7866481979117
747.5337367233043
807.5611039026396
863.8100180069874
943.5675274022224
1006.8713593006081
1070.009380060789
1114.148243312755
1143.2809863906577
1155.7652601156574
1162.8848874919877
1177.2588433715928
1110.912353586599
1049.240787107704
982.7855545832269
915.6896514221637
836.5317511482605
739.0319209167104
635.0790269162725
542.2666575133517
445.4371436175953
352.48339075739244
287.8948412361889
255.95614818908547
256.40334460482853
298.48732024794134
370.0454923942964
432.91041520760507
509.17130771337787
626.949867519874
731.5555656380167
821.7192439905391
914.2750413778678
1001.6195719638573
1043.7175902141032
1110.5455242966748
1183.671438031271
1168.4565121772816
1151.7534585074138
1140.4864322271105
1108.7587778248087
1065.8216855116616
1011.0598605963223
935.0879146502509
872.9112923225377
808.1805129352144
756.0684145627347
733.7978991887447
711.9105077889599
743.6356762816142
801.6073871549894
871.4839919823867
944.1202037059905
1008.2376101857454
1072.19766277967
1112.0682775134576
1128.3817434722453
1156.4705693471774
1166.4163462999284
1177.624328458935
1116.316256366676
1053.9943044106942
984.9616679576395
912.9257279820421
833.7798939674727
745.6541848938056
645.069812408181
536.7417218003121
435.313719481701
353.2526554337125
288.92339758303507
257.43934348321534
252.84795227192578
282.7832755270828
349.10896441222235
441.3734084172067
535.516067276615
644.4422967965199
746.2463658062852
837.1523342458626
908.4111929693657
985.9230345286571
1055.419171960184
1117.2645746169765
1994.5445198543555
1662.9145742454382
1168.9843950003867
766.4134866580591
372.9944516610266
319.4389479029258
427.87897219532505
492.20365973765223
446.34579625359174
322.1349917007647
416.28854007703427
746.6114157354857
1195.4981095891358
1644.9152379020736
2014.7393376427237
1968.518716245233
1658.5555666416474
1193.5712136119262
729.1606372084301
364.5328343838683
316.2450369758199
423.32680380242346
505.37447437332105
447.68469465832425
329.11501127532057
422.86723974530855
749.0271637150214
1193.9651268415694
1657.524455645735
2006.7986637683605
1072.2290051002994
1067.8153541875422
755.6539713877717
783.2724430671396
749.868395884582
765.8627858663466
1072.7346787798695
1077.1083418975065
1008.9925684706614
1014.6991206185857
519.9286041915105
575.9108160063922
584.8070547810958
1028.515903722156
1059.3779943617621
1073.135903126991
502.0573641964623
479.1663871490018
559.3562103218071
493.8869892278392
1052.516121080094
1048.6617534146762
965.9914621201161
201.42819047864822
1013.266563346344
954.7905014856935
1020.8943649166724
981.4033278008513
1132.929864972338
1131.375782999534
919.5348910197494
1021.8545218742831
884.07658667656
1003.0765856181882
927.2459830329686
466.9538506197965
1045.305012709143
1046.5542064673257
761.2867289980695
1040.2069008641304
1083.6776390351906
1074.5249723324744
798.6821746760763
779.6104487293555
778.7627664230619
789.994916897205
1073.4156489784536
1070.974166186891
1028.1201342630204
862.1027162349169
965.7090445394774
956.3889723414177
978.4389090774207
982.5480544258586
949.6441340025193
1031.3164189522442
936.9539996449206
1055.9243372644607
1047.4802970833612
804.4383580648572
844.665914023945
1370.1571510574108
119.88513377511221
111.27628587756284
962.7991577592984
928.1596237897544
431.825773565043
445.4449115629552
424.9753326116345
412.6665428095601
948.2429166716946
937.7137626941361
260.6975567831564
871.958077477259
879.6522616357821
250.95982371847614
252.40358605866058
947.497068966531
1057.1989255349351
1071.2301222050107
970.8635346848172
932.6228165232346
1102.9163856712084
1068.344001811197
1048.9167775435278
1045.8184024638915
662.2466146704061
633.4318957491258
1046.8496240408756
1033.765833260324
1016.8741151807718
1079.9623510792132
657.4630086837199
646.2991871277718
1081.5053496816315
1093.231323521163
1070.5718856310282
1087.1864227929404
603.4582384548568
646.40528242
1133.6227952731492
1046.5389106661942
984.9323885749619
603.6373661948825
599.7383490445304
587.9317202921968
988.4832428338962
986.2986860225751
1072.1840119230017
1072.0006618933703
1069.2620324792515
1027.849818727222
1039.4874050721412
1018.1405895468799
348.81637610421956
361.17871022143686
1049.1306615004419
592.6821507543817
602.1445833955015
1051.0351876222494
1131.3408969983823
314.3439282732079
326.1859388956121
1012.2838577066786
1006.9419808742014
962.1770570977288
1020.4530289922076
427.3186946295258
470.0121730726704
1222.0747837104684
1229.731734687857
1237.4781495182124
1220.101219923932
406.6598402972157
399.2080106922225
1037.3817696545511
777.9203236570124
1083.3599618054927
793.1520187911776
995.9759913661061
915.2431070119767
915.3454494624201
1016.326945781415
862.036791084691
1050.0487569995837
1022.191200325799
1017.8655631341722
1025.678295823293
904.4618877502488
939.4750771102506
975.4117311044573
942.4559934016985
1022.8508095306601
875.5602630619173
260.59430572021614
342.4204874073735
1282.3394565188014
1228.976582498573
1290.2610857269883
1308.0258738151206
235.20742369635275
232.56028067065037
932.5414755963415
946.0481027283731
673.6302732132032
746.1182814288769
1119.6403620991523
621.8287671289698
1060.0281591948824
962.7311521147694
998.2895422046022
839.3959344937202
1053.6062723483847
914.1342555785727
751.9554408626717
925.3031321622844
833.3150126820642
1086.9321587630436
1016.0940200834126
925.1010612355977
748.2682186172351
1090.3351081183082
1047.1504705708126
942.6557996055286
1043.5255586104854
728.0848358979525
985.515714998185
1010.6953655040367
848.19451878024
1094.05404791502
1038.4283427117523
910.9180964540327
1015.0259994979397
850.2181938022734
948.6288179047766
680.8575172099462
990.3153096724449
1041.1506970665805
943.7663587372987
973.0690907675588
886.059822472781
985.492483639498
581.2204253504241
977.9845093743373
582.4147433695504
316.4858453175119
290.5468183619391
920.7656722517941
901.7868614853589
1035.2075672785159
1009.4111230356988
1036.9958117442566
859.0548896275332
1045.734624222536
912.7838185434222
910.0671968447201
850.4846327729139
1030.3789322736015
1045.6010716331696
882.3813891798468
1133.4118282725826
1047.2248177937379
885.1983441054216
731.3346994714102
975.6577959105464
598.8923658920967
1157.8279024018354
591.4898001729765
877.381993071592
1020.2828037287677
985.432175817403
978.8838633103553
1033.818504332261
628.7854661638434
1137.643868119153
1139.234597673531
626.7348149701148
828.509254636396
874.7219552611325
1041.2306524771534
784.6797715485924
215.8995000029425
1066.3042204763083
892.7891710139397
905.6374476464727
338.16976187577984
330.6673829989726
883.4029428025328
703.8809135286109
969.707459033609
534.9727030464293
829.9028686644167
372.8844538859121
354.81659283291754
992.790059157603
973.3549945747294
989.9165429171815
1033.5080761024751
1048.172756263422
984.4632438479383
910.9624209602241
1071.1424267735738
1128.2028266520222
1031.6605250253801
941.5813211157478
498.5395236253581
1041.5149983294264
671.4040391207857
1029.8075538562143
811.4954998509953
1084.0136112333198
881.0475858330375
883.0952534296396
387.3790468590127
389.140449319081
396.0297305646309
868.4047473273234
875.1414612655813
928.360801635067
214.70402184933985
1053.209569766912
1047.0850937677194
781.5112734941024
1085.257409880838
870.0321947784224
417.80945130476306
1051.6259259230449
743.2427141393083
1047.5767128307075
959.7022839022598
857.9192546211957
1053.041883641658
1066.512784423662
172.2287836743455
171.4892129542448
198.36557587992968
216.61920885771312
1039.297032764731
1039.072480527965
1042.13822848803
1039.7412321388636
762.806126736658
673.925937483458
1044.7328458394009
942.3264566936521
1047.8514985290708
482.10855286367985
1631.2503312550052
1737.2286352603173
306.43158165798974
312.0270930440845
283.304830627549
262.2914941263479
1735.660732304689
1716.7434941857064
644.2797893323302
1032.9608461215528
805.4153005632166
805.6940724165182
275.10673480551486
274.9664184998457
997.4372992406942
420.05106306067256
383.2187984355545
1073.950023491303
808.413854504876
1002.9750390871648
1068.5301531460802
969.4536171711162
1119.6445616602189
1176.2963919451265
1168.9880921647366
331.68473673717403
435.4015614080905
415.21299925963217
1147.895969005886
1075.5428774061995
272.06049131369184
783.9365108686849
1064.1367741427177
1002.0341603796429
1014.9060119868219
1038.0220506372432
549.7693611306223
1102.101663534452
462.62764112102934
1024.7157840760756
1026.1761841387556
1019.3746567982434
632.1607233200765
501.61379305339204
685.7133889353847
996.3646101779063
1061.6792335917903
711.1582438159799
732.7260601879972
1063.313798303632
1009.8135123823868
1037.8695096776094
497.54379806946713
1096.886469207792
1019.0074047651
662.2983066261112
695.3650579949741
1071.3091140402369
1165.7771909204123
140.0143772431511
1108.3729915455501
1043.3571143617526
1110.3396788597252
497.7763625064735
990.7221749296078
164.46445275806747
103.1121230921443
1123.254776350996
1113.7630284043778
636.3271904232928
790.0983221976994
814.4996453289265
791.6313465690254
779.602383724051
295.77686410439696
910.3098465805748
910.8901501180364
208.12814074956339
207.323045652586
838.1256139555916
320.17968130939454
821.3151827352026
316.19625175205283
817.8283596689414
1090.6612193818162
1101.9324500639552
298.18857251866484
477.09339547466794
243.85054357228347
247.3133976003733
785.0797090049654
820.5131933134443
1525.0236070380795
296.4743336967872
1506.7689608332394
294.0700367837446
279.2492498970729
1212.6980336618788
1538.3709781849882
446.36554594106985
359.03151823751125
1525.8986412759562
1068.4077242357027
431.28335564116384
1083.88570603665
333.66880675549396
620.5392818837411
970.7054153728209
1137.5097033427453
964.1009237538198
1140.7935387871605
1092.6387648717741
1139.5015792478296
569.8649158013858
597.3905445406846
1069.0179873522898
901.3362920348989
975.5404902979647
434.2594895052704
958.2860983111254
236.97445922389514
1091.1492334015934
797.6471993652444
323.7227128695855
972.5158761449793
520.2446711283061
1104.2254004135482
1028.2890807308925
1108.8203708536457
859.1341668308833
1023.7179691543155
248.9810682374443
275.4614556683802
1080.832974726582
242.17391946638546
214.61240107946017
247.68856985695388
950.2815013266744
1132.5604203813125
923.128945468208
1109.0910309595338
572.9269242857864
1073.7894100114142
279.2787290102812
1106.7078146056142
1024.04848076094
1107.7663190107965
1043.8774589453703
257.7991515366824
791.2174605968836
932.2328971893627
1069.0391453361412
1008.8846747695247
1030.2351374062334
457.54694201966487
962.8935669711213
268.28654197756583
1046.9016318536915
762.6972687441906
782.582915340863
1146.0286353229665
928.2875229859678
480.54626493474933
678.6439141621848
538.3547002074259
1128.6103097115224
720.636535032934
798.7365470495031
1090.4379090382804
1097.935484661829
265.72070616122784
916.9359752629326
994.821887036517
996.6806949019001
164.66542050620146
173.91715772863057
874.8871505596893
856.9499612074693
1101.69086756273
911.8646903446411
863.0190751745296
252.12505761883412
236.4325899635687
274.25553275293834
856.0010613719024
229.2367393689763
856.6372575125786
1126.5955194933322
1134.4616070975105
1076.1462281171496
320.2967697257196
843.3190695694069
566.7498045540129
1043.7986811886383
439.6297650083705
307.2090197689744
1116.0921441309386
994.9432012707209
1010.7331058495087
935.0441640641001
541.5280373758635
1017.1193959824798
605.1372777485169
895.6245347976354
185.60667705260403
1279.7437135009136
1037.0933444226107
1287.5687468144883
957.7381050704792
294.0645422613614
1182.0749194581758
1015.9569365391667
1145.0965279195923
699.2713453060834
1279.4421887235956
413.8583888703769
982.7827535801283
360.8676611142351
536.7864578989614
762.6639527999017
701.1229870381279
1348.5109261146447
134.62386233538322
1122.1222934875116
763.8229675412592
118.6539263481134
785.4012096267946
1088.8922401090163
675.2186754856115
906.4111497562835
627.3330666403086
1224.8688601383158
1149.8842679880586
1026.0952737512216
187.7525159993406
377.060234598766
1373.9934060735618
301.15616475539315
769.3942188793604
221.59420887779098
1145.0439544904182
1014.2847971125987
1160.7666638651565
VECTORS PrincipalStress float
1174.5253368827614 -0.9179527573552791 0.0
1181.6520976612599 -5.883533613396466 0.0
1171.1118079399894 0.8725837207416072 0.0
1174.059081756831 -1.235299438113622 0.0
2232.995835153203 184.99732103561809 0.0
2206.9927279425806 164.22854322313813 0.0
1177.8043256596168 -2.457851552107237 0.0
1168.4287234458216 -3.0676070689911454 0.0
1147.6686443318374 -3.149747096224882 0.0
1136.4994787889877 -4.56868836054671 0.0
1108.887252496234 -5.590777878649272 0.0
1061.9628122536215 -5.426869823972873 0.0
1011.1306626212354 -3.995377218514319 0.0
945.3408603817459 -2.5872115434383787 0.0
876.3667837856858 0.17697819503035728 0.0
798.4579732884221 3.7633493722085336 0.0
756.5111550438561 9.4407308547465 0.0
730.8099340301594 6.103733761080749 0.0
724.211619862423 6.899476284746118 0.0
751.0438054942845 7.070292340831099 0.0
809.4610694707721 3.8134369522219704 0.0
864.3526729048966 1.0863344333192042 0.0
943.9456648253625 0.7567300127348984 0.0
1004.7945735085667 -4.140799637704961 0.0
1067.0043162567767 -5.98501987969969 0.0
1111.075318315531 -6.120631842581031 0.0
1141.4030584757247 -3.746647205488872 0.0
1153.6125784942067 -4.293401464545278 0.0
1162.0720238507045 -1.6240262572047417 0.0
1176.8126164167156 -0.8919470736796301 0.0
1110.4448337826552 -0.9344500943957846 0.0
1045.687790711887 -7.070260519764236 0.0
976.8677113903234 -11.730669366077734 0.0
908.4767191598618 -14.25932000882 0.0
831.4727194523862 -10.027904020795251 0.0
740.9625467216678 3.8765019780163272 0.0
646.0027376101822 22.442360157817085 0.0
562.9415958155523 44.035127406938955 0.0
478.5558598638436 76.02210107216786 0.0
394.42868259452354 110.24278548796252 0.0
329.3012979874326 125.23071788958418 0.0
295.4244823740024 140.1735936735105 0.0
295.95723390129996 140.93149692464704 0.0
340.74352767030405 125.4822704999111 0.0
408.9608156053516 97.25655357288483 0.0
467.07844343122065 79.3000458988872 0.0
533.9197426111547 53.7634784278362 0.0
638.7103391876057 24.223057914426352 0.0
732.5800659847528 2.0533231355990775 0.0
816.8793477726902 -9.595748453952794 0.0
907.7362463548823 -12.940222481313251 0.0
995.3609267604709 -12.40211429710813 0.0
1041.1634963635433 -5.089573560594413 0.0
1110.9505656421943 0.8105263601851547 0.0
1180.8759519170926 -5.571304882735427 0.0
1166.887125309661 -3.13247541646198 0.0
1150.066115178493 -3.367303080139722 0.0
1138.9040794555813 -3.1581465627599905 0.0
1106.3515627392069 -4.7988525717160195 0.0
1063.3237363764424 -4.978457403092116 0.0
1009.1322235073897 -3.8443113478863404 0.0
934.7435928838293 -0.6882635898378608 0.0
874.0836905358825 2.349539471551915 0.0
809.5119430692523 2.669473366123875 0.0
758.3363224706495 4.556410197432693 0.0
736.8330362267276 6.108411113959577 0.0
716.4246647127336 9.115861529504608 0.0
746.5678828054984 5.8995156151274415 0.0
803.7764830429744 4.355944567202428 0.0
872.176663231598 1.3869980921907525 0.0
943.7429644372712 -0.7540268815450928 0.0
1006.3180842779607 -3.8281505339853514 0.0
1069.2671429318284 -5.8372055932999745 0.0
1109.389239769897 -5.3388522074136775 0.0
1126.9531444417253 -2.851792490057509 0.0
1155.1832057751212 -2.5704422235625684 0.0
1164.732824653349 -3.3597850530803814 0.0
1175.8996033095837 -3.4419054062987953 0.0
1115.5820977682563 -1.4668715629073485 0.0
1051.845995779565 -4.283560540094334 0.0
979.0454623420814 -11.72767964817287 0.0
906.0073047413623 -13.683027992076374 0.0
829.4366979933554 -8.619559299779205 0.0
748.7721199350858 6.27548180442664 0.0
654.7803128849466 19.880613055533264 0.0
558.6772705805729 46.95650081423728 0.0
468.522156791191 76.58014798297062 0.0
394.3838675838238 107.00622365339898 0.0
329.93087932227013 122.11755963014863 0.0
297.1055289594407 140.11214427933606 0.0
291.9549444029173 144.02304207399018 0.0
324.3460567254134 129.5217262013497 0.0
388.2166153406292 100.07127393852468 0.0
476.2969422593103 81.09305812632758 0.0
558.2613242171165 48.835897244209455 0.0
655.2481563773209 22.184617618377672 0.0
746.3262471365078 0.15978832118123795 0.0
832.4115893608158 -9.402288133636782 0.0
903.6253288022065 -9.497257855457745 0.0
981.0745157535357 -9.626541211510657 0.0
1051.3338968161227 -8.123653415528812 0.0
1116.4452943381762 -1.6367621978173257 0.0
2065.9704527159256 151.49080887160926 0.0
1702.0265530716217 81.19895430139216 0.0
1188.707065503123 40.49782042962863 0.0
759.866779564527 -12.929805894092553 0.0
306.8602859066872 -108.29955476905775 0.0
80.77938180450803 -271.29486123947356 0.0
6.806605409235715 -424.4350633158104 0.0
-9.33234025501082 -496.80347132317996 0.0
7.634789848065054 -442.4794259488421 0.0
94.34626233362502 -264.4276389955987 0.0
347.96315283163284 -113.22458960969021 0.0
738.3100818531658 -16.33461312657718 0.0
1227.4980931073314 66.80110241766664 0.0
1696.2875714489312 108.07453484766373 0.0
2082.348010231327 142.81735441435796 0.0
2046.018592292106 165.4418782691535 0.0
1707.3276231576756 102.27785347204166 0.0
1224.2575881240386 63.94336886030885 0.0
722.247915588166 -13.634225806510102 0.0
283.022451567376 -128.31817638651847 0.0
81.56277439352698 -267.47428393802795 0.0
6.371316129178979 -420.1051846968174 0.0
-12.517959254641141 -511.51716597385064 0.0
8.13279581828499 -443.5628896217904 0.0
99.19227963466557 -268.1102645758005 0.0
353.3864167075638 -115.1204870320881 0.0
739.9884294995078 -17.761552632381168 0.0
1224.829684731462 64.33008006680035 0.0
1701.6541255985444 92.09967520292263 0.0
2070.694085822861 134.5638397453479 0.0
1033.2127947330835 -74.1799684022243 0.0
1029.344810958749 -73.17670420174919 0.0
715.8120909513511 -74.20818977931124 0.0
739.668892537831 -80.92398917878575 0.0
701.0752316343676 -89.54504782469353 0.0
718.1998949647883 -87.76411454249796 0.0
1035.3061611245466 -71.29985101215675 0.0
1042.7446960088178 -65.71793840331621 0.0
999.1033518361774 -19.49588692303388 0.0
1004.5694707310929 -19.964667927956327 0.0
535.3339193250938 32.318389300290534 0.0
585.5763243159273 19.84394753960145 0.0
588.373664412707 7.199699061134035 0.0
1014.1399774097924 -28.172987777610302 0.0
1062.954248790513 7.189098905834655 0.0
1077.1920828760267 8.158883028001318 0.0
490.1972354356299 -22.934215573833047 0.0
469.0857496380986 -19.56211566377139 0.0
545.0665684089965 -27.560362892044502 0.0
488.7560386488734 -10.106772248135428 0.0
1050.1873662633257 -4.642153808940877 0.0
1050.9069629399855 4.504933619118752 0.0
1018.0162213702367 114.20216511279187 0.0
227.96971488974515 74.03898482555402 0.0
996.377390620361 -32.97342682498372 0.0
938.651231710889 -31.499004778391 0.0
1005.4880592541942 -30.14491409527115 0.0
966.8069825248767 -28.568857331157442 0.0
1131.4171760987601 -3.019342658942085 0.0
1130.0452829177734 -2.6563226346193347 0.0
890.0005869568208 -56.466188168257894 0.0
991.5992987802022 -58.036776704172986 0.0
854.9587427149469 -55.61023968910572 0.0
971.5890017335689 -60.25837697401383 0.0
896.069185653889 -59.48892775309555 0.0
405.67403183081797 -104.76229086575336 0.0
1035.3561729646613 -19.62142582234205 0.0
1032.2796832798192 -27.987623840597657 0.0
751.6914247421295 -18.84085343203034 0.0
1021.9345421187747 -35.62923489699569 0.0
1044.191014274387 -75.0695199921212 0.0
1032.7516316905642 -79.167605406656 0.0
714.1891426966092 -148.22079303914234 0.0
696.4471667629846 -145.7536020216857 0.0
698.996018302217 -140.4253227745463 0.0
707.7470743186798 -144.5364625581957 0.0
1032.7209557240813 -77.21910920113464 0.0
1030.2700957070024 -77.22743581559402 0.0
996.3282989465686 -60.87829168453087 0.0
832.6821658994752 -56.100872516054075 0.0
907.8168023237496 -106.89053675559472 0.0
898.1209624243311 -107.45898750098532 0.0
922.6871751573286 -103.30584472137339 0.0
926.2896644554287 -104.2097944374137 0.0
939.583079799303 -19.81208382216813 0.0
999.2825133864035 -61.33057845593965 0.0
924.7886469000103 -23.87439482647402 0.0
1045.9582628098383 -19.657662751410477 0.0
1036.633844169468 -21.366019668727358 0.0
796.5754114875181 -15.501832894183762 0.0
834.9621629392757 -19.08408681424069 0.0
1468.2138523373033 223.62511312591212 0.0
41.02054616444471 -93.99051903099645 0.0
52.95157794904229 -74.91212743189767 0.0
961.5374940970892 -2.518386823372092 0.0
931.0724384251519 5.853314334311531 0.0
459.7499666435308 62.70448699091765 0.0
470.4535314470048 55.153793573013985 0.0
455.5148719188404 69.69515575335356 0.0
443.2513736153426 70.1666481355654 0.0
948.2817705761355 0.07771258554208238 0.0
938.4138598144484 1.401765840915317 0.0
299.9813773053692 128.27442596346123 0.0
889.6827284214996 36.60200924947839 0.0
901.3399139800295 45.11124237423781 0.0
288.471738654089 120.38476622417184 0.0
289.62797106688504 116.63067421217704 0.0
994.4855426235885 102.27495637661849 0.0
1048.918850531086 -16.37003205222348 0.0
1064.0346446843284 -14.248804104445266 0.0
964.6421394771079 -12.325430339500127 0.0
925.4985342931318 -14.088928854634544 0.0
1099.0131029250033 -7.765557548355677 0.0
1063.7973051237318 -9.036072164303896 0.0
1030.0309835312964 -36.80289859159706 0.0
1026.0817323913393 -38.41478911282125 0.0
654.0460153518436 -16.107340725666578 0.0
623.2806033535626 -19.836595956742492 0.0
1026.7165738716697 -39.16677408623097 0.0
1018.1232012292453 -30.605573072500395 0.0
1008.6642038927625 -16.22563641096171 0.0
1077.4158807552656 -5.075053720939832 0.0
623.2876832799391 -63.71193051638596 0.0
616.2225996609473 -56.44997078442107 0.0
1059.9073578709779 -41.97386537253803 0.0
1076.8563486507014 -32.04533952594388 0.0
1054.2590118952103 -31.91218675686246 0.0
1063.8983965024167 -45.16818092308047 0.0
585.608779242861 -34.24088830550013 0.0
606.6829701640157 -73.21079472148233 0.0
1131.7830540254618 -3.670568749010907 0.0
1042.7712597674815 -7.495043227490506 0.0
980.3128094612271 -9.175055092074553 0.0
615.3913805372358 24.238186510028335 0.0
611.8735037470585 25.055640237515465 0.0
602.2336818652126 29.732147101055887 0.0
985.134691748694 -6.663413092205092 0.0
982.9797277688024 -6.604744745863496 0.0
1067.1550788462184 -9.98808098793594 0.0
1067.4708633984496 -9.002890097154578 0.0
1064.566004151406 -9.330985193358586 0.0
1022.5449883885492 -10.528770559538868 0.0
1070.0905880113464 64.18048815290841 0.0
1045.3218698201345 56.73508089499836 0.0
352.15791858913445 6.781987910827624 0.0
371.028709355054 20.580024282175906 0.0
1037.7824176186055 -22.33968938629754 0.0
587.276313572202 -10.667660543478144 0.0
591.8008682463118 -20.18009132839078 0.0
1035.7474837807554 -29.935830864162753 0.0
1128.5928686565162 -5.476176310709941 0.0
332.06497834285625 39.100448847282806 0.0
341.2836285170662 32.651305842624794 0.0
1046.337666959509 71.9463566461932 0.0
1038.291423722147 65.94008257604595 0.0
955.058409659449 -14.08269983626225 0.0
1016.5636883700522 -7.73471077709708 0.0
316.3450852561026 -169.76892631970742 0.0
364.91776972289546 -165.44585618392063 0.0
1258.0379949556361 75.41979280263968 0.0
1265.8960539069567 75.83894892162425 0.0
1283.9746583285391 98.93210350798127 0.0
1256.452336327267 76.28175813379931 0.0
312.80374101565883 -146.8926899701216 0.0
300.64395305375405 -152.29485367263578 0.0
1020.8852739187921 -32.24132183561247 0.0
715.3076661342799 -112.88972180932237 0.0
1041.390755254729 -79.55271940892634 0.0
729.642583704571 -114.55997597762159 0.0
974.9402018594619 -40.816637003724495 0.0
844.6754887866516 -127.71901078309243 0.0
844.1568704904283 -128.74519837485357 0.0
958.6190983534298 -106.95620022829878 0.0
848.3913629770257 -26.671816345473438 0.0
1036.63116329987 -26.33959874683641 0.0
962.5104618617743 -110.39927816075593 0.0
957.0123440196464 -112.37946384534155 0.0
965.1556572607884 -111.87308142534438 0.0
833.5449640413995 -128.1618269410872 0.0
866.3653755760836 -132.21248155238956 0.0
907.59945985014 -123.80347343861864 0.0
871.8889379738569 -128.04184235218318 0.0
1002.8769896365563 -38.84114231481377 0.0
804.5811017471935 -127.89122199916795 0.0
167.19834281041923 -133.06399527267456 0.0
267.0012048464394 -119.05544611693213 0.0
1365.7583056494088 187.47762915206098 0.0
1297.560856647603 151.15073889417576 0.0
1367.0340820964848 170.49946519790907 0.0
1389.887470656945 182.99520202366918 0.0
144.66064082431643 -126.73626746511263 0.0
135.10046814441029 -133.43529221260613 0.0
911.0255662542647 -41.637010125086896 0.0
877.2244437787449 -125.18292628393175 0.0
612.0153886355258 -109.75139222668608 0.0
725.097204335274 -40.400554775590905 0.0
1109.0107822351042 -20.964724619340263 0.0
561.4758952369043 -106.85672459734624 0.0
1050.2883849885768 -19.2182139544456 0.0
930.0063212363759 -62.41266498578281 0.0
953.9949703135841 -83.36151364429988 0.0
818.4576891604868 -40.416341244249864 0.0
1024.365483411786 -56.22969168007845 0.0
900.3086660732281 -27.050724111018173 0.0
730.5799079808505 -41.067934556104795 0.0
881.0436554792919 -82.93537609281546 0.0
821.8619489240914 -22.452358217384337 0.0
1051.3533676826148 -67.96764566088588 0.0
993.057219739672 -44.6045312252694 0.0
904.9691652825834 -39.028469998246045 0.0
683.7701983713538 -115.55239802788779 0.0
1056.0374171308877 -65.63049610849983 0.0
1034.5890888603003 -24.686240215472488 0.0
898.6210886366601 -82.62935907587534 0.0
1023.9089028897051 -38.18508577341134 0.0
667.8327964462056 -108.3584543942251 0.0
941.2041547265121 -83.33138330918585 0.0
967.2526666863505 -81.90158899350817 0.0
825.7154328487486 -43.29955870712646 0.0
1061.2478150058803 -62.89868357357015 0.0
1014.3188781113952 -46.64678434487665 0.0
867.0178988166388 -82.22523677301581 0.0
971.4000177942871 -82.2474215299473 0.0
833.7473593562561 -32.036091486693635 0.0
904.8979384389929 -82.12228413786382 0.0
687.2158519201588 12.899990776283216 0.0
956.3710031375645 -64.71438868711628 0.0
1021.5832730282135 -38.08948559153534 0.0
910.872134078282 -62.665184073049105 0.0
950.1570737683442 -44.31014876770728 0.0
872.3338884024172 -26.841910313513953 0.0
952.0943179763581 -63.70532369976232 0.0
529.0575904688953 -93.0893423368488 0.0
977.3424184331507 -1.2829196818282185 0.0
530.8247056140199 -92.1848818391223 0.0
352.8960247244171 94.2191422093372 0.0
329.3420660553426 109.28325183863673 0.0
930.4799349956313 19.746150340728335 0.0
907.7499517941337 12.046884541475446 0.0
996.7485574909344 -73.04845636883375 0.0
994.7168659302258 -28.773283227374773 0.0
1031.6306111184979 -10.648392360736429 0.0
822.6793598765784 -68.6335552715198 0.0
1031.3061756328086 -28.283106395813423 0.0
895.8876341427023 -32.902634134597335 0.0
887.6658275755522 -43.25982552247483 0.0
814.2782502588282 -68.29468619393306 0.0
980.3517826329232 -93.65930014567067 0.0
1005.0479802478184 -76.86406554367878 0.0
873.8375638625987 -16.84641060550739 0.0
1124.4686449489996 -17.679526612689635 0.0
1020.391776638573 -51.74742343859003 0.0
831.1842075185152 -99.6027315077932 0.0
730.7663399660446 -1.1353969824336645 0.0
952.5969673483073 -44.59248195121715 0.0
506.69003819211935 -154.2343839918349 0.0
1160.858765627272 6.085717156932317 0.0
507.6373279430692 -141.89390996033245 0.0
823.4159684396233 -99.45614691152772 0.0
996.673888989337 -45.683155170581024 0.0
969.6411513830733 -30.857231950601793 0.0
954.8950625475468 -46.33217670577804 0.0
1021.6705454087279 -23.882103470160256 0.0
548.9795093465767 -137.0163645972221 0.0
1131.8556595308105 -11.489389548466745 0.0
1130.3631268736387 -17.54038534296504 0.0
548.1531492748151 -135.1209595691182 0.0
812.0675557569693 -31.958572149837963 0.0
865.7238080773826 -17.72683873220301 0.0
1020.2879893958973 -40.692265617997464 0.0
781.4299780525848 -6.459702926888251 0.0
248.73526073861478 109.85309797964473 0.0
1059.8199598404522 -12.852334678369502 0.0
905.2671472639374 25.502390102579252 0.0
914.569028543868 18.13555822073043 0.0
375.01323399277317 93.25910458978332 0.0
367.7108300305574 94.7909592090027 0.0
874.9798172210956 -16.611951046488663 0.0
706.0470425727287 4.352443211914247 0.0
981.8578618516465 24.775618757495035 0.0
550.5825581698524 32.72184988132917 0.0
791.5900332660796 -71.94175318817446 0.0
398.1393144834102 57.09560803972926 0.0
384.19525956156656 68.84862796991357 0.0
1001.5597359571785 17.77813605188389 0.0
982.9626281615037 19.508540298255497 0.0
982.2832383968833 -15.093989598986532 0.0
1027.0921401368832 -12.714554642183494 0.0
1009.8694310789053 -72.80997383651653 0.0
970.2577429973527 -27.82123582450924 0.0
902.5832636509144 -16.5332515814221 0.0
1063.8027931283973 -14.531409399669156 0.0
1125.7441002491064 -4.901481868053842 0.0
1017.4904462173597 -27.779084623916674 0.0
939.7554861304355 -3.641109769480197 0.0
522.390948297769 51.73800956712962 0.0
991.7093745370005 -93.32939185000262 0.0
672.7204329777155 2.6405766136899933 0.0
1018.0704430164188 -23.086031376492084 0.0
773.7062187196607 -70.92299488143514 0.0
1078.8397191316285 -10.274741696645142 0.0
883.4907877233684 4.906900241696578 0.0
883.1049689291046 0.01943131959998201 0.0
422.2573085342809 83.31394467768833 0.0
424.733850689008 85.35843603996254 0.0
432.32849924712644 87.09605429590074 0.0
868.9752548561752 1.1421416821685266 0.0
876.1995213464895 2.1199717836748966 0.0
964.8891090056048 77.97510756733632 0.0
245.66969661699437 93.97974267072007 0.0
1015.7227786452453 -71.34567689332934 0.0
999.8182954029663 -88.8690157214517 0.0
761.7452033015195 -38.13581656266803 0.0
1080.7182851727646 -9.021997216573062 0.0
813.0274880204072 -104.55938944857927 0.0
391.70004519610677 -48.06193599482308 0.0
1004.6356272401529 -88.3999958569529 0.0
737.3763437375758 -11.597020971163323 0.0
1022.3443980455788 -48.76165252023644 0.0
956.3569214186555 -6.65610166034025 0.0
799.6087911535849 -106.64874468616924 0.0
1125.716415845054 164.77640473843832 0.0
1139.9539092757964 166.45702590545747 0.0
187.27676697010952 35.687427143834924 0.0
194.38839436370705 64.50759041101766 0.0
211.5298824382645 29.671358566475913 0.0
227.78797728892806 24.404549613338013 0.0
1097.0681759289714 127.2629337935832 0.0
1106.4300097852129 151.30569313738167 0.0
1026.7694783845177 -30.085973882198353 0.0
1020.4741303573454 -37.51857537942036 0.0
743.5022484148317 -37.2433646778867 0.0
669.7282729795345 -8.318321529061851 0.0
1035.877013494991 -17.49200121802631 0.0
931.603930204024 -21.090978886833977 0.0
1022.7335276169104 -48.548284735359175 0.0
507.70043899986337 56.090630797332764 0.0
1715.1126668586696 183.19066985706277 0.0
1817.9460934332537 174.62481038967644 0.0
7.770301305493547 -302.4725341711101 0.0
8.93811720432052 -307.4620064413412 0.0
10.103234731230145 -278.11806770480075 0.0
13.884634223855954 -255.0734087336485 0.0
1813.5754352031577 168.05482725134752 0.0
1791.7295472210967 161.36688590758655 0.0
642.4319619091334 -3.679891103386738 0.0
1027.3849484577127 -11.06293106208609 0.0
812.5271028956627 14.417169971209036 0.0
812.0938576051439 12.955828474529435 0.0
315.59321996047015 126.42137816294652 0.0
315.3498262826859 125.69997607741465 0.0
1006.2735362549768 17.913784756700274 0.0
439.1376756974612 41.211130093571626 0.0
403.74880787956 45.04066211020502 0.0
1070.0238320214726 -7.809787807868562 0.0
803.9919280203451 -8.772456044274824 0.0
997.1646764202649 -11.521460155113052 0.0
1064.080816427486 -8.843775568373651 0.0
960.1039834467686 -18.43629457168691 0.0
1116.5647998872735 -6.134316848861439 0.0
1212.0919262600162 75.19940015292228 0.0
1218.906032722337 107.22376376055517 0.0
289.5651677104131 -72.30904385309245 0.0
367.96963790993794 -112.70235444308186 0.0
356.63895879548033 -99.1842585160689 0.0
1189.555897533849 88.43544547316492 0.0
1071.516676477413 -8.00768696175268 0.0
312.43878180560944 127.87478556567798 0.0
790.2366133351944 12.75588136751702 0.0
1035.7121840453572 -54.736501317356144 0.0
991.6181247512886 -20.51697760906262 0.0
1009.0175149042218 -11.676242455264042 0.0
1029.3210922213448 -17.18844038863527 0.0
504.974848555345 -80.67417642512817 0.0
1120.397865791967 37.55226112622051 0.0
432.434801886468 -55.39710698531225 0.0
1013.6755054183864 -21.73477345985605 0.0
1017.6886134681059 -16.769596627149717 0.0
1009.0261649044841 -20.391041961110567 0.0
636.5424215370045 8.856457893955 0.0
514.0809959025203 25.941072118317294 0.0
662.5242261492118 -44.236341102360335 0.0
993.6020593134631 -5.502312170699829 0.0
1039.836394428779 -42.41444424977891 0.0
684.3869714376141 -50.81656853205626 0.0
725.7247428484058 -13.80748069013344 0.0
1036.242315690665 -52.218768025137095 0.0
1004.6159123242306 -10.316156925406373 0.0
1022.8484758956287 -29.416649593922166 0.0
508.2948676417992 22.248583793252813 0.0
1092.8037225296525 -8.120405510943058 0.0
1010.7674917738896 -16.284634548312535 0.0
656.8634081607629 -10.739188279774776 0.0
667.0881189884834 -53.46710960641745 0.0
1043.9513879928988 -52.765415074802135 0.0
1257.085136727711 211.60231109191554 0.0
124.23239326687691 -27.48715253485687 0.0
1104.6382792969835 -7.432048221156471 0.0
1034.6487826644131 -17.203896495078787 0.0
1106.5041270833708 -7.631761337333804 0.0
517.4805593046225 42.07992304199941 0.0
984.0826553072388 -13.148165051685284 0.0
144.2521037576309 -34.84148591716203 0.0
112.53523783361592 22.593071958190365 0.0
1210.7583628833395 202.5772045021714 0.0
1201.9199894189662 204.7159566258488 0.0
619.1420063139403 -33.07994939556992 0.0
762.7917019092572 -52.040388143354235 0.0
778.3515004133047 -68.02921323339498 0.0
762.950310922327 -54.541250386519934 0.0
755.0562202450054 -46.96859765061619 0.0
325.76029980018575 74.03126895609478 0.0
944.8995794702176 73.654597538282 0.0
946.6707567202243 76.36973203775422 0.0
240.31760660798935 118.4532425381965 0.0
239.16333250821754 110.44270863646503 0.0
841.9301461930261 7.661593233374732 0.0
360.6345297830846 109.80428545168637 0.0
824.305490195741 6.0136389824551 0.0
357.02107736544156 112.3136176088362 0.0
822.985861266694 10.41447198076631 0.0
1086.7303014252589 -7.819785979725522 0.0
1098.760700361322 -6.316344977834025 0.0
97.03291714540504 -237.58646787756774 0.0
373.5943828928873 -163.82872860042042 0.0
281.5471637301732 137.38484358670024 0.0
285.566626970147 141.14233715677977 0.0
794.3643129750322 18.910887164692813 0.0
833.256827166424 26.1105581824201 0.0
1582.551916455048 122.43810357456306 0.0
95.32759588586248 -237.08436735040334 0.0
1570.6728146812209 137.19068048089548 0.0
86.97959608451123 -240.7690609801579 0.0
116.75231770564585 -201.92523530565603 0.0
1236.2021912119424 48.46118506644326 0.0
1596.9806809803945 124.82514549094208 0.0
343.2741007117304 -161.32596476546013 0.0
345.7024417994615 -25.317892204077282 0.0
1587.6726212924518 132.14272661614388 0.0
1107.053326017032 82.0186935928514 0.0
407.03401323114167 -44.974073521756594 0.0
1109.0797419424925 52.280159009250085 0.0
372.6244701406173 101.47046592943461 0.0
520.5699808425136 -166.12346592665352 0.0
928.034141215926 -80.34813583651088 0.0
1137.1252769208431 -0.7684634826152017 0.0
921.1873886946546 -80.74809913014971 0.0
1139.9934990569063 -1.5983997857499777 0.0
1084.035795976331 -17.00738344549945 0.0
1139.5596568755936 0.11616413711328022 0.0
539.5848965665249 -56.370282281236584 0.0
499.2594330756549 -162.5965278600123 0.0
1062.7033301312745 -12.519350321894196 0.0
832.8560170535814 -124.09974513850787 0.0
934.3350232184906 -77.7570671181877 0.0
436.58278995785747 4.684501691661421 0.0
950.52133930585 -15.345214799677295 0.0
266.59318138671813 79.8835674402343 0.0
1128.2663024537133 78.47070403389657 0.0
726.9096390765189 -126.38478392235469 0.0
299.06983140471436 -44.6668396586871 0.0
1013.6326727118769 88.24885916466219 0.0
524.883530566229 9.405251430573255 0.0
1159.254816000955 119.83404288696839 0.0
1020.8183540897296 -14.782073373052278 0.0
1176.030679215346 149.61313160885894 0.0
852.9336947209233 -12.269521001544723 0.0
1075.219291279623 112.25557299615457 0.0
264.29215586252934 34.147023839853844 0.0
246.45808646396097 -50.905451545289445 0.0
1078.8530840117037 -3.9489603818980803 0.0
261.00164408701164 43.57088699453083 0.0
245.18473868903777 91.41841174234273 0.0
285.87925038957485 135.56275015828183 0.0
995.7479914579485 98.62547050405372 0.0
1203.6330713617754 158.93542527149089 0.0
922.1011083532269 -2.052252381021997 0.0
1098.0918717842044 -21.680439699545275 0.0
526.1568042767319 -84.21761505236397 0.0
1067.0032702109497 -13.445997737025932 0.0
261.144844768418 -33.28463732258915 0.0
1168.238934737172 135.5489261688183 0.0
1020.8914413463532 -6.285147079189889 0.0
1105.2391270900036 -5.03720499342868 0.0
1060.2167669014643 33.48432575719098 0.0
297.26753962350523 135.054007381056 0.0
798.4512150151476 14.671563342118505 0.0
931.2684052827261 -1.9259994649528487 0.0
1062.8006477941387 -12.3696472739184 0.0
1000.5271781061838 -16.512292144906187 0.0
1000.7359616665362 -56.659926561824385 0.0
400.6265573438604 -97.97010221720262 0.0
993.6809984366571 64.853721268105 0.0
297.92325598536866 75.41593632017654 0.0
1100.922440450987 118.04896107746254 0.0
682.4584070553647 -140.84445861269938 0.0
702.8030959746392 -140.52006731307657 0.0
1177.615060776777 66.02773979391499 0.0
928.2716500526033 -0.03174505252989013 0.0
507.27348544450643 58.880687703481414 0.0
683.4612923007815 9.739594050669027 0.0
502.7387624663278 -65.27882383169417 0.0
1145.5739596523308 34.72893610597528 0.0
718.33507661119 -4.581075309316687 0.0
793.3168876404586 -10.731183478877336 0.0
1102.6113762128998 24.768938912057372 0.0
1095.661714788856 -4.5335001985133125 0.0
301.49980253735 101.44578901345037 0.0
940.5505145380448 49.21097484524597 0.0
1058.5621188056011 142.94536677365224 0.0
1063.779522312305 151.557993456046 0.0
189.5402933726511 81.71033804909165 0.0
200.48380325279106 90.14926929496231 0.0
868.7106772293382 -12.224828505704501 0.0
867.4269160080296 21.353002756324265 0.0
1098.0539952631098 -7.238078825850696 0.0
941.3678243368237 62.19012032471127 0.0
875.1972349517996 24.89500219655202 0.0
287.5691087462257 104.47742460666359 0.0
272.9438522390612 131.31346311615908 0.0
313.9483050441123 121.00967608286985 0.0
874.5411791319325 38.37071294061514 0.0
264.6002520569067 126.01421837036314 0.0
872.2373666644875 32.10275158657348 0.0
1130.376426930669 7.600270068024629 0.0
1132.9866511034036 -2.9441813745518464 0.0
1073.2620985098133 -5.745254815894478 0.0
360.7423986852244 109.74038425561476 0.0
846.6481266988708 6.698013674934272 0.0
585.7403222251094 40.11227864055246 0.0
1024.221879870236 -38.109781637098024 0.0
470.9528055737018 71.3821570833245 0.0
302.80801743598636 -8.620552708619236 0.0
1113.434600731123 -5.296237382275034 0.0
990.8709789289228 -8.095046940391612 0.0
1022.1447266240946 23.22348339521244 0.0
962.5449371777672 57.67121542098054 0.0
482.5653012680314 -103.1018187794948 0.0
1030.2632111796088 26.818025550117753 0.0
612.950598828179 15.941656838882228 0.0
883.8955925337152 -23.014291925378803 0.0
181.396816911952 -8.151147320306986 0.0
1315.45644153828 74.69757401316326 0.0
1031.7495284168506 -10.606278189476273 0.0
1322.7965237783287 73.61403678320845 0.0
982.5857213132431 51.79740777059634 0.0
325.2067503825804 78.01979436980018 0.0
1268.1642486482008 196.9085957911376 0.0
1027.8522651065227 24.223888594147965 0.0
1143.9423408386301 -2.3048946234327223 0.0
600.9729514752393 -166.52963540045923 0.0
1314.569201897067 73.41545948479288 0.0
429.12813456288234 32.44995708313803 0.0
1033.685416458255 111.27793462855682 0.0
249.88636326287332 -163.83540644167505 0.0
537.6967867049597 1.8253127787506251 0.0
751.816056295484 -21.251597220446513 0.0
705.7288882772468 9.304412788223054 0.0
1450.4568366366566 234.70528773113105 0.0
62.6452762693729 -91.88556504572955 0.0
1119.308977838245 -5.6056287609604 0.0
769.3231106615609 11.121745812370314 0.0
133.86089773571143 41.63817176859913 0.0
781.9833063887745 -6.791757068273634 0.0
1063.400876472799 -49.307515674124595 0.0
632.6946664483446 -78.23263840440244 0.0
937.6470845302352 66.08959651871025 0.0
566.5209561220981 -107.6836115556272 0.0
1318.4102536102334 215.7532952404166 0.0
1149.1019259871373 -1.5630904159296677 0.0
1030.1987452782657 8.256774059544345 0.0
135.9170484697087 -78.31493274058185 0.0
260.79579186089114 -171.535187262527 0.0
1465.5161021322988 206.39810224135312 0.0
334.6298660360208 85.38706756483533 0.0
691.7633369792862 -136.88647280951406 0.0
255.8691309262805 126.43981215690314 0.0
1144.0125901349115 -2.0599493021845525 0.0
1009.44654237952 -9.608244675512845 0.0
1160.289428696861 -0.9538824330269893 0.0
VECTORS DirPrincipal1 float
0.9999967239956123 0.0025596870986306177 0.0
0.9999906809786192 -0.004317169896751316 0.0
0.9999935488379544 0.003591974731777414 0.0
0.9999949544072448 -0.003176658630084541 0.0
0.9999988856796289 -0.0014928628539154882 0.0
0.9999985934962449 -0.0016772016969112391 0.0
0.9999999991876296 4.030807204084785e-05 0.0
0.9999952382658038 -0.0030860080554589377 0.0
0.9999685490039988 -0.00793101524630646 0.0
0.9999311384518096 -0.011735346371882822 0.0
0.9998627698178186 -0.016566276957713174 0.0
0.9996791775143641 -0.02532868026969609 0.0
0.9994730383417462 -0.03245990800847376 0.0
0.9993087666724583 -0.037175110646379544 0.0
0.999241573291249 -0.038939417130069515 0.0
0.9994594191135038 -0.03287658049885047 0.0
0.9995853390201604 -0.028794965114598847 0.0
0.9999746318404871 -0.007122897969401207 0.0
0.9998963020909967 0.014400870277535442 0.0
0.9996386934042963 0.026879037351648018 0.0
0.9992189172474784 0.039516520782793114 0.0
0.9994149325392383 0.0342022311785335 0.0
0.9993864608801069 0.03502430312703707 0.0
0.9994400616503549 0.033459874003567265 0.0
0.9997036984566176 0.024341637006583376 0.0
0.9998826369070866 0.015320326750149405 0.0
0.9999590540989315 0.009049316304023109 0.0
0.9999658963783721 0.008258697245852258 0.0
0.9999973918096551 0.0022839382406196736 0.0
0.9999996344133311 -0.0008550866646795739 0.0
0.999988479279154 0.004800136348584373 0.0
0.9999912849893068 0.00417491861418133 0.0
0.9999919316247133 0.004017049349308289 0.0
0.9999951874768319 0.003102422146581403 0.0
0.9999995915246772 0.0009038531289010082 0.0
0.9999780624266077 -0.006623795402000217 0.0
0.9999143726143759 -0.013086154484758387 0.0
0.9997910457403552 -0.020441743012946725 0.0
0.9996439400147289 -0.02668320055444843 0.0
0.9996151619871527 -0.027740366352996773 0.0
0.9995806886583426 -0.028955946907558063 0.0
0.9996743835449388 -0.025517188012134703 0.0
0.9998328828374436 0.018281312780175762 0.0
0.9993924026727843 0.034854346643131195 0.0
0.9993407210868279 0.03630596614413305 0.0
0.9996875928667978 0.024994332721386896 0.0
0.9997563287739862 0.022074489266148186 0.0
0.9999487096454155 0.010128083652341425 0.0
0.9999941839999835 0.003410566845433149 0.0
0.9999989867117371 -0.0014235784133446695 0.0
0.9999917100708833 -0.004071828767318998 0.0
0.999993148565772 -0.0037017322314996087 0.0
0.9999873923690239 -0.0050214642286889885 0.0
0.9999888796906011 -0.004715982944896533 0.0
0.9999976660105789 0.0021605493270307205 0.0
0.9999921576463555 -0.003960384550351104 0.0
0.9999631642985654 -0.008583125654469899 0.0
0.9999515955058326 -0.009839036809558556 0.0
0.9998761075784747 -0.01574069546490364 0.0
0.9997461943871108 -0.022528799535023004 0.0
0.9994775836410452 -0.03231965035481392 0.0
0.9992611312703596 -0.0384342494694664 0.0
0.9992943089056805 -0.03756173836124417 0.0
0.9993880361357677 -0.034979325732400986 0.0
0.9996800881908254 -0.025292711890656096 0.0
0.9999615860650533 -0.008765066700445592 0.0
0.9999685930346356 0.007925461774005447 0.0
0.9997658078149705 0.021640922440587167 0.0
0.9995456946719569 0.030139745565535853 0.0
0.9993758774038078 0.03532500054309112 0.0
0.9994045673876795 0.034503777831498085 0.0
0.9994971126082413 0.031709965118056634 0.0
0.9997276394711643 0.02333767077953144 0.0
0.9998804081879297 0.015465100127035981 0.0
0.999896774373579 0.014368040830673764 0.0
0.9999749620696317 0.007076385647967412 0.0
0.9999855388298029 0.005377930017104917 0.0
0.9999998606151473 -0.000527986444749049 0.0
0.9999973111637109 0.0023189793764298423 0.0
0.9999970902119323 0.002412378011143105 0.0
0.9999928841231237 0.0037724929578367215 0.0
0.9999931401686905 0.003703999940867258 0.0
0.9999999955727314 -9.409855037042174e-05 0.0
0.9999925538705869 -0.003859041769787297 0.0
0.999949124958811 -0.010086996287697141 0.0
0.9998350766203405 -0.018160934986888217 0.0
0.9997204838371795 -0.02364221217136015 0.0
0.9996365987582969 -0.02695682516439247 0.0
0.9994281370946717 -0.0338141802129535 0.0
0.9998549924440611 -0.01702921268546138 0.0
0.9999389360463454 0.011050980884186962 0.0
0.9995184436625782 0.031030320306718 0.0
0.9995917794656884 0.02857051670199051 0.0
0.9997794608811038 0.02100070475696998 0.0
0.9998714781578696 0.016032066816135917 0.0
0.9999500263510758 0.009997239643160965 0.0
0.9999942292230468 0.0033972813549410317 0.0
0.9999995052738004 0.000994712096176258 0.0
0.9999965392330007 -0.002630878564579862 0.0
0.9999764328936653 -0.006865395637620897 0.0
0.9999929363037591 -0.0037586357347220785 0.0
0.999993365933234 -0.003642538883995684 0.0
0.9875275490067504 0.15744630815843233 0.0
0.9637582091227573 0.2667772747977147 0.0
0.946199502966263 0.32358383857417383 0.0
0.92833305355646 0.3717495684927406 0.0
0.957828137752693 0.2873417103888814 0.0
0.9995951223272698 0.028453320008929837 0.0
0.9992217488651427 -0.03944485511300153 0.0
0.9999563902997677 -0.009339030927176552 0.0
0.9962891230099994 0.08606964256906192 0.0
0.9999984469833825 -0.001762393492660657 0.0
0.9375488370979552 -0.3478536733402015 0.0
0.920902645417273 -0.389792659837853 0.0
0.943158678769747 -0.3323427547898479 0.0
0.9697878516579496 -0.24394983659895872 0.0
0.9904858688656013 -0.1376144744478384 0.0
0.9914537369567186 0.13045875775339114 0.0
0.969475600334575 0.24518780629532802 0.0
0.9436424339416255 0.3309667005375689 0.0
0.9173879729843258 0.3979941042574747 0.0
0.9293327666452792 0.3692432922064136 0.0
0.9960177396133635 0.08915527115928727 0.0
0.9989419167762417 -0.04598963913109255 0.0
0.9999813769746096 -0.006102925852721099 0.0
0.9969466353340102 0.07808589050652055 0.0
0.999866920669219 -0.01631382700207868 0.0
0.9361165165709101 -0.3516900160697555 0.0
0.9211838018604352 -0.38912774662050814 0.0
0.9424899653307686 -0.3342344465353725 0.0
0.9680666723799003 -0.25069287550169156 0.0
0.9891138476527677 -0.14715228975975064 0.0
0.998130868143284 -0.061112765111179954 0.0
0.9979612767476328 -0.0638223323941924 0.0
0.9928727396529958 -0.11917937260262229 0.0
0.9940850298835517 -0.1086045733908933 0.0
0.9909173291723653 0.1344724757930269 0.0
0.9920865129709198 0.12555616584302473 0.0
0.9978724570943591 0.06519631410184375 0.0
0.9977039292113211 0.06772643233104234 0.0
0.9958553391050363 -0.09095132531191223 0.0
0.9952550469687024 -0.09730052149565195 0.0
0.9925846688322065 -0.1215552351783285 0.0
0.9957155579727733 -0.0924690629938922 0.0
0.9932738013151855 0.11578927247755436 0.0
0.9951464243198515 0.09840525475509071 0.0
0.9939702236357204 -0.10965032843341586 0.0
0.9947364705450752 -0.1024663562713476 0.0
0.9717539095453676 -0.235996481506173 0.0
0.9681736316636604 -0.25027948168237574 0.0
0.9805797736159974 0.19612064545885877 0.0
0.9731351544339115 0.23023460036425286 0.0
0.9939130849708586 0.11016705280487027 0.0
0.9942542897318769 0.10704395055191615 0.0
0.9992059124854374 -0.03984400148258553 0.0
0.9616739097161324 -0.2741957172737895 0.0
0.999679147407417 0.025329868510906746 0.0
0.9999630856136036 -0.008592287828107809 0.0
0.9995526154330749 0.029909346045996793 0.0
0.9999126241255674 -0.013219081447736281 0.0
0.9999805937787477 -0.006229933057683884 0.0
0.9999984960352956 -0.0017343376681346807 0.0
0.9999393029429224 -0.011017732526358945 0.0
0.9990730284640651 -0.04304745980475007 0.0
0.9996418689456769 0.02676067732316076 0.0
0.999512235615382 -0.031229647054379545 0.0
0.9999653103242327 -0.008329354606497802 0.0
0.9407738193733709 -0.33903483712096644 0.0
0.9982306764926914 -0.059460209459297385 0.0
0.9981431978380877 -0.06091105490431135 0.0
0.9991123795435578 -0.04212425717813562 0.0
0.9962323891975274 0.08672385319960235 0.0
0.9998845589883526 0.015194363977073955 0.0
0.9989647862708599 0.04549017246411558 0.0
0.9815699579615998 0.19110315964751326 0.0
0.9788991861383451 0.20434378722556115 0.0
0.983102283791983 -0.18305709383410196 0.0
0.9822250323410093 -0.18770718111650173 0.0
0.999107928945303 -0.04222968527739141 0.0
0.9989034501656868 -0.04681770228329635 0.0
0.9988637730030895 0.04765672021900606 0.0
0.9993393023277317 0.03634499722276195 0.0
0.9993308629253653 0.03657630933876212 0.0
0.9991876069459534 0.04030044820617823 0.0
0.9996558622432397 -0.02623274828768547 0.0
0.9996697151254619 -0.025699429195569053 0.0
0.9999810548082466 0.0061554873557261025 0.0
0.9986732636827667 0.05149478036861109 0.0
0.9999976679179833 0.0021596663156387887 0.0
0.9995707517559008 -0.029296966295900947 0.0
0.9985402520380362 0.05401263796386027 0.0
0.9997524068933027 0.02225140245126654 0.0
0.9999012284468682 0.014054655828011534 0.0
0.999999885181167 0.0004792052305017628 0.0
0.9971575553043979 -0.07534460763290575 0.0
0.9981307844039303 -0.061114132777897845 0.0
0.9954151943038709 -0.09564826683733924 0.0
0.9960239756916999 -0.08908557597782064 0.0
0.9912782573202243 -0.13178549451354266 0.0
0.991099313137338 -0.13312457135591738 0.0
0.9930719134190772 0.11750819025996852 0.0
0.99211854077581 0.12530283735365902 0.0
0.9958700483557561 0.09079012494706623 0.0
0.9959917947872362 0.0894446461030515 0.0
0.989709722631239 0.14308970937560692 0.0
0.9988848464727788 -0.04721295888898414 0.0
0.9992332395542503 -0.03915268790157757 0.0
0.9895099883443301 -0.14446446956536943 0.0
0.9848083636896215 -0.17364471430760633 0.0
0.9998739929434177 0.015874452286187227 0.0
0.9990224948968544 0.04420469081517132 0.0
0.999567936927477 -0.029392847200415868 0.0
0.9999925882440719 -0.003850124273583555 0.0
0.999999972502103 -0.0002345118189514989 0.0
0.9998765238573234 0.01571423046144571 0.0
0.9999437690515852 -0.010604656284395119 0.0
0.9951265134088358 -0.09860640096248428 0.0
0.9955050398801957 -0.09470858236258335 0.0
0.995249398527932 0.09735828023229237 0.0
0.9917756366900958 -0.12798861850943966 0.0
0.9955781459527873 0.0939369751546783 0.0
0.9954928585995332 0.09483653556161606 0.0
0.9999015892756163 0.014028961618613223 0.0
0.9999984910627662 -0.001737202403522997 0.0
0.9826916557121462 0.18524877811667448 0.0
0.9846189676081929 0.17471545045065806 0.0
0.9961384739047155 0.08779601817157887 0.0
0.9963229448899956 0.08567724018504995 0.0
0.9948659622482415 -0.10120136935773483 0.0
0.9964092933953957 -0.08466711306811024 0.0
0.9832574639643094 -0.18222173185016927 0.0
0.9810716044586696 -0.19364531216864414 0.0
0.9999808217787166 -0.006193228137453614 0.0
0.9999923548006029 -0.0039102864786349344 0.0
0.9980580192366518 -0.06229117302965972 0.0
0.9988029845933353 -0.048914189837365514 0.0
0.9990823747383306 -0.04282999518116 0.0
0.9991120641689476 0.04213173663718322 0.0
0.9986045096193619 0.05281129962303448 0.0
0.998538709470388 0.054041148111526355 0.0
0.9999213508733146 0.012541613440300787 0.0
0.9999479093938565 -0.010206786901665123 0.0
0.9999322210058355 0.01164273998409878 0.0
0.9999812181010522 0.006128902441371097 0.0
0.9945779787507473 -0.10399348144993602 0.0
0.9950219126745032 -0.09965637610094648 0.0
0.9440479135124703 -0.3298083337224081 0.0
0.9527424872349896 -0.30377911879733593 0.0
0.9942652867106918 -0.10694175817755008 0.0
0.9902589548423355 0.13923793432310513 0.0
0.9875567977423574 0.15726274585184077 0.0
0.9945220796440126 0.10452670998624443 0.0
0.9999753225427074 0.007025261960118519 0.0
0.9468672765819001 0.3216245645754928 0.0
0.951715614307662 0.30698108978077043 0.0
0.9956567873753123 0.09309974088831799 0.0
0.9952598342566196 0.09725154145557804 0.0
0.9999993622786317 0.001129354828995429 0.0
0.999998424635554 0.00177502856601383 0.0
0.9419076679958863 0.33587191750807505 0.0
0.9442278744531761 0.32929275896326204 0.0
0.9998995464838583 -0.014173811815266868 0.0
0.9996339322507439 -0.027055526106785195 0.0
0.9994620055240375 0.032797858373205736 0.0
0.9999473962175227 0.010256939007170009 0.0
0.9328216461452209 -0.3603384193822805 0.0
0.9344513937931184 -0.35609070844111945 0.0
0.9991475575409444 -0.041281451766682624 0.0
0.9889209251319925 -0.14844326807263455 0.0
0.9993619490005978 -0.03571687121972574 0.0
0.9892497702568837 -0.14623574134493605 0.0
0.9996877284091321 -0.02498891090442821 0.0
0.9952985662570084 -0.09685434428430938 0.0
0.9952749716074837 -0.09709650298400228 0.0
0.9995477302666462 0.030072161857699658 0.0
0.9999000648280357 -0.01413719763213603 0.0
0.99900743880857 -0.04454365504918872 0.0
0.999450219254898 -0.03315507851500466 0.0
0.9992426309051105 0.038912267754956924 0.0
0.9994403585411341 -0.03345100475575336 0.0
0.9945157553282319 0.10458686535084702 0.0
0.9927391713104988 -0.12028689764784813 0.0
0.9949680077075507 0.10019313169308236 0.0
0.9930317230527748 -0.1178473462188998 0.0
0.9992630260186824 -0.0383849558028411 0.0
0.992738202886655 0.12029488987224184 0.0
0.9300244150733521 0.3674977379079623 0.0
0.9243813080771043 0.38146978553702215 0.0
0.999993510059572 0.003602754326412362 0.0
0.999841899907075 0.01778131576151723 0.0
0.9999982446948124 -0.0018736614673391834 0.0
0.9999378095734667 0.011152443024625256 0.0
0.9405719339893922 -0.3395945184944164 0.0
0.9400492488123913 -0.34103872185905665 0.0
0.9999992526874795 -0.0012225483558803265 0.0
0.9928538864757369 0.11933633189445869 0.0
0.9763739452678647 -0.21608775764041982 0.0
0.9967236749047013 -0.08088211102875158 0.0
0.9984278480699342 -0.05605204901197197 0.0
0.9692802673770261 -0.24595886500291192 0.0
0.9989736280647523 -0.04529558953304589 0.0
0.9999775000481668 -0.006708159018587533 0.0
0.9999227475210052 -0.012429762268199586 0.0
0.9993990852857195 -0.03466220319119005 0.0
0.996877751947338 -0.07896041839062021 0.0
0.9999960237283335 0.002820022610239594 0.0
0.9966852579927556 -0.08135414248773223 0.0
0.9995418393764234 0.03026733116738693 0.0
0.9998229942501715 -0.018814360701908908 0.0
0.9993515609886795 -0.036006354293231554 0.0
0.999350881649117 0.03602520433158637 0.0
0.9999976528435799 -0.002166635024902313 0.0
0.9852536929459067 0.17109985545421483 0.0
0.9992282307023036 0.039280312722074676 0.0
0.9993941441280414 0.03480437734796436 0.0
0.9998409261039206 -0.01783598855277302 0.0
0.9980808955927103 -0.06192354845172597 0.0
0.9838416393193894 0.17904085774296466 0.0
0.9999789561453503 -0.006487469957972522 0.0
0.9997637213592087 0.021737098564133202 0.0
0.9994764147076846 -0.032355779129430086 0.0
0.9994329222533376 0.033672450403175305 0.0
0.9982862048464759 -0.05852053667918839 0.0
0.9992578782482159 0.038518732570970944 0.0
0.999720243750666 0.02365236214649473 0.0
0.9997588728057294 0.021958967330396453 0.0
0.9998736802315348 -0.015894136662514893 0.0
0.9996249999172291 0.027383563326927755 0.0
0.999765228691517 0.02166766021976055 0.0
0.9984704726108528 0.0552875693466487 0.0
0.9999990364599938 0.0013881927402092135 0.0
0.9998902812576143 0.01481301611992254 0.0
0.9999622757029087 0.00868603310262829 0.0
0.9998218196872681 0.01887667548165641 0.0
0.9401829972161926 -0.34066982805287677 0.0
0.9568305791468563 0.2906462502931896 0.0
0.940026513878501 -0.3411013825909126 0.0
0.9824846731298224 0.18634341164899354 0.0
0.985810323303977 0.16786305867375517 0.0
0.9967065535780467 0.08109282369341964 0.0
0.996760830288499 0.08042292709533773 0.0
0.998877096492109 -0.04737664090555508 0.0
0.9997363870085825 -0.02295988874157846 0.0
0.9989280618150235 0.046289602703853475 0.0
0.9987016809020817 -0.050940676903202836 0.0
0.9989963762328983 0.04479107359215352 0.0
0.9999978401956413 -0.002078365716703763 0.0
0.9999747397804256 0.007107728263669416 0.0
0.9984751036265386 -0.05520387158499934 0.0
0.9998321645703322 -0.018320553774493438 0.0
0.9986473273028859 -0.05199534277993421 0.0
0.9999893375364981 -0.004617879742441947 0.0
0.9997190760956427 -0.023701664297565987 0.0
0.997290052885075 -0.07357003749138888 0.0
0.9974317235453439 -0.07162371719873793 0.0
0.9996223936932952 -0.027478537568194527 0.0
0.9998407062068301 -0.0178483111757736 0.0
0.9579992952003137 -0.2867705535714958 0.0
0.9999278472799509 0.012012503239679704 0.0
0.9573322229079151 -0.2889896451123982 0.0
0.9971550898798625 -0.0753772294972662 0.0
0.9991570586922898 0.04105084731612954 0.0
0.999894305671944 0.014538826803457569 0.0
0.9998305470587526 0.0184086166833754 0.0
0.9996698605728608 -0.025693770883951028 0.0
0.9642214462100084 0.26509810008500617 0.0
0.9997343444094255 0.023048657406804843 0.0
0.9999820290490654 0.005995129599458267 0.0
0.9647408493309828 0.2632016216365958 0.0
0.9995282756779958 0.030711986587852652 0.0
0.9999758563007867 0.006948871527704471 0.0
0.998139631634999 0.060969465796813366 0.0
0.9999011664401904 -0.014059066524720764 0.0
0.9877268390952191 0.15619120119573676 0.0
0.9993002631754684 0.03740299476565208 0.0
0.9972055571158542 -0.07470660517824727 0.0
0.9967978281927234 -0.07996305215704184 0.0
0.9880644258313203 -0.15404119710851186 0.0
0.987739202799036 -0.15611299514750407 0.0
0.9999941609651712 -0.003417314086096603 0.0
0.999574060117187 0.029183871244956264 0.0
0.9947085994892263 -0.10273656652906933 0.0
0.9956841002448081 0.09280717924647396 0.0
0.9974959339668941 0.07072384123839426 0.0
0.9728580751352389 0.2314026050937149 0.0
0.9792510178161713 0.20265104022923888 0.0
0.9942961272106077 0.10665463615796056 0.0
0.9946655533250377 0.10315249404932757 0.0
0.9961229319012372 0.08797218049180802 0.0
0.99877906427468 0.04940021018775798 0.0
0.9983693077280235 0.0570852466638047 0.0
0.9999047907058056 0.01379889573767498 0.0
0.9999960792359909 0.0028002701023232108 0.0
0.9996612889530927 0.026025129560512717 0.0
0.9999804363723703 0.006255147682024836 0.0
0.9968733159974317 -0.0790164024256013 0.0
0.9980828361451642 -0.061892262783204706 0.0
0.9980213128705725 -0.06287653820065958 0.0
0.9998162350874867 -0.019170186631424526 0.0
0.9985512619977966 -0.05380870898476903 0.0
0.9971859056759556 -0.07496845684168847 0.0
0.9967385210971494 0.08069895018565704 0.0
0.9996633056699707 0.025947548959131452 0.0
0.9981061548173036 -0.06151506901415946 0.0
0.9983286881607157 -0.05779126573544296 0.0
0.9968935500607833 -0.07876071258697853 0.0
0.9964608287144717 -0.08405841324738526 0.0
0.9983152416779546 0.05802308362615005 0.0
0.9986378684978654 0.052176695967068185 0.0
0.9983680029786596 0.057108060975692314 0.0
0.998864219602905 -0.047647358762891175 0.0
0.9708623821511315 -0.23963771598775935 0.0
0.9981361351597281 0.061026680135832505 0.0
0.9996595105884115 0.026093349538481404 0.0
0.9982284445545393 0.059497667872154894 0.0
0.9998678671959061 -0.016255711276654258 0.0
0.9962146419914293 0.08692748174132443 0.0
0.9431199787577524 -0.33245256153017755 0.0
0.999622013579445 0.02749236198248141 0.0
0.9991139707469016 0.042086499716174786 0.0
0.9972108853685248 0.07463544802922308 0.0
0.996247839383137 -0.08654618723220124 0.0
0.9955588531993235 0.09414122272653812 0.0
0.9993685937863874 -0.03553046233048993 0.0
0.999191772326355 -0.040197041126399526 0.0
0.9408747200869835 -0.3387547211497435 0.0
0.9631761664001237 -0.2688711075566905 0.0
0.935862512557451 0.3523653751287926 0.0
0.9289967280101351 0.37008793461346895 0.0
0.9975097954268878 0.07052806553003307 0.0
0.9988136167856235 0.048696600739904554 0.0
0.9975741894425757 0.0696113249262522 0.0
0.9960611825592215 -0.08866859984642345 0.0
0.997594260049912 0.06932310087891617 0.0
0.9969113235467545 -0.07853542502755168 0.0
0.9997965872143301 -0.020168891753849335 0.0
0.9999933686990101 -0.0036417795108779215 0.0
0.9969634151360773 0.07787136110412922 0.0
0.99760031781847 -0.06923587139978542 0.0
0.9992178626357692 0.03954317879995585 0.0
0.9984256004949453 0.05609206963829766 0.0
0.9980743358098636 -0.06202918827213156 0.0
0.9980745494021722 -0.062025751391262714 0.0
0.9996964227768328 0.024638634036897457 0.0
0.9976694352743265 0.06823267486627167 0.0
0.9984019477330908 -0.05651151000256981 0.0
0.9988118964981366 -0.048731872668669234 0.0
0.9961541013348374 -0.08761852768554425 0.0
0.9989278312431112 -0.046294578169954796 0.0
0.9992580645543184 -0.03851389909055644 0.0
0.9993181962822212 -0.03692076081621282 0.0
0.9966665265770736 -0.08158329976650575 0.0
0.996507464558208 -0.08350373093324395 0.0
0.9942250675461453 -0.10731502719965667 0.0
0.9793427479401408 -0.20220727498548116 0.0
0.9726774124266153 -0.23216083079422392 0.0
0.9995358638865807 0.03046402475883325 0.0
0.9999232172875918 0.012391913864751268 0.0
0.9999877444887184 -0.0049508456212576865 0.0
0.9994463897248027 -0.033270318093730315 0.0
0.9999847964139749 -0.005514248897287682 0.0
0.9999894547361259 0.004592430352834624 0.0
0.9990436511646135 -0.043723941584421826 0.0
0.9984343803273855 -0.05593557168984253 0.0
0.9234716125219538 -0.3836667575723785 0.0
0.9379669898362387 -0.34672456788861283 0.0
0.9352139376654486 0.3540831693208337 0.0
0.9977047301717631 0.06771463204426074 0.0
0.999608014326872 0.027996744337296375 0.0
0.9956800850818223 0.09285024594181317 0.0
0.9993986358879295 0.03467515804355423 0.0
0.9965787464738175 -0.08264866651479963 0.0
0.9999015329335391 -0.014032976774680867 0.0
0.9999738457692697 -0.007232411590662436 0.0
0.9998134234221392 0.019316271506229624 0.0
0.9632584387195078 -0.2685762093627358 0.0
0.9959559871836093 -0.089842482117995 0.0
0.9522409079505788 -0.30534775785234997 0.0
0.996907721781971 0.07858113165054638 0.0
0.9998975121127363 -0.014316608214254813 0.0
0.9968744136654005 0.07900255299206387 0.0
0.9974494912165971 0.0713758535623335 0.0
0.9892082377033818 0.1465164238567455 0.0
0.9917696310563691 0.12803514718355113 0.0
0.9943801626099418 -0.10586827762755956 0.0
0.9955740735906017 0.09398012552776822 0.0
0.993478376074718 0.11402068352689824 0.0
0.9986266212517081 0.0523915196133638 0.0
0.996409343689623 0.08466652117581618 0.0
0.9941770510674754 0.10775894919113824 0.0
0.9971851414298293 0.07497862169693037 0.0
0.9859325855504837 0.16714346158237245 0.0
0.9997366641100243 -0.02294781981278919 0.0
0.9942445758153102 0.1071341377051866 0.0
0.9953670937482266 0.09614753602255839 0.0
0.9908704866199661 -0.13481720493138633 0.0
0.995963991429903 -0.0897537061909771 0.0
0.9996971203617809 -0.02461031369898941 0.0
0.9312412687020946 -0.364403210010715 0.0
0.9998425476452916 -0.017744856104597174 0.0
0.9997384253449677 0.022870961693040703 0.0
0.9999329835840504 0.011577060969848547 0.0
0.9959297649352136 0.09013269837351139 0.0
0.9961359620556712 0.08782451308958354 0.0
0.9375093379817491 0.3479601143766662 0.0
0.9955132213969057 0.09462254500886871 0.0
0.9998367728713864 0.018067307882795588 0.0
0.9999966493100628 0.0025887001848713927 0.0
0.9891279722379508 -0.1470573171808849 0.0
0.9569743692989038 -0.29017245993540697 0.0
0.9650968971720197 0.26189306800474915 0.0
0.9550174340341068 -0.29654965973831504 0.0
0.957144151527577 0.28961193552157816 0.0
0.9645054069680923 -0.26406309838618947 0.0
0.9998857557805205 -0.015115402317413464 0.0
0.9999993888679024 -0.0011055604107336674 0.0
0.9989812464815574 -0.04512725538024481 0.0
0.9931878303065509 -0.11652439114179503 0.0
0.9985377488802971 -0.05405889437519624 0.0
0.9973342759998068 -0.07296808833963757 0.0
0.9989124443036279 0.04662540740145186 0.0
0.9972595958266337 -0.07398174458404738 0.0
0.9987691495868621 -0.04960026041802897 0.0
0.9998956039619712 -0.014449262179252272 0.0
0.9997932207698366 -0.020335085509456178 0.0
0.9845558694735248 -0.17507067111664198 0.0
0.952273746759267 -0.3052453295843646 0.0
0.9994924365786305 -0.03185701213410203 0.0
0.9997827506387071 -0.020843500792827024 0.0
0.9999837382568623 -0.00570291345113158 0.0
0.999914134664223 -0.013104323664289133 0.0
0.9894495238277708 0.1448780169556368 0.0
0.9831269756132377 -0.18292443746412954 0.0
0.9930499232767621 -0.11769388208406206 0.0
0.9845041631363556 0.17536120656286555 0.0
0.9724036105732563 0.23330498953964734 0.0
0.9835794803636463 0.1804754991891686 0.0
0.9905677294789924 -0.13702398810001676 0.0
0.9527243493499277 -0.3038359987818374 0.0
0.9367383653121237 0.3500303343317119 0.0
0.9909659418976956 0.13411376513547352 0.0
0.9956023771030543 0.09367980949354787 0.0
0.9468384337789761 0.3217094656968855 0.0
0.9952501739793735 0.09735035281922105 0.0
0.9949145101180449 0.10072297432349164 0.0
0.9611690452634448 0.27596026240630767 0.0
0.9886495067951399 -0.15024031653895897 0.0
0.9960357940353403 -0.08895334170445376 0.0
0.9880975397182509 -0.15382864493565412 0.0
0.99612296727913 0.08797177990140456 0.0
0.9957563076235355 -0.09202921181854591 0.0
0.9953348115307586 -0.09648115336701253 0.0
0.9717082399183612 -0.23618445434609014 0.0
0.95653011355458 0.2916335746502149 0.0
0.9996410342757323 0.026791838162851 0.0
0.9816631188982482 0.19062403047612778 0.0
0.9878672495934914 0.15530066703202006 0.0
0.9657050209296936 0.2596417003317845 0.0
0.9999985218761752 0.0017193735675156332 0.0
0.9595709333137732 0.2814669144665753 0.0
0.9958867289767367 -0.0906069701955421 0.0
0.9749725930307058 0.22232508369273474 0.0
0.9258122342172662 0.3779837390333526 0.0
0.9978283757715701 0.0658675375664694 0.0
0.9853863013500617 -0.1703344859728809 0.0
0.9973068419681379 0.07334209544006615 0.0
0.9940198326207454 -0.1091996902771485 0.0
0.9982216829931435 0.05961100235976614 0.0
0.9999929085646889 0.0037660085413495983 0.0
0.9968951685051862 -0.07874022486008295 0.0
0.9327621154333375 -0.3604924909236326 0.0
0.9131783399951697 0.4075602033610081 0.0
0.9999968592504163 0.0025062899479393304 0.0
0.9378704374104804 -0.34698565191009584 0.0
0.9708819451322327 0.2395584450948293 0.0
0.9971598586308248 0.0753141177692038 0.0
0.9989205103321259 0.04645227699268388 0.0
0.998577836981283 -0.05331325810511204 0.0
0.9985982027117679 -0.05293042169515434 0.0
0.9972643664087767 -0.07391740993366337 0.0
0.9655482773225448 0.2602239884397014 0.0
0.9994732981934338 -0.03245190592768303 0.0
0.9222653274166592 -0.3865574547787721 0.0
0.9977066503133649 -0.06768633481349898 0.0
0.9999985719579183 -0.001689994711187184 0.0
0.9964976116014737 0.08362122979577946 0.0
0.9939182491741206 0.11012045204525231 0.0
0.9980332748192441 0.06268638092580685 0.0
0.9996450932722757 0.026639960522924614 0.0
0.9983439772341766 0.05752654274546577 0.0
0.9994131283611078 -0.034254910005189466 0.0
0.9999430677955947 0.01067057484555977 0.0
0.9923593388674833 0.12338128935333645 0.0
0.9430480502708053 0.33265654191738464 0.0
0.9963772713266849 -0.08504312543403951 0.0
0.9612853158509935 -0.2755549700681438 0.0
0.9970008161214711 -0.07739103729192706 0.0
0.9734617169972817 -0.22884991924994108 0.0
0.975543455073237 -0.21980665882491202 0.0
0.9984001131294054 0.05654391305163178 0.0
0.9984006457100367 0.056534508450873884 0.0
0.9985719835962646 0.053422781438461915 0.0
0.9996935911937684 -0.02475325687877216 0.0
0.9640322772740256 0.2657851921643793 0.0
0.9976228008079003 -0.06891115517969808 0.0
0.9992951746015065 -0.037538700272448086 0.0
0.9999061005110218 -0.01370365501763325 0.0
0.9951859775161657 0.09800443946676006 0.0
0.9997558596446666 0.022095725970284048 0.0
0.9761128394333399 0.217264181800367 0.0
0.9971489228272853 0.07545876824057417 0.0
0.9999929585228786 -0.003752719635183417 0.0
0.9998418294030669 0.017785279754006556 0.0
0.9998358947710897 0.01811583636750534 0.0
0.9978219727602663 0.06596446525827708 0.0
0.9999876195219555 0.004976022790634883 0.0
0.9982354957604046 0.05937924725002241 0.0
0.9997875095826001 0.020613968143528828 0.0
0.9987527284305093 0.04992982528122316 0.0
0.9986891085340557 0.051186565575872034 0.0
0.9786743621994477 0.20541784920864212 0.0
0.9983383603807616 0.05762393766701756 0.0
0.9903703290769718 0.13844353102969603 0.0
0.9999318438318224 0.011675088483258057 0.0
0.9947063371593543 0.10275846833726593 0.0
0.9995867786227175 0.028744947428347743 0.0
0.9981168584312173 0.06134115189167374 0.0
0.9999954957468223 -0.003001414011272519 0.0
0.999989921690707 0.004489600986028078 0.0
0.9957836338735834 0.09173306115856679 0.0
0.998544433675617 0.053935275798324904 0.0
0.9991104793887113 0.04216930134184316 0.0
0.9970493806596101 -0.0767628329746089 0.0
0.99830682562521 0.058167705044263045 0.0
0.9278881626147079 -0.37285862961650956 0.0
0.9998760028327525 -0.015747347687701346 0.0
0.9984774812509674 -0.05516085056200762 0.0
0.9623021065417949 -0.2719828225186729 0.0
0.9974223604008087 -0.07175398924435798 0.0
0.9401524529424927 0.34075411255950233 0.0
0.9623368793490923 0.27185976282754787 0.0
0.9971370573902116 0.07561540041016654 0.0
0.99999231747056 -0.0039198214064849034 0.0
0.9278576071466792 -0.37293466030933436 0.0
0.9782118050217238 -0.2076094037276278 0.0
0.9989903488806704 -0.04492530292915691 0.0
0.9787032885344354 -0.20527998687617247 0.0
0.9960320846079471 0.08899486744496803 0.0
0.9624798675135833 0.27135309954197195 0.0
0.9994080355450321 0.034403175551389935 0.0
0.9610568709471478 -0.2763506663738619 0.0
0.9999980491999592 0.001975245877403054 0.0
0.9648887262386922 -0.2626589918077703 0.0
0.9794190100435354 0.2018375652977933 0.0
0.9727930064886278 0.23167599471420622 0.0
0.9981072485787412 -0.06149731973488752 0.0
0.9546032163877728 0.2978803438666591 0.0
0.9877241321621824 -0.15620831842275162 0.0
0.9988274142878594 -0.04841277173462627 0.0
0.9997567299016782 -0.022056314658232577 0.0
0.9999950154961071 -0.003157369623668223 0.0
0.9404941096353762 0.3398099906435376 0.0
0.9999168098717874 0.012898578829765299 0.0
0.9999533994071171 0.009653963649735323 0.0
0.9992064826998078 0.0398296991035382 0.0
0.9998955570773271 0.014452506253995743 0.0
0.9968323659608794 -0.07953134082130893 0.0
0.9840168893868338 -0.17807515660939158 0.0
0.9993330709262915 0.03651593286536354 0.0
0.9579089717498875 0.2870721195816015 0.0
0.9999026185215886 -0.013955410193559543 0.0
0.9999992296310071 -0.001241264432782977 0.0
0.9936092534686861 -0.11287449411359593 0.0
0.9346463411894055 0.35557870704143346 0.0
0.9578056925822926 0.28741651876145646 0.0
0.9999594205178897 -0.0090087356230537 0.0
0.9729219064686548 -0.2311340821112243 0.0
0.9814759536272426 0.19158536596382963 0.0
0.996957655597808 -0.07794506363409011 0.0
0.999996928660067 0.00247844112955822 0.0
0.9999952099302728 0.003095176329306353 0.0
0.9999997877969122 -0.0006514646041803452 0.0
VECTORS DirPrincipal2 float
-0.0025596870986306177 0.9999967239956123 0.0
0.004317169896751316 0.9999906809786192 0.0
-0.003591974731777414 0.9999935488379544 0.0
0.003176658630084541 0.9999949544072448 0.0
0.0014928628539154882 0.9999988856796289 0.0
0.0016772016969112391 0.9999985934962449 0.0
-4.030807204084785e-05 0.9999999991876296 0.0
0.0030860080554589377 0.9999952382658038 0.0
0.00793101524630646 0.9999685490039988 0.0
0.011735346371882822 0.9999311384518096 0.0
0.016566276957713174 0.9998627698178186 0.0
0.02532868026969609 0.9996791775143641 0.0
0.03245990800847376 0.9994730383417462 0.0
0.037175110646379544 0.9993087666724583 0.0
0.038939417130069515 0.999241573291249 0.0
0.03287658049885047 0.9994594191135038 0.0
0.028794965114598847 0.9995853390201604 0.0
0.007122897969401207 0.9999746318404871 0.0
-0.014400870277535442 0.9998963020909967 0.0
-0.026879037351648018 0.9996386934042963 0.0
-0.039516520782793114 0.9992189172474784 0.0
-0.0342022311785335 0.9994149325392383 0.0
-0.03502430312703707 0.9993864608801069 0.0
-0.033459874003567265 0.9994400616503549 0.0
-0.024341637006583376 0.9997036984566176 0.0
-0.015320326750149405 0.9998826369070866 0.0
-0.009049316304023109 0.9999590540989315 0.0
-0.008258697245852258 0.9999658963783721 0.0
-0.0022839382406196736 0.9999973918096551 0.0
0.0008550866646795739 0.9999996344133311 0.0
-0.004800136348584373 0.999988479279154 0.0
-0.00417491861418133 0.9999912849893068 0.0
-0.004017049349308289 0.9999919316247133 0.0
-0.003102422146581403 0.9999951874768319 0.0
-0.0009038531289010082 0.9999995915246772 0.0
0.006623795402000217 0.9999780624266077 0.0
0.013086154484758387 0.9999143726143759 0.0
0.020441743012946725 0.9997910457403552 0.0
0.02668320055444843 0.9996439400147289 0.0
0.027740366352996773 0.9996151619871527 0.0
0.028955946907558063 0.9995806886583426 0.0
0.025517188012134703 0.9996743835449388 0.0
-0.018281312780175762 0.9998328828374436 0.0
-0.034854346643131195 0.9993924026727843 0.0
-0.03630596614413305 0.9993407210868279 0.0
-0.024994332721386896 0.9996875928667978 0.0
-0.022074489266148186 0.9997563287739862 0.0
-0.010128083652341425 0.9999487096454155 0.0
-0.003410566845433149 0.9999941839999835 0.0
0.0014235784133446695 0.9999989867117371 0.0
0.004071828767318998 0.9999917100708833 0.0
0.0037017322314996087 0.999993148565772 0.0
0.0050214642286889885 0.9999873923690239 0.0
0.004715982944896533 0.9999888796906011 0.0
-0.0021605493270307205 0.9999976660105789 0.0
0.003960384550351104 0.9999921576463555 0.0
0.008583125654469899 0.9999631642985654 0.0
0.009839036809558556 0.9999515955058326 0.0
0.01574069546490364 0.9998761075784747 0.0
0.022528799535023004 0.9997461943871108 0.0
0.03231965035481392 0.9994775836410452 0.0
0.0384342494694664 0.9992611312703596 0.0
0.03756173836124417 0.9992943089056805 0.0
0.034979325732400986 0.9993880361357677 0.0
0.025292711890656096 0.9996800881908254 0.0
0.008765066700445592 0.9999615860650533 0.0
-0.007925461774005447 0.9999685930346356 0.0
-0.021640922440587167 0.9997658078149705 0.0
-0.030139745565535853 0.9995456946719569 0.0
-0.03532500054309112 0.9993758774038078 0.0
-0.034503777831498085 0.9994045673876795 0.0
-0.031709965118056634 0.9994971126082413 0.0
-0.02333767077953144 0.9997276394711643 0.0
-0.015465100127035981 0.9998804081879297 0.0
-0.014368040830673764 0.999896774373579 0.0
-0.007076385647967412 0.9999749620696317 0.0
-0.005377930017104917 0.9999855388298029 0.0
0.000527986444749049 0.9999998606151473 0.0
-0.0023189793764298423 0.9999973111637109 0.0
-0.002412378011143105 0.9999970902119323 0.0
-0.0037724929578367215 0.9999928841231237 0.0
-0.003703999940867258 0.9999931401686905 0.0
9.409855037042174e-05 0.9999999955727314 0.0
0.003859041769787297 0.9999925538705869 0.0
0.010086996287697141 0.999949124958811 0.0
0.018160934986888217 0.9998350766203405 0.0
0.02364221217136015 0.9997204838371795 0.0
0.02695682516439247 0.9996365987582969 0.0
0.0338141802129535 0.9994281370946717 0.0
0.01702921268546138 0.9998549924440611 0.0
-0.011050980884186962 0.9999389360463454 0.0
-0.031030320306718 0.9995184436625782 0.0
-0.02857051670199051 0.9995917794656884 0.0
-0.02100070475696998 0.9997794608811038 0.0
-0.016032066816135917 0.9998714781578696 0.0
-0.009997239643160965 0.9999500263510758 0.0
-0.0033972813549410317 0.9999942292230468 0.0
-0.000994712096176258 0.9999995052738004 0.0
0.002630878564579862 0.9999965392330007 0.0
0.006865395637620897 0.9999764328936653 0.0
0.0037586357347220785 0.9999929363037591 0.0
0.003642538883995684 0.999993365933234 0.0
-0.15744630815843233 0.9875275490067504 0.0
-0.2667772747977147 0.9637582091227573 0.0
-0.32358383857417383 0.946199502966263 0.0
-0.3717495684927406 0.92833305355646 0.0
-0.2873417103888814 0.957828137752693 0.0
-0.028453320008929837 0.9995951223272698 0.0
0.03944485511300153 0.9992217488651427 0.0
0.009339030927176552 0.9999563902997677 0.0
-0.08606964256906192 0.9962891230099994 0.0
0.001762393492660657 0.9999984469833825 0.0
0.3478536733402015 0.9375488370979552 0.0
0.389792659837853 0.920902645417273 0.0
0.3323427547898479 0.943158678769747 0.0
0.24394983659895872 0.9697878516579496 0.0
0.1376144744478384 0.9904858688656013 0.0
-0.13045875775339114 0.9914537369567186 0.0
-0.24518780629532802 0.969475600334575 0.0
-0.3309667005375689 0.9436424339416255 0.0
-0.3979941042574747 0.9173879729843258 0.0
-0.3692432922064136 0.9293327666452792 0.0
-0.08915527115928727 0.9960177396133635 0.0
0.04598963913109255 0.9989419167762417 0.0
0.006102925852721099 0.9999813769746096 0.0
-0.07808589050652055 0.9969466353340102 0.0
0.01631382700207868 0.999866920669219 0.0
0.3516900160697555 0.9361165165709101 0.0
0.38912774662050814 0.9211838018604352 0.0
0.3342344465353725 0.9424899653307686 0.0
0.25069287550169156 0.9680666723799003 0.0
0.14715228975975064 0.9891138476527677 0.0
0.061112765111179954 0.998130868143284 0.0
0.0638223323941924 0.9979612767476328 0.0
0.11917937260262229 0.9928727396529958 0.0
0.1086045733908933 0.9940850298835517 0.0
-0.1344724757930269 0.9909173291723653 0.0
-0.12555616584302473 0.9920865129709198 0.0
-0.06519631410184375 0.9978724570943591 0.0
-0.06772643233104234 0.9977039292113211 0.0
0.09095132531191223 0.9958553391050363 0.0
0.09730052149565195 0.9952550469687024 0.0
0.1215552351783285 0.9925846688322065 0.0
0.0924690629938922 0.9957155579727733 0.0
-0.11578927247755436 0.9932738013151855 0.0
-0.09840525475509071 0.9951464243198515 0.0
0.10965032843341586 0.9939702236357204 0.0
0.1024663562713476 0.9947364705450752 0.0
0.235996481506173 0.9717539095453676 0.0
0.25027948168237574 0.9681736316636604 0.0
-0.19612064545885877 0.9805797736159974 0.0
-0.23023460036425286 0.9731351544339115 0.0
-0.11016705280487027 0.9939130849708586 0.0
-0.10704395055191615 0.9942542897318769 0.0
0.03984400148258553 0.9992059124854374 0.0
0.2741957172737895 0.9616739097161324 0.0
-0.025329868510906746 0.999679147407417 0.0
0.008592287828107809 0.9999630856136036 0.0
-0.029909346045996793 0.9995526154330749 0.0
0.013219081447736281 0.9999126241255674 0.0
0.006229933057683884 0.9999805937787477 0.0
0.0017343376681346807 0.9999984960352956 0.0
0.011017732526358945 0.9999393029429224 0.0
0.04304745980475007 0.9990730284640651 0.0
-0.02676067732316076 0.9996418689456769 0.0
0.031229647054379545 0.999512235615382 0.0
0.008329354606497802 0.9999653103242327 0.0
0.33903483712096644 0.9407738193733709 0.0
0.059460209459297385 0.9982306764926914 0.0
0.06091105490431135 0.9981431978380877 0.0
0.04212425717813562 0.9991123795435578 0.0
-0.08672385319960235 0.9962323891975274 0.0
-0.015194363977073955 0.9998845589883526 0.0
-0.04549017246411558 0.9989647862708599 0.0
-0.19110315964751326 0.9815699579615998 0.0
-0.20434378722556115 0.9788991861383451 0.0
0.18305709383410196 0.983102283791983 0.0
0.18770718111650173 0.9822250323410093 0.0
0.04222968527739141 0.999107928945303 0.0
0.04681770228329635 0.9989034501656868 0.0
-0.04765672021900606 0.9988637730030895 0.0
-0.03634499722276195 0.9993393023277317 0.0
-0.03657630933876212 0.9993308629253653 0.0
-0.04030044820617823 0.9991876069459534 0.0
0.02623274828768547 0.9996558622432397 0.0
0.025699429195569053 0.9996697151254619 0.0
-0.0061554873557261025 0.9999810548082466 0.0
-0.05149478036861109 0.9986732636827667 0.0
-0.0021596663156387887 0.9999976679179833 0.0
0.029296966295900947 0.9995707517559008 0.0
-0.05401263796386027 0.9985402520380362 0.0
-0.02225140245126654 0.9997524068933027 0.0
-0.014054655828011534 0.9999012284468682 0.0
-0.0004792052305017628 0.999999885181167 0.0
0.07534460763290575 0.9971575553043979 0.0
0.061114132777897845 0.9981307844039303 0.0
0.09564826683733924 0.9954151943038709 0.0
0.08908557597782064 0.9960239756916999 0.0
0.13178549451354266 0.9912782573202243 0.0
0.13312457135591738 0.991099313137338 0.0
-0.11750819025996852 0.9930719134190772 0.0
-0.12530283735365902 0.99211854077581 0.0
-0.09079012494706623 0.9958700483557561 0.0
-0.0894446461030515 0.9959917947872362 0.0
-0.14308970937560692 0.989709722631239 0.0
0.04721295888898414 0.9988848464727788 0.0
0.03915268790157757 0.9992332395542503 0.0
0.14446446956536943 0.9895099883443301 0.0
0.17364471430760633 0.9848083636896215 0.0
-0.015874452286187227 0.9998739929434177 0.0
-0.04420469081517132 0.9990224948968544 0.0
0.029392847200415868 0.999567936927477 0.0
0.003850124273583555 0.9999925882440719 0.0
0.0002345118189514989 0.999999972502103 0.0
-0.01571423046144571 0.9998765238573234 0.0
0.010604656284395119 0.9999437690515852 0.0
0.09860640096248428 0.9951265134088358 0.0
0.09470858236258335 0.9955050398801957 0.0
-0.09735828023229237 0.995249398527932 0.0
0.12798861850943966 0.9917756366900958 0.0
-0.0939369751546783 0.9955781459527873 0.0
-0.09483653556161606 0.9954928585995332 0.0
-0.014028961618613223 0.9999015892756163 0.0
0.001737202403522997 0.9999984910627662 0.0
-0.18524877811667448 0.9826916557121462 0.0
-0.17471545045065806 0.9846189676081929 0.0
-0.08779601817157887 0.9961384739047155 0.0
-0.08567724018504995 0.9963229448899956 0.0
0.10120136935773483 0.9948659622482415 0.0
0.08466711306811024 0.9964092933953957 0.0
0.18222173185016927 0.9832574639643094 0.0
0.19364531216864414 0.9810716044586696 0.0
0.006193228137453614 0.9999808217787166 0.0
0.0039102864786349344 0.9999923548006029 0.0
0.06229117302965972 0.9980580192366518 0.0
0.048914189837365514 0.9988029845933353 0.0
0.04282999518116 0.9990823747383306 0.0
-0.04213173663718322 0.9991120641689476 0.0
-0.05281129962303448 0.9986045096193619 0.0
-0.054041148111526355 0.998538709470388 0.0
-0.012541613440300787 0.9999213508733146 0.0
0.010206786901665123 0.9999479093938565 0.0
-0.01164273998409878 0.9999322210058355 0.0
-0.006128902441371097 0.9999812181010522 0.0
0.10399348144993602 0.9945779787507473 0.0
0.09965637610094648 0.9950219126745032 0.0
0.3298083337224081 0.9440479135124703 0.0
0.30377911879733593 0.9527424872349896 0.0
0.10694175817755008 0.9942652867106918 0.0
-0.13923793432310513 0.9902589548423355 0.0
-0.15726274585184077 0.9875567977423574 0.0
-0.10452670998624443 0.9945220796440126 0.0
-0.007025261960118519 0.9999753225427074 0.0
-0.3216245645754928 0.9468672765819001 0.0
-0.30698108978077043 0.951715614307662 0.0
-0.09309974088831799 0.9956567873753123 0.0
-0.09725154145557804 0.9952598342566196 0.0
-0.001129354828995429 0.9999993622786317 0.0
-0.00177502856601383 0.999998424635554 0.0
-0.33587191750807505 0.9419076679958863 0.0
-0.32929275896326204 0.9442278744531761 0.0
0.014173811815266868 0.9998995464838583 0.0
0.027055526106785195 0.9996339322507439 0.0
-0.032797858373205736 0.9994620055240375 0.0
-0.010256939007170009 0.9999473962175227 0.0
0.3603384193822805 0.9328216461452209 0.0
0.35609070844111945 0.9344513937931184 0.0
0.041281451766682624 0.9991475575409444 0.0
0.14844326807263455 0.9889209251319925 0.0
0.03571687121972574 0.9993619490005978 0.0
0.14623574134493605 0.9892497702568837 0.0
0.02498891090442821 0.9996877284091321 0.0
0.09685434428430938 0.9952985662570084 0.0
0.09709650298400228 0.9952749716074837 0.0
-0.030072161857699658 0.9995477302666462 0.0
0.01413719763213603 0.9999000648280357 0.0
0.04454365504918872 0.99900743880857 0.0
0.03315507851500466 0.999450219254898 0.0
-0.038912267754956924 0.9992426309051105 0.0
0.03345100475575336 0.9994403585411341 0.0
-0.10458686535084702 0.9945157553282319 0.0
0.12028689764784813 0.9927391713104988 0.0
-0.10019313169308236 0.9949680077075507 0.0
0.1178473462188998 0.9930317230527748 0.0
0.0383849558028411 0.9992630260186824 0.0
-0.12029488987224184 0.992738202886655 0.0
-0.3674977379079623 0.9300244150733521 0.0
-0.38146978553702215 0.9243813080771043 0.0
-0.003602754326412362 0.999993510059572 0.0
-0.01778131576151723 0.999841899907075 0.0
0.0018736614673391834 0.9999982446948124 0.0
-0.011152443024625256 0.9999378095734667 0.0
0.3395945184944164 0.9405719339893922 0.0
0.34103872185905665 0.9400492488123913 0.0
0.0012225483558803265 0.9999992526874795 0.0
-0.11933633189445869 0.9928538864757369 0.0
0.21608775764041982 0.9763739452678647 0.0
0.08088211102875158 0.9967236749047013 0.0
0.05605204901197197 0.9984278480699342 0.0
0.24595886500291192 0.9692802673770261 0.0
0.04529558953304589 0.9989736280647523 0.0
0.006708159018587533 0.9999775000481668 0.0
0.012429762268199586 0.9999227475210052 0.0
0.03466220319119005 0.9993990852857195 0.0
0.07896041839062021 0.996877751947338 0.0
-0.002820022610239594 0.9999960237283335 0.0
0.08135414248773223 0.9966852579927556 0.0
-0.03026733116738693 0.9995418393764234 0.0
0.018814360701908908 0.9998229942501715 0.0
0.036006354293231554 0.9993515609886795 0.0
-0.03602520433158637 0.999350881649117 0.0
0.002166635024902313 0.9999976528435799 0.0
-0.17109985545421483 0.9852536929459067 0.0
-0.039280312722074676 0.9992282307023036 0.0
-0.03480437734796436 0.9993941441280414 0.0
0.01783598855277302 0.9998409261039206 0.0
0.06192354845172597 0.9980808955927103 0.0
-0.17904085774296466 0.9838416393193894 0.0
0.006487469957972522 0.9999789561453503 0.0
-0.021737098564133202 0.9997637213592087 0.0
0.032355779129430086 0.9994764147076846 0.0
-0.033672450403175305 0.9994329222533376 0.0
0.05852053667918839 0.9982862048464759 0.0
-0.038518732570970944 0.9992578782482159 0.0
-0.02365236214649473 0.999720243750666 0.0
-0.021958967330396453 0.9997588728057294 0.0
0.015894136662514893 0.9998736802315348 0.0
-0.027383563326927755 0.9996249999172291 0.0
-0.02166766021976055 0.999765228691517 0.0
-0.0552875693466487 0.9984704726108528 0.0
-0.0013881927402092135 0.9999990364599938 0.0
-0.01481301611992254 0.9998902812576143 0.0
-0.00868603310262829 0.9999622757029087 0.0
-0.01887667548165641 0.9998218196872681 0.0
0.34066982805287677 0.9401829972161926 0.0
-0.2906462502931896 0.9568305791468563 0.0
0.3411013825909126 0.940026513878501 0.0
-0.18634341164899354 0.9824846731298224 0.0
-0.16786305867375517 0.985810323303977 0.0
-0.08109282369341964 0.9967065535780467 0.0
-0.08042292709533773 0.996760830288499 0.0
0.04737664090555508 0.998877096492109 0.0
0.02295988874157846 0.9997363870085825 0.0
-0.046289602703853475 0.9989280618150235 0.0
0.050940676903202836 0.9987016809020817 0.0
-0.04479107359215352 0.9989963762328983 0.0
0.002078365716703763 0.9999978401956413 0.0
-0.007107728263669416 0.9999747397804256 0.0
0.05520387158499934 0.9984751036265386 0.0
0.018320553774493438 0.9998321645703322 0.0
0.05199534277993421 0.9986473273028859 0.0
0.004617879742441947 0.9999893375364981 0.0
0.023701664297565987 0.9997190760956427 0.0
0.07357003749138888 0.997290052885075 0.0
0.07162371719873793 0.9974317235453439 0.0
0.027478537568194527 0.9996223936932952 0.0
0.0178483111757736 0.9998407062068301 0.0
0.2867705535714958 0.9579992952003137 0.0
-0.012012503239679704 0.9999278472799509 0.0
0.2889896451123982 0.9573322229079151 0.0
0.0753772294972662 0.9971550898798625 0.0
-0.04105084731612954 0.9991570586922898 0.0
-0.014538826803457569 0.999894305671944 0.0
-0.0184086166833754 0.9998305470587526 0.0
0.025693770883951028 0.9996698605728608 0.0
-0.26509810008500617 0.9642214462100084 0.0
-0.023048657406804843 0.9997343444094255 0.0
-0.005995129599458267 0.9999820290490654 0.0
-0.2632016216365958 0.9647408493309828 0.0
-0.030711986587852652 0.9995282756779958 0.0
-0.006948871527704471 0.9999758563007867 0.0
-0.060969465796813366 0.998139631634999 0.0
0.014059066524720764 0.9999011664401904 0.0
-0.15619120119573676 0.9877268390952191 0.0
-0.03740299476565208 0.9993002631754684 0.0
0.07470660517824727 0.9972055571158542 0.0
0.07996305215704184 0.9967978281927234 0.0
0.15404119710851186 0.9880644258313203 0.0
0.15611299514750407 0.987739202799036 0.0
0.003417314086096603 0.9999941609651712 0.0
-0.029183871244956264 0.999574060117187 0.0
0.10273656652906933 0.9947085994892263 0.0
-0.09280717924647396 0.9956841002448081 0.0
-0.07072384123839426 0.9974959339668941 0.0
-0.2314026050937149 0.9728580751352389 0.0
-0.20265104022923888 0.9792510178161713 0.0
-0.10665463615796056 0.9942961272106077 0.0
-0.10315249404932757 0.9946655533250377 0.0
-0.08797218049180802 0.9961229319012372 0.0
-0.04940021018775798 0.99877906427468 0.0
-0.0570852466638047 0.9983693077280235 0.0
-0.01379889573767498 0.9999047907058056 0.0
-0.0028002701023232108 0.9999960792359909 0.0
-0.026025129560512717 0.9996612889530927 0.0
-0.006255147682024836 0.9999804363723703 0.0
0.0790164024256013 0.9968733159974317 0.0
0.061892262783204706 0.9980828361451642 0.0
0.06287653820065958 0.9980213128705725 0.0
0.019170186631424526 0.9998162350874867 0.0
0.05380870898476903 0.9985512619977966 0.0
0.07496845684168847 0.9971859056759556 0.0
-0.08069895018565704 0.9967385210971494 0.0
-0.025947548959131452 0.9996633056699707 0.0
0.06151506901415946 0.9981061548173036 0.0
0.05779126573544296 0.9983286881607157 0.0
0.07876071258697853 0.9968935500607833 0.0
0.08405841324738526 0.9964608287144717 0.0
-0.05802308362615005 0.9983152416779546 0.0
-0.052176695967068185 0.9986378684978654 0.0
-0.057108060975692314 0.9983680029786596 0.0
0.047647358762891175 0.998864219602905 0.0
0.23963771598775935 0.9708623821511315 0.0
-0.061026680135832505 0.9981361351597281 0.0
-0.026093349538481404 0.9996595105884115 0.0
-0.059497667872154894 0.9982284445545393 0.0
0.016255711276654258 0.9998678671959061 0.0
-0.08692748174132443 0.9962146419914293 0.0
0.33245256153017755 0.9431199787577524 0.0
-0.02749236198248141 0.999622013579445 0.0
-0.042086499716174786 0.9991139707469016 0.0
-0.07463544802922308 0.9972108853685248 0.0
0.08654618723220124 0.996247839383137 0.0
-0.09414122272653812 0.9955588531993235 0.0
0.03553046233048993 0.9993685937863874 0.0
0.040197041126399526 0.999191772326355 0.0
0.3387547211497435 0.9408747200869835 0.0
0.2688711075566905 0.9631761664001237 0.0
-0.3523653751287926 0.935862512557451 0.0
-0.37008793461346895 0.9289967280101351 0.0
-0.07052806553003307 0.9975097954268878 0.0
-0.048696600739904554 0.9988136167856235 0.0
-0.0696113249262522 0.9975741894425757 0.0
0.08866859984642345 0.9960611825592215 0.0
-0.06932310087891617 0.997594260049912 0.0
0.07853542502755168 0.9969113235467545 0.0
0.020168891753849335 0.9997965872143301 0.0
0.0036417795108779215 0.9999933686990101 0.0
-0.07787136110412922 0.9969634151360773 0.0
0.06923587139978542 0.99760031781847 0.0
-0.03954317879995585 0.9992178626357692 0.0
-0.05609206963829766 0.9984256004949453 0.0
0.06202918827213156 0.9980743358098636 0.0
0.062025751391262714 0.9980745494021722 0.0
-0.024638634036897457 0.9996964227768328 0.0
-0.06823267486627167 0.9976694352743265 0.0
0.05651151000256981 0.9984019477330908 0.0
0.048731872668669234 0.9988118964981366 0.0
0.08761852768554425 0.9961541013348374 0.0
0.046294578169954796 0.9989278312431112 0.0
0.03851389909055644 0.9992580645543184 0.0
0.03692076081621282 0.9993181962822212 0.0
0.08158329976650575 0.9966665265770736 0.0
0.08350373093324395 0.996507464558208 0.0
0.10731502719965667 0.9942250675461453 0.0
0.20220727498548116 0.9793427479401408 0.0
0.23216083079422392 0.9726774124266153 0.0
-0.03046402475883325 0.9995358638865807 0.0
-0.012391913864751268 0.9999232172875918 0.0
0.0049508456212576865 0.9999877444887184 0.0
0.033270318093730315 0.9994463897248027 0.0
0.005514248897287682 0.9999847964139749 0.0
-0.004592430352834624 0.9999894547361259 0.0
0.043723941584421826 0.9990436511646135 0.0
0.05593557168984253 0.9984343803273855 0.0
0.3836667575723785 0.9234716125219538 0.0
0.34672456788861283 0.9379669898362387 0.0
-0.3540831693208337 0.9352139376654486 0.0
-0.06771463204426074 0.9977047301717631 0.0
-0.027996744337296375 0.999608014326872 0.0
-0.09285024594181317 0.9956800850818223 0.0
-0.03467515804355423 0.9993986358879295 0.0
0.08264866651479963 0.9965787464738175 0.0
0.014032976774680867 0.9999015329335391 0.0
0.007232411590662436 0.9999738457692697 0.0
-0.019316271506229624 0.9998134234221392 0.0
0.2685762093627358 0.9632584387195078 0.0
0.089842482117995 0.9959559871836093 0.0
0.30534775785234997 0.9522409079505788 0.0
-0.07858113165054638 0.996907721781971 0.0
0.014316608214254813 0.9998975121127363 0.0
-0.07900255299206387 0.9968744136654005 0.0
-0.0713758535623335 0.9974494912165971 0.0
-0.1465164238567455 0.9892082377033818 0.0
-0.12803514718355113 0.9917696310563691 0.0
0.10586827762755956 0.9943801626099418 0.0
-0.09398012552776822 0.9955740735906017 0.0
-0.11402068352689824 0.993478376074718 0.0
-0.0523915196133638 0.9986266212517081 0.0
-0.08466652117581618 0.996409343689623 0.0
-0.10775894919113824 0.9941770510674754 0.0
-0.07497862169693037 0.9971851414298293 0.0
-0.16714346158237245 0.9859325855504837 0.0
0.02294781981278919 0.9997366641100243 0.0
-0.1071341377051866 0.9942445758153102 0.0
-0.09614753602255839 0.9953670937482266 0.0
0.13481720493138633 0.9908704866199661 0.0
0.0897537061909771 0.995963991429903 0.0
0.02461031369898941 0.9996971203617809 0.0
0.364403210010715 0.9312412687020946 0.0
0.017744856104597174 0.9998425476452916 0.0
-0.022870961693040703 0.9997384253449677 0.0
-0.011577060969848547 0.9999329835840504 0.0
-0.09013269837351139 0.9959297649352136 0.0
-0.08782451308958354 0.9961359620556712 0.0
-0.3479601143766662 0.9375093379817491 0.0
-0.09462254500886871 0.9955132213969057 0.0
-0.018067307882795588 0.9998367728713864 0.0
-0.0025887001848713927 0.9999966493100628 0.0
0.1470573171808849 0.9891279722379508 0.0
0.29017245993540697 0.9569743692989038 0.0
-0.26189306800474915 0.9650968971720197 0.0
0.29654965973831504 0.9550174340341068 0.0
-0.28961193552157816 0.957144151527577 0.0
0.26406309838618947 0.9645054069680923 0.0
0.015115402317413464 0.9998857557805205 0.0
0.0011055604107336674 0.9999993888679024 0.0
0.04512725538024481 0.9989812464815574 0.0
0.11652439114179503 0.9931878303065509 0.0
0.05405889437519624 0.9985377488802971 0.0
0.07296808833963757 0.9973342759998068 0.0
-0.04662540740145186 0.9989124443036279 0.0
0.07398174458404738 0.9972595958266337 0.0
0.04960026041802897 0.9987691495868621 0.0
0.014449262179252272 0.9998956039619712 0.0
0.020335085509456178 0.9997932207698366 0.0
0.17507067111664198 0.9845558694735248 0.0
0.3052453295843646 0.952273746759267 0.0
0.03185701213410203 0.9994924365786305 0.0
0.020843500792827024 0.9997827506387071 0.0
0.00570291345113158 0.9999837382568623 0.0
0.013104323664289133 0.999914134664223 0.0
-0.1448780169556368 0.9894495238277708 0.0
0.18292443746412954 0.9831269756132377 0.0
0.11769388208406206 0.9930499232767621 0.0
-0.17536120656286555 0.9845041631363556 0.0
-0.23330498953964734 0.9724036105732563 0.0
-0.1804754991891686 0.9835794803636463 0.0
0.13702398810001676 0.9905677294789924 0.0
0.3038359987818374 0.9527243493499277 0.0
-0.3500303343317119 0.9367383653121237 0.0
-0.13411376513547352 0.9909659418976956 0.0
-0.09367980949354787 0.9956023771030543 0.0
-0.3217094656968855 0.9468384337789761 0.0
-0.09735035281922105 0.9952501739793735 0.0
-0.10072297432349164 0.9949145101180449 0.0
-0.27596026240630767 0.9611690452634448 0.0
0.15024031653895897 0.9886495067951399 0.0
0.08895334170445376 0.9960357940353403 0.0
0.15382864493565412 0.9880975397182509 0.0
-0.08797177990140456 0.99612296727913 0.0
0.09202921181854591 0.9957563076235355 0.0
0.09648115336701253 0.9953348115307586 0.0
0.23618445434609014 0.9717082399183612 0.0
-0.2916335746502149 0.95653011355458 0.0
-0.026791838162851 0.9996410342757323 0.0
-0.19062403047612778 0.9816631188982482 0.0
-0.15530066703202006 0.9878672495934914 0.0
-0.2596417003317845 0.9657050209296936 0.0
-0.0017193735675156332 0.9999985218761752 0.0
-0.2814669144665753 0.9595709333137732 0.0
0.0906069701955421 0.9958867289767367 0.0
-0.22232508369273474 0.9749725930307058 0.0
-0.3779837390333526 0.9258122342172662 0.0
-0.0658675375664694 0.9978283757715701 0.0
0.1703344859728809 0.9853863013500617 0.0
-0.07334209544006615 0.9973068419681379 0.0
0.1091996902771485 0.9940198326207454 0.0
-0.05961100235976614 0.9982216829931435 0.0
-0.0037660085413495983 0.9999929085646889 0.0
0.07874022486008295 0.9968951685051862 0.0
0.3604924909236326 0.9327621154333375 0.0
-0.4075602033610081 0.9131783399951697 0.0
-0.0025062899479393304 0.9999968592504163 0.0
0.34698565191009584 0.9378704374104804 0.0
-0.2395584450948293 0.9708819451322327 0.0
-0.0753141177692038 0.9971598586308248 0.0
-0.04645227699268388 0.9989205103321259 0.0
0.05331325810511204 0.998577836981283 0.0
0.05293042169515434 0.9985982027117679 0.0
0.07391740993366337 0.9972643664087767 0.0
-0.2602239884397014 0.9655482773225448 0.0
0.03245190592768303 0.9994732981934338 0.0
0.3865574547787721 0.9222653274166592 0.0
0.06768633481349898 0.9977066503133649 0.0
0.001689994711187184 0.9999985719579183 0.0
-0.08362122979577946 0.9964976116014737 0.0
-0.11012045204525231 0.9939182491741206 0.0
-0.06268638092580685 0.9980332748192441 0.0
-0.026639960522924614 0.9996450932722757 0.0
-0.05752654274546577 0.9983439772341766 0.0
0.034254910005189466 0.9994131283611078 0.0
-0.01067057484555977 0.9999430677955947 0.0
-0.12338128935333645 0.9923593388674833 0.0
-0.33265654191738464 0.9430480502708053 0.0
0.08504312543403951 0.9963772713266849 0.0
0.2755549700681438 0.9612853158509935 0.0
0.07739103729192706 0.9970008161214711 0.0
0.22884991924994108 0.9734617169972817 0.0
0.21980665882491202 0.975543455073237 0.0
-0.05654391305163178 0.9984001131294054 0.0
-0.056534508450873884 0.9984006457100367 0.0
-0.053422781438461915 0.9985719835962646 0.0
0.02475325687877216 0.9996935911937684 0.0
-0.2657851921643793 0.9640322772740256 0.0
0.06891115517969808 0.9976228008079003 0.0
0.037538700272448086 0.9992951746015065 0.0
0.01370365501763325 0.9999061005110218 0.0
-0.09800443946676006 0.9951859775161657 0.0
-0.022095725970284048 0.9997558596446666 0.0
-0.217264181800367 0.9761128394333399 0.0
-0.07545876824057417 0.9971489228272853 0.0
0.003752719635183417 0.9999929585228786 0.0
-0.017785279754006556 0.9998418294030669 0.0
-0.01811583636750534 0.9998358947710897 0.0
-0.06596446525827708 0.9978219727602663 0.0
-0.004976022790634883 0.9999876195219555 0.0
-0.05937924725002241 0.9982354957604046 0.0
-0.020613968143528828 0.9997875095826001 0.0
-0.04992982528122316 0.9987527284305093 0.0
-0.051186565575872034 0.9986891085340557 0.0
-0.20541784920864212 0.9786743621994477 0.0
-0.05762393766701756 0.9983383603807616 0.0
-0.13844353102969603 0.9903703290769718 0.0
-0.011675088483258057 0.9999318438318224 0.0
-0.10275846833726593 0.9947063371593543 0.0
-0.028744947428347743 0.9995867786227175 0.0
-0.06134115189167374 0.9981168584312173 0.0
0.003001414011272519 0.9999954957468223 0.0
-0.004489600986028078 0.999989921690707 0.0
-0.09173306115856679 0.9957836338735834 0.0
-0.053935275798324904 0.998544433675617 0.0
-0.04216930134184316 0.9991104793887113 0.0
0.0767628329746089 0.9970493806596101 0.0
-0.058167705044263045 0.99830682562521 0.0
0.37285862961650956 0.9278881626147079 0.0
0.015747347687701346 0.9998760028327525 0.0
0.05516085056200762 0.9984774812509674 0.0
0.2719828225186729 0.9623021065417949 0.0
0.07175398924435798 0.9974223604008087 0.0
-0.34075411255950233 0.9401524529424927 0.0
-0.27185976282754787 0.9623368793490923 0.0
-0.07561540041016654 0.9971370573902116 0.0
0.0039198214064849034 0.99999231747056 0.0
0.37293466030933436 0.9278576071466792 0.0
0.2076094037276278 0.9782118050217238 0.0
0.04492530292915691 0.9989903488806704 0.0
0.20527998687617247 0.9787032885344354 0.0
-0.08899486744496803 0.9960320846079471 0.0
-0.27135309954197195 0.9624798675135833 0.0
-0.034403175551389935 0.9994080355450321 0.0
0.2763506663738619 0.9610568709471478 0.0
-0.001975245877403054 0.9999980491999592 0.0
0.2626589918077703 0.9648887262386922 0.0
-0.2018375652977933 0.9794190100435354 0.0
-0.23167599471420622 0.9727930064886278 0.0
0.06149731973488752 0.9981072485787412 0.0
-0.2978803438666591 0.9546032163877728 0.0
0.15620831842275162 0.9877241321621824 0.0
0.04841277173462627 0.9988274142878594 0.0
0.022056314658232577 0.9997567299016782 0.0
0.003157369623668223 0.9999950154961071 0.0
-0.3398099906435376 0.9404941096353762 0.0
-0.012898578829765299 0.9999168098717874 0.0
-0.009653963649735323 0.9999533994071171 0.0
-0.0398296991035382 0.9992064826998078 0.0
-0.014452506253995743 0.9998955570773271 0.0
0.07953134082130893 0.9968323659608794 0.0
0.17807515660939158 0.9840168893868338 0.0
-0.03651593286536354 0.9993330709262915 0.0
-0.2870721195816015 0.9579089717498875 0.0
0.013955410193559543 0.9999026185215886 0.0
0.001241264432782977 0.9999992296310071 0.0
0.11287449411359593 0.9936092534686861 0.0
-0.35557870704143346 0.9346463411894055 0.0
-0.28741651876145646 0.9578056925822926 0.0
0.0090087356230537 0.9999594205178897 0.0
0.2311340821112243 0.9729219064686548 0.0
-0.19158536596382963 0.9814759536272426 0.0
0.07794506363409011 0.996957655597808 0.0
-0.00247844112955822 0.999996928660067 0.0
-0.003095176329306353 0.9999952099302728 0.0
0.0006514646041803452 0.9999997877969122 0.0
CELL_DATA 1232
SCALARS Stress float 6
LOOKUP_TABLE default
1004.8927961682771 -32.60740690416617 0.0 99.79242384755133 0.0 0.0
1182.295540391436 -2.6197355572342076 0.0 -12.589431981271632 0.0 0.0
1039.1981306913217 -11.526473159336263 0.0 -5.59736429412963 0.0 0.0
979.8372064876878 -10.812759702452581 0.0 7.755743087761652 0.0 0.0
1023.7660345400159 -8.105962054285499 0.0 -113.0087118751311 0.0 0.0
567.233122720569 -10.566319715636297 0.0 76.90383721525674 0.0 0.0
1021.4877640061742 -14.612794431874704 0.0 109.92822790818607 0.0 0.0
1186.9592929348755 -0.6839088303222525 0.0 12.139579905401263 0.0 0.0
1117.9182784706643 -3.400876631670485 0.0 -2.190843933992505 0.0 0.0
947.5923658341917 -13.977282331180561 0.0 9.747992210505354 0.0 0.0
1017.6046857188664 -8.053946305026727 0.0 7.809347192969025 0.0 0.0
971.8970343055464 -13.109509140672515 0.0 -6.344365091270792 0.0 0.0
1132.9259820965326 -10.073784284566614 0.0 -5.907801681550737 0.0 0.0
1064.0941936058894 -4.113240098026495 0.0 -14.301989416397653 0.0 0.0
1098.7529580227406 -7.674493532990994 0.0 26.082007467410374 0.0 0.0
1062.2917863573402 -15.615163116444364 0.0 -118.66737523068134 0.0 0.0
584.120110220543 11.513026311305481 0.0 106.97349011304009 0.0 0.0
1039.3468952788132 -20.945304084160853 0.0 107.27605098515873 0.0 0.0
1019.4369456078896 -9.499811662750176 0.0 0.9193447998105648 0.0 0.0
967.0060155111626 -14.825682438296667 0.0 -13.349708908835177 0.0 0.0
1160.4981215658688 -3.452616854741393 0.0 14.628782538725563 0.0 0.0
930.1546804103477 -6.545400704806923 0.0 -10.780112441350031 0.0 0.0
613.7532143768689 33.486658936231976 0.0 3.3905407059128865 0.0 0.0
608.1919377781363 35.35105589258842 0.0 0.16068236456619048 0.0 0.0
976.6964058743115 2.0497757749035372 0.0 -34.914336329986504 0.0 0.0
976.6057601583451 -1.1019101005220477 0.0 33.216759980127414 0.0 0.0
979.3036338179699 1.5977115491751306 0.0 34.64086152356007 0.0 0.0
603.295128196981 36.07453411979856 0.0 -1.99787505152107 0.0 0.0
1043.07609927792 1.400088795991735 0.0 -4.909947961444908 0.0 0.0
1117.066359042789 -5.569990185544043 0.0 0.5425884125355533 0.0 0.0
1080.6076485952021 -4.24585976580147 0.0 -10.986577808627906 0.0 0.0
700.1289350514489 -50.36690599520466 0.0 -104.19989769374293 0.0 0.0
985.4299677275986 -29.08279126207009 0.0 -39.70456172614023 0.0 0.0
707.5022070590904 -144.19831183641728 0.0 -152.69995067538844 0.0 0.0
708.2466920286988 -147.8500979289406 0.0 -154.79895637050555 0.0 0.0
1022.851646789597 -80.79341667141836 0.0 -18.06552219954836 0.0 0.0
961.1427007483287 -106.97777961629959 0.0 -45.011064012679284 0.0 0.0
965.3755766622763 -105.75277706652349 0.0 -44.46394408275304 0.0 0.0
948.4033882338306 -117.94449118518355 0.0 56.574643056687165 0.0 0.0
847.3808133773912 -96.38940317402313 0.0 -107.30232221233372 0.0 0.0
996.4674792101314 -109.52618255371647 0.0 63.493513781019935 0.0 0.0
851.9623504135864 -98.41940587188412 0.0 -108.84229697504324 0.0 0.0
1030.4799715283398 -40.68068820364823 0.0 -45.223945070747625 0.0 0.0
938.7873300658224 -116.31512747070059 0.0 61.21148433726589 0.0 0.0
970.5122184124843 -41.16520054158718 0.0 -17.344051759788247 0.0 0.0
1015.060907602884 -106.40843576220965 0.0 72.97282616212246 0.0 0.0
578.8972080090175 -99.55194912564195 0.0 -154.59529645095355 0.0 0.0
661.8279171901513 -73.18736739005519 0.0 -121.12678154225375 0.0 0.0
1069.4697865867556 -82.5529019536637 0.0 -20.035066220544117 0.0 0.0
677.7510837566018 -74.19254690782702 0.0 -133.34707029219442 0.0 0.0
1050.0928869682668 -28.755316237799207 0.0 -47.33995355323326 0.0 0.0
980.3833109750512 -61.210041353048155 0.0 -29.923742688044868 0.0 0.0
940.0494106616702 -68.8562316259862 0.0 -18.316562291270277 0.0 0.0
906.1471318304225 -31.9092723274465 0.0 -2.050170267096731 0.0 0.0
866.8900803968546 -68.71803285535702 0.0 17.93398317017412 0.0 0.0
984.3305305050645 -94.11347994587356 0.0 5.849420161082654 0.0 0.0
904.3625794806958 -24.137378824099187 0.0 6.9088468906849645 0.0 0.0
675.37199852985 -131.8967495821206 0.0 155.3203118388099 0.0 0.0
984.4693290499325 -93.92170642929875 0.0 -3.072207680936348 0.0 0.0
998.6840651985904 -27.89585107029984 0.0 28.60886852052074 0.0 0.0
1013.0494651542768 -56.23563304090811 0.0 -52.58953825109142 0.0 0.0
900.997280355719 -99.04422498172511 0.0 -12.359869941346505 0.0 0.0
749.3064944207346 -44.738036226410685 0.0 -54.994001746683644 0.0 0.0
821.1817353828409 -21.516922960132888 0.0 -12.161452224766231 0.0 0.0
986.4151758176629 -96.67080498116593 0.0 -9.667623578593872 0.0 0.0
1027.988891789551 -40.78822873775408 0.0 -57.479891553451694 0.0 0.0
877.4027732387701 -90.76512431344861 0.0 22.24072335956885 0.0 0.0
841.6180461113897 -45.259376588181624 0.0 17.94551636127303 0.0 0.0
905.7864496660667 -101.78258791582277 0.0 -12.466422700426183 0.0 0.0
957.4562256448377 -76.01230042800023 0.0 30.044428337199413 0.0 0.0
995.1723282668652 -43.050683043109814 0.0 44.489714455675696 0.0 0.0
925.6179177261313 -65.36415006346749 0.0 -13.641229184897156 0.0 0.0
991.3877378994782 -41.02363298347473 0.0 34.52640958882787 0.0 0.0
993.3487699437386 -55.03026574893022 0.0 44.66385908722848 0.0 0.0
890.4710804200807 -77.60521855554725 0.0 -10.480046271082113 0.0 0.0
1007.1601842365841 -58.36546944220805 0.0 -72.15517902942659 0.0 0.0
984.0485331973314 -81.43725197411845 0.0 -32.51925875634603 0.0 0.0
1002.8131421936198 -19.072355723257942 0.0 -34.027657422654286 0.0 0.0
729.0305324127135 -72.88739756533224 0.0 -76.2842519444524 0.0 0.0
904.8224475549878 -58.04932776666516 0.0 -13.011281029728407 0.0 0.0
888.7454652110148 -33.18374933965367 0.0 -3.2511180786662575 0.0 0.0
895.2781402130663 -52.68483995109875 0.0 -10.471784576563918 0.0 0.0
899.8017083734893 -55.20714771478083 0.0 10.957035948643242 0.0 0.0
880.9256004002582 -34.95160699261703 0.0 4.8130487545048535 0.0 0.0
714.8049597175391 -74.30430598590704 0.0 -83.61566793925475 0.0 0.0
898.038869344264 -59.378378272026794 0.0 -14.946779443776606 0.0 0.0
1006.3502895757052 -73.23407121621477 0.0 -55.67371870446848 0.0 0.0
967.7512162691628 -104.92061515350377 0.0 6.126230077615741 0.0 0.0
1000.1401422403495 -70.57951117769852 0.0 -48.8302087059981 0.0 0.0
944.0180954342828 -18.069663381159387 0.0 8.464091820950326 0.0 0.0
1016.4602900543239 -35.037997986063544 0.0 -73.09432049156226 0.0 0.0
992.0670594285368 -71.63978526382994 0.0 -53.53704217380938 0.0 0.0
727.0337934067614 -109.74546469965122 0.0 -109.37807146117603 0.0 0.0
924.8237971477315 -82.40936552956799 0.0 -25.7674706003354 0.0 0.0
961.0159578487951 -62.45241402104642 0.0 -18.485910175916715 0.0 0.0
966.0378051431126 -38.0137005111834 0.0 -31.69751681246422 0.0 0.0
514.3307717081407 -126.7568843565659 0.0 -203.75568770454018 0.0 0.0
1106.2441545187792 -26.866364431077272 0.0 -47.3681196282469 0.0 0.0
329.0275180161232 -76.89426872770633 0.0 -202.67094345021877 0.0 0.0
596.3293616781342 -107.69792250303877 0.0 -181.88564116145736 0.0 0.0
698.6563249980856 -112.00846490391015 0.0 -115.44075399834185 0.0 0.0
921.0500203182337 -84.90062898459405 0.0 -27.294093574279024 0.0 0.0
997.3537759997935 -51.47917054526431 0.0 49.68120577351388 0.0 0.0
1006.066909054011 -35.248743605281504 0.0 33.52727769803425 0.0 0.0
928.0613148528807 -38.51470916579194 0.0 -6.967838642516093 0.0 0.0
954.8371286031717 -49.26263262884487 0.0 21.917570503070703 0.0 0.0
903.1803071219163 -58.91066078341106 0.0 -7.417509262954137 0.0 0.0
1025.3118730352035 -11.44627030130738 0.0 -31.174741478683888 0.0 0.0
802.8227358837944 -30.19100476191676 0.0 20.108976438626655 0.0 0.0
867.3031789722439 -16.02390956236411 0.0 8.054266744578209 0.0 0.0
1028.6257829591987 -28.689594507628897 0.0 53.01578389416553 0.0 0.0
1034.8216656672287 -20.543964382522915 0.0 56.80361484212436 0.0 0.0
876.1711477941482 -72.12252397933003 0.0 36.72972918893378 0.0 0.0
394.30574388439675 97.68430828466444 0.0 46.58990016967617 0.0 0.0
921.2471891334866 20.9135859712286 0.0 86.02831540999648 0.0 0.0
1026.8632056772103 26.100332063429846 0.0 112.7490993510321 0.0 0.0
928.8479956083943 33.26269755485538 0.0 96.93341179847089 0.0 0.0
1006.687956888652 -70.05908699391904 0.0 54.285543640283166 0.0 0.0
960.6662750496405 -17.36003231952043 0.0 18.258373243683586 0.0 0.0
966.2472556973801 -39.861143057976335 0.0 8.15403251704975 0.0 0.0
908.5532835638884 -13.212106805517124 0.0 5.969032131915217 0.0 0.0
898.4029476830513 -20.57582904043676 0.0 1.8223568341809415 0.0 0.0
1028.9931581175383 -18.839754017183225 0.0 46.45920300805671 0.0 0.0
1016.3079597721687 -17.464240622378554 0.0 -74.14336435894012 0.0 0.0
968.4881209374443 -4.281555465505903 0.0 -81.29939120534895 0.0 0.0
536.3822119492149 51.09258568807216 0.0 -52.821192319113266 0.0 0.0
582.1029971292874 39.04618638913274 0.0 -25.10934087026763 0.0 0.0
985.0318053154072 -101.40432372996912 0.0 0.4884411450504214 0.0 0.0
916.0519116078153 -109.13492206071078 0.0 20.20600577616181 0.0 0.0
603.2191384307622 9.729664812809716 0.0 -44.88895265098041 0.0 0.0
854.0810771352873 -70.804250528193 0.0 48.08266179817179 0.0 0.0
1048.6674148074246 -20.941118979862665 0.0 48.76320374880565 0.0 0.0
912.3457705479012 10.860894154367429 0.0 -80.92035312794803 0.0 0.0
450.92507988971363 63.268834827925374 0.0 -35.076588561641266 0.0 0.0
1010.0318150509069 -67.24654931873812 0.0 57.820715096390934 0.0 0.0
998.1403321678922 -93.65979762428066 0.0 11.730391633493591 0.0 0.0
926.7329200915435 -107.80165963206832 0.0 -13.13277203877329 0.0 0.0
849.2921613544634 -32.38845613461717 0.0 26.5577550699799 0.0 0.0
905.1369155626794 -87.08764912754947 0.0 42.75188466029625 0.0 0.0
800.0309864349234 -121.3491333720915 0.0 81.29432062575437 0.0 0.0
342.4305745481848 19.805141588739332 0.0 -121.66350104552888 0.0 0.0
1002.9227546516684 -92.65529820438775 0.0 14.580125152003692 0.0 0.0
930.2570247340142 -112.41332233071728 0.0 -13.992339278890704 0.0 0.0
832.326878106349 -13.524144220708877 0.0 17.279414703609046 0.0 0.0
1016.3198611088004 -50.06805291249685 0.0 70.76850329503769 0.0 0.0
956.1582351656552 -14.276833237138646 0.0 -85.93941739568353 0.0 0.0
941.9400219309048 11.144400911462583 0.0 -81.04584201591894 0.0 0.0
895.766684137998 -90.24778925430655 0.0 52.02639725625209 0.0 0.0
783.1100348211222 -129.14218226676832 0.0 90.3227556356305 0.0 0.0
1040.4731828600075 -15.010613771609826 0.0 58.58177930245255 0.0 0.0
1021.7459122420897 -25.720389144175215 0.0 69.87262031630058 0.0 0.0
1020.0234113372571 -35.98529705954536 0.0 -99.0547301565614 0.0 0.0
824.3138845062431 -35.22599073996025 0.0 35.34068081499651 0.0 0.0
725.9593764248482 -10.629766713601356 0.0 -39.68543315021752 0.0 0.0
675.7602207244059 -17.441922373998068 0.0 -73.67606333860795 0.0 0.0
1038.6394017877233 -26.636859433304437 0.0 -24.78910375252976 0.0 0.0
934.3838255543958 -25.554330917622792 0.0 -3.4199973501967853 0.0 0.0
1017.1342207542597 -49.302479112192316 0.0 74.79399585414455 0.0 0.0
531.728878392935 73.57671225103988 0.0 -59.71810191369463 0.0 0.0
525.9359802167556 34.839084166667504 0.0 -33.28325163363981 0.0 0.0
443.8039670889989 62.35006026406313 0.0 -33.1218493988374 0.0 0.0
2400.633280156384 218.5419210935064 0.0 140.3829041433983 0.0 0.0
2426.9866307938946 229.03550573060545 0.0 202.29928384769195 0.0 0.0
1460.5342968609032 244.6164304616894 0.0 72.0968995308493 0.0 0.0
11.855785908702245 -613.5189142600614 0.0 49.12043477930789 0.0 0.0
-25.790046538322233 -96.35562878249497 0.0 -47.93447874183425 0.0 0.0
5.985256971706747 -621.8060957749126 0.0 48.08178927875283 0.0 0.0
-26.830757481404437 -103.27854735775644 0.0 -33.88878095943202 0.0 0.0
-2.9879636449228144 -601.7942147581971 0.0 -20.014585218457384 0.0 0.0
8.739279185737416 -574.6199685963229 0.0 -27.858175014775437 0.0 0.0
2448.9497785863014 207.18877329201018 0.0 -201.68992831353063 0.0 0.0
1442.7618389211468 249.21631839621864 0.0 -49.06849372403842 0.0 0.0
2483.082227795891 209.01389641282697 0.0 -176.16138542710337 0.0 0.0
1028.0834044929866 -20.389553523039126 0.0 58.36830418197743 0.0 0.0
795.8014151390877 1.9983424967443852 0.0 12.603225608522969 0.0 0.0
932.2388237670269 -9.61478354850243 0.0 -4.96322471844965 0.0 0.0
962.8014667954078 -26.67253860298456 0.0 -7.861778857083361 0.0 0.0
262.17681503779215 -37.580618960628215 0.0 -133.78849994321683 0.0 0.0
1099.9544104596373 -11.114211320460186 0.0 20.598519877799642 0.0 0.0
1031.0038798528046 -10.626763340037428 0.0 49.58803426310656 0.0 0.0
1007.7623095934034 -69.13232713806167 0.0 -69.0420758844944 0.0 0.0
988.6050724769543 -31.523789895076277 0.0 -18.288586978396296 0.0 0.0
934.8662478443816 -23.946710753069112 0.0 -8.055707419970952 0.0 0.0
1011.1883871856378 -7.723146877850297 0.0 -14.91261356793231 0.0 0.0
1044.8260295765458 -14.007368860636063 0.0 2.6759086580258016 0.0 0.0
963.1998903236024 -12.905226079918634 0.0 0.9655757655564329 0.0 0.0
1005.6715136741047 -21.090006645427422 0.0 34.223986235890656 0.0 0.0
1027.1436168681778 -21.745989852479113 0.0 17.58043160617114 0.0 0.0
591.8436076095618 -30.268935707346174 0.0 -135.842442179062 0.0 0.0
1007.9945921080201 -18.878367152356816 0.0 92.79774046472423 0.0 0.0
1019.3056434163202 -10.589838863754437 0.0 68.6689299155539 0.0 0.0
1020.0886739260109 -28.61616584438292 0.0 -21.967312061151432 0.0 0.0
965.4251460471273 -18.20450822027425 0.0 -9.753941845601716 0.0 0.0
1017.6320950089032 -7.434603414148455 0.0 68.70968647696448 0.0 0.0
622.1810232672727 13.613530148389856 0.0 25.992028922153324 0.0 0.0
670.3545276857798 -66.58719503053376 0.0 91.15412539332107 0.0 0.0
989.3732057940072 -10.20587082588986 0.0 -107.88304857264517 0.0 0.0
709.6370115122247 -14.685968792450552 0.0 24.50685777615472 0.0 0.0
807.4541262020533 -11.673888856694873 0.0 26.403778769675586 0.0 0.0
1008.3724418788723 -64.00883280284279 0.0 72.56201287620405 0.0 0.0
994.9334245267411 -18.309691488963608 0.0 110.70185682577437 0.0 0.0
1034.4696842942626 -12.18995083360926 0.0 62.37168501287338 0.0 0.0
1018.0626876210187 -29.13223732924041 0.0 73.89534092521532 0.0 0.0
575.5354891648515 27.64615422568656 0.0 74.08918400700188 0.0 0.0
642.4303232836941 -28.979494215355317 0.0 -79.20519657252048 0.0 0.0
628.6996024865983 -25.20380595099394 0.0 -107.44065951977244 0.0 0.0
737.5196043993731 -43.53370911683837 0.0 -78.63470633794964 0.0 0.0
1017.6815771965595 -41.411657425755436 0.0 -97.64209166075545 0.0 0.0
1043.9976399341624 -28.360406022856807 0.0 -110.48569657675158 0.0 0.0
1035.901815260935 -62.90085305056601 0.0 -89.28538279382252 0.0 0.0
1037.1365269980133 -9.884341411325579 0.0 28.169031962333584 0.0 0.0
989.7633420495365 -7.855926531710679 0.0 72.84913670109871 0.0 0.0
994.2134738344879 -15.690602337684993 0.0 96.64847474393653 0.0 0.0
1737.245436954609 65.1470510839386 0.0 25.500113069286055 0.0 0.0
1823.037403328257 118.78137683539597 0.0 -9.781488033256608 0.0 0.0
1842.486744257054 184.3903920680374 0.0 3.5382349669123583 0.0 0.0
-40.6069278209024 -310.8954306582473 0.0 -37.20309939663803 0.0 0.0
46.03779722714579 -268.12822890002496 0.0 7.773942958275213 0.0 0.0
-48.71963389763244 -302.14398307499516 0.0 -34.919188071463026 0.0 0.0
39.673811835528355 -254.9737244065106 0.0 10.773949339920422 0.0 0.0
996.2647789036274 5.187135977070568 0.0 -102.04981649801111 0.0 0.0
933.2510182209817 1.3089691326925958 0.0 -92.67639392697598 0.0 0.0
547.9328728273222 24.73176082650511 0.0 76.561398481005 0.0 0.0
489.2006695319294 51.42968865339968 0.0 49.442020733199215 0.0 0.0
956.7187437756144 -2.8318932802045538 0.0 101.39060196009673 0.0 0.0
1032.7784063465406 -18.658764385094685 0.0 -58.72620087910398 0.0 0.0
992.187148715617 -18.993039650390642 0.0 25.61812275183314 0.0 0.0
1015.5167440582479 -25.257116076418185 0.0 12.265484426420336 0.0 0.0
565.8337145367371 17.203050867384974 0.0 46.78543277886647 0.0 0.0
613.7662091728841 29.648285815306963 0.0 46.2626899007801 0.0 0.0
988.8316259632865 -8.326525538472538 0.0 73.41766154585953 0.0 0.0
435.96931254100554 45.45181956921532 0.0 -70.0629498554375 0.0 0.0
577.8247689656278 -0.24890897014336133 0.0 -106.74862052230907 0.0 0.0
1032.6062096363148 -23.02832047916155 0.0 104.2989708653215 0.0 0.0
974.8236417204897 -23.80184203295073 0.0 -19.963572871698158 0.0 0.0
1015.294392038585 -42.36182000234339 0.0 -35.58666373238589 0.0 0.0
1034.6394147375386 -34.59656790670351 0.0 -62.87305279966459 0.0 0.0
1025.364892267158 -14.797933847584716 0.0 -54.229752316724934 0.0 0.0
823.8235310815174 -123.21471130853672 0.0 -75.36471786405937 0.0 0.0
835.3354211019212 -88.52734820874127 0.0 -81.40689037821602 0.0 0.0
916.1086040046773 -103.56395453875069 0.0 11.026810524491792 0.0 0.0
1013.8180367519103 -107.77632014493736 0.0 -1.6105967040928337 0.0 0.0
824.488757748266 -126.1617894549147 0.0 -76.73695367171071 0.0 0.0
831.7798674615981 -89.24196135592746 0.0 -79.26315019545672 0.0 0.0
921.3145306526094 -55.10452671559091 0.0 1.534481972945996 0.0 0.0
919.3919705347912 -43.4724170825757 0.0 -9.725792407071074 0.0 0.0
1020.663987596477 -99.59372830478117 0.0 -59.653637419749685 0.0 0.0
833.5559023839483 -150.2456879251602 0.0 -99.10216594638015 0.0 0.0
1018.9725443361896 -100.99514516387137 0.0 -59.23779462827335 0.0 0.0
832.6359623287676 -152.04160793322126 0.0 -101.54889540316098 0.0 0.0
838.2112569628937 -138.62457954953783 0.0 145.02967181701072 0.0 0.0
857.899671591757 -117.98037828358713 0.0 76.12227176117051 0.0 0.0
896.3532807469073 -37.362519285956466 0.0 -1.1295207795252935 0.0 0.0
843.9764316903529 -45.142570573215664 0.0 -25.38293382504768 0.0 0.0
1001.5782821033929 -59.76865160232745 0.0 -47.09108723127246 0.0 0.0
1012.3260029005419 -21.37091099444143 0.0 -53.04365907069033 0.0 0.0
1032.015863234458 -63.14018017168456 0.0 67.33390065354979 0.0 0.0
1041.4214956837538 -96.77867144026538 0.0 6.654749224222194 0.0 0.0
1031.072523379569 -66.56955363457371 0.0 -63.478205991433434 0.0 0.0
1032.3574052611025 -102.45033085169581 0.0 1.6422426125813165 0.0 0.0
861.0451727872028 -106.92165216623476 0.0 120.26249357984152 0.0 0.0
836.1545097097472 -134.509712068944 0.0 92.24052845831805 0.0 0.0
1023.7807075353948 -62.64257430420258 0.0 62.16941127319686 0.0 0.0
1050.0466844142277 -96.13385580497658 0.0 12.865411758000016 0.0 0.0
698.8476804519765 -120.56634004889389 0.0 122.88134479192661 0.0 0.0
817.1464556043612 -93.23195032346888 0.0 94.48939992280644 0.0 0.0
947.7117754771652 -29.094674895318462 0.0 -16.017571383622954 0.0 0.0
994.8174987752233 -44.93131167891653 0.0 -28.657147920050182 0.0 0.0
685.3861807883222 -118.74667354606879 0.0 122.4159045782266 0.0 0.0
797.215158814727 -87.92091221054625 0.0 97.76825772774895 0.0 0.0
826.8320281967493 -30.83016513403402 0.0 15.603630858497036 0.0 0.0
907.1609567470284 -32.902724258278226 0.0 2.6519649232312763 0.0 0.0
467.5734424925483 -52.82328790313068 0.0 -160.42969995575734 0.0 0.0
462.6682506709574 -69.54018838754257 0.0 -167.95048072314404 0.0 0.0
815.8288450315835 -67.6213767416391 0.0 -41.93526656694552 0.0 0.0
810.6896835873554 -35.70169736639485 0.0 -34.69778200019003 0.0 0.0
884.1007931593805 -96.27768742960336 0.0 21.22119474880351 0.0 0.0
951.7406746590774 -76.84679074393802 0.0 -1.4452952584296432 0.0 0.0
1021.4047441868473 -92.78182203882051 0.0 -53.16176323744298 0.0 0.0
961.9453726710956 -85.24291398408178 0.0 -30.476159931408127 0.0 0.0
822.6794706729419 -36.43717540639773 0.0 -22.97515275504639 0.0 0.0
985.1974065085202 -48.475985797809926 0.0 -49.81606755656298 0.0 0.0
1013.7583233105338 -65.30684268169307 0.0 -71.36057561930363 0.0 0.0
957.9811615705554 -14.386767912852577 0.0 -8.99654056525218 0.0 0.0
900.463216080267 -19.369566196487995 0.0 5.524980805231877 0.0 0.0
819.7132782446342 -72.06351510900714 0.0 -39.44873667906986 0.0 0.0
818.3027643852025 -33.51517586621702 0.0 -35.50096555622359 0.0 0.0
818.4773917113044 -72.2585143447717 0.0 77.56181612844738 0.0 0.0
796.9236485926957 -91.2608997101998 0.0 57.79073229765775 0.0 0.0
950.951769467908 -47.63421409657627 0.0 18.52128596007444 0.0 0.0
951.5640694452356 -54.93720323350186 0.0 17.121905190596323 0.0 0.0
1036.1389818780376 -22.448180554905946 0.0 42.04230687547553 0.0 0.0
1020.1061876109167 -37.60939119909108 0.0 54.73551082861142 0.0 0.0
964.5665559210922 -43.58916228139657 0.0 12.167881196193099 0.0 0.0
953.854489312629 -30.076392866882372 0.0 21.717194383022523 0.0 0.0
819.6472547252656 -56.52345638827734 0.0 -59.66316150142074 0.0 0.0
810.5222154341037 -100.10122869649666 0.0 -57.02422992753128 0.0 0.0
955.2843471593426 -71.97976012487374 0.0 28.089724714916187 0.0 0.0
968.7741189469275 -72.87352796423039 0.0 17.11229290042802 0.0 0.0
1021.9293492228735 -25.925570705038012 0.0 -95.5374604707711 0.0 0.0
1013.1956342066317 -46.54238009069678 0.0 -76.92444199595221 0.0 0.0
1015.1568216351791 -92.12361912638806 0.0 -46.92271281231704 0.0 0.0
960.7628237435284 -78.17431687685428 0.0 -30.98506469927992 0.0 0.0
848.2953800875816 -66.22439786490474 0.0 23.24879162740766 0.0 0.0
931.382944783053 -79.06812207262755 0.0 8.899577286048805 0.0 0.0
1025.4940773735227 -86.56752992133374 0.0 59.85768406974162 0.0 0.0
970.6576031319792 -80.81877480442864 0.0 37.943003026649194 0.0 0.0
801.2558417439379 -77.8528611364519 0.0 82.36953403000224 0.0 0.0
786.7282225170304 -87.79142560450373 0.0 64.72089553372405 0.0 0.0
1039.8069747212332 -77.79438513454994 0.0 64.46530548421597 0.0 0.0
976.0427229083009 -83.80364488680692 0.0 40.144720422324994 0.0 0.0
897.1109025375075 -80.88714183047955 0.0 -8.663960385154382 0.0 0.0
972.6234601481848 -68.44746973017129 0.0 19.36210729631746 0.0 0.0
742.7492204413544 -34.80681740413996 0.0 34.004475714474495 0.0 0.0
827.6051421733767 -61.746682358341616 0.0 -54.25748192460065 0.0 0.0
822.7245060850571 -99.66174456005729 0.0 -53.56808831690383 0.0 0.0
994.9279310889135 -34.79715736852967 0.0 41.80870341142434 0.0 0.0
955.9682049282072 -59.32129599625381 0.0 20.37467119654923 0.0 0.0
1014.6745913109636 -39.81988207882296 0.0 87.10699945932612 0.0 0.0
1020.5816593027249 -30.20550893558618 0.0 69.07407093116689 0.0 0.0
944.9851264358476 -43.49317314031259 0.0 -9.044199764971644 0.0 0.0
899.1076391502222 -47.6636162010476 0.0 -2.869528690103227 0.0 0.0
941.584570605542 -35.90523058844275 0.0 -2.1943615639090215 0.0 0.0
944.2042014005765 -28.410590797196278 0.0 20.524807669378422 0.0 0.0
817.8788997154551 -47.39289582839842 0.0 26.546115665853918 0.0 0.0
883.0138103052066 -30.568332184859116 0.0 9.297124695611691 0.0 0.0
929.4509425770326 -21.139883460715737 0.0 -1.1272442609667606 0.0 0.0
865.1471376768111 -23.35523583991204 0.0 8.00643741140281 0.0 0.0
1039.139459295562 -15.663239059387934 0.0 -24.103859780714917 0.0 0.0
992.4770680168931 -18.143470884599253 0.0 -19.17808406130069 0.0 0.0
1021.6239488672024 -21.43813378113458 0.0 82.81971515651274 0.0 0.0
1010.7901171147694 -17.593856972512867 0.0 72.88867624364934 0.0 0.0
996.829834498116 -47.63458844228376 0.0 50.43530515621759 0.0 0.0
1018.357372529207 -35.07866922809967 0.0 60.6942610465417 0.0 0.0
1058.217421323579 -18.543168488076276 0.0 33.974915807834584 0.0 0.0
1014.4618257303187 -42.26252510425684 0.0 -90.86562803563808 0.0 0.0
1029.418456345312 -54.2582366382137 0.0 -82.02251349302429 0.0 0.0
732.145232989365 -31.92267558750021 0.0 37.7602709033994 0.0 0.0
1019.054300913643 -30.65228798860113 0.0 74.56765499029585 0.0 0.0
917.4179077189764 34.687602309440365 0.0 -82.03726543794633 0.0 0.0
339.77667869220545 -25.0654243805392 0.0 -158.88728989259783 0.0 0.0
713.915022768774 8.57997008781473 0.0 38.7639994544814 0.0 0.0
683.624237560418 -71.31121256128736 0.0 86.7129116257965 0.0 0.0
1000.6202557444417 -22.093717465890563 0.0 78.31826414763248 0.0 0.0
1060.0367978994318 -7.4868120902426085 0.0 9.733729158980275 0.0 0.0
1064.98377242863 -16.82043173955003 0.0 31.218489100703106 0.0 0.0
999.9642232862435 -9.769652477858074 0.0 -4.327826322053934 0.0 0.0
993.4607927755324 -22.85911777221935 0.0 -11.257154418103665 0.0 0.0
1015.0318229607386 -4.577885429377261 0.0 -13.385001325669714 0.0 0.0
1010.5744933652304 -18.90063391918494 0.0 -12.253290973424939 0.0 0.0
870.532870509622 -12.13163495494689 0.0 11.474268940519327 0.0 0.0
899.8588244868689 -14.902313296698367 0.0 -11.002732441566073 0.0 0.0
992.0768624320907 6.18083508821411 0.0 108.28724096486002 0.0 0.0
992.0160022119204 9.612698573410569 0.0 110.88942873028287 0.0 0.0
505.44389997385434 13.499111556845008 0.0 85.78201618522922 0.0 0.0
445.6495832810504 62.552175518955806 0.0 82.53935174268206 0.0 0.0
1032.541414345884 3.544898572236775 0.0 125.09732735875191 0.0 0.0
987.8782459351827 24.149918543188505 0.0 110.93959994351493 0.0 0.0
980.6672017746318 2.8443108364458567 0.0 100.83054707312779 0.0 0.0
492.9020298637038 0.3111512031591701 0.0 112.20087181209787 0.0 0.0
977.4391912797274 14.737341846700588 0.0 -104.27840451132079 0.0 0.0
1010.7432172108632 -18.720955720512052 0.0 -99.88035402502555 0.0 0.0
995.8686902669878 -26.83394589560214 0.0 -93.03671814532228 0.0 0.0
592.8598119872042 3.1843318747320097 0.0 -60.049873986637856 0.0 0.0
668.3243186180434 19.300131379665288 0.0 -42.7316249789307 0.0 0.0
664.8273141954587 -15.094058864396231 0.0 -49.28802141830252 0.0 0.0
282.53254505000825 -82.80320819319208 0.0 131.41271535405278 0.0 0.0
1348.6197725151294 116.96964360398789 0.0 17.46954677875254 0.0 0.0
1324.141279755346 106.23902481523567 0.0 -44.18578217452424 0.0 0.0
1328.266241683229 104.29775605008854 0.0 39.01120436795354 0.0 0.0
238.29037933271016 -77.59474740537469 0.0 -150.56618436361538 0.0 0.0
249.92989771681192 -75.82227919026275 0.0 -117.607591700706 0.0 0.0
1141.0068448715033 -5.0983054500259755 0.0 -12.061165762477989 0.0 0.0
1060.100451483513 -4.495592603598709 0.0 -33.817342173437325 0.0 0.0
873.780387389053 -11.510206133158988 0.0 11.133824197686971 0.0 0.0
875.4391626908465 -26.438295224040075 0.0 -16.855142570555902 0.0 0.0
1097.797455704545 -11.83961185100577 0.0 24.38489012545774 0.0 0.0
1057.2204089658069 1.2686135799796716 0.0 37.91694584307589 0.0 0.0
804.3166216597392 -5.257341585038944 0.0 -5.527374620109068 0.0 0.0
794.0215231753708 -20.02208984808817 0.0 16.715196346894352 0.0 0.0
1097.0432884626978 -7.021423027886044 0.0 -22.02148288320645 0.0 0.0
1080.1786273558776 -1.4509017096947332 0.0 -18.38169152410708 0.0 0.0
1044.7096349762346 -4.460859907277666 0.0 -51.2485296720743 0.0 0.0
1073.6572507681549 -15.03723449311542 0.0 -40.85663198364371 0.0 0.0
812.6030547697852 -10.432619297677832 0.0 -0.9071931509365287 0.0 0.0
314.40183124118334 130.66216355463274 0.0 28.95357320830437 0.0 0.0
693.9462305013994 19.21831305452278 0.0 9.743440756171168 0.0 0.0
318.38501778842556 140.1031250150209 0.0 -1.5153948847595056 0.0 0.0
743.8501379727181 0.026382972358760526 0.0 -30.946472467085897 0.0 0.0
314.2664504445295 138.4879137687433 0.0 -1.2297926957472107 0.0 0.0
312.89444372009507 137.19290222965572 0.0 -1.4329177815447354 0.0 0.0
701.3717516486074 1.1136199923458605 0.0 -3.5665944798415414 0.0 0.0
705.1563979123022 4.172730410846242 0.0 -1.2342448107021562 0.0 0.0
308.84025213414924 113.79778917474431 0.0 -36.933109174937464 0.0 0.0
306.06533624858423 113.65815606972882 0.0 -34.38220270617063 0.0 0.0
885.1756583550366 15.538661144671948 0.0 -51.41997275067181 0.0 0.0
898.3268671873454 12.861202205533004 0.0 -61.56069067678156 0.0 0.0
432.1724002099959 97.40830048832217 0.0 -0.7511804974773646 0.0 0.0
435.4782918469692 92.11289486281939 0.0 -48.25742258122495 0.0 0.0
426.161650880294 94.71473227657776 0.0 -1.4000697799953092 0.0 0.0
430.2179178865317 85.09488127558431 0.0 -46.212339329849414 0.0 0.0
808.8259315326524 1.8790635037960897 0.0 28.728996643985557 0.0 0.0
817.5861964645308 5.197355927423871 0.0 28.031896464801374 0.0 0.0
910.0963692938318 -1.852305629689397 0.0 63.10488365075065 0.0 0.0
813.510684530167 0.7251685373146302 0.0 -27.196836477136387 0.0 0.0
818.19070294588 5.3989899805197865 0.0 -30.36743252328154 0.0 0.0
923.6222327950051 -0.9111170632387484 0.0 -71.51886993476823 0.0 0.0
439.1677641361601 94.45318874032833 0.0 1.218310625162012 0.0 0.0
551.1357825866612 36.666886619668844 0.0 -32.73969773399622 0.0 0.0
940.1579470801831 30.178228207995346 0.0 -101.06711741015323 0.0 0.0
1049.7130495212195 35.27276562530028 0.0 -123.56818420052925 0.0 0.0
381.58872375119665 74.42247992442238 0.0 -54.93073664622229 0.0 0.0
369.6383168036706 30.710637201317667 0.0 -122.92085409976745 0.0 0.0
422.5514861079272 81.52723279494151 0.0 -50.22711517617046 0.0 0.0
430.28769505865506 48.20379581175564 0.0 -111.75822906460863 0.0 0.0
453.07822118933075 -39.244569877485645 0.0 -148.9782881521139 0.0 0.0
464.76105213939576 -0.6114100036471655 0.0 -137.61776628536288 0.0 0.0
336.4561571877592 -38.08830662910066 0.0 -158.25490498002839 0.0 0.0
1061.8885289616792 55.48851593032492 0.0 -100.47749000226051 0.0 0.0
370.020483444218 27.687660047103122 0.0 -111.40368889375831 0.0 0.0
661.9751163762587 19.38211119001653 0.0 28.287841926868335 0.0 0.0
989.7686663093547 -4.923227428054872 0.0 37.41289332814785 0.0 0.0
998.1178550690533 -0.44368693711919605 0.0 32.985051689802546 0.0 0.0
1000.0145630138986 -59.43373753255037 0.0 64.48581261704037 0.0 0.0
1133.2942401107853 -1.3496623914869588 0.0 4.546221356992969 0.0 0.0
744.6777708001728 -54.706277641466954 0.0 49.51356214578221 0.0 0.0
644.2083907450559 -36.00019035917242 0.0 75.29424963070679 0.0 0.0
752.1368952704827 -34.79298218218693 0.0 71.78953817052343 0.0 0.0
1120.7121228169915 -5.1505040863229965 0.0 2.800896946422143 0.0 0.0
1186.425707024803 -4.143591059219375 0.0 3.9050115419162386 0.0 0.0
1118.3418350861798 -10.191242521111803 0.0 1.0030371807262426 0.0 0.0
1062.6307284060804 -8.252683548134485 0.0 17.469528563844637 0.0 0.0
1182.563908183978 -3.001184984578515 0.0 -8.063113788569574 0.0 0.0
770.5539543495171 -56.15598623086038 0.0 45.45083012054338 0.0 0.0
777.8742200708996 -42.62578278510534 0.0 61.270116249469105 0.0 0.0
996.7499994739983 -60.67537044584134 0.0 59.657167887359414 0.0 0.0
1020.7169550470687 -25.632557476157046 0.0 94.33539873748624 0.0 0.0
1015.5163418592996 -39.60307725222634 0.0 91.17443429653362 0.0 0.0
1030.0855785518875 -53.56131887621365 0.0 85.92000400468851 0.0 0.0
1168.7075518350873 -0.5294227011828525 0.0 -6.158097496411734 0.0 0.0
997.2722490621861 -31.537222071473934 0.0 -99.51936098254644 0.0 0.0
1006.384326248761 -2.6512606837173394 0.0 -86.88779966964347 0.0 0.0
1029.6959954054382 -4.277242704870503 0.0 -66.0998561404767 0.0 0.0
991.963955320044 -20.372021205828105 0.0 -77.23407656006405 0.0 0.0
1042.3094018405534 -6.979651123551378 0.0 -27.336743546851828 0.0 0.0
1048.9918787192107 0.6923420490255126 0.0 -22.826146019402326 0.0 0.0
1005.2165191102075 -3.4287149979164155 0.0 -35.91475215376936 0.0 0.0
1065.2507905166185 -22.364420841547712 0.0 -34.23664027374941 0.0 0.0
1078.6473502924441 -2.086618794592823 0.0 -21.71376450184197 0.0 0.0
1068.6269293403652 -18.48557059754563 0.0 -13.287946952914417 0.0 0.0
1025.112447126426 -10.56064770939821 0.0 -18.202997256550724 0.0 0.0
1030.0785766459246 -33.791298417963446 0.0 33.41734244622162 0.0 0.0
1065.6149225075837 -13.409356802477248 0.0 7.405353929199174 0.0 0.0
1113.350059264508 -16.537748664463834 0.0 10.672761389512901 0.0 0.0
1100.134540495392 1.345975753664618 0.0 10.965828021935689 0.0 0.0
552.9971850834754 43.08402015362847 0.0 -34.640906572365836 0.0 0.0
1070.335571790513 -34.51199265085438 0.0 103.52939897187001 0.0 0.0
1014.9574908032524 -62.28760883217922 0.0 80.89536756093645 0.0 0.0
1022.4402246777825 -22.20818766565111 0.0 101.58355438833416 0.0 0.0
1029.1919800985536 -53.21701037982427 0.0 89.48725758858829 0.0 0.0
649.3305327199868 -6.945202895574511 0.0 72.82939500473414 0.0 0.0
662.5936063512142 -50.88062502208231 0.0 112.39293508835425 0.0 0.0
597.0679346231393 -14.336973971186467 0.0 102.1347750095792 0.0 0.0
580.8762191673792 -19.009741774343183 0.0 102.62296073018997 0.0 0.0
1023.9414113007551 -36.350433389955356 0.0 103.18509344203488 0.0 0.0
1032.373125023066 -23.080792159160865 0.0 108.5044768705478 0.0 0.0
1060.34971957354 -49.89287771385244 0.0 89.6058511358749 0.0 0.0
1127.5729448243128 -58.58144487913398 0.0 14.325762163518156 0.0 0.0
1039.420867189951 -65.93126309105276 0.0 63.43975906245655 0.0 0.0
507.849740305798 64.00582367725825 0.0 43.66897360128177 0.0 0.0
960.20509490591 4.9649649772450175 0.0 102.25892945120427 0.0 0.0
1000.7577993382158 -8.379049873775784 0.0 102.55875290681544 0.0 0.0
614.3026748642644 -62.174557650012076 0.0 118.42263644366336 0.0 0.0
1129.0572514995981 -59.38596819251899 0.0 10.88341594578315 0.0 0.0
1026.7802307797642 -69.37136166849433 0.0 70.60624174822978 0.0 0.0
630.4778555329417 34.63564520320571 0.0 -54.41449962820295 0.0 0.0
1025.238048268907 -36.501510496658 0.0 -102.88778004979137 0.0 0.0
1032.7001813837476 -29.82836467216225 0.0 -107.84342081473798 0.0 0.0
1060.0004480835553 -51.744208987889465 0.0 -86.23333523041323 0.0 0.0
1120.2677500352522 -63.75232797331341 0.0 -6.4997199062984246 0.0 0.0
1025.1446617425274 -69.992643532263 0.0 -65.83131346815141 0.0 0.0
569.0309373209946 -36.810479773128094 0.0 97.86999670277208 0.0 0.0
691.2484318401697 -49.93356433887644 0.0 102.75661982511463 0.0 0.0
681.4808070536357 -95.75907827711802 0.0 147.4382048059728 0.0 0.0
635.2742364455924 -61.223444604179434 0.0 112.05208466121557 0.0 0.0
980.7511964669608 -18.721754366176697 0.0 4.7086805283132245 0.0 0.0
1063.3597415172565 -14.46319148847175 0.0 -13.13299278937178 0.0 0.0
894.8435352001748 -2.1849339463650495 0.0 -34.21197656367745 0.0 0.0
912.0804706902619 1.3025210716747324 0.0 -37.697923151891466 0.0 0.0
528.8465687495715 60.73793804084754 0.0 0.7636066991111096 0.0 0.0
473.7888067447403 70.77986857455689 0.0 -32.22362004660223 0.0 0.0
700.2844103315002 11.287021772540555 0.0 -7.304251989252175 0.0 0.0
734.3518737316066 -5.52447953728128 0.0 20.436394918333356 0.0 0.0
1041.9227197493624 -5.708182385221733 0.0 29.166087912898323 0.0 0.0
1059.3854855464642 1.5000223670858759 0.0 24.780756065298263 0.0 0.0
1041.1834651595711 -6.891682117403775 0.0 29.844968923118312 0.0 0.0
1064.9068964973214 2.250933336918422 0.0 24.80730428820323 0.0 0.0
679.0118898225808 8.801602487542908 0.0 -5.483944335291625 0.0 0.0
508.77508572461016 64.8051499096158 0.0 3.3749810339561597 0.0 0.0
469.9725008770141 70.87779465437238 0.0 -29.766269341601753 0.0 0.0
359.9353429864285 80.84651392351594 0.0 -78.88725186816666 0.0 0.0
333.5822549628198 72.64200719866243 0.0 -75.17531481290929 0.0 0.0
864.8943497644585 7.620191537122821 0.0 -40.20712368215036 0.0 0.0
827.5377940310663 21.677211656575395 0.0 -43.84663112786901 0.0 0.0
393.25656099911924 106.70981102396571 0.0 -20.595940242526986 0.0 0.0
369.53725298857626 126.3648382093945 0.0 -22.45850144343609 0.0 0.0
357.51595125339225 92.75169079190137 0.0 -28.578489159904212 0.0 0.0
846.9698035738369 0.6871964670492616 0.0 29.765591728894755 0.0 0.0
861.015029042188 15.253686515629397 0.0 70.17672884292436 0.0 0.0
391.89367878250044 109.4655184835392 0.0 -22.73755505485755 0.0 0.0
363.63372709271806 127.57882143211341 0.0 -19.531857211139126 0.0 0.0
349.7570595454211 93.50298611731925 0.0 -31.512007105854334 0.0 0.0
838.3018100413209 -0.4857588095742358 0.0 -28.00970997446088 0.0 0.0
827.6575223318043 3.3219518648170947 0.0 -34.83794605638951 0.0 0.0
876.4558240001851 33.223787436087264 0.0 -75.14847189905593 0.0 0.0
1134.0881348376838 -0.1131191818865318 0.0 -0.9813225508893686 0.0 0.0
1105.0254319469823 -8.665710993634434 0.0 -21.304950763847494 0.0 0.0
1142.2853009359326 -6.051404319962444 0.0 -15.744484669842532 0.0 0.0
1098.034145504995 -6.653799969547606 0.0 -18.267142020141335 0.0 0.0
349.1059595931474 -107.87891886974116 0.0 -145.59339115352904 0.0 0.0
286.60963900494437 134.55473465792028 0.0 -9.997073408231653 0.0 0.0
290.923970801481 137.72864165054273 0.0 -7.0128313423135165 0.0 0.0
797.8794296492481 4.729277891377194 0.0 -25.350127369386968 0.0 0.0
803.7257746840987 6.6172626285533624 0.0 -28.848896897323893 0.0 0.0
1239.6617517317175 61.597199540991596 0.0 83.65879372037706 0.0 0.0
367.0991523251459 -91.0783766316355 0.0 -143.91001055365433 0.0 0.0
350.1243257506775 34.90166448847518 0.0 109.03861244156201 0.0 0.0
1038.7188459124977 65.70398560415492 0.0 98.46416368415841 0.0 0.0
502.8705742764084 -126.201559357228 0.0 209.72202837822744 0.0 0.0
872.9646506211429 -110.57007988170466 0.0 -120.81630218754114 0.0 0.0
1049.0666733089615 -44.89280449013842 0.0 -4.698644388210455 0.0 0.0
864.6060045441664 -110.6786305847321 0.0 -124.06067498251495 0.0 0.0
1056.4902531797018 -45.78032124011463 0.0 2.2046519809082388 0.0 0.0
1089.3817396027334 20.130155775884646 0.0 -123.52207732447465 0.0 0.0
1104.3129758979562 -7.148808456430686 0.0 -83.80464747489724 0.0 0.0
1046.9586381404781 -9.13588904342339 0.0 -105.32850135752139 0.0 0.0
1049.0859779860848 -38.700904499354806 0.0 -25.681924925933675 0.0 0.0
433.2629021117575 -28.57365074521016 0.0 -152.6414577769374 0.0 0.0
514.2843685400451 -12.176497066275772 0.0 -144.2751797020726 0.0 0.0
509.28550909076665 -2.8949221440624626 0.0 -111.46540974240396 0.0 0.0
491.38972059938436 -103.92339412481866 0.0 216.19924356601044 0.0 0.0
1087.84185549542 -16.28587334557585 0.0 31.247376871870806 0.0 0.0
1037.738220084985 -5.672165959113727 0.0 27.887105054015695 0.0 0.0
1060.417911400669 -9.568528908014343 0.0 33.59168705754969 0.0 0.0
1061.7281430353755 -15.463642566225815 0.0 22.461236013251973 0.0 0.0
760.2918163959944 -131.96557612584343 0.0 134.51168709293952 0.0 0.0
880.5406150005383 -105.41839204462963 0.0 115.53224978102234 0.0 0.0
289.971020657341 38.72461032786488 0.0 106.8070198221593 0.0 0.0
388.7138282317083 68.20981659323658 0.0 103.32189593179933 0.0 0.0
1068.3270230197531 77.28769571298318 0.0 -125.22127033418207 0.0 0.0
684.1149432143941 -127.28545592291854 0.0 166.00296799766642 0.0 0.0
501.5028963838982 40.53880090805366 0.0 -54.52719204221893 0.0 0.0
472.6839556292045 53.64719445862251 0.0 -83.15393311793622 0.0 0.0
974.9252756463673 -0.15284961602003477 0.0 -108.28535163903659 0.0 0.0
996.7671001365958 2.1145962812086623 0.0 -107.63396440823063 0.0 0.0
846.9980243411527 -10.764550934258182 0.0 -12.048052060789047 0.0 0.0
908.3266035150834 -12.897491258939112 0.0 4.43350542327514 0.0 0.0
1073.7872260583563 128.10942325544391 0.0 -77.29843147297554 0.0 0.0
191.4666041245928 56.10110188900313 0.0 -70.49986008875703 0.0 0.0
1079.278760964022 -6.2038762361050885 0.0 -1.5523902482724494 0.0 0.0
1082.2755951143467 -3.9583245660456896 0.0 6.330231178861539 0.0 0.0
301.574511734411 137.96236304435558 0.0 14.178023525598443 0.0 0.0
906.9226605542691 2.674621529361275 0.0 -34.889632991710485 0.0 0.0
893.6148092566488 -8.658259565231731 0.0 -63.54463241608709 0.0 0.0
1053.8027172881677 -19.520617840950706 0.0 -91.98405312489095 0.0 0.0
474.2701990374745 -24.451875519636644 0.0 130.46726311903288 0.0 0.0
1044.811094382827 -6.803328242512237 0.0 -33.248810597465834 0.0 0.0
1063.554089216583 -18.485186056542886 0.0 -38.20282349907322 0.0 0.0
1053.1258003117387 -6.339298863089198 0.0 10.610291814391534 0.0 0.0
992.9820650984416 0.6886713396020241 0.0 -9.564171130230745 0.0 0.0
1017.22282559034 -5.7373263321109675 0.0 3.5801718677223335 0.0 0.0
1020.2233395821229 -13.74089965839238 0.0 -11.569974643576584 0.0 0.0
1043.549489463854 -0.1856126448080886 0.0 110.6635794681906 0.0 0.0
1036.8179757595087 33.265633276157814 0.0 127.13121964884279 0.0 0.0
1044.9247382098354 83.81106673346827 0.0 111.7180336491924 0.0 0.0
1024.7153309054079 33.225152046784956 0.0 99.88943154270959 0.0 0.0
954.289884768342 -0.5104242591013417 0.0 31.56029338774671 0.0 0.0
956.1287169789942 -2.8817438094502563 0.0 74.55015040677078 0.0 0.0
1032.4544855833149 -14.143099914264667 0.0 -54.58568093910114 0.0 0.0
966.2737613055034 -22.313091252478785 0.0 21.693850584417117 0.0 0.0
981.0848623767466 99.71984706738766 0.0 -77.1115871827102 0.0 0.0
951.0265050473765 -1.5560179149916848 0.0 32.21527441108917 0.0 0.0
953.9756742247233 -1.6456394874892908 0.0 74.00442516875675 0.0 0.0
558.8510212831548 44.52148460444525 0.0 24.3319076814921 0.0 0.0
547.2361656465764 41.2503639765265 0.0 21.717805291193127 0.0 0.0
681.9124114655285 14.54003385489537 0.0 3.775188601617984 0.0 0.0
741.2856242885454 4.943479804420008 0.0 -10.551568133592458 0.0 0.0
798.8879482825117 -26.7933233941651 0.0 -32.762573069288955 0.0 0.0
748.2560530966675 -3.5693354187408204 0.0 -7.16707155886837 0.0 0.0
1083.2990526659535 4.742714233711126 0.0 122.0485250832584 0.0 0.0
1071.8884719442888 4.703412068824548 0.0 26.124620144883277 0.0 0.0
1079.5447631222764 -6.342500519314058 0.0 21.722169486187898 0.0 0.0
1077.9426809719484 -9.975141482796232 0.0 34.34057488665106 0.0 0.0
292.27289293987826 124.04066276080673 0.0 28.971818057925084 0.0 0.0
912.3645632234281 -12.504095592795238 0.0 8.69367897248733 0.0 0.0
868.0306892738463 -16.00734541466329 0.0 2.1461557660391017 0.0 0.0
868.3377821785676 -9.423316674495027 0.0 -5.120485509797714 0.0 0.0
871.1630358269305 1.431063108535568 0.0 43.032705349423054 0.0 0.0
1143.5117423489357 -8.856965226554678 0.0 14.232594302981266 0.0 0.0
270.6610000382406 129.57994600700152 0.0 7.162122565299333 0.0 0.0
1019.6833025045643 107.94956269602363 0.0 -55.17826944601419 0.0 0.0
1051.7845348297242 81.29220345120734 0.0 -104.69203539340177 0.0 0.0
264.80040840492745 94.88752413036521 0.0 -45.34334555786975 0.0 0.0
269.467810875636 64.64642187627267 0.0 -97.67484364939419 0.0 0.0
1055.639267853222 -0.8199720969506643 0.0 -6.496249456610949 0.0 0.0
1019.6641458187127 -6.925038739808656 0.0 9.510516048779444 0.0 0.0
276.38250716034275 132.1088496826027 0.0 23.97371946908799 0.0 0.0
292.1404279754404 104.57196168875457 0.0 42.82292969430597 0.0 0.0
363.87770054547417 80.42917422886454 0.0 44.2505289281591 0.0 0.0
372.6078100576248 110.00578895530448 0.0 42.687577135076225 0.0 0.0
916.1648187834728 27.097461069264114 0.0 74.5611901771104 0.0 0.0
898.02989470089 45.47132344244923 0.0 82.20088712090167 0.0 0.0
1128.2273970962856 -43.07392273627579 0.0 -103.62626080786885 0.0 0.0
691.2779342043393 -112.28683681540988 0.0 171.8849252403793 0.0 0.0
1120.402801990594 -43.172560042303644 0.0 -106.43954243465966 0.0 0.0
1126.0139947467069 -45.72693640056093 0.0 113.11478364645174 0.0 0.0
492.39818562299837 20.039340308651077 0.0 110.7621971123426 0.0 0.0
406.8528630653342 50.89236548798088 0.0 81.50023642641898 0.0 0.0
841.729125909976 -18.71450469163517 0.0 6.689251812614191 0.0 0.0
300.86935313818077 138.5962797483605 0.0 -10.81245507860681 0.0 0.0
288.89016265528073 137.3981082208893 0.0 -8.449377307342605 0.0 0.0
823.1946946292188 27.946716281637237 0.0 -12.828030146429784 0.0 0.0
812.8250400834746 51.46691211556714 0.0 -17.996525098587917 0.0 0.0
912.2787741025481 12.991536597592358 0.0 -73.72590471626357 0.0 0.0
860.0511520172065 4.306600488542813 0.0 -58.811949545967785 0.0 0.0
329.69483904066846 119.23038151014002 0.0 -36.889224441630766 0.0 0.0
273.9338238781011 105.6117441118545 0.0 -53.306960887206735 0.0 0.0
1103.519939041431 17.097022204815744 0.0 114.38214924270684 0.0 0.0
940.0732419283054 46.660700286804854 0.0 -5.4080915590070315 0.0 0.0
989.4488736706157 57.92504458036723 0.0 -2.187519194995172 0.0 0.0
965.4869969139556 114.10658216315181 0.0 -19.07548233961063 0.0 0.0
264.0105087130294 121.547932429496 0.0 -13.08659519589882 0.0 0.0
468.95719750260105 -7.108055516230678 0.0 147.90008451681163 0.0 0.0
1147.8687194420609 2.239981503247577 0.0 9.391270239921056 0.0 0.0
1098.3782458394733 -10.60755993829639 0.0 29.9397503767107 0.0 0.0
177.18586862447404 80.46587534576217 0.0 -19.38037962883965 0.0 0.0
1026.4724613351468 139.65999691838016 0.0 -25.70898952622115 0.0 0.0
1060.1059117841444 161.98861405691224 0.0 4.6794733390256065 0.0 0.0
1091.1300976255977 3.1213408173319976 0.0 12.723910280516836 0.0 0.0
1080.5243948433795 -14.517793287511438 0.0 38.74465411232628 0.0 0.0
824.5778654404763 -13.523707337712665 0.0 13.15994622712967 0.0 0.0
870.1334226786298 -9.556614157114325 0.0 3.0382089596851043 0.0 0.0
1100.1859599925365 -2.304148428378653 0.0 -21.832100034326032 0.0 0.0
1142.1244687625006 157.93394527222173 0.0 -39.51426638886487 0.0 0.0
900.7778512425144 -84.90124662346784 0.0 145.60158191203183 0.0 0.0
680.13381745958 -69.71054881294046 0.0 198.61932200296445 0.0 0.0
256.5850678186718 -118.04980717005913 0.0 -200.95011381759673 0.0 0.0
1330.1334322788769 105.98355067481111 0.0 49.964634004845514 0.0 0.0
245.5395085853674 -122.6776397498947 0.0 -191.11284910701437 0.0 0.0
450.8026271714707 8.003553578583762 0.0 106.46991710395748 0.0 0.0
1040.6417631329216 32.38203142777712 0.0 108.87007161633578 0.0 0.0
1091.7306001029685 46.99117169844402 0.0 114.27430359292211 0.0 0.0
511.65978918828984 -41.40671234397038 0.0 152.96610374676635 0.0 0.0
744.594858015898 9.361872381790505 0.0 14.452668145169401 0.0 0.0
1185.0165413977584 -5.3729742716624855 0.0 -5.85786300870204 0.0 0.0
285.09409359031775 147.78139667608284 0.0 -0.6539623907399152 0.0 0.0
287.50073133182 132.63040664929576 0.0 10.9892211085704 0.0 0.0
292.6418505226681 143.41830173015683 0.0 2.514537623906333 0.0 0.0
287.3615908980691 145.5514704164861 0.0 0.4264909317522005 0.0 0.0
293.36004094734375 146.55723734982178 0.0 2.8650952463794255 0.0 0.0
689.2836691531357 9.519498356809862 0.0 11.098740065113498 0.0 0.0
789.6064850208037 -7.450320271151895 0.0 2.181869752302035 0.0 0.0
1174.0116065737789 18.96792467521834 0.0 59.666339061071675 0.0 0.0
1149.9800242497447 64.94363342732618 0.0 43.31430960330289 0.0 0.0
1137.350491717298 47.52265153703331 0.0 38.906453842126815 0.0 0.0
325.7897294022054 -80.62571854534848 0.0 184.63955176175614 0.0 0.0
1140.2031161226357 33.400537342882615 0.0 -64.25225764482933 0.0 0.0
1207.4882253284713 77.45118681967386 0.0 -29.62847325387255 0.0 0.0
947.4121825735444 -14.217504002848557 0.0 11.346847479705717 0.0 0.0
904.210943449701 -17.02360582316652 0.0 -13.892562837967196 0.0 0.0
898.0358208915371 5.699531123224176 0.0 32.186665603302195 0.0 0.0
883.1667385212261 -1.2900635577890966 0.0 27.609418919190624 0.0 0.0
951.0884613065815 -3.707686549343009 0.0 72.6803135716618 0.0 0.0
914.5347153496923 20.11139104569031 0.0 75.68734317410735 0.0 0.0
512.2450146492565 66.30448153034094 0.0 2.1642458506430073 0.0 0.0
476.9551581593583 83.04439394146955 0.0 21.510632659640514 0.0 0.0
512.7631755737268 58.83049087879046 0.0 46.35323857817345 0.0 0.0
427.9121163676275 67.01117227665385 0.0 27.443268957780383 0.0 0.0
896.9599471057849 2.7235549943294473 0.0 32.930876535119786 0.0 0.0
898.7239866787345 -0.5000571994377765 0.0 31.26156794039047 0.0 0.0
957.2767886460215 -2.8959166444674906 0.0 74.5919181468865 0.0 0.0
905.7017685859117 11.037929060975387 0.0 76.67247439999423 0.0 0.0
925.2609579932448 -7.3077066316784 0.0 -36.78807515780486 0.0 0.0
898.1279787317033 7.338576139488055 0.0 -36.07575970943818 0.0 0.0
973.6334584518303 8.637183401388484 0.0 -72.93818482938426 0.0 0.0
1017.5976447881214 -5.35343807510543 0.0 24.0765701044455 0.0 0.0
998.1503762412102 -28.291132500614196 0.0 4.432137893271247 0.0 0.0
453.27522240784526 -108.64926702047262 0.0 -136.25228830754253 0.0 0.0
448.1238895957025 -136.80610705120463 0.0 -232.86401356172456 0.0 0.0
643.7328795592814 -95.32470949844179 0.0 -153.58755337366404 0.0 0.0
1095.458564481269 81.8241858929772 0.0 248.07946561591748 0.0 0.0
1132.823911806504 -1.4006663217375603 0.0 38.920069660160635 0.0 0.0
1111.26275533551 -60.23648437670329 0.0 64.6555936143284 0.0 0.0
969.421921837166 78.72895237841328 0.0 96.30082885445437 0.0 0.0
942.5877628253198 13.474465724317099 0.0 75.3617553426705 0.0 0.0
998.486387999325 54.25522402170952 0.0 62.19011516300543 0.0 0.0
314.25779101324923 94.89838328453263 0.0 52.24949819338412 0.0 0.0
318.57576683824743 96.61872102799022 0.0 53.65353167910145 0.0 0.0
300.5949417874471 103.2180772785026 0.0 59.81993321653405 0.0 0.0
262.82330846501395 112.30710208362459 0.0 25.761613621941134 0.0 0.0
446.2180649762999 -119.86617596200645 0.0 -147.97313776960524 0.0 0.0
647.583514233408 17.7563400794416 0.0 -28.41379709562318 0.0 0.0
672.5488703084555 18.242489647090082 0.0 -19.670953320681953 0.0 0.0
671.9120148614164 -4.720346785949033 0.0 -28.497351758166857 0.0 0.0
1193.244782075988 167.58742870727207 0.0 84.3828704254898 0.0 0.0
1183.0127770257216 139.316765614351 0.0 50.519441109223074 0.0 0.0
747.1691507865744 2.6247041504911124 0.0 -17.212642516700523 0.0 0.0
825.0214378376083 11.377533588618121 0.0 -36.397879965216156 0.0 0.0
155.5356868357078 -36.20945803759743 0.0 145.65800273149975 0.0 0.0
187.93116280039175 17.48979527149575 0.0 102.29259461637979 0.0 0.0
363.10690436987943 120.22061416183173 0.0 -1.235911110119856 0.0 0.0
313.07844938605865 109.65200298973556 0.0 -18.40022673104264 0.0 0.0
736.3045232276571 8.953700596088225 0.0 -19.961011813948154 0.0 0.0
826.2142436292098 17.054061919703628 0.0 -43.31358338807181 0.0 0.0
358.56390183959024 124.51060444350983 0.0 -0.15242562183963748 0.0 0.0
314.5602346660694 113.20694246860762 0.0 -16.33751912682851 0.0 0.0
117.99564887443188 -66.52787134019115 0.0 -64.93447217248487 0.0 0.0
1408.7669833284901 190.8283855290616 0.0 -42.19080745354978 0.0 0.0
1401.4051345803969 214.6087550582945 0.0 48.15020824066407 0.0 0.0
1213.1546513850728 216.27634708339426 0.0 5.326362153296943 0.0 0.0
745.7646842898941 0.4060198367233454 0.0 -23.357511642185074 0.0 0.0
845.450977698982 -14.953064461262898 0.0 6.035025911610118 0.0 0.0
825.8775993471048 -14.317275566954436 0.0 -19.45713719708172 0.0 0.0
794.7581092279894 -4.254167969260834 0.0 10.605090981839519 0.0 0.0
142.40189554691386 -17.360587596459197 0.0 72.1136090475557 0.0 0.0
1082.688958383356 -6.0417800892961395 0.0 -21.84528330791576 0.0 0.0
1062.2004323877518 -11.204173576927303 0.0 -7.802133251631413 0.0 0.0
1090.221485603324 -5.853009495264644 0.0 -12.617411283564786 0.0 0.0
1044.7862366558038 -13.669793804693313 0.0 -30.331639513185692 0.0 0.0
1219.160437602284 15.511557824254623 0.0 -45.28037898601832 0.0 0.0
1207.681612029402 166.9435758266903 0.0 -64.10192197126753 0.0 0.0
471.94019018609 -105.13406914918971 0.0 169.37590470506186 0.0 0.0
491.9912317984865 -100.8717033299549 0.0 177.93523387666949 0.0 0.0
1240.683376248206 12.836698293425627 0.0 -18.332670940453614 0.0 0.0
186.63943481041827 -46.99040441992322 0.0 -161.17797933332017 0.0 0.0
110.71372577799228 -21.263264299920664 0.0 -53.795257131865256 0.0 0.0
139.58772336989722 26.476451728675812 0.0 -87.95701904523138 0.0 0.0
1245.9422133203534 145.9416980625416 0.0 -98.58165638333733 0.0 0.0
1256.4830410713448 219.0362271530102 0.0 -5.636582345621614 0.0 0.0
1162.5354902565657 177.78291296647163 0.0 -73.76282653955334 0.0 0.0
1230.68408065452 10.313911718824045 0.0 22.352562016565788 0.0 0.0
343.41870851249075 82.89180397003858 0.0 -74.15849257132446 0.0 0.0
964.8571949754648 59.46744057994641 0.0 -67.24928911890142 0.0 0.0
982.6075516218317 23.300497131784482 0.0 -94.92080653820489 0.0 0.0
995.6943017878638 64.17212635793572 0.0 -90.66727465428767 0.0 0.0
913.0321225909773 65.09748996187656 0.0 -61.11023527225838 0.0 0.0
231.52572415069724 55.42986753388447 0.0 -73.28710314278011 0.0 0.0
320.3377551649511 10.949405577537703 0.0 -138.91833465636435 0.0 0.0
316.58237195599355 1.1622252440624692 0.0 -119.50002260649327 0.0 0.0
214.65786730158382 49.21256822495231 0.0 -100.1306526836777 0.0 0.0
1128.3709542983315 132.03034548756122 0.0 -49.2649349890856 0.0 0.0
1123.5733014542734 72.38036026832515 0.0 -113.33132793458203 0.0 0.0
1155.0306394976676 93.04107370781156 0.0 -56.08443973633281 0.0 0.0
1072.618452646479 141.7483161511943 0.0 -91.50912384590752 0.0 0.0
1081.6473947074992 83.99579625084243 0.0 84.70112589312585 0.0 0.0
1173.5077600833577 99.47721397104601 0.0 78.40595686529284 0.0 0.0
1098.996697468792 143.64463070602625 0.0 86.75022515351971 0.0 0.0
1034.923564889322 128.0162535921077 0.0 86.03860535825596 0.0 0.0
1052.938036803533 119.71486161028471 0.0 6.987859032340974 0.0 0.0
202.24021022474832 70.33961876184605 0.0 73.2499170801582 0.0 0.0
238.23411886139715 92.4060362234373 0.0 25.030696637302334 0.0 0.0
1106.0839533801527 -37.40651023807567 0.0 91.54710081583242 0.0 0.0
1060.3191089579866 -27.294387288593327 0.0 64.2250379057439 0.0 0.0
1171.0127075368966 5.921820765909729 0.0 67.08981339635505 0.0 0.0
1097.5202194784056 116.46091147809776 0.0 56.876303418554144 0.0 0.0
1099.3103449433233 93.47801536474907 0.0 119.63195444752327 0.0 0.0
377.6853311532471 117.78361877960059 0.0 2.050228910723129 0.0 0.0
317.84793574884577 116.09301634538234 0.0 27.8114128927677 0.0 0.0
325.3757194890891 119.34458228526206 0.0 21.959861376475537 0.0 0.0
1110.7977772135234 -26.715901454292748 0.0 90.30765568383629 0.0 0.0
1081.7783800583795 -24.69277251245785 0.0 31.37873593924615 0.0 0.0
1075.8386609703455 2.012678723591648 0.0 84.3254181235379 0.0 0.0
276.5175544318213 58.598492709834304 0.0 78.67844729109375 0.0 0.0
289.4563243884569 16.785796304897943 0.0 140.49954215724898 0.0 0.0
620.189729711284 -54.591533392385315 0.0 144.19223833930187 0.0 0.0
494.2783994927599 -87.79560865703101 0.0 166.8569350024189 0.0 0.0
508.2079108728532 -41.58611623354153 0.0 165.50595165289647 0.0 0.0
1013.8562509574194 123.5433580201838 0.0 54.36372943312441 0.0 0.0
1030.369497685689 120.26495720046702 0.0 92.39486487358526 0.0 0.0
1059.5530111669734 109.27514821278854 0.0 33.486948160903346 0.0 0.0
299.2464405183177 55.74442819797758 0.0 98.50392242245805 0.0 0.0
312.96193848851914 6.822165353630595 0.0 129.50295322749088 0.0 0.0
186.491421407591 21.699154523164438 0.0 103.78943712325542 0.0 0.0
218.142269559792 71.10668966045677 0.0 83.0496497088708 0.0 0.0
216.7914591574403 89.07288718272164 0.0 29.146059876089023 0.0 0.0
1088.4525453540227 65.04229633525699 0.0 -82.95822114006099 0.0 0.0
1198.9662434673055 119.94583477472571 0.0 -63.12708213323167 0.0 0.0
1117.9628001446483 141.5328329905651 0.0 -99.85258237770086 0.0 0.0
1101.7483882747044 -36.60589150431389 0.0 -90.82625832676037 0.0 0.0
1054.3942493337197 -32.1312269378065 0.0 -62.79191114139328 0.0 0.0
1140.9226805015908 -4.277992720035911 0.0 -53.39257151743914 0.0 0.0
1135.759405194535 167.24559150879935 0.0 -38.25207867432685 0.0 0.0
1096.9922479158295 190.57895666220355 0.0 36.39545553877031 0.0 0.0
31.416737660462097 -10.994875887346296 0.0 -40.583627118879946 0.0 0.0
120.71416620086387 35.60776157523507 0.0 -10.157721429306923 0.0 0.0
158.8069244865783 64.41709565400214 0.0 -28.610475962611563 0.0 0.0
136.05897231276143 55.436797950204436 0.0 44.79329759980988 0.0 0.0
1253.3264012492054 258.0921120687922 0.0 -28.9475613697924 0.0 0.0
1201.1476926754758 215.4379927997129 0.0 21.92844113052791 0.0 0.0
1121.0725966800628 180.58776318191366 0.0 -31.008231405713822 0.0 0.0
1099.8855993964357 196.0243828997409 0.0 61.51636346108896 0.0 0.0
752.5356014047468 -6.699541318788903 0.0 49.75296018235238 0.0 0.0
2024.3883055466983 239.83385469801192 0.0 -404.72305085324376 0.0 0.0
1301.6523720632326 162.62403314494944 0.0 -37.03555593712609 0.0 0.0
1679.716061584624 197.83982287637986 0.0 -61.051397742502395 0.0 0.0
1612.9704629854857 82.44260159611787 0.0 -239.0004274547503 0.0 0.0
28.111650031174833 -458.98841435398435 0.0 -51.12002853400407 0.0 0.0
77.63893398076553 -109.68548958529232 0.0 138.28664534721705 0.0 0.0
100.68762524170286 -236.0329530010062 0.0 53.73049390637196 0.0 0.0
-18.444015321031735 -237.68390466529777 0.0 27.98712289858609 0.0 0.0
2030.0552773555196 245.627537021931 0.0 -380.4559094184535 0.0 0.0
1294.2133383819678 131.24283643292358 0.0 0.5655745798492917 0.0 0.0
1623.7155228805627 84.00163247032094 0.0 -236.48700214623642 0.0 0.0
1060.8126514223563 -4.422103833807455 0.0 33.025279228136704 0.0 0.0
34.77488569139513 -438.7512648877748 0.0 -21.913429958314552 0.0 0.0
184.66944538400668 -117.18813657194501 0.0 188.73815114087452 0.0 0.0
-15.379027071398198 -217.0640210320177 0.0 -16.850227788759355 0.0 0.0
34.8553622367601 -430.7371195892148 0.0 85.3127859172925 0.0 0.0
83.50438248602462 -105.22545487773674 0.0 -93.5415106677441 0.0 0.0
96.24980540445127 -267.5018467838472 0.0 -73.64203580643778 0.0 0.0
-33.81009447959427 -273.1789281189229 0.0 -18.64100283519011 0.0 0.0
666.7182446896761 -7.720361276049459 0.0 83.07629931008783 0.0 0.0
660.476721391893 -39.14897470625564 0.0 68.00433304732461 0.0 0.0
2061.36890747534 258.42633452432756 0.0 386.4566090486241 0.0 0.0
1292.928761236122 138.77549997406544 0.0 33.48359647103497 0.0 0.0
1659.702452154585 205.13237164040515 0.0 94.45033234973133 0.0 0.0
1580.034233756816 115.37673467740404 0.0 202.88343111569827 0.0 0.0
37.45394388414678 -432.50165249689246 0.0 83.22516944175824 0.0 0.0
66.04251807632099 -88.93882001892652 0.0 -98.93996451261368 0.0 0.0
89.04314844774458 -265.2418160809091 0.0 -76.46999760728099 0.0 0.0
-27.303329750099678 -268.11840424446495 0.0 -25.816865437388305 0.0 0.0
2017.2653283620966 264.10387066352627 0.0 478.3456685492816 0.0 0.0
1295.489564048606 166.3862594199235 0.0 79.37491866045885 0.0 0.0
1712.3256560991147 198.23853729014428 0.0 71.68040255827115 0.0 0.0
1611.2833388203298 103.70911039215389 0.0 212.3596749130308 0.0 0.0
681.4181713692344 -128.56096733122376 0.0 -174.1764115787133 0.0 0.0
887.4463513294777 -97.538970669072 0.0 -139.51750245723224 0.0 0.0
702.4208292519658 -26.94328931511768 0.0 -235.15277928498114 0.0 0.0
693.8472515240474 -69.89934902237968 0.0 -190.3299059292739 0.0 0.0
674.8641290482304 -146.52905704964246 0.0 -190.02504311078795 0.0 0.0
873.0426347273341 -99.95088031442594 0.0 -133.28742173004352 0.0 0.0
692.4507023103533 -31.39914916971361 0.0 -242.23889042009168 0.0 0.0
689.8916223680683 -65.42427081425703 0.0 -195.63328538064994 0.0 0.0
860.6025796976569 -5.010326413107634 0.0 26.68976352854481 0.0 0.0
298.54067259760114 135.36004402779625 0.0 20.49217527117974 0.0 0.0
646.3736738326886 15.943298083096124 0.0 59.865546332928844 0.0 0.0
741.0191770186192 -8.299932397980342 0.0 54.262694334201946 0.0 0.0
637.9983618229331 -12.662863817524283 0.0 50.454429581783415 0.0 0.0
841.7820438252074 36.47233694466257 0.0 283.40359557875234 0.0 0.0
612.9352054983253 -31.881577720217024 0.0 139.3989400342079 0.0 0.0
470.2253632629229 -69.42900668604162 0.0 166.0220944016891 0.0 0.0
302.9715726207108 27.545242752987278 0.0 -217.1347002885831 0.0 0.0
314.8062943764737 76.03891941453027 0.0 -89.278481450597 0.0 0.0
237.29187879327907 95.13541234120856 0.0 -51.14039996374388 0.0 0.0
1089.3093560989507 -1.9363171759433158 0.0 -14.782754843508522 0.0 0.0
1059.0720545929182 -21.596857366674328 0.0 -40.22765216588251 0.0 0.0
1061.7039057196193 -12.351221440760128 0.0 -41.70946594476501 0.0 0.0
293.0090177705172 18.609970433367963 0.0 -208.68054606712442 0.0 0.0
1009.5559758626468 -18.118328697419884 0.0 12.271391916411881 0.0 0.0
948.9795496604145 -14.68106318335856 0.0 1.0905028875098781 0.0 0.0
1017.9971717338216 -9.748951182936366 0.0 4.61153157786084 0.0 0.0
585.3550738546103 -66.61349234857494 0.0 -124.63242156151985 0.0 0.0
708.9526226621468 -18.105138354983097 0.0 -73.34646009488391 0.0 0.0
957.2998498808828 -88.89135664148051 0.0 59.34653285780761 0.0 0.0
973.3032423210935 -93.70932473945896 0.0 138.41324113103596 0.0 0.0
829.4847087206095 -46.595199579097994 0.0 154.87002472374914 0.0 0.0
792.8419610136729 -74.9339020610629 0.0 201.9773907668814 0.0 0.0
1009.5886873649107 -37.49881685491977 0.0 94.09485064099057 0.0 0.0
1010.6518123139747 -5.203212015813278 0.0 106.80228571390072 0.0 0.0
986.1202729945744 -22.53614092005114 0.0 96.11233170852385 0.0 0.0
1019.8015346431952 -9.439182298974117 0.0 88.80402695107387 0.0 0.0
800.1219293074764 -9.84100799920975 0.0 23.87886974271803 0.0 0.0
811.2948369817459 29.86247184730385 0.0 47.363619486692365 0.0 0.0
883.8626718275704 73.66138509619566 0.0 23.581996032767297 0.0 0.0
251.90882660459533 117.23214615401488 0.0 27.8914254086682 0.0 0.0
291.62158967588203 132.44145475302872 0.0 18.647905264740682 0.0 0.0
1397.8202730703742 245.46557789495893 0.0 407.7273137117522 0.0 0.0
1344.9306011513713 80.09087097671465 0.0 364.11407905609036 0.0 0.0
165.37756412273015 -193.24572489375146 0.0 -51.63190078855195 0.0 0.0
94.45206815135688 -178.29015359099478 0.0 -49.56720686619314 0.0 0.0
164.90308493867212 -193.2527862526287 0.0 -42.60781278233662 0.0 0.0
83.27699673705484 -169.2896680565646 0.0 -44.60187255615295 0.0 0.0
1193.3013561687612 -2.8024240516887744 0.0 -1.6473986798378109 0.0 0.0
1129.9349237862114 0.6788051929473227 0.0 -0.5033475139388212 0.0 0.0
372.15204809244756 88.02692061057058 0.0 21.38201254326178 0.0 0.0
866.1785942532412 2.1872833097866646 0.0 44.245212857939855 0.0 0.0
1017.3615865738398 -31.189743166061135 0.0 -77.8312195948378 0.0 0.0
1012.284827433438 -48.28400315292242 0.0 -88.65633346510567 0.0 0.0
1016.5875773380558 -34.19305117871886 0.0 -77.25061297673867 0.0 0.0
343.37061184789326 39.92833807270199 0.0 -126.6077379877517 0.0 0.0
267.6547113295289 60.902057613433314 0.0 -84.08476880056664 0.0 0.0
1101.8288319394378 -3.7479856954198567 0.0 -17.048011362064095 0.0 0.0
1096.5718328055148 -15.413917159892776 0.0 -29.378091096234282 0.0 0.0
900.0563022700799 69.78720110203938 0.0 -57.17820765208194 0.0 0.0
881.0083079841737 -17.992598007926006 0.0 -4.183509084790767 0.0 0.0
887.6791833982716 -27.365558782959738 0.0 -2.7764636719852955 0.0 0.0
875.8248166173728 -30.34006219665781 0.0 -14.891158315499915 0.0 0.0
891.0143234540567 -16.303210032984794 0.0 7.631541200111032 0.0 0.0
1474.6486582600305 139.58621955233826 0.0 -134.7083582226445 0.0 0.0
1133.5943784996732 29.703827784563202 0.0 -85.13761676953243 0.0 0.0
1021.9707124708854 -8.798652622068914 0.0 -64.22679678429148 0.0 0.0
1471.8320971171581 133.25312772408097 0.0 -110.62660055161233 0.0 0.0
1159.7000947426359 30.003607429944225 0.0 -66.37298572493667 0.0 0.0
990.2436688185186 71.82629751137722 0.0 102.76490665949733 0.0 0.0
1002.6697213649032 57.695416354363545 0.0 73.21818167747918 0.0 0.0
303.76574127283646 81.01622786788977 0.0 73.26775272093965 0.0 0.0
261.912033382236 95.24329951374571 0.0 59.469067031146956 0.0 0.0
310.7209149069221 101.63057534649072 0.0 70.35884057017135 0.0 0.0
1206.8379688109599 -2.2452702244199827 0.0 -2.5853678725278626 0.0 0.0
1142.1973019502962 0.42476771397610946 0.0 8.602882206387402 0.0 0.0
1134.4341477990015 -3.9358686412711563 0.0 -3.187672400009101 0.0 0.0
440.4860715501369 -93.11026670699496 0.0 -236.30973732619628 0.0 0.0
668.4782322105924 -128.41757127074254 0.0 -155.67617751101875 0.0 0.0
554.5768539716738 -127.19823043181177 0.0 -223.0161795353538 0.0 0.0
528.5514141461181 -105.59323916985176 0.0 -163.05119718884598 0.0 0.0
1463.883142681607 135.87265242176846 0.0 103.99577732360467 0.0 0.0
1134.9686312628519 32.788611093457234 0.0 62.96468337358427 0.0 0.0
407.43401021594264 53.34473835093644 0.0 102.66411212314 0.0 0.0
356.9662351328981 61.80131075326109 0.0 105.15687407519884 0.0 0.0
458.37845934464667 45.84788355156719 0.0 73.14490208836189 0.0 0.0
1086.4470666978693 120.98879827783455 0.0 -79.30781538143793 0.0 0.0
241.91372143757772 -165.69116340869135 0.0 111.10647708054358 0.0 0.0
272.5365859894266 -113.34781188199463 0.0 187.18100701038486 0.0 0.0
528.906433988415 48.58751755368942 0.0 -80.70016743132913 0.0 0.0
514.1098491046653 -13.505298562700915 0.0 -112.17108863023829 0.0 0.0
448.8388671374005 25.11136090279861 0.0 -84.79936460456317 0.0 0.0
1127.5898061779242 -6.399285107251501 0.0 -3.9435649251400293 0.0 0.0
1070.793968427373 1.133363039720109 0.0 -4.479065951136153 0.0 0.0
1021.7161143473493 -29.4046474989521 0.0 -76.2186871919027 0.0 0.0
1021.8601743128108 -16.178343843149264 0.0 -86.57800680100722 0.0 0.0
920.4596513355892 23.553191980457314 0.0 87.82352952667834 0.0 0.0
860.3573173010276 -5.36398856760735 0.0 49.82395978820929 0.0 0.0
352.28024663425174 85.90677598038977 0.0 43.85882408989086 0.0 0.0
439.6439766904841 108.75602870003549 0.0 28.43428956440583 0.0 0.0
1122.2553748935218 -0.8490364900480358 0.0 -7.161893713819048 0.0 0.0
1113.9645497696422 -4.89670450567354 0.0 15.652630327395881 0.0 0.0
1192.7538683221362 -6.8469713702037325 0.0 -2.279228391682057 0.0 0.0
339.9765841201113 91.79029753067196 0.0 73.43929169475241 0.0 0.0
318.65350481408336 111.42354500691557 0.0 46.25647695521223 0.0 0.0
1081.2906035316553 2.572122282672069 0.0 -14.133992941399432 0.0 0.0
1294.8445468362224 110.304625176142 0.0 -222.90505577494335 0.0 0.0
1308.9996696867836 118.02404124330042 0.0 -236.63287510532885 0.0 0.0
394.39794120288366 -150.7701498855273 0.0 135.0401528260053 0.0 0.0
1313.0791609942885 111.9615786826842 0.0 228.39661873943416 0.0 0.0
155.313839670602 59.12026915268045 0.0 -36.666345948703146 0.0 0.0
462.6408115738697 65.55769676455726 0.0 10.055386698202039 0.0 0.0
460.56280276483045 51.606907569067644 0.0 44.87967691336745 0.0 0.0
498.8847371665919 46.6947401927937 0.0 24.446661751679844 0.0 0.0
562.3655658027493 65.8591315412682 0.0 22.266264311692943 0.0 0.0
471.03157203156854 93.52689829022 0.0 9.32308201822414 0.0 0.0
454.7876194552789 104.20156816631523 0.0 28.893731508837266 0.0 0.0
376.9329497941592 81.69173748591417 0.0 22.55447959079256 0.0 0.0
974.6748480608445 -4.570747174839255 0.0 -34.328535010762856 0.0 0.0
962.5741198017438 2.9241245733632013 0.0 -37.10440550144707 0.0 0.0
966.5179541746232 -8.784763573952716 0.0 -78.42800347597075 0.0 0.0
1005.5860162789065 -4.043124940270104 0.0 -76.45765488270447 0.0 0.0
1069.2465686828966 4.97615800868806 0.0 10.024384807046975 0.0 0.0
1061.8710982116995 -21.525233235297662 0.0 8.003834384384652 0.0 0.0
975.4660566505249 27.757815684805394 0.0 95.29419050094091 0.0 0.0
969.0837722715105 84.05920812279518 0.0 83.2500204874627 0.0 0.0
938.6057679970977 54.507920643300366 0.0 58.00619464209625 0.0 0.0
1044.1843656761428 -6.4962981220879215 0.0 -31.15874679588109 0.0 0.0
1006.3114704224379 -18.147993459775762 0.0 -70.48759536649244 0.0 0.0
1011.3240247857292 2.2896629823747503 0.0 -33.31332022462188 0.0 0.0
1325.4814014606397 98.80081803063263 0.0 -346.4706020276148 0.0 0.0
64.80349650220205 -107.72272569295663 0.0 65.19896876308269 0.0 0.0
1299.1191126130398 106.71610315377939 0.0 -329.60492236774013 0.0 0.0
1311.038882290675 96.35211461845671 0.0 339.388774048112 0.0 0.0
1056.0765095273428 163.8812591969072 0.0 -14.823582566883836 0.0 0.0
231.77781555063964 7.287426593469775 0.0 -124.27362882421845 0.0 0.0
251.21913577171517 28.83383409898334 0.0 -97.14837288178056 0.0 0.0
203.5382737574388 36.42511900103159 0.0 -106.61193005230992 0.0 0.0
749.6044923575371 11.14815431196763 0.0 22.460364171448344 0.0 0.0
875.0019622055439 0.5810905633858852 0.0 39.951020484080786 0.0 0.0
1164.5038447593122 36.43432530769354 0.0 103.463659578064 0.0 0.0
1097.5391156977018 88.16593202931983 0.0 97.76695765731817 0.0 0.0
576.0509343922087 30.575523042319304 0.0 -0.5317862738490726 0.0 0.0
660.8790945743577 33.48114698708633 0.0 24.68550874458684 0.0 0.0
600.3071274087781 49.30871710038687 0.0 44.62276140468239 0.0 0.0
352.6244167750009 118.43932948295374 0.0 2.086978719726504 0.0 0.0
366.1260708307866 127.83153485205901 0.0 31.18325448523877 0.0 0.0
930.6380111766862 204.47277728405567 0.0 -350.9930819220362 0.0 0.0
928.2320704073052 202.258894734817 0.0 -351.93986500831653 0.0 0.0
973.3879047375123 73.78535487996197 0.0 -86.41186365453882 0.0 0.0
959.6762387497671 27.792336161305798 0.0 -85.03547271185244 0.0 0.0
1131.5343995158864 -2.0052849969510476 0.0 0.5048344990550068 0.0 0.0
1112.5497429175289 -8.20782689022434 0.0 -22.914631682975056 0.0 0.0
1173.544883917192 -0.29647090422366773 0.0 -4.599567983521273 0.0 0.0
375.4175215064066 8.509457371895522 0.0 216.11166571894017 0.0 0.0
930.4042688913761 206.23540781629708 0.0 349.7596990223317 0.0 0.0
740.7947462187434 135.0016811891869 0.0 310.8940998802854 0.0 0.0
965.8439636360049 200.23046242704706 0.0 363.52753018637503 0.0 0.0
267.0335126582062 135.95696822542362 0.0 4.788505720702255 0.0 0.0
425.02266092901 19.832999620016793 0.0 -209.23371300646593 0.0 0.0
417.9670650590488 -5.817930635298353 0.0 -193.9629089675788 0.0 0.0
424.0576386976321 21.38878203167367 0.0 -204.60405233449316 0.0 0.0
418.5631918009442 2.3832109749547215 0.0 -199.93284933981232 0.0 0.0
1138.8617113144444 82.93028828316386 0.0 -109.38288534813135 0.0 0.0
1105.3169345791453 35.795832949642204 0.0 -87.82325326554378 0.0 0.0
1109.0003561753351 14.724497852886884 0.0 -113.72639967891365 0.0 0.0
136.40961029525468 -56.410846352790074 0.0 -46.240354237857275 0.0 0.0
94.5424855198581 -10.127036706908612 0.0 -104.61985936158794 0.0 0.0
269.3056345632439 -81.73189202497828 0.0 186.05343310464576 0.0 0.0
479.87137216081976 -39.207161765647385 0.0 162.61430743164829 0.0 0.0
925.0573605086205 -15.366786828083605 0.0 14.755004587764573 0.0 0.0
949.5111542722365 -16.44955937507183 0.0 -7.241975820902426 0.0 0.0
895.0211963533661 49.580031975130424 0.0 -45.55929715919124 0.0 0.0
870.4084478762063 2.4836986010980127 0.0 -2.769802538151141 0.0 0.0
900.668695094975 86.92904099229656 0.0 -18.391011115729228 0.0 0.0
806.0314846045991 52.8675777571801 0.0 6.302214042142397 0.0 0.0
287.28143002572386 141.78559644701355 0.0 -8.257676135513059 0.0 0.0
242.0953483707922 127.87761743594264 0.0 -11.272151092990221 0.0 0.0
265.206094374984 138.20944097392442 0.0 2.37037573634722 0.0 0.0
343.0427843665071 -41.777896318446636 0.0 165.24927927765634 0.0 0.0
1100.3678535471988 58.226147852680356 0.0 107.19732639280289 0.0 0.0
876.0513901389503 37.59213894470335 0.0 36.74996796984746 0.0 0.0
200.92430731302153 108.39520322251383 0.0 11.532207444382063 0.0 0.0
240.41822940197738 98.69172430129362 0.0 34.78233251366367 0.0 0.0
222.65600349814542 106.1063787027456 0.0 -21.8045924291422 0.0 0.0
1199.5950225676945 50.09761280086428 0.0 -36.23815454248668 0.0 0.0
1174.5651936761808 14.322809856500726 0.0 -20.403898200871485 0.0 0.0
1135.7577646959833 43.86451417291431 0.0 -104.13269502204282 0.0 0.0
287.4441429566268 -95.79260716396284 0.0 -202.00529820898103 0.0 0.0
453.29335325450495 -53.531579495885325 0.0 -153.3161266800315 0.0 0.0
367.2162867882245 -58.527141655472334 0.0 -184.32689208917992 0.0 0.0
1094.149523278907 -7.867034965131666 0.0 -24.85341468973597 0.0 0.0
1045.5002217300053 0.13704969110972343 0.0 -25.06853359772065 0.0 0.0
1048.5837623695213 -19.998824560030982 0.0 -56.430228894888025 0.0 0.0
832.8840215497341 -13.923027417133824 0.0 -17.74496115865203 0.0 0.0
784.8931796589095 0.19600673454391426 0.0 6.034112582359682 0.0 0.0
570.5567656622595 7.482460367139964 0.0 75.1005913253651 0.0 0.0
626.2135331546594 26.778350605992898 0.0 66.06106539370889 0.0 0.0
500.4878448500865 18.09397069751776 0.0 55.75560669868731 0.0 0.0
296.73385911749904 -19.08327987154418 0.0 150.41600265936438 0.0 0.0
416.0627535201744 16.932785331769082 0.0 140.89678120302747 0.0 0.0
297.696931977334 134.17630224860454 0.0 25.506219831429895 0.0 0.0
228.9407231988126 112.38235494939605 0.0 34.3569572070394 0.0 0.0
1309.6593388695442 99.36820139448099 0.0 5.59161013974392 0.0 0.0
1172.5712808706094 129.47895904464207 0.0 85.45226480931483 0.0 0.0
1153.4047961616718 76.97255412618892 0.0 72.28016147529729 0.0 0.0
327.5500953487449 -69.89479438866465 0.0 139.82708462299772 0.0 0.0
218.43739065184516 -29.12221197619607 0.0 157.53361981675636 0.0 0.0
349.6820738540536 6.235483725933733 0.0 125.7363617988586 0.0 0.0
692.4308483473192 9.47173554153997 0.0 39.852678346886954 0.0 0.0
610.132895674632 20.575991310799765 0.0 22.44030984178675 0.0 0.0
627.6502755614684 -8.09775625081511 0.0 41.35054738084948 0.0 0.0
920.5578284074453 -5.679015006873556 0.0 -178.20642023381748 0.0 0.0
727.37074958692 169.42117444806638 0.0 -332.2970050961074 0.0 0.0
916.3691284970026 -17.328926384989302 0.0 -176.1240270844993 0.0 0.0
1012.6121942921528 -14.672019203478726 0.0 -108.42536640907555 0.0 0.0
1049.2150103065514 -3.1981909608034584 0.0 -122.64286187865001 0.0 0.0
1004.4065075882198 20.739254729922436 0.0 -114.8626356373693 0.0 0.0
1012.8894831894996 -19.42867809015081 0.0 -112.61561165183262 0.0 0.0
580.7817235567657 9.877103881057792 0.0 -84.49210625629507 0.0 0.0
514.5174127323221 -1.8281865673041295 0.0 -124.36361251629096 0.0 0.0
434.13699076546317 41.17865110592024 0.0 -87.64227446158516 0.0 0.0
555.9421873771207 2.753961749689296 0.0 -84.94442454392978 0.0 0.0
989.8004521684238 119.73172532218584 0.0 31.33183034964238 0.0 0.0
1019.7286939633979 96.59717360207853 0.0 -42.25565629213196 0.0 0.0
926.838604998948 -8.971985596281854 0.0 -174.18156048036985 0.0 0.0
723.7496449512482 167.26844130777909 0.0 -327.07556726459626 0.0 0.0
922.3124392169957 -15.466354604693493 0.0 -170.20892709825 0.0 0.0
621.2465322694023 -0.01767573194962324 0.0 -33.02203667684339 0.0 0.0
793.7090012312713 -13.342018607976001 0.0 -24.63935801628977 0.0 0.0
946.3682720249217 5.812679074575669 0.0 187.56371741764752 0.0 0.0
720.0702544378418 176.64516425677715 0.0 319.55897488283216 0.0 0.0
925.715961983492 -20.138331048913642 0.0 171.1977549585059 0.0 0.0
695.5125732455618 -31.566783560400324 0.0 216.5697622042144 0.0 0.0
396.846732524878 20.325952321150865 0.0 189.29610603283442 0.0 0.0
456.57862742059353 -79.49574412686175 0.0 211.08645553621304 0.0 0.0
1038.8689340318479 -4.582416479030599 0.0 122.36465886089847 0.0 0.0
1003.543274157001 -30.154497455562648 0.0 106.66015048062657 0.0 0.0
865.6795834729725 7.323855357286504 0.0 41.405743816914914 0.0 0.0
873.0360403104416 59.751281233212495 0.0 15.274362596927027 0.0 0.0
1451.6260609405267 241.13096172789125 0.0 -420.66218712959795 0.0 0.0
903.2974704983823 136.3140127672449 0.0 -325.06076576700696 0.0 0.0
136.78680778735247 -247.6257280337214 0.0 49.698176102972546 0.0 0.0
168.61573044148514 22.40903646915395 0.0 157.6446322670883 0.0 0.0
1476.1373954725866 255.43089327292847 0.0 -417.15552553026714 0.0 0.0
893.5219228271599 127.31640986019727 0.0 -322.3728269430623 0.0 0.0
1460.1024580716935 241.52773290865832 0.0 418.73292151233045 0.0 0.0
900.9672097686757 125.36579349634047 0.0 318.65528041498 0.0 0.0
827.2431581976622 -15.013128304648887 0.0 -22.756029176495964 0.0 0.0
731.2028639356527 -22.143851279691802 0.0 -22.23159991195127 0.0 0.0
751.4239237080949 3.6657110459827607 0.0 -17.24192905041176 0.0 0.0
712.1322942717927 -3.987876893148865 0.0 -11.956063168096755 0.0 0.0
-1.5787428711958178 -71.98222466533552 0.0 10.083816670332661 0.0 0.0
119.66026622836071 -66.18183637351092 0.0 88.80341681913411 0.0 0.0
8.068803586848816 -99.31179091903735 0.0 88.36467794726452 0.0 0.0
53.055560264459366 -58.69119035601604 0.0 10.293698839839257 0.0 0.0
1107.5504855295865 -0.42477785334000373 0.0 11.29997766259685 0.0 0.0
1172.8656181890656 -1.6768691769874522 0.0 5.5546207956854525 0.0 0.0
677.7624144764162 6.781798203062607 0.0 -11.174794273407114 0.0 0.0
764.2476483452004 10.14551938446371 0.0 17.971869477463624 0.0 0.0
129.3941122298376 44.10259676339625 0.0 28.035541843373828 0.0 0.0
161.5239841837258 66.61128685955366 0.0 44.660272134481936 0.0 0.0
771.2852612250462 -19.84650017364379 0.0 30.098649043767086 0.0 0.0
733.369864583259 1.6103335219017083 0.0 8.117441901371057 0.0 0.0
1085.2239211783638 -43.8479172977124 0.0 -84.18659199584536 0.0 0.0
1042.0509594722364 -80.5317979958071 0.0 -60.49479421857367 0.0 0.0
615.9511651680439 -94.28003005762963 0.0 -158.34557531153712 0.0 0.0
708.7738167795965 -63.7306712896293 0.0 -97.61983728549886 0.0 0.0
939.2864292156125 100.46322357879035 0.0 58.13838290527244 0.0 0.0
934.7525437835099 37.33860417176231 0.0 5.464642605991085 0.0 0.0
924.4626432966312 50.0186675787555 0.0 58.53141703361046 0.0 0.0
947.4381362554013 81.18647631531584 0.0 5.083594306151844 0.0 0.0
537.6104265492627 -108.41819134705094 0.0 149.6145643082053 0.0 0.0
676.6609010190605 -79.47634492115608 0.0 223.69207331296462 0.0 0.0
1389.8591185624332 209.16210900931813 0.0 -37.251911149918996 0.0 0.0
1200.0310937874235 -1.0170634273112 0.0 3.3410143187353065 0.0 0.0
1148.0633495588195 -1.4298152814980085 0.0 -10.807994721028567 0.0 0.0
1037.0388801840945 19.374998085918776 0.0 -105.23284210181026 0.0 0.0
1024.7602006548298 40.22898515622359 0.0 -123.56226304931904 0.0 0.0
1042.5034556544751 -44.95907446193519 0.0 -96.8004454951405 0.0 0.0
1035.4981918593658 -42.02082435389889 0.0 -95.97196169586422 0.0 0.0
649.9773374438106 -75.82688143156736 0.0 -115.38363234115168 0.0 0.0
611.3308255622427 -28.3087555506346 0.0 -100.61766218356375 0.0 0.0
1070.2495587183819 -22.583582847222885 0.0 -109.10138022602115 0.0 0.0
1062.6503250755202 -19.67305020972168 0.0 -82.73404632806356 0.0 0.0
570.3853831680503 -26.471866329631013 0.0 -137.52228624001884 0.0 0.0
504.4851937405155 -45.51334893951463 0.0 -137.9613274104847 0.0 0.0
1099.3798542730826 -0.7257666387538393 0.0 7.470384787924886 0.0 0.0
1101.976531556799 -15.510105319221793 0.0 26.651269169940473 0.0 0.0
1113.8366206645826 -8.75484583839335 0.0 21.566710873224306 0.0 0.0
709.9660842054183 14.997899865587357 0.0 2.611903853387862 0.0 0.0
640.4278417121496 11.351078725183527 0.0 -25.21415985848392 0.0 0.0
713.0003110557068 22.18923763058143 0.0 -24.98385479029296 0.0 0.0
212.692056983737 98.64042518172282 0.0 -40.759360877953576 0.0 0.0
282.45264010962086 119.12285947620796 0.0 -36.41807011504511 0.0 0.0
777.4320647149466 1.4807577763665165 0.0 18.248071984691666 0.0 0.0
787.3361339154179 34.09979928603943 0.0 21.018583738700556 0.0 0.0
839.4839737571651 3.4541725105760293 0.0 -9.467194350059032 0.0 0.0
1025.9977752540076 23.63404482631472 0.0 -120.08839653069236 0.0 0.0
977.85484594084 18.032974219565006 0.0 -105.51705574859282 0.0 0.0
1020.2409922165734 5.113900150681673 0.0 -118.66945677973389 0.0 0.0
1140.6280091164303 0.4904858940531085 0.0 -0.9190636485707888 0.0 0.0
1136.1579326878796 -6.660087794111462 0.0 -8.332029727376861 0.0 0.0
1120.620380422051 0.8098928923027984 0.0 9.576681485208464 0.0 0.0
959.3510133918022 132.62664622498042 0.0 16.132052649920613 0.0 0.0
982.1749362963214 58.74391360581768 0.0 28.208575128230414 0.0 0.0
924.9893368969513 19.97676040366298 0.0 23.157032937641308 0.0 0.0
1202.7498339361994 184.55058782712538 0.0 8.923223442326364 0.0 0.0
1259.309095587291 154.05823293010437 0.0 38.41193437715314 0.0 0.0
1139.8665002592818 182.10224308317615 0.0 83.5153168313796 0.0 0.0
1040.191343601708 134.1809102056197 0.0 -77.55443161155557 0.0 0.0
1016.3688817218181 55.97163535622883 0.0 -85.2588935376954 0.0 0.0
138.1814871928604 23.29165007060658 0.0 28.532714733088604 0.0 0.0
223.19603110956677 -39.271492012975344 0.0 109.74037737775394 0.0 0.0
142.46814432696664 13.4343629619582 0.0 109.53897841760092 0.0 0.0
787.315164018553 -66.5465773454851 0.0 196.77447361273914 0.0 0.0
451.0632087351715 3.1856449892563035 0.0 205.10689442417151 0.0 0.0
454.57022813148376 37.05795935484319 0.0 187.26279418793496 0.0 0.0
739.3680525800704 -48.34946062447352 0.0 -52.90011130081734 0.0 0.0
719.59938488686 -7.619913945840153 0.0 -43.14824938983577 0.0 0.0
732.6072557017494 -4.072065772153252 0.0 -45.87632144264505 0.0 0.0
514.3906907275331 1.4139216089021716 0.0 -65.96563017687632 0.0 0.0
627.1215908785629 -28.27588067683766 0.0 -82.56505426403169 0.0 0.0
616.8589895801528 12.898165377695562 0.0 -69.76374226265578 0.0 0.0
-12.296138179081625 -83.04674335015463 0.0 13.912246934796467 0.0 0.0
85.2013959765697 -27.36825444196009 0.0 56.86004210979267 0.0 0.0
100.25979197857205 -58.907325875418515 0.0 84.82408029662241 0.0 0.0
84.80185817807363 -186.72995783169625 0.0 94.97706276308372 0.0 0.0
693.2984259373034 19.075530244606824 0.0 17.70593399403217 0.0 0.0
808.6159743244143 -7.4002836704832475 0.0 19.803901920261495 0.0 0.0
829.2149087925193 39.28463411925401 0.0 52.5510082236096 0.0 0.0
1758.7523620714555 229.31001811213173 0.0 -50.94453624700972 0.0 0.0
1462.793916246686 256.43235149045097 0.0 48.68746765990921 0.0 0.0
1256.7055616366658 240.81936032405855 0.0 45.070563916147336 0.0 0.0
295.0890031772 140.0146166418013 0.0 1.6124922155603052 0.0 0.0
324.7619724149967 130.67401028833623 0.0 14.428179513103858 0.0 0.0
302.8228656260393 123.3332836075222 0.0 19.123164852796442 0.0 0.0
235.83854166393832 97.96509222797243 0.0 -26.96461392740809 0.0 0.0
190.90500619624086 99.78345898368781 0.0 16.850130830396473 0.0 0.0
257.24715066783125 123.32720545493567 0.0 5.2729382846717225 0.0 0.0
481.17281435007885 -97.11790029773539 0.0 210.60306612749028 0.0 0.0
188.32366463321722 -53.53958590420294 0.0 124.73781902190868 0.0 0.0
1459.9715008718813 201.0134189538935 0.0 -63.744074360300694 0.0 0.0
1450.359429893462 212.81771291027763 0.0 -9.702653737620116 0.0 0.0
1673.991637105132 191.14167108148644 0.0 -28.34191580150271 0.0 0.0
369.0938618028205 89.71091692990078 0.0 -69.00967656542743 0.0 0.0
274.02155719359394 107.92808035091575 0.0 -43.01856753757847 0.0 0.0
320.3439008827652 78.06014819052116 0.0 -75.20231095165136 0.0 0.0
321.7989881513011 119.11028090160558 0.0 -36.96375274039342 0.0 0.0
662.284580790127 -104.74378393714383 0.0 153.80842023021407 0.0 0.0
660.4919613375204 -108.13151129734734 0.0 157.806360027196 0.0 0.0
660.1039405728555 -106.05585166484218 0.0 155.23675232037544 0.0 0.0
662.5106577476901 -106.9525368697706 0.0 156.4138744394103 0.0 0.0
1287.465786682082 193.9175832312508 0.0 56.01143531097641 0.0 0.0
1455.2812229123367 233.6110582264571 0.0 -10.9357958300404 0.0 0.0
174.85362622634747 -205.5836990288007 0.0 30.7852120725324 0.0 0.0
1173.898567944577 -2.2115606938601786 0.0 1.566074736194067 0.0 0.0
1118.9979366177108 0.16011679499933962 0.0 8.054732875319853 0.0 0.0
935.4579350867176 29.66529115698853 0.0 -34.172244698277716 0.0 0.0
962.3691735636182 116.97866080644656 0.0 -40.50894300390664 0.0 0.0
774.2661503163689 -9.109128593069215 0.0 -8.179053642446343 0.0 0.0
829.3688439180063 -8.908541091989491 0.0 16.69745296132908 0.0 0.0
838.1845208115939 -10.00116192209913 0.0 0.5195398332988628 0.0 0.0
744.4366654281487 6.4929878994822445 0.0 21.137485372457103 0.0 0.0
1209.3811517132021 188.3030360555787 0.0 -71.26060910965678 0.0 0.0
1200.4969838189018 209.82739506183188 0.0 8.557950486906678 0.0 0.0
1327.8660654620935 196.76941330066168 0.0 4.154305250143141 0.0 0.0
1318.7758082206265 235.31394416211526 0.0 -45.206393023625374 0.0 0.0
164.18600977113684 68.65949202061952 0.0 -31.835774250566395 0.0 0.0
181.63555243967772 53.961807560480516 0.0 -27.26396553951612 0.0 0.0
102.9657535139873 1.6961787499570065 0.0 49.00015130158294 0.0 0.0
62.58215875273418 15.675484180756714 0.0 -40.5744934374802 0.0 0.0
230.33413663931975 90.87427439972869 0.0 -56.76587106835795 0.0 0.0
193.52593059466867 96.86861162470925 0.0 -15.644359757327715 0.0 0.0
265.86871737018697 131.10152825300688 0.0 -21.560757518613602 0.0 0.0
242.9684969516237 123.08261417311782 0.0 1.6707173720671549 0.0 0.0
271.68883851479427 131.30883712786382 0.0 3.589456759049676 0.0 0.0
239.80511427935548 123.41162566278533 0.0 -23.930153299950454 0.0 0.0
234.89294154448575 -193.29356206576176 0.0 120.24279057423786 0.0 0.0
38.51776029738309 -148.4573614770173 0.0 50.37569196793385 0.0 0.0
232.72929684033562 -116.93436752814452 0.0 177.35165894891466 0.0 0.0
1203.9921631217678 2.506485270358894 0.0 -4.44771400521545 0.0 0.0
1138.2012552441442 -0.7311203148103118 0.0 12.854599217747447 0.0 0.0
1126.161502365838 -12.562242420837606 0.0 12.254824607444565 0.0 0.0
1133.1417466415587 -2.377319121651851 0.0 3.0739953880151396 0.0 0.0
1007.917781686093 -10.037893537162006 0.0 10.296642240307094 0.0 0.0
1054.5652022716877 -6.2227826024311526 0.0 -9.794134525553625 0.0 0.0
975.2253118079386 -10.888752454828989 0.0 -9.729840398147962 0.0 0.0
1160.4914930928007 -2.8498320373232673 0.0 -11.986456043206024 0.0 0.0
1154.826263684607 -2.451356747880368 0.0 11.815013087443157 0.0 0.0
1202.7684357562262 -8.872968715977379 0.0 1.732965439277623 0.0 0.0
1123.069550898688 10.360599124194493 0.0 -4.587557497549851 0.0 0.0
1074.525339631712 -4.895056873531814 0.0 12.682914926094618 0.0 0.0
1118.5310835717364 2.8996498055259394 0.0 -9.533382232296699 0.0 0.0
1001.6939511913378 -18.107948282343784 0.0 14.726624798613916 0.0 0.0
1007.7816516225937 -2.735033182850259 0.0 10.27140361748185 0.0 0.0
463.85916615443 74.86963549365271 0.0 63.42147961799142 0.0 0.0
408.56898602071743 53.97074321411151 0.0 76.63597799719949 0.0 0.0
SCALARS Strain float 6
LOOKUP_TABLE default
0.010146750182395269 -0.0033407524575464927 0.0 0.0012973015100181673 0.0 0.0
0.011830814610586063 -0.00357308397674665 0.0 -0.00016366261575653123 0.0 0.0
0.010426560726391226 -0.0032328591236673275 0.0 -7.276573582368518e-05 0.0 0.0
0.009830810343984236 -0.0030476392164875896 0.0 0.00010082466014090148 0.0 0.0
0.010261978231563017 -0.003152357724162903 0.0 -0.0014691132543767044 0.0 0.0
0.005704030186352599 -0.00180736256531807 0.0 0.0009997498837983378 0.0 0.0
0.010258716023357366 -0.0032105912363372697 0.0 0.001429066962806419 0.0 0.0
0.011871644655839722 -0.0035677169671078494 0.0 0.00015781453877021642 0.0 0.0
0.011189385414601655 -0.003387763601728698 0.0 -2.848097114190257e-05 0.0 0.0
0.00951785550533546 -0.002982549920814381 0.0 0.0001267238987365696 0.0 0.0
0.010200208696103746 -0.0031333535202068673 0.0 0.00010152151350859732 0.0 0.0
0.00975829887047748 -0.003046786194323364 0.0 -8.247674618652029e-05 0.0 0.0
0.011359481173819026 -0.0034995157891352644 0.0 -7.680142186015958e-05 0.0 0.0
0.010653281656352973 -0.003233414981797933 0.0 -0.0001859258624131695 0.0 0.0
0.011010553060826378 -0.0033730038093981317 0.0 0.0003390660970763349 0.0 0.0
0.010669763352922737 -0.0033430269902364647 0.0 -0.0015426758779988575 0.0 0.0
0.005806662023271514 -0.0016372300675485743 0.0 0.0013906553714695211 0.0 0.0
0.010456304865040615 -0.0033274937266780484 0.0 0.0013945886628070636 0.0 0.0
0.010222868891067147 -0.0031533089534511705 0.0 1.1951482397537343e-05 0.0 0.0
0.009714537202426515 -0.0030492748709164542 0.0 -0.0001735462158148573 0.0 0.0
0.011615339066222913 -0.0035160205332450205 0.0 0.0001901741730034323 0.0 0.0
0.009321183006217898 -0.0028559180482791123 0.0 -0.00014014146173755041 0.0 0.0
0.006037072166959992 -0.0015063930537682867 0.0 4.4077029176867524e-05 0.0 0.0
0.0059758662101035975 -0.0014710652544085245 0.0 2.0888707393604763e-06 0.0 0.0
0.009760814731418405 -0.002909591459873899 0.0 -0.00045388637228982454 0.0 0.0
0.009769363331885017 -0.002940836381480256 0.0 0.0004318178797416564 0.0 0.0
0.009788243203532172 -0.002921933785962158 0.0 0.0004503311998062809 0.0 0.0
0.005924727679610414 -0.0014491400433929574 0.0 -2.597237566977391e-05 0.0 0.0
0.010426560726391226 -0.0031152274098738427 0.0 -6.38293234987838e-05 0.0 0.0
0.011187373560984521 -0.003406898978983807 0.0 7.053649362962194e-06 0.0 0.0
0.010818814065249427 -0.0032842815434436217 0.0 -0.00014282551151216277 0.0 0.0
0.007152390068500103 -0.0026040558651063933 0.0 -0.001354598670018658 0.0 0.0
0.009941548051062198 -0.003247117815803497 0.0 -0.0005161593024398229 0.0 0.0
0.007507617006100156 -0.0035644897395414443 0.0 -0.0019850993587800497 0.0 0.0
0.00752601721407381 -0.003603241055375503 0.0 -0.002012386432816572 0.0 0.0
0.010470896717910225 -0.0038764891070829748 0.0 -0.0002348517885941287 0.0 0.0
0.009932360346332186 -0.003953205898407982 0.0 -0.0005851438321648307 0.0 0.0
0.009971014097822334 -0.003953654500652064 0.0 -0.0005780312730757895 0.0 0.0
0.009837867355893856 -0.004024655076553327 0.0 0.0007354703597369332 0.0 0.0
0.00876297634329598 -0.0035060364718724046 0.0 -0.0013949301887603385 0.0 0.0
0.010293253339762463 -0.004084664263167559 0.0 0.0008254156791532592 0.0 0.0
0.008814881721751516 -0.0035400811099596005 0.0 -0.001414949860675562 0.0 0.0
0.010426841779894343 -0.0034982467966215014 0.0 -0.0005879112859197191 0.0 0.0
0.009736818683070327 -0.003979513264904474 0.0 0.0007957492963844566 0.0 0.0
0.009828617785749606 -0.003323188660653325 0.0 -0.0002254726728772472 0.0 0.0
0.010469834383315469 -0.004109267080430749 0.0 0.000948646740107592 0.0 0.0
0.006087627927467101 -0.002732211115283472 0.0 -0.002009738853862396 0.0 0.0
0.006837841274071679 -0.0027173574254710058 0.0 -0.0015746481600492988 0.0 0.0
0.010942356571728547 -0.004033938379296904 0.0 -0.0002604558608670735 0.0 0.0
0.0070000884782895 -0.002775178720348076 0.0 -0.0017335119137985274 0.0 0.0
0.010587194818396067 -0.003437831823282793 0.0 -0.0006154193961920324 0.0 0.0
0.009987463233809658 -0.0035532503464556354 0.0 -0.0003890086549445833 0.0 0.0
0.009607062801494662 -0.003508710548244873 0.0 -0.00023811530978651361 0.0 0.0
0.009157199135286564 -0.0030375341187657326 0.0 -2.6652213472257505e-05 0.0 0.0
0.008875054902534617 -0.003287850569744134 0.0 0.00023314178121226358 0.0 0.0
0.010125645744888266 -0.0038941263909739294 0.0 7.60424620940745e-05 0.0 0.0
0.009116037931279256 -0.0029544615266830793 0.0 8.981500957890454e-05 0.0 0.0
0.007149410234044862 -0.003345083491410756 0.0 0.002019164053904529 0.0 0.0
0.010126458409787221 -0.0038926250514427847 0.0 -3.993869985217252e-05 0.0 0.0
0.010070528205196803 -0.003275010706298769 0.0 0.0003719152907667696 0.0 0.0
0.010299201550665493 -0.003601504725871912 0.0 -0.0006836639972641885 0.0 0.0
0.009307105478502366 -0.0036934340908844083 0.0 -0.00016067830923750456 0.0 0.0
0.007627279052886578 -0.0026952998455263104 0.0 -0.0007149220227068874 0.0 0.0
0.008276368122708808 -0.0026787144357498516 0.0 -0.000158098878921961 0.0 0.0
0.010154164173120128 -0.003925953577264649 0.0 -0.00012567910652172033 0.0 0.0
0.010402253604108774 -0.003491848962746194 0.0 -0.000747238590194872 0.0 0.0
0.009046323105328047 -0.0035398595628507966 0.0 0.0002891294036743951 0.0 0.0
0.008551958590878442 -0.0029774479042159858 0.0 0.0002332917126965494 0.0 0.0
0.009363212260408135 -0.003735185228156428 0.0 -0.00016206349510554038 0.0 0.0
0.009802599157732378 -0.0036324916812145156 0.0 0.0003905775683835924 0.0 0.0
0.010080875331797981 -0.0034160238152316936 0.0 0.0005783662879237841 0.0 0.0
0.009452271627451714 -0.003430495253813068 0.0 -0.00017733597940366302 0.0 0.0
0.010036948277945205 -0.0033843995435331817 0.0 0.00044884332465476226 0.0 0.0
0.010098578496684177 -0.003530348967320518 0.0 0.0005806301681339702 0.0 0.0
0.00913752645986745 -0.003447465426815715 0.0 -0.00013624060152406746 0.0 0.0
0.010246698250692465 -0.003605135247131833 0.0 -0.0009380173273825457 0.0 0.0
0.01008479708789567 -0.0037665181193331787 0.0 -0.00042275036383249837 0.0 0.0
0.010085348489105972 -0.003199162983813439 0.0 -0.0004423595464945057 0.0 0.0
0.007508967516823131 -0.002915965572891463 0.0 -0.0009916952752778811 0.0 0.0
0.009222372458849874 -0.0032949606203316155 0.0 -0.0001691466533864693 0.0 0.0
0.00898700590012911 -0.0029980738890295813 0.0 -4.226453502266135e-05 0.0 0.0
0.009110835921983959 -0.0032126828201501866 0.0 -0.00013613319949533093 0.0 0.0
0.009163638526879236 -0.0032514766022682766 0.0 0.00014244146733236214 0.0 0.0
0.008914110824980434 -0.0029922928711269454 0.0 6.256963380856309e-05 0.0 0.0
0.0073709625151331115 -0.0028874579390116874 0.0 -0.0010870036832103117 0.0 0.0
0.00915852382825872 -0.00328790039075306 0.0 -0.00019430813276909587 0.0 0.0
0.010283205109405696 -0.0037513915808892635 0.0 -0.0007237583431580902 0.0 0.0
0.009992274008152141 -0.003952459800342527 0.0 7.964099100900464e-05 0.0 0.0
0.01021313995593659 -0.003706215538498033 0.0 -0.0006347927131779754 0.0 0.0
0.009494389944486308 -0.0030127509201144428 0.0 0.00011003319367235424 0.0 0.0
0.01026971689450143 -0.003399760850023607 0.0 -0.0009502261663903093 0.0 0.0
0.010135589950076858 -0.00369259903092391 0.0 -0.000695981548259522 0.0 0.0
0.007599574328166568 -0.0032785560272167967 0.0 -0.0014219149289952885 0.0 0.0
0.009495466068066019 -0.0035985650467388747 0.0 -0.0003349771178043602 0.0 0.0
0.009797516820551092 -0.0035075720137568503 0.0 -0.0002403168322869173 0.0 0.0
0.009774419152964675 -0.0032782504205411712 0.0 -0.00041206771856203486 0.0 0.0
0.005523578370151105 -0.0028105611586900815 0.0 -0.0026488239401590225 0.0 0.0
0.011143040638481025 -0.0035873961078671107 0.0 -0.0006157855551672097 0.0 0.0
0.0035209579863443516 -0.0017560252413254332 0.0 -0.002634722264852844 0.0 0.0
0.006286387384290458 -0.0028659673100647903 0.0 -0.0023645133350989455 0.0 0.0
0.0073225886446925854 -0.003216053624033358 0.0 -0.001500729801978444 0.0 0.0
0.00946520209013612 -0.003612156350800642 0.0 -0.0003548232164656273 0.0 0.0
0.010127975271633727 -0.003506853033452023 0.0 0.0006458556750556805 0.0 0.0
0.010166415321355954 -0.003370688163214848 0.0 0.00043585461007444523 0.0 0.0
0.009396157276026183 -0.003169331036216562 0.0 -9.058190235270921e-05 0.0 0.0
0.009696159183918251 -0.0033571377120979635 0.0 0.00028492841653991914 0.0 0.0
0.009208535053569396 -0.0032986475291998593 0.0 -9.642762041840378e-05 0.0 0.0
0.010287457541255957 -0.0031903983221186843 0.0 -0.00040527163922289056 0.0 0.0
0.008118800373123694 -0.0027103782552705506 0.0 0.0002614166937021465 0.0 0.0
0.008721103518409531 -0.0027621486325403732 0.0 0.00010470546767951672 0.0 0.0
0.010372326613114873 -0.0033727732939538846 0.0 0.0006892051906241519 0.0 0.0
0.010409848549819856 -0.0033099046408269148 0.0 0.0007384469929476167 0.0 0.0
0.008978079049879472 -0.003349738683175745 0.0 0.0004774864794561391 0.0 0.0
0.003650004513989974 -0.00020607414880654575 0.0 0.0006056687022057902 0.0 0.0
0.00914973113342118 -0.0025546057076881734 0.0 0.0011183681003299542 0.0 0.0
0.010190331060581814 -0.0028195862963973327 0.0 0.0014657382915634174 0.0 0.0
0.009188691863419376 -0.002453917011276629 0.0 0.0012601343533801216 0.0 0.0
0.010277056829868278 -0.003720654740605147 0.0 0.0007057120673236812 0.0 0.0
0.009658742847454965 -0.0030555991483441256 0.0 0.00023735885216788662 0.0 0.0
0.00978205598614773 -0.003297353197671904 0.0 0.00010600242272164676 0.0 0.0
0.009125169156055435 -0.0028577809187468363 0.0 7.759741771489782e-05 0.0 0.0
0.009045756963951823 -0.0029009671334535216 0.0 2.369063884435224e-05 0.0 0.0
0.010346450843226933 -0.003275377014524447 0.0 0.0006039696391047372 0.0 0.0
0.010215472319588824 -0.0032235662855402917 0.0 -0.0009638637366662216 0.0 0.0
0.00969772587577096 -0.002948279917467392 0.0 -0.0010568920856695364 0.0 0.0
0.005210544362427932 -0.001098220778966923 0.0 -0.0006866755001484724 0.0 0.0
0.005703891412125475 -0.0013558471274965345 0.0 -0.0003264214313134792 0.0 0.0
0.01015453102434398 -0.003969138653245913 0.0 6.349734885655479e-06 0.0 0.0
0.009487923882260284 -0.0038395049554305533 0.0 0.00026267807509010354 0.0 0.0
0.006003002389869193 -0.0017123607671641894 0.0 -0.0005835563844627453 0.0 0.0
0.008753223522937451 -0.003270285736687792 0.0 0.0006250746033762333 0.0 0.0
0.010549497505013834 -0.0033554134342209004 0.0 0.0006339216487344734 0.0 0.0
0.00909087502301591 -0.002628428370100029 0.0 -0.0010519645906633245 0.0 0.0
0.00431944429441336 -0.0007200868913898872 0.0 -0.0004559956513013365 0.0 0.0
0.010302057798465283 -0.003702560938340102 0.0 0.0007516692962530821 0.0 0.0
0.010262382714551765 -0.003931018972746484 0.0 0.00015249509123541668 0.0 0.0
0.009590734179811641 -0.0038582153565953144 0.0 -0.00017072603650405277 0.0 0.0
0.008590086981948485 -0.002871761045409562 0.0 0.0003452508159097387 0.0 0.0
0.009312632103009442 -0.003586287237963533 0.0 0.0005557745005838513 0.0 0.0
0.008364357264465508 -0.003613584293025685 0.0 0.0010568261681348067 0.0 0.0
0.00336489032071563 -0.0008292403077571611 0.0 -0.0015816255135918753 0.0 0.0
0.010307193441129847 -0.003935321245998883 0.0 0.000189541626976048 0.0 0.0
0.009639810214332294 -0.0039149042975092155 0.0 -0.00018190041062557914 0.0 0.0
0.008363841213725617 -0.002632222076526136 0.0 0.0002246323911469176 0.0 0.0
0.010313402769825494 -0.0035496401124513696 0.0 0.00091999054283549 0.0 0.0
0.009604412851367969 -0.0030112430378683524 0.0 -0.001117212426143886 0.0 0.0
0.00938596701657466 -0.0027143760566780886 0.0 -0.0010535959462069462 0.0 0.0
0.0092284102091429 -0.0035897779449570594 0.0 0.0006763431643312771 0.0 0.0
0.008218526895011527 -0.00364075192713105 0.0 0.0011741958232631966 0.0 0.0
0.010449763669914902 -0.0032715256862961197 0.0 0.0007615631309318832 0.0 0.0
0.010294620289853423 -0.0033224416281680213 0.0 0.0009083440641119076 0.0 0.0
0.010308190004551208 -0.0034199232046072253 0.0 -0.0012877114920352983 0.0 0.0
0.008348816817282311 -0.002825201560918332 0.0 0.0004594288505949546 0.0 0.0
0.007291483064389287 -0.0022841757964105584 0.0 -0.0005159106309528278 0.0 0.0
0.0068099279743660535 -0.0022016998859131984 0.0 -0.0009577888234019033 0.0 0.0
0.010466304596177145 -0.0033822867996962137 0.0 -0.00032225834878288687 0.0 0.0
0.009420501248296825 -0.003058694785839415 0.0 -4.445996555255821e-05 0.0 0.0
0.010319249644879173 -0.003544427453384702 0.0 0.0009723219461038792 0.0 0.0
0.00509655864717623 -0.0008594195126684061 0.0 -0.0007763353248780303 0.0 0.0
0.005154842549667554 -0.0012294170989835922 0.0 -0.00043268227123731753 0.0 0.0
0.004250989490097799 -0.0007079112986263653 0.0 -0.00043058404218488614 0.0 0.0
0.023350707038283323 -0.005016480629534088 0.0 0.0018249777538641777 0.0 0.0
0.02358275979074713 -0.004990604835075629 0.0 0.0026298906900199953 0.0 0.0
0.013871493677223963 -0.0019354385859658152 0.0 0.000937259693901041 0.0 0.0
0.0019591146018672068 -0.0061707565003267205 0.0 0.0006385656521310026 0.0 0.0
3.116642096426259e-05 -0.0008861861482099831 0.0 -0.0006231482236438452 0.0 0.0
0.0019252708570418053 -0.006236016728664247 0.0 0.0006250632606237868 0.0 0.0
4.152806725922498e-05 -0.0009522932011333512 0.0 -0.00044055415247261625 0.0 0.0
0.001775503007825363 -0.006008978256647202 0.0 -0.000260189607839946 0.0 0.0
0.0018112526976463428 -0.005772417523520441 0.0 -0.0003621562751920807 0.0 0.0
0.02386793146598698 -0.005274961602838801 0.0 -0.0026219690680758983 0.0 0.0
0.013679969434022813 -0.0018361223328012544 0.0 -0.0006378904184124994 0.0 0.0
0.02420378058872043 -0.005359107719259404 0.0 -0.0022900980105523437 0.0 0.0
0.010342002705498982 -0.0032881457487093507 0.0 0.0007587879543657066 0.0 0.0
0.007952019123900644 -0.0023674208204498195 0.0 0.0001638419329107986 0.0 0.0
0.009351232588315777 -0.0028928643067861054 0.0 -6.452192133984546e-05 0.0 0.0
0.009708032283763032 -0.003155129786416069 0.0 -0.00010220312514208369 0.0 0.0
0.0027345100072598064 -0.0011623366347196587 0.0 -0.0017392504992618189 0.0 0.0
0.011032886738557755 -0.0034110053445835144 0.0 0.00026778075841139533 0.0 0.0
0.01034191908854816 -0.0031992792729587886 0.0 0.0006446444454203852 0.0 0.0
0.01028502007734822 -0.0037146102001608273 0.0 -0.0008975469864984272 0.0 0.0
0.009980622094454772 -0.0032810531163816256 0.0 -0.00023775163071915184 0.0 0.0
0.009420502610703024 -0.003044065851063836 0.0 -0.00010472419645962238 0.0 0.0
0.010135053312489928 -0.003110796630335416 0.0 -0.00019386397638312004 0.0 0.0
0.010490282402347367 -0.003274551777335998 0.0 3.478681255433542e-05 0.0 0.0
0.009670714581475781 -0.0030186519317699934 0.0 1.2552484952233628e-05 0.0 0.0
0.010119985156677329 -0.0032279146074765883 0.0 0.00044491182106657853 0.0 0.0
0.010336674138239216 -0.0032988907491293246 0.0 0.0002285456108802248 0.0 0.0
0.006009242883217657 -0.0020782201799021474 0.0 -0.0017659517483278062 0.0 0.0
0.010136581022537273 -0.003212767447847629 0.0 0.001206370626041415 0.0 0.0
0.010224825950754465 -0.0031638153188865044 0.0 0.0008926960889022008 0.0 0.0
0.010286735236793257 -0.003346427680221862 0.0 -0.0002855750567949686 0.0 0.0
0.009708864985132097 -0.0030783205203441244 0.0 -0.00012680124399282232 0.0 0.0
0.010198624760331478 -0.003127242319168194 0.0 0.0008932259242005382 0.0 0.0
0.006180969642227557 -0.0017304077683179195 0.0 0.0003378963759879932 0.0 0.0
0.006903306861949399 -0.002676935533362677 0.0 0.0011850036301131739 0.0 0.0
0.009924349670417741 -0.0030701783256409203 0.0 -0.001402479631444387 0.0 0.0
0.007140428021499598 -0.0022757707224611793 0.0 0.00031858915109001136 0.0 0.0
0.008109562928590618 -0.0025391012671731085 0.0 0.00034324912400578265 0.0 0.0
0.010275750917197252 -0.003665205653665045 0.0 0.0009433061673906526 0.0 0.0
0.010004263319734301 -0.003167897188469859 0.0 0.0014391241387350668 0.0 0.0
0.010381266695443453 -0.00322530856121888 0.0 0.000810831905167354 0.0 0.0
0.010268023588197908 -0.0033455104361554597 0.0 0.0009606394320277993 0.0 0.0
0.005672416428971455 -0.001450144925237689 0.0 0.0009631593920910245 0.0 0.0
0.006511241715483007 -0.0022170859120046356 0.0 -0.0010296675554427662 0.0 0.0
0.006362607442718965 -0.0021381368669697344 0.0 -0.0013967285737570417 0.0 0.0
0.007505797171344246 -0.0026478959043665026 0.0 -0.0010222511823933453 0.0 0.0
0.010301050744242861 -0.003467161305847233 0.0 -0.001269347191589821 0.0 0.0
0.010525057617410197 -0.0034155969800310562 0.0 -0.0014363140554977706 0.0 0.0
0.01054772071176105 -0.003736713976288466 0.0 -0.0011607099763196928 0.0 0.0
0.01040101829421411 -0.0032102529951072954 0.0 0.0003661974155103366 0.0 0.0
0.009921201200090497 -0.003047849291465716 0.0 0.0009470387771142834 0.0 0.0
0.009989206545357933 -0.003139546444880313 0.0 0.001256430171671175 0.0 0.0
0.017177013216294276 -0.004560265800024442 0.0 0.0003315014699007187 0.0 0.0
0.01787402990277638 -0.004281298441630811 0.0 -0.0001271593444323359 0.0 0.0
0.01787169626636643 -0.0036835563120907883 0.0 4.599705456986066e-05 0.0 0.0
0.0005266170137657178 -0.0029871335231197657 0.0 -0.0004836402921562944 0.0 0.0
0.0012647626589715327 -0.002819395680681687 0.0 0.00010106125845757777 0.0 0.0
0.00041923561024866107 -0.0028752809290570544 0.0 -0.00045394944492901934 0.0 0.0
0.0011616592915748153 -0.002668758679571691 0.0 0.0001400613414189655 0.0 0.0
0.009947086381105062 -0.002936922976940176 0.0 -0.0013266476144741446 0.0 0.0
0.009328583274811739 -0.0027866633633360192 0.0 -0.0012047931210506877 0.0 0.0
0.005405133445793707 -0.0013964810102169156 0.0 0.000995298180253065 0.0 0.0
0.004737717629359095 -0.0009533051220617914 0.0 0.0006427462695315898 0.0 0.0
0.009575683117596757 -0.0028984751641288886 0.0 0.0013180778254812575 0.0 0.0
0.01038376035662069 -0.003284922862890569 0.0 -0.0007634406114283517 0.0 0.0
0.009978850606107342 -0.0031664918426507573 0.0 0.00033303559577383085 0.0 0.0
0.010230938788811733 -0.0032991213929389252 0.0 0.00015945129754346438 0.0 0.0
0.005606727992765216 -0.0015254706349363614 0.0 0.0006082106261252641 0.0 0.0
0.0060487172342829215 -0.0015448157693655831 0.0 0.0006014149687101414 0.0 0.0
0.009913295836248281 -0.0030497601332745844 0.0 0.0009544296000961738 0.0 0.0
0.004223337666702409 -0.0008533897419308635 0.0 -0.0009108183481206875 0.0 0.0
0.005778994416566707 -0.0017359633965983168 0.0 -0.001387732066790018 0.0 0.0
0.010395147057800633 -0.00332810183370056 0.0 0.0013558866212491794 0.0 0.0
0.009819641943303748 -0.0031624893454909758 0.0 -0.00025952644733207605 0.0 0.0
0.01028002938039288 -0.003469501376139189 0.0 -0.00046262662852101654 0.0 0.0
0.010450183851095494 -0.00344988392327965 0.0 -0.0008173496863956397 0.0 0.0
0.010298042724214335 -0.0032240740152773215 0.0 -0.0007049867801174241 0.0 0.0
0.008607879444740785 -0.0037036177063299197 0.0 -0.0009797413322327718 0.0 0.0
0.008618936255645436 -0.0033912797453931765 0.0 -0.0010582895749168082 0.0 0.0
0.009471777903663025 -0.003783965357401539 0.0 0.0001433485368183933 0.0 0.0
0.010461509327953915 -0.004119217311705104 0.0 -2.0937757153206837e-05 0.0 0.0
0.008623372945847405 -0.003735084167793945 0.0 -0.0009975803977322392 0.0 0.0
0.008585524558683763 -0.003387759215944069 0.0 -0.0010304209525409374 0.0 0.0
0.009378458886672866 -0.003314988859113737 0.0 1.9948265648297948e-05 0.0 0.0
0.009324336956595639 -0.0031929000824301307 0.0 -0.00012643530129192396 0.0 0.0
0.010505421060879115 -0.004057929245837243 0.0 -0.0007754972864567459 0.0 0.0
0.008786296087614963 -0.004003124586403447 0.0 -0.001288328157302942 0.0 0.0
0.010492710878853511 -0.004066869084647283 0.0 -0.0007700913301675535 0.0 0.0
0.00878248444708734 -0.0040183239663185155 0.0 -0.0013201356402410928 0.0 0.0
0.00879798630827755 -0.003900879566384059 0.0 0.0018853857336211394 0.0 0.0
0.008932937850768333 -0.0037535027976111426 0.0 0.0009895895328952166 0.0 0.0
0.009075620365326942 -0.0030626850351002863 0.0 -1.4683770133828815e-05 0.0 0.0
0.008575192028623176 -0.002983355000803215 0.0 -0.00032997813972561983 0.0 0.0
0.01019508877584091 -0.003602421362333453 0.0 -0.000612184134006542 0.0 0.0
0.010187372761988743 -0.0032506871186460395 0.0 -0.0006895675679189743 0.0 0.0
0.010509579172859634 -0.00372744939142022 0.0 0.0008753407084961472 0.0 0.0
0.010704550971158334 -0.004092051201453915 0.0 8.651173991488853e-05 0.0 0.0
0.010510433894699411 -0.003758913106484444 0.0 -0.0008252166778886347 0.0 0.0
0.010630925045166113 -0.004121575524300266 0.0 2.1349153963557115e-05 0.0 0.0
0.008931216684370732 -0.003652352040023956 0.0 0.0015634124165379397 0.0 0.0
0.008765074233304304 -0.0038535606498186817 0.0 0.0011991268699581346 0.0 0.0
0.010425734798266556 -0.0036977678656482105 0.0 0.0008082023465515592 0.0 0.0
0.010788868411557207 -0.004111478611292449 0.0 0.00016725035285400022 0.0 0.0
0.007350175824666447 -0.0033022064418448682 0.0 0.001597457482295046 0.0 0.0
0.008451160407014019 -0.0033837588700477723 0.0 0.0012283621989964838 0.0 0.0
0.00956440177945761 -0.003134082075384681 0.0 -0.00020822842798709842 0.0 0.0
0.010082968922788982 -0.003433765613114835 0.0 -0.00037254292296065236 0.0 0.0
0.0072101018285214286 -0.003243625277825655 0.0 0.001591406759516946 0.0 0.0
0.008235914324778909 -0.003270854598549644 0.0 0.0012709873504607363 0.0 0.0
0.008360810777369596 -0.002788797735930588 0.0 0.00020284720116046148 0.0 0.0
0.00917031774024512 -0.0030505101128238676 0.0 3.447554400200659e-05 0.0 0.0
0.004834204288634875 -0.0019309532065089514 0.0 -0.0020855860994248455 0.0 0.0
0.004835303071872202 -0.002083406635888298 0.0 -0.0021833562494008724 0.0 0.0
0.008361152580540751 -0.0031237003025111412 0.0 -0.0005451584653702918 0.0 0.0
0.008214001927972739 -0.0027890860244260147 0.0 -0.0004510711660024704 0.0 0.0
0.009129840993882615 -0.003615079253774175 0.0 0.0002758755317344456 0.0 0.0
0.009747947118822587 -0.003623689931416612 0.0 -1.8788838359585364e-05 0.0 0.0
0.010492392907984935 -0.0039920324529487475 0.0 -0.0006911029220867588 0.0 0.0
0.009875182468663202 -0.003738265257854105 0.0 -0.00039619007910830567 0.0 0.0
0.008336106232948611 -0.0028324101660828025 0.0 -0.0002986769858156031 0.0 0.0
0.009997402022478633 -0.0034403520775036604 0.0 -0.0006476088782353187 0.0 0.0
0.010333503761150418 -0.0036943433967485326 0.0 -0.0009276874830509473 0.0 0.0
0.009622971919444112 -0.0030178111638401923 0.0 -0.00011695502734827834 0.0 0.0
0.009062740859392134 -0.002895085310205681 0.0 7.18247504680144e-05 0.0 0.0
0.008413323327773364 -0.0031797749858239743 0.0 -0.0005128335768279082 0.0 0.0
0.008283573171450676 -0.0027900600518177775 0.0 -0.0004615125522309067 0.0 0.0
0.008401549460147359 -0.00317801731858163 0.0 0.0010083036096698158 0.0 0.0
0.008243019185057557 -0.003303379942880085 0.0 0.0007512795198695507 0.0 0.0
0.009652420336968809 -0.003329197449369487 0.0 0.0002407767174809677 0.0 0.0
0.009680452304152862 -0.003404064240670725 0.0 0.0002225847674777522 0.0 0.0
0.010428734360445092 -0.003332898751183172 0.0 0.0005465499893811819 0.0 0.0
0.01031389004970644 -0.0034364124748236607 0.0 0.0007115616407719484 0.0 0.0
0.009776433046055112 -0.0033295912905772426 0.0 0.00015818245555051028 0.0 0.0
0.009628774071726937 -0.003162327396606711 0.0 0.0002823235269792928 0.0 0.0
0.008366042916417488 -0.0030241763280585703 0.0 -0.0007756210995184696 0.0 0.0
0.008405525840430528 -0.003432578933267278 0.0 -0.0007413149890579066 0.0 0.0
0.009768782751968047 -0.003585650642726765 0.0 0.00036516642129391045 0.0 0.0
0.009906361773361967 -0.003635057636483087 0.0 0.00022245980770556426 0.0 0.0
0.01029707020434385 -0.0033250437547190006 0.0 -0.0012419869861200242 0.0 0.0
0.010271583482338406 -0.0035050107035268624 0.0 -0.0010000177459473787 0.0 0.0
0.010427939073730954 -0.003966706656169418 0.0 -0.0006099952665601215 0.0 0.0
0.009842151188065848 -0.0036640316399991282 0.0 -0.000402805841090639 0.0 0.0
0.008681626994470532 -0.0032071301189117926 0.0 0.00030223429115629956 0.0 0.0
0.009551033814048412 -0.0035848300550754345 0.0 0.00011569450471863446 0.0 0.0
0.010514643363499228 -0.003942157531333906 0.0 0.0007781498929066411 0.0 0.0
0.009949032355733078 -0.0037201605574402243 0.0 0.0004932590393464395 0.0 0.0
0.008246117000848735 -0.0031822961365963326 0.0 0.0010708039423900292 0.0 0.0
0.008130656501983816 -0.0032380989235961284 0.0 0.0008413716419384126 0.0 0.0
0.010631452902615982 -0.003897364775509199 0.0 0.0008380489712948077 0.0 0.0
0.01001183816374343 -0.0037661646175929722 0.0 0.000521881365490225 0.0 0.0
0.009213770450866514 -0.003500204125917318 0.0 -0.00011263148500700697 0.0 0.0
0.009931577010672363 -0.0036023450777462676 0.0 0.000251707394852127 0.0 0.0
0.007531912656625964 -0.0025763158353654626 0.0 0.00044205818428816844 0.0 0.0
0.008461291468808793 -0.0031002822501035466 0.0 -0.0007053472650198084 0.0 0.0
0.008526230294530743 -0.003464790963855744 0.0 -0.0006963851481197499 0.0 0.0
0.010053670782994725 -0.003332755366952038 0.0 0.0005435131443485165 0.0 0.0
0.009737645937270833 -0.0034611175747471597 0.0 0.00026487072555514 0.0 0.0
0.010266205559346105 -0.00344222259472112 0.0 0.0011323909929712396 0.0 0.0
0.010296433119834008 -0.003363800067264037 0.0 0.0008979629221051695 0.0 0.0
0.009580330783779414 -0.003269887110710669 0.0 -0.00011757459694463138 0.0 0.0
0.009134067240105365 -0.003173959079461143 0.0 -3.730387297134195e-05 0.0 0.0
0.009523561397820748 -0.0031838060177010533 0.0 -2.8526700330817282e-05 0.0 0.0
0.009527273786397353 -0.003116718512173692 0.0 0.0002668224997019195 0.0 0.0
0.008320967684639746 -0.0029275656574303498 0.0 0.00034509950365610095 0.0 0.0
0.008921843099606643 -0.002954724752764211 0.0 0.00012086262104295199 0.0 0.0
0.009357929076152474 -0.0029997516623382556 0.0 -1.4654175392567886e-05 0.0 0.0
0.008721537084287847 -0.002828993771429554 0.0 0.00010408368634823653 0.0 0.0
0.010438384310133782 -0.0032740507684805645 0.0 -0.00031335017714929393 0.0 0.0
0.009979201092822729 -0.0031588659128966717 0.0 -0.000249315092796909 0.0 0.0
0.010280553890015427 -0.003279253184412953 0.0 0.0010766562970346656 0.0 0.0
0.010160682742065233 -0.0032083089210694373 0.0 0.0009475527911674414 0.0 0.0
0.010111202110308012 -0.003466835387917186 0.0 0.0006556589670308286 0.0 0.0
0.01028880973297637 -0.0034058588098686182 0.0 0.0007890253936050421 0.0 0.0
0.010637803718700017 -0.0033600839488514994 0.0 0.00044167390550184957 0.0 0.0
0.010271405832615956 -0.003466010728233524 0.0 -0.0011812531644632951 0.0 0.0
0.01045695927336776 -0.003630837735418073 0.0 -0.0010662926754093159 0.0 0.0
0.007417220356656151 -0.0025156624548430973 0.0 0.0004908835217441922 0.0 0.0
0.010282499873102233 -0.0033636857826269406 0.0 0.0009693795148738461 0.0 0.0
0.009070116270261443 -0.0024053777000625255 0.0 -0.0010664844506933023 0.0 0.0
0.003472963060063672 -0.0012699842798820082 0.0 -0.0020655347686037717 0.0 0.0
0.007113410317424296 -0.0020559453674281747 0.0 0.0005039319929082582 0.0 0.0
0.0070501760132880426 -0.002763984838294128 0.0 0.0011272678511353544 0.0 0.0
0.010072483709842088 -0.0032227979418922303 0.0 0.0010181374339192223 0.0 0.0
0.010622828415265045 -0.003254978514600722 0.0 0.00012653847906674356 0.0 0.0
0.01070029901950495 -0.0033631556346813904 0.0 0.00040584035830914036 0.0 0.0
0.01002895119029601 -0.003097589194637311 0.0 -5.6261742186701144e-05 0.0 0.0
0.010003185281071983 -0.0032089735560487907 0.0 -0.00014634300743534764 0.0 0.0
0.010164051885895517 -0.003090874323175988 0.0 -0.0001740050172337063 0.0 0.0
0.010162446835409858 -0.0032207298192875405 0.0 -0.0001592927826545242 0.0 0.0
0.00874172360996106 -0.0027329149610783345 0.0 0.00014916549622675124 0.0 0.0
0.009043295184758784 -0.0028485996064275907 0.0 -0.00014303552174035894 0.0 0.0
0.009902226119056265 -0.002914422236414131 0.0 0.0014077341325431803 0.0 0.0
0.009891321926398973 -0.002879921020901656 0.0 0.0014415625734936774 0.0 0.0
0.0050139416650680085 -0.0013813405843531128 0.0 0.00111516621040798 0.0 0.0
0.004268839306253637 -0.0007114269946535932 0.0 0.0010730115726548667 0.0 0.0
0.01031477944774213 -0.003062175257315284 0.0 0.0016262652556637749 0.0 0.0
0.009806332703722262 -0.002722135552373663 0.0 0.0014422147992656943 0.0 0.0
0.009798139085236982 -0.0029135584969594373 0.0 0.0013107971119506612 0.0 0.0
0.00492808684502756 -0.0014755945775595195 0.0 0.0014586113335572724 0.0 0.0
0.009730179887257173 -0.002784944155372176 0.0 -0.0013556192586471703 0.0 0.0
0.010163595039270168 -0.0032194392088377103 0.0 -0.0012984446023253321 0.0 0.0
0.010039188740356683 -0.0032559455297569845 0.0 -0.0012094773358891898 0.0 0.0
0.005919045124247846 -0.0017467361172142926 0.0 -0.0007806483618262921 0.0 0.0
0.006625342792041439 -0.0018119716420574774 0.0 -0.0005555111247260991 0.0 0.0
0.006693555318547775 -0.0021454225312303385 0.0 -0.0006407442784379328 0.0 0.0
0.003073735075079659 -0.0016756297170819456 0.0 0.0017083652996026863 0.0 0.0
0.01313528879433933 -0.002876162881505509 0.0 0.00022710410812378304 0.0 0.0
0.012922695723107754 -0.0029100335911136817 0.0 -0.0005744151682688151 0.0 0.0
0.012969769148682026 -0.0029418211645488024 0.0 0.000507145656783396 0.0 0.0
0.002615688035543226 -0.0014908186120518776 0.0 -0.0019573603967269998 0.0 0.0
0.0027267658147389073 -0.0015080124850530632 0.0 -0.001528898692109178 0.0 0.0
0.011425363365065111 -0.0034740035891147694 0.0 -0.00015679515491221385 0.0 0.0
0.010614491292645927 -0.0032252572804865264 0.0 -0.00043962544825468523 0.0 0.0
0.008772334492290007 -0.002736443223498749 0.0 0.00014473971456993064 0.0 0.0
0.008833706512580586 -0.0028907004403129406 0.0 -0.00021911685341722675 0.0 0.0
0.011013493392598467 -0.003411788485623693 0.0 0.00031700357163095064 0.0 0.0
0.010568398248918129 -0.003158975091097624 0.0 0.0004929202959599865 0.0 0.0
0.008058938241352509 -0.002465523280829607 0.0 -7.185587006141789e-05 0.0 0.0
0.008000281501297973 -0.0025822854680069944 0.0 0.00021729755250962657 0.0 0.0
0.010991497153710637 -0.003361344095666954 0.0 -0.00028627927748168386 0.0 0.0
0.01080613897868786 -0.00325504489916458 0.0 -0.00023896198981339205 0.0 0.0
0.01046047892948418 -0.0031787375040014804 0.0 -0.0006662308857369658 0.0 0.0
0.010781684211160894 -0.0033713440972356185 0.0 -0.0005311362157873682 0.0 0.0
0.008157328405590886 -0.002542135357286134 0.0 -1.1793510962174875e-05 0.0 0.0
0.0027520318217479356 0.00036341614182277735 0.0 0.0003763964517079568 0.0 0.0
0.0068818073658504265 -0.0018896555609589707 0.0 0.0001266647298302252 0.0 0.0
0.002763540802839193 0.00044587619678493237 0.0 -1.9700133501873572e-05 0.0 0.0
0.007438422230810105 -0.0022312865841945667 0.0 -0.0004023041420721167 0.0 0.0
0.002727200763139065 0.0004420797863538446 0.0 -1.598730504471374e-05 0.0 0.0
0.0027173657305119836 0.000433245691136272 0.0 -1.862793116008156e-05 0.0 0.0
0.007010376656509036 -0.0020929790550223634 0.0 -4.636572823794004e-05 0.0 0.0
0.007039045787890484 -0.0020737418896284443 0.0 -1.6045182539128032e-05 0.0 0.0
0.002747009153817259 0.0002114571353449956 0.0 -0.00048013041927418704 0.0 0.0
0.002719678894276656 0.00021838555195153545 0.0 -0.00044696863518021816 0.0 0.0
0.00880514060011635 -0.0025001403636183903 0.0 -0.0006684596457587335 0.0 0.0
0.008944685065256855 -0.002566368579506706 0.0 -0.0008002889787981603 0.0 0.0
0.004029499100634992 -0.00032243419574676593 0.0 -9.76534646720574e-06 0.0 0.0
0.004078444233881234 -0.00038530592691271397 0.0 -0.0006273464935559244 0.0 0.0
0.003977472311973207 -0.00033133762987510446 0.0 -1.820090713993902e-05 0.0 0.0
0.004046894535038564 -0.000439704940903752 0.0 -0.0006007604112880423 0.0 0.0
0.008082622124815135 -0.002407687159559996 0.0 0.00037347695637181223 0.0 0.0
0.008160269896863036 -0.002400785030119354 0.0 0.00036441465404241785 0.0 0.0
0.009106520609827386 -0.0027488121641783894 0.0 0.0008203634874597585 0.0 0.0
0.008132931339689727 -0.0024332803682173554 0.0 -0.000353558874202773 0.0 0.0
0.008165710059517241 -0.0024005822090324425 0.0 -0.00039477662280266003 0.0 0.0
0.009238955679139767 -0.0027799778690174026 0.0 -0.000929745309151987 0.0 0.0
0.004108318075140616 -0.0003729714050051969 0.0 1.5838038127106154e-05 0.0 0.0
0.005401357166007606 -0.0012867384815632953 0.0 -0.00042561607054195094 0.0 0.0
0.009311044786177846 -0.0025186915591605963 0.0 -0.001313872526331992 0.0 0.0
0.010391312198336295 -0.002796411492310656 0.0 -0.0016063863946068802 0.0 0.0
0.0035926197977386998 -0.00040054137200936637 0.0 -0.0007140995764008898 0.0 0.0
0.003604251256432753 -0.000801808578397835 0.0 -0.001597971103296977 0.0 0.0
0.003980933162694447 -0.00045238213037436656 0.0 -0.000652952497290216 0.0 0.0
0.004158265563151284 -0.0008088251270584089 0.0 -0.001452856977839912 0.0 0.0
0.004648515921525764 -0.0017516803623428487 0.0 -0.0019367177459774804 0.0 0.0
0.004649444751404899 -0.001400397256454659 0.0 -0.0017890309617097176 0.0 0.0
0.0034788264917648935 -0.001390251537854284 0.0 -0.002057313764740369 0.0 0.0
0.010452419741825819 -0.0026307804275817886 0.0 -0.0013062073700293867 0.0 0.0
0.0036171418543008704 -0.0008331848498616228 0.0 -0.001448247955618858 0.0 0.0
0.006561604830192538 -0.001792104237228611 0.0 0.0003677419450492884 0.0 0.0
0.009912456345377713 -0.003018538273208613 0.0 0.0004863676132659221 0.0 0.0
0.009982509611501891 -0.0029987904345783523 0.0 0.00042880567196743307 0.0 0.0
0.010178446842736638 -0.0035943810643671997 0.0 0.0008383155640215249 0.0 0.0
0.011336991388282314 -0.0034133793442472256 0.0 5.9100877640908597e-05 0.0 0.0
0.007610896540926129 -0.002781096088815188 0.0 0.0006436763078951687 0.0 0.0
0.006550084478528076 -0.002292627075826892 0.0 0.0009788252451991882 0.0 0.0
0.007625747899251387 -0.0026043405076333175 0.0 0.0009332639962168045 0.0 0.0
0.011222572740428885 -0.0034136414093142047 0.0 3.641166030348786e-05 0.0 0.0
0.011876687843425687 -0.0036007130316666022 0.0 5.07651500449111e-05 0.0 0.0
0.011213992078425133 -0.0034569379304696577 0.0 1.3039483349441155e-05 0.0 0.0
0.01065106533470521 -0.0032704190206995862 0.0 0.00022710387132998027 0.0 0.0
0.011834642636793513 -0.0035777035743977184 0.0 -0.00010482047925140445 0.0 0.0
0.007874007502187752 -0.002873221725357155 0.0 0.000590860791567064 0.0 0.0
0.007906619549064312 -0.002759880488063752 0.0 0.0007965115112430984 0.0 0.0
0.010149526106077507 -0.0035970037028804085 0.0 0.0007755431825356724 0.0 0.0
0.010284067222899158 -0.003318476439902777 0.0 0.0012263601835873213 0.0 0.0
0.010273972650349674 -0.0034425797981001618 0.0 0.001185267645854937 0.0 0.0
0.010461539742147516 -0.003625869924417799 0.0 0.0011169600520609506 0.0 0.0
0.011688663786454423 -0.0035114168825170905 0.0 -8.005526745335253e-05 0.0 0.0
0.010067334156836284 -0.003307188967901298 0.0 -0.0012937516927731037 0.0 0.0
0.010071797044538762 -0.003045665585583456 0.0 -0.0011295413957053651 0.0 0.0
0.010309791682168994 -0.0031318604132650196 0.0 -0.0008592981298261972 0.0 0.0
0.009980755616817924 -0.003179612078018413 0.0 -0.0010040429952808327 0.0 0.0
0.010444032971776188 -0.003196724716757174 0.0 -0.00035537766610907375 0.0 0.0
0.01048784176104503 -0.003140052215667377 0.0 -0.00029673989825223027 0.0 0.0
0.010062451336095825 -0.0030499367073097867 0.0 -0.0004668917779990017 0.0 0.0
0.010719601167690829 -0.0034193965799653326 0.0 -0.0004450763235587423 0.0 0.0
0.01079273335930822 -0.003256808238823261 0.0 -0.0002822789385239456 0.0 0.0
0.01074172600519629 -0.003390736493996552 0.0 -0.00017274331038788743 0.0 0.0
0.010282806414392456 -0.0031809438184732604 0.0 -0.00023663896433515942 0.0 0.0
0.010402159661713137 -0.0034281487141174087 0.0 0.000434425451800881 0.0 0.0
0.01069637729548327 -0.003330938335547524 0.0 9.626960107958927e-05 0.0 0.0
0.011183113838638473 -0.0035054276644381627 0.0 0.00013874589806366772 0.0 0.0
0.010997307477692925 -0.003286943863949529 0.0 0.00014255576428516396 0.0 0.0
0.005400719790373869 -0.0012281513537141416 0.0 -0.00045033178544075583 0.0 0.0
0.010806891695857695 -0.0035561266418800835 0.0 0.00134588218663431 0.0 0.0
0.010336437734529063 -0.00366774856073155 0.0 0.0010516397782921738 0.0 0.0
0.010291026809774777 -0.0032894025506898586 0.0 0.001320586207048344 0.0 0.0
0.010451570832125008 -0.0036197460440939035 0.0 0.0011633343486516477 0.0 0.0
0.006514140935886592 -0.0020174436271157056 0.0 0.0009467821350615437 0.0 0.0
0.0067785779385783895 -0.002496587069274466 0.0 0.0014611081561486054 0.0 0.0
0.006013690268144953 -0.0019345735435812826 0.0 0.0013277520751245296 0.0 0.0
0.005865791416996821 -0.0019327260752455694 0.0 0.0013340984894924697 0.0 0.0
0.010348465413177417 -0.003435328567801819 0.0 0.0013414062147464535 0.0 0.0
0.010392973626708144 -0.003327927296660807 0.0 0.0014105581993171215 0.0 0.0
0.010753175828876957 -0.0036799779358591446 0.0 0.0011648760647663737 0.0 0.0
0.011451473782880528 -0.003968533283264277 0.0 0.00018623490812573603 0.0 0.0
0.010592002461172667 -0.0037775752324803805 0.0 0.0008247168678119352 0.0 0.0
0.004886479932026205 -0.0008834909841448114 0.0 0.000567696656816663 0.0 0.0
0.009587156054127365 -0.00283096563494528 0.0 0.0013293660828656555 0.0 0.0
0.010032715143003485 -0.003086063896752405 0.0 0.0013332637877886007 0.0 0.0
0.006329550421592681 -0.002464653601092914 0.0 0.0015394942737676238 0.0 0.0
0.011468730419573539 -0.003981031436423985 0.0 0.00014148440729518097 0.0 0.0
0.010475916392803125 -0.0037740543090242357 0.0 0.0009178811427269871 0.0 0.0
0.0062008716197198 -0.0015450771145667681 0.0 -0.0007073884951666384 0.0 0.0
0.010361885014179045 -0.003440729249773301 0.0 -0.001337541140647288 0.0 0.0
0.010416486907853961 -0.003396384190872865 0.0 -0.0014019644705915938 0.0 0.0
0.01075523710779922 -0.0036974434341295603 0.0 -0.001121033357995372 0.0 0.0
0.011393934484272464 -0.0039983265298388915 0.0 -8.449635878187952e-05 0.0 0.0
0.010461424548022064 -0.0037753604205502125 0.0 -0.0008558070750859684 0.0 0.0
0.00580074081252933 -0.0020751976096942647 0.0 0.0012723099571360372 0.0 0.0
0.007062285011418326 -0.0025730809389092734 0.0 0.0013358360577264902 0.0 0.0
0.007102085305367711 -0.0030020332039320877 0.0 0.0019166966624776464 0.0 0.0
0.006536412698268462 -0.0025180571553785717 0.0 0.0014566771005958025 0.0 0.0
0.009863677227768139 -0.0031294711330626494 0.0 6.121284686807192e-05 0.0 0.0
0.01067698698963798 -0.0033347111394364873 0.0 -0.00017072890626183314 0.0 0.0
0.008954990153840842 -0.0027063799450641746 0.0 -0.00044475569532780685 0.0 0.0
0.009116897143687595 -0.002723216201354038 0.0 -0.0004900730009745891 0.0 0.0
0.0051062518733731715 -0.0009791603258402389 0.0 9.926887088444425e-06 0.0 0.0
0.004525548461723733 -0.0007135677344886522 0.0 -0.000418907060605829 0.0 0.0
0.006968983037997381 -0.001987983013269095 0.0 -9.495527586027828e-05 0.0 0.0
0.00736009217592791 -0.0022583004165676324 0.0 0.00026567313393833364 0.0 0.0
0.010436351744649288 -0.003182849983100304 0.0 0.0003791591428676782 0.0 0.0
0.010589354788363384 -0.0031631562329685337 0.0 0.0003221498288488774 0.0 0.0
0.010432509697947921 -0.0031924672166527505 0.0 0.00038798459600053806 0.0 0.0
0.01064231616496246 -0.00317221135612278 0.0 0.000322494955746642 0.0 0.0
0.006763714090763179 -0.0019490196445923133 0.0 -7.129127635879112e-05 0.0 0.0
0.004893335407517255 -0.0008782737580776724 0.0 4.3874753441430075e-05 0.0 0.0
0.004487091624807024 -0.0007011395560873185 0.0 -0.0003869615014408228 0.0 0.0
0.0033568138880937376 -0.0002713408897241261 0.0 -0.0010255342742861665 0.0 0.0
0.00311789652803221 -0.00027432669290183495 0.0 -0.0009772790925678208 0.0 0.0
0.008626082923033216 -0.002518481133922147 0.0 -0.0005226926078679547 0.0 0.0
0.008210346305340937 -0.002265841265527445 0.0 -0.0005700062046622972 0.0 0.0
0.0036124361769192953 -0.0001126715727577006 0.0 -0.00026774722315285084 0.0 0.0
0.003316278015257579 0.00015503662312821645 0.0 -0.0002919605187646692 0.0 0.0
0.0032969044401582187 -0.0001450309458411632 0.0 -0.00037152035907875476 0.0 0.0
0.008467636446337221 -0.0025340374460510184 0.0 0.0003869526924756318 0.0 0.0
0.008564389230874991 -0.00243050822197027 0.0 0.0009122974749580168 0.0 0.0
0.003590540232374387 -8.102585151210928e-05 0.0 -0.00029558821571314814 0.0 0.0
0.003253600806630841 0.0001848870330429797 0.0 -0.00025391414374480864 0.0 0.0
0.003217061637102253 -0.00011424131746307076 0.0 -0.0004096560923761063 0.0 0.0
0.008384475376841932 -0.0025197630182197048 0.0 -0.00036412622966799143 0.0 0.0
0.008266609367723592 -0.002449753048347242 0.0 -0.0004528932987330637 0.0 0.0
0.00866488687769359 -0.0022971295976396827 0.0 -0.000976930134687727 0.0 0.0
0.0113412207059225 -0.003403395596331918 0.0 -1.2757193161561792e-05 0.0 0.0
0.011076251452450725 -0.0034017334057772908 0.0 -0.0002769643599300174 0.0 0.0
0.011441007222319213 -0.0034873699460074223 0.0 -0.00020467830070795292 0.0 0.0
0.011000302854958594 -0.0033606404362104617 0.0 -0.00023747284626183737 0.0 0.0
0.0038146963525406974 -0.002126107067476854 0.0 -0.0018927140849958777 0.0 0.0
0.002462432186075683 0.00048571842956436975 0.0 -0.0001299619543070115 0.0 0.0
0.002496053783063182 0.0005045145041009842 0.0 -9.116680745007572e-05 0.0 0.0
0.00796460646281835 -0.002346345510033973 0.0 -0.0003295516558020306 0.0 0.0
0.008017405958955327 -0.0023450046977667623 0.0 -0.0003750356596652106 0.0 0.0
0.0122118259186942 -0.0031030132597852367 0.0 0.0010875643183649018 0.0 0.0
0.0039442266531463654 -0.002012081223291793 0.0 -0.0018708301371975064 0.0 0.0
0.003396538264041349 -0.0007013563323672806 0.0 0.0014175019617403061 0.0 0.0
0.010190076502312512 -0.0024591166816959435 0.0 0.0012800341278940593 0.0 0.0
0.0054073104208357675 -0.002770627316401505 0.0 0.002726386368916957 0.0 0.0
0.009061356745856543 -0.003724594750680475 0.0 -0.0015706119284380348 0.0 0.0
0.01062534514656003 -0.0035961280648282683 0.0 -6.108237704673591e-05 0.0 0.0
0.008978095937195861 -0.0037006043194798208 0.0 -0.0016127887747726943 0.0 0.0
0.010702243495517363 -0.003627273971940252 0.0 2.8660475751807104e-05 0.0 0.0
0.01083342692869968 -0.003066843661049354 0.0 -0.0016057870052181705 0.0 0.0
0.011064576184348855 -0.003384427012258176 0.0 -0.001089460417173664 0.0 0.0
0.010496994048535052 -0.0032322348048556687 0.0 -0.001369270517647778 0.0 0.0
0.010606962493358914 -0.0035342669789518028 0.0 -0.00033386502403713776 0.0 0.0
0.0044183499733532056 -0.001585525213787374 0.0 -0.001984338951100186 0.0 0.0
0.005179373176599278 -0.0016646180762828929 0.0 -0.0018755773361269438 0.0 0.0
0.005101539857339854 -0.0015568057487129246 0.0 -0.0014490503266512515 0.0 0.0
0.005225667388368299 -0.0025134031030463397 0.0 0.0028105901663581356 0.0 0.0
0.01092727617499093 -0.003426384299942019 0.0 0.0004062158993343205 0.0 0.0
0.010394398698727192 -0.0031699363198460923 0.0 0.000362532365702204 0.0 0.0
0.010632884700730733 -0.0032769390232821505 0.0 0.000436691931748146 0.0 0.0
0.010663672358052434 -0.0033398208547683853 0.0 0.00029199606817227565 0.0 0.0
0.007998814892337475 -0.003600531210446418 0.0 0.0017486519322082138 0.0 0.0
0.009121661326139271 -0.003695805765447911 0.0 0.0015019192471532905 0.0 0.0
0.002783536375589816 -0.00048266695869337434 0.0 0.001388491257688071 0.0 0.0
0.0036825088325373734 -0.0004840433187627592 0.0 0.0013431846471133914 0.0 0.0
0.010451407143058583 -0.0024321041119294284 0.0 -0.001627876514344367 0.0 0.0
0.007223005799912696 -0.003325199388872368 0.0 0.0021580385839696636 0.0 0.0
0.004893412561114821 -0.0010991206800711581 0.0 -0.000708853496548846 0.0 0.0
0.0045658979729161775 -0.0008815799223013884 0.0 -0.001081001130533171 0.0 0.0
0.009749711305311732 -0.002926304323099302 0.0 -0.0014077095713074758 0.0 0.0
0.009961327212522332 -0.002969155337597701 0.0 -0.0013992415373069982 0.0 0.0
0.008502273896214302 -0.0026486395823660403 0.0 -0.0001566246767902576 0.0 0.0
0.009121958508927651 -0.0028539547231346413 0.0 5.763557050257682e-05 0.0 0.0
0.010353543990817232 -0.0019402674456206297 0.0 -0.001004879609148682 0.0 0.0
0.0017463627355789185 -1.3388793483747052e-05 0.0 -0.0009164981811538415 0.0 0.0
0.010811399238348535 -0.0032998750452531166 0.0 -2.0181073227541844e-05 0.0 0.0
0.010834630924841604 -0.003286410031003497 0.0 8.229300532520002e-05 0.0 0.0
0.002601858028211043 0.0004749000952403229 0.0 0.00018431430583277977 0.0 0.0
0.009061202740954608 -0.002694021766369195 0.0 -0.0004535652288922363 0.0 0.0
0.008962122871262183 -0.0027674270234222635 0.0 -0.0008260802214091322 0.0 0.0
0.01059658902640453 -0.0033566143302740103 0.0 -0.0011957926906235824 0.0 0.0
0.0048160576169336555 -0.0016673293523087902 0.0 0.0016960744205474273 0.0 0.0
0.010468520928555805 -0.003202466565573603 0.0 -0.0004322345377670558 0.0 0.0
0.010690996450335458 -0.0033755141282151777 0.0 -0.0004966367054879519 0.0 0.0
0.010550275899706654 -0.0032227703895661083 0.0 0.00013793379358708995 0.0 0.0
0.00992775463696561 -0.0029720594818993043 0.0 -0.0001243342246929997 0.0 0.0
0.010189440234899733 -0.00310904174009213 0.0 4.654223428039034e-05 0.0 0.0
0.010243456094796405 -0.003198079015330292 0.0 -0.0001504096703664956 0.0 0.0
0.010436051732572962 -0.0031325045948396423 0.0 0.0014386265330864779 0.0 0.0
0.010268382857766614 -0.002777797594516948 0.0 0.0016527058554349564 0.0 0.0
0.010197814181897948 -0.002296663547294823 0.0 0.0014523344374395013 0.0 0.0
0.010147477852913724 -0.002741894472248374 0.0 0.0012985626100552247 0.0 0.0
0.009544430120460724 -0.0028679738968960394 0.0 0.00041028381404070724 0.0 0.0
0.009569932401218294 -0.002897203589031486 0.0 0.0009691519552880203 0.0 0.0
0.010366974155575942 -0.0032387944558925907 0.0 -0.0007096138522083148 0.0 0.0
0.00972967688681247 -0.003121952196441298 0.0 0.0002820200575974225 0.0 0.0
0.009511689082565304 -0.0019460561164563635 0.0 -0.0010024506333752325 0.0 0.0
0.009514933104218741 -0.0028686396942920467 0.0 0.00041879856734415924 0.0 0.0
0.009544693660709702 -0.002878383417549063 0.0 0.0009620575271938377 0.0 0.0
0.005454945759018212 -0.001231338217805012 0.0 0.0003163147998593973 0.0 0.0
0.005348610564536185 -0.0012292048571744645 0.0 0.00028233146878551066 0.0 0.0
0.0067755040130906 -0.001900336895847632 0.0 4.907745182103379e-05 0.0 0.0
0.007398025803472194 -0.002174422074821436 0.0 -0.00013717038573670196 0.0 0.0
0.008069259453007613 -0.0026645970787891864 0.0 -0.0004259134499007564 0.0 0.0
0.007493268537222898 -0.002280461513477411 0.0 -9.317193026528881e-05 0.0 0.0
0.010818762383958402 -0.0032024700156607494 0.0 0.001586630826082359 0.0 0.0
0.010704774483236415 -0.003168631295144621 0.0 0.0003396200618834826 0.0 0.0
0.010814475132780707 -0.0033020592945599697 0.0 0.0002823882033204427 0.0 0.0
0.010809352234167874 -0.003333579457743808 0.0 0.0004464274735264638 0.0 0.0
0.0025506069411163623 0.00036358794878843244 0.0 0.0003766336347530261 0.0 0.0
0.009161157919012668 -0.002862134645598237 0.0 0.00011301782664233529 0.0 0.0
0.008728328928982454 -0.0027641655219681725 0.0 2.7900024958508324e-05 0.0 0.0
0.008711647771809161 -0.002699246513280653 0.0 -6.656631162737028e-05 0.0 0.0
0.008707337168943698 -0.002599178476395436 0.0 0.0005594251695424997 0.0 0.0
0.011461688319169022 -0.003519104879312354 0.0 0.00018502372593875646 0.0 0.0
0.0023178701623614018 0.0004838164599552934 0.0 9.310759334889133e-05 0.0 0.0
0.009872984336957573 -0.001979554280553457 0.0 -0.0007173175027981845 0.0 0.0
0.010273968737943619 -0.0023424315699770992 0.0 -0.001360996460114223 0.0 0.0
0.002363341511658179 0.00015447401608886975 0.0 -0.0005894634922523068 0.0 0.0
0.0025007388431275424 -0.0001619392138641814 0.0 -0.0012697729674421244 0.0 0.0
0.010558852594823073 -0.003175117524529173 0.0 -8.445124293594234e-05 0.0 0.0
0.010217416574406552 -0.0031282428248542242 0.0 0.00012363670863413276 0.0 0.0
0.0023674985225556194 0.000491940975344999 0.0 0.00031165835309814385 0.0 0.0
0.00260768839468814 0.00016929833296122458 0.0 0.0005566980860259776 0.0 0.0
0.0033974894827681484 -0.0002873413593477772 0.0 0.0005752568760660683 0.0 0.0
0.003396060733710335 -1.77655406198296e-05 0.0 0.000554938502755991 0.0 0.0
0.009080355804626936 -0.0024775198456577774 0.0 0.0009692954723024352 0.0 0.0
0.008843884976681553 -0.002239376449678178 0.0 0.0010686115325717217 0.0 0.0
0.011411495739171683 -0.0038154214186516145 0.0 -0.001347141390502295 0.0 0.0
0.007249639852489623 -0.003196702170767117 0.0 0.0022345040281249308 0.0 0.0
0.011333545700032852 -0.0037929340063948187 0.0 -0.0013837140516505756 0.0 0.0
0.011397320756668753 -0.00383531134824573 0.0 0.0014704921874038727 0.0 0.0
0.00486386383530403 -0.0012768011537824843 0.0 0.0014399085624604538 0.0 0.0
0.003915851534189399 -0.0007116349343161936 0.0 0.0010595030735434468 0.0 0.0
0.008473434773174665 -0.0027123324246462795 0.0 8.696027356398447e-05 0.0 0.0
0.0025929046921367264 0.00048335473806906254 0.0 -0.00014056191602188853 0.0 0.0
0.0024767073018901395 0.000507310594243051 0.0 -0.00010984190499545386 0.0 0.0
0.008148106797447277 -0.002190116921071284 0.0 -0.00016676439190358718 0.0 0.0
0.007973849664488044 -0.001923805999094752 0.0 -0.0002339548262816429 0.0 0.0
0.009083813131232705 -0.002606920956331721 0.0 -0.0009584367613114265 0.0 0.0
0.008587591718706437 -0.0025370874511661916 0.0 -0.0007645553440975813 0.0 0.0
0.0029392572458762645 0.00020321929797939477 0.0 -0.00047955991774119994 0.0 0.0
0.002422503006445448 0.00023431596948424172 0.0 -0.0006929904915336875 0.0 0.0
0.010983908323799862 -0.003139589595076136 0.0 0.001486967940155189 0.0 0.0
0.009260750318422639 -0.002353612722916867 0.0 -7.030519026709141e-05 0.0 0.0
0.009720713602965055 -0.0023890961752081746 0.0 -2.8437749534937235e-05 0.0 0.0
0.0093125502226501 -0.0017553951691103489 0.0 -0.0002479812704149382 0.0 0.0
0.0022754612898418063 0.00042344779815587166 0.0 -0.00017012573754668467 0.0 0.0
0.0047108961415747025 -0.00147795214767011 0.0 0.0019227010987185513 0.0 0.0
0.011471967249910868 -0.0034212063432937072 0.0 0.00012208651311897373 0.0 0.0
0.011015605138209622 -0.003401210336901384 0.0 0.0003892167548972391 0.0 0.0
0.001530461060207454 0.0002731011475841996 0.0 -0.0002519449351749154 0.0 0.0
0.009845744622596327 -0.0016828174148216385 0.0 -0.00033421686384087494 0.0 0.0
0.010115093275670707 -0.0015604315947833104 0.0 6.083315340733289e-05 0.0 0.0
0.010901936953803981 -0.003242176884703473 0.0 0.00016541083364671888 0.0 0.0
0.010848797328296328 -0.0033867511174052525 0.0 0.0005036805034602417 0.0 0.0
0.0082863497764179 -0.0026089706696985557 0.0 0.0001710793009526857 0.0 0.0
0.00873000406925764 -0.002705966409607033 0.0 3.949671647590636e-05 0.0 0.0
0.0110087720452105 -0.0033235993642613954 0.0 -0.00028381730044623843 0.0 0.0
0.010947442851808339 -0.0018470339535652837 0.0 -0.0005136854630552433 0.0 0.0
0.009262482252295548 -0.0035513460199622215 0.0 0.0018928205648564137 0.0 0.0
0.007010469821034621 -0.0027375069405081442 0.0 0.002582051186038538 0.0 0.0
0.0029200000996968956 -0.0019502532751566066 0.0 -0.0026123514796287575 0.0 0.0
0.012983383670764334 -0.002930564790088519 0.0 0.0006495402420629917 0.0 0.0
0.002823428005103358 -0.001963394923255049 0.0 -0.0024844670383911867 0.0 0.0
0.004484015610978956 -0.0012723723457285746 0.0 0.0013841089223514474 0.0 0.0
0.010309271537045885 -0.0027981049751209935 0.0 0.0014153109310123652 0.0 0.0
0.010776332485934353 -0.0028052800833244657 0.0 0.0014855659467079875 0.0 0.0
0.005240818028914809 -0.0019490464910045732 0.0 0.0019885593487079627 0.0 0.0
0.007417862963013608 -0.0021401658502297888 0.0 0.0001878846858872022 0.0 0.0
0.01186628433679257 -0.0036087793669098995 0.0 -7.615221911312653e-05 0.0 0.0
0.0024075967458749292 0.0006225316859898751 0.0 -8.501511079618898e-06 0.0 0.0
0.002477116093370313 0.00046380187249749766 0.0 0.0001428598744114152 0.0 0.0
0.002496163600036211 0.0005562574657335638 0.0 3.268898911078233e-05 0.0 0.0
0.0024369614977312326 0.0005934299314706536 0.0 5.544382112778606e-06 0.0 0.0
0.002493928697423972 0.0005854922506561867 0.0 3.724623820293253e-05 0.0 0.0
0.006864278196460928 -0.001972656023891309 0.0 0.00014428362084647548 0.0 0.0
0.007918415811021493 -0.0024433226577739303 0.0 2.8364306779926456e-05 0.0 0.0
0.011683212291712134 -0.0033323555729691534 0.0 0.0007756624077939317 0.0 0.0
0.01130496934221547 -0.0028005037384759724 0.0 0.0005630860248429376 0.0 0.0
0.01123093696256188 -0.002936824959781561 0.0 0.0005057838999476486 0.0 0.0
0.0034997744496580996 -0.001783626373660101 0.0 0.00240031417290283 0.0 0.0
0.01130182954919771 -0.003086603974939081 0.0 -0.0008352793493827814 0.0 0.0
0.01184252869282569 -0.0028479528077886753 0.0 -0.00038517015230034313 0.0 0.0
0.009516774337743991 -0.0029844115877491195 0.0 0.00014750901723617433 0.0 0.0
0.00909318025196651 -0.0028828688885807682 0.0 -0.00018060331689357355 0.0 0.0
0.008963259615545699 -0.0026371121514423695 0.0 0.00041842665284292854 0.0 0.0
0.008835537575885628 -0.002662400851141569 0.0 0.0003589224459494781 0.0 0.0
0.009522007672713844 -0.0028903422494131747 0.0 0.0009448440764316035 0.0 0.0
0.009085012980359852 -0.002542490235592174 0.0 0.0009839354612633956 0.0 0.0
0.004923536701901543 -0.0008736902286443603 0.0 2.8135196058359097e-05 0.0 0.0
0.004520418399769174 -0.0006004215350633793 0.0 0.0002796382245753267 0.0 0.0
0.004951140283100897 -0.0009499846179332758 0.0 0.0006025921015162549 0.0 0.0
0.004078087646846314 -0.000613624626336344 0.0 0.000356762496451145 0.0 0.0
0.00896142880607486 -0.00266364429137406 0.0 0.0004281013949565572 0.0 0.0
0.008988740038385658 -0.002701172532030581 0.0 0.00040640038322507614 0.0 0.0
0.009581455636393617 -0.0029007895323827394 0.0 0.0009696949359095245 0.0 0.0
0.009023903898676192 -0.002606726015147982 0.0 0.000996742167199925 0.0 0.0
0.009274532699827483 -0.002848859940296518 0.0 -0.00047824497705146324 0.0 0.0
0.008959264058898568 -0.0026209981748002292 0.0 -0.0004689848762226964 0.0 0.0
0.009710423034314138 -0.0028345285413416063 0.0 -0.0009481964027819954 0.0 0.0
0.010192036762106532 -0.003106327315115419 0.0 0.0003129954113577915 0.0 0.0
0.010066377159913945 -0.0032773624537297727 0.0 5.761779261252622e-05 0.0 0.0
0.00485870002513987 -0.002446318337428262 0.0 -0.001771279747998053 0.0 0.0
0.004891657217110639 -0.002712432739299154 0.0 -0.003027232176302419 0.0 0.0
0.00672330292408814 -0.0028844457336622623 0.0 -0.0019966381938576324 0.0 0.0
0.010709113087133758 -0.002468133834514035 0.0 0.0032250330530069274 0.0 0.0
0.011332441117030252 -0.0034124783986368874 0.0 0.0005059609055820882 0.0 0.0
0.01129333700648521 -0.003936153109773563 0.0 0.0008405227169862692 0.0 0.0
0.009458032361236421 -0.0021209762417273657 0.0 0.0012519107751079069 0.0 0.0
0.009385454231080247 -0.0026930186312327884 0.0 0.0009797028194547166 0.0 0.0
0.00982209820792812 -0.0024529069237808794 0.0 0.0008084714971190706 0.0 0.0
0.0028578827602788945 6.2104598055785776e-06 0.0 0.0006792434765139936 0.0 0.0
0.0028959015052985038 1.0459909765159897e-05 0.0 0.0006974959118283188 0.0 0.0
0.0026962951860389633 0.00013039594742268474 0.0 0.0007776591318149426 0.0 0.0
0.002291311778399266 0.0003346010954412039 0.0 0.0003349009770852347 0.0 0.0
0.004821779177649019 -0.0025373159545489642 0.0 -0.0019236507910048682 0.0 0.0
0.006422566122095755 -0.001765187141905808 0.0 -0.0003693793622431014 0.0 0.0
0.006670761234143285 -0.0018352217144544658 0.0 -0.0002557223931688654 0.0 0.0
0.006733281188972012 -0.00206293951244374 0.0 -0.00037046557285616913 0.0 0.0
0.011429685534638065 -0.0019038600591552435 0.0 0.0010969773155313674 0.0 0.0
0.011412177473414163 -0.002155870674933655 0.0 0.0006567527344198999 0.0 0.0
0.007463817395414271 -0.002215260410854812 0.0 -0.00022376435271710682 0.0 0.0
0.00821608177761023 -0.002361288977626644 0.0 -0.00047317243954781004 0.0 0.0
0.0016639852424698703 -0.0008287016408830977 0.0 0.0018935540355094968 0.0 0.0
0.0018268422421894304 -0.0003888955356862178 0.0 0.0013298037300129373 0.0 0.0
0.003270407201213299 0.00011288542850867903 0.0 -1.606684443155813e-05 0.0 0.0
0.00280182848489138 0.0001572846817391796 0.0 -0.00023920294750355434 0.0 0.0
0.007336184130488307 -0.002119376563722089 0.0 -0.000259493153581326 0.0 0.0
0.008210980250532988 -0.0023081021116905936 0.0 -0.0005630765840449335 0.0 0.0
0.003212107205065373 0.00016941433891632754 0.0 -1.981533083915287e-06 0.0 0.0
0.002805981519254871 0.00018838872068786816 0.0 -0.00021238774864877066 0.0 0.0
0.0013795401027648924 -0.0010192656600252073 0.0 -0.0008441481382423033 0.0 0.0
0.013515184676697716 -0.0023180170946948547 0.0 -0.0005484804968961471 0.0 0.0
0.013370225080629084 -0.0020581278531582453 0.0 0.0006259527071286329 0.0 0.0
0.011482717472600547 -0.0014767004833212763 0.0 6.924270799286026e-05 0.0 0.0
0.007456428783388772 -0.002233233854502449 0.0 -0.00030364765134840597 0.0 0.0
0.008499368970373608 -0.0026858835777095746 0.0 7.845533685093154e-05 0.0 0.0
0.008301727820171911 -0.0026208055537108588 0.0 -0.0002529427835620624 0.0 0.0
0.007960343596187677 -0.002426816007376577 0.0 0.00013786618276391376 0.0 0.0
0.0014761007182585162 -0.0006008115626053336 0.0 0.000937476917618224 0.0 0.0
0.010845014924101448 -0.0033084846760430293 0.0 -0.0002839886830029049 0.0 0.0
0.0106556168446083 -0.0032986430329325286 0.0 -0.00010142773227120837 0.0 0.0
0.010919773884519035 -0.003329194551762619 0.0 -0.00016402634668634224 0.0 0.0
0.010488871747972119 -0.003271056648014345 0.0 -0.000394311313671414 0.0 0.0
0.012145069702550077 -0.0035023657345643056 0.0 -0.0005886449268182382 0.0 0.0
0.01157598539281395 -0.0019536090778213035 0.0 -0.0008333249856264779 0.0 0.0
0.005034804109308469 -0.002467161262050167 0.0 0.002201886761165804 0.0 0.0
0.00522252742797473 -0.0024846907286950083 0.0 0.0023131580403967034 0.0 0.0
0.012368323667601785 -0.0035936831458103623 0.0 -0.00023832472222589697 0.0 0.0
0.0020073655613639524 -0.001029822348630487 0.0 -0.002095313731333162 0.0 0.0
0.0011709270506796848 -0.0005447738203331835 0.0 -0.0006993383427142483 0.0 0.0
0.0013164478785129448 -0.00015399865282293354 0.0 -0.0011434412475880079 0.0 0.0
0.012021597039015909 -0.0022784096593356437 0.0 -0.0012815615329833854 0.0 0.0
0.011907721729254417 -0.001579086851683932 0.0 -7.327557049308098e-05 0.0 0.0
0.011092006163666243 -0.001709777341104981 0.0 -0.0009589167450141935 0.0 0.0
0.012275899071388728 -0.0035889131247753194 0.0 0.00029058330621535523 0.0 0.0
0.0031855116732147915 -0.00020133808583708626 0.0 -0.0009640604034272179 0.0 0.0
0.00947016962801481 -0.0022998971791269307 0.0 -0.0008742407585457185 0.0 0.0
0.009756174024822964 -0.0027148176835476504 0.0 -0.0012339704849966635 0.0 0.0
0.00976442663880483 -0.002345361641784234 0.0 -0.0011786745705057397 0.0 0.0
0.008935028756024144 -0.0020881214681541665 0.0 -0.0007944330585393589 0.0 0.0
0.002148967638905319 -0.00014027849711324702 0.0 -0.0009527323408561415 0.0 0.0
0.003170529334916898 -0.0008515192097194764 0.0 -0.0018059383505327365 0.0 0.0
0.003162337043827748 -0.0009381248634273559 0.0 -0.0015535002938844127 0.0 0.0
0.0019989409683409814 -0.00015184791965522837 0.0 -0.00130169848488781 0.0 0.0
0.010887618506520633 -0.002064809408019383 0.0 -0.0006404441548581129 0.0 0.0
0.01101859193373776 -0.0026469163016795694 0.0 -0.0014733072631495665 0.0 0.0
0.011271183173853241 -0.002534681181414887 0.0 -0.0007290977165723266 0.0 0.0
0.010300939578011207 -0.0018003721964274938 0.0 -0.0011896186099967978 0.0 0.0
0.010564486558322464 -0.002404984221614073 0.0 0.001101114636610636 0.0 0.0
0.011436645958920438 -0.0025257511405396126 0.0 0.0010192774392488069 0.0 0.0
0.010559033082569842 -0.0018605437853461138 0.0 0.0011277529269957563 0.0 0.0
0.009965186888116897 -0.001824608158746889 0.0 0.0011185018696573275 0.0 0.0
0.010170235783204475 -0.001961665494307752 0.0 9.084216742043266e-05 0.0 0.0
0.001811383245961945 9.667555694421563e-05 0.0 0.0009522489220420566 0.0 0.0
0.0021051230799436597 0.00020935800565018148 0.0 0.00032539905628493036 0.0 0.0
0.011173059064515753 -0.003692316962521215 0.0 0.0011901123106058216 0.0 0.0
0.010685074251445645 -0.003453901199759893 0.0 0.0008349254927746707 0.0 0.0
0.011692361613071238 -0.0034538199149515927 0.0 0.0008721675741526157 0.0 0.0
0.010625819460349762 -0.002127951543654239 0.0 0.0007393919444412039 0.0 0.0
0.010712669403338987 -0.002363150881182479 0.0 0.0015552154078178025 0.0 0.0
0.0034235024551936694 4.478019433626452e-05 0.0 2.665297583940068e-05 0.0 0.0
0.0028302003084523103 0.00020738635620728627 0.0 0.0003615483676059801 0.0 0.0
0.002895723448035105 0.00021731866438535336 0.0 0.000285478197894182 0.0 0.0
0.011188125476498112 -0.0035995523461834975 0.0 0.0011739995238898718 0.0 0.0
0.010891862118121168 -0.0034922628652997167 0.0 0.00040792356721019996 0.0 0.0
0.01075234857353268 -0.00320738919567512 0.0 0.0010962304356059928 0.0 0.0
0.0025893800661887095 -0.00024356773619712072 0.0 0.0010228198147842187 0.0 0.0
0.002844205854969875 -0.0007005110101163912 0.0 0.0018264940480442367 0.0 0.0
0.006365671897289996 -0.002406484523057705 0.0 0.0018744990984109243 0.0 0.0
0.005206170820898692 -0.00236079128504859 0.0 0.002169140155031446 0.0 0.0
0.005206837457429156 -0.0019404848949539748 0.0 0.002151577371487654 0.0 0.0
0.009767932435513643 -0.00180613517267042 0.0 0.0007067284826306173 0.0 0.0
0.00994290010525549 -0.0018884589210523967 0.0 0.0012011332433566084 0.0 0.0
0.01026770466703137 -0.0020859075513730355 0.0 0.0004353303260917435 0.0 0.0
0.0028252311205892444 -0.00034029503957517734 0.0 0.0012805509914919546 0.0 0.0
0.0031091528888242993 -0.0008706641619292514 0.0 0.0016835383919573815 0.0 0.0
0.0017998167505064167 -0.00034248271899112864 0.0 0.0013492626826023205 0.0 0.0
0.0019681026266165497 5.6640087925191596e-05 0.0 0.0010796454462153205 0.0 0.0
0.0019006959300262383 0.00024035449435489548 0.0 0.0003788987783891573 0.0 0.0
0.010689398564534457 -0.0026149346727094985 0.0 -0.0010784568748207928 0.0 0.0
0.011629824930348878 -0.0023974403826546595 0.0 -0.0008206520677320117 0.0 0.0
0.010755029502474788 -0.001938560070528294 0.0 -0.001298083570910111 0.0 0.0
0.011127301557259987 -0.0036713040798672524 0.0 -0.0011807413582478848 0.0 0.0
0.010640336174150616 -0.0034844950173792237 0.0 -0.0008162948448381126 0.0 0.0
0.011422060783176015 -0.0034655479687051315 0.0 -0.0006941034297267088 0.0 0.0
0.010855857277418952 -0.0017348223004956115 0.0 -0.0004972770227662491 0.0 0.0
0.010398185609171684 -0.0013851871771254527 0.0 0.00047314092200401403 0.0 0.0
0.0003471520042666598 -0.00020419897185484925 0.0 -0.0005275871525454393 0.0 0.0
0.0011003183772829335 -6.064882850240899e-06 0.0 -0.00013205037858099 0.0 0.0
0.0013948179579037767 0.00016775018308028654 0.0 -0.00037193618751395034 0.0 0.0
0.001194279329277001 0.0001461910625637601 0.0 0.0005823128687975285 0.0 0.0
0.011758987676285679 -0.0011790580830596947 0.0 -0.0003763182978073012 0.0 0.0
0.01136516294835562 -0.0014490631500292984 0.0 0.00028506973469686285 0.0 0.0
0.010668962677254886 -0.0015573401582210517 0.0 -0.0004031070082742797 0.0 0.0
0.010410782845265136 -0.0013394129691918985 0.0 0.0007997127249941565 0.0 0.0
0.007545454638003835 -0.0023246022174021296 0.0 0.000646788482370581 0.0 0.0
0.019524381491372946 -0.0036748263696599753 0.0 -0.005261399661092169 0.0 0.0
0.012528651621197477 -0.0022787167847402034 0.0 -0.00048146222718263923 0.0 0.0
0.0162036411472171 -0.0030607499559900733 0.0 -0.0007936681706525311 0.0 0.0
0.015882376825066505 -0.004014485372995279 0.0 -0.003107005556911754 0.0 0.0
0.0016580817433737016 -0.004674219093633369 0.0 -0.0006645603709420529 0.0 0.0
0.0011054458085635321 -0.0013297716977952196 0.0 0.0017977263895138217 0.0 0.0
0.0017149751114200473 -0.0026623924057351707 0.0 0.0006984964207828355 0.0 0.0
0.000528611560785576 -0.0023215070006898826 0.0 0.00036383259768161917 0.0 0.0
0.019563670162489402 -0.0036338904618472487 0.0 -0.0049459268224398955 0.0 0.0
0.012548404874520906 -0.0025702116508166672 0.0 7.352469538040793e-06 0.0 0.0
0.015985150331394665 -0.00403113024393848 0.0 -0.0030743310279010734 0.0 0.0
0.010621392825724987 -0.003226658992605144 0.0 0.0004293286299657771 0.0 0.0
0.001664002651577276 -0.004491837305951934 0.0 -0.0002848745894580892 0.0 0.0
0.002198258863555902 -0.0017258897018714702 0.0 0.0024535959648313687 0.0 0.0
0.0004974017923820712 -0.0021245031291059827 0.0 -0.0002190529612538716 0.0 0.0
0.0016407649811352454 -0.004411937282602428 0.0 0.0011090662169248025 0.0 0.0
0.0011507201894934566 -0.0013027676962354413 0.0 -0.0012160396386806734 0.0 0.0
0.0017650035943960543 -0.0029637678840518256 0.0 -0.0009573464654836911 0.0 0.0
0.0004814358395608259 -0.002630358997750446 0.0 -0.00024233303685747146 0.0 0.0
0.00669034353072491 -0.002077358346829523 0.0 0.0010799918910311419 0.0 0.0
0.0067222141380376965 -0.0023729199112382353 0.0 0.0008840563296152199 0.0 0.0
0.01983841007118042 -0.0035998433771827452 0.0 0.005023935917632114 0.0 0.0
0.012512961112439025 -0.0024910312839677116 0.0 0.00043528675412345466 0.0 0.0
0.015981627406624635 -0.002927783640059703 0.0 0.0012278543205465073 0.0 0.0
0.015454212133535948 -0.0035863353544964074 0.0 0.0026374846045040777 0.0 0.0
0.0016720443963321452 -0.004437378356621365 0.0 0.0010819272027428571 0.0 0.0
0.0009272416408199896 -0.0010875157544182282 0.0 -0.001286219538663978 0.0 0.0
0.001686156932720173 -0.0029195476061523243 0.0 -0.0009941099688946528 0.0 0.0
0.0005313219152323981 -0.0025992740531943503 0.0 -0.000335619250686048 0.0 0.0
0.019380341671630386 -0.0034107572784510265 0.0 0.006218493691140661 0.0 0.0
0.01245573686222629 -0.0022226060979465834 0.0 0.001031873942585965 0.0 0.0
0.016528540949120714 -0.003154591595395901 0.0 0.000931845233257525 0.0 0.0
0.015801706057026837 -0.003796758912539451 0.0 0.0027606757738694006 0.0 0.0
0.007199864615686016 -0.003329864187419941 0.0 -0.002264293350523273 0.0 0.0
0.009167080425301993 -0.003637728760679153 0.0 -0.001813727531944019 0.0 0.0
0.00710503816046501 -0.002376695380907074 0.0 -0.003056986130704755 0.0 0.0
0.0071481705623076125 -0.002780535244795939 0.0 -0.0024742887770805608 0.0 0.0
0.007188228461631231 -0.0034898829576411154 0.0 -0.0024703255604402435 0.0 0.0
0.009030278988216619 -0.0036186367073262615 0.0 -0.0017327364824905656 0.0 0.0
0.0070187044706126744 -0.0023913435986281963 0.0 -0.003149105575461192 0.0 0.0
0.007095189036123453 -0.002723917575246775 0.0 -0.0025432327099484493 0.0 0.0
0.008621056776215892 -0.0026319110032240467 0.0 0.00034696692587108253 0.0 0.0
0.0025793265938926224 0.0004579784224851592 0.0 0.00026639827852533663 0.0 0.0
0.0064159068440775985 -0.0017796880406671049 0.0 0.0007782521023280749 0.0 0.0
0.007435091567380134 -0.002306056855035661 0.0 0.0007054150263446253 0.0 0.0
0.006417972209681905 -0.0020406237236440423 0.0 0.0006559075845631844 0.0 0.0
0.008308403427418086 -0.0021606227620289964 0.0 0.0036842467425237807 0.0 0.0
0.006224996788143904 -0.0021576213936971463 0.0 0.0018121862204447028 0.0 0.0
0.0049105406526873535 -0.0021049661566491847 0.0 0.0021582872272219583 0.0 0.0
0.002947079997948146 -0.0006334622903322595 0.0 -0.0028227511037515803 0.0 0.0
0.0029199461855211467 -0.0001840296889841185 0.0 -0.001160620258857761 0.0 0.0
0.002087512550909165 0.0002394784870322483 0.0 -0.0006648251995286705 0.0 0.0
0.010898902512517336 -0.003287291240056285 0.0 -0.0001921758129656108 0.0 0.0
0.010655511118029204 -0.0033931847374454975 0.0 -0.0005229594781564727 0.0 0.0
0.010654092721518474 -0.0033086239315664595 0.0 -0.0005422230572819451 0.0 0.0
0.002874260266405068 -0.0006929273489778721 0.0 -0.0027128470988726176 0.0 0.0
0.010149914744718727 -0.003209851214562139 0.0 0.00015952809491335445 0.0 0.0
0.00953383868615422 -0.002993749280814829 0.0 1.4176537537628417e-05 0.0 0.0
0.010209218570887024 -0.0031514810270308283 0.0 5.994991051219093e-05 0.0 0.0
0.006053391215591827 -0.00242220014504958 0.0 -0.0016202214802997581 0.0 0.0
0.007143841641686417 -0.0023079092515362713 0.0 -0.0009535039812334908 0.0 0.0
0.00983967256873327 -0.0037608131160574536 0.0 0.0007715049271514989 0.0 0.0
0.010014160397429313 -0.0038570029743578704 0.0 0.0017993721347034676 0.0 0.0
0.00843463268594339 -0.0029544061219528087 0.0 0.002013310321408739 0.0 0.0
0.008153221316319917 -0.0031278649036516476 0.0 0.0026257060799694584 0.0 0.0
0.010208383324213866 -0.0034037542306439295 0.0 0.0012232330583328774 0.0 0.0
0.010122127759187187 -0.003083987557100057 0.0 0.0013884297142807093 0.0 0.0
0.0099288111527059 -0.0031837222281842353 0.0 0.0012494603122108101 0.0 0.0
0.010226332893328874 -0.0031537964269193267 0.0 0.0011544523503639603 0.0 0.0
0.008030742317072393 -0.0024987758679145267 0.0 0.0003104253066553344 0.0 0.0
0.008023360954275548 -0.0021352597924721994 0.0 0.0006157270533270007 0.0 0.0
0.008617642562987117 -0.0019149741645207545 0.0 0.00030656594842597487 0.0 0.0
0.002167391827583909 0.0004165949817263627 0.0 0.0003625885303126866 0.0 0.0
0.002518891532499734 0.0004495497785026413 0.0 0.00024242276844162886 0.0 0.0
0.013241805997018866 -0.0017388050402615332 0.0 0.005300455078252778 0.0 0.0
0.01320903339858357 -0.0032338830936869674 0.0 0.004733483027729175 0.0 0.0
0.002233512815908556 -0.0024285899413057054 0.0 -0.0006712147102511754 0.0 0.0
0.0014793911422865532 -0.0020662577403640185 0.0 -0.0006443736892605108 0.0 0.0
0.0022287892081446076 -0.002427237117342304 0.0 -0.0005539015661703761 0.0 0.0
0.0013406389715402423 -0.0019427276707768108 0.0 -0.0005798243432299883 0.0 0.0
0.011941420833842678 -0.0036079283090231715 0.0 -2.141618283789154e-05 0.0 0.0
0.011297312822283273 -0.003383016719429161 0.0 -6.543517681204675e-06 0.0 0.0
0.003457439719092764 -0.00023618693817163694 0.0 0.00027796616306240314 0.0 0.0
0.008655224092603052 -0.0025766629496618565 0.0 0.0005751877671532181 0.0 0.0
0.01026718509523658 -0.0033639821913821304 0.0 -0.0010118058547328914 0.0 0.0
0.010267700283793146 -0.0035196945138295382 0.0 -0.0011525323350463738 0.0 0.0
0.010268454926916713 -0.0033916932438013553 0.0 -0.0010042579686976028 0.0 0.0
0.0033139211042608266 -0.00063082845481666 0.0 -0.0016459005938407722 0.0 0.0
0.002493840940454989 -0.00019394355785425348 0.0 -0.0010931019944073663 0.0 0.0
0.011029532276480639 -0.003342966352772512 0.0 -0.00022162414770683322 0.0 0.0
0.011011960079534824 -0.0034438546700154716 0.0 -0.00038191518425104566 0.0 0.0
0.00879120141939468 -0.0020022968957898457 0.0 -0.0007433166994770652 0.0 0.0
0.008864060873865515 -0.002822950904031781 0.0 -5.438561810227997e-05 0.0 0.0
0.008958888510331595 -0.002936693138024412 0.0 -3.6094027735808845e-05 0.0 0.0
0.0088492683527637 -0.0029308750718186963 0.0 -0.0001935850581014989 0.0 0.0
0.008959052864639522 -0.0028360750706920186 0.0 9.921003560144342e-05 0.0 0.0
0.01432772792394329 -0.0030280837792567086 0.0 -0.0017512086568943785 0.0 0.0
0.011246832301643042 -0.003103744857653388 0.0 -0.0011067890180039217 0.0 0.0
0.01024610308257506 -0.003153898663633345 0.0 -0.0008349483581957893 0.0 0.0
0.014318561587999337 -0.003082965014110664 0.0 -0.0014381458071709603 0.0 0.0
0.011506990125136528 -0.0031790642099284658 0.0 -0.0008628488144241768 0.0 0.0
0.009686957795651055 -0.002252468031341784 0.0 0.0013359437865734652 0.0 0.0
0.009853610964585943 -0.0024310550005510745 0.0 0.0009518363618072293 0.0 0.0
0.002794608729124695 -0.00010113494513961166 0.0 0.0009524807853722155 0.0 0.0
0.002333390435281123 0.00016669689499074908 0.0 0.0007730978714049104 0.0 0.0
0.0028023174230297487 8.414300874414089e-05 0.0 0.0009146649274122277 0.0 0.0
0.01207511549878286 -0.0036429666086770797 0.0 -3.3609782342862215e-05 0.0 0.0
0.011420698716361033 -0.003422344228711127 0.0 0.00011183746868303622 0.0 0.0
0.01135614908391383 -0.0034426611298097164 0.0 -4.143974120011831e-05 0.0 0.0
0.004684191515622355 -0.0022525608817203606 0.0 -0.0030720265852405516 0.0 0.0
0.007070035035918153 -0.0032896104093392033 0.0 -0.002023790307643244 0.0 0.0
0.005927363231012173 -0.0029357128662331386 0.0 -0.0028992103339595997 0.0 0.0
0.005602293858970736 -0.0026415866341368715 0.0 -0.0021196655634549977 0.0 0.0
0.014231213469550766 -0.003032922903827137 0.0 0.0013519451052068608 0.0 0.0
0.011251320479348147 -0.0030770197828539833 0.0 0.0008185408838565955 0.0 0.0
0.003914305887106617 -0.0006888546471384635 0.0 0.00133463345760082 0.0 0.0
0.003384258419069197 -0.0004528855978660831 0.0 0.001367039362977585 0.0 0.0
0.004446240942791765 -0.0009166565425182682 0.0 0.0009508837271487046 0.0 0.0
0.01050150427214519 -0.0020494532173152627 0.0 -0.0010310015999586931 0.0 0.0
0.0029162107046018515 -0.0023826527983996466 0.0 0.0014443842020470665 0.0 0.0
0.00306540929554025 -0.001951087876788226 0.0 0.0024333530911350033 0.0 0.0
0.005143301787223081 -0.0011008441264283506 0.0 -0.0010491021766072788 0.0 0.0
0.005181614386734756 -0.0016773825329410054 0.0 -0.0014582241521930977 0.0 0.0
0.004413054588665609 -0.0010954029923842153 0.0 -0.0011023917398593213 0.0 0.0
0.011295095917100997 -0.0034467622696062877 0.0 -5.1266344026820385e-05 0.0 0.0
0.01070453959515457 -0.0032010482748849184 0.0 -5.8227857364769996e-05 0.0 0.0
0.01030537508597035 -0.003359194818031569 0.0 -0.000990842933494735 0.0 0.0
0.010267136774657556 -0.003227363961369925 0.0 -0.0011255140884130939 0.0 0.0
0.00913393693741452 -0.0025258470342021944 0.0 0.0011417058838468185 0.0 0.0
0.008619665138713099 -0.0026347118375791567 0.0 0.0006477114772467207 0.0 0.0
0.0032650821384013484 -0.00019777298009885768 0.0 0.0005701647131685812 0.0 0.0
0.004070171680804735 -0.00023137164307109742 0.0 0.0003696457643372758 0.0 0.0
0.011225100858405362 -0.003375256489581046 0.0 -9.310461827964764e-05 0.0 0.0
0.011154335611213442 -0.0033908606943656616 0.0 0.00020348419425614647 0.0 0.0
0.011948079597331974 -0.003646731318668446 0.0 -2.962996909186674e-05 0.0 0.0
0.0031243949486090966 -0.00010202677705361402 0.0 0.0009547107920317814 0.0 0.0
0.002852264413120087 0.00015827493562690573 0.0 0.000601334200417759 0.0 0.0
0.010805189668468537 -0.003218150587768245 0.0 -0.00018374190823819262 0.0 0.0
0.012617531592833797 -0.002781487388747247 0.0 -0.0028977657250742637 0.0 0.0
0.012735924573137936 -0.0027467585966273467 0.0 -0.003076227376369275 0.0 0.0
0.004396289861685419 -0.002690895322463924 0.0 0.0017555219867380692 0.0 0.0
0.012794906873894833 -0.0028196216961560235 0.0 0.002969156043612644 0.0 0.0
0.0013757775892479784 0.0001252611725149986 0.0 -0.0004766624973331409 0.0 0.0
0.004429735025445025 -0.0007323454670760364 0.0 0.0001307200270766265 0.0 0.0
0.004450807304941101 -0.0008656193326038149 0.0 0.0005834357998737768 0.0 0.0
0.004848763151087537 -0.0010297068095718384 0.0 0.000317806602771838 0.0 0.0
0.005426078263403689 -0.0010285053819955661 0.0 0.0002894614360520083 0.0 0.0
0.004429735025445025 -0.00047782573319250543 0.0 0.00012120006623691383 0.0 0.0
0.0042352714900538435 -0.00032234717670268434 0.0 0.00037561850961488445 0.0 0.0
0.0035242542854838493 -0.0003138814745233358 0.0 0.0002932082346803033 0.0 0.0
0.009760460722132963 -0.002969732015930926 0.0 -0.00044627095513991716 0.0 0.0
0.00961696882429735 -0.0028584811136715994 0.0 -0.00048235727151881187 0.0 0.0
0.00969153383246809 -0.0029874014982633965 0.0 -0.0010195640451876199 0.0 0.0
0.010067989537609876 -0.003057189298239421 0.0 -0.0009939495134751583 0.0 0.0
0.010677537212802901 -0.003157978125961809 0.0 0.00013031700249161067 0.0 0.0
0.01068328668182289 -0.0034008656269880755 0.0 0.00010404984699700047 0.0 0.0
0.009671387119450835 -0.0026488200131035214 0.0 0.001238824476512232 0.0 0.0
0.009438660098346721 -0.00206665923558658 0.0 0.0010822502663370153 0.0 0.0
0.009222533918041075 -0.002270738097558289 0.0 0.0007540805303472512 0.0 0.0
0.01046133255112769 -0.0031975160782493073 0.0 -0.0004050637083464542 0.0 0.0
0.010117558684603706 -0.0032004143458650713 0.0 -0.0009163387397644017 0.0 0.0
0.010106371258910167 -0.0030110754445334398 0.0 -0.0004330731629200845 0.0 0.0
0.012958411560514499 -0.0029884360240755928 0.0 -0.004504117826358993 0.0 0.0
0.0009712031421008904 -0.0012716377464361724 0.0 0.000847586593920075 0.0 0.0
0.01267104281666906 -0.002830196306301325 0.0 -0.0042848639907806215 0.0 0.0
0.01282133247905138 -0.0029695955006874574 0.0 0.004412054062625456 0.0 0.0
0.010069121317682705 -0.001529416936612956 0.0 -0.00019270657336948986 0.0 0.0
0.0022959158757259873 -0.0006224591807172213 0.0 -0.00161555717471484 0.0 0.0
0.0024256898554202017 -0.00046531906632531206 0.0 -0.0012629288474631474 0.0 0.0
0.001926107380571293 -0.00024636363126200045 0.0 -0.001385955090680029 0.0 0.0
0.007462600460639468 -0.002137331933952935 0.0 0.00029198473422882847 0.0 0.0
0.008748276350365281 -0.0026191949809827725 0.0 0.0005193632662930502 0.0 0.0
0.011535735471670042 -0.0031291682812010016 0.0 0.001345027574514832 0.0 0.0
0.010710893360889059 -0.0024109580267999073 0.0 0.0012709704495451363 0.0 0.0
0.005668782774795128 -0.0014223975727534327 0.0 -6.913221560037944e-06 0.0 0.0
0.006508347504782318 -0.00164782581385221 0.0 0.00032091161367962893 0.0 0.0
0.00585514512278662 -0.0013078342112224656 0.0 0.0005800958982608712 0.0 0.0
0.003170926179301148 0.00012652004450453466 0.0 2.7130723356444553e-05 0.0 0.0
0.003277766103751689 0.00017993713602823015 0.0 0.000405382308308104 0.0 0.0
0.008692961779914694 -0.0007471862606895016 0.0 -0.004562910064986471 0.0 0.0
0.0086755440198686 -0.0007621072638737455 0.0 -0.004575218245108115 0.0 0.0
0.009512522982735238 -0.0021823101654129175 0.0 -0.0011233542275090047 0.0 0.0
0.009513385379013754 -0.0026011053546362434 0.0 -0.0011054611452540816 0.0 0.0
0.011321359850149718 -0.0034146560485171697 0.0 6.562848487715088e-06 0.0 0.0
0.011150120909845962 -0.00341972749765483 0.0 -0.0002978902118786757 0.0 0.0
0.01173633825188459 -0.003523599360793812 0.0 -5.9794383785776546e-05 0.0 0.0
0.00372864684294838 -0.0010411579908002648 0.0 0.0028094516543462223 0.0 0.0
0.00868533646546487 -0.0007288587285111574 0.0 0.004546876087290312 0.0 0.0
0.007002942418619873 -0.0008723674267643611 0.0 0.00404162329844371 0.0 0.0
0.009057748249078908 -0.0008952272666375438 0.0 0.004725857892422875 0.0 0.0
0.002262464221905791 0.0005584691442796177 0.0 6.225057436912932e-05 0.0 0.0
0.004190727610430049 -0.001076737986586862 0.0 -0.0027200382690840573 0.0 0.0
0.004197124442496383 -0.0013120805015301301 0.0 -0.0025215178165785244 0.0 0.0
0.0041764100408813 -0.0010582850957761595 0.0 -0.002659852680348411 0.0 0.0
0.004178482285084578 -0.0012318574656532853 0.0 -0.00259912704141756 0.0 0.0
0.011139826248294953 -0.002587282251111695 0.0 -0.0014219775095257077 0.0 0.0
0.010945781846942526 -0.002957992474241014 0.0 -0.0011417022924520692 0.0 0.0
0.011045830068194692 -0.003179756089997137 0.0 -0.0014784431958258775 0.0 0.0
0.0015333286420109171 -0.0009733372944136648 0.0 -0.0006011246050921445 0.0 0.0
0.0009758059653193069 -0.00038489782362866043 0.0 -0.0013600581717006432 0.0 0.0
0.0029382520217073743 -0.0016252358239395148 0.0 0.002418694630360395 0.0 0.0
0.00491633520690514 -0.0018316857341389332 0.0 0.0021139859966114276 0.0 0.0
0.009296673965570455 -0.0029288399498066976 0.0 0.00019181505964093945 0.0 0.0
0.009544460220847581 -0.0030130290565674282 0.0 -9.414568567173154e-05 0.0 0.0
0.00880147186760827 -0.0021892632693087943 0.0 -0.0005922708630694861 0.0 0.0
0.00869663338295877 -0.002586388357617639 0.0 -3.600743299596483e-05 0.0 0.0
0.00874589982797286 -0.0018327156753619595 0.0 -0.00023908314450447996 0.0 0.0
0.007901712112774451 -0.0018894186762419968 0.0 8.192878254785116e-05 0.0 0.0
0.0024474575109161983 0.0005560116743929637 0.0 -0.00010734978976166976 0.0 0.0
0.002037320631400094 0.0005524901292470498 0.0 -0.00014653796420887287 0.0 0.0
0.002237432620828067 0.0005864761266142922 0.0 3.0814884572513863e-05 0.0 0.0
0.0035557615326204106 -0.0014469073162839876 0.0 0.0021482406306095325 0.0 0.0
0.010829000091913947 -0.0027188420821147932 0.0 0.0013935652431064376 0.0 0.0
0.008647737484555393 -0.0022522327809698173 0.0 0.000477749583608017 0.0 0.0
0.0016840574634626737 0.0004811791102860738 0.0 0.00014991869677696682 0.0 0.0
0.002108107121115893 0.000265662554807004 0.0 0.0004521703226776277 0.0 0.0
0.0019082408988732175 0.00039309577653301973 0.0 -0.00028345970157884863 0.0 0.0
0.011845657387274352 -0.003097808939694441 0.0 -0.00047109600905232687 0.0 0.0
0.011702683507192307 -0.003380467482463536 0.0 -0.0002652506766113293 0.0 0.0
0.01122598410444109 -0.002968628152358807 0.0 -0.0013537250352865567 0.0 0.0
0.0031618192510581566 -0.0018202585005095088 0.0 -0.0026260688767167535 0.0 0.0
0.004693528271032706 -0.001895195854722368 0.0 -0.001993109646840409 0.0 0.0
0.003847744292848662 -0.0016869202769193969 0.0 -0.002396249597159339 0.0 0.0
0.010965096337684464 -0.0033611189194880375 0.0 -0.0003230943909665676 0.0 0.0
0.010454591068226722 -0.0031351301682789184 0.0 -0.00032589093677036843 0.0 0.0
0.010545834097375306 -0.003345739532708874 0.0 -0.0007335929756335444 0.0 0.0
0.008370609297748743 -0.0026378823388205404 0.0 -0.00023068449506247635 0.0 0.0
0.007848343776385464 -0.0023527194716312892 0.0 7.844346357067586e-05 0.0 0.0
0.005683120275521175 -0.0016368456933153787 0.0 0.0009763076872297462 0.0 0.0
0.0061818002797286165 -0.0016108570934040495 0.0 0.0008587938501182155 0.0 0.0
0.004950596536408312 -0.001320523827575082 0.0 0.0007248228870829351 0.0 0.0
0.0030245884307896227 -0.0010810343760679388 0.0 0.001955408034571737 0.0 0.0
0.004109829179206437 -0.0010788604072428324 0.0 0.0018316581556393572 0.0 0.0
0.002574440413027526 0.00044867222655404354 0.0 0.00033158085780858864 0.0 0.0
0.001952260167139938 0.0004370013798975225 0.0 0.00044664044369151223 0.0 0.0
0.012798488784511999 -0.0029352960026638227 0.0 7.269093181667095e-05 0.0 0.0
0.011337275931572167 -0.0022229242521654073 0.0 0.0011108794425210928 0.0 0.0
0.011303130299238151 -0.0026904888472231263 0.0 0.0009396420991788649 0.0 0.0
0.003485185336653443 -0.0016815982299328812 0.0 0.0018177521000989705 0.0 0.0
0.00227174054244704 -0.0009465342917174963 0.0 0.0020479370576178325 0.0 0.0
0.003478114287362735 -0.0009866913843028235 0.0 0.0016345727033851617 0.0 0.0
0.006895893276848572 -0.001982575189626558 0.0 0.0005180848185095304 0.0 0.0
0.00603960098281392 -0.0016246387739158978 0.0 0.00029172402794322774 0.0 0.0
0.006300796024367131 -0.001963928389192557 0.0 0.0005375571159510432 0.0 0.0
0.009222615329095074 -0.0028184636352910717 0.0 -0.0023166834630396274 0.0 0.0
0.006765443972525001 -0.0004879005042800963 0.0 -0.004319861066249396 0.0 0.0
0.009215678064124995 -0.002922396649340901 0.0 -0.002289612352098491 0.0 0.0
0.010170138000531966 -0.003184556774911246 0.0 -0.0014095297633179822 0.0 0.0
0.010501744675947923 -0.0031796269405276884 0.0 -0.0015943572044224501 0.0 0.0
0.00998184731169243 -0.002805826975465435 0.0 -0.0014932142632858008 0.0 0.0
0.010187180866165449 -0.003232955230470007 0.0 -0.001464002951473824 0.0 0.0
0.005778185923924484 -0.0016435741318597194 0.0 -0.001098397381331836 0.0 0.0
0.005150658687025134 -0.0015618341038700079 0.0 -0.0016167269627117824 0.0 0.0
0.004217833954336871 -0.0008906244612371869 0.0 -0.001139349568000607 0.0 0.0
0.005551159988522139 -0.001640286944634469 0.0 -0.0011042775190710872 0.0 0.0
0.00953880934571768 -0.0017720841032834132 0.0 0.000407313794545351 0.0 0.0
0.009907495418827742 -0.002093214345869408 0.0 -0.0005493235317977155 0.0 0.0
0.009295302006778326 -0.002870235670959663 0.0 -0.0022643602862448082 0.0 0.0
0.006735691125589145 -0.000498564521775954 0.0 -0.004251982374439751 0.0 0.0
0.009269523455984037 -0.002921600863697922 0.0 -0.0022127160522772502 0.0 0.0
0.006212518349889872 -0.001863916354127703 0.0 -0.0004292864767989641 0.0 0.0
0.007977116068136642 -0.0025145471897735742 0.0 -0.000320311654211767 0.0 0.0
0.00944624468302549 -0.0027809780253290083 0.0 0.002438328326429418 0.0 0.0
0.006670767051608087 -0.00039375912074575414 0.0 0.004154266673476818 0.0 0.0
0.00931757461298166 -0.002978531196439612 0.0 0.0022255708144605767 0.0 0.0
0.007049826083136819 -0.0024022055553406885 0.0 0.0028154069086547876 0.0 0.0
0.003907489468285327 -0.0009872806743631253 0.0 0.0024608493784268473 0.0 0.0
0.0048042735065865205 -0.0021646933235303983 0.0 0.0027441239219707695 0.0 0.0
0.010402436589755572 -0.00316243096688585 0.0 0.0015907405651916801 0.0 0.0
0.010125896233936699 -0.00331217479702663 0.0 0.0013865819562481453 0.0 0.0
0.008634824268657866 -0.002523800196846053 0.0 0.0005382746696198939 0.0 0.0
0.008551106559404779 -0.0020215953085992 0.0 0.00019856671376005134 0.0 0.0
0.013792867724221594 -0.001943568565542668 0.0 -0.005468608432684773 0.0 0.0
0.008624032666682088 -0.0013467522838226977 0.0 -0.004225789954971091 0.0 0.0
0.002110745261974689 -0.0028866177036992718 0.0 0.0006460762893386431 0.0 0.0
0.0016189301950073898 -0.00028175682663291596 0.0 0.002049380219472148 0.0 0.0
0.013995081274907081 -0.001874103253688475 0.0 -0.005423021831893473 0.0 0.0
0.008553269998691007 -0.0014074016698795069 0.0 -0.00419084675025981 0.0 0.0
0.013876441381990961 -0.0019650300451284977 0.0 0.005443527979660296 0.0 0.0
0.008633574717197737 -0.0014492436943426227 0.0 0.00414251864539474 0.0 0.0
0.008317470966890568 -0.0026318607576394752 0.0 -0.00029582837929444756 0.0 0.0
0.007378460193195602 -0.002415047104603876 0.0 -0.00028901079885536654 0.0 0.0
0.007503242103943 -0.002217614660664457 0.0 -0.00022414507765535288 0.0 0.0
0.007133286573397374 -0.0021762756517468666 0.0 -0.0001554288211852578 0.0 0.0
0.00020015924528404838 -0.0007150860180397678 0.0 0.0001310896167143246 0.0 0.0
0.0013951481714041397 -0.0010207991624201912 0.0 0.0011544444186487434 0.0 0.0
0.0003786234086256002 -0.00101732431995092 0.0 0.0011487408133144389 0.0 0.0
0.0007066291737126418 -0.0007460785843535385 0.0 0.00013381808491791033 0.0 0.0
0.011076779188855884 -0.003326899235122159 0.0 0.00014689970961375906 0.0 0.0
0.011733686789421618 -0.0035353655463370715 0.0 7.221007034391089e-05 0.0 0.0
0.006757278750154974 -0.0019654692613986224 0.0 -0.00014527232555429248 0.0 0.0
0.007612039925298614 -0.0021912877511909646 0.0 0.00023363430320702712 0.0 0.0
0.001161633332008187 5.28436309444498e-05 0.0 0.00036446204396385976 0.0 0.0
0.0014154059812585967 0.0001815409160443593 0.0 0.0005805835377482652 0.0 0.0
0.007772392112771392 -0.0025123207854115762 0.0 0.0003912824375689721 0.0 0.0
0.007328867645266884 -0.00218400625853076 0.0 0.00010552674471782375 0.0 0.0
0.010983782963676775 -0.003694150936512215 0.0 -0.0010944256959459896 0.0 0.0
0.010662104988709786 -0.00393147085837478 0.0 -0.0007864323248414577 0.0 0.0
0.006442351741853328 -0.002790653796080428 0.0 -0.0020584924790499827 0.0 0.0
0.007278930181664853 -0.0027636281632350823 0.0 -0.0012690578847114851 0.0 0.0
0.009091474621419755 -0.0018132270518589344 0.0 0.0007557989777685417 0.0 0.0
0.009235509625319811 -0.002430871589632906 0.0 7.10403538778841e-05 0.0 0.0
0.009094570430230046 -0.002273201254102339 0.0 0.0007609084214369359 0.0 0.0
0.009230821933608066 -0.002030449645613046 0.0 6.608672597997398e-05 0.0 0.0
0.005701358839533779 -0.0026970131931182972 0.0 0.001944989336006669 0.0 0.0
0.007005038044954073 -0.0028247461522687423 0.0 0.0029079969530685403 0.0 0.0
0.013271104858596379 -0.0020779562655941185 0.0 -0.000484274844948947 0.0 0.0
0.012003362128156168 -0.0036102639156353825 0.0 4.3433186143558984e-05 0.0 0.0
0.01148492294143269 -0.0034584882014914394 0.0 -0.00014050393137337138 0.0 0.0
0.01031226380758319 -0.0029173666596930964 0.0 -0.0013680269473235335 0.0 0.0
0.010126915051079627 -0.0026719907504022533 0.0 -0.0016063094196411476 0.0 0.0
0.010559911779930556 -0.003577101111582777 0.0 -0.0012584057914368264 0.0 0.0
0.010481044391655354 -0.0035267028191170863 0.0 -0.0012476355020462349 0.0 0.0
0.006727254018732809 -0.002708200826647106 0.0 -0.0014999872204349719 0.0 0.0
0.006198234522274332 -0.0021170800321930745 0.0 -0.0013080296083863288 0.0 0.0
0.010770246335725486 -0.003436584504627374 0.0 -0.0014183179429382749 0.0 0.0
0.010685522401384366 -0.003384681477323777 0.0 -0.0010755426022648262 0.0 0.0
0.005783269430669397 -0.0019758748128004613 0.0 -0.0017877897211202448 0.0 0.0
0.005181391984223699 -0.001968589070616693 0.0 -0.001793497256336301 0.0 0.0
0.010995975842647089 -0.003305397229206787 0.0 9.711500224302352e-05 0.0 0.0
0.011066295631525655 -0.0034610306478626146 0.0 0.0003464664992092262 0.0 0.0
0.011164630744161005 -0.0034290583203776814 0.0 0.000280367241351916 0.0 0.0
0.0070546671424574214 -0.0019799192539603815 0.0 3.3954750094042204e-05 0.0 0.0
0.006370225180945946 -0.0018077727378846137 0.0 -0.000327784078160291 0.0 0.0
0.007063435397665324 -0.001917108556861306 0.0 -0.00032479011227380845 0.0 0.0
0.0018309992942922015 0.0003483280808660172 0.0 -0.0005298716914133965 0.0 0.0
0.0024671578226675844 0.0003438706744332172 0.0 -0.0004734349114955865 0.0 0.0
0.007769878373820367 -0.0023174886163811748 0.0 0.00023722493580099167 0.0 0.0
0.007771061941296061 -0.0020210104088858594 0.0 0.00027324158860310725 0.0 0.0
0.008384477220039923 -0.0024839101961657353 0.0 -0.00012307352655076742 0.0 0.0
0.010189075618061132 -0.0028416528774988757 0.0 -0.0015611491548990007 0.0 0.0
0.009724449536749707 -0.00275323479562687 0.0 -0.0013717217247317067 0.0 0.0
0.01018706822171369 -0.0030095839751429036 0.0 -0.0015427029381365406 0.0 0.0
0.011404808633482144 -0.0034169791684087597 0.0 -1.1947827431420255e-05 0.0 0.0
0.011381559590261131 -0.0034750746760047538 0.0 -0.0001083163864558992 0.0 0.0
0.011203774125543603 -0.0033537622123431254 0.0 0.00012449685930771004 0.0 0.0
0.009195630195243082 -0.0015517865779256027 0.0 0.00020971668444896797 0.0 0.0
0.009645517622145763 -0.002359085672830788 0.0 0.0003667114766669954 0.0 0.0
0.009189963087758523 -0.002575200406654224 0.0 0.000301041428189337 0.0 0.0
0.011473846575880617 -0.001762743623537344 0.0 0.00011600190475024273 0.0 0.0
0.012130916257082597 -0.0022373449574608294 0.0 0.0004993551469029908 0.0 0.0
0.01085235827334329 -0.001598577069946084 0.0 0.0010856991188079347 0.0 0.0
0.009999370705400221 -0.0017787649287489271 0.0 -0.0010082076109502224 0.0 0.0
0.009995773911149496 -0.0024893902916031663 0.0 -0.0011083656159900403 0.0 0.0
0.0013119399217167843 -0.0001816279608725154 0.0 0.00037092529153015183 0.0 0.0
0.0023497747871345934 -0.0010623030134584537 0.0 0.0014266249059108013 0.0 0.0
0.0013843783543837918 -0.00029306080336131794 0.0 0.001424006719428812 0.0 0.0
0.008072791372221985 -0.00302741126551051 0.0 0.002558068156965609 0.0 0.0
0.004501075152383946 -0.0013213331763129513 0.0 0.0026663896275142297 0.0 0.0
0.004434528403250308 -0.0009931310908460195 0.0 0.0024344163244431546 0.0 0.0
0.007538728907674125 -0.0027015987639849464 0.0 -0.0006877014469106255 0.0 0.0
0.00721885359070612 -0.0022349972941189816 0.0 -0.000560927242067865 0.0 0.0
0.007338288754333955 -0.002238542424826781 0.0 -0.0005963921787543857 0.0 0.0
0.005139665142448624 -0.0015290328560935776 0.0 -0.0008575531922993922 0.0 0.0
0.006356043550816141 -0.002164123579404065 0.0 -0.001073345705432412 0.0 0.0
0.0061298953996684405 -0.0017215953149635026 0.0 -0.0009069286494145252 0.0 0.0
0.00012617884825964765 -0.0007935790189643015 0.0 0.00018085921015235408 0.0 0.0
0.0009341187230915773 -0.00052928673234931 0.0 0.0007391805474273047 0.0 0.0
0.0011793198974119762 -0.0008898526346899013 0.0 0.0011027130438560915 0.0 0.0
0.001408208455275825 -0.0021217051528511833 0.0 0.0012347018159200884 0.0 0.0
0.006875757668639213 -0.0018891399753658417 0.0 0.00023017714192241818 0.0 0.0
0.008108360594255593 -0.0024998507596780753 0.0 0.0002574507249633994 0.0 0.0
0.008174295185567431 -0.0020947983851850177 0.0 0.0006831631069069248 0.0 0.0
0.01689959356637816 -0.00298315690509305 0.0 -0.0006622789712111264 0.0 0.0
0.013858642107995506 -0.001824058233835548 0.0 0.0006329370795788197 0.0 0.0
0.011844597535394482 -0.0013619230816694118 0.0 0.0005859173309099154 0.0 0.0
0.0025308461818465966 0.0005148791568864129 0.0 2.096239880228397e-05 0.0 0.0
0.0028555976932849586 0.0003324541856383721 0.0 0.00018756633367035015 0.0 0.0
0.002658228805437826 0.0003248642391971042 0.0 0.00024860114308635373 0.0 0.0
0.002064490139955466 0.0002721352972879093 0.0 -0.0003505399810563052 0.0 0.0
0.0016096996850113454 0.0004251195712481554 0.0 0.00021905170079515417 0.0 0.0
0.0022024898903135054 0.00046153060254586296 0.0 6.85481977007324e-05 0.0 0.0
0.005103081844393995 -0.0024146974460275902 0.0 0.0027378398596573737 0.0 0.0
0.002043855404044781 -0.001100366852941681 0.0 0.001621591647284813 0.0 0.0
0.013996674751857133 -0.002369780313076709 0.0 -0.000828672966683909 0.0 0.0
0.013865141160203787 -0.0022229011605776096 0.0 -0.0001261344985890615 0.0 0.0
0.016166491357806862 -0.0031105582005005322 0.0 -0.00036844490541953524 0.0 0.0
0.0034218058672385032 -0.00021017241610945397 0.0 -0.0008971257953505566 0.0 0.0
0.0024164313308831925 0.00025721613192837556 0.0 -0.0005592413779885201 0.0 0.0
0.0029692585642560887 -0.00018043022074308405 0.0 -0.0009776300423714676 0.0 0.0
0.0028606590388081943 0.0002257058445621525 0.0 -0.0004805287856251145 0.0 0.0
0.006937077159712701 -0.0030342915817418194 0.0 0.001999509462992783 0.0 0.0
0.006929314147267246 -0.0030627909969860347 0.0 0.002051482680353548 0.0 0.0
0.006919206960723082 -0.0030408703383669883 0.0 0.0020180777801648807 0.0 0.0
0.006945964188086212 -0.0030570573419407762 0.0 0.002033380367712334 0.0 0.0
0.012292905117127067 -0.001923221527733738 0.0 0.0007281486590426933 0.0 0.0
0.013851979054443997 -0.002029733086472439 0.0 -0.0001421653457905252 0.0 0.0
0.002365287359349877 -0.0025803978689670493 0.0 0.0004002077569429212 0.0 0.0
0.01174562036152735 -0.0035438113107723324 0.0 2.035897157052287e-05 0.0 0.0
0.01118949901579211 -0.0033553926419031387 0.0 0.00010471152737915809 0.0 0.0
0.00926558347739621 -0.0025097208936902676 0.0 -0.0004442391810776103 0.0 0.0
0.009272755753216842 -0.001717320912626389 0.0 -0.0005266162590507863 0.0 0.0
0.007769988888942897 -0.002413889736879799 0.0 -0.00010632769735180247 0.0 0.0
0.008320414062456032 -0.002577191942673914 0.0 0.00021706688849727806 0.0 0.0
0.008411848693882236 -0.002614565181655773 0.0 6.754017832885217e-06 0.0 0.0
0.00742488769058304 -0.0021683801172896235 0.0 0.00027478730984194233 0.0 0.0
0.011528902408965286 -0.0017451130945838195 0.0 -0.0009263879184255382 0.0 0.0
0.011375487653003521 -0.001503217000838386 0.0 0.00011125335632978682 0.0 0.0
0.012688352414718948 -0.0020159040633796633 0.0 5.400596825186083e-05 0.0 0.0
0.012481816249719918 -0.0016031879830407266 0.0 -0.0005876831093071298 0.0 0.0
0.0014358816216495096 0.00019403689089278475 0.0 -0.0004138650652573631 0.0 0.0
0.0016544701017153357 -5.288581714227997e-06 0.0 -0.0003544315520137096 0.0 0.0
0.001024568998890002 -0.0002919354730423918 0.0 0.0006370019669205782 0.0 0.0
0.0005787951349850717 -3.0991634450635436e-05 0.0 -0.0005274684146872426 0.0 0.0
0.0020307185431940114 0.0002177403340793277 0.0 -0.0007379563238886534 0.0 0.0
0.0016446534710725588 0.00038810832446308646 0.0 -0.0002033766768452603 0.0 0.0
0.002265382588942849 0.0005134091304195079 0.0 -0.00028028984774197685 0.0 0.0
0.0020604371269968835 0.0005019206508763072 0.0 2.1719325836873013e-05 0.0 0.0
0.002322961873764351 0.0004980218557342556 0.0 4.666293786764579e-05 0.0 0.0
0.002027816265805199 0.0005147009137897868 0.0 -0.00031109199289935593 0.0 0.0
0.002928810101642143 -0.0026376144452910748 0.0 0.0015631562774650921 0.0 0.0
0.0008305496874048829 -0.0016001268956623224 0.0 0.00065488399558314 0.0 0.0
0.00267809607098779 -0.0018675315658024522 0.0 0.0023055715663358907 0.0 0.0
0.012032402175406602 -0.0035869116366617146 0.0 -5.782028206780085e-05 0.0 0.0
0.011384205913385875 -0.0034219149688805364 0.0 0.0001671097898307168 0.0 0.0
0.011299301750920893 -0.00350410693130589 0.0 0.00015931271989677934 0.0 0.0
0.011338549423780542 -0.0034231984311411945 0.0 3.9961940044196814e-05 0.0 0.0
0.010109291497472417 -0.0031241322804298993 0.0 0.0001338563491239922 0.0 0.0
0.010564320370524169 -0.003225923432839374 0.0 -0.00012732374883219714 0.0 0.0
0.009784919375443873 -0.003034563459972106 0.0 -0.0001264879251759235 0.0 0.0
0.011613464427039977 -0.003509972799651635 0.0 -0.00015582392856167832 0.0 0.0
0.011555616707089711 -0.003488992358532625 0.0 0.00015359517013676104 0.0 0.0
0.012054303263710195 -0.003697034994428453 0.0 2.25285507106091e-05 0.0 0.0
0.011199613711614298 -0.0032656026614541196 0.0 -5.9638247468148066e-05 0.0 0.0
0.010759938566937716 -0.0032725265876304543 0.0 0.00016487789403923003 0.0 0.0
0.011176611886300786 -0.0033265967526599494 0.0 -0.0001239339690198571 0.0 0.0
0.01007126335676041 -0.0031861613363974514 0.0 0.00019144612238198092 0.0 0.0
0.010086021615774488 -0.003050695286696284 0.0 0.00013352824702726404 0.0 0.0
0.004413982755063342 -0.000642881143526763 0.0 0.0008244792350338885 0.0 0.0
0.00392377763056484 -0.0006859995259210373 0.0 0.0009962677139635934 0.0 0.0
SCALARS VMStress float 1
LOOKUP_TABLE default
1036.1058375705372
1183.8084266058522
1045.054015464081
985.3796557184355
1046.3145395176784
587.8785841369946
1046.3413507831187
1187.4875624436063
1119.6290210786226
954.8070445368269
1021.7450042243131
978.5793531860771
1138.0423192286619
1066.4445073321392
1103.5352945991353
1089.7437175937603
607.3992472022553
1066.2900940196062
1024.2211319153096
974.777719882989
1162.5044386715972
933.6313187405104
597.7426764274335
591.3095471930887
977.54544387482
978.8494348787291
980.3435535702052
586.1013287358137
1042.4114507911281
1119.8621375681946
1082.9040311778442
748.7012322750807
1002.6497099005286
832.6613806447463
836.7051581540993
1066.0074277821789
1021.8309234920204
1025.2589570385226
1017.2713087416059
918.4579771788239
1061.2148602906839
924.6165643983169
1054.3244947163587
1007.6142939535144
992.1906663121257
1079.6562160246217
688.7394503513754
732.0007631570379
1113.585493849834
753.9757742062374
1067.9142784532792
1013.7029642537542
976.8156553014426
922.5225912559822
903.7457849493481
1034.652289024369
916.7477444165422
796.854226394336
1034.6460754627142
1014.1314434587133
1046.2782239194178
954.6217754739349
778.4967798539107
832.4154175633661
1038.2668643215006
1053.691843521361
926.9279666680537
865.6942759856317
960.972586306412
998.9928664085228
1020.2951420119106
960.2611517737705
1014.2874991351315
1024.8994763459511
931.8776807792356
1045.0744716399183
1028.7342983588399
1014.1980113813923
779.3542772393159
935.4707911978971
905.8108407410349
922.9275166823971
928.8307699948244
898.9498261648346
768.4758204047275
929.5127287958296
1049.3340517463473
1024.304836016133
1040.6749452705976
953.2941251278958
1042.143106881391
1033.9242839757524
810.1244057779284
969.6888105318852
994.2308224766495
987.1225617499059
685.8188954993568
1122.9202579974726
512.541413469357
728.4765904772528
786.7030457418612
967.4574333858901
1027.6732317478459
1025.7913671871922
947.9825161384617
981.1318359474963
934.1183758801083
1032.4955420976194
819.0769071721808
875.5362763897357
1047.299847627396
1049.8653369008694
916.5786558325051
364.7103183277444
923.0762657715101
1032.6978638832422
927.9856006483493
1047.7105125498292
969.9785383726478
986.8828981678648
915.2892547690532
908.8710412157164
1041.6540723296116
1033.1638935754925
980.7971149798026
520.8468206260751
565.270765926975
1039.4506694157442
975.8379158234696
603.4433938085853
895.4753630709778
1062.6550223691345
917.7299079050578
427.1978112421511
1050.0653433750665
1048.3104063999144
985.3303298521953
867.1616875793661
954.5504238047464
878.4557803321125
394.0495888406382
1052.6171683665411
991.5520795962941
839.7042203960536
1049.4391691587161
974.8077044735986
946.8807374068431
948.4217505110186
869.2215881389559
1052.9593432146312
1041.89850718776
1052.5607181746755
844.7001923980031
734.5553674076916
696.4388995526693
1053.0863782085025
947.4380190356688
1050.6771252846925
509.6322449670145
512.662280364965
420.0826797765339
2311.9869782311625
2347.2601601203355
1360.6325120544811
625.346478403364
119.82345473546918
630.3458484787402
109.82101191901148
601.3059258581748
581.0460234672033
2378.0083656048096
1338.4072080695942
2404.88751680639
1043.3378929608837
795.1038459286215
937.1226408032529
976.5059501966284
365.649887737217
1106.1289498096835
1039.911093329961
1050.8727466654063
1005.237153358093
947.1694680523485
1015.4005692053155
1051.9098742363806
969.7183523755903
1018.1077764185854
1038.63389466334
651.5128914581886
1030.1810735831025
1031.521540110266
1035.3929218834655
974.8013258564617
1028.2796838483796
617.1314531779083
723.4454359066325
1011.9175716368103
718.3479874173746
814.6386032639726
1049.4058282622127
1022.3548265705477
1046.210752424978
1040.836361413801
576.6816173560226
671.5610372028837
668.1126632072561
772.3260747581503
1052.6806414915463
1075.6230051544403
1079.8721381598148
1043.2553716356922
1001.6934097317138
1016.0360317545105
1706.1770706927114
1766.7253689103536
1757.5715984324186
299.72086162426126
294.17267294383515
287.40614830317514
277.5781421537607
1009.2795204144549
946.3109011359365
552.1554958258936
473.4304701484244
974.0986922228036
1047.1848237341824
1002.8008716229434
1028.5973604778658
563.2906012466817
604.8235890005207
1001.1300147334308
432.48810581984503
606.8040501712813
1059.8206925789573
987.5453869048181
1038.9543668952183
1057.9837787581278
1037.1055978513484
901.3399891794674
894.1217099626502
972.2248034687406
1071.7817437288234
904.0924543492048
890.4490346485056
950.0698070819701
942.031533893714
1078.8889134370447
933.8581835604207
1077.9349212397456
934.8428431102041
949.2693956653299
931.9390241508229
915.6085440534337
868.5425807323159
1035.9763712464244
1027.2954152499121
1071.3573887344983
1093.0896983968191
1071.572927753096
1087.212642999359
942.4885165520025
924.793530668243
1061.9691122505842
1101.4905132085
795.2869322472641
882.8303485478446
962.9886620653468
1019.2363956023274
781.1525327604293
861.4231694680321
843.1034869987556
924.0631776460881
568.6185508067374
579.3909536900775
854.7470528821386
831.2924757499616
936.6823382030865
992.4012415103738
1074.7662212614123
1008.65785577683
842.4303344056492
1013.9857929165133
1055.2029531698104
965.3807284578847
910.3528665953227
860.7340108471321
837.8240853187868
867.3615162959015
852.1520573768585
976.1686537120215
980.6365392657846
1050.0714319630315
1043.7358868123315
987.308197071987
969.9723646288875
855.5845356702109
870.5492954141082
994.4232025946203
1007.6260835113295
1048.2786130976397
1045.7725526913252
1067.312174125386
1003.5754218975695
884.1889461222574
973.4507001193866
1076.4085452181323
1015.6151975795648
854.8720793820202
841.5955119228038
1086.5583197085928
1022.8945113338342
940.2875254968837
1009.1480266974216
763.026584466664
865.2608964932957
881.7090540922138
1015.3605256523792
987.5975291174993
1046.0962001171995
1042.899883176586
967.592031623891
923.8754196904706
960.0484081441745
959.3841451663283
843.8292003954706
898.8322319444982
940.2011731419343
877.1676358759778
1047.8909441630265
1002.2226756500438
1042.427030071975
1027.4863399498115
1025.2090088823436
1041.6603345708766
1069.2303533586069
1048.1232381473324
1067.0912907857144
751.4687274514256
1042.7504890382036
911.7160514022639
447.58085995354656
712.8329741546545
737.3837858683987
1020.9004365146948
1063.9335496264755
1074.8537721445075
1004.9126266277173
1005.27443710085
1017.5926163412131
1020.3768757518662
876.8868905103241
907.6018628436847
1006.628640503194
1005.7542433524736
520.4885986691147
441.6765881792796
1053.3005781811307
994.762410173693
994.699615995133
529.6850457634079
986.8240285584366
1034.7959507533653
1022.3331591168892
600.3523934655932
663.030254282571
677.8982652983166
402.3475074097318
1294.4594120285049
1276.6434627201656
1281.0931521425143
386.39857546623796
358.6904837794558
1143.7553188232437
1063.968888282074
879.803346622838
889.4324693614082
1104.5726750766607
1058.6257519504227
807.0149257305226
804.7404718247366
1101.2315466221044
1081.3736009720544
1050.7034117149094
1083.5675518971618
817.8707792037685
278.1287780537309
684.7474296383216
276.40198715993245
745.7656843506089
272.8089738547383
271.6690786006315
700.8428314136997
703.0825696392433
277.9911220134398
274.50637939406573
882.0175691667315
898.3162935497996
392.63962395725775
406.20105669553794
387.59092753538044
402.64872278917795
809.4190193311235
816.4449009895524
917.5572396794042
814.5116519142315
817.1990669027297
932.3439458129486
400.3915421775134
536.7516572799602
941.8487545790168
1054.4774347515752
363.0455039866196
414.1888571190048
397.888532154685
451.8841793508662
539.6151051579184
522.5928795502409
450.1137133484784
1049.786065242101
405.79441719732955
654.3369557250707
994.3531973011706
999.973170752437
1037.0493520322466
1133.9970128960217
778.2230313536188
675.6476605394138
780.0966349140173
1123.3067067193113
1188.522165520548
1123.473467707037
1067.2100450020935
1184.149711188211
803.9747772659066
807.0469866020808
1033.6088092364316
1046.6046143149483
1047.8538776263465
1068.2998630662835
1169.0210129882487
1027.9640271629412
1018.8881674126825
1038.173381660843
1011.1929224345132
1046.887985090049
1049.3909083825465
1008.8549031454453
1078.2391078088688
1080.3470038886983
1078.234259138136
1030.9155907626769
1048.9812080392878
1072.4591845059178
1121.8626825765652
1099.6262149371855
536.1312850974803
1102.680251305368
1056.8206617012013
1048.5902043179713
1068.1117030502303
664.9063627248435
716.3999006003951
629.7224401387376
616.778141160041
1057.7994008208027
1060.8838985811783
1097.188384741749
1158.2413678862558
1079.5123020834128
484.99866085060967
973.9721538374862
1020.5521418911845
679.3373326294337
1160.0441692603883
1070.1751702430768
621.0859523710913
1059.0683826448408
1064.4499818288493
1097.0122433814922
1153.5209608783957
1067.9767872126288
612.2361714419346
739.2638379957228
777.2116430620326
695.6165263383218
990.278400991087
1070.9062171120268
897.89547190295
913.7657674554637
501.2469347092265
446.1681283835399
694.8248578734183
737.9790274382112
1046.0090842072623
1059.5060229859182
1045.9245553011658
1064.6506175795637
674.7210111777055
479.70274243448915
441.8656937541654
354.48510229339695
330.5690265908696
863.920992541183
820.437426818018
354.04230184103005
327.63163973743195
325.1315313985028
848.1947047117711
862.1022106826208
352.44219341307837
321.3383904239294
318.3527907952483
839.947024953387
828.2026434654487
870.1156980356282
1134.1459722978398
1109.9972223441187
1145.6476006284863
1101.8304873008346
484.5268953263609
248.96827567560484
252.35869631546612
796.7361192095478
801.9957737297653
1218.6846034611806
488.4896381674613
383.7362439610994
1021.8079374664915
681.33595696034
956.3506321297847
1072.249050259202
949.5577202948618
1080.1150575402817
1100.4551260244518
1117.3730052917726
1067.2642746720924
1069.8871011772428
520.3953714300453
577.3602370655544
546.0110483764083
666.0008676536713
1097.4109451800996
1041.7063320260365
1066.8221723055588
1070.2511293294174
866.0664459665749
958.8185907816666
329.51023039452
401.57584955288087
1054.404372988884
808.6802096141388
491.6684527252178
470.84360999846734
992.8773768950275
1013.0136101315064
852.686665102866
914.875765486295
1024.5945107544203
209.7045480656812
1082.397373219334
1084.3156116505884
262.6364721912803
907.6023636068078
904.6951435030818
1075.562782777744
536.8352000552162
1049.8100548506663
1074.9545874980627
1056.4695698684754
992.776126674404
1020.1224367741979
1027.3581918832538
1061.0978045661905
1044.0760277335037
1024.0891092046945
1023.246203535046
956.109143229821
966.2395772620212
1043.8884943870125
978.3431299391584
944.7097508129759
953.4396260330333
963.3650190945906
539.6219738248568
529.1600057692584
674.7915797439866
739.0522924845652
814.5949041247075
750.1498108564244
1101.412311731536
1070.5012716152737
1083.38344738133
1084.5968757618061
258.98630338890405
918.8038324412481
876.1519261269154
873.1326261647807
873.633696030432
1148.230505901513
234.7977631423323
974.918818751717
1029.6788404551976
245.28493705055567
296.6362358535642
1056.1094331095708
1023.2768393194891
243.0055164207151
266.8951800050614
339.82904228081185
339.7286054018855
912.1099825705347
887.6720581158091
1164.287253171264
810.387691914554
1157.3785441551024
1166.1357134742477
519.4179497121999
409.0726659838762
851.3195264038005
261.5007666090221
250.71294406124846
809.8880235647274
788.9685790150185
914.8092509911285
863.9323876384282
296.12053958494295
256.49141834556787
1112.8483667261994
917.6808746587886
961.8029267999804
914.3897714003225
229.99846529169213
537.5202845823959
1146.865727869284
1104.9378128640387
157.28626914411637
965.2856283293488
989.1438016246731
1089.7956402375107
1089.9238545177784
831.7346025734436
874.9666986025081
1101.9888244401784
1074.1021094925852
979.1249069625677
795.7405212555423
480.8370997635546
1283.3567666900547
463.7176125951567
483.41139032817875
1042.0383190354353
1087.1789285696439
595.728371067416
740.3816475648686
1187.755479593481
246.95680405521344
249.95688691752193
253.4893162043493
248.87056485446482
254.10573902704044
684.8434191458617
793.3668831804633
1169.2196914463761
1121.4349017226973
1116.3851346094875
491.10261405027165
1129.3716850485537
1171.8099862205781
954.8026342915629
913.1588985485071
896.933877984546
885.1052669361914
961.226627808404
914.0959304660228
482.5361655580953
442.90209320523286
492.6122813511428
401.47700186710813
897.4157189442806
900.6033114413037
967.3940732492365
909.9760780467834
931.1191470606761
896.6610963130731
977.5414047631031
1021.1367761658009
1012.6214978249918
567.6311913146129
665.9684396436096
745.3924334598217
1140.929411688155
1135.5276310136694
1148.0474486723
947.3526730190418
944.9817817594328
978.4418352472553
293.4810662465307
297.7942539945328
284.11218172478584
232.72953127267672
576.7608371317967
640.783125563956
664.4897627439967
676.0887458613593
1128.4091624182863
1123.2860365025658
746.4558635144097
821.8135609977205
307.8686390911668
252.4449683944725
320.39236484284817
276.9976591828879
732.6849223296845
821.2543504004719
315.3189240631766
277.406370260613
197.09994214695615
1325.7252165232462
1310.036177123452
1120.8158280634452
746.6585926520288
853.0898530697568
833.8098411635249
797.1053810410182
196.60363238807074
1086.381563499655
1067.932109236377
1093.3781684764629
1052.9991363053437
1214.0150911661556
1138.8931099855852
607.8341052310492
629.9534178321677
1234.7234521197815
351.7778593406133
154.09600827675465
199.24672893170066
1192.0533061877193
1162.5861300088388
1092.1261136432518
1226.171043238212
335.91562976063904
943.7561104097325
984.9848464693224
977.9013487799375
888.6127521098138
244.8595299332872
396.38815569415726
377.7546494553651
260.7958104470543
1071.8931463340882
1106.7353837392855
1115.6717805216842
1021.6079628679609
1052.466335930474
1135.2186479901975
1045.5330463048474
988.5220451014956
998.5511086566753
218.44888731815047
212.50813543362182
1136.3706766116845
1079.9707974247715
1173.828961557055
1048.8089972019777
1075.823144441271
334.73370830215777
282.7108012881907
287.62365229708803
1135.2214864201765
1095.6825175347078
1084.7118908522607
286.8154869663033
372.0595863902794
695.591007337307
615.5797172659908
602.7567826968817
962.693356348187
988.8468290471875
1011.0266842406995
324.1660375777476
382.321439985737
252.0316233538215
240.46323912408747
195.37336878364815
1067.1505002400565
1148.9347826619544
1068.4360241313223
1131.4893777362158
1076.3303870067837
1146.8025214071042
1064.123782932348
1017.1639888371876
79.96508114633167
108.86229499253227
146.95236859824465
141.6401330342391
1147.3791144596462
1109.882439714415
1043.957971320572
1021.7251506590769
760.8038050191896
2039.9886476263955
1230.1139835670808
1593.5663570913969
1626.9162943206359
481.8748001330795
289.7311927010213
313.49010865083864
234.0935962458544
2029.053950810947
1233.8385540685624
1635.5096836961718
1064.5684887864857
458.7047911636777
419.9323763252776
211.81798973215734
472.86115840030607
230.395762838613
350.4821137869809
259.95404372214017
685.8754566390544
691.00860784842
2057.026996481225
1230.796506109413
1575.7523330770662
1565.5688550947762
474.80380836011307
217.97435918538346
345.60505101835577
259.44547968681303
2071.904055209872
1228.5467302223672
1627.0596108027116
1604.7350904330192
812.080471944096
970.5827535020376
823.9763216537178
802.1756777145914
827.1203737846866
955.3803487588722
823.5625566337209
800.1147350261703
864.3557333765447
261.33921226897826
646.9153250124572
751.1072084937312
650.3215301476987
959.2592331029625
674.1984396130998
584.1828195040111
475.02370773229234
323.81990603709136
225.00965137902955
1090.5794150575814
1072.3000798135722
1070.373820113155
459.7721579843372
1018.9576882396008
956.4064594134647
1022.9376750854904
657.7767000255396
729.32599854946
1009.9437564155983
1051.0865352680098
894.885564667115
903.3320573419253
1041.6791170789922
1030.0111550384197
1011.3738956558723
1036.0351472925718
806.1492137094633
800.995473059292
850.4122560696586
223.61443484079012
254.95947921269894
1473.0114703067109
1450.956027582622
323.49608297791747
254.79240524946883
319.1456165655911
235.92364471827497
1194.708440751735
1129.5960105942486
338.90715283140395
868.4748009878161
1042.0660923079301
1048.574707401574
1042.7284736796937
392.27030137785977
283.298654252504
1104.102515650115
1105.531120070697
872.9073449198257
890.1704925980199
901.686292216637
891.7552623755192
899.3739123293527
1429.2205469932544
1128.7123998265454
1032.40920327198
1422.8965605327062
1150.7499552586955
972.778434385879
983.3151023729287
300.5524762864039
251.66156419220889
300.2475891507063
1207.9704689852
1142.0821849674649
1136.4206062494231
641.2785295518613
788.60876695079
737.2141617287185
652.7519162406841
1412.4301443877723
1124.2368504774095
422.7687699845277
377.3025553924972
455.2446466410099
1040.397415315222
403.84740181010204
472.36165275894695
525.3018781624847
556.0410024587677
460.85654061941887
1130.8236580532669
1070.2558549807777
1045.1026354524886
1040.903076035744
921.5529701144155
867.3555865547681
327.09153986270104
399.6577204823839
1122.7486634458764
1116.7500909321716
1196.19856530956
330.1256932666445
291.32240620636793
1080.2842601430898
1301.9301671275239
1319.4323519191014
540.7886273370516
1321.4359268209519
149.89550289831425
433.94469521781826
443.9095655727051
479.1283798354163
533.8940968157711
432.23218320758644
415.6978537949982
345.66717327286426
978.7759132857138
963.2616522534644
980.3966619272195
1016.2788061685908
1066.90848332223
1072.885255762489
975.9460360241833
941.0210366309069
918.0874731002043
1048.837035411748
1022.8197116089227
1011.8276861184445
1412.738310771325
188.5131418511462
1373.4555255796572
1395.4710789060973
984.7551618052864
313.7145247105724
291.56860658194324
263.512852103942
745.1093031425394
877.4443391234407
1160.639021908915
1069.7078652658736
561.388752465983
646.2068536999544
582.3857784898746
310.83809456477866
326.34939794925884
1042.6862022570037
1042.2884678246257
950.5301416777261
957.4822961260624
1132.5387110311922
1117.3813832439887
1173.7201849048179
527.1896083026493
1040.8162106540185
870.0340210673778
1084.4409676487078
231.41935238252182
551.3115053033237
538.541409130998
544.7942173213003
542.330834056244
1115.944060874055
1098.4443083833712
1119.1828310970773
189.47099518047213
206.96429300841476
452.8400666211087
574.4200282133814
933.185698621896
957.924004732053
874.8559256424825
869.1824998623331
861.0930138173882
781.0172574727369
249.21070229544532
210.67854796508522
229.78031261382606
464.4107269542022
1088.3948348086512
860.2315048470241
175.32781197787926
217.81442520290628
196.55879023988106
1177.0219851612917
1168.004460749203
1128.973510593583
491.6846593993585
550.566533112248
511.5609022098061
1098.9476141984835
1046.3329972183258
1063.2268876342046
840.4942367751322
784.8647839523521
581.585881983144
623.8458917914278
501.0845490075719
402.43351198227487
475.2952152674174
261.98200629169355
207.0167924383092
1262.9477141613975
1123.2858805256035
1123.9039772258936
440.1400170337781
359.68722659690667
409.3469130048996
691.1992328953124
601.3668889790036
635.7850299566876
973.6320727120468
875.1020705262563
974.1516223209804
1037.171138231215
1072.073584670967
1013.9093558872719
1041.1765029816795
594.2097897558822
558.6332145941515
441.96938491403375
573.755106535183
937.2700550416698
977.7685488030593
979.0012905457247
866.9873615693082
975.7445831221531
623.8826811791048
801.6002509045193
997.8407702416253
853.7339001670191
981.796304259006
804.609645687747
507.28023120057696
620.2839262977099
1062.52036214585
1035.5669476336695
865.0190604300101
845.1609549528737
1531.7311775907804
1014.0952774184716
348.2969867175465
315.76954201273384
1545.7139630193424
1006.2820728307174
1537.397598538952
1009.5204749283367
835.7808654612422
743.5202471724685
750.1924419328197
714.4347737670333
73.31672216284366
224.22330711994925
184.80858656411226
98.44451734212616
1107.935823879832
1173.744381822847
674.6747834477941
759.863589410282
123.85166040528912
160.47230377821597
783.1346862741692
732.7009348739052
1117.3542654458538
1089.6112473619405
722.2024785112819
761.6964295873797
898.9595806031361
916.7026350986405
906.1845488934381
909.6090539080448
652.855097709006
817.3612607183941
1299.5823973434633
1200.5538952257898
1148.9314408366374
1043.5297103658302
1027.779001411102
1078.802921140726
1070.1245698317355
719.3373043812297
649.7726684423601
1098.0999677758384
1082.1520608277253
630.7745621823873
580.2047654709629
1099.8190323352776
1110.7724708408239
1118.8634866756063
702.6017674392054
636.3288317775182
703.5008539440553
197.41273046055312
253.57841172097855
777.3355747092688
771.7112948053859
837.9226899566677
1035.4927302656022
986.0492907676647
1038.2426226692742
1140.3839563245622
1139.5939559846888
1120.338452855874
900.8270733576853
955.4102911331421
916.0430112683457
1122.023513741488
1191.6429135824312
1070.4247022901795
989.1778385522119
1000.5288281921587
137.33352449431112
310.24637116664326
233.5809257475294
890.4197461334207
572.920372982761
544.3932419476336
770.1597882198562
727.2894454635162
738.9364711287446
526.2384125682239
657.4681703356663
622.3551764363377
81.28624857842532
141.5602552895241
202.5179225702413
291.4728238742518
684.6473898763896
813.0652675617822
815.3833874561577
1658.3966524379562
1355.5542472109257
1157.9109942830435
255.68073726394198
284.13483323817354
265.82275057685064
210.46211953021995
167.94070069217062
223.03258856811763
648.6529207709991
308.3725529665858
1375.0051767321743
1356.633370704895
1587.8360662243863
354.19427584362336
250.42654641894126
317.2911469153864
288.98310844937896
768.0712269458809
770.7597488849603
767.6511508816178
771.1110897095017
1206.2013802734757
1353.8118601477004
334.10880118029206
1175.009040188506
1119.004858610515
922.8836181934473
912.2415796128753
778.9894918632764
834.3601875682497
843.2300653120134
742.1151321248616
1133.8275372043797
1110.6498568549932
1241.255347593704
1220.7976088106252
153.09733239909085
168.3209413863574
132.79013358945505
90.111654696004
223.71319377032768
169.77474340194408
233.26506214770657
210.4428581485071
235.41525616422456
211.8021243960464
425.81143074601715
191.97547271081953
435.2142665907163
1202.765550381357
1138.7846662997613
1132.6937782656587
1134.3447701262867
1013.1310121878265
1057.8263534591972
980.8598116506732
1162.104495432697
1156.2350034497904
1207.2331074966364
1117.9534971616317
1077.2052259133618
1117.2061137393428
1011.191333201139
1009.3087531616621
445.09400567168905
406.7061654340495